Image X[Pixel],Image Y[Pixel],Horizontal Displacement U[Pixel],Vertical Displacement V[Pixel],Correlation Coefficient: R,Sigma,Strain-global frame: Exx,Strain-global frame: Eyy,Strain-global frame: Exy,Maximum Principal Strain: EI,Minimum Principal Strain: EII,Shear Angle Gamma,Von Mises Equivalent Strain,
1000,660,0.669618,-11.203920,0.999996,0.000242,-0.004420,0.007664,-0.001575,0.007866,-0.004622,-82.695395,0.007906,
960,200,0.295225,-14.163917,0.999998,0.000196,-0.001662,0.005778,0.000450,0.005805,-0.001689,86.548367,0.005972,
910,1790,0.501089,-1.398121,0.999997,0.000201,-0.002049,0.006386,-0.000369,0.006402,-0.002065,-87.498657,0.006535,
1040,1280,0.649730,-4.629677,0.999996,0.000253,-0.005471,0.008543,0.002238,0.008892,-0.005820,81.144242,0.009032,
900,1080,2.126305,-7.119066,0.999997,0.000234,-0.003011,0.008465,-0.000736,0.008512,-0.003058,-86.347380,0.008624,
1090,750,0.362787,-11.040208,0.999996,0.000245,-0.004284,0.006536,-0.002947,0.007287,-0.005034,-75.708829,0.007462,
1140,740,0.174549,-11.423427,0.999997,0.000238,-0.002848,0.004606,-0.002716,0.005491,-0.003733,-71.961085,0.005608,
1030,370,0.370310,-13.223060,0.999998,0.000191,-0.002244,0.006140,-0.000283,0.006149,-0.002254,-88.071161,0.006222,
620,900,2.917819,-8.420217,0.999997,0.000203,-0.003312,0.006784,0.000337,0.006795,-0.003323,88.092575,0.006796,
1190,1430,0.073075,-3.036543,0.999998,0.000162,-0.001912,0.004390,0.000706,0.004468,-0.001990,83.689238,0.004477,
1240,1840,-0.008302,-0.926182,0.999998,0.000149,-0.001029,0.005021,-0.000022,0.005021,-0.001029,-89.787644,0.005305,
940,1500,0.803330,-3.331731,0.999997,0.000193,-0.003830,0.007453,0.000883,0.007522,-0.003898,85.554627,0.007524,
620,880,2.884869,-8.557511,0.999997,0.000205,-0.003391,0.006917,0.000383,0.006932,-0.003405,87.873857,0.006932,
1810,2010,-0.168624,-0.166601,0.999997,0.000218,-0.000955,0.006643,0.002735,0.007525,-0.001837,72.126162,0.007846,
800,1400,1.582982,-4.519016,0.999996,0.000226,-0.004420,0.008215,-0.000026,0.008216,-0.004420,-89.881633,0.008223,
1050,1110,1.434620,-6.223478,0.999988,0.000434,-0.005120,0.012276,0.003781,0.013062,-0.005907,78.252720,0.013082,
760,800,2.157375,-9.322471,0.999997,0.000212,-0.004166,0.008091,0.000761,0.008138,-0.004213,86.462242,0.008140,
1040,1320,0.577156,-4.301884,0.999996,0.000246,-0.004939,0.007900,0.002294,0.008298,-0.005336,80.169429,0.008410,
840,1800,0.650419,-1.423641,0.999997,0.000204,-0.002411,0.006768,-0.000569,0.006803,-0.002446,-86.468573,0.006892,
1710,790,-2.157711,-9.393058,0.999997,0.000209,-0.004177,0.008092,-0.000730,0.008136,-0.004221,-86.607707,0.008138,
1750,1190,-2.515268,-6.358405,0.999997,0.000214,-0.003707,0.007557,0.000768,0.007609,-0.003759,86.117705,0.007610,
1140,720,0.176570,-11.513048,0.999997,0.000206,-0.002708,0.004681,-0.002462,0.005427,-0.003453,-73.158005,0.005493,
1670,410,-1.120095,-12.498770,0.999998,0.000201,-0.003517,0.007462,0.000137,0.007464,-0.003519,89.284867,0.007468,
1030,350,0.353444,-13.344742,0.999997,0.000212,-0.002180,0.005958,-0.000286,0.005968,-0.002190,-87.988441,0.006038,
1090,770,0.386533,-10.905299,0.999996,0.000252,-0.004540,0.006787,-0.003078,0.007569,-0.005322,-75.740494,0.007775,
1190,1470,0.078611,-2.856595,0.999998,0.000192,-0.001919,0.004762,0.000490,0.004798,-0.001954,85.825110,0.004825,
660,1260,2.537012,-5.893670,0.999997,0.000226,-0.003765,0.007530,-0.000608,0.007563,-0.003798,-86.929447,0.007563,
1510,30,-0.021228,-15.067310,0.999998,0.000000,-0.000216,0.004868,-0.000664,0.004953,-0.000301,-82.684009,0.005553,
1620,1900,-0.377061,-0.765529,0.999998,0.000190,-0.001534,0.006226,0.001112,0.006382,-0.001690,82.006367,0.006613,
900,1060,2.164956,-7.288150,0.999997,0.000236,-0.002832,0.008395,-0.000481,0.008416,-0.002852,-87.550222,0.008560,
560,1210,3.004141,-6.420653,0.999998,0.000000,-0.003273,0.006819,-0.000068,0.006819,-0.003274,-89.611608,0.006821,
1360,1820,-0.141984,-1.059363,0.999998,0.000160,-0.001194,0.005330,0.000108,0.005332,-0.001195,89.051756,0.005596,
1840,100,-0.619383,-14.469133,0.999996,0.000221,-0.003512,0.007932,-0.001531,0.008133,-0.003714,-82.510070,0.008144,
1790,1610,-1.636119,-3.172885,0.999997,0.000204,-0.003778,0.007580,-0.000126,0.007581,-0.003779,-89.365085,0.007581,
940,1480,0.829739,-3.484379,0.999997,0.000179,-0.004007,0.007562,0.000939,0.007638,-0.004083,85.390233,0.007644,
1410,1590,-0.377651,-2.437007,0.999997,0.000206,-0.002515,0.006075,-0.000720,0.006135,-0.002575,-85.240824,0.006161,
870,1370,1.332274,-4.591856,0.999996,0.000224,-0.004801,0.008561,0.000246,0.008565,-0.004805,88.945471,0.008586,
620,860,2.839956,-8.697470,0.999997,0.000181,-0.003462,0.007087,0.000499,0.007111,-0.003486,87.299140,0.007111,
1260,1400,-0.046795,-3.149596,0.999998,0.000146,-0.001759,0.003980,-0.000581,0.004038,-0.001817,-84.277956,0.004045,
870,1350,1.380977,-4.765341,0.999997,0.000220,-0.004889,0.008633,0.000130,0.008634,-0.004890,89.448064,0.008659,
1310,1770,-0.100191,-1.299494,0.999998,0.000171,-0.001317,0.005322,-0.000017,0.005322,-0.001317,-89.852883,0.005544,
1540,1160,-1.772747,-6.369659,0.999997,0.000201,-0.004498,0.009424,0.001015,0.009498,-0.004571,85.852746,0.009500,
790,590,1.479132,-11.103758,0.999995,0.000246,-0.004206,0.007910,-0.000152,0.007912,-0.004208,-89.282433,0.007917,
760,1000,2.580096,-7.767039,0.999997,0.000211,-0.003161,0.007433,0.000267,0.007439,-0.003168,88.554923,0.007466,
1350,1180,-0.744477,-4.622540,0.999996,0.000243,-0.002372,0.004564,-0.003153,0.005783,-0.003591,-68.861239,0.005840,
1580,1560,-0.942572,-3.041039,0.999997,0.000210,-0.003713,0.007406,-0.000540,0.007432,-0.003739,-87.224522,0.007432,
1500,780,-1.098595,-10.004946,0.999996,0.000256,-0.005644,0.009376,0.000645,0.009403,-0.005672,87.543842,0.009470,
1460,340,-0.404330,-13.367503,0.999997,0.000195,-0.002060,0.006065,0.000087,0.006066,-0.002061,89.383955,0.006169,
1810,300,-1.364722,-13.000718,0.999996,0.000249,-0.003600,0.007593,-0.000183,0.007596,-0.003603,-89.064030,0.007599,
1170,1950,0.022863,-0.391161,0.999998,0.000189,-0.000317,0.004731,-0.000133,0.004734,-0.000321,-88.497438,0.005291,
1710,990,-2.596831,-7.838639,0.999997,0.000222,-0.003187,0.007378,-0.000256,0.007384,-0.003194,-88.611458,0.007406,
1750,1390,-1.978142,-4.791701,0.999997,0.000209,-0.004093,0.007916,0.000237,0.007921,-0.004097,88.870561,0.007922,
1780,430,-1.566218,-12.087185,0.999997,0.000197,-0.003743,0.007595,0.000128,0.007597,-0.003745,89.353343,0.007597,
790,570,1.437398,-11.260555,0.999996,0.000232,-0.004129,0.007902,-0.000193,0.007905,-0.004132,-89.082866,0.007907,
1480,830,-1.166385,-9.617737,0.999994,0.000306,-0.005837,0.009976,0.000472,0.009991,-0.005851,88.290804,0.010039,
610,560,2.127191,-10.915074,0.999997,0.000205,-0.003811,0.007609,0.000002,0.007609,-0.003811,89.991678,0.007609,
630,1000,3.000407,-7.748362,0.999998,0.000172,-0.003203,0.006742,0.000206,0.006747,-0.003207,88.813921,0.006749,
1030,330,0.338574,-13.461791,0.999997,0.000192,-0.002098,0.005969,-0.000162,0.005972,-0.002101,-88.849241,0.006059,
970,800,1.126353,-9.844178,0.999997,0.000212,-0.005723,0.009647,-0.000596,0.009670,-0.005746,-87.783849,0.009728,
1740,190,-0.758781,-13.993018,0.999997,0.000184,-0.002961,0.007316,-0.001030,0.007418,-0.003063,-84.330662,0.007456,
1670,390,-1.082409,-12.647905,0.999997,0.000202,-0.003480,0.007435,0.000114,0.007436,-0.003481,89.399380,0.007441,
800,930,2.356829,-8.312131,0.999998,0.000196,-0.003449,0.007872,0.000805,0.007929,-0.003506,85.954781,0.007947,
1440,430,-0.431468,-12.844591,0.999997,0.000190,-0.002501,0.006195,0.000510,0.006225,-0.002531,86.655627,0.006261,
660,1300,2.430185,-5.591798,0.999997,0.000206,-0.003799,0.007543,-0.000483,0.007563,-0.003819,-87.565010,0.007563,
1130,560,0.206123,-12.291100,0.999998,0.000174,-0.002293,0.005396,-0.000946,0.005510,-0.002408,-83.084979,0.005525,
560,1200,3.028545,-6.489002,0.999997,0.000000,-0.003155,0.006695,-0.000052,0.006695,-0.003156,-89.696733,0.006699,
920,410,0.698858,-12.774136,0.999997,0.000182,-0.003040,0.006854,-0.000341,0.006866,-0.003052,-88.028620,0.006880,
1120,1680,0.191865,-1.820656,0.999998,0.000169,-0.001875,0.005604,0.000295,0.005615,-0.001886,87.741522,0.005715,
1580,40,-0.046576,-15.015350,0.999999,0.000139,-0.000353,0.005006,-0.000979,0.005179,-0.000526,-79.962506,0.005701,
1500,2020,-0.024688,-0.077216,0.999999,0.000000,-0.000254,0.004792,0.000592,0.004860,-0.000322,83.398696,0.005436,
1630,170,-0.438902,-14.249059,0.999997,0.000202,-0.001652,0.006358,-0.001113,0.006510,-0.001804,-82.237832,0.006722,
1840,80,-0.478865,-14.623036,0.999996,0.000242,-0.003399,0.008176,-0.001950,0.008495,-0.003719,-80.690267,0.008517,
900,1040,2.181168,-7.455512,0.999997,0.000224,-0.002711,0.008337,-0.000240,0.008342,-0.002717,-88.756501,0.008509,
1360,1800,-0.157592,-1.171117,0.999998,0.000157,-0.001282,0.005373,0.000056,0.005373,-0.001282,89.516199,0.005613,
1050,500,0.399099,-12.461484,0.999996,0.000224,-0.002714,0.006191,-0.000854,0.006272,-0.002795,-84.573855,0.006284,
1310,220,-0.076615,-14.158594,0.999998,0.000176,-0.000997,0.005137,-0.000056,0.005137,-0.000997,-89.481461,0.005448,
870,1330,1.432094,-4.938378,0.999996,0.000238,-0.004960,0.008717,0.000010,0.008717,-0.004960,89.958115,0.008745,
1610,120,-0.270967,-14.568226,0.999998,0.000193,-0.001194,0.005883,-0.001164,0.006070,-0.001381,-80.893623,0.006364,
1050,1680,0.329571,-1.898831,0.999998,0.000195,-0.002281,0.005994,0.000376,0.006011,-0.002298,87.407023,0.006067,
1410,1570,-0.383926,-2.560983,0.999996,0.000233,-0.002580,0.006144,-0.000800,0.006217,-0.002653,-84.801863,0.006239,
940,1460,0.853922,-3.637597,0.999997,0.000200,-0.004134,0.007669,0.000959,0.007746,-0.004211,85.385820,0.007756,
1260,1380,-0.045442,-3.224141,0.999998,0.000137,-0.001706,0.003737,-0.000686,0.003822,-0.001792,-82.923663,0.003824,
1540,1140,-1.858838,-6.558415,0.999997,0.000212,-0.004124,0.009286,0.001079,0.009372,-0.004210,85.429709,0.009388,
1580,1540,-0.971816,-3.190964,0.999997,0.000209,-0.003800,0.007522,-0.000551,0.007549,-0.003827,-87.221243,0.007549,
1040,1530,0.438075,-2.839439,0.999997,0.000194,-0.003043,0.006364,0.001087,0.006488,-0.003167,83.493359,0.006489,
1430,1760,-0.298837,-1.448031,0.999996,0.000219,-0.001914,0.005805,-0.000035,0.005805,-0.001914,-89.741448,0.005916,
1790,1590,-1.680818,-3.325162,0.999997,0.000203,-0.003835,0.007617,-0.000114,0.007618,-0.003836,-89.428482,0.007618,
1370,1180,-0.794810,-4.927830,0.999994,0.000312,-0.003533,0.006284,-0.003483,0.007394,-0.004643,-72.321824,0.007474,
1500,760,-1.040444,-10.191181,0.999996,0.000246,-0.005506,0.009145,0.000829,0.009192,-0.005552,86.770349,0.009258,
860,690,1.392181,-10.458100,0.999997,0.000194,-0.004786,0.008552,-0.000163,0.008554,-0.004788,-89.298952,0.008575,
1460,830,-1.050654,-9.729796,0.999994,0.000301,-0.005877,0.009896,0.001006,0.009960,-0.005941,86.365050,0.010021,
1310,1750,-0.106773,-1.405244,0.999998,0.000150,-0.001432,0.005348,-0.000067,0.005349,-0.001432,-89.437996,0.005538,
1700,160,-0.550658,-14.251232,0.999996,0.000222,-0.002133,0.006889,-0.001404,0.007103,-0.002346,-81.358677,0.007238,
1130,1960,0.034396,-0.348142,0.999999,0.000150,-0.000445,0.004728,-0.000173,0.004734,-0.000451,-88.090776,0.005226,
1460,320,-0.379925,-13.493884,0.999997,0.000204,-0.001966,0.006113,-0.000006,0.006113,-0.001966,-89.953999,0.006242,
900,1810,0.478870,-1.278721,0.999997,0.000187,-0.002052,0.006393,-0.000474,0.006420,-0.002079,-86.800002,0.006551,
1880,1750,-1.633850,-2.349012,0.999996,0.000245,-0.003639,0.007405,-0.000032,0.007405,-0.003639,-89.835831,0.007406,
620,1190,2.852594,-6.458509,0.999996,0.000281,-0.003447,0.007112,-0.000461,0.007132,-0.003468,-87.502820,0.007133,
1700,140,-0.474989,-14.389240,0.999996,0.000238,-0.001830,0.006609,-0.001498,0.006867,-0.002089,-80.224911,0.007040,
1030,310,0.316221,-13.584368,0.999997,0.000200,-0.001984,0.005889,-0.000093,0.005890,-0.001985,-89.326771,0.005994,
690,1010,2.811862,-7.685495,0.999998,0.000168,-0.003237,0.007175,0.000222,0.007180,-0.003242,88.776828,0.007191,
790,550,1.398811,-11.419840,0.999996,0.000245,-0.004075,0.007858,-0.000236,0.007863,-0.004079,-88.867796,0.007865,
700,750,2.259757,-9.635114,0.999996,0.000228,-0.003999,0.007856,0.000571,0.007884,-0.004027,87.250716,0.007884,
610,1000,3.063078,-7.743981,0.999997,0.000195,-0.003141,0.006584,0.000179,0.006588,-0.003145,88.947656,0.006590,
1570,50,-0.062647,-14.966366,0.999998,0.000163,-0.000381,0.005088,-0.000973,0.005256,-0.000549,-80.200969,0.005778,
1120,1660,0.199941,-1.931343,0.999998,0.000175,-0.001946,0.005551,0.000374,0.005570,-0.001965,87.154922,0.005650,
1440,410,-0.418160,-12.965998,0.999997,0.000205,-0.002383,0.006143,0.000417,0.006163,-0.002404,87.204287,0.006213,
610,500,1.995273,-11.373390,0.999998,0.000172,-0.003761,0.007631,-0.000060,0.007632,-0.003762,-89.696896,0.007632,
1550,2020,-0.029294,-0.078565,0.999998,0.000000,-0.000025,0.004944,0.000951,0.005120,-0.000201,79.522131,0.005799,
1050,700,0.490818,-11.142640,0.999995,0.000270,-0.004324,0.007209,-0.002243,0.007630,-0.004745,-79.372656,0.007705,
1290,600,-0.110380,-12.170960,0.999998,0.000184,-0.002068,0.004765,0.000881,0.004876,-0.002180,82.768647,0.004886,
900,1020,2.184537,-7.623594,0.999997,0.000214,-0.002691,0.008305,0.000151,0.008307,-0.002693,89.212615,0.008476,
590,870,2.964130,-8.583641,0.999996,0.000212,-0.003292,0.006709,0.000211,0.006713,-0.003297,88.790163,0.006714,
1660,1030,-2.462021,-7.541310,0.999996,0.000224,-0.003025,0.007685,0.000025,0.007685,-0.003025,89.867305,0.007743,
1840,60,-0.338178,-14.795505,0.999995,0.000277,-0.003217,0.007672,-0.002107,0.008066,-0.003610,-79.420647,0.008080,
1100,1450,0.285673,-3.158827,0.999998,0.000160,-0.002807,0.005755,0.001495,0.006009,-0.003060,80.375431,0.006009,
560,1300,2.810740,-5.798489,0.999915,0.000000,-0.004343,0.006636,0.000411,0.006652,-0.004359,87.858650,0.006758,
650,610,2.093150,-10.622039,0.999998,0.000191,-0.003872,0.007692,0.000106,0.007693,-0.003873,89.473521,0.007693,
1360,1780,-0.166196,-1.276085,0.999998,0.000176,-0.001374,0.005442,0.000037,0.005443,-0.001374,89.689915,0.005661,
1580,1520,-1.002041,-3.342740,0.999998,0.000196,-0.003866,0.007597,-0.000599,0.007629,-0.003898,-87.017739,0.007629,
1650,1650,-1.041907,-2.540004,0.999997,0.000193,-0.003484,0.007402,-0.000178,0.007405,-0.003487,-89.061611,0.007409,
1410,1550,-0.392573,-2.681674,0.999997,0.000210,-0.002679,0.006182,-0.000866,0.006266,-0.002763,-84.469475,0.006280,
1070,860,0.810263,-10.011807,0.999993,0.000312,-0.005316,0.008553,-0.002669,0.009049,-0.005812,-79.473643,0.009170,
1500,740,-0.989266,-10.372698,0.999996,0.000220,-0.005351,0.008910,0.000978,0.008977,-0.005418,86.094461,0.009041,
1260,1360,-0.042066,-3.294770,0.999998,0.000158,-0.001656,0.003440,-0.000804,0.003563,-0.001779,-81.247105,0.003563,
1610,100,-0.212042,-14.687314,0.999998,0.000188,-0.000952,0.005648,-0.001161,0.005847,-0.001150,-80.306652,0.006195,
610,210,1.219928,-13.562318,0.999997,0.000212,-0.003663,0.007595,0.000283,0.007602,-0.003670,88.562958,0.007604,
1540,1120,-1.933409,-6.742327,0.999997,0.000232,-0.003747,0.009126,0.001062,0.009213,-0.003834,85.315525,0.009256,
1850,1480,-2.150923,-4.311764,0.999998,0.000171,-0.003824,0.007649,0.000018,0.007649,-0.003824,89.911577,0.007649,
1740,1610,-1.447450,-3.050256,0.999997,0.000223,-0.003748,0.007584,-0.000150,0.007586,-0.003750,-89.239776,0.007586,
860,670,1.344246,-10.629263,0.999997,0.000194,-0.004675,0.008418,-0.000253,0.008423,-0.004680,-88.893854,0.008441,
1610,840,-1.881054,-9.119576,0.999996,0.000227,-0.004509,0.008804,-0.000897,0.008864,-0.004569,-86.163441,0.008865,
1740,520,-1.603913,-11.491608,0.999997,0.000222,-0.003935,0.007755,0.000142,0.007757,-0.003937,89.303113,0.007757,
720,1590,1.501087,-3.211004,0.999996,0.000243,-0.003791,0.007641,0.000158,0.007643,-0.003793,89.206641,0.007643,
1770,1840,-0.952112,-1.378855,0.999997,0.000193,-0.003387,0.007537,0.000716,0.007584,-0.003434,86.264258,0.007595,
910,1860,0.360118,-0.960719,0.999996,0.000220,-0.001533,0.006014,-0.000707,0.006080,-0.001599,-84.692346,0.006303,
700,730,2.205231,-9.792362,0.999996,0.000245,-0.004032,0.007799,0.000501,0.007820,-0.004053,87.578993,0.007822,
1570,40,-0.042911,-15.016419,0.999998,0.000168,-0.000269,0.005006,-0.000965,0.005178,-0.000440,-79.950537,0.005741,
690,990,2.799674,-7.828594,0.999997,0.000191,-0.003250,0.007071,0.000202,0.007075,-0.003254,88.878382,0.007082,
1460,300,-0.360447,-13.611617,0.999997,0.000205,-0.001854,0.005989,-0.000074,0.005989,-0.001855,-89.457370,0.006132,
700,1660,1.425994,-2.725861,0.999996,0.000226,-0.003709,0.007596,0.000084,0.007596,-0.003709,89.572791,0.007597,
1790,1790,-1.189796,-1.805725,0.999998,0.000204,-0.003534,0.007574,0.000415,0.007590,-0.003550,87.861233,0.007595,
1600,970,-2.228990,-8.022353,0.999998,0.000184,-0.003100,0.008102,-0.000734,0.008150,-0.003147,-86.264756,0.008220,
1030,290,0.300208,-13.698659,0.999997,0.000194,-0.001872,0.005825,0.000017,0.005825,-0.001872,89.872267,0.005948,
1120,1640,0.204474,-2.041621,0.999998,0.000166,-0.001996,0.005567,0.000429,0.005591,-0.002021,86.764876,0.005662,
1700,120,-0.399646,-14.516937,0.999997,0.000219,-0.001558,0.006548,-0.001727,0.006901,-0.001911,-78.459891,0.007126,
1050,640,0.453595,-11.562917,0.999996,0.000230,-0.003673,0.006689,-0.001802,0.006993,-0.003977,-80.409943,0.007015,
1310,1730,-0.114907,-1.513614,0.999998,0.000172,-0.001512,0.005414,-0.000086,0.005415,-0.001513,-89.291647,0.005588,
1060,350,0.287339,-13.386622,0.999998,0.000214,-0.002060,0.005834,-0.000248,0.005842,-0.002068,-88.202430,0.005924,
1860,1760,-1.531821,-2.215458,0.999997,0.000223,-0.003664,0.007433,0.000025,0.007433,-0.003664,89.872740,0.007433,
1170,1930,0.031509,-0.487552,0.999998,0.000170,-0.000436,0.004813,-0.000129,0.004816,-0.000439,-88.589016,0.005326,
1200,1430,0.055322,-3.027298,0.999998,0.000157,-0.001825,0.004297,0.000531,0.004343,-0.001871,85.078189,0.004357,
1760,1030,-2.778131,-7.543794,0.999997,0.000192,-0.003230,0.007226,0.000043,0.007226,-0.003231,89.764877,0.007239,
580,870,2.996595,-8.566921,0.999998,0.000163,-0.003251,0.006580,0.000124,0.006581,-0.003253,89.278721,0.006581,
610,480,1.950268,-11.526914,0.999997,0.000206,-0.003770,0.007608,-0.000072,0.007609,-0.003770,-89.636515,0.007609,
1130,1300,0.217151,-3.831168,0.999996,0.000236,-0.003298,0.004932,0.002975,0.005895,-0.004261,72.064821,0.006087,
640,1190,2.781623,-6.433017,0.999998,0.000203,-0.003516,0.007235,-0.000587,0.007267,-0.003548,-86.883829,0.007267,
1360,1980,-0.035198,-0.257357,0.999998,0.000162,-0.000261,0.004726,0.000299,0.004743,-0.000278,86.575797,0.005324,
570,1570,2.110858,-3.725601,0.999992,0.000354,-0.003610,0.007696,0.000037,0.007696,-0.003610,89.811348,0.007701,
1580,1730,-0.677602,-1.835433,0.999998,0.000190,-0.002892,0.006898,0.000038,0.006898,-0.002892,89.775465,0.006928,
1670,590,-1.466363,-11.112787,0.999997,0.000205,-0.004180,0.007932,0.000145,0.007934,-0.004182,89.311986,0.007938,
850,2000,0.093859,-0.185138,0.999998,0.000148,-0.000360,0.005313,-0.001185,0.005551,-0.000598,-78.663272,0.006094,
1650,1670,-1.003338,-2.390762,0.999997,0.000194,-0.003446,0.007356,-0.000116,0.007357,-0.003447,-89.382822,0.007362,
1500,720,-0.942133,-10.550397,0.999997,0.000217,-0.005154,0.008710,0.001103,0.008798,-0.005241,85.478041,0.008851,
650,590,2.044354,-10.777536,0.999998,0.000189,-0.003834,0.007706,0.000064,0.007707,-0.003834,89.682364,0.007707,
1830,1100,-2.961443,-7.068194,0.999997,0.000200,-0.003243,0.006784,0.000265,0.006791,-0.003250,88.484579,0.006793,
790,530,1.360016,-11.577429,0.999996,0.000232,-0.003998,0.007780,-0.000262,0.007786,-0.004003,-88.727604,0.007787,
610,190,1.141053,-13.710728,0.999997,0.000218,-0.003664,0.007619,0.000405,0.007633,-0.003679,87.945632,0.007635,
1840,260,-1.350483,-13.221574,0.999996,0.000233,-0.003641,0.007565,-0.000136,0.007567,-0.003643,-89.304211,0.007569,
1580,1500,-1.028152,-3.493687,0.999997,0.000203,-0.003990,0.007688,-0.000618,0.007721,-0.004023,-86.980586,0.007723,
900,1000,2.166381,-7.789278,0.999998,0.000204,-0.002778,0.008345,0.000413,0.008360,-0.002794,87.877792,0.008512,
1860,1780,-1.472247,-2.069946,0.999997,0.000222,-0.003665,0.007381,0.000061,0.007382,-0.003665,89.682765,0.007382,
1540,1100,-2.005802,-6.926091,0.999997,0.000217,-0.003365,0.008923,0.000939,0.008995,-0.003436,85.655834,0.009078,
1260,1560,-0.053600,-2.401651,0.999998,0.000174,-0.001874,0.005162,-0.000271,0.005173,-0.001885,-87.798331,0.005236,
1410,1750,-0.265027,-1.481654,0.999997,0.000219,-0.001897,0.005732,-0.000105,0.005734,-0.001898,-89.213242,0.005842,
640,790,2.598015,-9.233224,0.999997,0.000200,-0.003680,0.007434,0.000516,0.007458,-0.003704,87.347910,0.007458,
1660,490,-1.233701,-11.918259,0.999996,0.000228,-0.003835,0.007627,0.000298,0.007635,-0.003842,88.513691,0.007635,
890,1860,0.394182,-0.975726,0.999997,0.000226,-0.001861,0.006127,-0.000684,0.006186,-0.001919,-85.142495,0.006332,
1460,280,-0.332993,-13.733437,0.999997,0.000203,-0.001731,0.005935,-0.000170,0.005939,-0.001734,-88.726956,0.006108,
1370,220,-0.143467,-14.133098,0.999998,0.000144,-0.001069,0.005257,-0.000154,0.005260,-0.001073,-88.606571,0.005559,
690,970,2.788361,-7.969127,0.999997,0.000202,-0.003308,0.007082,0.000276,0.007089,-0.003315,88.480947,0.007094,
1230,410,0.003843,-13.176685,0.999998,0.000169,-0.001781,0.005274,-0.000032,0.005274,-0.001781,-89.743771,0.005366,
1030,270,0.274587,-13.817202,0.999998,0.000174,-0.001738,0.005719,0.000066,0.005720,-0.001739,89.492303,0.005865,
1740,560,-1.690744,-11.177358,0.999997,0.000221,-0.004000,0.007781,0.000081,0.007781,-0.004000,89.604608,0.007782,
1040,350,0.331479,-13.358942,0.999998,0.000234,-0.002214,0.005924,-0.000315,0.005936,-0.002227,-87.785755,0.005998,
1560,40,-0.041518,-15.016321,0.999999,0.000152,-0.000141,0.004997,-0.000944,0.005165,-0.000309,-79.910335,0.005794,
1070,740,0.439254,-10.972596,0.999995,0.000259,-0.004534,0.007137,-0.002713,0.007737,-0.005133,-77.533194,0.007873,
1640,1610,-1.079495,-2.813013,0.999997,0.000186,-0.003571,0.007436,-0.000277,0.007443,-0.003578,-88.561377,0.007445,
790,280,0.847296,-13.444484,0.999998,0.000176,-0.003173,0.007193,0.000343,0.007204,-0.003185,88.105526,0.007220,
620,840,2.793210,-8.841583,0.999997,0.000183,-0.003506,0.007092,0.000462,0.007112,-0.003526,87.510766,0.007112,
730,260,0.974230,-13.485260,0.999996,0.000223,-0.003165,0.007454,0.000546,0.007482,-0.003193,87.064611,0.007509,
790,1060,2.483865,-7.312747,0.999998,0.000197,-0.003099,0.007566,-0.000270,0.007573,-0.003106,-88.553216,0.007613,
700,1700,1.333286,-2.421961,0.999996,0.000224,-0.003622,0.007557,0.000001,0.007557,-0.003622,89.994707,0.007560,
1770,1820,-1.021321,-1.529788,0.999997,0.000236,-0.003438,0.007567,0.000546,0.007594,-0.003465,87.165084,0.007604,
1580,1700,-0.728789,-2.038496,0.999997,0.000214,-0.003101,0.006820,-0.000132,0.006822,-0.003102,-89.238309,0.006831,
990,1440,0.670794,-3.615665,0.999996,0.000210,-0.004026,0.007395,0.001343,0.007551,-0.004182,83.383255,0.007565,
1740,1290,-2.209614,-5.567992,0.999997,0.000236,-0.004091,0.007979,0.000643,0.008013,-0.004125,86.958563,0.008014,
1890,340,-1.761906,-12.483738,0.999997,0.000209,-0.003711,0.007350,0.000024,0.007350,-0.003711,89.875632,0.007350,
1700,100,-0.314185,-14.651744,0.999997,0.000190,-0.001230,0.006229,-0.001716,0.006605,-0.001606,-77.648367,0.006889,
1310,1710,-0.120798,-1.624254,0.999998,0.000174,-0.001579,0.005440,-0.000124,0.005442,-0.001581,-88.990999,0.005599,
1860,1740,-1.589979,-2.369156,0.999997,0.000213,-0.003668,0.007494,-0.000036,0.007494,-0.003668,-89.817504,0.007495,
1290,580,-0.111630,-12.269018,0.999998,0.000196,-0.002080,0.004929,0.000760,0.005011,-0.002161,83.882764,0.005026,
1500,430,-0.598985,-12.723017,0.999997,0.000189,-0.002888,0.006644,0.000490,0.006669,-0.002913,87.067170,0.006687,
1410,220,-0.188594,-14.113905,0.999998,0.000199,-0.001367,0.005404,-0.000156,0.005408,-0.001371,-88.679302,0.005623,
830,950,2.294877,-8.169289,0.999996,0.000243,-0.003318,0.007941,0.000765,0.007993,-0.003369,86.128991,0.008025,
1220,30,0.003170,-15.071673,0.999999,0.000000,-0.000253,0.004461,0.000052,0.004462,-0.000254,89.362733,0.005012,
1070,1730,0.252191,-1.579467,0.999997,0.000189,-0.001744,0.005723,0.000094,0.005724,-0.001745,89.282312,0.005867,
640,1130,2.890851,-6.855049,0.999998,0.000215,-0.003362,0.006945,-0.000465,0.006966,-0.003383,-87.422585,0.006967,
1300,300,-0.094299,-13.742118,0.999998,0.000145,-0.001328,0.005323,-0.000006,0.005323,-0.001328,-89.949597,0.005541,
880,1510,1.026476,-3.426000,0.999997,0.000190,-0.003946,0.007660,0.000584,0.007689,-0.003975,87.127149,0.007690,
1230,390,0.002408,-13.283138,0.999998,0.000158,-0.001721,0.005299,-0.000026,0.005299,-0.001721,-89.789943,0.005407,
1820,1320,-2.441128,-5.472043,0.999997,0.000203,-0.003786,0.007559,0.000420,0.007575,-0.003802,87.881973,0.007575,
1710,900,-2.454292,-8.521047,0.999997,0.000210,-0.003642,0.007815,-0.000880,0.007882,-0.003709,-85.633901,0.007887,
1720,130,-0.472187,-14.440126,0.999996,0.000230,-0.001697,0.006738,-0.001752,0.007087,-0.002046,-78.719986,0.007295,
1610,1290,-1.631796,-5.334534,0.999995,0.000256,-0.004866,0.008813,0.000418,0.008825,-0.004879,88.253174,0.008842,
1050,740,0.535029,-10.843661,0.999994,0.000254,-0.004865,0.007711,-0.002418,0.008160,-0.005314,-79.480997,0.008283,
1170,1910,0.036579,-0.584307,0.999998,0.000160,-0.000528,0.004851,-0.000127,0.004854,-0.000531,-88.653676,0.005325,
650,570,1.997680,-10.932229,0.999997,0.000194,-0.003819,0.007650,0.000004,0.007650,-0.003819,89.980877,0.007650,
1240,1880,-0.007333,-0.727445,0.999999,0.000146,-0.000813,0.004932,-0.000010,0.004932,-0.000813,-89.901779,0.005289,
1380,1190,-0.766895,-5.003878,0.999992,0.000312,-0.004686,0.007550,-0.003204,0.008338,-0.005475,-76.177764,0.008473,
1030,250,0.257572,-13.926713,0.999998,0.000171,-0.001585,0.005626,0.000127,0.005628,-0.001587,88.989774,0.005804,
1660,1450,-1.456335,-4.103734,0.999995,0.000236,-0.004278,0.007998,-0.000159,0.008000,-0.004281,-89.260212,0.008007,
760,810,2.185874,-9.243035,0.999996,0.000228,-0.004126,0.008039,0.000794,0.008091,-0.004178,86.279159,0.008092,
1770,270,-1.135672,-13.324985,0.999997,0.000209,-0.003567,0.007542,-0.000323,0.007551,-0.003576,-88.336069,0.007555,
1120,1620,0.211050,-2.153554,0.999998,0.000157,-0.002042,0.005563,0.000449,0.005589,-0.002068,86.631768,0.005652,
690,950,2.764761,-8.114435,0.999997,0.000211,-0.003384,0.007224,0.000513,0.007249,-0.003408,87.238094,0.007254,
1340,350,-0.174207,-13.444938,0.999997,0.000202,-0.001799,0.005530,0.000278,0.005540,-0.001809,87.830968,0.005650,
890,100,0.173658,-14.700962,0.999998,0.000195,-0.000975,0.005480,0.000970,0.005623,-0.001117,81.636443,0.005954,
820,280,0.755899,-13.499383,0.999997,0.000221,-0.002684,0.007040,0.000444,0.007060,-0.002704,87.393751,0.007125,
1500,310,-0.454593,-13.505023,0.999996,0.000256,-0.002369,0.006310,0.000044,0.006311,-0.002369,89.709905,0.006376,
1650,1690,-0.961849,-2.241722,0.999997,0.000194,-0.003386,0.007270,-0.000031,0.007270,-0.003386,-89.835856,0.007275,
1530,470,-0.735345,-12.382102,0.999997,0.000197,-0.003399,0.007059,0.000623,0.007096,-0.003436,86.602192,0.007098,
1880,1860,-1.259608,-1.541466,0.999997,0.000207,-0.003634,0.007436,0.000319,0.007446,-0.003643,88.352499,0.007446,
770,1060,2.545995,-7.315085,0.999997,0.000217,-0.003124,0.007476,-0.000270,0.007482,-0.003131,-88.541448,0.007515,
1350,550,-0.243525,-12.312709,0.999997,0.000184,-0.002497,0.005580,0.001073,0.005720,-0.002638,82.557717,0.005726,
830,990,2.360865,-7.852592,0.999997,0.000225,-0.003022,0.007769,0.000410,0.007785,-0.003037,87.828845,0.007847,
990,1420,0.688654,-3.764038,0.999997,0.000199,-0.004252,0.007478,0.001422,0.007648,-0.004422,83.184587,0.007679,
1650,1160,-2.218672,-6.515698,0.999997,0.000264,-0.003782,0.008155,0.000981,0.008235,-0.003862,85.332183,0.008240,
1070,1710,0.266355,-1.693239,0.999998,0.000181,-0.001870,0.005738,0.000186,0.005743,-0.001875,88.597915,0.005857,
620,1130,2.959256,-6.871223,0.999998,0.000155,-0.003305,0.006847,-0.000416,0.006864,-0.003322,-87.655861,0.006865,
730,1410,1.859244,-4.596345,0.999997,0.000192,-0.004134,0.007969,-0.000138,0.007971,-0.004135,-89.346579,0.007973,
1020,1830,0.241158,-1.055109,0.999998,0.000188,-0.001380,0.005592,-0.000249,0.005601,-0.001389,-87.960445,0.005833,
1220,860,0.113530,-11.482487,0.999984,0.000000,-0.009032,0.002556,0.000143,0.002558,-0.009034,89.292249,0.009313,
1350,570,-0.246546,-12.200627,0.999997,0.000188,-0.002583,0.005590,0.001232,0.005772,-0.002764,81.608835,0.005773,
1550,40,-0.041445,-15.015994,0.999999,0.000152,-0.000070,0.004973,-0.000901,0.005129,-0.000226,-80.164786,0.005797,
1230,370,0.002708,-13.388137,0.999998,0.000163,-0.001670,0.005304,-0.000008,0.005304,-0.001670,-89.932763,0.005424,
1780,920,-2.737979,-8.326951,0.999997,0.000181,-0.003416,0.007209,-0.000523,0.007234,-0.003441,-87.189624,0.007237,
840,2000,0.099560,-0.185168,0.999998,0.000171,-0.000299,0.005351,-0.001271,0.005623,-0.000572,-77.890108,0.006190,
1430,160,-0.151046,-14.422880,0.999998,0.000204,-0.001011,0.005302,-0.000379,0.005325,-0.001033,-86.572543,0.005647,
1300,320,-0.097771,-13.634696,0.999998,0.000164,-0.001396,0.005362,0.000029,0.005362,-0.001396,89.752314,0.005563,
660,1510,1.904236,-3.972200,0.999997,0.000190,-0.003870,0.007682,0.000033,0.007682,-0.003870,89.834762,0.007682,
1150,1640,0.144645,-2.007358,0.999999,0.000138,-0.001952,0.005456,0.000351,0.005473,-0.001968,87.296034,0.005544,
1640,980,-2.373063,-7.926484,0.999996,0.000213,-0.003082,0.007754,-0.000511,0.007778,-0.003106,-87.305607,0.007830,
1390,220,-0.165356,-14.125318,0.999998,0.000172,-0.001142,0.005326,-0.000188,0.005331,-0.001148,-88.337499,0.005612,
1050,720,0.509541,-10.996554,0.999997,0.000215,-0.004589,0.007466,-0.002313,0.007894,-0.005018,-79.504814,0.007991,
1290,560,-0.111212,-12.367762,0.999998,0.000172,-0.002085,0.005025,0.000679,0.005089,-0.002149,84.592638,0.005110,
1710,880,-2.404531,-8.678064,0.999997,0.000210,-0.003768,0.007797,-0.000875,0.007863,-0.003833,-85.699765,0.007864,
1820,1340,-2.386686,-5.316872,0.999996,0.000218,-0.003812,0.007607,0.000355,0.007618,-0.003823,88.220259,0.007618,
1740,370,-1.285663,-12.641436,0.999998,0.000215,-0.003665,0.007560,0.000029,0.007560,-0.003665,89.853920,0.007561,
610,170,1.047919,-13.868453,0.999997,0.000198,-0.003669,0.007754,0.000567,0.007783,-0.003697,87.163122,0.007786,
1030,230,0.233115,-14.044919,0.999998,0.000175,-0.001463,0.005596,0.000189,0.005601,-0.001468,88.471304,0.005808,
670,1320,2.338061,-5.420789,0.999997,0.000215,-0.003877,0.007714,-0.000493,0.007735,-0.003898,-87.566495,0.007735,
1890,330,-1.737375,-12.557070,0.999998,0.000181,-0.003671,0.007347,0.000050,0.007347,-0.003671,89.741154,0.007347,
600,1990,0.451152,-0.429874,0.999995,0.000265,-0.003068,0.008536,-0.002413,0.009018,-0.003550,-78.707976,0.009086,
650,550,1.952381,-11.084013,0.999997,0.000188,-0.003831,0.007641,-0.000042,0.007641,-0.003831,-89.789922,0.007641,
1770,250,-1.072236,-13.474785,0.999997,0.000203,-0.003495,0.007563,-0.000440,0.007581,-0.003513,-87.723208,0.007587,
1170,1890,0.043764,-0.682471,0.999998,0.000154,-0.000638,0.004919,-0.000117,0.004921,-0.000641,-88.790649,0.005351,
1120,1600,0.216148,-2.265298,0.999998,0.000161,-0.002066,0.005585,0.000515,0.005620,-0.002101,86.166846,0.005679,
1000,350,0.418182,-13.303558,0.999997,0.000202,-0.002133,0.006121,-0.000165,0.006125,-0.002136,-88.853780,0.006217,
1610,1270,-1.697188,-5.512924,0.999995,0.000268,-0.004826,0.008861,0.000567,0.008885,-0.004849,87.632676,0.008897,
740,810,2.267181,-9.218899,0.999998,0.000183,-0.003991,0.007894,0.000778,0.007945,-0.004042,86.270830,0.007946,
1860,1720,-1.639578,-2.516305,0.999997,0.000205,-0.003642,0.007439,-0.000127,0.007440,-0.003644,-89.342664,0.007441,
1310,1910,-0.045497,-0.584722,0.999998,0.000143,-0.000567,0.004894,0.000149,0.004898,-0.000571,88.434686,0.005356,
700,1190,2.564638,-6.370490,0.999997,0.000222,-0.003683,0.007517,-0.000749,0.007567,-0.003733,-86.189513,0.007568,
1530,450,-0.708979,-12.525224,0.999997,0.000213,-0.003266,0.006987,0.000567,0.007019,-0.003297,86.842727,0.007023,
1680,1400,-1.657443,-4.558068,0.999996,0.000241,-0.004363,0.008157,0.000088,0.008157,-0.004364,89.598058,0.008164,
1210,1700,0.034304,-1.659382,0.999998,0.000141,-0.001605,0.005304,0.000134,0.005307,-0.001608,88.892325,0.005442,
600,1130,3.025033,-6.889155,0.999998,0.000192,-0.003226,0.006703,-0.000343,0.006715,-0.003238,-88.021572,0.006717,
820,260,0.707638,-13.637519,0.999997,0.000219,-0.002580,0.006910,0.000567,0.006944,-0.002613,86.594533,0.007014,
1440,990,-1.753213,-8.081671,0.999992,0.000330,-0.005004,0.013313,0.000852,0.013352,-0.005043,87.342888,0.013485,
730,300,1.089035,-13.184481,0.999998,0.000169,-0.003350,0.007470,0.000287,0.007478,-0.003358,88.480887,0.007491,
860,680,1.367892,-10.544896,0.999997,0.000205,-0.004733,0.008493,-0.000218,0.008496,-0.004737,-89.056920,0.008515,
1670,60,-0.138284,-14.897255,0.999998,0.000187,-0.000835,0.005594,-0.001523,0.005937,-0.001178,-77.324577,0.006286,
640,1510,1.980812,-4.019733,0.999997,0.000193,-0.003815,0.007639,0.000039,0.007640,-0.003815,89.806679,0.007640,
1000,1830,0.269723,-1.068098,0.999999,0.000153,-0.001362,0.005672,-0.000336,0.005688,-0.001378,-87.269117,0.005934,
830,2000,0.103288,-0.187403,0.999998,0.000186,-0.000322,0.005393,-0.001350,0.005696,-0.000625,-77.357484,0.006248,
690,930,2.731201,-8.259500,0.999997,0.000210,-0.003422,0.007266,0.000564,0.007295,-0.003452,86.985091,0.007299,
1070,1690,0.277191,-1.808988,0.999997,0.000191,-0.002013,0.005808,0.000276,0.005818,-0.002023,87.978415,0.005907,
1350,530,-0.242457,-12.426823,0.999997,0.000197,-0.002386,0.005670,0.000946,0.005780,-0.002496,83.394314,0.005798,
720,580,1.745655,-11.015263,0.999996,0.000215,-0.004036,0.007818,-0.000033,0.007818,-0.004036,-89.840306,0.007819,
730,1390,1.907787,-4.757139,0.999997,0.000194,-0.004169,0.007952,-0.000248,0.007957,-0.004174,-88.830527,0.007960,
1050,480,0.390689,-12.584070,0.999996,0.000257,-0.002587,0.006166,-0.000759,0.006232,-0.002653,-85.083430,0.006255,
1300,340,-0.105055,-13.527124,0.999998,0.000155,-0.001499,0.005364,0.000060,0.005365,-0.001499,89.495523,0.005536,
1230,350,0.001702,-13.492303,0.999998,0.000166,-0.001626,0.005285,-0.000004,0.005285,-0.001626,-89.969470,0.005413,
1870,1860,-1.222460,-1.505938,0.999997,0.000224,-0.003646,0.007480,0.000339,0.007490,-0.003656,88.255645,0.007491,
1290,220,-0.059063,-14.160539,0.999998,0.000166,-0.000922,0.005085,-0.000050,0.005086,-0.000923,-89.525434,0.005419,
940,1250,1.312810,-5.449151,0.999996,0.000239,-0.005545,0.009604,0.000032,0.009604,-0.005545,89.877959,0.009643,
1030,210,0.212919,-14.152746,0.999998,0.000183,-0.001322,0.005484,0.000252,0.005493,-0.001332,87.881559,0.005731,
610,150,0.954417,-14.020955,0.999997,0.000202,-0.003689,0.007736,0.000723,0.007781,-0.003734,86.395101,0.007783,
1880,360,-1.776885,-12.360325,0.999998,0.000209,-0.003720,0.007390,0.000042,0.007390,-0.003720,89.783759,0.007391,
1400,420,-0.328897,-12.974982,0.999997,0.000203,-0.002396,0.005946,0.000577,0.005985,-0.002436,86.060318,0.006020,
1780,960,-2.803564,-8.038578,0.999998,0.000175,-0.003350,0.007108,-0.000389,0.007123,-0.003364,-87.871411,0.007126,
1500,290,-0.425922,-13.628094,0.999998,0.000197,-0.002248,0.006192,-0.000072,0.006193,-0.002249,-89.511851,0.006269,
650,1320,2.413935,-5.457417,0.999997,0.000206,-0.003793,0.007615,-0.000417,0.007630,-0.003808,-87.908883,0.007630,
770,1440,1.619540,-4.265138,0.999996,0.000257,-0.004237,0.008013,0.000045,0.008013,-0.004237,89.787795,0.008018,
980,370,0.484571,-13.150665,0.999997,0.000186,-0.002573,0.006350,-0.000301,0.006360,-0.002584,-88.067664,0.006398,
1170,1870,0.048777,-0.781630,0.999998,0.000163,-0.000731,0.004981,-0.000102,0.004983,-0.000732,-88.980498,0.005381,
1630,300,-0.769027,-13.374263,0.999997,0.000182,-0.002725,0.006976,-0.000316,0.006986,-0.002736,-88.139324,0.007041,
1530,430,-0.684137,-12.666621,0.999997,0.000217,-0.003075,0.006876,0.000462,0.006897,-0.003097,87.348391,0.006909,
1820,1360,-2.333348,-5.165121,0.999997,0.000211,-0.003835,0.007592,0.000308,0.007600,-0.003843,88.455863,0.007600,
1880,830,-2.896639,-8.848045,0.999998,0.000179,-0.003393,0.006930,-0.000228,0.006935,-0.003398,-88.732634,0.006936,
1130,1640,0.184541,-2.030194,0.999998,0.000168,-0.002000,0.005546,0.000446,0.005572,-0.002026,86.631743,0.005641,
1290,500,-0.109273,-12.675636,0.999998,0.000146,-0.001970,0.005228,0.000402,0.005251,-0.001992,86.813604,0.005301,
1790,340,-1.393448,-12.747652,0.999997,0.000192,-0.003620,0.007526,-0.000016,0.007526,-0.003620,-89.918942,0.007528,
1120,1580,0.220334,-2.378425,0.999998,0.000171,-0.002114,0.005595,0.000593,0.005640,-0.002159,85.628965,0.005691,
1640,960,-2.336538,-8.086199,0.999996,0.000219,-0.003218,0.007878,-0.000764,0.007930,-0.003271,-86.077585,0.007971,
590,1130,3.056177,-6.901056,0.999998,0.000175,-0.003167,0.006634,-0.000285,0.006642,-0.003176,-88.338743,0.006644,
1900,720,-2.697983,-9.591181,0.999997,0.000000,-0.003718,0.007269,-0.000129,0.007271,-0.003720,-89.325608,0.007271,
1850,500,-1.983602,-11.381697,0.999997,0.000194,-0.003792,0.007623,0.000079,0.007624,-0.003792,89.601371,0.007624,
1610,1230,-1.829215,-5.868390,0.999997,0.000204,-0.004649,0.008847,0.000827,0.008898,-0.004699,86.507762,0.008902,
1610,1250,-1.761861,-5.689012,0.999997,0.000235,-0.004742,0.008867,0.000688,0.008902,-0.004776,87.111472,0.008910,
1810,670,-2.230500,-10.166115,0.999996,0.000226,-0.003869,0.007665,-0.000270,0.007671,-0.003876,-88.660042,0.007671,
650,530,1.908697,-11.239275,0.999997,0.000205,-0.003848,0.007689,-0.000078,0.007689,-0.003849,-89.610403,0.007689,
1710,1800,-0.892334,-1.562509,0.999998,0.000146,-0.002961,0.007349,0.000671,0.007393,-0.003005,86.291920,0.007436,
820,240,0.654194,-13.777087,0.999997,0.000224,-0.002419,0.006859,0.000694,0.006911,-0.002471,85.748341,0.007003,
730,280,1.033638,-13.335501,0.999997,0.000218,-0.003253,0.007482,0.000424,0.007499,-0.003270,87.741931,0.007520,
680,1190,2.639557,-6.390171,0.999996,0.000252,-0.003635,0.007426,-0.000714,0.007472,-0.003681,-86.321493,0.007472,
730,1370,1.961662,-4.916202,0.999997,0.000198,-0.004175,0.007956,-0.000339,0.007965,-0.004184,-88.400582,0.007969,
1770,230,-1.006114,-13.629740,0.999998,0.000182,-0.003422,0.007531,-0.000598,0.007563,-0.003454,-86.882167,0.007573,
1440,970,-1.683111,-8.328602,0.999988,0.000497,-0.004805,0.012596,0.001111,0.012667,-0.004876,86.360697,0.012778,
1270,220,-0.039400,-14.164192,0.999998,0.000149,-0.000975,0.005058,-0.000003,0.005058,-0.000975,-89.974145,0.005367,
1230,330,0.001842,-13.600615,0.999998,0.000153,-0.001546,0.005277,-0.000022,0.005277,-0.001546,-89.812136,0.005426,
690,910,2.699037,-8.405611,0.999997,0.000219,-0.003467,0.007247,0.000549,0.007275,-0.003495,87.075120,0.007277,
1590,1480,-1.102724,-3.680644,0.999997,0.000217,-0.004177,0.007874,-0.000575,0.007901,-0.004204,-87.274484,0.007907,
1110,740,0.275272,-11.235686,0.999996,0.000259,-0.003692,0.005764,-0.002905,0.006585,-0.004513,-74.215545,0.006734,
900,1250,1.528194,-5.579148,0.999994,0.000281,-0.005168,0.009301,-0.000403,0.009312,-0.005179,-88.407496,0.009332,
890,2020,0.034655,-0.078855,0.999998,0.000000,-0.000319,0.005050,-0.000922,0.005204,-0.000473,-80.525994,0.005755,
1330,1490,-0.199538,-2.849820,0.999998,0.000179,-0.002280,0.005364,-0.000960,0.005483,-0.002399,-82.949369,0.005497,
1350,510,-0.240311,-12.538237,0.999998,0.000162,-0.002294,0.005653,0.000784,0.005730,-0.002371,84.423024,0.005758,
1680,1380,-1.708044,-4.724606,0.999996,0.000239,-0.004410,0.008226,0.000169,0.008229,-0.004412,89.233021,0.008236,
1030,1420,0.527383,-3.605332,0.999996,0.000267,-0.003907,0.006956,0.001721,0.007222,-0.004174,81.210302,0.007252,
1500,700,-0.903149,-10.724261,0.999998,0.000210,-0.004997,0.008524,0.001164,0.008623,-0.005097,85.115712,0.008671,
1070,1670,0.289550,-1.925249,0.999998,0.000171,-0.002170,0.005815,0.000369,0.005832,-0.002187,87.357643,0.005892,
940,1440,0.880087,-3.791544,0.999997,0.000222,-0.004255,0.007780,0.000948,0.007854,-0.004329,85.524920,0.007868,
1400,460,-0.349430,-12.731890,0.999997,0.000207,-0.002533,0.006063,0.000726,0.006124,-0.002594,85.207269,0.006148,
590,1320,2.636349,-5.576571,0.999997,0.000210,-0.003657,0.007328,-0.000139,0.007330,-0.003659,-89.276558,0.007330,
1210,580,0.039123,-12.301978,0.999999,0.000140,-0.001833,0.004670,-0.000367,0.004691,-0.001854,-86.777551,0.004725,
610,130,0.845686,-14.178997,0.999997,0.000197,-0.003658,0.007937,0.000990,0.008021,-0.003742,85.157263,0.008027,
1170,1850,0.057012,-0.882148,0.999999,0.000157,-0.000850,0.005067,-0.000099,0.005069,-0.000852,-89.037539,0.005428,
1870,490,-2.037144,-11.410192,0.999997,0.000189,-0.003734,0.007603,0.000048,0.007603,-0.003735,89.757794,0.007604,
1810,650,-2.180007,-10.319035,0.999997,0.000203,-0.003885,0.007721,-0.000197,0.007725,-0.003888,-89.025484,0.007725,
630,480,1.874260,-11.575988,0.999997,0.000230,-0.003789,0.007630,-0.000110,0.007631,-0.003790,-89.447512,0.007631,
1320,1890,-0.060227,-0.686271,0.999998,0.000154,-0.000760,0.004973,0.000115,0.004976,-0.000762,88.852339,0.005360,
1480,290,-0.382270,-13.654018,0.999996,0.000226,-0.001978,0.006084,-0.000117,0.006086,-0.001979,-89.168542,0.006208,
1030,190,0.186153,-14.264003,0.999998,0.000190,-0.001217,0.005411,0.000321,0.005427,-0.001233,87.230988,0.005690,
590,380,1.799823,-12.231969,0.999998,0.000165,-0.003770,0.007397,-0.000094,0.007398,-0.003771,-89.519267,0.007398,
1280,810,-0.129404,-11.445301,0.999996,0.000254,-0.002832,0.002279,0.001877,0.002894,-0.003447,71.851844,0.003703,
1580,970,-2.166352,-8.033429,0.999998,0.000196,-0.003094,0.008284,-0.000771,0.008336,-0.003146,-86.141264,0.008419,
730,1350,2.013391,-5.076081,0.999997,0.000193,-0.004162,0.007987,-0.000411,0.008001,-0.004176,-88.065841,0.008004,
1380,1440,-0.333397,-3.267845,0.999997,0.000210,-0.003086,0.006024,-0.001671,0.006321,-0.003383,-79.925987,0.006326,
1440,1560,-0.473786,-2.688937,0.999997,0.000219,-0.003026,0.006454,-0.000947,0.006548,-0.003120,-84.349119,0.006551,
1900,710,-2.671850,-9.664732,0.999997,0.000000,-0.003731,0.007309,-0.000121,0.007311,-0.003733,-89.373015,0.007311,
1690,1800,-0.833097,-1.527437,0.999998,0.000173,-0.003007,0.007199,0.000575,0.007231,-0.003039,86.786988,0.007262,
1620,40,-0.060809,-15.011210,0.999998,0.000175,-0.000155,0.005092,-0.001295,0.005394,-0.000457,-76.864468,0.005983,
1470,1310,-0.837506,-4.648079,0.999995,0.000260,-0.005407,0.008842,-0.001448,0.008988,-0.005553,-84.254562,0.009070,
830,1980,0.159953,-0.298441,0.999998,0.000160,-0.000593,0.005648,-0.001417,0.005954,-0.000900,-77.786929,0.006419,
1850,1090,-3.032441,-7.145166,0.999997,0.000193,-0.003160,0.006544,0.000079,0.006545,-0.003161,89.533585,0.006546,
1530,880,-1.661272,-8.917322,0.999996,0.000234,-0.004811,0.009598,-0.000871,0.009650,-0.004864,-86.553209,0.009650,
1610,300,-0.714390,-13.406802,0.999997,0.000210,-0.002767,0.006845,-0.000231,0.006850,-0.002772,-88.622888,0.006892,
820,220,0.603164,-13.912359,0.999997,0.000216,-0.002284,0.006692,0.000825,0.006767,-0.002359,84.792648,0.006870,
900,1190,1.755512,-6.140154,0.999997,0.000202,-0.004685,0.009211,-0.000924,0.009273,-0.004746,-86.213313,0.009273,
1600,1610,-0.934819,-2.719671,0.999998,0.000205,-0.003465,0.007301,-0.000342,0.007312,-0.003476,-88.184318,0.007315,
690,890,2.661276,-8.551105,0.999997,0.000223,-0.003554,0.007391,0.000679,0.007433,-0.003596,86.465781,0.007434,
650,510,1.866070,-11.392995,0.999997,0.000235,-0.003839,0.007682,-0.000085,0.007682,-0.003840,-89.578234,0.007682,
830,1060,2.363467,-7.305490,0.999996,0.000214,-0.003003,0.007772,-0.000347,0.007783,-0.003014,-88.159949,0.007849,
1770,210,-0.934076,-13.777002,0.999998,0.000173,-0.003352,0.007509,-0.000770,0.007563,-0.003406,-85.963069,0.007576,
1570,1480,-1.019551,-3.622025,0.999997,0.000212,-0.004116,0.007809,-0.000672,0.007847,-0.004154,-86.785138,0.007851,
1330,1470,-0.199124,-2.953683,0.999998,0.000196,-0.002372,0.005280,-0.001094,0.005433,-0.002525,-82.023582,0.005437,
1230,310,0.001315,-13.705214,0.999998,0.000154,-0.001452,0.005263,-0.000034,0.005263,-0.001452,-89.708354,0.005436,
1200,410,0.055554,-13.163805,0.999998,0.000189,-0.001731,0.005303,-0.000182,0.005307,-0.001735,-88.517368,0.005412,
930,160,0.264287,-14.376485,0.999997,0.000187,-0.001222,0.005748,0.000757,0.005829,-0.001303,83.874931,0.006119,
1070,1650,0.301439,-2.043823,0.999997,0.000199,-0.002284,0.005878,0.000489,0.005908,-0.002313,86.585466,0.005954,
1640,940,-2.296527,-8.241984,0.999997,0.000214,-0.003388,0.007961,-0.000823,0.008020,-0.003447,-85.873287,0.008046,
1120,1560,0.223502,-2.489633,0.999998,0.000159,-0.002188,0.005588,0.000670,0.005645,-0.002246,85.110870,0.005685,
1270,500,-0.072782,-12.687401,0.999998,0.000160,-0.001883,0.005149,0.000272,0.005160,-0.001894,87.787390,0.005220,
1150,220,0.078908,-14.157586,0.999998,0.000157,-0.001026,0.005120,0.000075,0.005121,-0.001027,89.299291,0.005418,
890,30,0.023733,-15.066571,0.999999,0.000000,-0.000322,0.004980,0.000948,0.005144,-0.000486,80.165684,0.005680,
880,1250,1.629885,-5.631814,0.999996,0.000229,-0.004971,0.009118,-0.000557,0.009140,-0.004993,-87.741040,0.009153,
960,290,0.433244,-13.623258,0.999997,0.000202,-0.002265,0.006218,0.000084,0.006219,-0.002266,89.434497,0.006295,
1280,820,-0.155239,-11.429018,0.999996,0.000235,-0.003111,0.002283,0.001564,0.002704,-0.003531,74.946281,0.003694,
580,1320,2.672768,-5.599850,0.999997,0.000226,-0.004145,0.007371,0.000038,0.007372,-0.004145,89.810780,0.007391,
1430,790,-0.728478,-10.312255,0.999995,0.000280,-0.005688,0.008928,0.002074,0.009217,-0.005977,82.078354,0.009351,
1030,170,0.166871,-14.369558,0.999998,0.000182,-0.001060,0.005283,0.000348,0.005302,-0.001079,86.868680,0.005604,
1880,1790,-1.515508,-2.056402,0.999997,0.000238,-0.003686,0.007314,0.000059,0.007314,-0.003686,89.691916,0.007314,
730,1330,2.067833,-5.236327,0.999998,0.000191,-0.004154,0.007986,-0.000495,0.008006,-0.004174,-87.669165,0.008008,
610,110,0.729154,-14.340035,0.999997,0.000196,-0.003578,0.008031,0.001306,0.008176,-0.003723,83.659046,0.008187,
740,170,0.638318,-14.158675,0.999997,0.000222,-0.002334,0.007077,0.001403,0.007282,-0.002539,81.698207,0.007392,
860,750,1.553015,-9.934917,0.999996,0.000277,-0.004936,0.008774,0.000248,0.008779,-0.004940,88.963856,0.008802,
1890,1340,-2.647976,-5.470240,0.999995,0.000260,-0.003654,0.007332,0.000123,0.007333,-0.003655,89.358120,0.007333,
1170,1830,0.061756,-0.985712,0.999998,0.000148,-0.000946,0.005085,-0.000079,0.005086,-0.000947,-89.254271,0.005410,
1680,1360,-1.758293,-4.889129,0.999997,0.000238,-0.004435,0.008215,0.000270,0.008221,-0.004441,88.780071,0.008230,
1300,1830,-0.068524,-0.985630,0.999998,0.000148,-0.000953,0.005112,0.000070,0.005113,-0.000953,89.341163,0.005438,
1470,1290,-0.887578,-4.828883,0.999995,0.000258,-0.005608,0.009094,-0.001321,0.009212,-0.005726,-84.907183,0.009302,
1240,370,-0.014231,-13.386735,0.999997,0.000187,-0.001656,0.005298,0.000081,0.005299,-0.001657,89.330005,0.005421,
650,490,1.820716,-11.547496,0.999997,0.000219,-0.003805,0.007683,-0.000080,0.007684,-0.003805,-89.599203,0.007684,
1380,1420,-0.337313,-3.389524,0.999997,0.000212,-0.003260,0.006062,-0.001870,0.006423,-0.003622,-79.070410,0.006440,
1900,700,-2.646914,-9.738255,0.999997,0.000000,-0.003744,0.007391,-0.000088,0.007392,-0.003744,-89.545122,0.007392,
900,980,2.139218,-7.957085,0.999997,0.000210,-0.002948,0.008467,0.000688,0.008508,-0.002989,86.562694,0.008633,
1810,630,-2.130248,-10.475658,0.999997,0.000204,-0.003889,0.007713,-0.000149,0.007715,-0.003891,-89.264844,0.007715,
1870,600,-2.286838,-10.569443,0.999996,0.000239,-0.003805,0.007641,-0.000028,0.007641,-0.003805,-89.862094,0.007641,
1240,1860,-0.008658,-0.825069,0.999998,0.000172,-0.000925,0.004978,-0.000018,0.004978,-0.000925,-89.822557,0.005295,
1050,800,0.662290,-10.351676,0.999994,0.000303,-0.005672,0.008654,-0.002360,0.009033,-0.006050,-80.883052,0.009205,
1850,1070,-3.044740,-7.275829,0.999998,0.000183,-0.003133,0.006540,0.000127,0.006542,-0.003135,89.247106,0.006544,
880,1190,1.846758,-6.177523,0.999995,0.000259,-0.004490,0.008967,-0.000968,0.009036,-0.004560,-85.906791,0.009037,
810,1060,2.423035,-7.308950,0.999997,0.000206,-0.003036,0.007658,-0.000299,0.007667,-0.003044,-88.401532,0.007721,
690,870,2.614108,-8.703073,0.999996,0.000246,-0.003635,0.007490,0.000740,0.007539,-0.003684,86.213007,0.007540,
1570,720,-1.305956,-10.291837,0.999997,0.000255,-0.005060,0.008821,0.000237,0.008825,-0.005064,89.020555,0.008857,
940,1570,0.728281,-2.828216,0.999997,0.000168,-0.003404,0.007042,0.000715,0.007091,-0.003453,86.100261,0.007092,
1140,1510,0.183926,-2.731086,0.999998,0.000159,-0.002205,0.005323,0.000852,0.005418,-0.002300,83.620754,0.005439,
820,200,0.544230,-14.046795,0.999997,0.000208,-0.002092,0.006633,0.000944,0.006734,-0.002193,83.895976,0.006869,
1440,1600,-0.446321,-2.430222,0.999997,0.000204,-0.002689,0.006338,-0.000676,0.006388,-0.002740,-85.741530,0.006410,
1330,1450,-0.196763,-3.056884,0.999998,0.000180,-0.002453,0.005231,-0.001290,0.005442,-0.002664,-80.717251,0.005442,
1770,190,-0.858556,-13.930631,0.999997,0.000188,-0.003304,0.007470,-0.000934,0.007551,-0.003384,-85.080719,0.007564,
1820,650,-2.217884,-10.298078,0.999998,0.000185,-0.003832,0.007679,-0.000180,0.007682,-0.003835,-89.105958,0.007682,
640,230,1.187413,-13.503671,0.999998,0.000187,-0.003532,0.007644,0.000425,0.007660,-0.003548,87.823637,0.007667,
1130,220,0.101677,-14.149546,0.999998,0.000156,-0.001140,0.005178,0.000033,0.005178,-0.001140,89.700827,0.005441,
1580,1710,-0.711708,-1.971679,0.999997,0.000190,-0.003056,0.006816,-0.000089,0.006817,-0.003056,-89.481410,0.006829,
710,1920,0.566897,-0.753192,0.999997,0.000214,-0.002848,0.007032,-0.001490,0.007252,-0.003068,-81.605693,0.007281,
1230,290,0.002546,-13.810381,0.999999,0.000137,-0.001356,0.005226,-0.000014,0.005226,-0.001356,-89.882161,0.005424,
730,1310,2.122291,-5.396059,0.999997,0.000223,-0.004138,0.007986,-0.000576,0.008014,-0.004165,-87.284515,0.008016,
1470,1270,-0.944582,-5.012672,0.999996,0.000233,-0.005743,0.009301,-0.001193,0.009395,-0.005837,-85.493989,0.009487,
570,640,2.486234,-10.214108,0.999523,0.002537,-0.004935,0.007507,0.000547,0.007531,-0.004959,87.488592,0.007656,
1030,150,0.140599,-14.475704,0.999998,0.000171,-0.000936,0.005263,0.000410,0.005290,-0.000963,86.229931,0.005635,
880,2020,0.039169,-0.079953,0.999998,0.000000,-0.000431,0.005065,-0.000956,0.005227,-0.000593,-80.405999,0.005724,
1770,1220,-2.518690,-6.152394,0.999997,0.000221,-0.003762,0.007533,0.000714,0.007578,-0.003807,86.398324,0.007578,
930,140,0.223990,-14.490217,0.999998,0.000172,-0.001028,0.005556,0.000745,0.005639,-0.001111,83.621749,0.005975,
920,370,0.645674,-13.044036,0.999996,0.000216,-0.002637,0.006654,-0.000085,0.006655,-0.002638,-89.477605,0.006702,
1460,1310,-0.785505,-4.596065,0.999995,0.000249,-0.005378,0.008725,-0.001639,0.008913,-0.005566,-83.457725,0.009004,
1280,1830,-0.049896,-0.981689,0.999999,0.000149,-0.000952,0.005084,0.000032,0.005084,-0.000952,89.700122,0.005405,
1070,1320,0.433669,-4.110694,0.999996,0.000227,-0.004490,0.007086,0.002637,0.007659,-0.005063,77.754885,0.007790,
650,470,1.776997,-11.701580,0.999997,0.000206,-0.003792,0.007628,-0.000123,0.007629,-0.003793,-89.382161,0.007629,
1480,510,-0.607170,-12.229865,0.999997,0.000223,-0.003243,0.006807,0.000867,0.006881,-0.003317,85.106779,0.006882,
1230,270,0.002213,-13.915111,0.999998,0.000141,-0.001276,0.005179,-0.000006,0.005179,-0.001276,-89.946219,0.005397,
900,710,1.243430,-10.402302,0.999995,0.000240,-0.005021,0.008748,-0.000382,0.008759,-0.005032,-88.411564,0.008791,
1900,690,-2.621182,-9.812620,0.999997,0.000000,-0.003748,0.007467,-0.000070,0.007467,-0.003749,-89.642177,0.007467,
820,180,0.488097,-14.177759,0.999997,0.000208,-0.001909,0.006498,0.001019,0.006620,-0.002030,83.187020,0.006782,
730,1290,2.180957,-5.556063,0.999998,0.000204,-0.004100,0.008013,-0.000663,0.008049,-0.004136,-86.877712,0.008050,
1470,1250,-1.007454,-5.200465,0.999995,0.000272,-0.005826,0.009570,-0.001000,0.009635,-0.005891,-86.298514,0.009714,
1050,1320,0.527684,-4.237630,0.999996,0.000228,-0.004801,0.007660,0.002431,0.008117,-0.005258,79.340832,0.008235,
1440,1310,-0.678347,-4.479269,0.999996,0.000228,-0.005258,0.008417,-0.001987,0.008700,-0.005541,-81.897692,0.008808,
1260,1830,-0.029199,-0.979912,0.999999,0.000176,-0.001039,0.005056,-0.000004,0.005056,-0.001039,-89.959317,0.005341,
1840,1030,-3.035730,-7.543202,0.999998,0.000214,-0.003180,0.006784,0.000039,0.006784,-0.003180,89.774410,0.006788,
1170,220,0.061125,-14.159732,0.999998,0.000156,-0.000916,0.005073,0.000063,0.005074,-0.000917,89.395700,0.005407,
1770,170,-0.777822,-14.076545,0.999997,0.000214,-0.003176,0.007422,-0.001182,0.007552,-0.003306,-83.714022,0.007572,
880,30,0.029594,-15.063900,0.999998,0.000000,-0.000344,0.004999,0.000976,0.005172,-0.000516,79.968385,0.005697,
1690,380,-1.131295,-12.680090,0.999998,0.000142,-0.003444,0.007392,0.000052,0.007392,-0.003444,89.722662,0.007398,
1000,1250,0.967931,-5.162810,0.999994,0.000270,-0.005841,0.009518,0.001161,0.009605,-0.005928,85.699965,0.009693,
1030,130,0.118828,-14.579498,0.999998,0.000173,-0.000765,0.005151,0.000417,0.005180,-0.000794,85.991024,0.005580,
580,680,2.531826,-9.929750,0.999995,0.000274,-0.004692,0.007593,0.000066,0.007593,-0.004693,89.693094,0.007663,
1070,1630,0.313668,-2.163381,0.999997,0.000201,-0.002379,0.005933,0.000602,0.005977,-0.002422,85.880637,0.006012,
1300,1890,-0.048783,-0.684056,0.999998,0.000180,-0.000629,0.004952,0.000138,0.004955,-0.000633,88.579615,0.005394,
940,290,0.480111,-13.597302,0.999997,0.000204,-0.002257,0.006357,0.000171,0.006360,-0.002261,88.859982,0.006448,
1900,680,-2.597582,-9.887924,0.999996,0.000000,-0.003745,0.007559,-0.000096,0.007559,-0.003745,-89.514551,0.007560,
1430,770,-0.679509,-10.485077,0.999996,0.000253,-0.005493,0.008587,0.002143,0.008906,-0.005812,81.535891,0.009043,
1670,50,-0.104595,-14.952112,0.999998,0.000149,-0.000707,0.005420,-0.001473,0.005755,-0.001042,-77.160451,0.006133,
1630,320,-0.809264,-13.237546,0.999998,0.000176,-0.002843,0.007001,-0.000168,0.007004,-0.002846,-89.023931,0.007044,
1500,900,-1.611386,-8.813748,0.999996,0.000262,-0.004844,0.010003,-0.000734,0.010039,-0.004881,-87.176404,0.010040,
870,1700,0.768985,-2.065547,0.999996,0.000218,-0.003065,0.006896,0.000066,0.006896,-0.003066,89.623132,0.006911,
580,1130,3.089034,-6.910565,0.999998,0.000151,-0.003033,0.006540,-0.000227,0.006545,-0.003038,-88.639828,0.006551,
1600,950,-2.186432,-8.185013,0.999997,0.000230,-0.003337,0.008215,-0.000828,0.008274,-0.003396,-85.919059,0.008318,
1340,880,-0.772686,-10.630475,0.999996,0.000235,-0.001903,0.003793,0.003042,0.005113,-0.003222,66.556153,0.005170,
750,130,0.460434,-14.438598,0.999998,0.000173,-0.001618,0.006693,0.001736,0.007042,-0.001966,78.662388,0.007267,
1240,1830,-0.007755,-0.977757,0.999999,0.000115,-0.001088,0.005041,-0.000022,0.005041,-0.001088,-89.792093,0.005305,
1780,1290,-2.368649,-5.630755,0.999996,0.000234,-0.003875,0.007668,0.000586,0.007697,-0.003905,87.101005,0.007698,
1170,1810,0.068444,-1.087445,0.999998,0.000146,-0.001066,0.005164,-0.000089,0.005165,-0.001067,-89.178491,0.005453,
980,1250,1.084106,-5.272270,0.999995,0.000276,-0.005800,0.009680,0.000752,0.009717,-0.005837,87.224170,0.009782,
980,1900,0.191976,-0.688240,0.999997,0.000201,-0.001079,0.005476,-0.000560,0.005523,-0.001127,-85.150285,0.005837,
870,2020,0.045753,-0.080673,0.999998,0.000000,-0.000389,0.005078,-0.000997,0.005254,-0.000566,-79.978226,0.005769,
1890,1540,-2.166831,-3.946132,0.999998,0.000173,-0.003739,0.007580,-0.000012,0.007580,-0.003739,-89.936956,0.007580,
1290,640,-0.106183,-11.984634,0.999998,0.000174,-0.002070,0.004457,0.001162,0.004658,-0.002271,80.203143,0.004658,
720,730,2.123034,-9.826273,0.999997,0.000206,-0.004125,0.007887,0.000541,0.007911,-0.004150,87.425261,0.007914,
1210,240,0.024555,-14.064594,0.999999,0.000168,-0.001118,0.005078,-0.000013,0.005078,-0.001118,-89.878663,0.005336,
1640,920,-2.250046,-8.406636,0.999997,0.000222,-0.003584,0.008196,-0.000984,0.008277,-0.003666,-85.259383,0.008295,
940,1420,0.906659,-3.947084,0.999997,0.000204,-0.004450,0.007902,0.000960,0.007976,-0.004524,85.582645,0.008000,
880,2010,0.059353,-0.130680,0.999998,0.000156,-0.000479,0.005143,-0.000985,0.005310,-0.000646,-80.346966,0.005795,
650,450,1.734391,-11.853365,0.999997,0.000200,-0.003802,0.007574,-0.000114,0.007575,-0.003803,-89.426528,0.007575,
1120,1540,0.225914,-2.600317,0.999997,0.000183,-0.002272,0.005573,0.000757,0.005645,-0.002345,84.537940,0.005672,
1380,1400,-0.343780,-3.518791,0.999996,0.000222,-0.003411,0.006157,-0.002026,0.006568,-0.003822,-78.521008,0.006598,
740,490,1.475820,-11.766293,0.999998,0.000182,-0.003857,0.007686,-0.000182,0.007688,-0.003860,-89.097655,0.007688,
1850,1050,-3.056496,-7.409224,0.999998,0.000182,-0.003139,0.006640,0.000202,0.006644,-0.003143,88.815004,0.006648,
1810,610,-2.078834,-10.629601,0.999997,0.000198,-0.003880,0.007702,-0.000097,0.007703,-0.003880,-89.522182,0.007703,
570,1000,3.180987,-7.732935,0.999983,0.000515,-0.002512,0.006066,0.000075,0.006067,-0.002513,89.497253,0.006096,
610,660,2.368623,-10.150148,0.999996,0.000247,-0.003800,0.007536,0.000183,0.007539,-0.003803,89.074426,0.007539,
1580,1610,-0.869483,-2.675442,0.999998,0.000203,-0.003352,0.007165,-0.000369,0.007178,-0.003365,-87.991905,0.007183,
860,660,1.321563,-10.711720,0.999997,0.000203,-0.004621,0.008350,-0.000286,0.008357,-0.004627,-88.735301,0.008373,
1540,1300,-1.243221,-5.042538,0.999996,0.000223,-0.005338,0.009130,-0.000294,0.009136,-0.005344,-88.837470,0.009180,
820,160,0.427636,-14.307868,0.999997,0.000195,-0.001676,0.006408,0.001169,0.006574,-0.001841,81.932149,0.006783,
1120,1510,0.227896,-2.765294,0.999998,0.000144,-0.002395,0.005524,0.000948,0.005636,-0.002507,83.267607,0.005648,
1280,1890,-0.035833,-0.682121,0.999999,0.000157,-0.000669,0.004935,0.000086,0.004936,-0.000671,89.124257,0.005355,
1280,800,-0.105687,-11.469146,0.999997,0.000224,-0.002574,0.002367,0.001986,0.003066,-0.003273,70.604915,0.003666,
980,750,0.922702,-10.361715,0.999996,0.000219,-0.005437,0.008979,-0.001180,0.009075,-0.005533,-85.352207,0.009147,
810,320,0.877109,-13.196311,0.999997,0.000207,-0.003146,0.007157,0.000129,0.007159,-0.003147,89.280118,0.007176,
1540,40,-0.041389,-15.016604,0.999998,0.000175,-0.000073,0.004932,-0.000829,0.005066,-0.000207,-80.833197,0.005734,
730,1270,2.238210,-5.718967,0.999997,0.000213,-0.004033,0.007909,-0.000729,0.007953,-0.004077,-86.518807,0.007954,
1430,750,-0.633469,-10.657280,0.999996,0.000274,-0.005225,0.008273,0.002167,0.008612,-0.005565,81.098881,0.008734,
970,1440,0.753089,-3.687359,0.999997,0.000193,-0.004225,0.007593,0.001223,0.007719,-0.004350,84.154039,0.007739,
1560,180,-0.340230,-14.244807,0.999998,0.000182,-0.001500,0.005970,-0.000733,0.006041,-0.001572,-84.450146,0.006268,
1240,1900,-0.007111,-0.628161,0.999998,0.000154,-0.000691,0.004877,0.000008,0.004877,-0.000691,89.916473,0.005278,
1230,250,0.002847,-14.018028,0.999999,0.000137,-0.001161,0.005113,0.000005,0.005113,-0.001161,89.954654,0.005361,
1460,480,-0.523631,-12.476552,0.999997,0.000207,-0.003050,0.006596,0.000832,0.006667,-0.003121,85.103471,0.006672,
690,850,2.565479,-8.852025,0.999996,0.000236,-0.003692,0.007434,0.000692,0.007476,-0.003734,86.454082,0.007476,
710,1900,0.656006,-0.897413,0.999998,0.000215,-0.003029,0.007260,-0.001269,0.007414,-0.003183,-83.073700,0.007438,
1330,1430,-0.195708,-3.159948,0.999998,0.000178,-0.002530,0.005172,-0.001507,0.005457,-0.002815,-79.313764,0.005458,
1630,1160,-2.143137,-6.499278,0.999997,0.000214,-0.003857,0.008333,0.001010,0.008416,-0.003940,85.295224,0.008422,
1900,2010,-0.339504,-0.305405,0.999995,0.000000,-0.000496,0.011293,0.005809,0.013675,-0.002877,67.709837,0.014419,
710,1760,1.144958,-1.943451,0.999997,0.000237,-0.003591,0.007489,-0.000204,0.007493,-0.003595,-88.946846,0.007495,
1070,160,0.114543,-14.439748,0.999998,0.000137,-0.000803,0.005117,0.000305,0.005133,-0.000819,87.060473,0.005515,
1680,1340,-1.813574,-5.053955,0.999997,0.000208,-0.004451,0.008273,0.000382,0.008284,-0.004462,88.281505,0.008293,
1340,870,-0.679138,-10.668839,0.999996,0.000242,-0.002384,0.003933,0.002616,0.004875,-0.003326,70.185639,0.004982,
890,980,2.167013,-7.952932,0.999998,0.000194,-0.002970,0.008339,0.000679,0.008380,-0.003010,86.573903,0.008490,
1220,1830,0.011781,-0.976631,0.999998,0.000176,-0.001069,0.005032,0.000024,0.005032,-0.001070,89.773655,0.005302,
850,1700,0.829244,-2.102545,0.999998,0.000148,-0.002958,0.007002,-0.000055,0.007003,-0.002959,-89.683002,0.007031,
1470,1230,-1.084973,-5.401991,0.999995,0.000282,-0.005861,0.009873,-0.000773,0.009911,-0.005899,-87.193732,0.009971,
980,1880,0.221282,-0.799046,0.999998,0.000173,-0.001249,0.005529,-0.000479,0.005562,-0.001283,-85.976184,0.005825,
750,150,0.536469,-14.311642,0.999997,0.000195,-0.001913,0.006846,0.001561,0.007116,-0.002183,80.190921,0.007291,
1070,1610,0.323915,-2.285240,0.999998,0.000178,-0.002472,0.005974,0.000706,0.006032,-0.002530,85.255109,0.006058,
760,850,2.300352,-8.920152,0.999996,0.000234,-0.003911,0.007986,0.000895,0.008052,-0.003978,85.723657,0.008053,
1770,150,-0.685260,-14.228857,0.999997,0.000212,-0.003025,0.007370,-0.001406,0.007557,-0.003212,-82.432268,0.007585,
570,1130,3.117645,-6.923652,0.999991,0.000369,-0.002953,0.006455,-0.000205,0.006459,-0.002957,-88.754537,0.006467,
940,310,0.508149,-13.471007,0.999997,0.000217,-0.002368,0.006367,0.000042,0.006367,-0.002368,89.723607,0.006436,
1130,660,0.203182,-11.764438,0.999998,0.000168,-0.002652,0.005095,-0.001904,0.005538,-0.003095,-76.910948,0.005551,
760,790,2.128244,-9.405126,0.999997,0.000210,-0.004188,0.008153,0.000740,0.008197,-0.004232,86.578412,0.008199,
1760,1290,-2.289755,-5.600284,0.999996,0.000237,-0.003980,0.007819,0.000636,0.007853,-0.004015,86.923089,0.007854,
1170,1790,0.075737,-1.192955,0.999998,0.000152,-0.001149,0.005236,-0.000048,0.005236,-0.001149,-89.568986,0.005504,
840,870,2.036248,-8.839874,0.999998,0.000184,-0.004138,0.008547,0.001028,0.008630,-0.004221,85.398985,0.008630,
1810,590,-2.033068,-10.782458,0.999997,0.000197,-0.003852,0.007696,-0.000021,0.007696,-0.003852,-89.894404,0.007696,
1750,1220,-2.442503,-6.130705,0.999996,0.000236,-0.003838,0.007705,0.000779,0.007758,-0.003891,86.154940,0.007758,
870,30,0.033111,-15.062450,0.999998,0.000000,-0.000250,0.005036,0.001033,0.005231,-0.000445,79.322143,0.005800,
1850,1540,-2.016343,-3.853616,0.999998,0.000168,-0.003771,0.007630,-0.000056,0.007630,-0.003772,-89.717724,0.007630,
860,640,1.277890,-10.881394,0.999997,0.000212,-0.004538,0.008248,-0.000352,0.008258,-0.004547,-88.422278,0.008272,
650,430,1.689983,-12.004507,0.999997,0.000189,-0.003805,0.007579,-0.000089,0.007580,-0.003806,-89.549767,0.007580,
1220,70,0.003972,-14.891867,0.999998,0.000170,-0.000264,0.004565,0.000039,0.004566,-0.000264,89.531486,0.005126,
960,1890,0.235981,-0.756499,0.999998,0.000172,-0.001361,0.005606,-0.000550,0.005650,-0.001404,-85.517412,0.005883,
820,140,0.367095,-14.433747,0.999997,0.000217,-0.001472,0.006205,0.001240,0.006400,-0.001667,81.052057,0.006641,
940,1400,0.938173,-4.108139,0.999997,0.000196,-0.004630,0.008128,0.000974,0.008202,-0.004704,85.661342,0.008231,
1380,1380,-0.349265,-3.641173,0.999996,0.000226,-0.003561,0.006237,-0.002200,0.006709,-0.004032,-77.907762,0.006754,
1600,690,-1.378001,-10.466547,0.999995,0.000272,-0.004789,0.008545,0.000152,0.008546,-0.004791,89.346194,0.008567,
1650,640,-1.490743,-10.756176,0.999996,0.000238,-0.004417,0.008188,0.000088,0.008189,-0.004418,89.599139,0.008197,
1120,1520,0.226841,-2.710936,0.999998,0.000178,-0.002355,0.005554,0.000873,0.005649,-0.002450,83.775772,0.005666,
1680,1610,-1.223168,-2.906439,0.999997,0.000206,-0.003720,0.007532,-0.000209,0.007536,-0.003724,-88.934260,0.007536,
730,1250,2.294131,-5.874153,0.999996,0.000223,-0.003976,0.007842,-0.000770,0.007892,-0.004026,-86.289982,0.007892,
1560,160,-0.293136,-14.363805,0.999998,0.000175,-0.001324,0.005860,-0.000822,0.005953,-0.001417,-83.556585,0.006220,
1890,1380,-2.545329,-5.169810,0.999996,0.000253,-0.003688,0.007573,0.000047,0.007573,-0.003688,89.762946,0.007574,
1850,1030,-3.069687,-7.542680,0.999998,0.000195,-0.003134,0.006708,0.000049,0.006708,-0.003135,89.712184,0.006713,
750,420,1.296310,-12.323341,0.999998,0.000172,-0.003687,0.007578,-0.000143,0.007580,-0.003689,-89.275021,0.007581,
690,830,2.517276,-9.000761,0.999997,0.000202,-0.003771,0.007508,0.000705,0.007551,-0.003815,86.434864,0.007552,
1720,1800,-0.924019,-1.573917,0.999998,0.000174,-0.002999,0.007420,0.000675,0.007463,-0.003042,86.309740,0.007505,
1220,370,0.019648,-13.384268,0.999999,0.000143,-0.001664,0.005307,-0.000091,0.005308,-0.001665,-89.253268,0.005429,
810,340,0.919692,-13.052094,0.999998,0.000176,-0.003297,0.007176,0.000022,0.007176,-0.003297,89.877331,0.007184,
690,1760,1.218539,-1.991776,0.999997,0.000224,-0.003614,0.007541,-0.000225,0.007545,-0.003619,-88.844685,0.007547,
950,120,0.169657,-14.606978,0.999997,0.000210,-0.000932,0.005404,0.000681,0.005476,-0.001005,83.934584,0.005831,
1680,1320,-1.870443,-5.222462,0.999998,0.000174,-0.004421,0.008307,0.000480,0.008325,-0.004439,87.844414,0.008331,
1050,160,0.133482,-14.431137,0.999998,0.000166,-0.000981,0.005186,0.000304,0.005200,-0.000996,87.188420,0.005521,
1430,730,-0.603365,-10.818810,0.999996,0.000268,-0.004960,0.007974,0.002145,0.008320,-0.005307,80.826945,0.008425,
1510,1160,-1.634600,-6.291510,0.999995,0.000271,-0.004780,0.009892,0.000790,0.009934,-0.004822,86.928037,0.009936,
1550,1480,-0.939355,-3.565387,0.999998,0.000182,-0.004058,0.007703,-0.000767,0.007753,-0.004107,-86.284743,0.007757,
830,1020,2.381172,-7.618559,0.999997,0.000229,-0.002944,0.007786,0.000139,0.007788,-0.002946,89.259149,0.007864,
1810,1700,-1.505379,-2.536821,0.999996,0.000243,-0.003735,0.007555,-0.000014,0.007555,-0.003735,-89.930223,0.007555,
750,170,0.619766,-14.166562,0.999996,0.000222,-0.002232,0.006987,0.001407,0.007197,-0.002442,81.512571,0.007319,
910,1720,0.616567,-1.855591,0.999997,0.000221,-0.002591,0.006707,-0.000018,0.006707,-0.002591,-89.891713,0.006765,
980,1860,0.253669,-0.909262,0.999998,0.000170,-0.001374,0.005661,-0.000421,0.005686,-0.001399,-86.588752,0.005925,
690,1920,0.625433,-0.787221,0.999997,0.000216,-0.002825,0.007260,-0.001621,0.007514,-0.003079,-81.092314,0.007555,
1740,970,-2.679384,-7.979380,0.999998,0.000182,-0.003304,0.007278,-0.000377,0.007291,-0.003317,-87.964407,0.007301,
1770,130,-0.593483,-14.371673,0.999997,0.000209,-0.002758,0.007227,-0.001650,0.007492,-0.003023,-80.856773,0.007538,
1100,870,0.732343,-10.322954,0.999995,0.000270,-0.003377,0.005808,-0.003360,0.006905,-0.004475,-71.905228,0.007006,
1410,1680,-0.322293,-1.894771,0.999997,0.000189,-0.002275,0.005965,-0.000367,0.005981,-0.002291,-87.456202,0.006035,
780,850,2.221904,-8.940097,0.999997,0.000192,-0.004024,0.008133,0.000947,0.008206,-0.004098,85.572448,0.008206,
1070,1590,0.333560,-2.404038,0.999997,0.000202,-0.002549,0.006028,0.000778,0.006098,-0.002619,84.856118,0.006118,
1640,1030,-2.403392,-7.540531,0.999997,0.000218,-0.002958,0.007781,0.000041,0.007782,-0.002958,89.778741,0.007856,
1470,1210,-1.172039,-5.605119,0.999995,0.000269,-0.005809,0.010129,-0.000550,0.010148,-0.005828,-88.024747,0.010185,
860,2020,0.049934,-0.080307,0.999998,0.000000,-0.000219,0.005084,-0.001055,0.005286,-0.000421,-79.152994,0.005876,
1670,820,-2.078233,-9.201704,0.999996,0.000223,-0.004183,0.008289,-0.000840,0.008345,-0.004239,-86.164524,0.008346,
1070,500,0.345946,-12.504451,0.999997,0.000195,-0.002635,0.006020,-0.000907,0.006114,-0.002729,-84.079252,0.006126,
1700,1290,-2.042997,-5.504523,0.999997,0.000190,-0.004273,0.008195,0.000648,0.008229,-0.004306,87.032791,0.008232,
1810,570,-1.986165,-10.938477,0.999997,0.000194,-0.003844,0.007682,0.000010,0.007682,-0.003844,89.948289,0.007682,
650,410,1.647780,-12.159632,0.999996,0.000214,-0.003777,0.007603,-0.000097,0.007604,-0.003778,-89.513997,0.007604,
1550,1220,-1.572631,-5.828202,0.999996,0.000247,-0.005106,0.009436,0.000616,0.009462,-0.005132,87.579837,0.009473,
570,950,3.154952,-8.035987,0.999982,0.000492,-0.002913,0.006157,-0.000005,0.006157,-0.002913,-89.970590,0.006160,
1170,1770,0.079995,-1.295474,0.999998,0.000143,-0.001238,0.005302,-0.000047,0.005302,-0.001239,-89.589069,0.005547,
940,1890,0.263816,-0.768564,0.999998,0.000177,-0.001262,0.005703,-0.000651,0.005763,-0.001322,-84.708053,0.006038,
920,1570,0.796095,-2.876387,0.999997,0.000218,-0.003437,0.007099,0.000601,0.007133,-0.003472,86.744695,0.007134,
820,120,0.303215,-14.556245,0.999998,0.000195,-0.001242,0.006055,0.001334,0.006291,-0.001478,79.959526,0.006579,
1290,820,-0.186410,-11.355653,0.999997,0.000189,-0.003123,0.002571,0.001964,0.003183,-0.003735,72.704235,0.004032,
1680,1590,-1.262598,-3.059032,0.999998,0.000196,-0.003794,0.007595,-0.000231,0.007599,-0.003799,-88.836251,0.007599,
590,660,2.445931,-10.105000,0.999997,0.000227,-0.003992,0.007536,0.000135,0.007537,-0.003993,89.326758,0.007542,
1200,70,0.007749,-14.891900,0.999999,0.000146,-0.000226,0.004572,0.000091,0.004574,-0.000227,88.910818,0.005155,
1650,440,-1.106282,-12.320088,0.999997,0.000208,-0.003600,0.007446,0.000233,0.007451,-0.003605,88.794584,0.007452,
1230,230,0.000852,-14.119821,0.999998,0.000156,-0.001079,0.005063,-0.000005,0.005063,-0.001079,-89.953523,0.005334,
1480,1960,-0.099929,-0.369352,0.999998,0.000207,-0.000568,0.005100,0.000624,0.005168,-0.000636,83.786486,0.005636,
860,620,1.238039,-11.043649,0.999997,0.000209,-0.004440,0.008060,-0.000412,0.008073,-0.004453,-88.113765,0.008088,
1140,790,0.221918,-11.198113,0.999998,0.000212,-0.003352,0.004441,-0.003173,0.005569,-0.004480,-70.423156,0.005904,
1720,1780,-0.978986,-1.722685,0.999998,0.000202,-0.003062,0.007412,0.000521,0.007438,-0.003088,87.157372,0.007474,
810,1020,2.440137,-7.618340,0.999997,0.000199,-0.002989,0.007680,0.000113,0.007681,-0.002990,89.394603,0.007744,
1330,50,-0.013408,-14.982212,0.999999,0.000137,-0.000195,0.004511,-0.000176,0.004517,-0.000202,-87.861020,0.005104,
690,810,2.462765,-9.155118,0.999996,0.000244,-0.003855,0.007654,0.000719,0.007698,-0.003900,86.437403,0.007699,
1380,1360,-0.352853,-3.764885,0.999996,0.000239,-0.003747,0.006365,-0.002358,0.006888,-0.004270,-77.499682,0.006954,
1430,710,-0.575724,-10.977769,0.999996,0.000254,-0.004665,0.007668,0.002081,0.008010,-0.005007,80.675719,0.008093,
940,1380,0.971453,-4.275732,0.999997,0.000199,-0.004799,0.008362,0.000942,0.008429,-0.004866,85.928479,0.008462,
1120,1500,0.228497,-2.819555,0.999998,0.000170,-0.002420,0.005488,0.001032,0.005621,-0.002553,82.688153,0.005629,
790,420,1.150822,-12.417279,0.999997,0.000201,-0.003587,0.007431,-0.000188,0.007434,-0.003590,-89.020205,0.007436,
1530,1480,-0.857291,-3.505187,0.999998,0.000223,-0.004054,0.007610,-0.000902,0.007679,-0.004124,-85.605470,0.007686,
750,1000,2.611587,-7.765927,0.999997,0.000219,-0.003184,0.007385,0.000269,0.007392,-0.003191,88.541540,0.007415,
980,1840,0.280926,-1.024728,0.999997,0.000191,-0.001534,0.005706,-0.000366,0.005724,-0.001552,-87.110721,0.005921,
910,640,1.051300,-11.031134,0.999996,0.000238,-0.004545,0.008147,-0.000724,0.008188,-0.004586,-86.745428,0.008208,
1850,1010,-3.060299,-7.677983,0.999998,0.000189,-0.003142,0.006638,-0.000187,0.006642,-0.003146,-88.902590,0.006645,
1560,140,-0.251230,-14.478128,0.999998,0.000178,-0.001155,0.005720,-0.000852,0.005824,-0.001259,-83.042892,0.006129,
760,1950,0.336441,-0.501795,0.999996,0.000222,-0.001275,0.006366,-0.001776,0.006759,-0.001668,-77.532755,0.007042,
680,1710,1.381509,-2.394227,0.999997,0.000201,-0.003607,0.007565,-0.000004,0.007565,-0.003607,-89.981424,0.007567,
860,30,0.033514,-15.062849,0.999998,0.000000,-0.000057,0.005064,0.001146,0.005309,-0.000301,77.942216,0.005964,
1770,110,-0.489758,-14.520760,0.999997,0.000210,-0.002536,0.007137,-0.001845,0.007478,-0.002876,-79.557092,0.007544,
1410,180,-0.150119,-14.328451,0.999998,0.000195,-0.001111,0.005263,-0.000272,0.005275,-0.001123,-87.562748,0.005557,
1380,1390,-0.346759,-3.579994,0.999996,0.000231,-0.003487,0.006199,-0.002117,0.006641,-0.003929,-78.195197,0.006678,
770,1830,0.751652,-1.311433,0.999997,0.000194,-0.002795,0.007089,-0.000796,0.007153,-0.002859,-85.427264,0.007201,
1680,1300,-1.925952,-5.386595,0.999998,0.000172,-0.004409,0.008303,0.000578,0.008329,-0.004435,87.403677,0.008335,
1740,1650,-1.362513,-2.746214,0.999998,0.000226,-0.003705,0.007615,-0.000099,0.007616,-0.003706,-89.499605,0.007617,
1060,1830,0.183280,-1.027613,0.999998,0.000175,-0.001345,0.005410,-0.000147,0.005413,-0.001349,-88.755100,0.005636,
1380,900,-1.029688,-9.875763,0.999992,0.000328,-0.003144,0.007624,0.004354,0.009165,-0.004684,70.519501,0.009165,
1470,1190,-1.271393,-5.812167,0.999995,0.000270,-0.005690,0.010322,-0.000287,0.010327,-0.005695,-88.973781,0.010345,
730,1230,2.348250,-6.031988,0.999996,0.000237,-0.003930,0.007856,-0.000822,0.007913,-0.003987,-86.029091,0.007913,
1810,550,-1.943048,-11.093931,0.999997,0.000201,-0.003843,0.007661,0.000046,0.007662,-0.003843,89.771028,0.007662,
650,390,1.600984,-12.310415,0.999996,0.000228,-0.003728,0.007588,-0.000081,0.007589,-0.003729,-89.588860,0.007589,
1830,1160,-2.866161,-6.654944,0.999996,0.000241,-0.003368,0.006903,0.000398,0.006919,-0.003383,87.781944,0.006919,
1080,870,0.814067,-10.043275,0.999989,0.000371,-0.004685,0.007776,-0.003160,0.008531,-0.005441,-76.554611,0.008638,
1530,1220,-1.467185,-5.765943,0.999997,0.000223,-0.005331,0.009666,0.000414,0.009677,-0.005342,88.418520,0.009695,
700,1870,0.814543,-1.137955,0.999997,0.000194,-0.003316,0.007398,-0.000976,0.007486,-0.003405,-84.834836,0.007496,
900,1570,0.865425,-2.923842,0.999997,0.000232,-0.003534,0.007235,0.000540,0.007262,-0.003561,87.137221,0.007263,
820,100,0.243543,-14.676203,0.999998,0.000173,-0.000994,0.005837,0.001381,0.006105,-0.001263,78.995560,0.006445,
1680,1290,-1.955001,-5.470089,0.999998,0.000152,-0.004395,0.008319,0.000635,0.008351,-0.004427,87.149177,0.008356,
840,770,1.710355,-9.714673,0.999996,0.000229,-0.004795,0.008749,0.000507,0.008768,-0.004814,87.861050,0.008782,
1170,1750,0.087622,-1.403738,0.999998,0.000154,-0.001325,0.005348,0.000008,0.005348,-0.001325,89.929646,0.005571,
610,90,0.595611,-14.498516,0.999997,0.000207,-0.003481,0.008268,0.001787,0.008533,-0.003747,81.539834,0.008554,
1870,1750,-1.596672,-2.319290,0.999997,0.000208,-0.003648,0.007452,-0.000017,0.007452,-0.003648,-89.911005,0.007453,
780,590,1.522630,-11.078734,0.999996,0.000223,-0.004207,0.007914,-0.000117,0.007915,-0.004208,-89.449270,0.007920,
1070,1570,0.341311,-2.527464,0.999997,0.000208,-0.002596,0.006051,0.000878,0.006139,-0.002685,84.259023,0.006155,
1480,1980,-0.071459,-0.269308,0.999998,0.000177,-0.000401,0.005009,0.000638,0.005083,-0.000475,83.366895,0.005616,
1900,670,-2.572390,-9.964548,0.999996,0.000000,-0.003756,0.007583,-0.000087,0.007584,-0.003757,-89.561586,0.007584,
740,470,1.433993,-11.918552,0.999996,0.000242,-0.003819,0.007636,-0.000181,0.007638,-0.003822,-89.093794,0.007638,
780,890,2.329263,-8.619838,0.999997,0.000231,-0.003769,0.007961,0.000926,0.008033,-0.003842,85.513414,0.008036,
590,1970,0.630196,-0.645207,0.999996,0.000228,-0.003530,0.008824,-0.002011,0.009144,-0.003849,-80.984121,0.009182,
1070,640,0.384636,-11.644110,0.999996,0.000219,-0.003459,0.006349,-0.001899,0.006704,-0.003814,-79.414072,0.006725,
860,600,1.198377,-11.205459,0.999996,0.000220,-0.004306,0.007992,-0.000452,0.008009,-0.004322,-87.899300,0.008017,
1430,690,-0.554505,-11.131531,0.999995,0.000275,-0.004428,0.007446,0.002005,0.007776,-0.004758,80.668057,0.007840,
1720,1760,-1.034097,-1.873362,0.999998,0.000195,-0.003154,0.007421,0.000371,0.007434,-0.003167,87.991590,0.007461,
720,870,2.503675,-8.728651,0.999996,0.000260,-0.003718,0.007627,0.000809,0.007685,-0.003775,85.943687,0.007685,
1230,210,0.002781,-14.220647,0.999998,0.000176,-0.000986,0.005010,-0.000011,0.005010,-0.000986,-89.897588,0.005308,
1120,790,0.292726,-11.031560,0.999996,0.000240,-0.003980,0.005507,-0.003370,0.006583,-0.005055,-72.303611,0.006891,
1630,360,-0.887154,-12.949414,0.999998,0.000159,-0.003048,0.007121,-0.000089,0.007122,-0.003049,-89.497019,0.007147,
1300,50,-0.009651,-14.981741,0.999999,0.000134,-0.000109,0.004478,-0.000133,0.004482,-0.000113,-88.345617,0.005112,
980,1820,0.311895,-1.139458,0.999997,0.000192,-0.001651,0.005846,-0.000313,0.005860,-0.001664,-87.610222,0.006039,
1740,1630,-1.407070,-2.898776,0.999998,0.000205,-0.003731,0.007583,-0.000127,0.007584,-0.003732,-89.354718,0.007584,
1560,120,-0.207027,-14.592294,0.999998,0.000186,-0.000955,0.005629,-0.000925,0.005756,-0.001082,-82.150309,0.006119,
930,1020,2.106787,-7.624687,0.999997,0.000201,-0.002659,0.008674,0.000151,0.008676,-0.002661,89.236115,0.008889,
570,940,3.142666,-8.097881,0.999985,0.000484,-0.002953,0.006282,0.000108,0.006283,-0.002954,89.330903,0.006287,
1280,70,-0.011402,-14.890599,0.999998,0.000156,-0.000177,0.004591,-0.000131,0.004594,-0.000181,-88.421313,0.005204,
790,1420,1.579226,-4.380009,0.999997,0.000189,-0.004335,0.008111,0.000021,0.008111,-0.004335,89.902914,0.008117,
770,320,1.008477,-13.115961,0.999996,0.000241,-0.003250,0.007312,0.000160,0.007314,-0.003252,89.132846,0.007329,
1120,1480,0.228213,-2.928712,0.999997,0.000207,-0.002512,0.005465,0.001201,0.005642,-0.002689,81.622376,0.005644,
770,1810,0.814290,-1.458704,0.999997,0.000193,-0.002939,0.007207,-0.000657,0.007250,-0.002982,-86.308991,0.007288,
1520,430,-0.655154,-12.684874,0.999997,0.000228,-0.002955,0.006787,0.000439,0.006806,-0.002975,87.424782,0.006824,
1850,990,-3.049419,-7.810353,0.999998,0.000178,-0.003156,0.006553,-0.000145,0.006555,-0.003158,-89.143113,0.006556,
1770,90,-0.396778,-14.655268,0.999996,0.000218,-0.002033,0.006743,-0.002080,0.007211,-0.002501,-77.317589,0.007323,
900,960,2.092712,-8.127609,0.999997,0.000201,-0.003236,0.008554,0.000854,0.008615,-0.003297,85.876648,0.008694,
1810,530,-1.897264,-11.245140,0.999997,0.000195,-0.003834,0.007658,0.000064,0.007658,-0.003835,89.679377,0.007658,
1850,80,-0.514002,-14.592033,0.999996,0.000238,-0.003470,0.008403,-0.001968,0.008721,-0.003787,-80.829923,0.008746,
880,2000,0.080388,-0.181828,0.999999,0.000148,-0.000572,0.005224,-0.001016,0.005397,-0.000745,-80.337803,0.005849,
650,370,1.555144,-12.462053,0.999997,0.000212,-0.003730,0.007561,-0.000027,0.007561,-0.003730,-89.862396,0.007561,
1530,490,-0.758080,-12.239632,0.999997,0.000186,-0.003485,0.007111,0.000676,0.007154,-0.003528,86.364028,0.007154,
1770,1480,-1.842972,-4.127929,0.999997,0.000188,-0.003950,0.007762,-0.000003,0.007762,-0.003950,-89.983797,0.007763,
690,790,2.409892,-9.306997,0.999996,0.000232,-0.003882,0.007663,0.000659,0.007700,-0.003919,86.742890,0.007701,
1690,1840,-0.714496,-1.240534,0.999998,0.000173,-0.002722,0.007003,0.000878,0.007081,-0.002801,84.881913,0.007133,
850,2020,0.048408,-0.082786,0.999998,0.000000,-0.000051,0.005117,-0.001135,0.005355,-0.000289,-78.139328,0.006024,
1600,1850,-0.472341,-1.067328,0.999998,0.000196,-0.002140,0.006376,0.000729,0.006438,-0.002202,85.139229,0.006544,
760,1190,2.341113,-6.319038,0.999997,0.000219,-0.003845,0.007890,-0.000884,0.007956,-0.003911,-85.717224,0.007957,
820,80,0.180020,-14.792368,0.999998,0.000182,-0.000741,0.005738,0.001460,0.006051,-0.001055,77.872444,0.006465,
1830,60,-0.305094,-14.822108,0.999995,0.000283,-0.002772,0.007419,-0.002200,0.007874,-0.003227,-78.323298,0.007916,
610,1320,2.563625,-5.534464,0.999998,0.000199,-0.003697,0.007387,-0.000295,0.007395,-0.003705,-88.474282,0.007395,
660,1250,2.564080,-5.968290,0.999997,0.000215,-0.003728,0.007475,-0.000618,0.007509,-0.003762,-86.850125,0.007509,
1360,1550,-0.263247,-2.572656,0.999997,0.000191,-0.002407,0.005751,-0.000857,0.005840,-0.002496,-84.069458,0.005861,
1440,870,-1.124014,-9.457472,0.999995,0.000270,-0.005623,0.010396,0.001063,0.010466,-0.005693,86.220080,0.010479,
630,460,1.831638,-11.727913,0.999998,0.000204,-0.003774,0.007597,-0.000134,0.007599,-0.003775,-89.326318,0.007599,
1660,1610,-1.149870,-2.859625,0.999999,0.000149,-0.003614,0.007465,-0.000247,0.007470,-0.003619,-88.724933,0.007471,
1430,670,-0.540237,-11.274083,0.999996,0.000261,-0.004219,0.007260,0.001904,0.007568,-0.004527,80.823767,0.007616,
810,280,0.784055,-13.481737,0.999997,0.000228,-0.002879,0.007089,0.000397,0.007105,-0.002895,87.722396,0.007146,
1760,1730,-1.248443,-2.188454,0.999998,0.000188,-0.003645,0.007542,0.000042,0.007542,-0.003645,89.784876,0.007543,
1380,1340,-0.362909,-3.894725,0.999996,0.000240,-0.003982,0.006492,-0.002579,0.007093,-0.004583,-76.889999,0.007193,
1170,1730,0.091163,-1.511358,0.999998,0.000163,-0.001416,0.005358,0.000034,0.005358,-0.001416,89.713417,0.005553,
1470,1170,-1.379082,-6.018919,0.999995,0.000297,-0.005443,0.010455,-0.000038,0.010455,-0.005443,-89.861633,0.010458,
710,1040,2.750152,-7.468488,0.999997,0.000201,-0.003228,0.007241,-0.000175,0.007244,-0.003231,-89.039983,0.007258,
1720,1740,-1.086087,-2.020479,0.999998,0.000188,-0.003255,0.007380,0.000218,0.007384,-0.003259,88.827858,0.007401,
1560,100,-0.163977,-14.704170,0.999998,0.000180,-0.000759,0.005410,-0.000928,0.005547,-0.000895,-81.624346,0.005956,
860,580,1.166758,-11.365530,0.999997,0.000203,-0.004180,0.007909,-0.000492,0.007929,-0.004200,-87.671795,0.007934,
590,600,2.299355,-10.561001,0.999997,0.000230,-0.003685,0.007651,0.000061,0.007651,-0.003685,89.692096,0.007653,
1070,1550,0.349021,-2.648008,0.999997,0.000179,-0.002623,0.006013,0.000945,0.006116,-0.002725,83.825368,0.006128,
1680,1280,-1.985341,-5.556175,0.999998,0.000178,-0.004380,0.008334,0.000690,0.008371,-0.004417,86.902153,0.008376,
1620,650,-1.378836,-10.750300,0.999996,0.000230,-0.004595,0.008305,0.000205,0.008308,-0.004599,89.090815,0.008324,
1620,1670,-0.905096,-2.327387,0.999998,0.000228,-0.003177,0.007149,-0.000093,0.007149,-0.003178,-89.486020,0.007164,
770,1790,0.869573,-1.601192,0.999998,0.000181,-0.003052,0.007214,-0.000490,0.007237,-0.003076,-87.271252,0.007264,
1800,930,-2.822578,-8.244559,0.999997,0.000184,-0.003387,0.007129,-0.000543,0.007157,-0.003415,-87.053189,0.007160,
980,1800,0.339892,-1.258110,0.999997,0.000198,-0.001788,0.005954,-0.000230,0.005961,-0.001795,-88.297778,0.006116,
1770,70,-0.286566,-14.793647,0.999996,0.000243,-0.001464,0.006865,-0.002552,0.007585,-0.002184,-74.249083,0.007809,
940,1360,1.010006,-4.446436,0.999997,0.000206,-0.004947,0.008573,0.000876,0.008629,-0.005003,86.307184,0.008666,
820,60,0.118345,-14.905958,0.999998,0.000184,-0.000474,0.005496,0.001440,0.005826,-0.000803,77.126477,0.006314,
770,1420,1.665316,-4.425955,0.999997,0.000202,-0.004295,0.008068,-0.000045,0.008068,-0.004295,-89.793505,0.008074,
1600,1830,-0.520988,-1.194203,0.999998,0.000221,-0.002297,0.006440,0.000611,0.006482,-0.002340,86.015946,0.006565,
1010,900,1.369844,-9.044049,0.999993,0.000303,-0.005288,0.010715,-0.000305,0.010721,-0.005294,-88.907643,0.010722,
960,1250,1.201493,-5.368383,0.999994,0.000278,-0.005700,0.009679,0.000359,0.009687,-0.005708,88.665111,0.009738,
670,960,2.844315,-8.034304,0.999997,0.000234,-0.003314,0.007028,0.000345,0.007040,-0.003326,88.091126,0.007043,
1340,1550,-0.218539,-2.541772,0.999998,0.000172,-0.002200,0.005554,-0.000701,0.005617,-0.002263,-84.878918,0.005652,
1750,1480,-1.762683,-4.081829,0.999996,0.000226,-0.004005,0.007795,-0.000025,0.007795,-0.004005,-89.877948,0.007796,
1870,340,-1.688932,-12.536856,0.999998,0.000200,-0.003669,0.007444,0.000094,0.007445,-0.003669,89.514589,0.007445,
1280,780,-0.090998,-11.518711,0.999997,0.000221,-0.002206,0.002620,0.002054,0.003376,-0.002962,69.795891,0.003683,
1460,870,-1.239355,-9.322257,0.999995,0.000252,-0.005713,0.010462,0.000479,0.010477,-0.005728,88.305691,0.010492,
1810,510,-1.853674,-11.398863,0.999997,0.000178,-0.003826,0.007673,0.000082,0.007674,-0.003827,89.589986,0.007674,
650,350,1.504959,-12.613646,0.999997,0.000223,-0.003730,0.007569,0.000021,0.007569,-0.003730,89.892281,0.007569,
660,1190,2.710037,-6.410333,0.999997,0.000213,-0.003571,0.007343,-0.000651,0.007381,-0.003610,-86.600399,0.007382,
1720,1720,-1.129743,-2.169897,0.999998,0.000167,-0.003412,0.007459,0.000131,0.007460,-0.003413,89.310748,0.007469,
860,890,2.022038,-8.691497,0.999998,0.000169,-0.004007,0.008651,0.001074,0.008741,-0.004098,85.183027,0.008747,
760,1970,0.263812,-0.381831,0.999997,0.000205,-0.001013,0.005973,-0.001744,0.006384,-0.001424,-76.733758,0.006703,
1870,1520,-2.135866,-4.052045,0.999997,0.000185,-0.003795,0.007598,-0.000021,0.007598,-0.003795,-89.892542,0.007598,
1900,660,-2.545221,-10.042149,0.999996,0.000000,-0.003782,0.007565,-0.000082,0.007566,-0.003783,-89.587843,0.007566,
670,1360,2.228740,-5.112600,0.999997,0.000251,-0.003959,0.007667,-0.000378,0.007680,-0.003972,-88.137604,0.007681,
850,30,0.033460,-15.063450,0.999998,0.000000,0.000059,0.005130,0.001273,0.005431,-0.000242,76.673316,0.006136,
660,1610,1.685342,-3.204747,0.999996,0.000233,-0.003783,0.007609,0.000119,0.007611,-0.003785,89.402509,0.007611,
610,70,0.451638,-14.673874,0.999996,0.000230,-0.003376,0.008355,0.002076,0.008712,-0.003733,80.253380,0.008741,
1070,1530,0.353983,-2.768146,0.999997,0.000209,-0.002674,0.006019,0.001007,0.006134,-0.002790,83.476779,0.006143,
690,770,2.354867,-9.462040,0.999996,0.000234,-0.003896,0.007709,0.000617,0.007742,-0.003929,86.964954,0.007742,
1420,1870,-0.166483,-0.823027,0.999998,0.000176,-0.001195,0.005333,0.000245,0.005342,-0.001205,87.857236,0.005604,
590,590,2.275101,-10.637413,0.999997,0.000198,-0.003685,0.007636,0.000060,0.007636,-0.003685,89.698532,0.007638,
1430,650,-0.527270,-11.421751,0.999996,0.000253,-0.004046,0.007096,0.001808,0.007382,-0.004332,81.011499,0.007419,
580,1970,0.663101,-0.675338,0.999996,0.000241,-0.004005,0.009049,-0.002053,0.009364,-0.004321,-81.269193,0.009373,
860,560,1.131348,-11.520743,0.999997,0.000197,-0.004069,0.007802,-0.000500,0.007823,-0.004090,-87.590198,0.007826,
970,1020,1.995491,-7.633640,0.999998,0.000177,-0.002980,0.009792,0.000071,0.009792,-0.002980,89.682177,0.010039,
1560,80,-0.120832,-14.810301,0.999998,0.000158,-0.000561,0.005264,-0.000951,0.005416,-0.000712,-80.958521,0.005886,
1260,70,-0.008132,-14.890877,0.999998,0.000170,-0.000240,0.004577,-0.000062,0.004578,-0.000241,-89.263325,0.005152,
1620,270,-0.673410,-13.601066,0.999996,0.000218,-0.002557,0.006784,-0.000449,0.006806,-0.002578,-87.251899,0.006872,
1570,850,-1.729957,-9.104987,0.999996,0.000212,-0.004756,0.009216,-0.000864,0.009269,-0.004809,-86.475320,0.009271,
1520,410,-0.633446,-12.819388,0.999997,0.000228,-0.002825,0.006713,0.000340,0.006725,-0.002837,87.958222,0.006752,
1120,1460,0.228647,-3.037987,0.999997,0.000197,-0.002589,0.005427,0.001370,0.005655,-0.002816,80.567351,0.005655,
1380,1320,-0.377061,-4.027043,0.999996,0.000247,-0.004257,0.006647,-0.002778,0.007313,-0.004924,-76.500818,0.007458,
1070,660,0.390032,-11.514317,0.999997,0.000207,-0.003599,0.006455,-0.002013,0.006843,-0.003987,-79.091114,0.006874,
1850,970,-3.035449,-7.943139,0.999998,0.000160,-0.003172,0.006518,-0.000075,0.006518,-0.003173,-89.555600,0.006519,
1760,1710,-1.297713,-2.337998,0.999997,0.000215,-0.003629,0.007545,0.000020,0.007545,-0.003629,89.899458,0.007546,
1470,1150,-1.486968,-6.224884,0.999995,0.000282,-0.005100,0.010569,0.000170,0.010571,-0.005102,89.377987,0.010573,
1870,330,-1.662433,-12.612464,0.999998,0.000177,-0.003655,0.007441,0.000089,0.007442,-0.003656,89.539840,0.007442,
1190,1700,0.065902,-1.664866,0.999998,0.000154,-0.001593,0.005327,0.000104,0.005329,-0.001595,89.136848,0.005470,
1810,1100,-2.896250,-7.057998,0.999998,0.000180,-0.003310,0.006944,0.000349,0.006956,-0.003321,88.054743,0.006959,
770,1770,0.924769,-1.750290,0.999997,0.000183,-0.003168,0.007342,-0.000385,0.007356,-0.003182,-87.904249,0.007378,
1330,1410,-0.194346,-3.264736,0.999998,0.000177,-0.002606,0.005107,-0.001726,0.005475,-0.002975,-77.947181,0.005482,
900,940,2.035101,-8.301309,0.999997,0.000206,-0.003500,0.008744,0.001042,0.008832,-0.003588,85.172150,0.008884,
1760,1980,-0.304291,-0.359846,0.999996,0.000220,-0.001742,0.006605,0.002216,0.007157,-0.002294,76.017382,0.007309,
1810,1140,-2.832994,-6.776247,0.999998,0.000204,-0.003390,0.006996,0.000453,0.007015,-0.003410,87.509050,0.007016,
1630,880,-2.099014,-8.746668,0.999996,0.000224,-0.004011,0.008427,-0.001029,0.008512,-0.004096,-85.302108,0.008514,
1880,1380,-2.508647,-5.145323,0.999995,0.000257,-0.003712,0.007554,0.000069,0.007554,-0.003712,89.647608,0.007555,
1720,1700,-1.176874,-2.319220,0.999998,0.000174,-0.003506,0.007491,0.000088,0.007492,-0.003507,89.539650,0.007497,
1660,1010,-2.453540,-7.695264,0.999996,0.000208,-0.003038,0.007638,-0.000267,0.007645,-0.003045,-88.565727,0.007697,
920,70,0.092986,-14.865346,0.999998,0.000162,-0.000377,0.005171,0.000918,0.005319,-0.000525,80.840842,0.005862,
980,1780,0.367979,-1.377685,0.999997,0.000220,-0.001930,0.006045,-0.000161,0.006049,-0.001933,-88.844652,0.006178,
650,330,1.453052,-12.766246,0.999997,0.000225,-0.003689,0.007552,0.000033,0.007552,-0.003689,89.830042,0.007553,
840,2020,0.048036,-0.083073,0.999998,0.000000,0.000070,0.005194,-0.001265,0.005489,-0.000225,-76.863432,0.006212,
1700,1910,-0.493149,-0.763650,0.999996,0.000212,-0.001956,0.006677,0.001496,0.006929,-0.002208,80.441579,0.007079,
1720,250,-0.906934,-13.581161,0.999998,0.000188,-0.002952,0.007401,-0.000710,0.007449,-0.003001,-86.094300,0.007496,
1450,1520,-0.528755,-2.980863,0.999997,0.000219,-0.003218,0.006647,-0.001042,0.006756,-0.003327,-84.036555,0.006756,
1680,1260,-2.046204,-5.723342,0.999998,0.000183,-0.004302,0.008308,0.000780,0.008356,-0.004350,86.471736,0.008358,
780,1630,1.195930,-2.763840,0.999997,0.000177,-0.003623,0.007510,0.000167,0.007512,-0.003625,89.141008,0.007514,
650,960,2.909840,-8.025948,0.999997,0.000203,-0.003285,0.006873,0.000263,0.006880,-0.003292,88.519040,0.006882,
570,1550,2.155130,-3.877920,0.999989,0.000427,-0.003630,0.007515,0.000050,0.007515,-0.003630,89.743299,0.007516,
690,1360,2.148838,-5.074149,0.999996,0.000251,-0.003980,0.007779,-0.000369,0.007790,-0.003992,-88.203300,0.007791,
1470,1130,-1.598887,-6.437783,0.999996,0.000246,-0.004678,0.010642,0.000249,0.010646,-0.004682,89.067592,0.010672,
960,1630,0.601669,-2.369651,0.999997,0.000204,-0.002873,0.006628,0.000474,0.006652,-0.002896,87.152017,0.006670,
1560,60,-0.079401,-14.915854,0.999998,0.000158,-0.000359,0.005167,-0.000949,0.005325,-0.000517,-80.522806,0.005874,
860,1510,1.107087,-3.481876,0.999998,0.000189,-0.004016,0.007753,0.000484,0.007773,-0.004036,87.648206,0.007775,
810,1680,0.992507,-2.325057,0.999997,0.000193,-0.003400,0.007355,0.000084,0.007355,-0.003400,89.553508,0.007362,
1230,190,0.001205,-14.319358,0.999998,0.000174,-0.000910,0.004954,0.000013,0.004954,-0.000911,89.875539,0.005274,
1650,1140,-2.273648,-6.680441,0.999997,0.000231,-0.003608,0.008113,0.000989,0.008196,-0.003691,85.211480,0.008209,
1430,630,-0.510665,-11.562769,0.999996,0.000246,-0.003836,0.006872,0.001683,0.007130,-0.004095,81.272834,0.007156,
1310,700,-0.140479,-11.664264,0.999996,0.000222,-0.002376,0.004371,0.002019,0.004929,-0.002934,74.546088,0.004959,
1280,760,-0.078833,-11.567362,0.999997,0.000207,-0.002013,0.002863,0.001902,0.003518,-0.002668,71.018200,0.003671,
1710,1840,-0.769404,-1.267800,0.999997,0.000185,-0.002649,0.007157,0.001000,0.007258,-0.002750,84.235772,0.007329,
1200,390,0.054173,-13.270602,0.999998,0.000190,-0.001668,0.005351,-0.000138,0.005354,-0.001671,-88.876960,0.005478,
1850,950,-3.020829,-8.072119,0.999998,0.000183,-0.003210,0.006621,-0.000235,0.006626,-0.003215,-88.633712,0.006627,
1850,1520,-2.060644,-4.006197,0.999997,0.000187,-0.003769,0.007609,-0.000047,0.007609,-0.003769,-89.763873,0.007609,
1520,550,-0.788245,-11.834633,0.999997,0.000212,-0.003762,0.007366,0.000874,0.007435,-0.003831,85.536350,0.007436,
860,540,1.097274,-11.678753,0.999997,0.000213,-0.003968,0.007760,-0.000487,0.007780,-0.003988,-87.626596,0.007781,
1610,860,-1.948444,-8.943740,0.999996,0.000253,-0.004343,0.008709,-0.000991,0.008783,-0.004418,-85.683877,0.008783,
1070,1510,0.358995,-2.886852,0.999997,0.000215,-0.002764,0.006061,0.001090,0.006194,-0.002896,83.063759,0.006198,
1640,900,-2.195388,-8.570646,0.999997,0.000213,-0.003779,0.008199,-0.000987,0.008280,-0.003860,-85.320235,0.008286,
680,150,0.724188,-14.206737,0.999997,0.000213,-0.002900,0.007510,0.001492,0.007720,-0.003109,82.000304,0.007769,
770,1750,0.975776,-1.895753,0.999998,0.000175,-0.003238,0.007248,-0.000242,0.007254,-0.003244,-88.677501,0.007267,
810,1990,0.139527,-0.245186,0.999997,0.000208,-0.000686,0.005614,-0.001451,0.005932,-0.001004,-77.635703,0.006350,
1810,490,-1.810194,-11.552666,0.999997,0.000195,-0.003806,0.007669,0.000101,0.007670,-0.003807,89.494600,0.007670,
1330,1390,-0.193002,-3.368537,0.999997,0.000200,-0.002679,0.005028,-0.001903,0.005472,-0.003123,-76.857817,0.005490,
690,750,2.300507,-9.617974,0.999996,0.000239,-0.003937,0.007793,0.000545,0.007818,-0.003962,87.345737,0.007819,
1640,1010,-2.394059,-7.696537,0.999997,0.000222,-0.002959,0.007726,-0.000264,0.007733,-0.002966,-88.585722,0.007802,
1750,320,-1.201248,-12.995666,0.999997,0.000192,-0.003579,0.007514,-0.000089,0.007514,-0.003580,-89.538636,0.007517,
900,920,1.967694,-8.478636,0.999997,0.000212,-0.003844,0.008882,0.001068,0.008971,-0.003933,85.234721,0.008994,
1610,880,-2.016687,-8.770137,0.999997,0.000246,-0.004116,0.008630,-0.001089,0.008722,-0.004208,-85.152001,0.008724,
730,1040,2.685177,-7.468116,0.999997,0.000209,-0.003226,0.007337,-0.000187,0.007340,-0.003229,-88.984946,0.007358,
790,560,1.417579,-11.340644,0.999997,0.000210,-0.004100,0.007896,-0.000212,0.007900,-0.004104,-88.986689,0.007902,
650,310,1.404654,-12.918165,0.999997,0.000212,-0.003616,0.007533,0.000137,0.007535,-0.003618,89.298151,0.007537,
840,30,0.031523,-15.063586,0.999998,0.000000,0.000133,0.005190,0.001378,0.005541,-0.000218,75.708404,0.006276,
1760,1960,-0.392410,-0.482134,0.999997,0.000191,-0.002303,0.006575,0.001817,0.006933,-0.002661,78.867693,0.006995,
900,70,0.100533,-14.863431,0.999998,0.000146,-0.000476,0.005253,0.000960,0.005410,-0.000633,80.735913,0.005916,
1410,1560,-0.388364,-2.620748,0.999996,0.000218,-0.002634,0.006161,-0.000833,0.006239,-0.002713,-84.635528,0.006257,
940,1340,1.054040,-4.621796,0.999997,0.000189,-0.005105,0.008751,0.000819,0.008799,-0.005153,86.627927,0.008842,
1680,1240,-2.104888,-5.887863,0.999998,0.000172,-0.004223,0.008219,0.000830,0.008274,-0.004278,86.200981,0.008275,
980,1760,0.394876,-1.500744,0.999997,0.000209,-0.002076,0.006089,-0.000074,0.006089,-0.002076,-89.480597,0.006191,
950,1440,0.839379,-3.758443,0.999997,0.000215,-0.004235,0.007735,0.001037,0.007824,-0.004324,85.086766,0.007839,
1170,1710,0.096482,-1.618974,0.999998,0.000155,-0.001495,0.005345,0.000036,0.005345,-0.001495,89.697408,0.005516,
730,1210,2.405523,-6.191853,0.999997,0.000224,-0.003842,0.007759,-0.000830,0.007819,-0.003901,-85.926676,0.007819,
1550,1990,-0.085466,-0.228478,0.999998,0.000160,-0.000325,0.005136,0.000920,0.005287,-0.000476,80.685452,0.005850,
950,1020,2.051095,-7.627186,0.999998,0.000166,-0.002769,0.009155,0.000101,0.009156,-0.002769,89.516298,0.009391,
1230,170,0.000308,-14.419278,0.999998,0.000160,-0.000787,0.004921,0.000003,0.004921,-0.000787,89.970472,0.005286,
1720,1680,-1.223664,-2.470728,0.999997,0.000197,-0.003576,0.007518,0.000006,0.007518,-0.003576,89.968686,0.007521,
1900,650,-2.522278,-10.116453,0.999996,0.000000,-0.003795,0.007549,-0.000069,0.007550,-0.003795,-89.653509,0.007550,
610,1360,2.458709,-5.234701,0.999996,0.000244,-0.003750,0.007573,-0.000209,0.007577,-0.003754,-88.940767,0.007577,
1270,1640,-0.067422,-1.984014,0.999998,0.000196,-0.001750,0.005310,-0.000147,0.005313,-0.001753,-88.810070,0.005414,
1470,1110,-1.701504,-6.654475,0.999995,0.000248,-0.004291,0.010864,0.000304,0.010870,-0.004297,88.852684,0.010949,
1760,1610,-1.522520,-3.099918,0.999995,0.000254,-0.003750,0.007617,-0.000138,0.007619,-0.003752,-89.307064,0.007619,
600,1980,0.522693,-0.523125,0.999996,0.000242,-0.003318,0.008706,-0.002138,0.009075,-0.003687,-80.212885,0.009128,
1500,1910,-0.196503,-0.642185,0.999997,0.000177,-0.001214,0.005468,0.000612,0.005524,-0.001269,84.813420,0.005787,
770,1300,1.982914,-5.410362,0.999997,0.000192,-0.004312,0.008218,-0.000596,0.008247,-0.004340,-87.282498,0.008251,
1280,740,-0.077427,-11.628078,0.999998,0.000171,-0.001917,0.003131,0.001736,0.003670,-0.002456,72.743819,0.003740,
810,1740,0.867754,-1.888685,0.999998,0.000180,-0.003103,0.007134,-0.000177,0.007137,-0.003107,-89.010678,0.007157,
1430,610,-0.500825,-11.699988,0.999996,0.000234,-0.003617,0.006830,0.001546,0.007054,-0.003841,81.758467,0.007063,
840,1150,2.144882,-6.576193,0.999998,0.000182,-0.003787,0.008326,-0.001023,0.008412,-0.003873,-85.206381,0.008420,
860,520,1.064784,-11.833560,0.999997,0.000217,-0.003838,0.007582,-0.000460,0.007601,-0.003856,-87.694881,0.007601,
1850,930,-2.988701,-8.206420,0.999998,0.000174,-0.003259,0.006788,-0.000382,0.006803,-0.003273,-87.826988,0.006804,
1520,530,-0.767574,-11.979579,0.999997,0.000203,-0.003618,0.007196,0.000795,0.007254,-0.003676,85.817578,0.007254,
1670,280,-0.837337,-13.450575,0.999998,0.000161,-0.003155,0.007160,-0.000355,0.007172,-0.003167,-88.033059,0.007188,
570,1400,2.538829,-5.026168,0.999550,0.002650,-0.005854,0.007851,-0.000224,0.007854,-0.005857,-89.065536,0.008164,
1070,1490,0.364526,-3.008598,0.999997,0.000192,-0.002910,0.006047,0.001263,0.006222,-0.003085,82.128607,0.006222,
810,1970,0.204634,-0.359982,0.999998,0.000189,-0.000949,0.005771,-0.001432,0.006063,-0.001241,-78.461084,0.006406,
1760,1650,-1.437324,-2.795277,0.999997,0.000216,-0.003706,0.007604,-0.000104,0.007605,-0.003707,-89.472107,0.007606,
1150,1960,0.027079,-0.345328,0.999998,0.000181,-0.000368,0.004692,-0.000156,0.004697,-0.000373,-88.235531,0.005222,
1490,70,-0.070527,-14.875147,0.999998,0.000137,-0.000454,0.004970,-0.000644,0.005045,-0.000529,-83.319652,0.005546,
1640,880,-2.139211,-8.734610,0.999996,0.000229,-0.003963,0.008327,-0.001001,0.008408,-0.004044,-85.375461,0.008410,
570,930,3.126745,-8.164403,0.999990,0.000410,-0.002996,0.006431,0.000192,0.006435,-0.003000,88.830989,0.006440,
570,1970,0.700816,-0.700113,0.999759,0.001733,-0.004274,0.009261,-0.002018,0.009555,-0.004568,-81.696925,0.009558,
900,900,1.894252,-8.658100,0.999997,0.000220,-0.004158,0.009066,0.001080,0.009153,-0.004246,85.362133,0.009161,
1790,1140,-2.763932,-6.760764,0.999998,0.000189,-0.003417,0.007126,0.000487,0.007148,-0.003439,87.363114,0.007150,
770,1730,1.018695,-2.040038,0.999998,0.000156,-0.003275,0.007344,-0.000135,0.007346,-0.003277,-89.273934,0.007360,
830,2020,0.048624,-0.082212,0.999998,0.000000,0.000037,0.005260,-0.001393,0.005608,-0.000312,-75.960882,0.006304,
1330,1370,-0.194404,-3.472071,0.999997,0.000197,-0.002739,0.004951,-0.002116,0.005495,-0.003283,-75.586921,0.005530,
660,150,0.782296,-14.172107,0.999997,0.000209,-0.002862,0.007675,0.001545,0.007897,-0.003083,81.828466,0.007960,
1230,150,0.001150,-14.516351,0.999998,0.000153,-0.000680,0.004864,-0.000010,0.004864,-0.000680,-89.900463,0.005268,
650,290,1.344174,-13.068638,0.999997,0.000208,-0.003593,0.007566,0.000208,0.007570,-0.003597,88.931658,0.007573,
940,1320,1.096955,-4.798321,0.999998,0.000180,-0.005248,0.008920,0.000692,0.008954,-0.005281,87.210050,0.009002,
1760,1940,-0.492313,-0.624403,0.999996,0.000224,-0.002640,0.007102,0.001756,0.007408,-0.002947,80.089579,0.007460,
1640,550,-1.263958,-11.503554,0.999997,0.000221,-0.004056,0.007836,0.000361,0.007847,-0.004067,88.262399,0.007849,
1040,950,1.513419,-8.723894,0.999987,0.000437,-0.005178,0.012479,-0.002658,0.012870,-0.005570,-81.621316,0.012909,
1290,700,-0.097829,-11.732597,0.999998,0.000167,-0.002018,0.003866,0.001616,0.004280,-0.002433,75.611586,0.004293,
760,910,2.453746,-8.445216,0.999996,0.000254,-0.003578,0.007769,0.000797,0.007824,-0.003633,86.003440,0.007831,
690,730,2.245417,-9.774365,0.999996,0.000226,-0.003987,0.007759,0.000476,0.007778,-0.004007,87.684283,0.007779,
1650,200,-0.560243,-14.038755,0.999996,0.000242,-0.002227,0.006687,-0.000929,0.006783,-0.002323,-84.111543,0.006894,
1810,470,-1.766499,-11.709462,0.999997,0.000210,-0.003798,0.007664,0.000122,0.007666,-0.003800,89.389743,0.007666,
900,1230,1.601326,-5.765950,0.999995,0.000236,-0.005092,0.009310,-0.000606,0.009336,-0.005117,-87.593253,0.009350,
1670,840,-2.138263,-9.037652,0.999997,0.000232,-0.004117,0.008224,-0.000937,0.008295,-0.004188,-85.681069,0.008295,
590,580,2.251588,-10.715122,0.999996,0.000211,-0.003677,0.007681,0.000058,0.007681,-0.003677,89.707467,0.007683,
1380,1300,-0.398201,-4.162262,0.999995,0.000262,-0.004506,0.006913,-0.002897,0.007606,-0.005199,-76.546880,0.007775,
870,2010,0.065343,-0.131147,0.999998,0.000167,-0.000436,0.005166,-0.001019,0.005345,-0.000615,-80.006793,0.005850,
1670,660,-1.626286,-10.542637,0.999997,0.000219,-0.004427,0.008197,-0.000079,0.008197,-0.004428,-89.641003,0.008206,
800,1490,1.386437,-3.795662,0.999996,0.000236,-0.004114,0.007888,0.000220,0.007892,-0.004118,88.950788,0.007894,
1490,1580,-0.610669,-2.676617,0.999997,0.000211,-0.003058,0.006770,-0.000682,0.006817,-0.003105,-86.046995,0.006826,
1520,1710,-0.551997,-1.875540,0.999998,0.000170,-0.002522,0.006542,-0.000080,0.006543,-0.002522,-89.496861,0.006600,
1600,170,-0.387903,-14.271717,0.999997,0.000219,-0.001779,0.006137,-0.000866,0.006231,-0.001873,-83.827212,0.006394,
1430,590,-0.492233,-11.833878,0.999996,0.000228,-0.003430,0.006689,0.001407,0.006881,-0.003622,82.229064,0.006884,
690,1300,2.313809,-5.542279,0.999997,0.000238,-0.003957,0.007758,-0.000551,0.007784,-0.003983,-87.312192,0.007785,
1550,1970,-0.127718,-0.335140,0.999998,0.000150,-0.000508,0.005272,0.000927,0.005417,-0.000653,81.103960,0.005914,
1800,1370,-2.230408,-5.049772,0.999997,0.000207,-0.003926,0.007667,0.000327,0.007676,-0.003935,88.385608,0.007677,
1120,1440,0.230316,-3.151203,0.999997,0.000197,-0.002654,0.005387,0.001543,0.005673,-0.002940,79.499797,0.005675,
860,500,1.034636,-11.984319,0.999998,0.000206,-0.003729,0.007476,-0.000458,0.007495,-0.003747,-87.662985,0.007495,
860,1150,2.071323,-6.557676,0.999998,0.000214,-0.003860,0.008532,-0.001033,0.008618,-0.003945,-85.269085,0.008628,
620,1830,1.243302,-1.642882,0.999996,0.000234,-0.003659,0.007610,-0.000256,0.007616,-0.003665,-88.698313,0.007618,
570,1390,2.561475,-5.101972,0.999601,0.002621,-0.005629,0.007731,0.000279,0.007736,-0.005635,88.805566,0.008001,
1410,1660,-0.336526,-2.013197,0.999998,0.000187,-0.002366,0.005967,-0.000479,0.005994,-0.002393,-86.722446,0.006035,
1470,1090,-1.793495,-6.881201,0.999996,0.000235,-0.003961,0.010776,0.000232,0.010780,-0.003964,89.099255,0.010905,
1850,910,-2.957149,-8.344740,0.999997,0.000184,-0.003281,0.006782,-0.000314,0.006792,-0.003291,-88.213930,0.006793,
1070,1470,0.368299,-3.126739,0.999997,0.000190,-0.003051,0.006163,0.001470,0.006392,-0.003280,81.152173,0.006393,
810,1950,0.268780,-0.476810,0.999997,0.000204,-0.001225,0.005995,-0.001392,0.006254,-0.001484,-79.454506,0.006535,
1520,310,-0.501063,-13.476002,0.999998,0.000193,-0.002357,0.006374,-0.000011,0.006374,-0.002357,-89.928072,0.006446,
1760,1630,-1.480368,-2.947002,0.999997,0.000191,-0.003735,0.007573,-0.000124,0.007574,-0.003736,-89.371715,0.007574,
1900,640,-2.498071,-10.191340,0.999996,0.000000,-0.003798,0.007548,-0.000056,0.007548,-0.003798,-89.718837,0.007548,
1280,720,-0.076705,-11.692640,0.999998,0.000175,-0.001881,0.003414,0.001554,0.003836,-0.002304,74.790587,0.003862,
570,920,3.111014,-8.229620,0.999990,0.000345,-0.003023,0.006525,0.000191,0.006529,-0.003027,88.852286,0.006534,
1720,1660,-1.268971,-2.622557,0.999997,0.000212,-0.003626,0.007554,-0.000087,0.007555,-0.003626,-89.555175,0.007557,
1750,1900,-0.648532,-0.892963,0.999996,0.000212,-0.002982,0.007224,0.001303,0.007387,-0.003146,82.835647,0.007415,
1890,920,-3.104375,-8.233584,0.999998,0.000171,-0.003216,0.006511,-0.000227,0.006516,-0.003221,-88.663501,0.006517,
830,30,0.031079,-15.064555,0.999998,0.000000,0.000049,0.005229,0.001431,0.005598,-0.000320,75.539065,0.006288,
1640,860,-2.076179,-8.906964,0.999996,0.000233,-0.004166,0.008458,-0.001001,0.008537,-0.004244,-85.493606,0.008537,
620,330,1.564379,-12.687284,0.999997,0.000219,-0.003653,0.007507,-0.000074,0.007508,-0.003653,-89.621724,0.007509,
1150,860,0.513626,-11.041927,0.999997,0.000226,-0.003263,0.002566,-0.001152,0.002785,-0.003482,-79.212882,0.003685,
1680,1220,-2.164639,-6.053895,0.999997,0.000200,-0.004142,0.008163,0.000916,0.008231,-0.004210,85.767358,0.008232,
1030,110,0.093992,-14.683669,0.999998,0.000183,-0.000640,0.005047,0.000459,0.005084,-0.000677,85.410805,0.005521,
930,1440,0.921802,-3.823577,0.999996,0.000226,-0.004300,0.007812,0.000878,0.007875,-0.004363,85.876683,0.007891,
980,1740,0.419052,-1.623510,0.999997,0.000200,-0.002185,0.006199,0.000016,0.006199,-0.002185,89.890104,0.006289,
770,1710,1.063948,-2.191011,0.999998,0.000153,-0.003284,0.007350,-0.000113,0.007352,-0.003285,-89.390881,0.007365,
690,710,2.189926,-9.928309,0.999996,0.000221,-0.004001,0.007748,0.000419,0.007763,-0.004016,87.958141,0.007764,
1870,580,-2.239889,-10.723029,0.999998,0.000188,-0.003831,0.007651,-0.000018,0.007652,-0.003831,-89.911171,0.007652,
1670,600,-1.489005,-11.031401,0.999997,0.000201,-0.004223,0.007967,0.000124,0.007969,-0.004224,89.415625,0.007973,
1720,230,-0.843750,-13.730418,0.999997,0.000181,-0.002826,0.007306,-0.000866,0.007379,-0.002899,-85.149063,0.007436,
860,2010,0.070157,-0.131930,0.999998,0.000156,-0.000335,0.005178,-0.001069,0.005378,-0.000535,-79.405103,0.005925,
650,270,1.288147,-13.223350,0.999997,0.000213,-0.003546,0.007632,0.000299,0.007640,-0.003554,88.466940,0.007647,
1040,930,1.399618,-8.958230,0.999995,0.000260,-0.004966,0.011125,-0.002237,0.011430,-0.005271,-82.229337,0.011442,
1380,1280,-0.424465,-4.302839,0.999996,0.000242,-0.004759,0.007148,-0.003055,0.007886,-0.005496,-76.419213,0.008088,
1170,700,0.105568,-11.723841,0.999998,0.000174,-0.002063,0.003953,-0.001665,0.004383,-0.002492,-75.518708,0.004397,
1760,1920,-0.588594,-0.765163,0.999997,0.000204,-0.002863,0.007125,0.001524,0.007353,-0.003091,81.516701,0.007384,
860,480,1.003176,-12.131988,0.999997,0.000209,-0.003662,0.007447,-0.000443,0.007465,-0.003679,-87.718684,0.007465,
1430,570,-0.483993,-11.965752,0.999997,0.000197,-0.003302,0.006554,0.001310,0.006725,-0.003473,82.555475,0.006726,
940,1300,1.152563,-4.979841,0.999997,0.000198,-0.005405,0.009138,0.000527,0.009157,-0.005424,87.927039,0.009209,
1090,1400,0.319154,-3.485535,0.999998,0.000183,-0.003323,0.006008,0.002026,0.006429,-0.003744,78.263825,0.006458,
1120,1420,0.231135,-3.258747,0.999998,0.000200,-0.002693,0.005397,0.001750,0.005759,-0.003055,78.302834,0.005763,
1300,1810,-0.075259,-1.089544,0.999999,0.000134,-0.001058,0.005162,0.000079,0.005163,-0.001059,89.276815,0.005454,
1900,630,-2.472970,-10.267961,0.999996,0.000000,-0.003835,0.007610,-0.000050,0.007610,-0.003836,-89.749674,0.007610,
1280,1790,-0.059047,-1.189490,0.999998,0.000179,-0.001166,0.005195,0.000014,0.005195,-0.001166,89.874741,0.005451,
1650,260,-0.725966,-13.627179,0.999997,0.000202,-0.002704,0.006950,-0.000536,0.006980,-0.002734,-86.834053,0.007034,
1230,130,0.000744,-14.612563,0.999998,0.000143,-0.000565,0.004761,-0.000019,0.004761,-0.000565,-89.794475,0.005203,
1550,1950,-0.166668,-0.439232,0.999998,0.000178,-0.000653,0.005465,0.000935,0.005605,-0.000793,81.504781,0.006066,
1810,450,-1.723332,-11.860720,0.999997,0.000218,-0.003807,0.007593,0.000133,0.007594,-0.003808,89.332750,0.007594,
1850,890,-2.925011,-8.479859,0.999998,0.000187,-0.003305,0.006769,-0.000290,0.006778,-0.003314,-88.350243,0.006778,
760,90,0.283090,-14.708106,0.999997,0.000194,-0.001061,0.006041,0.001720,0.006436,-0.001456,77.080150,0.006750,
1070,1450,0.373933,-3.255420,0.999997,0.000206,-0.003211,0.006269,0.001652,0.006549,-0.003490,80.391236,0.006553,
810,1930,0.331287,-0.598856,0.999997,0.000211,-0.001525,0.006173,-0.001328,0.006395,-0.001747,-80.481679,0.006611,
1350,1440,-0.251296,-3.173253,0.999997,0.000201,-0.002717,0.005553,-0.001588,0.005848,-0.003012,-79.494499,0.005849,
680,1150,2.723270,-6.684572,0.999998,0.000152,-0.003466,0.007218,-0.000523,0.007244,-0.003492,-87.202717,0.007245,
910,740,1.269915,-10.170700,0.999995,0.000275,-0.005217,0.008988,-0.000273,0.008993,-0.005222,-88.898613,0.009032,
1680,190,-0.604589,-14.069354,0.999997,0.000210,-0.002588,0.006866,-0.000984,0.006967,-0.002689,-84.119153,0.007028,
1520,290,-0.473004,-13.600716,0.999997,0.000202,-0.002264,0.006326,-0.000137,0.006328,-0.002266,-89.088148,0.006413,
570,910,3.094205,-8.294533,0.999994,0.000280,-0.003053,0.006498,0.000151,0.006501,-0.003055,89.096468,0.006505,
810,1720,0.908954,-2.031414,0.999997,0.000209,-0.003255,0.007164,-0.000062,0.007164,-0.003256,-89.661110,0.007174,
600,1850,1.236529,-1.555623,0.999997,0.000185,-0.003649,0.007502,-0.000307,0.007511,-0.003658,-88.422368,0.007511,
770,1690,1.110361,-2.337178,0.999998,0.000157,-0.003365,0.007408,-0.000048,0.007408,-0.003365,-89.744657,0.007418,
1390,1660,-0.290175,-1.981436,0.999998,0.000197,-0.002154,0.005814,-0.000413,0.005835,-0.002175,-87.038669,0.005898,
820,2020,0.046050,-0.079841,0.999999,0.000000,-0.000127,0.005296,-0.001401,0.005636,-0.000468,-76.335382,0.006255,
640,890,2.833739,-8.507517,0.999997,0.000218,-0.003412,0.007036,0.000431,0.007053,-0.003430,87.639901,0.007054,
1030,90,0.074787,-14.781559,0.999998,0.000152,-0.000470,0.004896,0.000449,0.004933,-0.000508,85.248967,0.005427,
1460,1050,-1.872821,-7.297761,0.999994,0.000309,-0.003871,0.012079,-0.000093,0.012080,-0.003872,-89.665737,0.012336,
1700,230,-0.786992,-13.760780,0.999996,0.000216,-0.002826,0.007185,-0.000811,0.007250,-0.002891,-85.396315,0.007300,
1330,1350,-0.193481,-3.569882,0.999997,0.000195,-0.002799,0.004972,-0.002361,0.005633,-0.003460,-74.357301,0.005682,
1870,570,-2.216358,-10.799419,0.999998,0.000189,-0.003835,0.007644,-0.000018,0.007644,-0.003835,-89.909928,0.007644,
1650,600,-1.404020,-11.080666,0.999997,0.000218,-0.004256,0.008006,0.000194,0.008009,-0.004259,89.093313,0.008015,
650,250,1.219752,-13.377328,0.999997,0.000214,-0.003523,0.007650,0.000417,0.007666,-0.003539,87.865080,0.007673,
1880,920,-3.071054,-8.245063,0.999998,0.000178,-0.003227,0.006583,-0.000246,0.006589,-0.003233,-88.561884,0.006589,
600,330,1.637632,-12.632486,0.999998,0.000171,-0.003656,0.007461,-0.000099,0.007462,-0.003657,-89.491652,0.007462,
940,2000,0.059195,-0.175536,0.999999,0.000143,-0.000291,0.004960,-0.000742,0.005063,-0.000394,-82.107709,0.005633,
940,1280,1.211334,-5.164842,0.999995,0.000238,-0.005500,0.009337,0.000359,0.009345,-0.005509,88.613635,0.009395,
860,460,0.971606,-12.281770,0.999998,0.000212,-0.003575,0.007386,-0.000396,0.007401,-0.003590,-87.935742,0.007402,
940,1230,1.390092,-5.643469,0.999995,0.000254,-0.005470,0.009731,-0.000207,0.009734,-0.005473,-89.220391,0.009759,
1430,550,-0.474316,-12.095347,0.999997,0.000218,-0.003222,0.006532,0.001213,0.006681,-0.003371,83.018365,0.006681,
570,1380,2.569978,-5.174176,0.999685,0.002163,-0.005588,0.007729,0.000389,0.007740,-0.005599,88.326504,0.007993,
1720,1640,-1.308818,-2.774536,0.999998,0.000199,-0.003679,0.007584,-0.000131,0.007586,-0.003681,-89.335225,0.007587,
1570,890,-1.882309,-8.740622,0.999997,0.000196,-0.004277,0.009037,-0.001087,0.009125,-0.004365,-85.363239,0.009128,
1640,840,-2.013303,-9.074967,0.999997,0.000190,-0.004319,0.008470,-0.000907,0.008534,-0.004383,-85.965455,0.008535,
1070,1400,0.387918,-3.572388,0.999996,0.000216,-0.003526,0.006436,0.001983,0.006816,-0.003906,79.147441,0.006840,
1760,1900,-0.679986,-0.910515,0.999997,0.000208,-0.003080,0.007327,0.001311,0.007490,-0.003243,82.929857,0.007512,
1550,1930,-0.212193,-0.554249,0.999998,0.000181,-0.000854,0.005597,0.000899,0.005720,-0.000976,82.212358,0.006120,
1280,700,-0.077650,-11.763183,0.999998,0.000175,-0.001894,0.003640,0.001403,0.003975,-0.002229,76.555551,0.003985,
1020,950,1.607222,-8.560786,0.999994,0.000287,-0.004639,0.011854,-0.000920,0.011905,-0.004690,-86.818289,0.011994,
1170,1690,0.099403,-1.727256,0.999998,0.000159,-0.001578,0.005365,0.000080,0.005365,-0.001579,89.340194,0.005515,
1070,1430,0.380262,-3.382732,0.999997,0.000188,-0.003352,0.006238,0.001782,0.006558,-0.003672,79.805957,0.006574,
1850,870,-2.886613,-8.616554,0.999997,0.000197,-0.003383,0.006975,-0.000380,0.006989,-0.003397,-87.902966,0.006990,
1230,110,0.000927,-14.708048,0.999998,0.000145,-0.000483,0.004695,-0.000008,0.004695,-0.000483,-89.911477,0.005165,
730,1190,2.456178,-6.343798,0.999997,0.000227,-0.003747,0.007674,-0.000807,0.007731,-0.003803,-85.978148,0.007731,
1330,1440,-0.197067,-3.110721,0.999998,0.000183,-0.002484,0.005215,-0.001392,0.005459,-0.002728,-80.059806,0.005459,
1590,160,-0.345943,-14.340416,0.999998,0.000183,-0.001716,0.006057,-0.000877,0.006154,-0.001814,-83.644120,0.006325,
1180,1810,0.058034,-1.085447,0.999999,0.000129,-0.001072,0.005155,-0.000054,0.005156,-0.001072,-89.500379,0.005441,
810,1910,0.397238,-0.722976,0.999997,0.000213,-0.001759,0.006326,-0.001197,0.006500,-0.001932,-81.754152,0.006675,
770,1670,1.151315,-2.485296,0.999998,0.000165,-0.003477,0.007465,0.000049,0.007465,-0.003477,89.742803,0.007471,
980,1720,0.444208,-1.747216,0.999997,0.000205,-0.002307,0.006259,0.000135,0.006262,-0.002309,89.096723,0.006333,
690,1440,1.947095,-4.446971,0.999997,0.000182,-0.003955,0.007788,-0.000088,0.007789,-0.003955,-89.573074,0.007789,
1710,1760,-1.004343,-1.855840,0.999998,0.000196,-0.003136,0.007374,0.000364,0.007387,-0.003149,88.017037,0.007414,
1840,1690,-1.641402,-2.687540,0.999996,0.000234,-0.003680,0.007538,-0.000054,0.007538,-0.003680,-89.725367,0.007539,
900,530,0.927771,-11.861920,0.999998,0.000204,-0.003844,0.007516,-0.000647,0.007553,-0.003880,-86.748200,0.007554,
660,1150,2.792056,-6.700613,0.999997,0.000181,-0.003428,0.007077,-0.000462,0.007097,-0.003448,-87.488822,0.007098,
1870,560,-2.192414,-10.875881,0.999997,0.000225,-0.003833,0.007637,-0.000012,0.007637,-0.003833,-89.942161,0.007637,
1810,430,-1.679131,-12.013738,0.999997,0.000209,-0.003789,0.007584,0.000128,0.007586,-0.003791,89.357595,0.007586,
690,690,2.137130,-10.086043,0.999997,0.000212,-0.004002,0.007789,0.000375,0.007801,-0.004014,88.181923,0.007802,
1880,1450,-2.335950,-4.613137,0.999996,0.000277,-0.003792,0.007678,0.000032,0.007678,-0.003792,89.839391,0.007678,
570,900,3.077572,-8.360379,0.999994,0.000275,-0.003080,0.006473,0.000118,0.006474,-0.003081,89.290256,0.006477,
1680,1200,-2.224973,-6.216113,0.999997,0.000210,-0.004003,0.008154,0.000930,0.008224,-0.004074,85.649123,0.008225,
600,1830,1.315604,-1.707472,0.999997,0.000191,-0.003646,0.007498,-0.000222,0.007503,-0.003650,-88.860546,0.007504,
820,30,0.028549,-15.064008,0.999998,0.000000,-0.000174,0.005244,0.001440,0.005603,-0.000533,75.999973,0.006185,
1660,550,-1.345068,-11.452128,0.999997,0.000213,-0.004075,0.007846,0.000270,0.007852,-0.004081,88.703460,0.007854,
1460,1030,-1.892002,-7.532226,0.999996,0.000263,-0.003838,0.011688,-0.000038,0.011688,-0.003838,-89.860774,0.011915,
650,230,1.152913,-13.531451,0.999997,0.000211,-0.003452,0.007646,0.000554,0.007673,-0.003479,87.147172,0.007685,
1330,1330,-0.193209,-3.663790,0.999997,0.000201,-0.002914,0.004878,-0.002584,0.005657,-0.003693,-73.225303,0.005744,
1110,1680,0.210076,-1.829566,0.999998,0.000161,-0.001842,0.005641,0.000257,0.005650,-0.001851,88.033793,0.005761,
1430,530,-0.462507,-12.228014,0.999997,0.000224,-0.003149,0.006473,0.001132,0.006604,-0.003280,83.379511,0.006604,
1070,1380,0.394453,-3.702685,0.999996,0.000242,-0.003711,0.006573,0.002158,0.007008,-0.004145,78.614015,0.007047,
1880,640,-2.420329,-10.239623,0.999996,0.000223,-0.003799,0.007589,-0.000087,0.007589,-0.003799,-89.561420,0.007589,
960,590,0.764156,-11.588465,0.999997,0.000215,-0.004039,0.007507,-0.001085,0.007608,-0.004140,-84.679964,0.007618,
740,550,1.600910,-11.298325,0.999995,0.000277,-0.004014,0.007806,-0.000114,0.007807,-0.004015,-89.447682,0.007808,
940,1260,1.277524,-5.353915,0.999996,0.000243,-0.005538,0.009528,0.000142,0.009529,-0.005539,89.461913,0.009571,
1030,2000,0.035416,-0.167168,0.999998,0.000157,-0.000256,0.004714,-0.000444,0.004754,-0.000295,-84.933693,0.005327,
1550,1910,-0.251837,-0.664816,0.999998,0.000184,-0.001022,0.005701,0.000833,0.005803,-0.001123,83.041111,0.006155,
1680,1250,-2.075726,-5.805914,0.999998,0.000164,-0.004263,0.008269,0.000802,0.008320,-0.004314,86.352476,0.008322,
1720,1620,-1.353182,-2.926997,0.999997,0.000204,-0.003721,0.007591,-0.000145,0.007593,-0.003723,-89.268076,0.007594,
1640,820,-1.948624,-9.246365,0.999997,0.000208,-0.004446,0.008568,-0.000830,0.008621,-0.004498,-86.365342,0.008623,
1760,1880,-0.764772,-1.058213,0.999997,0.000184,-0.003220,0.007339,0.001072,0.007447,-0.003328,84.258531,0.007461,
800,530,1.319378,-11.603176,0.999995,0.000243,-0.003978,0.007763,-0.000293,0.007770,-0.003986,-88.569056,0.007771,
1850,850,-2.841318,-8.759132,0.999997,0.000191,-0.003460,0.007069,-0.000435,0.007086,-0.003478,-87.639911,0.007087,
1280,680,-0.080274,-11.840013,0.999998,0.000190,-0.001931,0.003903,0.001264,0.004165,-0.002193,78.289527,0.004167,
670,1340,2.281648,-5.265710,0.999997,0.000205,-0.003942,0.007684,-0.000434,0.007700,-0.003958,-87.864271,0.007701,
810,1890,0.459783,-0.853236,0.999997,0.000204,-0.001960,0.006476,-0.001116,0.006621,-0.002105,-82.592689,0.006766,
1230,90,0.001000,-14.799492,0.999999,0.000143,-0.000391,0.004609,0.000005,0.004609,-0.000391,89.941563,0.005112,
860,440,0.939633,-12.430702,0.999998,0.000235,-0.003455,0.007304,-0.000346,0.007315,-0.003467,-88.158935,0.007319,
1070,1410,0.386145,-3.506090,0.999997,0.000194,-0.003468,0.006371,0.001922,0.006733,-0.003830,79.327558,0.006754,
860,1210,1.864770,-6.032877,0.999996,0.000262,-0.004531,0.008824,-0.000915,0.008886,-0.004594,-86.099194,0.008888,
1770,1440,-1.935572,-4.439981,0.999997,0.000210,-0.003999,0.007803,0.000094,0.007804,-0.004000,89.541943,0.007805,
770,1650,1.191900,-2.634837,0.999997,0.000190,-0.003582,0.007485,0.000124,0.007487,-0.003583,89.357416,0.007489,
1170,1980,0.014954,-0.252059,0.999998,0.000149,-0.000180,0.004598,-0.000149,0.004602,-0.000184,-88.213586,0.005211,
1810,410,-1.636365,-12.166076,0.999997,0.000219,-0.003757,0.007572,0.000104,0.007573,-0.003758,89.475487,0.007573,
1650,460,-1.142866,-12.171668,0.999997,0.000246,-0.003706,0.007493,0.000288,0.007500,-0.003713,88.530040,0.007500,
1560,1830,-0.434750,-1.149330,0.999998,0.000174,-0.001874,0.006187,0.000557,0.006226,-0.001913,86.065056,0.006378,
810,2020,0.048043,-0.080575,0.999998,0.000000,-0.000362,0.005337,-0.001366,0.005648,-0.000673,-77.195405,0.006170,
1690,1760,-0.940030,-1.817239,0.999998,0.000182,-0.003220,0.007256,0.000311,0.007265,-0.003230,88.300424,0.007280,
1190,700,0.064417,-11.782462,0.999998,0.000166,-0.001811,0.003539,-0.001205,0.003798,-0.002070,-77.873659,0.003803,
980,1700,0.465988,-1.872507,0.999997,0.000218,-0.002459,0.006271,0.000259,0.006279,-0.002467,88.300149,0.006326,
1850,580,-2.162154,-10.768554,0.999997,0.000201,-0.003824,0.007638,-0.000035,0.007638,-0.003824,-89.823981,0.007638,
900,1150,1.912876,-6.506802,0.999997,0.000203,-0.004088,0.009032,-0.001107,0.009125,-0.004180,-85.208747,0.009136,
900,550,0.956562,-11.709227,0.999997,0.000198,-0.003944,0.007626,-0.000669,0.007664,-0.003983,-86.703269,0.007666,
1350,1720,-0.187136,-1.603353,0.999997,0.000196,-0.001726,0.005548,-0.000181,0.005552,-0.001731,-88.575849,0.005682,
990,1080,1.841024,-6.988868,0.999997,0.000219,-0.003724,0.010541,-0.000303,0.010548,-0.003730,-88.783873,0.010697,
650,210,1.076959,-13.687439,0.999997,0.000211,-0.003387,0.007708,0.000704,0.007752,-0.003432,86.382076,0.007769,
1020,1550,0.489123,-2.763857,0.999996,0.000211,-0.003091,0.006526,0.000968,0.006622,-0.003188,84.306787,0.006624,
1330,1310,-0.200317,-3.760563,0.999997,0.000220,-0.003088,0.004816,-0.002827,0.005723,-0.003995,-72.211524,0.005871,
1430,510,-0.451509,-12.360624,0.999997,0.000207,-0.003003,0.006389,0.001003,0.006495,-0.003109,83.972372,0.006497,
1210,1280,0.036322,-3.497508,0.999998,0.000188,-0.001803,0.001975,0.000972,0.002210,-0.002038,76.382529,0.002459,
1830,200,-1.097114,-13.715048,0.999997,0.000226,-0.003548,0.007691,-0.000497,0.007713,-0.003570,-87.472873,0.007720,
940,1240,1.351727,-5.545624,0.999995,0.000247,-0.005526,0.009666,-0.000078,0.009666,-0.005527,-89.707160,0.009699,
1640,800,-1.884569,-9.417395,0.999997,0.000217,-0.004550,0.008588,-0.000752,0.008630,-0.004593,-86.733982,0.008636,
1720,1600,-1.392901,-3.079697,0.999997,0.000216,-0.003769,0.007598,-0.000172,0.007601,-0.003772,-89.133076,0.007601,
1550,1890,-0.295822,-0.782414,0.999998,0.000188,-0.001239,0.005824,0.000806,0.005915,-0.001330,83.574524,0.006206,
1750,1440,-1.854862,-4.394981,0.999998,0.000157,-0.004024,0.007846,0.000081,0.007846,-0.004024,89.608843,0.007847,
1150,1980,0.018852,-0.252128,0.999998,0.000147,-0.000254,0.004636,-0.000168,0.004642,-0.000260,-88.034033,0.005216,
810,1870,0.522440,-0.982328,0.999996,0.000233,-0.002174,0.006578,-0.000988,0.006688,-0.002284,-83.641913,0.006799,
810,30,0.033743,-15.063188,0.999997,0.000000,-0.000399,0.005273,0.001433,0.005615,-0.000741,76.597215,0.006101,
600,1960,0.667047,-0.696780,0.999996,0.000233,-0.003447,0.008296,-0.001727,0.008545,-0.003696,-81.804803,0.008571,
1900,620,-2.447625,-10.344292,0.999997,0.000000,-0.003823,0.007652,-0.000055,0.007652,-0.003823,-89.727129,0.007652,
1180,390,0.087227,-13.263795,0.999998,0.000162,-0.001676,0.005373,-0.000112,0.005375,-0.001678,-89.089878,0.005499,
1640,270,-0.726498,-13.572010,0.999998,0.000165,-0.002582,0.006907,-0.000507,0.006934,-0.002609,-86.952667,0.007004,
1540,1630,-0.710563,-2.443325,0.999997,0.000193,-0.003150,0.006926,-0.000425,0.006944,-0.003168,-87.586576,0.006952,
1120,1400,0.229945,-3.368931,0.999998,0.000205,-0.002749,0.005372,0.001916,0.005801,-0.003178,77.370726,0.005810,
1330,1720,-0.151676,-1.585019,0.999998,0.000202,-0.001731,0.005472,-0.000230,0.005480,-0.001738,-88.174506,0.005601,
690,670,2.083892,-10.240992,0.999998,0.000198,-0.003983,0.007825,0.000287,0.007832,-0.003990,88.607506,0.007833,
770,1630,1.232806,-2.787456,0.999997,0.000202,-0.003655,0.007536,0.000165,0.007538,-0.003658,89.155087,0.007539,
1380,1260,-0.470682,-4.453002,0.999995,0.000274,-0.005053,0.007425,-0.003140,0.008171,-0.005798,-76.643568,0.008407,
860,2000,0.090892,-0.182951,0.999999,0.000136,-0.000429,0.005290,-0.001131,0.005505,-0.000644,-79.208741,0.006020,
1560,1810,-0.471926,-1.275334,0.999997,0.000206,-0.001993,0.006357,0.000469,0.006383,-0.002020,86.791890,0.006525,
1070,1390,0.391002,-3.637744,0.999996,0.000221,-0.003609,0.006517,0.002059,0.006920,-0.004011,78.932334,0.006949,
1470,1070,-1.861970,-7.085256,0.999995,0.000245,-0.003689,0.010873,0.000162,0.010875,-0.003691,89.363823,0.011060,
1850,830,-2.793256,-8.901188,0.999997,0.000192,-0.003488,0.007020,-0.000411,0.007036,-0.003504,-87.762509,0.007036,
1680,1180,-2.278800,-6.379760,0.999996,0.000246,-0.003848,0.008010,0.000893,0.008077,-0.003915,85.716791,0.008078,
570,1960,0.773986,-0.793033,0.999923,0.000981,-0.004019,0.009057,-0.001842,0.009312,-0.004273,-82.131538,0.009322,
960,570,0.746523,-11.737464,0.999998,0.000207,-0.003826,0.007362,-0.001041,0.007459,-0.003922,-84.728332,0.007462,
650,630,2.140267,-10.468937,0.999998,0.000192,-0.003885,0.007721,0.000138,0.007722,-0.003887,89.320919,0.007722,
750,560,1.581213,-11.243988,0.999996,0.000242,-0.004053,0.007816,-0.000125,0.007817,-0.004055,-89.395646,0.007819,
1050,840,0.812916,-9.988975,0.999996,0.000224,-0.005713,0.009184,-0.002112,0.009478,-0.006007,-82.085022,0.009590,
1430,490,-0.438484,-12.487321,0.999997,0.000203,-0.002825,0.006369,0.000867,0.006450,-0.002906,84.659233,0.006461,
1450,1980,-0.064230,-0.267028,0.999999,0.000152,-0.000331,0.004937,0.000543,0.004993,-0.000387,84.179378,0.005555,
650,1340,2.360427,-5.303602,0.999997,0.000220,-0.003837,0.007637,-0.000369,0.007649,-0.003849,-88.160740,0.007649,
1330,1290,-0.211575,-3.857950,0.999997,0.000223,-0.003322,0.004808,-0.003073,0.005839,-0.004353,-71.454901,0.006069,
1230,70,0.000881,-14.891699,0.999998,0.000154,-0.000290,0.004563,0.000011,0.004563,-0.000290,89.875773,0.005110,
1280,660,-0.082406,-11.923202,0.999998,0.000202,-0.001963,0.004136,0.001098,0.004327,-0.002154,80.101646,0.004327,
900,650,1.114052,-10.916757,0.999996,0.000224,-0.004639,0.008246,-0.000626,0.008276,-0.004669,-87.226886,0.008299,
1760,1860,-0.844680,-1.205576,0.999997,0.000183,-0.003336,0.007435,0.000858,0.007503,-0.003404,85.471844,0.007514,
1870,640,-2.382361,-10.262709,0.999997,0.000219,-0.003793,0.007613,-0.000109,0.007614,-0.003794,-89.451863,0.007614,
1600,990,-2.262530,-7.860619,0.999997,0.000208,-0.002944,0.007993,-0.000458,0.008012,-0.002963,-87.607553,0.008102,
1830,1680,-1.627693,-2.738537,0.999997,0.000201,-0.003732,0.007580,-0.000059,0.007580,-0.003732,-89.700220,0.007581,
580,1400,2.469548,-5.001100,0.999996,0.000232,-0.005229,0.007691,-0.000190,0.007694,-0.005232,-89.157182,0.007859,
860,420,0.907946,-12.576535,0.999997,0.000241,-0.003311,0.007240,-0.000247,0.007246,-0.003317,-88.660798,0.007254,
1430,140,-0.125992,-14.530333,0.999998,0.000174,-0.000881,0.005175,-0.000378,0.005199,-0.000904,-86.445097,0.005555,
1670,1180,-2.240731,-6.369980,0.999996,0.000259,-0.003874,0.008105,0.000928,0.008176,-0.003946,85.595902,0.008178,
980,1680,0.490228,-2.000675,0.999997,0.000203,-0.002608,0.006378,0.000323,0.006390,-0.002620,87.942366,0.006424,
1820,90,-0.482595,-14.612323,0.999996,0.000257,-0.002516,0.007724,-0.002265,0.008203,-0.002995,-78.067781,0.008301,
1640,780,-1.821810,-9.590500,0.999997,0.000239,-0.004618,0.008648,-0.000638,0.008678,-0.004649,-87.254868,0.008686,
1900,610,-2.425128,-10.421698,0.999997,0.000000,-0.003783,0.007672,-0.000053,0.007672,-0.003783,-89.733048,0.007673,
700,1470,1.838037,-4.188986,0.999997,0.000181,-0.003992,0.007785,0.000000,0.007785,-0.003992,89.999241,0.007786,
900,880,1.814971,-8.842197,0.999997,0.000222,-0.004486,0.009135,0.001024,0.009211,-0.004563,85.725191,0.009211,
1550,1870,-0.338049,-0.897321,0.999998,0.000186,-0.001397,0.005926,0.000702,0.005993,-0.001464,84.577503,0.006249,
940,1220,1.428802,-5.740147,0.999996,0.000252,-0.005401,0.009748,-0.000336,0.009755,-0.005408,-88.731271,0.009774,
1810,390,-1.588589,-12.317634,0.999996,0.000239,-0.003734,0.007577,0.000070,0.007578,-0.003734,89.647797,0.007578,
1720,1580,-1.432588,-3.231057,0.999997,0.000214,-0.003856,0.007642,-0.000207,0.007645,-0.003860,-88.967708,0.007645,
1600,580,-1.153740,-11.372840,0.999997,0.000221,-0.004174,0.007921,0.000501,0.007942,-0.004195,87.631386,0.007946,
670,1400,2.126362,-4.802536,0.999997,0.000206,-0.003920,0.007745,-0.000220,0.007749,-0.003924,-88.921852,0.007750,
1630,460,-1.067709,-12.217286,0.999996,0.000244,-0.003623,0.007446,0.000312,0.007455,-0.003632,88.387136,0.007456,
800,2020,0.055586,-0.086094,0.999998,0.000000,-0.000583,0.005372,-0.001355,0.005666,-0.000877,-77.761351,0.006099,
690,650,2.035763,-10.399659,0.999998,0.000202,-0.003987,0.007824,0.000203,0.007828,-0.003991,89.016448,0.007828,
1120,1380,0.230454,-3.474323,0.999997,0.000194,-0.002840,0.005338,0.002070,0.005832,-0.003335,76.574165,0.005852,
1230,460,0.003139,-12.911988,0.999998,0.000163,-0.001843,0.005216,-0.000025,0.005216,-0.001843,-89.793092,0.005290,
1030,70,0.051215,-14.880154,0.999998,0.000162,-0.000348,0.004848,0.000492,0.004894,-0.000394,84.637314,0.005438,
780,110,0.331698,-14.594025,0.999996,0.000231,-0.001519,0.006314,0.001613,0.006633,-0.001838,78.809592,0.006849,
770,1610,1.272182,-2.938545,0.999997,0.000203,-0.003707,0.007549,0.000203,0.007553,-0.003711,88.969394,0.007553,
1070,1370,0.394820,-3.768694,0.999996,0.000230,-0.003832,0.006638,0.002245,0.007099,-0.004293,78.393070,0.007151,
1470,1050,-1.911831,-7.314341,0.999995,0.000269,-0.003515,0.011328,0.000097,0.011329,-0.003515,89.624115,0.011598,
1620,1310,-1.618763,-5.181803,0.999997,0.000248,-0.004788,0.008681,0.000314,0.008689,-0.004795,88.666307,0.008704,
1520,1630,-0.649420,-2.401484,0.999998,0.000205,-0.002940,0.006747,-0.000453,0.006768,-0.002962,-87.327761,0.006786,
1160,390,0.120785,-13.255475,0.999998,0.000142,-0.001743,0.005422,-0.000187,0.005427,-0.001748,-88.505012,0.005540,
730,620,1.799594,-10.723096,0.999998,0.000188,-0.004101,0.007886,0.000074,0.007886,-0.004101,89.645017,0.007888,
1070,1130,1.236309,-5.689707,0.999991,0.000333,-0.003755,0.010290,0.005327,0.012082,-0.005547,71.408409,0.012096,
900,1830,0.440382,-1.152300,0.999998,0.000174,-0.001911,0.006229,-0.000548,0.006266,-0.001948,-86.162815,0.006414,
940,790,1.261308,-9.812804,0.999996,0.000219,-0.005565,0.009484,-0.000246,0.009488,-0.005569,-89.063260,0.009536,
1050,820,0.731021,-10.173122,0.999995,0.000280,-0.005813,0.008980,-0.002245,0.009313,-0.006146,-81.557908,0.009471,
920,1910,0.242688,-0.662807,0.999998,0.000154,-0.001011,0.005670,-0.000803,0.005765,-0.001107,-83.240994,0.006119,
1430,470,-0.428964,-12.614987,0.999997,0.000204,-0.002671,0.006292,0.000727,0.006350,-0.002729,85.393490,0.006371,
1580,990,-2.204215,-7.867346,0.999998,0.000173,-0.002917,0.008190,-0.000514,0.008214,-0.002941,-87.354219,0.008324,
1160,830,0.264869,-11.223167,0.999996,0.000235,-0.003295,0.003068,-0.002052,0.003672,-0.003899,-73.589345,0.004377,
1380,1240,-0.524599,-4.604049,0.999995,0.000277,-0.005152,0.007705,-0.003114,0.008420,-0.005866,-77.076364,0.008634,
1760,1310,-2.233907,-5.441394,0.999996,0.000238,-0.004032,0.007881,0.000556,0.007907,-0.004058,87.331445,0.007908,
1900,600,-2.398666,-10.498662,0.999996,0.000000,-0.003780,0.007696,-0.000022,0.007696,-0.003780,-89.888879,0.007697,
1680,1160,-2.330974,-6.538872,0.999997,0.000247,-0.003720,0.007977,0.000943,0.008052,-0.003796,85.418350,0.008057,
1050,1720,0.298377,-1.661638,0.999997,0.000211,-0.002068,0.005818,0.000232,0.005825,-0.002075,88.317824,0.005905,
900,860,1.735585,-9.027724,0.999997,0.000216,-0.004718,0.009237,0.000925,0.009298,-0.004779,86.222556,0.009299,
1330,1270,-0.235333,-3.955350,0.999996,0.000242,-0.003555,0.004825,-0.003266,0.005948,-0.004678,-71.031059,0.006265,
840,1210,1.956048,-6.065716,0.999997,0.000210,-0.004398,0.008584,-0.000933,0.008650,-0.004464,-85.911280,0.008652,
1640,760,-1.760284,-9.765811,0.999996,0.000273,-0.004677,0.008621,-0.000483,0.008638,-0.004694,-87.921825,0.008649,
1820,70,-0.344436,-14.768302,0.999994,0.000278,-0.002148,0.007590,-0.002474,0.008182,-0.002740,-76.532888,0.008329,
980,1660,0.514597,-2.131535,0.999997,0.000197,-0.002740,0.006454,0.000434,0.006475,-0.002761,87.304809,0.006498,
1850,810,-2.744727,-9.041593,0.999997,0.000202,-0.003546,0.007077,-0.000379,0.007090,-0.003559,-87.959585,0.007090,
1170,1670,0.102879,-1.832844,0.999998,0.000156,-0.001658,0.005383,0.000109,0.005384,-0.001659,89.114410,0.005515,
810,1850,0.581828,-1.116907,0.999997,0.000208,-0.002353,0.006713,-0.000864,0.006795,-0.002434,-84.603348,0.006885,
1550,1850,-0.375006,-1.019556,0.999997,0.000211,-0.001601,0.006072,0.000664,0.006129,-0.001657,85.093590,0.006341,
680,1470,1.916909,-4.235270,0.999997,0.000199,-0.003907,0.007752,-0.000024,0.007752,-0.003907,-89.883738,0.007752,
1210,460,0.038735,-12.903909,0.999999,0.000136,-0.001869,0.005224,-0.000210,0.005230,-0.001876,-88.303768,0.005299,
1430,1980,-0.057351,-0.263879,0.999998,0.000171,-0.000422,0.004882,0.000460,0.004922,-0.000461,85.079997,0.005436,
1120,1360,0.228979,-3.577040,0.999997,0.000206,-0.002984,0.005339,0.002312,0.005938,-0.003583,75.474956,0.005980,
1480,1370,-0.782639,-4.184582,0.999998,0.000176,-0.004773,0.008087,-0.001419,0.008242,-0.004927,-83.777800,0.008294,
800,30,0.040044,-15.060364,0.999998,0.000000,-0.000598,0.005296,0.001429,0.005624,-0.000926,77.064297,0.006031,
800,40,0.069245,-15.008468,0.999998,0.000167,-0.000629,0.005319,0.001436,0.005647,-0.000958,77.110564,0.006044,
1740,170,-0.677374,-14.139144,0.999996,0.000227,-0.002820,0.007192,-0.001232,0.007341,-0.002969,-83.084249,0.007386,
690,630,1.983648,-10.556199,0.999997,0.000210,-0.003993,0.007805,0.000148,0.007807,-0.003995,89.280731,0.007808,
1070,1350,0.409052,-3.902399,0.999997,0.000207,-0.004106,0.006730,0.002406,0.007240,-0.004616,78.025732,0.007331,
1020,1980,0.061871,-0.267343,0.999999,0.000140,-0.000358,0.004911,-0.000519,0.004961,-0.000408,-84.429477,0.005508,
650,650,2.190701,-10.313134,0.999997,0.000209,-0.003894,0.007725,0.000187,0.007728,-0.003897,89.080086,0.007728,
1470,1030,-1.929910,-7.534749,0.999995,0.000275,-0.003484,0.010922,-0.000010,0.010922,-0.003484,-89.961693,0.011158,
770,1590,1.312258,-3.089127,0.999997,0.000198,-0.003756,0.007606,0.000218,0.007611,-0.003760,88.901339,0.007611,
860,400,0.873867,-12.719951,0.999997,0.000218,-0.003202,0.007106,-0.000170,0.007109,-0.003205,-89.053041,0.007120,
920,790,1.370411,-9.740023,0.999996,0.000232,-0.005379,0.009340,0.000070,0.009340,-0.005379,89.729009,0.009376,
970,140,0.179086,-14.509211,0.999998,0.000171,-0.001070,0.005398,0.000563,0.005447,-0.001119,85.058429,0.005753,
1720,1560,-1.474716,-3.385661,0.999997,0.000220,-0.003900,0.007721,-0.000192,0.007724,-0.003903,-89.052401,0.007724,
1750,1880,-0.731383,-1.037486,0.999997,0.000193,-0.003143,0.007274,0.001095,0.007388,-0.003257,84.066263,0.007405,
580,1900,1.087432,-1.247232,0.999997,0.000211,-0.003559,0.007703,-0.000610,0.007736,-0.003592,-86.910266,0.007742,
1430,450,-0.417029,-12.738612,0.999997,0.000210,-0.002557,0.006210,0.000610,0.006253,-0.002600,86.036892,0.006282,
1800,950,-2.855947,-8.101858,0.999998,0.000169,-0.003339,0.007033,-0.000456,0.007053,-0.003359,-87.486602,0.007056,
1380,1220,-0.609625,-4.768099,0.999994,0.000303,-0.005211,0.007792,-0.003014,0.008456,-0.005876,-77.562925,0.008668,
1640,740,-1.704234,-9.937609,0.999996,0.000263,-0.004704,0.008516,-0.000378,0.008527,-0.004715,-88.361681,0.008543,
1690,240,-0.789584,-13.701994,0.999996,0.000215,-0.002930,0.007202,-0.000699,0.007250,-0.002978,-86.071616,0.007288,
1600,560,-1.120427,-11.529271,0.999997,0.000236,-0.004084,0.007820,0.000516,0.007843,-0.004107,87.521220,0.007846,
920,270,0.487913,-13.702782,0.999997,0.000216,-0.002023,0.006330,0.000323,0.006343,-0.002036,87.789281,0.006477,
1710,1180,-2.392877,-6.403223,0.999996,0.000230,-0.003774,0.007788,0.000846,0.007849,-0.003835,85.838339,0.007850,
980,1640,0.534314,-2.263294,0.999997,0.000198,-0.002843,0.006541,0.000519,0.006569,-0.002872,86.845122,0.006586,
1800,90,-0.453558,-14.630543,0.999997,0.000237,-0.001672,0.007388,-0.002665,0.008114,-0.002398,-74.765760,0.008337,
1630,1420,-1.389696,-4.270960,0.999995,0.000248,-0.004468,0.008234,-0.000221,0.008238,-0.004472,-89.003253,0.008248,
1740,1310,-2.152519,-5.407915,0.999996,0.000243,-0.004098,0.007950,0.000555,0.007976,-0.004124,87.367461,0.007977,
1780,630,-2.011125,-10.540183,0.999998,0.000144,-0.003962,0.007771,-0.000169,0.007773,-0.003964,-89.176594,0.007774,
1220,1980,0.003670,-0.251359,0.999999,0.000142,-0.000310,0.004566,-0.000009,0.004566,-0.000310,-89.895130,0.005103,
1510,1730,-0.498508,-1.726741,0.999997,0.000212,-0.002459,0.006500,-0.000062,0.006500,-0.002459,-89.603230,0.006564,
900,840,1.657767,-9.214453,0.999996,0.000234,-0.004933,0.009306,0.000741,0.009344,-0.004972,87.028575,0.009350,
1090,1660,0.255939,-1.961248,0.999997,0.000180,-0.001938,0.005702,0.000287,0.005712,-0.001948,87.854195,0.005808,
1550,1830,-0.418453,-1.141480,0.999998,0.000196,-0.001724,0.006118,0.000567,0.006159,-0.001765,85.888392,0.006343,
1680,150,-0.471381,-14.338697,0.999997,0.000219,-0.002154,0.006606,-0.001286,0.006790,-0.002339,-81.820833,0.006899,
1460,850,-1.138800,-9.527921,0.999995,0.000266,-0.005856,0.010263,0.000805,0.010303,-0.005896,87.147862,0.010339,
1060,1590,0.359454,-2.424330,0.999998,0.000195,-0.002556,0.006081,0.000735,0.006143,-0.002619,85.170174,0.006165,
1270,700,-0.059586,-11.791276,0.999998,0.000179,-0.001759,0.003494,0.001118,0.003722,-0.001987,78.475367,0.003725,
980,1730,0.432455,-1.686649,0.999997,0.000200,-0.002239,0.006253,0.000064,0.006253,-0.002240,89.569827,0.006337,
1460,1370,-0.688066,-4.094280,0.999996,0.000229,-0.004691,0.007882,-0.001665,0.008098,-0.004908,-82.583786,0.008159,
1120,1340,0.228644,-3.683694,0.999997,0.000229,-0.003164,0.005316,0.002577,0.006038,-0.003886,74.352385,0.006120,
700,890,2.625093,-8.559576,0.999997,0.000228,-0.003589,0.007460,0.000717,0.007506,-0.003635,86.301699,0.007507,
1280,640,-0.084197,-12.008439,0.999998,0.000186,-0.001987,0.004344,0.000950,0.004484,-0.002126,81.649360,0.004486,
1810,1680,-1.554467,-2.688191,0.999996,0.000216,-0.003715,0.007574,-0.000040,0.007574,-0.003715,-89.796050,0.007574,
1020,1960,0.082297,-0.363567,0.999998,0.000166,-0.000482,0.004972,-0.000484,0.005015,-0.000524,-84.963505,0.005513,
1090,1980,0.036680,-0.257791,0.999998,0.000153,-0.000231,0.004743,-0.000323,0.004764,-0.000251,-86.304099,0.005362,
1170,1650,0.106160,-1.941731,0.999998,0.000153,-0.001740,0.005376,0.000153,0.005379,-0.001744,88.767536,0.005489,
1070,1330,0.423648,-4.040260,0.999996,0.000219,-0.004369,0.006944,0.002574,0.007503,-0.004927,77.763977,0.007624,
770,1570,1.350119,-3.243103,0.999997,0.000211,-0.003825,0.007627,0.000230,0.007632,-0.003829,88.849607,0.007632,
1220,1450,0.020164,-2.925054,0.999999,0.000133,-0.001813,0.004405,0.000265,0.004416,-0.001824,87.565271,0.004439,
810,1830,0.638259,-1.252626,0.999997,0.000194,-0.002544,0.006826,-0.000730,0.006883,-0.002601,-85.573832,0.006951,
700,1490,1.792005,-4.033762,0.999997,0.000193,-0.003970,0.007747,0.000036,0.007747,-0.003970,89.824167,0.007748,
880,1150,1.992613,-6.535907,0.999998,0.000163,-0.003968,0.008760,-0.001072,0.008850,-0.004057,-85.221264,0.008860,
790,2020,0.062785,-0.089112,0.999998,0.000000,-0.000639,0.005387,-0.001403,0.005698,-0.000950,-77.517441,0.006105,
1760,1840,-0.918996,-1.355636,0.999998,0.000192,-0.003384,0.007490,0.000690,0.007533,-0.003428,86.383623,0.007543,
730,1170,2.501075,-6.499261,0.999997,0.000218,-0.003639,0.007697,-0.000842,0.007759,-0.003701,-85.776207,0.007762,
690,610,1.936964,-10.711862,0.999997,0.000203,-0.003980,0.007780,0.000076,0.007781,-0.003981,89.629313,0.007782,
1810,370,-1.542836,-12.469238,0.999996,0.000234,-0.003761,0.007619,0.000041,0.007619,-0.003761,89.794385,0.007619,
1140,830,0.336064,-11.027949,0.999995,0.000281,-0.003445,0.004132,-0.002852,0.005085,-0.004398,-71.513201,0.005518,
1890,60,-0.495635,-14.660547,0.999983,0.000501,-0.002200,0.009895,-0.003772,0.010975,-0.003280,-74.023966,0.011267,
1330,1250,-0.267176,-4.049971,0.999996,0.000261,-0.003683,0.004736,-0.003304,0.005878,-0.004825,-70.933370,0.006268,
1470,1010,-1.917246,-7.747381,0.999994,0.000287,-0.003500,0.011239,-0.000040,0.011239,-0.003500,-89.844046,0.011503,
1560,1890,-0.307283,-0.786750,0.999997,0.000198,-0.001352,0.005871,0.000824,0.005964,-0.001445,83.571600,0.006222,
580,1860,1.271634,-1.552112,0.999997,0.000196,-0.003657,0.007435,-0.000287,0.007442,-0.003665,-88.516303,0.007443,
1380,1200,-0.711980,-4.929956,0.999994,0.000291,-0.004952,0.007756,-0.003145,0.008492,-0.005688,-76.832371,0.008654,
1520,1670,-0.604157,-2.135369,0.999998,0.000176,-0.002720,0.006585,-0.000276,0.006593,-0.002728,-88.305348,0.006626,
1780,310,-1.283690,-12.997647,0.999997,0.000217,-0.003637,0.007526,-0.000123,0.007528,-0.003639,-89.368036,0.007529,
1850,790,-2.697667,-9.184726,0.999997,0.000209,-0.003614,0.007274,-0.000366,0.007286,-0.003627,-88.075177,0.007286,
1720,1540,-1.515319,-3.541847,0.999996,0.000215,-0.003921,0.007739,-0.000180,0.007742,-0.003924,-89.113861,0.007742,
1430,430,-0.407418,-12.860692,0.999997,0.000197,-0.002471,0.006111,0.000528,0.006143,-0.002503,86.495218,0.006178,
610,1020,3.075799,-7.610911,0.999998,0.000194,-0.003145,0.006651,0.000103,0.006652,-0.003146,89.397892,0.006656,
1900,590,-2.374638,-10.575816,0.999996,0.000000,-0.003779,0.007675,-0.000010,0.007675,-0.003779,-89.949343,0.007676,
1550,1810,-0.454281,-1.266157,0.999997,0.000203,-0.001867,0.006299,0.000485,0.006328,-0.001896,86.613577,0.006495,
1250,700,-0.028275,-11.817492,0.999998,0.000149,-0.001537,0.003254,0.000554,0.003318,-0.001601,83.494690,0.003318,
1690,1180,-2.317076,-6.388175,0.999996,0.000235,-0.003821,0.007926,0.000876,0.007991,-0.003886,85.756664,0.007992,
1680,1140,-2.383230,-6.700538,0.999997,0.000228,-0.003564,0.007876,0.000886,0.007944,-0.003632,85.596480,0.007954,
1640,720,-1.644898,-10.107008,0.999997,0.000278,-0.004672,0.008477,-0.000251,0.008481,-0.004677,-88.907629,0.008496,
980,1620,0.553335,-2.393658,0.999997,0.000198,-0.002910,0.006621,0.000558,0.006654,-0.002942,86.659148,0.006669,
1850,180,-1.084532,-13.800393,0.999998,0.000179,-0.003655,0.007724,-0.000485,0.007744,-0.003676,-87.561835,0.007748,
1810,1660,-1.600622,-2.840280,0.999996,0.000214,-0.003718,0.007580,-0.000069,0.007580,-0.003718,-89.649616,0.007581,
900,820,1.583123,-9.400703,0.999996,0.000265,-0.005084,0.009322,0.000556,0.009344,-0.005106,87.792207,0.009357,
1050,1380,0.472419,-3.797452,0.999997,0.000211,-0.004097,0.006979,0.002068,0.007352,-0.004470,79.762332,0.007409,
1290,1260,-0.128445,-3.699772,0.999997,0.000223,-0.002584,0.002776,-0.002349,0.003659,-0.003468,-69.385726,0.004119,
1020,1940,0.109527,-0.466215,0.999998,0.000173,-0.000625,0.005122,-0.000507,0.005167,-0.000670,-85.000154,0.005619,
690,1030,2.819799,-7.541651,0.999998,0.000172,-0.003239,0.007183,-0.000046,0.007183,-0.003239,-89.746344,0.007195,
1120,1320,0.237533,-3.791989,0.999997,0.000236,-0.003344,0.005294,0.002820,0.006133,-0.004183,73.430721,0.006267,
900,30,0.021672,-15.065430,0.999999,0.000000,-0.000182,0.004985,0.000946,0.005152,-0.000350,79.945224,0.005758,
1460,1350,-0.713846,-4.257357,0.999996,0.000260,-0.004905,0.008155,-0.001686,0.008369,-0.005119,-82.763817,0.008439,
900,270,0.528175,-13.679970,0.999997,0.000198,-0.002232,0.006453,0.000332,0.006466,-0.002245,87.810863,0.006566,
1270,1440,-0.069079,-2.991248,0.999998,0.000165,-0.001890,0.004469,-0.000591,0.004523,-0.001944,-84.735440,0.004538,
870,1660,0.835321,-2.345263,0.999997,0.000187,-0.003188,0.007075,0.000192,0.007078,-0.003191,88.930544,0.007090,
1070,1750,0.236346,-1.465418,0.999998,0.000185,-0.001653,0.005666,0.000047,0.005666,-0.001653,89.630831,0.005828,
770,1550,1.389000,-3.397019,0.999996,0.000237,-0.003914,0.007734,0.000234,0.007739,-0.003918,88.847611,0.007739,
1780,290,-1.229076,-13.149335,0.999997,0.000195,-0.003596,0.007588,-0.000240,0.007593,-0.003601,-88.769626,0.007596,
790,600,1.501235,-11.024746,0.999993,0.000298,-0.004252,0.007964,-0.000128,0.007966,-0.004253,-89.400126,0.007972,
1000,330,0.398000,-13.427428,0.999997,0.000186,-0.002011,0.006149,-0.000052,0.006149,-0.002012,-89.633447,0.006270,
1720,450,-1.382671,-12.079757,0.999996,0.000219,-0.003757,0.007582,0.000192,0.007586,-0.003760,89.028123,0.007586,
1900,580,-2.354252,-10.653712,0.999996,0.000000,-0.003768,0.007645,0.000019,0.007645,-0.003768,89.902597,0.007646,
1540,1890,-0.283031,-0.777521,0.999998,0.000178,-0.001236,0.005767,0.000759,0.005849,-0.001317,83.887424,0.006136,
1230,700,0.002319,-11.832956,0.999998,0.000183,-0.001538,0.003179,-0.000059,0.003179,-0.001539,-89.278953,0.003180,
1500,1670,-0.549378,-2.099544,0.999997,0.000208,-0.002778,0.006518,-0.000341,0.006531,-0.002790,-87.904041,0.006554,
1580,1810,-0.519545,-1.300440,0.999997,0.000197,-0.002396,0.006465,0.000428,0.006485,-0.002416,87.238599,0.006555,
1430,410,-0.394217,-12.982097,0.999997,0.000197,-0.002396,0.006080,0.000455,0.006104,-0.002420,86.935916,0.006148,
1810,350,-1.491661,-12.622498,0.999996,0.000216,-0.003758,0.007586,-0.000006,0.007586,-0.003758,-89.968434,0.007586,
1380,1180,-0.826811,-5.079896,0.999992,0.000342,-0.004272,0.007363,-0.003342,0.008255,-0.005164,-75.064165,0.008341,
1330,1230,-0.341241,-4.141760,0.999995,0.000265,-0.003738,0.004591,-0.003127,0.005634,-0.004781,-71.550322,0.006073,
700,870,2.576950,-8.711688,0.999996,0.000261,-0.003660,0.007541,0.000759,0.007593,-0.003711,86.142277,0.007593,
1550,1790,-0.494623,-1.393317,0.999997,0.000218,-0.001999,0.006358,0.000378,0.006375,-0.002016,87.416309,0.006517,
980,1600,0.573028,-2.529090,0.999997,0.000192,-0.002963,0.006656,0.000618,0.006695,-0.003002,86.337882,0.006707,
1720,1520,-1.556234,-3.696757,0.999995,0.000241,-0.003966,0.007770,-0.000146,0.007772,-0.003968,-89.285386,0.007773,
1220,1960,0.003637,-0.342351,0.999998,0.000160,-0.000425,0.004622,-0.000004,0.004622,-0.000425,-89.952191,0.005110,
710,620,1.879617,-10.678306,0.999997,0.000188,-0.004043,0.007833,0.000086,0.007833,-0.004044,89.583004,0.007835,
1280,620,-0.090007,-12.097313,0.999998,0.000176,-0.002002,0.004506,0.000818,0.004607,-0.002103,82.947581,0.004612,
1470,990,-1.876908,-7.979869,0.999996,0.000230,-0.003629,0.011039,-0.000112,0.011040,-0.003630,-89.561854,0.011253,
730,1020,2.688762,-7.615628,0.999997,0.000195,-0.003229,0.007388,0.000133,0.007389,-0.003231,89.284326,0.007409,
610,400,1.772389,-12.134633,0.999997,0.000225,-0.003728,0.007512,-0.000096,0.007513,-0.003729,-89.508434,0.007513,
900,800,1.510818,-9.587109,0.999996,0.000264,-0.005176,0.009247,0.000370,0.009256,-0.005185,88.532253,0.009279,
620,1210,2.804609,-6.313959,0.999997,0.000209,-0.003503,0.007114,-0.000478,0.007136,-0.003524,-87.428217,0.007136,
600,1940,0.794812,-0.856852,0.999997,0.000210,-0.003548,0.008039,-0.001244,0.008172,-0.003681,-83.939171,0.008185,
1120,1300,0.250806,-3.902788,0.999996,0.000240,-0.003569,0.005401,0.003035,0.006331,-0.004500,72.955946,0.006516,
1640,700,-1.593604,-10.277524,0.999996,0.000283,-0.004643,0.008490,-0.000133,0.008491,-0.004644,-89.421779,0.008504,
1510,1710,-0.528112,-1.860772,0.999997,0.000202,-0.002576,0.006466,-0.000156,0.006468,-0.002579,-89.014592,0.006512,
770,940,2.474668,-8.221215,0.999996,0.000234,-0.003382,0.007617,0.000680,0.007659,-0.003424,86.474012,0.007673,
1780,610,-1.962370,-10.695693,0.999999,0.000112,-0.003937,0.007807,-0.000069,0.007807,-0.003937,-89.662984,0.007807,
1290,1240,-0.172496,-3.751110,0.999998,0.000194,-0.003017,0.002628,-0.002149,0.003353,-0.003742,-71.357669,0.004115,
900,2020,0.033872,-0.077504,0.999999,0.000000,-0.000171,0.005040,-0.000922,0.005198,-0.000329,-80.257278,0.005822,
1760,1820,-0.987701,-1.506281,0.999997,0.000216,-0.003445,0.007535,0.000528,0.007561,-0.003470,87.255051,0.007569,
1020,1920,0.132202,-0.569449,0.999998,0.000185,-0.000741,0.005166,-0.000436,0.005198,-0.000773,-85.797006,0.005609,
690,1050,2.808652,-7.399332,0.999998,0.000168,-0.003221,0.007117,-0.000242,0.007123,-0.003227,-88.658783,0.007133,
1680,1120,-2.422712,-6.854618,0.999997,0.000211,-0.003409,0.007670,0.000712,0.007715,-0.003455,86.338430,0.007729,
1670,240,-0.730871,-13.735722,0.999997,0.000193,-0.002922,0.007069,-0.000614,0.007107,-0.002959,-86.494195,0.007140,
1070,1770,0.222838,-1.350809,0.999998,0.000171,-0.001549,0.005656,-0.000032,0.005657,-0.001549,-89.747212,0.005846,
650,670,2.243072,-10.158151,0.999997,0.000199,-0.003890,0.007626,0.000266,0.007632,-0.003896,88.679308,0.007632,
840,1410,1.380329,-4.336951,0.999995,0.000253,-0.004573,0.008288,0.000236,0.008292,-0.004577,88.950171,0.008307,
1600,540,-1.085344,-11.685807,0.999997,0.000197,-0.003980,0.007717,0.000504,0.007739,-0.004002,87.536988,0.007741,
850,1660,0.898884,-2.384409,0.999999,0.000130,-0.003212,0.007161,0.000161,0.007164,-0.003215,89.111765,0.007177,
900,390,0.733376,-12.872310,0.999997,0.000199,-0.003104,0.006928,-0.000253,0.006934,-0.003110,-88.555889,0.006946,
1850,770,-2.645126,-9.333280,0.999997,0.000192,-0.003668,0.007380,-0.000356,0.007391,-0.003680,-88.156193,0.007391,
860,380,0.840800,-12.860931,0.999998,0.000192,-0.003116,0.006988,-0.000126,0.006989,-0.003117,-89.284157,0.007003,
950,160,0.240557,-14.386242,0.999997,0.000207,-0.001313,0.005654,0.000633,0.005711,-0.001370,84.848745,0.005964,
1720,430,-1.341526,-12.231567,0.999996,0.000236,-0.003733,0.007598,0.000155,0.007600,-0.003735,89.218811,0.007601,
770,1400,1.715021,-4.588606,0.999997,0.000222,-0.004320,0.008122,-0.000127,0.008124,-0.004322,-89.415559,0.008129,
860,1830,0.526362,-1.196891,0.999997,0.000220,-0.002256,0.006484,-0.000619,0.006528,-0.002300,-85.971366,0.006622,
1710,660,-1.799053,-10.453358,0.999996,0.000254,-0.004235,0.008055,-0.000178,0.008058,-0.004238,-89.171328,0.008061,
1560,1870,-0.350776,-0.903434,0.999998,0.000189,-0.001534,0.005993,0.000706,0.006058,-0.001599,84.684597,0.006279,
1140,1850,0.083165,-0.889201,0.999999,0.000155,-0.001012,0.005117,-0.000079,0.005118,-0.001013,-89.266175,0.005421,
820,300,0.804156,-13.355520,0.999998,0.000206,-0.002830,0.007035,0.000320,0.007045,-0.002841,88.144090,0.007089,
1170,1630,0.109213,-2.047847,0.999998,0.000152,-0.001795,0.005338,0.000199,0.005344,-0.001800,88.402773,0.005438,
770,1530,1.428363,-3.553499,0.999997,0.000235,-0.003991,0.007808,0.000217,0.007812,-0.003995,88.948863,0.007812,
1330,1210,-0.430813,-4.233781,0.999994,0.000315,-0.003344,0.004144,-0.002535,0.004921,-0.004122,-72.949419,0.005282,
1200,1450,0.057191,-2.941113,0.999998,0.000148,-0.001863,0.004463,0.000471,0.004498,-0.001898,85.764157,0.004516,
710,1020,2.753400,-7.615286,0.999998,0.000173,-0.003234,0.007293,0.000100,0.007294,-0.003235,89.456698,0.007310,
1210,700,0.034083,-11.813985,0.999999,0.000141,-0.001558,0.003288,-0.000654,0.003374,-0.001644,-82.442242,0.003375,
1380,880,-0.866901,-10.008086,0.999992,0.000300,-0.004053,0.007387,0.003442,0.008343,-0.005009,74.480739,0.008399,
1430,390,-0.379674,-13.104541,0.999997,0.000211,-0.002338,0.006095,0.000377,0.006112,-0.002355,87.445068,0.006165,
980,1580,0.589618,-2.661111,0.999997,0.000194,-0.003055,0.006661,0.000698,0.006711,-0.003105,85.909870,0.006717,
590,400,1.847677,-12.082229,0.999997,0.000201,-0.003719,0.007458,-0.000092,0.007458,-0.003720,-89.530423,0.007458,
1470,970,-1.814054,-8.186658,0.999996,0.000240,-0.003848,0.010678,-0.000212,0.010681,-0.003851,-89.164740,0.010819,
980,330,0.438569,-13.402190,0.999996,0.000220,-0.002256,0.006293,-0.000101,0.006294,-0.002258,-89.326224,0.006377,
1750,1460,-1.808816,-4.237963,0.999998,0.000178,-0.004021,0.007826,0.000028,0.007826,-0.004021,89.866338,0.007827,
1900,570,-2.330682,-10.729424,0.999997,0.000000,-0.003790,0.007625,0.000020,0.007625,-0.003790,89.900896,0.007625,
1390,1240,-0.581926,-4.699679,0.999996,0.000240,-0.005363,0.008192,-0.002859,0.008770,-0.005941,-78.564245,0.008952,
780,130,0.407781,-14.464582,0.999997,0.000194,-0.001825,0.006407,0.001426,0.006647,-0.002066,80.442681,0.006804,
1510,1180,-1.538882,-6.091981,0.999996,0.000239,-0.005150,0.009918,0.000600,0.009942,-0.005174,87.723146,0.009945,
1550,1770,-0.528316,-1.521401,0.999997,0.000200,-0.002167,0.006512,0.000300,0.006523,-0.002177,88.021407,0.006642,
910,30,0.021204,-15.066048,0.999999,0.000000,-0.000007,0.004984,0.000932,0.005153,-0.000176,79.759207,0.005851,
1020,1900,0.157431,-0.674991,0.999998,0.000196,-0.000899,0.005297,-0.000460,0.005331,-0.000933,-85.773677,0.005694,
900,780,1.442815,-9.771671,0.999995,0.000257,-0.005215,0.009172,0.000191,0.009175,-0.005218,89.237891,0.009204,
750,940,2.543064,-8.212937,0.999995,0.000250,-0.003407,0.007526,0.000692,0.007570,-0.003451,86.393094,0.007579,
1120,1280,0.267070,-4.005148,0.999996,0.000241,-0.003800,0.005429,0.003233,0.006449,-0.004819,72.491072,0.006707,
1320,1290,-0.179061,-3.789539,0.999996,0.000241,-0.003038,0.004361,-0.002949,0.005393,-0.004070,-70.720711,0.005621,
1640,680,-1.539649,-10.448301,0.999996,0.000254,-0.004599,0.008380,-0.000037,0.008380,-0.004599,-89.835203,0.008393,
570,1720,1.767927,-2.617582,0.999935,0.000959,-0.004575,0.007850,0.000262,0.007855,-0.004581,88.794363,0.007891,
1720,1500,-1.599170,-3.854783,0.999995,0.000254,-0.004034,0.007828,-0.000123,0.007829,-0.004036,-89.403908,0.007830,
1070,1790,0.204911,-1.239550,0.999998,0.000165,-0.001455,0.005517,-0.000071,0.005518,-0.001455,-89.413974,0.005719,
1680,1100,-2.457866,-7.007558,0.999997,0.000216,-0.003307,0.007681,0.000714,0.007727,-0.003353,86.299815,0.007749,
1220,1940,0.006636,-0.437633,0.999999,0.000140,-0.000513,0.004755,-0.000006,0.004755,-0.000513,-89.932086,0.005220,
1280,600,-0.089524,-12.186692,0.999998,0.000189,-0.001993,0.004675,0.000694,0.004746,-0.002064,84.116595,0.004760,
1720,810,-2.255884,-9.221694,0.999996,0.000235,-0.004074,0.007915,-0.000797,0.007968,-0.004126,-86.211756,0.007970,
840,1390,1.425759,-4.502832,0.999996,0.000252,-0.004644,0.008343,0.000140,0.008344,-0.004645,89.383133,0.008362,
1690,660,-1.714340,-10.498620,0.999996,0.000239,-0.004344,0.008118,-0.000144,0.008119,-0.004345,-89.339365,0.008126,
1760,450,-1.533795,-11.983065,0.999996,0.000234,-0.003778,0.007607,0.000146,0.007609,-0.003780,89.264976,0.007609,
770,1380,1.763596,-4.752008,0.999997,0.000214,-0.004334,0.008189,-0.000221,0.008193,-0.004338,-88.988762,0.008198,
1810,330,-1.442687,-12.774227,0.999996,0.000220,-0.003697,0.007494,-0.000023,0.007494,-0.003697,-89.882797,0.007494,
1230,1660,0.003038,-1.865827,0.999998,0.000168,-0.001717,0.005278,-0.000002,0.005278,-0.001717,-89.984585,0.005384,
1440,850,-1.020219,-9.668709,0.999996,0.000219,-0.005845,0.010101,0.001300,0.010206,-0.005950,85.370214,0.010253,
1040,1590,0.409605,-2.463010,0.999997,0.000225,-0.002553,0.006218,0.000678,0.006270,-0.002605,85.606979,0.006300,
980,1560,0.604122,-2.794483,0.999997,0.000206,-0.003178,0.006775,0.000782,0.006836,-0.003239,85.532944,0.006840,
1360,1850,-0.122765,-0.904687,0.999998,0.000174,-0.001018,0.005218,0.000172,0.005223,-0.001023,88.424805,0.005535,
980,1710,0.456223,-1.810819,0.999997,0.000213,-0.002387,0.006244,0.000208,0.006249,-0.002392,88.618495,0.006307,
1380,860,-0.737726,-10.152390,0.999993,0.000292,-0.004828,0.007651,0.003151,0.008402,-0.005579,76.601656,0.008551,
1430,810,-0.794458,-10.128693,0.999995,0.000281,-0.005867,0.009135,0.001887,0.009369,-0.006101,82.937886,0.009510,
770,1510,1.472025,-3.710451,0.999997,0.000221,-0.004050,0.007806,0.000202,0.007810,-0.004053,89.025763,0.007812,
1560,1850,-0.390615,-1.026504,0.999997,0.000220,-0.001709,0.006118,0.000658,0.006173,-0.001764,85.227212,0.006359,
700,1530,1.705219,-3.723488,0.999997,0.000219,-0.003900,0.007734,0.000096,0.007735,-0.003901,89.529071,0.007735,
1080,1270,0.461493,-4.400727,0.999994,0.000289,-0.004940,0.007361,0.003053,0.008077,-0.005656,76.800952,0.008290,
1870,1120,-3.064062,-6.963311,0.999998,0.000157,-0.003205,0.006601,0.000266,0.006609,-0.003212,88.447358,0.006609,
1760,1800,-1.052999,-1.658400,0.999997,0.000239,-0.003485,0.007534,0.000422,0.007550,-0.003501,87.811875,0.007557,
1530,620,-0.916801,-11.266765,0.999997,0.000220,-0.004313,0.007868,0.000900,0.007934,-0.004379,85.797450,0.007948,
1290,460,-0.108047,-12.887243,0.999999,0.000150,-0.001882,0.005332,0.000247,0.005340,-0.001890,88.043823,0.005416,
1030,390,0.386732,-13.097835,0.999998,0.000201,-0.002284,0.006083,-0.000351,0.006098,-0.002299,-87.598786,0.006159,
1550,1750,-0.566801,-1.654563,0.999998,0.000199,-0.002306,0.006513,0.000166,0.006516,-0.002309,88.920393,0.006607,
1720,1310,-2.069614,-5.373571,0.999997,0.000211,-0.004178,0.008045,0.000576,0.008072,-0.004205,87.310084,0.008074,
1810,920,-2.840092,-8.309285,0.999997,0.000188,-0.003373,0.007044,-0.000487,0.007067,-0.003396,-87.330504,0.007068,
1040,390,0.364374,-13.114520,0.999997,0.000226,-0.002312,0.006048,-0.000397,0.006067,-0.002331,-87.286083,0.006121,
1710,640,-1.751433,-10.614695,0.999997,0.000227,-0.004214,0.008014,-0.000096,0.008015,-0.004214,-89.549073,0.008018,
1280,580,-0.090369,-12.283068,0.999998,0.000195,-0.001985,0.004851,0.000579,0.004899,-0.002034,85.191665,0.004923,
680,330,1.345125,-12.839602,0.999997,0.000201,-0.003629,0.007532,0.000024,0.007532,-0.003629,89.877070,0.007533,
750,920,2.508640,-8.364540,0.999995,0.000244,-0.003499,0.007575,0.000686,0.007618,-0.003542,86.467923,0.007624,
1330,850,-0.465820,-10.869883,0.999993,0.000331,-0.003149,0.003905,0.002363,0.004623,-0.003867,73.086743,0.004960,
1420,330,-0.310452,-13.479240,0.999997,0.000222,-0.002095,0.005874,0.000205,0.005879,-0.002100,88.528007,0.005959,
690,1070,2.795284,-7.256582,0.999997,0.000188,-0.003248,0.007083,-0.000199,0.007087,-0.003252,-88.897134,0.007095,
1080,1850,0.145340,-0.912081,0.999998,0.000171,-0.000994,0.005261,-0.000227,0.005269,-0.001002,-87.926969,0.005596,
1850,750,-2.593496,-9.481776,0.999997,0.000201,-0.003685,0.007360,-0.000359,0.007372,-0.003697,-88.140300,0.007372,
980,1540,0.621068,-2.930583,0.999997,0.000208,-0.003335,0.006876,0.000897,0.006954,-0.003414,85.018123,0.006954,
1730,1180,-2.465112,-6.417255,0.999996,0.000266,-0.003693,0.007701,0.000821,0.007760,-0.003752,85.898339,0.007761,
1380,840,-0.636725,-10.312152,0.999994,0.000281,-0.005196,0.007843,0.003019,0.008508,-0.005861,77.576179,0.008708,
1840,670,-2.345332,-10.101901,0.999997,0.000208,-0.003819,0.007557,-0.000220,0.007561,-0.003823,-88.894286,0.007561,
1670,420,-1.139974,-12.424162,0.999998,0.000179,-0.003548,0.007473,0.000155,0.007475,-0.003550,89.196429,0.007478,
1640,660,-1.491362,-10.614816,0.999996,0.000261,-0.004540,0.008283,0.000076,0.008283,-0.004541,89.662545,0.008296,
950,140,0.201111,-14.499436,0.999997,0.000205,-0.001130,0.005476,0.000643,0.005538,-0.001192,84.494047,0.005830,
1810,310,-1.392909,-12.924603,0.999996,0.000229,-0.003626,0.007537,-0.000122,0.007538,-0.003628,-89.372539,0.007540,
770,1490,1.508476,-3.865514,0.999996,0.000261,-0.004114,0.007837,0.000137,0.007838,-0.004116,89.345621,0.007842,
1510,1690,-0.552296,-1.985528,0.999997,0.000213,-0.002697,0.006447,-0.000255,0.006454,-0.002704,-88.402889,0.006483,
600,1920,0.911880,-1.017710,0.999997,0.000199,-0.003606,0.007893,-0.000932,0.007968,-0.003682,-85.394526,0.007976,
1360,890,-0.891808,-10.264380,0.999994,0.000296,-0.002388,0.005500,0.003979,0.007158,-0.004046,67.374009,0.007179,
650,690,2.294726,-10.007483,0.999997,0.000209,-0.003849,0.007602,0.000310,0.007611,-0.003857,88.448702,0.007611,
1120,1700,0.182193,-1.704959,0.999998,0.000167,-0.001816,0.005551,0.000277,0.005561,-0.001827,87.851379,0.005670,
860,360,0.809275,-12.998329,0.999998,0.000171,-0.003014,0.006961,-0.000039,0.006961,-0.003014,-89.777481,0.006982,
1030,410,0.402086,-12.978534,0.999998,0.000214,-0.002350,0.006076,-0.000428,0.006097,-0.002372,-87.100633,0.006147,
900,760,1.380400,-9.954288,0.999994,0.000258,-0.005191,0.009114,0.000009,0.009114,-0.005191,89.962212,0.009143,
1470,950,-1.727113,-8.406633,0.999995,0.000264,-0.004199,0.010905,-0.000318,0.010912,-0.004205,-88.792785,0.011007,
1680,1080,-2.492558,-7.162628,0.999996,0.000249,-0.003208,0.007622,0.000470,0.007643,-0.003228,87.521722,0.007673,
1800,990,-2.886855,-7.823378,0.999998,0.000145,-0.003223,0.006937,-0.000182,0.006940,-0.003226,-88.972650,0.006946,
900,1530,0.921214,-3.221476,0.999997,0.000198,-0.003820,0.007493,0.000664,0.007532,-0.003859,86.650771,0.007533,
940,1200,1.515416,-5.938519,0.999995,0.000260,-0.005212,0.009728,-0.000565,0.009749,-0.005233,-87.837972,0.009758,
1700,1690,-1.132645,-2.353351,0.999998,0.000181,-0.003375,0.007382,0.000040,0.007382,-0.003375,89.786922,0.007391,
1370,1640,-0.258538,-2.070964,0.999998,0.000167,-0.002051,0.005690,-0.000419,0.005713,-0.002074,-86.907972,0.005784,
1020,410,0.424541,-12.962812,0.999998,0.000197,-0.002374,0.006147,-0.000405,0.006166,-0.002393,-87.286352,0.006217,
1460,470,-0.516531,-12.543716,0.999997,0.000221,-0.002998,0.006583,0.000797,0.006648,-0.003064,85.278996,0.006655,
1280,560,-0.090666,-12.379732,0.999998,0.000185,-0.001982,0.004957,0.000507,0.004993,-0.002019,85.846538,0.005024,
940,1910,0.223054,-0.653162,0.999997,0.000227,-0.001114,0.005584,-0.000691,0.005655,-0.001185,-84.170280,0.005965,
1800,850,-2.664515,-8.822402,0.999997,0.000211,-0.003595,0.007292,-0.000636,0.007329,-0.003632,-86.667589,0.007329,
1430,830,-0.872057,-9.944283,0.999995,0.000271,-0.005874,0.009448,0.001738,0.009642,-0.006068,83.610386,0.009749,
980,1520,0.637294,-3.070887,0.999997,0.000217,-0.003515,0.006985,0.001008,0.007081,-0.003610,84.566267,0.007081,
1330,830,-0.362697,-10.954809,0.999994,0.000303,-0.003643,0.004500,0.003046,0.005513,-0.004657,71.601214,0.005934,
1420,1850,-0.189891,-0.931874,0.999998,0.000184,-0.001338,0.005373,0.000226,0.005380,-0.001346,88.076349,0.005600,
1790,1180,-2.686974,-6.471053,0.999997,0.000195,-0.003571,0.007381,0.000687,0.007424,-0.003614,86.422909,0.007425,
910,2020,0.032076,-0.077033,0.999999,0.000000,-0.000041,0.004987,-0.000901,0.005144,-0.000197,-80.142252,0.005829,
1640,640,-1.446621,-10.781840,0.999995,0.000256,-0.004456,0.008204,0.000131,0.008205,-0.004458,89.406394,0.008215,
680,310,1.293724,-12.989532,0.999997,0.000194,-0.003616,0.007525,0.000135,0.007527,-0.003618,89.306465,0.007529,
1670,400,-1.101269,-12.573704,0.999997,0.000222,-0.003492,0.007452,0.000117,0.007453,-0.003493,89.389269,0.007458,
1710,620,-1.702978,-10.776332,0.999997,0.000205,-0.004206,0.007963,-0.000039,0.007963,-0.004206,-89.818577,0.007967,
1380,820,-0.540506,-10.477536,0.999994,0.000299,-0.005182,0.007797,0.003106,0.008502,-0.005887,77.212761,0.008709,
680,890,2.696817,-8.543884,0.999997,0.000209,-0.003521,0.007331,0.000634,0.007368,-0.003558,86.667905,0.007370,
1850,730,-2.538362,-9.628382,0.999997,0.000217,-0.003720,0.007429,-0.000285,0.007436,-0.003727,-88.537784,0.007436,
770,1470,1.554362,-4.024866,0.999995,0.000258,-0.004155,0.007897,0.000112,0.007898,-0.004156,89.466378,0.007901,
1810,290,-1.335594,-13.076471,0.999997,0.000217,-0.003586,0.007617,-0.000223,0.007622,-0.003590,-88.860941,0.007626,
1030,140,0.129057,-14.528499,0.999998,0.000158,-0.000855,0.005200,0.000410,0.005228,-0.000883,86.148351,0.005597,
600,1900,1.014781,-1.174119,0.999997,0.000186,-0.003644,0.007711,-0.000624,0.007745,-0.003678,-86.862716,0.007748,
860,340,0.770566,-13.139245,0.999997,0.000180,-0.002916,0.007027,0.000070,0.007027,-0.002916,89.598052,0.007061,
1360,880,-0.808592,-10.316784,0.999995,0.000257,-0.002746,0.005366,0.003583,0.006721,-0.004102,69.273187,0.006776,
900,740,1.320435,-10.137703,0.999995,0.000264,-0.005149,0.008951,-0.000169,0.008953,-0.005151,-89.313053,0.008987,
650,1130,2.858626,-6.847851,0.999997,0.000211,-0.003381,0.006998,-0.000484,0.007021,-0.003403,-87.334020,0.007022,
1230,430,0.002561,-13.070633,0.999998,0.000179,-0.001805,0.005270,-0.000031,0.005271,-0.001805,-89.746997,0.005357,
1600,520,-1.055267,-11.841107,0.999997,0.000198,-0.003824,0.007574,0.000477,0.007594,-0.003844,87.607022,0.007594,
1680,1060,-2.504661,-7.314225,0.999996,0.000210,-0.003113,0.007529,0.000273,0.007536,-0.003120,88.531966,0.007573,
1180,1450,0.095669,-2.960799,0.999998,0.000203,-0.001995,0.004643,0.000798,0.004738,-0.002090,83.238713,0.004749,
920,690,1.098942,-10.645422,0.999997,0.000198,-0.004929,0.008564,-0.000689,0.008599,-0.004964,-87.085108,0.008633,
1830,580,-2.086308,-10.815785,0.999998,0.000178,-0.003836,0.007669,-0.000018,0.007669,-0.003836,-89.912371,0.007669,
880,1850,0.438310,-1.049588,0.999997,0.000207,-0.002073,0.006243,-0.000638,0.006292,-0.002122,-85.638715,0.006402,
880,1530,0.997049,-3.274780,0.999998,0.000160,-0.003808,0.007570,0.000558,0.007598,-0.003835,87.197444,0.007598,
750,1400,1.799956,-4.633350,0.999997,0.000222,-0.004227,0.008053,-0.000152,0.008055,-0.004229,-89.293263,0.008058,
1510,1670,-0.575972,-2.117325,0.999997,0.000198,-0.002761,0.006549,-0.000314,0.006560,-0.002772,-88.067841,0.006586,
780,150,0.475787,-14.334078,0.999997,0.000208,-0.002144,0.006659,0.001300,0.006847,-0.002332,81.771550,0.006962,
1030,430,0.414697,-12.854667,0.999998,0.000200,-0.002447,0.006141,-0.000498,0.006170,-0.002476,-86.694769,0.006210,
940,1180,1.604507,-6.134345,0.999995,0.000262,-0.004946,0.009699,-0.000758,0.009739,-0.004985,-87.043252,0.009739,
1770,290,-1.192240,-13.171480,0.999997,0.000202,-0.003605,0.007565,-0.000226,0.007570,-0.003609,-88.840644,0.007572,
1070,1810,0.188560,-1.130060,0.999998,0.000159,-0.001319,0.005450,-0.000132,0.005452,-0.001321,-88.883222,0.005689,
1540,910,-1.836009,-8.610541,0.999995,0.000279,-0.004194,0.009314,-0.001092,0.009401,-0.004282,-85.409651,0.009414,
1280,540,-0.092223,-12.479795,0.999998,0.000165,-0.001966,0.005041,0.000408,0.005065,-0.001990,86.675762,0.005103,
1020,390,0.409445,-13.084043,0.999997,0.000206,-0.002286,0.006126,-0.000320,0.006138,-0.002298,-87.827239,0.006202,
1850,1120,-2.997960,-6.945775,0.999998,0.000148,-0.003270,0.006781,0.000349,0.006793,-0.003282,88.012287,0.006795,
940,1690,0.587666,-2.010179,0.999996,0.000221,-0.002589,0.006507,0.000160,0.006510,-0.002591,88.989758,0.006555,
1800,970,-2.876517,-7.962151,0.999998,0.000177,-0.003263,0.006914,-0.000196,0.006918,-0.003267,-88.898291,0.006922,
1360,870,-0.724517,-10.367794,0.999995,0.000257,-0.003181,0.005544,0.003345,0.006679,-0.004316,71.257995,0.006773,
1710,320,-1.065105,-13.080877,0.999997,0.000197,-0.003274,0.007377,-0.000191,0.007380,-0.003278,-88.970279,0.007396,
820,320,0.846763,-13.215417,0.999998,0.000189,-0.002963,0.007077,0.000163,0.007079,-0.002966,89.072583,0.007110,
1270,1660,-0.066096,-1.877923,0.999998,0.000185,-0.001695,0.005301,-0.000155,0.005305,-0.001698,-88.731254,0.005418,
690,1090,2.784685,-7.113265,0.999998,0.000200,-0.003313,0.007122,-0.000336,0.007133,-0.003324,-88.156065,0.007138,
1170,1610,0.111783,-2.153161,0.999998,0.000162,-0.001864,0.005361,0.000254,0.005369,-0.001873,87.985721,0.005451,
1360,1210,-0.562192,-4.594509,0.999996,0.000267,-0.004347,0.006545,-0.003429,0.007534,-0.005337,-73.901634,0.007749,
660,890,2.766119,-8.525960,0.999997,0.000225,-0.003452,0.007171,0.000535,0.007198,-0.003479,87.124899,0.007199,
980,1500,0.656930,-3.212460,0.999996,0.000222,-0.003652,0.007094,0.001097,0.007204,-0.003763,84.232307,0.007207,
1120,1720,0.175037,-1.596961,0.999998,0.000179,-0.001740,0.005530,0.000201,0.005536,-0.001745,88.414007,0.005660,
770,1450,1.597942,-4.184095,0.999996,0.000246,-0.004210,0.007974,0.000079,0.007974,-0.004211,89.629046,0.007978,
1770,1180,-2.613351,-6.452060,0.999996,0.000257,-0.003659,0.007503,0.000749,0.007553,-0.003709,86.177520,0.007554,
1330,810,-0.281395,-11.045775,0.999996,0.000248,-0.003736,0.004716,0.003224,0.005805,-0.004825,71.330509,0.006215,
1640,620,-1.401453,-10.944935,0.999996,0.000239,-0.004380,0.008059,0.000208,0.008062,-0.004384,89.042685,0.008073,
1460,1850,-0.240394,-0.955655,0.999998,0.000161,-0.001215,0.005583,0.000433,0.005610,-0.001242,86.367376,0.005894,
1460,450,-0.500160,-12.676929,0.999997,0.000198,-0.002882,0.006513,0.000695,0.006564,-0.002934,85.794261,0.006576,
1230,450,0.002950,-12.965608,0.999998,0.000167,-0.001833,0.005244,-0.000020,0.005244,-0.001833,-89.834952,0.005322,
1470,930,-1.624060,-8.629670,0.999995,0.000267,-0.004586,0.010742,-0.000285,0.010748,-0.004592,-88.934423,0.010786,
860,320,0.732287,-13.283656,0.999997,0.000198,-0.002867,0.006951,0.000119,0.006952,-0.002868,89.303340,0.006988,
710,340,1.260261,-12.835781,0.999997,0.000203,-0.003613,0.007540,0.000016,0.007541,-0.003613,89.920182,0.007543,
1380,800,-0.484196,-10.631210,0.999995,0.000286,-0.005102,0.007489,0.003148,0.008233,-0.005846,76.716294,0.008471,
640,1530,1.935976,-3.865860,0.999997,0.000186,-0.003801,0.007627,0.000064,0.007627,-0.003801,89.679284,0.007627,
1510,140,-0.198841,-14.500448,0.999998,0.000176,-0.001141,0.005464,-0.000628,0.005523,-0.001201,-84.617286,0.005810,
900,720,1.270044,-10.311976,0.999996,0.000239,-0.005072,0.008800,-0.000315,0.008807,-0.005079,-88.700051,0.008842,
1450,660,-0.615177,-11.262148,0.999996,0.000266,-0.004292,0.007510,0.001694,0.007748,-0.004531,81.989993,0.007785,
650,1110,2.893600,-6.989149,0.999997,0.000193,-0.003318,0.006986,-0.000444,0.007005,-0.003337,-87.536145,0.007007,
1030,450,0.425480,-12.734204,0.999997,0.000196,-0.002576,0.006216,-0.000618,0.006260,-0.002619,-86.000894,0.006287,
940,1160,1.695457,-6.330471,0.999996,0.000242,-0.004634,0.009667,-0.000914,0.009725,-0.004692,-86.358658,0.009727,
1680,1040,-2.519736,-7.465547,0.999997,0.000195,-0.003092,0.007578,0.000191,0.007581,-0.003095,88.975651,0.007624,
1810,580,-2.009601,-10.860479,0.999997,0.000211,-0.003843,0.007690,0.000002,0.007690,-0.003843,89.990264,0.007690,
1430,850,-0.960453,-9.742461,0.999995,0.000263,-0.005728,0.009897,0.001576,0.010055,-0.005885,84.297919,0.010103,
1850,710,-2.488522,-9.777645,0.999997,0.000221,-0.003755,0.007490,-0.000246,0.007495,-0.003760,-88.747509,0.007495,
1600,500,-1.023056,-11.990182,0.999997,0.000217,-0.003727,0.007460,0.000454,0.007478,-0.003745,87.679136,0.007478,
1770,310,-1.246669,-13.020859,0.999997,0.000206,-0.003636,0.007518,-0.000117,0.007520,-0.003637,-89.401505,0.007521,
1810,270,-1.276718,-13.231090,0.999997,0.000195,-0.003530,0.007601,-0.000319,0.007610,-0.003540,-88.359706,0.007616,
640,1910,0.817612,-0.950873,0.999996,0.000276,-0.003276,0.007779,-0.001209,0.007910,-0.003406,-83.832899,0.007935,
730,1150,2.551724,-6.652969,0.999997,0.000205,-0.003524,0.007572,-0.000735,0.007621,-0.003573,-86.227586,0.007625,
1510,1650,-0.601888,-2.249145,0.999997,0.000208,-0.002801,0.006611,-0.000381,0.006627,-0.002817,-87.687286,0.006652,
1790,840,-2.602792,-8.907961,0.999996,0.000229,-0.003651,0.007352,-0.000638,0.007389,-0.003688,-86.690262,0.007389,
1230,200,0.001699,-14.269657,0.999998,0.000173,-0.000941,0.004989,0.000005,0.004989,-0.000941,89.949194,0.005301,
1080,300,0.220132,-13.690919,0.999998,0.000168,-0.001531,0.005599,0.000000,0.005599,-0.001531,-89.998444,0.005788,
1760,430,-1.492113,-12.135012,0.999996,0.000214,-0.003732,0.007603,0.000134,0.007604,-0.003734,89.324910,0.007605,
1720,1480,-1.641575,-4.010315,0.999995,0.000252,-0.004080,0.007841,-0.000068,0.007841,-0.004080,-89.673072,0.007843,
1810,1120,-2.864843,-6.917866,0.999997,0.000222,-0.003369,0.007052,0.000502,0.007077,-0.003394,87.248088,0.007079,
1270,460,-0.071656,-12.895665,0.999999,0.000145,-0.001843,0.005261,0.000211,0.005267,-0.001849,88.297227,0.005344,
600,1880,1.107390,-1.327186,0.999998,0.000179,-0.003642,0.007706,-0.000511,0.007729,-0.003665,-87.424751,0.007733,
780,90,0.258428,-14.716976,0.999997,0.000182,-0.001191,0.005969,0.001557,0.006293,-0.001515,78.247687,0.006569,
1720,1050,-2.638654,-7.393491,0.999996,0.000238,-0.003182,0.007358,0.000256,0.007364,-0.003188,88.609637,0.007386,
820,340,0.885271,-13.073657,0.999998,0.000186,-0.003131,0.007142,0.000081,0.007142,-0.003132,89.549174,0.007160,
1280,390,-0.082404,-13.264890,0.999998,0.000172,-0.001676,0.005364,0.000124,0.005366,-0.001678,88.989439,0.005490,
1250,1660,-0.032674,-1.870749,0.999998,0.000189,-0.001738,0.005283,-0.000158,0.005287,-0.001742,-88.710305,0.005388,
1280,520,-0.091228,-12.579388,0.999998,0.000162,-0.001929,0.005102,0.000336,0.005118,-0.001945,87.267109,0.005167,
690,1530,1.744493,-3.746136,0.999997,0.000213,-0.003886,0.007725,0.000082,0.007725,-0.003886,89.596647,0.007726,
1750,1180,-2.539741,-6.434983,0.999998,0.000202,-0.003675,0.007599,0.000803,0.007656,-0.003732,85.948425,0.007656,
770,1430,1.642852,-4.345788,0.999996,0.000236,-0.004260,0.008046,0.000006,0.008046,-0.004260,89.972770,0.008050,
1870,920,-3.037930,-8.255916,0.999998,0.000159,-0.003241,0.006672,-0.000283,0.006680,-0.003249,-88.365566,0.006681,
1020,2020,0.020742,-0.074915,0.999999,0.000000,-0.000029,0.004628,-0.000495,0.004680,-0.000082,-83.996624,0.005358,
980,1920,0.161077,-0.579991,0.999998,0.000175,-0.000931,0.005303,-0.000564,0.005354,-0.000981,-84.869659,0.005701,
1640,600,-1.361668,-11.104994,0.999996,0.000216,-0.004294,0.008005,0.000244,0.008010,-0.004298,88.866059,0.008017,
940,1670,0.612547,-2.140734,0.999996,0.000224,-0.002718,0.006605,0.000254,0.006612,-0.002725,88.438255,0.006646,
1440,1850,-0.215833,-0.944996,0.999998,0.000160,-0.001261,0.005465,0.000323,0.005481,-0.001277,87.252996,0.005735,
1330,790,-0.242881,-11.142926,0.999996,0.000239,-0.003580,0.004879,0.003292,0.006010,-0.004710,71.050246,0.006324,
710,320,1.212787,-12.988084,0.999998,0.000202,-0.003590,0.007519,0.000070,0.007519,-0.003590,89.641126,0.007522,
1650,400,-1.031549,-12.617999,0.999998,0.000181,-0.003457,0.007415,0.000146,0.007417,-0.003459,89.229592,0.007422,
1590,860,-1.860503,-8.974200,0.999996,0.000230,-0.004487,0.008926,-0.000955,0.008993,-0.004555,-85.947245,0.008994,
1450,640,-0.599796,-11.408940,0.999996,0.000232,-0.004094,0.007252,0.001596,0.007472,-0.004314,82.145198,0.007502,
900,700,1.219005,-10.490739,0.999997,0.000211,-0.004961,0.008677,-0.000440,0.008692,-0.004975,-88.155003,0.008722,
1380,780,-0.434219,-10.782253,0.999995,0.000273,-0.004851,0.007171,0.003068,0.007908,-0.005589,76.479246,0.008131,
1850,690,-2.434760,-9.929712,0.999997,0.000216,-0.003782,0.007524,-0.000236,0.007528,-0.003787,-88.803509,0.007529,
1390,1500,-0.351904,-2.940916,0.999998,0.000196,-0.002810,0.006009,-0.001193,0.006168,-0.002968,-82.431604,0.006169,
1680,1020,-2.523038,-7.617841,0.999997,0.000202,-0.003099,0.007579,-0.000119,0.007580,-0.003101,-89.362002,0.007622,
1780,730,-2.272818,-9.761567,0.999998,0.000197,-0.003955,0.007762,-0.000483,0.007781,-0.003975,-87.641927,0.007782,
1170,1590,0.113424,-2.260773,0.999998,0.000150,-0.001916,0.005344,0.000322,0.005358,-0.001930,87.469166,0.005428,
650,1090,2.915720,-7.127083,0.999998,0.000174,-0.003250,0.006860,-0.000200,0.006864,-0.003254,-88.869506,0.006867,
1360,1190,-0.683283,-4.727195,0.999993,0.000355,-0.003410,0.005691,-0.003336,0.006783,-0.004502,-71.878717,0.006903,
1030,890,1.202625,-9.301893,0.999995,0.000277,-0.005261,0.010623,-0.001297,0.010728,-0.005367,-85.363281,0.010728,
1460,350,-0.412329,-13.309091,0.999997,0.000197,-0.002119,0.006056,0.000146,0.006058,-0.002122,88.973962,0.006148,
1120,1740,0.164211,-1.484137,0.999998,0.000170,-0.001642,0.005495,0.000159,0.005499,-0.001645,88.725291,0.005644,
940,1140,1.787315,-6.525524,0.999996,0.000245,-0.004228,0.009598,-0.000997,0.009670,-0.004300,-85.894835,0.009689,
1810,690,-2.282689,-10.012804,0.999997,0.000217,-0.003860,0.007592,-0.000340,0.007602,-0.003870,-88.299389,0.007602,
1900,560,-2.307377,-10.805335,0.999997,0.000000,-0.003814,0.007672,-0.000018,0.007672,-0.003814,-89.909574,0.007672,
1230,470,0.003101,-12.860523,0.999998,0.000163,-0.001858,0.005186,-0.000025,0.005186,-0.001858,-89.792899,0.005255,
1510,1630,-0.621290,-2.383201,0.999997,0.000215,-0.002869,0.006675,-0.000465,0.006698,-0.002892,-87.215836,0.006718,
1470,910,-1.514353,-8.842366,0.999994,0.000279,-0.004985,0.010539,-0.000217,0.010542,-0.004988,-89.198082,0.010547,
1700,1310,-1.985226,-5.340575,0.999997,0.000207,-0.004311,0.008163,0.000557,0.008188,-0.004336,87.446353,0.008192,
780,70,0.187722,-14.836216,0.999998,0.000171,-0.000947,0.005808,0.001622,0.006177,-0.001316,77.172469,0.006507,
1430,870,-1.063921,-9.536718,0.999995,0.000264,-0.005439,0.010297,0.001502,0.010439,-0.005581,84.596310,0.010447,
920,1890,0.286786,-0.779097,0.999998,0.000183,-0.001220,0.005793,-0.000766,0.005876,-0.001303,-83.835298,0.006172,
1430,700,-0.565175,-11.054558,0.999995,0.000276,-0.004538,0.007553,0.002050,0.007891,-0.004876,80.635505,0.007964,
970,1080,1.910110,-7.038063,0.999997,0.000265,-0.003381,0.009839,-0.000602,0.009866,-0.003409,-87.398841,0.010022,
1280,500,-0.091648,-12.681863,0.999998,0.000152,-0.001901,0.005187,0.000303,0.005200,-0.001913,87.558630,0.005260,
1260,390,-0.048475,-13.272065,0.999998,0.000161,-0.001717,0.005337,0.000157,0.005341,-0.001720,88.728612,0.005452,
980,1940,0.131477,-0.475322,0.999998,0.000170,-0.000741,0.005231,-0.000617,0.005294,-0.000805,-84.160089,0.005705,
1340,1850,-0.102496,-0.896467,0.999998,0.000168,-0.001050,0.005148,0.000106,0.005150,-0.001052,89.016540,0.005442,
1020,30,0.016321,-15.068179,0.999999,0.000000,0.000074,0.004685,0.000478,0.004734,0.000025,84.145427,0.005481,
840,90,0.199989,-14.735886,0.999998,0.000172,-0.000746,0.005620,0.001271,0.005864,-0.000990,79.118471,0.006278,
1640,580,-1.321717,-11.265963,0.999996,0.000218,-0.004222,0.007948,0.000296,0.007956,-0.004229,88.606681,0.007961,
600,1860,1.197662,-1.482646,0.999997,0.000199,-0.003658,0.007533,-0.000362,0.007544,-0.003670,-88.150917,0.007545,
1330,770,-0.214862,-11.237889,0.999996,0.000232,-0.003378,0.004771,0.003110,0.005822,-0.004429,71.321752,0.006080,
770,1850,0.692008,-1.174259,0.999997,0.000211,-0.002653,0.007034,-0.000978,0.007131,-0.002751,-84.289599,0.007193,
1850,920,-2.973602,-8.276632,0.999998,0.000185,-0.003278,0.006799,-0.000358,0.006812,-0.003291,-87.969386,0.006813,
1650,380,-0.992765,-12.767431,0.999997,0.000186,-0.003420,0.007360,0.000059,0.007360,-0.003420,89.687628,0.007366,
900,680,1.175655,-10.662051,0.999997,0.000200,-0.004843,0.008515,-0.000514,0.008535,-0.004862,-87.800438,0.008563,
1850,1110,-3.014973,-7.014443,0.999997,0.000179,-0.003237,0.006706,0.000266,0.006714,-0.003244,88.467314,0.006715,
590,680,2.495344,-9.953558,0.999996,0.000258,-0.003899,0.007552,0.000131,0.007554,-0.003901,89.344955,0.007555,
1570,860,-1.769601,-9.013209,0.999996,0.000211,-0.004657,0.009165,-0.000918,0.009226,-0.004718,-86.218755,0.009226,
1600,480,-0.993205,-12.139193,0.999997,0.000200,-0.003654,0.007447,0.000448,0.007465,-0.003672,87.690577,0.007466,
940,1120,1.870846,-6.715218,0.999996,0.000239,-0.003876,0.009421,-0.000976,0.009492,-0.003947,-85.822252,0.009537,
1810,710,-2.336444,-9.859727,0.999997,0.000210,-0.003850,0.007639,-0.000367,0.007650,-0.003862,-88.173290,0.007650,
700,1210,2.517122,-6.220749,0.999996,0.000227,-0.003741,0.007521,-0.000728,0.007568,-0.003788,-86.317601,0.007568,
1080,280,0.202198,-13.801532,0.999998,0.000183,-0.001432,0.005534,0.000072,0.005534,-0.001432,89.406580,0.005745,
1770,330,-1.298213,-12.872616,0.999997,0.000207,-0.003623,0.007519,-0.000027,0.007519,-0.003623,-89.859950,0.007521,
1680,1000,-2.509945,-7.768452,0.999997,0.000209,-0.003134,0.007514,-0.000266,0.007521,-0.003141,-88.567750,0.007555,
1380,760,-0.402996,-10.923358,0.999996,0.000244,-0.004556,0.006934,0.002949,0.007647,-0.005269,76.412925,0.007827,
1770,1500,-1.797673,-3.972089,0.999997,0.000197,-0.003947,0.007755,-0.000050,0.007756,-0.003947,-89.757639,0.007756,
1460,330,-0.392132,-13.430025,0.999997,0.000196,-0.002017,0.006111,0.000033,0.006111,-0.002017,89.769721,0.006227,
1790,1120,-2.797168,-6.904628,0.999997,0.000216,-0.003393,0.007175,0.000536,0.007203,-0.003420,87.102537,0.007206,
1030,870,1.082281,-9.508915,0.999995,0.000282,-0.005506,0.010295,-0.001362,0.010412,-0.005622,-85.109639,0.010423,
660,190,0.965931,-13.861391,0.999998,0.000198,-0.003225,0.007650,0.001031,0.007747,-0.003322,84.632442,0.007773,
820,360,0.926122,-12.931194,0.999997,0.000198,-0.003248,0.007202,0.000029,0.007202,-0.003248,89.843598,0.007214,
1620,1630,-0.973468,-2.618414,0.999997,0.000235,-0.003482,0.007346,-0.000266,0.007353,-0.003488,-88.595750,0.007356,
690,1510,1.787799,-3.900750,0.999997,0.000199,-0.003913,0.007733,0.000071,0.007734,-0.003913,89.648650,0.007734,
790,1080,2.468705,-7.160593,0.999996,0.000215,-0.003204,0.007613,-0.000481,0.007634,-0.003225,-87.458982,0.007665,
1410,700,-0.478397,-11.157700,0.999995,0.000257,-0.004285,0.007155,0.002250,0.007582,-0.004712,79.263206,0.007656,
650,1070,2.926219,-7.265460,0.999998,0.000172,-0.003204,0.006851,-0.000166,0.006854,-0.003207,-89.054608,0.006859,
1240,390,-0.014748,-13.279680,0.999999,0.000132,-0.001730,0.005303,0.000079,0.005304,-0.001731,89.354077,0.005409,
1120,1760,0.155755,-1.375760,0.999998,0.000167,-0.001548,0.005442,0.000109,0.005444,-0.001550,89.107738,0.005610,
1780,990,-2.822856,-7.827348,0.999998,0.000185,-0.003262,0.007032,-0.000205,0.007036,-0.003267,-88.859141,0.007042,
980,1960,0.101262,-0.371318,0.999998,0.000175,-0.000596,0.005136,-0.000611,0.005200,-0.000660,-83.984926,0.005662,
1500,1830,-0.326597,-1.096921,0.999998,0.000194,-0.001812,0.005860,0.000300,0.005872,-0.001823,87.761505,0.006011,
1640,1000,-2.386318,-7.774332,0.999997,0.000211,-0.002982,0.007697,-0.000299,0.007705,-0.002991,-88.400020,0.007769,
920,1870,0.325147,-0.894672,0.999997,0.000215,-0.001377,0.005868,-0.000685,0.005932,-0.001441,-84.649252,0.006188,
940,1100,1.945999,-6.902088,0.999996,0.000231,-0.003453,0.009251,-0.000905,0.009315,-0.003517,-85.944691,0.009408,
1330,750,-0.201378,-11.336616,0.999997,0.000211,-0.003166,0.004792,0.002905,0.005739,-0.004113,71.934348,0.005916,
770,1870,0.621701,-1.031178,0.999996,0.000218,-0.002463,0.006863,-0.001133,0.006998,-0.002599,-83.168512,0.007075,
1470,1330,-0.796155,-4.473333,0.999995,0.000271,-0.005186,0.008509,-0.001533,0.008678,-0.005355,-83.688088,0.008757,
1560,1710,-0.650767,-1.934145,0.999997,0.000189,-0.002775,0.006727,-0.000032,0.006727,-0.002775,-89.805155,0.006762,
1230,490,0.002407,-12.757542,0.999998,0.000160,-0.001887,0.005131,-0.000010,0.005131,-0.001887,-89.920158,0.005191,
600,1840,1.276692,-1.629741,0.999997,0.000190,-0.003644,0.007522,-0.000261,0.007528,-0.003650,-88.660892,0.007529,
1570,140,-0.263233,-14.473634,0.999997,0.000180,-0.001329,0.005774,-0.000883,0.005882,-0.001437,-83.018700,0.006133,
1010,2020,0.021187,-0.073719,0.999999,0.000000,0.000033,0.004710,-0.000539,0.004771,-0.000029,-83.511546,0.005493,
1170,1570,0.114418,-2.367405,0.999998,0.000167,-0.001997,0.005276,0.000368,0.005295,-0.002016,87.114067,0.005345,
1710,400,-1.242624,-12.483906,0.999997,0.000193,-0.003637,0.007562,0.000122,0.007564,-0.003638,89.376660,0.007565,
1280,480,-0.091241,-12.785196,0.999999,0.000139,-0.001865,0.005239,0.000258,0.005249,-0.001874,87.925050,0.005320,
1080,1170,0.921983,-5.187878,0.999993,0.000282,-0.003978,0.007538,0.003555,0.008548,-0.004988,74.153843,0.008587,
1870,450,-1.948161,-11.714559,0.999998,0.000141,-0.003728,0.007532,0.000079,0.007532,-0.003728,89.596809,0.007533,
1780,710,-2.218283,-9.915978,0.999998,0.000202,-0.003983,0.007721,-0.000425,0.007736,-0.003999,-87.922286,0.007738,
900,1100,2.080780,-6.952166,0.999997,0.000230,-0.003302,0.008592,-0.000900,0.008660,-0.003370,-85.695979,0.008730,
1850,1130,-2.981571,-6.876247,0.999998,0.000164,-0.003288,0.006787,0.000365,0.006801,-0.003301,87.928685,0.006801,
680,1210,2.589582,-6.240486,0.999996,0.000246,-0.003646,0.007394,-0.000677,0.007435,-0.003688,-86.503339,0.007435,
1790,1500,-1.876819,-4.018971,0.999997,0.000191,-0.003882,0.007696,-0.000044,0.007696,-0.003882,-89.781077,0.007697,
1650,860,-2.117070,-8.894130,0.999996,0.000232,-0.004105,0.008378,-0.000983,0.008455,-0.004182,-85.523112,0.008455,
1680,1420,-1.609298,-4.397873,0.999996,0.000237,-0.004328,0.008116,-0.000003,0.008116,-0.004328,-89.988393,0.008122,
1380,1460,-0.330424,-3.149982,0.999997,0.000207,-0.002909,0.006006,-0.001484,0.006247,-0.003149,-80.790805,0.006247,
1680,130,-0.401211,-14.467652,0.999997,0.000201,-0.001848,0.006359,-0.001397,0.006590,-0.002080,-80.596343,0.006738,
1600,460,-0.962328,-12.289273,0.999997,0.000220,-0.003573,0.007381,0.000401,0.007396,-0.003588,87.904971,0.007397,
1810,730,-2.388622,-9.704958,0.999998,0.000194,-0.003827,0.007644,-0.000413,0.007659,-0.003842,-87.941044,0.007659,
1430,1430,-0.509173,-3.520961,0.999996,0.000242,-0.003767,0.006851,-0.001647,0.007101,-0.004016,-81.383087,0.007121,
1030,850,0.977503,-9.717341,0.999995,0.000244,-0.005785,0.009977,-0.001456,0.010110,-0.005919,-84.765490,0.010159,
1080,260,0.190204,-13.911438,0.999998,0.000179,-0.001337,0.005426,0.000090,0.005427,-0.001338,89.234895,0.005655,
1440,330,-0.351692,-13.452587,0.999997,0.000227,-0.002063,0.006015,0.000132,0.006017,-0.002065,89.067167,0.006115,
1600,1630,-0.905035,-2.573746,0.999998,0.000205,-0.003305,0.007234,-0.000276,0.007241,-0.003312,-88.498781,0.007250,
1770,350,-1.348048,-12.719526,0.999996,0.000212,-0.003603,0.007560,-0.000028,0.007560,-0.003603,-89.858516,0.007563,
1700,1050,-2.575573,-7.391777,0.999996,0.000206,-0.003168,0.007446,0.000270,0.007453,-0.003174,88.544107,0.007480,
1670,920,-2.359513,-8.387485,0.999996,0.000237,-0.003557,0.007927,-0.000857,0.007991,-0.003621,-85.755900,0.008002,
650,1050,2.939204,-7.404732,0.999997,0.000197,-0.003239,0.006915,-0.000237,0.006921,-0.003244,-88.664383,0.006925,
620,1150,2.925490,-6.733724,0.999998,0.000170,-0.003302,0.006786,-0.000341,0.006798,-0.003314,-88.064641,0.006798,
690,1490,1.831528,-4.057387,0.999998,0.000178,-0.003948,0.007726,0.000033,0.007726,-0.003948,89.838001,0.007727,
940,1520,0.784624,-3.182881,0.999997,0.000194,-0.003653,0.007296,0.000807,0.007355,-0.003712,85.806918,0.007355,
1140,390,0.157419,-13.238730,0.999997,0.000181,-0.001932,0.005479,-0.000363,0.005497,-0.001950,-87.205175,0.005574,
980,1980,0.073625,-0.268354,0.999998,0.000137,-0.000426,0.005015,-0.000638,0.005089,-0.000500,-83.398417,0.005610,
770,1890,0.556859,-0.898737,0.999997,0.000206,-0.002245,0.006796,-0.001316,0.006984,-0.002433,-81.884196,0.007090,
1500,1810,-0.358829,-1.217016,0.999998,0.000198,-0.001959,0.005987,0.000257,0.005995,-0.001968,88.147167,0.006112,
1230,1330,0.002209,-3.357778,0.999997,0.000179,-0.001476,0.002749,0.000060,0.002750,-0.001477,89.187299,0.002753,
820,800,1.899580,-9.413662,0.999997,0.000234,-0.004534,0.008591,0.000744,0.008633,-0.004576,86.764734,0.008638,
1640,1020,-2.402125,-7.617938,0.999997,0.000219,-0.002955,0.007758,-0.000154,0.007761,-0.002957,-89.174333,0.007834,
1690,400,-1.171210,-12.529750,0.999998,0.000190,-0.003527,0.007497,0.000114,0.007499,-0.003528,89.408406,0.007503,
1630,200,-0.521070,-14.056559,0.999997,0.000193,-0.001935,0.006547,-0.000933,0.006648,-0.002037,-83.795374,0.006813,
1880,450,-1.985605,-11.691164,0.999998,0.000158,-0.003702,0.007524,0.000053,0.007524,-0.003703,89.730693,0.007525,
600,1820,1.351619,-1.783201,0.999997,0.000205,-0.003638,0.007426,-0.000173,0.007429,-0.003641,-89.106818,0.007429,
1850,1150,-2.948946,-6.740480,0.999997,0.000185,-0.003293,0.006739,0.000314,0.006749,-0.003303,88.209098,0.006750,
1760,990,-2.757828,-7.832299,0.999998,0.000180,-0.003261,0.007138,-0.000213,0.007142,-0.003265,-88.824407,0.007151,
1330,1510,-0.200115,-2.741631,0.999998,0.000181,-0.002227,0.005380,-0.000848,0.005473,-0.002320,-83.717843,0.005494,
820,1210,2.040397,-6.092016,0.999996,0.000246,-0.004238,0.008412,-0.000949,0.008482,-0.004309,-85.732450,0.008483,
1170,1550,0.116483,-2.471259,0.999997,0.000186,-0.002036,0.005256,0.000464,0.005285,-0.002065,86.376833,0.005327,
1680,1440,-1.564531,-4.232952,0.999996,0.000239,-0.004274,0.008052,-0.000068,0.008053,-0.004274,-89.683248,0.008058,
1280,460,-0.088974,-12.890323,0.999999,0.000139,-0.001840,0.005287,0.000200,0.005292,-0.001846,88.396207,0.005372,
900,1120,2.016636,-6.773435,0.999997,0.000217,-0.003584,0.008816,-0.001074,0.008909,-0.003676,-85.086800,0.008954,
1070,1980,0.040465,-0.258367,0.999999,0.000159,-0.000279,0.004764,-0.000354,0.004788,-0.000303,-86.006533,0.005363,
1430,1410,-0.521166,-3.661725,0.999996,0.000234,-0.003967,0.007018,-0.001777,0.007298,-0.004248,-81.033968,0.007331,
1830,1500,-2.029657,-4.112374,0.999996,0.000216,-0.003810,0.007629,-0.000046,0.007630,-0.003810,-89.771658,0.007630,
1030,830,0.889026,-9.924164,0.999996,0.000229,-0.005896,0.009577,-0.001660,0.009753,-0.006072,-83.945348,0.009850,
980,1910,0.176267,-0.633724,0.999997,0.000207,-0.001006,0.005391,-0.000568,0.005441,-0.001056,-84.968116,0.005771,
1760,730,-2.192723,-9.797101,0.999997,0.000238,-0.004043,0.007844,-0.000516,0.007867,-0.004066,-87.518924,0.007868,
1080,240,0.172698,-14.022012,0.999998,0.000186,-0.001198,0.005401,0.000172,0.005405,-0.001202,88.504551,0.005676,
1600,440,-0.928397,-12.437576,0.999997,0.000200,-0.003435,0.007293,0.000333,0.007304,-0.003446,88.224394,0.007308,
1630,860,-2.032965,-8.918540,0.999996,0.000239,-0.004217,0.008538,-0.001006,0.008617,-0.004296,-85.518442,0.008617,
830,1080,2.342589,-7.149969,0.999997,0.000187,-0.003124,0.007852,-0.000623,0.007887,-0.003160,-86.762863,0.007939,
740,930,2.559651,-8.285713,0.999996,0.000214,-0.003446,0.007459,0.000652,0.007498,-0.003485,86.588855,0.007504,
650,1030,2.950876,-7.544232,0.999998,0.000181,-0.003252,0.006960,-0.000033,0.006960,-0.003252,-89.817165,0.006965,
600,1150,2.990301,-6.755335,0.999998,0.000159,-0.003245,0.006665,-0.000277,0.006673,-0.003252,-88.401872,0.006674,
1770,790,-2.396978,-9.311360,0.999997,0.000227,-0.003836,0.007670,-0.000669,0.007709,-0.003875,-86.685450,0.007709,
690,1470,1.877840,-4.212413,0.999998,0.000169,-0.003951,0.007774,-0.000010,0.007774,-0.003951,-89.952549,0.007775,
1450,140,-0.143250,-14.524294,0.999998,0.000226,-0.000788,0.005245,-0.000473,0.005282,-0.000825,-85.540979,0.005683,
1810,750,-2.442482,-9.554988,0.999997,0.000219,-0.003802,0.007531,-0.000474,0.007551,-0.003821,-87.607091,0.007551,
770,1910,0.476595,-0.756866,0.999997,0.000202,-0.001983,0.006639,-0.001410,0.006864,-0.002208,-80.947088,0.007008,
660,1650,1.597599,-2.900249,0.999996,0.000236,-0.003730,0.007589,0.000082,0.007589,-0.003731,89.582615,0.007590,
1120,390,0.196773,-13.216104,0.999998,0.000170,-0.001952,0.005567,-0.000382,0.005586,-0.001971,-87.101125,0.005666,
1550,1730,-0.594258,-1.783321,0.999997,0.000205,-0.002455,0.006647,0.000067,0.006648,-0.002456,89.576054,0.006723,
940,1540,0.762729,-3.040587,0.999997,0.000195,-0.003544,0.007155,0.000742,0.007206,-0.003596,86.051849,0.007206,
730,1130,2.585449,-6.803184,0.999997,0.000208,-0.003434,0.007447,-0.000610,0.007481,-0.003468,-86.800444,0.007488,
660,1730,1.405083,-2.290717,0.999996,0.000238,-0.003666,0.007563,-0.000042,0.007563,-0.003666,-89.787607,0.007564,
1740,430,-1.418097,-12.182644,0.999996,0.000259,-0.003765,0.007597,0.000153,0.007599,-0.003767,89.229834,0.007599,
850,1720,0.789954,-1.960826,0.999998,0.000159,-0.002877,0.007053,-0.000126,0.007055,-0.002879,-89.274924,0.007095,
1470,1350,-0.763446,-4.303813,0.999996,0.000242,-0.004950,0.008297,-0.001552,0.008477,-0.005130,-83.406494,0.008539,
1640,1040,-2.399617,-7.461984,0.999997,0.000226,-0.002958,0.007784,0.000215,0.007789,-0.002962,88.852516,0.007863,
1010,30,0.013123,-15.069430,0.999999,0.000000,0.000092,0.004724,0.000556,0.004790,0.000026,83.244546,0.005546,
1380,1480,-0.330590,-3.031962,0.999997,0.000198,-0.002783,0.005948,-0.001302,0.006138,-0.002973,-81.698443,0.006139,
1810,1500,-1.952539,-4.065850,0.999997,0.000184,-0.003840,0.007650,-0.000035,0.007650,-0.003840,-89.825278,0.007650,
920,1270,1.353539,-5.330993,0.999995,0.000291,-0.005391,0.009319,-0.000017,0.009319,-0.005391,-89.935713,0.009357,
1660,730,-1.764235,-9.979827,0.999996,0.000283,-0.004529,0.008373,-0.000424,0.008387,-0.004543,-88.120753,0.008396,
1480,1830,-0.293535,-1.079628,0.999998,0.000185,-0.001525,0.005744,0.000330,0.005759,-0.001540,87.406236,0.005963,
1610,200,-0.483072,-14.075905,0.999996,0.000234,-0.002030,0.006421,-0.000824,0.006501,-0.002110,-84.483889,0.006633,
900,690,1.198048,-10.577264,0.999997,0.000193,-0.004905,0.008592,-0.000492,0.008610,-0.004922,-87.916499,0.008640,
1530,600,-0.890577,-11.422845,0.999998,0.000204,-0.004145,0.007743,0.000890,0.007809,-0.004211,85.740208,0.007817,
1040,850,0.921719,-9.801555,0.999995,0.000243,-0.005669,0.009721,-0.001799,0.009928,-0.005876,-83.421929,0.009984,
810,1420,1.493194,-4.331108,0.999995,0.000253,-0.004399,0.008167,0.000079,0.008167,-0.004399,89.641221,0.008175,
1620,990,-2.321140,-7.854319,0.999996,0.000249,-0.003006,0.007820,-0.000398,0.007834,-0.003021,-87.898718,0.007902,
590,1150,3.022658,-6.767461,0.999998,0.000158,-0.003172,0.006588,-0.000230,0.006593,-0.003178,-88.649581,0.006595,
1890,450,-2.022564,-11.668539,0.999997,0.000210,-0.003699,0.007526,0.000038,0.007526,-0.003699,89.806495,0.007527,
1330,1530,-0.197390,-2.634431,0.999998,0.000185,-0.002216,0.005395,-0.000767,0.005471,-0.002293,-84.304305,0.005495,
710,260,1.042008,-13.441522,0.999998,0.000194,-0.003492,0.007523,0.000390,0.007537,-0.003505,87.976425,0.007543,
900,1140,1.950053,-6.597640,0.999997,0.000202,-0.003940,0.008923,-0.001081,0.009013,-0.004030,-85.231219,0.009030,
650,1010,2.941739,-7.682720,0.999998,0.000171,-0.003254,0.006928,0.000228,0.006933,-0.003259,88.717670,0.006938,
950,200,0.311129,-14.156311,0.999998,0.000185,-0.001641,0.005847,0.000489,0.005878,-0.001673,86.278617,0.006058,
660,1210,2.662474,-6.263679,0.999997,0.000202,-0.003598,0.007286,-0.000621,0.007321,-0.003633,-86.745714,0.007321,
1680,1460,-1.519013,-4.073840,0.999995,0.000246,-0.004222,0.007919,-0.000128,0.007920,-0.004223,-89.395634,0.007926,
940,1560,0.739964,-2.896129,0.999997,0.000191,-0.003446,0.007066,0.000723,0.007115,-0.003495,86.085365,0.007116,
820,780,1.834786,-9.586403,0.999996,0.000226,-0.004601,0.008583,0.000627,0.008612,-0.004631,87.285144,0.008621,
1100,690,0.292994,-11.470320,0.999996,0.000254,-0.003399,0.005867,-0.002381,0.006443,-0.003975,-76.398592,0.006501,
1230,1310,0.002088,-3.408616,0.999997,0.000181,-0.001469,0.002374,0.000066,0.002375,-0.001470,89.013351,0.002397,
690,1450,1.924140,-4.369447,0.999998,0.000159,-0.003949,0.007798,-0.000047,0.007799,-0.003949,-89.768795,0.007799,
1130,270,0.126287,-13.886839,0.999998,0.000155,-0.001474,0.005325,-0.000059,0.005325,-0.001474,-89.501237,0.005499,
1340,390,-0.191413,-13.218729,0.999998,0.000165,-0.001953,0.005553,0.000370,0.005571,-0.001971,87.186423,0.005650,
760,150,0.517252,-14.319533,0.999997,0.000185,-0.001992,0.006778,0.001469,0.007017,-0.002232,80.739023,0.007171,
1850,1170,-2.917628,-6.604710,0.999997,0.000208,-0.003328,0.006806,0.000318,0.006816,-0.003338,88.202811,0.006816,
740,890,2.478930,-8.590318,0.999997,0.000196,-0.003657,0.007752,0.000864,0.007817,-0.003722,85.694781,0.007820,
1290,1980,-0.015122,-0.252333,0.999998,0.000165,-0.000197,0.004597,0.000134,0.004601,-0.000201,88.402794,0.005201,
990,490,0.571579,-12.380263,0.999997,0.000210,-0.003076,0.006681,-0.000793,0.006745,-0.003140,-85.386657,0.006751,
890,1400,1.171307,-4.276486,0.999997,0.000206,-0.004668,0.008343,0.000514,0.008364,-0.004688,87.739199,0.008384,
1560,200,-0.378981,-14.123961,0.999997,0.000195,-0.001676,0.006086,-0.000670,0.006143,-0.001733,-85.103794,0.006335,
1080,220,0.158227,-14.126974,0.999998,0.000168,-0.001077,0.005306,0.000202,0.005313,-0.001084,88.186417,0.005615,
830,700,1.559290,-10.293700,0.999996,0.000255,-0.004664,0.008476,0.000099,0.008477,-0.004665,89.568256,0.008491,
820,1510,1.267639,-3.584809,0.999997,0.000204,-0.004006,0.007803,0.000343,0.007813,-0.004016,88.335960,0.007814,
1000,2020,0.019328,-0.072605,0.999998,0.000000,0.000065,0.004773,-0.000585,0.004844,-0.000007,-83.016829,0.005590,
730,1110,2.617908,-6.949892,0.999997,0.000212,-0.003415,0.007433,-0.000645,0.007471,-0.003453,-86.606936,0.007478,
1470,1370,-0.735075,-4.139644,0.999997,0.000207,-0.004722,0.008000,-0.001532,0.008182,-0.004904,-83.229755,0.008236,
660,1710,1.454268,-2.442403,0.999997,0.000186,-0.003724,0.007594,0.000011,0.007594,-0.003724,89.943504,0.007594,
1770,770,-2.344337,-9.466335,0.999997,0.000233,-0.003885,0.007694,-0.000609,0.007726,-0.003917,-86.997228,0.007726,
690,1340,2.204948,-5.229862,0.999997,0.000228,-0.003981,0.007747,-0.000461,0.007765,-0.004000,-87.750758,0.007766,
830,1720,0.847114,-1.995492,0.999998,0.000168,-0.002972,0.007083,-0.000131,0.007084,-0.002974,-89.252057,0.007115,
1640,1060,-2.384350,-7.306419,0.999997,0.000229,-0.003001,0.007721,0.000339,0.007731,-0.003012,88.192284,0.007794,
690,560,1.820459,-11.102005,0.999997,0.000184,-0.003934,0.007718,-0.000033,0.007718,-0.003934,-89.835598,0.007719,
1710,460,-1.365249,-12.027377,0.999996,0.000231,-0.003775,0.007591,0.000192,0.007595,-0.003779,89.033407,0.007595,
900,670,1.154508,-10.749098,0.999997,0.000199,-0.004778,0.008434,-0.000536,0.008455,-0.004800,-87.682311,0.008481,
1720,990,-2.628148,-7.837298,0.999998,0.000187,-0.003195,0.007329,-0.000258,0.007335,-0.003201,-88.596089,0.007355,
940,1270,1.244515,-5.258727,0.999996,0.000209,-0.005531,0.009432,0.000262,0.009436,-0.005536,88.996005,0.009483,
790,1440,1.534254,-4.216897,0.999996,0.000233,-0.004287,0.008066,0.000090,0.008067,-0.004288,89.581300,0.008072,
1870,860,-2.933091,-8.656694,0.999997,0.000177,-0.003343,0.006887,-0.000273,0.006894,-0.003351,-88.470905,0.006895,
1380,1500,-0.324573,-2.914721,0.999998,0.000191,-0.002721,0.005890,-0.001191,0.006051,-0.002883,-82.269737,0.006053,
1330,1550,-0.196234,-2.526987,0.999997,0.000182,-0.002192,0.005491,-0.000695,0.005553,-0.002254,-84.873383,0.005586,
1640,710,-1.618312,-10.192635,0.999998,0.000285,-0.004656,0.008484,-0.000183,0.008487,-0.004658,-89.203535,0.008500,
580,1150,3.055055,-6.778725,0.999999,0.000136,-0.003010,0.006528,-0.000170,0.006531,-0.003013,-88.976584,0.006538,
1040,1850,0.193941,-0.934374,0.999998,0.000192,-0.001318,0.005392,-0.000229,0.005399,-0.001326,-88.045974,0.005628,
650,990,2.929581,-7.820461,0.999997,0.000199,-0.003246,0.006839,0.000178,0.006842,-0.003249,88.990719,0.006845,
690,1430,1.970609,-4.524911,0.999997,0.000209,-0.003967,0.007810,-0.000141,0.007812,-0.003968,-89.315854,0.007812,
1040,70,0.049306,-14.881258,0.999998,0.000168,-0.000386,0.004812,0.000438,0.004848,-0.000423,85.213772,0.005371,
900,1160,1.872735,-6.414730,0.999997,0.000213,-0.004254,0.009109,-0.001092,0.009198,-0.004342,-85.359795,0.009202,
1000,30,0.012964,-15.069475,0.999999,0.000000,0.000070,0.004739,0.000588,0.004812,-0.000003,82.927338,0.005555,
940,1580,0.716412,-2.757438,0.999997,0.000196,-0.003348,0.007031,0.000689,0.007077,-0.003394,86.217650,0.007079,
1560,220,-0.423116,-14.001464,0.999998,0.000179,-0.001849,0.006155,-0.000578,0.006196,-0.001891,-85.890608,0.006351,
1050,200,0.173474,-14.219462,0.999998,0.000202,-0.001272,0.005379,0.000249,0.005389,-0.001281,87.857766,0.005630,
1640,1500,-1.273181,-3.656078,0.999997,0.000191,-0.004070,0.007856,-0.000352,0.007866,-0.004080,-88.309321,0.007868,
1320,390,-0.151556,-13.242095,0.999998,0.000155,-0.001905,0.005457,0.000332,0.005472,-0.001920,87.425839,0.005552,
870,1400,1.263540,-4.336401,0.999996,0.000222,-0.004621,0.008342,0.000388,0.008353,-0.004632,88.288230,0.008370,
820,1490,1.304311,-3.743094,0.999996,0.000222,-0.004115,0.007906,0.000335,0.007915,-0.004124,88.403133,0.007917,
1360,330,-0.201011,-13.537121,0.999997,0.000207,-0.001684,0.005608,0.000148,0.005611,-0.001687,88.836038,0.005757,
1170,1660,0.104323,-1.887517,0.999998,0.000156,-0.001693,0.005386,0.000131,0.005388,-0.001695,88.938326,0.005510,
640,1210,2.734027,-6.287429,0.999996,0.000216,-0.003564,0.007202,-0.000561,0.007231,-0.003594,-87.023607,0.007231,
1680,1480,-1.477271,-3.914560,0.999995,0.000253,-0.004145,0.007887,-0.000157,0.007890,-0.004147,-89.251457,0.007893,
810,700,1.648961,-10.247773,0.999997,0.000222,-0.004578,0.008412,0.000205,0.008415,-0.004582,89.094160,0.008426,
710,360,1.308983,-12.685206,0.999997,0.000228,-0.003643,0.007548,-0.000015,0.007548,-0.003643,-89.925515,0.007549,
720,890,2.551564,-8.576030,0.999996,0.000245,-0.003630,0.007618,0.000804,0.007675,-0.003687,85.930151,0.007677,
1130,250,0.116741,-13.992216,0.999998,0.000150,-0.001314,0.005261,-0.000020,0.005261,-0.001314,-89.825600,0.005476,
890,1320,1.358246,-4.968780,0.999997,0.000227,-0.005076,0.008852,0.000100,0.008853,-0.005077,89.588158,0.008885,
900,430,0.792292,-12.589803,0.999997,0.000213,-0.003262,0.007060,-0.000377,0.007073,-0.003276,-87.908936,0.007080,
730,1090,2.653788,-7.101409,0.999997,0.000206,-0.003364,0.007359,-0.000474,0.007380,-0.003385,-87.473623,0.007388,
1880,860,-2.966151,-8.639215,0.999998,0.000165,-0.003319,0.006817,-0.000198,0.006821,-0.003323,-88.881051,0.006821,
670,560,1.898977,-11.054339,0.999998,0.000179,-0.003868,0.007680,-0.000034,0.007680,-0.003868,-89.831913,0.007680,
1690,460,-1.290662,-12.074356,0.999997,0.000186,-0.003726,0.007583,0.000205,0.007587,-0.003730,88.963957,0.007587,
1470,1760,-0.370612,-1.486708,0.999998,0.000187,-0.001840,0.006008,0.000106,0.006010,-0.001842,89.225217,0.006158,
1470,1390,-0.709811,-3.987563,0.999996,0.000226,-0.004524,0.007785,-0.001526,0.007971,-0.004711,-83.037996,0.008015,
1740,990,-2.692860,-7.835410,0.999997,0.000183,-0.003233,0.007232,-0.000251,0.007238,-0.003239,-88.625706,0.007251,
1380,1230,-0.566780,-4.684059,0.999993,0.000301,-0.005183,0.007762,-0.003057,0.008448,-0.005869,-77.361548,0.008659,
730,1720,1.176613,-2.198043,0.999998,0.000170,-0.003525,0.007487,-0.000082,0.007487,-0.003525,-89.573284,0.007491,
1060,70,0.038968,-14.883546,0.999998,0.000171,-0.000338,0.004753,0.000359,0.004779,-0.000363,85.988742,0.005320,
1080,200,0.139743,-14.235232,0.999998,0.000161,-0.000958,0.005306,0.000244,0.005315,-0.000967,87.772848,0.005662,
1270,1980,-0.011333,-0.252170,0.999998,0.000193,-0.000265,0.004587,0.000093,0.004589,-0.000267,88.902225,0.005151,
990,2020,0.019066,-0.072426,0.999998,0.000000,0.000000,0.004823,-0.000598,0.004895,-0.000073,-83.040017,0.005611,
1770,750,-2.288075,-9.622977,0.999997,0.000218,-0.003949,0.007808,-0.000573,0.007836,-0.003977,-87.214991,0.007837,
1330,1570,-0.194659,-2.412450,0.999998,0.000171,-0.002163,0.005537,-0.000648,0.005591,-0.002217,-85.225578,0.005631,
900,1600,0.827450,-2.709713,0.999998,0.000209,-0.003330,0.007157,0.000460,0.007177,-0.003350,87.494864,0.007182,
650,970,2.918188,-7.957498,0.999997,0.000212,-0.003264,0.006811,0.000170,0.006813,-0.003267,89.034644,0.006815,
1560,240,-0.464094,-13.875619,0.999997,0.000195,-0.001983,0.006350,-0.000509,0.006380,-0.002014,-86.518990,0.006524,
1880,1400,-2.458558,-4.994076,0.999997,0.000219,-0.003760,0.007552,0.000090,0.007553,-0.003760,89.546037,0.007553,
1640,1480,-1.311803,-3.813419,0.999997,0.000195,-0.004186,0.007919,-0.000304,0.007926,-0.004194,-88.561730,0.007931,
1170,1970,0.019071,-0.299163,0.999998,0.000171,-0.000219,0.004617,-0.000139,0.004621,-0.000223,-88.351655,0.005212,
810,1080,2.405097,-7.155477,0.999997,0.000207,-0.003140,0.007732,-0.000542,0.007759,-0.003167,-87.151122,0.007803,
1380,1520,-0.322886,-2.797215,0.999998,0.000186,-0.002693,0.005892,-0.001134,0.006039,-0.002841,-82.598695,0.006043,
1390,720,-0.408738,-11.131051,0.999996,0.000231,-0.004218,0.006820,0.002563,0.007386,-0.004784,77.544639,0.007493,
1550,1180,-1.736212,-6.205886,0.999996,0.000214,-0.004668,0.009363,0.000946,0.009426,-0.004732,86.158638,0.009426,
1410,200,-0.170587,-14.221144,0.999998,0.000266,-0.001222,0.005373,-0.000219,0.005380,-0.001229,-88.098441,0.005638,
650,1400,2.203372,-4.846080,0.999996,0.000228,-0.003867,0.007650,-0.000223,0.007654,-0.003871,-88.892723,0.007655,
1680,1920,-0.418065,-0.684725,0.999997,0.000210,-0.001951,0.006416,0.001360,0.006631,-0.002166,80.994110,0.006763,
1720,1460,-1.687050,-4.168101,0.999996,0.000228,-0.004119,0.007904,-0.000027,0.007904,-0.004119,-89.873581,0.007906,
950,90,0.115524,-14.767493,0.999998,0.000168,-0.000647,0.005153,0.000728,0.005243,-0.000737,82.958377,0.005677,
960,1910,0.198763,-0.642508,0.999998,0.000146,-0.001209,0.005498,-0.000606,0.005553,-0.001263,-84.875871,0.005821,
1740,730,-2.111405,-9.831486,0.999997,0.000196,-0.004133,0.007935,-0.000518,0.007958,-0.004155,-87.547427,0.007960,
570,1150,3.085060,-6.792727,0.999992,0.000328,-0.002928,0.006468,-0.000142,0.006470,-0.002930,-89.132765,0.006479,
820,760,1.775073,-9.758721,0.999996,0.000246,-0.004657,0.008592,0.000497,0.008611,-0.004676,87.853076,0.008622,
1260,1510,-0.053576,-2.654430,0.999998,0.000174,-0.001903,0.004921,-0.000331,0.004937,-0.001919,-87.233470,0.004978,
1890,860,-2.999050,-8.621194,0.999998,0.000167,-0.003303,0.006731,-0.000156,0.006734,-0.003305,-89.107782,0.006734,
1020,1850,0.219735,-0.945522,0.999998,0.000182,-0.001266,0.005501,-0.000327,0.005517,-0.001282,-87.242322,0.005774,
1890,1690,-1.828055,-2.820420,0.999997,0.000208,-0.003767,0.007296,-0.000022,0.007296,-0.003767,-89.883743,0.007297,
810,680,1.600006,-10.417215,0.999997,0.000238,-0.004539,0.008348,0.000100,0.008349,-0.004540,89.554640,0.008359,
730,1070,2.667004,-7.246846,0.999997,0.000205,-0.003276,0.007286,-0.000236,0.007291,-0.003282,-88.721820,0.007303,
1510,1610,-0.639854,-2.515461,0.999997,0.000212,-0.002988,0.006781,-0.000519,0.006809,-0.003016,-86.966975,0.006823,
720,490,1.553189,-11.715719,0.999997,0.000208,-0.003845,0.007682,-0.000160,0.007684,-0.003847,-89.205762,0.007684,
690,1410,2.021761,-4.681753,0.999997,0.000206,-0.004008,0.007815,-0.000220,0.007819,-0.004012,-88.933404,0.007820,
1130,230,0.105833,-14.098030,0.999998,0.000155,-0.001211,0.005221,0.000017,0.005222,-0.001211,89.844992,0.005466,
900,410,0.762681,-12.729522,0.999997,0.000199,-0.003218,0.007032,-0.000344,0.007044,-0.003230,-88.078466,0.007052,
710,1340,2.123009,-5.192563,0.999998,0.000202,-0.004081,0.007855,-0.000449,0.007872,-0.004098,-87.850455,0.007874,
1600,420,-0.897456,-12.582925,0.999998,0.000175,-0.003301,0.007209,0.000259,0.007216,-0.003308,88.587172,0.007224,
990,470,0.555344,-12.515566,0.999997,0.000226,-0.003003,0.006640,-0.000725,0.006694,-0.003057,-85.724061,0.006703,
1080,180,0.124135,-14.339364,0.999998,0.000164,-0.000849,0.005157,0.000233,0.005166,-0.000858,87.777045,0.005536,
1450,1760,-0.336024,-1.467827,0.999997,0.000210,-0.001828,0.005899,0.000052,0.005900,-0.001828,89.612164,0.006040,
1470,1830,-0.280060,-1.072919,0.999998,0.000173,-0.001397,0.005704,0.000337,0.005720,-0.001413,87.290326,0.005959,
1770,730,-2.232868,-9.779237,0.999997,0.000216,-0.004007,0.007806,-0.000507,0.007828,-0.004028,-87.547394,0.007829,
760,1530,1.468892,-3.578861,0.999996,0.000243,-0.003952,0.007801,0.000196,0.007804,-0.003955,89.043184,0.007804,
990,30,0.012754,-15.070002,0.999999,0.000000,-0.000081,0.004766,0.000599,0.004839,-0.000154,83.058621,0.005502,
980,1270,1.019810,-5.081221,0.999996,0.000262,-0.005720,0.009396,0.000934,0.009454,-0.005778,86.478704,0.009531,
1560,990,-2.146139,-7.875569,0.999997,0.000229,-0.002840,0.008489,-0.000601,0.008521,-0.002872,-86.969965,0.008671,
1230,1290,0.002387,-3.451669,0.999997,0.000194,-0.001595,0.001949,0.000088,0.001951,-0.001597,88.571470,0.002079,
1640,1460,-1.351413,-3.975375,0.999996,0.000219,-0.004258,0.007984,-0.000259,0.007990,-0.004263,-88.786365,0.007996,
900,1580,0.851968,-2.852508,0.999997,0.000213,-0.003447,0.007188,0.000508,0.007212,-0.003471,87.271135,0.007214,
1700,810,-2.172226,-9.246872,0.999996,0.000250,-0.004139,0.008081,-0.000808,0.008134,-0.004192,-86.232730,0.008136,
790,60,0.142128,-14.898131,0.999998,0.000197,-0.000890,0.005611,0.001534,0.005954,-0.001234,77.371030,0.006286,
650,50,0.202113,-14.920746,0.999997,0.000194,-0.001299,0.006663,0.002692,0.007488,-0.002124,72.964376,0.007718,
1560,260,-0.503512,-13.748038,0.999997,0.000209,-0.002133,0.006348,-0.000413,0.006368,-0.002153,-87.218914,0.006478,
1520,70,-0.084743,-14.868904,0.999999,0.000124,-0.000475,0.005077,-0.000785,0.005186,-0.000584,-82.101945,0.005681,
600,1800,1.417300,-1.927773,0.999997,0.000224,-0.003643,0.007412,-0.000120,0.007414,-0.003645,-89.376381,0.007414,
1900,550,-2.284719,-10.882177,0.999997,0.000000,-0.003818,0.007702,-0.000001,0.007702,-0.003818,-89.994460,0.007702,
1340,60,-0.019450,-14.934965,0.999999,0.000140,-0.000248,0.004597,-0.000207,0.004606,-0.000256,-87.558114,0.005177,
1530,1180,-1.638771,-6.151902,0.999996,0.000240,-0.004896,0.009636,0.000827,0.009683,-0.004943,86.754116,0.009684,
1470,200,-0.243060,-14.187613,0.999998,0.000207,-0.001223,0.005627,-0.000449,0.005656,-0.001252,-86.267387,0.005942,
1680,1900,-0.487591,-0.817989,0.999997,0.000210,-0.002204,0.006597,0.001283,0.006780,-0.002387,81.875549,0.006878,
1870,1400,-2.421045,-4.970743,0.999996,0.000259,-0.003752,0.007525,0.000124,0.007527,-0.003753,89.369713,0.007527,
590,1720,1.686257,-2.554092,0.999998,0.000188,-0.003888,0.007504,0.000130,0.007505,-0.003889,89.348088,0.007507,
1380,1960,-0.053610,-0.353403,0.999998,0.000178,-0.000306,0.004805,0.000306,0.004823,-0.000325,86.586347,0.005392,
1030,580,0.497295,-11.889640,0.999997,0.000216,-0.003376,0.006639,-0.001324,0.006811,-0.003548,-82.593671,0.006813,
650,950,2.898919,-8.094642,0.999997,0.000213,-0.003305,0.006959,0.000373,0.006972,-0.003319,87.921020,0.006975,
950,70,0.081078,-14.869428,0.999998,0.000186,-0.000494,0.005073,0.000757,0.005174,-0.000595,82.394770,0.005662,
1370,1500,-0.297908,-2.887843,0.999997,0.000199,-0.002695,0.005789,-0.001221,0.005961,-0.002867,-81.973354,0.005962,
1890,1120,-3.126707,-6.985270,0.999998,0.000162,-0.003098,0.006396,0.000222,0.006401,-0.003103,88.664107,0.006402,
1720,730,-2.026523,-9.867385,0.999998,0.000170,-0.004195,0.008037,-0.000521,0.008059,-0.004218,-87.563871,0.008062,
1570,1980,-0.115852,-0.286055,0.999998,0.000148,-0.000637,0.005281,0.000984,0.005440,-0.000796,80.806577,0.005876,
1560,930,-1.989799,-8.394784,0.999996,0.000251,-0.003720,0.008866,-0.001058,0.008954,-0.003808,-85.226829,0.008988,
1510,680,-0.920710,-10.851344,0.999998,0.000195,-0.004857,0.008349,0.001085,0.008437,-0.004946,85.334078,0.008479,
1130,210,0.097604,-14.200671,0.999998,0.000148,-0.001083,0.005153,0.000063,0.005154,-0.001084,89.417395,0.005434,
1510,1590,-0.661226,-2.652218,0.999997,0.000198,-0.003164,0.006922,-0.000610,0.006959,-0.003200,-86.549668,0.006967,
1710,1820,-0.830489,-1.410524,0.999998,0.000154,-0.002820,0.007294,0.000839,0.007363,-0.002889,85.291740,0.007420,
720,470,1.510608,-11.871776,0.999997,0.000211,-0.003815,0.007648,-0.000165,0.007651,-0.003818,-89.173371,0.007651,
1600,400,-0.866280,-12.724445,0.999998,0.000170,-0.003207,0.007076,0.000177,0.007079,-0.003210,89.012594,0.007089,
1710,1500,-1.558397,-3.829876,0.999996,0.000252,-0.004055,0.007827,-0.000152,0.007829,-0.004057,-89.267064,0.007831,
960,510,0.685137,-12.168493,0.999997,0.000211,-0.003496,0.007040,-0.000856,0.007109,-0.003565,-85.386515,0.007109,
1030,810,0.812683,-10.105728,0.999996,0.000242,-0.005864,0.009173,-0.001811,0.009388,-0.006079,-83.229340,0.009524,
860,300,0.694515,-13.419673,0.999997,0.000194,-0.002798,0.006786,0.000191,0.006790,-0.002802,88.857431,0.006825,
730,1050,2.680313,-7.394241,0.999997,0.000205,-0.003237,0.007317,-0.000254,0.007323,-0.003243,-88.622509,0.007339,
1330,840,-0.408790,-10.908737,0.999992,0.000343,-0.003426,0.004283,0.002769,0.005175,-0.004318,72.153208,0.005547,
980,2020,0.019204,-0.072432,0.999998,0.000000,-0.000183,0.004825,-0.000572,0.004890,-0.000248,-83.571052,0.005509,
970,1340,0.897750,-4.496696,0.999997,0.000229,-0.005123,0.008598,0.001197,0.008702,-0.005227,85.052814,0.008760,
900,630,1.078627,-11.081497,0.999997,0.000189,-0.004488,0.008101,-0.000681,0.008138,-0.004525,-86.910918,0.008155,
960,1270,1.132734,-5.176013,0.999996,0.000233,-0.005632,0.009458,0.000563,0.009479,-0.005653,87.867058,0.009537,
1560,700,-1.203840,-10.501644,0.999997,0.000239,-0.004984,0.008670,0.000462,0.008685,-0.005000,88.064210,0.008719,
1280,440,-0.087393,-12.996686,0.999998,0.000162,-0.001802,0.005303,0.000165,0.005306,-0.001806,88.673741,0.005396,
630,1400,2.280016,-4.888016,0.999997,0.000187,-0.003819,0.007569,-0.000194,0.007572,-0.003822,-89.023310,0.007572,
1770,710,-2.177785,-9.934808,0.999997,0.000209,-0.004014,0.007749,-0.000438,0.007766,-0.004031,-87.872975,0.007767,
1080,160,0.107252,-14.441543,0.999998,0.000147,-0.000741,0.005081,0.000298,0.005097,-0.000756,87.072832,0.005501,
1540,70,-0.093124,-14.865764,0.999998,0.000148,-0.000371,0.005154,-0.000891,0.005294,-0.000511,-81.059906,0.005841,
1780,1710,-1.371124,-2.386975,0.999997,0.000207,-0.003646,0.007558,0.000018,0.007558,-0.003646,89.909251,0.007560,
1720,790,-2.198852,-9.380376,0.999997,0.000210,-0.004125,0.008006,-0.000737,0.008050,-0.004170,-86.538139,0.008052,
660,230,1.118626,-13.553646,0.999997,0.000223,-0.003405,0.007628,0.000637,0.007665,-0.003441,86.704261,0.007678,
650,40,0.136736,-14.984242,0.999998,0.000198,-0.001096,0.006421,0.002751,0.007320,-0.001995,71.897251,0.007568,
580,1720,1.723865,-2.581760,0.999998,0.000179,-0.004327,0.007658,0.000196,0.007662,-0.004331,89.062483,0.007683,
1640,1440,-1.390969,-4.135340,0.999996,0.000223,-0.004343,0.008043,-0.000224,0.008047,-0.004347,-88.965101,0.008056,
1330,1990,-0.020478,-0.207133,0.999998,0.000170,-0.000280,0.004616,0.000199,0.004624,-0.000288,87.678240,0.005181,
900,1560,0.877745,-2.995505,0.999997,0.000219,-0.003619,0.007294,0.000570,0.007324,-0.003648,87.019385,0.007324,
1100,670,0.288953,-11.590840,0.999996,0.000242,-0.003243,0.005786,-0.002152,0.006273,-0.003730,-77.256161,0.006310,
1720,1440,-1.732402,-4.329654,0.999997,0.000218,-0.004167,0.007918,0.000022,0.007918,-0.004167,89.895268,0.007922,
1450,200,-0.219750,-14.198297,0.999999,0.000187,-0.001208,0.005568,-0.000381,0.005589,-0.001230,-86.792838,0.005874,
690,1390,2.072757,-4.839352,0.999996,0.000231,-0.004015,0.007800,-0.000253,0.007805,-0.004021,-88.774747,0.007807,
1030,560,0.488599,-12.020791,0.999997,0.000223,-0.003274,0.006591,-0.001241,0.006744,-0.003428,-82.939008,0.006745,
920,1450,0.951199,-3.776538,0.999997,0.000215,-0.004274,0.007785,0.000819,0.007840,-0.004329,86.130675,0.007855,
1170,1990,0.012096,-0.205772,0.999998,0.000149,-0.000141,0.004580,-0.000140,0.004584,-0.000145,-88.303524,0.005211,
730,1080,2.661426,-7.174175,0.999997,0.000188,-0.003326,0.007305,-0.000329,0.007316,-0.003336,-88.229926,0.007325,
1680,1880,-0.557290,-0.949273,0.999997,0.000203,-0.002407,0.006689,0.001097,0.006820,-0.002537,83.220653,0.006894,
1160,1530,0.139432,-2.591304,0.999997,0.000188,-0.002130,0.005255,0.000694,0.005320,-0.002195,84.681021,0.005347,
1470,1810,-0.306352,-1.187840,0.999998,0.000177,-0.001530,0.005872,0.000303,0.005884,-0.001542,87.658878,0.006102,
990,450,0.538467,-12.646366,0.999996,0.000241,-0.002943,0.006597,-0.000667,0.006644,-0.002989,-86.018859,0.006655,
980,30,0.013742,-15.068901,0.999999,0.000000,-0.000192,0.004785,0.000603,0.004857,-0.000264,83.187470,0.005462,
650,190,0.997904,-13.841849,0.999997,0.000192,-0.003294,0.007693,0.000905,0.007767,-0.003368,85.322060,0.007789,
1380,1940,-0.068328,-0.450715,0.999998,0.000167,-0.000433,0.004923,0.000331,0.004943,-0.000454,86.474450,0.005465,
1490,680,-0.820474,-10.933461,0.999997,0.000199,-0.004780,0.008165,0.001307,0.008296,-0.004910,84.292267,0.008342,
970,940,1.770767,-8.429279,0.999996,0.000238,-0.004030,0.010133,0.000765,0.010174,-0.004071,86.919104,0.010241,
1230,1270,0.001459,-3.484147,0.999996,0.000247,-0.001876,0.001660,0.000085,0.001662,-0.001878,88.630523,0.002056,
800,150,0.433907,-14.354341,0.999997,0.000189,-0.002023,0.006470,0.001182,0.006632,-0.002184,82.220501,0.006759,
1550,1980,-0.105823,-0.281598,0.999998,0.000151,-0.000414,0.005218,0.000935,0.005369,-0.000565,80.817968,0.005901,
1080,140,0.090006,-14.541127,0.999998,0.000139,-0.000604,0.005028,0.000304,0.005044,-0.000621,86.916011,0.005501,
1770,690,-2.125719,-10.091091,0.999997,0.000208,-0.004016,0.007788,-0.000354,0.007798,-0.004026,-88.285255,0.007800,
1080,810,0.529037,-10.526864,0.999995,0.000273,-0.005204,0.007790,-0.003113,0.008497,-0.005911,-77.199944,0.008711,
900,610,1.045968,-11.241716,0.999997,0.000205,-0.004357,0.007923,-0.000710,0.007964,-0.004398,-86.703475,0.007978,
1410,1240,-0.694348,-4.875783,0.999995,0.000281,-0.005754,0.008864,-0.002368,0.009238,-0.006128,-81.022840,0.009401,
940,1980,0.096642,-0.279288,0.999998,0.000150,-0.000497,0.005141,-0.000795,0.005251,-0.000607,-82.126779,0.005745,
1640,70,-0.148271,-14.849589,0.999999,0.000130,-0.000570,0.005638,-0.001435,0.005954,-0.000885,-77.593443,0.006425,
1130,190,0.085265,-14.303883,0.999998,0.000177,-0.001011,0.005076,0.000098,0.005077,-0.001013,89.079592,0.005374,
950,1340,1.001513,-4.581175,0.999998,0.000152,-0.005134,0.008718,0.000950,0.008783,-0.005199,86.096059,0.008832,
1560,680,-1.163051,-10.672488,0.999997,0.000233,-0.004819,0.008510,0.000553,0.008533,-0.004842,87.630366,0.008559,
1000,1590,0.522205,-2.549895,0.999996,0.000238,-0.002996,0.006563,0.000767,0.006624,-0.003057,85.441205,0.006631,
1640,1420,-1.434520,-4.297469,0.999996,0.000234,-0.004444,0.008213,-0.000152,0.008214,-0.004446,-89.310130,0.008224,
1430,200,-0.197186,-14.209600,0.999998,0.000182,-0.001275,0.005472,-0.000291,0.005485,-0.001288,-87.535972,0.005736,
780,400,1.147195,-12.542806,0.999998,0.000179,-0.003498,0.007479,-0.000075,0.007480,-0.003498,-89.606338,0.007485,
1810,1190,-2.734821,-6.417871,0.999997,0.000210,-0.003548,0.007277,0.000614,0.007312,-0.003583,86.762105,0.007312,
850,140,0.325545,-14.449903,0.999997,0.000215,-0.001386,0.006024,0.001094,0.006182,-0.001544,81.778392,0.006435,
600,1780,1.485253,-2.079544,0.999995,0.000243,-0.003651,0.007377,-0.000072,0.007378,-0.003651,-89.623724,0.007378,
1900,540,-2.260997,-10.962183,0.999997,0.000000,-0.003823,0.007667,0.000009,0.007667,-0.003823,89.956674,0.007667,
900,1540,0.907535,-3.146365,0.999997,0.000206,-0.003757,0.007440,0.000649,0.007477,-0.003795,86.693288,0.007478,
730,1030,2.689481,-7.542208,0.999997,0.000205,-0.003220,0.007377,-0.000033,0.007377,-0.003221,-89.823096,0.007397,
1330,1970,-0.028810,-0.300303,0.999998,0.000176,-0.000375,0.004687,0.000179,0.004694,-0.000381,87.981822,0.005214,
1620,1690,-0.868380,-2.185465,0.999998,0.000214,-0.002997,0.007069,0.000040,0.007069,-0.002997,89.772356,0.007096,
1280,1510,-0.092132,-2.666972,0.999997,0.000196,-0.001970,0.005033,-0.000452,0.005062,-0.001999,-86.320966,0.005099,
1030,620,0.516921,-11.619533,0.999996,0.000228,-0.003748,0.006878,-0.001620,0.007119,-0.003990,-81.519453,0.007137,
930,1400,0.985706,-4.143959,0.999997,0.000210,-0.004652,0.008204,0.000897,0.008266,-0.004715,86.029089,0.008294,
1890,640,-2.459136,-10.216397,0.999996,0.000225,-0.003794,0.007577,-0.000069,0.007577,-0.003794,-89.650944,0.007577,
1680,1860,-0.623267,-1.085506,0.999997,0.000214,-0.002601,0.006956,0.000958,0.007051,-0.002696,84.330223,0.007115,
900,1450,1.037383,-3.839847,0.999997,0.000228,-0.004318,0.007852,0.000727,0.007895,-0.004361,86.592652,0.007910,
1850,160,-0.991205,-13.955422,0.999998,0.000164,-0.003657,0.007735,-0.000610,0.007767,-0.003690,-86.944128,0.007771,
1690,80,-0.231691,-14.773226,0.999997,0.000184,-0.001032,0.005907,-0.001683,0.006294,-0.001418,-77.061870,0.006603,
970,920,1.677316,-8.636636,0.999996,0.000244,-0.004482,0.010136,0.000683,0.010168,-0.004514,87.331293,0.010190,
1880,1120,-3.095609,-6.975158,0.999998,0.000161,-0.003137,0.006494,0.000227,0.006499,-0.003143,88.650116,0.006501,
760,830,2.243196,-9.083173,0.999998,0.000181,-0.004045,0.008074,0.000889,0.008139,-0.004110,85.824819,0.008139,
1080,120,0.074908,-14.644550,0.999998,0.000157,-0.000484,0.004991,0.000350,0.005013,-0.000506,86.360651,0.005519,
1770,670,-2.073868,-10.247440,0.999997,0.000196,-0.004008,0.007831,-0.000284,0.007838,-0.004015,-88.629020,0.007838,
650,930,2.868677,-8.236042,0.999997,0.000212,-0.003346,0.007030,0.000489,0.007053,-0.003369,87.309770,0.007055,
790,30,0.045672,-15.058815,0.999999,0.000000,-0.000491,0.005354,0.001490,0.005712,-0.000849,76.491117,0.006164,
770,1780,0.896527,-1.674928,0.999998,0.000165,-0.003115,0.007288,-0.000428,0.007306,-0.003133,-87.650814,0.007331,
1680,590,-1.508478,-11.086478,0.999997,0.000210,-0.004177,0.007929,0.000122,0.007930,-0.004178,89.422966,0.007934,
690,1370,2.122700,-4.996176,0.999996,0.000229,-0.003997,0.007802,-0.000318,0.007810,-0.004006,-88.457606,0.007811,
1690,1820,-0.774728,-1.379913,0.999998,0.000155,-0.002895,0.007183,0.000709,0.007232,-0.002944,85.996920,0.007274,
600,1870,1.153985,-1.405694,0.999998,0.000192,-0.003656,0.007641,-0.000440,0.007658,-0.003673,-87.774140,0.007660,
620,190,1.103183,-13.747417,0.999996,0.000220,-0.003646,0.007669,0.000437,0.007686,-0.003663,87.792612,0.007689,
1640,1400,-1.480210,-4.463326,0.999996,0.000232,-0.004538,0.008303,-0.000073,0.008304,-0.004538,-89.672231,0.008316,
1780,1690,-1.419269,-2.539218,0.999996,0.000202,-0.003652,0.007561,-0.000001,0.007561,-0.003652,-89.994617,0.007563,
1560,660,-1.118393,-10.843559,0.999996,0.000257,-0.004696,0.008339,0.000618,0.008369,-0.004726,87.293758,0.008392,
820,740,1.715204,-9.931079,0.999996,0.000246,-0.004679,0.008509,0.000394,0.008521,-0.004691,88.290989,0.008535,
1100,530,0.275656,-12.396231,0.999997,0.000209,-0.002587,0.005768,-0.001059,0.005900,-0.002720,-82.887639,0.005906,
1720,1420,-1.781540,-4.485716,0.999997,0.000212,-0.004200,0.007973,0.000105,0.007974,-0.004201,89.507179,0.007978,
860,280,0.653530,-13.554877,0.999997,0.000212,-0.002713,0.006786,0.000315,0.006796,-0.002723,88.101738,0.006840,
1400,270,-0.219746,-13.846413,0.999998,0.000161,-0.001573,0.005555,-0.000053,0.005555,-0.001574,-89.570770,0.005727,
1130,170,0.075515,-14.406060,0.999998,0.000172,-0.000895,0.005007,0.000110,0.005009,-0.000897,88.930909,0.005342,
1030,790,0.743017,-10.291972,0.999996,0.000229,-0.005737,0.008932,-0.001994,0.009199,-0.006003,-82.396683,0.009340,
1690,1500,-1.476788,-3.780604,0.999995,0.000263,-0.004080,0.007843,-0.000179,0.007845,-0.004082,-89.142012,0.007848,
1380,1920,-0.085210,-0.550150,0.999998,0.000140,-0.000565,0.005001,0.000287,0.005016,-0.000579,87.059095,0.005488,
1560,770,-1.394903,-9.874227,0.999995,0.000234,-0.005231,0.009127,-0.000053,0.009127,-0.005231,-89.789909,0.009160,
940,1960,0.131084,-0.380452,0.999998,0.000189,-0.000654,0.005226,-0.000762,0.005323,-0.000751,-82.733227,0.005762,
1290,200,-0.052576,-14.263155,0.999998,0.000181,-0.000819,0.005051,-0.000121,0.005053,-0.000821,-88.815889,0.005423,
1490,1240,-1.164530,-5.407356,0.999995,0.000245,-0.005814,0.009817,-0.000504,0.009834,-0.005830,-88.156375,0.009890,
1600,1690,-0.807904,-2.148466,0.999998,0.000167,-0.003083,0.006949,-0.000081,0.006950,-0.003083,-89.539559,0.006964,
900,1520,0.935833,-3.296664,0.999997,0.000194,-0.003874,0.007538,0.000666,0.007577,-0.003912,86.672044,0.007578,
620,1530,2.012236,-3.913201,0.999998,0.000153,-0.003780,0.007624,0.000055,0.007624,-0.003780,89.721642,0.007624,
1850,140,-0.890877,-14.109999,0.999998,0.000158,-0.003654,0.007845,-0.000853,0.007908,-0.003717,-85.782929,0.007913,
1250,1240,-0.055501,-3.554620,0.999997,0.000214,-0.003110,0.001709,-0.000641,0.001793,-0.003194,-82.552372,0.003202,
730,1010,2.681808,-7.691393,0.999998,0.000182,-0.003236,0.007353,0.000251,0.007359,-0.003242,88.642279,0.007376,
1620,70,-0.137320,-14.852572,0.999998,0.000137,-0.000533,0.005566,-0.001327,0.005842,-0.000809,-78.240663,0.006330,
710,1080,2.725468,-7.180324,0.999997,0.000205,-0.003283,0.007206,-0.000261,0.007213,-0.003289,-88.573669,0.007222,
1030,600,0.507200,-11.758008,0.999997,0.000210,-0.003532,0.006788,-0.001452,0.006988,-0.003733,-82.140559,0.006994,
1850,640,-2.306651,-10.306740,0.999995,0.000255,-0.003805,0.007631,-0.000126,0.007633,-0.003807,-89.367230,0.007633,
1180,60,0.009210,-14.937696,0.999998,0.000159,-0.000137,0.004543,0.000102,0.004546,-0.000140,88.755990,0.005170,
1770,650,-2.022103,-10.405203,0.999997,0.000202,-0.003994,0.007847,-0.000227,0.007851,-0.003998,-88.903907,0.007852,
1460,1090,-1.751182,-6.838475,0.999996,0.000223,-0.004198,0.011319,-0.000115,0.011320,-0.004198,-89.576065,0.011445,
630,1460,2.134073,-4.426199,0.999996,0.000217,-0.003845,0.007666,-0.000057,0.007666,-0.003845,-89.716137,0.007666,
990,430,0.520671,-12.779550,0.999997,0.000220,-0.002867,0.006523,-0.000594,0.006560,-0.002904,-86.392634,0.006575,
1030,1780,0.283660,-1.331458,0.999998,0.000194,-0.001762,0.005805,-0.000050,0.005806,-0.001762,-89.621041,0.005953,
970,2020,0.021749,-0.073989,0.999999,0.000000,-0.000307,0.004819,-0.000564,0.004880,-0.000368,-83.790628,0.005435,
1640,1380,-1.526254,-4.631497,0.999997,0.000233,-0.004592,0.008325,0.000018,0.008325,-0.004592,89.919489,0.008339,
1230,1250,0.007229,-3.515319,0.999996,0.000226,-0.002591,0.001467,0.000063,0.001468,-0.002592,89.103556,0.002599,
1470,1790,-0.333615,-1.307725,0.999997,0.000193,-0.001646,0.005901,0.000226,0.005908,-0.001653,88.284248,0.006096,
850,1340,1.502807,-4.904095,0.999996,0.000255,-0.004817,0.008598,-0.000088,0.008599,-0.004818,-89.624872,0.008620,
820,720,1.657969,-10.099607,0.999996,0.000249,-0.004648,0.008443,0.000277,0.008448,-0.004654,88.786756,0.008463,
950,940,1.850398,-8.379528,0.999996,0.000225,-0.003893,0.009615,0.000956,0.009683,-0.003960,85.971008,0.009736,
960,490,0.665738,-12.309850,0.999998,0.000192,-0.003337,0.006939,-0.000783,0.006998,-0.003397,-85.669804,0.006999,
1680,1840,-0.687072,-1.225152,0.999998,0.000188,-0.002781,0.006921,0.000822,0.006990,-0.002850,85.190321,0.007030,
1510,1570,-0.684067,-2.793728,0.999997,0.000213,-0.003369,0.006980,-0.000727,0.007030,-0.003420,-86.000237,0.007031,
1810,1170,-2.781756,-6.564088,0.999997,0.000227,-0.003469,0.007171,0.000534,0.007198,-0.003495,87.133759,0.007199,
730,1430,1.810425,-4.436575,0.999997,0.000188,-0.004130,0.007928,-0.000088,0.007928,-0.004131,-89.580859,0.007931,
1230,1240,0.005101,-3.533647,0.999997,0.000204,-0.003194,0.001597,0.000045,0.001597,-0.003195,89.464325,0.003195,
690,1350,2.176470,-5.152782,0.999997,0.000230,-0.003979,0.007746,-0.000416,0.007760,-0.003993,-87.970794,0.007762,
1570,180,-0.354223,-14.237968,0.999998,0.000198,-0.001695,0.006025,-0.000725,0.006093,-0.001763,-84.679551,0.006271,
1330,1950,-0.038266,-0.394626,0.999998,0.000174,-0.000488,0.004769,0.000174,0.004775,-0.000494,88.111109,0.005252,
1560,640,-1.081217,-11.008668,0.999996,0.000245,-0.004566,0.008177,0.000674,0.008212,-0.004601,86.982054,0.008232,
940,1940,0.169629,-0.488892,0.999998,0.000179,-0.000861,0.005456,-0.000782,0.005552,-0.000957,-83.043230,0.005936,
1440,1910,-0.139596,-0.618235,0.999997,0.000172,-0.000870,0.005233,0.000443,0.005265,-0.000902,85.869707,0.005632,
1600,380,-0.833355,-12.865471,0.999997,0.000189,-0.003137,0.007006,0.000141,0.007008,-0.003139,89.202774,0.007021,
1000,1570,0.535771,-2.683334,0.999997,0.000183,-0.003049,0.006598,0.000820,0.006667,-0.003118,85.174207,0.006671,
1130,150,0.064356,-14.504626,0.999998,0.000134,-0.000779,0.004965,0.000129,0.004968,-0.000782,88.714332,0.005342,
640,690,2.332670,-9.986276,0.999996,0.000225,-0.003805,0.007567,0.000287,0.007574,-0.003812,88.554854,0.007574,
1120,1850,0.104654,-0.896689,0.999998,0.000159,-0.001068,0.005158,-0.000100,0.005160,-0.001070,-89.081532,0.005447,
1030,1980,0.058130,-0.264980,0.999999,0.000138,-0.000388,0.004874,-0.000473,0.004916,-0.000430,-84.906148,0.005445,
1060,870,0.925844,-9.813779,0.999995,0.000277,-0.005320,0.009254,-0.002447,0.009653,-0.005720,-80.719634,0.009708,
780,380,1.105617,-12.694544,0.999998,0.000168,-0.003440,0.007389,-0.000061,0.007390,-0.003440,-89.677391,0.007396,
570,1810,1.523721,-1.950833,0.999540,0.002530,-0.005550,0.006424,0.000019,0.006424,-0.005550,89.907116,0.006969,
1150,1660,0.140528,-1.897518,0.999998,0.000159,-0.001870,0.005451,0.000285,0.005462,-0.001882,87.774620,0.005549,
1240,1530,-0.016166,-2.542425,0.999998,0.000159,-0.001887,0.004997,-0.000153,0.005000,-0.001891,-88.725184,0.005050,
1690,840,-2.219628,-9.014478,0.999995,0.000255,-0.004025,0.008097,-0.000936,0.008169,-0.004097,-85.609459,0.008169,
1720,1400,-1.828439,-4.647931,0.999997,0.000221,-0.004219,0.008052,0.000180,0.008055,-0.004222,89.158680,0.008058,
1270,200,-0.036245,-14.264673,0.999998,0.000174,-0.000875,0.005020,-0.000057,0.005020,-0.000876,-89.448443,0.005364,
880,1210,1.775042,-5.996849,0.999997,0.000204,-0.004687,0.009061,-0.000864,0.009115,-0.004741,-86.417447,0.009117,
990,410,0.501846,-12.911108,0.999997,0.000228,-0.002758,0.006423,-0.000492,0.006449,-0.002785,-86.938378,0.006469,
1770,630,-1.971549,-10.561673,0.999997,0.000185,-0.003977,0.007810,-0.000158,0.007813,-0.003979,-89.231345,0.007813,
1280,420,-0.086870,-13.104136,0.999998,0.000156,-0.001743,0.005310,0.000163,0.005313,-0.001747,88.674396,0.005416,
960,2020,0.027382,-0.077423,0.999999,0.000000,-0.000362,0.004828,-0.000582,0.004893,-0.000427,-83.675939,0.005420,
1010,1780,0.315360,-1.350926,0.999997,0.000190,-0.001670,0.005901,-0.000118,0.005903,-0.001672,-89.110239,0.006085,
1030,400,0.394064,-13.038783,0.999998,0.000193,-0.002317,0.006060,-0.000389,0.006078,-0.002335,-87.346898,0.006132,
1440,910,-1.360286,-9.028535,0.999992,0.000336,-0.005067,0.010923,0.000905,0.010974,-0.005118,86.771621,0.010983,
820,700,1.605093,-10.269811,0.999997,0.000242,-0.004627,0.008447,0.000159,0.008449,-0.004629,89.305487,0.008462,
1780,670,-2.112944,-10.226227,0.999997,0.000192,-0.003977,0.007795,-0.000287,0.007802,-0.003984,-88.601916,0.007803,
860,700,1.415896,-10.371670,0.999996,0.000226,-0.004840,0.008587,-0.000095,0.008588,-0.004841,-89.592675,0.008611,
1810,1150,-2.816623,-6.706452,0.999997,0.000228,-0.003406,0.006998,0.000436,0.007017,-0.003424,87.602966,0.007017,
730,1450,1.764134,-4.277300,0.999997,0.000186,-0.004106,0.007914,-0.000049,0.007914,-0.004106,-89.766160,0.007916,
1030,770,0.693597,-10.465827,0.999996,0.000234,-0.005532,0.008667,-0.002082,0.008966,-0.005831,-81.827433,0.009100,
1070,1310,0.444112,-4.181819,0.999997,0.000215,-0.004611,0.007230,0.002686,0.007811,-0.005192,77.800501,0.007951,
1100,650,0.285590,-11.706056,0.999995,0.000248,-0.003058,0.005786,-0.001912,0.006181,-0.003453,-78.311019,0.006196,
690,590,1.890056,-10.867905,0.999998,0.000171,-0.003964,0.007774,0.000033,0.007774,-0.003964,89.836991,0.007775,
1570,160,-0.309000,-14.356759,0.999998,0.000189,-0.001504,0.005914,-0.000837,0.006007,-0.001597,-83.645546,0.006223,
1640,1360,-1.577876,-4.799301,0.999997,0.000240,-0.004628,0.008426,0.000125,0.008428,-0.004630,89.451807,0.008441,
1340,1370,-0.220468,-3.513221,0.999997,0.000195,-0.002861,0.005240,-0.002180,0.005790,-0.003410,-75.854362,0.005820,
1380,1900,-0.100724,-0.651944,0.999998,0.000149,-0.000686,0.005096,0.000298,0.005111,-0.000701,87.054234,0.005542,
1230,1230,0.005512,-3.541588,0.999995,0.000245,-0.004106,0.001875,0.000031,0.001875,-0.004106,89.702051,0.004112,
1560,620,-1.049596,-11.171611,0.999996,0.000240,-0.004433,0.008002,0.000725,0.008045,-0.004476,86.676064,0.008062,
1900,530,-2.239500,-11.038094,0.999996,0.000000,-0.003819,0.007619,-0.000002,0.007619,-0.003819,-89.991262,0.007619,
940,1920,0.204998,-0.597312,0.999997,0.000197,-0.001009,0.005495,-0.000694,0.005568,-0.001083,-83.978525,0.005904,
570,1800,1.546371,-2.014573,0.999374,0.002755,-0.005794,0.006468,0.000296,0.006475,-0.005802,88.617153,0.007120,
1740,910,-2.584878,-8.423958,0.999997,0.000210,-0.003529,0.007505,-0.000672,0.007546,-0.003570,-86.525868,0.007550,
620,690,2.409154,-9.944363,0.999996,0.000219,-0.003811,0.007549,0.000243,0.007554,-0.003817,88.774971,0.007554,
1210,1660,0.037111,-1.871324,0.999998,0.000152,-0.001721,0.005299,0.000150,0.005302,-0.001724,88.777774,0.005409,
1100,1850,0.127533,-0.906231,0.999998,0.000158,-0.001014,0.005199,-0.000174,0.005204,-0.001019,-88.397040,0.005516,
1720,1820,-0.858179,-1.425899,0.999998,0.000169,-0.002847,0.007354,0.000845,0.007423,-0.002917,85.296747,0.007480,
760,890,2.404225,-8.605596,0.999996,0.000242,-0.003707,0.007866,0.000902,0.007936,-0.003777,85.568993,0.007939,
1040,870,1.029733,-9.604949,0.999996,0.000251,-0.005381,0.010125,-0.001812,0.010334,-0.005590,-83.423968,0.010346,
1420,1910,-0.123244,-0.613467,0.999998,0.000163,-0.000888,0.005165,0.000363,0.005187,-0.000910,86.581865,0.005539,
1770,610,-1.923157,-10.717593,0.999998,0.000166,-0.003957,0.007837,-0.000049,0.007837,-0.003957,-89.760846,0.007837,
1220,1530,0.022564,-2.544900,0.999998,0.000181,-0.001897,0.005013,0.000191,0.005019,-0.001902,88.415976,0.005068,
1130,130,0.053908,-14.603234,0.999998,0.000141,-0.000640,0.004842,0.000138,0.004846,-0.000644,88.562329,0.005263,
780,360,1.064747,-12.839575,0.999997,0.000191,-0.003373,0.007340,0.000012,0.007340,-0.003373,89.935638,0.007348,
990,200,0.246700,-14.186730,0.999998,0.000172,-0.001242,0.005627,0.000443,0.005656,-0.001271,86.328086,0.005934,
1010,1760,0.340703,-1.471379,0.999997,0.000208,-0.001792,0.005925,-0.000048,0.005925,-0.001793,-89.641974,0.006077,
900,1500,0.962411,-3.448379,0.999997,0.000210,-0.003966,0.007662,0.000687,0.007703,-0.004007,86.631427,0.007705,
990,390,0.479189,-13.040839,0.999997,0.000228,-0.002602,0.006350,-0.000371,0.006366,-0.002618,-87.629607,0.006399,
960,30,0.020263,-15.067407,0.999998,0.000000,-0.000219,0.004781,0.000615,0.004855,-0.000293,83.091049,0.005445,
600,1760,1.543108,-2.224110,0.999996,0.000233,-0.003659,0.007395,-0.000011,0.007395,-0.003659,-89.941210,0.007395,
1330,1930,-0.049384,-0.491171,0.999998,0.000166,-0.000574,0.004834,0.000155,0.004838,-0.000578,88.357765,0.005285,
820,680,1.553266,-10.440103,0.999996,0.000246,-0.004589,0.008384,0.000061,0.008384,-0.004589,89.732084,0.008396,
1420,910,-1.263120,-9.216155,0.999996,0.000205,-0.004957,0.010612,0.002164,0.010907,-0.005253,82.231475,0.010910,
1390,760,-0.451722,-10.850088,0.999995,0.000261,-0.004766,0.007294,0.002807,0.007915,-0.005388,77.519088,0.008086,
860,720,1.468517,-10.198327,0.999996,0.000232,-0.004910,0.008688,0.000044,0.008688,-0.004911,89.816310,0.008713,
1810,1130,-2.849047,-6.846935,0.999997,0.000209,-0.003386,0.007028,0.000484,0.007050,-0.003408,87.343961,0.007052,
730,1470,1.716249,-4.119527,0.999997,0.000213,-0.004054,0.007837,0.000010,0.007837,-0.004054,89.952144,0.007838,
1490,140,-0.176360,-14.510272,0.999998,0.000182,-0.001059,0.005375,-0.000550,0.005422,-0.001105,-85.150919,0.005730,
690,1330,2.231201,-5.307163,0.999997,0.000214,-0.003983,0.007783,-0.000496,0.007804,-0.004004,-87.591193,0.007805,
1080,100,0.057511,-14.742830,0.999998,0.000167,-0.000349,0.004837,0.000352,0.004861,-0.000372,86.135885,0.005411,
1600,360,-0.800994,-13.006592,0.999997,0.000177,-0.003038,0.006973,0.000048,0.006974,-0.003039,89.725788,0.006993,
1320,1370,-0.167442,-3.426933,0.999998,0.000195,-0.002564,0.004700,-0.001991,0.005210,-0.003074,-75.634479,0.005238,
1640,1340,-1.631446,-4.969942,0.999996,0.000252,-0.004655,0.008466,0.000225,0.008470,-0.004658,89.016618,0.008484,
1030,750,0.650075,-10.640087,0.999996,0.000220,-0.005244,0.008343,-0.002125,0.008668,-0.005568,-81.314136,0.008784,
1380,1880,-0.117477,-0.754926,0.999998,0.000152,-0.000793,0.005118,0.000240,0.005128,-0.000803,87.676926,0.005516,
570,1790,1.572387,-2.092709,0.999525,0.002515,-0.005581,0.007201,0.000214,0.007205,-0.005584,89.042146,0.007560,
1780,650,-2.061624,-10.384704,0.999996,0.000218,-0.003960,0.007807,-0.000230,0.007812,-0.003964,-88.881887,0.007812,
790,1340,1.782110,-5.039991,0.999997,0.000236,-0.004465,0.008284,-0.000347,0.008293,-0.004474,-88.441932,0.008302,
1510,1550,-0.706565,-2.936332,0.999997,0.000217,-0.003478,0.007047,-0.000808,0.007109,-0.003540,-85.638121,0.007109,
1470,1770,-0.357942,-1.425764,0.999997,0.000185,-0.001765,0.005972,0.000140,0.005975,-0.001768,88.961514,0.006139,
1230,810,0.004941,-11.598766,0.999996,0.000233,-0.002923,0.001568,-0.000054,0.001569,-0.002924,-89.313688,0.002926,
1010,1980,0.064437,-0.266840,0.999999,0.000117,-0.000332,0.004939,-0.000565,0.004999,-0.000392,-83.949296,0.005560,
1680,1820,-0.745051,-1.365977,0.999998,0.000173,-0.002934,0.007101,0.000659,0.007144,-0.002977,86.258747,0.007177,
1740,890,-2.541028,-8.577532,0.999997,0.000224,-0.003634,0.007664,-0.000818,0.007723,-0.003693,-85.877739,0.007725,
1220,1850,0.012254,-0.877335,0.999998,0.000173,-0.000956,0.004996,0.000006,0.004996,-0.000956,89.942795,0.005304,
1560,600,-1.017133,-11.330383,0.999997,0.000213,-0.004304,0.007865,0.000750,0.007911,-0.004350,86.488042,0.007924,
940,1900,0.243317,-0.711313,0.999997,0.000188,-0.001201,0.005688,-0.000695,0.005758,-0.001270,-84.292901,0.006050,
600,690,2.484234,-9.901228,0.999997,0.000229,-0.003738,0.007532,0.000181,0.007535,-0.003740,89.081812,0.007535,
660,70,0.319350,-14.782084,0.999997,0.000184,-0.001150,0.007358,0.002994,0.008306,-0.002097,72.431228,0.008639,
1720,1840,-0.794945,-1.281190,0.999998,0.000168,-0.002725,0.007242,0.001003,0.007342,-0.002825,84.312722,0.007406,
1100,630,0.286145,-11.819376,0.999996,0.000233,-0.002921,0.005777,-0.001710,0.006101,-0.003246,-79.268109,0.006105,
780,340,1.022141,-12.987474,0.999998,0.000193,-0.003306,0.007345,0.000081,0.007346,-0.003306,89.564487,0.007358,
630,860,2.805206,-8.711601,0.999997,0.000167,-0.003506,0.007145,0.000540,0.007173,-0.003534,87.107339,0.007173,
1900,520,-2.216944,-11.112397,0.999997,0.000000,-0.003775,0.007571,-0.000028,0.007571,-0.003775,-89.857030,0.007571,
990,1000,1.908794,-7.860224,0.999996,0.000262,-0.003478,0.011059,0.000139,0.011061,-0.003479,89.451682,0.011311,
1520,1910,-0.219443,-0.651800,0.999998,0.000192,-0.001143,0.005565,0.000676,0.005633,-0.001211,84.303520,0.005930,
1350,1500,-0.245232,-2.835584,0.999998,0.000176,-0.002489,0.005587,-0.001110,0.005737,-0.002638,-82.317652,0.005743,
1190,1660,0.071234,-1.879505,0.999998,0.000174,-0.001686,0.005336,0.000140,0.005339,-0.001689,88.858290,0.005457,
890,1780,0.562161,-1.485517,0.999997,0.000213,-0.002466,0.006568,-0.000300,0.006578,-0.002476,-88.102953,0.006645,
950,2020,0.030167,-0.078086,0.999998,0.000000,-0.000294,0.004815,-0.000614,0.004888,-0.000367,-83.239734,0.005445,
970,200,0.276829,-14.171909,0.999998,0.000194,-0.001571,0.005717,0.000438,0.005743,-0.001597,86.569824,0.005929,
960,370,0.540083,-13.112809,0.999997,0.000200,-0.002735,0.006472,-0.000300,0.006482,-0.002745,-88.133544,0.006507,
1130,110,0.043318,-14.700966,0.999998,0.000157,-0.000528,0.004824,0.000180,0.004830,-0.000534,88.075446,0.005296,
990,370,0.459891,-13.165926,0.999998,0.000193,-0.002417,0.006289,-0.000272,0.006298,-0.002425,-88.212012,0.006353,
1030,1080,1.670448,-6.812126,0.999989,0.000421,-0.005303,0.013269,0.001602,0.013406,-0.005440,85.105827,0.013485,
1760,1780,-1.113331,-1.809642,0.999998,0.000219,-0.003560,0.007543,0.000294,0.007551,-0.003568,88.483137,0.007555,
1390,740,-0.424740,-10.993190,0.999997,0.000200,-0.004472,0.007029,0.002713,0.007637,-0.005080,77.371542,0.007774,
730,1490,1.672168,-3.963422,0.999996,0.000249,-0.004015,0.007784,0.000077,0.007784,-0.004015,89.625487,0.007786,
1810,1110,-2.881949,-6.988329,0.999997,0.000204,-0.003341,0.007017,0.000461,0.007037,-0.003362,87.455556,0.007040,
1030,730,0.617604,-10.803358,0.999996,0.000228,-0.004981,0.008024,-0.002092,0.008352,-0.005309,-81.082440,0.008454,
860,740,1.525686,-10.022413,0.999996,0.000247,-0.004929,0.008740,0.000170,0.008742,-0.004931,89.289628,0.008766,
1080,60,0.028298,-14.933419,0.999999,0.000149,-0.000183,0.004664,0.000306,0.004684,-0.000202,86.400061,0.005296,
1600,340,-0.761740,-13.144855,0.999998,0.000179,-0.002929,0.006996,-0.000052,0.006996,-0.002929,-89.697974,0.007027,
690,1290,2.342011,-5.619796,0.999998,0.000211,-0.003928,0.007699,-0.000573,0.007727,-0.003956,-87.183576,0.007728,
1470,140,-0.158799,-14.517336,0.999998,0.000167,-0.000795,0.005303,-0.000541,0.005351,-0.000843,-84.965160,0.005754,
600,1740,1.598752,-2.376871,0.999997,0.000199,-0.003670,0.007487,0.000061,0.007487,-0.003670,89.685755,0.007487,
820,660,1.505219,-10.607131,0.999996,0.000240,-0.004551,0.008330,-0.000036,0.008330,-0.004551,-89.839688,0.008342,
930,1840,0.370377,-1.067987,0.999997,0.000202,-0.001671,0.005963,-0.000512,0.005997,-0.001705,-86.179904,0.006181,
1680,1930,-0.385308,-0.622245,0.999997,0.000217,-0.001789,0.006371,0.001462,0.006625,-0.002043,80.145425,0.006785,
1380,1860,-0.132125,-0.857437,0.999998,0.000155,-0.000908,0.005242,0.000252,0.005252,-0.000918,87.660838,0.005610,
1330,1910,-0.058593,-0.589769,0.999998,0.000138,-0.000729,0.004940,0.000136,0.004944,-0.000733,88.627947,0.005336,
1820,1370,-2.307022,-5.089179,0.999997,0.000216,-0.003835,0.007578,0.000287,0.007585,-0.003842,88.561885,0.007585,
1680,930,-2.414456,-8.303745,0.999998,0.000211,-0.003466,0.007748,-0.000722,0.007794,-0.003512,-86.330112,0.007807,
1640,1320,-1.685883,-5.138624,0.999995,0.000264,-0.004706,0.008527,0.000347,0.008536,-0.004715,88.500087,0.008551,
900,1480,0.990947,-3.602921,0.999997,0.000218,-0.004100,0.007794,0.000708,0.007836,-0.004142,86.607079,0.007840,
770,1340,1.870091,-5.079189,0.999998,0.000196,-0.004360,0.008189,-0.000391,0.008201,-0.004372,-88.217528,0.008207,
1850,760,-2.618841,-9.407359,0.999997,0.000197,-0.003676,0.007366,-0.000369,0.007378,-0.003688,-88.089393,0.007378,
740,690,1.931544,-10.183766,0.999996,0.000278,-0.004239,0.008025,0.000333,0.008034,-0.004248,88.445434,0.008038,
1510,1530,-0.726249,-3.078339,0.999997,0.000206,-0.003552,0.007116,-0.000843,0.007182,-0.003618,-85.511522,0.007182,
1470,1750,-0.382481,-1.546390,0.999997,0.000192,-0.001909,0.006063,0.000058,0.006063,-0.001909,89.584258,0.006200,
1540,1910,-0.240531,-0.660337,0.999998,0.000180,-0.001034,0.005651,0.000787,0.005742,-0.001125,83.377539,0.006086,
1720,1860,-0.722362,-1.132658,0.999997,0.000192,-0.002521,0.007193,0.001175,0.007333,-0.002661,83.201278,0.007425,
1680,1800,-0.802636,-1.508899,0.999997,0.000190,-0.003035,0.007126,0.000529,0.007153,-0.003062,87.028498,0.007178,
1200,1850,0.030877,-0.879861,0.999998,0.000164,-0.000895,0.005019,-0.000031,0.005019,-0.000895,-89.701397,0.005354,
950,30,0.021814,-15.066234,0.999998,0.000000,-0.000139,0.004818,0.000684,0.004911,-0.000232,82.288925,0.005542,
890,1760,0.600037,-1.618426,0.999997,0.000217,-0.002598,0.006624,-0.000201,0.006628,-0.002603,-88.749872,0.006679,
1890,510,-2.155875,-11.212179,0.999997,0.000200,-0.003742,0.007581,-0.000009,0.007581,-0.003742,-89.954613,0.007581,
1230,790,0.004324,-11.627731,0.999996,0.000238,-0.002123,0.001584,-0.000054,0.001585,-0.002123,-89.161288,0.002208,
1130,90,0.032791,-14.796148,0.999998,0.000166,-0.000390,0.004685,0.000177,0.004692,-0.000396,88.002670,0.005204,
940,1880,0.281088,-0.824802,0.999998,0.000172,-0.001338,0.005705,-0.000593,0.005755,-0.001388,-85.220928,0.006006,
1900,730,-2.722750,-9.519677,0.999997,0.000000,-0.003703,0.007334,-0.000134,0.007336,-0.003705,-89.305829,0.007336,
1100,570,0.280588,-12.163820,0.999997,0.000208,-0.002716,0.005725,-0.001312,0.005925,-0.002915,-81.366887,0.005925,
1770,590,-1.878733,-10.875961,0.999997,0.000191,-0.003952,0.007768,-0.000033,0.007768,-0.003952,-89.840915,0.007768,
1550,400,-0.707805,-12.830104,0.999995,0.000232,-0.003037,0.006906,0.000312,0.006916,-0.003047,88.202169,0.006932,
990,350,0.439435,-13.291678,0.999997,0.000183,-0.002245,0.006193,-0.000169,0.006197,-0.002249,-88.853562,0.006274,
960,350,0.514107,-13.241394,0.999997,0.000222,-0.002641,0.006405,-0.000222,0.006410,-0.002647,-88.596260,0.006442,
760,1150,2.442181,-6.634235,0.999997,0.000232,-0.003638,0.007783,-0.000857,0.007847,-0.003702,-85.732603,0.007852,
1200,770,0.051616,-11.608006,0.999996,0.000235,-0.001797,0.002229,-0.001343,0.002636,-0.002204,-73.142096,0.002828,
1810,1090,-2.906364,-7.127099,0.999998,0.000201,-0.003284,0.006881,0.000226,0.006886,-0.003289,88.726124,0.006888,
1560,580,-0.984093,-11.488204,0.999997,0.000228,-0.004132,0.007759,0.000725,0.007803,-0.004176,86.522308,0.007810,
820,640,1.459243,-10.775634,0.999996,0.000230,-0.004470,0.008182,-0.000108,0.008183,-0.004471,-89.511739,0.008194,
1370,200,-0.128749,-14.237386,0.999998,0.000152,-0.000966,0.005239,-0.000214,0.005246,-0.000973,-88.027552,0.005582,
1350,1660,-0.212868,-1.939852,0.999998,0.000166,-0.001945,0.005559,-0.000357,0.005576,-0.001962,-87.281426,0.005657,
610,230,1.297998,-13.407236,0.999997,0.000229,-0.003658,0.007528,0.000210,0.007532,-0.003662,88.923867,0.007532,
730,1930,0.466591,-0.654136,0.999997,0.000203,-0.002051,0.006837,-0.001741,0.007166,-0.002379,-79.301612,0.007300,
1360,1370,-0.280126,-3.604397,0.999996,0.000259,-0.003270,0.005743,-0.002293,0.006293,-0.003820,-76.516625,0.006341,
860,760,1.582073,-9.846285,0.999995,0.000267,-0.004949,0.008839,0.000321,0.008847,-0.004956,88.665469,0.008868,
780,320,0.975318,-13.136296,0.999997,0.000220,-0.003277,0.007294,0.000147,0.007296,-0.003279,89.204941,0.007308,
930,1820,0.403671,-1.186789,0.999998,0.000176,-0.001849,0.006157,-0.000449,0.006182,-0.001874,-86.797233,0.006340,
1030,710,0.590187,-10.962147,0.999996,0.000240,-0.004728,0.007731,-0.002053,0.008060,-0.005058,-80.878008,0.008147,
1380,1840,-0.151684,-0.964763,0.999998,0.000160,-0.001044,0.005285,0.000206,0.005291,-0.001051,88.133200,0.005603,
1720,1880,-0.651758,-0.994008,0.999997,0.000211,-0.002309,0.007049,0.001331,0.007235,-0.002495,82.061432,0.007350,
890,160,0.314932,-14.354810,0.999998,0.000199,-0.001540,0.005971,0.000824,0.006061,-0.001629,83.808979,0.006273,
900,1460,1.021132,-3.760808,0.999996,0.000227,-0.004246,0.007840,0.000737,0.007884,-0.004291,86.524903,0.007895,
1600,320,-0.725015,-13.287659,0.999997,0.000215,-0.002857,0.006919,-0.000110,0.006920,-0.002858,-89.356306,0.006955,
940,2020,0.032764,-0.077545,0.999999,0.000000,-0.000118,0.004837,-0.000699,0.004933,-0.000215,-82.124001,0.005576,
1850,740,-2.564805,-9.554614,0.999998,0.000202,-0.003704,0.007396,-0.000326,0.007405,-0.003714,-88.318134,0.007405,
1640,560,-1.282207,-11.425978,0.999997,0.000211,-0.004116,0.007887,0.000350,0.007897,-0.004126,88.330823,0.007900,
1330,1890,-0.070366,-0.689090,0.999998,0.000161,-0.000839,0.004997,0.000120,0.004999,-0.000841,88.818052,0.005353,
1240,1510,-0.016327,-2.641836,0.999998,0.000164,-0.001889,0.004889,-0.000145,0.004892,-0.001892,-88.775773,0.004934,
1900,740,-2.747363,-9.446433,0.999997,0.000000,-0.003706,0.007399,-0.000135,0.007400,-0.003707,-89.303927,0.007400,
870,1780,0.614904,-1.515445,0.999997,0.000183,-0.002697,0.006707,-0.000307,0.006717,-0.002707,-88.133116,0.006759,
1070,1990,0.032700,-0.210350,0.999999,0.000153,-0.000218,0.004720,-0.000348,0.004745,-0.000243,-85.994323,0.005344,
1830,860,-2.794067,-8.715846,0.999997,0.000223,-0.003519,0.007170,-0.000530,0.007196,-0.003545,-87.170672,0.007196,
1800,1870,-0.935709,-1.213615,0.999997,0.000213,-0.003172,0.007627,0.001105,0.007739,-0.003284,84.216270,0.007769,
1580,750,-1.437090,-9.997066,0.999996,0.000277,-0.005077,0.008934,-0.000088,0.008934,-0.005077,-89.638936,0.008962,
1260,1850,-0.028450,-0.879115,0.999998,0.000195,-0.000927,0.005015,0.000004,0.005015,-0.000927,89.959873,0.005337,
1770,320,-1.272774,-12.946720,0.999998,0.000200,-0.003634,0.007520,-0.000054,0.007520,-0.003634,-89.720194,0.007522,
690,1270,2.393293,-5.773986,0.999998,0.000212,-0.003884,0.007644,-0.000662,0.007682,-0.003922,-86.722493,0.007682,
650,890,2.801891,-8.516843,0.999997,0.000227,-0.003428,0.007111,0.000479,0.007132,-0.003450,87.405531,0.007133,
1660,1910,-0.412409,-0.730581,0.999996,0.000224,-0.001913,0.006357,0.001198,0.006527,-0.002083,81.917938,0.006668,
940,1860,0.315638,-0.939898,0.999998,0.000181,-0.001527,0.005871,-0.000582,0.005917,-0.001573,-85.530860,0.006129,
1230,770,0.002333,-11.660100,0.999997,0.000202,-0.001697,0.001866,-0.000049,0.001867,-0.001697,-89.210192,0.002065,
1220,770,0.019296,-11.648776,0.999998,0.000169,-0.001676,0.001935,-0.000483,0.001998,-0.001740,-82.505335,0.002174,
1880,510,-2.118330,-11.235007,0.999998,0.000160,-0.003747,0.007596,0.000011,0.007596,-0.003747,89.943944,0.007596,
1680,1310,-1.898381,-5.304954,0.999998,0.000178,-0.004420,0.008295,0.000522,0.008316,-0.004441,87.653563,0.008323,
1510,1510,-0.747376,-3.220694,0.999997,0.000214,-0.003645,0.007241,-0.000903,0.007315,-0.003720,-85.289611,0.007315,
990,330,0.416915,-13.415817,0.999997,0.000200,-0.002091,0.006216,-0.000064,0.006216,-0.002092,-89.556928,0.006326,
1770,550,-1.786923,-11.185545,0.999997,0.000202,-0.003925,0.007734,0.000064,0.007735,-0.003926,89.686900,0.007735,
1470,1730,-0.405268,-1.670316,0.999997,0.000194,-0.002038,0.006190,-0.000009,0.006190,-0.002038,-89.939941,0.006310,
1100,550,0.279259,-12.278612,0.999997,0.000218,-0.002675,0.005742,-0.001233,0.005919,-0.002852,-81.837821,0.005921,
1810,1070,-2.916830,-7.265075,0.999998,0.000198,-0.003249,0.006872,0.000162,0.006875,-0.003251,89.082779,0.006878,
1680,1780,-0.856325,-1.651310,0.999998,0.000181,-0.003154,0.007202,0.000386,0.007216,-0.003169,87.869565,0.007234,
780,1150,2.368322,-6.621377,0.999996,0.000263,-0.003639,0.007943,-0.000914,0.008015,-0.003710,-85.517781,0.008022,
960,690,0.900843,-10.795806,0.999996,0.000227,-0.004930,0.008389,-0.001144,0.008486,-0.005028,-85.126508,0.008535,
750,200,0.722921,-13.957934,0.999997,0.000197,-0.002557,0.007190,0.001165,0.007327,-0.002694,83.277676,0.007412,
610,250,1.365686,-13.261147,0.999997,0.000228,-0.003647,0.007476,0.000137,0.007478,-0.003649,89.292618,0.007479,
1180,70,0.012335,-14.891452,0.999998,0.000153,-0.000190,0.004592,0.000137,0.004595,-0.000194,88.358746,0.005198,
730,1910,0.556739,-0.791635,0.999997,0.000217,-0.002281,0.006957,-0.001518,0.007200,-0.002524,-80.901735,0.007306,
820,620,1.414472,-10.936981,0.999997,0.000215,-0.004378,0.008034,-0.000179,0.008037,-0.004381,-89.172885,0.008048,
1730,390,-1.295209,-12.512150,0.999997,0.000226,-0.003664,0.007574,0.000059,0.007574,-0.003665,89.698896,0.007575,
940,270,0.445267,-13.727405,0.999996,0.000234,-0.002133,0.006234,0.000243,0.006241,-0.002140,88.338723,0.006343,
1380,1370,-0.350895,-3.703290,0.999996,0.000229,-0.003646,0.006284,-0.002280,0.006782,-0.004145,-77.666202,0.006838,
1560,560,-0.958626,-11.641609,0.999997,0.000217,-0.003986,0.007668,0.000710,0.007711,-0.004029,86.527470,0.007713,
860,1200,1.900959,-6.122260,0.999996,0.000253,-0.004444,0.008771,-0.000959,0.008840,-0.004513,-85.871493,0.008841,
1400,330,-0.266911,-13.504706,0.999997,0.000197,-0.001887,0.005759,0.000140,0.005761,-0.001889,88.954508,0.005874,
1350,200,-0.110263,-14.244480,0.999998,0.000155,-0.001002,0.005180,-0.000118,0.005182,-0.001004,-88.907402,0.005497,
890,140,0.266868,-14.473258,0.999998,0.000179,-0.001354,0.005773,0.000892,0.005883,-0.001464,82.977724,0.006126,
780,300,0.928312,-13.280611,0.999998,0.000193,-0.003221,0.007224,0.000253,0.007230,-0.003227,88.612804,0.007244,
1330,1660,-0.173058,-1.915953,0.999998,0.000161,-0.001970,0.005517,-0.000416,0.005540,-0.001993,-86.826978,0.005613,
900,1210,1.677093,-5.951565,0.999996,0.000235,-0.004918,0.009265,-0.000783,0.009308,-0.004961,-86.851122,0.009315,
1020,1880,0.181670,-0.781386,0.999998,0.000211,-0.001047,0.005370,-0.000412,0.005396,-0.001073,-86.340631,0.005713,
1330,1870,-0.078135,-0.789469,0.999998,0.000176,-0.000957,0.005064,0.000102,0.005066,-0.000958,89.029832,0.005382,
1640,1300,-1.745368,-5.311775,0.999996,0.000245,-0.004705,0.008610,0.000474,0.008627,-0.004722,87.965191,0.008639,
1830,800,-2.649265,-9.145903,0.999997,0.000228,-0.003635,0.007325,-0.000482,0.007346,-0.003656,-87.484867,0.007346,
1380,1820,-0.165586,-1.069828,0.999998,0.000182,-0.001145,0.005371,0.000167,0.005376,-0.001150,88.536676,0.005662,
1850,1610,-1.864219,-3.318167,0.999997,0.000213,-0.003743,0.007558,-0.000099,0.007558,-0.003744,-89.499087,0.007559,
860,1890,0.380838,-0.820663,0.999997,0.000203,-0.001706,0.006157,-0.000952,0.006271,-0.001820,-83.194866,0.006452,
940,30,0.022090,-15.064559,0.999998,0.000000,-0.000039,0.004862,0.000772,0.004981,-0.000157,81.260198,0.005662,
600,1530,2.087121,-3.960656,0.999997,0.000195,-0.003776,0.007619,0.000045,0.007619,-0.003776,89.773125,0.007620,
1070,1970,0.049626,-0.306258,0.999998,0.000159,-0.000350,0.004801,-0.000347,0.004824,-0.000374,-86.158244,0.005367,
1280,1220,-0.204744,-3.725815,0.999994,0.000302,-0.003793,0.002306,-0.000831,0.002417,-0.003904,-82.374427,0.003941,
1240,1850,-0.009141,-0.876044,0.999998,0.000167,-0.000974,0.005008,-0.000027,0.005008,-0.000974,-89.738967,0.005310,
1900,750,-2.773694,-9.369263,0.999997,0.000000,-0.003677,0.007406,-0.000144,0.007408,-0.003679,-89.256194,0.007408,
1600,300,-0.685572,-13.422954,0.999997,0.000205,-0.002782,0.006799,-0.000192,0.006803,-0.002786,-88.851061,0.006840,
690,1250,2.449690,-5.927096,0.999997,0.000220,-0.003859,0.007663,-0.000711,0.007706,-0.003902,-86.483958,0.007707,
1560,1750,-0.586949,-1.666331,0.999997,0.000210,-0.002410,0.006595,0.000170,0.006599,-0.002413,88.918761,0.006677,
1870,510,-2.080873,-11.258221,0.999997,0.000202,-0.003759,0.007616,0.000034,0.007616,-0.003759,89.828910,0.007616,
1810,1880,-0.922257,-1.155816,0.999997,0.000201,-0.003180,0.007750,0.001175,0.007875,-0.003304,83.932412,0.007909,
720,1150,2.584774,-6.658765,0.999998,0.000187,-0.003521,0.007494,-0.000701,0.007538,-0.003565,-86.373492,0.007542,
1770,530,-1.743727,-11.342191,0.999996,0.000218,-0.003893,0.007728,0.000090,0.007728,-0.003893,89.558239,0.007728,
990,310,0.395705,-13.538115,0.999997,0.000190,-0.001974,0.006090,0.000023,0.006090,-0.001974,89.837974,0.006214,
1730,370,-1.249331,-12.666173,0.999997,0.000225,-0.003626,0.007540,-0.000004,0.007540,-0.003626,-89.979652,0.007542,
1810,1050,-2.929835,-7.403995,0.999998,0.000195,-0.003255,0.006926,0.000217,0.006930,-0.003260,88.778323,0.006934,
1690,1540,-1.396304,-3.467883,0.999996,0.000216,-0.003964,0.007783,-0.000226,0.007787,-0.003969,-88.896087,0.007788,
1850,860,-2.863693,-8.688123,0.999998,0.000181,-0.003420,0.007062,-0.000426,0.007079,-0.003438,-87.674454,0.007080,
1660,1310,-1.809412,-5.265654,0.999997,0.000201,-0.004567,0.008442,0.000466,0.008458,-0.004583,87.950006,0.008468,
940,1840,0.353530,-1.058773,0.999997,0.000203,-0.001689,0.005891,-0.000454,0.005918,-0.001716,-86.586433,0.006090,
1180,80,0.015445,-14.845405,0.999998,0.000165,-0.000251,0.004623,0.000137,0.004627,-0.000255,88.396947,0.005202,
1560,750,-1.334630,-10.055685,0.999997,0.000237,-0.005229,0.009011,0.000115,0.009012,-0.005230,89.537837,0.009050,
1510,1490,-0.766019,-3.366410,0.999997,0.000211,-0.003806,0.007394,-0.000977,0.007479,-0.003890,-85.052609,0.007481,
1670,460,-1.216436,-12.122652,0.999997,0.000203,-0.003700,0.007556,0.000269,0.007563,-0.003706,88.633421,0.007563,
1160,70,0.015352,-14.891043,0.999998,0.000159,-0.000176,0.004594,0.000173,0.004601,-0.000182,87.929638,0.005210,
770,1080,2.532061,-7.165785,0.999996,0.000252,-0.003190,0.007513,-0.000425,0.007530,-0.003207,-87.731274,0.007557,
730,1890,0.638415,-0.932889,0.999997,0.000195,-0.002517,0.007136,-0.001365,0.007325,-0.002706,-82.105472,0.007408,
900,1440,1.053591,-3.919180,0.999997,0.000227,-0.004379,0.007915,0.000708,0.007955,-0.004420,86.716457,0.007972,
1230,750,0.003124,-11.700158,0.999998,0.000167,-0.001518,0.002237,-0.000065,0.002238,-0.001519,-89.001149,0.002286,
960,270,0.402612,-13.748697,0.999996,0.000224,-0.002158,0.006124,0.000180,0.006128,-0.002162,88.758266,0.006215,
810,1810,0.694762,-1.391889,0.999997,0.000198,-0.002674,0.006938,-0.000634,0.006980,-0.002716,-86.244262,0.007037,
1420,1370,-0.508818,-3.902735,0.999994,0.000271,-0.004230,0.007218,-0.002067,0.007580,-0.004592,-80.071869,0.007637,
1680,570,-1.467386,-11.245935,0.999997,0.000220,-0.004114,0.007879,0.000184,0.007882,-0.004117,89.119250,0.007884,
650,870,2.756910,-8.663659,0.999997,0.000207,-0.003510,0.007262,0.000597,0.007295,-0.003543,86.835618,0.007296,
900,1270,1.459754,-5.393502,0.999996,0.000247,-0.005210,0.009204,-0.000222,0.009207,-0.005213,-89.119708,0.009234,
1430,1390,-0.536191,-3.807949,0.999996,0.000231,-0.004146,0.007188,-0.001875,0.007491,-0.004448,-80.846013,0.007534,
1810,800,-2.576682,-9.178801,0.999998,0.000198,-0.003709,0.007465,-0.000578,0.007495,-0.003739,-87.048347,0.007495,
910,1400,1.077169,-4.212050,0.999997,0.000235,-0.004648,0.008279,0.000702,0.008317,-0.004686,86.901774,0.008339,
820,250,0.681768,-13.706062,0.999997,0.000209,-0.002506,0.006896,0.000637,0.006939,-0.002549,86.143930,0.007020,
1850,1590,-1.907331,-3.470659,0.999998,0.000199,-0.003774,0.007601,-0.000112,0.007602,-0.003775,-89.433566,0.007602,
1170,200,0.053823,-14.261498,0.999999,0.000123,-0.000794,0.005049,0.000111,0.005051,-0.000796,88.916883,0.005431,
1020,1170,1.225983,-5.844958,0.999994,0.000286,-0.005500,0.010565,0.000810,0.010606,-0.005541,87.122417,0.010609,
1130,1660,0.179502,-1.919558,0.999998,0.000177,-0.001959,0.005511,0.000402,0.005532,-0.001980,86.931145,0.005606,
1880,1690,-1.789099,-2.795430,0.999997,0.000198,-0.003758,0.007339,-0.000036,0.007339,-0.003758,-89.811624,0.007340,
930,2020,0.033699,-0.079985,0.999998,0.000000,-0.000027,0.004898,-0.000775,0.005017,-0.000146,-81.266184,0.005710,
1380,1800,-0.181666,-1.179136,0.999998,0.000188,-0.001261,0.005436,0.000113,0.005438,-0.001263,89.030562,0.005692,
870,140,0.296218,-14.462365,0.999998,0.000201,-0.001516,0.005897,0.000962,0.006020,-0.001639,82.725627,0.006225,
660,1530,1.860020,-3.817917,0.999998,0.000170,-0.003861,0.007658,0.000085,0.007658,-0.003861,89.578500,0.007658,
980,1480,0.673855,-3.357283,0.999997,0.000210,-0.003779,0.007240,0.001146,0.007358,-0.003897,84.124619,0.007362,
1470,1710,-0.428549,-1.794118,0.999997,0.000195,-0.002185,0.006132,-0.000127,0.006134,-0.002187,-89.123995,0.006217,
1100,390,0.235085,-13.194488,0.999998,0.000166,-0.001858,0.005649,-0.000296,0.005661,-0.001870,-87.745156,0.005768,
1030,690,0.568026,-11.113557,0.999995,0.000260,-0.004477,0.007527,-0.001980,0.007845,-0.004795,-80.871547,0.007910,
1640,1260,-1.869063,-5.658831,0.999996,0.000246,-0.004575,0.008599,0.000699,0.008636,-0.004612,86.972227,0.008643,
1280,1850,-0.046256,-0.881983,0.999999,0.000145,-0.000869,0.005030,0.000079,0.005031,-0.000870,89.234665,0.005378,
740,1150,2.516008,-6.647359,0.999996,0.000239,-0.003561,0.007648,-0.000774,0.007701,-0.003614,-86.068972,0.007706,
1320,690,-0.166288,-11.668860,0.999997,0.000201,-0.002560,0.004690,0.002072,0.005241,-0.003111,75.123432,0.005271,
610,270,1.433106,-13.106392,0.999997,0.000209,-0.003685,0.007476,0.000097,0.007477,-0.003686,89.501156,0.007477,
1300,1790,-0.083098,-1.192048,0.999998,0.000157,-0.001142,0.005228,0.000060,0.005229,-0.001142,89.458751,0.005498,
750,1340,1.957298,-5.119444,0.999998,0.000186,-0.004255,0.008095,-0.000426,0.008110,-0.004269,-88.028727,0.008114,
1730,350,-1.202266,-12.817069,0.999997,0.000208,-0.003600,0.007517,-0.000076,0.007518,-0.003600,-89.609158,0.007520,
1680,1760,-0.907679,-1.799147,0.999998,0.000182,-0.003237,0.007209,0.000278,0.007217,-0.003244,88.477261,0.007229,
1330,1850,-0.091202,-0.891993,0.999998,0.000154,-0.001033,0.005106,0.000083,0.005107,-0.001035,89.222867,0.005400,
720,830,2.402446,-9.035463,0.999997,0.000217,-0.003879,0.007761,0.000808,0.007817,-0.003935,86.049947,0.007817,
1900,760,-2.800113,-9.294779,0.999998,0.000000,-0.003625,0.007298,-0.000136,0.007299,-0.003627,-89.289190,0.007299,
1810,1030,-2.940272,-7.542761,0.999997,0.000191,-0.003257,0.006971,0.000027,0.006971,-0.003257,89.850343,0.006976,
1310,1920,-0.042469,-0.536856,0.999999,0.000125,-0.000528,0.004828,0.000146,0.004832,-0.000531,88.441428,0.005300,
940,1080,2.004663,-7.085114,0.999997,0.000197,-0.003122,0.009140,-0.000719,0.009182,-0.003164,-86.654530,0.009329,
710,960,2.710822,-8.048363,0.999996,0.000250,-0.003332,0.007287,0.000444,0.007305,-0.003350,87.612402,0.007314,
900,1420,1.085916,-4.079216,0.999997,0.000219,-0.004514,0.008129,0.000657,0.008163,-0.004549,87.033582,0.008181,
1120,1260,0.302248,-4.115416,0.999996,0.000270,-0.004003,0.005523,0.003438,0.006634,-0.005114,72.089298,0.006951,
780,280,0.879921,-13.427090,0.999998,0.000168,-0.003159,0.007244,0.000373,0.007258,-0.003173,87.946998,0.007277,
1670,2000,-0.121331,-0.194795,0.999998,0.000184,-0.000794,0.005541,0.001474,0.005867,-0.001120,77.522388,0.006229,
860,1180,1.969740,-6.295448,0.999997,0.000231,-0.004218,0.008739,-0.001066,0.008826,-0.004305,-85.328359,0.008827,
1220,1920,0.005599,-0.531907,0.999998,0.000165,-0.000609,0.004792,0.000013,0.004792,-0.000609,89.860803,0.005217,
1180,520,0.097387,-12.579982,0.999998,0.000162,-0.001929,0.005167,-0.000401,0.005190,-0.001952,-86.774051,0.005243,
1150,200,0.071713,-14.259690,0.999998,0.000163,-0.000906,0.005090,0.000111,0.005092,-0.000908,88.942819,0.005432,
750,1080,2.594719,-7.169280,0.999997,0.000214,-0.003260,0.007412,-0.000387,0.007426,-0.003274,-87.926347,0.007443,
660,290,1.310271,-13.094054,0.999998,0.000186,-0.003584,0.007591,0.000243,0.007596,-0.003589,88.753072,0.007600,
1010,980,1.779753,-8.142836,0.999994,0.000275,-0.004256,0.011729,-0.000397,0.011739,-0.004266,-88.579477,0.011884,
660,690,2.256304,-10.026755,0.999997,0.000200,-0.003902,0.007634,0.000334,0.007644,-0.003912,88.341730,0.007645,
930,30,0.023141,-15.067379,0.999999,0.000000,0.000021,0.004902,0.000849,0.005046,-0.000122,80.405665,0.005757,
1070,1950,0.065357,-0.404215,0.999998,0.000153,-0.000469,0.004907,-0.000345,0.004929,-0.000491,-86.337720,0.005431,
880,1270,1.561263,-5.446837,0.999993,0.000291,-0.005040,0.009041,-0.000379,0.009051,-0.005050,-88.459482,0.009072,
1430,1370,-0.549711,-3.951546,0.999995,0.000263,-0.004359,0.007424,-0.001974,0.007746,-0.004681,-80.737865,0.007802,
1470,1690,-0.447654,-1.916289,0.999997,0.000197,-0.002328,0.006256,-0.000232,0.006262,-0.002335,-88.450364,0.006330,
1020,1190,1.114708,-5.629361,0.999997,0.000223,-0.005776,0.010316,0.001024,0.010381,-0.005841,86.373390,0.010408,
590,490,2.048069,-11.403481,0.999997,0.000213,-0.003722,0.007609,-0.000032,0.007609,-0.003722,-89.838938,0.007610,
1850,1570,-1.949630,-3.623303,0.999997,0.000192,-0.003787,0.007620,-0.000084,0.007620,-0.003787,-89.579601,0.007621,
680,130,0.630055,-14.351498,0.999995,0.000257,-0.002672,0.007408,0.001799,0.007720,-0.002984,80.180736,0.007786,
1320,530,-0.176940,-12.473548,0.999998,0.000168,-0.002200,0.005372,0.000790,0.005454,-0.002281,84.103941,0.005478,
940,690,0.998971,-10.717411,0.999996,0.000213,-0.004937,0.008490,-0.000889,0.008549,-0.004996,-86.229430,0.008589,
1300,390,-0.115811,-13.256355,0.999998,0.000149,-0.001703,0.005405,0.000156,0.005409,-0.001707,88.746992,0.005530,
1640,1240,-1.932914,-5.830378,0.999997,0.000223,-0.004459,0.008610,0.000841,0.008664,-0.004513,86.331468,0.008667,
610,840,2.826725,-8.825932,0.999997,0.000204,-0.003460,0.007035,0.000410,0.007051,-0.003476,87.763641,0.007051,
1900,980,-3.195518,-7.849826,0.999998,0.000000,-0.003004,0.005909,0.000014,0.005909,-0.003004,89.912502,0.005910,
920,1150,1.827431,-6.470021,0.999996,0.000278,-0.004245,0.009336,-0.001107,0.009426,-0.004334,-85.368459,0.009436,
1380,330,-0.234170,-13.520844,0.999997,0.000194,-0.001652,0.005687,0.000077,0.005688,-0.001652,89.399522,0.005852,
1030,650,0.538393,-11.407976,0.999996,0.000240,-0.004031,0.007122,-0.001795,0.007404,-0.004313,-81.079023,0.007437,
860,1870,0.427882,-0.941145,0.999996,0.000222,-0.001911,0.006216,-0.000832,0.006300,-0.001996,-84.217557,0.006440,
1730,330,-1.153718,-12.966693,0.999997,0.000190,-0.003479,0.007458,-0.000115,0.007459,-0.003480,-89.396539,0.007465,
730,1340,2.040471,-5.156667,0.999998,0.000171,-0.004156,0.007994,-0.000452,0.008011,-0.004173,-87.874548,0.008013,
1560,540,-0.930444,-11.794129,0.999997,0.000218,-0.003885,0.007538,0.000686,0.007579,-0.003926,86.572958,0.007580,
1480,1850,-0.264270,-0.965482,0.999998,0.000168,-0.001396,0.005678,0.000428,0.005704,-0.001422,86.549392,0.005938,
1510,1470,-0.786263,-3.516967,0.999997,0.000218,-0.004014,0.007527,-0.001035,0.007619,-0.004106,-84.915031,0.007627,
1140,70,0.020654,-14.889620,0.999998,0.000180,-0.000271,0.004609,0.000192,0.004617,-0.000278,87.747480,0.005178,
1600,280,-0.644558,-13.560353,0.999997,0.000198,-0.002681,0.006802,-0.000315,0.006812,-0.002692,-88.099784,0.006862,
690,1230,2.505937,-6.080748,0.999996,0.000229,-0.003782,0.007564,-0.000715,0.007609,-0.003827,-86.410614,0.007609,
900,660,1.133332,-10.833596,0.999997,0.000208,-0.004713,0.008333,-0.000580,0.008358,-0.004739,-87.457412,0.008383,
1810,1010,-2.932167,-7.681926,0.999998,0.000168,-0.003239,0.006945,-0.000217,0.006949,-0.003244,-88.780817,0.006954,
740,830,2.322516,-9.059235,0.999996,0.000255,-0.003937,0.007926,0.000851,0.007987,-0.003997,85.918154,0.007987,
930,1920,0.216151,-0.602557,0.999998,0.000179,-0.000952,0.005552,-0.000752,0.005638,-0.001038,-83.491193,0.006001,
820,600,1.373206,-11.096652,0.999996,0.000218,-0.004297,0.008029,-0.000248,0.008034,-0.004302,-88.849293,0.008041,
1230,730,0.001717,-11.747844,0.999998,0.000167,-0.001484,0.002653,-0.000060,0.002653,-0.001484,-89.174895,0.002660,
1130,70,0.024158,-14.888088,0.999998,0.000159,-0.000279,0.004621,0.000213,0.004630,-0.000288,87.514355,0.005188,
690,960,2.779087,-8.041776,0.999996,0.000217,-0.003348,0.007161,0.000400,0.007176,-0.003363,87.825422,0.007181,
1130,200,0.091662,-14.252311,0.999998,0.000147,-0.001046,0.005127,0.000092,0.005129,-0.001047,89.142003,0.005419,
1180,500,0.097002,-12.680216,0.999998,0.000167,-0.001895,0.005198,-0.000317,0.005212,-0.001909,-87.448687,0.005274,
1220,1790,0.014041,-1.181224,0.999998,0.000182,-0.001270,0.005167,0.000053,0.005167,-0.001270,89.530981,0.005385,
1540,810,-1.423752,-9.561439,0.999993,0.000278,-0.005366,0.009484,-0.000221,0.009487,-0.005369,-89.148813,0.009514,
1580,1050,-2.217223,-7.375975,0.999997,0.000254,-0.002816,0.008128,0.000347,0.008139,-0.002827,88.183746,0.008264,
1430,1350,-0.568715,-4.101685,0.999996,0.000237,-0.004632,0.007604,-0.002102,0.007955,-0.004983,-80.521610,0.008040,
1070,1930,0.084160,-0.502728,0.999998,0.000161,-0.000587,0.004968,-0.000330,0.004987,-0.000606,-86.609173,0.005443,
580,460,2.018719,-11.609163,0.999997,0.000206,-0.003635,0.007519,-0.000057,0.007519,-0.003636,-89.709574,0.007521,
590,1220,2.884474,-6.293036,0.999998,0.000166,-0.003400,0.006949,-0.000254,0.006955,-0.003406,-88.594033,0.006956,
1740,410,-1.375357,-12.336588,0.999996,0.000247,-0.003712,0.007606,0.000112,0.007607,-0.003713,89.432436,0.007607,
1770,510,-1.700148,-11.495973,0.999996,0.000221,-0.003870,0.007717,0.000109,0.007718,-0.003871,89.463152,0.007718,
1470,1670,-0.466591,-2.042466,0.999997,0.000217,-0.002501,0.006336,-0.000337,0.006349,-0.002514,-87.820181,0.006394,
650,850,2.709862,-8.807603,0.999997,0.000198,-0.003548,0.007219,0.000588,0.007251,-0.003580,86.885416,0.007251,
1700,170,-0.588651,-14.181224,0.999997,0.000215,-0.002249,0.006895,-0.001302,0.007077,-0.002431,-82.053788,0.007192,
920,2020,0.031255,-0.078333,0.999999,0.000000,-0.000003,0.004953,-0.000833,0.005089,-0.000139,-80.712008,0.005797,
660,130,0.682182,-14.323269,0.999995,0.000252,-0.002647,0.007706,0.001878,0.008036,-0.002977,80.028125,0.008125,
1850,1550,-1.994733,-3.776459,0.999997,0.000198,-0.003781,0.007644,-0.000062,0.007645,-0.003782,-89.687707,0.007645,
1060,1270,0.563100,-4.566314,0.999995,0.000268,-0.005334,0.008115,0.002662,0.008623,-0.005841,79.203159,0.008802,
610,820,2.780014,-8.966362,0.999998,0.000161,-0.003487,0.007007,0.000346,0.007018,-0.003499,88.113465,0.007018,
1400,530,-0.374908,-12.306332,0.999996,0.000230,-0.002728,0.006115,0.001026,0.006233,-0.002846,83.466080,0.006240,
1270,260,-0.047754,-13.959455,0.999998,0.000152,-0.001161,0.005173,-0.000005,0.005173,-0.001161,-89.956826,0.005428,
1640,1220,-1.999861,-6.003646,0.999997,0.000204,-0.004320,0.008478,0.000911,0.008542,-0.004385,85.948482,0.008543,
1030,630,0.524092,-11.551121,0.999996,0.000240,-0.003852,0.006924,-0.001695,0.007184,-0.004112,-81.265757,0.007209,
1630,1800,-0.665351,-1.433223,0.999998,0.000179,-0.002424,0.006836,0.000612,0.006877,-0.002465,86.235359,0.006968,
1730,310,-1.104764,-13.116227,0.999997,0.000200,-0.003350,0.007440,-0.000241,0.007446,-0.003355,-88.721435,0.007458,
780,260,0.825604,-13.569875,0.999998,0.000173,-0.003051,0.007139,0.000510,0.007165,-0.003076,87.140314,0.007188,
1450,1100,-1.661480,-6.666788,0.999992,0.000357,-0.004461,0.011800,-0.000542,0.011818,-0.004479,-88.094494,0.011932,
1130,1320,0.204564,-3.732266,0.999996,0.000242,-0.003080,0.004941,0.002739,0.005787,-0.003926,72.834226,0.005909,
1810,250,-1.210008,-13.384902,0.999997,0.000201,-0.003503,0.007632,-0.000451,0.007650,-0.003522,-87.685479,0.007658,
1900,970,-3.188906,-7.908114,0.999998,0.000000,-0.003010,0.005922,0.000077,0.005923,-0.003011,89.506226,0.005923,
1120,1960,0.038501,-0.348594,0.999998,0.000165,-0.000437,0.004747,-0.000199,0.004754,-0.000445,-87.809055,0.005252,
1660,2000,-0.113715,-0.191430,0.999998,0.000182,-0.000735,0.005506,0.001429,0.005818,-0.001047,77.695344,0.006203,
900,1400,1.122665,-4.243532,0.999997,0.000234,-0.004659,0.008311,0.000599,0.008339,-0.004687,87.361160,0.008360,
860,1160,2.041200,-6.473279,0.999997,0.000224,-0.003978,0.008625,-0.001054,0.008712,-0.004066,-85.250318,0.008719,
1240,1790,-0.011057,-1.181022,0.999998,0.000145,-0.001259,0.005144,-0.000034,0.005144,-0.001259,-89.700076,0.005363,
910,1920,0.234731,-0.610793,0.999997,0.000186,-0.000979,0.005639,-0.000875,0.005753,-0.001093,-82.593625,0.006110,
1330,1830,-0.101423,-0.995238,0.999998,0.000158,-0.001163,0.005163,0.000040,0.005163,-0.001163,89.638528,0.005416,
1100,330,0.206056,-13.535283,0.999998,0.000177,-0.001651,0.005628,-0.000130,0.005630,-0.001653,-88.973481,0.005788,
730,1870,0.719644,-1.077535,0.999997,0.000191,-0.002707,0.007202,-0.001145,0.007333,-0.002838,-83.491795,0.007395,
1790,580,-1.933044,-10.908377,0.999997,0.000184,-0.003878,0.007716,-0.000011,0.007716,-0.003878,-89.947876,0.007716,
1230,690,0.002290,-11.868240,0.999998,0.000158,-0.001552,0.003357,-0.000054,0.003358,-0.001553,-89.374872,0.003361,
990,290,0.369013,-13.660868,0.999998,0.000177,-0.001857,0.006044,0.000128,0.006046,-0.001860,89.071089,0.006193,
690,1940,0.525730,-0.641643,0.999996,0.000218,-0.002536,0.007264,-0.001902,0.007620,-0.002892,-79.391785,0.007694,
940,1820,0.385262,-1.177054,0.999997,0.000193,-0.001875,0.006100,-0.000404,0.006120,-0.001895,-87.109692,0.006266,
1110,1660,0.218484,-1.941712,0.999998,0.000184,-0.001913,0.005580,0.000320,0.005594,-0.001927,87.555708,0.005683,
1330,200,-0.089205,-14.253883,0.999998,0.000165,-0.001020,0.005113,-0.000073,0.005114,-0.001021,-89.322772,0.005412,
1740,390,-1.329979,-12.488325,0.999998,0.000219,-0.003671,0.007597,0.000069,0.007597,-0.003672,89.647789,0.007599,
610,290,1.492380,-12.960804,0.999997,0.000229,-0.003698,0.007399,0.000022,0.007399,-0.003698,89.886406,0.007399,
570,460,2.055740,-11.585361,0.999994,0.000292,-0.003587,0.007487,-0.000064,0.007488,-0.003588,-89.669830,0.007490,
1640,1050,-2.391510,-7.383629,0.999996,0.000241,-0.002966,0.007749,0.000291,0.007757,-0.002974,88.443078,0.007827,
1680,1740,-0.954238,-1.940047,0.999998,0.000198,-0.003279,0.007249,0.000144,0.007251,-0.003281,89.215393,0.007261,
1560,520,-0.903585,-11.945323,0.999997,0.000222,-0.003777,0.007422,0.000667,0.007461,-0.003816,86.603888,0.007462,
1430,1330,-0.596017,-4.259138,0.999996,0.000229,-0.004904,0.007891,-0.002144,0.008241,-0.005254,-80.737830,0.008344,
1850,1530,-2.038134,-3.930045,0.999997,0.000190,-0.003766,0.007620,-0.000050,0.007621,-0.003766,-89.750517,0.007621,
1510,1450,-0.814431,-3.671959,0.999997,0.000227,-0.004186,0.007666,-0.001071,0.007762,-0.004282,-84.879131,0.007775,
1240,70,-0.001961,-14.892244,0.999998,0.000163,-0.000285,0.004572,-0.000010,0.004572,-0.000285,-89.877520,0.005123,
870,900,2.016108,-8.615066,0.999998,0.000178,-0.003951,0.008676,0.001071,0.008766,-0.004041,85.184493,0.008775,
1600,260,-0.600915,-13.696227,0.999997,0.000198,-0.002529,0.006576,-0.000394,0.006593,-0.002546,-87.527886,0.006649,
720,130,0.514720,-14.418215,0.999997,0.000219,-0.002512,0.006958,0.001620,0.007228,-0.002782,80.556005,0.007291,
1650,920,-2.287899,-8.399972,0.999997,0.000218,-0.003595,0.008102,-0.000947,0.008178,-0.003671,-85.399784,0.008192,
1470,1650,-0.486370,-2.170306,0.999997,0.000220,-0.002671,0.006388,-0.000462,0.006412,-0.002694,-87.090756,0.006439,
800,770,1.895431,-9.635509,0.999997,0.000200,-0.004478,0.008417,0.000624,0.008447,-0.004508,87.233880,0.008454,
820,560,1.295001,-11.418750,0.999997,0.000191,-0.004132,0.007883,-0.000342,0.007892,-0.004141,-88.370143,0.007896,
690,1210,2.553518,-6.230527,0.999996,0.000231,-0.003707,0.007447,-0.000710,0.007492,-0.003752,-86.374627,0.007492,
1770,490,-1.658259,-11.651451,0.999996,0.000233,-0.003833,0.007708,0.000131,0.007709,-0.003835,89.348402,0.007709,
1180,480,0.095156,-12.785654,0.999998,0.000182,-0.001871,0.005238,-0.000260,0.005248,-0.001880,-87.906520,0.005318,
1150,1300,0.155859,-3.704616,0.999997,0.000204,-0.002769,0.004144,0.002747,0.005103,-0.003728,70.762251,0.005281,
1030,610,0.509876,-11.690367,0.999997,0.000219,-0.003632,0.006859,-0.001534,0.007079,-0.003852,-81.847882,0.007088,
1900,960,-3.182888,-7.968695,0.999998,0.000000,-0.003030,0.005995,0.000072,0.005995,-0.003031,89.541744,0.005996,
1070,1910,0.100366,-0.602574,0.999998,0.000170,-0.000702,0.005078,-0.000307,0.005094,-0.000718,-86.969374,0.005514,
1540,790,-1.354486,-9.751374,0.999995,0.000279,-0.005393,0.009386,-0.000006,0.009386,-0.005393,-89.974883,0.009421,
1400,510,-0.368741,-12.427921,0.999998,0.000166,-0.002638,0.006050,0.000915,0.006145,-0.002733,84.049553,0.006158,
990,250,0.316617,-13.899938,0.999997,0.000192,-0.001624,0.005867,0.000266,0.005876,-0.001633,87.966055,0.006066,
1080,1210,0.678568,-4.878942,0.999995,0.000247,-0.005256,0.007980,0.002932,0.008600,-0.005877,78.053964,0.008791,
920,30,0.021326,-15.066895,0.999999,0.000000,0.000038,0.004936,0.000899,0.005096,-0.000121,79.918763,0.005815,
580,1220,2.918486,-6.311589,0.999998,0.000158,-0.003376,0.006928,-0.000180,0.006931,-0.003380,-89.002082,0.006932,
1730,290,-1.050723,-13.265710,0.999997,0.000178,-0.003261,0.007465,-0.000383,0.007479,-0.003274,-87.957464,0.007498,
1630,1820,-0.612853,-1.294955,0.999997,0.000200,-0.002236,0.006745,0.000725,0.006804,-0.002294,85.414718,0.006923,
910,1900,0.275952,-0.725082,0.999997,0.000188,-0.001161,0.005819,-0.000847,0.005920,-0.001263,-83.178283,0.006236,
1030,260,0.266310,-13.873262,0.999998,0.000177,-0.001662,0.005637,0.000087,0.005638,-0.001663,89.315772,0.005794,
1640,1200,-2.058996,-6.170638,0.999998,0.000192,-0.004189,0.008441,0.000987,0.008517,-0.004266,85.557708,0.008517,
900,1360,1.207997,-4.585778,0.999997,0.000226,-0.004935,0.008619,0.000462,0.008634,-0.004951,88.050850,0.008665,
1230,670,0.002296,-11.937440,0.999998,0.000147,-0.001592,0.003661,-0.000040,0.003661,-0.001593,-89.562404,0.003671,
1780,690,-2.164929,-10.071584,0.999998,0.000191,-0.003996,0.007733,-0.000356,0.007743,-0.004007,-88.261001,0.007745,
1680,1050,-2.512227,-7.389629,0.999998,0.000173,-0.003091,0.007536,0.000262,0.007543,-0.003098,88.587216,0.007583,
1810,990,-2.919687,-7.820637,0.999998,0.000171,-0.003226,0.006870,-0.000181,0.006873,-0.003230,-88.971109,0.006877,
1430,1310,-0.625744,-4.421737,0.999996,0.000238,-0.005156,0.008226,-0.002157,0.008565,-0.005495,-81.067542,0.008679,
1850,100,-0.653925,-14.431991,0.999996,0.000220,-0.003550,0.008022,-0.001524,0.008220,-0.003748,-82.620001,0.008230,
1320,1790,-0.105421,-1.198205,0.999998,0.000150,-0.001340,0.005273,-0.000032,0.005273,-0.001340,-89.722090,0.005481,
1850,1510,-2.082933,-4.083809,0.999997,0.000179,-0.003775,0.007617,-0.000046,0.007617,-0.003775,-89.768624,0.007618,
1310,200,-0.068856,-14.260588,0.999998,0.000206,-0.000898,0.005067,-0.000113,0.005069,-0.000900,-88.915608,0.005409,
1130,460,0.196031,-12.839049,0.999998,0.000172,-0.002089,0.005539,-0.000547,0.005578,-0.002128,-85.920024,0.005630,
780,240,0.770285,-13.713616,0.999997,0.000180,-0.002964,0.007136,0.000660,0.007179,-0.003007,86.277632,0.007211,
610,730,2.550551,-9.621925,0.999996,0.000215,-0.003733,0.007402,0.000271,0.007409,-0.003740,88.606268,0.007409,
810,1880,0.492232,-0.918919,0.999996,0.000209,-0.002068,0.006511,-0.001051,0.006638,-0.002195,-83.115764,0.006764,
860,1140,2.098621,-6.641471,0.999998,0.000208,-0.003731,0.008476,-0.001048,0.008565,-0.003820,-85.128028,0.008582,
730,1850,0.791923,-1.223694,0.999997,0.000212,-0.002875,0.007331,-0.000965,0.007421,-0.002966,-84.648242,0.007471,
1680,980,-2.496762,-7.920132,0.999996,0.000224,-0.003219,0.007533,-0.000395,0.007547,-0.003234,-87.896882,0.007573,
1900,950,-3.176721,-8.029245,0.999998,0.000000,-0.003090,0.006173,0.000014,0.006173,-0.003090,89.911967,0.006173,
1470,890,-1.405351,-9.049149,0.999994,0.000288,-0.005350,0.010444,-0.000022,0.010444,-0.005350,-89.919339,0.010445,
1120,1940,0.051825,-0.445801,0.999998,0.000154,-0.000551,0.004842,-0.000207,0.004850,-0.000559,-87.806960,0.005307,
1330,730,-0.191280,-11.430392,0.999997,0.000212,-0.003002,0.004877,0.002655,0.005689,-0.003814,73.010431,0.005798,
870,880,1.944480,-8.794570,0.999998,0.000167,-0.004215,0.008806,0.001072,0.008894,-0.004302,85.326352,0.008895,
1850,200,-1.169362,-13.647722,0.999997,0.000208,-0.003655,0.007589,-0.000332,0.007599,-0.003665,-88.308890,0.007601,
780,1570,1.311985,-3.218516,0.999996,0.000225,-0.003819,0.007625,0.000241,0.007630,-0.003824,88.796232,0.007630,
1180,460,0.094523,-12.889270,0.999998,0.000177,-0.001828,0.005277,-0.000225,0.005284,-0.001835,-88.184030,0.005366,
730,1940,0.422681,-0.587155,0.999997,0.000216,-0.001896,0.006755,-0.001810,0.007118,-0.002260,-78.647427,0.007275,
1040,330,0.317638,-13.475963,0.999998,0.000185,-0.002113,0.005899,-0.000205,0.005904,-0.002118,-88.537167,0.005982,
1660,450,-1.161423,-12.222419,0.999997,0.000225,-0.003651,0.007509,0.000238,0.007514,-0.003656,88.778633,0.007515,
1070,1890,0.118745,-0.706462,0.999998,0.000176,-0.000824,0.005167,-0.000293,0.005181,-0.000838,-87.209058,0.005562,
1700,990,-2.566337,-7.841548,0.999996,0.000250,-0.003165,0.007432,-0.000265,0.007439,-0.003171,-88.566309,0.007466,
1030,590,0.502393,-11.823901,0.999997,0.000216,-0.003445,0.006724,-0.001373,0.006906,-0.003627,-82.442779,0.006909,
1080,1190,0.782955,-5.039273,0.999992,0.000320,-0.004840,0.007859,0.003099,0.008574,-0.005556,76.993385,0.008699,
1730,270,-0.995871,-13.418373,0.999997,0.000187,-0.003163,0.007462,-0.000495,0.007485,-0.003186,-87.337809,0.007512,
940,1780,0.454059,-1.423774,0.999997,0.000213,-0.002144,0.006293,-0.000219,0.006299,-0.002149,-88.512475,0.006404,
970,30,0.017100,-15.068064,0.999998,0.000000,-0.000248,0.004786,0.000604,0.004857,-0.000320,83.256562,0.005433,
1150,1320,0.150731,-3.622429,0.999998,0.000179,-0.002605,0.004198,0.002517,0.005028,-0.003435,71.750792,0.005139,
1010,260,0.299467,-13.855384,0.999998,0.000164,-0.001597,0.005747,0.000186,0.005752,-0.001602,88.550864,0.005937,
900,1340,1.257722,-4.761762,0.999997,0.000247,-0.005076,0.008790,0.000349,0.008799,-0.005084,88.558131,0.008834,
1650,1820,-0.661223,-1.316260,0.999997,0.000227,-0.002550,0.006874,0.000704,0.006927,-0.002603,85.751720,0.006998,
570,1220,2.951893,-6.332456,0.999997,0.000194,-0.003372,0.006904,-0.000119,0.006905,-0.003373,-89.336427,0.006906,
1870,80,-0.583089,-14.530871,0.999995,0.000273,-0.003349,0.008893,-0.002125,0.009252,-0.003707,-80.427048,0.009312,
620,750,2.565891,-9.494453,0.999997,0.000195,-0.003698,0.007374,0.000359,0.007386,-0.003710,88.145169,0.007386,
1230,650,0.003923,-12.013457,0.999998,0.000150,-0.001661,0.003909,-0.000031,0.003909,-0.001661,-89.681279,0.003924,
1190,1920,0.022997,-0.534689,0.999998,0.000163,-0.000508,0.004808,-0.000058,0.004809,-0.000509,-89.379073,0.005283,
1510,1430,-0.837482,-3.827043,0.999997,0.000220,-0.004306,0.007762,-0.001088,0.007860,-0.004403,-84.890180,0.007879,
1600,240,-0.557369,-13.827222,0.999997,0.000209,-0.002393,0.006592,-0.000521,0.006622,-0.002423,-86.691911,0.006701,
1420,830,-0.811126,-10.020759,0.999993,0.000314,-0.005859,0.009234,0.001984,0.009491,-0.006115,82.633396,0.009622,
1400,410,-0.321776,-13.033524,0.999997,0.000198,-0.002344,0.005927,0.000527,0.005961,-0.002378,86.371387,0.006001,
1430,1290,-0.664904,-4.590393,0.999996,0.000247,-0.005435,0.008548,-0.002156,0.008873,-0.005759,-81.430818,0.009004,
1810,950,-2.889854,-8.095239,0.999998,0.000181,-0.003317,0.006968,-0.000412,0.006985,-0.003333,-87.712304,0.006987,
780,220,0.708608,-13.855352,0.999997,0.000199,-0.002809,0.006947,0.000792,0.007011,-0.002873,85.388983,0.007049,
1900,940,-3.165028,-8.091305,0.999998,0.000000,-0.003145,0.006304,-0.000075,0.006305,-0.003146,-89.544435,0.006305,
1110,200,0.112406,-14.244768,0.999999,0.000137,-0.000987,0.005215,0.000154,0.005219,-0.000990,88.574449,0.005544,
1640,1180,-2.122907,-6.343296,0.999997,0.000212,-0.004022,0.008398,0.001016,0.008480,-0.004105,85.353879,0.008482,
1280,1240,-0.143059,-3.680684,0.999996,0.000232,-0.002955,0.002291,-0.001769,0.002832,-0.003496,-72.998484,0.003713,
1040,1790,0.252754,-1.264907,0.999998,0.000188,-0.001710,0.005644,-0.000039,0.005644,-0.001710,-89.699175,0.005788,
1850,220,-1.249089,-13.493746,0.999997,0.000186,-0.003645,0.007597,-0.000264,0.007604,-0.003652,-88.654462,0.007605,
1030,570,0.492222,-11.955996,0.999997,0.000214,-0.003319,0.006594,-0.001290,0.006759,-0.003484,-82.705850,0.006760,
1850,1490,-2.126982,-4.236261,0.999998,0.000178,-0.003808,0.007626,-0.000006,0.007626,-0.003808,-89.967586,0.007626,
1470,1630,-0.507273,-2.301888,0.999997,0.000210,-0.002821,0.006483,-0.000559,0.006516,-0.002854,-86.576452,0.006533,
1730,250,-0.934813,-13.567066,0.999998,0.000176,-0.003086,0.007450,-0.000652,0.007490,-0.003126,-86.471559,0.007524,
1180,440,0.093931,-12.995193,0.999999,0.000159,-0.001805,0.005308,-0.000177,0.005312,-0.001810,-88.577920,0.005401,
590,610,2.323336,-10.484856,0.999996,0.000245,-0.003726,0.007634,0.000098,0.007635,-0.003727,89.503761,0.007636,
1540,1430,-0.968160,-3.924990,0.999997,0.000199,-0.004402,0.007961,-0.000839,0.008017,-0.004459,-86.135903,0.008034,
900,1320,1.308130,-4.939690,0.999997,0.000233,-0.005178,0.008888,0.000198,0.008891,-0.005181,89.194818,0.008931,
1110,1320,0.273096,-3.855619,0.999997,0.000255,-0.003585,0.005705,0.002840,0.006504,-0.004384,74.279663,0.006634,
980,1590,0.581841,-2.595577,0.999998,0.000175,-0.003011,0.006656,0.000655,0.006700,-0.003055,86.140379,0.006709,
780,770,1.983835,-9.601961,0.999998,0.000173,-0.004361,0.008280,0.000676,0.008316,-0.004397,86.948366,0.008321,
600,750,2.638056,-9.453822,0.999997,0.000213,-0.003673,0.007338,0.000263,0.007344,-0.003679,88.633863,0.007344,
1230,630,0.000784,-12.092470,0.999998,0.000164,-0.001730,0.004196,-0.000037,0.004196,-0.001730,-89.638488,0.004217,
1120,1920,0.062182,-0.543764,0.999999,0.000133,-0.000647,0.004871,-0.000168,0.004876,-0.000653,-88.262420,0.005294,
1030,30,0.015250,-15.069025,0.999999,0.000000,-0.000047,0.004664,0.000403,0.004698,-0.000081,85.144417,0.005379,
1410,260,-0.227161,-13.893610,0.999998,0.000171,-0.001634,0.005547,-0.000036,0.005547,-0.001634,-89.714553,0.005701,
1630,280,-0.723441,-13.517012,0.999997,0.000201,-0.002603,0.006951,-0.000440,0.006971,-0.002623,-87.367680,0.007042,
730,1920,0.513343,-0.724053,0.999998,0.000191,-0.002179,0.006856,-0.001620,0.007138,-0.002460,-80.135765,0.007252,
1400,390,-0.308987,-13.152266,0.999998,0.000183,-0.002243,0.005903,0.000453,0.005928,-0.002268,86.823888,0.005982,
1400,920,-1.231129,-9.366287,0.999992,0.000320,-0.004124,0.010186,0.004420,0.011441,-0.005379,74.147545,0.011448,
1770,1380,-2.085538,-4.911416,0.999998,0.000187,-0.004038,0.007836,0.000293,0.007843,-0.004046,88.587577,0.007845,
770,300,0.961661,-13.260428,0.999998,0.000181,-0.003207,0.007282,0.000278,0.007289,-0.003214,88.480172,0.007306,
1330,1920,-0.053220,-0.539134,0.999998,0.000159,-0.000652,0.004871,0.000140,0.004875,-0.000655,88.544238,0.005291,
650,1020,2.948057,-7.612946,0.999998,0.000154,-0.003253,0.006956,0.000127,0.006958,-0.003254,89.286878,0.006963,
1430,1270,-0.714845,-4.767011,0.999996,0.000235,-0.005671,0.008820,-0.002088,0.009115,-0.005966,-81.960663,0.009259,
1070,1870,0.137110,-0.808377,0.999998,0.000166,-0.000975,0.005218,-0.000258,0.005228,-0.000986,-87.616366,0.005556,
860,1120,2.162521,-6.813724,0.999997,0.000219,-0.003480,0.008346,-0.000990,0.008429,-0.003562,-85.247837,0.008462,
680,1530,1.782373,-3.769821,0.999997,0.000186,-0.003876,0.007701,0.000082,0.007702,-0.003877,89.594332,0.007702,
1380,1780,-0.195153,-1.287361,0.999998,0.000192,-0.001352,0.005517,0.000092,0.005518,-0.001353,89.233695,0.005752,
1590,1240,-1.698736,-5.739345,0.999997,0.000250,-0.004885,0.009035,0.000681,0.009068,-0.004919,87.205474,0.009079,
1090,200,0.130072,-14.237924,0.999998,0.000167,-0.000938,0.005285,0.000220,0.005292,-0.000946,87.976770,0.005645,
1900,930,-3.152567,-8.157657,0.999998,0.000000,-0.003188,0.006370,-0.000164,0.006373,-0.003191,-89.018440,0.006373,
1810,1820,-1.159053,-1.620895,0.999997,0.000211,-0.003487,0.007671,0.000542,0.007697,-0.003513,87.226691,0.007707,
960,450,0.626907,-12.583471,0.999998,0.000199,-0.002985,0.006756,-0.000557,0.006788,-0.003017,-86.740614,0.006802,
1150,460,0.153698,-12.866074,0.999998,0.000201,-0.002067,0.005429,-0.000500,0.005462,-0.002100,-86.197447,0.005510,
610,710,2.498624,-9.771076,0.999996,0.000232,-0.003754,0.007492,0.000230,0.007497,-0.003758,88.829778,0.007497,
1420,850,-0.906546,-9.832090,0.999994,0.000299,-0.005637,0.009587,0.001887,0.009818,-0.005868,83.039561,0.009880,
1640,1160,-2.181885,-6.508013,0.999997,0.000225,-0.003823,0.008239,0.000993,0.008321,-0.003904,85.323989,0.008326,
590,1790,1.489612,-2.034701,0.999996,0.000236,-0.003973,0.007396,-0.000076,0.007397,-0.003974,-89.619259,0.007403,
1680,1720,-0.999364,-2.088899,0.999998,0.000185,-0.003298,0.007367,0.000088,0.007368,-0.003298,89.528689,0.007381,
730,1830,0.863024,-1.370216,0.999997,0.000211,-0.003004,0.007372,-0.000804,0.007434,-0.003066,-85.594228,0.007472,
1330,1810,-0.111945,-1.099161,0.999998,0.000157,-0.001275,0.005244,-0.000006,0.005244,-0.001275,-89.950134,0.005470,
940,1760,0.489109,-1.555282,0.999997,0.000201,-0.002260,0.006331,-0.000113,0.006333,-0.002262,-89.247117,0.006418,
760,1570,1.388464,-3.267650,0.999997,0.000200,-0.003847,0.007654,0.000225,0.007658,-0.003851,88.881787,0.007658,
590,620,2.345917,-10.408365,0.999996,0.000241,-0.003821,0.007632,0.000145,0.007634,-0.003822,89.276674,0.007634,
1030,550,0.483748,-12.087276,0.999997,0.000208,-0.003238,0.006563,-0.001193,0.006706,-0.003381,-83.161227,0.006706,
900,1300,1.365611,-5.120277,0.999996,0.000247,-0.005216,0.009044,0.000050,0.009044,-0.005216,89.798126,0.009080,
1180,420,0.091417,-13.102185,0.999998,0.000166,-0.001752,0.005325,-0.000136,0.005327,-0.001754,-88.899993,0.005430,
1470,1590,-0.543569,-2.564487,0.999996,0.000234,-0.002992,0.006619,-0.000723,0.006673,-0.003046,-85.720751,0.006681,
650,520,1.886568,-11.315791,0.999997,0.000214,-0.003847,0.007682,-0.000084,0.007682,-0.003847,-89.582990,0.007682,
1810,930,-2.857614,-8.239334,0.999997,0.000194,-0.003372,0.007076,-0.000508,0.007100,-0.003397,-87.222218,0.007103,
770,1410,1.689201,-4.507458,0.999996,0.000223,-0.004315,0.008101,-0.000089,0.008102,-0.004315,-89.588480,0.008108,
1800,1310,-2.390720,-5.511448,0.999996,0.000247,-0.003844,0.007632,0.000481,0.007652,-0.003864,87.604243,0.007652,
1850,1470,-2.175078,-4.388477,0.999997,0.000188,-0.003836,0.007683,0.000038,0.007684,-0.003836,89.811165,0.007684,
1510,1410,-0.863845,-3.981390,0.999997,0.000215,-0.004468,0.007910,-0.001106,0.008009,-0.004566,-84.932591,0.008035,
1730,230,-0.871755,-13.716638,0.999997,0.000183,-0.002981,0.007358,-0.000803,0.007420,-0.003043,-85.584945,0.007460,
1600,220,-0.510005,-13.958614,0.999997,0.000203,-0.002232,0.006409,-0.000617,0.006453,-0.002275,-85.939064,0.006545,
1090,260,0.176358,-13.915977,0.999998,0.000186,-0.001286,0.005390,0.000074,0.005391,-0.001287,89.369058,0.005631,
710,1940,0.473466,-0.614275,0.999996,0.000247,-0.002596,0.006974,-0.001720,0.007274,-0.002896,-80.115324,0.007324,
1120,1900,0.076190,-0.640107,0.999999,0.000131,-0.000776,0.005010,-0.000173,0.005015,-0.000781,-88.284066,0.005397,
780,2020,0.068495,-0.091017,0.999998,0.000000,-0.000534,0.005395,-0.001482,0.005745,-0.000884,-76.720630,0.006186,
1020,1790,0.288985,-1.283061,0.999998,0.000192,-0.001655,0.005753,-0.000107,0.005754,-0.001656,-89.170271,0.005925,
1230,610,0.002190,-12.181593,0.999998,0.000158,-0.001770,0.004411,-0.000062,0.004412,-0.001771,-89.425929,0.004440,
970,840,1.284658,-9.450936,0.999996,0.000274,-0.005704,0.010017,-0.000116,0.010018,-0.005705,-89.578900,0.010050,
1390,920,-1.194785,-9.534560,0.999989,0.000367,-0.003372,0.009618,0.005227,0.011460,-0.005214,70.586896,0.011475,
1810,520,-1.875442,-11.321960,0.999997,0.000183,-0.003830,0.007670,0.000075,0.007670,-0.003830,89.624986,0.007670,
1610,280,-0.670074,-13.546780,0.999997,0.000224,-0.002675,0.006865,-0.000351,0.006878,-0.002688,-87.897263,0.006933,
1900,920,-3.136160,-8.220682,0.999998,0.000000,-0.003221,0.006413,-0.000212,0.006418,-0.003225,-88.741299,0.006418,
1380,390,-0.267081,-13.180744,0.999998,0.000167,-0.001960,0.005784,0.000313,0.005797,-0.001972,87.691372,0.005895,
1170,1920,0.034579,-0.536348,0.999998,0.000173,-0.000481,0.004822,-0.000122,0.004825,-0.000484,-88.686132,0.005314,
1790,1820,-1.091449,-1.575001,0.999996,0.000224,-0.003445,0.007620,0.000588,0.007651,-0.003476,86.968994,0.007661,
1430,1250,-0.775308,-4.946769,0.999996,0.000252,-0.005834,0.009043,-0.001939,0.009292,-0.006082,-82.693669,0.009439,
960,470,0.645309,-12.448264,0.999997,0.000215,-0.003148,0.006857,-0.000648,0.006899,-0.003190,-86.307752,0.006905,
610,690,2.446035,-9.922360,0.999996,0.000224,-0.003782,0.007546,0.000215,0.007550,-0.003786,88.914326,0.007550,
1010,1060,1.824181,-7.151393,0.999993,0.000330,-0.004240,0.012413,0.000306,0.012418,-0.004245,88.947254,0.012624,
1330,580,-0.199180,-12.192272,0.999998,0.000176,-0.002308,0.005320,0.001086,0.005472,-0.002459,82.056359,0.005481,
1880,390,-1.851322,-12.139705,0.999998,0.000188,-0.003706,0.007392,0.000090,0.007393,-0.003707,89.532847,0.007393,
1070,200,0.149203,-14.229940,0.999998,0.000157,-0.001046,0.005321,0.000245,0.005331,-0.001056,87.795832,0.005645,
1680,1680,-1.087497,-2.383078,0.999998,0.000178,-0.003409,0.007346,-0.000058,0.007346,-0.003409,-89.689076,0.007353,
1070,1850,0.153966,-0.914621,0.999998,0.000173,-0.001104,0.005291,-0.000209,0.005298,-0.001111,-88.126138,0.005588,
1470,1240,-1.045906,-5.300681,0.999994,0.000301,-0.005840,0.009720,-0.000881,0.009770,-0.005890,-86.768126,0.009839,
730,1810,0.927011,-1.521872,0.999997,0.000198,-0.003099,0.007464,-0.000645,0.007503,-0.003138,-86.519865,0.007536,
1720,930,-2.550197,-8.285652,0.999998,0.000196,-0.003428,0.007475,-0.000625,0.007511,-0.003464,-86.727871,0.007519,
1180,400,0.088497,-13.208570,0.999998,0.000165,-0.001716,0.005368,-0.000115,0.005370,-0.001718,-89.073902,0.005485,
900,1280,1.426345,-5.301288,0.999995,0.000254,-0.005217,0.009151,-0.000134,0.009152,-0.005218,-89.467405,0.009182,
780,200,0.649032,-13.993778,0.999997,0.000200,-0.002645,0.006967,0.000950,0.007060,-0.002738,84.411531,0.007119,
1620,1410,-1.366028,-4.330044,0.999995,0.000238,-0.004545,0.008338,-0.000253,0.008343,-0.004550,-88.875507,0.008355,
1030,1340,0.598361,-4.196601,0.999996,0.000251,-0.004786,0.007850,0.002062,0.008178,-0.005114,80.960653,0.008263,
1730,210,-0.802883,-13.863718,0.999997,0.000203,-0.002854,0.007298,-0.000974,0.007391,-0.002947,-84.570869,0.007441,
580,1790,1.525358,-2.065546,0.999996,0.000224,-0.004998,0.007290,0.000069,0.007290,-0.004999,89.680327,0.007456,
1470,1570,-0.557577,-2.698463,0.999996,0.000236,-0.003043,0.006646,-0.000785,0.006710,-0.003106,-85.398716,0.006716,
940,1740,0.514761,-1.678325,0.999998,0.000192,-0.002363,0.006434,-0.000021,0.006434,-0.002363,-89.862582,0.006509,
1700,150,-0.511068,-14.322472,0.999996,0.000237,-0.001995,0.006773,-0.001448,0.007006,-0.002228,-80.861400,0.007159,
1620,1850,-0.516783,-1.087479,0.999997,0.000227,-0.002003,0.006538,0.000854,0.006623,-0.002088,84.345069,0.006772,
1680,1410,-1.633632,-4.478039,0.999996,0.000242,-0.004352,0.008129,0.000039,0.008130,-0.004352,89.818790,0.008136,
1070,1830,0.171525,-1.022010,0.999998,0.000171,-0.001212,0.005370,-0.000167,0.005374,-0.001217,-88.544315,0.005636,
860,1100,2.206200,-6.977266,0.999997,0.000216,-0.003253,0.008137,-0.000831,0.008198,-0.003314,-85.851396,0.008248,
760,1790,0.900593,-1.620772,0.999997,0.000187,-0.003014,0.007262,-0.000544,0.007291,-0.003043,-86.975917,0.007324,
970,820,1.201607,-9.649945,0.999996,0.000227,-0.005755,0.009857,-0.000368,0.009865,-0.005764,-88.650898,0.009912,
1550,1710,-0.625192,-1.918966,0.999996,0.000223,-0.002569,0.006711,0.000029,0.006711,-0.002569,89.820092,0.006773,
1030,530,0.472854,-12.218888,0.999997,0.000214,-0.003145,0.006513,-0.001124,0.006642,-0.003274,-83.449610,0.006643,
1510,1390,-0.895269,-4.144922,0.999997,0.000213,-0.004679,0.008179,-0.001112,0.008274,-0.004775,-85.095281,0.008307,
960,70,0.075753,-14.871453,0.999999,0.000218,-0.000517,0.005037,0.000700,0.005124,-0.000604,82.925463,0.005600,
1250,200,-0.018115,-14.267894,0.999998,0.000186,-0.000930,0.004994,0.000014,0.004994,-0.000930,89.865572,0.005311,
1850,1450,-2.220775,-4.543430,0.999997,0.000212,-0.003810,0.007685,0.000069,0.007685,-0.003810,89.654230,0.007685,
790,260,0.794611,-13.588328,0.999997,0.000208,-0.003071,0.007082,0.000467,0.007104,-0.003092,87.369335,0.007124,
1230,590,0.004481,-12.269226,0.999998,0.000167,-0.001815,0.004559,-0.000031,0.004559,-0.001815,-89.718693,0.004591,
1580,650,-1.195180,-10.863930,0.999997,0.000210,-0.004645,0.008301,0.000491,0.008320,-0.004664,87.829743,0.008340,
1850,1560,-1.972661,-3.699688,0.999997,0.000203,-0.003789,0.007635,-0.000067,0.007635,-0.003789,-89.661816,0.007635,
690,1190,2.602019,-6.380815,0.999997,0.000227,-0.003662,0.007474,-0.000735,0.007522,-0.003710,-86.239865,0.007523,
1560,550,-0.944556,-11.718116,0.999997,0.000203,-0.003935,0.007605,0.000689,0.007646,-0.003976,86.593518,0.007648,
730,1790,0.990501,-1.671470,0.999998,0.000189,-0.003185,0.007444,-0.000518,0.007469,-0.003210,-87.217349,0.007493,
1700,1250,-2.158765,-5.832506,0.999998,0.000184,-0.004117,0.008091,0.000791,0.008143,-0.004168,86.306508,0.008143,
770,760,1.998056,-9.668779,0.999997,0.000207,-0.004317,0.008194,0.000636,0.008226,-0.004349,87.098906,0.008230,
1770,470,-1.612905,-11.806166,0.999996,0.000245,-0.003801,0.007666,0.000140,0.007668,-0.003802,89.301914,0.007668,
1010,1340,0.694463,-4.303460,0.999996,0.000229,-0.004977,0.008202,0.001787,0.008440,-0.005215,82.413511,0.008518,
1330,1770,-0.131528,-1.313545,0.999998,0.000161,-0.001521,0.005395,-0.000089,0.005397,-0.001522,-89.259347,0.005565,
820,540,1.258137,-11.574394,0.999997,0.000187,-0.004016,0.007810,-0.000351,0.007820,-0.004026,-88.300576,0.007821,
780,160,0.513459,-14.264090,0.999997,0.000202,-0.002252,0.006707,0.001268,0.006883,-0.002428,82.099223,0.006982,
1720,1380,-1.878749,-4.810012,0.999997,0.000246,-0.004225,0.008014,0.000293,0.008021,-0.004232,88.628839,0.008025,
1620,1390,-1.411379,-4.496498,0.999997,0.000203,-0.004635,0.008375,-0.000150,0.008377,-0.004636,-89.340060,0.008393,
870,960,2.186720,-8.107690,0.999997,0.000203,-0.003195,0.008229,0.000797,0.008285,-0.003250,86.029114,0.008348,
1180,380,0.086211,-13.318350,0.999998,0.000168,-0.001641,0.005369,-0.000102,0.005371,-0.001643,-89.167580,0.005504,
900,1260,1.495297,-5.487334,0.999995,0.000271,-0.005200,0.009267,-0.000311,0.009273,-0.005207,-88.769410,0.009297,
650,830,2.663850,-8.953874,0.999997,0.000205,-0.003576,0.007226,0.000550,0.007254,-0.003604,87.090391,0.007254,
1400,630,-0.404648,-11.676638,0.999997,0.000196,-0.003447,0.006414,0.001808,0.006735,-0.003768,79.931773,0.006751,
1660,1410,-1.545842,-4.430339,0.999996,0.000228,-0.004425,0.008204,-0.000032,0.008204,-0.004425,-89.854563,0.008212,
1330,600,-0.197543,-12.087126,0.999997,0.000189,-0.002371,0.005259,0.001253,0.005459,-0.002571,80.909710,0.005462,
1870,1690,-1.751137,-2.768615,0.999997,0.000202,-0.003722,0.007388,-0.000058,0.007389,-0.003722,-89.698878,0.007389,
1460,790,-0.903128,-10.113497,0.999996,0.000245,-0.005752,0.009326,0.001339,0.009444,-0.005870,84.963480,0.009537,
940,1720,0.545503,-1.815840,0.999998,0.000192,-0.002411,0.006614,0.000002,0.006614,-0.002411,89.989562,0.006694,
620,1810,1.312434,-1.790927,0.999997,0.000211,-0.003645,0.007520,-0.000163,0.007522,-0.003647,-89.162195,0.007523,
1470,1550,-0.574090,-2.831672,0.999997,0.000223,-0.003147,0.006710,-0.000865,0.006785,-0.003223,-85.021972,0.006788,
960,430,0.607005,-12.717768,0.999997,0.000223,-0.002885,0.006660,-0.000500,0.006686,-0.002911,-87.008772,0.006705,
860,1080,2.249773,-7.139738,0.999997,0.000207,-0.003060,0.008077,-0.000701,0.008121,-0.003104,-86.411306,0.008196,
1450,1080,-1.748550,-6.906736,0.999995,0.000269,-0.004382,0.011886,-0.000532,0.011903,-0.004399,-88.127246,0.012037,
1110,1920,0.069260,-0.545792,0.999998,0.000153,-0.000623,0.004888,-0.000209,0.004896,-0.000631,-87.835320,0.005326,
1110,1980,0.032738,-0.256238,0.999999,0.000137,-0.000288,0.004709,-0.000265,0.004723,-0.000302,-86.969036,0.005287,
1680,1660,-1.125790,-2.529898,0.999998,0.000182,-0.003472,0.007434,-0.000074,0.007434,-0.003473,-89.610632,0.007439,
1080,80,0.042295,-14.837287,0.999998,0.000156,-0.000257,0.004762,0.000351,0.004787,-0.000282,86.020363,0.005372,
870,660,1.276176,-10.741508,0.999996,0.000223,-0.004653,0.008340,-0.000360,0.008350,-0.004663,-88.414990,0.008369,
740,1790,0.959678,-1.654447,0.999998,0.000169,-0.003035,0.007385,-0.000581,0.007417,-0.003067,-86.820255,0.007454,
1230,570,0.002494,-12.361917,0.999998,0.000168,-0.001857,0.004721,-0.000027,0.004721,-0.001857,-89.766038,0.004756,
940,1530,0.773944,-3.112309,0.999997,0.000182,-0.003591,0.007208,0.000769,0.007262,-0.003645,85.948715,0.007262,
750,620,1.715313,-10.767667,0.999996,0.000241,-0.004196,0.007946,0.000029,0.007946,-0.004196,89.865408,0.007951,
1030,200,0.201185,-14.207947,0.999998,0.000183,-0.001277,0.005478,0.000303,0.005491,-0.001290,87.437905,0.005742,
1510,1370,-0.927329,-4.312010,0.999997,0.000202,-0.004891,0.008390,-0.001081,0.008478,-0.004978,-85.376282,0.008521,
1030,510,0.460306,-12.353006,0.999996,0.000231,-0.003043,0.006454,-0.001005,0.006559,-0.003148,-84.027731,0.006560,
990,230,0.290440,-14.016726,0.999998,0.000184,-0.001472,0.005747,0.000336,0.005763,-0.001487,87.344284,0.005983,
1430,370,-0.365028,-13.227774,0.999997,0.000202,-0.002270,0.006089,0.000300,0.006099,-0.002281,87.946690,0.006164,
990,1340,0.796005,-4.402719,0.999996,0.000264,-0.005091,0.008461,0.001506,0.008627,-0.005256,83.736850,0.008695,
1770,1560,-1.666071,-3.507986,0.999998,0.000182,-0.003869,0.007719,-0.000124,0.007721,-0.003870,-89.388843,0.007721,
1560,530,-0.916852,-11.869504,0.999996,0.000219,-0.003831,0.007477,0.000679,0.007518,-0.003872,86.574010,0.007519,
820,520,1.222438,-11.730141,0.999997,0.000182,-0.003941,0.007717,-0.000346,0.007727,-0.003952,-88.300610,0.007728,
1770,450,-1.572075,-11.958270,0.999996,0.000231,-0.003769,0.007607,0.000139,0.007608,-0.003771,89.302422,0.007609,
1850,1430,-2.270518,-4.697209,0.999996,0.000225,-0.003793,0.007625,0.000086,0.007626,-0.003794,89.569719,0.007626,
1810,500,-1.832023,-11.476458,0.999998,0.000159,-0.003812,0.007670,0.000094,0.007671,-0.003813,89.533110,0.007671,
770,340,1.053384,-12.969261,0.999998,0.000166,-0.003273,0.007372,0.000103,0.007373,-0.003274,89.445173,0.007389,
730,1770,1.046893,-1.821239,0.999997,0.000192,-0.003278,0.007485,-0.000383,0.007498,-0.003292,-87.962398,0.007517,
690,1280,2.366418,-5.697257,0.999998,0.000205,-0.003906,0.007661,-0.000621,0.007694,-0.003940,-86.933734,0.007695,
1360,70,-0.029623,-14.886900,0.999999,0.000119,-0.000226,0.004672,-0.000272,0.004687,-0.000241,-86.836202,0.005279,
620,1790,1.379850,-1.944816,0.999997,0.000221,-0.003636,0.007552,-0.000140,0.007554,-0.003638,-89.281145,0.007555,
930,1460,0.895770,-3.668733,0.999997,0.000215,-0.004159,0.007704,0.000880,0.007769,-0.004224,85.778131,0.007779,
940,1700,0.575735,-1.945448,0.999997,0.000200,-0.002513,0.006483,0.000109,0.006484,-0.002514,89.302745,0.006538,
1470,1530,-0.586512,-2.964767,0.999997,0.000224,-0.003310,0.006804,-0.000955,0.006894,-0.003399,-84.651457,0.006894,
1730,190,-0.729499,-14.011265,0.999996,0.000228,-0.002660,0.007231,-0.001156,0.007364,-0.002793,-83.421081,0.007435,
650,810,2.614551,-9.098086,0.999997,0.000210,-0.003645,0.007388,0.000576,0.007418,-0.003675,87.021869,0.007418,
780,140,0.440400,-14.402779,0.999997,0.000207,-0.001996,0.006515,0.001334,0.006719,-0.002200,81.299058,0.006851,
1460,770,-0.844957,-10.301332,0.999996,0.000270,-0.005598,0.009048,0.001472,0.009195,-0.005745,84.318126,0.009290,
1850,1740,-1.552172,-2.339513,0.999997,0.000224,-0.003676,0.007515,-0.000015,0.007515,-0.003676,-89.923835,0.007515,
1400,670,-0.416827,-11.418658,0.999995,0.000254,-0.003799,0.006649,0.002091,0.007052,-0.004202,79.093406,0.007095,
1180,360,0.081964,-13.424621,0.999999,0.000135,-0.001577,0.005339,-0.000090,0.005340,-0.001578,-89.256577,0.005487,
1330,1750,-0.138996,-1.421369,0.999998,0.000147,-0.001616,0.005405,-0.000154,0.005408,-0.001620,-88.746621,0.005551,
610,1700,1.663447,-2.647454,0.999996,0.000237,-0.003649,0.007485,0.000071,0.007485,-0.003650,89.636911,0.007486,
870,680,1.320099,-10.572463,0.999997,0.000208,-0.004783,0.008516,-0.000295,0.008522,-0.004790,-88.731589,0.008544,
1560,500,-0.873661,-12.094920,0.999997,0.000214,-0.003608,0.007321,0.000598,0.007354,-0.003640,86.876019,0.007354,
860,1060,2.276783,-7.299280,0.999997,0.000207,-0.002925,0.007942,-0.000399,0.007957,-0.002939,-87.902008,0.008047,
1670,1440,-1.521728,-4.208413,0.999995,0.000245,-0.004302,0.008071,-0.000100,0.008072,-0.004303,-89.537896,0.008078,
1470,1980,-0.068265,-0.268051,0.999998,0.000191,-0.000300,0.004984,0.000620,0.005056,-0.000372,83.392209,0.005636,
1020,330,0.357972,-13.449496,0.999997,0.000185,-0.002057,0.006041,-0.000113,0.006043,-0.002059,-89.198679,0.006144,
750,600,1.669854,-10.927213,0.999997,0.000199,-0.004140,0.007937,-0.000022,0.007937,-0.004140,-89.894180,0.007940,
1730,1760,-1.064579,-1.892673,0.999998,0.000174,-0.003271,0.007450,0.000340,0.007461,-0.003282,88.184617,0.007479,
960,1530,0.701759,-3.058088,0.999998,0.000195,-0.003607,0.007107,0.000871,0.007177,-0.003678,85.381209,0.007178,
900,1240,1.562488,-5.672294,0.999995,0.000260,-0.005130,0.009316,-0.000500,0.009333,-0.005147,-88.019596,0.009350,
1090,560,0.307400,-12.193808,0.999998,0.000189,-0.002755,0.005821,-0.001280,0.006008,-0.002942,-81.687076,0.006009,
1510,1350,-0.963739,-4.481744,0.999997,0.000212,-0.005081,0.008617,-0.001017,0.008692,-0.005156,-85.778368,0.008742,
1030,490,0.448537,-12.481998,0.999997,0.000217,-0.002891,0.006395,-0.000862,0.006475,-0.002970,-84.742053,0.006482,
1230,550,0.003126,-12.455828,0.999998,0.000160,-0.001894,0.004884,-0.000039,0.004884,-0.001894,-89.668106,0.004925,
1750,1560,-1.590409,-3.459970,0.999997,0.000222,-0.003839,0.007719,-0.000145,0.007721,-0.003841,-89.279616,0.007721,
830,480,1.112860,-12.059582,0.999998,0.000154,-0.003713,0.007484,-0.000357,0.007496,-0.003724,-88.177469,0.007496,
990,210,0.262369,-14.129736,0.999998,0.000164,-0.001341,0.005657,0.000405,0.005680,-0.001364,86.701038,0.005930,
1770,430,-1.528939,-12.111317,0.999996,0.000218,-0.003734,0.007594,0.000131,0.007596,-0.003735,89.337360,0.007596,
1320,1310,-0.172546,-3.703321,0.999997,0.000224,-0.002840,0.004464,-0.002711,0.005360,-0.003736,-71.705983,0.005497,
1680,1640,-1.165894,-2.680693,0.999998,0.000192,-0.003554,0.007492,-0.000132,0.007494,-0.003555,-89.316896,0.007497,
1710,1120,-2.524360,-6.866877,0.999996,0.000234,-0.003414,0.007532,0.000642,0.007569,-0.003451,86.654018,0.007579,
1080,320,0.231874,-13.577202,0.999998,0.000174,-0.001624,0.005690,-0.000074,0.005691,-0.001624,-89.420107,0.005863,
1810,480,-1.788348,-11.630557,0.999997,0.000217,-0.003802,0.007679,0.000105,0.007680,-0.003803,89.477687,0.007680,
820,500,1.186742,-11.886094,0.999998,0.000167,-0.003869,0.007619,-0.000332,0.007629,-0.003879,-88.344739,0.007629,
730,1750,1.102272,-1.971815,0.999997,0.000226,-0.003364,0.007433,-0.000257,0.007439,-0.003370,-88.638673,0.007450,
1590,380,-0.802207,-12.885366,0.999996,0.000230,-0.003158,0.007007,0.000181,0.007010,-0.003161,88.980069,0.007021,
1850,670,-2.383594,-10.080763,0.999996,0.000216,-0.003807,0.007546,-0.000200,0.007549,-0.003811,-88.989016,0.007550,
1650,320,-0.867785,-13.202883,0.999997,0.000193,-0.003099,0.007153,-0.000152,0.007155,-0.003101,-89.151162,0.007176,
1430,1230,-0.851420,-5.128921,0.999996,0.000237,-0.005908,0.009378,-0.001755,0.009577,-0.006107,-83.535081,0.009697,
710,1280,2.288998,-5.667533,0.999998,0.000210,-0.003940,0.007806,-0.000654,0.007843,-0.003976,-86.824760,0.007843,
650,790,2.562046,-9.248762,0.999997,0.000209,-0.003729,0.007496,0.000563,0.007524,-0.003757,87.135255,0.007524,
1240,1450,-0.015252,-2.922850,0.999998,0.000160,-0.001789,0.004438,-0.000218,0.004446,-0.001796,-87.993920,0.004473,
1730,150,-0.570537,-14.297243,0.999997,0.000222,-0.002224,0.007004,-0.001506,0.007244,-0.002464,-80.964124,0.007366,
1470,1510,-0.600109,-3.101848,0.999997,0.000224,-0.003498,0.006892,-0.001071,0.007001,-0.003608,-84.174851,0.007002,
1180,340,0.079782,-13.530867,0.999999,0.000142,-0.001490,0.005335,-0.000054,0.005335,-0.001490,-89.546563,0.005506,
940,1680,0.599709,-2.074489,0.999996,0.000223,-0.002657,0.006552,0.000207,0.006557,-0.002662,88.713669,0.006595,
1290,1920,-0.033252,-0.536387,0.999998,0.000139,-0.000483,0.004802,0.000114,0.004805,-0.000486,88.760819,0.005290,
600,1790,1.451386,-2.004829,0.999995,0.000263,-0.003649,0.007428,-0.000107,0.007429,-0.003650,-89.448940,0.007429,
610,1720,1.613368,-2.497147,0.999998,0.000207,-0.003633,0.007478,0.000105,0.007479,-0.003634,89.456165,0.007480,
780,120,0.373419,-14.525746,0.999997,0.000215,-0.001671,0.006400,0.001551,0.006687,-0.001959,79.489553,0.006876,
1810,910,-2.823454,-8.380551,0.999997,0.000179,-0.003378,0.007028,-0.000460,0.007048,-0.003398,-87.475766,0.007050,
1440,790,-0.786856,-10.243332,0.999996,0.000250,-0.005719,0.009087,0.001857,0.009316,-0.005949,82.959265,0.009435,
1000,650,0.660253,-11.281546,0.999996,0.000239,-0.004304,0.007553,-0.001538,0.007749,-0.004501,-82.726797,0.007783,
680,1850,0.959541,-1.332436,0.999997,0.000225,-0.003342,0.007623,-0.000837,0.007686,-0.003405,-85.659286,0.007703,
1690,220,-0.727988,-13.847156,0.999997,0.000199,-0.002775,0.007009,-0.000827,0.007079,-0.002844,-85.203050,0.007124,
650,540,1.930874,-11.161558,0.999997,0.000192,-0.003839,0.007663,-0.000061,0.007663,-0.003840,-89.695295,0.007663,
950,1980,0.091696,-0.275528,0.999998,0.000138,-0.000541,0.005115,-0.000742,0.005211,-0.000637,-82.649891,0.005685,
1090,500,0.293688,-12.548398,0.999997,0.000183,-0.002550,0.005865,-0.000912,0.005962,-0.002648,-83.888067,0.005975,
770,2020,0.073681,-0.092140,0.999998,0.000000,-0.000303,0.005480,-0.001619,0.005902,-0.000725,-75.375169,0.006438,
1020,70,0.054428,-14.878643,0.999998,0.000174,-0.000326,0.004875,0.000534,0.004929,-0.000381,84.194526,0.005485,
860,1040,2.291393,-7.458038,0.999997,0.000229,-0.002840,0.007970,-0.000226,0.007975,-0.002844,-88.801032,0.008084,
900,1220,1.639485,-5.860443,0.999996,0.000236,-0.005020,0.009282,-0.000704,0.009317,-0.005055,-87.188536,0.009328,
640,390,1.637823,-12.284795,0.999997,0.000204,-0.003715,0.007574,-0.000091,0.007575,-0.003716,-89.536184,0.007575,
1000,1530,0.564407,-2.947278,0.999996,0.000217,-0.003190,0.006704,0.000956,0.006796,-0.003282,84.533535,0.006797,
1680,990,-2.501819,-7.844064,0.999997,0.000210,-0.003169,0.007506,-0.000291,0.007514,-0.003177,-88.442189,0.007544,
1670,1760,-0.875662,-1.778273,0.999998,0.000174,-0.003200,0.007165,0.000263,0.007172,-0.003207,88.544782,0.007185,
1400,650,-0.410619,-11.549539,0.999997,0.000203,-0.003589,0.006542,0.001940,0.006901,-0.003948,79.520821,0.006924,
1330,1730,-0.147629,-1.529923,0.999998,0.000175,-0.001691,0.005475,-0.000199,0.005480,-0.001697,-88.410468,0.005611,
1510,1330,-1.006594,-4.656367,0.999997,0.000211,-0.005241,0.008794,-0.000932,0.008855,-0.005302,-86.218206,0.008913,
1560,460,-0.823774,-12.382864,0.999997,0.000217,-0.003349,0.007139,0.000464,0.007159,-0.003369,87.469143,0.007163,
990,190,0.233174,-14.242248,0.999998,0.000169,-0.001167,0.005567,0.000451,0.005597,-0.001197,86.183827,0.005895,
1030,470,0.435435,-12.610253,0.999997,0.000203,-0.002727,0.006324,-0.000727,0.006382,-0.002785,-85.435259,0.006399,
1650,340,-0.909705,-13.058331,0.999997,0.000179,-0.003262,0.007212,-0.000081,0.007213,-0.003262,-89.558902,0.007224,
1690,1120,-2.455855,-6.857859,0.999997,0.000205,-0.003429,0.007612,0.000691,0.007656,-0.003472,86.431248,0.007667,
1750,1380,-2.003133,-4.871744,0.999998,0.000201,-0.004076,0.007909,0.000276,0.007915,-0.004082,88.683236,0.007916,
1680,1620,-1.203973,-2.831167,0.999998,0.000186,-0.003665,0.007515,-0.000201,0.007519,-0.003668,-88.970813,0.007520,
870,1340,1.406147,-4.851043,0.999997,0.000204,-0.004931,0.008675,0.000077,0.008676,-0.004932,89.677215,0.008703,
1670,1460,-1.477754,-4.048918,0.999994,0.000267,-0.004225,0.007933,-0.000154,0.007935,-0.004227,-89.275401,0.007941,
1770,410,-1.485112,-12.264472,0.999995,0.000250,-0.003714,0.007583,0.000101,0.007584,-0.003715,89.489282,0.007585,
1900,910,-3.118149,-8.283355,0.999998,0.000000,-0.003234,0.006376,-0.000214,0.006381,-0.003238,-88.727009,0.006381,
830,500,1.147218,-11.910507,0.999997,0.000176,-0.003847,0.007590,-0.000362,0.007601,-0.003859,-88.189581,0.007601,
690,1170,2.650589,-6.530623,0.999997,0.000205,-0.003585,0.007427,-0.000693,0.007471,-0.003628,-86.414863,0.007472,
1750,1540,-1.631370,-3.614009,0.999996,0.000229,-0.003905,0.007699,-0.000143,0.007701,-0.003907,-89.293762,0.007701,
1230,530,0.003529,-12.556280,0.999998,0.000159,-0.001898,0.004978,-0.000043,0.004978,-0.001898,-89.644958,0.005025,
730,990,2.669885,-7.835763,0.999997,0.000187,-0.003243,0.007252,0.000244,0.007257,-0.003249,88.668477,0.007271,
1070,1290,0.473519,-4.330391,0.999996,0.000241,-0.004873,0.007511,0.002846,0.008134,-0.005496,77.656051,0.008300,
1380,740,-0.382919,-11.056534,0.999997,0.000232,-0.004262,0.006680,0.002819,0.007364,-0.004945,76.367653,0.007507,
570,1280,2.814957,-5.916397,0.999971,0.000694,-0.003876,0.007162,-0.000166,0.007165,-0.003879,-89.140610,0.007173,
1810,890,-2.790813,-8.520017,0.999997,0.000196,-0.003450,0.007102,-0.000504,0.007126,-0.003474,-87.272615,0.007126,
880,1690,0.754728,-2.113613,0.999996,0.000238,-0.003142,0.006889,0.000150,0.006891,-0.003144,89.141418,0.006900,
610,670,2.394560,-10.074167,0.999996,0.000225,-0.003788,0.007538,0.000197,0.007541,-0.003791,89.002658,0.007541,
1580,1690,-0.745820,-2.107757,0.999996,0.000227,-0.003128,0.006870,-0.000160,0.006872,-0.003130,-89.081265,0.006881,
640,30,0.085907,-15.038201,0.999996,0.000000,-0.001963,0.006498,0.002531,0.007197,-0.002663,74.556199,0.007277,
650,770,2.507663,-9.400024,0.999997,0.000206,-0.003754,0.007480,0.000534,0.007505,-0.003780,87.282385,0.007505,
590,730,2.623954,-9.579901,0.999996,0.000238,-0.003854,0.007420,0.000208,0.007424,-0.003858,88.941581,0.007425,
780,100,0.291175,-14.660550,0.999997,0.000207,-0.001355,0.006133,0.001583,0.006454,-0.001676,78.539439,0.006698,
1680,230,-0.730065,-13.791477,0.999997,0.000218,-0.002884,0.007051,-0.000719,0.007103,-0.002936,-85.882178,0.007139,
820,480,1.149458,-12.035932,0.999997,0.000173,-0.003749,0.007520,-0.000341,0.007530,-0.003759,-88.269636,0.007530,
940,1660,0.625283,-2.207867,0.999997,0.000217,-0.002769,0.006632,0.000282,0.006640,-0.002777,88.284549,0.006670,
980,670,0.774149,-11.041863,0.999997,0.000184,-0.004650,0.007980,-0.001371,0.008127,-0.004797,-83.876644,0.008171,
1730,130,-0.486195,-14.434552,0.999997,0.000218,-0.001994,0.006828,-0.001697,0.007143,-0.002309,-79.481025,0.007290,
1810,460,-1.744405,-11.785613,0.999997,0.000210,-0.003802,0.007631,0.000137,0.007633,-0.003804,89.314722,0.007633,
970,1980,0.080082,-0.271223,0.999999,0.000124,-0.000513,0.005040,-0.000665,0.005119,-0.000591,-83.268637,0.005601,
1170,1530,0.117161,-2.575371,0.999998,0.000178,-0.002061,0.005180,0.000549,0.005222,-0.002103,85.688515,0.005254,
960,770,1.084846,-10.087506,0.999995,0.000252,-0.005544,0.009255,-0.000701,0.009288,-0.005577,-87.292258,0.009350,
1120,1790,0.138612,-1.211032,0.999998,0.000153,-0.001409,0.005356,0.000033,0.005356,-0.001409,89.717573,0.005553,
860,1020,2.296297,-7.621230,0.999997,0.000227,-0.002833,0.007995,0.000135,0.007996,-0.002835,89.284720,0.008108,
1260,1450,-0.051764,-2.938026,0.999998,0.000155,-0.001830,0.004498,-0.000443,0.004529,-0.001860,-86.017414,0.004553,
1850,1410,-2.320822,-4.851337,0.999996,0.000228,-0.003803,0.007583,0.000150,0.007585,-0.003805,89.244905,0.007585,
1270,1920,-0.022629,-0.534372,0.999998,0.000137,-0.000553,0.004780,0.000052,0.004781,-0.000553,89.437151,0.005230,
660,1850,1.024813,-1.374197,0.999997,0.000181,-0.003293,0.007730,-0.000861,0.007797,-0.003360,-85.560988,0.007822,
1410,140,-0.109249,-14.537135,0.999998,0.000172,-0.000844,0.005092,-0.000310,0.005108,-0.000860,-87.014261,0.005470,
1330,680,-0.194008,-11.674401,0.999997,0.000194,-0.002683,0.004980,0.002077,0.005507,-0.003210,75.772631,0.005532,
1770,390,-1.443351,-12.413629,0.999996,0.000230,-0.003684,0.007593,0.000071,0.007593,-0.003684,89.639492,0.007594,
1230,510,0.003702,-12.655697,0.999998,0.000153,-0.001899,0.005042,-0.000030,0.005042,-0.001899,-89.756160,0.005093,
900,1200,1.715714,-6.044486,0.999996,0.000226,-0.004805,0.009251,-0.000868,0.009304,-0.004858,-86.480073,0.009307,
1870,1310,-2.652217,-5.644373,0.999997,0.000220,-0.003645,0.007324,0.000220,0.007328,-0.003650,88.850574,0.007328,
1890,1440,-2.397184,-4.713717,0.999995,0.000277,-0.003804,0.007619,0.000046,0.007619,-0.003804,89.767757,0.007619,
730,1730,1.151242,-2.121012,0.999997,0.000185,-0.003463,0.007460,-0.000118,0.007461,-0.003464,-89.382150,0.007468,
690,1150,2.690754,-6.676549,0.999997,0.000186,-0.003487,0.007288,-0.000568,0.007318,-0.003517,-86.990009,0.007320,
830,340,0.856139,-13.089842,0.999998,0.000191,-0.002980,0.007115,0.000125,0.007117,-0.002981,89.289908,0.007148,
1360,1570,-0.257318,-2.458912,0.999998,0.000164,-0.002293,0.005761,-0.000731,0.005827,-0.002359,-84.854983,0.005862,
850,900,2.094106,-8.594509,0.999998,0.000186,-0.003846,0.008433,0.001048,0.008522,-0.003935,85.157203,0.008530,
830,1660,0.963950,-2.426487,0.999998,0.000164,-0.003331,0.007260,0.000184,0.007264,-0.003334,89.004036,0.007272,
1120,70,0.025499,-14.887789,0.999999,0.000132,-0.000260,0.004644,0.000247,0.004656,-0.000272,87.128067,0.005227,
1600,200,-0.463063,-14.083631,0.999997,0.000228,-0.002095,0.006352,-0.000775,0.006422,-0.002165,-84.802568,0.006535,
1210,260,0.026002,-13.961947,0.999998,0.000164,-0.001207,0.005168,-0.000049,0.005169,-0.001207,-89.555861,0.005408,
640,1790,1.306325,-1.884575,0.999995,0.000247,-0.003607,0.007609,-0.000266,0.007616,-0.003613,-88.639867,0.007619,
1430,1190,-1.034812,-5.533563,0.999996,0.000242,-0.005529,0.010208,-0.001525,0.010354,-0.005676,-84.514092,0.010370,
1070,1250,0.566137,-4.643017,0.999995,0.000269,-0.005443,0.008143,0.002858,0.008720,-0.006020,78.589783,0.008928,
1010,1280,0.817828,-4.823168,0.999996,0.000241,-0.005676,0.009026,0.001597,0.009198,-0.005847,83.871918,0.009310,
940,1640,0.647596,-2.340491,0.999997,0.000213,-0.002885,0.006741,0.000368,0.006755,-0.002899,87.814544,0.006778,
780,80,0.226586,-14.774610,0.999998,0.000178,-0.001049,0.005872,0.001592,0.006220,-0.001398,77.644861,0.006527,
820,460,1.116066,-12.186878,0.999998,0.000170,-0.003629,0.007509,-0.000275,0.007515,-0.003636,-88.587909,0.007517,
580,730,2.660361,-9.556792,0.999996,0.000241,-0.004328,0.007712,0.000330,0.007721,-0.004337,88.430494,0.007740,
1730,110,-0.393100,-14.572317,0.999997,0.000224,-0.001676,0.006619,-0.001823,0.007002,-0.002059,-78.137205,0.007197,
1470,1490,-0.617056,-3.243823,0.999997,0.000222,-0.003661,0.007036,-0.001189,0.007167,-0.003792,-83.731864,0.007171,
1660,230,-0.672612,-13.821963,0.999997,0.000185,-0.002725,0.006895,-0.000678,0.006942,-0.002773,-85.991213,0.006989,
650,750,2.453899,-9.551287,0.999997,0.000203,-0.003782,0.007518,0.000481,0.007539,-0.003802,87.565957,0.007539,
1790,260,-1.174722,-13.352870,0.999998,0.000188,-0.003492,0.007579,-0.000445,0.007597,-0.003510,-87.701100,0.007604,
1470,660,-0.704478,-11.176525,0.999996,0.000231,-0.004463,0.007747,0.001517,0.007933,-0.004649,83.023871,0.007972,
790,1720,0.977488,-2.075582,0.999997,0.000213,-0.003302,0.007292,-0.000065,0.007293,-0.003303,-89.647044,0.007304,
1610,1960,-0.200933,-0.404744,0.999998,0.000197,-0.000873,0.005611,0.001160,0.005812,-0.001074,80.160195,0.006185,
1180,320,0.074727,-13.639805,0.999998,0.000151,-0.001418,0.005392,-0.000019,0.005392,-0.001418,-89.839909,0.005591,
1590,1440,-1.171842,-3.999034,0.999997,0.000201,-0.004399,0.008006,-0.000491,0.008025,-0.004419,-87.738357,0.008039,
740,730,2.039834,-9.859749,0.999998,0.000223,-0.004179,0.008022,0.000511,0.008044,-0.004201,87.606400,0.008046,
860,260,0.609420,-13.690094,0.999997,0.000216,-0.002543,0.006637,0.000430,0.006658,-0.002563,87.323597,0.006716,
1510,1750,-0.471320,-1.598420,0.999997,0.000210,-0.002382,0.006271,0.000001,0.006271,-0.002382,89.994030,0.006331,
1020,450,0.452308,-12.714776,0.999997,0.000213,-0.002704,0.006316,-0.000661,0.006364,-0.002752,-85.829378,0.006384,
1330,1710,-0.154362,-1.637694,0.999998,0.000194,-0.001785,0.005471,-0.000255,0.005480,-0.001794,-87.990323,0.005588,
1770,370,-1.394396,-12.567421,0.999997,0.000223,-0.003636,0.007591,0.000020,0.007591,-0.003636,89.895552,0.007593,
1560,440,-0.797646,-12.525682,0.999998,0.000182,-0.003285,0.007083,0.000420,0.007100,-0.003302,87.682677,0.007106,
1330,660,-0.193380,-11.776017,0.999998,0.000203,-0.002614,0.005037,0.001865,0.005467,-0.003044,77.002917,0.005479,
1030,670,0.552528,-11.261876,0.999996,0.000237,-0.004210,0.007306,-0.001876,0.007604,-0.004508,-80.975807,0.007647,
820,1150,2.220870,-6.592494,0.999996,0.000219,-0.003729,0.008197,-0.001002,0.008281,-0.003813,-85.230476,0.008289,
730,1690,1.246681,-2.424375,0.999997,0.000227,-0.003636,0.007567,0.000006,0.007567,-0.003636,89.971759,0.007568,
690,1130,2.722262,-6.823938,0.999997,0.000185,-0.003421,0.007248,-0.000553,0.007277,-0.003450,-87.039578,0.007280,
1500,990,-1.972684,-7.923071,0.999997,0.000266,-0.003094,0.009808,-0.000477,0.009825,-0.003112,-87.886308,0.010043,
1000,1510,0.578189,-3.082159,0.999996,0.000221,-0.003356,0.006813,0.001059,0.006922,-0.003465,84.119891,0.006922,
1730,1520,-1.595820,-3.720909,0.999995,0.000245,-0.003949,0.007766,-0.000119,0.007768,-0.003950,-89.417060,0.007768,
1680,1600,-1.243440,-2.983059,0.999998,0.000189,-0.003761,0.007578,-0.000209,0.007582,-0.003765,-88.944236,0.007582,
900,1180,1.795847,-6.233229,0.999997,0.000219,-0.004559,0.009172,-0.000980,0.009241,-0.004629,-85.936970,0.009241,
830,320,0.818709,-13.232159,0.999998,0.000180,-0.002848,0.007006,0.000172,0.007009,-0.002850,89.001950,0.007049,
780,1850,0.664086,-1.160582,0.999997,0.000200,-0.002682,0.006935,-0.000917,0.007022,-0.002769,-84.599514,0.007074,
890,1340,1.306865,-4.791864,0.999997,0.000243,-0.005015,0.008756,0.000248,0.008760,-0.005019,88.967067,0.008791,
1140,130,0.047239,-14.605735,0.999998,0.000156,-0.000600,0.004816,0.000137,0.004820,-0.000604,88.548338,0.005252,
640,1590,1.805621,-3.406947,0.999997,0.000204,-0.003758,0.007630,0.000103,0.007631,-0.003759,89.480204,0.007631,
1100,1790,0.166377,-1.222967,0.999998,0.000157,-0.001318,0.005424,-0.000034,0.005424,-0.001318,-89.710812,0.005658,
990,170,0.206141,-14.353075,0.999998,0.000179,-0.001030,0.005514,0.000495,0.005551,-0.001067,85.698819,0.005891,
1380,920,-1.168371,-9.712927,0.999990,0.000368,-0.002691,0.008905,0.005573,0.011149,-0.004935,68.065999,0.011174,
1230,710,0.002025,-11.805201,0.999998,0.000175,-0.001521,0.003019,-0.000069,0.003020,-0.001522,-89.133519,0.003020,
1730,90,-0.308418,-14.697544,0.999997,0.000202,-0.001445,0.006208,-0.001803,0.006612,-0.001849,-77.387690,0.006822,
740,1570,1.465010,-3.316731,0.999997,0.000228,-0.003864,0.007701,0.000190,0.007704,-0.003867,89.060467,0.007704,
1120,1880,0.086448,-0.743397,0.999998,0.000158,-0.000890,0.005065,-0.000127,0.005067,-0.000892,-88.775583,0.005410,
1010,1080,1.761572,-6.920653,0.999994,0.000327,-0.004276,0.011659,0.000372,0.011668,-0.004284,88.664602,0.011804,
940,1620,0.668965,-2.475161,0.999997,0.000220,-0.003052,0.006837,0.000467,0.006859,-0.003074,87.304666,0.006872,
670,1280,2.444102,-5.726503,0.999995,0.000259,-0.003829,0.007568,-0.000572,0.007596,-0.003858,-87.135178,0.007597,
1800,790,-2.511886,-9.269065,0.999997,0.000226,-0.003790,0.007527,-0.000588,0.007557,-0.003820,-87.032910,0.007558,
1580,1630,-0.840342,-2.532471,0.999997,0.000192,-0.003256,0.007111,-0.000321,0.007121,-0.003266,-88.228988,0.007129,
1070,450,0.326768,-12.805697,0.999998,0.000179,-0.002513,0.005967,-0.000722,0.006029,-0.002574,-85.164837,0.006050,
820,440,1.081191,-12.336991,0.999998,0.000175,-0.003537,0.007442,-0.000241,0.007447,-0.003543,-88.742186,0.007450,
650,730,2.399530,-9.701864,0.999996,0.000210,-0.003802,0.007585,0.000424,0.007601,-0.003817,87.871939,0.007601,
1790,240,-1.107794,-13.506218,0.999998,0.000209,-0.003438,0.007621,-0.000574,0.007651,-0.003468,-87.035377,0.007662,
1470,640,-0.682336,-11.330730,0.999996,0.000229,-0.004236,0.007494,0.001448,0.007670,-0.004412,83.067288,0.007699,
1610,1440,-1.260599,-4.053900,0.999997,0.000199,-0.004428,0.008013,-0.000399,0.008025,-0.004440,-88.166297,0.008041,
580,720,2.634833,-9.629936,0.999996,0.000232,-0.004345,0.007407,0.000477,0.007426,-0.004364,87.681117,0.007464,
780,60,0.149220,-14.895046,0.999998,0.000177,-0.000822,0.005670,0.001604,0.006045,-0.001196,76.850828,0.006402,
1250,260,-0.022458,-13.962507,0.999998,0.000179,-0.001244,0.005144,0.000053,0.005144,-0.001244,89.526114,0.005368,
1180,280,0.066432,-13.850493,0.999998,0.000154,-0.001235,0.005261,0.000021,0.005261,-0.001235,89.810814,0.005503,
1260,1730,-0.043542,-1.501288,0.999998,0.000151,-0.001484,0.005318,-0.000093,0.005320,-0.001486,-89.220506,0.005490,
1510,1980,-0.088545,-0.276507,0.999999,0.000158,-0.000566,0.005096,0.000734,0.005190,-0.000660,82.732429,0.005651,
1560,420,-0.768440,-12.665181,0.999997,0.000187,-0.003225,0.007057,0.000372,0.007070,-0.003238,87.932181,0.007079,
860,1000,2.280901,-7.781260,0.999997,0.000221,-0.002905,0.007926,0.000349,0.007938,-0.002916,88.154308,0.008030,
1600,180,-0.410585,-14.213090,0.999997,0.000215,-0.001892,0.006173,-0.000819,0.006256,-0.001975,-84.259356,0.006396,
1630,80,-0.174332,-14.792111,0.999998,0.000138,-0.000631,0.005671,-0.001381,0.005961,-0.000920,-78.169665,0.006418,
1430,1500,-0.476368,-3.056147,0.999996,0.000231,-0.003232,0.006539,-0.001246,0.006696,-0.003389,-82.843952,0.006696,
620,1910,0.892032,-1.020688,0.999997,0.000194,-0.003670,0.007789,-0.000791,0.007843,-0.003725,-86.069490,0.007847,
1770,570,-1.831160,-11.030478,0.999997,0.000196,-0.003942,0.007707,-0.000008,0.007707,-0.003942,-89.962463,0.007708,
690,1110,2.756594,-6.970330,0.999998,0.000188,-0.003382,0.007245,-0.000575,0.007276,-0.003413,-86.910073,0.007280,
740,710,1.985153,-10.021349,0.999996,0.000264,-0.004213,0.008032,0.000420,0.008046,-0.004227,88.038107,0.008050,
1180,130,0.028439,-14.608432,0.999998,0.000153,-0.000477,0.004756,0.000097,0.004758,-0.000479,88.942055,0.005239,
730,1670,1.293216,-2.576043,0.999997,0.000224,-0.003643,0.007589,0.000052,0.007590,-0.003643,89.732443,0.007592,
660,1830,1.101353,-1.529432,0.999997,0.000217,-0.003377,0.007643,-0.000690,0.007686,-0.003420,-86.431745,0.007701,
900,1380,1.166384,-4.415269,0.999997,0.000219,-0.004788,0.008490,0.000536,0.008512,-0.004810,87.692962,0.008536,
1090,620,0.314283,-11.846024,0.999997,0.000207,-0.003002,0.005919,-0.001664,0.006219,-0.003302,-79.770864,0.006223,
770,1480,1.531642,-3.945632,0.999994,0.000305,-0.004136,0.007865,0.000119,0.007866,-0.004137,89.430189,0.007869,
860,1590,0.980033,-2.874388,0.999997,0.000211,-0.003616,0.007400,0.000386,0.007414,-0.003630,87.993575,0.007414,
1460,490,-0.531158,-12.412022,0.999997,0.000188,-0.003076,0.006613,0.000863,0.006689,-0.003153,84.946906,0.006693,
800,830,2.079063,-9.128530,0.999998,0.000167,-0.004189,0.008314,0.000892,0.008377,-0.004252,85.938348,0.008378,
830,680,1.507921,-10.464439,0.999996,0.000256,-0.004629,0.008418,0.000003,0.008418,-0.004629,89.986749,0.008432,
1230,1350,0.001161,-3.299872,0.999998,0.000166,-0.001503,0.003106,0.000052,0.003107,-0.001503,89.348090,0.003107,
1480,970,-1.850018,-8.161725,0.999997,0.000218,-0.003634,0.010301,-0.000464,0.010316,-0.003650,-88.094406,0.010462,
650,710,2.347334,-9.853721,0.999996,0.000219,-0.003828,0.007616,0.000354,0.007627,-0.003839,88.229391,0.007627,
1070,1340,0.417718,-3.970557,0.999997,0.000193,-0.004236,0.006822,0.002497,0.007360,-0.004773,77.849331,0.007467,
1430,1170,-1.157505,-5.739401,0.999995,0.000275,-0.005282,0.010524,-0.001447,0.010656,-0.005414,-84.814032,0.010656,
1380,1790,-0.188996,-1.233410,0.999998,0.000210,-0.001307,0.005468,0.000096,0.005469,-0.001308,89.185613,0.005711,
1290,1380,-0.102958,-3.287554,0.999998,0.000200,-0.001983,0.004126,-0.001418,0.004439,-0.002296,-77.552200,0.004440,
1900,900,-3.100644,-8.349172,0.999998,0.000000,-0.003210,0.006312,-0.000136,0.006314,-0.003212,-89.184441,0.006314,
1280,1260,-0.100831,-3.637170,0.999997,0.000233,-0.002444,0.002392,-0.002010,0.003119,-0.003170,-70.128174,0.003631,
660,210,1.044180,-13.707319,0.999997,0.000206,-0.003340,0.007680,0.000810,0.007739,-0.003399,85.817994,0.007758,
1560,1630,-0.774822,-2.488264,0.999997,0.000227,-0.003249,0.007064,-0.000379,0.007078,-0.003263,-87.897927,0.007085,
940,1600,0.692823,-2.612903,0.999997,0.000215,-0.003217,0.006940,0.000588,0.006974,-0.003251,86.700604,0.006979,
1230,260,0.001823,-13.965748,0.999999,0.000126,-0.001225,0.005148,0.000000,0.005148,-0.001225,-89.995860,0.005379,
720,690,2.016152,-10.143545,0.999998,0.000203,-0.004119,0.007936,0.000340,0.007946,-0.004128,88.386071,0.007948,
1330,1690,-0.160638,-1.750283,0.999998,0.000186,-0.001854,0.005530,-0.000284,0.005541,-0.001865,-87.796967,0.005638,
820,420,1.043368,-12.485563,0.999998,0.000183,-0.003499,0.007392,-0.000228,0.007397,-0.003503,-88.799652,0.007400,
1590,520,-1.016364,-11.865985,0.999998,0.000162,-0.003808,0.007542,0.000522,0.007566,-0.003832,87.369871,0.007566,
1850,1370,-2.422435,-5.153025,0.999997,0.000213,-0.003802,0.007542,0.000234,0.007546,-0.003807,88.820351,0.007546,
1470,1470,-0.634800,-3.388769,0.999997,0.000232,-0.003799,0.007163,-0.001258,0.007306,-0.003941,-83.537421,0.007313,
1810,870,-2.745465,-8.666615,0.999997,0.000207,-0.003529,0.007262,-0.000622,0.007298,-0.003564,-86.712799,0.007299,
1180,260,0.062028,-13.958034,0.999998,0.000158,-0.001124,0.005187,0.000003,0.005187,-0.001124,89.968262,0.005457,
1240,1730,-0.012871,-1.494394,0.999998,0.000138,-0.001510,0.005274,-0.000069,0.005275,-0.001510,-89.421192,0.005433,
1510,1770,-0.441792,-1.475912,0.999997,0.000201,-0.002281,0.006255,0.000110,0.006256,-0.002282,89.264235,0.006332,
990,150,0.174350,-14.463445,0.999998,0.000157,-0.000878,0.005394,0.000540,0.005440,-0.000924,85.114380,0.005822,
1100,70,0.029861,-14.886866,0.999998,0.000147,-0.000241,0.004696,0.000303,0.004715,-0.000259,86.498396,0.005301,
1530,1120,-1.894900,-6.726025,0.999997,0.000215,-0.003842,0.009290,0.001027,0.009370,-0.003922,85.553082,0.009411,
1730,70,-0.221136,-14.821019,0.999997,0.000192,-0.001017,0.006107,-0.001959,0.006610,-0.001520,-75.597717,0.006924,
1070,430,0.316495,-12.926341,0.999998,0.000173,-0.002412,0.005941,-0.000619,0.005987,-0.002458,-85.788018,0.006019,
960,390,0.563557,-12.982031,0.999997,0.000203,-0.002779,0.006552,-0.000353,0.006565,-0.002793,-87.834369,0.006589,
830,660,1.460397,-10.632653,0.999996,0.000234,-0.004592,0.008355,-0.000088,0.008355,-0.004593,-89.609493,0.008369,
1020,430,0.438313,-12.839628,0.999998,0.000197,-0.002518,0.006232,-0.000518,0.006263,-0.002548,-86.622839,0.006299,
580,710,2.609321,-9.703716,0.999996,0.000228,-0.004406,0.007158,0.000514,0.007181,-0.004429,87.460734,0.007246,
1560,400,-0.739810,-12.808678,0.999996,0.000216,-0.003117,0.006981,0.000311,0.006991,-0.003126,88.240290,0.007004,
1370,1920,-0.079678,-0.547566,0.999998,0.000125,-0.000564,0.004969,0.000264,0.004982,-0.000577,87.272662,0.005450,
850,960,2.249768,-8.097508,0.999996,0.000214,-0.003194,0.008062,0.000787,0.008116,-0.003249,86.019000,0.008170,
1870,1060,-3.113980,-7.348845,0.999998,0.000161,-0.003108,0.006398,0.000144,0.006400,-0.003110,89.129593,0.006401,
860,960,2.217582,-8.103091,0.999997,0.000219,-0.003193,0.008140,0.000794,0.008196,-0.003249,86.011580,0.008254,
1660,990,-2.439714,-7.847876,0.999997,0.000205,-0.003098,0.007598,-0.000337,0.007608,-0.003109,-88.195031,0.007651,
1360,1790,-0.161390,-1.222710,0.999998,0.000175,-0.001318,0.005384,0.000039,0.005384,-0.001318,89.667934,0.005613,
1030,910,1.328125,-9.089908,0.999993,0.000313,-0.005044,0.010953,-0.001311,0.011060,-0.005151,-85.345434,0.011069,
1220,1900,0.009533,-0.629384,0.999998,0.000172,-0.000695,0.004877,0.000005,0.004877,-0.000695,89.946254,0.005276,
1900,890,-3.084284,-8.412763,0.999998,0.000000,-0.003213,0.006263,-0.000054,0.006264,-0.003214,-89.674860,0.006264,
1370,1440,-0.305446,-3.235958,0.999998,0.000183,-0.002894,0.005869,-0.001599,0.006152,-0.003176,-79.977973,0.006153,
650,910,2.833132,-8.377536,0.999997,0.000210,-0.003352,0.006985,0.000446,0.007005,-0.003371,87.535917,0.007006,
1080,1590,0.307298,-2.384442,0.999997,0.000207,-0.002487,0.005951,0.000775,0.006022,-0.002558,84.792840,0.006044,
1430,1150,-1.282330,-5.948676,0.999995,0.000275,-0.005099,0.010793,-0.001462,0.010927,-0.005233,-84.788519,0.010930,
1480,70,-0.065277,-14.875952,0.999998,0.000131,-0.000380,0.004948,-0.000630,0.005021,-0.000453,-83.350316,0.005555,
1510,1120,-1.819715,-6.684721,0.999996,0.000233,-0.004008,0.009707,0.000930,0.009769,-0.004071,86.137956,0.009814,
1470,1450,-0.651379,-3.532627,0.999997,0.000231,-0.003936,0.007286,-0.001312,0.007437,-0.004087,-83.421922,0.007449,
1860,450,-1.911752,-11.739733,0.999998,0.000165,-0.003728,0.007556,0.000089,0.007557,-0.003729,89.548864,0.007557,
900,1620,0.801412,-2.564949,0.999997,0.000200,-0.003259,0.007129,0.000391,0.007143,-0.003274,87.846284,0.007152,
1150,1280,0.170059,-3.784502,0.999995,0.000254,-0.002998,0.004018,0.002929,0.005080,-0.004060,70.067852,0.005375,
690,1310,2.287264,-5.464389,0.999998,0.000218,-0.003981,0.007810,-0.000543,0.007835,-0.004006,-87.370477,0.007835,
1770,810,-2.452565,-9.158942,0.999996,0.000231,-0.003806,0.007669,-0.000720,0.007714,-0.003851,-86.423066,0.007714,
1090,600,0.312697,-11.960962,0.999997,0.000199,-0.002860,0.005877,-0.001479,0.006121,-0.003104,-80.646329,0.006121,
940,1800,0.422603,-1.303884,0.999997,0.000214,-0.002009,0.006155,-0.000315,0.006167,-0.002021,-87.792925,0.006288,
1410,1500,-0.412134,-2.993163,0.999997,0.000206,-0.003115,0.006293,-0.001279,0.006464,-0.003286,-82.395357,0.006465,
820,400,1.008746,-12.634585,0.999997,0.000203,-0.003442,0.007357,-0.000171,0.007359,-0.003444,-89.093073,0.007364,
990,130,0.148032,-14.569881,0.999998,0.000173,-0.000747,0.005267,0.000572,0.005321,-0.000801,84.618767,0.005738,
630,2020,0.147540,-0.137626,0.999997,0.000000,-0.002784,0.006585,-0.002271,0.007106,-0.003305,-77.066963,0.007112,
1850,1350,-2.474131,-5.303409,0.999996,0.000227,-0.003772,0.007548,0.000241,0.007553,-0.003777,88.781699,0.007553,
1590,500,-0.987369,-12.015253,0.999997,0.000197,-0.003739,0.007452,0.000489,0.007473,-0.003761,87.503077,0.007473,
1180,240,0.055997,-14.060477,0.999998,0.000161,-0.001048,0.005110,0.000046,0.005110,-0.001048,89.572527,0.005398,
1510,1790,-0.409307,-1.347020,0.999997,0.000211,-0.002160,0.006119,0.000199,0.006124,-0.002165,88.621492,0.006211,
1640,990,-2.380520,-7.851593,0.999996,0.000208,-0.003028,0.007702,-0.000367,0.007714,-0.003041,-88.041307,0.007772,
1600,930,-2.133577,-8.353157,0.999997,0.000226,-0.003562,0.008458,-0.001022,0.008544,-0.003649,-85.174138,0.008575,
1280,1280,-0.087371,-3.589890,0.999997,0.000233,-0.002137,0.002715,-0.002020,0.003446,-0.002869,-70.107613,0.003691,
1150,1920,0.043175,-0.537595,0.999999,0.000136,-0.000572,0.004846,-0.000143,0.004850,-0.000576,-88.489206,0.005299,
1370,1660,-0.250781,-1.958915,0.999998,0.000180,-0.001931,0.005646,-0.000297,0.005658,-0.001942,-87.761186,0.005750,
710,120,0.496969,-14.472438,0.999996,0.000222,-0.002653,0.007040,0.001678,0.007322,-0.002936,80.449758,0.007370,
1440,950,-1.595583,-8.587035,0.999993,0.000334,-0.004737,0.011924,0.001108,0.011998,-0.004810,86.211273,0.012076,
1560,1730,-0.618654,-1.798728,0.999997,0.000194,-0.002585,0.006716,0.000048,0.006716,-0.002586,89.706021,0.006775,
1870,1050,-3.119611,-7.413235,0.999999,0.000147,-0.003094,0.006476,0.000180,0.006479,-0.003098,88.924681,0.006481,
1900,510,-2.193608,-11.189434,0.999997,0.000000,-0.003729,0.007571,-0.000045,0.007571,-0.003729,-89.772407,0.007572,
1220,1290,0.018142,-3.464421,0.999998,0.000153,-0.001631,0.002009,0.000512,0.002080,-0.001702,82.146515,0.002216,
1810,850,-2.700620,-8.811635,0.999997,0.000215,-0.003573,0.007236,-0.000613,0.007270,-0.003608,-86.763832,0.007270,
1220,1860,0.011338,-0.826683,0.999998,0.000166,-0.000911,0.004971,-0.000002,0.004971,-0.000911,-89.979112,0.005293,
1420,1730,-0.306557,-1.610923,0.999998,0.000181,-0.002093,0.005880,-0.000161,0.005883,-0.002096,-88.846293,0.005963,
1020,1860,0.206960,-0.890028,0.999998,0.000207,-0.001202,0.005491,-0.000366,0.005511,-0.001222,-86.883303,0.005789,
790,200,0.620940,-14.008066,0.999997,0.000215,-0.002661,0.006873,0.000898,0.006957,-0.002745,84.663019,0.007008,
1430,1130,-1.405171,-6.172822,0.999995,0.000277,-0.004949,0.011100,-0.001565,0.011251,-0.005101,-84.481046,0.011267,
1720,1980,-0.235828,-0.326770,0.999998,0.000173,-0.000890,0.005980,0.001882,0.006462,-0.001372,75.641387,0.006809,
1680,1580,-1.284102,-3.137062,0.999997,0.000195,-0.003811,0.007591,-0.000255,0.007596,-0.003817,-88.720402,0.007596,
650,1150,2.826115,-6.708613,0.999997,0.000206,-0.003400,0.006993,-0.000435,0.007011,-0.003419,-87.609167,0.007012,
1150,260,0.094643,-13.951159,0.999998,0.000146,-0.001228,0.005221,0.000004,0.005221,-0.001228,89.967959,0.005460,
1070,410,0.302422,-13.046990,0.999997,0.000194,-0.002308,0.005858,-0.000526,0.005891,-0.002342,-86.332046,0.005932,
1120,1860,0.099005,-0.844878,0.999998,0.000163,-0.001026,0.005140,-0.000115,0.005142,-0.001028,-88.930076,0.005442,
730,1650,1.339481,-2.728694,0.999996,0.000232,-0.003656,0.007575,0.000107,0.007576,-0.003657,89.456233,0.007578,
590,180,1.170410,-13.718663,0.999997,0.000235,-0.003612,0.007651,0.000445,0.007668,-0.003630,87.738849,0.007672,
590,550,2.180243,-10.945720,0.999997,0.000194,-0.003734,0.007592,0.000026,0.007592,-0.003734,89.866906,0.007592,
1120,830,0.413880,-10.811749,0.999995,0.000244,-0.004038,0.005412,-0.003262,0.006429,-0.005054,-72.691583,0.006771,
930,1340,1.102308,-4.658155,0.999997,0.000224,-0.005108,0.008779,0.000685,0.008813,-0.005142,87.181162,0.008854,
630,30,0.113310,-15.012819,0.999998,0.000000,-0.002651,0.006604,0.002281,0.007136,-0.003183,76.881411,0.007150,
1160,130,0.037628,-14.608099,0.999999,0.000141,-0.000470,0.004787,0.000146,0.004792,-0.000474,88.414632,0.005280,
690,1550,1.699664,-3.591245,0.999996,0.000232,-0.003869,0.007694,0.000106,0.007695,-0.003870,89.472448,0.007695,
1760,1760,-1.172511,-1.959277,0.999998,0.000204,-0.003622,0.007520,0.000204,0.007523,-0.003626,88.949103,0.007525,
770,1460,1.575313,-4.104119,0.999995,0.000259,-0.004183,0.007945,0.000100,0.007945,-0.004184,89.528734,0.007949,
1080,70,0.033817,-14.885308,0.999998,0.000156,-0.000215,0.004721,0.000329,0.004743,-0.000237,86.199101,0.005345,
1470,1430,-0.666556,-3.677171,0.999996,0.000226,-0.004110,0.007374,-0.001368,0.007535,-0.004271,-83.300340,0.007557,
700,690,2.097175,-10.104879,0.999998,0.000189,-0.004027,0.007835,0.000367,0.007846,-0.004039,88.231069,0.007848,
880,1470,1.090220,-3.741139,0.999997,0.000203,-0.004227,0.007894,0.000588,0.007922,-0.004256,87.226934,0.007930,
1370,760,-0.361289,-10.993640,0.999997,0.000211,-0.004313,0.006509,0.003051,0.007310,-0.005114,75.291046,0.007502,
820,380,0.969688,-12.782794,0.999997,0.000214,-0.003336,0.007307,-0.000055,0.007307,-0.003337,-89.705138,0.007317,
1180,220,0.052967,-14.162265,0.999998,0.000164,-0.000919,0.005058,0.000025,0.005059,-0.000919,89.757211,0.005389,
1670,1120,-2.389010,-6.850276,0.999997,0.000194,-0.003404,0.007746,0.000744,0.007796,-0.003454,86.201601,0.007812,
630,960,2.975563,-8.015352,0.999997,0.000215,-0.003266,0.006708,0.000201,0.006712,-0.003270,88.846101,0.006712,
1900,880,-3.067840,-8.472869,0.999998,0.000000,-0.003246,0.006259,-0.000018,0.006259,-0.003246,-89.890051,0.006260,
1280,1720,-0.074344,-1.562070,0.999998,0.000167,-0.001494,0.005367,-0.000047,0.005367,-0.001494,-89.609304,0.005540,
980,870,1.369646,-9.190837,0.999996,0.000256,-0.005505,0.010189,0.000099,0.010189,-0.005506,89.640251,0.010200,
950,110,0.151748,-14.663110,0.999998,0.000187,-0.000857,0.005371,0.000710,0.005450,-0.000937,83.578837,0.005828,
1510,1810,-0.379890,-1.229803,0.999997,0.000202,-0.001999,0.006045,0.000299,0.006056,-0.002010,87.871956,0.006169,
1560,380,-0.707047,-12.949679,0.999997,0.000210,-0.002974,0.006827,0.000181,0.006830,-0.002977,88.943788,0.006849,
920,1530,0.844416,-3.163756,0.999997,0.000201,-0.003713,0.007368,0.000742,0.007417,-0.003763,86.188456,0.007417,
1130,1920,0.055737,-0.540524,0.999999,0.000120,-0.000661,0.004856,-0.000156,0.004860,-0.000666,-88.384868,0.005270,
1570,520,-0.941884,-11.916716,0.999997,0.000215,-0.003795,0.007479,0.000623,0.007513,-0.003829,86.844940,0.007513,
1850,1330,-2.526824,-5.455226,0.999996,0.000225,-0.003746,0.007434,0.000279,0.007441,-0.003753,88.572801,0.007441,
860,940,2.174990,-8.265736,0.999997,0.000200,-0.003413,0.008304,0.000941,0.008379,-0.003488,85.437266,0.008418,
1610,1760,-0.704945,-1.679591,0.999998,0.000169,-0.002760,0.006814,0.000252,0.006821,-0.002766,88.493878,0.006861,
870,1020,2.266651,-7.620909,0.999997,0.000214,-0.002823,0.008083,0.000135,0.008085,-0.002824,89.288896,0.008207,
990,110,0.116683,-14.675003,0.999998,0.000189,-0.000595,0.005174,0.000606,0.005237,-0.000658,84.069105,0.005705,
710,100,0.399098,-14.612367,0.999996,0.000213,-0.002396,0.006592,0.001716,0.006909,-0.002712,79.550885,0.006962,
1640,1630,-1.043547,-2.665009,0.999997,0.000191,-0.003535,0.007409,-0.000233,0.007414,-0.003540,-88.778810,0.007416,
1680,730,-1.855084,-9.940223,0.999997,0.000208,-0.004459,0.008298,-0.000466,0.008315,-0.004476,-87.912786,0.008323,
1720,1960,-0.318534,-0.447626,0.999997,0.000199,-0.001174,0.006238,0.001829,0.006665,-0.001600,76.865062,0.006959,
1220,1320,0.016559,-3.394246,0.999998,0.000174,-0.001490,0.002631,0.000436,0.002677,-0.001535,84.020965,0.002687,
1020,1820,0.252694,-1.111905,0.999998,0.000193,-0.001467,0.005673,-0.000233,0.005681,-0.001475,-88.133179,0.005895,
1680,1560,-1.318323,-3.287118,0.999997,0.000204,-0.003846,0.007654,-0.000268,0.007660,-0.003852,-88.664295,0.007661,
900,640,1.095270,-10.999969,0.999996,0.000220,-0.004565,0.008180,-0.000659,0.008214,-0.004599,-87.047366,0.008233,
620,2020,0.181141,-0.163257,0.999997,0.000000,-0.002753,0.006835,-0.002480,0.007438,-0.003356,-76.321173,0.007450,
1430,1110,-1.522060,-6.399462,0.999992,0.000333,-0.004936,0.011941,-0.001868,0.012146,-0.005140,-83.760551,0.012193,
900,1590,0.840913,-2.780781,0.999998,0.000211,-0.003381,0.007163,0.000483,0.007185,-0.003403,87.382096,0.007189,
650,170,0.906878,-13.997670,0.999997,0.000199,-0.003206,0.007792,0.001173,0.007916,-0.003330,83.977903,0.007949,
680,690,2.177066,-10.066140,0.999996,0.000240,-0.003989,0.007737,0.000368,0.007749,-0.004001,88.203766,0.007750,
1900,860,-3.033137,-8.601570,0.999998,0.000000,-0.003292,0.006704,-0.000123,0.006706,-0.003293,-89.296703,0.006706,
1320,70,-0.019009,-14.890831,0.999999,0.000125,-0.000261,0.004628,-0.000172,0.004634,-0.000268,-87.984898,0.005203,
1470,1410,-0.685552,-3.827165,0.999996,0.000224,-0.004336,0.007577,-0.001452,0.007752,-0.004510,-83.148325,0.007786,
1150,1260,0.194331,-3.862283,0.999997,0.000217,-0.003174,0.003886,0.003008,0.004993,-0.004282,69.782659,0.005402,
1810,830,-2.651831,-8.956534,0.999996,0.000215,-0.003621,0.007244,-0.000576,0.007275,-0.003652,-86.973870,0.007275,
1220,1310,0.017056,-3.419818,0.999998,0.000170,-0.001504,0.002443,0.000464,0.002497,-0.001558,83.386043,0.002523,
1060,390,0.317411,-13.146082,0.999998,0.000184,-0.002305,0.005905,-0.000455,0.005930,-0.002330,-86.834226,0.005975,
1420,1710,-0.321836,-1.728815,0.999999,0.000195,-0.002190,0.005885,-0.000276,0.005894,-0.002199,-88.046291,0.005957,
1760,1720,-1.272520,-2.262836,0.999997,0.000198,-0.003637,0.007547,0.000019,0.007547,-0.003637,89.901469,0.007548,
690,570,1.842566,-11.024790,0.999997,0.000190,-0.003944,0.007725,-0.000013,0.007725,-0.003944,-89.936327,0.007726,
820,580,1.334129,-11.257737,0.999997,0.000201,-0.004226,0.007951,-0.000297,0.007958,-0.004234,-88.605494,0.007964,
1650,1120,-2.322432,-6.840861,0.999997,0.000230,-0.003423,0.007916,0.000812,0.007974,-0.003481,85.925053,0.007995,
1720,330,-1.119317,-12.987858,0.999998,0.000180,-0.003387,0.007426,-0.000150,0.007428,-0.003389,-89.202940,0.007438,
1130,260,0.121870,-13.939328,0.999998,0.000154,-0.001397,0.005283,-0.000045,0.005283,-0.001397,-89.613543,0.005475,
610,960,3.038965,-8.004728,0.999998,0.000161,-0.003170,0.006527,0.000117,0.006528,-0.003171,89.309569,0.006529,
1180,200,0.046343,-14.263391,0.999998,0.000152,-0.000819,0.005037,0.000078,0.005039,-0.000820,89.233446,0.005407,
1070,390,0.293766,-13.163231,0.999997,0.000197,-0.002183,0.005844,-0.000411,0.005865,-0.002204,-87.076486,0.005925,
730,1630,1.379529,-2.880574,0.999996,0.000234,-0.003698,0.007590,0.000140,0.007592,-0.003700,89.287446,0.007593,
1280,1700,-0.077021,-1.668110,0.999998,0.000157,-0.001564,0.005347,-0.000087,0.005349,-0.001565,-89.277631,0.005500,
1170,460,0.112746,-12.884824,0.999998,0.000171,-0.001891,0.005324,-0.000294,0.005336,-0.001903,-87.667368,0.005408,
620,30,0.148702,-14.992141,0.999996,0.000000,-0.002336,0.007009,0.002699,0.007732,-0.003059,74.994574,0.007788,
680,790,2.447566,-9.293493,0.999996,0.000249,-0.003845,0.007624,0.000649,0.007660,-0.003882,86.769293,0.007661,
1120,810,0.336091,-10.916341,0.999995,0.000259,-0.004068,0.005499,-0.003366,0.006565,-0.005134,-72.433685,0.006904,
1520,300,-0.489092,-13.538499,0.999997,0.000208,-0.002305,0.006311,-0.000061,0.006312,-0.002305,-89.591598,0.006388,
860,920,2.113789,-8.436876,0.999997,0.000213,-0.003655,0.008449,0.001057,0.008541,-0.003747,85.047726,0.008562,
1510,620,-0.832171,-11.332338,0.999996,0.000232,-0.004286,0.007756,0.001081,0.007852,-0.004382,84.909526,0.007870,
630,1800,1.310084,-1.837544,0.999996,0.000237,-0.003635,0.007609,-0.000210,0.007612,-0.003639,-88.931968,0.007615,
860,1470,1.174881,-3.796175,0.999996,0.000244,-0.004236,0.007896,0.000464,0.007914,-0.004254,87.810768,0.007922,
840,1530,1.151826,-3.378889,0.999997,0.000193,-0.003929,0.007715,0.000422,0.007730,-0.003945,87.924937,0.007731,
850,1020,2.323269,-7.619824,0.999998,0.000222,-0.002867,0.007932,0.000134,0.007933,-0.002869,89.289767,0.008034,
1900,850,-3.009460,-8.672459,0.999998,0.000000,-0.003327,0.006859,-0.000195,0.006863,-0.003331,-88.905248,0.006864,
1220,1300,0.018013,-3.442823,0.999998,0.000170,-0.001555,0.002230,0.000481,0.002290,-0.001616,82.871740,0.002354,
1020,1280,0.759710,-4.759922,0.999997,0.000227,-0.005639,0.008904,0.001825,0.009129,-0.005865,82.954417,0.009252,
1430,1090,-1.620302,-6.658789,0.999991,0.000348,-0.005220,0.013165,-0.001964,0.013373,-0.005428,-83.968670,0.013451,
1640,1140,-2.236526,-6.672945,0.999997,0.000226,-0.003635,0.008189,0.001024,0.008277,-0.003723,85.087073,0.008291,
770,1990,0.172598,-0.258662,0.999998,0.000163,-0.000810,0.005772,-0.001703,0.006187,-0.001224,-76.319895,0.006553,
1860,1630,-1.855664,-3.192655,0.999998,0.000189,-0.003708,0.007492,-0.000084,0.007493,-0.003709,-89.572739,0.007493,
880,1590,0.907025,-2.826732,0.999997,0.000205,-0.003494,0.007300,0.000435,0.007318,-0.003512,87.694606,0.007320,
1820,1250,-2.626736,-5.995314,0.999995,0.000233,-0.003673,0.007336,0.000529,0.007361,-0.003699,87.255675,0.007361,
650,130,0.706156,-14.310370,0.999995,0.000253,-0.002875,0.007809,0.001680,0.008067,-0.003133,81.272170,0.008133,
1140,1790,0.110399,-1.199695,0.999998,0.000164,-0.001343,0.005299,0.000038,0.005299,-0.001343,89.674125,0.005510,
1300,70,-0.014238,-14.891758,0.999998,0.000152,-0.000183,0.004599,-0.000162,0.004604,-0.000188,-88.061497,0.005211,
1470,1610,-0.525544,-2.434316,0.999997,0.000219,-0.002912,0.006555,-0.000649,0.006599,-0.002956,-86.096118,0.006611,
1840,450,-1.836301,-11.787395,0.999997,0.000186,-0.003763,0.007586,0.000099,0.007587,-0.003764,89.501861,0.007587,
610,2020,0.210566,-0.186603,0.999996,0.000000,-0.001778,0.007356,-0.003048,0.008279,-0.002701,-73.141682,0.008444,
690,530,1.754634,-11.333843,0.999997,0.000189,-0.003893,0.007745,-0.000095,0.007746,-0.003894,-89.531074,0.007746,
1380,1760,-0.211621,-1.399630,0.999998,0.000193,-0.001473,0.005589,0.000024,0.005589,-0.001473,89.803963,0.005793,
1340,1310,-0.232688,-3.826335,0.999998,0.000200,-0.003346,0.005192,-0.002921,0.006096,-0.004250,-72.807256,0.006252,
1400,1730,-0.263456,-1.586559,0.999998,0.000153,-0.001847,0.005768,-0.000135,0.005771,-0.001849,-88.981453,0.005893,
1740,870,-2.491168,-8.731453,0.999997,0.000224,-0.003714,0.007632,-0.000797,0.007687,-0.003770,-86.003721,0.007688,
700,430,1.503104,-12.128282,0.999996,0.000225,-0.003749,0.007602,-0.000122,0.007603,-0.003750,-89.384061,0.007603,
1030,1070,1.703616,-6.939675,0.999983,0.000528,-0.005481,0.013809,0.001447,0.013917,-0.005589,85.735220,0.014007,
1680,1540,-1.356765,-3.442274,0.999996,0.000217,-0.003934,0.007778,-0.000249,0.007784,-0.003939,-88.781316,0.007784,
1810,810,-2.603440,-9.102904,0.999997,0.000220,-0.003675,0.007401,-0.000573,0.007431,-0.003704,-87.047335,0.007431,
940,1060,2.055401,-7.269208,0.999998,0.000199,-0.002831,0.009176,-0.000494,0.009196,-0.002851,-87.645933,0.009415,
1110,260,0.149826,-13.927466,0.999999,0.000151,-0.001332,0.005329,0.000010,0.005329,-0.001332,89.909763,0.005546,
1560,360,-0.674573,-13.085787,0.999997,0.000203,-0.002842,0.006748,0.000064,0.006749,-0.002843,89.620230,0.006777,
1220,1330,0.016727,-3.368743,0.999998,0.000168,-0.001500,0.002788,0.000424,0.002830,-0.001542,84.402214,0.002833,
610,650,2.343928,-10.226096,0.999996,0.000234,-0.003790,0.007566,0.000151,0.007568,-0.003792,89.237425,0.007568,
1110,460,0.236878,-12.813548,0.999998,0.000168,-0.002116,0.005641,-0.000548,0.005679,-0.002155,-85.979951,0.005734,
730,1610,1.421735,-3.034899,0.999997,0.000219,-0.003749,0.007599,0.000146,0.007601,-0.003751,89.262938,0.007601,
1850,1310,-2.579688,-5.601753,0.999996,0.000212,-0.003696,0.007376,0.000323,0.007385,-0.003706,88.328282,0.007385,
830,460,1.080681,-12.211402,0.999998,0.000174,-0.003615,0.007469,-0.000297,0.007477,-0.003623,-88.464421,0.007478,
1760,1180,-2.575515,-6.441073,0.999997,0.000226,-0.003691,0.007557,0.000776,0.007610,-0.003745,86.070082,0.007611,
1900,840,-2.986616,-8.741154,0.999998,0.000000,-0.003351,0.006902,-0.000225,0.006907,-0.003355,-88.741958,0.006908,
1280,1680,-0.080615,-1.776675,0.999998,0.000183,-0.001616,0.005335,-0.000117,0.005337,-0.001618,-89.033102,0.005473,
1180,180,0.042668,-14.363612,0.999998,0.000161,-0.000696,0.004994,0.000083,0.004995,-0.000697,89.164278,0.005410,
1420,950,-1.497243,-8.751340,0.999984,0.000525,-0.005300,0.012564,0.003005,0.013056,-0.005792,80.703179,0.013083,
950,1840,0.335777,-1.051074,0.999997,0.000209,-0.001728,0.005838,-0.000397,0.005858,-0.001749,-87.003347,0.006015,
900,600,1.029443,-11.321128,0.999997,0.000206,-0.004290,0.007863,-0.000724,0.007906,-0.004332,-86.603830,0.007918,
790,1020,2.499817,-7.617655,0.999996,0.000248,-0.003047,0.007583,0.000125,0.007585,-0.003049,89.328266,0.007633,
1530,680,-1.014470,-10.776905,0.999997,0.000222,-0.004851,0.008457,0.000854,0.008512,-0.004905,86.341501,0.008545,
820,820,1.961550,-9.241362,0.999996,0.000242,-0.004417,0.008586,0.000854,0.008642,-0.004473,86.260563,0.008643,
1460,510,-0.545841,-12.280043,0.999995,0.000228,-0.003130,0.006633,0.000911,0.006717,-0.003215,84.714113,0.006719,
590,170,1.121660,-13.796029,0.999997,0.000231,-0.003632,0.007699,0.000512,0.007722,-0.003655,87.420277,0.007725,
1520,280,-0.456166,-13.666207,0.999996,0.000215,-0.002215,0.006309,-0.000178,0.006312,-0.002218,-88.803881,0.006405,
1120,1840,0.111099,-0.948313,0.999998,0.000163,-0.001127,0.005160,-0.000071,0.005161,-0.001128,-89.350660,0.005427,
1020,1260,0.816959,-4.944231,0.999996,0.000240,-0.005773,0.009153,0.001707,0.009346,-0.005966,83.559705,0.009464,
1470,1420,-0.676441,-3.751288,0.999996,0.000218,-0.004224,0.007437,-0.001409,0.007605,-0.004392,-83.206661,0.007635,
1080,1530,0.327374,-2.744048,0.999997,0.000199,-0.002655,0.005947,0.001049,0.006073,-0.002781,83.145720,0.006080,
1720,1940,-0.403216,-0.578047,0.999997,0.000206,-0.001458,0.006645,0.001898,0.007068,-0.001881,77.452412,0.007321,
640,1520,1.959209,-3.941840,0.999997,0.000186,-0.003803,0.007644,0.000048,0.007644,-0.003803,89.758454,0.007644,
1510,600,-0.807611,-11.487703,0.999997,0.000205,-0.004147,0.007634,0.001079,0.007732,-0.004245,84.810605,0.007745,
1370,1980,-0.037237,-0.257296,0.999998,0.000158,-0.000237,0.004745,0.000323,0.004766,-0.000258,86.309230,0.005360,
660,1810,1.169945,-1.682202,0.999997,0.000200,-0.003464,0.007645,-0.000532,0.007670,-0.003490,-87.266010,0.007680,
1070,370,0.280767,-13.280482,0.999997,0.000202,-0.002034,0.005854,-0.000275,0.005863,-0.002043,-88.008057,0.005952,
1200,1790,0.038349,-1.185033,0.999998,0.000178,-0.001211,0.005194,0.000036,0.005194,-0.001211,89.674906,0.005435,
1220,1280,0.020628,-3.480470,0.999997,0.000208,-0.001718,0.001846,0.000535,0.001925,-0.001797,81.650398,0.002152,
680,770,2.393135,-9.447303,0.999996,0.000234,-0.003858,0.007638,0.000598,0.007669,-0.003889,87.031318,0.007669,
1600,600,-1.187913,-11.213132,0.999996,0.000219,-0.004307,0.007955,0.000470,0.007973,-0.004325,87.809520,0.007983,
1470,1850,-0.251242,-0.960139,0.999998,0.000166,-0.001274,0.005630,0.000442,0.005658,-0.001302,86.354179,0.005926,
1440,70,-0.053168,-14.878890,0.999998,0.000155,-0.000335,0.004848,-0.000497,0.004895,-0.000383,-84.571004,0.005445,
1430,950,-1.552097,-8.664375,0.999992,0.000372,-0.005086,0.012214,0.001928,0.012426,-0.005298,83.717368,0.012471,
610,30,0.174262,-14.967879,0.999992,0.000000,-0.001058,0.007724,0.003617,0.009022,-0.002356,70.259907,0.009359,
680,1920,0.654646,-0.804878,0.999997,0.000239,-0.002767,0.007397,-0.001726,0.007682,-0.003052,-80.623335,0.007736,
1820,450,-1.760885,-11.836598,0.999997,0.000194,-0.003801,0.007600,0.000131,0.007601,-0.003803,89.340776,0.007601,
570,1590,2.065121,-3.572012,0.999996,0.000260,-0.003606,0.007601,-0.000008,0.007601,-0.003606,-89.956935,0.007604,
1900,830,-2.963982,-8.810900,0.999997,0.000000,-0.003355,0.006845,-0.000210,0.006849,-0.003359,-88.821453,0.006850,
1810,790,-2.549632,-9.253742,0.999997,0.000209,-0.003743,0.007488,-0.000558,0.007516,-0.003771,-87.161372,0.007516,
810,1660,1.032627,-2.471546,0.999997,0.000233,-0.003447,0.007370,0.000137,0.007372,-0.003449,89.272005,0.007377,
700,410,1.458776,-12.280129,0.999997,0.000196,-0.003702,0.007593,-0.000099,0.007593,-0.003703,-89.499425,0.007594,
1570,1120,-2.041044,-6.780151,0.999998,0.000177,-0.003543,0.008704,0.001067,0.008796,-0.003635,85.057074,0.008840,
1120,130,0.060232,-14.600855,0.999998,0.000138,-0.000622,0.004879,0.000162,0.004883,-0.000626,88.316540,0.005314,
1500,270,-0.396939,-13.752922,0.999997,0.000199,-0.002148,0.006104,-0.000149,0.006107,-0.002151,-88.966871,0.006195,
960,330,0.488838,-13.370100,0.999997,0.000208,-0.002501,0.006460,-0.000115,0.006462,-0.002502,-89.263933,0.006517,
1180,160,0.036848,-14.462839,0.999998,0.000162,-0.000626,0.004945,0.000116,0.004947,-0.000628,88.809181,0.005387,
1560,1790,-0.513480,-1.404434,0.999997,0.000207,-0.002149,0.006422,0.000376,0.006439,-0.002166,87.493413,0.006553,
770,1020,2.561879,-7.616019,0.999996,0.000216,-0.003134,0.007513,0.000134,0.007515,-0.003136,89.276439,0.007549,
1640,1120,-2.289646,-6.836487,0.999997,0.000234,-0.003441,0.008003,0.000850,0.008066,-0.003504,85.775231,0.008089,
1270,1380,-0.063307,-3.238145,0.999998,0.000152,-0.001816,0.003850,-0.000947,0.004004,-0.001970,-80.759132,0.004004,
590,960,3.100990,-7.990909,0.999996,0.000219,-0.003065,0.006292,0.000024,0.006292,-0.003065,89.853762,0.006292,
570,400,1.922160,-12.034622,0.999997,0.000231,-0.003792,0.007359,-0.000087,0.007360,-0.003792,-89.555391,0.007361,
1020,1240,0.888829,-5.127632,0.999994,0.000285,-0.005839,0.009426,0.001532,0.009579,-0.005991,84.325022,0.009679,
640,1500,2.002938,-4.095726,0.999997,0.000183,-0.003822,0.007649,0.000036,0.007649,-0.003822,89.818626,0.007649,
1520,260,-0.424907,-13.790733,0.999997,0.000220,-0.002058,0.006122,-0.000240,0.006129,-0.002065,-88.321718,0.006237,
670,1680,1.490274,-2.646999,0.999996,0.000247,-0.003702,0.007563,0.000025,0.007563,-0.003702,89.872142,0.007563,
1760,1160,-2.626231,-6.596470,0.999997,0.000213,-0.003587,0.007448,0.000706,0.007493,-0.003632,86.353884,0.007494,
1460,1250,-0.951120,-5.145693,0.999994,0.000274,-0.005805,0.009471,-0.001215,0.009567,-0.005901,-85.481024,0.009654,
1680,1520,-1.396125,-3.600772,0.999996,0.000236,-0.004017,0.007798,-0.000236,0.007802,-0.004022,-88.855213,0.007804,
1650,1760,-0.810925,-1.740348,0.999998,0.000181,-0.002920,0.007084,0.000319,0.007094,-0.002930,88.177406,0.007130,
1280,1660,-0.082460,-1.882897,0.999997,0.000194,-0.001671,0.005318,-0.000138,0.005320,-0.001674,-88.872873,0.005441,
1380,1720,-0.239200,-1.627698,0.999998,0.000182,-0.001676,0.005687,-0.000114,0.005689,-0.001678,-89.113385,0.005846,
1600,620,-1.224159,-11.052937,0.999996,0.000231,-0.004429,0.008047,0.000447,0.008063,-0.004445,87.952325,0.008077,
600,2020,0.220648,-0.194792,0.999976,0.000000,-0.000673,0.008116,-0.003972,0.009645,-0.002202,-68.944288,0.010108,
1890,1310,-2.724656,-5.689079,0.999997,0.000200,-0.003611,0.007321,0.000148,0.007323,-0.003613,89.223592,0.007323,
1010,860,1.147118,-9.474662,0.999994,0.000289,-0.005849,0.010344,-0.000789,0.010382,-0.005887,-87.216865,0.010413,
1430,930,-1.433250,-8.887904,0.999993,0.000305,-0.004939,0.011193,0.001608,0.011352,-0.005097,84.360869,0.011371,
910,1980,0.107702,-0.282048,0.999998,0.000155,-0.000436,0.005224,-0.000956,0.005381,-0.000593,-80.667777,0.005901,
1900,820,-2.940789,-8.878782,0.999997,0.000000,-0.003391,0.006811,-0.000178,0.006814,-0.003394,-88.999150,0.006814,
1560,340,-0.642103,-13.221034,0.999997,0.000217,-0.002754,0.006738,-0.000016,0.006738,-0.002754,-89.905771,0.006775,
1160,770,0.138143,-11.417326,0.999998,0.000172,-0.002629,0.003571,-0.002666,0.004560,-0.003618,-69.655278,0.004814,
1840,1970,-0.515678,-0.532664,0.999996,0.000215,-0.003465,0.008095,0.001865,0.008388,-0.003758,81.057974,0.008403,
940,1020,2.082215,-7.625452,0.999998,0.000183,-0.002699,0.008881,0.000126,0.008882,-0.002700,89.376440,0.009107,
1070,350,0.268626,-13.397034,0.999998,0.000190,-0.001915,0.005775,-0.000191,0.005779,-0.001919,-88.578372,0.005887,
860,900,2.056742,-8.605222,0.999998,0.000184,-0.003894,0.008549,0.001060,0.008639,-0.003983,85.166919,0.008648,
1420,70,-0.047219,-14.881514,0.999998,0.000151,-0.000376,0.004793,-0.000414,0.004826,-0.000409,-85.448598,0.005352,
1220,1260,0.020262,-3.513425,0.999996,0.000239,-0.002208,0.001602,0.000490,0.001664,-0.002270,82.787032,0.002351,
1470,870,-1.296310,-9.255870,0.999994,0.000285,-0.005637,0.010383,0.000232,0.010386,-0.005640,89.172243,0.010399,
610,630,2.294188,-10.377476,0.999997,0.000223,-0.003788,0.007651,0.000073,0.007651,-0.003788,89.636397,0.007651,
660,750,2.415616,-9.567047,0.999996,0.000221,-0.003816,0.007573,0.000504,0.007596,-0.003838,87.472797,0.007596,
680,1900,0.748931,-0.952208,0.999997,0.000222,-0.003040,0.007536,-0.001436,0.007727,-0.003231,-82.404124,0.007762,
1790,520,-1.798347,-11.370976,0.999997,0.000193,-0.003853,0.007692,0.000100,0.007693,-0.003854,89.504563,0.007693,
1300,1590,-0.126956,-2.266764,0.999997,0.000210,-0.001977,0.005383,-0.000402,0.005404,-0.001999,-86.879147,0.005465,
1810,770,-2.496587,-9.403101,0.999997,0.000218,-0.003776,0.007489,-0.000507,0.007511,-0.003799,-87.427602,0.007512,
1100,130,0.073339,-14.596175,0.999998,0.000129,-0.000554,0.004953,0.000239,0.004963,-0.000565,87.524742,0.005434,
1560,230,-0.443974,-13.939328,0.999998,0.000173,-0.001917,0.006265,-0.000540,0.006300,-0.001952,-86.241390,0.006450,
1850,1290,-2.630663,-5.751895,0.999997,0.000208,-0.003657,0.007362,0.000342,0.007373,-0.003667,88.225202,0.007373,
590,540,2.157353,-11.022538,0.999997,0.000193,-0.003743,0.007580,-0.000009,0.007581,-0.003743,-89.956310,0.007581,
1720,1920,-0.494079,-0.712447,0.999997,0.000195,-0.001763,0.006758,0.001710,0.007089,-0.002093,79.068019,0.007284,
1680,1870,-0.589665,-1.014579,0.999997,0.000230,-0.002509,0.006834,0.001013,0.006942,-0.002617,83.881802,0.007012,
1120,1820,0.121483,-1.053536,0.999998,0.000155,-0.001247,0.005235,-0.000055,0.005236,-0.001248,-89.515190,0.005469,
590,160,1.074396,-13.872208,0.999998,0.000201,-0.003654,0.007666,0.000591,0.007697,-0.003685,87.017469,0.007699,
680,170,0.816980,-14.050680,0.999997,0.000200,-0.003087,0.007546,0.001256,0.007693,-0.003233,83.353579,0.007725,
1470,1400,-0.697833,-3.905956,0.999995,0.000256,-0.004426,0.007707,-0.001499,0.007890,-0.004609,-83.060421,0.007927,
1020,1150,1.347301,-6.058548,0.999994,0.000283,-0.005142,0.010838,0.000746,0.010872,-0.005177,87.332397,0.010877,
600,30,0.171313,-14.975634,0.999979,0.000000,0.000378,0.008674,0.004662,0.010766,-0.001714,65.832373,0.011570,
1390,260,-0.197442,-13.908396,0.999998,0.000169,-0.001369,0.005471,-0.000098,0.005472,-0.001371,-89.179159,0.005694,
1760,1140,-2.662484,-6.743074,0.999997,0.000223,-0.003475,0.007304,0.000586,0.007336,-0.003507,86.896138,0.007338,
1670,1820,-0.715875,-1.349859,0.999998,0.000190,-0.002885,0.007018,0.000623,0.007057,-0.002924,86.415570,0.007091,
860,1530,1.072990,-3.325150,0.999997,0.000189,-0.003882,0.007657,0.000488,0.007678,-0.003902,87.585123,0.007678,
900,60,0.080606,-14.916208,0.999998,0.000166,-0.000384,0.005184,0.000946,0.005340,-0.000540,80.619032,0.005879,
670,1660,1.538412,-2.798753,0.999996,0.000222,-0.003721,0.007595,0.000072,0.007596,-0.003721,89.633069,0.007596,
1470,830,-1.107569,-9.669544,0.999994,0.000286,-0.005862,0.009939,0.000704,0.009970,-0.005894,87.454324,0.010025,
1000,70,0.059409,-14.877868,0.999999,0.000153,-0.000263,0.004917,0.000602,0.004986,-0.000332,83.461415,0.005575,
740,1590,1.425129,-3.162265,0.999996,0.000219,-0.003804,0.007635,0.000175,0.007638,-0.003807,89.121832,0.007638,
580,960,3.131960,-7.984997,0.999997,0.000189,-0.002928,0.006211,-0.000054,0.006211,-0.002928,-89.659298,0.006215,
1630,1760,-0.757141,-1.710368,0.999997,0.000202,-0.002710,0.006968,0.000343,0.006981,-0.002723,87.971369,0.007037,
1010,840,1.051180,-9.677780,0.999996,0.000237,-0.005897,0.010054,-0.001104,0.010130,-0.005973,-86.059725,0.010184,
730,1590,1.463938,-3.183994,0.999996,0.000223,-0.003802,0.007636,0.000158,0.007638,-0.003804,89.208549,0.007639,
810,1790,0.746796,-1.531309,0.999997,0.000191,-0.002815,0.007004,-0.000481,0.007027,-0.002838,-87.201052,0.007070,
1440,1250,-0.834058,-5.015834,0.999996,0.000219,-0.005826,0.009188,-0.001703,0.009379,-0.006017,-83.608192,0.009504,
1090,480,0.286720,-12.667475,0.999997,0.000188,-0.002448,0.005848,-0.000796,0.005923,-0.002524,-84.571014,0.005945,
1250,1380,-0.029358,-3.215985,0.999998,0.000144,-0.001609,0.003632,-0.000488,0.003677,-0.001654,-84.729168,0.003683,
1180,140,0.029400,-14.560950,0.999998,0.000142,-0.000511,0.004789,0.000094,0.004791,-0.000513,88.989301,0.005261,
1460,390,-0.448701,-13.061679,0.999997,0.000210,-0.002397,0.006280,0.000325,0.006293,-0.002409,87.857469,0.006350,
1600,640,-1.264403,-10.888637,0.999996,0.000236,-0.004547,0.008254,0.000368,0.008264,-0.004558,88.353706,0.008279,
1430,910,-1.311930,-9.116699,0.999994,0.000275,-0.005023,0.010881,0.001484,0.011018,-0.005160,84.715966,0.011026,
1900,810,-2.917611,-8.946614,0.999998,0.000000,-0.003391,0.006798,-0.000175,0.006801,-0.003394,-89.013992,0.006801,
1680,1500,-1.435955,-3.756722,0.999995,0.000248,-0.004075,0.007854,-0.000203,0.007858,-0.004079,-89.025997,0.007859,
1880,1310,-2.689170,-5.666084,0.999997,0.000224,-0.003626,0.007315,0.000175,0.007317,-0.003629,89.083311,0.007317,
1750,1120,-2.661749,-6.884548,0.999997,0.000226,-0.003440,0.007346,0.000613,0.007381,-0.003474,86.757924,0.007385,
640,1480,2.047698,-4.249730,0.999997,0.000188,-0.003851,0.007690,0.000005,0.007690,-0.003851,89.975996,0.007690,
680,1880,0.840822,-1.104705,0.999997,0.000223,-0.003175,0.007509,-0.001189,0.007639,-0.003306,-83.727913,0.007662,
1870,1040,-3.124986,-7.479134,0.999998,0.000174,-0.003080,0.006526,0.000143,0.006528,-0.003082,89.146577,0.006531,
760,490,1.398279,-11.813863,0.999997,0.000224,-0.003871,0.007675,-0.000203,0.007679,-0.003874,-88.994712,0.007679,
590,2020,0.213666,-0.196063,0.999981,0.000000,0.000279,0.009096,-0.004892,0.011273,-0.001898,-66.011434,0.012071,
1850,1270,-2.684258,-5.898267,0.999997,0.000207,-0.003607,0.007305,0.000381,0.007318,-0.003620,88.004117,0.007319,
1560,320,-0.610735,-13.354153,0.999997,0.000215,-0.002585,0.006677,-0.000073,0.006677,-0.002585,-89.548066,0.006734,
940,480,0.723744,-12.327942,0.999997,0.000207,-0.003402,0.007078,-0.000674,0.007121,-0.003445,-86.333839,0.007122,
580,400,1.884232,-12.056876,0.999997,0.000176,-0.003763,0.007412,-0.000076,0.007412,-0.003763,-89.608374,0.007413,
1050,260,0.232285,-13.891973,0.999998,0.000164,-0.001628,0.005550,0.000030,0.005550,-0.001628,89.757556,0.005706,
1220,1240,0.038207,-3.539412,0.999996,0.000221,-0.003159,0.001636,0.000392,0.001668,-0.003191,85.363344,0.003192,
990,90,0.090426,-14.775850,0.999998,0.000175,-0.000468,0.005046,0.000608,0.005112,-0.000534,83.781973,0.005620,
1730,1440,-1.774853,-4.351890,0.999997,0.000195,-0.004108,0.007901,0.000047,0.007901,-0.004108,89.777144,0.007903,
1760,1120,-2.695803,-6.888187,0.999997,0.000224,-0.003412,0.007307,0.000604,0.007341,-0.003446,86.785140,0.007345,
1640,1100,-2.325932,-6.994567,0.999996,0.000245,-0.003251,0.007860,0.000760,0.007912,-0.003302,86.103475,0.007948,
640,750,2.491376,-9.531554,0.999997,0.000198,-0.003754,0.007470,0.000437,0.007487,-0.003771,87.771982,0.007487,
860,730,1.496145,-10.110296,0.999996,0.000222,-0.004923,0.008723,0.000103,0.008723,-0.004924,89.566693,0.008747,
1720,610,-1.720794,-10.831259,0.999997,0.000201,-0.004159,0.007909,-0.000045,0.007909,-0.004159,-89.787138,0.007912,
1340,130,-0.058550,-14.602125,0.999998,0.000135,-0.000638,0.004842,-0.000162,0.004847,-0.000643,-88.304763,0.005265,
1280,1640,-0.086299,-1.988822,0.999998,0.000193,-0.001717,0.005324,-0.000130,0.005327,-0.001720,-88.941933,0.005437,
980,1530,0.628122,-3.000843,0.999997,0.000216,-0.003422,0.006933,0.000949,0.007019,-0.003508,84.805560,0.007019,
1020,1130,1.467668,-6.280420,0.999994,0.000305,-0.004807,0.011089,0.000759,0.011125,-0.004843,87.272162,0.011156,
890,1720,0.673600,-1.889171,0.999997,0.000217,-0.002921,0.006819,0.000041,0.006819,-0.002921,89.757170,0.006842,
1740,1250,-2.321452,-5.883520,0.999997,0.000218,-0.004015,0.007822,0.000755,0.007870,-0.004063,86.365350,0.007871,
570,960,3.160605,-7.977013,0.999981,0.000511,-0.002857,0.006125,-0.000121,0.006127,-0.002859,-89.228972,0.006131,
1180,120,0.026013,-14.656192,0.999998,0.000165,-0.000439,0.004765,0.000114,0.004767,-0.000441,88.745796,0.005269,
1450,1500,-0.541248,-3.112998,0.999997,0.000199,-0.003332,0.006733,-0.001139,0.006860,-0.003459,-83.624142,0.006860,
1250,1360,-0.028785,-3.285906,0.999998,0.000145,-0.001552,0.003332,-0.000545,0.003392,-0.001612,-83.705868,0.003393,
1180,1790,0.063629,-1.189927,0.999998,0.000157,-0.001169,0.005217,-0.000017,0.005217,-0.001169,-89.849581,0.005476,
890,1990,0.095763,-0.233393,0.999998,0.000160,-0.000595,0.005257,-0.001002,0.005423,-0.000762,-80.548713,0.005872,
960,410,0.587095,-12.850989,0.999996,0.000248,-0.002818,0.006571,-0.000428,0.006590,-0.002838,-87.392917,0.006611,
1600,660,-1.307461,-10.722242,0.999996,0.000237,-0.004649,0.008362,0.000307,0.008369,-0.004656,88.647734,0.008387,
610,610,2.246603,-10.532007,0.999997,0.000220,-0.003810,0.007662,0.000052,0.007662,-0.003811,89.738649,0.007662,
1110,1340,0.265490,-3.741786,0.999996,0.000254,-0.003403,0.005624,0.002651,0.006345,-0.004124,74.785284,0.006440,
1070,330,0.254651,-13.512345,0.999998,0.000179,-0.001801,0.005752,-0.000119,0.005754,-0.001803,-89.094282,0.005886,
1030,800,0.776960,-10.198451,0.999995,0.000248,-0.005804,0.009050,-0.001899,0.009289,-0.006043,-82.830299,0.009428,
1380,1700,-0.247604,-1.739822,0.999998,0.000180,-0.001774,0.005693,-0.000178,0.005697,-0.001778,-88.634368,0.005830,
1090,460,0.279125,-12.784182,0.999998,0.000176,-0.002342,0.005812,-0.000686,0.005869,-0.002399,-85.222914,0.005902,
1140,770,0.192106,-11.286743,0.999995,0.000279,-0.003161,0.004438,-0.003030,0.005498,-0.004221,-70.713246,0.005755,
1680,1700,-1.045061,-2.237214,0.999997,0.000187,-0.003346,0.007328,0.000028,0.007328,-0.003346,89.849630,0.007338,
1810,970,-2.909099,-7.959493,0.999998,0.000172,-0.003254,0.006841,-0.000173,0.006844,-0.003257,-89.020936,0.006846,
1430,890,-1.186862,-9.329418,0.999994,0.000277,-0.005216,0.010604,0.001446,0.010735,-0.005347,84.820704,0.010735,
680,1860,0.919211,-1.253210,0.999997,0.000208,-0.003304,0.007601,-0.000936,0.007681,-0.003384,-85.127611,0.007699,
990,70,0.061631,-14.877853,0.999999,0.000148,-0.000291,0.004935,0.000624,0.005008,-0.000365,83.289503,0.005584,
1560,210,-0.402674,-14.061839,0.999998,0.000188,-0.001773,0.006104,-0.000627,0.006153,-0.001823,-85.477066,0.006321,
1630,1900,-0.392697,-0.772173,0.999997,0.000194,-0.001475,0.006276,0.001165,0.006447,-0.001647,81.633488,0.006699,
1560,300,-0.576902,-13.487585,0.999997,0.000210,-0.002424,0.006613,-0.000190,0.006617,-0.002428,-88.795445,0.006694,
1850,1060,-3.050919,-7.341638,0.999998,0.000185,-0.003135,0.006577,0.000172,0.006580,-0.003138,88.983189,0.006582,
590,30,0.154695,-14.985692,0.999983,0.000000,0.001102,0.009571,0.005558,0.012324,-0.001651,63.652069,0.013380,
640,1460,2.094780,-4.404439,0.999997,0.000193,-0.003868,0.007679,-0.000058,0.007679,-0.003869,-89.709971,0.007679,
760,470,1.358784,-11.967816,0.999997,0.000208,-0.003823,0.007610,-0.000202,0.007614,-0.003826,-88.987329,0.007614,
1100,1470,0.283716,-3.043188,0.999996,0.000213,-0.002770,0.005728,0.001370,0.005943,-0.002986,81.061587,0.005943,
1330,260,-0.118562,-13.941970,0.999998,0.000189,-0.001360,0.005241,0.000045,0.005241,-0.001360,89.608880,0.005440,
810,1750,0.844230,-1.816243,0.999998,0.000173,-0.003029,0.007125,-0.000254,0.007131,-0.003035,-88.565851,0.007157,
1850,1250,-2.734226,-6.043353,0.999997,0.000198,-0.003548,0.007098,0.000368,0.007111,-0.003560,88.021392,0.007111,
750,760,2.082597,-9.635759,0.999996,0.000237,-0.004185,0.008082,0.000636,0.008115,-0.004218,87.041836,0.008117,
1640,1080,-2.364088,-7.150885,0.999996,0.000236,-0.003110,0.007785,0.000597,0.007818,-0.003142,86.873277,0.007868,
1630,620,-1.358563,-10.968938,0.999996,0.000233,-0.004426,0.008057,0.000272,0.008063,-0.004432,88.751460,0.008076,
1490,1500,-0.683483,-3.234980,0.999997,0.000199,-0.003700,0.007178,-0.001048,0.007278,-0.003800,-84.546833,0.007280,
1760,1100,-2.729038,-7.036307,0.999997,0.000216,-0.003355,0.007264,0.000497,0.007287,-0.003378,87.327789,0.007294,
1320,130,-0.044765,-14.606531,0.999998,0.000137,-0.000596,0.004838,-0.000150,0.004842,-0.000600,-88.417838,0.005279,
700,1150,2.655193,-6.670948,0.999997,0.000207,-0.003512,0.007370,-0.000614,0.007405,-0.003547,-86.779204,0.007407,
890,1970,0.140507,-0.337979,0.999998,0.000162,-0.000802,0.005334,-0.000974,0.005485,-0.000953,-81.193095,0.005861,
940,460,0.698540,-12.470445,0.999998,0.000193,-0.003275,0.006966,-0.000606,0.007002,-0.003311,-86.624188,0.007005,
1600,1100,-2.197189,-6.974328,0.999997,0.000231,-0.003271,0.008164,0.000835,0.008224,-0.003331,85.846600,0.008274,
1220,820,0.038469,-11.576061,0.999996,0.000223,-0.003595,0.001789,-0.000308,0.001807,-0.003613,-86.735633,0.003613,
1280,1620,-0.087905,-2.095050,0.999998,0.000173,-0.001788,0.005324,-0.000155,0.005327,-0.001792,-88.754018,0.005421,
1720,1250,-2.240029,-5.857924,0.999996,0.000245,-0.004060,0.007933,0.000776,0.007983,-0.004110,86.311000,0.007984,
1900,800,-2.895971,-9.014541,0.999998,0.000000,-0.003411,0.006831,-0.000137,0.006833,-0.003413,-89.234804,0.006833,
1830,1180,-2.828363,-6.513523,0.999997,0.000216,-0.003466,0.007086,0.000491,0.007109,-0.003489,87.341703,0.007109,
1700,730,-1.942623,-9.903700,0.999996,0.000228,-0.004310,0.008182,-0.000496,0.008202,-0.004329,-87.727690,0.008206,
1180,1850,0.048309,-0.881695,0.999999,0.000141,-0.000866,0.005060,-0.000081,0.005061,-0.000867,-89.220743,0.005413,
1580,930,-2.061760,-8.372670,0.999998,0.000190,-0.003565,0.008640,-0.001067,0.008732,-0.003658,-85.039224,0.008770,
1030,780,0.718354,-10.379842,0.999996,0.000224,-0.005646,0.008810,-0.002045,0.009094,-0.005930,-82.101849,0.009233,
1220,1370,0.017173,-3.243495,0.999999,0.000136,-0.001582,0.003461,0.000358,0.003486,-0.001608,85.963864,0.003490,
1560,280,-0.541205,-13.621466,0.999997,0.000194,-0.002255,0.006515,-0.000325,0.006527,-0.002267,-87.878018,0.006628,
1430,1210,-0.937392,-5.327087,0.999996,0.000233,-0.005782,0.009788,-0.001607,0.009952,-0.005946,-84.168293,0.010015,
680,1570,1.695548,-3.461722,0.999996,0.000235,-0.003870,0.007674,0.000128,0.007676,-0.003871,89.363558,0.007676,
1160,1790,0.086081,-1.193165,0.999999,0.000143,-0.001167,0.005240,-0.000044,0.005241,-0.001167,-89.603379,0.005503,
590,1090,3.104485,-7.159410,0.999997,0.000215,-0.003092,0.006288,-0.000030,0.006288,-0.003092,-89.814224,0.006288,
810,1210,2.082821,-6.102375,0.999997,0.000229,-0.004178,0.008339,-0.000954,0.008411,-0.004251,-85.667546,0.008412,
1600,630,-1.243665,-10.971704,0.999995,0.000245,-0.004488,0.008155,0.000408,0.008168,-0.004501,88.151536,0.008182,
1680,1940,-0.350557,-0.556597,0.999997,0.000216,-0.001655,0.006351,0.001552,0.006641,-0.001945,79.403500,0.006828,
720,190,0.769443,-13.986708,0.999998,0.000181,-0.003028,0.007300,0.000976,0.007391,-0.003120,84.650193,0.007421,
1850,1230,-2.781176,-6.182497,0.999998,0.000177,-0.003499,0.007028,0.000397,0.007043,-0.003514,87.842205,0.007043,
1080,1470,0.339242,-3.097624,0.999997,0.000181,-0.002922,0.006018,0.001396,0.006231,-0.003135,81.329106,0.006231,
640,1440,2.142908,-4.557959,0.999997,0.000219,-0.003855,0.007707,-0.000092,0.007708,-0.003856,-89.544930,0.007708,
1380,1680,-0.259731,-1.854914,0.999998,0.000177,-0.001884,0.005756,-0.000239,0.005763,-0.001892,-88.207398,0.005875,
680,1840,0.998918,-1.410239,0.999997,0.000202,-0.003378,0.007578,-0.000746,0.007628,-0.003429,-86.123868,0.007641,
1070,310,0.240480,-13.626779,0.999998,0.000180,-0.001676,0.005680,-0.000062,0.005680,-0.001676,-89.515884,0.005837,
580,2020,0.208303,-0.186968,0.999980,0.000000,0.001284,0.010040,-0.005625,0.012790,-0.001466,-63.945167,0.013999,
1190,260,0.050337,-13.959822,0.999998,0.000178,-0.001157,0.005179,-0.000011,0.005179,-0.001157,-89.896895,0.005436,
990,270,0.342511,-13.781317,0.999997,0.000190,-0.001734,0.005935,0.000189,0.005939,-0.001738,88.592611,0.006107,
1640,1280,-1.805647,-5.485240,0.999996,0.000229,-0.004649,0.008621,0.000588,0.008647,-0.004675,87.469389,0.008657,
610,590,2.198335,-10.687824,0.999997,0.000192,-0.003856,0.007649,0.000046,0.007649,-0.003857,89.768661,0.007649,
1360,390,-0.230026,-13.199010,0.999998,0.000185,-0.001888,0.005652,0.000284,0.005663,-0.001899,87.843156,0.005765,
1810,1210,-2.687910,-6.272596,0.999997,0.000218,-0.003573,0.007260,0.000586,0.007291,-0.003604,86.914887,0.007291,
1090,1340,0.336430,-3.856127,0.999997,0.000193,-0.003786,0.006276,0.002613,0.006914,-0.004424,76.279127,0.007003,
1630,1880,-0.452131,-0.901293,0.999997,0.000224,-0.001667,0.006366,0.001048,0.006501,-0.001802,82.690231,0.006713,
1100,610,0.286451,-11.934255,0.999998,0.000196,-0.002806,0.005717,-0.001542,0.005988,-0.003077,-80.053698,0.005988,
1180,100,0.019700,-14.753089,0.999998,0.000167,-0.000335,0.004717,0.000104,0.004719,-0.000337,88.825194,0.005266,
900,730,1.294194,-10.225470,0.999995,0.000256,-0.005114,0.008869,-0.000242,0.008873,-0.005118,-89.007951,0.008908,
1460,590,-0.600056,-11.732299,0.999997,0.000210,-0.003784,0.007078,0.001367,0.007247,-0.003953,82.937032,0.007257,
1600,1080,-2.242741,-7.138723,0.999997,0.000230,-0.003056,0.008099,0.000682,0.008141,-0.003098,86.514235,0.008218,
1700,930,-2.481344,-8.294628,0.999998,0.000202,-0.003445,0.007620,-0.000678,0.007661,-0.003486,-86.506605,0.007672,
1260,1330,-0.040704,-3.391003,0.999997,0.000199,-0.001613,0.002947,-0.001003,0.003158,-0.001824,-78.124277,0.003171,
890,1950,0.182844,-0.447390,0.999998,0.000173,-0.001001,0.005562,-0.000961,0.005699,-0.001139,-81.842591,0.006032,
1780,1250,-2.476396,-5.936508,0.999997,0.000227,-0.003797,0.007598,0.000669,0.007638,-0.003836,86.650597,0.007638,
1760,1080,-2.748285,-7.180838,0.999997,0.000205,-0.003300,0.007177,0.000257,0.007183,-0.003306,88.595397,0.007191,
590,1530,2.124823,-3.984429,0.999998,0.000158,-0.003750,0.007581,0.000020,0.007581,-0.003750,89.899027,0.007581,
1680,960,-2.467451,-8.071505,0.999997,0.000215,-0.003303,0.007658,-0.000661,0.007698,-0.003343,-86.559713,0.007720,
640,1150,2.859363,-6.715845,0.999997,0.000209,-0.003356,0.006932,-0.000408,0.006948,-0.003372,-87.733146,0.006949,
1870,540,-2.146913,-11.029214,0.999998,0.000160,-0.003804,0.007609,0.000015,0.007609,-0.003804,89.926048,0.007609,
1760,510,-1.661110,-11.519538,0.999996,0.000226,-0.003905,0.007720,0.000113,0.007721,-0.003906,89.444312,0.007721,
580,30,0.138365,-14.993679,0.999996,0.000000,0.001239,0.010584,0.006266,0.013728,-0.001904,63.356467,0.014875,
1260,1790,-0.034654,-1.184899,0.999998,0.000169,-0.001216,0.005169,-0.000060,0.005169,-0.001216,-89.461222,0.005405,
680,1820,1.066902,-1.559665,0.999997,0.000202,-0.003466,0.007584,-0.000567,0.007613,-0.003495,-87.072525,0.007621,
1850,1210,-2.828891,-6.325170,0.999998,0.000173,-0.003474,0.007082,0.000444,0.007101,-0.003493,87.597140,0.007101,
1470,1180,-1.323887,-5.912994,0.999994,0.000306,-0.005581,0.010400,-0.000157,0.010401,-0.005582,-89.436536,0.010410,
1570,1440,-1.085049,-3.940078,0.999997,0.000195,-0.004406,0.007984,-0.000670,0.008020,-0.004442,-86.912153,0.008036,
1580,630,-1.154481,-11.029741,0.999996,0.000211,-0.004481,0.008128,0.000553,0.008152,-0.004505,87.491320,0.008167,
1640,1520,-1.236696,-3.499169,0.999997,0.000189,-0.003971,0.007781,-0.000359,0.007792,-0.003982,-88.253573,0.007792,
720,170,0.687684,-14.133380,0.999997,0.000184,-0.002909,0.007221,0.001174,0.007355,-0.003044,83.476935,0.007391,
1300,130,-0.036554,-14.607278,0.999998,0.000201,-0.000454,0.004834,-0.000122,0.004837,-0.000457,-88.678505,0.005341,
810,1190,2.146132,-6.273636,0.999996,0.000228,-0.004037,0.008315,-0.000997,0.008395,-0.004117,-85.413147,0.008395,
760,1870,0.646919,-1.043499,0.999996,0.000223,-0.002396,0.006939,-0.001190,0.007089,-0.002545,-82.847880,0.007182,
1900,790,-2.870054,-9.083890,0.999998,0.000000,-0.003454,0.006897,-0.000103,0.006898,-0.003455,-89.428340,0.006898,
1170,260,0.073529,-13.954399,0.999998,0.000145,-0.001115,0.005203,0.000030,0.005203,-0.001115,89.730668,0.005479,
1220,800,0.027067,-11.602961,0.999997,0.000223,-0.002425,0.001590,-0.000477,0.001646,-0.002481,-83.310246,0.002525,
1430,1450,-0.497984,-3.384734,0.999996,0.000229,-0.003545,0.006777,-0.001486,0.006986,-0.003755,-81.968279,0.006993,
1540,210,-0.371275,-14.076485,0.999997,0.000194,-0.001573,0.005996,-0.000602,0.006044,-0.001621,-85.482062,0.006257,
1380,1660,-0.268611,-1.967950,0.999998,0.000185,-0.002015,0.005725,-0.000341,0.005740,-0.002030,-87.480181,0.005821,
940,440,0.674614,-12.610854,0.999997,0.000220,-0.003090,0.006878,-0.000506,0.006903,-0.003115,-87.101851,0.006914,
1280,1600,-0.090246,-2.201843,0.999998,0.000174,-0.001834,0.005279,-0.000206,0.005285,-0.001840,-88.338727,0.005366,
1070,290,0.225367,-13.739634,0.999998,0.000185,-0.001570,0.005625,0.000015,0.005625,-0.001570,89.878826,0.005805,
890,1700,0.706791,-2.025754,0.999996,0.000251,-0.003068,0.006786,0.000131,0.006788,-0.003070,89.236824,0.006798,
1810,230,-1.143853,-13.537078,0.999997,0.000201,-0.003454,0.007660,-0.000596,0.007692,-0.003486,-86.940296,0.007703,
880,730,1.395446,-10.165893,0.999996,0.000228,-0.005041,0.008801,-0.000050,0.008801,-0.005041,-89.794713,0.008832,
1080,390,0.272869,-13.176446,0.999997,0.000191,-0.002024,0.005777,-0.000336,0.005791,-0.002038,-87.541417,0.005875,
1350,1980,-0.031565,-0.255293,0.999998,0.000150,-0.000292,0.004703,0.000261,0.004717,-0.000306,87.012289,0.005279,
1560,480,-0.848317,-12.239297,0.999997,0.000203,-0.003451,0.007220,0.000530,0.007246,-0.003477,87.163388,0.007248,
580,1090,3.135041,-7.164751,0.999997,0.000218,-0.002992,0.006231,0.000049,0.006231,-0.002993,89.698716,0.006233,
990,510,0.585360,-12.247855,0.999997,0.000225,-0.003184,0.006772,-0.000853,0.006844,-0.003256,-85.139362,0.006847,
640,1420,2.191289,-4.713032,0.999997,0.000230,-0.003835,0.007695,-0.000147,0.007697,-0.003837,-89.271164,0.007697,
1620,930,-2.207464,-8.335960,0.999997,0.000247,-0.003500,0.008282,-0.000972,0.008361,-0.003580,-85.317484,0.008390,
1760,1250,-2.400076,-5.909333,0.999997,0.000218,-0.003895,0.007716,0.000725,0.007761,-0.003941,86.439553,0.007761,
1220,1350,0.017386,-3.309672,0.999999,0.000152,-0.001525,0.003130,0.000394,0.003163,-0.001558,85.197635,0.003163,
1680,920,-2.396722,-8.380673,0.999997,0.000237,-0.003537,0.007842,-0.000818,0.007901,-0.003596,-85.910783,0.007911,
1490,1480,-0.701458,-3.379437,0.999997,0.000229,-0.003786,0.007294,-0.001093,0.007401,-0.003893,-84.419546,0.007404,
890,1930,0.231638,-0.560856,0.999998,0.000183,-0.001199,0.005708,-0.000944,0.005835,-0.001325,-82.353141,0.006117,
1760,1060,-2.760473,-7.323010,0.999997,0.000189,-0.003258,0.007205,0.000247,0.007211,-0.003263,88.650148,0.007222,
1600,1060,-2.268521,-7.298318,0.999997,0.000225,-0.002937,0.007962,0.000388,0.007976,-0.002951,87.962985,0.008065,
1890,440,-2.000623,-11.743081,0.999997,0.000183,-0.003697,0.007512,0.000031,0.007512,-0.003697,89.839549,0.007513,
680,1800,1.132656,-1.713913,0.999997,0.000208,-0.003505,0.007579,-0.000450,0.007597,-0.003523,-87.676339,0.007604,
1870,530,-2.124181,-11.106102,0.999997,0.000184,-0.003786,0.007606,0.000024,0.007606,-0.003786,89.881558,0.007606,
1020,1210,1.015392,-5.420757,0.999996,0.000243,-0.005881,0.010046,0.001300,0.010151,-0.005987,85.365003,0.010206,
570,2020,0.200571,-0.188187,0.999933,0.000000,0.001696,0.011063,-0.006402,0.014312,-0.001552,-63.095053,0.015706,
1550,1440,-0.995992,-3.877470,0.999996,0.000220,-0.004362,0.007923,-0.000787,0.007973,-0.004412,-86.351334,0.007988,
1640,540,-1.245964,-11.581739,0.999997,0.000200,-0.004002,0.007788,0.000365,0.007799,-0.004014,88.228927,0.007800,
1080,1790,0.192311,-1.233633,0.999998,0.000169,-0.001350,0.005484,-0.000087,0.005485,-0.001351,-89.271053,0.005716,
1850,1190,-2.876855,-6.468707,0.999997,0.000184,-0.003406,0.007002,0.000424,0.007019,-0.003423,87.673228,0.007020,
700,170,0.753631,-14.091461,0.999997,0.000195,-0.003162,0.007374,0.001116,0.007491,-0.003279,84.019687,0.007511,
810,1170,2.203848,-6.436230,0.999996,0.000228,-0.003871,0.008179,-0.000967,0.008256,-0.003948,-85.441569,0.008259,
1830,1900,-0.892436,-1.051180,0.999997,0.000219,-0.003493,0.007789,0.000890,0.007859,-0.003562,85.517898,0.007870,
1330,640,-0.195818,-11.879329,0.999997,0.000210,-0.002549,0.005103,0.001652,0.005444,-0.002891,78.324773,0.005448,
1220,780,0.021837,-11.634279,0.999997,0.000202,-0.001838,0.001770,-0.000508,0.001841,-0.001909,-82.131235,0.002166,
1180,300,0.071586,-13.748277,0.999998,0.000146,-0.001326,0.005267,-0.000001,0.005267,-0.001326,-89.989127,0.005479,
720,110,0.421403,-14.556591,0.999997,0.000200,-0.002241,0.006789,0.001749,0.007116,-0.002568,79.411099,0.007207,
1080,330,0.238008,-13.520263,0.999997,0.000182,-0.001687,0.005711,-0.000092,0.005712,-0.001688,-89.290173,0.005869,
610,570,2.149782,-10.838795,0.999997,0.000185,-0.003834,0.007626,0.000009,0.007626,-0.003834,89.954758,0.007626,
1430,350,-0.346379,-13.349293,0.999997,0.000203,-0.002184,0.005923,0.000263,0.005931,-0.002193,88.143653,0.005998,
1530,360,-0.599576,-13.129344,0.999997,0.000213,-0.002546,0.006528,0.000089,0.006529,-0.002547,89.438189,0.006582,
740,1850,0.766254,-1.210704,0.999998,0.000180,-0.002661,0.007268,-0.001066,0.007381,-0.002774,-83.941226,0.007456,
610,1340,2.510793,-5.387537,0.999996,0.000235,-0.003716,0.007473,-0.000256,0.007479,-0.003722,-88.688318,0.007479,
590,570,2.228130,-10.792363,0.999996,0.000240,-0.003692,0.007662,0.000055,0.007662,-0.003692,89.724702,0.007664,
1620,250,-0.628501,-13.732242,0.999997,0.000213,-0.002422,0.006749,-0.000587,0.006786,-0.002459,-86.352276,0.006871,
570,1090,3.163455,-7.172521,0.999973,0.000594,-0.002932,0.006155,0.000117,0.006157,-0.002934,89.264196,0.006159,
1560,720,-1.256463,-10.322926,0.999996,0.000251,-0.005134,0.008844,0.000361,0.008853,-0.005144,88.523618,0.008892,
980,1460,0.692161,-3.503067,0.999997,0.000209,-0.003925,0.007360,0.001199,0.007486,-0.004051,83.999814,0.007495,
1380,1640,-0.279697,-2.082917,0.999997,0.000191,-0.002165,0.005788,-0.000484,0.005817,-0.002194,-86.532885,0.005875,
1680,380,-1.097570,-12.699784,0.999998,0.000175,-0.003459,0.007395,0.000071,0.007395,-0.003459,89.624214,0.007400,
1900,780,-2.848999,-9.153324,0.999996,0.000000,-0.003518,0.006985,-0.000088,0.006986,-0.003519,-89.519607,0.006986,
1070,270,0.210105,-13.852993,0.999998,0.000178,-0.001464,0.005525,0.000063,0.005526,-0.001465,89.482424,0.005726,
640,1400,2.241915,-4.867063,0.999997,0.000208,-0.003841,0.007602,-0.000218,0.007607,-0.003845,-88.910467,0.007607,
1760,1040,-2.773783,-7.470502,0.999997,0.000188,-0.003237,0.007239,0.000188,0.007242,-0.003241,88.973872,0.007255,
1180,770,0.089187,-11.529382,0.999997,0.000308,-0.002189,0.002836,-0.002103,0.003601,-0.002953,-70.034567,0.003839,
1770,1120,-2.729831,-6.894175,0.999997,0.000213,-0.003396,0.007272,0.000590,0.007304,-0.003429,86.846197,0.007309,
1600,1040,-2.282969,-7.457611,0.999997,0.000209,-0.002831,0.008018,0.000215,0.008022,-0.002835,88.864387,0.008136,
1450,1460,-0.566020,-3.387282,0.999996,0.000231,-0.003747,0.006983,-0.001419,0.007167,-0.003932,-82.591397,0.007179,
1810,190,-0.988510,-13.848376,0.999997,0.000209,-0.003282,0.007694,-0.000952,0.007776,-0.003364,-85.081874,0.007799,
1230,1980,0.000037,-0.250544,0.999999,0.000133,-0.000296,0.004564,0.000002,0.004564,-0.000296,89.974738,0.005108,
1520,1370,-0.976252,-4.349958,0.999997,0.000202,-0.004876,0.008434,-0.000944,0.008501,-0.004943,-85.965419,0.008538,
1890,1250,-2.873167,-6.118255,0.999997,0.000194,-0.003437,0.006865,0.000157,0.006868,-0.003440,89.129424,0.006868,
840,350,0.847724,-13.035014,0.999997,0.000205,-0.002921,0.007090,0.000124,0.007092,-0.002922,89.291555,0.007128,
1060,1790,0.220850,-1.247457,0.999998,0.000162,-0.001569,0.005552,-0.000042,0.005552,-0.001570,-89.662634,0.005724,
890,1910,0.278072,-0.674449,0.999998,0.000179,-0.001407,0.005850,-0.000883,0.005956,-0.001513,-83.165189,0.006192,
750,700,1.915061,-10.122813,0.999997,0.000266,-0.004269,0.008079,0.000374,0.008090,-0.004280,88.268989,0.008095,
1220,760,0.017856,-11.668325,0.999998,0.000168,-0.001579,0.002096,-0.000463,0.002153,-0.001636,-82.925494,0.002248,
810,1150,2.257586,-6.600841,0.999996,0.000239,-0.003710,0.008129,-0.000986,0.008211,-0.003792,-85.270590,0.008219,
680,1780,1.196400,-1.861835,0.999997,0.000199,-0.003540,0.007528,-0.000329,0.007538,-0.003550,-88.300084,0.007542,
570,30,0.136833,-14.990261,0.999936,0.000000,0.001086,0.011393,0.006889,0.014842,-0.002364,63.399149,0.015950,
1640,500,-1.174524,-11.890997,0.999997,0.000202,-0.003867,0.007631,0.000342,0.007641,-0.003877,88.300053,0.007642,
1000,1210,1.134110,-5.561857,0.999992,0.000350,-0.005850,0.010177,0.000774,0.010215,-0.005887,87.240171,0.010254,
1850,1390,-2.371004,-5.000519,0.999997,0.000217,-0.003809,0.007546,0.000202,0.007550,-0.003813,88.980604,0.007550,
680,290,1.239600,-13.142167,0.999997,0.000202,-0.003595,0.007582,0.000231,0.007586,-0.003600,88.816242,0.007590,
1780,1430,-1.999792,-4.540125,0.999996,0.000227,-0.003978,0.007779,0.000137,0.007781,-0.003979,89.333481,0.007782,
1430,310,-0.310485,-13.588065,0.999998,0.000228,-0.001961,0.005882,0.000111,0.005884,-0.001963,89.190953,0.005991,
1680,360,-1.055256,-12.847504,0.999998,0.000160,-0.003396,0.007283,-0.000003,0.007283,-0.003396,-89.983908,0.007289,
1530,340,-0.570215,-13.263319,0.999998,0.000178,-0.002430,0.006659,-0.000026,0.006659,-0.002430,-89.838619,0.006739,
1380,1620,-0.284852,-2.199647,0.999997,0.000207,-0.002310,0.005852,-0.000591,0.005894,-0.002353,-85.880783,0.005934,
1280,1580,-0.090032,-2.306734,0.999998,0.000166,-0.001884,0.005260,-0.000217,0.005267,-0.001890,-88.261983,0.005336,
940,420,0.653220,-12.746497,0.999997,0.000205,-0.002896,0.006745,-0.000407,0.006762,-0.002913,-87.586886,0.006784,
1070,250,0.192673,-13.960439,0.999998,0.000171,-0.001352,0.005445,0.000119,0.005447,-0.001354,89.000178,0.005672,
1550,1690,-0.654438,-2.052612,0.999997,0.000207,-0.002694,0.006677,-0.000049,0.006677,-0.002694,-89.702156,0.006718,
1620,230,-0.577883,-13.870661,0.999996,0.000224,-0.002222,0.006627,-0.000684,0.006679,-0.002275,-85.608403,0.006792,
980,1850,0.268032,-0.968042,0.999998,0.000179,-0.001446,0.005694,-0.000393,0.005716,-0.001467,-86.856237,0.005937,
1400,450,-0.344642,-12.792786,0.999997,0.000195,-0.002502,0.006034,0.000698,0.006091,-0.002559,85.353707,0.006117,
1870,520,-2.102605,-11.181073,0.999998,0.000175,-0.003771,0.007608,0.000029,0.007608,-0.003771,89.853638,0.007608,
680,1630,1.565715,-3.004287,0.999997,0.000196,-0.003754,0.007574,0.000119,0.007576,-0.003755,89.396780,0.007576,
1600,1020,-2.288942,-7.621678,0.999997,0.000216,-0.002823,0.008034,-0.000145,0.008036,-0.002825,-89.232814,0.008153,
590,560,2.203941,-10.869216,0.999997,0.000214,-0.003717,0.007641,0.000048,0.007641,-0.003717,89.757878,0.007642,
1760,1020,-2.778018,-7.615794,0.999997,0.000200,-0.003235,0.007216,-0.000121,0.007217,-0.003237,-89.339289,0.007230,
1430,1480,-0.485268,-3.187614,0.999997,0.000226,-0.003326,0.006612,-0.001311,0.006782,-0.003496,-82.607711,0.006783,
610,1400,2.356714,-4.933056,0.999996,0.000228,-0.003811,0.007521,-0.000154,0.007523,-0.003813,-89.221472,0.007523,
1820,50,-0.211578,-14.912551,0.999993,0.000330,-0.001905,0.006812,-0.002515,0.007486,-0.002578,-75.005052,0.007605,
1870,1000,-3.116771,-7.738403,0.999997,0.000198,-0.003068,0.006419,-0.000176,0.006423,-0.003071,-88.936778,0.006425,
1040,1270,0.676555,-4.714938,0.999995,0.000295,-0.005569,0.008660,0.002194,0.008991,-0.005899,81.429316,0.009136,
1830,1120,-2.932068,-6.929180,0.999997,0.000220,-0.003302,0.006930,0.000448,0.006949,-0.003322,87.496215,0.006952,
750,680,1.862727,-10.284301,0.999997,0.000262,-0.004280,0.008076,0.000260,0.008081,-0.004286,88.795428,0.008086,
1590,1560,-0.978762,-3.066883,0.999997,0.000225,-0.003708,0.007454,-0.000491,0.007476,-0.003730,-87.487434,0.007476,
590,1340,2.586104,-5.429523,0.999996,0.000247,-0.003820,0.007429,-0.000092,0.007430,-0.003821,-89.532197,0.007431,
560,2020,0.173249,-0.208842,0.999933,0.000000,0.002385,0.011735,-0.006998,0.015476,-0.001356,-61.871413,0.017142,
890,1890,0.324273,-0.794791,0.999998,0.000181,-0.001590,0.005953,-0.000812,0.006040,-0.001676,-83.925697,0.006236,
1720,1900,-0.570733,-0.850124,0.999997,0.000209,-0.002027,0.006966,0.001514,0.007214,-0.002275,80.695574,0.007376,
1680,340,-1.010401,-12.992652,0.999997,0.000197,-0.003321,0.007328,-0.000053,0.007329,-0.003322,-89.716766,0.007339,
1630,1910,-0.363494,-0.709842,0.999997,0.000206,-0.001358,0.006126,0.001183,0.006309,-0.001541,81.229142,0.006578,
1660,1870,-0.539421,-0.990807,0.999997,0.000202,-0.002395,0.006671,0.000976,0.006775,-0.002499,83.922601,0.006852,
1340,1790,-0.134660,-1.210613,0.999998,0.000157,-0.001419,0.005336,-0.000045,0.005337,-0.001419,-89.619663,0.005528,
720,390,1.341514,-12.481222,0.999998,0.000223,-0.003671,0.007642,-0.000074,0.007643,-0.003671,-89.624275,0.007645,
980,1420,0.732617,-3.802930,0.999997,0.000208,-0.004354,0.007578,0.001366,0.007733,-0.004509,83.550098,0.007768,
1790,1440,-2.014634,-4.485073,0.999998,0.000215,-0.003929,0.007738,0.000109,0.007739,-0.003930,89.462629,0.007740,
1850,1630,-1.818118,-3.166854,0.999997,0.000216,-0.003731,0.007518,-0.000102,0.007519,-0.003732,-89.479310,0.007519,
1220,740,0.016128,-11.712214,0.999998,0.000153,-0.001479,0.002498,-0.000444,0.002547,-0.001528,-83.707772,0.002564,
1250,1980,-0.005698,-0.251214,0.999998,0.000179,-0.000273,0.004567,0.000026,0.004567,-0.000273,89.688950,0.005123,
640,1380,2.293506,-5.018624,0.999997,0.000212,-0.003838,0.007585,-0.000282,0.007592,-0.003845,-88.588761,0.007592,
1440,1170,-1.209957,-5.821573,0.999993,0.000336,-0.005416,0.010538,-0.000947,0.010594,-0.005472,-86.616386,0.010596,
680,1760,1.255400,-2.015408,0.999997,0.000213,-0.003580,0.007545,-0.000227,0.007550,-0.003585,-88.830051,0.007553,
810,1130,2.310263,-6.764082,0.999996,0.000252,-0.003523,0.007974,-0.000869,0.008039,-0.003589,-85.701079,0.008055,
1580,510,-0.964495,-11.966004,0.999998,0.000176,-0.003766,0.007470,0.000552,0.007497,-0.003793,87.193346,0.007497,
1180,540,0.095983,-12.475484,0.999998,0.000163,-0.001947,0.005076,-0.000473,0.005108,-0.001979,-86.165724,0.005151,
1330,460,-0.188650,-12.843775,0.999999,0.000148,-0.002092,0.005509,0.000550,0.005549,-0.002132,85.882737,0.005598,
1460,570,-0.584963,-11.874360,0.999997,0.000206,-0.003621,0.006941,0.001235,0.007083,-0.003763,83.419955,0.007088,
1420,1700,-0.329316,-1.786137,0.999998,0.000205,-0.002239,0.005944,-0.000290,0.005954,-0.002249,-87.970235,0.006013,
1800,1580,-1.740881,-3.425280,0.999997,0.000197,-0.003803,0.007652,-0.000109,0.007653,-0.003804,-89.453413,0.007653,
1370,260,-0.172867,-13.918802,0.999998,0.000141,-0.001269,0.005381,-0.000073,0.005382,-0.001270,-89.366932,0.005626,
770,280,0.909574,-13.408176,0.999998,0.000164,-0.003132,0.007295,0.000417,0.007312,-0.003149,87.713282,0.007336,
1870,1500,-2.180717,-4.205538,0.999997,0.000195,-0.003820,0.007644,0.000006,0.007644,-0.003820,89.972396,0.007644,
770,140,0.460081,-14.393462,0.999997,0.000189,-0.001898,0.006573,0.001425,0.006806,-0.002131,80.702485,0.006962,
1680,320,-0.966356,-13.142489,0.999997,0.000188,-0.003285,0.007344,-0.000125,0.007346,-0.003286,-89.323763,0.007359,
1550,1650,-0.713991,-2.323913,0.999997,0.000194,-0.003075,0.006916,-0.000340,0.006928,-0.003086,-88.052490,0.006942,
1850,440,-1.850995,-11.840533,0.999997,0.000203,-0.003720,0.007538,0.000094,0.007539,-0.003721,89.522200,0.007539,
1330,1670,-0.170135,-1.860772,0.999998,0.000180,-0.001946,0.005536,-0.000372,0.005554,-0.001964,-87.159820,0.005633,
1760,1000,-2.763666,-7.761073,0.999998,0.000189,-0.003250,0.007177,-0.000238,0.007182,-0.003255,-88.694848,0.007193,
1600,1000,-2.270048,-7.782696,0.999997,0.000202,-0.002878,0.007946,-0.000343,0.007957,-0.002889,-88.185910,0.008056,
730,1570,1.503253,-3.341838,0.999996,0.000233,-0.003865,0.007701,0.000169,0.007704,-0.003867,89.162670,0.007704,
1850,1820,-1.303117,-1.739699,0.999998,0.000190,-0.003658,0.007508,0.000209,0.007512,-0.003662,88.929839,0.007513,
680,1610,1.611377,-3.154243,0.999996,0.000241,-0.003788,0.007597,0.000123,0.007599,-0.003790,89.383039,0.007599,
1520,240,-0.391270,-13.912439,0.999997,0.000195,-0.001916,0.006110,-0.000363,0.006127,-0.001932,-87.413459,0.006264,
890,1870,0.371369,-0.914198,0.999997,0.000210,-0.001784,0.006045,-0.000718,0.006111,-0.001850,-84.805002,0.006267,
1020,1220,0.969401,-5.317156,0.999995,0.000272,-0.005875,0.009852,0.001398,0.009975,-0.005998,84.959568,0.010043,
940,400,0.630018,-12.876846,0.999997,0.000200,-0.002755,0.006645,-0.000310,0.006655,-0.002765,-88.112564,0.006687,
1550,860,-1.674273,-9.056520,0.999996,0.000241,-0.004879,0.009400,-0.000825,0.009447,-0.004926,-86.705038,0.009450,
590,1980,0.557071,-0.550669,0.999996,0.000232,-0.003353,0.008919,-0.002258,0.009321,-0.003755,-79.900320,0.009379,
1400,430,-0.333223,-12.914687,0.999996,0.000204,-0.002435,0.005972,0.000618,0.006017,-0.002480,85.816753,0.006048,
1850,240,-1.320634,-13.343243,0.999997,0.000198,-0.003648,0.007492,-0.000154,0.007494,-0.003650,-89.207939,0.007495,
1600,470,-0.977320,-12.214203,0.999997,0.000198,-0.003623,0.007420,0.000428,0.007437,-0.003640,87.782447,0.007437,
1640,1250,-1.900317,-5.743746,0.999996,0.000246,-0.004532,0.008610,0.000767,0.008655,-0.004577,86.671149,0.008659,
720,1710,1.236559,-2.296085,0.999997,0.000188,-0.003634,0.007534,-0.000031,0.007534,-0.003634,-89.838464,0.007535,
1120,1800,0.134042,-1.158903,0.999998,0.000154,-0.001352,0.005290,0.000003,0.005290,-0.001352,89.971391,0.005497,
890,1980,0.119088,-0.286679,0.999997,0.000173,-0.000694,0.005309,-0.001003,0.005472,-0.000857,-80.757451,0.005886,
810,1640,1.071167,-2.620305,0.999997,0.000227,-0.003503,0.007425,0.000168,0.007427,-0.003506,89.118861,0.007431,
1870,990,-3.110526,-7.802496,0.999997,0.000204,-0.003081,0.006369,-0.000127,0.006371,-0.003083,-89.229859,0.006372,
1140,1590,0.177601,-2.294521,0.999998,0.000201,-0.002127,0.005499,0.000577,0.005542,-0.002171,85.699223,0.005585,
750,1020,2.625457,-7.616219,0.999997,0.000200,-0.003159,0.007457,0.000137,0.007458,-0.003160,89.259822,0.007487,
1220,720,0.017463,-11.767551,0.999998,0.000154,-0.001482,0.002876,-0.000424,0.002917,-0.001523,-84.495218,0.002918,
1590,1760,-0.646953,-1.645117,0.999998,0.000177,-0.002780,0.006690,0.000177,0.006693,-0.002783,88.931579,0.006724,
1800,1560,-1.781694,-3.580355,0.999997,0.000227,-0.003822,0.007701,-0.000123,0.007703,-0.003823,-89.389743,0.007703,
1070,230,0.175577,-14.070851,0.999998,0.000173,-0.001221,0.005384,0.000179,0.005389,-0.001225,88.452605,0.005650,
1380,1600,-0.296060,-2.319198,0.999997,0.000221,-0.002428,0.005872,-0.000681,0.005927,-0.002484,-85.340620,0.005953,
820,830,1.993801,-9.155382,0.999995,0.000260,-0.004347,0.008513,0.000893,0.008575,-0.004409,86.048652,0.008576,
750,140,0.498731,-14.375525,0.999998,0.000169,-0.001762,0.006724,0.001621,0.007024,-0.002061,79.542984,0.007221,
590,1400,2.432646,-4.977924,0.999997,0.000227,-0.004219,0.007543,-0.000128,0.007544,-0.004221,-89.374449,0.007562,
1680,300,-0.920128,-13.288120,0.999998,0.000168,-0.003239,0.007201,-0.000230,0.007206,-0.003244,-88.739176,0.007218,
1860,1310,-2.615539,-5.622939,0.999997,0.000204,-0.003673,0.007345,0.000271,0.007352,-0.003680,88.593725,0.007352,
640,1360,2.345232,-5.171345,0.999997,0.000222,-0.003821,0.007600,-0.000312,0.007608,-0.003829,-88.437022,0.007608,
1850,650,-2.332924,-10.230109,0.999996,0.000236,-0.003818,0.007587,-0.000168,0.007589,-0.003820,-89.157153,0.007589,
1310,1440,-0.151664,-3.063971,0.999998,0.000177,-0.002215,0.004876,-0.001164,0.005062,-0.002401,-80.910475,0.005064,
1460,410,-0.464931,-12.935606,0.999997,0.000218,-0.002573,0.006314,0.000452,0.006336,-0.002596,87.096825,0.006371,
1310,460,-0.147808,-12.870031,0.999999,0.000135,-0.002035,0.005416,0.000480,0.005446,-0.002066,86.330177,0.005499,
610,550,2.104345,-10.990851,0.999997,0.000192,-0.003783,0.007601,-0.000012,0.007601,-0.003783,-89.940326,0.007601,
980,70,0.065719,-14.876127,0.999999,0.000129,-0.000368,0.004962,0.000644,0.005039,-0.000444,83.210102,0.005580,
1520,220,-0.356938,-14.033367,0.999997,0.000194,-0.001751,0.005905,-0.000420,0.005928,-0.001774,-86.866507,0.006085,
1280,1560,-0.091066,-2.412365,0.999998,0.000170,-0.001910,0.005205,-0.000274,0.005215,-0.001921,-87.801672,0.005275,
1900,770,-2.825065,-9.223368,0.999997,0.000000,-0.003555,0.007108,-0.000088,0.007108,-0.003556,-89.525678,0.007108,
1020,1200,1.059924,-5.525234,0.999996,0.000246,-0.005860,0.010188,0.001168,0.010272,-0.005945,85.859540,0.010315,
630,1780,1.374736,-1.990282,0.999997,0.000220,-0.003636,0.007522,-0.000137,0.007524,-0.003638,-89.294432,0.007525,
930,200,0.341303,-14.142194,0.999998,0.000193,-0.001544,0.005977,0.000607,0.006026,-0.001593,85.418010,0.006245,
940,380,0.606494,-13.012764,0.999997,0.000198,-0.002680,0.006568,-0.000236,0.006574,-0.002686,-88.536653,0.006610,
810,1110,2.350089,-6.920728,0.999997,0.000213,-0.003346,0.007827,-0.000728,0.007875,-0.003394,-86.285700,0.007900,
1220,390,0.020100,-13.278823,0.999998,0.000171,-0.001704,0.005307,-0.000114,0.005309,-0.001706,-89.066494,0.005420,
1330,1650,-0.175745,-1.971362,0.999998,0.000164,-0.001985,0.005506,-0.000437,0.005531,-0.002010,-86.671252,0.005600,
580,1980,0.590032,-0.578564,0.999995,0.000263,-0.003721,0.009083,-0.002458,0.009538,-0.004177,-79.498825,0.009563,
1590,1120,-2.113813,-6.802479,0.999997,0.000204,-0.003510,0.008478,0.001023,0.008565,-0.003597,85.159545,0.008601,
1830,440,-1.777792,-11.887661,0.999998,0.000174,-0.003761,0.007565,0.000110,0.007566,-0.003762,89.442273,0.007566,
1550,1110,-2.006366,-6.848534,0.999997,0.000225,-0.003460,0.008891,0.001027,0.008975,-0.003545,85.279551,0.009041,
970,900,1.577226,-8.840588,0.999996,0.000245,-0.004879,0.010146,0.000611,0.010171,-0.004904,87.675517,0.010173,
680,1740,1.309700,-2.166107,0.999997,0.000204,-0.003594,0.007549,-0.000095,0.007550,-0.003594,-89.509146,0.007553,
860,1930,0.274796,-0.578522,0.999998,0.000185,-0.001274,0.005858,-0.001086,0.006020,-0.001436,-81.531650,0.006288,
1840,1630,-1.781101,-3.142235,0.999996,0.000253,-0.003734,0.007541,-0.000102,0.007542,-0.003735,-89.482805,0.007542,
770,1970,0.255125,-0.379210,0.999997,0.000182,-0.001069,0.005918,-0.001655,0.006290,-0.001442,-77.322634,0.006590,
1760,980,-2.751792,-7.902907,0.999997,0.000190,-0.003288,0.007107,-0.000214,0.007111,-0.003292,-88.818785,0.007118,
1850,1800,-1.371040,-1.889391,0.999997,0.000219,-0.003672,0.007510,0.000141,0.007512,-0.003673,89.279323,0.007513,
1600,980,-2.250046,-7.940569,0.999998,0.000194,-0.003021,0.008062,-0.000615,0.008097,-0.003055,-86.832441,0.008177,
670,80,0.379203,-14.708218,0.999997,0.000217,-0.001390,0.007347,0.002867,0.008204,-0.002246,73.362830,0.008479,
1890,80,-0.648979,-14.474963,0.999996,0.000246,-0.003272,0.009339,-0.002284,0.009739,-0.003673,-80.046029,0.009837,
1120,1780,0.144593,-1.265277,0.999998,0.000157,-0.001454,0.005441,0.000046,0.005441,-0.001455,89.617263,0.005634,
1660,1850,-0.600478,-1.128064,0.999997,0.000245,-0.002563,0.006792,0.000860,0.006870,-0.002641,84.788639,0.006931,
730,1550,1.546352,-3.496835,0.999996,0.000234,-0.003898,0.007716,0.000155,0.007718,-0.003900,89.237865,0.007718,
890,1850,0.415381,-1.038740,0.999997,0.000215,-0.001933,0.006180,-0.000642,0.006231,-0.001983,-85.505072,0.006366,
1780,590,-1.917103,-10.854127,0.999998,0.000146,-0.003913,0.007758,-0.000026,0.007758,-0.003913,-89.871848,0.007758,
1550,840,-1.593556,-9.246306,0.999994,0.000310,-0.005073,0.009430,-0.000646,0.009459,-0.005102,-87.455488,0.009468,
1840,1250,-2.698939,-6.026731,0.999997,0.000191,-0.003585,0.007180,0.000426,0.007197,-0.003602,87.735377,0.007197,
1420,1170,-1.105723,-5.637297,0.999996,0.000231,-0.005228,0.010321,-0.001922,0.010555,-0.005462,-83.055900,0.010557,
960,1090,1.912305,-6.959847,0.999998,0.000209,-0.003407,0.009607,-0.000764,0.009652,-0.003452,-86.652581,0.009781,
1800,1540,-1.825511,-3.735082,0.999997,0.000232,-0.003843,0.007681,-0.000094,0.007682,-0.003843,-89.532784,0.007682,
590,1390,2.458516,-5.053188,0.999996,0.000252,-0.004158,0.007537,-0.000062,0.007537,-0.004158,-89.696346,0.007551,
1070,210,0.158304,-14.176213,0.999998,0.000155,-0.001113,0.005331,0.000225,0.005339,-0.001121,88.002514,0.005631,
1220,700,0.018781,-11.826688,0.999998,0.000149,-0.001525,0.003204,-0.000390,0.003236,-0.001557,-85.316754,0.003237,
1790,1720,-1.382163,-2.335381,0.999997,0.000210,-0.003640,0.007571,0.000013,0.007571,-0.003640,89.935148,0.007572,
1380,1580,-0.304043,-2.436984,0.999997,0.000205,-0.002529,0.005914,-0.000820,0.005993,-0.002608,-84.504075,0.006010,
1630,1890,-0.423554,-0.836496,0.999997,0.000198,-0.001577,0.006348,0.001120,0.006504,-0.001733,82.105736,0.006736,
960,1470,0.760374,-3.494729,0.999997,0.000212,-0.003975,0.007481,0.001081,0.007582,-0.004076,84.655599,0.007589,
1170,1510,0.117456,-2.680027,0.999998,0.000175,-0.002079,0.005109,0.000656,0.005168,-0.002139,84.830611,0.005194,
1680,110,-0.327057,-14.595382,0.999998,0.000173,-0.001542,0.006296,-0.001575,0.006600,-0.001847,-79.050539,0.006810,
1840,1310,-2.541825,-5.582599,0.999996,0.000232,-0.003720,0.007418,0.000370,0.007430,-0.003732,88.099158,0.007430,
1560,1690,-0.682427,-2.069040,0.999996,0.000213,-0.002882,0.006765,-0.000093,0.006765,-0.002883,-89.445664,0.006790,
640,1340,2.398609,-5.322427,0.999997,0.000220,-0.003792,0.007607,-0.000332,0.007616,-0.003801,-88.333890,0.007616,
1830,920,-2.907328,-8.293987,0.999998,0.000206,-0.003323,0.006935,-0.000404,0.006951,-0.003339,-87.746114,0.006953,
1680,280,-0.870002,-13.431768,0.999998,0.000162,-0.003167,0.007214,-0.000372,0.007227,-0.003181,-87.952726,0.007244,
1020,1570,0.475801,-2.631380,0.999996,0.000216,-0.002975,0.006453,0.000875,0.006533,-0.003055,84.742847,0.006538,
1760,50,-0.163501,-14.931562,0.999997,0.000204,-0.000984,0.006222,-0.002336,0.006913,-0.001675,-73.520866,0.007213,
1350,820,-0.399581,-10.791358,0.999994,0.000314,-0.004366,0.005881,0.003313,0.006859,-0.005345,73.554789,0.007207,
1630,1120,-2.254034,-6.830455,0.999996,0.000234,-0.003454,0.008090,0.000879,0.008157,-0.003521,85.669732,0.008182,
1730,1920,-0.508065,-0.721036,0.999997,0.000204,-0.002065,0.006871,0.001652,0.007167,-0.002361,79.853891,0.007305,
1550,1090,-2.062868,-7.024100,0.999997,0.000218,-0.003177,0.008694,0.000827,0.008752,-0.003234,86.032077,0.008851,
1900,870,-3.051553,-8.535845,0.999997,0.000000,-0.003261,0.006462,-0.000059,0.006462,-0.003261,-89.655130,0.006462,
1420,1680,-0.347282,-1.911509,0.999998,0.000202,-0.002294,0.006041,-0.000347,0.006055,-0.002308,-87.619991,0.006112,
1850,610,-2.233247,-10.538851,0.999997,0.000232,-0.003801,0.007657,-0.000058,0.007657,-0.003802,-89.712013,0.007657,
1020,1180,1.167853,-5.737111,0.999995,0.000259,-0.005657,0.010457,0.000885,0.010506,-0.005706,86.864580,0.010519,
940,360,0.582529,-13.141145,0.999997,0.000203,-0.002597,0.006505,-0.000132,0.006507,-0.002599,-89.170578,0.006551,
1280,1540,-0.092368,-2.513834,0.999998,0.000165,-0.001943,0.005135,-0.000328,0.005150,-0.001958,-87.351097,0.005199,
870,1980,0.136232,-0.292333,0.999998,0.000173,-0.000760,0.005438,-0.001120,0.005634,-0.000956,-80.066023,0.006030,
1260,770,-0.048648,-11.616038,0.999997,0.000187,-0.001788,0.002196,0.001234,0.002547,-0.002139,74.108274,0.002736,
890,1830,0.458673,-1.160316,0.999997,0.000192,-0.002108,0.006297,-0.000529,0.006331,-0.002141,-86.411270,0.006440,
1330,1630,-0.182431,-2.082893,0.999998,0.000183,-0.002036,0.005514,-0.000459,0.005541,-0.002064,-86.531404,0.005601,
770,1950,0.322165,-0.496236,0.999997,0.000203,-0.001378,0.006320,-0.001690,0.006675,-0.001732,-78.149461,0.006927,
1880,80,-0.616426,-14.503036,0.999996,0.000261,-0.003301,0.009130,-0.002209,0.009511,-0.003681,-80.218929,0.009591,
1520,200,-0.321947,-14.150747,0.999997,0.000184,-0.001600,0.005889,-0.000532,0.005927,-0.001638,-85.959336,0.006121,
1400,70,-0.039149,-14.885080,0.999998,0.000153,-0.000318,0.004754,-0.000382,0.004783,-0.000347,-85.718022,0.005334,
1030,1400,0.541105,-3.746399,0.999996,0.000273,-0.004076,0.007168,0.001818,0.007454,-0.004363,81.040543,0.007490,
600,1720,1.647969,-2.525058,0.999998,0.000201,-0.003675,0.007450,0.000116,0.007452,-0.003676,89.404303,0.007452,
1820,1630,-1.706196,-3.093046,0.999998,0.000170,-0.003800,0.007582,-0.000077,0.007582,-0.003800,-89.610230,0.007582,
820,950,2.327793,-8.163751,0.999996,0.000253,-0.003312,0.007878,0.000745,0.007927,-0.003361,86.209515,0.007958,
1880,440,-1.963386,-11.766315,0.999998,0.000156,-0.003704,0.007508,0.000047,0.007508,-0.003704,89.761983,0.007508,
650,80,0.400854,-14.700548,0.999995,0.000242,-0.001854,0.007691,0.002715,0.008409,-0.002572,75.183912,0.008618,
940,1470,0.842085,-3.560821,0.999997,0.000179,-0.004072,0.007622,0.000962,0.007701,-0.004151,85.327747,0.007708,
1660,1050,-2.450158,-7.386022,0.999997,0.000205,-0.003028,0.007630,0.000257,0.007636,-0.003034,88.618381,0.007690,
1800,1520,-1.870065,-3.889104,0.999997,0.000213,-0.003848,0.007670,-0.000058,0.007670,-0.003848,-89.713833,0.007670,
1870,550,-2.169186,-10.951747,0.999997,0.000208,-0.003820,0.007629,-0.000003,0.007629,-0.003820,-89.983589,0.007629,
920,1850,0.367299,-1.015341,0.999997,0.000212,-0.001580,0.006024,-0.000644,0.006078,-0.001634,-85.192091,0.006291,
1600,960,-2.206613,-8.103909,0.999998,0.000196,-0.003213,0.008131,-0.000781,0.008184,-0.003266,-86.081301,0.008239,
1760,960,-2.736889,-8.045050,0.999998,0.000186,-0.003363,0.007229,-0.000431,0.007247,-0.003380,-87.672682,0.007252,
1220,680,0.017516,-11.894559,0.999998,0.000146,-0.001578,0.003554,-0.000338,0.003576,-0.001600,-86.243743,0.003582,
560,2010,0.304478,-0.331806,0.999933,0.000000,0.000192,0.010854,-0.006874,0.014222,-0.003176,-63.895988,0.014931,
1410,1780,-0.240729,-1.310087,0.999997,0.000196,-0.001718,0.005673,-0.000004,0.005673,-0.001718,-89.968857,0.005819,
630,1340,2.436758,-5.343005,0.999996,0.000225,-0.003764,0.007570,-0.000305,0.007578,-0.003772,-88.457206,0.007578,
1630,1870,-0.479026,-0.963968,0.999997,0.000206,-0.001748,0.006418,0.000993,0.006538,-0.001867,83.163278,0.006735,
1830,1820,-1.230976,-1.675838,0.999998,0.000206,-0.003575,0.007627,0.000304,0.007636,-0.003583,88.448524,0.007640,
1850,70,-0.441694,-14.680617,0.999995,0.000266,-0.003396,0.008291,-0.002064,0.008645,-0.003750,-80.273359,0.008670,
1020,1160,1.284182,-5.954615,0.999994,0.000276,-0.005321,0.010694,0.000759,0.010730,-0.005357,87.291042,0.010730,
640,1320,2.451209,-5.477336,0.999997,0.000210,-0.003762,0.007552,-0.000377,0.007565,-0.003775,-88.093452,0.007565,
1420,1150,-1.231081,-5.848927,0.999994,0.000274,-0.005060,0.010502,-0.002070,0.010772,-0.005331,-82.552381,0.010772,
940,340,0.552349,-13.272668,0.999996,0.000224,-0.002485,0.006618,-0.000039,0.006618,-0.002485,-89.752225,0.006686,
1330,820,-0.322211,-10.998713,0.999995,0.000271,-0.003780,0.004601,0.003162,0.005660,-0.004839,71.482512,0.006117,
1170,1470,0.116091,-2.881255,0.999998,0.000191,-0.002071,0.004915,0.000864,0.005020,-0.002176,83.054014,0.005035,
680,1720,1.357499,-2.318478,0.999997,0.000194,-0.003605,0.007571,-0.000017,0.007571,-0.003605,-89.915293,0.007573,
590,1380,2.483313,-5.128800,0.999997,0.000227,-0.004137,0.007536,-0.000047,0.007536,-0.004137,-89.767350,0.007548,
1420,1660,-0.360893,-2.028640,0.999997,0.000208,-0.002374,0.006034,-0.000441,0.006057,-0.002397,-87.008032,0.006101,
1610,1120,-2.184990,-6.818005,0.999998,0.000169,-0.003506,0.008273,0.000950,0.008349,-0.003582,85.418549,0.008377,
1670,860,-2.198775,-8.872210,0.999997,0.000250,-0.003993,0.008194,-0.000955,0.008269,-0.004067,-85.545943,0.008269,
1380,1560,-0.312177,-2.556478,0.999997,0.000191,-0.002583,0.005964,-0.000929,0.006063,-0.002683,-83.868486,0.006077,
1070,190,0.139157,-14.284762,0.999998,0.000165,-0.000982,0.005261,0.000239,0.005270,-0.000991,87.807637,0.005601,
1130,1980,0.027038,-0.254566,0.999998,0.000150,-0.000327,0.004671,-0.000195,0.004678,-0.000335,-87.763448,0.005220,
830,1280,1.773611,-5.470074,0.999997,0.000241,-0.004674,0.008693,-0.000560,0.008717,-0.004697,-87.603704,0.008725,
1710,1920,-0.476678,-0.706371,0.999997,0.000198,-0.001673,0.006655,0.001653,0.006971,-0.001989,79.175561,0.007182,
810,1090,2.388047,-7.078350,0.999997,0.000193,-0.003206,0.007789,-0.000671,0.007830,-0.003247,-86.519766,0.007867,
1590,340,-0.732986,-13.163606,0.999998,0.000174,-0.002982,0.006920,0.000003,0.006920,-0.002982,89.980055,0.006942,
770,1930,0.411743,-0.632883,0.999997,0.000219,-0.001674,0.006510,-0.001614,0.006817,-0.001981,-79.236085,0.007013,
1240,770,-0.014062,-11.651798,0.999998,0.000176,-0.001721,0.001917,0.000377,0.001955,-0.001759,84.145879,0.002153,
730,1530,1.584874,-3.649428,0.999997,0.000214,-0.003946,0.007754,0.000148,0.007756,-0.003948,89.275830,0.007756,
1380,70,-0.033369,-14.886014,0.999998,0.000161,-0.000207,0.004717,-0.000336,0.004740,-0.000229,-86.117017,0.005345,
1030,1380,0.555867,-3.894835,0.999995,0.000265,-0.004273,0.007343,0.001894,0.007644,-0.004574,80.968589,0.007693,
1520,180,-0.283998,-14.269650,0.999998,0.000179,-0.001434,0.005747,-0.000567,0.005791,-0.001478,-85.510205,0.006018,
610,530,2.060032,-11.143726,0.999997,0.000188,-0.003748,0.007643,-0.000042,0.007643,-0.003748,-89.788121,0.007643,
1330,1610,-0.185945,-2.192590,0.999998,0.000173,-0.002086,0.005524,-0.000489,0.005555,-0.002118,-86.337454,0.005607,
610,1660,1.761291,-2.949496,0.999997,0.000187,-0.003720,0.007494,0.000101,0.007495,-0.003721,89.485859,0.007495,
1220,660,0.019695,-11.967013,0.999999,0.000143,-0.001631,0.003792,-0.000309,0.003809,-0.001648,-86.745401,0.003821,
1900,990,-3.201428,-7.790479,0.999998,0.000000,-0.003026,0.005950,-0.000070,0.005950,-0.003027,-89.551688,0.005951,
660,1470,1.993963,-4.281121,0.999998,0.000166,-0.003870,0.007730,-0.000024,0.007730,-0.003871,-89.879711,0.007730,
1800,1500,-1.915429,-4.042707,0.999997,0.000190,-0.003858,0.007676,-0.000042,0.007676,-0.003858,-89.790483,0.007676,
650,60,0.266646,-14.855429,0.999996,0.000216,-0.001461,0.007079,0.002700,0.007861,-0.002243,73.849231,0.008099,
1360,1310,-0.302225,-3.958321,0.999996,0.000272,-0.003887,0.006021,-0.002924,0.006820,-0.004685,-74.724987,0.006977,
650,1740,1.416395,-2.239706,0.999995,0.000270,-0.003668,0.007563,-0.000081,0.007563,-0.003669,-89.585837,0.007565,
940,320,0.522772,-13.407835,0.999997,0.000202,-0.002411,0.006505,0.000019,0.006505,-0.002411,89.880265,0.006578,
780,830,2.162453,-9.103875,0.999997,0.000185,-0.004122,0.008170,0.000915,0.008238,-0.004190,85.764935,0.008239,
1600,940,-2.164620,-8.266837,0.999997,0.000222,-0.003453,0.008343,-0.000923,0.008414,-0.003525,-85.551728,0.008451,
940,1090,1.977516,-6.993575,0.999996,0.000241,-0.003301,0.009165,-0.000808,0.009217,-0.003353,-86.308684,0.009331,
1020,1140,1.407994,-6.175766,0.999994,0.000282,-0.004985,0.010995,0.000740,0.011029,-0.005019,87.352704,0.011044,
1550,920,-1.916879,-8.498510,0.999996,0.000238,-0.003969,0.009074,-0.001069,0.009161,-0.004056,-85.346223,0.009181,
1760,940,-2.701948,-8.194263,0.999997,0.000183,-0.003410,0.007317,-0.000593,0.007350,-0.003442,-86.844262,0.007355,
1850,1780,-1.436626,-2.040353,0.999996,0.000245,-0.003672,0.007431,0.000087,0.007432,-0.003673,89.549872,0.007432,
1830,1880,-0.987996,-1.210625,0.999996,0.000239,-0.003503,0.007805,0.000738,0.007853,-0.003551,86.281220,0.007865,
920,870,1.681338,-8.979282,0.999995,0.000255,-0.004848,0.009459,0.000889,0.009514,-0.004903,86.459819,0.009516,
1280,400,-0.084559,-13.209922,0.999998,0.000167,-0.001709,0.005350,0.000140,0.005352,-0.001711,88.864872,0.005467,
640,90,0.493357,-14.607233,0.999992,0.000313,-0.002701,0.007805,0.002184,0.008241,-0.003137,78.714219,0.008319,
1460,550,-0.570567,-12.012356,0.999996,0.000225,-0.003412,0.006823,0.001091,0.006938,-0.003527,83.982332,0.006938,
1630,1850,-0.535708,-1.095347,0.999997,0.000217,-0.001959,0.006595,0.000918,0.006692,-0.002057,83.942288,0.006856,
1050,1980,0.049378,-0.261805,0.999998,0.000150,-0.000407,0.004812,-0.000392,0.004841,-0.000436,-85.733299,0.005356,
810,1280,1.863756,-5.508450,0.999997,0.000237,-0.004542,0.008503,-0.000603,0.008531,-0.004569,-87.357579,0.008538,
780,180,0.580501,-14.133861,0.999997,0.000187,-0.002452,0.006764,0.001081,0.006890,-0.002577,83.398320,0.006962,
1880,1880,-1.170052,-1.388859,0.999998,0.000204,-0.003646,0.007614,0.000479,0.007634,-0.003667,87.567752,0.007636,
1010,1380,0.643529,-3.984206,0.999995,0.000265,-0.004538,0.007658,0.001714,0.007894,-0.004775,82.149245,0.007952,
1480,990,-1.908329,-7.958679,0.999996,0.000248,-0.003365,0.010548,-0.000285,0.010553,-0.003371,-88.828369,0.010781,
1280,770,-0.084389,-11.542245,0.999998,0.000201,-0.002106,0.002747,0.001974,0.003448,-0.002807,70.438829,0.003668,
1580,1370,-1.267640,-4.552635,0.999997,0.000207,-0.004836,0.008553,-0.000376,0.008564,-0.004847,-88.390746,0.008589,
1490,1180,-1.433442,-6.010937,0.999995,0.000295,-0.005362,0.010165,0.000318,0.010171,-0.005369,88.827083,0.010176,
1840,1980,-0.444282,-0.452832,0.999996,0.000223,-0.003405,0.008109,0.001986,0.008442,-0.003738,80.485119,0.008460,
610,490,1.972538,-11.450124,0.999997,0.000187,-0.003771,0.007620,-0.000060,0.007620,-0.003772,-89.697051,0.007620,
1500,70,-0.076360,-14.871788,0.999998,0.000152,-0.000499,0.005008,-0.000676,0.005090,-0.000581,-83.106049,0.005572,
730,1510,1.630428,-3.807127,0.999997,0.000221,-0.003992,0.007792,0.000114,0.007793,-0.003993,89.445411,0.007794,
1860,50,-0.336076,-14.813498,0.999996,0.000276,-0.002219,0.008271,-0.003147,0.009142,-0.003091,-74.517681,0.009301,
1520,160,-0.251353,-14.381544,0.999998,0.000172,-0.001261,0.005670,-0.000664,0.005733,-0.001324,-84.579353,0.006003,
1220,640,0.019601,-12.043656,0.999998,0.000154,-0.001718,0.004032,-0.000279,0.004045,-0.001731,-87.231449,0.004059,
640,1300,2.504321,-5.626742,0.999997,0.000218,-0.003732,0.007439,-0.000431,0.007456,-0.003749,-87.794210,0.007456,
1840,190,-1.092553,-13.757316,0.999997,0.000209,-0.003618,0.007695,-0.000460,0.007714,-0.003637,-87.674745,0.007718,
1330,1590,-0.192511,-2.303857,0.999998,0.000165,-0.002140,0.005526,-0.000554,0.005566,-0.002180,-85.886423,0.005609,
1900,500,-2.168870,-11.266260,0.999997,0.000000,-0.003691,0.007599,-0.000025,0.007599,-0.003691,-89.873924,0.007600,
680,1700,1.405743,-2.469481,0.999996,0.000232,-0.003617,0.007564,-0.000005,0.007564,-0.003617,-89.973802,0.007567,
1600,920,-2.101860,-8.439608,0.999997,0.000222,-0.003677,0.008495,-0.001054,0.008585,-0.003767,-85.085483,0.008607,
810,1070,2.417878,-7.231355,0.999997,0.000201,-0.003087,0.007683,-0.000394,0.007697,-0.003101,-87.907491,0.007746,
640,1470,2.070320,-4.327586,0.999997,0.000185,-0.003868,0.007690,-0.000026,0.007690,-0.003868,-89.872722,0.007690,
660,270,1.251858,-13.247009,0.999997,0.000218,-0.003518,0.007627,0.000351,0.007638,-0.003529,88.199332,0.007645,
940,300,0.494634,-13.533525,0.999997,0.000207,-0.002311,0.006315,0.000102,0.006316,-0.002312,89.321090,0.006391,
1800,1480,-1.959304,-4.196007,0.999997,0.000197,-0.003873,0.007726,0.000002,0.007726,-0.003873,89.989947,0.007726,
1380,1540,-0.316883,-2.679306,0.999998,0.000171,-0.002647,0.005939,-0.001037,0.006062,-0.002771,-83.208313,0.006070,
600,1090,3.073760,-7.154578,0.999998,0.000189,-0.003135,0.006398,-0.000060,0.006398,-0.003135,-89.638696,0.006398,
1540,1690,-0.630218,-2.037857,0.999997,0.000191,-0.002564,0.006592,-0.000063,0.006593,-0.002564,-89.605341,0.006647,
650,740,2.426643,-9.625723,0.999997,0.000182,-0.003796,0.007557,0.000460,0.007576,-0.003814,87.685022,0.007576,
1820,1310,-2.467805,-5.548345,0.999997,0.000184,-0.003770,0.007506,0.000440,0.007523,-0.003788,87.766504,0.007523,
1070,170,0.124766,-14.387798,0.999998,0.000155,-0.000872,0.005142,0.000268,0.005154,-0.000884,87.453897,0.005513,
910,200,0.370555,-14.128523,0.999998,0.000179,-0.001552,0.006073,0.000670,0.006132,-0.001610,85.019959,0.006358,
1760,920,-2.669879,-8.340671,0.999997,0.000189,-0.003434,0.007312,-0.000556,0.007341,-0.003463,-87.046667,0.007345,
1170,550,0.116668,-12.413716,0.999998,0.000158,-0.002070,0.005056,-0.000660,0.005116,-0.002130,-84.753246,0.005140,
980,880,1.422629,-9.085352,0.999994,0.000294,-0.005374,0.010246,0.000226,0.010249,-0.005377,89.171352,0.010253,
1850,1760,-1.494369,-2.188326,0.999997,0.000252,-0.003674,0.007471,0.000043,0.007472,-0.003674,89.777295,0.007472,
1350,1920,-0.067103,-0.545165,0.999999,0.000116,-0.000636,0.004927,0.000207,0.004935,-0.000644,87.868162,0.005366,
1420,1640,-0.373329,-2.152207,0.999997,0.000218,-0.002415,0.006058,-0.000510,0.006088,-0.002446,-86.564390,0.006127,
990,1980,0.070060,-0.268245,0.999999,0.000130,-0.000351,0.004991,-0.000622,0.005062,-0.000423,-83.443788,0.005617,
1850,1500,-2.104734,-4.159763,0.999998,0.000168,-0.003791,0.007629,-0.000033,0.007629,-0.003791,-89.833454,0.007629,
1040,1390,0.508963,-3.776051,0.999997,0.000257,-0.004091,0.007095,0.001939,0.007422,-0.004418,80.438641,0.007466,
1020,1120,1.527364,-6.391400,0.999994,0.000291,-0.004669,0.011257,0.000811,0.011298,-0.004710,87.091980,0.011350,
1470,290,-0.364452,-13.663287,0.999996,0.000215,-0.001851,0.006036,-0.000144,0.006039,-0.001854,-88.957146,0.006187,
1760,40,-0.118453,-14.990965,0.999997,0.000200,-0.000769,0.006027,-0.002263,0.006711,-0.001454,-73.169453,0.007061,
1730,170,-0.651589,-14.154327,0.999996,0.000225,-0.002489,0.007130,-0.001363,0.007320,-0.002678,-82.088266,0.007407,
860,880,1.985992,-8.780318,0.999998,0.000185,-0.004120,0.008710,0.001071,0.008799,-0.004209,85.262638,0.008801,
1680,260,-0.817319,-13.576577,0.999998,0.000174,-0.003069,0.007120,-0.000489,0.007143,-0.003092,-87.255960,0.007164,
1350,260,-0.145327,-13.930029,0.999998,0.000155,-0.001343,0.005311,-0.000003,0.005311,-0.001343,-89.978179,0.005523,
1460,530,-0.558198,-12.146495,0.999997,0.000195,-0.003232,0.006717,0.000993,0.006815,-0.003330,84.357689,0.006815,
570,890,3.061558,-8.423847,0.999994,0.000286,-0.003120,0.006403,0.000076,0.006403,-0.003120,89.540918,0.006404,
1550,1070,-2.110751,-7.196685,0.999997,0.000219,-0.002900,0.008665,0.000662,0.008703,-0.002938,86.735705,0.008855,
650,1580,1.791090,-3.458810,0.999997,0.000226,-0.003795,0.007637,0.000128,0.007639,-0.003796,89.360074,0.007639,
1870,440,-1.925892,-11.789691,0.999998,0.000177,-0.003728,0.007509,0.000076,0.007509,-0.003728,89.612256,0.007509,
780,420,1.186600,-12.395242,0.999997,0.000200,-0.003605,0.007473,-0.000163,0.007475,-0.003608,-89.158527,0.007477,
1070,1780,0.213970,-1.295390,0.999998,0.000157,-0.001495,0.005601,-0.000057,0.005601,-0.001495,-89.542784,0.005800,
1830,1700,-1.580302,-2.587178,0.999996,0.000234,-0.003683,0.007536,-0.000039,0.007536,-0.003683,-89.801455,0.007536,
1280,1520,-0.092773,-2.617402,0.999998,0.000179,-0.001965,0.005071,-0.000402,0.005093,-0.001987,-86.742729,0.005134,
920,850,1.598017,-9.169133,0.999995,0.000258,-0.005081,0.009509,0.000686,0.009541,-0.005114,87.312611,0.009549,
1580,1350,-1.314571,-4.724474,0.999997,0.000179,-0.004945,0.008689,-0.000243,0.008693,-0.004950,-88.980875,0.008721,
1040,690,0.525749,-11.165163,0.999994,0.000275,-0.004348,0.007337,-0.002096,0.007702,-0.004713,-80.131962,0.007766,
1880,1250,-2.839452,-6.097587,0.999997,0.000198,-0.003453,0.006916,0.000187,0.006919,-0.003456,88.967138,0.006919,
730,1710,1.200733,-2.272097,0.999997,0.000183,-0.003589,0.007501,-0.000058,0.007502,-0.003590,-89.700794,0.007504,
1630,1830,-0.588114,-1.228932,0.999997,0.000217,-0.002143,0.006643,0.000789,0.006713,-0.002214,84.907988,0.006842,
1400,550,-0.378902,-12.185512,0.999996,0.000224,-0.002899,0.006163,0.001161,0.006310,-0.003045,82.814150,0.006311,
940,1210,1.472582,-5.839292,0.999996,0.000244,-0.005315,0.009729,-0.000447,0.009742,-0.005329,-88.298569,0.009756,
1850,320,-1.565701,-12.742395,0.999997,0.000228,-0.003633,0.007467,0.000059,0.007468,-0.003633,89.693990,0.007468,
1520,140,-0.208798,-14.496364,0.999998,0.000181,-0.001070,0.005526,-0.000698,0.005599,-0.001143,-84.028160,0.005917,
1220,620,0.018836,-12.130178,0.999998,0.000155,-0.001784,0.004333,-0.000279,0.004345,-0.001797,-87.392445,0.004367,
640,1280,2.557084,-5.774451,0.999996,0.000243,-0.003720,0.007454,-0.000492,0.007475,-0.003742,-87.483077,0.007475,
1840,1960,-0.585183,-0.611349,0.999996,0.000231,-0.003525,0.007970,0.001636,0.008198,-0.003754,82.055723,0.008208,
680,1680,1.452784,-2.622187,0.999996,0.000238,-0.003664,0.007579,0.000012,0.007579,-0.003664,89.936370,0.007580,
1640,90,-0.210599,-14.733747,0.999998,0.000150,-0.000846,0.005744,-0.001389,0.006025,-0.001127,-78.574001,0.006406,
610,470,1.928645,-11.602546,0.999997,0.000209,-0.003753,0.007600,-0.000093,0.007601,-0.003753,-89.529234,0.007601,
610,1460,2.210057,-4.473401,0.999997,0.000205,-0.003794,0.007652,-0.000041,0.007652,-0.003794,-89.795568,0.007653,
890,1810,0.501375,-1.290937,0.999997,0.000184,-0.002244,0.006445,-0.000458,0.006469,-0.002268,-86.992981,0.006565,
880,1090,2.165955,-7.048798,0.999998,0.000188,-0.003140,0.008272,-0.000809,0.008329,-0.003197,-85.966994,0.008403,
910,1340,1.205414,-4.728609,0.999997,0.000243,-0.005118,0.008816,0.000456,0.008831,-0.005133,88.128293,0.008869,
1860,40,-0.258411,-14.893049,0.999978,0.000613,-0.001376,0.008260,-0.003658,0.009492,-0.002607,-71.395245,0.009808,
940,280,0.461313,-13.662740,0.999997,0.000215,-0.002204,0.006336,0.000213,0.006341,-0.002209,88.573634,0.006438,
1330,1790,-0.118905,-1.204200,0.999998,0.000156,-0.001418,0.005307,-0.000051,0.005307,-0.001419,-89.568469,0.005495,
1770,700,-2.152089,-10.012333,0.999997,0.000202,-0.004022,0.007767,-0.000398,0.007780,-0.004035,-88.069335,0.007782,
1900,480,-2.125180,-11.418050,0.999997,0.000000,-0.003641,0.007559,0.000042,0.007559,-0.003642,89.785099,0.007561,
1860,1690,-1.713505,-2.741014,0.999997,0.000209,-0.003684,0.007450,-0.000072,0.007451,-0.003685,-89.631810,0.007451,
1380,1740,-0.223705,-1.512122,0.999997,0.000192,-0.001564,0.005649,-0.000054,0.005649,-0.001565,-89.573404,0.005834,
1530,1980,-0.099485,-0.278995,0.999998,0.000170,-0.000471,0.005156,0.000845,0.005280,-0.000596,81.637002,0.005784,
1680,240,-0.760148,-13.718787,0.999997,0.000203,-0.002951,0.007136,-0.000657,0.007178,-0.002994,-86.287058,0.007211,
1800,1460,-2.005696,-4.351178,0.999997,0.000202,-0.003884,0.007725,0.000048,0.007725,-0.003884,89.761004,0.007725,
810,1050,2.428731,-7.386884,0.999997,0.000201,-0.002997,0.007672,-0.000269,0.007679,-0.003004,-88.556869,0.007740,
1420,1350,-0.525339,-4.049718,0.999996,0.000248,-0.004456,0.007406,-0.002194,0.007799,-0.004849,-79.848440,0.007876,
1170,530,0.115997,-12.518422,0.999998,0.000175,-0.002036,0.005213,-0.000586,0.005260,-0.002083,-85.410747,0.005297,
1560,1370,-1.172879,-4.490181,0.999998,0.000182,-0.004866,0.008527,-0.000529,0.008548,-0.004887,-87.739900,0.008577,
1600,160,-0.363414,-14.331633,0.999997,0.000205,-0.001669,0.006143,-0.000939,0.006255,-0.001781,-83.239953,0.006445,
1020,1100,1.633397,-6.619015,0.999992,0.000347,-0.004555,0.012040,0.000929,0.012091,-0.004607,86.805214,0.012205,
1610,500,-1.060553,-11.965759,0.999996,0.000253,-0.003726,0.007486,0.000430,0.007502,-0.003742,87.804818,0.007502,
1760,900,-2.637045,-8.487142,0.999997,0.000214,-0.003527,0.007445,-0.000669,0.007486,-0.003568,-86.522135,0.007488,
1730,1820,-0.889381,-1.440481,0.999998,0.000174,-0.003008,0.007400,0.000766,0.007456,-0.003064,85.813257,0.007495,
1210,1920,0.012040,-0.533378,0.999998,0.000193,-0.000575,0.004785,-0.000003,0.004785,-0.000575,-89.964708,0.005225,
770,1390,1.738917,-4.669641,0.999997,0.000213,-0.004323,0.008158,-0.000163,0.008160,-0.004326,-89.252868,0.008165,
900,950,2.066375,-8.213843,0.999997,0.000204,-0.003365,0.008643,0.000952,0.008718,-0.003440,85.496057,0.008783,
1220,600,0.021339,-12.218447,0.999998,0.000150,-0.001788,0.004488,-0.000278,0.004500,-0.001801,-87.472956,0.004530,
560,2000,0.479856,-0.441920,0.999475,0.000000,-0.002028,0.010366,-0.005879,0.012710,-0.004373,-68.253985,0.012915,
1420,1620,-0.386625,-2.272414,0.999997,0.000201,-0.002448,0.006085,-0.000562,0.006121,-0.002485,-86.250341,0.006157,
1280,1480,-0.091282,-2.813631,0.999998,0.000151,-0.001976,0.004842,-0.000580,0.004891,-0.002025,-85.171329,0.004915,
1150,1780,0.101109,-1.248711,0.999998,0.000158,-0.001299,0.005315,0.000006,0.005315,-0.001299,89.951060,0.005542,
1390,620,-0.368792,-11.779694,0.999996,0.000222,-0.003297,0.006247,0.001775,0.006567,-0.003616,79.796807,0.006578,
1620,1510,-1.176042,-3.525145,0.999997,0.000194,-0.004034,0.007817,-0.000401,0.007830,-0.004048,-88.066216,0.007832,
1520,120,-0.177119,-14.603685,0.999998,0.000182,-0.000882,0.005438,-0.000776,0.005532,-0.000976,-83.098256,0.005906,
1630,1810,-0.639193,-1.363684,0.999997,0.000194,-0.002328,0.006822,0.000676,0.006871,-0.002378,85.797270,0.006979,
1550,1120,-1.969908,-6.757941,0.999997,0.000239,-0.003651,0.008978,0.001071,0.009068,-0.003741,85.187722,0.009114,
1870,1250,-2.804999,-6.078932,0.999997,0.000216,-0.003484,0.006976,0.000233,0.006981,-0.003490,88.724900,0.006981,
1550,740,-1.253651,-10.179499,0.999997,0.000261,-0.005260,0.008972,0.000312,0.008979,-0.005267,88.743841,0.009024,
1850,300,-1.509506,-12.894015,0.999996,0.000246,-0.003640,0.007488,-0.000025,0.007489,-0.003640,-89.870533,0.007489,
730,1950,0.374652,-0.515834,0.999997,0.000221,-0.001762,0.006540,-0.001796,0.006912,-0.002134,-78.301669,0.007078,
1900,210,-1.390768,-13.398652,0.999996,0.000000,-0.003645,0.007267,-0.000238,0.007273,-0.003650,-88.752247,0.007273,
1070,150,0.104742,-14.492000,0.999998,0.000136,-0.000738,0.005098,0.000325,0.005116,-0.000756,86.821724,0.005523,
920,1210,1.576711,-5.903786,0.999994,0.000309,-0.005126,0.009493,-0.000624,0.009520,-0.005152,-87.558805,0.009531,
610,450,1.885186,-11.755329,0.999997,0.000223,-0.003729,0.007581,-0.000117,0.007582,-0.003730,-89.406615,0.007582,
1420,1600,-0.395659,-2.395807,0.999997,0.000196,-0.002492,0.006126,-0.000642,0.006173,-0.002539,-85.761329,0.006206,
1170,510,0.117329,-12.623600,0.999998,0.000177,-0.002000,0.005237,-0.000500,0.005271,-0.002034,-86.063106,0.005317,
1120,1980,0.030874,-0.256617,0.999998,0.000159,-0.000322,0.004694,-0.000227,0.004704,-0.000332,-87.413083,0.005250,
940,260,0.431465,-13.787725,0.999997,0.000217,-0.002052,0.006145,0.000279,0.006154,-0.002062,88.051836,0.006265,
1550,1050,-2.138535,-7.370102,0.999998,0.000200,-0.002745,0.008541,0.000388,0.008555,-0.002759,88.032522,0.008733,
570,810,2.894880,-8.960777,0.999992,0.000315,-0.003602,0.006822,0.000018,0.006822,-0.003602,89.898353,0.006825,
1340,80,-0.032228,-14.842633,0.999998,0.000164,-0.000335,0.004685,-0.000198,0.004693,-0.000343,-87.741301,0.005232,
860,1090,2.226288,-7.057140,0.999997,0.000207,-0.003143,0.008110,-0.000789,0.008165,-0.003198,-86.007013,0.008228,
1390,200,-0.147543,-14.232010,0.999998,0.000169,-0.001019,0.005292,-0.000238,0.005301,-0.001028,-87.843803,0.005623,
860,860,1.920419,-8.953234,0.999997,0.000197,-0.004373,0.008735,0.000974,0.008807,-0.004445,85.773932,0.008807,
1650,1440,-1.434763,-4.160389,0.999996,0.000221,-0.004341,0.008052,-0.000167,0.008054,-0.004343,-89.226085,0.008063,
1840,1940,-0.712337,-0.773629,0.999997,0.000207,-0.003589,0.008004,0.001204,0.008128,-0.003712,84.132760,0.008138,
1770,160,-0.732526,-14.151899,0.999997,0.000224,-0.003109,0.007442,-0.001303,0.007600,-0.003267,-83.063483,0.007625,
1880,1460,-2.312858,-4.535831,0.999996,0.000238,-0.003789,0.007682,0.000025,0.007682,-0.003789,89.876316,0.007682,
1470,270,-0.338498,-13.785617,0.999997,0.000195,-0.001691,0.005907,-0.000208,0.005913,-0.001697,-88.431453,0.006089,
640,1260,2.611341,-5.925962,0.999997,0.000239,-0.003674,0.007393,-0.000520,0.007417,-0.003698,-87.315381,0.007417,
630,1020,3.012658,-7.612423,0.999998,0.000185,-0.003202,0.006807,0.000107,0.006809,-0.003203,89.386069,0.006812,
1210,1980,0.007359,-0.251971,0.999998,0.000151,-0.000284,0.004569,-0.000032,0.004569,-0.000285,-89.616477,0.005119,
1020,1080,1.720585,-6.876544,0.999992,0.000373,-0.004656,0.012410,0.000896,0.012456,-0.004703,87.003988,0.012580,
640,70,0.350402,-14.762241,0.999995,0.000253,-0.002366,0.007652,0.002403,0.008198,-0.002913,77.186711,0.008312,
1100,1530,0.275527,-2.694849,0.999997,0.000192,-0.002542,0.005768,0.001024,0.005893,-0.002667,83.078876,0.005901,
770,1350,1.843362,-4.999400,0.999997,0.000210,-0.004359,0.008158,-0.000353,0.008168,-0.004369,-88.383868,0.008174,
1310,260,-0.092474,-13.951302,0.999998,0.000150,-0.001217,0.005216,-0.000026,0.005216,-0.001217,-89.766301,0.005457,
1680,220,-0.700149,-13.860647,0.999997,0.000216,-0.002809,0.006937,-0.000777,0.006999,-0.002871,-85.470425,0.007036,
1630,1500,-1.233042,-3.630416,0.999997,0.000189,-0.004056,0.007832,-0.000368,0.007843,-0.004068,-88.226740,0.007845,
890,1790,0.540830,-1.419757,0.999997,0.000199,-0.002412,0.006498,-0.000339,0.006511,-0.002425,-87.825846,0.006581,
1280,1460,-0.087907,-2.908024,0.999998,0.000186,-0.001984,0.004715,-0.000678,0.004783,-0.002052,-84.280087,0.004799,
810,1030,2.443118,-7.540967,0.999996,0.000223,-0.002988,0.007696,-0.000048,0.007696,-0.002988,-89.744024,0.007760,
1530,740,-1.148978,-10.249405,0.999996,0.000251,-0.005286,0.008972,0.000524,0.008992,-0.005305,87.898224,0.009040,
1860,1250,-2.769461,-6.061271,0.999997,0.000222,-0.003517,0.007032,0.000301,0.007040,-0.003525,88.364169,0.007040,
1760,880,-2.588874,-8.638375,0.999997,0.000234,-0.003639,0.007549,-0.000783,0.007603,-0.003693,-86.017662,0.007604,
1220,580,0.020605,-12.309907,0.999998,0.000162,-0.001823,0.004653,-0.000252,0.004662,-0.001832,-87.776190,0.004698,
1600,250,-0.579849,-13.760168,0.999997,0.000217,-0.002455,0.006575,-0.000460,0.006599,-0.002478,-87.089687,0.006666,
1180,1470,0.097189,-2.865834,0.999997,0.000221,-0.001985,0.004833,0.000672,0.004899,-0.002050,84.420406,0.004920,
1900,200,-1.353502,-13.472215,0.999997,0.000000,-0.003660,0.007318,-0.000265,0.007324,-0.003666,-88.619266,0.007324,
1070,130,0.087845,-14.591619,0.999998,0.000148,-0.000634,0.005048,0.000330,0.005067,-0.000653,86.682844,0.005513,
680,1660,1.501738,-2.774000,0.999997,0.000217,-0.003705,0.007605,0.000084,0.007605,-0.003705,89.574383,0.007606,
1060,1650,0.326853,-2.061248,0.999997,0.000207,-0.002389,0.005960,0.000533,0.005994,-0.002423,86.364975,0.006031,
1830,320,-1.491679,-12.799046,0.999996,0.000239,-0.003677,0.007484,0.000011,0.007484,-0.003677,89.945829,0.007484,
1030,520,0.467683,-12.285740,0.999997,0.000239,-0.003095,0.006469,-0.001076,0.006588,-0.003215,-83.661326,0.006589,
1590,920,-2.065840,-8.448375,0.999997,0.000196,-0.003700,0.008566,-0.001049,0.008655,-0.003789,-85.147061,0.008677,
1420,1330,-0.546601,-4.199994,0.999996,0.000229,-0.004745,0.007681,-0.002268,0.008082,-0.005146,-79.973987,0.008182,
980,860,1.318012,-9.294306,0.999996,0.000267,-0.005623,0.010164,-0.000019,0.010164,-0.005623,-89.932677,0.010183,
730,970,2.658678,-7.982208,0.999997,0.000210,-0.003295,0.007349,0.000393,0.007363,-0.003310,87.886313,0.007376,
1550,1030,-2.155265,-7.539437,0.999998,0.000190,-0.002664,0.008419,0.000071,0.008419,-0.002665,89.632974,0.008606,
960,870,1.478723,-9.105032,0.999995,0.000271,-0.005276,0.009969,0.000444,0.009982,-0.005289,88.331741,0.009988,
890,200,0.404508,-14.111515,0.999998,0.000180,-0.001899,0.006169,0.000655,0.006222,-0.001952,85.391842,0.006364,
640,1090,2.946112,-7.132069,0.999998,0.000179,-0.003232,0.006780,-0.000165,0.006783,-0.003234,-89.054859,0.006785,
860,840,1.848213,-9.132531,0.999996,0.000222,-0.004578,0.008873,0.000896,0.008932,-0.004637,86.204801,0.008934,
810,1340,1.692017,-4.998334,0.999998,0.000230,-0.004604,0.008411,-0.000294,0.008417,-0.004610,-88.705000,0.008430,
870,80,0.149975,-14.800346,0.999998,0.000170,-0.000832,0.005402,0.001129,0.005601,-0.001030,80.046406,0.005962,
1130,290,0.137575,-13.778614,0.999998,0.000167,-0.001562,0.005376,-0.000103,0.005377,-0.001563,-89.146445,0.005532,
940,240,0.395940,-13.909067,0.999998,0.000193,-0.001921,0.006110,0.000394,0.006129,-0.001940,87.195278,0.006265,
600,1910,0.964947,-1.096374,0.999997,0.000213,-0.003633,0.007767,-0.000759,0.007817,-0.003683,-86.205776,0.007821,
1170,490,0.115637,-12.728903,0.999998,0.000168,-0.001968,0.005272,-0.000408,0.005295,-0.001991,-86.784375,0.005349,
1380,1980,-0.038069,-0.257426,0.999998,0.000159,-0.000218,0.004757,0.000334,0.004779,-0.000241,86.173864,0.005385,
1840,1920,-0.825878,-0.932865,0.999997,0.000202,-0.003664,0.007874,0.000945,0.007951,-0.003741,85.349229,0.007955,
1330,710,-0.193039,-11.526442,0.999997,0.000210,-0.002871,0.004948,0.002397,0.005624,-0.003547,74.244425,0.005688,
1470,250,-0.313141,-13.900131,0.999998,0.000188,-0.001576,0.005829,-0.000284,0.005840,-0.001587,-87.804514,0.006039,
1610,1500,-1.152575,-3.578709,0.999997,0.000193,-0.004085,0.007798,-0.000453,0.007815,-0.004102,-87.822103,0.007818,
1610,480,-1.029630,-12.115311,0.999997,0.000209,-0.003634,0.007465,0.000411,0.007480,-0.003649,87.883151,0.007481,
1600,900,-2.043993,-8.607335,0.999997,0.000214,-0.003922,0.008581,-0.001056,0.008669,-0.004011,-85.205466,0.008677,
1850,380,-1.715178,-12.291720,0.999998,0.000181,-0.003705,0.007527,0.000097,0.007528,-0.003706,89.505144,0.007528,
1680,170,-0.541493,-14.203155,0.999997,0.000184,-0.002369,0.006701,-0.001134,0.006841,-0.002508,-82.980145,0.006921,
1290,260,-0.070971,-13.954578,0.999998,0.000138,-0.001125,0.005187,-0.000044,0.005188,-0.001125,-89.603851,0.005458,
1570,1500,-0.990047,-3.467232,0.999997,0.000193,-0.003949,0.007656,-0.000648,0.007692,-0.003985,-86.813384,0.007694,
1520,990,-2.033969,-7.901684,0.999997,0.000204,-0.002939,0.009249,-0.000567,0.009275,-0.002966,-87.343705,0.009474,
980,1210,1.250013,-5.671569,0.999995,0.000281,-0.005751,0.010109,0.000221,0.010112,-0.005754,89.203516,0.010144,
730,1400,1.882648,-4.676516,0.999998,0.000180,-0.004153,0.007970,-0.000189,0.007973,-0.004156,-89.108465,0.007976,
770,810,2.143229,-9.256021,0.999997,0.000196,-0.004174,0.008131,0.000812,0.008184,-0.004227,86.242321,0.008186,
1020,1060,1.780820,-7.110651,0.999993,0.000332,-0.004886,0.013326,0.000663,0.013350,-0.004910,87.917088,0.013505,
610,430,1.840618,-11.906608,0.999997,0.000203,-0.003718,0.007529,-0.000112,0.007530,-0.003719,-89.427587,0.007530,
1680,200,-0.640407,-13.997505,0.999997,0.000221,-0.002665,0.006910,-0.000930,0.006999,-0.002755,-84.504858,0.007052,
890,1770,0.580756,-1.550760,0.999997,0.000201,-0.002526,0.006601,-0.000255,0.006608,-0.002533,-88.398438,0.006668,
1890,1460,-2.349951,-4.559550,0.999997,0.000213,-0.003790,0.007680,0.000021,0.007680,-0.003790,89.894299,0.007681,
1280,1440,-0.088823,-3.000255,0.999997,0.000194,-0.001988,0.004550,-0.000807,0.004648,-0.002086,-83.067135,0.004656,
1760,860,-2.542991,-8.791044,0.999996,0.000232,-0.003703,0.007520,-0.000732,0.007568,-0.003750,-86.285355,0.007568,
1420,1580,-0.406245,-2.517378,0.999997,0.000223,-0.002607,0.006199,-0.000739,0.006260,-0.002669,-85.234254,0.006283,
730,1280,2.209464,-5.638080,0.999998,0.000213,-0.004066,0.007977,-0.000704,0.008018,-0.004107,-86.663971,0.008019,
650,680,2.268564,-10.082931,0.999997,0.000192,-0.003877,0.007596,0.000287,0.007603,-0.003884,88.569948,0.007603,
1850,120,-0.776762,-14.270523,0.999996,0.000216,-0.003611,0.008035,-0.001113,0.008140,-0.003716,-84.589689,0.008150,
810,1010,2.433926,-7.695476,0.999997,0.000198,-0.002996,0.007645,0.000231,0.007650,-0.003001,88.756974,0.007709,
980,840,1.226931,-9.499625,0.999996,0.000257,-0.005776,0.010050,-0.000289,0.010055,-0.005781,-88.953240,0.010093,
860,820,1.778937,-9.308905,0.999996,0.000231,-0.004758,0.008922,0.000783,0.008967,-0.004802,86.733585,0.008974,
770,440,1.262619,-12.219658,0.999997,0.000182,-0.003737,0.007555,-0.000223,0.007559,-0.003741,-88.871411,0.007559,
1220,560,0.022105,-12.403486,0.999998,0.000158,-0.001866,0.004812,-0.000229,0.004820,-0.001874,-88.034234,0.004859,
1800,1440,-2.053745,-4.507598,0.999998,0.000206,-0.003911,0.007709,0.000116,0.007710,-0.003912,89.427887,0.007710,
1610,1320,-1.544780,-5.070502,0.999995,0.000271,-0.004859,0.008705,0.000171,0.008707,-0.004861,89.277996,0.008727,
1900,190,-1.313522,-13.544908,0.999997,0.000000,-0.003663,0.007457,-0.000390,0.007471,-0.003677,-87.993206,0.007471,
1070,110,0.069461,-14.693226,0.999998,0.000163,-0.000484,0.004944,0.000363,0.004968,-0.000508,86.189650,0.005467,
1640,1690,-0.927768,-2.221932,0.999998,0.000189,-0.003221,0.007218,0.000016,0.007218,-0.003221,89.911616,0.007232,
1170,470,0.113984,-12.833164,0.999998,0.000184,-0.001921,0.005306,-0.000340,0.005322,-0.001937,-87.314397,0.005388,
1040,1650,0.374268,-2.094558,0.999997,0.000186,-0.002367,0.006046,0.000478,0.006073,-0.002395,86.759527,0.006118,
1490,1120,-1.733855,-6.631619,0.999996,0.000234,-0.004185,0.010208,0.000698,0.010242,-0.004218,87.228639,0.010295,
1120,1240,0.349410,-4.229900,0.999995,0.000291,-0.004143,0.005436,0.003341,0.006486,-0.005193,72.548534,0.006866,
640,1240,2.662968,-6.072496,0.999997,0.000219,-0.003612,0.007221,-0.000511,0.007245,-0.003636,-87.304336,0.007245,
1600,860,-1.905191,-8.958187,0.999996,0.000247,-0.004404,0.008810,-0.000973,0.008882,-0.004476,-85.811848,0.008882,
730,930,2.593236,-8.281816,0.999996,0.000213,-0.003441,0.007419,0.000631,0.007455,-0.003478,86.687932,0.007461,
940,220,0.361279,-14.030909,0.999998,0.000182,-0.001730,0.005929,0.000431,0.005953,-0.001754,86.789755,0.006118,
680,1090,2.816826,-7.116610,0.999998,0.000194,-0.003321,0.007056,-0.000310,0.007065,-0.003330,-88.291736,0.007069,
1710,1520,-1.516885,-3.673002,0.999996,0.000233,-0.003991,0.007780,-0.000172,0.007782,-0.003993,-89.162140,0.007783,
1330,670,-0.193460,-11.725871,0.999998,0.000192,-0.002647,0.004991,0.001970,0.005470,-0.003125,76.354195,0.005488,
1390,460,-0.323696,-12.751859,0.999997,0.000204,-0.002522,0.005999,0.000757,0.006065,-0.002589,84.964002,0.006087,
1190,1980,0.012484,-0.252198,0.999999,0.000116,-0.000222,0.004584,-0.000104,0.004586,-0.000225,-88.758159,0.005171,
560,1990,0.635942,-0.530742,0.999443,0.000000,-0.003226,0.009572,-0.004405,0.010942,-0.004596,-72.727961,0.010988,
1330,540,-0.198676,-12.404379,0.999998,0.000141,-0.002205,0.005407,0.000833,0.005497,-0.002295,83.827715,0.005522,
1550,1500,-0.912081,-3.412413,0.999997,0.000208,-0.003979,0.007596,-0.000750,0.007644,-0.004027,-86.308185,0.007648,
960,1210,1.364345,-5.765809,0.999995,0.000308,-0.005558,0.009957,-0.000137,0.009959,-0.005560,-89.493518,0.009981,
1470,230,-0.285608,-14.018320,0.999998,0.000196,-0.001416,0.005748,-0.000352,0.005766,-0.001433,-87.194317,0.006004,
1020,1040,1.813490,-7.403829,0.999993,0.000324,-0.005001,0.013601,0.000274,0.013605,-0.005005,89.157246,0.013762,
770,790,2.085628,-9.421150,0.999998,0.000182,-0.004246,0.008226,0.000741,0.008270,-0.004290,86.610147,0.008272,
710,1400,1.965228,-4.720125,0.999997,0.000193,-0.004087,0.007881,-0.000228,0.007886,-0.004091,-88.909872,0.007888,
1650,620,-1.446354,-10.920101,0.999995,0.000252,-0.004346,0.008060,0.000154,0.008062,-0.004348,89.288344,0.008070,
1760,840,-2.492739,-8.939119,0.999995,0.000256,-0.003763,0.007561,-0.000731,0.007608,-0.003810,-86.321108,0.007608,
1840,1900,-0.930814,-1.087216,0.999997,0.000209,-0.003667,0.007773,0.000724,0.007818,-0.003713,86.391279,0.007822,
1680,180,-0.572366,-14.138035,0.999997,0.000197,-0.002485,0.006760,-0.001044,0.006876,-0.002602,-83.637313,0.006944,
890,1750,0.618890,-1.683304,0.999997,0.000223,-0.002665,0.006667,-0.000149,0.006669,-0.002668,-89.082623,0.006713,
1060,1910,0.107576,-0.605662,0.999998,0.000196,-0.000803,0.005110,-0.000310,0.005126,-0.000819,-87.006669,0.005507,
1700,310,-1.007996,-13.175094,0.999996,0.000242,-0.003236,0.007321,-0.000220,0.007326,-0.003241,-88.808686,0.007342,
1830,120,-0.703476,-14.344982,0.999996,0.000201,-0.003368,0.007942,-0.001305,0.008090,-0.003516,-83.503641,0.008113,
1660,1250,-1.988635,-5.775846,0.999997,0.000236,-0.004354,0.008440,0.000788,0.008488,-0.004402,86.487598,0.008490,
690,680,2.111008,-10.163341,0.999998,0.000190,-0.003989,0.007814,0.000340,0.007823,-0.003999,88.352769,0.007824,
1280,1420,-0.084999,-3.089152,0.999997,0.000204,-0.001967,0.004382,-0.000914,0.004511,-0.002096,-81.968327,0.004515,
810,990,2.420256,-7.846883,0.999997,0.000202,-0.003095,0.007669,0.000354,0.007681,-0.003107,88.118568,0.007727,
1220,540,0.021479,-12.501300,0.999998,0.000154,-0.001900,0.004936,-0.000200,0.004942,-0.001906,-88.321849,0.004985,
1880,1570,-2.062479,-3.694537,0.999998,0.000182,-0.003721,0.007577,-0.000064,0.007578,-0.003721,-89.677297,0.007578,
790,400,1.111433,-12.566471,0.999998,0.000180,-0.003487,0.007449,-0.000104,0.007450,-0.003488,-89.455469,0.007455,
980,820,1.142205,-9.700775,0.999996,0.000251,-0.005831,0.009878,-0.000545,0.009896,-0.005850,-88.014813,0.009951,
1160,1470,0.137639,-2.902645,0.999998,0.000169,-0.002158,0.004994,0.000981,0.005126,-0.002290,82.326495,0.005136,
1170,450,0.112300,-12.938725,0.999998,0.000166,-0.001864,0.005350,-0.000252,0.005358,-0.001873,-88.004904,0.005439,
860,800,1.709654,-9.488583,0.999997,0.000240,-0.004870,0.008948,0.000637,0.008977,-0.004899,87.367659,0.008990,
1900,180,-1.268763,-13.619542,0.999997,0.000000,-0.003683,0.007494,-0.000497,0.007517,-0.003706,-87.458829,0.007517,
1630,120,-0.292171,-14.561323,0.999998,0.000187,-0.001111,0.005997,-0.001298,0.006227,-0.001340,-79.969788,0.006554,
1070,90,0.051869,-14.789638,0.999998,0.000164,-0.000390,0.004791,0.000365,0.004816,-0.000416,85.992621,0.005338,
1570,920,-1.993723,-8.470963,0.999998,0.000187,-0.003792,0.008776,-0.001074,0.008867,-0.003883,-85.151080,0.008890,
1120,1200,0.547669,-4.442166,0.999992,0.000359,-0.003202,0.004758,0.002795,0.005641,-0.004085,72.463788,0.005827,
1610,1300,-1.600037,-5.245935,0.999995,0.000278,-0.004861,0.008771,0.000329,0.008779,-0.004869,88.619987,0.008796,
1330,1980,-0.025005,-0.253347,0.999998,0.000179,-0.000327,0.004647,0.000190,0.004655,-0.000334,87.818903,0.005193,
1290,1660,-0.099116,-1.886167,0.999997,0.000195,-0.001680,0.005348,-0.000126,0.005350,-0.001682,-88.969109,0.005472,
1690,1520,-1.436976,-3.624738,0.999996,0.000239,-0.004027,0.007795,-0.000215,0.007799,-0.004031,-88.959755,0.007800,
1000,1630,0.485880,-2.286012,0.999997,0.000214,-0.002733,0.006412,0.000561,0.006446,-0.002768,86.503002,0.006468,
660,1090,2.882976,-7.124242,0.999998,0.000178,-0.003286,0.006930,-0.000235,0.006936,-0.003291,-88.680466,0.006939,
1770,620,-1.946536,-10.640530,0.999998,0.000166,-0.003967,0.007831,-0.000096,0.007832,-0.003967,-89.535410,0.007832,
870,200,0.448672,-14.091047,0.999997,0.000237,-0.002086,0.006299,0.000715,0.006360,-0.002146,85.159664,0.006471,
1890,390,-1.887278,-12.113869,0.999999,0.000143,-0.003701,0.007329,0.000098,0.007330,-0.003701,89.491719,0.007330,
570,1520,2.221233,-4.102284,0.999962,0.000741,-0.003615,0.007365,-0.000141,0.007367,-0.003617,-89.263690,0.007367,
1460,370,-0.430598,-13.186118,0.999997,0.000222,-0.002249,0.006220,0.000241,0.006227,-0.002256,88.374549,0.006305,
730,390,1.305882,-12.505571,0.999997,0.000230,-0.003670,0.007642,-0.000067,0.007642,-0.003670,-89.662577,0.007644,
770,770,2.026741,-9.586382,0.999997,0.000186,-0.004300,0.008220,0.000684,0.008258,-0.004337,86.883925,0.008261,
1450,1180,-1.209888,-5.785495,0.999996,0.000255,-0.005689,0.010487,-0.000648,0.010513,-0.005715,-87.710336,0.010527,
1330,130,-0.050958,-14.604680,0.999998,0.000137,-0.000643,0.004842,-0.000153,0.004846,-0.000647,-88.402027,0.005262,
1680,160,-0.509152,-14.268519,0.999997,0.000211,-0.002263,0.006692,-0.001238,0.006860,-0.002431,-82.274390,0.006957,
670,680,2.189825,-10.123252,0.999997,0.000200,-0.003958,0.007696,0.000325,0.007705,-0.003967,88.403231,0.007707,
1760,820,-2.441304,-9.094524,0.999995,0.000264,-0.003840,0.007690,-0.000759,0.007740,-0.003890,-86.249911,0.007740,
1020,1020,1.820411,-7.650806,0.999993,0.000339,-0.004976,0.013456,-0.000195,0.013458,-0.004978,-89.394473,0.013609,
1470,210,-0.258231,-14.130274,0.999998,0.000201,-0.001311,0.005658,-0.000420,0.005683,-0.001337,-86.565262,0.005943,
1840,1880,-1.023597,-1.246169,0.999996,0.000235,-0.003638,0.007789,0.000582,0.007818,-0.003667,87.090647,0.007823,
890,1730,0.654929,-1.820211,0.999997,0.000215,-0.002834,0.006808,-0.000017,0.006809,-0.002834,-89.898462,0.006840,
610,410,1.794955,-12.058485,0.999997,0.000220,-0.003723,0.007512,-0.000096,0.007513,-0.003724,-89.508795,0.007513,
1420,1560,-0.414973,-2.640684,0.999997,0.000215,-0.002749,0.006251,-0.000859,0.006333,-0.002830,-84.598659,0.006344,
1630,980,-2.341381,-7.929745,0.999996,0.000244,-0.003092,0.007826,-0.000533,0.007852,-0.003118,-87.212259,0.007908,
810,970,2.396261,-8.002858,0.999996,0.000237,-0.003197,0.007792,0.000616,0.007826,-0.003231,86.800028,0.007866,
1750,160,-0.668713,-14.190737,0.999998,0.000190,-0.003011,0.007240,-0.001235,0.007387,-0.003157,-83.225924,0.007413,
590,1280,2.740739,-5.871430,0.999996,0.000235,-0.003606,0.007253,-0.000252,0.007259,-0.003612,-88.673325,0.007259,
1330,1780,-0.124952,-1.258198,0.999998,0.000165,-0.001475,0.005365,-0.000067,0.005366,-0.001475,-89.442835,0.005544,
1770,800,-2.423527,-9.235319,0.999997,0.000217,-0.003823,0.007678,-0.000701,0.007721,-0.003865,-86.527241,0.007721,
1280,1400,-0.084323,-3.174689,0.999998,0.000197,-0.001947,0.004199,-0.001047,0.004373,-0.002120,-80.595801,0.004373,
980,800,1.067208,-9.896117,0.999996,0.000227,-0.005776,0.009617,-0.000781,0.009657,-0.005815,-87.102885,0.009724,
1820,40,-0.145269,-14.978354,0.999993,0.000330,-0.001764,0.006562,-0.002581,0.007297,-0.002499,-74.098043,0.007417,
860,780,1.644737,-9.667544,0.999995,0.000255,-0.004926,0.008909,0.000478,0.008926,-0.004942,88.025329,0.008943,
1550,1010,-2.143418,-7.705091,0.999997,0.000197,-0.002684,0.008475,-0.000323,0.008484,-0.002693,-88.343027,0.008670,
1810,1300,-2.456171,-5.603817,0.999996,0.000213,-0.003802,0.007481,0.000482,0.007502,-0.003823,87.557024,0.007502,
1190,460,0.077824,-12.894616,0.999998,0.000190,-0.001836,0.005248,-0.000215,0.005254,-0.001842,-88.261749,0.005332,
680,1640,1.543328,-2.928840,0.999997,0.000215,-0.003748,0.007590,0.000119,0.007591,-0.003749,89.399533,0.007591,
1900,170,-1.219358,-13.698838,0.999997,0.000000,-0.003688,0.007523,-0.000544,0.007549,-0.003714,-87.227567,0.007550,
560,1980,0.699836,-0.626074,0.999587,0.000000,-0.004371,0.009299,-0.002811,0.009854,-0.004926,-78.821202,0.009854,
1630,1790,-0.689848,-1.501103,0.999997,0.000205,-0.002489,0.006843,0.000553,0.006875,-0.002522,86.619944,0.006956,
1380,720,-0.366157,-11.192135,0.999996,0.000219,-0.004011,0.006544,0.002637,0.007166,-0.004633,76.726492,0.007268,
770,420,1.223513,-12.371412,0.999997,0.000204,-0.003641,0.007518,-0.000146,0.007520,-0.003643,-89.252900,0.007521,
1220,520,0.021924,-12.601057,0.999998,0.000143,-0.001901,0.005014,-0.000190,0.005020,-0.001906,-88.425555,0.005068,
620,950,2.998463,-8.077788,0.999997,0.000180,-0.003253,0.006731,0.000259,0.006738,-0.003260,88.513552,0.006739,
1870,1880,-1.133741,-1.352892,0.999998,0.000184,-0.003643,0.007661,0.000493,0.007683,-0.003664,87.505490,0.007685,
1070,70,0.036218,-14.884709,0.999999,0.000156,-0.000264,0.004730,0.000338,0.004752,-0.000287,86.146936,0.005330,
1880,1970,-0.654481,-0.664455,0.999995,0.000253,-0.003351,0.009003,0.002129,0.009360,-0.003707,80.492569,0.009427,
1120,340,0.176121,-13.496522,0.999998,0.000187,-0.001759,0.005520,-0.000209,0.005526,-0.001765,-88.358311,0.005645,
840,390,0.923423,-12.750765,0.999998,0.000225,-0.003255,0.007179,-0.000112,0.007180,-0.003256,-89.386699,0.007191,
1830,1440,-2.170721,-4.574192,0.999998,0.000167,-0.003823,0.007657,0.000095,0.007658,-0.003824,89.527106,0.007658,
640,1220,2.710802,-6.215906,0.999997,0.000214,-0.003565,0.007169,-0.000540,0.007196,-0.003592,-87.128201,0.007196,
1310,1980,-0.017988,-0.252525,0.999998,0.000167,-0.000212,0.004606,0.000165,0.004611,-0.000217,88.041029,0.005204,
1680,140,-0.433022,-14.407016,0.999997,0.000218,-0.002018,0.006457,-0.001316,0.006657,-0.002218,-81.374703,0.006779,
1760,800,-2.386647,-9.248880,0.999996,0.000242,-0.003874,0.007722,-0.000719,0.007767,-0.003919,-86.466745,0.007767,
730,370,1.259714,-12.659176,0.999997,0.000217,-0.003639,0.007542,-0.000020,0.007542,-0.003639,-89.895880,0.007544,
770,750,1.969081,-9.749746,0.999996,0.000220,-0.004332,0.008208,0.000590,0.008236,-0.004360,87.312923,0.008241,
1490,980,-1.916487,-8.038231,0.999997,0.000258,-0.003339,0.010003,-0.000517,0.010023,-0.003359,-87.785993,0.010203,
610,1220,2.815155,-6.257165,0.999998,0.000171,-0.003482,0.007030,-0.000397,0.007045,-0.003497,-87.841912,0.007045,
1420,1540,-0.423270,-2.764964,0.999997,0.000205,-0.002895,0.006325,-0.000979,0.006428,-0.002998,-84.003020,0.006433,
780,610,1.565468,-10.920211,0.999996,0.000244,-0.004262,0.008015,-0.000074,0.008015,-0.004262,-89.656627,0.008021,
890,1710,0.690748,-1.957429,0.999997,0.000231,-0.003006,0.006787,0.000093,0.006788,-0.003007,89.457978,0.006803,
860,980,2.258077,-7.938170,0.999997,0.000228,-0.003028,0.008039,0.000605,0.008072,-0.003061,86.877907,0.008150,
1030,1060,1.733147,-7.078028,0.999990,0.000390,-0.005693,0.014534,0.001194,0.014605,-0.005764,86.634933,0.014712,
1020,1000,1.791787,-7.936754,0.999992,0.000330,-0.004847,0.013469,-0.000566,0.013487,-0.004865,-88.232381,0.013660,
650,480,1.799028,-11.625273,0.999997,0.000200,-0.003793,0.007659,-0.000101,0.007660,-0.003794,-89.494278,0.007660,
1470,190,-0.229542,-14.245384,0.999998,0.000190,-0.001141,0.005561,-0.000455,0.005592,-0.001171,-86.132654,0.005898,
1120,1910,0.068713,-0.591361,0.999999,0.000132,-0.000714,0.004945,-0.000177,0.004951,-0.000720,-88.210479,0.005350,
580,1280,2.777104,-5.893354,0.999997,0.000238,-0.003783,0.007205,-0.000190,0.007208,-0.003787,-89.008775,0.007211,
1600,840,-1.835220,-9.137908,0.999996,0.000225,-0.004585,0.008913,-0.000875,0.008969,-0.004642,-86.305906,0.008971,
810,60,0.124367,-14.902506,0.999999,0.000143,-0.000670,0.005526,0.001458,0.005852,-0.000997,77.394934,0.006261,
610,390,1.749848,-12.209802,0.999997,0.000215,-0.003712,0.007503,-0.000096,0.007504,-0.003713,-89.509068,0.007504,
1790,200,-0.961481,-13.812529,0.999997,0.000177,-0.003277,0.007628,-0.000917,0.007705,-0.003354,-85.226777,0.007726,
680,1620,1.589787,-3.078168,0.999997,0.000222,-0.003768,0.007574,0.000115,0.007575,-0.003769,89.417643,0.007575,
980,780,1.003142,-10.085434,0.999997,0.000215,-0.005658,0.009328,-0.000959,0.009389,-0.005720,-86.351579,0.009463,
1200,1370,0.049343,-3.265189,0.999998,0.000138,-0.001705,0.003647,0.000820,0.003770,-0.001827,81.484842,0.003770,
1030,460,0.430320,-12.671881,0.999997,0.000198,-0.002651,0.006269,-0.000681,0.006321,-0.002703,-85.657560,0.006343,
1530,1500,-0.832147,-3.352079,0.999997,0.000225,-0.003900,0.007493,-0.000875,0.007560,-0.003967,-85.635676,0.007563,
970,80,0.086811,-14.823004,0.999998,0.000163,-0.000563,0.005059,0.000669,0.005137,-0.000641,83.306312,0.005599,
1870,1570,-2.025955,-3.671129,0.999998,0.000195,-0.003747,0.007590,-0.000067,0.007591,-0.003747,-89.662907,0.007591,
760,1610,1.309535,-2.962020,0.999996,0.000239,-0.003721,0.007555,0.000187,0.007559,-0.003724,89.050985,0.007559,
1280,1380,-0.081719,-3.259413,0.999998,0.000174,-0.001917,0.003966,-0.001227,0.004212,-0.002163,-78.683647,0.004212,
1900,160,-1.174194,-13.771358,0.999997,0.000000,-0.003677,0.007554,-0.000601,0.007586,-0.003709,-86.945850,0.007587,
1330,620,-0.196056,-11.982517,0.999998,0.000170,-0.002457,0.005172,0.001449,0.005438,-0.002723,79.600516,0.005438,
1320,1270,-0.201092,-3.877184,0.999995,0.000268,-0.003216,0.004286,-0.003106,0.005405,-0.004335,-70.184777,0.005724,
560,1970,0.745739,-0.719247,0.999759,0.000000,-0.004766,0.009466,-0.001895,0.009714,-0.005015,-82.543673,0.009715,
1880,1960,-0.726155,-0.754613,0.999995,0.000257,-0.003394,0.008650,0.001866,0.008932,-0.003677,81.392552,0.008979,
1060,1980,0.044247,-0.260316,0.999998,0.000156,-0.000350,0.004784,-0.000367,0.004810,-0.000376,-85.931440,0.005350,
1780,790,-2.435210,-9.298055,0.999998,0.000208,-0.003825,0.007615,-0.000645,0.007652,-0.003861,-86.784669,0.007652,
1550,990,-2.119813,-7.880207,0.999997,0.000202,-0.002821,0.008638,-0.000620,0.008672,-0.002854,-86.909730,0.008839,
1120,320,0.167855,-13.607439,0.999998,0.000166,-0.001674,0.005523,-0.000153,0.005526,-0.001677,-88.781192,0.005667,
590,530,2.135429,-11.098963,0.999997,0.000182,-0.003761,0.007597,-0.000020,0.007597,-0.003761,-89.901214,0.007598,
810,950,2.360634,-8.159045,0.999996,0.000250,-0.003314,0.007817,0.000728,0.007864,-0.003361,86.273878,0.007892,
1220,1340,0.016410,-3.338979,0.999998,0.000163,-0.001509,0.002952,0.000410,0.002990,-0.001546,84.795630,0.002990,
770,400,1.181695,-12.521792,0.999998,0.000187,-0.003538,0.007515,-0.000072,0.007516,-0.003538,-89.628793,0.007520,
1850,1880,-1.060915,-1.281157,0.999997,0.000223,-0.003656,0.007749,0.000521,0.007773,-0.003680,87.390049,0.007777,
1330,110,-0.042208,-14.700595,0.999998,0.000155,-0.000508,0.004788,-0.000187,0.004794,-0.000515,-87.976110,0.005264,
1680,120,-0.369678,-14.528900,0.999997,0.000198,-0.001688,0.006347,-0.001504,0.006619,-0.001961,-79.736643,0.006800,
1420,1520,-0.434169,-2.894096,0.999997,0.000206,-0.003057,0.006374,-0.001130,0.006508,-0.003191,-83.262904,0.006508,
770,730,1.911226,-9.917286,0.999997,0.000224,-0.004361,0.008234,0.000481,0.008252,-0.004379,87.814605,0.008258,
1860,70,-0.476809,-14.654294,0.999997,0.000232,-0.003279,0.008566,-0.002202,0.008962,-0.003676,-79.800614,0.009010,
730,350,1.213084,-12.809533,0.999997,0.000208,-0.003594,0.007486,0.000041,0.007486,-0.003594,89.789758,0.007488,
1840,1860,-1.114353,-1.398576,0.999997,0.000210,-0.003645,0.007660,0.000403,0.007674,-0.003660,87.963463,0.007677,
1410,1980,-0.048310,-0.261525,0.999998,0.000166,-0.000396,0.004823,0.000394,0.004852,-0.000426,85.710079,0.005374,
850,600,1.243356,-11.176565,0.999997,0.000206,-0.004336,0.008034,-0.000414,0.008048,-0.004350,-88.083638,0.008057,
1760,780,-2.331243,-9.404520,0.999997,0.000244,-0.003918,0.007746,-0.000655,0.007782,-0.003954,-86.796419,0.007783,
1620,1250,-1.807583,-5.707974,0.999997,0.000213,-0.004656,0.008769,0.000723,0.008808,-0.004695,86.926079,0.008814,
1810,1180,-2.758722,-6.491217,0.999998,0.000206,-0.003509,0.007248,0.000588,0.007280,-0.003541,86.878038,0.007281,
1020,980,1.736524,-8.185032,0.999991,0.000352,-0.004696,0.012529,-0.000875,0.012573,-0.004740,-87.100737,0.012699,
860,1220,1.830001,-5.944197,0.999996,0.000239,-0.004613,0.008869,-0.000865,0.008924,-0.004668,-86.345245,0.008927,
980,760,0.947409,-10.269733,0.999996,0.000226,-0.005511,0.009086,-0.001110,0.009170,-0.005595,-85.674846,0.009244,
1450,1700,-0.394194,-1.828649,0.999998,0.000178,-0.002137,0.006035,-0.000206,0.006041,-0.002142,-88.557209,0.006125,
1900,150,-1.127279,-13.846395,0.999998,0.000000,-0.003660,0.007673,-0.000734,0.007720,-0.003707,-86.307214,0.007722,
890,1690,0.723205,-2.093407,0.999996,0.000229,-0.003106,0.006844,0.000159,0.006847,-0.003108,89.082577,0.006856,
1280,1360,-0.079672,-3.336810,0.999998,0.000158,-0.001893,0.003737,-0.001388,0.004061,-0.002217,-76.875242,0.004066,
880,950,2.132752,-8.197305,0.999996,0.000233,-0.003329,0.008407,0.000905,0.008476,-0.003398,85.615149,0.008531,
1470,170,-0.203166,-14.352678,0.999998,0.000159,-0.001010,0.005465,-0.000503,0.005504,-0.001049,-85.580561,0.005845,
1120,300,0.157383,-13.717323,0.999998,0.000179,-0.001583,0.005431,-0.000116,0.005433,-0.001585,-89.049872,0.005588,
1310,1660,-0.133346,-1.895677,0.999997,0.000191,-0.001838,0.005439,-0.000261,0.005448,-0.001847,-87.952222,0.005542,
1070,470,0.335373,-12.684665,0.999997,0.000205,-0.002591,0.006011,-0.000807,0.006086,-0.002667,-84.687698,0.006102,
1510,1500,-0.756773,-3.293090,0.999997,0.000222,-0.003718,0.007324,-0.000940,0.007403,-0.003798,-85.168410,0.007404,
1870,1970,-0.620345,-0.637780,0.999996,0.000212,-0.003401,0.008770,0.002037,0.009102,-0.003733,80.748635,0.009151,
960,1610,0.621876,-2.502427,0.999996,0.000243,-0.002962,0.006732,0.000511,0.006759,-0.002989,86.990024,0.006774,
830,260,0.685189,-13.649630,0.999997,0.000214,-0.002440,0.006845,0.000588,0.006882,-0.002477,86.390176,0.006972,
810,930,2.324553,-8.316522,0.999997,0.000234,-0.003475,0.007952,0.000842,0.008014,-0.003537,85.807267,0.008032,
610,370,1.701593,-12.360598,0.999996,0.000233,-0.003678,0.007502,-0.000092,0.007502,-0.003679,-89.527114,0.007503,
1120,870,0.686163,-10.623469,0.999996,0.000267,-0.002413,0.004131,-0.002756,0.005137,-0.003419,-69.947567,0.005230,
1220,1360,0.016603,-3.275798,0.999998,0.000152,-0.001555,0.003286,0.000371,0.003315,-0.001583,85.641707,0.003316,
710,50,0.155630,-14.933630,0.999998,0.000198,-0.001015,0.006197,0.002318,0.006878,-0.001696,73.633661,0.007166,
1420,1500,-0.444296,-3.025437,0.999996,0.000217,-0.003213,0.006423,-0.001293,0.006593,-0.003384,-82.486843,0.006594,
1390,1980,-0.040707,-0.258913,0.999998,0.000176,-0.000254,0.004774,0.000345,0.004797,-0.000277,86.087251,0.005387,
610,620,2.270654,-10.454712,0.999997,0.000224,-0.003794,0.007666,0.000050,0.007666,-0.003794,89.752160,0.007666,
1810,1860,-1.009117,-1.309671,0.999997,0.000211,-0.003279,0.007697,0.000874,0.007766,-0.003348,85.474774,0.007790,
1600,820,-1.764886,-9.315185,0.999996,0.000238,-0.004757,0.008926,-0.000749,0.008967,-0.004798,-86.874669,0.008974,
810,50,0.092550,-14.957307,0.999998,0.000201,-0.000562,0.005363,0.001439,0.005694,-0.000893,77.046774,0.006125,
1330,90,-0.030332,-14.795294,0.999998,0.000171,-0.000391,0.004712,-0.000173,0.004717,-0.000396,-88.060015,0.005233,
1400,710,-0.443795,-11.142991,0.999996,0.000239,-0.004271,0.007019,0.002396,0.007506,-0.004759,78.500668,0.007595,
1150,400,0.140440,-13.194039,0.999997,0.000204,-0.001862,0.005444,-0.000296,0.005456,-0.001874,-87.686056,0.005544,
840,370,0.885384,-12.892953,0.999998,0.000188,-0.003071,0.007102,0.000034,0.007102,-0.003071,89.810582,0.007124,
1240,1330,-0.011966,-3.364526,0.999998,0.000156,-0.001461,0.002764,-0.000308,0.002786,-0.001483,-85.852874,0.002788,
1370,1580,-0.279101,-2.417562,0.999997,0.000200,-0.002408,0.005820,-0.000746,0.005887,-0.002475,-84.860052,0.005912,
1030,1280,0.705531,-4.697597,0.999996,0.000244,-0.005581,0.008748,0.002045,0.009034,-0.005867,82.036026,0.009167,
1840,1840,-1.191653,-1.554773,0.999998,0.000201,-0.003645,0.007690,0.000309,0.007698,-0.003654,88.441455,0.007702,
730,330,1.164067,-12.962193,0.999997,0.000189,-0.003516,0.007479,0.000089,0.007480,-0.003517,89.535167,0.007484,
1680,100,-0.287113,-14.659680,0.999998,0.000169,-0.001378,0.006122,-0.001566,0.006435,-0.001692,-78.669363,0.006672,
770,710,1.856972,-10.080935,0.999997,0.000227,-0.004362,0.008173,0.000404,0.008186,-0.004375,88.157492,0.008193,
860,240,0.563956,-13.823026,0.999997,0.000220,-0.002405,0.006617,0.000565,0.006652,-0.002440,86.432138,0.006730,
1830,180,-1.011185,-13.869992,0.999997,0.000192,-0.003532,0.007774,-0.000689,0.007815,-0.003573,-86.525729,0.007825,
980,740,0.897879,-10.452273,0.999996,0.000240,-0.005351,0.008869,-0.001227,0.008974,-0.005456,-85.105316,0.009043,
1740,790,-2.280453,-9.353294,0.999996,0.000272,-0.004016,0.007856,-0.000729,0.007901,-0.004061,-86.501770,0.007902,
1460,1690,-0.425626,-1.902392,0.999998,0.000193,-0.002232,0.006175,-0.000211,0.006181,-0.002238,-88.564063,0.006259,
1550,970,-2.075547,-8.052270,0.999998,0.000193,-0.003068,0.008682,-0.000818,0.008738,-0.003125,-86.038499,0.008856,
1180,830,0.195856,-11.380564,0.999994,0.000284,-0.003486,0.002394,-0.001243,0.002646,-0.003738,-78.540810,0.003844,
1490,960,-1.847705,-8.236938,0.999997,0.000224,-0.003657,0.010079,-0.000687,0.010114,-0.003691,-87.145201,0.010236,
1020,960,1.657397,-8.433373,0.999992,0.000340,-0.004628,0.012199,-0.000966,0.012254,-0.004684,-86.726259,0.012367,
1470,150,-0.172681,-14.464705,0.999998,0.000168,-0.000844,0.005386,-0.000537,0.005432,-0.000890,-85.110306,0.005826,
1120,280,0.149135,-13.825872,0.999998,0.000175,-0.001489,0.005401,-0.000036,0.005401,-0.001489,-89.704305,0.005579,
1400,790,-0.561734,-10.540991,0.999994,0.000288,-0.005389,0.008108,0.002734,0.008641,-0.005922,78.973113,0.008837,
1170,430,0.110067,-13.046133,0.999998,0.000167,-0.001806,0.005349,-0.000196,0.005355,-0.001812,-88.434400,0.005447,
1770,600,-1.901653,-10.797595,0.999997,0.000197,-0.003951,0.007810,-0.000034,0.007810,-0.003951,-89.833080,0.007810,
1770,1660,-1.452081,-2.742555,0.999997,0.000205,-0.003711,0.007615,-0.000094,0.007616,-0.003712,-89.526617,0.007617,
860,950,2.196203,-8.184060,0.999997,0.000204,-0.003299,0.008195,0.000852,0.008258,-0.003362,85.781970,0.008306,
1380,680,-0.348230,-11.447179,0.999996,0.000215,-0.003584,0.006280,0.002246,0.006768,-0.004071,77.756007,0.006814,
640,1200,2.757828,-6.358045,0.999997,0.000215,-0.003550,0.007240,-0.000591,0.007272,-0.003583,-86.873790,0.007273,
1800,1420,-2.103149,-4.662354,0.999997,0.000202,-0.003907,0.007738,0.000172,0.007740,-0.003910,89.153646,0.007741,
1640,1110,-2.308670,-6.916092,0.999997,0.000243,-0.003345,0.007900,0.000773,0.007953,-0.003398,86.084831,0.007981,
940,200,0.326574,-14.147672,0.999998,0.000186,-0.001594,0.005916,0.000542,0.005955,-0.001633,85.892173,0.006154,
1210,200,0.022144,-14.267228,0.999998,0.000196,-0.000934,0.004997,-0.000003,0.004997,-0.000934,-89.966287,0.005314,
1700,1570,-1.375623,-3.259840,0.999996,0.000236,-0.003829,0.007640,-0.000228,0.007644,-0.003833,-88.859644,0.007644,
810,910,2.271906,-8.479213,0.999997,0.000223,-0.003677,0.008123,0.001003,0.008208,-0.003762,85.176202,0.008217,
1330,70,-0.022445,-14.889955,0.999998,0.000137,-0.000297,0.004638,-0.000186,0.004645,-0.000304,-87.840869,0.005197,
1030,440,0.420618,-12.794312,0.999998,0.000185,-0.002507,0.006171,-0.000556,0.006207,-0.002543,-86.352336,0.006241,
1280,1340,-0.076772,-3.412274,0.999998,0.000185,-0.001887,0.003486,-0.001535,0.003894,-0.002294,-75.129558,0.003915,
570,60,0.524090,-14.669406,0.999701,0.002037,-0.003261,0.009916,0.004705,0.011423,-0.004769,72.235494,0.011475,
1880,1800,-1.481514,-1.981710,0.999997,0.000209,-0.003679,0.007322,0.000090,0.007323,-0.003680,89.532362,0.007323,
1220,1380,0.017838,-3.207819,0.999998,0.000169,-0.001606,0.003617,0.000348,0.003640,-0.001629,86.200746,0.003646,
1590,620,-1.180815,-11.081506,0.999997,0.000211,-0.004398,0.008034,0.000509,0.008055,-0.004419,87.659072,0.008068,
610,350,1.652118,-12.510543,0.999996,0.000231,-0.003644,0.007475,-0.000109,0.007476,-0.003645,-89.440237,0.007477,
730,310,1.115320,-13.110756,0.999998,0.000186,-0.003397,0.007447,0.000211,0.007452,-0.003401,88.887800,0.007461,
1760,1200,-2.529535,-6.293567,0.999996,0.000240,-0.003745,0.007523,0.000723,0.007569,-0.003791,86.345316,0.007569,
890,1670,0.756302,-2.234606,0.999997,0.000229,-0.003147,0.006990,0.000220,0.006995,-0.003152,88.760028,0.007006,
1420,1480,-0.453087,-3.156655,0.999997,0.000215,-0.003313,0.006507,-0.001374,0.006696,-0.003502,-82.183075,0.006698,
810,40,0.061870,-15.010960,0.999997,0.000235,-0.000437,0.005299,0.001430,0.005636,-0.000774,76.751998,0.006110,
1740,1690,-1.273884,-2.440965,0.999997,0.000224,-0.003649,0.007557,-0.000003,0.007557,-0.003649,-89.985372,0.007558,
980,720,0.856838,-10.626088,0.999997,0.000221,-0.005134,0.008587,-0.001313,0.008711,-0.005259,-84.581576,0.008774,
1810,1440,-2.092521,-4.529086,0.999998,0.000192,-0.003894,0.007686,0.000106,0.007687,-0.003895,89.475545,0.007688,
860,200,0.469481,-14.080472,0.999997,0.000212,-0.002032,0.006376,0.000768,0.006446,-0.002101,84.824147,0.006575,
1370,1300,-0.356672,-4.092490,0.999995,0.000286,-0.004256,0.006499,-0.002984,0.007272,-0.005029,-75.488507,0.007447,
1860,1970,-0.586146,-0.605445,0.999997,0.000197,-0.003453,0.008527,0.001946,0.008836,-0.003761,81.000220,0.008868,
1590,1980,-0.134128,-0.290855,0.999998,0.000166,-0.000775,0.005367,0.001108,0.005561,-0.000968,80.082594,0.005941,
810,260,0.733596,-13.623639,0.999996,0.000222,-0.002789,0.006965,0.000517,0.006993,-0.002816,86.974269,0.007037,
1020,940,1.555084,-8.674660,0.999994,0.000274,-0.004711,0.011428,-0.000859,0.011474,-0.004757,-86.962851,0.011529,
840,1010,2.344552,-7.697936,0.999997,0.000227,-0.002920,0.007829,0.000254,0.007835,-0.002926,88.647761,0.007918,
1070,260,0.202592,-13.906136,0.999998,0.000163,-0.001418,0.005475,0.000081,0.005476,-0.001419,89.326324,0.005684,
710,40,0.110069,-14.992725,0.999998,0.000182,-0.000799,0.006030,0.002313,0.006740,-0.001509,72.941662,0.007074,
580,890,3.030490,-8.438896,0.999997,0.000194,-0.003154,0.006489,0.000112,0.006491,-0.003155,89.336537,0.006492,
640,2020,0.113923,-0.118663,0.999996,0.000000,-0.001993,0.006510,-0.002482,0.007181,-0.002665,-74.860426,0.007260,
570,670,2.558488,-9.984951,0.999483,0.002722,-0.005314,0.007500,0.000151,0.007502,-0.005316,89.327190,0.007716,
1600,850,-1.870631,-9.047330,0.999996,0.000237,-0.004497,0.008881,-0.000916,0.008943,-0.004559,-86.101988,0.008944,
1470,760,-0.872510,-10.338589,0.999995,0.000299,-0.005528,0.008989,0.001370,0.009117,-0.005657,84.656658,0.009205,
1240,840,-0.051664,-11.533332,0.999989,0.000396,-0.005825,0.002288,-0.000089,0.002289,-0.005826,-89.371900,0.005870,
1170,410,0.107520,-13.152006,0.999998,0.000173,-0.001755,0.005365,-0.000147,0.005368,-0.001758,-88.817998,0.005473,
1620,1110,-2.241625,-6.905724,0.999997,0.000204,-0.003365,0.008058,0.000818,0.008116,-0.003424,85.923590,0.008149,
1600,800,-1.696559,-9.496580,0.999996,0.000238,-0.004869,0.008983,-0.000614,0.009010,-0.004896,-87.467454,0.009021,
1380,140,-0.089759,-14.546023,0.999998,0.000153,-0.000563,0.004974,-0.000308,0.004991,-0.000580,-86.829352,0.005459,
1840,1820,-1.266634,-1.707921,0.999998,0.000195,-0.003622,0.007580,0.000223,0.007585,-0.003627,88.858629,0.007587,
1210,1300,0.032590,-3.456130,0.999998,0.000173,-0.001620,0.002346,0.000886,0.002535,-0.001809,77.962884,0.002610,
640,1180,2.805650,-6.506815,0.999997,0.000211,-0.003473,0.007154,-0.000537,0.007181,-0.003500,-87.113758,0.007182,
950,100,0.132565,-14.715498,0.999998,0.000166,-0.000757,0.005256,0.000713,0.005340,-0.000841,83.328822,0.005742,
940,180,0.288502,-14.266623,0.999998,0.000186,-0.001415,0.005762,0.000599,0.005812,-0.001465,85.259736,0.006045,
1800,1400,-2.153164,-4.817217,0.999997,0.000195,-0.003930,0.007727,0.000208,0.007731,-0.003933,88.976945,0.007732,
1190,200,0.040043,-14.264676,0.999998,0.000166,-0.000862,0.005019,0.000050,0.005019,-0.000862,89.512984,0.005368,
1030,420,0.408905,-12.916699,0.999997,0.000231,-0.002396,0.006113,-0.000457,0.006138,-0.002421,-86.936905,0.006183,
1320,1980,-0.020707,-0.252457,0.999998,0.000170,-0.000274,0.004621,0.000174,0.004627,-0.000280,87.963281,0.005189,
810,890,2.215736,-8.642052,0.999997,0.000236,-0.003860,0.008134,0.000960,0.008210,-0.003937,85.454275,0.008213,
1450,1480,-0.551116,-3.248567,0.999997,0.000244,-0.003528,0.006852,-0.001278,0.007007,-0.003683,-83.084549,0.007010,
700,110,0.474379,-14.530392,0.999995,0.000238,-0.002584,0.007037,0.001780,0.007355,-0.002902,79.848660,0.007410,
710,140,0.590004,-14.331903,0.999996,0.000219,-0.002898,0.007102,0.001433,0.007304,-0.003099,82.005569,0.007331,
1660,1630,-1.114182,-2.711110,0.999997,0.000197,-0.003548,0.007428,-0.000203,0.007432,-0.003552,-88.939371,0.007434,
1600,1810,-0.570285,-1.327306,0.999997,0.000231,-0.002449,0.006608,0.000489,0.006635,-0.002475,86.919963,0.006706,
1350,1580,-0.235701,-2.387097,0.999998,0.000175,-0.002124,0.005656,-0.000625,0.005706,-0.002174,-85.433808,0.005760,
610,330,1.601427,-12.660181,0.999997,0.000200,-0.003649,0.007486,-0.000098,0.007487,-0.003650,-89.497889,0.007488,
1280,1320,-0.077042,-3.477574,0.999998,0.000175,-0.001920,0.003141,-0.001723,0.003672,-0.002451,-72.876158,0.003740,
1250,460,-0.034063,-12.906210,0.999998,0.000183,-0.001855,0.005229,0.000204,0.005235,-0.001861,88.355985,0.005308,
1760,1220,-2.481309,-6.142804,0.999996,0.000226,-0.003811,0.007614,0.000750,0.007663,-0.003860,86.260653,0.007663,
1220,1400,0.019036,-3.132376,0.999998,0.000146,-0.001665,0.003898,0.000317,0.003916,-0.001683,86.753085,0.003929,
980,700,0.820982,-10.795377,0.999997,0.000198,-0.004927,0.008334,-0.001383,0.008477,-0.005070,-84.107442,0.008531,
1720,1690,-1.200946,-2.394909,0.999998,0.000176,-0.003543,0.007502,0.000043,0.007502,-0.003544,89.777397,0.007506,
1800,910,-2.789972,-8.387870,0.999998,0.000152,-0.003404,0.007099,-0.000496,0.007123,-0.003427,-87.300253,0.007125,
1020,920,1.438540,-8.888304,0.999993,0.000310,-0.004915,0.011033,-0.000754,0.011068,-0.004950,-87.300653,0.011089,
1420,1460,-0.461428,-3.289104,0.999997,0.000211,-0.003381,0.006574,-0.001447,0.006780,-0.003587,-81.897240,0.006784,
1760,1970,-0.349441,-0.421633,0.999997,0.000175,-0.002015,0.006520,0.001995,0.006963,-0.002458,77.475047,0.007063,
850,1610,0.980613,-2.751443,0.999997,0.000208,-0.003557,0.007377,0.000356,0.007388,-0.003568,88.135221,0.007390,
890,1650,0.788110,-2.374451,0.999998,0.000192,-0.003188,0.007028,0.000300,0.007037,-0.003197,88.318611,0.007047,
730,290,1.060965,-13.259835,0.999997,0.000202,-0.003307,0.007493,0.000351,0.007504,-0.003318,88.140526,0.007521,
890,500,0.922819,-12.059469,0.999997,0.000199,-0.003713,0.007390,-0.000587,0.007421,-0.003744,-86.984601,0.007421,
1610,1980,-0.148448,-0.295636,0.999998,0.000183,-0.000663,0.005488,0.001277,0.005743,-0.000918,78.722977,0.006170,
980,1330,0.866377,-4.538235,0.999996,0.000231,-0.005226,0.008659,0.001316,0.008783,-0.005349,84.633029,0.008852,
1650,300,-0.823129,-13.344778,0.999998,0.000181,-0.002952,0.007077,-0.000300,0.007086,-0.002961,-88.287571,0.007117,
1710,440,-1.325393,-12.179036,0.999998,0.000200,-0.003710,0.007576,0.000172,0.007578,-0.003713,89.128995,0.007579,
650,30,0.073218,-15.050203,0.999998,0.000000,-0.000970,0.006397,0.002833,0.007361,-0.001934,71.219984,0.007632,
1630,540,-1.206026,-11.607919,0.999997,0.000194,-0.003995,0.007777,0.000399,0.007790,-0.004009,88.060575,0.007791,
1890,850,-2.976525,-8.690249,0.999998,0.000174,-0.003336,0.006869,-0.000210,0.006874,-0.003340,-88.824165,0.006875,
640,1160,2.843743,-6.646897,0.999997,0.000204,-0.003381,0.006967,-0.000408,0.006983,-0.003397,-87.744975,0.006984,
1750,720,-2.124657,-9.893347,0.999997,0.000192,-0.004096,0.007852,-0.000474,0.007870,-0.004115,-87.731575,0.007873,
1800,1380,-2.205462,-4.971150,0.999997,0.000200,-0.003923,0.007693,0.000285,0.007700,-0.003930,88.593197,0.007701,
1260,840,-0.152371,-11.482558,0.999995,0.000252,-0.004804,0.002250,0.000009,0.002250,-0.004804,89.922870,0.004807,
1680,1110,-2.440437,-6.931467,0.999996,0.000223,-0.003349,0.007660,0.000710,0.007706,-0.003395,86.323481,0.007724,
780,630,1.610501,-10.757478,0.999995,0.000250,-0.004303,0.008068,-0.000005,0.008068,-0.004303,-89.976605,0.008074,
690,880,2.637836,-8.626789,0.999996,0.000239,-0.003601,0.007460,0.000731,0.007508,-0.003649,86.234528,0.007509,
1600,780,-1.630783,-9.675502,0.999996,0.000215,-0.004938,0.008903,-0.000462,0.008919,-0.004953,-88.089386,0.008937,
1320,1960,-0.028818,-0.345872,0.999998,0.000176,-0.000383,0.004713,0.000169,0.004719,-0.000388,88.107504,0.005239,
1840,1800,-1.335057,-1.859335,0.999997,0.000211,-0.003634,0.007577,0.000164,0.007580,-0.003636,89.162133,0.007582,
1880,1480,-2.265428,-4.381857,0.999996,0.000237,-0.003811,0.007649,0.000002,0.007649,-0.003811,89.990968,0.007649,
1670,1860,-0.597120,-1.072547,0.999997,0.000226,-0.002608,0.006863,0.000925,0.006953,-0.002697,84.472285,0.007011,
850,340,0.800134,-13.123459,0.999997,0.000198,-0.002878,0.007079,0.000115,0.007080,-0.002879,89.339642,0.007121,
1170,390,0.104290,-13.260051,0.999998,0.000159,-0.001684,0.005399,-0.000125,0.005401,-0.001686,-88.990110,0.005527,
1130,1600,0.195263,-2.252356,0.999998,0.000177,-0.002085,0.005540,0.000534,0.005578,-0.002122,86.013151,0.005630,
950,80,0.099497,-14.817961,0.999998,0.000171,-0.000569,0.005110,0.000761,0.005211,-0.000669,82.499868,0.005670,
1280,1300,-0.078936,-3.536782,0.999998,0.000186,-0.001973,0.002955,-0.001863,0.003580,-0.002598,-71.455050,0.003700,
1130,400,0.179889,-13.173346,0.999998,0.000158,-0.001994,0.005510,-0.000415,0.005533,-0.002017,-86.846765,0.005600,
1430,1700,-0.350819,-1.801575,0.999998,0.000209,-0.002207,0.005986,-0.000264,0.005994,-0.002216,-88.158988,0.006062,
1770,80,-0.345092,-14.721711,0.999994,0.000261,-0.001755,0.006836,-0.002357,0.007441,-0.002359,-75.621964,0.007605,
1220,1840,0.012920,-0.926774,0.999998,0.000170,-0.001010,0.005016,0.000025,0.005016,-0.001010,89.764264,0.005306,
940,160,0.254020,-14.380430,0.999997,0.000194,-0.001261,0.005693,0.000698,0.005763,-0.001331,84.322896,0.006034,
610,310,1.549456,-12.809733,0.999997,0.000211,-0.003690,0.007475,-0.000030,0.007475,-0.003690,-89.845091,0.007475,
980,680,0.788191,-10.962501,0.999997,0.000205,-0.004736,0.008064,-0.001370,0.008209,-0.004881,-83.958308,0.008258,
1330,520,-0.197841,-12.513257,0.999997,0.000193,-0.002186,0.005458,0.000736,0.005529,-0.002256,84.550535,0.005560,
1020,900,1.315080,-9.109755,0.999994,0.000301,-0.005200,0.010785,-0.000754,0.010821,-0.005235,-87.305237,0.010823,
1760,1240,-2.427410,-5.986839,0.999997,0.000218,-0.003872,0.007715,0.000752,0.007763,-0.003921,86.303456,0.007763,
1710,980,-2.590435,-7.913348,0.999996,0.000235,-0.003216,0.007391,-0.000328,0.007401,-0.003226,-88.232182,0.007421,
850,1590,1.016694,-2.899030,0.999997,0.000211,-0.003623,0.007418,0.000370,0.007430,-0.003635,88.084054,0.007431,
1420,1440,-0.468205,-3.417553,0.999996,0.000226,-0.003529,0.006664,-0.001560,0.006897,-0.003762,-81.491407,0.006907,
730,270,1.004331,-13.412152,0.999997,0.000219,-0.003202,0.007463,0.000488,0.007486,-0.003224,87.387245,0.007510,
1770,660,-2.047502,-10.326450,0.999998,0.000170,-0.004001,0.007845,-0.000254,0.007850,-0.004006,-88.773992,0.007850,
1140,1470,0.182651,-2.940606,0.999998,0.000194,-0.002264,0.005185,0.001038,0.005327,-0.002406,82.211369,0.005335,
650,2020,0.104189,-0.101686,0.999997,0.000000,-0.001000,0.006466,-0.002751,0.007370,-0.001905,-71.803776,0.007652,
1480,270,-0.356442,-13.774897,0.999997,0.000203,-0.001836,0.005971,-0.000186,0.005975,-0.001840,-88.633731,0.006121,
1020,1330,0.659615,-4.332387,0.999996,0.000253,-0.005020,0.008196,0.001933,0.008473,-0.005297,81.847675,0.008561,
660,370,1.517397,-12.487300,0.999997,0.000208,-0.003736,0.007554,-0.000017,0.007554,-0.003736,-89.915644,0.007554,
600,950,3.062196,-8.061883,0.999997,0.000191,-0.003178,0.006521,0.000164,0.006524,-0.003181,89.032104,0.006525,
1460,670,-0.669934,-11.141694,0.999994,0.000304,-0.004507,0.007737,0.001626,0.007949,-0.004720,82.563705,0.007995,
640,1140,2.875432,-6.784441,0.999997,0.000215,-0.003358,0.006928,-0.000434,0.006946,-0.003376,-87.589204,0.006947,
1090,800,0.450093,-10.696069,0.999995,0.000262,-0.004943,0.007195,-0.003263,0.008017,-0.005764,-75.867735,0.008269,
1380,120,-0.071997,-14.642797,0.999998,0.000152,-0.000465,0.004929,-0.000340,0.004951,-0.000486,-86.404451,0.005457,
1250,840,-0.106602,-11.519802,0.999994,0.000294,-0.005261,0.002155,-0.000109,0.002157,-0.005263,-89.156361,0.005291,
950,1400,0.892304,-4.072881,0.999997,0.000212,-0.004592,0.008049,0.001053,0.008136,-0.004679,85.269790,0.008166,
890,1630,0.818011,-2.516382,0.999997,0.000205,-0.003235,0.007093,0.000344,0.007104,-0.003247,88.094523,0.007113,
1590,360,-0.768297,-13.025289,0.999997,0.000211,-0.003094,0.006919,0.000108,0.006920,-0.003095,89.379415,0.006933,
1320,1940,-0.037952,-0.442430,0.999998,0.000173,-0.000471,0.004794,0.000163,0.004799,-0.000476,88.232495,0.005288,
1660,1110,-2.373490,-6.923838,0.999997,0.000235,-0.003343,0.007762,0.000730,0.007810,-0.003391,86.253980,0.007832,
1800,1360,-2.257217,-5.126033,0.999997,0.000211,-0.003916,0.007649,0.000358,0.007660,-0.003928,88.226374,0.007661,
1890,1950,-0.827381,-0.872199,0.999996,0.000262,-0.003432,0.008526,0.001630,0.008745,-0.003650,82.375358,0.008784,
1870,1870,-1.180566,-1.430960,0.999997,0.000221,-0.003641,0.007576,0.000420,0.007592,-0.003657,87.860786,0.007594,
1170,370,0.100408,-13.366473,0.999998,0.000151,-0.001619,0.005387,-0.000087,0.005388,-0.001620,-89.291387,0.005529,
1630,1770,-0.734816,-1.638717,0.999997,0.000211,-0.002636,0.006971,0.000416,0.006989,-0.002654,87.524717,0.007056,
1760,1670,-1.392673,-2.641644,0.999996,0.000252,-0.003689,0.007601,-0.000075,0.007601,-0.003690,-89.620121,0.007603,
610,510,2.017051,-11.297315,0.999998,0.000181,-0.003755,0.007633,-0.000066,0.007634,-0.003756,-89.667140,0.007634,
940,140,0.211676,-14.495712,0.999998,0.000196,-0.001063,0.005518,0.000695,0.005591,-0.001135,84.037932,0.005910,
1110,400,0.220453,-13.149516,0.999998,0.000184,-0.001943,0.005573,-0.000370,0.005591,-0.001961,-87.189722,0.005674,
1310,1780,-0.096936,-1.247146,0.999998,0.000202,-0.001261,0.005307,0.000002,0.005307,-0.001261,89.979204,0.005546,
840,670,1.436330,-10.574111,0.999997,0.000218,-0.004638,0.008393,-0.000107,0.008393,-0.004639,-89.527975,0.008409,
1730,410,-1.338127,-12.360621,0.999997,0.000227,-0.003719,0.007605,0.000114,0.007606,-0.003720,89.421193,0.007607,
1420,1420,-0.476981,-3.549379,0.999996,0.000240,-0.003705,0.006752,-0.001735,0.007032,-0.003986,-80.822111,0.007053,
1510,1310,-1.055066,-4.833516,0.999996,0.000223,-0.005376,0.009022,-0.000804,0.009067,-0.005421,-86.812521,0.009125,
980,660,0.762069,-11.122968,0.999996,0.000222,-0.004570,0.007902,-0.001369,0.008051,-0.004718,-83.808302,0.008090,
1900,140,-1.073426,-13.924545,0.999997,0.000000,-0.003652,0.007922,-0.000936,0.007997,-0.003728,-85.406607,0.008004,
1120,260,0.136629,-13.933328,0.999998,0.000154,-0.001374,0.005300,-0.000029,0.005300,-0.001375,-89.747262,0.005501,
1070,490,0.341959,-12.564648,0.999996,0.000222,-0.002625,0.006024,-0.000873,0.006112,-0.002712,-84.291665,0.006125,
1020,880,1.195702,-9.325356,0.999995,0.000293,-0.005533,0.010512,-0.000849,0.010557,-0.005578,-86.980141,0.010562,
810,870,2.162263,-8.805492,0.999997,0.000226,-0.004005,0.008286,0.000992,0.008366,-0.004084,85.413803,0.008367,
850,1570,1.048970,-3.048574,0.999997,0.000207,-0.003662,0.007461,0.000404,0.007476,-0.003677,87.922870,0.007476,
1220,1820,0.013140,-1.027671,0.999998,0.000157,-0.001117,0.005070,0.000021,0.005070,-0.001117,89.801917,0.005328,
590,1660,1.835886,-2.998855,0.999998,0.000172,-0.003702,0.007406,0.000067,0.007407,-0.003702,89.655941,0.007407,
730,250,0.942573,-13.561257,0.999997,0.000185,-0.003120,0.007467,0.000611,0.007502,-0.003155,86.707801,0.007534,
680,1010,2.844779,-7.685173,0.999999,0.000148,-0.003262,0.007112,0.000221,0.007116,-0.003266,88.778978,0.007124,
740,1950,0.363930,-0.512760,0.999997,0.000201,-0.001385,0.006471,-0.001847,0.006883,-0.001798,-77.405505,0.007140,
700,90,0.378307,-14.664516,0.999998,0.000160,-0.002145,0.006549,0.001934,0.006960,-0.002556,78.006663,0.007041,
660,30,0.069706,-15.049730,0.999999,0.000000,-0.000210,0.006368,0.003014,0.007541,-0.001382,68.746353,0.008029,
770,690,1.802053,-10.242902,0.999997,0.000222,-0.004355,0.008180,0.000286,0.008187,-0.004361,88.694322,0.008193,
1770,640,-1.997018,-10.483557,0.999997,0.000217,-0.003990,0.007831,-0.000198,0.007834,-0.003993,-89.040821,0.007835,
700,1850,0.891746,-1.289106,0.999997,0.000219,-0.003385,0.007507,-0.000774,0.007562,-0.003439,-85.956887,0.007572,
1550,950,-2.021900,-8.227125,0.999997,0.000200,-0.003397,0.008853,-0.000982,0.008931,-0.003475,-85.445702,0.009004,
670,280,1.245957,-13.193911,0.999997,0.000211,-0.003567,0.007606,0.000286,0.007614,-0.003574,88.534575,0.007618,
620,1090,3.009443,-7.141741,0.999998,0.000208,-0.003214,0.006600,-0.000094,0.006601,-0.003215,-89.452017,0.006601,
590,950,3.093333,-8.054051,0.999997,0.000211,-0.003104,0.006405,0.000110,0.006407,-0.003106,89.336867,0.006408,
1840,1780,-1.400437,-2.010928,0.999997,0.000210,-0.003657,0.007479,0.000112,0.007480,-0.003658,89.422399,0.007481,
1470,130,-0.145175,-14.569546,0.999998,0.000160,-0.000742,0.005248,-0.000557,0.005299,-0.000794,-84.733458,0.005716,
1070,800,0.551241,-10.517728,0.999993,0.000312,-0.005335,0.008039,-0.002865,0.008627,-0.005923,-78.404639,0.008825,
900,570,0.985142,-11.557200,0.999997,0.000203,-0.004056,0.007721,-0.000704,0.007763,-0.004098,-86.592873,0.007767,
700,370,1.369367,-12.584460,0.999996,0.000221,-0.003664,0.007577,-0.000032,0.007577,-0.003664,-89.836763,0.007579,
640,1120,2.907623,-6.925572,0.999998,0.000196,-0.003342,0.006944,-0.000468,0.006965,-0.003364,-87.399126,0.006966,
580,1530,2.162203,-4.006553,0.999997,0.000192,-0.003679,0.007456,-0.000039,0.007456,-0.003679,-89.799772,0.007456,
1000,1330,0.761755,-4.438497,0.999996,0.000240,-0.005189,0.008466,0.001644,0.008661,-0.005384,83.230084,0.008746,
1170,350,0.096418,-13.475327,0.999999,0.000127,-0.001530,0.005345,-0.000062,0.005345,-0.001531,-89.487451,0.005506,
1460,650,-0.649371,-11.295353,0.999997,0.000205,-0.004258,0.007520,0.001560,0.007724,-0.004461,82.579748,0.007755,
1420,1400,-0.488559,-3.693099,0.999996,0.000231,-0.003937,0.006934,-0.001901,0.007256,-0.004260,-80.362464,0.007293,
1780,1110,-2.779875,-6.972655,0.999997,0.000194,-0.003369,0.007196,0.000538,0.007223,-0.003397,87.090368,0.007227,
1320,1920,-0.047124,-0.536749,0.999998,0.000151,-0.000605,0.004855,0.000143,0.004859,-0.000609,88.503054,0.005294,
1740,1670,-1.318966,-2.593379,0.999998,0.000220,-0.003683,0.007599,-0.000061,0.007599,-0.003684,-89.692510,0.007600,
1800,1340,-2.309084,-5.280502,0.999997,0.000208,-0.003893,0.007664,0.000404,0.007678,-0.003907,88.000475,0.007678,
1860,1870,-1.144509,-1.395010,0.999997,0.000202,-0.003641,0.007618,0.000437,0.007635,-0.003658,87.778377,0.007637,
1010,200,0.223769,-14.197365,0.999998,0.000191,-0.001214,0.005561,0.000380,0.005582,-0.001235,86.799681,0.005864,
840,650,1.391257,-10.742486,0.999996,0.000212,-0.004574,0.008325,-0.000195,0.008328,-0.004577,-89.134416,0.008342,
610,750,2.602143,-9.474804,0.999997,0.000204,-0.003685,0.007351,0.000316,0.007360,-0.003694,88.361565,0.007360,
1290,760,-0.100663,-11.525096,0.999995,0.000278,-0.002213,0.003165,0.002215,0.003960,-0.003008,70.261873,0.004134,
1290,1440,-0.108964,-3.020444,0.999998,0.000169,-0.002083,0.004643,-0.001006,0.004790,-0.002230,-81.671992,0.004794,
1750,2010,-0.130600,-0.156177,0.999997,0.000195,-0.000914,0.006049,0.002253,0.006714,-0.001580,73.545310,0.007021,
890,1610,0.846001,-2.658885,0.999997,0.000217,-0.003289,0.007180,0.000395,0.007195,-0.003304,87.844748,0.007203,
1600,760,-1.567877,-9.852899,0.999996,0.000223,-0.004965,0.008872,-0.000307,0.008879,-0.004972,-88.730588,0.008900,
1020,1300,0.713060,-4.584826,0.999997,0.000243,-0.005423,0.008580,0.001930,0.008841,-0.005684,82.292645,0.008961,
810,850,2.098338,-8.974865,0.999997,0.000218,-0.004145,0.008322,0.000964,0.008396,-0.004219,85.603606,0.008396,
580,1660,1.871405,-3.023117,0.999998,0.000174,-0.003780,0.007361,0.000096,0.007362,-0.003781,89.506092,0.007363,
980,640,0.738259,-11.279661,0.999996,0.000228,-0.004389,0.007658,-0.001359,0.007810,-0.004540,-83.641277,0.007844,
730,230,0.881616,-13.712954,0.999998,0.000175,-0.003000,0.007394,0.000766,0.007450,-0.003056,85.806994,0.007490,
1380,100,-0.056928,-14.742534,0.999998,0.000157,-0.000352,0.004853,-0.000326,0.004874,-0.000373,-86.428190,0.005425,
780,1010,2.524206,-7.692603,0.999997,0.000186,-0.003089,0.007523,0.000257,0.007529,-0.003095,88.614306,0.007568,
1290,80,-0.016270,-14.844559,0.999998,0.000169,-0.000222,0.004619,-0.000143,0.004623,-0.000226,-88.304664,0.005213,
1330,500,-0.195652,-12.622654,0.999998,0.000163,-0.002173,0.005478,0.000649,0.005532,-0.002228,85.186691,0.005567,
1110,1600,0.236443,-2.278367,0.999998,0.000154,-0.002088,0.005659,0.000512,0.005693,-0.002122,86.237045,0.005754,
770,30,0.051052,-15.056326,0.999997,0.000000,-0.000084,0.005572,0.001803,0.006098,-0.000610,73.736620,0.006717,
850,1550,1.080000,-3.197877,0.999997,0.000211,-0.003774,0.007570,0.000454,0.007588,-0.003792,87.712244,0.007588,
940,120,0.180399,-14.603103,0.999997,0.000196,-0.000876,0.005461,0.000745,0.005548,-0.000963,83.387903,0.005929,
850,820,1.825945,-9.291101,0.999996,0.000244,-0.004676,0.008843,0.000813,0.008891,-0.004725,86.572056,0.008897,
1220,1800,0.014810,-1.130129,0.999998,0.000159,-0.001217,0.005127,0.000040,0.005128,-0.001218,89.636990,0.005358,
1840,1760,-1.456730,-2.160114,0.999997,0.000215,-0.003671,0.007512,0.000051,0.007512,-0.003671,89.739862,0.007513,
580,950,3.125669,-8.045338,0.999997,0.000195,-0.002979,0.006288,0.000046,0.006289,-0.002979,89.712577,0.006291,
680,370,1.442135,-12.534943,0.999996,0.000218,-0.003674,0.007575,0.000000,0.007575,-0.003674,-89.997581,0.007576,
1490,1060,-1.952365,-7.231797,0.999996,0.000224,-0.003128,0.010246,0.000365,0.010256,-0.003138,88.435876,0.010510,
1420,1380,-0.501481,-3.831687,0.999995,0.000241,-0.004122,0.007097,-0.002014,0.007447,-0.004472,-80.126153,0.007497,
990,860,1.263543,-9.345810,0.999995,0.000266,-0.005711,0.010249,-0.000280,0.010254,-0.005715,-88.994809,0.010276,
980,1390,0.769052,-4.036568,0.999996,0.000229,-0.004601,0.007921,0.001380,0.008072,-0.004751,83.785618,0.008114,
640,1540,1.914025,-3.790089,0.999997,0.000189,-0.003797,0.007628,0.000072,0.007628,-0.003797,89.637527,0.007628,
730,1140,2.569159,-6.728005,0.999997,0.000192,-0.003467,0.007497,-0.000654,0.007536,-0.003506,-86.597542,0.007542,
1650,180,-0.502458,-14.171549,0.999997,0.000203,-0.002056,0.006535,-0.001038,0.006659,-0.002180,-83.207539,0.006790,
1790,1920,-0.673699,-0.815863,0.999996,0.000237,-0.002695,0.007464,0.001770,0.007763,-0.002994,80.393307,0.007831,
1300,270,-0.084603,-13.900601,0.999999,0.000143,-0.001202,0.005256,-0.000030,0.005256,-0.001202,-89.734641,0.005508,
1030,1700,0.358013,-1.804436,0.999997,0.000215,-0.002210,0.005973,0.000259,0.005981,-0.002218,88.187059,0.006047,
1320,1900,-0.055522,-0.635250,0.999998,0.000143,-0.000705,0.004959,0.000133,0.004962,-0.000708,88.659802,0.005368,
1800,1320,-2.363882,-5.433302,0.999996,0.000220,-0.003862,0.007694,0.000456,0.007711,-0.003880,87.743933,0.007712,
1170,330,0.091548,-13.581408,0.999998,0.000147,-0.001456,0.005398,-0.000020,0.005398,-0.001456,-89.834144,0.005585,
860,350,0.789916,-13.069265,0.999998,0.000147,-0.002959,0.006989,0.000014,0.006989,-0.002959,89.918580,0.007016,
1540,610,-0.945036,-11.314046,0.999998,0.000190,-0.004286,0.007851,0.000842,0.007910,-0.004344,86.048105,0.007922,
1840,1870,-1.071418,-1.323028,0.999996,0.000242,-0.003639,0.007717,0.000501,0.007739,-0.003661,87.478878,0.007743,
1700,530,-1.466109,-11.509727,0.999994,0.000299,-0.003997,0.007807,0.000205,0.007811,-0.004000,89.004916,0.007812,
1750,2000,-0.177935,-0.216559,0.999997,0.000214,-0.001170,0.006224,0.002235,0.006847,-0.001793,74.420941,0.007102,
1270,760,-0.062053,-11.606836,0.999998,0.000175,-0.001828,0.002575,0.001533,0.003057,-0.002309,72.572608,0.003187,
600,1700,1.700657,-2.674937,0.999997,0.000216,-0.003687,0.007450,0.000090,0.007451,-0.003688,89.536534,0.007451,
1750,1300,-2.220713,-5.504875,0.999997,0.000192,-0.004059,0.007940,0.000603,0.007971,-0.004089,87.129904,0.007971,
1380,80,-0.041162,-14.837670,0.999998,0.000151,-0.000277,0.004760,-0.000338,0.004783,-0.000299,-86.178026,0.005358,
1840,110,-0.681507,-14.388304,0.999996,0.000216,-0.003545,0.007960,-0.001304,0.008106,-0.003690,-83.612845,0.008117,
1020,1320,0.674185,-4.414233,0.999997,0.000250,-0.005154,0.008317,0.001954,0.008595,-0.005432,81.911596,0.008694,
820,1010,2.404808,-7.696151,0.999998,0.000189,-0.002982,0.007705,0.000240,0.007710,-0.002988,88.713376,0.007775,
980,620,0.716329,-11.431980,0.999997,0.000223,-0.004156,0.007497,-0.001303,0.007641,-0.004300,-83.699043,0.007661,
740,1530,1.546385,-3.625918,0.999997,0.000217,-0.003941,0.007764,0.000157,0.007766,-0.003943,89.230671,0.007766,
730,210,0.810406,-13.860878,0.999997,0.000188,-0.002914,0.007323,0.000931,0.007407,-0.002998,84.844996,0.007452,
850,800,1.758870,-9.469705,0.999996,0.000241,-0.004794,0.008839,0.000681,0.008873,-0.004828,87.149516,0.008884,
810,830,2.036684,-9.141476,0.999997,0.000212,-0.004264,0.008405,0.000881,0.008466,-0.004325,86.040049,0.008467,
1270,80,-0.013020,-14.844497,0.999999,0.000121,-0.000245,0.004588,-0.000077,0.004589,-0.000246,-89.085751,0.005163,
850,1530,1.111988,-3.351537,0.999997,0.000196,-0.003913,0.007691,0.000463,0.007709,-0.003931,87.719144,0.007710,
900,80,0.121671,-14.810470,0.999998,0.000147,-0.000585,0.005282,0.000955,0.005434,-0.000737,80.984299,0.005895,
1600,740,-1.509970,-10.031984,0.999996,0.000238,-0.004932,0.008761,-0.000164,0.008763,-0.004934,-89.315366,0.008786,
940,100,0.138876,-14.713306,0.999998,0.000161,-0.000687,0.005290,0.000773,0.005389,-0.000786,82.750017,0.005822,
580,940,3.113365,-8.108764,0.999998,0.000184,-0.003026,0.006421,0.000148,0.006423,-0.003028,89.105350,0.006427,
1420,1360,-0.516692,-3.976865,0.999994,0.000268,-0.004336,0.007323,-0.002127,0.007699,-0.004712,-79.978206,0.007763,
1570,1360,-1.241732,-4.607470,0.999997,0.000207,-0.004892,0.008624,-0.000398,0.008636,-0.004904,-88.314494,0.008662,
1650,160,-0.439971,-14.301490,0.999996,0.000208,-0.001849,0.006450,-0.001178,0.006614,-0.002013,-82.075651,0.006781,
1620,1890,-0.408322,-0.831499,0.999998,0.000180,-0.001621,0.006283,0.001077,0.006427,-0.001765,82.381195,0.006641,
970,860,1.375944,-9.249178,0.999996,0.000283,-0.005518,0.010109,0.000181,0.010111,-0.005520,89.336931,0.010126,
1030,1680,0.375674,-1.927674,0.999997,0.000178,-0.002267,0.006121,0.000294,0.006131,-0.002278,87.992522,0.006199,
570,1660,1.909310,-3.048399,0.999996,0.000298,-0.003826,0.007324,0.000120,0.007326,-0.003827,89.385787,0.007328,
1700,1430,-1.671782,-4.361169,0.999997,0.000245,-0.004241,0.008023,0.000026,0.008023,-0.004241,89.879749,0.008028,
1620,1570,-1.073853,-3.066625,0.999998,0.000141,-0.003687,0.007506,-0.000388,0.007520,-0.003701,-88.015730,0.007520,
640,1560,1.869741,-3.636640,0.999997,0.000206,-0.003768,0.007660,0.000109,0.007662,-0.003769,89.455777,0.007662,
980,630,0.727194,-11.355686,0.999996,0.000231,-0.004278,0.007554,-0.001337,0.007703,-0.004427,-83.631222,0.007731,
760,210,0.733614,-13.896850,0.999996,0.000227,-0.002649,0.007131,0.001030,0.007238,-0.002756,84.054167,0.007306,
1320,1880,-0.065072,-0.736418,0.999998,0.000177,-0.000817,0.005010,0.000098,0.005012,-0.000818,89.032063,0.005377,
1560,450,-0.810771,-12.454154,0.999997,0.000214,-0.003317,0.007108,0.000439,0.007127,-0.003336,87.594849,0.007131,
1540,590,-0.918913,-11.471175,0.999997,0.000211,-0.004116,0.007726,0.000827,0.007784,-0.004173,86.025592,0.007791,
760,2020,0.076624,-0.095296,0.999998,0.000000,-0.000053,0.005576,-0.001781,0.006093,-0.000569,-73.836951,0.006731,
1200,270,0.038787,-13.909187,0.999998,0.000171,-0.001242,0.005228,-0.000023,0.005228,-0.001242,-89.792019,0.005463,
1220,1780,0.014335,-1.233040,0.999998,0.000171,-0.001315,0.005200,0.000048,0.005200,-0.001316,89.576914,0.005408,
1820,1870,-1.000431,-1.257470,0.999997,0.000189,-0.003352,0.007734,0.000829,0.007795,-0.003414,85.746964,0.007815,
1890,70,-0.576174,-14.573659,0.999995,0.000255,-0.002845,0.009577,-0.002845,0.010197,-0.003466,-77.692951,0.010370,
600,1660,1.800287,-2.974741,0.999997,0.000183,-0.003701,0.007452,0.000083,0.007453,-0.003701,89.573698,0.007453,
1390,440,-0.314094,-12.872302,0.999998,0.000170,-0.002425,0.005923,0.000658,0.005975,-0.002477,85.520520,0.006003,
1150,700,0.147175,-11.652107,0.999997,0.000211,-0.002431,0.004429,-0.002050,0.004995,-0.002997,-74.564210,0.005028,
1880,850,-2.943578,-8.708297,0.999998,0.000166,-0.003358,0.006916,-0.000237,0.006921,-0.003363,-88.680540,0.006922,
800,1010,2.463497,-7.693596,0.999997,0.000211,-0.003011,0.007590,0.000235,0.007596,-0.003016,88.730290,0.007649,
1020,1340,0.647854,-4.251720,0.999996,0.000243,-0.004892,0.008063,0.001918,0.008341,-0.005170,81.753100,0.008421,
1170,310,0.087336,-13.693046,0.999998,0.000145,-0.001365,0.005361,0.000000,0.005361,-0.001365,89.999381,0.005572,
1840,1740,-1.515045,-2.312493,0.999997,0.000224,-0.003677,0.007527,0.000001,0.007527,-0.003677,89.995818,0.007528,
1380,60,-0.027081,-14.933482,0.999998,0.000158,-0.000148,0.004659,-0.000317,0.004680,-0.000169,-86.249075,0.005309,
1620,1870,-0.461652,-0.955537,0.999997,0.000193,-0.001807,0.006349,0.000938,0.006456,-0.001914,83.523601,0.006632,
1630,180,-0.466040,-14.186566,0.999997,0.000219,-0.001740,0.006367,-0.001036,0.006497,-0.001870,-82.833334,0.006689,
810,810,1.975724,-9.311560,0.999997,0.000225,-0.004387,0.008518,0.000796,0.008567,-0.004436,86.483631,0.008569,
720,1950,0.398781,-0.530032,0.999996,0.000241,-0.002187,0.006649,-0.001739,0.006979,-0.002517,-79.259588,0.007069,
890,1520,0.973501,-3.323879,0.999998,0.000170,-0.003852,0.007571,0.000605,0.007603,-0.003884,86.976715,0.007603,
1630,1750,-0.779965,-1.780489,0.999998,0.000190,-0.002757,0.006948,0.000276,0.006956,-0.002765,88.374864,0.007005,
1000,1650,0.468066,-2.156426,0.999997,0.000211,-0.002569,0.006316,0.000434,0.006337,-0.002590,87.207966,0.006372,
1090,1780,0.185653,-1.283382,0.999998,0.000180,-0.001367,0.005539,-0.000070,0.005539,-0.001367,-89.417475,0.005771,
1680,80,-0.222171,-14.777498,0.999998,0.000177,-0.001076,0.005858,-0.001598,0.006208,-0.001427,-77.626812,0.006504,
720,90,0.331790,-14.687738,0.999997,0.000205,-0.001947,0.006267,0.001756,0.006626,-0.002307,78.426802,0.006727,
1420,1340,-0.531875,-4.121818,0.999996,0.000224,-0.004603,0.007526,-0.002239,0.007926,-0.005003,-79.868857,0.008017,
770,670,1.751949,-10.411047,0.999997,0.000233,-0.004336,0.008171,0.000163,0.008173,-0.004338,89.254430,0.008178,
1800,1300,-2.418695,-5.585944,0.999996,0.000235,-0.003830,0.007549,0.000505,0.007571,-0.003853,87.466391,0.007572,
1000,1850,0.242801,-0.956530,0.999998,0.000203,-0.001229,0.005608,-0.000390,0.005630,-0.001251,-86.746379,0.005913,
1730,1300,-2.139098,-5.470197,0.999996,0.000232,-0.004122,0.008044,0.000612,0.008075,-0.004152,87.127507,0.008076,
1120,240,0.124342,-14.040331,0.999998,0.000155,-0.001273,0.005284,0.000027,0.005284,-0.001273,89.765443,0.005516,
1570,1340,-1.291186,-4.783820,0.999996,0.000220,-0.005018,0.008779,-0.000277,0.008784,-0.005023,-88.850226,0.008815,
1480,1050,-1.941005,-7.326873,0.999995,0.000268,-0.003214,0.010716,0.000222,0.010719,-0.003217,89.087491,0.011001,
1280,1500,-0.090748,-2.715950,0.999998,0.000173,-0.001975,0.004989,-0.000490,0.005023,-0.002009,-85.995497,0.005056,
940,80,0.107292,-14.814833,0.999998,0.000168,-0.000538,0.005143,0.000819,0.005259,-0.000654,81.954747,0.005732,
980,600,0.695259,-11.580528,0.999997,0.000227,-0.003935,0.007393,-0.001208,0.007520,-0.004063,-83.979018,0.007529,
850,1460,1.235487,-3.902026,0.999996,0.000235,-0.004297,0.007930,0.000411,0.007944,-0.004311,88.077089,0.007954,
980,990,1.920783,-7.950695,0.999995,0.000258,-0.003320,0.010380,0.000334,0.010388,-0.003328,88.605609,0.010609,
850,400,0.906235,-12.700213,0.999997,0.000236,-0.003246,0.007162,-0.000173,0.007165,-0.003249,-89.046236,0.007175,
850,1510,1.147327,-3.508782,0.999997,0.000198,-0.004031,0.007773,0.000439,0.007789,-0.004048,87.873214,0.007791,
1600,1570,-1.000565,-3.017486,0.999997,0.000231,-0.003676,0.007450,-0.000463,0.007469,-0.003695,-87.619147,0.007469,
720,1210,2.442671,-6.200121,0.999997,0.000219,-0.003793,0.007676,-0.000798,0.007732,-0.003849,-86.038300,0.007732,
1170,290,0.081371,-13.795666,0.999999,0.000147,-0.001263,0.005251,0.000037,0.005251,-0.001263,89.677085,0.005482,
900,100,0.164262,-14.704223,0.999998,0.000178,-0.000802,0.005437,0.000940,0.005576,-0.000940,81.618356,0.005970,
810,1230,2.020821,-5.936914,0.999997,0.000225,-0.004295,0.008423,-0.000873,0.008483,-0.004354,-86.092288,0.008484,
640,1580,1.827896,-3.482508,0.999997,0.000209,-0.003758,0.007633,0.000121,0.007635,-0.003759,89.393932,0.007635,
1600,720,-1.452845,-10.205875,0.999996,0.000225,-0.004893,0.008681,-0.000012,0.008681,-0.004893,-89.947787,0.008705,
1740,350,-1.239019,-12.792372,0.999996,0.000216,-0.003640,0.007536,-0.000041,0.007536,-0.003640,-89.788177,0.007537,
600,1120,3.041105,-6.956580,0.999998,0.000170,-0.003207,0.006667,-0.000314,0.006677,-0.003217,-88.178966,0.006678,
1680,60,-0.143766,-14.895377,0.999998,0.000172,-0.000837,0.005644,-0.001594,0.006015,-0.001208,-76.904833,0.006363,
960,630,0.813083,-11.279624,0.999997,0.000208,-0.004350,0.007733,-0.001157,0.007843,-0.004460,-84.577446,0.007867,
1280,270,-0.060136,-13.906028,0.999999,0.000122,-0.001178,0.005228,-0.000005,0.005228,-0.001178,-89.957246,0.005484,
1630,1730,-0.820242,-1.918137,0.999998,0.000186,-0.002882,0.007044,0.000157,0.007047,-0.002884,89.093805,0.007085,
1200,1730,0.046666,-1.502737,0.999998,0.000170,-0.001486,0.005322,0.000078,0.005323,-0.001487,89.345543,0.005493,
1420,1320,-0.561046,-4.282623,0.999996,0.000239,-0.004884,0.007836,-0.002294,0.008237,-0.005285,-80.081350,0.008347,
720,70,0.244235,-14.808787,0.999996,0.000236,-0.001423,0.006274,0.002053,0.006787,-0.001936,75.963195,0.006993,
1370,1780,-0.180978,-1.281912,0.999998,0.000162,-0.001359,0.005483,0.000070,0.005484,-0.001360,89.411599,0.005711,
1740,1530,-1.613568,-3.667542,0.999996,0.000226,-0.003928,0.007740,-0.000136,0.007742,-0.003929,-89.330352,0.007742,
1020,1360,0.618131,-4.093615,0.999996,0.000251,-0.004658,0.007733,0.001872,0.008010,-0.004935,81.591869,0.008081,
1550,930,-1.953154,-8.407652,0.999997,0.000220,-0.003785,0.009013,-0.001061,0.009100,-0.003872,-85.290567,0.009134,
770,650,1.703044,-10.571719,0.999996,0.000243,-0.004312,0.008092,0.000097,0.008093,-0.004313,89.550351,0.008098,
1810,440,-1.701418,-11.937220,0.999997,0.000235,-0.003797,0.007578,0.000131,0.007580,-0.003798,89.342055,0.007580,
830,820,1.916435,-9.258902,0.999996,0.000236,-0.004505,0.008687,0.000845,0.008741,-0.004559,86.351921,0.008744,
1070,510,0.350263,-12.442958,0.999997,0.000197,-0.002646,0.006027,-0.000947,0.006130,-0.002749,-83.839857,0.006140,
760,1390,1.783120,-4.692034,0.999997,0.000224,-0.004279,0.008109,-0.000179,0.008112,-0.004282,-89.171686,0.008116,
1060,1850,0.166720,-0.920343,0.999999,0.000175,-0.001200,0.005326,-0.000197,0.005332,-0.001206,-88.269686,0.005592,
1390,420,-0.304064,-12.991634,0.999997,0.000199,-0.002300,0.005863,0.000543,0.005899,-0.002336,86.211542,0.005942,
980,580,0.677564,-11.725995,0.999997,0.000225,-0.003811,0.007273,-0.001186,0.007399,-0.003936,-83.961977,0.007404,
1800,1280,-2.471527,-5.738604,0.999996,0.000228,-0.003791,0.007536,0.000566,0.007565,-0.003819,87.144477,0.007565,
1560,1050,-2.164546,-7.371438,0.999997,0.000218,-0.002734,0.008381,0.000384,0.008395,-0.002748,88.024576,0.008560,
1580,1970,-0.147796,-0.341858,0.999998,0.000155,-0.000873,0.005366,0.001007,0.005525,-0.001032,81.058373,0.005875,
1360,1430,-0.277782,-3.262775,0.999997,0.000206,-0.002821,0.005720,-0.001656,0.006029,-0.003131,-79.404890,0.006031,
1850,1300,-2.604804,-5.677292,0.999997,0.000192,-0.003672,0.007371,0.000336,0.007381,-0.003683,88.260470,0.007381,
1750,980,-2.718399,-7.906187,0.999997,0.000202,-0.003263,0.007156,-0.000237,0.007161,-0.003268,-88.695293,0.007170,
730,190,0.739040,-14.006866,0.999997,0.000185,-0.002747,0.007218,0.001096,0.007337,-0.002866,83.798154,0.007395,
850,380,0.873775,-12.840990,0.999998,0.000208,-0.003116,0.007044,-0.000081,0.007045,-0.003117,-89.542489,0.007060,
1370,1990,-0.027355,-0.208123,0.999998,0.000153,-0.000185,0.004696,0.000321,0.004717,-0.000206,86.257599,0.005331,
760,1270,2.112978,-5.673241,0.999996,0.000227,-0.004223,0.008189,-0.000732,0.008232,-0.004267,-86.635992,0.008234,
1120,220,0.113277,-14.145506,0.999998,0.000157,-0.001141,0.005203,0.000047,0.005203,-0.001141,89.574536,0.005469,
1210,1600,0.039976,-2.188317,0.999998,0.000184,-0.001868,0.005246,0.000207,0.005252,-0.001874,88.333678,0.005323,
1280,1740,-0.068743,-1.451388,0.999998,0.000164,-0.001397,0.005341,-0.000024,0.005341,-0.001398,-89.796602,0.005539,
660,550,1.915081,-11.107642,0.999997,0.000204,-0.003846,0.007666,-0.000038,0.007666,-0.003847,-89.811934,0.007666,
1660,210,-0.614139,-13.958965,0.999996,0.000222,-0.002545,0.006760,-0.000822,0.006832,-0.002617,-84.991702,0.006894,
960,610,0.789494,-11.434245,0.999996,0.000245,-0.004213,0.007646,-0.001118,0.007750,-0.004318,-84.660084,0.007767,
810,1250,1.958072,-5.766285,0.999997,0.000229,-0.004427,0.008516,-0.000784,0.008564,-0.004474,-86.546404,0.008566,
1170,270,0.075362,-13.904245,0.999998,0.000159,-0.001153,0.005247,0.000030,0.005247,-0.001153,89.731356,0.005515,
940,500,0.746977,-12.184712,0.999997,0.000217,-0.003492,0.007117,-0.000729,0.007167,-0.003542,-86.089728,0.007167,
850,1490,1.181706,-3.666344,0.999997,0.000208,-0.004119,0.007858,0.000431,0.007874,-0.004135,87.941035,0.007877,
990,1200,1.237652,-5.723163,0.999995,0.000286,-0.005747,0.010221,0.000334,0.010228,-0.005754,88.803371,0.010255,
1260,270,-0.035903,-13.909473,0.999998,0.000177,-0.001254,0.005193,0.000035,0.005193,-0.001255,89.692768,0.005419,
600,1100,3.067324,-7.091152,0.999997,0.000197,-0.003158,0.006463,-0.000114,0.006465,-0.003159,-89.323853,0.006465,
900,120,0.208892,-14.591305,0.999998,0.000166,-0.000978,0.005650,0.000943,0.005781,-0.001109,82.060754,0.006136,
640,1600,1.783296,-3.329442,0.999997,0.000195,-0.003768,0.007625,0.000096,0.007626,-0.003769,89.517142,0.007626,
1070,1720,0.259437,-1.637060,0.999997,0.000183,-0.001800,0.005725,0.000137,0.005728,-0.001802,88.958847,0.005858,
1620,610,-1.295412,-11.076798,0.999996,0.000233,-0.004402,0.008007,0.000370,0.008018,-0.004413,88.294910,0.008032,
1550,910,-1.879916,-8.587813,0.999996,0.000242,-0.004119,0.009160,-0.001102,0.009251,-0.004210,-85.288570,0.009264,
1420,1300,-0.592419,-4.439524,0.999995,0.000251,-0.005155,0.008146,-0.002331,0.008543,-0.005552,-80.340705,0.008670,
1800,450,-1.684961,-11.885873,0.999997,0.000234,-0.003789,0.007590,0.000127,0.007592,-0.003790,89.360606,0.007592,
1320,1860,-0.075855,-0.836934,0.999998,0.000151,-0.000917,0.005070,0.000096,0.005072,-0.000919,89.085297,0.005405,
1700,1630,-1.258868,-2.803180,0.999998,0.000186,-0.003658,0.007564,-0.000155,0.007566,-0.003660,-89.207132,0.007568,
1600,700,-1.400557,-10.380534,0.999996,0.000252,-0.004820,0.008594,0.000101,0.008595,-0.004821,89.570727,0.008616,
1670,1990,-0.156076,-0.252336,0.999998,0.000188,-0.000926,0.005661,0.001513,0.005992,-0.001257,77.662356,0.006320,
980,560,0.662957,-11.872417,0.999997,0.000213,-0.003719,0.007123,-0.001117,0.007237,-0.003833,-84.180074,0.007241,
1350,1780,-0.153969,-1.270083,0.999998,0.000190,-0.001423,0.005419,-0.000003,0.005419,-0.001423,-89.976892,0.005619,
1020,1800,0.278948,-1.227085,0.999998,0.000187,-0.001594,0.005690,-0.000156,0.005693,-0.001597,-88.769896,0.005873,
1630,1710,-0.857354,-2.060066,0.999997,0.000195,-0.002951,0.007102,0.000115,0.007104,-0.002952,89.344851,0.007137,
1730,980,-2.653876,-7.910136,0.999997,0.000172,-0.003245,0.007291,-0.000295,0.007300,-0.003253,-88.398806,0.007314,
1370,1360,-0.318017,-3.715996,0.999997,0.000218,-0.003554,0.006082,-0.002395,0.006644,-0.004117,-76.782557,0.006707,
1800,1260,-2.524695,-5.889550,0.999996,0.000224,-0.003753,0.007528,0.000608,0.007561,-0.003786,86.925042,0.007561,
1720,1360,-1.932565,-4.968961,0.999997,0.000239,-0.004222,0.008016,0.000362,0.008027,-0.004233,88.306437,0.008031,
1300,1970,-0.021008,-0.298663,0.999998,0.000163,-0.000246,0.004632,0.000152,0.004637,-0.000251,88.213792,0.005216,
1900,130,-1.015162,-14.006946,0.999997,0.000000,-0.003625,0.008065,-0.001104,0.008168,-0.003728,-84.652214,0.008179,
1190,760,0.067396,-11.595714,0.999998,0.000173,-0.001889,0.002633,-0.001655,0.003174,-0.002430,-71.898179,0.003320,
1370,1970,-0.045507,-0.305495,0.999998,0.000162,-0.000277,0.004774,0.000288,0.004790,-0.000293,86.743932,0.005370,
1830,1300,-2.531383,-5.638792,0.999996,0.000210,-0.003724,0.007413,0.000422,0.007429,-0.003740,87.830909,0.007429,
1070,530,0.355314,-12.322811,0.999997,0.000185,-0.002702,0.006074,-0.001029,0.006193,-0.002821,-83.399036,0.006201,
1340,1430,-0.222654,-3.196130,0.999998,0.000167,-0.002667,0.005349,-0.001634,0.005669,-0.002987,-78.910604,0.005672,
1320,210,-0.082223,-14.207138,0.999999,0.000165,-0.001023,0.005123,-0.000056,0.005123,-0.001024,-89.478641,0.005423,
1080,1230,0.578702,-4.714307,0.999994,0.000320,-0.005280,0.007898,0.002980,0.008541,-0.005922,77.833256,0.008751,
770,630,1.653577,-10.734692,0.999996,0.000252,-0.004269,0.008046,0.000008,0.008046,-0.004269,89.960941,0.008051,
1780,1910,-0.691036,-0.870184,0.999997,0.000212,-0.002879,0.007370,0.001528,0.007593,-0.003102,81.697994,0.007635,
1790,1860,-0.942865,-1.268957,0.999997,0.000196,-0.003268,0.007602,0.000960,0.007687,-0.003352,84.989444,0.007707,
760,1850,0.716385,-1.186843,0.999996,0.000229,-0.002601,0.007117,-0.001036,0.007226,-0.002710,-83.982654,0.007301,
610,1080,3.048007,-7.212148,0.999998,0.000172,-0.003159,0.006498,-0.000076,0.006499,-0.003160,-89.549693,0.006499,
850,1470,1.217401,-3.822899,0.999997,0.000221,-0.004232,0.007915,0.000421,0.007929,-0.004246,88.015849,0.007936,
1280,380,-0.082124,-13.319233,0.999998,0.000159,-0.001645,0.005374,0.000103,0.005375,-0.001646,89.161424,0.005508,
730,170,0.659043,-14.150820,0.999997,0.000203,-0.002599,0.007149,0.001301,0.007320,-0.002769,82.526603,0.007392,
1780,1570,-1.684753,-3.454559,0.999998,0.000168,-0.003872,0.007699,-0.000121,0.007701,-0.003873,-89.398537,0.007701,
600,1080,3.079468,-7.218335,0.999998,0.000185,-0.003102,0.006400,-0.000069,0.006400,-0.003102,-89.585523,0.006401,
1120,200,0.102988,-14.249140,0.999998,0.000153,-0.001033,0.005171,0.000120,0.005174,-0.001035,88.895716,0.005475,
1010,1160,1.340862,-6.018856,0.999995,0.000267,-0.005379,0.010655,0.000351,0.010662,-0.005386,88.744949,0.010663,
1460,430,-0.481140,-12.809093,0.999998,0.000171,-0.002725,0.006398,0.000571,0.006433,-0.002761,86.431454,0.006455,
1180,270,0.063602,-13.904998,0.999998,0.000162,-0.001178,0.005238,0.000001,0.005238,-0.001178,89.992845,0.005496,
940,520,0.767080,-12.042236,0.999997,0.000212,-0.003575,0.007153,-0.000765,0.007207,-0.003629,-85.941034,0.007207,
1170,250,0.070550,-14.004188,0.999998,0.000146,-0.001083,0.005158,0.000049,0.005158,-0.001083,89.552506,0.005440,
1250,1720,-0.029308,-1.552153,0.999999,0.000139,-0.001538,0.005292,-0.000110,0.005294,-0.001540,-89.077146,0.005446,
970,740,0.952162,-10.404581,0.999996,0.000224,-0.005353,0.008909,-0.001090,0.008992,-0.005436,-85.654409,0.009057,
900,140,0.255409,-14.479751,0.999998,0.000169,-0.001181,0.005709,0.000876,0.005819,-0.001291,82.870294,0.006112,
810,1270,1.893068,-5.592657,0.999997,0.000239,-0.004515,0.008505,-0.000662,0.008539,-0.004548,-87.095632,0.008545,
650,110,0.592726,-14.472136,0.999996,0.000247,-0.002514,0.007760,0.002011,0.008140,-0.002894,79.312260,0.008252,
1670,1970,-0.226443,-0.367220,0.999998,0.000178,-0.001178,0.005848,0.001472,0.006144,-0.001474,78.635271,0.006415,
1820,910,-2.857129,-8.372189,0.999997,0.000186,-0.003356,0.006967,-0.000418,0.006984,-0.003373,-87.687557,0.006986,
1790,220,-1.038737,-13.658538,0.999997,0.000193,-0.003364,0.007609,-0.000739,0.007658,-0.003414,-86.164177,0.007673,
1420,1720,-0.314968,-1.670916,0.999998,0.000195,-0.002134,0.005884,-0.000230,0.005891,-0.002141,-88.360020,0.005963,
1550,890,-1.796617,-8.775347,0.999996,0.000242,-0.004473,0.009280,-0.001029,0.009356,-0.004550,-85.744688,0.009357,
1020,1780,0.298684,-1.340392,0.999998,0.000191,-0.001718,0.005854,-0.000085,0.005855,-0.001719,-89.360508,0.006019,
1600,680,-1.353774,-10.551909,0.999995,0.000257,-0.004756,0.008506,0.000207,0.008510,-0.004759,89.107452,0.008529,
1130,1780,0.129644,-1.259594,0.999998,0.000165,-0.001457,0.005400,0.000067,0.005401,-0.001458,89.442984,0.005588,
980,540,0.644825,-12.013918,0.999997,0.000203,-0.003582,0.006981,-0.001020,0.007079,-0.003679,-84.536037,0.007081,
710,680,2.030145,-10.202767,0.999998,0.000205,-0.004073,0.007910,0.000323,0.007919,-0.004082,88.455863,0.007920,
1800,1240,-2.578674,-6.039441,0.999997,0.000217,-0.003664,0.007404,0.000615,0.007438,-0.003698,86.828006,0.007438,
1630,1690,-0.895838,-2.203075,0.999997,0.000214,-0.003079,0.007152,0.000052,0.007152,-0.003079,89.711121,0.007175,
1350,1360,-0.251719,-3.612102,0.999996,0.000257,-0.003134,0.005517,-0.002362,0.006121,-0.003737,-75.679369,0.006170,
660,1330,2.348383,-5.361803,0.999997,0.000209,-0.003868,0.007687,-0.000432,0.007703,-0.003884,-87.859539,0.007703,
710,1460,1.820710,-4.244073,0.999997,0.000206,-0.004022,0.007834,-0.000024,0.007834,-0.004022,-89.885392,0.007835,
1170,760,0.106452,-11.513457,0.999997,0.000214,-0.002284,0.003258,-0.002319,0.004101,-0.003126,-70.035381,0.004285,
1280,1970,-0.016171,-0.298301,0.999998,0.000159,-0.000290,0.004610,0.000104,0.004612,-0.000292,88.787757,0.005165,
770,610,1.607963,-10.895878,0.999996,0.000253,-0.004230,0.008002,-0.000060,0.008002,-0.004231,-89.721288,0.008007,
1370,1950,-0.055190,-0.400208,0.999998,0.000166,-0.000368,0.004842,0.000291,0.004858,-0.000384,86.814102,0.005402,
910,1760,0.553394,-1.593102,0.999997,0.000209,-0.002270,0.006524,-0.000259,0.006531,-0.002278,-88.314665,0.006630,
840,510,1.125399,-11.857458,0.999997,0.000208,-0.003874,0.007599,-0.000406,0.007613,-0.003889,-87.974334,0.007614,
670,1080,2.856017,-7.190427,0.999998,0.000149,-0.003289,0.006981,-0.000179,0.006985,-0.003292,-89.000531,0.006988,
1720,1320,-2.042197,-5.293853,0.999997,0.000240,-0.004188,0.008034,0.000528,0.008057,-0.004211,87.529183,0.008060,
880,1830,0.481532,-1.173005,0.999997,0.000198,-0.002257,0.006357,-0.000531,0.006389,-0.002289,-86.487177,0.006474,
1330,560,-0.198599,-12.296699,0.999998,0.000162,-0.002247,0.005349,0.000944,0.005465,-0.002362,83.020771,0.005482,
1320,1840,-0.083772,-0.938274,0.999998,0.000146,-0.001054,0.005104,0.000063,0.005104,-0.001055,89.412994,0.005389,
1700,1610,-1.298808,-2.955754,0.999997,0.000202,-0.003731,0.007581,-0.000191,0.007584,-0.003735,-89.034488,0.007584,
660,530,1.871145,-11.262870,0.999998,0.000212,-0.003865,0.007697,-0.000082,0.007698,-0.003866,-89.593821,0.007698,
1280,340,-0.076145,-13.533647,0.999998,0.000166,-0.001487,0.005350,0.000061,0.005350,-0.001487,89.485498,0.005523,
850,1450,1.253243,-3.981108,0.999996,0.000236,-0.004363,0.007964,0.000401,0.007977,-0.004376,88.137445,0.007989,
940,540,0.789160,-11.899080,0.999997,0.000207,-0.003688,0.007285,-0.000809,0.007344,-0.003747,-85.804351,0.007345,
590,1590,1.992758,-3.526376,0.999997,0.000203,-0.003707,0.007618,0.000050,0.007618,-0.003707,89.745507,0.007619,
700,1010,2.779213,-7.687911,0.999997,0.000186,-0.003229,0.007218,0.000212,0.007222,-0.003233,88.839903,0.007235,
1170,230,0.062622,-14.110007,0.999998,0.000163,-0.000962,0.005108,0.000061,0.005109,-0.000962,89.426357,0.005430,
1750,460,-1.516512,-11.930865,0.999996,0.000248,-0.003808,0.007635,0.000131,0.007637,-0.003810,89.344701,0.007637,
810,1290,1.836610,-5.424946,0.999997,0.000246,-0.004566,0.008517,-0.000547,0.008540,-0.004589,-87.610449,0.008548,
1040,1710,0.326769,-1.732334,0.999997,0.000231,-0.002176,0.005879,0.000274,0.005889,-0.002185,88.054207,0.005954,
600,1060,3.092015,-7.347484,0.999998,0.000181,-0.003088,0.006483,-0.000166,0.006486,-0.003090,-89.006339,0.006488,
1120,180,0.089947,-14.351517,0.999998,0.000180,-0.000928,0.005046,0.000115,0.005048,-0.000931,88.893212,0.005373,
1160,270,0.087082,-13.900767,0.999998,0.000173,-0.001187,0.005255,0.000032,0.005255,-0.001187,89.717310,0.005512,
1230,820,0.007093,-11.577532,0.999996,0.000222,-0.003676,0.001755,-0.000041,0.001756,-0.003676,-89.572650,0.003678,
1670,1950,-0.291240,-0.488539,0.999997,0.000210,-0.001536,0.006152,0.001482,0.006427,-0.001812,79.461522,0.006628,
1420,1740,-0.295803,-1.551006,0.999997,0.000204,-0.002055,0.005838,-0.000130,0.005840,-0.002057,-89.056874,0.005925,
1630,1670,-0.935683,-2.346637,0.999997,0.000229,-0.003243,0.007224,-0.000098,0.007225,-0.003244,-89.466078,0.007237,
1600,880,-1.972353,-8.784070,0.999996,0.000243,-0.004162,0.008733,-0.001094,0.008825,-0.004254,-85.183877,0.008827,
1900,120,-0.955016,-14.088478,0.999997,0.000000,-0.003573,0.008252,-0.001275,0.008388,-0.003709,-83.914596,0.008407,
1110,1780,0.158258,-1.272062,0.999998,0.000161,-0.001413,0.005477,0.000009,0.005477,-0.001413,89.926882,0.005687,
1010,1140,1.457427,-6.238539,0.999995,0.000261,-0.004999,0.010834,0.000267,0.010839,-0.005003,89.032400,0.010850,
1810,1240,-2.614585,-6.052758,0.999997,0.000214,-0.003653,0.007333,0.000571,0.007363,-0.003682,87.034480,0.007363,
1890,1870,-1.253763,-1.502504,0.999996,0.000230,-0.003666,0.007487,0.000398,0.007501,-0.003680,87.960118,0.007501,
1760,1260,-2.373132,-5.830363,0.999997,0.000221,-0.003904,0.007696,0.000698,0.007738,-0.003945,86.570599,0.007738,
1510,1360,-0.945078,-4.396532,0.999997,0.000201,-0.004991,0.008498,-0.001047,0.008579,-0.005072,-85.589268,0.008626,
1020,1760,0.323645,-1.461961,0.999997,0.000207,-0.001835,0.005880,-0.000004,0.005880,-0.001835,-89.968935,0.006017,
1800,1220,-2.629010,-6.187710,0.999997,0.000231,-0.003606,0.007323,0.000593,0.007355,-0.003638,86.903806,0.007356,
590,320,1.649190,-12.678529,0.999997,0.000187,-0.003745,0.007487,-0.000083,0.007487,-0.003746,-89.574102,0.007487,
1680,830,-2.148864,-9.107538,0.999996,0.000224,-0.004107,0.008171,-0.000907,0.008237,-0.004174,-85.796978,0.008238,
760,30,0.052415,-15.058390,0.999998,0.000000,0.000081,0.005687,0.001942,0.006294,-0.000526,72.644567,0.006984,
1550,870,-1.716322,-8.961391,0.999996,0.000243,-0.004739,0.009357,-0.000908,0.009415,-0.004797,-86.331087,0.009416,
1650,360,-0.952675,-12.916132,0.999998,0.000135,-0.003355,0.007204,-0.000021,0.007204,-0.003355,-89.884359,0.007210,
710,1140,2.637226,-6.738902,0.999997,0.000203,-0.003469,0.007376,-0.000608,0.007410,-0.003503,-86.802899,0.007414,
1390,80,-0.044233,-14.836807,0.999999,0.000147,-0.000315,0.004782,-0.000366,0.004808,-0.000341,-85.908686,0.005366,
900,580,0.997785,-11.479547,0.999997,0.000201,-0.004136,0.007784,-0.000714,0.007826,-0.004179,-86.586005,0.007832,
730,680,1.947618,-10.243531,0.999997,0.000225,-0.004178,0.007977,0.000308,0.007985,-0.004186,88.548505,0.007988,
980,520,0.624955,-12.155437,0.999997,0.000219,-0.003382,0.006926,-0.000902,0.007004,-0.003461,-85.034328,0.007004,
650,90,0.469691,-14.626897,0.999995,0.000253,-0.002111,0.007641,0.002514,0.008251,-0.002721,76.360226,0.008409,
840,490,1.092846,-12.010030,0.999998,0.000142,-0.003740,0.007505,-0.000393,0.007519,-0.003753,-87.998779,0.007519,
1820,1430,-2.156043,-4.627995,0.999998,0.000176,-0.003858,0.007669,0.000123,0.007670,-0.003859,89.386256,0.007670,
770,590,1.564686,-11.054700,0.999996,0.000237,-0.004193,0.007921,-0.000095,0.007921,-0.004193,-89.552806,0.007926,
1840,910,-2.923136,-8.353497,0.999997,0.000215,-0.003314,0.006851,-0.000333,0.006862,-0.003325,-88.126756,0.006863,
730,150,0.577613,-14.295168,0.999996,0.000211,-0.002361,0.007007,0.001519,0.007248,-0.002601,81.015769,0.007343,
1270,1750,-0.055962,-1.397126,0.999998,0.000151,-0.001381,0.005277,-0.000055,0.005277,-0.001382,-89.531048,0.005473,
1760,1570,-1.606993,-3.406601,0.999997,0.000220,-0.003822,0.007713,-0.000135,0.007715,-0.003824,-89.327282,0.007715,
640,1330,2.424766,-5.400907,0.999997,0.000219,-0.003781,0.007599,-0.000354,0.007610,-0.003792,-88.221962,0.007610,
1680,1990,-0.164482,-0.254883,0.999998,0.000195,-0.000903,0.005707,0.001602,0.006075,-0.001271,77.069121,0.006408,
940,560,0.810759,-11.752239,0.999997,0.000215,-0.003886,0.007463,-0.000906,0.007535,-0.003958,-85.465493,0.007538,
1170,210,0.059052,-14.210211,0.999998,0.000150,-0.000859,0.005046,0.000091,0.005048,-0.000860,89.118434,0.005401,
1370,1930,-0.074349,-0.497334,0.999998,0.000142,-0.000499,0.004923,0.000293,0.004939,-0.000515,86.910605,0.005430,
1850,1680,-1.702007,-2.789926,0.999998,0.000194,-0.003703,0.007539,-0.000055,0.007540,-0.003703,-89.720240,0.007540,
1840,1720,-1.566527,-2.461977,0.999997,0.000219,-0.003660,0.007501,-0.000061,0.007502,-0.003661,-89.686710,0.007502,
1750,440,-1.475076,-12.083252,0.999997,0.000210,-0.003773,0.007595,0.000149,0.007597,-0.003775,89.248649,0.007597,
900,1970,0.134122,-0.335690,0.999998,0.000164,-0.000648,0.005285,-0.000945,0.005432,-0.000795,-81.161178,0.005868,
1160,1850,0.064755,-0.883101,0.999999,0.000155,-0.000876,0.005077,-0.000102,0.005079,-0.000878,-89.022453,0.005429,
1310,400,-0.135500,-13.196762,0.999998,0.000160,-0.001840,0.005419,0.000284,0.005430,-0.001851,87.765532,0.005521,
650,1080,2.919995,-7.196433,0.999998,0.000152,-0.003211,0.006836,-0.000146,0.006838,-0.003213,-89.170310,0.006842,
680,1600,1.632117,-3.231087,0.999996,0.000258,-0.003812,0.007627,0.000135,0.007629,-0.003813,89.325492,0.007629,
1060,330,0.273910,-13.501709,0.999998,0.000191,-0.001948,0.005792,-0.000164,0.005796,-0.001952,-88.785915,0.005898,
1670,1930,-0.366192,-0.614465,0.999997,0.000218,-0.001808,0.006288,0.001375,0.006516,-0.002035,80.617591,0.006667,
810,1730,0.888255,-1.959324,0.999997,0.000192,-0.003177,0.007149,-0.000105,0.007150,-0.003178,-89.418763,0.007165,
600,1040,3.105793,-7.476410,0.999998,0.000186,-0.003089,0.006558,-0.000148,0.006560,-0.003091,-89.119504,0.006564,
1290,1780,-0.072757,-1.243478,0.999998,0.000150,-0.001188,0.005247,0.000062,0.005247,-0.001188,89.448899,0.005503,
1240,270,-0.010667,-13.913500,0.999998,0.000157,-0.001295,0.005176,0.000039,0.005176,-0.001296,89.657833,0.005387,
1630,1650,-0.971685,-2.492224,0.999997,0.000205,-0.003406,0.007313,-0.000210,0.007318,-0.003410,-88.878505,0.007323,
850,1430,1.294454,-4.142926,0.999996,0.000240,-0.004479,0.008143,0.000365,0.008154,-0.004489,88.345205,0.008168,
1420,1760,-0.278556,-1.436871,0.999997,0.000227,-0.001923,0.005759,-0.000066,0.005759,-0.001923,-89.504944,0.005864,
1120,160,0.080147,-14.450879,0.999998,0.000156,-0.000807,0.005024,0.000158,0.005028,-0.000811,88.453574,0.005399,
1450,1160,-1.322650,-5.999217,0.999994,0.000275,-0.005355,0.010614,-0.000470,0.010628,-0.005369,-88.314193,0.010629,
1800,1200,-2.674886,-6.333344,0.999996,0.000219,-0.003580,0.007335,0.000632,0.007372,-0.003617,86.699378,0.007372,
740,1010,2.649521,-7.690487,0.999997,0.000194,-0.003200,0.007387,0.000251,0.007393,-0.003206,88.643463,0.007415,
1600,1120,-2.150328,-6.810219,0.999998,0.000202,-0.003508,0.008372,0.000990,0.008454,-0.003590,85.269470,0.008486,
1550,850,-1.632509,-9.150675,0.999995,0.000272,-0.004996,0.009414,-0.000725,0.009451,-0.005033,-87.128218,0.009457,
600,250,1.402691,-13.227894,0.999997,0.000240,-0.003628,0.007395,0.000124,0.007396,-0.003629,89.357324,0.007397,
1720,780,-2.170492,-9.460689,0.999997,0.000211,-0.004157,0.008070,-0.000714,0.008112,-0.004199,-86.670341,0.008113,
620,1390,2.343438,-4.985135,0.999996,0.000226,-0.003807,0.007519,-0.000188,0.007522,-0.003810,-89.050104,0.007522,
900,560,0.970629,-11.633257,0.999997,0.000191,-0.003992,0.007670,-0.000689,0.007711,-0.004032,-86.630329,0.007713,
1590,740,-1.458237,-10.059430,0.999996,0.000240,-0.004992,0.008810,-0.000093,0.008811,-0.004993,-89.614994,0.008837,
660,510,1.826894,-11.416528,0.999997,0.000254,-0.003852,0.007682,-0.000094,0.007683,-0.003852,-89.533387,0.007683,
570,1270,2.842214,-5.991169,0.999983,0.000572,-0.003806,0.006999,-0.000149,0.007001,-0.003808,-89.211834,0.007010,
1880,1870,-1.217326,-1.466304,0.999996,0.000244,-0.003641,0.007529,0.000406,0.007543,-0.003656,87.919119,0.007545,
980,500,0.608275,-12.292109,0.999997,0.000222,-0.003196,0.006801,-0.000810,0.006866,-0.003261,-85.396205,0.006869,
1680,1630,-1.185318,-2.756723,0.999998,0.000188,-0.003603,0.007497,-0.000174,0.007500,-0.003606,-89.101859,0.007501,
1320,1820,-0.094635,-1.042161,0.999998,0.000163,-0.001171,0.005185,0.000037,0.005185,-0.001171,89.662213,0.005438,
1900,110,-0.895194,-14.169299,0.999997,0.000000,-0.003521,0.008487,-0.001517,0.008676,-0.003710,-82.908327,0.008706,
770,570,1.520804,-11.213513,0.999996,0.000249,-0.004126,0.007872,-0.000125,0.007874,-0.004127,-89.405238,0.007877,
1400,210,-0.167065,-14.173957,0.999998,0.000199,-0.001196,0.005333,-0.000188,0.005338,-0.001201,-88.351598,0.005600,
1800,1430,-2.078749,-4.584360,0.999998,0.000198,-0.003904,0.007721,0.000150,0.007723,-0.003905,89.260473,0.007723,
1270,1730,-0.057853,-1.504466,0.999998,0.000169,-0.001463,0.005346,-0.000062,0.005346,-0.001464,-89.480237,0.005525,
730,130,0.489661,-14.432441,0.999997,0.000209,-0.002132,0.006876,0.001715,0.007191,-0.002448,79.578355,0.007312,
1370,1910,-0.085817,-0.597918,0.999998,0.000139,-0.000617,0.005041,0.000269,0.005054,-0.000630,87.283664,0.005508,
1270,1780,-0.048782,-1.239863,0.999998,0.000180,-0.001256,0.005216,-0.000014,0.005217,-0.001256,-89.873595,0.005445,
1730,1680,-1.259994,-2.494097,0.999997,0.000204,-0.003634,0.007561,-0.000005,0.007561,-0.003634,-89.976264,0.007563,
1730,440,-1.399233,-12.130522,0.999995,0.000257,-0.003767,0.007573,0.000166,0.007576,-0.003769,89.163518,0.007576,
600,1020,3.107546,-7.609526,0.999998,0.000192,-0.003115,0.006558,0.000103,0.006559,-0.003116,89.390171,0.006561,
1170,190,0.049819,-14.313335,0.999998,0.000151,-0.000729,0.005025,0.000111,0.005027,-0.000731,88.892167,0.005432,
1840,1570,-1.912403,-3.599818,0.999998,0.000188,-0.003792,0.007633,-0.000088,0.007633,-0.003793,-89.560718,0.007633,
1680,400,-1.135433,-12.552184,0.999997,0.000196,-0.003510,0.007472,0.000105,0.007473,-0.003511,89.453286,0.007477,
680,1690,1.429177,-2.546112,0.999996,0.000262,-0.003635,0.007578,-0.000004,0.007578,-0.003635,-89.981645,0.007580,
940,1000,2.061814,-7.804357,0.999997,0.000194,-0.002824,0.009136,0.000443,0.009152,-0.002840,87.881946,0.009369,
1350,1300,-0.275369,-3.947353,0.999997,0.000220,-0.003759,0.005705,-0.003047,0.006602,-0.004655,-73.609630,0.006785,
960,530,0.707488,-12.025578,0.999998,0.000187,-0.003586,0.007099,-0.000896,0.007174,-0.003661,-85.239808,0.007174,
650,70,0.329407,-14.783551,0.999996,0.000224,-0.001623,0.007489,0.002756,0.008257,-0.002392,74.415478,0.008498,
1220,270,0.014376,-13.912270,0.999998,0.000153,-0.001259,0.005188,-0.000044,0.005189,-0.001260,-89.608493,0.005413,
1420,1780,-0.258726,-1.320548,0.999997,0.000188,-0.001813,0.005719,0.000001,0.005719,-0.001813,89.992029,0.005845,
720,1010,2.715117,-7.690519,0.999998,0.000162,-0.003240,0.007314,0.000233,0.007319,-0.003245,88.736734,0.007334,
1430,1160,-1.219787,-5.840840,0.999995,0.000265,-0.005200,0.010638,-0.001437,0.010768,-0.005329,-84.856890,0.010768,
1120,140,0.063865,-14.554708,0.999998,0.000129,-0.000689,0.004908,0.000153,0.004912,-0.000693,88.432742,0.005317,
1890,1960,-0.759286,-0.786413,0.999995,0.000287,-0.003382,0.008922,0.001907,0.009211,-0.003671,81.388631,0.009274,
810,1710,0.930301,-2.102677,0.999997,0.000175,-0.003320,0.007179,-0.000036,0.007179,-0.003321,-89.802869,0.007185,
1720,760,-2.112487,-9.625428,0.999998,0.000192,-0.004191,0.008080,-0.000641,0.008113,-0.004225,-87.019995,0.008116,
850,1410,1.333505,-4.309903,0.999996,0.000238,-0.004595,0.008307,0.000306,0.008314,-0.004602,88.643753,0.008330,
880,1970,0.150914,-0.342809,0.999998,0.000154,-0.000907,0.005390,-0.001008,0.005548,-0.001064,-81.124955,0.005888,
1630,1630,-1.009715,-2.641828,0.999997,0.000216,-0.003523,0.007389,-0.000249,0.007394,-0.003529,-88.694194,0.007397,
1870,850,-2.909924,-8.727279,0.999998,0.000164,-0.003384,0.006958,-0.000293,0.006967,-0.003393,-88.376703,0.006968,
1810,80,-0.397373,-14.703231,0.999998,0.000180,-0.001703,0.007617,-0.002776,0.008381,-0.002467,-74.609804,0.008614,
1860,990,-3.079625,-7.807055,0.999998,0.000166,-0.003109,0.006466,-0.000143,0.006468,-0.003111,-89.146503,0.006469,
1380,1850,-0.142082,-0.910689,0.999998,0.000151,-0.000982,0.005283,0.000237,0.005292,-0.000991,87.836134,0.005627,
1800,1180,-2.722650,-6.479707,0.999997,0.000209,-0.003526,0.007312,0.000646,0.007351,-0.003565,86.601259,0.007352,
1600,140,-0.306671,-14.458365,0.999997,0.000194,-0.001454,0.005956,-0.000998,0.006088,-0.001586,-82.466141,0.006316,
1900,100,-0.829539,-14.257779,0.999997,0.000000,-0.003454,0.008925,-0.001809,0.009184,-0.003713,-81.852200,0.009240,
1570,740,-1.357752,-10.114286,0.999997,0.000235,-0.005125,0.008894,0.000094,0.008894,-0.005126,89.616108,0.008929,
600,1390,2.420075,-5.029992,0.999997,0.000229,-0.003784,0.007512,-0.000138,0.007514,-0.003786,-89.297705,0.007514,
1550,830,-1.555065,-9.340268,0.999993,0.000300,-0.005157,0.009444,-0.000556,0.009465,-0.005178,-87.823303,0.009479,
1780,270,-1.170643,-13.301941,0.999997,0.000202,-0.003546,0.007551,-0.000347,0.007562,-0.003557,-88.210397,0.007566,
1320,1800,-0.100262,-1.143392,0.999998,0.000148,-0.001281,0.005222,-0.000009,0.005222,-0.001281,-89.923185,0.005443,
910,1660,0.709396,-2.261157,0.999997,0.000186,-0.003016,0.006861,0.000268,0.006868,-0.003023,88.445110,0.006884,
980,480,0.595428,-12.425272,0.999997,0.000217,-0.003062,0.006719,-0.000725,0.006773,-0.003115,-85.781599,0.006780,
770,550,1.480083,-11.371033,0.999996,0.000246,-0.004044,0.007823,-0.000176,0.007826,-0.004047,-89.150016,0.007828,
1790,1240,-2.541857,-6.026456,0.999997,0.000220,-0.003707,0.007482,0.000653,0.007520,-0.003745,86.671967,0.007520,
900,540,0.943305,-11.784803,0.999997,0.000200,-0.003893,0.007586,-0.000652,0.007623,-0.003930,-86.759071,0.007624,
1210,1780,0.027816,-1.235056,0.999998,0.000170,-0.001296,0.005222,0.000053,0.005223,-0.001296,89.536967,0.005439,
730,110,0.397669,-14.570031,0.999997,0.000209,-0.001820,0.006693,0.001814,0.007063,-0.002190,78.455734,0.007231,
1470,110,-0.115549,-14.675775,0.999998,0.000172,-0.000594,0.005179,-0.000597,0.005240,-0.000655,-84.153663,0.005711,
610,1520,2.071929,-4.013588,0.999998,0.000163,-0.003777,0.007619,0.000046,0.007619,-0.003777,89.769559,0.007619,
1060,1710,0.284907,-1.705587,0.999998,0.000178,-0.001992,0.005785,0.000250,0.005793,-0.002000,88.160808,0.005884,
1700,510,-1.426231,-11.665939,0.999994,0.000266,-0.003937,0.007762,0.000208,0.007765,-0.003940,88.981147,0.007766,
1680,420,-1.174745,-12.400932,0.999997,0.000181,-0.003586,0.007507,0.000150,0.007509,-0.003588,89.227134,0.007511,
840,470,1.061161,-12.159422,0.999998,0.000176,-0.003637,0.007453,-0.000355,0.007464,-0.003648,-88.168028,0.007465,
600,1000,3.095071,-7.742485,0.999998,0.000179,-0.003114,0.006503,0.000179,0.006506,-0.003118,88.936206,0.006508,
1250,760,-0.029495,-11.658578,0.999998,0.000176,-0.001646,0.002200,0.000781,0.002353,-0.001799,78.948031,0.002460,
1320,1780,-0.109693,-1.251976,0.999998,0.000169,-0.001384,0.005331,-0.000050,0.005332,-0.001384,-89.576446,0.005533,
1070,1230,0.633096,-4.814038,0.999995,0.000269,-0.005495,0.008370,0.002692,0.008875,-0.005999,79.390551,0.009056,
810,1690,0.973257,-2.249124,0.999997,0.000174,-0.003377,0.007307,0.000044,0.007307,-0.003377,89.765406,0.007314,
1670,140,-0.413937,-14.414366,0.999998,0.000207,-0.002023,0.006387,-0.001253,0.006569,-0.002206,-81.705131,0.006686,
940,980,2.018363,-7.988347,0.999997,0.000209,-0.003037,0.009144,0.000682,0.009182,-0.003075,86.807267,0.009348,
1760,1700,-1.321529,-2.414051,0.999997,0.000214,-0.003641,0.007544,0.000011,0.007544,-0.003641,89.942055,0.007546,
1770,1240,-2.465820,-5.999157,0.999997,0.000197,-0.003837,0.007646,0.000723,0.007692,-0.003882,86.412077,0.007692,
1710,1360,-1.890739,-4.950836,0.999998,0.000209,-0.004270,0.008071,0.000362,0.008081,-0.004281,88.320478,0.008086,
850,1390,1.378247,-4.475686,0.999996,0.000253,-0.004670,0.008373,0.000196,0.008376,-0.004673,89.138355,0.008395,
1330,480,-0.191508,-12.733638,0.999998,0.000221,-0.002124,0.005523,0.000612,0.005571,-0.002173,85.452273,0.005616,
1140,270,0.112357,-13.893179,0.999998,0.000151,-0.001399,0.005299,-0.000042,0.005299,-0.001399,-89.644876,0.005493,
890,1660,0.772978,-2.304541,0.999997,0.000213,-0.003166,0.007017,0.000263,0.007024,-0.003173,88.521025,0.007034,
750,2020,0.073060,-0.093367,0.999998,0.000000,0.000078,0.005659,-0.001934,0.006264,-0.000527,-72.635939,0.006949,
1790,80,-0.376188,-14.709775,0.999996,0.000251,-0.001451,0.007268,-0.002798,0.008089,-0.002272,-73.651622,0.008344,
1840,1710,-1.592394,-2.536951,0.999997,0.000207,-0.003646,0.007505,-0.000060,0.007505,-0.003647,-89.693776,0.007506,
1220,1760,0.015973,-1.336903,0.999998,0.000177,-0.001389,0.005237,0.000053,0.005238,-0.001389,89.542129,0.005427,
1720,740,-2.055581,-9.786872,0.999998,0.000173,-0.004205,0.008053,-0.000564,0.008079,-0.004231,-87.370922,0.008082,
1330,1300,-0.206053,-3.809616,0.999996,0.000239,-0.003203,0.004815,-0.002960,0.005789,-0.004177,-71.780834,0.005976,
1430,290,-0.294117,-13.701210,0.999998,0.000183,-0.001843,0.005809,0.000037,0.005809,-0.001843,89.723812,0.005937,
1360,810,-0.412118,-10.752503,0.999991,0.000346,-0.004604,0.006526,0.003382,0.007473,-0.005551,74.356555,0.007761,
640,1980,0.384107,-0.391732,0.999996,0.000257,-0.002482,0.007773,-0.002387,0.008301,-0.003010,-77.519139,0.008405,
1110,1460,0.257536,-3.070906,0.999997,0.000190,-0.002719,0.005596,0.001431,0.005835,-0.002958,80.502821,0.005836,
1900,90,-0.757493,-14.348567,0.999997,0.000000,-0.003409,0.009390,-0.002079,0.009720,-0.003738,-81.002109,0.009805,
1630,1610,-1.043550,-2.790025,0.999997,0.000204,-0.003580,0.007425,-0.000282,0.007432,-0.003587,-88.531025,0.007433,
770,530,1.439292,-11.526689,0.999996,0.000227,-0.003975,0.007785,-0.000194,0.007788,-0.003978,-89.056618,0.007789,
1630,440,-1.034282,-12.367018,0.999997,0.000182,-0.003561,0.007412,0.000284,0.007420,-0.003568,88.518363,0.007421,
880,1010,2.230427,-7.703199,0.999997,0.000238,-0.002825,0.008111,0.000283,0.008118,-0.002832,88.516767,0.008241,
840,450,1.026397,-12.307644,0.999998,0.000194,-0.003575,0.007423,-0.000315,0.007432,-0.003584,-88.362037,0.007434,
1550,810,-1.477068,-9.531259,0.999994,0.000284,-0.005272,0.009402,-0.000337,0.009410,-0.005280,-88.685057,0.009433,
590,1520,2.147133,-4.060623,0.999998,0.000152,-0.003748,0.007575,-0.000007,0.007575,-0.003748,-89.962926,0.007575,
1860,530,-2.087009,-11.128150,0.999997,0.000192,-0.003760,0.007616,0.000038,0.007616,-0.003760,89.807899,0.007616,
1680,440,-1.213525,-12.250514,0.999997,0.000194,-0.003661,0.007541,0.000196,0.007544,-0.003664,88.996370,0.007545,
1820,1570,-1.837085,-3.551300,0.999998,0.000170,-0.003792,0.007665,-0.000110,0.007667,-0.003793,-89.450067,0.007667,
980,900,1.526855,-8.877983,0.999995,0.000261,-0.005026,0.010327,0.000417,0.010338,-0.005038,88.444859,0.010339,
1370,1890,-0.103646,-0.702054,0.999998,0.000150,-0.000731,0.005088,0.000249,0.005099,-0.000741,87.557022,0.005510,
1800,1600,-1.696172,-3.273549,0.999998,0.000180,-0.003790,0.007580,-0.000110,0.007581,-0.003791,-89.445929,0.007581,
1470,90,-0.091015,-14.777506,0.999998,0.000165,-0.000469,0.005030,-0.000595,0.005094,-0.000533,-83.895827,0.005600,
1570,1680,-0.730572,-2.157781,0.999997,0.000199,-0.003099,0.006904,-0.000167,0.006907,-0.003101,-89.043685,0.006919,
1020,1740,0.341025,-1.576227,0.999997,0.000220,-0.001971,0.005979,0.000053,0.005979,-0.001972,89.614770,0.006094,
600,980,3.083570,-7.870810,0.999997,0.000189,-0.003109,0.006384,0.000092,0.006385,-0.003110,89.442340,0.006386,
1120,120,0.056380,-14.648090,0.999998,0.000147,-0.000568,0.004856,0.000194,0.004863,-0.000575,87.958154,0.005314,
1170,170,0.047794,-14.411941,0.999998,0.000173,-0.000629,0.004994,0.000132,0.004997,-0.000632,88.653015,0.005442,
1270,1710,-0.060556,-1.610859,0.999998,0.000169,-0.001538,0.005340,-0.000094,0.005341,-0.001539,-89.214493,0.005498,
1370,80,-0.039645,-14.838439,0.999998,0.000141,-0.000275,0.004739,-0.000305,0.004758,-0.000294,-86.532493,0.005332,
1660,1430,-1.500458,-4.265611,0.999996,0.000240,-0.004362,0.008109,-0.000105,0.008109,-0.004363,-89.518336,0.008117,
830,40,0.061258,-15.011780,0.999998,0.000157,-0.000093,0.005241,0.001367,0.005572,-0.000423,76.428528,0.006203,
950,1200,1.463771,-5.905318,0.999995,0.000268,-0.005318,0.009854,-0.000422,0.009866,-0.005330,-88.406664,0.009876,
970,1140,1.652933,-6.434173,0.999995,0.000283,-0.004633,0.010148,-0.000698,0.010181,-0.004665,-87.303692,0.010193,
1490,1360,-0.845554,-4.310066,0.999997,0.000214,-0.004925,0.008340,-0.001304,0.008467,-0.005052,-84.437875,0.008520,
1850,1240,-2.757957,-6.113353,0.999997,0.000185,-0.003521,0.007031,0.000376,0.007045,-0.003535,87.962232,0.007045,
940,960,1.965632,-8.169944,0.999996,0.000222,-0.003402,0.009226,0.000884,0.009288,-0.003463,86.014837,0.009387,
1760,1680,-1.370826,-2.565187,0.999997,0.000223,-0.003668,0.007579,-0.000049,0.007579,-0.003668,-89.749656,0.007580,
1520,100,-0.134656,-14.714085,0.999998,0.000182,-0.000707,0.005280,-0.000760,0.005375,-0.000802,-82.873099,0.005799,
730,90,0.311991,-14.697977,0.999997,0.000210,-0.001561,0.006195,0.001767,0.006579,-0.001945,77.753363,0.006759,
630,1840,1.166281,-1.530876,0.999996,0.000230,-0.003619,0.007725,-0.000373,0.007737,-0.003631,-88.119952,0.007742,
1120,270,0.141412,-13.880523,0.999998,0.000160,-0.001437,0.005345,-0.000035,0.005345,-0.001437,-89.704431,0.005532,
1260,1970,-0.009692,-0.297771,0.999998,0.000184,-0.000293,0.004599,0.000043,0.004599,-0.000294,89.498033,0.005150,
1360,790,-0.364253,-10.882958,0.999996,0.000235,-0.004468,0.006431,0.003327,0.007366,-0.005403,74.298287,0.007629,
1700,1590,-1.338669,-3.106987,0.999997,0.000200,-0.003758,0.007594,-0.000211,0.007598,-0.003762,-88.936253,0.007598,
1090,580,0.309608,-12.078463,0.999996,0.000243,-0.002790,0.005843,-0.001347,0.006048,-0.002995,-81.333488,0.006048,
640,1960,0.526036,-0.552062,0.999995,0.000256,-0.002796,0.007775,-0.002042,0.008156,-0.003176,-79.437764,0.008222,
790,1840,0.665774,-1.214347,0.999997,0.000201,-0.002771,0.006881,-0.000784,0.006944,-0.002835,-85.388200,0.006983,
1870,980,-3.104830,-7.866099,0.999998,0.000185,-0.003086,0.006314,-0.000077,0.006314,-0.003086,-89.531306,0.006315,
1840,130,-0.797608,-14.226877,0.999997,0.000179,-0.003633,0.007950,-0.000993,0.008034,-0.003718,-85.133724,0.008042,
770,510,1.398810,-11.684231,0.999997,0.000207,-0.003922,0.007738,-0.000219,0.007742,-0.003926,-88.924471,0.007742,
1860,510,-2.043644,-11.280989,0.999996,0.000217,-0.003760,0.007627,0.000056,0.007627,-0.003761,89.719464,0.007627,
1820,1710,-1.519044,-2.486009,0.999996,0.000247,-0.003729,0.007551,-0.000010,0.007551,-0.003729,-89.948105,0.007551,
1330,1280,-0.222108,-3.908013,0.999997,0.000212,-0.003448,0.004810,-0.003167,0.005885,-0.004523,-71.253637,0.006161,
1550,790,-1.407517,-9.718848,0.999995,0.000271,-0.005322,0.009326,-0.000128,0.009327,-0.005323,-89.499729,0.009358,
980,920,1.633530,-8.669778,0.999996,0.000245,-0.004609,0.010346,0.000498,0.010363,-0.004625,88.096360,0.010383,
830,1500,1.245327,-3.637308,0.999998,0.000178,-0.004060,0.007855,0.000361,0.007866,-0.004071,88.265976,0.007868,
1050,140,0.111968,-14.536156,0.999998,0.000160,-0.000861,0.005123,0.000336,0.005142,-0.000880,86.798194,0.005500,
1240,210,-0.008974,-14.219295,0.999998,0.000183,-0.000987,0.005009,0.000017,0.005009,-0.000987,89.837275,0.005307,
1270,1600,-0.070508,-2.197947,0.999998,0.000164,-0.001848,0.005247,-0.000199,0.005253,-0.001854,-88.394950,0.005328,
1800,1620,-1.650161,-3.123078,0.999997,0.000188,-0.003781,0.007571,-0.000114,0.007572,-0.003782,-89.426542,0.007572,
1680,460,-1.253495,-12.098378,0.999997,0.000191,-0.003716,0.007574,0.000240,0.007579,-0.003721,88.782162,0.007580,
660,1690,1.503177,-2.595469,0.999996,0.000227,-0.003736,0.007586,0.000025,0.007586,-0.003736,89.871458,0.007586,
680,1580,1.673808,-3.385177,0.999996,0.000250,-0.003851,0.007658,0.000138,0.007659,-0.003853,89.314808,0.007659,
1630,1590,-1.076895,-2.940414,0.999998,0.000165,-0.003637,0.007444,-0.000324,0.007453,-0.003647,-88.324304,0.007454,
1880,1240,-2.861862,-6.167240,0.999996,0.000213,-0.003421,0.006899,0.000181,0.006903,-0.003424,88.993486,0.006903,
1900,80,-0.682761,-14.447129,0.999996,0.000000,-0.003295,0.009549,-0.002374,0.009974,-0.003720,-79.858565,0.010081,
1470,70,-0.061058,-14.876520,0.999999,0.000132,-0.000307,0.004917,-0.000612,0.004988,-0.000377,-83.404887,0.005555,
600,960,3.070282,-7.996551,0.999997,0.000190,-0.003138,0.006404,0.000081,0.006405,-0.003139,89.512882,0.006405,
1090,1460,0.312808,-3.129580,0.999998,0.000167,-0.002853,0.005901,0.001426,0.006127,-0.003080,80.979565,0.006127,
910,620,1.017183,-11.192784,0.999997,0.000182,-0.004406,0.007979,-0.000750,0.008025,-0.004451,-86.546086,0.008041,
820,40,0.060318,-15.011868,0.999998,0.000212,-0.000241,0.005271,0.001407,0.005609,-0.000579,76.475672,0.006170,
1760,1660,-1.414889,-2.717756,0.999997,0.000225,-0.003705,0.007619,-0.000094,0.007619,-0.003706,-89.524952,0.007620,
1020,1720,0.363798,-1.702157,0.999997,0.000207,-0.002095,0.006011,0.000145,0.006014,-0.002098,88.975945,0.006105,
1470,1360,-0.747459,-4.221684,0.999997,0.000213,-0.004833,0.008159,-0.001547,0.008340,-0.005015,-83.302015,0.008397,
940,940,1.888850,-8.358480,0.999997,0.000216,-0.003817,0.009397,0.000992,0.009471,-0.003891,85.728589,0.009521,
610,1840,1.239483,-1.597429,0.999998,0.000175,-0.003648,0.007605,-0.000265,0.007611,-0.003654,-88.652317,0.007613,
1120,100,0.040499,-14.748070,0.999998,0.000157,-0.000450,0.004786,0.000200,0.004794,-0.000458,87.811227,0.005291,
1460,1170,-1.321693,-5.955130,0.999995,0.000286,-0.005551,0.010523,-0.000276,0.010527,-0.005556,-89.016592,0.010533,
1020,1630,0.435265,-2.250024,0.999997,0.000200,-0.002465,0.006224,0.000481,0.006251,-0.002492,86.842553,0.006293,
1250,80,-0.005820,-14.845666,0.999998,0.000159,-0.000319,0.004582,-0.000023,0.004582,-0.000319,-89.734439,0.005116,
1880,1950,-0.793337,-0.837546,0.999997,0.000217,-0.003443,0.008335,0.001582,0.008544,-0.003652,82.481482,0.008574,
640,1940,0.649506,-0.708319,0.999996,0.000221,-0.003033,0.007877,-0.001608,0.008109,-0.003266,-81.786141,0.008160,
1340,810,-0.323852,-10.947033,0.999997,0.000232,-0.003976,0.005308,0.003315,0.006371,-0.005038,72.233514,0.006720,
1030,1840,0.217478,-0.993725,0.999998,0.000183,-0.001335,0.005465,-0.000226,0.005473,-0.001342,-88.094847,0.005705,
1860,850,-2.875348,-8.745199,0.999997,0.000188,-0.003419,0.007013,-0.000365,0.007026,-0.003432,-87.999795,0.007026,
570,390,1.898982,-12.108705,0.999994,0.000286,-0.003941,0.007314,-0.000092,0.007315,-0.003941,-89.531620,0.007322,
1830,680,-2.333039,-10.046770,0.999997,0.000221,-0.003821,0.007578,-0.000262,0.007584,-0.003827,-88.685397,0.007584,
770,490,1.359849,-11.837673,0.999997,0.000209,-0.003860,0.007674,-0.000220,0.007678,-0.003864,-88.908024,0.007678,
1870,1240,-2.828391,-6.148185,0.999997,0.000188,-0.003447,0.006939,0.000235,0.006945,-0.003453,88.701949,0.006945,
730,70,0.227561,-14.818538,0.999996,0.000219,-0.001107,0.006092,0.001974,0.006598,-0.001613,75.632324,0.006879,
1840,1700,-1.618462,-2.611146,0.999997,0.000227,-0.003648,0.007512,-0.000061,0.007513,-0.003648,-89.687010,0.007514,
950,1140,1.741830,-6.496069,0.999996,0.000256,-0.004344,0.009791,-0.000931,0.009852,-0.004405,-86.248064,0.009870,
1380,1970,-0.046686,-0.305514,0.999998,0.000172,-0.000269,0.004786,0.000311,0.004805,-0.000288,86.491058,0.005390,
1900,70,-0.609495,-14.546039,0.999995,0.000000,-0.002794,0.010033,-0.003149,0.010764,-0.003526,-76.925438,0.010976,
680,1560,1.717034,-3.538088,0.999996,0.000229,-0.003885,0.007679,0.000121,0.007681,-0.003886,89.402773,0.007681,
1140,1290,0.190743,-3.810077,0.999996,0.000264,-0.003116,0.004483,0.002980,0.005512,-0.004145,70.944563,0.005741,
1550,770,-1.341203,-9.906792,0.999995,0.000261,-0.005307,0.009181,0.000051,0.009181,-0.005307,89.799317,0.009219,
800,1870,0.546201,-0.995833,0.999996,0.000233,-0.002407,0.006650,-0.000978,0.006755,-0.002512,-83.905392,0.006828,
830,1480,1.281573,-3.796238,0.999996,0.000234,-0.004169,0.007923,0.000347,0.007933,-0.004179,88.358469,0.007936,
980,940,1.732012,-8.462931,0.999996,0.000235,-0.004144,0.010461,0.000610,0.010487,-0.004169,87.612478,0.010560,
780,490,1.320593,-11.863127,0.999997,0.000202,-0.003847,0.007660,-0.000244,0.007665,-0.003852,-88.786234,0.007665,
1630,1570,-1.110682,-3.091115,0.999998,0.000153,-0.003723,0.007535,-0.000349,0.007546,-0.003734,-88.228429,0.007546,
1220,210,0.012353,-14.218280,0.999998,0.000192,-0.000985,0.005007,-0.000047,0.005007,-0.000985,-89.550745,0.005305,
1750,40,-0.108671,-14.993609,0.999998,0.000191,-0.000831,0.005978,-0.002173,0.006612,-0.001465,-73.724547,0.006946,
1680,900,-2.344695,-8.542290,0.999997,0.000233,-0.003677,0.007968,-0.000952,0.008045,-0.003755,-85.357408,0.008051,
900,520,0.912057,-11.937893,0.999998,0.000199,-0.003785,0.007429,-0.000638,0.007465,-0.003821,-86.756743,0.007466,
1150,1600,0.152453,-2.227142,0.999998,0.000178,-0.002088,0.005442,0.000492,0.005474,-0.002120,86.275944,0.005520,
1800,1640,-1.607472,-2.969640,0.999996,0.000222,-0.003749,0.007620,-0.000124,0.007622,-0.003750,-89.377679,0.007622,
660,1670,1.551386,-2.747285,0.999997,0.000223,-0.003722,0.007556,0.000044,0.007556,-0.003723,89.775150,0.007556,
1020,1700,0.379023,-1.818296,0.999997,0.000199,-0.002194,0.006013,0.000227,0.006019,-0.002200,88.415434,0.006091,
750,30,0.049137,-15.057111,0.999999,0.000000,0.000084,0.005757,0.002037,0.006413,-0.000572,72.154709,0.007098,
1760,1640,-1.457811,-2.871926,0.999997,0.000211,-0.003717,0.007577,-0.000116,0.007579,-0.003718,-89.413869,0.007579,
690,300,1.229502,-13.089716,0.999997,0.000218,-0.003588,0.007541,0.000171,0.007543,-0.003591,89.120257,0.007546,
1470,1340,-0.780097,-4.388522,0.999996,0.000277,-0.005063,0.008381,-0.001545,0.008556,-0.005238,-83.529066,0.008627,
910,360,0.655116,-13.096066,0.999996,0.000236,-0.002707,0.006728,-0.000039,0.006728,-0.002707,-89.765146,0.006771,
1120,80,0.033161,-14.840734,0.999998,0.000152,-0.000309,0.004677,0.000224,0.004687,-0.000319,87.430317,0.005238,
760,1590,1.349244,-3.113315,0.999996,0.000215,-0.003783,0.007608,0.000210,0.007612,-0.003787,88.946190,0.007612,
830,1200,2.029840,-6.162484,0.999996,0.000237,-0.004229,0.008470,-0.000982,0.008546,-0.004305,-85.604263,0.008546,
940,920,1.806708,-8.548240,0.999997,0.000232,-0.004173,0.009575,0.001016,0.009650,-0.004248,85.798083,0.009673,
1220,1740,0.016453,-1.443792,0.999998,0.000167,-0.001462,0.005285,0.000056,0.005285,-0.001462,89.528515,0.005458,
1890,1760,-1.640877,-2.305018,0.999997,0.000243,-0.003662,0.007287,-0.000035,0.007287,-0.003662,-89.816810,0.007287,
1460,1980,-0.065644,-0.267451,0.999998,0.000176,-0.000287,0.004953,0.000590,0.005019,-0.000353,83.657269,0.005603,
820,1270,1.849107,-5.575975,0.999997,0.000235,-0.004573,0.008596,-0.000648,0.008628,-0.004605,-87.187921,0.008634,
1720,720,-1.998970,-9.947634,0.999998,0.000200,-0.004199,0.008028,-0.000465,0.008045,-0.004217,-87.826641,0.008048,
600,940,3.050338,-8.128603,0.999998,0.000174,-0.003220,0.006646,0.000262,0.006653,-0.003227,88.477714,0.006654,
640,1920,0.762538,-0.869743,0.999997,0.000241,-0.003226,0.007837,-0.001357,0.008001,-0.003390,-83.108777,0.008032,
1840,1810,-1.301257,-1.782846,0.999998,0.000198,-0.003629,0.007572,0.000176,0.007575,-0.003632,89.101656,0.007577,
1580,850,-1.779095,-9.083221,0.999997,0.000202,-0.004673,0.009103,-0.000894,0.009161,-0.004731,-86.302343,0.009163,
1390,1300,-0.443421,-4.233370,0.999996,0.000252,-0.004688,0.007271,-0.002794,0.007891,-0.005308,-77.475438,0.008047,
1430,80,-0.062219,-14.830609,0.999999,0.000138,-0.000409,0.004862,-0.000440,0.004898,-0.000445,-85.257354,0.005417,
1140,1270,0.214511,-3.900813,0.999997,0.000210,-0.003346,0.004458,0.003174,0.005585,-0.004473,70.437066,0.005913,
650,1460,2.055303,-4.382304,0.999998,0.000165,-0.003885,0.007696,-0.000060,0.007697,-0.003885,-89.703835,0.007697,
580,930,3.097427,-8.175493,0.999998,0.000176,-0.003067,0.006534,0.000218,0.006539,-0.003072,88.700862,0.006543,
680,1540,1.760202,-3.692326,0.999997,0.000209,-0.003870,0.007704,0.000087,0.007704,-0.003871,89.568978,0.007704,
850,1140,2.136503,-6.651800,0.999997,0.000202,-0.003695,0.008389,-0.001050,0.008480,-0.003785,-85.072771,0.008496,
1450,480,-0.493313,-12.502317,0.999996,0.000209,-0.003013,0.006528,0.000861,0.006605,-0.003090,84.882867,0.006610,
720,1980,0.265775,-0.339594,0.999997,0.000209,-0.001573,0.006295,-0.001969,0.006760,-0.002038,-76.705840,0.006935,
770,470,1.320532,-11.991983,0.999997,0.000207,-0.003802,0.007606,-0.000213,0.007610,-0.003806,-88.932582,0.007610,
1630,1550,-1.144806,-3.243455,0.999997,0.000183,-0.003854,0.007605,-0.000369,0.007617,-0.003866,-88.155719,0.007617,
1360,1970,-0.042013,-0.304889,0.999998,0.000165,-0.000310,0.004754,0.000264,0.004768,-0.000323,87.020957,0.005329,
780,1870,0.596877,-1.019389,0.999996,0.000224,-0.002529,0.006793,-0.001059,0.006912,-0.002648,-83.598883,0.006974,
1100,210,0.129558,-14.187626,0.999999,0.000139,-0.001032,0.005260,0.000155,0.005264,-0.001036,88.586999,0.005577,
1550,750,-1.281714,-10.089028,0.999996,0.000263,-0.005287,0.009040,0.000224,0.009044,-0.005290,89.103952,0.009087,
980,960,1.821325,-8.254067,0.999996,0.000214,-0.003734,0.010357,0.000586,0.010381,-0.003758,87.624317,0.010512,
700,550,1.759424,-11.202200,0.999997,0.000202,-0.003938,0.007749,-0.000066,0.007750,-0.003938,-89.674628,0.007750,
740,1710,1.165004,-2.249995,0.999998,0.000172,-0.003494,0.007466,-0.000090,0.007467,-0.003495,-89.527013,0.007472,
1380,130,-0.080816,-14.593631,0.999998,0.000165,-0.000515,0.004929,-0.000321,0.004948,-0.000534,-86.637179,0.005431,
1680,880,-2.292936,-8.700315,0.999997,0.000214,-0.003793,0.007971,-0.000915,0.008041,-0.003864,-85.579689,0.008043,
570,1510,2.243705,-4.176528,0.999955,0.000765,-0.003549,0.007523,-0.000155,0.007526,-0.003551,-89.195948,0.007530,
910,340,0.624627,-13.230059,0.999997,0.000207,-0.002588,0.006733,0.000024,0.006734,-0.002588,89.849486,0.006793,
1020,1680,0.398313,-1.942107,0.999997,0.000195,-0.002251,0.006159,0.000262,0.006167,-0.002259,88.216567,0.006241,
1760,1620,-1.502225,-3.022136,0.999997,0.000218,-0.003735,0.007600,-0.000123,0.007601,-0.003736,-89.376246,0.007602,
1840,1680,-1.665273,-2.764469,0.999997,0.000214,-0.003719,0.007569,-0.000056,0.007569,-0.003719,-89.717673,0.007569,
900,500,0.884603,-12.086520,0.999998,0.000189,-0.003642,0.007333,-0.000598,0.007365,-0.003675,-86.892923,0.007365,
800,1270,1.940624,-5.610915,0.999997,0.000245,-0.004450,0.008439,-0.000697,0.008477,-0.004488,-86.912943,0.008482,
1680,70,-0.183561,-14.836456,0.999997,0.000183,-0.000970,0.005782,-0.001621,0.006151,-0.001339,-77.178308,0.006470,
1120,60,0.018588,-14.934463,0.999998,0.000153,-0.000205,0.004590,0.000233,0.004601,-0.000216,87.227219,0.005192,
620,1650,1.747102,-2.998683,0.999997,0.000204,-0.003761,0.007523,0.000111,0.007524,-0.003762,89.434207,0.007524,
1190,1600,0.076576,-2.198712,0.999999,0.000146,-0.001830,0.005285,0.000203,0.005290,-0.001836,88.366322,0.005372,
1800,1660,-1.564852,-2.815801,0.999996,0.000225,-0.003716,0.007598,-0.000078,0.007598,-0.003716,-89.605681,0.007599,
1900,60,-0.528976,-14.639194,0.999983,0.000000,-0.002115,0.010607,-0.004266,0.011905,-0.003413,-73.076075,0.012260,
770,450,1.281552,-12.143448,0.999997,0.000199,-0.003761,0.007568,-0.000228,0.007573,-0.003765,-88.849757,0.007573,
740,2020,0.070640,-0.092708,0.999998,0.000000,-0.000018,0.005739,-0.002072,0.006407,-0.000686,-72.128374,0.007036,
1220,1720,0.018650,-1.548957,0.999998,0.000156,-0.001520,0.005289,0.000082,0.005290,-0.001521,89.309218,0.005446,
1840,1790,-1.367279,-1.936068,0.999997,0.000218,-0.003640,0.007536,0.000151,0.007538,-0.003642,89.225153,0.007539,
1460,1960,-0.092625,-0.367827,0.999998,0.000197,-0.000414,0.005020,0.000554,0.005076,-0.000470,84.235592,0.005610,
970,580,0.716817,-11.694983,0.999997,0.000212,-0.003851,0.007348,-0.001116,0.007458,-0.003961,-84.365079,0.007463,
1650,1360,-1.623859,-4.821653,0.999997,0.000245,-0.004588,0.008383,0.000172,0.008385,-0.004590,89.240349,0.008398,
600,920,3.014611,-8.266017,0.999998,0.000186,-0.003267,0.006718,0.000315,0.006728,-0.003277,88.196280,0.006729,
1630,1530,-1.180084,-3.394224,0.999997,0.000202,-0.003940,0.007701,-0.000388,0.007713,-0.003953,-88.092415,0.007714,
940,900,1.718410,-8.742147,0.999996,0.000226,-0.004573,0.009621,0.000934,0.009682,-0.004634,86.251597,0.009685,
1820,1170,-2.814732,-6.574513,0.999997,0.000217,-0.003445,0.007094,0.000479,0.007116,-0.003467,87.400632,0.007117,
1530,1900,-0.250187,-0.713404,0.999997,0.000191,-0.001183,0.005705,0.000727,0.005781,-0.001259,84.036897,0.006081,
640,1900,0.867994,-1.026713,0.999997,0.000238,-0.003308,0.007788,-0.001078,0.007891,-0.003411,-84.502248,0.007915,
570,1330,2.686698,-5.553367,0.999882,0.001372,-0.004611,0.007534,0.000216,0.007538,-0.004615,88.979123,0.007601,
1510,460,-0.656629,-12.500729,0.999997,0.000208,-0.003130,0.006863,0.000587,0.006897,-0.003165,86.652194,0.006905,
1550,730,-1.224676,-10.269109,0.999997,0.000257,-0.005216,0.008915,0.000391,0.008925,-0.005227,88.414837,0.008969,
980,1400,0.756027,-3.956928,0.999996,0.000223,-0.004527,0.007799,0.001370,0.007949,-0.004677,83.734516,0.007990,
1560,850,-1.680963,-9.128042,0.999996,0.000235,-0.004872,0.009318,-0.000809,0.009364,-0.004918,-86.749360,0.009368,
1550,1680,-0.670835,-2.119472,0.999997,0.000200,-0.002786,0.006728,-0.000114,0.006729,-0.002788,-89.315048,0.006762,
960,210,0.309930,-14.106541,0.999998,0.000196,-0.001723,0.005783,0.000399,0.005804,-0.001744,86.964513,0.005956,
580,920,3.080992,-8.241307,0.999998,0.000159,-0.003087,0.006585,0.000219,0.006590,-0.003092,88.705357,0.006594,
1530,1240,-1.389628,-5.572018,0.999997,0.000222,-0.005452,0.009638,0.000165,0.009640,-0.005454,89.375156,0.009667,
770,1860,0.656602,-1.102397,0.999996,0.000209,-0.002565,0.006981,-0.001062,0.007098,-0.002682,-83.726788,0.007168,
1720,700,-1.944930,-10.108852,0.999997,0.000232,-0.004224,0.008046,-0.000364,0.008057,-0.004235,-88.301386,0.008060,
1410,80,-0.053019,-14.835190,0.999998,0.000163,-0.000421,0.004819,-0.000391,0.004848,-0.000450,-85.753006,0.005357,
1680,860,-2.239698,-8.861123,0.999997,0.000240,-0.003933,0.008098,-0.000937,0.008170,-0.004005,-85.573725,0.008171,
770,260,0.856574,-13.552121,0.999998,0.000156,-0.003017,0.007198,0.000547,0.007227,-0.003046,86.941669,0.007257,
1440,1470,-0.522752,-3.284217,0.999997,0.000210,-0.003491,0.006772,-0.001335,0.006942,-0.003661,-82.709072,0.006946,
1760,1600,-1.543104,-3.176120,0.999996,0.000227,-0.003769,0.007624,-0.000142,0.007626,-0.003771,-89.285980,0.007626,
1020,1660,0.413786,-2.066732,0.999996,0.000214,-0.002303,0.006121,0.000353,0.006136,-0.002318,87.604731,0.006197,
680,550,1.837685,-11.155448,0.999998,0.000147,-0.003902,0.007704,-0.000052,0.007704,-0.003902,-89.743907,0.007705,
1110,1990,0.023918,-0.208131,0.999998,0.000150,-0.000233,0.004664,-0.000263,0.004679,-0.000248,-86.937815,0.005265,
1810,170,-0.896857,-14.003249,0.999998,0.000209,-0.003178,0.007778,-0.001217,0.007912,-0.003311,-83.736532,0.007947,
1840,1660,-1.713369,-2.917835,0.999997,0.000213,-0.003740,0.007534,-0.000104,0.007535,-0.003741,-89.473922,0.007535,
1700,450,-1.307800,-12.126696,0.999998,0.000180,-0.003726,0.007579,0.000181,0.007582,-0.003729,89.084781,0.007582,
1240,1970,-0.003365,-0.296538,0.999998,0.000172,-0.000319,0.004583,0.000004,0.004583,-0.000319,89.958322,0.005118,
1170,1600,0.113314,-2.207772,0.999998,0.000160,-0.001886,0.005357,0.000287,0.005369,-0.001898,87.730833,0.005445,
590,1650,1.859003,-3.072657,0.999997,0.000190,-0.003695,0.007438,0.000059,0.007438,-0.003695,89.694283,0.007439,
770,430,1.243022,-12.297113,0.999997,0.000194,-0.003690,0.007530,-0.000194,0.007533,-0.003693,-89.011328,0.007534,
900,480,0.858825,-12.234299,0.999997,0.000203,-0.003497,0.007261,-0.000525,0.007287,-0.003522,-87.212989,0.007288,
1820,1810,-1.229271,-1.723436,0.999997,0.000222,-0.003536,0.007659,0.000365,0.007671,-0.003548,88.134030,0.007678,
600,900,2.983275,-8.397533,0.999998,0.000180,-0.003257,0.006662,0.000234,0.006668,-0.003263,88.649913,0.006668,
610,1860,1.160952,-1.446004,0.999997,0.000216,-0.003644,0.007593,-0.000361,0.007604,-0.003656,-88.161198,0.007606,
1510,440,-0.637833,-12.637644,0.999996,0.000230,-0.002961,0.006760,0.000487,0.006785,-0.002985,87.137667,0.006801,
970,560,0.700621,-11.840144,0.999997,0.000217,-0.003724,0.007212,-0.001055,0.007313,-0.003825,-84.542013,0.007316,
1220,1700,0.018291,-1.654913,0.999998,0.000161,-0.001599,0.005298,0.000091,0.005299,-0.001601,89.247467,0.005436,
1170,150,0.037757,-14.512758,0.999998,0.000148,-0.000529,0.004881,0.000138,0.004884,-0.000532,88.538332,0.005359,
740,30,0.049540,-15.056295,0.999999,0.000000,-0.000034,0.005822,0.002093,0.006494,-0.000705,72.218728,0.007126,
1630,1510,-1.216724,-3.550398,0.999997,0.000191,-0.004017,0.007825,-0.000374,0.007837,-0.004029,-88.193947,0.007838,
980,1380,0.782136,-4.117106,0.999996,0.000242,-0.004685,0.008039,0.001390,0.008189,-0.004835,83.839200,0.008234,
640,1880,0.962887,-1.185486,0.999997,0.000206,-0.003397,0.007785,-0.000886,0.007855,-0.003467,-85.498406,0.007873,
1460,1940,-0.117671,-0.468963,0.999998,0.000200,-0.000578,0.005186,0.000555,0.005239,-0.000631,84.550479,0.005719,
1550,710,-1.176347,-10.447076,0.999997,0.000239,-0.005080,0.008780,0.000520,0.008800,-0.005100,87.854461,0.008837,
1510,1240,-1.278986,-5.497762,0.999997,0.000225,-0.005620,0.009738,-0.000097,0.009739,-0.005621,-89.637831,0.009777,
1500,1170,-1.535366,-6.153367,0.999995,0.000274,-0.005094,0.010082,0.000585,0.010104,-0.005117,87.796172,0.010105,
940,880,1.625781,-8.936640,0.999996,0.000243,-0.004900,0.009673,0.000804,0.009717,-0.004944,86.850867,0.009717,
1510,980,-1.979004,-8.007432,0.999997,0.000252,-0.003135,0.009460,-0.000655,0.009494,-0.003169,-87.029039,0.009668,
1520,60,-0.065043,-14.920955,0.999998,0.000146,-0.000383,0.005011,-0.000765,0.005117,-0.000490,-82.081777,0.005647,
840,1330,1.577521,-5.014675,0.999998,0.000213,-0.004798,0.008586,-0.000204,0.008589,-0.004801,-89.127518,0.008609,
1830,1360,-2.372339,-5.186144,0.999997,0.000214,-0.003816,0.007561,0.000287,0.007569,-0.003823,88.553689,0.007569,
1370,1870,-0.115588,-0.802266,0.999998,0.000160,-0.000826,0.005128,0.000207,0.005135,-0.000834,88.008836,0.005512,
1680,840,-2.179386,-9.025953,0.999996,0.000242,-0.004061,0.008162,-0.000945,0.008234,-0.004133,-85.603183,0.008234,
1340,210,-0.105106,-14.198515,0.999998,0.000161,-0.001084,0.005153,-0.000048,0.005154,-0.001085,-89.557978,0.005434,
1270,1690,-0.063887,-1.719767,0.999998,0.000176,-0.001608,0.005334,-0.000127,0.005336,-0.001611,-88.950602,0.005474,
1530,1680,-0.619478,-2.086187,0.999997,0.000202,-0.002632,0.006561,-0.000179,0.006564,-0.002636,-88.885142,0.006607,
1530,140,-0.221275,-14.491801,0.999998,0.000178,-0.001012,0.005582,-0.000754,0.005667,-0.001097,-83.557920,0.006012,
1760,1580,-1.585771,-3.327676,0.999998,0.000190,-0.003791,0.007676,-0.000143,0.007678,-0.003793,-89.286222,0.007678,
1020,1640,0.429294,-2.188009,0.999997,0.000199,-0.002402,0.006186,0.000429,0.006208,-0.002423,87.147708,0.006257,
1560,830,-1.605482,-9.313280,0.999994,0.000295,-0.005058,0.009330,-0.000642,0.009359,-0.005086,-87.449513,0.009370,
1380,790,-0.459084,-10.706809,0.999995,0.000282,-0.004988,0.007306,0.003104,0.008046,-0.005728,76.604312,0.008283,
1720,680,-1.892660,-10.270605,0.999996,0.000225,-0.004257,0.008041,-0.000279,0.008048,-0.004263,-88.699770,0.008052,
1790,1700,-1.431053,-2.487214,0.999995,0.000244,-0.003664,0.007562,0.000013,0.007562,-0.003664,89.936042,0.007563,
1110,1970,0.039904,-0.303741,0.999998,0.000157,-0.000331,0.004720,-0.000250,0.004732,-0.000344,-87.169382,0.005277,
1840,1640,-1.757556,-3.066603,0.999997,0.000210,-0.003741,0.007511,-0.000115,0.007512,-0.003743,-89.413593,0.007512,
1810,60,-0.263379,-14.854463,0.999997,0.000225,-0.001275,0.007044,-0.002778,0.007886,-0.002117,-73.130778,0.008163,
1680,450,-1.233934,-12.174508,0.999997,0.000194,-0.003693,0.007571,0.000221,0.007575,-0.003697,88.877342,0.007576,
580,910,3.063418,-8.307843,0.999998,0.000162,-0.003110,0.006556,0.000180,0.006559,-0.003113,88.933787,0.006562,
1320,1430,-0.173176,-3.134636,0.999998,0.000189,-0.002351,0.005001,-0.001347,0.005240,-0.002590,-79.937212,0.005240,
660,2010,0.167511,-0.164828,0.999997,0.000204,-0.000547,0.006505,-0.002861,0.007520,-0.001561,-70.474329,0.007937,
680,1520,1.804126,-3.848483,0.999997,0.000195,-0.003889,0.007707,0.000068,0.007707,-0.003890,89.664785,0.007707,
910,580,0.957512,-11.508369,0.999997,0.000189,-0.004096,0.007729,-0.000754,0.007777,-0.004144,-86.365298,0.007783,
1300,1650,-0.117736,-1.944014,0.999997,0.000224,-0.001777,0.005395,-0.000191,0.005400,-0.001782,-88.478656,0.005503,
900,460,0.832675,-12.375302,0.999998,0.000195,-0.003372,0.007146,-0.000461,0.007167,-0.003393,-87.495669,0.007170,
770,410,1.202235,-12.446224,0.999998,0.000190,-0.003591,0.007520,-0.000102,0.007521,-0.003592,-89.473833,0.007524,
1810,150,-0.801922,-14.162049,0.999998,0.000225,-0.002994,0.007738,-0.001486,0.007940,-0.003196,-82.258254,0.007990,
830,1140,2.210213,-6.667171,0.999997,0.000220,-0.003654,0.008227,-0.001021,0.008314,-0.003741,-85.125907,0.008328,
1250,1600,-0.033195,-2.189422,0.999998,0.000152,-0.001821,0.005207,-0.000216,0.005214,-0.001828,-88.242595,0.005291,
1900,50,-0.404387,-14.757800,0.999981,0.000000,-0.001431,0.011244,-0.005412,0.013240,-0.003427,-69.752364,0.013744,
980,1360,0.810230,-4.282233,0.999997,0.000249,-0.004909,0.008286,0.001390,0.008431,-0.005053,84.051467,0.008486,
720,1960,0.350010,-0.462990,0.999997,0.000226,-0.002056,0.006400,-0.001733,0.006741,-0.002397,-78.857349,0.006834,
600,1270,2.730461,-5.923776,0.999996,0.000225,-0.003567,0.007197,-0.000303,0.007206,-0.003576,-88.389933,0.007206,
600,880,2.949849,-8.532520,0.999997,0.000203,-0.003288,0.006713,0.000243,0.006719,-0.003294,88.607730,0.006720,
940,860,1.537207,-9.130571,0.999995,0.000261,-0.005179,0.009721,0.000600,0.009745,-0.005203,87.696144,0.009752,
1220,1680,0.018836,-1.760293,0.999998,0.000165,-0.001654,0.005303,0.000090,0.005304,-0.001656,89.256254,0.005427,
820,1330,1.674485,-5.061226,0.999998,0.000251,-0.004666,0.008468,-0.000304,0.008475,-0.004673,-88.673456,0.008490,
1630,1930,-0.307588,-0.592013,0.999997,0.000205,-0.001166,0.006025,0.001266,0.006241,-0.001382,80.304231,0.006556,
640,1860,1.050866,-1.340710,0.999997,0.000200,-0.003440,0.007726,-0.000665,0.007765,-0.003479,-86.601730,0.007779,
730,2020,0.072942,-0.093694,0.999997,0.000000,-0.000343,0.005830,-0.002126,0.006492,-0.001005,-72.719514,0.006989,
1200,210,0.032312,-14.215569,0.999998,0.000200,-0.000951,0.005016,-0.000016,0.005016,-0.000952,-89.844041,0.005329,
1460,1920,-0.146118,-0.574752,0.999998,0.000151,-0.000717,0.005244,0.000510,0.005287,-0.000760,85.149561,0.005717,
1450,420,-0.448193,-12.889648,0.999997,0.000199,-0.002513,0.006263,0.000468,0.006288,-0.002537,86.954004,0.006327,
960,1770,0.427815,-1.465827,0.999997,0.000209,-0.002255,0.006211,-0.000116,0.006212,-0.002256,-89.217917,0.006289,
1480,1170,-1.432896,-6.068911,0.999994,0.000302,-0.005325,0.010301,0.000205,0.010304,-0.005328,89.247644,0.010306,
1810,1360,-2.295905,-5.145000,0.999997,0.000203,-0.003857,0.007617,0.000328,0.007626,-0.003866,88.365576,0.007626,
1760,1560,-1.628101,-3.484348,0.999997,0.000207,-0.003849,0.007717,-0.000133,0.007719,-0.003851,-89.339645,0.007719,
1680,820,-2.119566,-9.189208,0.999997,0.000218,-0.004133,0.008207,-0.000855,0.008266,-0.004192,-86.057152,0.008266,
1510,1900,-0.227261,-0.703350,0.999997,0.000191,-0.001298,0.005594,0.000617,0.005649,-0.001353,84.925137,0.005899,
1020,1620,0.441334,-2.310555,0.999997,0.000215,-0.002537,0.006269,0.000542,0.006303,-0.002570,86.489481,0.006338,
1770,1700,-1.358571,-2.438480,0.999997,0.000191,-0.003642,0.007543,0.000009,0.007543,-0.003642,89.953661,0.007545,
1510,580,-0.783861,-11.639351,0.999997,0.000197,-0.003973,0.007472,0.001002,0.007559,-0.004060,85.031856,0.007566,
1810,50,-0.201062,-14.921705,0.999997,0.000208,-0.001126,0.006668,-0.002775,0.007555,-0.002013,-72.273521,0.007825,
980,1340,0.848322,-4.453000,0.999996,0.000250,-0.005112,0.008552,0.001345,0.008683,-0.005243,84.430803,0.008745,
860,150,0.338553,-14.394480,0.999998,0.000195,-0.001570,0.006099,0.001022,0.006233,-0.001704,82.541296,0.006443,
720,50,0.145288,-14.936738,0.999998,0.000197,-0.000902,0.006064,0.002199,0.006700,-0.001538,73.864878,0.007019,
600,860,2.909099,-8.669283,0.999997,0.000195,-0.003363,0.006924,0.000342,0.006936,-0.003374,88.099048,0.006937,
1230,1600,0.001420,-2.181896,0.999997,0.000196,-0.001847,0.005216,-0.000008,0.005216,-0.001847,-89.932138,0.005289,
700,2010,0.143009,-0.159694,0.999998,0.000166,-0.000843,0.006204,-0.002381,0.006933,-0.001572,-72.973236,0.007270,
1710,380,-1.199951,-12.634339,0.999997,0.000178,-0.003526,0.007479,0.000024,0.007479,-0.003526,89.874508,0.007483,
940,840,1.450411,-9.330332,0.999995,0.000260,-0.005378,0.009756,0.000381,0.009766,-0.005388,88.560206,0.009783,
1300,1430,-0.128413,-3.089944,0.999997,0.000203,-0.002133,0.004691,-0.001184,0.004891,-0.002332,-80.432787,0.004892,
770,830,2.203698,-9.094821,0.999998,0.000184,-0.004092,0.008119,0.000908,0.008186,-0.004159,85.772040,0.008186,
900,440,0.806541,-12.519100,0.999997,0.000207,-0.003299,0.007086,-0.000404,0.007102,-0.003315,-87.777126,0.007107,
1860,570,-2.177885,-10.823175,0.999997,0.000206,-0.003824,0.007641,-0.000017,0.007641,-0.003824,-89.917229,0.007641,
1510,1620,-0.630577,-2.449504,0.999997,0.000232,-0.002914,0.006719,-0.000487,0.006743,-0.002939,-87.115957,0.006762,
1250,1780,-0.024123,-1.234271,0.999998,0.000151,-0.001274,0.005197,-0.000061,0.005198,-0.001275,-89.455622,0.005418,
1510,1990,-0.070719,-0.224460,0.999999,0.000169,-0.000480,0.005033,0.000731,0.005128,-0.000575,82.575272,0.005619,
1570,980,-2.159261,-7.954794,0.999997,0.000222,-0.002973,0.008372,-0.000696,0.008414,-0.003016,-86.501052,0.008526,
1220,1970,0.003928,-0.296662,0.999998,0.000156,-0.000369,0.004587,-0.000002,0.004587,-0.000369,-89.975138,0.005097,
1900,40,-0.272881,-14.875510,0.999996,0.000000,-0.000452,0.011754,-0.006311,0.014430,-0.003129,-67.019541,0.015182,
1860,1110,-3.045855,-7.022054,0.999998,0.000169,-0.003222,0.006598,0.000222,0.006603,-0.003227,88.704087,0.006604,
570,800,2.872927,-9.029410,0.999989,0.000410,-0.003745,0.006760,-0.000042,0.006760,-0.003745,-89.772081,0.006773,
740,370,1.223592,-12.682698,0.999997,0.000198,-0.003583,0.007511,0.000012,0.007511,-0.003583,89.938155,0.007514,
580,900,3.046286,-8.374309,0.999998,0.000173,-0.003127,0.006533,0.000142,0.006535,-0.003129,89.158515,0.006537,
1270,1670,-0.064951,-1.824362,0.999998,0.000192,-0.001649,0.005312,-0.000138,0.005315,-0.001652,-88.865255,0.005440,
1180,210,0.050695,-14.212659,0.999998,0.000171,-0.000868,0.005034,0.000045,0.005034,-0.000869,89.563314,0.005382,
1720,660,-1.839693,-10.431915,0.999997,0.000227,-0.004216,0.008029,-0.000194,0.008032,-0.004219,-89.094823,0.008036,
960,1390,0.861479,-4.116442,0.999998,0.000193,-0.004678,0.008108,0.001170,0.008214,-0.004784,84.816277,0.008251,
1550,1130,-1.936021,-6.669293,0.999997,0.000221,-0.003872,0.009033,0.001066,0.009121,-0.003960,85.308177,0.009147,
1290,400,-0.101617,-13.206475,0.999998,0.000175,-0.001697,0.005361,0.000151,0.005364,-0.001700,88.772068,0.005483,
930,1200,1.568146,-5.970204,0.999995,0.000275,-0.005123,0.009611,-0.000663,0.009641,-0.005153,-87.429545,0.009649,
1840,1620,-1.803586,-3.217802,0.999997,0.000219,-0.003753,0.007557,-0.000098,0.007558,-0.003754,-89.503526,0.007558,
680,1940,0.549275,-0.653125,0.999997,0.000233,-0.002488,0.007412,-0.002018,0.007808,-0.002883,-78.909763,0.007896,
1110,1950,0.049247,-0.397994,0.999998,0.000168,-0.000457,0.004812,-0.000241,0.004823,-0.000468,-87.389626,0.005319,
1100,590,0.284517,-12.048046,0.999996,0.000228,-0.002737,0.005734,-0.001394,0.005958,-0.002960,-80.888610,0.005958,
700,2000,0.190198,-0.219615,0.999998,0.000221,-0.001086,0.006435,-0.002433,0.007153,-0.001804,-73.548025,0.007440,
1470,880,-1.349162,-9.154485,0.999994,0.000296,-0.005497,0.010433,0.000093,0.010433,-0.005498,89.666573,0.010438,
1710,360,-1.154814,-12.783212,0.999998,0.000137,-0.003420,0.007415,-0.000100,0.007416,-0.003421,-89.470844,0.007423,
1170,570,0.117777,-12.315568,0.999998,0.000145,-0.002084,0.004970,-0.000781,0.005055,-0.002169,-83.759046,0.005072,
1680,1810,-0.773873,-1.437713,0.999997,0.000183,-0.002982,0.007143,0.000604,0.007179,-0.003018,86.600538,0.007209,
1760,1540,-1.672578,-3.639210,0.999997,0.000207,-0.003901,0.007695,-0.000123,0.007696,-0.003902,-89.390049,0.007696,
980,1320,0.886751,-4.624609,0.999996,0.000234,-0.005328,0.008783,0.001258,0.008894,-0.005439,84.944850,0.008967,
1430,270,-0.270818,-13.819940,0.999998,0.000197,-0.001734,0.005701,-0.000045,0.005702,-0.001734,-89.650800,0.005846,
940,820,1.370036,-9.524428,0.999996,0.000232,-0.005512,0.009687,0.000143,0.009689,-0.005513,89.459289,0.009719,
1600,100,-0.201539,-14.691097,0.999998,0.000180,-0.001030,0.005604,-0.001099,0.005781,-0.001207,-80.837164,0.006100,
730,30,0.049782,-15.053912,0.999998,0.000000,-0.000346,0.005847,0.002147,0.006519,-0.001017,72.631297,0.007014,
1870,60,-0.439044,-14.714174,0.999994,0.000337,-0.002623,0.008766,-0.002894,0.009460,-0.003317,-76.529377,0.009599,
1280,1430,-0.086048,-3.045922,0.999996,0.000235,-0.001983,0.004460,-0.000856,0.004572,-0.002095,-82.563150,0.004577,
600,840,2.861149,-8.810691,0.999998,0.000183,-0.003425,0.007002,0.000343,0.007014,-0.003436,88.118575,0.007014,
1370,1850,-0.133073,-0.907916,0.999998,0.000160,-0.000986,0.005262,0.000202,0.005269,-0.000993,88.148418,0.005599,
900,420,0.776994,-12.660718,0.999997,0.000204,-0.003246,0.007048,-0.000362,0.007061,-0.003258,-87.990811,0.007068,
1510,1970,-0.106715,-0.327165,0.999998,0.000178,-0.000631,0.005127,0.000722,0.005216,-0.000720,82.962494,0.005654,
930,1900,0.254017,-0.715248,0.999998,0.000178,-0.001149,0.005725,-0.000745,0.005805,-0.001229,-83.883226,0.006118,
1440,1450,-0.535194,-3.420041,0.999995,0.000271,-0.003697,0.006923,-0.001498,0.007130,-0.003904,-82.122040,0.007141,
1320,1760,-0.118114,-1.359249,0.999998,0.000147,-0.001491,0.005365,-0.000093,0.005366,-0.001493,-89.227043,0.005540,
1660,590,-1.425726,-11.136412,0.999997,0.000207,-0.004194,0.007945,0.000181,0.007948,-0.004197,89.147639,0.007952,
1460,1900,-0.171726,-0.679674,0.999998,0.000160,-0.000876,0.005352,0.000515,0.005395,-0.000918,85.302705,0.005773,
720,1940,0.445407,-0.598912,0.999997,0.000227,-0.002302,0.006853,-0.001734,0.007171,-0.002619,-79.628368,0.007257,
1680,800,-2.062643,-9.353566,0.999997,0.000214,-0.004246,0.008327,-0.000789,0.008376,-0.004296,-86.424083,0.008377,
1630,1950,-0.245397,-0.468411,0.999998,0.000181,-0.000904,0.005873,0.001304,0.006115,-0.001146,79.478567,0.006501,
960,1590,0.641365,-2.637068,0.999997,0.000219,-0.003098,0.006821,0.000613,0.006858,-0.003136,86.475621,0.006867,
1840,1110,-2.981604,-7.006208,0.999996,0.000222,-0.003250,0.006796,0.000327,0.006807,-0.003261,88.135493,0.006809,
940,1390,0.954923,-4.191304,0.999997,0.000176,-0.004717,0.008257,0.000963,0.008328,-0.004788,85.778206,0.008359,
1220,1660,0.019992,-1.868223,0.999998,0.000155,-0.001716,0.005282,0.000100,0.005284,-0.001717,89.185076,0.005390,
840,950,2.261078,-8.173209,0.999996,0.000236,-0.003313,0.008017,0.000790,0.008071,-0.003368,86.029660,0.008108,
760,1010,2.587788,-7.691648,0.999996,0.000204,-0.003162,0.007465,0.000247,0.007471,-0.003168,88.671029,0.007499,
810,1200,2.114103,-6.187094,0.999997,0.000216,-0.004109,0.008327,-0.000982,0.008404,-0.004186,-85.513984,0.008404,
1860,550,-2.130936,-10.975313,0.999997,0.000222,-0.003790,0.007627,0.000005,0.007627,-0.003790,89.974632,0.007628,
1230,1780,0.001277,-1.232224,0.999998,0.000144,-0.001310,0.005189,0.000011,0.005189,-0.001310,89.904463,0.005397,
1570,1620,-0.821497,-2.582251,0.999998,0.000192,-0.003281,0.007118,-0.000366,0.007131,-0.003294,-87.989236,0.007138,
1670,120,-0.349744,-14.537937,0.999998,0.000196,-0.001700,0.006256,-0.001406,0.006498,-0.001941,-80.265286,0.006671,
770,850,2.261853,-8.928875,0.999997,0.000201,-0.003976,0.008061,0.000923,0.008132,-0.004047,85.639009,0.008132,
1470,860,-1.245547,-9.361559,0.999994,0.000315,-0.005745,0.010301,0.000372,0.010309,-0.005753,88.673918,0.010332,
700,1990,0.245727,-0.287971,0.999997,0.000234,-0.001404,0.006679,-0.002441,0.007359,-0.002084,-74.435247,0.007585,
1550,1150,-1.859842,-6.486081,0.999997,0.000195,-0.004200,0.009217,0.001090,0.009305,-0.004288,85.384107,0.009315,
1720,640,-1.791950,-10.593813,0.999997,0.000221,-0.004180,0.007995,-0.000106,0.007996,-0.004181,-89.501998,0.007999,
940,1040,2.074749,-7.449438,0.999998,0.000199,-0.002709,0.008945,-0.000193,0.008948,-0.002712,-89.051247,0.009176,
980,1300,0.935248,-4.804839,0.999996,0.000259,-0.005502,0.009027,0.001134,0.009115,-0.005590,85.563423,0.009193,
1230,80,0.001272,-14.845661,0.999998,0.000144,-0.000338,0.004584,0.000006,0.004584,-0.000338,89.927723,0.005110,
1460,210,-0.246842,-14.135433,0.999998,0.000177,-0.001241,0.005616,-0.000392,0.005638,-0.001263,-86.739730,0.005917,
1430,250,-0.252172,-13.929463,0.999998,0.000202,-0.001605,0.005632,-0.000113,0.005633,-0.001607,-89.102894,0.005804,
1270,1650,-0.068251,-1.931687,0.999998,0.000192,-0.001726,0.005299,-0.000151,0.005302,-0.001730,-88.773350,0.005408,
1110,1930,0.063763,-0.497637,0.999998,0.000160,-0.000568,0.004882,-0.000228,0.004891,-0.000578,-87.611739,0.005346,
1850,60,-0.370356,-14.767584,0.999994,0.000307,-0.003175,0.007982,-0.002267,0.008425,-0.003618,-78.942681,0.008453,
1230,760,0.002070,-11.675757,0.999997,0.000196,-0.001594,0.002041,-0.000057,0.002042,-0.001595,-89.104429,0.002147,
1760,1520,-1.713982,-3.793013,0.999996,0.000208,-0.003937,0.007719,-0.000088,0.007720,-0.003938,-89.567205,0.007720,
1510,1950,-0.137750,-0.429332,0.999998,0.000184,-0.000850,0.005303,0.000722,0.005386,-0.000934,83.394897,0.005757,
600,820,2.815468,-8.948628,0.999997,0.000193,-0.003451,0.006956,0.000284,0.006964,-0.003459,88.435774,0.006964,
1810,40,-0.135577,-14.985819,0.999997,0.000221,-0.000907,0.006462,-0.002826,0.007421,-0.001866,-71.257027,0.007721,
680,1960,0.446863,-0.510344,0.999997,0.000241,-0.001946,0.006990,-0.002241,0.007521,-0.002476,-76.681199,0.007665,
1640,590,-1.341611,-11.185851,0.999996,0.000212,-0.004259,0.007985,0.000261,0.007991,-0.004264,88.780848,0.007997,
1890,1790,-1.551395,-2.087714,0.999997,0.000223,-0.003670,0.007251,0.000057,0.007251,-0.003671,89.703197,0.007251,
1600,1430,-1.236594,-4.105213,0.999998,0.000171,-0.004476,0.008119,-0.000420,0.008133,-0.004490,-88.093099,0.008148,
900,400,0.748745,-12.800557,0.999997,0.000198,-0.003166,0.006977,-0.000313,0.006987,-0.003176,-88.232672,0.006997,
1680,780,-2.000658,-9.523712,0.999997,0.000217,-0.004336,0.008328,-0.000704,0.008367,-0.004375,-86.829168,0.008370,
720,1920,0.537311,-0.735686,0.999997,0.000211,-0.002581,0.006944,-0.001524,0.007182,-0.002819,-81.130102,0.007237,
1460,1880,-0.201955,-0.788773,0.999998,0.000173,-0.001000,0.005416,0.000457,0.005448,-0.001032,85.945211,0.005788,
1900,30,-0.139405,-14.994131,0.999996,0.000000,0.000234,0.011749,-0.006756,0.014867,-0.002885,-65.219855,0.015768,
1320,1740,-0.126956,-1.466462,0.999998,0.000159,-0.001566,0.005409,-0.000145,0.005412,-0.001569,-88.811136,0.005569,
1380,1490,-0.328464,-2.973076,0.999998,0.000185,-0.002745,0.005903,-0.001235,0.006076,-0.002918,-82.030273,0.006078,
1630,1970,-0.189595,-0.356947,0.999998,0.000173,-0.000685,0.005661,0.001369,0.005943,-0.000967,78.333253,0.006378,
920,1390,1.048895,-4.262254,0.999997,0.000222,-0.004743,0.008370,0.000772,0.008415,-0.004789,86.644504,0.008442,
1800,1170,-2.745839,-6.553662,0.999997,0.000231,-0.003492,0.007236,0.000593,0.007268,-0.003525,86.846642,0.007270,
860,1010,2.288297,-7.701496,0.999996,0.000232,-0.002849,0.007959,0.000261,0.007965,-0.002856,88.618818,0.008070,
1840,1600,-1.849572,-3.370152,0.999997,0.000213,-0.003794,0.007589,-0.000114,0.007590,-0.003795,-89.428337,0.007590,
1280,1650,-0.084593,-1.935855,0.999998,0.000205,-0.001699,0.005321,-0.000137,0.005323,-0.001702,-88.879473,0.005437,
1190,1780,0.052005,-1.239444,0.999998,0.000160,-0.001246,0.005245,0.000007,0.005245,-0.001246,89.937403,0.005481,
870,1140,2.061351,-6.632713,0.999998,0.000194,-0.003780,0.008561,-0.001046,0.008649,-0.003868,-85.187987,0.008665,
1610,920,-2.140361,-8.429713,0.999997,0.000248,-0.003654,0.008430,-0.001044,0.008520,-0.003743,-85.100109,0.008541,
1840,570,-2.100836,-10.867681,0.999997,0.000193,-0.003811,0.007643,-0.000004,0.007643,-0.003811,-89.977504,0.007643,
670,200,0.971753,-13.805663,0.999998,0.000176,-0.003290,0.007650,0.000937,0.007730,-0.003370,85.142470,0.007751,
1070,840,0.704486,-10.180189,0.999996,0.000235,-0.005471,0.008420,-0.002555,0.008875,-0.005926,-79.900741,0.009040,
940,1590,0.705889,-2.684854,0.999998,0.000187,-0.003282,0.007010,0.000641,0.007050,-0.003322,86.449342,0.007054,
930,80,0.109821,-14.813214,0.999998,0.000170,-0.000496,0.005179,0.000876,0.005311,-0.000628,81.418920,0.005804,
770,870,2.317547,-8.770386,0.999997,0.000216,-0.003858,0.007892,0.000880,0.007958,-0.003923,85.738356,0.007958,
980,1280,0.987270,-4.987993,0.999997,0.000257,-0.005658,0.009268,0.000997,0.009334,-0.005724,86.195596,0.009413,
1520,1970,-0.112830,-0.329173,0.999998,0.000161,-0.000592,0.005154,0.000776,0.005257,-0.000694,82.441761,0.005712,
750,2010,0.114273,-0.151309,0.999998,0.000190,-0.000217,0.005669,-0.001864,0.006209,-0.000758,-73.820685,0.006775,
870,860,1.874994,-8.970187,0.999997,0.000202,-0.004467,0.008857,0.000983,0.008929,-0.004539,85.801199,0.008929,
1110,1910,0.074426,-0.593654,0.999998,0.000147,-0.000686,0.004963,-0.000216,0.004971,-0.000694,-87.809477,0.005385,
1040,210,0.198417,-14.159363,0.999998,0.000185,-0.001362,0.005427,0.000227,0.005435,-0.001369,88.090146,0.005653,
890,720,1.319224,-10.284435,0.999997,0.000202,-0.005041,0.008786,-0.000210,0.008789,-0.005044,-89.128204,0.008821,
940,800,1.295185,-9.717244,0.999996,0.000241,-0.005567,0.009563,-0.000110,0.009564,-0.005567,-89.585220,0.009607,
1800,1810,-1.157641,-1.675455,0.999997,0.000231,-0.003491,0.007663,0.000523,0.007687,-0.003515,87.323661,0.007697,
1170,590,0.116932,-12.214845,0.999998,0.000168,-0.002114,0.004884,-0.000893,0.004996,-0.002227,-82.843276,0.005006,
720,2020,0.078595,-0.095249,0.999997,0.000000,-0.000657,0.005879,-0.002157,0.006527,-0.001305,-73.286192,0.006908,
600,800,2.768578,-9.088048,0.999997,0.000215,-0.003511,0.007067,0.000281,0.007074,-0.003518,88.480827,0.007074,
1510,1930,-0.176125,-0.538309,0.999998,0.000179,-0.001019,0.005400,0.000668,0.005468,-0.001088,84.120569,0.005790,
900,620,1.061278,-11.162215,0.999997,0.000186,-0.004422,0.008011,-0.000699,0.008050,-0.004461,-86.793172,0.008066,
1580,1430,-1.145179,-4.050773,0.999996,0.000212,-0.004474,0.008078,-0.000553,0.008103,-0.004498,-87.480174,0.008119,
1430,230,-0.228928,-14.046512,0.999998,0.000202,-0.001497,0.005572,-0.000177,0.005576,-0.001502,-88.568146,0.005771,
1890,1780,-1.583721,-2.160354,0.999998,0.000206,-0.003675,0.007248,0.000010,0.007248,-0.003675,89.949217,0.007248,
680,1980,0.336287,-0.371241,0.999996,0.000240,-0.001404,0.007141,-0.002731,0.007939,-0.002202,-73.708179,0.008197,
1210,760,0.032250,-11.652468,0.999998,0.000164,-0.001634,0.002210,-0.000908,0.002413,-0.001837,-77.359353,0.002521,
1760,1740,-1.225165,-2.112195,0.999998,0.000195,-0.003647,0.007529,0.000083,0.007530,-0.003647,89.576539,0.007531,
1490,740,-0.936292,-10.417743,0.999995,0.000260,-0.005363,0.008878,0.001135,0.008968,-0.005453,85.469708,0.009037,
1360,1490,-0.273283,-2.919767,0.999998,0.000182,-0.002664,0.005689,-0.001247,0.005871,-0.002846,-81.687859,0.005872,
1270,1630,-0.069282,-2.038277,0.999998,0.000186,-0.001791,0.005319,-0.000151,0.005323,-0.001794,-88.786144,0.005416,
1320,1720,-0.133087,-1.574238,0.999998,0.000195,-0.001633,0.005446,-0.000179,0.005450,-0.001638,-88.555945,0.005593,
1550,1170,-1.776451,-6.301057,0.999997,0.000209,-0.004558,0.009316,0.000997,0.009387,-0.004629,85.908836,0.009387,
1630,1990,-0.126799,-0.239803,0.999998,0.000183,-0.000430,0.005513,0.001385,0.005820,-0.000737,77.507781,0.006338,
1680,760,-1.942274,-9.690639,0.999998,0.000187,-0.004393,0.008307,-0.000590,0.008334,-0.004420,-87.346296,0.008339,
1220,1880,0.008103,-0.727198,0.999998,0.000160,-0.000809,0.004925,0.000018,0.004925,-0.000809,89.817607,0.005282,
730,410,1.349144,-12.351336,0.999997,0.000227,-0.003694,0.007619,-0.000098,0.007620,-0.003695,-89.505703,0.007621,
1850,90,-0.585439,-14.511268,0.999996,0.000220,-0.003513,0.008192,-0.001777,0.008456,-0.003776,-81.554902,0.008472,
1370,1830,-0.146697,-1.011960,0.999998,0.000171,-0.001105,0.005269,0.000149,0.005273,-0.001109,88.665499,0.005560,
1880,1350,-2.586589,-5.372685,0.999995,0.000244,-0.003680,0.007460,0.000129,0.007462,-0.003681,89.336979,0.007462,
1460,1860,-0.224406,-0.898581,0.999998,0.000168,-0.001135,0.005562,0.000454,0.005593,-0.001165,86.139201,0.005901,
1840,170,-1.001235,-13.914606,0.999998,0.000193,-0.003639,0.007799,-0.000603,0.007831,-0.003670,-86.990228,0.007836,
910,1140,1.909896,-6.581691,0.999996,0.000234,-0.004014,0.009082,-0.001088,0.009171,-0.004103,-85.283470,0.009188,
700,950,2.730153,-8.118521,0.999997,0.000206,-0.003385,0.007279,0.000527,0.007305,-0.003411,87.176785,0.007311,
1600,290,-0.666071,-13.491456,0.999997,0.000198,-0.002729,0.006829,-0.000264,0.006836,-0.002736,-88.420780,0.006881,
1170,1780,0.077161,-1.243917,0.999998,0.000158,-0.001194,0.005274,-0.000043,0.005275,-0.001194,-89.617966,0.005532,
1820,570,-2.025128,-10.915635,0.999998,0.000173,-0.003832,0.007678,0.000011,0.007678,-0.003832,89.944690,0.007678,
1810,1620,-1.689230,-3.146285,0.999997,0.000198,-0.003807,0.007574,-0.000087,0.007575,-0.003808,-89.562625,0.007575,
1020,1030,1.814772,-7.530881,0.999994,0.000308,-0.005013,0.013398,0.000029,0.013398,-0.005013,89.909375,0.013539,
1890,2020,-0.207689,-0.187204,0.999995,0.000000,0.000827,0.010935,0.006097,0.013801,-0.002039,64.827953,0.014899,
1650,980,-2.402276,-7.926201,0.999997,0.000195,-0.003097,0.007694,-0.000480,0.007715,-0.003118,-87.459286,0.007762,
1430,1140,-1.343892,-6.056432,0.999995,0.000292,-0.004992,0.010980,-0.001489,0.011118,-0.005130,-84.717772,0.011129,
910,80,0.118021,-14.810909,0.999999,0.000116,-0.000484,0.005251,0.000948,0.005404,-0.000636,80.852722,0.005907,
770,890,2.365780,-8.613867,0.999996,0.000238,-0.003743,0.007909,0.000913,0.007980,-0.003814,85.546771,0.007982,
980,1260,1.050299,-5.175326,0.999995,0.000271,-0.005772,0.009559,0.000854,0.009606,-0.005819,86.822522,0.009678,
1290,1600,-0.107925,-2.204970,0.999997,0.000184,-0.001861,0.005329,-0.000259,0.005338,-0.001871,-87.941014,0.005417,
870,720,1.418757,-10.224520,0.999996,0.000213,-0.004982,0.008734,-0.000037,0.008734,-0.004982,-89.846447,0.008763,
690,70,0.290901,-14.792411,0.999996,0.000234,-0.001446,0.006929,0.002605,0.007673,-0.002190,74.057645,0.007906,
1260,1430,-0.048753,-3.026056,0.999999,0.000160,-0.001817,0.004292,-0.000490,0.004331,-0.001856,-85.446321,0.004346,
1140,1910,0.054635,-0.586194,0.999999,0.000116,-0.000698,0.004912,-0.000151,0.004916,-0.000702,-88.462866,0.005318,
1560,1970,-0.131957,-0.334415,0.999999,0.000143,-0.000613,0.005303,0.000949,0.005451,-0.000762,81.110190,0.005904,
740,2010,0.114561,-0.151585,0.999998,0.000182,-0.000282,0.005767,-0.002007,0.006372,-0.000887,-73.216613,0.006903,
1020,210,0.225910,-14.146717,0.999997,0.000200,-0.001300,0.005538,0.000289,0.005550,-0.001312,87.581142,0.005802,
780,30,0.052592,-15.056566,0.999998,0.000000,-0.000327,0.005445,0.001643,0.005880,-0.000762,75.176401,0.006395,
900,380,0.716981,-12.942143,0.999996,0.000220,-0.003048,0.006863,-0.000182,0.006866,-0.003051,-88.948836,0.006880,
1110,1890,0.091636,-0.695685,0.999998,0.000157,-0.000795,0.005081,-0.000183,0.005086,-0.000801,-88.213307,0.005470,
1270,400,-0.067584,-13.214009,0.999998,0.000165,-0.001732,0.005343,0.000147,0.005346,-0.001735,88.809284,0.005455,
1170,610,0.115108,-12.116906,0.999998,0.000178,-0.002111,0.004732,-0.001025,0.004882,-0.002262,-81.665976,0.004887,
940,760,1.166421,-10.093276,0.999996,0.000199,-0.005446,0.009175,-0.000527,0.009194,-0.005465,-87.939683,0.009249,
1810,130,-0.698424,-14.316138,0.999997,0.000234,-0.002837,0.007774,-0.001782,0.008065,-0.003129,-80.715786,0.008132,
1780,1810,-1.089475,-1.629185,0.999997,0.000220,-0.003472,0.007592,0.000507,0.007615,-0.003495,87.383358,0.007624,
1430,210,-0.208016,-14.153127,0.999998,0.000187,-0.001342,0.005469,-0.000238,0.005477,-0.001351,-88.000023,0.005707,
1550,1190,-1.695555,-6.111226,0.999996,0.000225,-0.004795,0.009387,0.000884,0.009442,-0.004850,86.445215,0.009443,
1220,1640,0.020709,-1.972423,0.999998,0.000161,-0.001755,0.005272,0.000138,0.005275,-0.001757,88.875516,0.005372,
730,430,1.391184,-12.198673,0.999998,0.000206,-0.003719,0.007565,-0.000129,0.007566,-0.003721,-89.344777,0.007566,
650,1520,1.920078,-3.918733,0.999997,0.000192,-0.003823,0.007661,0.000050,0.007662,-0.003823,89.750735,0.007662,
1440,670,-0.582453,-11.230177,0.999996,0.000287,-0.004303,0.007425,0.001815,0.007699,-0.004577,81.398603,0.007745,
1760,1500,-1.758382,-3.950100,0.999997,0.000205,-0.003958,0.007783,-0.000051,0.007783,-0.003958,-89.752133,0.007783,
1680,740,-1.884657,-9.856535,0.999997,0.000198,-0.004432,0.008307,-0.000511,0.008328,-0.004452,-87.706453,0.008334,
1270,1610,-0.071254,-2.145121,0.999998,0.000179,-0.001832,0.005288,-0.000186,0.005293,-0.001837,-88.501684,0.005375,
590,1270,2.767344,-5.943495,0.999998,0.000219,-0.003598,0.007124,-0.000234,0.007129,-0.003603,-88.751680,0.007130,
1410,340,-0.295913,-13.434426,0.999997,0.000184,-0.002094,0.005814,0.000239,0.005821,-0.002101,88.267043,0.005896,
600,780,2.717656,-9.233658,0.999997,0.000222,-0.003586,0.007282,0.000290,0.007290,-0.003594,88.470473,0.007290,
1850,110,-0.718163,-14.350708,0.999996,0.000222,-0.003592,0.008017,-0.001287,0.008158,-0.003733,-83.749013,0.008168,
1370,1810,-0.161877,-1.120437,0.999998,0.000168,-0.001222,0.005395,0.000125,0.005397,-0.001224,88.922106,0.005659,
1320,1700,-0.139853,-1.685095,0.999998,0.000182,-0.001722,0.005461,-0.000211,0.005468,-0.001728,-88.320549,0.005590,
1890,30,-0.139088,-14.994671,0.999996,0.000000,0.000391,0.011266,-0.006504,0.014306,-0.002649,-64.948979,0.015222,
1510,1910,-0.207504,-0.647097,0.999998,0.000180,-0.001232,0.005517,0.000638,0.005577,-0.001292,84.643649,0.005839,
720,930,2.628851,-8.275495,0.999996,0.000208,-0.003437,0.007382,0.000608,0.007416,-0.003472,86.791686,0.007421,
890,1140,1.988778,-6.610650,0.999998,0.000181,-0.003874,0.008788,-0.001067,0.008878,-0.003964,-85.218629,0.008895,
1640,480,-1.138271,-12.044499,0.999998,0.000185,-0.003763,0.007547,0.000334,0.007557,-0.003773,88.312389,0.007557,
1840,150,-0.905522,-14.070286,0.999999,0.000130,-0.003665,0.007806,-0.000768,0.007857,-0.003716,-86.188655,0.007861,
750,460,1.377004,-12.019736,0.999997,0.000222,-0.003793,0.007597,-0.000199,0.007600,-0.003797,-88.999359,0.007600,
1790,1620,-1.613883,-3.096996,0.999997,0.000215,-0.003757,0.007574,-0.000139,0.007575,-0.003759,-89.296151,0.007575,
1800,570,-1.948276,-10.961875,0.999997,0.000206,-0.003869,0.007698,0.000010,0.007698,-0.003869,89.952236,0.007698,
770,1330,1.896898,-5.161585,0.999997,0.000197,-0.004350,0.008232,-0.000446,0.008248,-0.004366,-87.972621,0.008252,
980,1240,1.121686,-5.371221,0.999995,0.000274,-0.005822,0.009803,0.000612,0.009827,-0.005846,87.759581,0.009885,
700,1770,1.152596,-1.892731,0.999996,0.000245,-0.003618,0.007529,-0.000262,0.007536,-0.003625,-88.652786,0.007537,
1670,980,-2.464077,-7.921562,0.999996,0.000222,-0.003188,0.007583,-0.000427,0.007600,-0.003205,-87.732770,0.007631,
1210,80,0.008567,-14.845951,0.999999,0.000162,-0.000275,0.004603,0.000057,0.004603,-0.000276,89.325569,0.005164,
1410,1140,-1.239917,-5.845809,0.999990,0.000364,-0.004710,0.010391,-0.003134,0.011016,-0.005334,-78.727928,0.011018,
1020,1010,1.808256,-7.790008,0.999992,0.000317,-0.004905,0.013632,-0.000387,0.013640,-0.004913,-88.803066,0.013816,
930,780,1.282184,-9.870534,0.999996,0.000212,-0.005458,0.009343,-0.000182,0.009345,-0.005460,-89.294087,0.009389,
1460,1840,-0.254226,-1.011542,0.999998,0.000169,-0.001281,0.005595,0.000375,0.005615,-0.001301,86.887558,0.005879,
1890,1570,-2.099954,-3.717879,0.999998,0.000200,-0.003709,0.007562,-0.000062,0.007563,-0.003710,-89.686010,0.007563,
690,2010,0.152222,-0.161517,0.999999,0.000177,-0.000676,0.006297,-0.002539,0.007124,-0.001503,-71.968044,0.007510,
1250,1440,-0.032046,-2.974832,0.999998,0.000154,-0.001769,0.004360,-0.000397,0.004386,-0.001794,-86.309581,0.004410,
720,30,0.055611,-15.054561,0.999998,0.000000,-0.000568,0.005889,0.002209,0.006572,-0.001251,72.810748,0.006979,
690,510,1.711325,-11.490192,0.999998,0.000198,-0.003885,0.007710,-0.000122,0.007711,-0.003886,-89.398804,0.007712,
900,340,0.650528,-13.216684,0.999997,0.000200,-0.002794,0.006764,-0.000033,0.006764,-0.002794,-89.801405,0.006798,
1680,720,-1.826422,-10.024296,0.999997,0.000221,-0.004480,0.008275,-0.000410,0.008288,-0.004493,-88.162633,0.008298,
1440,650,-0.566466,-11.378762,0.999995,0.000269,-0.004106,0.007255,0.001729,0.007512,-0.004363,81.535029,0.007545,
1900,220,-1.430516,-13.326163,0.999997,0.000000,-0.003624,0.007220,-0.000221,0.007224,-0.003629,-88.834857,0.007224,
730,450,1.432706,-12.048103,0.999997,0.000209,-0.003767,0.007578,-0.000159,0.007580,-0.003769,-89.198652,0.007580,
1550,1630,-0.742661,-2.465959,0.999997,0.000196,-0.003217,0.006999,-0.000408,0.007015,-0.003234,-87.716087,0.007023,
1540,1970,-0.123478,-0.333182,0.999998,0.000156,-0.000497,0.005232,0.000884,0.005365,-0.000630,81.419905,0.005865,
1000,210,0.250732,-14.134082,0.999998,0.000181,-0.001278,0.005619,0.000387,0.005641,-0.001300,86.802392,0.005908,
940,740,1.111429,-10.276561,0.999997,0.000203,-0.005315,0.008996,-0.000645,0.009025,-0.005344,-87.424216,0.009076,
1250,400,-0.032724,-13.222703,0.999998,0.000150,-0.001739,0.005300,0.000162,0.005304,-0.001743,88.678987,0.005407,
1220,1600,0.022823,-2.183433,0.999998,0.000188,-0.001866,0.005218,0.000135,0.005220,-0.001868,88.912536,0.005290,
1170,630,0.112109,-12.023220,0.999998,0.000184,-0.002104,0.004552,-0.001142,0.004742,-0.002295,-80.531922,0.004743,
1020,1840,0.231360,-0.999839,0.999998,0.000185,-0.001315,0.005514,-0.000281,0.005526,-0.001327,-87.646356,0.005769,
690,1520,1.765951,-3.824183,0.999997,0.000213,-0.003897,0.007727,0.000072,0.007728,-0.003898,89.647423,0.007728,
1760,1460,-1.849415,-4.261129,0.999998,0.000185,-0.004006,0.007792,0.000028,0.007792,-0.004006,89.864960,0.007793,
1070,1210,0.728994,-4.983261,0.999995,0.000259,-0.005509,0.008446,0.002533,0.008892,-0.005954,80.022722,0.009061,
1510,1890,-0.246174,-0.759767,0.999998,0.000177,-0.001364,0.005612,0.000568,0.005657,-0.001410,85.376413,0.005890,
1320,1910,-0.051930,-0.587177,0.999998,0.000137,-0.000661,0.004922,0.000138,0.004925,-0.000665,88.581120,0.005345,
1120,360,0.185437,-13.386305,0.999998,0.000194,-0.001856,0.005599,-0.000263,0.005608,-0.001865,-87.981252,0.005712,
1850,130,-0.835146,-14.190029,0.999997,0.000192,-0.003631,0.007963,-0.000976,0.008045,-0.003712,-85.219315,0.008053,
1270,1590,-0.071612,-2.249594,0.999998,0.000157,-0.001867,0.005223,-0.000193,0.005228,-0.001873,-88.445725,0.005298,
1430,190,-0.183890,-14.266341,0.999998,0.000194,-0.001202,0.005410,-0.000317,0.005425,-0.001217,-87.260081,0.005694,
1370,1790,-0.175281,-1.228769,0.999998,0.000176,-0.001307,0.005428,0.000075,0.005429,-0.001308,89.363426,0.005667,
600,760,2.664538,-9.381668,0.999996,0.000222,-0.003657,0.007341,0.000273,0.007348,-0.003664,88.579568,0.007348,
1320,1680,-0.147055,-1.793467,0.999998,0.000182,-0.001818,0.005477,-0.000271,0.005487,-0.001828,-87.872712,0.005588,
1620,450,-1.015728,-12.315827,0.999996,0.000244,-0.003553,0.007426,0.000321,0.007436,-0.003562,88.326684,0.007438,
1190,80,0.012533,-14.845585,0.999998,0.000179,-0.000250,0.004616,0.000105,0.004618,-0.000253,88.761365,0.005193,
720,40,0.099809,-14.995261,0.999998,0.000182,-0.000682,0.005932,0.002211,0.006603,-0.001353,73.118097,0.006976,
980,1220,1.204552,-5.568314,0.999995,0.000287,-0.005806,0.010005,0.000357,0.010013,-0.005814,88.707716,0.010056,
830,940,2.274234,-8.247677,0.999996,0.000239,-0.003430,0.008021,0.000825,0.008080,-0.003489,85.899521,0.008105,
850,1370,1.426422,-4.645739,0.999995,0.000263,-0.004733,0.008504,0.000075,0.008505,-0.004734,89.676545,0.008523,
910,1020,2.157320,-7.623972,0.999998,0.000186,-0.002655,0.008410,0.000152,0.008413,-0.002657,89.212846,0.008601,
1410,1130,-1.305694,-5.950939,0.999988,0.000419,-0.004682,0.010908,-0.003495,0.011655,-0.005430,-77.923359,0.011665,
1550,1620,-0.757709,-2.537679,0.999998,0.000182,-0.003270,0.007048,-0.000436,0.007066,-0.003288,-87.584486,0.007072,
650,1140,2.842577,-6.778676,0.999997,0.000221,-0.003379,0.006981,-0.000451,0.007001,-0.003398,-87.512142,0.007002,
770,460,1.300613,-12.067481,0.999997,0.000206,-0.003775,0.007587,-0.000213,0.007591,-0.003779,-88.926121,0.007591,
900,320,0.618122,-13.350963,0.999997,0.000206,-0.002605,0.006710,0.000058,0.006710,-0.002605,89.643463,0.006766,
1810,110,-0.586071,-14.475333,0.999997,0.000227,-0.002425,0.007694,-0.002094,0.008110,-0.002841,-78.759698,0.008231,
740,610,1.734238,-10.824967,0.999996,0.000235,-0.004136,0.007919,0.000029,0.007919,-0.004136,89.861822,0.007922,
1780,570,-1.870659,-11.008097,0.999997,0.000177,-0.003916,0.007701,-0.000009,0.007701,-0.003916,-89.953503,0.007701,
680,1770,1.225974,-1.938367,0.999997,0.000206,-0.003561,0.007547,-0.000271,0.007554,-0.003568,-88.602410,0.007558,
770,1310,1.954632,-5.328908,0.999997,0.000188,-0.004322,0.008219,-0.000548,0.008243,-0.004346,-87.504725,0.008247,
1640,460,-1.104898,-12.194444,0.999997,0.000225,-0.003665,0.007473,0.000302,0.007481,-0.003673,88.445439,0.007482,
580,1590,2.030410,-3.549482,0.999998,0.000181,-0.003642,0.007607,0.000013,0.007607,-0.003642,89.935904,0.007609,
1060,810,0.637908,-10.346585,0.999995,0.000274,-0.005642,0.008578,-0.002571,0.009029,-0.006092,-80.059531,0.009211,
980,210,0.275712,-14.123232,0.999998,0.000152,-0.001482,0.005693,0.000401,0.005715,-0.001504,86.813968,0.005925,
680,2010,0.158771,-0.163478,0.999999,0.000179,-0.000505,0.006375,-0.002688,0.007300,-0.001431,-70.998238,0.007737,
1680,940,-2.430999,-8.225312,0.999997,0.000213,-0.003399,0.007700,-0.000692,0.007743,-0.003442,-86.448120,0.007758,
1190,1440,0.075171,-2.993533,0.999999,0.000152,-0.001917,0.004459,0.000651,0.004525,-0.001983,84.231695,0.004536,
1420,670,-0.498247,-11.322809,0.999997,0.000228,-0.004134,0.007069,0.001994,0.007413,-0.004478,80.204292,0.007466,
940,720,1.064756,-10.452413,0.999997,0.000221,-0.005175,0.008795,-0.000746,0.008835,-0.005215,-86.954026,0.008883,
1230,400,0.002755,-13.228265,0.999998,0.000167,-0.001748,0.005286,-0.000027,0.005286,-0.001748,-89.779092,0.005386,
670,1520,1.843103,-3.871646,0.999997,0.000181,-0.003880,0.007693,0.000067,0.007694,-0.003881,89.666146,0.007694,
1760,1440,-1.895159,-4.417441,0.999998,0.000182,-0.004022,0.007827,0.000088,0.007828,-0.004022,89.572366,0.007829,
1340,1910,-0.065540,-0.591468,0.999998,0.000132,-0.000735,0.004969,0.000166,0.004973,-0.000740,88.331251,0.005367,
1320,1660,-0.153063,-1.904411,0.999998,0.000176,-0.001921,0.005478,-0.000365,0.005496,-0.001939,-87.183405,0.005575,
1510,1870,-0.275884,-0.871276,0.999998,0.000189,-0.001534,0.005749,0.000508,0.005784,-0.001569,86.029149,0.005982,
600,740,2.613104,-9.528474,0.999996,0.000220,-0.003685,0.007339,0.000251,0.007345,-0.003691,88.698164,0.007345,
1490,1820,-0.324105,-1.146395,0.999998,0.000174,-0.001747,0.005891,0.000282,0.005901,-0.001758,87.884887,0.006060,
900,300,0.584286,-13.483319,0.999998,0.000193,-0.002441,0.006597,0.000188,0.006600,-0.002445,88.808360,0.006674,
770,480,1.340135,-11.915507,0.999997,0.000206,-0.003828,0.007636,-0.000216,0.007640,-0.003832,-88.922712,0.007640,
1730,860,-2.431710,-8.816483,0.999997,0.000222,-0.003769,0.007680,-0.000802,0.007736,-0.003825,-86.010223,0.007736,
1890,1110,-3.142239,-7.049961,0.999998,0.000154,-0.003089,0.006296,0.000127,0.006298,-0.003090,89.225134,0.006298,
1270,1570,-0.073345,-2.355462,0.999998,0.000166,-0.001872,0.005224,-0.000225,0.005231,-0.001879,-88.187621,0.005300,
1430,170,-0.161785,-14.369932,0.999998,0.000210,-0.001068,0.005291,-0.000356,0.005311,-0.001088,-86.809552,0.005611,
1530,1620,-0.691305,-2.490667,0.999998,0.000200,-0.003164,0.006897,-0.000495,0.006922,-0.003188,-87.192306,0.006929,
1900,230,-1.469556,-13.253784,0.999997,0.000000,-0.003618,0.007196,-0.000167,0.007198,-0.003620,-89.114592,0.007198,
770,1290,2.010802,-5.491505,0.999998,0.000190,-0.004297,0.008235,-0.000648,0.008269,-0.004330,-87.049976,0.008272,
710,820,2.413437,-9.101161,0.999996,0.000243,-0.003895,0.007737,0.000777,0.007788,-0.003947,86.195883,0.007789,
760,1510,1.510065,-3.734524,0.999997,0.000237,-0.004010,0.007790,0.000174,0.007792,-0.004012,89.153831,0.007793,
670,1700,1.440947,-2.493260,0.999997,0.000214,-0.003689,0.007576,0.000010,0.007576,-0.003689,89.948468,0.007576,
1640,440,-1.070268,-12.342586,0.999997,0.000189,-0.003590,0.007426,0.000264,0.007432,-0.003596,88.629384,0.007434,
670,2010,0.164307,-0.163750,0.999998,0.000189,-0.000389,0.006433,-0.002828,0.007453,-0.001408,-70.170733,0.007919,
1410,1120,-1.368249,-6.066507,0.999989,0.000401,-0.004781,0.011560,-0.003855,0.012424,-0.005644,-77.371193,0.012441,
890,1020,2.211176,-7.623230,0.999996,0.000247,-0.002738,0.008230,0.000148,0.008232,-0.002740,89.228143,0.008384,
980,1440,0.711496,-3.650274,0.999997,0.000200,-0.004137,0.007503,0.001295,0.007645,-0.004280,83.726784,0.007663,
1050,80,0.054628,-14.834333,0.999999,0.000150,-0.000463,0.004815,0.000387,0.004843,-0.000491,85.831530,0.005331,
780,1330,1.854165,-5.143022,0.999998,0.000185,-0.004391,0.008279,-0.000425,0.008293,-0.004405,-88.079032,0.008298,
1490,580,-0.706717,-11.704922,0.999996,0.000234,-0.003827,0.007304,0.001117,0.007415,-0.003937,84.326953,0.007420,
600,720,2.561568,-9.675044,0.999996,0.000226,-0.003707,0.007420,0.000209,0.007424,-0.003711,88.922775,0.007424,
940,700,1.019569,-10.630920,0.999997,0.000204,-0.005028,0.008625,-0.000850,0.008678,-0.005081,-86.450185,0.008720,
1220,1580,0.020295,-2.288613,0.999998,0.000180,-0.001896,0.005182,0.000157,0.005185,-0.001899,88.730519,0.005247,
710,30,0.064301,-15.051290,0.999998,0.000000,-0.000628,0.005991,0.002359,0.006745,-0.001382,72.260237,0.007126,
1470,740,-0.829191,-10.514746,0.999996,0.000260,-0.005351,0.008766,0.001480,0.008919,-0.005504,84.079603,0.009000,
1880,1340,-2.611767,-5.447048,0.999996,0.000257,-0.003670,0.007380,0.000140,0.007382,-0.003672,89.272155,0.007382,
1160,210,0.066723,-14.209279,0.999998,0.000150,-0.000894,0.005075,0.000112,0.005077,-0.000896,88.929254,0.005420,
1510,1850,-0.314567,-0.991043,0.999998,0.000195,-0.001663,0.005853,0.000444,0.005879,-0.001689,86.627519,0.006054,
1020,1600,0.454182,-2.437037,0.999997,0.000209,-0.002724,0.006368,0.000693,0.006421,-0.002777,85.664949,0.006440,
690,490,1.668147,-11.644033,0.999997,0.000189,-0.003861,0.007701,-0.000142,0.007703,-0.003863,-89.295115,0.007703,
740,590,1.687256,-10.983757,0.999995,0.000287,-0.004077,0.007911,-0.000039,0.007911,-0.004077,-89.811929,0.007912,
690,1460,1.900834,-4.291651,0.999998,0.000145,-0.003945,0.007796,-0.000025,0.007796,-0.003945,-89.877228,0.007796,
1330,150,-0.062371,-14.506723,0.999999,0.000127,-0.000771,0.004938,-0.000176,0.004943,-0.000777,-88.232205,0.005317,
1880,1110,-3.111312,-7.039813,0.999997,0.000193,-0.003123,0.006397,0.000141,0.006400,-0.003125,89.150725,0.006400,
1070,1190,0.835416,-5.151672,0.999995,0.000260,-0.005247,0.008569,0.002711,0.009082,-0.005760,79.285018,0.009190,
730,470,1.473284,-11.894135,0.999997,0.000223,-0.003817,0.007648,-0.000168,0.007651,-0.003820,-89.158542,0.007651,
900,280,0.546124,-13.616385,0.999997,0.000202,-0.002284,0.006510,0.000299,0.006520,-0.002294,88.051877,0.006615,
1370,1770,-0.188828,-1.338200,0.999998,0.000183,-0.001425,0.005536,0.000050,0.005536,-0.001426,89.590988,0.005749,
1390,480,-0.331742,-12.629416,0.999997,0.000230,-0.002592,0.006054,0.000856,0.006138,-0.002676,84.397916,0.006154,
1460,1820,-0.277707,-1.122406,0.999998,0.000171,-0.001410,0.005760,0.000304,0.005773,-0.001423,87.572842,0.006015,
660,250,1.186490,-13.399710,0.999998,0.000225,-0.003490,0.007649,0.000496,0.007671,-0.003512,87.453300,0.007680,
1120,380,0.194606,-13.271444,0.999998,0.000186,-0.001931,0.005618,-0.000342,0.005633,-0.001946,-87.414522,0.005722,
1160,1970,0.019983,-0.298948,0.999998,0.000171,-0.000241,0.004646,-0.000156,0.004651,-0.000246,-88.176512,0.005235,
1030,80,0.064206,-14.830166,0.999999,0.000155,-0.000417,0.004881,0.000477,0.004924,-0.000460,84.891940,0.005439,
1820,310,-1.428677,-12.900249,0.999996,0.000244,-0.003651,0.007518,-0.000093,0.007519,-0.003652,-89.521468,0.007520,
1270,1550,-0.072194,-2.458028,0.999998,0.000172,-0.001895,0.005132,-0.000260,0.005142,-0.001905,-87.886671,0.005199,
1460,1750,-0.363976,-1.536609,0.999997,0.000206,-0.001853,0.005998,0.000040,0.005998,-0.001854,89.704998,0.006143,
1450,840,-1.033836,-9.699228,0.999996,0.000230,-0.005909,0.010020,0.001212,0.010112,-0.006001,85.672668,0.010171,
1270,820,-0.124372,-11.481416,0.999996,0.000238,-0.003142,0.002039,0.001189,0.002299,-0.003402,77.675489,0.003471,
580,1270,2.801517,-5.965210,0.999998,0.000225,-0.003733,0.007058,-0.000179,0.007061,-0.003736,-89.050555,0.007065,
1880,1740,-1.661699,-2.424181,0.999995,0.000258,-0.003635,0.007427,-0.000064,0.007427,-0.003635,-89.669031,0.007428,
1490,1800,-0.352846,-1.266123,0.999997,0.000211,-0.001888,0.005970,0.000216,0.005976,-0.001894,88.428927,0.006108,
980,1200,1.293604,-5.774752,0.999995,0.000280,-0.005684,0.010169,0.000079,0.010169,-0.005685,89.715686,0.010193,
1170,1450,0.116864,-2.978536,0.999998,0.000172,-0.002077,0.004744,0.000976,0.004881,-0.002214,82.015842,0.004887,
1900,240,-1.503666,-13.182999,0.999996,0.000000,-0.003624,0.007215,-0.000106,0.007216,-0.003625,-89.442128,0.007216,
1430,150,-0.137624,-14.478165,0.999998,0.000199,-0.000958,0.005269,-0.000389,0.005293,-0.000982,-86.441574,0.005631,
1650,1300,-1.792507,-5.331451,0.999996,0.000243,-0.004629,0.008551,0.000490,0.008569,-0.004647,87.872750,0.008579,
1450,740,-0.723274,-10.623159,0.999997,0.000246,-0.005258,0.008513,0.001823,0.008751,-0.005495,82.583689,0.008846,
930,680,1.029479,-10.766456,0.999997,0.000217,-0.004838,0.008427,-0.000813,0.008477,-0.004888,-86.506832,0.008510,
1240,1590,-0.015983,-2.235215,0.999999,0.000143,-0.001826,0.005168,-0.000124,0.005170,-0.001829,-88.987079,0.005244,
1810,90,-0.465042,-14.627678,0.999997,0.000215,-0.001967,0.007575,-0.002575,0.008225,-0.002617,-75.821827,0.008404,
770,1270,2.069934,-5.658418,0.999997,0.000219,-0.004269,0.008256,-0.000741,0.008300,-0.004313,-86.624511,0.008302,
1020,1560,0.482028,-2.697305,0.999997,0.000198,-0.003039,0.006492,0.000925,0.006581,-0.003128,84.505137,0.006584,
1720,620,-1.745278,-10.751372,0.999997,0.000204,-0.004173,0.007934,-0.000059,0.007934,-0.004173,-89.719150,0.007938,
600,1140,3.007427,-6.821468,0.999998,0.000175,-0.003234,0.006694,-0.000316,0.006704,-0.003244,-88.178472,0.006705,
700,2020,0.097104,-0.100202,0.999998,0.000000,-0.000669,0.006003,-0.002319,0.006730,-0.001396,-72.594853,0.007104,
1510,1830,-0.345965,-1.106970,0.999998,0.000179,-0.001842,0.005899,0.000340,0.005914,-0.001856,87.492721,0.006049,
940,680,0.981546,-10.802099,0.999997,0.000215,-0.004842,0.008383,-0.000917,0.008446,-0.004905,-86.054080,0.008483,
930,1520,0.820045,-3.210586,0.999996,0.000230,-0.003718,0.007375,0.000794,0.007432,-0.003775,85.928884,0.007432,
850,1350,1.474962,-4.817476,0.999995,0.000261,-0.004777,0.008568,-0.000032,0.008569,-0.004777,-89.864659,0.008587,
700,1390,2.031470,-4.817691,0.999996,0.000238,-0.004049,0.007833,-0.000261,0.007838,-0.004054,-88.742845,0.007840,
1740,850,-2.442973,-8.884023,0.999996,0.000239,-0.003772,0.007650,-0.000794,0.007705,-0.003827,-86.042501,0.007705,
1550,1610,-0.772135,-2.609274,0.999998,0.000190,-0.003309,0.007072,-0.000467,0.007093,-0.003330,-87.428022,0.007097,
1070,1170,0.959409,-5.341611,0.999994,0.000271,-0.004632,0.008479,0.003154,0.009198,-0.005351,77.154634,0.009239,
1530,1660,-0.643219,-2.219564,0.999997,0.000184,-0.002770,0.006701,-0.000275,0.006709,-0.002778,-88.341027,0.006742,
670,1460,1.978616,-4.336165,0.999997,0.000191,-0.003885,0.007747,-0.000049,0.007747,-0.003886,-89.760908,0.007747,
1850,150,-0.943820,-14.032262,0.999998,0.000151,-0.003660,0.007760,-0.000714,0.007805,-0.003705,-86.435981,0.007808,
1330,170,-0.072906,-14.406412,0.999998,0.000142,-0.000875,0.005022,-0.000127,0.005025,-0.000877,-88.761915,0.005368,
650,150,0.811089,-14.156222,0.999996,0.000238,-0.003034,0.007728,0.001386,0.007903,-0.003209,82.776874,0.007950,
1530,220,-0.373117,-14.024345,0.999997,0.000184,-0.001685,0.005969,-0.000488,0.006000,-0.001716,-86.370040,0.006180,
900,260,0.508665,-13.744093,0.999997,0.000196,-0.002176,0.006413,0.000379,0.006430,-0.002193,87.477381,0.006537,
1100,1910,0.081716,-0.596860,0.999998,0.000162,-0.000650,0.004979,-0.000250,0.004990,-0.000661,-87.463957,0.005421,
720,330,1.200601,-12.936895,0.999997,0.000207,-0.003583,0.007511,0.000040,0.007511,-0.003583,89.793695,0.007514,
1820,1110,-2.915079,-6.993319,0.999997,0.000214,-0.003308,0.006942,0.000426,0.006959,-0.003325,87.625167,0.006962,
1690,60,-0.153494,-14.891557,0.999998,0.000164,-0.000760,0.005683,-0.001672,0.006091,-0.001168,-76.285583,0.006465,
1460,1730,-0.385155,-1.658480,0.999998,0.000175,-0.001977,0.006131,-0.000022,0.006131,-0.001978,-89.842205,0.006259,
1120,400,0.200405,-13.160815,0.999998,0.000177,-0.001977,0.005538,-0.000404,0.005560,-0.001999,-86.928329,0.005632,
1840,290,-1.444439,-12.997743,0.999997,0.000225,-0.003642,0.007497,-0.000061,0.007497,-0.003643,-89.685064,0.007498,
1080,1970,0.047354,-0.306221,0.999998,0.000169,-0.000287,0.004787,-0.000335,0.004809,-0.000309,-86.238409,0.005383,
800,1330,1.765475,-5.103936,0.999996,0.000266,-0.004540,0.008369,-0.000376,0.008380,-0.004551,-88.331077,0.008390,
1270,800,-0.086925,-11.517462,0.999997,0.000204,-0.002437,0.002059,0.001589,0.002564,-0.002942,72.372098,0.003202,
1270,1530,-0.074081,-2.560153,0.999998,0.000154,-0.001920,0.005039,-0.000288,0.005051,-0.001932,-87.631163,0.005097,
1900,250,-1.536501,-13.109621,0.999995,0.000000,-0.003623,0.007226,-0.000069,0.007226,-0.003623,-89.635670,0.007226,
1470,310,-0.388503,-13.542886,0.999997,0.000212,-0.001955,0.006113,-0.000030,0.006113,-0.001955,-89.785389,0.006244,
1430,840,-0.914784,-9.847118,0.999995,0.000263,-0.005818,0.009661,0.001658,0.009837,-0.005993,83.952368,0.009915,
1390,520,-0.345649,-12.388214,0.999997,0.000181,-0.002666,0.005993,0.000992,0.006105,-0.002778,83.545965,0.006113,
910,680,1.127781,-10.695930,0.999997,0.000198,-0.004863,0.008495,-0.000617,0.008523,-0.004891,-87.359748,0.008554,
1520,80,-0.105957,-14.815302,0.999999,0.000140,-0.000550,0.005122,-0.000761,0.005222,-0.000650,-82.489806,0.005692,
690,470,1.627166,-11.797858,0.999997,0.000207,-0.003815,0.007629,-0.000144,0.007631,-0.003817,-89.278355,0.007631,
1220,1560,0.022726,-2.391065,0.999998,0.000181,-0.001895,0.005158,0.000171,0.005162,-0.001900,88.613168,0.005222,
600,1160,2.974485,-6.688481,0.999998,0.000158,-0.003248,0.006634,-0.000233,0.006639,-0.003253,-88.652327,0.006640,
700,30,0.070653,-15.052191,0.999998,0.000000,-0.000485,0.006099,0.002455,0.006913,-0.001300,71.646400,0.007348,
710,1840,0.893178,-1.340830,0.999997,0.000236,-0.003367,0.007419,-0.000696,0.007464,-0.003411,-86.325560,0.007473,
1860,90,-0.619493,-14.474785,0.999997,0.000211,-0.003460,0.008403,-0.001854,0.008686,-0.003743,-81.322598,0.008714,
1760,1490,-1.781001,-4.027917,0.999997,0.000213,-0.003967,0.007790,-0.000030,0.007790,-0.003967,-89.852975,0.007791,
850,1330,1.531408,-4.990376,0.999996,0.000231,-0.004854,0.008627,-0.000139,0.008629,-0.004855,-89.410846,0.008651,
1810,70,-0.326079,-14.783555,0.999997,0.000227,-0.001454,0.007434,-0.002821,0.008253,-0.002274,-73.796366,0.008526,
1550,1590,-0.796471,-2.751237,0.999998,0.000202,-0.003379,0.007110,-0.000517,0.007136,-0.003405,-87.185253,0.007138,
1170,1430,0.113872,-3.073724,0.999998,0.000168,-0.002087,0.004595,0.001109,0.004774,-0.002266,80.819802,0.004776,
1020,1540,0.496199,-2.829627,0.999996,0.000212,-0.003148,0.006541,0.001012,0.006645,-0.003253,84.100372,0.006646,
1720,600,-1.697520,-10.911193,0.999996,0.000221,-0.004142,0.007889,-0.000022,0.007889,-0.004142,-89.897375,0.007892,
1070,1120,1.291337,-5.790580,0.999989,0.000398,-0.003930,0.011309,0.005787,0.013258,-0.005878,71.392502,0.013286,
1870,1740,-1.625519,-2.396276,0.999996,0.000208,-0.003649,0.007467,-0.000055,0.007467,-0.003649,-89.719077,0.007468,
1070,890,0.996446,-9.736248,0.999993,0.000312,-0.004392,0.008591,-0.003413,0.009433,-0.005235,-76.134271,0.009452,
1170,1460,0.115512,-2.930873,0.999998,0.000181,-0.002069,0.004830,0.000916,0.004950,-0.002188,82.563250,0.004961,
1330,190,-0.083897,-14.304523,0.999998,0.000175,-0.000983,0.005085,-0.000093,0.005087,-0.000985,-89.122729,0.005396,
850,360,0.837802,-12.980783,0.999998,0.000180,-0.002964,0.007016,0.000028,0.007016,-0.002964,89.840691,0.007044,
980,1160,1.499226,-6.189215,0.999994,0.000274,-0.005126,0.010304,-0.000381,0.010314,-0.005135,-88.586673,0.010314,
1280,1370,-0.080245,-3.300124,0.999998,0.000161,-0.001903,0.003852,-0.001307,0.004135,-0.002186,-77.786774,0.004137,
1880,60,-0.468959,-14.686123,0.999994,0.000319,-0.002329,0.009302,-0.003333,0.010189,-0.003216,-75.092582,0.010417,
640,950,2.931945,-8.089743,0.999997,0.000241,-0.003290,0.006885,0.000347,0.006897,-0.003301,88.048217,0.006899,
1800,1110,-2.847396,-6.982203,0.999998,0.000198,-0.003365,0.007074,0.000484,0.007096,-0.003388,87.350028,0.007099,
1430,130,-0.116494,-14.580869,0.999998,0.000161,-0.000787,0.005106,-0.000394,0.005132,-0.000814,-86.191913,0.005516,
1690,50,-0.120024,-14.947037,0.999998,0.000139,-0.000577,0.005507,-0.001639,0.005920,-0.000990,-75.844970,0.006342,
940,660,0.947010,-10.969569,0.999997,0.000207,-0.004670,0.008187,-0.000955,0.008257,-0.004741,-85.773590,0.008287,
1850,590,-2.186567,-10.691585,0.999997,0.000206,-0.003828,0.007640,-0.000047,0.007640,-0.003828,-89.767351,0.007640,
900,240,0.468472,-13.874052,0.999997,0.000192,-0.002010,0.006342,0.000494,0.006371,-0.002039,86.623355,0.006507,
730,910,2.560712,-8.428493,0.999997,0.000215,-0.003529,0.007526,0.000689,0.007569,-0.003572,86.446304,0.007573,
1700,270,-0.903512,-13.469307,0.999997,0.000199,-0.003048,0.007268,-0.000485,0.007291,-0.003071,-87.316386,0.007321,
1370,1750,-0.202967,-1.448904,0.999997,0.000199,-0.001511,0.005550,-0.000040,0.005550,-0.001512,-89.671882,0.005738,
730,1760,1.074731,-1.897515,0.999996,0.000236,-0.003321,0.007470,-0.000320,0.007480,-0.003331,-88.302563,0.007495,
1060,1970,0.053234,-0.308223,0.999998,0.000158,-0.000425,0.004828,-0.000360,0.004852,-0.000450,-86.101099,0.005362,
1120,420,0.205708,-13.050171,0.999998,0.000196,-0.002022,0.005554,-0.000448,0.005580,-0.002048,-86.625628,0.005645,
690,2020,0.104921,-0.101022,0.999999,0.000000,-0.000357,0.006115,-0.002524,0.006983,-0.001225,-71.026083,0.007457,
1900,470,-2.103326,-11.493079,0.999997,0.000000,-0.003644,0.007582,0.000044,0.007582,-0.003645,89.777598,0.007584,
1270,1510,-0.073199,-2.660573,0.999998,0.000184,-0.001914,0.004965,-0.000352,0.004983,-0.001932,-87.074428,0.005025,
1470,330,-0.411139,-13.418305,0.999997,0.000203,-0.002069,0.006168,0.000045,0.006168,-0.002070,89.690302,0.006278,
1220,1590,0.022148,-2.235892,0.999998,0.000190,-0.001892,0.005186,0.000151,0.005189,-0.001895,88.777904,0.005251,
600,1180,2.941528,-6.556589,0.999997,0.000187,-0.003292,0.006775,-0.000259,0.006782,-0.003298,-88.526386,0.006782,
910,660,1.086371,-10.865293,0.999997,0.000193,-0.004700,0.008314,-0.000670,0.008348,-0.004734,-87.059427,0.008373,
770,1250,2.130861,-5.824695,0.999997,0.000229,-0.004188,0.008140,-0.000796,0.008191,-0.004239,-86.318838,0.008193,
1040,1330,0.562582,-4.221161,0.999996,0.000242,-0.004801,0.007765,0.002245,0.008154,-0.005190,80.169222,0.008254,
1090,1520,0.303718,-2.780077,0.999997,0.000195,-0.002646,0.005887,0.001130,0.006034,-0.002794,82.581451,0.006039,
850,1310,1.587754,-5.165037,0.999996,0.000234,-0.004873,0.008713,-0.000280,0.008719,-0.004879,-88.818663,0.008740,
690,450,1.583507,-11.948937,0.999996,0.000250,-0.003773,0.007608,-0.000134,0.007609,-0.003775,-89.325574,0.007610,
1220,1540,0.021614,-2.493640,0.999998,0.000188,-0.001892,0.005049,0.000182,0.005054,-0.001896,88.502583,0.005106,
1800,1980,-0.351211,-0.373958,0.999997,0.000209,-0.001207,0.007347,0.002948,0.008265,-0.002124,72.711395,0.008584,
1170,1440,0.115568,-3.027451,0.999998,0.000162,-0.002086,0.004673,0.001041,0.004830,-0.002243,81.442502,0.004834,
1060,1120,1.333372,-5.961676,0.999988,0.000381,-0.004552,0.011402,0.004746,0.012708,-0.005857,74.623751,0.012721,
1720,580,-1.652866,-11.069891,0.999996,0.000241,-0.004105,0.007863,0.000060,0.007864,-0.004105,89.711449,0.007866,
1890,1810,-1.484316,-1.942124,0.999997,0.000202,-0.003643,0.007248,0.000125,0.007250,-0.003644,89.342947,0.007250,
870,360,0.778079,-13.018896,0.999997,0.000176,-0.003058,0.006921,-0.000100,0.006922,-0.003059,-89.423141,0.006937,
1070,870,0.862859,-9.921156,0.999992,0.000326,-0.005120,0.008590,-0.002789,0.009136,-0.005665,-78.928269,0.009223,
1840,310,-1.501870,-12.846351,0.999997,0.000204,-0.003633,0.007498,-0.000001,0.007498,-0.003633,-89.996746,0.007499,
1390,540,-0.350908,-12.269210,0.999996,0.000211,-0.002724,0.006017,0.001086,0.006150,-0.002857,83.021632,0.006156,
1350,890,-0.873541,-10.430482,0.999924,0.001066,-0.001916,0.004700,0.003855,0.006471,-0.003687,65.317852,0.006492,
1250,820,-0.063086,-11.555597,0.999995,0.000290,-0.003414,0.001831,0.000522,0.001882,-0.003466,84.374515,0.003470,
1550,1570,-0.821385,-2.893223,0.999997,0.000209,-0.003442,0.007182,-0.000565,0.007212,-0.003472,-86.965736,0.007214,
1480,650,-0.736372,-11.214165,0.999996,0.000219,-0.004440,0.007729,0.001411,0.007890,-0.004601,83.473895,0.007926,
980,1140,1.605019,-6.400584,0.999995,0.000278,-0.004746,0.010354,-0.000488,0.010370,-0.004762,-88.150722,0.010382,
1370,1730,-0.213669,-1.561797,0.999997,0.000198,-0.001634,0.005658,-0.000085,0.005659,-0.001635,-89.334687,0.005824,
730,890,2.515617,-8.583050,0.999997,0.000222,-0.003646,0.007685,0.000840,0.007747,-0.003708,85.784005,0.007749,
1430,110,-0.093042,-14.683173,0.999998,0.000161,-0.000639,0.005049,-0.000453,0.005085,-0.000675,-85.472832,0.005523,
900,220,0.428651,-13.998464,0.999997,0.000190,-0.001872,0.006178,0.000568,0.006218,-0.001912,85.985537,0.006370,
1680,700,-1.773086,-10.188625,0.999997,0.000222,-0.004458,0.008241,-0.000288,0.008247,-0.004465,-88.703113,0.008257,
1620,430,-0.981928,-12.464611,0.999998,0.000165,-0.003481,0.007372,0.000290,0.007379,-0.003488,88.470313,0.007383,
690,30,0.072819,-15.056201,0.999998,0.000000,-0.000193,0.006183,0.002612,0.007116,-0.001126,70.334848,0.007650,
1690,40,-0.087207,-15.001122,0.999997,0.000192,-0.000417,0.005415,-0.001623,0.005836,-0.000839,-75.446916,0.006311,
1200,1970,0.012057,-0.297572,0.999998,0.000164,-0.000311,0.004598,-0.000061,0.004598,-0.000311,-89.283543,0.005139,
1120,860,0.594495,-10.660023,0.999993,0.000323,-0.002941,0.004500,-0.002696,0.005374,-0.003815,-72.035637,0.005529,
940,640,0.914592,-11.131873,0.999997,0.000188,-0.004502,0.007970,-0.000969,0.008045,-0.004576,-85.584715,0.008071,
1300,1370,-0.120622,-3.357368,0.999998,0.000185,-0.002125,0.004250,-0.001632,0.004643,-0.002519,-76.440880,0.004649,
1900,460,-2.080146,-11.569132,0.999997,0.000000,-0.003665,0.007542,0.000034,0.007543,-0.003665,89.824656,0.007544,
1800,470,-1.728116,-11.732773,0.999997,0.000204,-0.003810,0.007678,0.000116,0.007679,-0.003811,89.420884,0.007679,
770,1230,2.187241,-5.985850,0.999997,0.000209,-0.004102,0.008057,-0.000866,0.008119,-0.004163,-85.947175,0.008120,
1470,350,-0.431904,-13.296824,0.999997,0.000205,-0.002191,0.006129,0.000151,0.006131,-0.002194,88.961644,0.006213,
1520,320,-0.513946,-13.412160,0.999997,0.000211,-0.002396,0.006509,-0.000005,0.006509,-0.002396,-89.964728,0.006584,
1200,1590,0.057819,-2.246938,0.999998,0.000174,-0.001863,0.005245,0.000239,0.005253,-0.001871,88.074314,0.005325,
1270,1490,-0.071113,-2.758827,0.999998,0.000163,-0.001902,0.004848,-0.000405,0.004872,-0.001926,-86.580312,0.004908,
1150,1460,0.158460,-2.971934,0.999998,0.000192,-0.002205,0.005019,0.001038,0.005165,-0.002351,81.981911,0.005172,
850,1290,1.646432,-5.340062,0.999995,0.000252,-0.004865,0.008812,-0.000435,0.008826,-0.004879,-88.182228,0.008842,
1330,210,-0.094386,-14.202929,0.999998,0.000172,-0.001080,0.005136,-0.000039,0.005136,-0.001080,-89.638345,0.005415,
1220,1520,0.022931,-2.593948,0.999998,0.000172,-0.001896,0.004964,0.000213,0.004971,-0.001903,88.224491,0.005016,
1800,1960,-0.484775,-0.525985,0.999996,0.000231,-0.001793,0.007364,0.002512,0.008008,-0.002437,75.621820,0.008210,
690,430,1.540674,-12.104752,0.999996,0.000231,-0.003739,0.007595,-0.000120,0.007596,-0.003740,-89.391296,0.007596,
1800,1490,-1.936351,-4.118905,0.999998,0.000188,-0.003859,0.007695,-0.000016,0.007696,-0.003859,-89.921259,0.007696,
810,1670,1.012649,-2.399147,0.999997,0.000200,-0.003422,0.007369,0.000117,0.007370,-0.003423,89.379809,0.007377,
1020,1520,0.508544,-2.960826,0.999997,0.000202,-0.003225,0.006587,0.001085,0.006705,-0.003344,83.764366,0.006705,
1070,850,0.756448,-10.095757,0.999994,0.000288,-0.005435,0.008476,-0.002579,0.008939,-0.005898,-79.826828,0.009090,
1010,80,0.071285,-14.828415,0.999998,0.000186,-0.000357,0.004940,0.000565,0.004999,-0.000416,83.980516,0.005548,
1320,270,-0.108708,-13.894728,0.999998,0.000175,-0.001346,0.005277,0.000036,0.005277,-0.001347,89.684853,0.005484,
730,1780,1.019945,-1.746764,0.999997,0.000176,-0.003224,0.007455,-0.000448,0.007474,-0.003243,-87.599841,0.007496,
1330,760,-0.209551,-11.285296,0.999997,0.000229,-0.003261,0.004773,0.003011,0.005777,-0.004265,71.573375,0.005991,
900,210,0.407750,-14.059782,0.999998,0.000165,-0.001783,0.006155,0.000616,0.006203,-0.001831,85.590185,0.006374,
690,1840,0.962719,-1.386612,0.999997,0.000208,-0.003389,0.007529,-0.000713,0.007575,-0.003435,-86.280838,0.007586,
1170,1410,0.112073,-3.165264,0.999998,0.000187,-0.002076,0.004471,0.001237,0.004697,-0.002302,79.650005,0.004698,
570,70,0.614797,-14.577411,0.999767,0.002008,-0.004101,0.009815,0.003253,0.010538,-0.004824,77.472014,0.010550,
900,200,0.385436,-14.120910,0.999998,0.000179,-0.001688,0.006117,0.000665,0.006173,-0.001744,85.161481,0.006365,
680,2020,0.102392,-0.100137,0.999999,0.000000,-0.000079,0.006217,-0.002728,0.007235,-0.001096,-69.544140,0.007798,
980,1120,1.708953,-6.605018,0.999995,0.000268,-0.004308,0.010419,-0.000590,0.010443,-0.004332,-87.710362,0.010493,
1430,330,-0.331977,-13.464987,0.999997,0.000231,-0.002080,0.005944,0.000181,0.005948,-0.002084,88.705429,0.006036,
920,950,1.997705,-8.237001,0.999997,0.000233,-0.003433,0.008957,0.000991,0.009035,-0.003512,85.457131,0.009110,
730,870,2.465850,-8.737683,0.999997,0.000236,-0.003738,0.007666,0.000826,0.007725,-0.003797,85.879291,0.007725,
1370,1710,-0.226754,-1.675379,0.999998,0.000189,-0.001697,0.005623,-0.000153,0.005627,-0.001701,-88.801882,0.005771,
590,1770,1.550982,-2.181927,0.999996,0.000235,-0.003866,0.007343,-0.000003,0.007343,-0.003866,-89.983772,0.007346,
1900,450,-2.058456,-11.645684,0.999997,0.000000,-0.003667,0.007535,0.000033,0.007536,-0.003667,89.831441,0.007536,
910,1260,1.441768,-5.456791,0.999994,0.000311,-0.005291,0.009319,-0.000216,0.009322,-0.005294,-89.154674,0.009350,
1180,1970,0.016888,-0.297916,0.999998,0.000181,-0.000221,0.004606,-0.000112,0.004608,-0.000224,-88.665667,0.005197,
940,620,0.886083,-11.289812,0.999997,0.000203,-0.004347,0.007845,-0.000967,0.007921,-0.004423,-85.492803,0.007939,
810,760,1.820789,-9.738655,0.999996,0.000247,-0.004572,0.008517,0.000525,0.008538,-0.004593,87.705622,0.008546,
1470,370,-0.452048,-13.172161,0.999997,0.000202,-0.002357,0.006292,0.000258,0.006300,-0.002365,88.296026,0.006365,
1850,570,-2.138240,-10.845766,0.999997,0.000202,-0.003810,0.007630,-0.000012,0.007630,-0.003810,-89.940296,0.007630,
1190,1360,0.066228,-3.318918,0.999998,0.000191,-0.001794,0.003615,0.001163,0.003855,-0.002034,78.364833,0.003857,
1510,1290,-1.108451,-5.015434,0.999996,0.000225,-0.005486,0.009254,-0.000651,0.009282,-0.005515,-87.476438,0.009337,
1120,840,0.452931,-10.753318,0.999994,0.000299,-0.003727,0.005267,-0.003156,0.006263,-0.004724,-72.471155,0.006528,
1180,1590,0.095550,-2.257028,0.999999,0.000134,-0.001859,0.005300,0.000245,0.005309,-0.001867,88.039105,0.005386,
1070,830,0.652324,-10.262097,0.999995,0.000251,-0.005446,0.008399,-0.002646,0.008887,-0.005935,-79.540407,0.009052,
1740,1430,-1.838924,-4.452171,0.999998,0.000194,-0.004060,0.007881,0.000097,0.007881,-0.004061,89.534437,0.007883,
770,1210,2.246891,-6.148551,0.999997,0.000221,-0.003994,0.008096,-0.000933,0.008167,-0.004065,-85.612773,0.008167,
690,410,1.495631,-12.256795,0.999997,0.000201,-0.003717,0.007606,-0.000111,0.007607,-0.003718,-89.440754,0.007607,
1720,560,-1.609721,-11.227637,0.999996,0.000264,-0.004072,0.007805,0.000113,0.007806,-0.004073,89.457190,0.007809,
1080,1330,0.380957,-3.979584,0.999997,0.000223,-0.004154,0.006621,0.002656,0.007240,-0.004773,76.879108,0.007361,
600,1200,2.898476,-6.414855,0.999997,0.000184,-0.003369,0.007013,-0.000362,0.007025,-0.003382,-88.007071,0.007027,
1330,650,-0.194895,-11.828278,0.999997,0.000213,-0.002581,0.005070,0.001766,0.005458,-0.002969,77.608367,0.005465,
1220,1500,0.021755,-2.692230,0.999998,0.000163,-0.001887,0.004821,0.000227,0.004828,-0.001894,88.062394,0.004866,
1270,1470,-0.071555,-2.851734,0.999998,0.000151,-0.001901,0.004710,-0.000456,0.004741,-0.001932,-86.074550,0.004768,
1780,1490,-1.858848,-4.072600,0.999998,0.000171,-0.003916,0.007727,-0.000014,0.007727,-0.003916,-89.929149,0.007727,
1490,80,-0.085470,-14.824197,0.999999,0.000126,-0.000527,0.005033,-0.000640,0.005106,-0.000600,-83.522991,0.005582,
1020,1500,0.518568,-3.093825,0.999997,0.000206,-0.003317,0.006667,0.001148,0.006797,-0.003448,83.526559,0.006797,
850,1270,1.710189,-5.519266,0.999996,0.000223,-0.004805,0.008844,-0.000568,0.008867,-0.004828,-87.622668,0.008879,
1800,1940,-0.590075,-0.673751,0.999996,0.000225,-0.002354,0.007664,0.002132,0.008099,-0.002789,78.471481,0.008229,
1590,1510,-1.052774,-3.444984,0.999997,0.000207,-0.003958,0.007681,-0.000564,0.007708,-0.003985,-87.231444,0.007710,
570,80,0.671647,-14.469096,0.999775,0.001864,-0.004665,0.009943,0.002220,0.010273,-0.004995,81.546568,0.010275,
660,490,1.783568,-11.571057,0.999997,0.000229,-0.003816,0.007704,-0.000095,0.007705,-0.003817,-89.529634,0.007705,
1310,760,-0.148848,-11.412996,0.999997,0.000235,-0.002670,0.003941,0.002714,0.004913,-0.003641,70.305529,0.005100,
1340,270,-0.137216,-13.883549,0.999998,0.000140,-0.001427,0.005341,0.000053,0.005342,-0.001427,89.552557,0.005531,
980,1100,1.801756,-6.817953,0.999995,0.000260,-0.003889,0.010356,-0.000601,0.010381,-0.003914,-87.590041,0.010485,
840,290,0.728091,-13.454949,0.999997,0.000219,-0.002665,0.006942,0.000372,0.006956,-0.002679,87.787241,0.007017,
750,1780,0.957709,-1.709146,0.999998,0.000150,-0.003030,0.007367,-0.000514,0.007392,-0.003056,-87.174753,0.007429,
580,1770,1.586584,-2.211940,0.999996,0.000232,-0.004607,0.007390,0.000114,0.007391,-0.004608,89.455451,0.007466,
1450,460,-0.478136,-12.634285,0.999997,0.000194,-0.002871,0.006446,0.000755,0.006507,-0.002932,85.397743,0.006517,
680,30,0.074527,-15.051120,0.999998,0.000000,0.000038,0.006276,0.002775,0.007332,-0.001018,69.169256,0.007944,
1470,1840,-0.266421,-1.017098,0.999998,0.000164,-0.001342,0.005647,0.000384,0.005668,-0.001363,86.863646,0.005918,
1000,890,1.364590,-9.092959,0.999994,0.000328,-0.005462,0.010584,-0.000139,0.010585,-0.005463,-89.503643,0.010587,
900,180,0.342937,-14.243247,0.999997,0.000193,-0.001536,0.005971,0.000730,0.006041,-0.001606,84.498387,0.006258,
1550,1550,-0.845770,-3.036115,0.999998,0.000210,-0.003596,0.007261,-0.000644,0.007299,-0.003634,-86.617283,0.007299,
1900,440,-2.037021,-11.720174,0.999997,0.000000,-0.003657,0.007511,0.000024,0.007511,-0.003657,89.878783,0.007512,
1070,810,0.581918,-10.434108,0.999995,0.000275,-0.005424,0.008225,-0.002862,0.008801,-0.006000,-78.622465,0.008992,
1370,1220,-0.563945,-4.646320,0.999993,0.000369,-0.004970,0.007272,-0.003268,0.008089,-0.005788,-75.951306,0.008336,
1170,1390,0.108547,-3.253535,0.999998,0.000178,-0.002040,0.004267,0.001383,0.004557,-0.002331,78.157500,0.004557,
1100,1970,0.042432,-0.304762,0.999998,0.000151,-0.000295,0.004740,-0.000283,0.004756,-0.000311,-86.794985,0.005321,
790,760,1.909778,-9.701865,0.999997,0.000185,-0.004434,0.008352,0.000593,0.008379,-0.004462,87.350631,0.008385,
1210,1260,0.041788,-3.533971,0.999996,0.000250,-0.002222,0.001716,0.000906,0.001915,-0.002420,77.652162,0.002554,
940,600,0.862305,-11.445672,0.999996,0.000236,-0.004218,0.007713,-0.000959,0.007790,-0.004295,-85.432756,0.007804,
1120,820,0.366976,-10.863101,0.999995,0.000260,-0.004142,0.005450,-0.003296,0.006474,-0.005165,-72.752598,0.006846,
920,930,1.926755,-8.417415,0.999996,0.000252,-0.003843,0.009131,0.001073,0.009219,-0.003931,85.304450,0.009252,
870,1320,1.459626,-5.025665,0.999995,0.000269,-0.004978,0.008770,-0.000061,0.008770,-0.004978,-89.744204,0.008797,
1330,630,-0.194916,-11.932503,0.999997,0.000192,-0.002507,0.005131,0.001552,0.005434,-0.002810,78.944204,0.005435,
1720,540,-1.567299,-11.382113,0.999995,0.000267,-0.004009,0.007793,0.000146,0.007795,-0.004011,89.291163,0.007796,
1510,1250,-1.239373,-5.398366,0.999996,0.000244,-0.005626,0.009660,-0.000212,0.009663,-0.005629,-89.205193,0.009707,
1850,550,-2.093823,-10.998572,0.999997,0.000198,-0.003775,0.007634,0.000020,0.007634,-0.003775,89.899547,0.007634,
590,1510,2.169677,-4.136221,0.999997,0.000186,-0.003744,0.007607,-0.000019,0.007607,-0.003744,-89.902458,0.007607,
1760,1430,-1.919203,-4.496540,0.999998,0.000157,-0.004047,0.007855,0.000129,0.007856,-0.004049,89.379072,0.007857,
1270,1450,-0.069408,-2.946772,0.999998,0.000173,-0.001896,0.004561,-0.000547,0.004607,-0.001942,-85.189396,0.004626,
1470,810,-1.027259,-9.868656,0.999996,0.000236,-0.005817,0.009626,0.000897,0.009678,-0.005869,86.685518,0.009751,
1220,1480,0.021055,-2.787340,0.999998,0.000179,-0.001868,0.004695,0.000250,0.004704,-0.001877,87.818350,0.004736,
1800,1920,-0.702460,-0.831709,0.999997,0.000213,-0.002666,0.007618,0.001816,0.007929,-0.002977,80.276737,0.008011,
850,1250,1.775398,-5.697142,0.999997,0.000209,-0.004730,0.008826,-0.000710,0.008863,-0.004767,-87.010727,0.008872,
600,1640,1.844086,-3.124278,0.999997,0.000203,-0.003704,0.007502,0.000066,0.007503,-0.003704,89.664541,0.007503,
570,1770,1.634818,-2.245833,0.999748,0.001829,-0.005036,0.007467,0.000206,0.007470,-0.005039,89.058334,0.007620,
1510,80,-0.098982,-14.817742,0.999998,0.000142,-0.000582,0.005100,-0.000699,0.005184,-0.000667,-83.086326,0.005641,
1020,1480,0.529158,-3.225391,0.999997,0.000217,-0.003449,0.006774,0.001271,0.006930,-0.003605,83.016210,0.006932,
1640,1750,-0.806395,-1.795828,0.999998,0.000178,-0.002836,0.007021,0.000295,0.007029,-0.002844,88.284974,0.007072,
670,2020,0.101670,-0.098539,0.999998,0.000000,0.000029,0.006325,-0.002894,0.007454,-0.001099,-68.701611,0.008048,
1420,270,-0.253676,-13.828917,0.999997,0.000214,-0.001740,0.005651,-0.000012,0.005651,-0.001740,-89.908466,0.005789,
1070,790,0.523044,-10.598087,0.999995,0.000262,-0.005202,0.007865,-0.002846,0.008458,-0.005795,-78.232739,0.008649,
980,1080,1.878541,-7.016470,0.999996,0.000245,-0.003517,0.010169,-0.000502,0.010187,-0.003535,-87.901693,0.010345,
730,850,2.417297,-8.890357,0.999996,0.000235,-0.003823,0.007717,0.000821,0.007775,-0.003881,85.950212,0.007775,
770,1190,2.303487,-6.311197,0.999997,0.000224,-0.003880,0.007975,-0.000904,0.008043,-0.003949,-85.663295,0.008044,
1630,1560,-1.127949,-3.166623,0.999998,0.000166,-0.003786,0.007578,-0.000348,0.007588,-0.003796,-88.246398,0.007588,
1390,700,-0.394813,-11.269249,0.999995,0.000235,-0.003990,0.006648,0.002384,0.007158,-0.004500,77.926678,0.007236,
850,640,1.323669,-10.853437,0.999996,0.000224,-0.004539,0.008244,-0.000287,0.008250,-0.004546,-88.713716,0.008265,
730,540,1.618613,-11.352316,0.999995,0.000240,-0.003982,0.007806,-0.000107,0.007807,-0.003983,-89.480892,0.007807,
1900,430,-2.014242,-11.795634,0.999998,0.000000,-0.003636,0.007456,-0.000001,0.007456,-0.003636,-89.996372,0.007457,
1370,1200,-0.663697,-4.796490,0.999995,0.000311,-0.004436,0.007025,-0.003427,0.007972,-0.005383,-74.561246,0.008133,
1450,440,-0.464174,-12.763697,0.999997,0.000209,-0.002692,0.006359,0.000612,0.006400,-0.002733,86.149114,0.006423,
900,160,0.298166,-14.361107,0.999998,0.000182,-0.001348,0.005902,0.000817,0.005993,-0.001439,83.645688,0.006257,
1120,800,0.310186,-10.975495,0.999996,0.000254,-0.004015,0.005534,-0.003417,0.006630,-0.005112,-72.204787,0.006947,
940,580,0.836112,-11.599207,0.999997,0.000223,-0.004071,0.007578,-0.000960,0.007657,-0.004150,-85.321065,0.007666,
1450,1840,-0.241484,-1.004850,0.999998,0.000176,-0.001301,0.005528,0.000332,0.005544,-0.001317,87.221137,0.005793,
1210,1240,0.067642,-3.562898,0.999994,0.000312,-0.003050,0.001699,0.000696,0.001799,-0.003150,81.831995,0.003161,
1510,710,-0.974169,-10.595042,0.999998,0.000188,-0.005118,0.008683,0.001003,0.008756,-0.005190,85.866683,0.008806,
960,1070,1.968958,-7.150266,0.999997,0.000246,-0.003098,0.009653,-0.000550,0.009676,-0.003122,-87.533770,0.009877,
1400,1970,-0.051031,-0.307926,0.999998,0.000171,-0.000399,0.004821,0.000342,0.004843,-0.000422,86.272061,0.005365,
630,680,2.345250,-10.041557,0.999997,0.000212,-0.003804,0.007541,0.000259,0.007547,-0.003810,88.691253,0.007547,
1720,520,-1.525536,-11.540426,0.999995,0.000256,-0.003939,0.007783,0.000161,0.007786,-0.003941,89.212580,0.007786,
1600,1290,-1.582678,-5.310509,0.999995,0.000245,-0.004947,0.008891,0.000354,0.008900,-0.004956,88.537553,0.008920,
850,1230,1.843046,-5.874523,0.999996,0.000221,-0.004630,0.008814,-0.000830,0.008865,-0.004681,-86.480973,0.008869,
1270,1430,-0.066836,-3.032570,0.999998,0.000184,-0.001895,0.004373,-0.000632,0.004436,-0.001958,-84.301938,0.004447,
1330,610,-0.196479,-12.035362,0.999998,0.000177,-0.002411,0.005213,0.001336,0.005441,-0.002639,80.342659,0.005441,
1810,210,-1.066254,-13.693404,0.999997,0.000192,-0.003398,0.007706,-0.000745,0.007756,-0.003447,-86.180084,0.007772,
600,1620,1.889870,-3.275058,0.999997,0.000199,-0.003706,0.007521,0.000084,0.007521,-0.003707,89.572796,0.007521,
1550,1530,-0.870302,-3.182061,0.999997,0.000234,-0.003787,0.007399,-0.000704,0.007443,-0.003831,-86.413413,0.007444,
800,950,2.393092,-8.157115,0.999996,0.000250,-0.003309,0.007760,0.000720,0.007807,-0.003355,86.291981,0.007832,
670,30,0.071433,-15.049503,0.999998,0.000000,0.000074,0.006351,0.002927,0.007504,-0.001079,68.498125,0.008114,
1070,1270,0.510278,-4.484580,0.999995,0.000279,-0.005145,0.007772,0.002863,0.008378,-0.005751,78.048022,0.008570,
1220,1460,0.020643,-2.879171,0.999998,0.000158,-0.001840,0.004532,0.000273,0.004544,-0.001852,87.554843,0.004570,
580,1510,2.207340,-4.158978,0.999997,0.000193,-0.003625,0.007566,-0.000112,0.007567,-0.003626,-89.428052,0.007569,
950,1460,0.813333,-3.604206,0.999998,0.000174,-0.004107,0.007612,0.001044,0.007704,-0.004199,84.948599,0.007715,
1850,530,-2.049878,-11.150448,0.999997,0.000193,-0.003767,0.007630,0.000053,0.007630,-0.003767,89.731167,0.007631,
920,1770,0.513223,-1.515056,0.999997,0.000202,-0.002136,0.006472,-0.000264,0.006480,-0.002144,-88.246125,0.006603,
1150,80,0.021834,-14.844580,0.999998,0.000150,-0.000265,0.004632,0.000173,0.004638,-0.000271,87.981563,0.005206,
1370,1690,-0.235630,-1.787559,0.999998,0.000180,-0.001790,0.005685,-0.000208,0.005691,-0.001795,-88.407801,0.005819,
1720,1170,-2.455048,-6.488541,0.999996,0.000243,-0.003689,0.007763,0.000862,0.007827,-0.003754,85.719032,0.007829,
1440,270,-0.288962,-13.810649,0.999998,0.000203,-0.001700,0.005753,-0.000101,0.005754,-0.001702,-89.224765,0.005912,
690,390,1.452498,-12.408571,0.999997,0.000193,-0.003695,0.007582,-0.000082,0.007583,-0.003696,-89.581318,0.007584,
1750,1660,-1.378801,-2.693652,0.999997,0.000226,-0.003709,0.007619,-0.000093,0.007620,-0.003710,-89.530175,0.007621,
1670,1400,-1.613670,-4.534936,0.999996,0.000224,-0.004420,0.008196,0.000058,0.008196,-0.004421,89.737957,0.008204,
1500,610,-0.777315,-11.445318,0.999997,0.000201,-0.004216,0.007619,0.001172,0.007734,-0.004331,84.399654,0.007752,
1900,420,-1.991173,-11.871026,0.999998,0.000000,-0.003642,0.007364,0.000033,0.007364,-0.003642,89.829922,0.007364,
690,1020,2.816196,-7.613349,0.999998,0.000163,-0.003240,0.007190,0.000112,0.007192,-0.003241,89.387446,0.007203,
910,860,1.688191,-9.048848,0.999996,0.000223,-0.004843,0.009359,0.000872,0.009412,-0.004897,86.498758,0.009415,
1050,1780,0.247157,-1.312295,0.999997,0.000193,-0.001742,0.005681,-0.000006,0.005681,-0.001742,-89.953070,0.005821,
900,360,0.682466,-13.080625,0.999996,0.000219,-0.002908,0.006786,-0.000094,0.006786,-0.002909,-89.442991,0.006809,
1120,690,0.228354,-11.568468,0.999997,0.000221,-0.002949,0.005324,-0.002256,0.005899,-0.003524,-75.699411,0.005937,
850,620,1.282806,-11.015623,0.999996,0.000218,-0.004452,0.008049,-0.000370,0.008060,-0.004462,-88.305891,0.008076,
1010,1260,0.876396,-5.008815,0.999997,0.000216,-0.005802,0.009291,0.001473,0.009433,-0.005945,84.477549,0.009539,
1210,820,0.071325,-11.548871,0.999996,0.000240,-0.003358,0.001837,-0.000612,0.001908,-0.003429,-83.367644,0.003437,
850,1210,1.912740,-6.049531,0.999996,0.000241,-0.004469,0.008705,-0.000924,0.008770,-0.004533,-86.006731,0.008771,
1020,1460,0.539476,-3.363094,0.999997,0.000211,-0.003652,0.006904,0.001418,0.007091,-0.003839,82.478367,0.007099,
660,2020,0.101633,-0.099953,0.999997,0.000000,-0.000219,0.006384,-0.002909,0.007483,-0.001318,-69.305317,0.007989,
1270,1410,-0.065926,-3.117480,0.999998,0.000183,-0.001866,0.004188,-0.000713,0.004271,-0.001949,-83.374788,0.004277,
1330,590,-0.197122,-12.140273,0.999998,0.000186,-0.002335,0.005301,0.001167,0.005476,-0.002509,81.504264,0.005482,
730,560,1.662831,-11.196522,0.999996,0.000226,-0.004006,0.007795,-0.000103,0.007796,-0.004007,-89.498938,0.007797,
1510,690,-0.935741,-10.767612,0.999998,0.000186,-0.004943,0.008470,0.001059,0.008553,-0.005026,85.514662,0.008597,
800,50,0.099567,-14.955509,0.999998,0.000166,-0.000729,0.005394,0.001460,0.005724,-0.001059,77.250353,0.006091,
1850,510,-2.005381,-11.303832,0.999997,0.000201,-0.003779,0.007640,0.000075,0.007640,-0.003779,89.622776,0.007641,
1070,770,0.482789,-10.751254,0.999995,0.000255,-0.004944,0.007570,-0.002850,0.008189,-0.005563,-77.755307,0.008362,
640,1840,1.130277,-1.498121,0.999997,0.000227,-0.003515,0.007740,-0.000531,0.007765,-0.003540,-87.306664,0.007775,
1220,1440,0.020059,-2.968700,0.999998,0.000150,-0.001782,0.004307,0.000261,0.004318,-0.001793,87.552608,0.004339,
1470,1040,-1.922060,-7.426788,0.999995,0.000272,-0.003497,0.011156,0.000038,0.011157,-0.003497,89.851262,0.011412,
1550,1510,-0.899584,-3.336373,0.999997,0.000205,-0.003932,0.007548,-0.000742,0.007595,-0.003980,-86.316366,0.007598,
770,1170,2.352790,-6.469495,0.999997,0.000217,-0.003777,0.007901,-0.000908,0.007971,-0.003847,-85.580908,0.007972,
1130,760,0.218451,-11.262671,0.999997,0.000216,-0.003349,0.004927,-0.003047,0.005928,-0.004350,-71.815269,0.006140,
1600,450,-0.945167,-12.363338,0.999997,0.000223,-0.003509,0.007340,0.000365,0.007352,-0.003521,88.077454,0.007355,
840,1890,0.413537,-0.833968,0.999996,0.000218,-0.001624,0.006293,-0.001091,0.006441,-0.001771,-82.293927,0.006655,
1800,1900,-0.797372,-0.980760,0.999997,0.000202,-0.002899,0.007674,0.001529,0.007891,-0.003116,81.936073,0.007948,
870,1200,1.856544,-6.105746,0.999995,0.000256,-0.004511,0.008890,-0.000948,0.008956,-0.004578,-85.973663,0.008957,
610,680,2.421417,-9.998693,0.999997,0.000191,-0.003782,0.007544,0.000207,0.007548,-0.003786,88.955735,0.007548,
980,1060,1.935508,-7.218636,0.999996,0.000272,-0.003242,0.010549,-0.000295,0.010555,-0.003248,-88.775500,0.010812,
1380,160,-0.104931,-14.442884,0.999998,0.000165,-0.000701,0.005135,-0.000300,0.005151,-0.000717,-87.066726,0.005580,
1120,780,0.272430,-11.086422,0.999997,0.000216,-0.003873,0.005453,-0.003277,0.006489,-0.004910,-72.452072,0.006768,
1360,1650,-0.235556,-2.005109,0.999998,0.000178,-0.001969,0.005584,-0.000361,0.005601,-0.001986,-87.272912,0.005679,
810,1650,1.051075,-2.546018,0.999997,0.000225,-0.003476,0.007396,0.000152,0.007398,-0.003479,89.197559,0.007403,
1520,470,-0.700675,-12.407951,0.999997,0.000208,-0.003336,0.006989,0.000643,0.007029,-0.003376,86.451441,0.007031,
1040,1690,0.343224,-1.852614,0.999997,0.000191,-0.002244,0.006040,0.000301,0.006051,-0.002254,87.922537,0.006117,
1900,410,-1.967232,-11.944536,0.999998,0.000000,-0.003634,0.007260,0.000072,0.007260,-0.003635,89.623743,0.007260,
1680,660,-1.670216,-10.521594,0.999996,0.000224,-0.004383,0.008153,-0.000119,0.008154,-0.004385,-89.453983,0.008162,
690,370,1.405987,-12.558541,0.999996,0.000209,-0.003659,0.007579,-0.000020,0.007579,-0.003659,-89.899972,0.007581,
670,1020,2.883313,-7.612976,0.999998,0.000166,-0.003264,0.007060,0.000127,0.007061,-0.003266,89.295576,0.007068,
1580,1290,-1.483166,-5.258990,0.999995,0.000232,-0.005084,0.009007,0.000193,0.009010,-0.005087,89.216543,0.009035,
910,840,1.608304,-9.237004,0.999996,0.000238,-0.005036,0.009415,0.000681,0.009447,-0.005068,87.308418,0.009456,
1500,590,-0.754703,-11.597763,0.999996,0.000231,-0.004001,0.007458,0.001106,0.007564,-0.004106,84.536720,0.007573,
710,2020,0.087664,-0.097641,0.999998,0.000000,-0.000822,0.005927,-0.002198,0.006579,-0.001475,-73.461575,0.006905,
890,1590,0.873840,-2.802752,0.999997,0.000200,-0.003421,0.007231,0.000448,0.007250,-0.003440,87.598047,0.007253,
840,230,0.584829,-13.866561,0.999996,0.000237,-0.002205,0.006642,0.000712,0.006699,-0.002261,85.430102,0.006816,
1490,800,-1.106892,-9.859844,0.999996,0.000281,-0.005759,0.009636,0.000655,0.009663,-0.005787,87.568435,0.009726,
1650,1400,-1.524731,-4.488447,0.999996,0.000231,-0.004501,0.008279,-0.000029,0.008279,-0.004502,-89.869737,0.008290,
990,1260,0.993907,-5.121532,0.999994,0.000279,-0.005789,0.009483,0.001041,0.009554,-0.005859,86.117841,0.009635,
940,780,1.226225,-9.910217,0.999996,0.000225,-0.005543,0.009391,-0.000346,0.009399,-0.005551,-88.672998,0.009450,
1720,500,-1.484024,-11.696003,0.999995,0.000250,-0.003901,0.007712,0.000184,0.007715,-0.003904,89.090705,0.007716,
850,1630,0.949001,-2.601405,0.999998,0.000165,-0.003433,0.007303,0.000272,0.007310,-0.003440,88.549759,0.007314,
600,1600,1.932889,-3.426337,0.999997,0.000183,-0.003735,0.007587,0.000096,0.007588,-0.003736,89.513674,0.007588,
1510,670,-0.903191,-10.934636,0.999997,0.000206,-0.004772,0.008225,0.001099,0.008317,-0.004864,85.202672,0.008357,
1020,1440,0.552688,-3.504554,0.999996,0.000239,-0.003856,0.007015,0.001559,0.007234,-0.004075,81.995817,0.007253,
1270,1390,-0.063603,-3.198328,0.999998,0.000155,-0.001844,0.003967,-0.000872,0.004095,-0.001972,-81.645479,0.004096,
1700,330,-1.053758,-13.026551,0.999998,0.000162,-0.003283,0.007394,-0.000133,0.007396,-0.003285,-89.283862,0.007412,
1330,570,-0.199451,-12.244437,0.999998,0.000171,-0.002277,0.005340,0.001017,0.005473,-0.002410,82.524435,0.005486,
650,620,2.116737,-10.545720,0.999998,0.000197,-0.003878,0.007694,0.000117,0.007695,-0.003879,89.419164,0.007695,
1220,1420,0.019364,-3.051285,0.999999,0.000138,-0.001719,0.004119,0.000288,0.004133,-0.001733,87.184920,0.004151,
1850,490,-1.961892,-11.458134,0.999997,0.000196,-0.003788,0.007602,0.000077,0.007602,-0.003788,89.611730,0.007602,
1070,730,0.430192,-11.041384,0.999996,0.000229,-0.004405,0.007045,-0.002629,0.007620,-0.004980,-77.666275,0.007739,
1760,1420,-1.943874,-4.576104,0.999997,0.000195,-0.004056,0.007863,0.000160,0.007865,-0.004058,89.233210,0.007866,
1640,420,-1.035040,-12.491501,0.999998,0.000169,-0.003498,0.007379,0.000234,0.007384,-0.003503,88.768400,0.007387,
1040,1910,0.126052,-0.613817,0.999998,0.000170,-0.000914,0.005178,-0.000349,0.005198,-0.000934,-86.735873,0.005542,
820,1890,0.442847,-0.845379,0.999997,0.000179,-0.001735,0.006417,-0.001149,0.006576,-0.001894,-82.127867,0.006770,
1120,760,0.254353,-11.191994,0.999997,0.000229,-0.003641,0.005401,-0.003104,0.006364,-0.004604,-72.765834,0.006572,
690,350,1.357050,-12.713752,0.999997,0.000206,-0.003645,0.007559,0.000013,0.007559,-0.003645,89.932369,0.007561,
1740,1370,-1.989655,-4.930596,0.999997,0.000211,-0.004102,0.007927,0.000317,0.007935,-0.004111,88.493696,0.007937,
1350,880,-0.788683,-10.474513,0.999996,0.000227,-0.002191,0.004592,0.003401,0.006004,-0.003602,67.460732,0.006043,
1520,450,-0.677859,-12.548371,0.999997,0.000211,-0.003152,0.006905,0.000557,0.006935,-0.003183,86.841314,0.006943,
1110,760,0.289269,-11.121626,0.999996,0.000240,-0.003917,0.005839,-0.003097,0.006739,-0.004817,-73.795664,0.006944,
770,1150,2.406352,-6.628283,0.999997,0.000235,-0.003633,0.007863,-0.000889,0.007932,-0.003702,-85.606331,0.007937,
1040,1670,0.360912,-1.975310,0.999996,0.000217,-0.002308,0.006047,0.000394,0.006065,-0.002327,87.302742,0.006120,
1190,820,0.133841,-11.467230,0.999996,0.000253,-0.003137,0.002126,-0.001328,0.002442,-0.003453,-76.613108,0.003551,
1800,1860,-0.976955,-1.289644,0.999997,0.000204,-0.003237,0.007654,0.000967,0.007739,-0.003322,84.966182,0.007764,
1470,1740,-0.395290,-1.607483,0.999997,0.000186,-0.001971,0.006151,0.000025,0.006151,-0.001971,89.825985,0.006282,
1900,400,-1.947337,-12.015274,0.999998,0.000000,-0.003644,0.007230,0.000100,0.007231,-0.003645,89.472438,0.007231,
730,830,2.362133,-9.047898,0.999997,0.000232,-0.003901,0.007846,0.000842,0.007906,-0.003961,85.923295,0.007906,
1470,800,-0.991511,-9.966413,0.999996,0.000240,-0.005788,0.009521,0.001018,0.009588,-0.005855,86.211678,0.009666,
780,410,1.167034,-12.468702,0.999997,0.000193,-0.003548,0.007473,-0.000112,0.007474,-0.003549,-89.416944,0.007477,
560,1960,0.817607,-0.815787,0.999923,0.000000,-0.004328,0.009389,-0.001787,0.009618,-0.004557,-82.700068,0.009623,
1200,690,0.049585,-11.837388,0.999999,0.000140,-0.001699,0.003559,-0.000845,0.003691,-0.001832,-81.089080,0.003691,
890,860,1.783246,-9.005695,0.999997,0.000224,-0.004626,0.009112,0.000953,0.009177,-0.004692,86.049522,0.009178,
1550,1490,-0.925808,-3.490069,0.999997,0.000209,-0.004013,0.007661,-0.000764,0.007711,-0.004063,-86.272129,0.007715,
980,1040,1.959563,-7.438028,0.999996,0.000252,-0.003123,0.010401,-0.000089,0.010402,-0.003123,-89.622824,0.010675,
590,1020,3.137535,-7.608098,0.999998,0.000189,-0.003017,0.006475,0.000110,0.006476,-0.003018,89.338983,0.006481,
1360,1630,-0.240559,-2.116549,0.999998,0.000180,-0.002022,0.005646,-0.000422,0.005669,-0.002045,-86.857162,0.005742,
1720,480,-1.444051,-11.850446,0.999997,0.000223,-0.003856,0.007671,0.000205,0.007675,-0.003859,88.979752,0.007675,
850,1200,1.945910,-6.136049,0.999996,0.000275,-0.004378,0.008653,-0.000971,0.008725,-0.004449,-85.762359,0.008726,
1380,180,-0.121792,-14.340308,0.999998,0.000173,-0.000805,0.005189,-0.000270,0.005201,-0.000817,-87.421811,0.005594,
840,210,0.534993,-13.995952,0.999997,0.000213,-0.002039,0.006536,0.000852,0.006620,-0.002122,84.381354,0.006760,
810,1630,1.090539,-2.695654,0.999997,0.000208,-0.003523,0.007426,0.000185,0.007429,-0.003526,89.033981,0.007432,
1270,1370,-0.060887,-3.272400,0.999998,0.000157,-0.001793,0.003715,-0.001018,0.003897,-0.001975,-79.853546,0.003897,
850,1650,0.914017,-2.455472,0.999998,0.000148,-0.003280,0.007224,0.000189,0.007227,-0.003284,88.971300,0.007237,
590,480,2.025558,-11.480280,0.999997,0.000234,-0.003723,0.007599,-0.000038,0.007599,-0.003723,-89.805229,0.007600,
1020,1420,0.567503,-3.648092,0.999995,0.000258,-0.003997,0.007104,0.001667,0.007349,-0.004242,81.640177,0.007378,
1510,650,-0.870676,-11.098390,0.999997,0.000218,-0.004556,0.007950,0.001079,0.008042,-0.004648,85.105955,0.008075,
640,1800,1.272979,-1.806633,0.999996,0.000223,-0.003598,0.007639,-0.000305,0.007647,-0.003607,-88.445343,0.007651,
1680,640,-1.620220,-10.681461,0.999996,0.000204,-0.004352,0.008118,-0.000032,0.008118,-0.004352,-89.852249,0.008125,
940,60,0.064634,-14.919241,0.999998,0.000164,-0.000363,0.005031,0.000769,0.005139,-0.000471,82.041195,0.005682,
1220,1620,0.020242,-2.077082,0.999998,0.000179,-0.001807,0.005270,0.000136,0.005273,-0.001810,88.901208,0.005358,
1760,90,-0.370899,-14.667140,0.999996,0.000206,-0.002159,0.006564,-0.001893,0.006957,-0.002552,-78.269997,0.007039,
900,1640,0.770453,-2.423174,0.999998,0.000180,-0.003212,0.007029,0.000338,0.007040,-0.003223,88.114256,0.007048,
1330,550,-0.198385,-12.351342,0.999998,0.000160,-0.002219,0.005362,0.000885,0.005464,-0.002321,83.429340,0.005484,
1380,1310,-0.387340,-4.094389,0.999996,0.000229,-0.004379,0.006769,-0.002836,0.007449,-0.005059,-76.515267,0.007607,
1690,1240,-2.146870,-5.900861,0.999998,0.000149,-0.004157,0.008138,0.000832,0.008194,-0.004213,86.144694,0.008195,
610,1800,1.382017,-1.898043,0.999997,0.000214,-0.003634,0.007484,-0.000138,0.007486,-0.003636,-89.287702,0.007487,
690,330,1.308544,-12.863859,0.999997,0.000195,-0.003626,0.007529,0.000030,0.007529,-0.003626,89.846527,0.007531,
1120,740,0.238260,-11.300174,0.999996,0.000258,-0.003390,0.005338,-0.002911,0.006220,-0.004272,-73.148093,0.006363,
1510,740,-1.041348,-10.331075,0.999997,0.000199,-0.005334,0.008943,0.000822,0.008991,-0.005381,86.716873,0.009049,
1300,1250,-0.175891,-3.797164,0.999997,0.000208,-0.002962,0.003135,-0.002617,0.004104,-0.003932,-69.675406,0.004643,
1040,270,0.258358,-13.826265,0.999998,0.000168,-0.001747,0.005672,0.000024,0.005672,-0.001748,89.816608,0.005810,
570,1710,1.795903,-2.691307,0.999951,0.000822,-0.004385,0.007257,0.000238,0.007262,-0.004389,88.828618,0.007315,
1390,560,-0.354313,-12.149624,0.999997,0.000187,-0.002829,0.006029,0.001213,0.006192,-0.002992,82.342169,0.006193,
1800,1840,-1.054443,-1.445750,0.999997,0.000209,-0.003358,0.007689,0.000786,0.007745,-0.003414,85.948451,0.007763,
840,270,0.683221,-13.595269,0.999997,0.000197,-0.002508,0.006845,0.000488,0.006870,-0.002533,87.019125,0.006949,
590,470,2.003433,-11.556678,0.999997,0.000212,-0.003725,0.007573,-0.000053,0.007573,-0.003726,-89.733514,0.007574,
1030,2020,0.019732,-0.075515,0.999998,0.000000,-0.000147,0.004578,-0.000416,0.004614,-0.000183,-85.012803,0.005225,
970,540,0.681120,-11.982537,0.999998,0.000184,-0.003619,0.007068,-0.000984,0.007158,-0.003708,-84.783859,0.007160,
1710,260,-0.908363,-13.522800,0.999997,0.000216,-0.002969,0.007313,-0.000613,0.007350,-0.003005,-86.602586,0.007390,
1850,470,-1.917554,-11.611084,0.999997,0.000190,-0.003765,0.007619,0.000086,0.007620,-0.003766,89.568973,0.007620,
1640,400,-0.996300,-12.637583,0.999998,0.000156,-0.003405,0.007362,0.000174,0.007365,-0.003408,89.076653,0.007372,
770,1370,1.790385,-4.835530,0.999996,0.000227,-0.004342,0.008177,-0.000282,0.008184,-0.004349,-88.712433,0.008189,
1900,390,-1.924243,-12.087615,0.999999,0.000000,-0.003673,0.007276,0.000116,0.007277,-0.003674,89.394379,0.007277,
630,840,2.757056,-8.854790,0.999998,0.000177,-0.003525,0.007144,0.000501,0.007167,-0.003548,87.318818,0.007167,
1350,860,-0.614555,-10.560636,0.999991,0.000389,-0.003246,0.005107,0.003054,0.006104,-0.004244,71.912313,0.006257,
600,1580,1.977525,-3.579944,0.999998,0.000172,-0.003761,0.007623,0.000077,0.007623,-0.003762,89.611831,0.007624,
580,1020,3.168836,-7.608780,0.999998,0.000179,-0.002755,0.006366,0.000113,0.006368,-0.002756,89.292961,0.006387,
1010,1180,1.227877,-5.803532,0.999996,0.000234,-0.005717,0.010492,0.000568,0.010512,-0.005737,87.995970,0.010526,
1380,200,-0.137849,-14.235051,0.999998,0.000164,-0.000956,0.005266,-0.000245,0.005276,-0.000966,-87.752617,0.005618,
1720,460,-1.403067,-12.003458,0.999996,0.000216,-0.003791,0.007607,0.000196,0.007610,-0.003795,89.012889,0.007610,
1700,1750,-0.997422,-1.908935,0.999999,0.000156,-0.003219,0.007274,0.000247,0.007280,-0.003225,88.652431,0.007295,
1550,240,-0.445543,-13.885196,0.999997,0.000205,-0.001843,0.006295,-0.000528,0.006330,-0.001877,-86.302395,0.006502,
1550,1470,-0.952386,-3.642806,0.999997,0.000197,-0.004130,0.007746,-0.000765,0.007795,-0.004179,-86.329112,0.007802,
850,1670,0.883584,-2.312893,0.999998,0.000145,-0.003145,0.007104,0.000122,0.007105,-0.003146,89.318225,0.007121,
1760,70,-0.273078,-14.798078,0.999996,0.000242,-0.001605,0.006650,-0.002332,0.007263,-0.002219,-75.267832,0.007444,
1270,1350,-0.060326,-3.344307,0.999998,0.000180,-0.001760,0.003451,-0.001177,0.003704,-0.002013,-77.845799,0.003709,
1510,630,-0.845205,-11.254660,0.999996,0.000230,-0.004370,0.007793,0.001078,0.007888,-0.004465,84.975055,0.007911,
900,1650,0.756059,-2.352949,0.999998,0.000166,-0.003168,0.006978,0.000320,0.006988,-0.003178,88.196644,0.006998,
980,1020,1.966795,-7.635245,0.999997,0.000229,-0.003107,0.010250,0.000076,0.010251,-0.003108,89.675970,0.010512,
810,1610,1.124337,-2.844196,0.999997,0.000216,-0.003611,0.007459,0.000233,0.007464,-0.003615,88.792935,0.007465,
900,1680,0.707039,-2.141660,0.999997,0.000206,-0.003011,0.006852,0.000158,0.006854,-0.003013,89.085092,0.006871,
1450,1340,-0.680560,-4.287989,0.999997,0.000208,-0.004946,0.008087,-0.001827,0.008338,-0.005198,-82.167511,0.008422,
950,130,0.186212,-14.552853,0.999997,0.000201,-0.001019,0.005416,0.000647,0.005480,-0.001084,84.316646,0.005805,
1710,1240,-2.228523,-5.926288,0.999997,0.000208,-0.004044,0.007993,0.000821,0.008049,-0.004100,86.115281,0.008049,
1180,690,0.086477,-11.792974,0.999998,0.000163,-0.001947,0.003836,-0.001390,0.004152,-0.002264,-77.161478,0.004158,
910,1780,0.516932,-1.460593,0.999998,0.000171,-0.002115,0.006460,-0.000336,0.006473,-0.002128,-87.758420,0.006599,
1330,530,-0.198917,-12.455954,0.999998,0.000175,-0.002191,0.005449,0.000788,0.005530,-0.002271,84.173840,0.005559,
1020,1400,0.581062,-3.789420,0.999996,0.000252,-0.004154,0.007328,0.001722,0.007581,-0.004407,81.650053,0.007615,
690,550,1.798970,-11.179401,0.999997,0.000174,-0.003916,0.007728,-0.000053,0.007729,-0.003916,-89.738530,0.007729,
1220,500,0.021656,-12.703524,0.999998,0.000149,-0.001917,0.005102,-0.000157,0.005106,-0.001920,-88.722375,0.005158,
1120,720,0.231128,-11.409485,0.999997,0.000232,-0.003201,0.005345,-0.002668,0.006109,-0.003966,-74.007319,0.006199,
1040,2020,0.018993,-0.077956,0.999998,0.000000,-0.000203,0.004567,-0.000330,0.004589,-0.000226,-86.056086,0.005174,
1030,500,0.454876,-12.416875,0.999996,0.000225,-0.002969,0.006426,-0.000932,0.006518,-0.003061,-84.391495,0.006522,
1770,720,-2.205403,-9.857302,0.999998,0.000210,-0.004007,0.007762,-0.000470,0.007781,-0.004026,-87.716886,0.007782,
820,270,0.732302,-13.568467,0.999997,0.000232,-0.002633,0.006963,0.000499,0.006989,-0.002659,87.032113,0.007056,
1800,1820,-1.124515,-1.598489,0.999997,0.000223,-0.003448,0.007659,0.000599,0.007691,-0.003480,86.922065,0.007703,
1020,270,0.292261,-13.809167,0.999998,0.000165,-0.001704,0.005760,0.000112,0.005762,-0.001706,89.140092,0.005920,
600,1560,2.021709,-3.731064,0.999998,0.000169,-0.003771,0.007580,0.000063,0.007581,-0.003771,89.679602,0.007581,
590,460,1.981175,-11.632012,0.999997,0.000215,-0.003722,0.007554,-0.000054,0.007554,-0.003722,-89.725467,0.007555,
1300,1230,-0.235005,-3.857253,0.999995,0.000254,-0.003216,0.002969,-0.002177,0.003658,-0.003905,-72.429971,0.004374,
1260,1370,-0.044381,-3.260262,0.999998,0.000141,-0.001681,0.003584,-0.000732,0.003684,-0.001781,-82.231536,0.003685,
1420,1970,-0.061379,-0.311651,0.999998,0.000168,-0.000505,0.004868,0.000403,0.004898,-0.000535,85.737377,0.005374,
970,520,0.661355,-12.125638,0.999997,0.000208,-0.003487,0.007008,-0.000907,0.007086,-0.003565,-85.097283,0.007086,
690,360,1.381532,-12.636362,0.999997,0.000191,-0.003650,0.007563,0.000002,0.007563,-0.003650,89.991056,0.007564,
770,1130,2.448334,-6.784748,0.999997,0.000225,-0.003480,0.007700,-0.000722,0.007746,-0.003526,-86.317573,0.007756,
1380,220,-0.154733,-14.129373,0.999998,0.000159,-0.001073,0.005287,-0.000190,0.005293,-0.001078,-88.293244,0.005594,
630,820,2.710333,-8.996982,0.999997,0.000201,-0.003554,0.007141,0.000459,0.007161,-0.003573,87.546055,0.007161,
570,1020,3.198285,-7.608022,0.999965,0.000728,-0.002614,0.006249,0.000135,0.006251,-0.002616,89.125544,0.006279,
1900,380,-1.900214,-12.162026,0.999998,0.000000,-0.003725,0.007364,0.000083,0.007365,-0.003725,89.572120,0.007365,
1710,240,-0.846601,-13.671460,0.999997,0.000182,-0.002866,0.007334,-0.000787,0.007394,-0.002926,-85.613206,0.007447,
1850,450,-1.873813,-11.765491,0.999997,0.000184,-0.003728,0.007577,0.000092,0.007577,-0.003729,89.533425,0.007578,
1550,220,-0.406469,-14.009401,0.999998,0.000175,-0.001691,0.006093,-0.000587,0.006137,-0.001735,-85.708438,0.006327,
780,950,2.459141,-8.148616,0.999996,0.000225,-0.003329,0.007671,0.000700,0.007715,-0.003374,86.374487,0.007735,
1160,1710,0.109743,-1.622188,0.999999,0.000145,-0.001529,0.005372,0.000061,0.005372,-0.001529,89.491313,0.005536,
1010,1200,1.121019,-5.594098,0.999995,0.000262,-0.005893,0.010296,0.000919,0.010348,-0.005945,86.760497,0.010386,
1510,610,-0.820559,-11.409411,0.999997,0.000220,-0.004219,0.007704,0.001085,0.007802,-0.004317,84.842053,0.007816,
850,1690,0.848829,-2.173931,0.999998,0.000158,-0.003017,0.007008,0.000001,0.007008,-0.003017,89.997018,0.007031,
1000,1070,1.837837,-7.066515,0.999995,0.000262,-0.003906,0.011257,0.000012,0.011257,-0.003906,89.954322,0.011431,
730,1520,1.607378,-3.728201,0.999998,0.000190,-0.003975,0.007785,0.000130,0.007787,-0.003977,89.368162,0.007787,
1750,100,-0.392045,-14.616044,0.999996,0.000256,-0.002309,0.006596,-0.001722,0.006917,-0.002631,-79.428652,0.006983,
910,1190,1.708710,-6.118772,0.999996,0.000234,-0.004781,0.009344,-0.000892,0.009400,-0.004837,-86.399682,0.009402,
790,1780,0.833317,-1.637318,0.999998,0.000174,-0.003135,0.007201,-0.000378,0.007215,-0.003149,-87.907138,0.007235,
1160,690,0.126452,-11.733214,0.999998,0.000175,-0.002186,0.004268,-0.001739,0.004707,-0.002625,-75.838289,0.004718,
1590,1490,-1.086871,-3.600475,0.999996,0.000214,-0.004120,0.007810,-0.000584,0.007839,-0.004148,-87.204857,0.007843,
1270,1770,-0.052079,-1.293196,0.999998,0.000157,-0.001307,0.005247,-0.000009,0.005247,-0.001307,-89.917512,0.005463,
1720,440,-1.361347,-12.154901,0.999996,0.000228,-0.003735,0.007576,0.000171,0.007579,-0.003738,89.132837,0.007579,
1760,1400,-1.993953,-4.733425,0.999997,0.000222,-0.004059,0.007865,0.000222,0.007869,-0.004063,88.932222,0.007870,
1120,700,0.228901,-11.516494,0.999997,0.000216,-0.003021,0.005327,-0.002364,0.005950,-0.003644,-75.239022,0.006000,
710,80,0.310806,-14.736805,0.999997,0.000203,-0.001878,0.006410,0.001991,0.006864,-0.002331,77.168736,0.006980,
1790,1640,-1.570865,-2.944172,0.999995,0.000244,-0.003727,0.007611,-0.000149,0.007612,-0.003729,-89.248737,0.007613,
980,1000,1.944870,-7.842824,0.999996,0.000255,-0.003204,0.010507,0.000267,0.010512,-0.003209,88.884284,0.010774,
690,310,1.258911,-13.015553,0.999997,0.000202,-0.003608,0.007524,0.000121,0.007526,-0.003609,89.379213,0.007528,
1870,1940,-0.819316,-0.881847,0.999996,0.000216,-0.003526,0.008100,0.001282,0.008240,-0.003666,83.781504,0.008256,
720,1270,2.278203,-5.730944,0.999997,0.000222,-0.003956,0.007825,-0.000708,0.007867,-0.003999,-86.574060,0.007868,
1230,1370,0.001593,-3.233216,0.999998,0.000180,-0.001568,0.003441,0.000050,0.003441,-0.001568,89.428410,0.003446,
950,170,0.258128,-14.329688,0.999997,0.000201,-0.001396,0.005661,0.000580,0.005709,-0.001443,85.329370,0.005937,
750,740,2.026427,-9.797774,0.999997,0.000241,-0.004220,0.008077,0.000545,0.008101,-0.004244,87.469208,0.008104,
810,1590,1.162075,-2.992892,0.999997,0.000235,-0.003722,0.007530,0.000304,0.007539,-0.003730,88.454579,0.007539,
1800,1800,-1.193788,-1.753399,0.999997,0.000232,-0.003505,0.007639,0.000474,0.007659,-0.003525,87.568859,0.007668,
1330,510,-0.197291,-12.569039,0.999998,0.000166,-0.002181,0.005476,0.000684,0.005537,-0.002242,84.933439,0.005570,
1790,1880,-0.861250,-1.119214,0.999997,0.000209,-0.003129,0.007593,0.001243,0.007735,-0.003271,83.474093,0.007766,
1680,620,-1.575022,-10.848126,0.999997,0.000202,-0.004285,0.008057,0.000054,0.008058,-0.004285,89.750875,0.008063,
1520,390,-0.610235,-12.952551,0.999997,0.000193,-0.002759,0.006581,0.000293,0.006590,-0.002768,88.204615,0.006618,
1150,2020,0.006620,-0.070192,0.999999,0.000000,-0.000051,0.004481,-0.000116,0.004484,-0.000054,-88.540395,0.005146,
1030,480,0.442609,-12.544948,0.999997,0.000198,-0.002808,0.006361,-0.000787,0.006428,-0.002875,-85.131691,0.006440,
1640,380,-0.959127,-12.790495,0.999998,0.000164,-0.003311,0.007281,0.000042,0.007281,-0.003311,89.770226,0.007291,
730,810,2.305921,-9.206190,0.999998,0.000213,-0.003958,0.007855,0.000767,0.007905,-0.004008,86.299254,0.007905,
1440,1970,-0.072820,-0.314683,0.999998,0.000147,-0.000449,0.004930,0.000475,0.004972,-0.000490,84.993437,0.005480,
790,880,2.266021,-8.707101,0.999996,0.000244,-0.003843,0.008015,0.000934,0.008088,-0.003916,85.524246,0.008090,
800,270,0.790431,-13.536574,0.999997,0.000228,-0.003030,0.007077,0.000413,0.007094,-0.003047,87.663640,0.007118,
820,590,1.353706,-11.177134,0.999996,0.000213,-0.004268,0.008001,-0.000277,0.008007,-0.004274,-88.708399,0.008013,
840,530,1.160916,-11.704471,0.999997,0.000190,-0.003991,0.007725,-0.000399,0.007739,-0.004005,-88.054191,0.007740,
1750,1640,-1.422340,-2.846866,0.999998,0.000204,-0.003712,0.007586,-0.000110,0.007587,-0.003713,-89.441029,0.007587,
1510,590,-0.795822,-11.564555,0.999996,0.000210,-0.004067,0.007541,0.001049,0.007635,-0.004161,84.879606,0.007645,
1900,490,-2.145644,-11.340831,0.999997,0.000000,-0.003665,0.007568,0.000015,0.007568,-0.003665,89.922176,0.007569,
1500,870,-1.463825,-9.115536,0.999995,0.000292,-0.005346,0.010051,-0.000390,0.010061,-0.005356,-88.551335,0.010068,
1380,660,-0.345031,-11.571569,0.999997,0.000180,-0.003411,0.006167,0.002094,0.006605,-0.003849,78.190662,0.006635,
1020,1380,0.596999,-3.938528,0.999996,0.000265,-0.004395,0.007490,0.001801,0.007757,-0.004662,81.569262,0.007810,
1850,430,-1.829013,-11.914663,0.999998,0.000186,-0.003719,0.007520,0.000096,0.007521,-0.003720,89.512912,0.007521,
740,210,0.784657,-13.872275,0.999997,0.000179,-0.002732,0.007271,0.001044,0.007379,-0.002840,84.104386,0.007444,
860,180,0.417157,-14.210157,0.999997,0.000209,-0.001824,0.006207,0.000840,0.006294,-0.001911,84.095227,0.006454,
910,1170,1.788807,-6.304230,0.999996,0.000238,-0.004518,0.009272,-0.001008,0.009346,-0.004592,-85.839646,0.009346,
1350,340,-0.188790,-13.490276,0.999997,0.000209,-0.001722,0.005558,0.000240,0.005566,-0.001729,88.117623,0.005698,
770,1090,2.520009,-7.089733,0.999996,0.000233,-0.003233,0.007559,-0.000564,0.007588,-0.003263,-87.017211,0.007613,
970,1200,1.352342,-5.819500,0.999996,0.000283,-0.005593,0.010109,-0.000100,0.010110,-0.005594,-89.633619,0.010129,
690,100,0.447553,-14.590331,0.999995,0.000253,-0.002284,0.006864,0.001933,0.007256,-0.002675,78.547010,0.007339,
860,1330,1.482320,-4.964999,0.999997,0.000218,-0.004909,0.008670,-0.000067,0.008670,-0.004909,-89.715662,0.008695,
880,1650,0.818981,-2.396344,0.999997,0.000205,-0.003190,0.007063,0.000258,0.007069,-0.003196,88.557145,0.007080,
1630,920,-2.213452,-8.412842,0.999996,0.000237,-0.003597,0.008288,-0.001005,0.008372,-0.003681,-85.202484,0.008393,
620,390,1.712717,-12.234081,0.999996,0.000233,-0.003717,0.007545,-0.000088,0.007546,-0.003717,-89.551712,0.007546,
910,1520,0.896915,-3.269031,0.999997,0.000212,-0.003862,0.007500,0.000730,0.007547,-0.003909,86.340559,0.007549,
740,1270,2.196338,-5.705117,0.999997,0.000223,-0.004115,0.008002,-0.000735,0.008046,-0.004160,-86.543244,0.008048,
1120,680,0.228330,-11.622247,0.999997,0.000218,-0.002887,0.005335,-0.002144,0.005860,-0.003413,-76.227762,0.005887,
630,1080,2.983859,-7.204335,0.999998,0.000195,-0.003221,0.006678,-0.000118,0.006679,-0.003223,-89.315721,0.006681,
1270,1790,-0.046954,-1.187720,0.999998,0.000179,-0.001196,0.005182,-0.000026,0.005182,-0.001196,-89.767047,0.005427,
1590,1470,-1.120334,-3.761582,0.999997,0.000194,-0.004221,0.007907,-0.000552,0.007932,-0.004246,-87.399990,0.007939,
1660,1990,-0.146938,-0.247702,0.999997,0.000201,-0.000833,0.005620,0.001461,0.005935,-0.001148,77.821967,0.006296,
950,1610,0.650081,-2.522427,0.999996,0.000232,-0.003034,0.006801,0.000506,0.006827,-0.003059,87.062177,0.006839,
570,1470,2.335192,-4.487528,0.999961,0.000666,-0.003140,0.007957,0.000143,0.007959,-0.003142,89.264308,0.008018,
690,270,1.145148,-13.317821,0.999998,0.000196,-0.003570,0.007556,0.000340,0.007566,-0.003581,88.253494,0.007570,
1330,490,-0.193312,-12.678960,0.999998,0.000188,-0.002150,0.005492,0.000633,0.005544,-0.002202,85.296062,0.005583,
1150,1180,0.658036,-4.115117,0.999997,0.000000,-0.003020,0.002266,0.001286,0.002562,-0.003316,77.021835,0.003477,
1230,1410,0.002050,-3.085878,0.999998,0.000142,-0.001664,0.004005,0.000031,0.004005,-0.001664,89.688101,0.004024,
1770,1880,-0.797680,-1.078337,0.999998,0.000172,-0.003180,0.007411,0.001112,0.007526,-0.003296,84.072022,0.007545,
770,880,2.342072,-8.691549,0.999996,0.000246,-0.003798,0.007873,0.000892,0.007941,-0.003866,85.652933,0.007942,
1800,1780,-1.257041,-1.905097,0.999998,0.000205,-0.003540,0.007568,0.000329,0.007578,-0.003550,88.304367,0.007583,
1520,370,-0.585894,-13.082619,0.999997,0.000206,-0.002690,0.006463,0.000222,0.006468,-0.002695,88.613353,0.006498,
1320,670,-0.167338,-11.765582,0.999997,0.000196,-0.002461,0.004769,0.001831,0.005206,-0.002898,76.565597,0.005218,
980,980,1.894958,-8.051491,0.999996,0.000213,-0.003440,0.010202,0.000438,0.010216,-0.003454,88.164843,0.010393,
1760,1380,-2.044579,-4.890892,0.999998,0.000200,-0.004045,0.007874,0.000286,0.007881,-0.004052,88.625695,0.007882,
1750,1620,-1.463990,-2.998706,0.999997,0.000217,-0.003730,0.007590,-0.000126,0.007592,-0.003732,-89.362591,0.007592,
1090,760,0.375891,-10.973275,0.999996,0.000242,-0.004415,0.006671,-0.003010,0.007435,-0.005179,-75.749541,0.007624,
780,270,0.851825,-13.499309,0.999998,0.000152,-0.003108,0.007181,0.000442,0.007200,-0.003127,87.545896,0.007221,
810,1570,1.195971,-3.146932,0.999996,0.000219,-0.003835,0.007585,0.000312,0.007594,-0.003844,88.433866,0.007594,
750,720,1.970442,-9.959742,0.999998,0.000221,-0.004242,0.008084,0.000441,0.008099,-0.004258,87.951495,0.008103,
1000,870,1.258686,-9.302342,0.999994,0.000299,-0.005721,0.010435,-0.000411,0.010445,-0.005731,-88.545345,0.010462,
1580,490,-0.933927,-12.115792,0.999997,0.000216,-0.003680,0.007392,0.000530,0.007417,-0.003705,87.264339,0.007417,
590,520,2.113624,-11.174754,0.999998,0.000179,-0.003751,0.007603,-0.000032,0.007603,-0.003751,-89.836950,0.007603,
1850,410,-1.782870,-12.066784,0.999997,0.000188,-0.003726,0.007515,0.000117,0.007516,-0.003727,89.406248,0.007516,
860,160,0.369334,-14.330337,0.999997,0.000209,-0.001660,0.006169,0.000978,0.006289,-0.001780,82.982639,0.006484,
730,460,1.452458,-11.971159,0.999997,0.000228,-0.003792,0.007618,-0.000157,0.007620,-0.003795,-89.209667,0.007620,
1510,570,-0.770731,-11.715882,0.999997,0.000196,-0.003877,0.007418,0.000960,0.007499,-0.003958,85.174679,0.007503,
730,790,2.251258,-9.362538,0.999997,0.000242,-0.004017,0.007910,0.000711,0.007952,-0.004059,86.602055,0.007953,
1260,1350,-0.043361,-3.329119,0.999998,0.000170,-0.001638,0.003314,-0.000873,0.003463,-0.001788,-80.286164,0.003464,
600,1540,2.065371,-3.884732,0.999997,0.000188,-0.003776,0.007614,0.000051,0.007614,-0.003776,89.742784,0.007614,
1260,1650,-0.050028,-1.927804,0.999998,0.000180,-0.001749,0.005293,-0.000168,0.005297,-0.001753,-88.637899,0.005397,
720,1870,0.748921,-1.095020,0.999998,0.000155,-0.003008,0.007279,-0.001036,0.007382,-0.003111,-84.306199,0.007413,
1670,500,-1.290501,-11.816309,0.999996,0.000231,-0.003859,0.007669,0.000268,0.007675,-0.003865,88.669619,0.007675,
1680,600,-1.531085,-11.005727,0.999997,0.000203,-0.004223,0.007954,0.000099,0.007955,-0.004224,89.535719,0.007960,
1030,920,1.388176,-8.978015,0.999993,0.000322,-0.004971,0.011059,-0.001359,0.011174,-0.005085,-85.187768,0.011189,
1380,640,-0.338894,-11.697876,0.999997,0.000196,-0.003265,0.006086,0.001914,0.006463,-0.003641,78.869460,0.006480,
1140,1210,0.417883,-4.150655,0.999990,0.000416,-0.003270,0.003691,0.002216,0.004337,-0.003915,73.759208,0.004783,
1570,1240,-1.599200,-5.691644,0.999996,0.000253,-0.005051,0.009257,0.000541,0.009277,-0.005072,87.838693,0.009291,
620,370,1.664656,-12.386368,0.999997,0.000251,-0.003690,0.007532,-0.000079,0.007532,-0.003690,-89.597935,0.007533,
950,1590,0.672842,-2.657878,0.999997,0.000212,-0.003197,0.006930,0.000628,0.006969,-0.003236,86.466521,0.006975,
860,1810,0.576401,-1.331049,0.999996,0.000254,-0.002428,0.006629,-0.000543,0.006661,-0.002461,-86.583571,0.006737,
1150,880,0.708226,-10.995118,0.999997,0.000000,-0.003074,0.002269,-0.001463,0.002643,-0.003449,-75.649862,0.003608,
1240,1300,-0.012336,-3.436683,0.999998,0.000161,-0.001538,0.002201,-0.000324,0.002229,-0.001565,-85.089735,0.002289,
900,310,0.602286,-13.416883,0.999998,0.000199,-0.002516,0.006643,0.000120,0.006644,-0.002518,89.249753,0.006709,
1400,1710,-0.278303,-1.702349,0.999998,0.000174,-0.001981,0.005789,-0.000222,0.005795,-0.001987,-88.367394,0.005890,
1720,420,-1.320793,-12.307420,0.999996,0.000228,-0.003726,0.007602,0.000140,0.007604,-0.003728,89.294260,0.007604,
1900,370,-1.877435,-12.236008,0.999998,0.000000,-0.003762,0.007389,0.000052,0.007389,-0.003762,89.731299,0.007390,
1120,1220,0.428574,-4.331435,0.999996,0.000288,-0.003911,0.005364,0.003231,0.006379,-0.004926,72.565277,0.006686,
960,790,1.147596,-9.896831,0.999996,0.000238,-0.005634,0.009529,-0.000498,0.009546,-0.005651,-88.120925,0.009599,
1330,470,-0.191174,-12.787553,0.999998,0.000183,-0.002101,0.005518,0.000584,0.005562,-0.002145,85.645157,0.005611,
1860,1010,-3.091701,-7.677387,0.999998,0.000181,-0.003080,0.006555,-0.000178,0.006558,-0.003083,-88.940285,0.006562,
1270,1810,-0.045390,-1.083844,0.999998,0.000178,-0.001106,0.005148,0.000018,0.005149,-0.001106,89.832822,0.005421,
680,950,2.797984,-8.109628,0.999997,0.000216,-0.003378,0.007165,0.000490,0.007188,-0.003400,87.343353,0.007191,
1630,100,-0.231510,-14.679683,0.999997,0.000192,-0.000851,0.005759,-0.001312,0.006010,-0.001102,-79.169529,0.006399,
1680,90,-0.254320,-14.718528,0.999998,0.000159,-0.001205,0.005944,-0.001555,0.006267,-0.001529,-78.243815,0.006536,
860,140,0.309375,-14.457113,0.999998,0.000199,-0.001452,0.005964,0.001025,0.006103,-0.001591,82.274297,0.006332,
1400,1490,-0.382733,-3.027200,0.999996,0.000238,-0.003039,0.006199,-0.001311,0.006381,-0.003221,-82.077368,0.006381,
770,1070,2.540387,-7.240519,0.999996,0.000232,-0.003150,0.007490,-0.000311,0.007499,-0.003159,-88.326503,0.007530,
1170,1370,0.105717,-3.338118,0.999998,0.000181,-0.002037,0.004080,0.001521,0.004437,-0.002395,76.777209,0.004442,
1140,1250,0.247686,-3.988492,0.999996,0.000232,-0.003542,0.004337,0.003140,0.005435,-0.004640,70.720771,0.005871,
970,380,0.524358,-13.066040,0.999996,0.000220,-0.002739,0.006463,-0.000348,0.006476,-0.002752,-87.839189,0.006500,
1430,90,-0.071102,-14.782478,0.999998,0.000163,-0.000470,0.004893,-0.000419,0.004926,-0.000502,-85.558318,0.005421,
1570,780,-1.478448,-9.752179,0.999994,0.000288,-0.005164,0.009122,-0.000252,0.009126,-0.005168,-88.991308,0.009153,
590,510,2.091805,-11.250922,0.999997,0.000201,-0.003742,0.007612,-0.000035,0.007612,-0.003742,-89.823840,0.007613,
1470,790,-0.958486,-10.061583,0.999997,0.000235,-0.005738,0.009401,0.001123,0.009483,-0.005821,85.781121,0.009565,
950,1570,0.693536,-2.799774,0.999997,0.000201,-0.003372,0.006964,0.000742,0.007017,-0.003425,85.917550,0.007018,
1780,1370,-2.150968,-5.010296,0.999998,0.000185,-0.004019,0.007775,0.000342,0.007785,-0.004029,88.340072,0.007786,
690,250,1.081767,-13.468969,0.999998,0.000193,-0.003515,0.007583,0.000447,0.007601,-0.003533,87.696679,0.007608,
1900,350,-1.827081,-12.384266,0.999997,0.000000,-0.003752,0.007342,-0.000044,0.007342,-0.003752,-89.771676,0.007343,
1590,1180,-1.913477,-6.276854,0.999997,0.000226,-0.004308,0.008870,0.001040,0.008952,-0.004389,85.513905,0.008952,
650,1640,1.657888,-2.999388,0.999997,0.000227,-0.003746,0.007579,0.000094,0.007580,-0.003747,89.525243,0.007580,
1850,630,-2.281227,-10.385402,0.999996,0.000244,-0.003795,0.007667,-0.000096,0.007668,-0.003796,-89.521014,0.007668,
970,1460,0.731922,-3.536222,0.999996,0.000222,-0.004005,0.007445,0.001147,0.007559,-0.004119,84.336498,0.007569,
1720,400,-1.279662,-12.459723,0.999997,0.000212,-0.003666,0.007585,0.000103,0.007586,-0.003667,89.476647,0.007587,
900,290,0.565987,-13.549663,0.999998,0.000202,-0.002359,0.006564,0.000257,0.006571,-0.002366,88.351112,0.006656,
1760,1360,-2.094989,-5.049665,0.999998,0.000180,-0.004040,0.007828,0.000378,0.007840,-0.004052,88.179590,0.007842,
960,810,1.219126,-9.702288,0.999996,0.000254,-0.005690,0.009722,-0.000304,0.009728,-0.005696,-88.868908,0.009775,
1580,470,-0.904738,-12.264584,0.999996,0.000236,-0.003537,0.007314,0.000485,0.007336,-0.003558,87.445747,0.007337,
1320,650,-0.169685,-11.861472,0.999997,0.000221,-0.002389,0.004884,0.001597,0.005219,-0.002724,78.143411,0.005221,
600,1950,0.732626,-0.775387,0.999996,0.000240,-0.003499,0.008103,-0.001470,0.008286,-0.003682,-82.891996,0.008303,
1120,660,0.229869,-11.723826,0.999997,0.000182,-0.002785,0.005329,-0.001952,0.005775,-0.003231,-77.152181,0.005788,
1150,870,0.612978,-11.021982,0.999997,0.000000,-0.003175,0.002414,-0.001239,0.002676,-0.003438,-78.041562,0.003611,
1870,1420,-2.370599,-4.819630,0.999996,0.000257,-0.003779,0.007587,0.000107,0.007588,-0.003780,89.458789,0.007588,
1330,690,-0.192568,-11.622911,0.999997,0.000192,-0.002750,0.004961,0.002175,0.005532,-0.003321,75.286370,0.005569,
1430,1840,-0.213341,-0.992103,0.999997,0.000191,-0.001378,0.005436,0.000217,0.005442,-0.001385,88.176285,0.005657,
1070,710,0.412207,-11.184832,0.999996,0.000230,-0.004154,0.006818,-0.002461,0.007345,-0.004681,-77.918015,0.007437,
1800,510,-1.815506,-11.423877,0.999997,0.000179,-0.003845,0.007678,0.000102,0.007679,-0.003846,89.492752,0.007679,
810,1550,1.234899,-3.298780,0.999997,0.000202,-0.003884,0.007698,0.000314,0.007706,-0.003893,88.449219,0.007706,
1680,580,-1.486315,-11.166863,0.999997,0.000217,-0.004140,0.007914,0.000162,0.007916,-0.004142,89.231816,0.007919,
950,880,1.578036,-8.967720,0.999995,0.000250,-0.004992,0.009825,0.000692,0.009857,-0.005024,87.332015,0.009858,
1860,1030,-3.099241,-7.543991,0.999997,0.000210,-0.003096,0.006603,0.000045,0.006603,-0.003096,89.733037,0.006608,
1270,1830,-0.039245,-0.980456,0.999998,0.000174,-0.000999,0.005068,0.000020,0.005068,-0.000999,89.812567,0.005369,
1640,360,-0.917389,-12.931929,0.999998,0.000163,-0.003206,0.007168,-0.000070,0.007168,-0.003207,-89.610657,0.007181,
1020,1580,0.467663,-2.565620,0.999997,0.000220,-0.002893,0.006426,0.000821,0.006498,-0.002965,85.003301,0.006506,
1070,760,0.465945,-10.827060,0.999994,0.000287,-0.004807,0.007413,-0.002803,0.008025,-0.005420,-77.676873,0.008188,
1000,850,1.157294,-9.508768,0.999996,0.000268,-0.005820,0.010218,-0.000690,0.010247,-0.005850,-87.541174,0.010281,
1800,1760,-1.313915,-2.056518,0.999998,0.000181,-0.003567,0.007566,0.000220,0.007570,-0.003572,88.867227,0.007574,
710,460,1.529153,-11.922966,0.999996,0.000226,-0.003815,0.007615,-0.000154,0.007617,-0.003817,-89.226989,0.007617,
860,120,0.263832,-14.570245,0.999998,0.000181,-0.001229,0.005857,0.001110,0.006027,-0.001399,81.301154,0.006309,
890,80,0.129599,-14.806343,0.999998,0.000160,-0.000720,0.005316,0.000982,0.005472,-0.000876,80.984682,0.005878,
1130,340,0.159521,-13.505611,0.999998,0.000169,-0.001765,0.005477,-0.000230,0.005484,-0.001773,-88.183483,0.005597,
590,500,2.070217,-11.327016,0.999997,0.000190,-0.003733,0.007610,-0.000030,0.007610,-0.003733,-89.846049,0.007611,
690,230,1.015893,-13.621535,0.999998,0.000188,-0.003452,0.007523,0.000588,0.007555,-0.003484,86.939831,0.007562,
950,1550,0.716134,-2.942536,0.999997,0.000199,-0.003499,0.007069,0.000784,0.007127,-0.003556,85.781488,0.007127,
1590,1450,-1.153694,-3.918959,0.999997,0.000199,-0.004329,0.007931,-0.000506,0.007952,-0.004350,-87.641124,0.007963,
1610,620,-1.269418,-11.025127,0.999996,0.000257,-0.004461,0.008058,0.000404,0.008071,-0.004474,88.152625,0.008087,
1500,1730,-0.474414,-1.712290,0.999996,0.000217,-0.002460,0.006427,-0.000098,0.006428,-0.002461,-89.368702,0.006487,
1760,1370,-2.069732,-4.970097,0.999998,0.000184,-0.004037,0.007855,0.000333,0.007864,-0.004046,88.395294,0.007865,
1150,30,0.001826,-15.071950,0.999999,0.000000,-0.000073,0.004485,0.000161,0.004491,-0.000079,87.981657,0.005140,
1550,1450,-0.980199,-3.797199,0.999997,0.000215,-0.004283,0.007832,-0.000780,0.007882,-0.004334,-86.329814,0.007895,
1420,1490,-0.448581,-3.091325,0.999997,0.000213,-0.003261,0.006471,-0.001346,0.006654,-0.003443,-82.270651,0.006655,
1580,450,-0.876400,-12.409260,0.999997,0.000225,-0.003373,0.007209,0.000391,0.007223,-0.003387,87.885691,0.007228,
1720,380,-1.236240,-12.612379,0.999997,0.000217,-0.003591,0.007529,0.000022,0.007529,-0.003591,89.884481,0.007532,
1130,1840,0.099374,-0.945251,0.999998,0.000175,-0.001123,0.005142,-0.000049,0.005143,-0.001123,-89.549950,0.005408,
640,1780,1.338792,-1.961430,0.999996,0.000227,-0.003619,0.007544,-0.000212,0.007548,-0.003623,-88.910697,0.007550,
1140,1230,0.316447,-4.069412,0.999996,0.000243,-0.003568,0.004162,0.002961,0.005166,-0.004571,71.271801,0.005653,
1120,620,0.229405,-11.942825,0.999997,0.000207,-0.002700,0.005389,-0.001600,0.005694,-0.003005,-79.208319,0.005697,
1680,560,-1.448523,-11.324620,0.999996,0.000242,-0.004081,0.007857,0.000192,0.007860,-0.004084,89.079999,0.007862,
1420,1980,-0.053568,-0.262244,0.999998,0.000163,-0.000442,0.004849,0.000424,0.004883,-0.000476,85.443274,0.005384,
1900,340,-1.799244,-12.458727,0.999997,0.000000,-0.003719,0.007262,-0.000025,0.007262,-0.003719,-89.868664,0.007263,
1640,340,-0.875940,-13.077496,0.999997,0.000183,-0.003103,0.007183,-0.000125,0.007184,-0.003105,-89.303199,0.007206,
850,1440,1.274119,-4.061709,0.999996,0.000250,-0.004426,0.008038,0.000386,0.008049,-0.004438,88.226384,0.008064,
1570,1180,-1.826894,-6.244747,0.999996,0.000230,-0.004514,0.009105,0.001017,0.009181,-0.004590,85.750950,0.009181,
1730,1240,-2.308119,-5.949840,0.999997,0.000216,-0.004009,0.007885,0.000801,0.007939,-0.004063,86.166423,0.007939,
1330,450,-0.186556,-12.898751,0.999999,0.000147,-0.002082,0.005511,0.000516,0.005546,-0.002117,86.127306,0.005597,
980,810,1.104311,-9.800056,0.999996,0.000242,-0.005818,0.009744,-0.000673,0.009773,-0.005847,-87.527220,0.009836,
1280,320,-0.071441,-13.640931,0.999998,0.000181,-0.001411,0.005324,0.000033,0.005324,-0.001412,89.719950,0.005516,
1520,1110,-1.895479,-6.800680,0.999997,0.000212,-0.003699,0.009407,0.000963,0.009477,-0.003770,85.820102,0.009543,
590,1950,0.767735,-0.811695,0.999996,0.000222,-0.003532,0.008229,-0.001538,0.008427,-0.003730,-82.669828,0.008445,
1800,1740,-1.369046,-2.208949,0.999997,0.000212,-0.003616,0.007535,0.000111,0.007536,-0.003617,89.432257,0.007538,
1110,540,0.251288,-12.362804,0.999997,0.000217,-0.002487,0.005650,-0.001042,0.005781,-0.002619,-82.814813,0.005790,
1540,990,-2.091591,-7.884233,0.999998,0.000172,-0.002833,0.008815,-0.000603,0.008846,-0.002864,-87.043303,0.009028,
1470,770,-0.899171,-10.246643,0.999996,0.000266,-0.005616,0.009138,0.001274,0.009247,-0.005725,85.100159,0.009334,
1200,1910,0.018685,-0.581987,0.999998,0.000170,-0.000598,0.004836,-0.000047,0.004837,-0.000598,-89.504183,0.005274,
1850,390,-1.738781,-12.216520,0.999997,0.000183,-0.003728,0.007524,0.000107,0.007525,-0.003729,89.453319,0.007525,
1420,150,-0.128604,-14.481662,0.999997,0.000230,-0.000959,0.005223,-0.000341,0.005242,-0.000978,-86.852670,0.005575,
730,770,2.193189,-9.524462,0.999997,0.000242,-0.004103,0.008008,0.000668,0.008044,-0.004140,86.854489,0.008046,
770,1050,2.552025,-7.390692,0.999997,0.000218,-0.003127,0.007487,-0.000270,0.007494,-0.003134,-88.543436,0.007527,
1170,1350,0.102901,-3.414895,0.999998,0.000195,-0.002064,0.003929,0.001701,0.004378,-0.002513,75.208500,0.004394,
1000,270,0.327059,-13.789800,0.999997,0.000209,-0.001640,0.005869,0.000182,0.005874,-0.001644,88.609110,0.006060,
710,880,2.563970,-8.644221,0.999997,0.000235,-0.003656,0.007588,0.000796,0.007644,-0.003713,85.970530,0.007645,
970,440,0.588168,-12.671636,0.999997,0.000219,-0.002911,0.006652,-0.000553,0.006683,-0.002943,-86.703171,0.006699,
1630,1540,-1.162171,-3.318309,0.999997,0.000211,-0.003905,0.007647,-0.000393,0.007660,-0.003918,-88.054627,0.007661,
690,340,1.333007,-12.788523,0.999997,0.000201,-0.003633,0.007548,0.000012,0.007548,-0.003633,89.939048,0.007549,
1780,1050,-2.831952,-7.399087,0.999997,0.000196,-0.003243,0.007126,0.000233,0.007131,-0.003249,88.712265,0.007141,
690,620,1.960088,-10.634347,0.999997,0.000207,-0.003992,0.007793,0.000107,0.007794,-0.003993,89.480033,0.007795,
1800,490,-1.772452,-11.577627,0.999997,0.000206,-0.003834,0.007690,0.000108,0.007691,-0.003835,89.464507,0.007691,
760,1930,0.425922,-0.638491,0.999996,0.000240,-0.001593,0.006590,-0.001717,0.006935,-0.001939,-78.617223,0.007157,
860,100,0.204228,-14.692878,0.999998,0.000184,-0.001003,0.005599,0.001115,0.005783,-0.001186,80.665151,0.006108,
600,1520,2.108702,-4.036351,0.999998,0.000175,-0.003772,0.007614,0.000033,0.007614,-0.003772,89.833795,0.007614,
950,1530,0.737665,-3.086012,0.999997,0.000184,-0.003597,0.007157,0.000813,0.007218,-0.003658,85.703241,0.007218,
660,950,2.866258,-8.099925,0.999998,0.000189,-0.003312,0.007022,0.000411,0.007038,-0.003329,87.727078,0.007041,
860,1650,0.883260,-2.437581,0.999998,0.000150,-0.003235,0.007151,0.000190,0.007154,-0.003238,88.954708,0.007165,
1210,1320,0.031222,-3.407372,0.999998,0.000151,-0.001555,0.002724,0.000804,0.002870,-0.001701,79.708042,0.002886,
1510,550,-0.752228,-11.863568,0.999997,0.000193,-0.003704,0.007285,0.000903,0.007359,-0.003777,85.333609,0.007360,
710,240,0.979736,-13.592428,0.999997,0.000188,-0.003435,0.007524,0.000493,0.007546,-0.003457,87.429340,0.007555,
1140,2020,0.006975,-0.071155,0.999999,0.000000,-0.000111,0.004479,-0.000132,0.004483,-0.000115,-88.355208,0.005111,
810,1770,0.795805,-1.672391,0.999997,0.000185,-0.002908,0.007116,-0.000384,0.007131,-0.002923,-87.809931,0.007169,
940,1650,0.637438,-2.274240,0.999998,0.000198,-0.002819,0.006672,0.000319,0.006682,-0.002829,88.076130,0.006709,
1470,750,-0.849700,-10.427656,0.999995,0.000287,-0.005437,0.008869,0.001440,0.009013,-0.005581,84.309785,0.009098,
1330,410,-0.177837,-13.120994,0.999999,0.000152,-0.002014,0.005494,0.000439,0.005519,-0.002039,86.667802,0.005582,
1760,1340,-2.150778,-5.207283,0.999997,0.000180,-0.004042,0.007798,0.000459,0.007816,-0.004059,87.781262,0.007818,
1280,300,-0.067976,-13.745111,0.999998,0.000144,-0.001316,0.005271,0.000025,0.005271,-0.001316,89.781132,0.005487,
620,1270,2.658552,-5.884716,0.999996,0.000231,-0.003638,0.007349,-0.000412,0.007364,-0.003654,-87.853361,0.007364,
840,1430,1.338902,-4.171209,0.999996,0.000244,-0.004449,0.008146,0.000298,0.008153,-0.004456,88.646181,0.008165,
1450,780,-0.814763,-10.269125,0.999997,0.000220,-0.005648,0.009088,0.001641,0.009268,-0.005829,83.721993,0.009370,
1590,1430,-1.189093,-4.079211,0.999997,0.000190,-0.004468,0.008102,-0.000473,0.008119,-0.004486,-87.849127,0.008134,
1540,1110,-1.969562,-6.833645,0.999997,0.000236,-0.003535,0.009037,0.001024,0.009120,-0.003618,85.374618,0.009184,
1680,540,-1.405768,-11.480795,0.999996,0.000245,-0.004022,0.007821,0.000222,0.007826,-0.004026,88.927582,0.007827,
1420,1960,-0.069166,-0.359992,0.999998,0.000176,-0.000588,0.004904,0.000399,0.004932,-0.000617,85.871308,0.005375,
640,1760,1.397239,-2.112044,0.999997,0.000214,-0.003631,0.007544,-0.000122,0.007546,-0.003632,-89.377042,0.007547,
1020,860,1.085959,-9.543314,0.999995,0.000270,-0.005812,0.010262,-0.001044,0.010330,-0.005880,-86.298966,0.010363,
1380,620,-0.334254,-11.821238,0.999997,0.000216,-0.003152,0.006053,0.001719,0.006364,-0.003463,79.760208,0.006372,
880,210,0.448583,-14.039225,0.999998,0.000169,-0.002135,0.006249,0.000598,0.006291,-0.002178,85.940837,0.006390,
1550,1670,-0.685163,-2.186393,0.999997,0.000198,-0.002888,0.006810,-0.000194,0.006814,-0.002892,-88.852497,0.006840,
1580,1490,-1.045275,-3.572268,0.999996,0.000225,-0.004070,0.007784,-0.000625,0.007817,-0.004102,-86.991210,0.007820,
1550,800,-1.442168,-9.625339,0.999996,0.000261,-0.005296,0.009375,-0.000228,0.009378,-0.005300,-89.109406,0.009405,
1170,1330,0.101837,-3.488746,0.999997,0.000215,-0.002127,0.003679,0.001922,0.004258,-0.002706,73.251230,0.004309,
1110,520,0.248080,-12.476270,0.999997,0.000220,-0.002387,0.005627,-0.000870,0.005721,-0.002481,-83.873113,0.005738,
970,480,0.624441,-12.403032,0.999997,0.000223,-0.003129,0.006808,-0.000710,0.006858,-0.003180,-85.931897,0.006864,
1640,320,-0.837087,-13.221873,0.999998,0.000184,-0.002953,0.007062,-0.000172,0.007065,-0.002956,-89.018590,0.007096,
1720,800,-2.226966,-9.301572,0.999996,0.000229,-0.004100,0.007952,-0.000756,0.007999,-0.004147,-86.425148,0.008001,
1150,1840,0.077408,-0.936179,0.999998,0.000176,-0.001001,0.005112,-0.000067,0.005113,-0.001002,-89.375193,0.005419,
690,210,0.944832,-13.770527,0.999998,0.000182,-0.003369,0.007518,0.000781,0.007574,-0.003424,85.918268,0.007585,
1650,1180,-2.163189,-6.352823,0.999996,0.000249,-0.003980,0.008306,0.000994,0.008385,-0.004060,85.405067,0.008387,
1480,1430,-0.708935,-3.713638,0.999996,0.000241,-0.004215,0.007483,-0.001329,0.007632,-0.004364,-83.597470,0.007658,
1390,680,-0.385349,-11.400120,0.999995,0.000256,-0.003737,0.006518,0.002200,0.006970,-0.004189,78.388835,0.007017,
1850,350,-1.641033,-12.517088,0.999997,0.000211,-0.003635,0.007498,0.000094,0.007499,-0.003636,89.516145,0.007500,
1820,1050,-2.962465,-7.404447,0.999998,0.000191,-0.003238,0.006858,0.000212,0.006863,-0.003243,88.794852,0.006866,
1120,600,0.232062,-12.053100,0.999998,0.000197,-0.002625,0.005420,-0.001390,0.005653,-0.002859,-80.467859,0.005653,
1690,160,-0.528768,-14.260941,0.999997,0.000205,-0.002201,0.006799,-0.001321,0.006989,-0.002391,-81.820008,0.007104,
580,1950,0.803523,-0.848942,0.999996,0.000239,-0.003682,0.008463,-0.001604,0.008671,-0.003890,-82.603456,0.008686,
1000,810,0.986461,-9.908492,0.999994,0.000294,-0.005828,0.009588,-0.001100,0.009666,-0.005906,-85.940508,0.009745,
1780,510,-1.737772,-11.472565,0.999997,0.000207,-0.003849,0.007700,0.000115,0.007701,-0.003850,89.427175,0.007701,
1120,1230,0.394801,-4.280001,0.999996,0.000281,-0.004118,0.005410,0.003294,0.006438,-0.005146,72.667770,0.006811,
950,1510,0.757646,-3.228571,0.999997,0.000179,-0.003698,0.007285,0.000891,0.007357,-0.003769,85.392006,0.007358,
980,1180,1.396118,-5.982725,0.999995,0.000269,-0.005456,0.010213,-0.000191,0.010215,-0.005458,-89.302152,0.010223,
1720,1370,-1.905859,-4.889060,0.999998,0.000226,-0.004227,0.008003,0.000331,0.008012,-0.004236,88.451127,0.008016,
980,270,0.360964,-13.771104,0.999998,0.000173,-0.001896,0.005999,0.000172,0.006003,-0.001900,88.751288,0.006136,
1240,1280,-0.014504,-3.473861,0.999997,0.000195,-0.001736,0.001852,-0.000341,0.001884,-0.001768,-84.611228,0.002112,
630,620,2.194964,-10.501556,0.999998,0.000176,-0.003851,0.007671,0.000086,0.007672,-0.003851,89.569982,0.007672,
860,80,0.159587,-14.796829,0.999998,0.000169,-0.000776,0.005466,0.001200,0.005689,-0.000999,79.489229,0.006075,
1510,530,-0.731762,-12.004824,0.999996,0.000214,-0.003601,0.007143,0.000838,0.007208,-0.003666,85.565967,0.007208,
1340,1710,-0.173057,-1.648439,0.999998,0.000187,-0.001809,0.005495,-0.000253,0.005504,-0.001817,-88.015684,0.005609,
810,1980,0.172627,-0.302690,0.999997,0.000220,-0.000804,0.005707,-0.001466,0.006022,-0.001119,-77.881233,0.006406,
690,320,1.284162,-12.939901,0.999998,0.000178,-0.003621,0.007523,0.000071,0.007523,-0.003621,89.634031,0.007525,
810,1530,1.269322,-3.454391,0.999997,0.000176,-0.003938,0.007742,0.000320,0.007751,-0.003947,88.431083,0.007751,
1430,780,-0.703824,-10.400347,0.999996,0.000250,-0.005598,0.008768,0.002124,0.009076,-0.005906,81.764321,0.009212,
710,220,0.911886,-13.743266,0.999998,0.000189,-0.003365,0.007424,0.000649,0.007463,-0.003404,86.569093,0.007473,
1820,850,-2.735256,-8.800330,0.999996,0.000216,-0.003556,0.007185,-0.000565,0.007215,-0.003586,-86.999114,0.007215,
1330,390,-0.171457,-13.230359,0.999998,0.000155,-0.001956,0.005503,0.000382,0.005523,-0.001976,87.078606,0.005597,
1140,1180,0.685202,-4.237537,0.999998,0.000000,-0.002536,0.002803,0.001819,0.003364,-0.003097,72.860292,0.003740,
940,1630,0.658076,-2.407614,0.999997,0.000215,-0.002965,0.006790,0.000420,0.006808,-0.002983,87.537054,0.006826,
1720,820,-2.284533,-9.141895,0.999997,0.000228,-0.004041,0.007929,-0.000838,0.007987,-0.004099,-86.013013,0.007988,
680,450,1.621696,-11.926641,0.999996,0.000246,-0.003757,0.007595,-0.000122,0.007597,-0.003758,-89.384702,0.007597,
1680,520,-1.366886,-11.637898,0.999996,0.000210,-0.003934,0.007762,0.000263,0.007768,-0.003940,88.711375,0.007768,
1280,280,-0.061995,-13.852175,0.999999,0.000131,-0.001231,0.005268,0.000000,0.005268,-0.001231,-89.996681,0.005512,
1760,1320,-2.205801,-5.361781,0.999997,0.000226,-0.004045,0.007843,0.000522,0.007866,-0.004068,87.490121,0.007868,
1420,1940,-0.092854,-0.459964,0.999998,0.000188,-0.000705,0.005051,0.000404,0.005079,-0.000733,86.002285,0.005491,
1800,1720,-1.418793,-2.359947,0.999996,0.000239,-0.003658,0.007595,0.000012,0.007595,-0.003658,89.941363,0.007597,
1480,1410,-0.731179,-3.866871,0.999998,0.000174,-0.004431,0.007696,-0.001379,0.007851,-0.004586,-83.591624,0.007888,
1380,600,-0.333009,-11.942489,0.999997,0.000204,-0.002999,0.006006,0.001496,0.006248,-0.003241,80.807684,0.006250,
1110,560,0.252949,-12.249973,0.999997,0.000200,-0.002568,0.005615,-0.001197,0.005786,-0.002739,-81.847351,0.005789,
970,500,0.641145,-12.267085,0.999998,0.000211,-0.003305,0.006897,-0.000833,0.006964,-0.003372,-85.363704,0.006965,
1630,1180,-2.082364,-6.331044,0.999997,0.000199,-0.004057,0.008491,0.001029,0.008575,-0.004141,85.342550,0.008576,
790,120,0.355311,-14.534226,0.999996,0.000230,-0.001729,0.006300,0.001452,0.006555,-0.001983,80.058851,0.006723,
740,1510,1.589276,-3.782628,0.999997,0.000237,-0.003993,0.007797,0.000121,0.007798,-0.003994,89.411350,0.007799,
1620,1050,-2.332411,-7.382973,0.999996,0.000241,-0.002920,0.007844,0.000289,0.007852,-0.002928,88.463155,0.007936,
900,590,1.012857,-11.399656,0.999997,0.000202,-0.004214,0.007833,-0.000725,0.007876,-0.004257,-86.567273,0.007885,
670,620,2.038421,-10.590268,0.999997,0.000210,-0.003923,0.007739,0.000108,0.007740,-0.003924,89.470844,0.007740,
1020,790,0.803715,-10.223109,0.999996,0.000226,-0.005765,0.009097,-0.001764,0.009304,-0.005972,-83.321853,0.009428,
950,1490,0.778132,-3.374683,0.999997,0.000181,-0.003859,0.007432,0.000953,0.007512,-0.003939,85.210887,0.007515,
1590,720,-1.404284,-10.234818,0.999997,0.000215,-0.004939,0.008740,0.000056,0.008740,-0.004939,89.767335,0.008765,
1120,580,0.229147,-12.162558,0.999997,0.000197,-0.002514,0.005490,-0.001202,0.005667,-0.002691,-81.644925,0.005669,
810,1960,0.237182,-0.417866,0.999998,0.000192,-0.001096,0.005868,-0.001401,0.006139,-0.001367,-79.042911,0.006446,
980,460,0.576422,-12.559509,0.999996,0.000229,-0.002982,0.006657,-0.000642,0.006700,-0.003025,-86.203780,0.006710,
1510,1300,-1.081727,-4.925307,0.999995,0.000243,-0.005429,0.009146,-0.000736,0.009183,-0.005466,-87.117712,0.009239,
1030,930,1.449402,-8.861243,0.999994,0.000273,-0.004920,0.011183,-0.001426,0.011308,-0.005046,-84.979571,0.011330,
860,60,0.099215,-14.910796,0.999998,0.000163,-0.000530,0.005381,0.001187,0.005611,-0.000760,79.059061,0.006087,
1560,510,-0.888525,-12.019939,0.999997,0.000219,-0.003705,0.007377,0.000636,0.007414,-0.003741,86.724423,0.007414,
690,190,0.867319,-13.924317,0.999998,0.000182,-0.003287,0.007483,0.000951,0.007567,-0.003370,84.992984,0.007582,
1700,1370,-1.820817,-4.849445,0.999998,0.000193,-0.004316,0.008116,0.000292,0.008123,-0.004323,88.656196,0.008129,
1470,730,-0.808211,-10.603698,0.999996,0.000243,-0.005254,0.008636,0.001492,0.008794,-0.005412,83.935842,0.008872,
1470,1820,-0.292780,-1.129855,0.999998,0.000170,-0.001459,0.005799,0.000320,0.005813,-0.001473,87.481227,0.006045,
770,1030,2.564468,-7.541088,0.999997,0.000219,-0.003133,0.007512,-0.000050,0.007512,-0.003134,-89.732564,0.007547,
1240,1260,-0.014898,-3.506547,0.999997,0.000221,-0.002243,0.001575,-0.000372,0.001611,-0.002279,-84.490220,0.002343,
1620,1950,-0.235309,-0.465477,0.999997,0.000192,-0.000945,0.005818,0.001232,0.006035,-0.001163,79.990367,0.006404,
710,420,1.443747,-12.228035,0.999997,0.000214,-0.003708,0.007589,-0.000108,0.007590,-0.003709,-89.453034,0.007591,
1030,540,0.476965,-12.154344,0.999997,0.000193,-0.003195,0.006555,-0.001158,0.006690,-0.003331,-83.320633,0.006690,
1140,1170,0.780172,-4.265924,0.999997,0.000000,-0.002241,0.002565,0.002165,0.003397,-0.003072,68.991754,0.003749,
1680,500,-1.328499,-11.793722,0.999996,0.000208,-0.003850,0.007684,0.000250,0.007689,-0.003855,88.757404,0.007689,
1590,1680,-0.793228,-2.197450,0.999997,0.000185,-0.003129,0.006992,-0.000176,0.006995,-0.003132,-89.004841,0.007007,
1510,510,-0.710257,-12.148196,0.999997,0.000205,-0.003523,0.007084,0.000802,0.007144,-0.003584,85.698185,0.007144,
1640,300,-0.796588,-13.360821,0.999997,0.000185,-0.002799,0.007034,-0.000328,0.007045,-0.002810,-88.090328,0.007092,
1350,80,-0.035613,-14.840651,0.999998,0.000169,-0.000314,0.004701,-0.000234,0.004712,-0.000325,-87.338267,0.005264,
960,930,1.767599,-8.504044,0.999997,0.000234,-0.004134,0.009889,0.000874,0.009944,-0.004188,86.448839,0.009985,
810,1490,1.346029,-3.770182,0.999997,0.000217,-0.004105,0.007901,0.000283,0.007908,-0.004111,88.652349,0.007910,
1720,840,-2.340563,-8.981302,0.999997,0.000228,-0.003935,0.007893,-0.000868,0.007956,-0.003999,-85.825848,0.007956,
660,470,1.739745,-11.725143,0.999997,0.000215,-0.003788,0.007629,-0.000123,0.007631,-0.003789,-89.384299,0.007631,
1420,1920,-0.112530,-0.561453,0.999998,0.000162,-0.000826,0.005114,0.000361,0.005136,-0.000848,86.537977,0.005506,
1580,1750,-0.637582,-1.695022,0.999997,0.000203,-0.002755,0.006716,0.000139,0.006718,-0.002757,89.159403,0.006754,
1800,1700,-1.466881,-2.510721,0.999995,0.000246,-0.003706,0.007558,-0.000002,0.007558,-0.003706,-89.990281,0.007558,
1330,370,-0.165166,-13.342245,0.999998,0.000161,-0.001873,0.005600,0.000300,0.005612,-0.001885,87.702033,0.005712,
1630,780,-1.774169,-9.610054,0.999996,0.000259,-0.004707,0.008737,-0.000595,0.008764,-0.004733,-87.471816,0.008773,
1180,1910,0.031020,-0.584005,0.999998,0.000147,-0.000544,0.004845,-0.000097,0.004847,-0.000546,-88.969184,0.005310,
1100,150,0.084478,-14.496581,0.999998,0.000138,-0.000664,0.005028,0.000245,0.005039,-0.000674,87.539271,0.005471,
1280,260,-0.058942,-13.958406,0.999999,0.000135,-0.001131,0.005184,-0.000020,0.005184,-0.001131,-89.820544,0.005451,
730,750,2.138125,-9.684442,0.999997,0.000196,-0.004142,0.007976,0.000593,0.008005,-0.004171,87.205249,0.008007,
1610,1560,-1.052398,-3.116305,0.999998,0.000186,-0.003716,0.007493,-0.000437,0.007510,-0.003733,-87.772891,0.007510,
1760,1300,-2.261827,-5.520388,0.999996,0.000229,-0.004008,0.007874,0.000598,0.007904,-0.004038,87.127416,0.007905,
1600,1050,-2.275478,-7.377624,0.999998,0.000205,-0.002870,0.007951,0.000307,0.007959,-0.002879,88.378391,0.008060,
600,1500,2.154447,-4.189851,0.999997,0.000204,-0.003779,0.007628,0.000016,0.007628,-0.003779,89.920220,0.007628,
590,1450,2.308734,-4.596252,0.999997,0.000231,-0.003689,0.007665,-0.000030,0.007665,-0.003689,-89.850257,0.007666,
1450,400,-0.433817,-13.013611,0.999996,0.000223,-0.002374,0.006211,0.000360,0.006226,-0.002389,87.604463,0.006282,
1880,70,-0.542435,-14.600160,0.999996,0.000250,-0.002951,0.009215,-0.002614,0.009753,-0.003488,-78.373795,0.009884,
760,1210,2.286338,-6.159251,0.999996,0.000218,-0.003966,0.008027,-0.000913,0.008096,-0.004035,-85.671179,0.008096,
1060,270,0.225032,-13.844658,0.999998,0.000164,-0.001590,0.005587,0.000032,0.005588,-0.001590,89.747489,0.005758,
950,1470,0.799795,-3.528978,0.999997,0.000182,-0.004033,0.007557,0.001034,0.007648,-0.004125,84.942585,0.007656,
1880,380,-1.825922,-12.214239,0.999998,0.000199,-0.003729,0.007401,0.000072,0.007402,-0.003729,89.629652,0.007402,
1110,680,0.255481,-11.577553,0.999995,0.000271,-0.003106,0.005582,-0.002204,0.006110,-0.003633,-76.547446,0.006146,
900,1770,0.556561,-1.537953,0.999997,0.000183,-0.002351,0.006557,-0.000289,0.006567,-0.002361,-88.141859,0.006652,
1120,560,0.226269,-12.275339,0.999997,0.000189,-0.002421,0.005511,-0.001065,0.005651,-0.002561,-82.481832,0.005660,
1060,1390,0.426539,-3.682049,0.999996,0.000238,-0.003802,0.006719,0.002043,0.007102,-0.004185,79.386478,0.007139,
1070,1840,0.163457,-0.969253,0.999998,0.000175,-0.001167,0.005312,-0.000177,0.005317,-0.001171,-88.437660,0.005587,
860,1270,1.662081,-5.497193,0.999996,0.000212,-0.004892,0.008921,-0.000505,0.008940,-0.004910,-87.910440,0.008954,
1830,40,-0.171052,-14.957572,0.999998,0.000186,-0.002475,0.006734,-0.002409,0.007326,-0.003067,-76.190693,0.007359,
1340,830,-0.403188,-10.845962,0.999994,0.000324,-0.003970,0.005169,0.003222,0.006191,-0.004991,72.406226,0.006567,
1050,400,0.347290,-13.070452,0.999998,0.000192,-0.002391,0.005971,-0.000491,0.006000,-0.002420,-86.652416,0.006037,
850,1990,0.116089,-0.239695,0.999998,0.000163,-0.000503,0.005489,-0.001258,0.005742,-0.000757,-78.606854,0.006240,
1380,580,-0.330242,-12.059173,0.999997,0.000192,-0.002845,0.005964,0.001328,0.006159,-0.003041,81.613696,0.006160,
1140,880,0.731757,-10.870709,0.999997,0.000000,-0.002324,0.002642,-0.002097,0.003409,-0.003091,-69.905338,0.003766,
970,1400,0.801319,-3.997540,0.999996,0.000217,-0.004552,0.007892,0.001268,0.008020,-0.004680,84.241148,0.008057,
1690,820,-2.160309,-9.178010,0.999997,0.000234,-0.004107,0.008120,-0.000860,0.008180,-0.004167,-85.995998,0.008180,
710,400,1.400927,-12.380348,0.999997,0.000224,-0.003678,0.007610,-0.000086,0.007611,-0.003679,-89.563258,0.007612,
690,170,0.786894,-14.070399,0.999997,0.000202,-0.003117,0.007446,0.001186,0.007578,-0.003249,83.670791,0.007603,
1680,480,-1.291367,-11.945412,0.999997,0.000194,-0.003775,0.007612,0.000252,0.007618,-0.003781,88.731136,0.007618,
1720,860,-2.394553,-8.825537,0.999996,0.000243,-0.003820,0.007745,-0.000825,0.007804,-0.003879,-85.940746,0.007804,
1640,520,-1.210740,-11.735334,0.999997,0.000173,-0.003949,0.007692,0.000368,0.007703,-0.003961,88.192864,0.007704,
810,580,1.376707,-11.231647,0.999996,0.000208,-0.004190,0.007934,-0.000258,0.007939,-0.004195,-88.783747,0.007944,
1620,1930,-0.296305,-0.587469,0.999996,0.000222,-0.001204,0.005966,0.001191,0.006158,-0.001397,80.808866,0.006457,
1030,970,1.654862,-8.369189,0.999991,0.000374,-0.005150,0.013143,-0.001682,0.013296,-0.005303,-84.788963,0.013387,
720,1530,1.626462,-3.674569,0.999998,0.000216,-0.003944,0.007742,0.000133,0.007744,-0.003946,89.350468,0.007744,
990,530,0.600183,-12.113152,0.999997,0.000215,-0.003379,0.006853,-0.000955,0.006941,-0.003468,-84.714754,0.006941,
1480,210,-0.269992,-14.126264,0.999997,0.000212,-0.001436,0.005690,-0.000413,0.005714,-0.001460,-86.697622,0.005937,
1800,1680,-1.516994,-2.664210,0.999996,0.000215,-0.003701,0.007569,-0.000027,0.007569,-0.003701,-89.860249,0.007569,
1850,330,-1.590030,-12.669597,0.999997,0.000214,-0.003632,0.007472,0.000094,0.007473,-0.003633,89.513161,0.007474,
1330,350,-0.155480,-13.454064,0.999998,0.000186,-0.001802,0.005490,0.000257,0.005499,-0.001811,87.981298,0.005605,
1630,760,-1.712194,-9.786828,0.999995,0.000288,-0.004763,0.008681,-0.000444,0.008696,-0.004777,-88.108828,0.008710,
1420,1900,-0.136129,-0.665328,0.999998,0.000167,-0.000955,0.005215,0.000355,0.005235,-0.000975,86.714482,0.005568,
960,910,1.673961,-8.703805,0.999996,0.000257,-0.004566,0.009995,0.000814,0.010040,-0.004611,86.811292,0.010051,
1280,240,-0.052405,-14.061079,0.999999,0.000131,-0.001049,0.005123,-0.000047,0.005123,-0.001050,-89.559690,0.005413,
1760,1280,-2.317826,-5.678602,0.999997,0.000222,-0.003954,0.007746,0.000662,0.007784,-0.003991,86.769687,0.007785,
1240,1240,-0.028997,-3.533238,0.999997,0.000203,-0.003192,0.001640,-0.000281,0.001656,-0.003208,-86.683247,0.003208,
1170,1310,0.102094,-3.554993,0.999997,0.000204,-0.002216,0.003446,0.002167,0.004180,-0.002950,71.282033,0.004297,
1330,80,-0.026895,-14.842619,0.999998,0.000163,-0.000330,0.004678,-0.000174,0.004684,-0.000336,-88.013171,0.005225,
1870,380,-1.788878,-12.240390,0.999997,0.000205,-0.003725,0.007433,0.000087,0.007434,-0.003726,89.555757,0.007434,
890,1080,2.155958,-7.124564,0.999997,0.000211,-0.003011,0.008350,-0.000739,0.008398,-0.003059,-86.295993,0.008501,
720,150,0.605069,-14.278741,0.999996,0.000209,-0.002728,0.007128,0.001401,0.007323,-0.002924,82.062788,0.007373,
950,1450,0.827280,-3.681437,0.999997,0.000204,-0.004168,0.007675,0.001038,0.007766,-0.004258,85.028304,0.007778,
1720,630,-1.768007,-10.672773,0.999996,0.000221,-0.004172,0.007976,-0.000081,0.007976,-0.004172,-89.617149,0.007979,
840,1650,0.947625,-2.476278,0.999998,0.000159,-0.003343,0.007283,0.000211,0.007287,-0.003348,88.860577,0.007295,
810,1940,0.300762,-0.538688,0.999997,0.000233,-0.001365,0.006121,-0.001381,0.006368,-0.001612,-79.875432,0.006621,
1590,1410,-1.230521,-4.243938,0.999998,0.000185,-0.004595,0.008288,-0.000422,0.008302,-0.004609,-88.126287,0.008319,
1080,270,0.195714,-13.858220,0.999998,0.000194,-0.001383,0.005465,0.000075,0.005466,-0.001384,89.376015,0.005684,
1120,540,0.227224,-12.383693,0.999997,0.000200,-0.002330,0.005542,-0.000913,0.005647,-0.002434,-83.467551,0.005665,
850,1970,0.180304,-0.353426,0.999997,0.000187,-0.000735,0.005577,-0.001240,0.005812,-0.000970,-79.278578,0.006227,
1250,1320,-0.027030,-3.403712,0.999998,0.000163,-0.001504,0.002643,-0.000684,0.002753,-0.001614,-80.871689,0.002767,
690,150,0.695437,-14.225534,0.999997,0.000212,-0.002971,0.007429,0.001421,0.007619,-0.003161,82.358964,0.007656,
600,1480,2.199778,-4.343005,0.999997,0.000206,-0.003780,0.007657,-0.000013,0.007657,-0.003780,-89.934156,0.007657,
1390,580,-0.358659,-12.029138,0.999997,0.000203,-0.002973,0.006072,0.001371,0.006275,-0.003176,81.564876,0.006275,
1240,1910,-0.005689,-0.579250,0.999998,0.000171,-0.000644,0.004802,0.000007,0.004802,-0.000644,89.930323,0.005212,
1510,1660,-0.589105,-2.183046,0.999998,0.000196,-0.002780,0.006581,-0.000340,0.006594,-0.002792,-87.919779,0.006619,
1450,380,-0.417759,-13.136983,0.999997,0.000213,-0.002259,0.006199,0.000278,0.006209,-0.002268,88.118005,0.006283,
1000,1670,0.451664,-2.032682,0.999996,0.000224,-0.002394,0.006286,0.000299,0.006296,-0.002405,88.030336,0.006354,
770,1010,2.555961,-7.692416,0.999997,0.000198,-0.003127,0.007489,0.000259,0.007495,-0.003133,88.605062,0.007529,
730,730,2.080725,-9.842389,0.999997,0.000207,-0.004145,0.007953,0.000538,0.007977,-0.004168,87.459903,0.007980,
1130,680,0.200860,-11.662151,0.999998,0.000195,-0.002716,0.005055,-0.002103,0.005588,-0.003248,-75.789105,0.005612,
590,1960,0.701319,-0.731271,0.999996,0.000239,-0.003543,0.008505,-0.001795,0.008767,-0.003804,-81.702442,0.008792,
1330,1500,-0.199928,-2.796346,0.999998,0.000184,-0.002253,0.005378,-0.000899,0.005483,-0.002357,-83.368056,0.005501,
1510,490,-0.689990,-12.291668,0.999997,0.000205,-0.003406,0.007016,0.000743,0.007069,-0.003459,85.943968,0.007069,
580,1450,2.347243,-4.620806,0.999997,0.000211,-0.003422,0.007714,-0.000049,0.007715,-0.003422,-89.746335,0.007731,
740,1210,2.364757,-6.180840,0.999997,0.000236,-0.003897,0.007855,-0.000857,0.007917,-0.003959,-85.853146,0.007917,
1040,560,0.456383,-12.050878,0.999997,0.000212,-0.003236,0.006494,-0.001297,0.006664,-0.003406,-82.534459,0.006664,
1420,1550,-0.419204,-2.703621,0.999996,0.000227,-0.002823,0.006279,-0.000914,0.006370,-0.002914,-84.323672,0.006378,
1050,1840,0.189276,-0.979835,0.999998,0.000196,-0.001376,0.005382,-0.000163,0.005385,-0.001380,-88.622290,0.005595,
810,1470,1.386429,-3.927998,0.999996,0.000237,-0.004213,0.007909,0.000232,0.007914,-0.004218,88.903102,0.007919,
1900,330,-1.772675,-12.530276,0.999998,0.000000,-0.003671,0.007255,0.000014,0.007255,-0.003671,89.928853,0.007255,
910,1150,1.872173,-6.491150,0.999996,0.000239,-0.004166,0.009182,-0.001116,0.009275,-0.004258,-85.253414,0.009285,
1380,560,-0.327478,-12.174766,0.999997,0.000185,-0.002748,0.005893,0.001216,0.006061,-0.002916,82.137326,0.006062,
1140,30,0.004082,-15.071487,0.999998,0.000000,-0.000143,0.004499,0.000153,0.004504,-0.000148,88.113158,0.005117,
1330,330,-0.152623,-13.564756,0.999998,0.000172,-0.001703,0.005456,0.000192,0.005461,-0.001709,88.462179,0.005587,
970,760,1.002054,-10.222527,0.999995,0.000246,-0.005499,0.009122,-0.000952,0.009184,-0.005561,-86.288880,0.009251,
1540,830,-1.502723,-9.370786,0.999994,0.000286,-0.005266,0.009557,-0.000460,0.009572,-0.005281,-88.224090,0.009589,
630,740,2.501348,-9.587196,0.999996,0.000215,-0.003746,0.007447,0.000369,0.007459,-0.003758,88.113929,0.007459,
1240,820,-0.029330,-11.577142,0.999995,0.000253,-0.003603,0.001794,0.000240,0.001805,-0.003614,87.453807,0.003614,
640,870,2.792148,-8.650978,0.999996,0.000220,-0.003489,0.007183,0.000548,0.007211,-0.003517,87.069880,0.007212,
990,570,0.633127,-11.829618,0.999997,0.000231,-0.003726,0.007093,-0.001215,0.007228,-0.003860,-83.668411,0.007233,
1550,1430,-1.011729,-3.957614,0.999997,0.000201,-0.004439,0.008014,-0.000781,0.008062,-0.004488,-86.423483,0.008080,
860,330,0.752371,-13.211169,0.999997,0.000186,-0.002885,0.007016,0.000100,0.007017,-0.002886,89.420214,0.007054,
1470,710,-0.770347,-10.774064,0.999997,0.000242,-0.005034,0.008331,0.001549,0.008508,-0.005211,83.473437,0.008580,
730,1900,0.598232,-0.862377,0.999997,0.000223,-0.002391,0.007064,-0.001440,0.007279,-0.002605,-81.531236,0.007376,
1570,260,-0.525611,-13.737067,0.999997,0.000204,-0.002311,0.006405,-0.000380,0.006421,-0.002328,-87.507605,0.006502,
1170,1290,0.107973,-3.623387,0.999997,0.000209,-0.002344,0.003233,0.002345,0.004088,-0.003199,69.971672,0.004300,
1680,680,-1.720436,-10.353562,0.999997,0.000219,-0.004412,0.008243,-0.000200,0.008246,-0.004415,-89.094864,0.008253,
1520,350,-0.560447,-13.210838,0.999998,0.000171,-0.002571,0.006515,0.000098,0.006517,-0.002572,89.382986,0.006565,
840,1270,1.757510,-5.539287,0.999996,0.000226,-0.004712,0.008765,-0.000605,0.008792,-0.004739,-87.433498,0.008801,
1640,280,-0.748015,-13.505022,0.999997,0.000191,-0.002648,0.006997,-0.000447,0.007017,-0.002669,-87.350455,0.007084,
780,310,0.952145,-13.208903,0.999997,0.000220,-0.003263,0.007239,0.000192,0.007242,-0.003267,88.952291,0.007254,
830,1780,0.718309,-1.573065,0.999997,0.000176,-0.002557,0.006941,-0.000463,0.006963,-0.002579,-87.214005,0.007041,
850,1950,0.226335,-0.461908,0.999998,0.000189,-0.000994,0.005737,-0.001174,0.005936,-0.001193,-80.384843,0.006279,
1430,1560,-0.443465,-2.664172,0.999997,0.000204,-0.002904,0.006344,-0.000915,0.006433,-0.002994,-84.401137,0.006438,
1760,1480,-1.803115,-4.104738,0.999997,0.000202,-0.003974,0.007788,-0.000014,0.007788,-0.003974,-89.932364,0.007789,
770,990,2.541737,-7.842236,0.999996,0.000219,-0.003142,0.007462,0.000281,0.007470,-0.003150,88.483945,0.007500,
1340,330,-0.168540,-13.555356,0.999998,0.000173,-0.001700,0.005507,0.000204,0.005513,-0.001706,88.381678,0.005645,
1230,1260,0.004310,-3.503283,0.999994,0.000314,-0.002207,0.001550,0.000063,0.001551,-0.002208,89.042886,0.002267,
1590,1390,-1.271955,-4.412374,0.999997,0.000201,-0.004698,0.008428,-0.000373,0.008439,-0.004708,-88.374541,0.008458,
730,950,2.628255,-8.131512,0.999996,0.000224,-0.003371,0.007434,0.000620,0.007469,-0.003406,86.724432,0.007479,
940,930,1.848526,-8.454369,0.999996,0.000230,-0.004007,0.009484,0.001009,0.009559,-0.004082,85.748251,0.009592,
1510,470,-0.665455,-12.433163,0.999997,0.000217,-0.003224,0.006900,0.000637,0.006940,-0.003264,86.411042,0.006944,
640,1740,1.454515,-2.265289,0.999996,0.000239,-0.003666,0.007552,-0.000049,0.007552,-0.003666,-89.751734,0.007553,
1800,1880,-0.893528,-1.137741,0.999997,0.000202,-0.003113,0.007677,0.001271,0.007824,-0.003260,83.371744,0.007861,
1110,620,0.258493,-11.909295,0.999997,0.000227,-0.002769,0.005577,-0.001631,0.005884,-0.003077,-79.323045,0.005886,
1070,690,0.399924,-11.319848,0.999995,0.000248,-0.003909,0.006652,-0.002302,0.007132,-0.004389,-78.223303,0.007195,
1420,1880,-0.156116,-0.771158,0.999998,0.000163,-0.001113,0.005276,0.000258,0.005286,-0.001124,87.691579,0.005570,
1850,310,-1.539097,-12.817237,0.999997,0.000222,-0.003627,0.007482,0.000016,0.007482,-0.003627,89.914991,0.007483,
1610,80,-0.162894,-14.796183,0.999998,0.000176,-0.000714,0.005564,-0.001226,0.005795,-0.000945,-79.329008,0.006218,
1200,1650,0.056244,-1.928866,0.999998,0.000168,-0.001731,0.005311,0.000173,0.005315,-0.001735,88.597340,0.005421,
1040,540,0.445216,-12.184940,0.999997,0.000201,-0.003140,0.006442,-0.001171,0.006583,-0.003281,-83.130348,0.006583,
1140,1530,0.181349,-2.624535,0.999997,0.000193,-0.002190,0.005396,0.000788,0.005477,-0.002271,84.135017,0.005504,
910,1130,1.946164,-6.673003,0.999997,0.000228,-0.003851,0.009009,-0.001076,0.009098,-0.003941,-85.250458,0.009125,
950,1430,0.851813,-3.835018,0.999997,0.000208,-0.004320,0.007784,0.001032,0.007871,-0.004407,85.159920,0.007890,
580,1960,0.735647,-0.764889,0.999996,0.000237,-0.003849,0.008775,-0.001849,0.009041,-0.004114,-81.835636,0.009053,
1840,40,-0.204044,-14.932198,0.999995,0.000261,-0.002666,0.007033,-0.002516,0.007647,-0.003280,-76.291237,0.007672,
1420,1530,-0.428603,-2.829719,0.999998,0.000175,-0.002968,0.006363,-0.001048,0.006479,-0.003085,-83.670345,0.006482,
1380,540,-0.323084,-12.292648,0.999997,0.000197,-0.002706,0.005913,0.001136,0.006061,-0.002854,82.615939,0.006064,
840,330,0.809340,-13.177678,0.999998,0.000200,-0.002864,0.007053,0.000135,0.007055,-0.002865,89.222815,0.007096,
1170,1270,0.124793,-3.686373,0.999997,0.000195,-0.002524,0.003036,0.002491,0.003989,-0.003477,69.068617,0.004341,
1000,60,0.048885,-14.925762,0.999998,0.000164,-0.000192,0.004826,0.000572,0.004890,-0.000257,83.573646,0.005505,
630,80,0.455743,-14.651186,0.999997,0.000228,-0.003136,0.008048,0.002031,0.008406,-0.003493,80.021047,0.008446,
1240,800,-0.021633,-11.606523,0.999996,0.000244,-0.002434,0.001562,0.000367,0.001596,-0.002468,84.794675,0.002503,
610,740,2.576416,-9.547694,0.999997,0.000197,-0.003703,0.007365,0.000295,0.007373,-0.003711,88.472348,0.007373,
810,1840,0.612215,-1.184733,0.999997,0.000202,-0.002456,0.006755,-0.000792,0.006822,-0.002524,-85.120459,0.006899,
1900,320,-1.746550,-12.601549,0.999997,0.000000,-0.003626,0.007274,0.000043,0.007274,-0.003626,89.772520,0.007274,
1470,960,-1.770761,-8.297407,0.999995,0.000255,-0.004035,0.010820,-0.000268,0.010825,-0.004039,-88.965155,0.010940,
1550,1240,-1.496084,-5.635694,0.999996,0.000234,-0.005254,0.009459,0.000387,0.009470,-0.005264,88.492716,0.009489,
1520,330,-0.529620,-13.345252,0.999997,0.000214,-0.002425,0.006598,-0.000005,0.006598,-0.002425,-89.966309,0.006675,
1330,310,-0.140848,-13.674208,0.999998,0.000167,-0.001620,0.005431,0.000143,0.005434,-0.001623,88.837770,0.005579,
1450,1560,-0.505310,-2.714902,0.999996,0.000251,-0.003083,0.006549,-0.000923,0.006637,-0.003171,-84.575044,0.006639,
810,1780,0.772807,-1.602978,0.999997,0.000211,-0.002856,0.007067,-0.000423,0.007085,-0.002874,-87.564226,0.007127,
770,970,2.527780,-7.992144,0.999996,0.000224,-0.003231,0.007560,0.000496,0.007583,-0.003254,87.372906,0.007608,
780,290,0.903828,-13.352836,0.999998,0.000178,-0.003182,0.007249,0.000315,0.007258,-0.003192,88.270922,0.007276,
1140,330,0.138067,-13.568671,0.999998,0.000177,-0.001658,0.005455,-0.000170,0.005459,-0.001662,-88.630384,0.005596,
1760,760,-2.276973,-9.558584,0.999997,0.000239,-0.003976,0.007806,-0.000615,0.007838,-0.004008,-87.021407,0.007839,
1310,520,-0.153693,-12.544671,0.999998,0.000181,-0.002194,0.005314,0.000724,0.005383,-0.002263,84.540399,0.005405,
1070,670,0.392261,-11.450007,0.999997,0.000212,-0.003691,0.006522,-0.002090,0.006933,-0.004102,-78.872686,0.006972,
1130,1400,0.201951,-3.330435,0.999997,0.000230,-0.002656,0.005154,0.001853,0.005571,-0.003073,77.311033,0.005581,
1120,1530,0.226591,-2.655639,0.999997,0.000211,-0.002313,0.005559,0.000812,0.005642,-0.002396,84.170574,0.005663,
1730,900,-2.528670,-8.507454,0.999997,0.000220,-0.003610,0.007683,-0.000796,0.007739,-0.003666,-85.988979,0.007743,
1510,450,-0.647638,-12.569645,0.999997,0.000213,-0.003040,0.006825,0.000535,0.006854,-0.003069,86.902295,0.006867,
860,220,0.516575,-13.954959,0.999997,0.000223,-0.002219,0.006425,0.000633,0.006471,-0.002265,85.834170,0.006567,
1470,690,-0.741045,-10.939289,0.999996,0.000245,-0.004797,0.008069,0.001538,0.008251,-0.004978,83.278062,0.008309,
730,1880,0.680286,-1.006107,0.999997,0.000189,-0.002624,0.007172,-0.001260,0.007331,-0.002783,-82.788197,0.007402,
1040,520,0.435872,-12.313636,0.999997,0.000224,-0.002984,0.006371,-0.001036,0.006484,-0.003098,-83.757171,0.006486,
1670,1910,-0.431683,-0.739161,0.999996,0.000221,-0.002099,0.006447,0.001240,0.006623,-0.002275,81.909261,0.006731,
810,1920,0.366805,-0.662358,0.999997,0.000211,-0.001658,0.006220,-0.001252,0.006414,-0.001852,-81.181645,0.006602,
1550,520,-0.865165,-11.973129,0.999997,0.000233,-0.003729,0.007355,0.000689,0.007398,-0.003772,86.454768,0.007398,
730,710,2.026384,-10.003208,0.999997,0.000236,-0.004176,0.007972,0.000433,0.007988,-0.004192,87.960040,0.007991,
1740,1990,-0.215082,-0.275207,0.999996,0.000243,-0.001236,0.006175,0.002063,0.006710,-0.001771,75.448673,0.006955,
990,1990,0.055883,-0.217992,0.999998,0.000137,-0.000275,0.004925,-0.000623,0.004999,-0.000349,-83.261424,0.005582,
910,1580,0.817895,-2.829252,0.999997,0.000229,-0.003415,0.007134,0.000535,0.007161,-0.003442,87.106570,0.007162,
1100,1650,0.242165,-2.009163,0.999998,0.000175,-0.001940,0.005629,0.000333,0.005644,-0.001954,87.489142,0.005732,
1300,830,-0.252821,-11.248081,0.999995,0.000242,-0.003315,0.002898,0.001938,0.003453,-0.003870,74.023318,0.004248,
910,1110,2.016898,-6.852347,0.999996,0.000231,-0.003454,0.008854,-0.001033,0.008940,-0.003540,-85.235149,0.009005,
950,1410,0.876458,-3.992485,0.999997,0.000208,-0.004503,0.007909,0.001050,0.007998,-0.004591,85.200574,0.008027,
1850,290,-1.480974,-12.970680,0.999996,0.000229,-0.003646,0.007444,-0.000044,0.007444,-0.003646,-89.774128,0.007444,
1420,1860,-0.178671,-0.877324,0.999998,0.000180,-0.001274,0.005367,0.000244,0.005376,-0.001283,87.902625,0.005615,
1170,1490,0.117027,-2.780106,0.999998,0.000183,-0.002080,0.005027,0.000757,0.005107,-0.002159,83.985448,0.005127,
1590,80,-0.146347,-14.801236,0.999998,0.000148,-0.000828,0.005421,-0.001093,0.005607,-0.001014,-80.363571,0.005975,
1550,1390,-1.082274,-4.288774,0.999998,0.000185,-0.004757,0.008374,-0.000682,0.008410,-0.004792,-87.036362,0.008437,
840,310,0.771920,-13.316752,0.999997,0.000210,-0.002785,0.006899,0.000203,0.006903,-0.002789,88.801822,0.006945,
750,1840,0.777010,-1.272228,0.999998,0.000188,-0.002652,0.007179,-0.000988,0.007277,-0.002750,-84.317621,0.007349,
1240,780,-0.016020,-11.636421,0.999997,0.000214,-0.001863,0.001739,0.000390,0.001780,-0.001905,83.897595,0.002131,
1800,1160,-2.765497,-6.626989,0.999996,0.000233,-0.003465,0.007136,0.000518,0.007161,-0.003490,87.211083,0.007162,
850,780,1.694060,-9.646264,0.999995,0.000258,-0.004859,0.008841,0.000529,0.008861,-0.004879,87.790377,0.008876,
1380,520,-0.319669,-12.412039,0.999997,0.000183,-0.002678,0.005945,0.001036,0.006068,-0.002801,83.246205,0.006074,
820,690,1.578803,-10.355204,0.999997,0.000242,-0.004613,0.008418,0.000114,0.008419,-0.004614,89.499122,0.008432,
650,1760,1.360931,-2.086955,0.999996,0.000232,-0.003617,0.007562,-0.000176,0.007565,-0.003620,-89.096242,0.007567,
1450,1240,-0.928657,-5.177649,0.999997,0.000215,-0.005841,0.009492,-0.001377,0.009614,-0.005964,-84.908739,0.009707,
1520,830,-1.392991,-9.438764,0.999994,0.000280,-0.005442,0.009752,-0.000249,0.009756,-0.005446,-89.059886,0.009778,
730,1700,1.224488,-2.347883,0.999997,0.000201,-0.003620,0.007523,-0.000024,0.007523,-0.003620,-89.878262,0.007525,
770,950,2.493199,-8.144264,0.999997,0.000223,-0.003341,0.007615,0.000692,0.007658,-0.003384,86.399174,0.007675,
1500,330,-0.479938,-13.372702,0.999997,0.000229,-0.002499,0.006435,0.000119,0.006437,-0.002500,89.235007,0.006490,
1330,290,-0.132772,-13.781336,0.999998,0.000157,-0.001499,0.005387,0.000113,0.005389,-0.001501,89.059918,0.005562,
1550,260,-0.484466,-13.756908,0.999997,0.000226,-0.001994,0.006286,-0.000414,0.006307,-0.002015,-87.142684,0.006442,
1470,670,-0.716039,-11.095327,0.999995,0.000263,-0.004563,0.007854,0.001526,0.008038,-0.004748,83.095339,0.008082,
1640,310,-0.818298,-13.289531,0.999997,0.000182,-0.002867,0.007019,-0.000242,0.007025,-0.002873,-88.597996,0.007063,
1770,830,-2.506854,-9.004944,0.999995,0.000261,-0.003745,0.007551,-0.000711,0.007595,-0.003789,-86.412630,0.007595,
980,1970,0.088205,-0.319542,0.999998,0.000150,-0.000509,0.005070,-0.000622,0.005138,-0.000577,-83.713962,0.005629,
1070,650,0.387137,-11.580729,0.999997,0.000211,-0.003527,0.006408,-0.001962,0.006782,-0.003900,-79.224542,0.006807,
1110,1400,0.257017,-3.404742,0.999997,0.000212,-0.002897,0.005590,0.001926,0.006007,-0.003314,77.795038,0.006018,
660,450,1.696405,-11.877539,0.999997,0.000207,-0.003776,0.007563,-0.000119,0.007564,-0.003777,-89.399957,0.007564,
1120,330,0.172319,-13.551532,0.999998,0.000179,-0.001704,0.005529,-0.000171,0.005533,-0.001708,-88.649443,0.005666,
830,1340,1.598156,-4.953120,0.999997,0.000274,-0.004726,0.008522,-0.000209,0.008525,-0.004729,-89.097485,0.008542,
1310,540,-0.155457,-12.438759,0.999998,0.000193,-0.002192,0.005261,0.000819,0.005350,-0.002281,83.804447,0.005370,
1740,2000,-0.166571,-0.212791,0.999998,0.000197,-0.000996,0.006088,0.002143,0.006686,-0.001594,74.412029,0.006985,
1320,1510,-0.177354,-2.724740,0.999997,0.000187,-0.002209,0.005306,-0.000838,0.005399,-0.002302,-83.711045,0.005418,
850,1930,0.288881,-0.583209,0.999998,0.000184,-0.001228,0.005925,-0.001161,0.006108,-0.001412,-81.010660,0.006396,
1040,500,0.424890,-12.440015,0.999997,0.000220,-0.002834,0.006303,-0.000880,0.006388,-0.002918,-84.546715,0.006395,
580,1440,2.370085,-4.695932,0.999997,0.000215,-0.003682,0.007466,-0.000311,0.007475,-0.003690,-88.401904,0.007475,
570,1210,2.972370,-6.400725,0.999998,0.000188,-0.003282,0.006859,-0.000131,0.006860,-0.003283,-89.258839,0.006862,
810,1450,1.425888,-4.087237,0.999996,0.000217,-0.004304,0.007984,0.000173,0.007986,-0.004306,89.194210,0.007994,
1480,1550,-0.604063,-2.855674,0.999997,0.000236,-0.003209,0.006789,-0.000835,0.006858,-0.003279,-85.258310,0.006860,
910,1090,2.073468,-7.026759,0.999997,0.000235,-0.003164,0.008631,-0.000832,0.008690,-0.003223,-85.984708,0.008786,
1510,430,-0.628273,-12.703757,0.999997,0.000216,-0.002884,0.006703,0.000443,0.006723,-0.002905,87.358505,0.006744,
950,1390,0.908913,-4.155141,0.999997,0.000195,-0.004699,0.008188,0.001061,0.008275,-0.004786,85.325096,0.008308,
990,1970,0.084231,-0.318597,0.999998,0.000161,-0.000433,0.005036,-0.000602,0.005101,-0.000499,-83.789865,0.005625,
1730,880,-2.478203,-8.664203,0.999997,0.000220,-0.003717,0.007707,-0.000840,0.007769,-0.003779,-85.816003,0.007770,
1240,760,-0.014125,-11.672618,0.999998,0.000173,-0.001613,0.002081,0.000344,0.002113,-0.001645,84.728046,0.002220,
1170,1250,0.149993,-3.746875,0.999997,0.000205,-0.002855,0.002818,0.002388,0.003689,-0.003726,69.948852,0.004282,
1720,570,-1.630848,-11.148238,0.999996,0.000258,-0.004087,0.007839,0.000096,0.007839,-0.004088,89.538095,0.007842,
840,430,0.993859,-12.457984,0.999997,0.000230,-0.003485,0.007390,-0.000266,0.007397,-0.003491,-88.599272,0.007400,
730,670,1.923063,-10.323265,0.999997,0.000220,-0.004163,0.007982,0.000275,0.007988,-0.004169,88.704483,0.007991,
1810,1230,-2.638789,-6.125329,0.999997,0.000217,-0.003622,0.007278,0.000553,0.007306,-0.003650,87.100298,0.007306,
1340,1650,-0.195907,-1.983005,0.999999,0.000156,-0.001983,0.005524,-0.000425,0.005548,-0.002007,-86.768661,0.005618,
1680,1960,-0.270323,-0.430971,0.999997,0.000199,-0.001335,0.006013,0.001550,0.006326,-0.001649,78.562624,0.006564,
770,1840,0.722610,-1.243470,0.999997,0.000206,-0.002721,0.007030,-0.000880,0.007109,-0.002800,-84.883910,0.007162,
1430,1240,-0.813751,-5.036524,0.999996,0.000244,-0.005889,0.009191,-0.001848,0.009414,-0.006113,-83.113030,0.009553,
1780,1750,-1.270567,-2.084424,0.999998,0.000183,-0.003590,0.007532,0.000155,0.007535,-0.003592,89.199358,0.007537,
770,930,2.456461,-8.298509,0.999996,0.000232,-0.003448,0.007643,0.000684,0.007686,-0.003490,86.483360,0.007696,
1110,1720,0.192670,-1.605838,0.999998,0.000188,-0.001722,0.005570,0.000170,0.005574,-0.001726,88.663869,0.005707,
1330,270,-0.122891,-13.889022,0.999998,0.000166,-0.001410,0.005306,0.000069,0.005306,-0.001411,89.409440,0.005497,
1000,750,0.812397,-10.463286,0.999996,0.000225,-0.005457,0.008833,-0.001556,0.009001,-0.005624,-83.857242,0.009094,
640,1720,1.505782,-2.416367,0.999997,0.000240,-0.003700,0.007573,0.000024,0.007573,-0.003700,89.879059,0.007573,
860,870,1.952209,-8.867714,0.999998,0.000178,-0.004244,0.008716,0.001024,0.008797,-0.004325,85.512124,0.008797,
1560,150,-0.272146,-14.421479,0.999998,0.000172,-0.001237,0.005811,-0.000841,0.005910,-0.001336,-83.290012,0.006199,
1220,330,0.017549,-13.597049,0.999999,0.000134,-0.001546,0.005279,-0.000074,0.005279,-0.001547,-89.378500,0.005428,
1640,240,-0.648185,-13.781548,0.999997,0.000202,-0.002377,0.006880,-0.000700,0.006932,-0.002430,-85.698681,0.007035,
1110,890,0.881223,-10.381885,0.999995,0.000251,-0.001944,0.005008,-0.003817,0.006694,-0.003631,-66.164175,0.006702,
940,730,1.087705,-10.366810,0.999997,0.000194,-0.005247,0.008893,-0.000697,0.008927,-0.005281,-87.185817,0.008977,
1650,2010,-0.078031,-0.135164,0.999998,0.000201,-0.000437,0.005364,0.001410,0.005688,-0.000761,77.039633,0.006176,
820,670,1.528268,-10.523502,0.999996,0.000248,-0.004575,0.008357,0.000012,0.008357,-0.004575,89.944874,0.008370,
1380,500,-0.312229,-12.531494,0.999997,0.000192,-0.002619,0.005910,0.000970,0.006019,-0.002728,83.590707,0.006028,
1500,850,-1.370890,-9.317815,0.999995,0.000315,-0.005537,0.010036,-0.000151,0.010037,-0.005539,-89.446226,0.010055,
1550,1370,-1.124666,-4.458353,0.999997,0.000194,-0.004902,0.008518,-0.000630,0.008548,-0.004932,-87.319882,0.008581,
1300,1510,-0.133486,-2.689463,0.999999,0.000135,-0.002137,0.005156,-0.000745,0.005231,-0.002212,-84.222399,0.005252,
1120,520,0.225808,-12.492715,0.999997,0.000202,-0.002250,0.005517,-0.000773,0.005593,-0.002326,-84.374110,0.005619,
1040,480,0.415487,-12.565830,0.999997,0.000218,-0.002665,0.006268,-0.000747,0.006330,-0.002727,-85.252563,0.006350,
1170,830,0.225040,-11.310176,0.999995,0.000259,-0.003379,0.002684,-0.001651,0.003104,-0.003799,-75.714116,0.004046,
1110,500,0.244545,-12.586940,0.999998,0.000160,-0.002288,0.005676,-0.000756,0.005747,-0.002359,-84.628108,0.005778,
1460,1550,-0.542888,-2.807024,0.999997,0.000225,-0.003129,0.006648,-0.000917,0.006733,-0.003214,-84.688190,0.006735,
1740,2010,-0.120292,-0.153486,0.999997,0.000210,-0.000713,0.005991,0.002201,0.006649,-0.001371,73.353580,0.007022,
1590,1370,-1.316965,-4.582652,0.999997,0.000211,-0.004820,0.008533,-0.000296,0.008540,-0.004826,-88.729854,0.008564,
1820,330,-1.480223,-12.749883,0.999996,0.000251,-0.003713,0.007498,-0.000001,0.007498,-0.003713,-89.996397,0.007498,
950,1370,0.941768,-4.321902,0.999997,0.000194,-0.004879,0.008422,0.001025,0.008500,-0.004958,85.616983,0.008539,
1070,630,0.382720,-11.706051,0.999996,0.000226,-0.003400,0.006269,-0.001837,0.006607,-0.003737,-79.597080,0.006625,
910,1070,2.119698,-7.199740,0.999996,0.000242,-0.002893,0.008582,-0.000654,0.008619,-0.002930,-86.750468,0.008765,
1240,740,-0.011680,-11.717616,0.999998,0.000156,-0.001502,0.002479,0.000307,0.002503,-0.001525,85.619358,0.002522,
1770,870,-2.602777,-8.705974,0.999997,0.000226,-0.003639,0.007501,-0.000740,0.007550,-0.003688,-86.216712,0.007551,
1510,410,-0.606191,-12.837803,0.999997,0.000215,-0.002808,0.006650,0.000365,0.006664,-0.002822,87.791019,0.006690,
1850,270,-1.421913,-13.115060,0.999996,0.000238,-0.003649,0.007471,-0.000120,0.007472,-0.003650,-89.383116,0.007473,
1450,80,-0.070101,-14.828323,0.999998,0.000153,-0.000388,0.004930,-0.000546,0.004985,-0.000443,-84.198341,0.005518,
680,730,2.284248,-9.756155,0.999997,0.000193,-0.003923,0.007713,0.000475,0.007732,-0.003943,87.666806,0.007733,
1520,210,-0.340817,-14.090903,0.999997,0.000215,-0.001671,0.005870,-0.000477,0.005900,-0.001701,-86.397689,0.006074,
1150,1380,0.148800,-3.353912,0.999997,0.000219,-0.002361,0.004587,0.001756,0.005006,-0.002780,76.591939,0.005016,
1470,650,-0.692627,-11.255075,0.999996,0.000221,-0.004354,0.007625,0.001486,0.007806,-0.004536,83.031143,0.007840,
850,1890,0.398856,-0.828660,0.999997,0.000212,-0.001661,0.006219,-0.001023,0.006350,-0.001791,-82.723311,0.006548,
1020,1270,0.788373,-4.850818,0.999997,0.000213,-0.005715,0.009029,0.001781,0.009241,-0.005928,83.208854,0.009363,
730,650,1.870818,-10.484253,0.999997,0.000213,-0.004129,0.007982,0.000202,0.007985,-0.004132,89.044804,0.007987,
1620,1910,-0.349415,-0.704392,0.999997,0.000198,-0.001419,0.006076,0.001119,0.006239,-0.001582,81.689785,0.006487,
980,1690,0.479303,-1.937031,0.999997,0.000223,-0.002528,0.006328,0.000285,0.006337,-0.002537,88.156831,0.006379,
770,910,2.420637,-8.451256,0.999996,0.000240,-0.003594,0.007855,0.000841,0.007917,-0.003656,85.822584,0.007924,
1020,150,0.149916,-14.472940,0.999998,0.000159,-0.000882,0.005288,0.000454,0.005321,-0.000915,85.812523,0.005690,
1090,1720,0.225710,-1.622446,0.999998,0.000189,-0.001691,0.005649,0.000098,0.005651,-0.001692,89.234981,0.005800,
1840,850,-2.806013,-8.773780,0.999997,0.000207,-0.003506,0.007113,-0.000485,0.007135,-0.003528,-87.388020,0.007135,
1840,1750,-1.485092,-2.236747,0.999997,0.000228,-0.003680,0.007538,0.000033,0.007539,-0.003680,89.831593,0.007539,
1200,330,0.047963,-13.590441,0.999998,0.000176,-0.001484,0.005306,-0.000074,0.005306,-0.001485,-89.373674,0.005475,
1380,480,-0.306659,-12.650225,0.999997,0.000197,-0.002543,0.005955,0.000870,0.006043,-0.002631,84.212057,0.006060,
1640,610,-1.381862,-11.024201,0.999996,0.000222,-0.004336,0.008025,0.000232,0.008030,-0.004340,88.924512,0.008039,
1330,250,-0.114551,-13.993469,0.999998,0.000183,-0.001306,0.005217,0.000014,0.005217,-0.001306,89.876124,0.005430,
1200,1530,0.060013,-2.556257,0.999998,0.000153,-0.001885,0.005028,0.000277,0.005039,-0.001896,87.707442,0.005090,
1040,460,0.405567,-12.688654,0.999997,0.000199,-0.002549,0.006170,-0.000659,0.006219,-0.002599,-85.704586,0.006247,
990,1580,0.558830,-2.637845,0.999997,0.000193,-0.003022,0.006601,0.000751,0.006660,-0.003080,85.564493,0.006666,
1470,80,-0.076274,-14.826731,0.999998,0.000155,-0.000393,0.004992,-0.000614,0.005062,-0.000462,-83.575678,0.005597,
1850,250,-1.353342,-13.269668,0.999997,0.000216,-0.003648,0.007503,-0.000133,0.007505,-0.003650,-89.318823,0.007506,
620,1450,2.194957,-4.527137,0.999998,0.000194,-0.003818,0.007667,-0.000058,0.007667,-0.003818,-89.709059,0.007667,
1110,480,0.241582,-12.700689,0.999998,0.000176,-0.002185,0.005676,-0.000638,0.005727,-0.002236,-85.391463,0.005773,
1000,990,1.849391,-7.995990,0.999993,0.000307,-0.003881,0.011464,-0.000044,0.011464,-0.003881,-89.834100,0.011661,
1170,810,0.166760,-11.361365,0.999996,0.000234,-0.002994,0.002789,-0.002342,0.003619,-0.003823,-70.495919,0.004302,
1440,1330,-0.644705,-4.315355,0.999996,0.000231,-0.005015,0.008096,-0.001984,0.008390,-0.005308,-81.581655,0.008488,
1550,1350,-1.165658,-4.627871,0.999997,0.000200,-0.005029,0.008725,-0.000539,0.008746,-0.005050,-87.758757,0.008781,
1690,70,-0.192664,-14.832001,0.999998,0.000169,-0.000921,0.005824,-0.001699,0.006228,-0.001324,-76.633329,0.006562,
1070,610,0.374968,-11.832674,0.999997,0.000206,-0.003272,0.006221,-0.001684,0.006511,-0.003562,-80.231800,0.006521,
810,1430,1.471153,-4.247558,0.999996,0.000230,-0.004372,0.008123,0.000107,0.008124,-0.004373,89.511076,0.008132,
910,1050,2.144952,-7.370964,0.999997,0.000222,-0.002756,0.008496,-0.000389,0.008510,-0.002770,-88.024103,0.008681,
690,740,2.272380,-9.696047,0.999996,0.000244,-0.003960,0.007793,0.000505,0.007814,-0.003982,87.544486,0.007815,
1500,210,-0.303868,-14.109001,0.999997,0.000206,-0.001713,0.005768,-0.000388,0.005788,-0.001733,-87.041247,0.005941,
1780,360,-1.407797,-12.620267,0.999996,0.000232,-0.003610,0.007581,-0.000026,0.007581,-0.003610,-89.866567,0.007584,
950,1350,0.980180,-4.494497,0.999998,0.000182,-0.005063,0.008635,0.000970,0.008703,-0.005132,85.969270,0.008750,
1240,720,-0.013208,-11.771249,0.999998,0.000168,-0.001494,0.002865,0.000295,0.002885,-0.001514,86.145710,0.002886,
850,1870,0.446755,-0.948266,0.999997,0.000219,-0.001856,0.006278,-0.000895,0.006376,-0.001953,-83.796888,0.006533,
1510,390,-0.583092,-12.971226,0.999997,0.000203,-0.002772,0.006559,0.000314,0.006569,-0.002783,88.071898,0.006595,
780,350,1.042604,-12.913700,0.999997,0.000210,-0.003344,0.007343,0.000050,0.007343,-0.003344,89.732010,0.007353,
1000,1270,0.905651,-4.974809,0.999996,0.000256,-0.005766,0.009257,0.001330,0.009373,-0.005883,84.980085,0.009475,
1320,1850,-0.080503,-0.888060,0.999999,0.000137,-0.000982,0.005084,0.000083,0.005085,-0.000983,89.220584,0.005395,
600,1210,2.873594,-6.345369,0.999998,0.000162,-0.003413,0.007017,-0.000358,0.007029,-0.003425,-88.036650,0.007030,
960,1690,0.534225,-1.973819,0.999997,0.000240,-0.002730,0.006422,0.000307,0.006433,-0.002740,88.082786,0.006456,
1220,1910,0.007500,-0.580373,0.999998,0.000178,-0.000657,0.004818,0.000001,0.004818,-0.000657,89.984359,0.005225,
730,630,1.822617,-10.644847,0.999997,0.000189,-0.004116,0.007908,0.000106,0.007909,-0.004117,89.494442,0.007911,
1810,1270,-2.536075,-5.829525,0.999997,0.000212,-0.003759,0.007524,0.000556,0.007551,-0.003787,87.184674,0.007551,
1710,920,-2.499238,-8.365990,0.999997,0.000211,-0.003514,0.007617,-0.000701,0.007661,-0.003558,-86.410201,0.007668,
1320,1650,-0.155540,-1.959882,0.999998,0.000179,-0.001955,0.005485,-0.000386,0.005505,-0.001975,-87.037338,0.005577,
1310,1720,-0.117291,-1.569099,0.999998,0.000187,-0.001548,0.005433,-0.000100,0.005435,-0.001549,-89.181544,0.005599,
770,1110,2.484749,-6.935990,0.999996,0.000241,-0.003346,0.007602,-0.000693,0.007646,-0.003389,-86.393878,0.007662,
1180,1530,0.097673,-2.567591,0.999998,0.000148,-0.001969,0.005115,0.000401,0.005138,-0.001991,86.768996,0.005181,
1000,970,1.784456,-8.214016,0.999996,0.000238,-0.004057,0.011036,-0.000021,0.011036,-0.004057,-89.920232,0.011164,
1840,790,-2.660038,-9.203337,0.999997,0.000207,-0.003651,0.007340,-0.000420,0.007356,-0.003667,-87.815457,0.007356,
1190,1380,0.067894,-3.244123,0.999997,0.000212,-0.001829,0.003887,0.001024,0.004065,-0.002007,80.144393,0.004065,
1380,850,-0.688777,-10.233922,0.999993,0.000303,-0.005063,0.007780,0.003083,0.008482,-0.005765,77.177888,0.008662,
1380,700,-0.354927,-11.322099,0.999996,0.000210,-0.003783,0.006396,0.002414,0.006940,-0.004327,77.310754,0.007010,
780,1470,1.511516,-4.000587,0.999996,0.000225,-0.004186,0.007880,0.000108,0.007881,-0.004187,89.484954,0.007887,
1330,230,-0.102633,-14.098372,0.999998,0.000185,-0.001201,0.005235,-0.000025,0.005235,-0.001201,-89.779268,0.005485,
1170,790,0.129287,-11.417190,0.999996,0.000266,-0.002615,0.002997,-0.002463,0.003925,-0.003543,-69.359080,0.004328,
1040,440,0.395446,-12.812223,0.999998,0.000187,-0.002472,0.006087,-0.000580,0.006126,-0.002511,-86.143636,0.006159,
970,1580,0.620118,-2.683937,0.999996,0.000215,-0.003116,0.006743,0.000678,0.006789,-0.003162,86.085031,0.006795,
810,600,1.415800,-11.072611,0.999996,0.000210,-0.004280,0.008012,-0.000196,0.008015,-0.004283,-89.087042,0.008021,
1550,1330,-1.214083,-4.806862,0.999996,0.000230,-0.005152,0.008877,-0.000425,0.008890,-0.005165,-88.264407,0.008929,
1110,660,0.257512,-11.687228,0.999997,0.000213,-0.002935,0.005544,-0.001978,0.005983,-0.003374,-77.494413,0.005999,
1240,700,-0.013431,-11.830310,0.999998,0.000164,-0.001527,0.003191,0.000278,0.003208,-0.001543,86.643681,0.003208,
810,1410,1.514597,-4.414034,0.999995,0.000253,-0.004426,0.008229,0.000047,0.008229,-0.004426,89.787789,0.008237,
670,740,2.350604,-9.660039,0.999996,0.000239,-0.003857,0.007667,0.000499,0.007688,-0.003879,87.527134,0.007689,
1710,160,-0.570977,-14.242098,0.999996,0.000230,-0.002079,0.006954,-0.001485,0.007192,-0.002317,-80.900662,0.007342,
1690,1510,-1.457824,-3.702549,0.999996,0.000243,-0.004058,0.007814,-0.000200,0.007817,-0.004061,-89.035203,0.007819,
1780,340,-1.357903,-12.770685,0.999997,0.000208,-0.003605,0.007524,-0.000021,0.007524,-0.003605,-89.890091,0.007526,
910,1030,2.162670,-7.539976,0.999997,0.000212,-0.002648,0.008433,-0.000050,0.008434,-0.002648,-89.741323,0.008626,
780,330,0.999523,-13.062200,0.999998,0.000201,-0.003279,0.007336,0.000114,0.007337,-0.003280,89.386213,0.007351,
950,1330,1.022795,-4.668384,0.999998,0.000165,-0.005200,0.008789,0.000899,0.008847,-0.005257,86.339565,0.008899,
1580,350,-0.720474,-13.114631,0.999998,0.000198,-0.003067,0.006825,0.000100,0.006826,-0.003068,89.420033,0.006837,
1640,220,-0.597051,-13.915315,0.999997,0.000215,-0.002208,0.006668,-0.000818,0.006743,-0.002283,-84.779319,0.006859,
1510,370,-0.558464,-13.100512,0.999998,0.000202,-0.002737,0.006447,0.000288,0.006456,-0.002746,88.205414,0.006480,
1420,1840,-0.199296,-0.984748,0.999998,0.000186,-0.001404,0.005398,0.000179,0.005402,-0.001408,88.496307,0.005605,
1080,1250,0.512777,-4.552493,0.999995,0.000259,-0.005207,0.007731,0.003100,0.008435,-0.005911,77.197148,0.008659,
1300,1850,-0.062414,-0.884235,0.999999,0.000137,-0.000858,0.005052,0.000104,0.005054,-0.000859,88.991452,0.005408,
1070,590,0.369109,-11.960364,0.999997,0.000210,-0.003128,0.006172,-0.001502,0.006409,-0.003365,-81.047886,0.006412,
1820,760,-2.508797,-9.462098,0.999997,0.000218,-0.003748,0.007452,-0.000472,0.007472,-0.003768,-87.591516,0.007472,
1300,1910,-0.040148,-0.585083,0.999998,0.000148,-0.000516,0.004869,0.000141,0.004872,-0.000519,88.500139,0.005352,
850,1850,0.502623,-1.080370,0.999996,0.000221,-0.002063,0.006469,-0.000820,0.006547,-0.002141,-84.556764,0.006677,
1720,1750,-1.060067,-1.947079,0.999998,0.000192,-0.003195,0.007378,0.000299,0.007386,-0.003203,88.381330,0.007408,
1680,1690,-1.066737,-2.310452,0.999997,0.000212,-0.003376,0.007314,-0.000022,0.007314,-0.003376,-89.884514,0.007321,
770,390,1.160577,-12.597863,0.999998,0.000176,-0.003491,0.007479,-0.000050,0.007479,-0.003491,-89.737290,0.007485,
1240,1650,-0.014401,-1.919342,0.999998,0.000183,-0.001753,0.005267,-0.000088,0.005268,-0.001754,-89.278150,0.005365,
590,1210,2.908159,-6.363255,0.999998,0.000161,-0.003351,0.006965,-0.000273,0.006972,-0.003358,-88.486315,0.006973,
730,610,1.775347,-10.801536,0.999997,0.000216,-0.004094,0.007891,0.000050,0.007891,-0.004094,89.761116,0.007893,
1170,1380,0.107005,-3.296077,0.999998,0.000182,-0.002039,0.004155,0.001455,0.004480,-0.002364,77.418148,0.004482,
780,1450,1.555402,-4.158673,0.999996,0.000207,-0.004246,0.007983,0.000098,0.007984,-0.004247,89.539540,0.007989,
1820,790,-2.585392,-9.236985,0.999998,0.000199,-0.003693,0.007439,-0.000516,0.007463,-0.003717,-87.350713,0.007463,
1100,890,0.898929,-10.219295,0.999993,0.000307,-0.002396,0.005755,-0.003920,0.007334,-0.003975,-68.057394,0.007343,
1690,920,-2.428916,-8.375616,0.999997,0.000237,-0.003525,0.007776,-0.000779,0.007830,-0.003578,-86.074545,0.007840,
1380,460,-0.297243,-12.774145,0.999997,0.000195,-0.002439,0.005899,0.000734,0.005963,-0.002503,85.007700,0.005988,
1330,430,-0.182407,-13.008481,0.999999,0.000147,-0.002054,0.005530,0.000468,0.005559,-0.002083,86.478845,0.005617,
1280,330,-0.073766,-13.587232,0.999998,0.000173,-0.001454,0.005350,0.000041,0.005351,-0.001454,89.657031,0.005533,
1470,630,-0.671083,-11.406637,0.999996,0.000235,-0.004125,0.007425,0.001405,0.007593,-0.004294,83.164567,0.007615,
1490,1300,-0.973389,-4.837135,0.999995,0.000263,-0.005481,0.009084,-0.001010,0.009154,-0.005551,-86.050800,0.009222,
1170,770,0.110048,-11.482077,0.999997,0.000235,-0.002388,0.003150,-0.002398,0.004044,-0.003282,-69.552510,0.004298,
1850,230,-1.287923,-13.416624,0.999997,0.000198,-0.003645,0.007539,-0.000210,0.007543,-0.003649,-88.925505,0.007544,
1620,190,-0.474087,-14.131699,0.999998,0.000181,-0.001861,0.006402,-0.000926,0.006505,-0.001963,-83.681808,0.006673,
1720,1300,-2.097482,-5.453945,0.999997,0.000230,-0.004170,0.008083,0.000621,0.008115,-0.004201,87.105018,0.008116,
1640,200,-0.539974,-14.049544,0.999997,0.000218,-0.002020,0.006611,-0.000955,0.006716,-0.002124,-83.763873,0.006865,
980,770,0.973280,-10.178285,0.999996,0.000227,-0.005593,0.009203,-0.001040,0.009276,-0.005665,-86.000586,0.009351,
870,1080,2.219255,-7.136453,0.999998,0.000171,-0.003046,0.008161,-0.000715,0.008207,-0.003091,-86.364783,0.008290,
1880,1470,-2.288393,-4.458389,0.999996,0.000225,-0.003796,0.007668,0.000018,0.007668,-0.003796,89.908602,0.007668,
1780,320,-1.310640,-12.922785,0.999997,0.000214,-0.003640,0.007505,-0.000057,0.007505,-0.003640,-89.706294,0.007506,
1110,640,0.258145,-11.797135,0.999997,0.000205,-0.002827,0.005601,-0.001781,0.005962,-0.003188,-78.545157,0.005966,
1780,110,-0.515216,-14.508024,0.999997,0.000207,-0.002430,0.007286,-0.001970,0.007670,-0.002814,-78.964974,0.007760,
1690,1490,-1.496073,-3.858954,0.999995,0.000263,-0.004113,0.007872,-0.000144,0.007874,-0.004115,-89.311234,0.007876,
850,80,0.164894,-14.794568,0.999997,0.000179,-0.000708,0.005546,0.001261,0.005790,-0.000953,79.022855,0.006210,
810,1390,1.563156,-4.577589,0.999996,0.000243,-0.004511,0.008273,-0.000023,0.008274,-0.004511,-89.896425,0.008285,
850,1830,0.549726,-1.208045,0.999997,0.000216,-0.002215,0.006543,-0.000681,0.006596,-0.002268,-85.580256,0.006702,
730,590,1.728501,-10.959632,0.999996,0.000238,-0.004053,0.007874,-0.000018,0.007874,-0.004053,-89.911501,0.007875,
1280,220,-0.049238,-14.162282,0.999998,0.000155,-0.000950,0.005067,-0.000024,0.005067,-0.000950,-89.774519,0.005387,
1070,570,0.365166,-12.081042,0.999997,0.000208,-0.002964,0.006086,-0.001322,0.006276,-0.003153,-81.855671,0.006276,
1820,740,-2.453679,-9.610679,0.999997,0.000205,-0.003781,0.007534,-0.000427,0.007550,-0.003797,-87.843596,0.007550,
920,730,1.190484,-10.295196,0.999995,0.000248,-0.005178,0.008897,-0.000447,0.008912,-0.005193,-88.183671,0.008952,
1630,1240,-1.886255,-5.813242,0.999997,0.000193,-0.004554,0.008702,0.000820,0.008753,-0.004604,86.472574,0.008757,
1520,1790,-0.431532,-1.358899,0.999996,0.000223,-0.002113,0.006167,0.000238,0.006174,-0.002120,88.351883,0.006274,
1900,310,-1.719676,-12.676139,0.999997,0.000000,-0.003628,0.007294,0.000068,0.007295,-0.003629,89.645484,0.007295,
900,510,0.898971,-12.012083,0.999998,0.000180,-0.003723,0.007371,-0.000619,0.007406,-0.003757,-86.817902,0.007406,
1090,890,0.926757,-10.056856,0.999996,0.000249,-0.003003,0.006605,-0.003951,0.008021,-0.004419,-70.280984,0.008035,
780,440,1.225296,-12.243965,0.999997,0.000191,-0.003708,0.007538,-0.000229,0.007543,-0.003713,-88.831726,0.007543,
1470,850,-1.196974,-9.461692,0.999994,0.000292,-0.005815,0.010218,0.000500,0.010234,-0.005830,88.214266,0.010267,
1590,1350,-1.364327,-4.755557,0.999996,0.000214,-0.004926,0.008657,-0.000149,0.008659,-0.004927,-89.370237,0.008686,
1230,1300,0.001321,-3.434928,0.999997,0.000184,-0.001527,0.002169,0.000073,0.002170,-0.001528,88.866056,0.002230,
1320,330,-0.131921,-13.570663,0.999998,0.000171,-0.001659,0.005416,0.000145,0.005419,-0.001662,88.827347,0.005553,
1480,1970,-0.085888,-0.319734,0.999998,0.000200,-0.000483,0.005053,0.000644,0.005127,-0.000557,83.453161,0.005626,
1690,980,-2.526699,-7.917541,0.999996,0.000245,-0.003216,0.007491,-0.000375,0.007504,-0.003229,-87.998883,0.007528,
720,950,2.662147,-8.127600,0.999996,0.000218,-0.003356,0.007392,0.000585,0.007424,-0.003388,86.894611,0.007433,
1240,680,-0.012231,-11.896632,0.999998,0.000148,-0.001578,0.003523,0.000257,0.003535,-0.001590,87.125701,0.003541,
1660,1690,-0.997067,-2.264174,0.999998,0.000169,-0.003448,0.007296,-0.000053,0.007296,-0.003448,-89.718265,0.007300,
1620,790,-1.759782,-9.542406,0.999996,0.000223,-0.004726,0.008779,-0.000619,0.008808,-0.004755,-87.381312,0.008817,
600,1460,2.247772,-4.496373,0.999997,0.000213,-0.003796,0.007650,-0.000032,0.007650,-0.003796,-89.839711,0.007650,
1850,210,-1.208677,-13.571621,0.999997,0.000190,-0.003651,0.007600,-0.000294,0.007607,-0.003658,-88.501851,0.007609,
640,1700,1.554435,-2.570198,0.999997,0.000225,-0.003723,0.007574,0.000008,0.007574,-0.003723,89.959713,0.007574,
1530,1300,-1.190661,-5.007980,0.999996,0.000200,-0.005365,0.009145,-0.000449,0.009159,-0.005379,-88.228640,0.009205,
1610,540,-1.126140,-11.659905,0.999996,0.000217,-0.004004,0.007770,0.000459,0.007788,-0.004022,87.772315,0.007790,
810,1580,1.178121,-3.069625,0.999996,0.000235,-0.003784,0.007550,0.000317,0.007559,-0.003793,88.401049,0.007559,
1670,580,-1.445240,-11.190098,0.999997,0.000202,-0.004151,0.007912,0.000187,0.007914,-0.004154,89.112728,0.007918,
850,1080,2.279698,-7.143552,0.999996,0.000244,-0.003088,0.007998,-0.000676,0.008039,-0.003129,-86.522210,0.008105,
600,1450,2.271194,-4.573003,0.999996,0.000236,-0.003789,0.007648,-0.000038,0.007648,-0.003789,-89.811549,0.007648,
1720,1280,-2.156268,-5.618515,0.999996,0.000268,-0.004136,0.008083,0.000683,0.008121,-0.004174,86.812709,0.008122,
1640,180,-0.484817,-14.180379,0.999997,0.000206,-0.001837,0.006456,-0.001059,0.006590,-0.001970,-82.838935,0.006765,
670,700,2.243173,-9.969522,0.999996,0.000219,-0.003940,0.007696,0.000366,0.007708,-0.003951,88.198523,0.007709,
1070,550,0.361533,-12.201784,0.999998,0.000189,-0.002809,0.006066,-0.001158,0.006215,-0.002958,-82.686155,0.006217,
1610,240,-0.579537,-13.814125,0.999997,0.000215,-0.002364,0.006665,-0.000580,0.006703,-0.002401,-86.340798,0.006792,
580,1520,2.185451,-4.083332,0.999997,0.000190,-0.003669,0.007476,-0.000095,0.007476,-0.003670,-89.512040,0.007477,
820,1650,1.016687,-2.523998,0.999997,0.000186,-0.003453,0.007377,0.000186,0.007381,-0.003457,89.014026,0.007386,
730,570,1.684171,-11.118658,0.999996,0.000220,-0.004029,0.007810,-0.000087,0.007811,-0.004030,-89.579993,0.007812,
1170,750,0.103161,-11.547421,0.999997,0.000211,-0.002230,0.003391,-0.002244,0.004177,-0.003016,-70.697046,0.004312,
1020,1410,0.574593,-3.718242,0.999995,0.000267,-0.004069,0.007214,0.001693,0.007463,-0.004318,81.650095,0.007493,
1760,110,-0.465816,-14.532907,0.999996,0.000225,-0.002582,0.006992,-0.001754,0.007303,-0.002893,-79.937616,0.007355,
1780,300,-1.257513,-13.073211,0.999997,0.000204,-0.003619,0.007564,-0.000193,0.007567,-0.003623,-89.010948,0.007569,
690,130,0.603504,-14.365296,0.999995,0.000247,-0.002731,0.007282,0.001705,0.007565,-0.003014,80.594924,0.007617,
660,1270,2.509987,-5.818149,0.999996,0.000246,-0.003786,0.007529,-0.000577,0.007559,-0.003816,-87.087825,0.007559,
1390,500,-0.338494,-12.510313,0.999997,0.000179,-0.002625,0.005975,0.000927,0.006073,-0.002724,83.920191,0.006084,
1810,1920,-0.726821,-0.843496,0.999997,0.000204,-0.002823,0.007732,0.001698,0.007998,-0.003090,81.082002,0.008067,
1690,1470,-1.541300,-4.017829,0.999995,0.000244,-0.004182,0.007896,-0.000099,0.007897,-0.004182,-89.531359,0.007901,
810,1370,1.612136,-4.743580,0.999995,0.000255,-0.004563,0.008334,-0.000124,0.008335,-0.004565,-89.449211,0.008348,
1390,1780,-0.209276,-1.294260,0.999998,0.000202,-0.001430,0.005558,0.000067,0.005558,-0.001430,89.448355,0.005773,
1900,300,-1.692016,-12.750103,0.999997,0.000000,-0.003635,0.007250,0.000055,0.007250,-0.003636,89.709345,0.007250,
1080,890,0.959563,-9.896853,0.999996,0.000236,-0.003709,0.007602,-0.003823,0.008773,-0.004880,-72.970608,0.008792,
1280,200,-0.043961,-14.263711,0.999998,0.000170,-0.000849,0.005035,-0.000091,0.005036,-0.000851,-89.111698,0.005391,
780,480,1.302237,-11.939184,0.999997,0.000203,-0.003809,0.007628,-0.000236,0.007633,-0.003814,-88.818439,0.007633,
1310,500,-0.152002,-12.651652,0.999998,0.000162,-0.002149,0.005358,0.000627,0.005410,-0.002201,85.254622,0.005441,
1850,190,-1.129423,-13.722651,0.999997,0.000196,-0.003654,0.007642,-0.000401,0.007656,-0.003668,-87.969472,0.007659,
1650,520,-1.249399,-11.711546,0.999998,0.000150,-0.003946,0.007707,0.000330,0.007716,-0.003956,88.380322,0.007717,
1470,940,-1.675221,-8.521279,0.999994,0.000270,-0.004371,0.010853,-0.000302,0.010859,-0.004377,-88.863646,0.010927,
1610,520,-1.093225,-11.815471,0.999996,0.000230,-0.003855,0.007603,0.000449,0.007621,-0.003872,87.758999,0.007621,
850,1810,0.601767,-1.344748,0.999996,0.000231,-0.002394,0.006704,-0.000598,0.006743,-0.002433,-86.258405,0.006830,
1590,1330,-1.417291,-4.930759,0.999995,0.000239,-0.005002,0.008761,-0.000011,0.008761,-0.005002,-89.952708,0.008791,
850,1820,0.574929,-1.274764,0.999997,0.000229,-0.002313,0.006644,-0.000648,0.006691,-0.002359,-85.880673,0.006787,
1300,330,-0.101664,-13.580846,0.999998,0.000164,-0.001448,0.005362,0.000048,0.005362,-0.001448,89.598455,0.005548,
1710,340,-1.108014,-12.933513,0.999997,0.000186,-0.003343,0.007426,-0.000146,0.007428,-0.003345,-89.221593,0.007440,
1760,1050,-2.766877,-7.397195,0.999997,0.000189,-0.003248,0.007235,0.000256,0.007241,-0.003254,88.604193,0.007253,
1730,920,-2.568038,-8.354374,0.999996,0.000230,-0.003480,0.007484,-0.000633,0.007520,-0.003516,-86.704629,0.007525,
840,690,1.486231,-10.404110,0.999995,0.000258,-0.004697,0.008491,-0.000014,0.008491,-0.004697,-89.941104,0.008507,
810,1560,1.216045,-3.223379,0.999996,0.000226,-0.003860,0.007653,0.000315,0.007662,-0.003869,88.431876,0.007662,
1820,720,-2.401863,-9.765580,0.999997,0.000194,-0.003804,0.007617,-0.000363,0.007629,-0.003815,-88.178887,0.007629,
1470,610,-0.654446,-11.552512,0.999997,0.000202,-0.003953,0.007317,0.001334,0.007473,-0.004109,83.338451,0.007485,
640,1680,1.602377,-2.720749,0.999997,0.000216,-0.003737,0.007537,0.000044,0.007537,-0.003737,89.775500,0.007537,
600,1680,1.750128,-2.824257,0.999997,0.000201,-0.003699,0.007435,0.000090,0.007436,-0.003700,89.536643,0.007436,
990,1460,0.654063,-3.469967,0.999997,0.000206,-0.003861,0.007261,0.001266,0.007404,-0.004004,83.588880,0.007412,
1640,160,-0.421939,-14.309038,0.999997,0.000198,-0.001645,0.006395,-0.001194,0.006569,-0.001819,-81.726809,0.006784,
1720,1260,-2.211178,-5.779581,0.999997,0.000238,-0.004097,0.007963,0.000729,0.008007,-0.004141,86.552780,0.008008,
950,1310,1.069455,-4.845548,0.999998,0.000169,-0.005352,0.009020,0.000744,0.009059,-0.005390,87.045172,0.009113,
1870,1490,-2.204286,-4.282763,0.999997,0.000201,-0.003818,0.007628,0.000008,0.007628,-0.003818,89.958700,0.007628,
1610,220,-0.533118,-13.946532,0.999997,0.000216,-0.002181,0.006468,-0.000673,0.006520,-0.002233,-85.578778,0.006627,
1510,350,-0.534673,-13.227298,0.999998,0.000198,-0.002642,0.006433,0.000175,0.006436,-0.002646,88.898439,0.006470,
1230,1280,0.002227,-3.472035,0.999995,0.000282,-0.001687,0.001795,0.000101,0.001798,-0.001690,88.333799,0.002017,
1870,1300,-2.678797,-5.717660,0.999997,0.000223,-0.003637,0.007326,0.000227,0.007331,-0.003641,88.812878,0.007331,
780,1920,0.424517,-0.686395,0.999997,0.000205,-0.001922,0.006427,-0.001374,0.006648,-0.002142,-80.891133,0.006786,
690,110,0.497574,-14.518048,0.999995,0.000251,-0.002513,0.007165,0.001868,0.007513,-0.002861,79.445853,0.007584,
1580,330,-0.685715,-13.251308,0.999996,0.000232,-0.002931,0.006866,0.000001,0.006866,-0.002931,89.996186,0.006890,
1380,1630,-0.282190,-2.142149,0.999997,0.000215,-0.002238,0.005827,-0.000542,0.005864,-0.002274,-86.174513,0.005913,
1390,400,-0.291872,-13.109859,0.999997,0.000174,-0.002169,0.005846,0.000433,0.005869,-0.002193,86.918625,0.005931,
900,490,0.871531,-12.159925,0.999997,0.000203,-0.003562,0.007302,-0.000559,0.007331,-0.003590,-87.061544,0.007331,
1850,170,-1.038017,-13.879348,0.999998,0.000177,-0.003658,0.007763,-0.000547,0.007789,-0.003684,-87.263220,0.007793,
1240,660,-0.013724,-11.971476,0.999998,0.000141,-0.001644,0.003778,0.000242,0.003789,-0.001655,87.444852,0.003799,
1590,800,-1.647507,-9.518322,0.999994,0.000280,-0.004957,0.009081,-0.000575,0.009105,-0.004981,-87.657196,0.009118,
1630,520,-1.171266,-11.763042,0.999998,0.000173,-0.003924,0.007674,0.000404,0.007688,-0.003938,88.008964,0.007689,
1620,1750,-0.752432,-1.763076,0.999998,0.000187,-0.002770,0.006879,0.000228,0.006884,-0.002776,88.648309,0.006927,
1380,830,-0.586686,-10.396379,0.999994,0.000306,-0.005193,0.007852,0.003025,0.008519,-0.005861,77.561568,0.008717,
640,1270,2.583872,-5.850651,0.999996,0.000247,-0.003713,0.007448,-0.000508,0.007471,-0.003736,-87.399052,0.007471,
730,550,1.641472,-11.274302,0.999996,0.000238,-0.003999,0.007808,-0.000101,0.007809,-0.004000,-89.511586,0.007810,
1170,730,0.101456,-11.613485,0.999997,0.000217,-0.002153,0.003656,-0.002002,0.004279,-0.002776,-72.709102,0.004342,
1020,1390,0.588733,-3.864560,0.999997,0.000256,-0.004264,0.007412,0.001765,0.007672,-0.004525,81.590759,0.007713,
1310,480,-0.149564,-12.760463,0.999998,0.000180,-0.002102,0.005419,0.000568,0.005461,-0.002145,85.708893,0.005503,
620,90,0.560298,-14.536270,0.999996,0.000214,-0.003468,0.008088,0.001733,0.008342,-0.003722,81.653840,0.008359,
1470,570,-0.624070,-11.840258,0.999996,0.000227,-0.003712,0.007053,0.001213,0.007188,-0.003847,83.650448,0.007194,
1740,1050,-2.702343,-7.395635,0.999997,0.000203,-0.003226,0.007304,0.000245,0.007310,-0.003231,88.666344,0.007326,
1070,80,0.044373,-14.836788,0.999999,0.000148,-0.000313,0.004770,0.000356,0.004795,-0.000337,86.016016,0.005353,
1900,290,-1.664409,-12.821692,0.999996,0.000000,-0.003626,0.007165,0.000014,0.007165,-0.003626,89.927343,0.007165,
810,1350,1.663993,-4.913973,0.999997,0.000233,-0.004608,0.008409,-0.000237,0.008413,-0.004612,-88.955722,0.008426,
770,1720,1.041693,-2.116178,0.999998,0.000146,-0.003279,0.007371,-0.000123,0.007373,-0.003280,-89.339960,0.007387,
1820,700,-2.346850,-9.916377,0.999997,0.000209,-0.003823,0.007568,-0.000330,0.007578,-0.003832,-88.342204,0.007578,
1800,830,-2.615615,-8.969239,0.999996,0.000219,-0.003650,0.007324,-0.000608,0.007357,-0.003683,-86.838410,0.007357,
1070,750,0.449256,-10.901611,0.999995,0.000251,-0.004675,0.007255,-0.002765,0.007865,-0.005284,-77.566909,0.008018,
1720,1240,-2.267649,-5.936964,0.999997,0.000229,-0.004031,0.007932,0.000811,0.007987,-0.004085,86.138213,0.007988,
1640,140,-0.362759,-14.435993,0.999997,0.000210,-0.001420,0.006191,-0.001221,0.006382,-0.001611,-81.102700,0.006638,
1600,1970,-0.167732,-0.348254,0.999998,0.000162,-0.000835,0.005459,0.001147,0.005661,-0.001037,79.984988,0.006028,
1780,280,-1.198625,-13.225404,0.999997,0.000195,-0.003572,0.007569,-0.000290,0.007577,-0.003579,-88.510736,0.007581,
1590,1310,-1.473068,-5.105610,0.999996,0.000247,-0.005013,0.008845,0.000119,0.008846,-0.005014,89.510111,0.008872,
1470,920,-1.570332,-8.735082,0.999995,0.000265,-0.004798,0.010621,-0.000251,0.010625,-0.004802,-89.068906,0.010642,
1050,1520,0.412167,-2.875672,0.999996,0.000251,-0.002958,0.006277,0.001120,0.006411,-0.003092,83.181855,0.006412,
1590,240,-0.533940,-13.838086,0.999997,0.000208,-0.002411,0.006515,-0.000484,0.006542,-0.002437,-86.907745,0.006612,
1850,370,-1.691574,-12.369185,0.999996,0.000221,-0.003675,0.007520,0.000089,0.007521,-0.003676,89.544295,0.007522,
1420,1820,-0.218802,-1.094535,0.999998,0.000176,-0.001551,0.005574,0.000123,0.005576,-0.001553,89.008874,0.005755,
1610,460,-0.997066,-12.264543,0.999997,0.000228,-0.003575,0.007430,0.000371,0.007442,-0.003587,88.072833,0.007444,
600,1440,2.295554,-4.649584,0.999997,0.000226,-0.003787,0.007650,-0.000056,0.007650,-0.003788,-89.718507,0.007650,
1890,380,-1.863626,-12.187953,0.999998,0.000171,-0.003734,0.007364,0.000076,0.007364,-0.003735,89.607424,0.007364,
640,1660,1.649547,-2.872668,0.999997,0.000226,-0.003734,0.007547,0.000078,0.007548,-0.003735,89.601599,0.007548,
1260,330,-0.044378,-13.591821,0.999997,0.000193,-0.001495,0.005333,0.000075,0.005333,-0.001496,89.372805,0.005502,
850,1790,0.645875,-1.475782,0.999997,0.000217,-0.002516,0.006721,-0.000441,0.006742,-0.002537,-87.273884,0.006811,
1780,1550,-1.727695,-3.609371,0.999997,0.000223,-0.003857,0.007712,-0.000110,0.007713,-0.003858,-89.456220,0.007713,
1790,1300,-2.379537,-5.570565,0.999995,0.000239,-0.003861,0.007641,0.000527,0.007665,-0.003885,87.383242,0.007665,
780,1900,0.497104,-0.819635,0.999997,0.000199,-0.002205,0.006676,-0.001287,0.006858,-0.002388,-81.918690,0.006963,
1510,1780,-0.425429,-1.410861,0.999997,0.000192,-0.002222,0.006205,0.000157,0.006208,-0.002225,88.931707,0.006291,
1240,640,-0.014778,-12.049205,0.999998,0.000153,-0.001689,0.004053,0.000232,0.004062,-0.001698,87.685881,0.004080,
1380,420,-0.280443,-13.007492,0.999997,0.000188,-0.002159,0.005783,0.000478,0.005811,-0.002188,86.566163,0.005870,
1070,1460,0.372960,-3.189601,0.999997,0.000188,-0.003130,0.006246,0.001573,0.006503,-0.003387,80.724226,0.006505,
1670,160,-0.484062,-14.279984,0.999997,0.000237,-0.002236,0.006604,-0.001176,0.006758,-0.002390,-82.552297,0.006854,
700,1270,2.354835,-5.759670,0.999998,0.000186,-0.003884,0.007690,-0.000671,0.007728,-0.003923,-86.694478,0.007729,
1210,1360,0.033245,-3.289151,0.999999,0.000131,-0.001604,0.003374,0.000640,0.003455,-0.001685,82.794602,0.003455,
1690,1450,-1.583354,-4.176573,0.999996,0.000232,-0.004222,0.007962,-0.000072,0.007963,-0.004222,-89.661093,0.007968,
1150,760,0.158376,-11.394096,0.999998,0.000179,-0.002772,0.004093,-0.002803,0.005093,-0.003771,-70.382402,0.005285,
1600,1750,-0.693749,-1.728040,0.999998,0.000164,-0.002834,0.006803,0.000164,0.006806,-0.002837,89.022763,0.006837,
1280,180,-0.038655,-14.364154,0.999998,0.000153,-0.000721,0.004940,-0.000079,0.004941,-0.000722,-89.204945,0.005338,
900,470,0.845920,-12.304220,0.999997,0.000188,-0.003435,0.007198,-0.000496,0.007221,-0.003458,-87.334883,0.007223,
1000,1390,0.678176,-3.953038,0.999996,0.000243,-0.004507,0.007693,0.001585,0.007896,-0.004709,82.716621,0.007945,
1120,500,0.223400,-12.601937,0.999998,0.000171,-0.002187,0.005587,-0.000693,0.005648,-0.002248,-84.947464,0.005687,
1190,480,0.077320,-12.790197,0.999997,0.000193,-0.001856,0.005186,-0.000225,0.005193,-0.001863,-88.169459,0.005261,
1540,1050,-2.111036,-7.368168,0.999998,0.000182,-0.002763,0.008723,0.000371,0.008735,-0.002775,88.151035,0.008927,
1900,280,-1.633758,-12.892584,0.999996,0.000000,-0.003636,0.007131,-0.000014,0.007131,-0.003636,-89.924159,0.007131,
1470,550,-0.605314,-11.984253,0.999996,0.000227,-0.003534,0.006940,0.001105,0.007056,-0.003649,84.041404,0.007057,
810,1330,1.719900,-5.082883,0.999997,0.000248,-0.004607,0.008416,-0.000346,0.008426,-0.004616,-88.481200,0.008438,
750,1720,1.107799,-2.155447,0.999998,0.000162,-0.003356,0.007420,-0.000142,0.007422,-0.003358,-89.244296,0.007433,
1690,1580,-1.321010,-3.160245,0.999998,0.000185,-0.003799,0.007593,-0.000246,0.007598,-0.003804,-88.761236,0.007598,
730,530,1.595975,-11.431767,0.999996,0.000221,-0.003954,0.007785,-0.000126,0.007786,-0.003955,-89.384644,0.007787,
990,1140,1.557427,-6.348397,0.999994,0.000297,-0.004864,0.010560,-0.000276,0.010565,-0.004869,-88.975675,0.010575,
1590,1290,-1.532498,-5.286002,0.999996,0.000229,-0.005011,0.008956,0.000275,0.008962,-0.005016,88.872822,0.008983,
1640,930,-2.275114,-8.323359,0.999997,0.000203,-0.003494,0.008087,-0.000908,0.008157,-0.003564,-85.545754,0.008179,
1500,1970,-0.099194,-0.324383,0.999998,0.000206,-0.000639,0.005093,0.000682,0.005173,-0.000719,83.302088,0.005604,
1170,710,0.103015,-11.687036,0.999997,0.000197,-0.002094,0.003875,-0.001769,0.004360,-0.002579,-74.669952,0.004384,
950,1290,1.124970,-5.028477,0.999996,0.000233,-0.005475,0.009246,0.000591,0.009270,-0.005499,87.705219,0.009324,
1640,120,-0.301361,-14.557536,0.999997,0.000194,-0.001206,0.006043,-0.001322,0.006277,-0.001439,-79.982390,0.006576,
1720,1220,-2.324943,-6.098202,0.999996,0.000239,-0.003923,0.007927,0.000874,0.007991,-0.003987,85.804933,0.007991,
1780,260,-1.140961,-13.374880,0.999997,0.000196,-0.003508,0.007558,-0.000410,0.007574,-0.003523,-87.880533,0.007580,
1840,1580,-1.890194,-3.523228,0.999998,0.000195,-0.003794,0.007633,-0.000105,0.007634,-0.003795,-89.473196,0.007634,
1770,580,-1.854736,-10.952730,0.999997,0.000202,-0.003951,0.007713,-0.000031,0.007713,-0.003951,-89.849701,0.007714,
1620,1490,-1.209795,-3.682918,0.999997,0.000202,-0.004132,0.007855,-0.000404,0.007868,-0.004145,-88.070008,0.007872,
1820,680,-2.293474,-10.068257,0.999997,0.000224,-0.003826,0.007597,-0.000279,0.007604,-0.003832,-88.603116,0.007604,
600,1400,2.395784,-4.955666,0.999996,0.000228,-0.003793,0.007523,-0.000136,0.007525,-0.003794,-89.309874,0.007525,
620,70,0.418787,-14.703118,0.999995,0.000253,-0.003355,0.008100,0.001998,0.008439,-0.003694,80.384153,0.008460,
860,210,0.493310,-14.016876,0.999997,0.000214,-0.002122,0.006387,0.000695,0.006443,-0.002179,85.358831,0.006555,
1840,650,-2.293827,-10.253684,0.999996,0.000223,-0.003818,0.007616,-0.000171,0.007618,-0.003820,-89.144107,0.007618,
580,1210,2.941010,-6.381531,0.999998,0.000153,-0.003304,0.006906,-0.000190,0.006910,-0.003307,-88.935128,0.006912,
640,1640,1.694124,-3.023778,0.999996,0.000240,-0.003750,0.007578,0.000096,0.007579,-0.003750,89.512543,0.007579,
1240,330,-0.013689,-13.598391,0.999998,0.000171,-0.001518,0.005293,0.000046,0.005293,-0.001518,89.611043,0.005451,
710,440,1.486321,-12.076845,0.999996,0.000258,-0.003765,0.007611,-0.000136,0.007613,-0.003766,-89.314059,0.007613,
1770,1300,-2.301851,-5.536133,0.999995,0.000250,-0.003954,0.007794,0.000579,0.007823,-0.003983,87.183530,0.007823,
1060,1960,0.061016,-0.355433,0.999998,0.000160,-0.000503,0.004882,-0.000357,0.004905,-0.000527,-86.224901,0.005386,
850,1770,0.691135,-1.613977,0.999996,0.000227,-0.002673,0.006899,-0.000348,0.006912,-0.002686,-87.917868,0.006969,
780,1880,0.564995,-0.953320,0.999996,0.000216,-0.002428,0.006719,-0.001137,0.006858,-0.002567,-83.016786,0.006930,
1480,630,-0.712828,-11.367065,0.999996,0.000238,-0.004246,0.007547,0.001366,0.007703,-0.004402,83.480223,0.007729,
1690,1430,-1.629747,-4.339018,0.999996,0.000241,-0.004252,0.008068,-0.000005,0.008068,-0.004252,-89.975887,0.008072,
880,150,0.307157,-14.407478,0.999998,0.000196,-0.001599,0.005971,0.000901,0.006076,-0.001705,83.307367,0.006269,
1240,620,-0.015842,-12.131084,0.999998,0.000161,-0.001735,0.004332,0.000204,0.004338,-0.001742,88.074523,0.004366,
1770,300,-1.220062,-13.096438,0.999997,0.000217,-0.003617,0.007534,-0.000183,0.007537,-0.003620,-89.059675,0.007539,
1120,480,0.219362,-12.714446,0.999998,0.000174,-0.002122,0.005604,-0.000610,0.005652,-0.002170,-85.516859,0.005703,
1420,1800,-0.240678,-1.207200,0.999998,0.000156,-0.001667,0.005591,0.000050,0.005591,-0.001667,89.608424,0.005741,
1520,1050,-2.057092,-7.359936,0.999997,0.000198,-0.002811,0.009194,0.000338,0.009203,-0.002821,88.389107,0.009430,
1510,330,-0.506253,-13.357721,0.999997,0.000217,-0.002493,0.006532,0.000060,0.006532,-0.002494,89.617925,0.006592,
1280,160,-0.033887,-14.462858,0.999998,0.000163,-0.000644,0.004928,-0.000104,0.004930,-0.000646,-88.930767,0.005359,
970,1840,0.298911,-1.033251,0.999997,0.000208,-0.001685,0.005747,-0.000353,0.005764,-0.001702,-87.286381,0.005923,
1850,1650,-1.772110,-3.017960,0.999997,0.000210,-0.003740,0.007492,-0.000112,0.007493,-0.003741,-89.428217,0.007493,
1760,1550,-1.649461,-3.560600,0.999997,0.000204,-0.003876,0.007704,-0.000132,0.007705,-0.003877,-89.344613,0.007705,
790,1140,2.358254,-6.694609,0.999995,0.000271,-0.003581,0.007948,-0.000875,0.008014,-0.003647,-85.685268,0.008025,
680,1270,2.432202,-5.787264,0.999997,0.000242,-0.003877,0.007606,-0.000646,0.007642,-0.003913,-86.787830,0.007643,
1470,530,-0.589240,-12.121375,0.999997,0.000206,-0.003325,0.006816,0.000989,0.006912,-0.003420,84.479279,0.006912,
1790,860,-2.651611,-8.760229,0.999996,0.000243,-0.003617,0.007361,-0.000676,0.007402,-0.003658,-86.491448,0.007403,
1310,680,-0.142043,-11.754456,0.999997,0.000208,-0.002302,0.004521,0.001767,0.004952,-0.002733,76.308851,0.004961,
1310,80,-0.020758,-14.844977,0.999999,0.000144,-0.000259,0.004657,-0.000163,0.004662,-0.000264,-88.103900,0.005237,
1420,1390,-0.495549,-3.763341,0.999996,0.000235,-0.004024,0.007003,-0.001962,0.007342,-0.004363,-80.208303,0.007385,
1640,100,-0.240042,-14.676779,0.999998,0.000175,-0.000947,0.005814,-0.001363,0.006078,-0.001211,-79.022254,0.006434,
730,510,1.555671,-11.585802,0.999997,0.000215,-0.003902,0.007715,-0.000176,0.007718,-0.003905,-89.134088,0.007718,
1170,690,0.106268,-11.761720,0.999998,0.000168,-0.002043,0.004045,-0.001574,0.004427,-0.002426,-76.332409,0.004434,
900,450,0.819759,-12.447378,0.999997,0.000206,-0.003328,0.007107,-0.000435,0.007125,-0.003346,-87.616020,0.007130,
600,70,0.485275,-14.642639,0.999996,0.000207,-0.003283,0.008632,0.002232,0.009036,-0.003687,79.730901,0.009087,
1600,1490,-1.128476,-3.629187,0.999996,0.000212,-0.004135,0.007844,-0.000519,0.007866,-0.004157,-87.522087,0.007870,
1900,270,-1.602234,-12.964383,0.999996,0.000000,-0.003642,0.007172,-0.000046,0.007172,-0.003643,-89.758931,0.007173,
1380,400,-0.271456,-13.122132,0.999997,0.000181,-0.002029,0.005765,0.000360,0.005781,-0.002046,87.359394,0.005863,
1590,1270,-1.595936,-5.464475,0.999995,0.000261,-0.005001,0.009010,0.000447,0.009024,-0.005015,88.173331,0.009043,
1720,1200,-2.382637,-6.255789,0.999996,0.000239,-0.003809,0.007796,0.000843,0.007857,-0.003869,85.866710,0.007857,
600,1380,2.444310,-5.105129,0.999997,0.000226,-0.003778,0.007525,-0.000145,0.007526,-0.003780,-89.266398,0.007526,
1820,660,-2.243636,-10.221064,0.999997,0.000208,-0.003837,0.007659,-0.000214,0.007663,-0.003841,-88.935647,0.007663,
1320,1970,-0.024836,-0.299398,0.999998,0.000161,-0.000326,0.004661,0.000169,0.004667,-0.000331,88.062452,0.005208,
1690,1600,-1.280763,-3.006831,0.999998,0.000204,-0.003757,0.007596,-0.000196,0.007600,-0.003760,-89.011751,0.007600,
670,180,0.891844,-13.957674,0.999997,0.000214,-0.003135,0.007576,0.001188,0.007707,-0.003265,83.744903,0.007737,
1780,240,-1.073956,-13.529490,0.999997,0.000192,-0.003447,0.007597,-0.000539,0.007623,-0.003473,-87.213456,0.007633,
950,1270,1.188900,-5.218392,0.999996,0.000234,-0.005587,0.009453,0.000405,0.009464,-0.005598,88.457874,0.009516,
1080,340,0.243834,-13.461613,0.999998,0.000178,-0.001726,0.005708,-0.000118,0.005710,-0.001728,-89.088582,0.005857,
870,1460,1.148771,-3.848527,0.999997,0.000179,-0.004292,0.007888,0.000493,0.007908,-0.004312,87.684085,0.007919,
1890,1300,-2.750304,-5.763594,0.999997,0.000199,-0.003593,0.007326,0.000137,0.007328,-0.003594,89.279654,0.007328,
810,1310,1.774119,-5.250639,0.999997,0.000247,-0.004600,0.008500,-0.000449,0.008515,-0.004616,-88.038214,0.008525,
1230,1720,0.002767,-1.546799,0.999998,0.000167,-0.001541,0.005284,0.000018,0.005284,-0.001541,89.850801,0.005435,
780,1860,0.630881,-1.089193,0.999996,0.000211,-0.002613,0.006893,-0.000996,0.006996,-0.002716,-84.084883,0.007054,
1390,660,-0.379177,-11.526538,0.999998,0.000166,-0.003526,0.006388,0.002055,0.006797,-0.003935,78.741983,0.006825,
1760,1750,-1.198663,-2.035516,0.999997,0.000217,-0.003644,0.007517,0.000144,0.007519,-0.003645,89.261963,0.007520,
1440,210,-0.222517,-14.148020,0.999998,0.000185,-0.001294,0.005520,-0.000288,0.005532,-0.001306,-87.586213,0.005783,
600,810,2.791537,-9.018586,0.999997,0.000217,-0.003474,0.006982,0.000271,0.006989,-0.003481,88.515953,0.006989,
1610,1180,-1.999455,-6.305638,0.999997,0.000184,-0.004147,0.008689,0.001063,0.008776,-0.004234,85.298227,0.008778,
880,170,0.355105,-14.285588,0.999997,0.000212,-0.001805,0.006032,0.000794,0.006111,-0.001885,84.274414,0.006259,
1560,1110,-2.040114,-6.859277,0.999997,0.000211,-0.003431,0.008750,0.001012,0.008834,-0.003515,85.282445,0.008895,
960,550,0.726911,-11.882111,0.999997,0.000218,-0.003668,0.007202,-0.000954,0.007285,-0.003752,-85.020267,0.007286,
1660,1810,-0.715124,-1.403639,0.999997,0.000207,-0.002811,0.006990,0.000593,0.007026,-0.002847,86.551604,0.007067,
1850,1690,-1.676611,-2.713518,0.999997,0.000217,-0.003676,0.007505,-0.000069,0.007505,-0.003676,-89.648576,0.007506,
850,1750,0.734250,-1.752624,0.999997,0.000210,-0.002782,0.006852,-0.000201,0.006856,-0.002786,-88.806986,0.006896,
960,950,1.851651,-8.309864,0.999996,0.000211,-0.003739,0.009789,0.000874,0.009845,-0.003795,86.318857,0.009931,
910,1080,2.096256,-7.112214,0.999996,0.000247,-0.003011,0.008592,-0.000754,0.008641,-0.003060,-86.296227,0.008762,
1470,510,-0.576670,-12.255641,0.999996,0.000217,-0.003157,0.006715,0.000879,0.006793,-0.003235,84.949091,0.006795,
1220,690,0.018438,-11.859150,0.999999,0.000138,-0.001553,0.003379,-0.000367,0.003406,-0.001580,-85.764843,0.003409,
1770,280,-1.163683,-13.247540,0.999997,0.000199,-0.003592,0.007556,-0.000272,0.007562,-0.003599,-88.604289,0.007565,
1640,80,-0.178795,-14.792526,0.999998,0.000150,-0.000715,0.005715,-0.001429,0.006018,-0.001019,-78.014684,0.006442,
1720,1180,-2.429753,-6.410504,0.999996,0.000251,-0.003726,0.007735,0.000826,0.007794,-0.003785,85.897810,0.007795,
1530,80,-0.109694,-14.814247,0.999999,0.000127,-0.000518,0.005164,-0.000826,0.005281,-0.000635,-81.893811,0.005766,
1280,140,-0.027968,-14.561655,0.999998,0.000161,-0.000519,0.004836,-0.000065,0.004836,-0.000520,-89.300922,0.005310,
1690,1410,-1.677776,-4.501323,0.999996,0.000242,-0.004294,0.008107,0.000069,0.008107,-0.004294,89.679661,0.008112,
1890,1240,-2.895264,-6.187186,0.999997,0.000198,-0.003407,0.006881,0.000153,0.006884,-0.003410,89.145505,0.006884,
1690,1560,-1.356563,-3.311682,0.999997,0.000219,-0.003861,0.007672,-0.000245,0.007678,-0.003866,-88.782551,0.007678,
990,1950,0.110313,-0.420399,0.999998,0.000177,-0.000563,0.005150,-0.000590,0.005210,-0.000624,-84.160699,0.005691,
1560,1430,-1.056098,-3.989289,0.999998,0.000170,-0.004464,0.008047,-0.000722,0.008088,-0.004505,-86.709083,0.008106,
1820,640,-2.192400,-10.376410,0.999997,0.000210,-0.003846,0.007693,-0.000147,0.007695,-0.003848,-89.268605,0.007695,
1590,1250,-1.664808,-5.648866,0.999997,0.000251,-0.004950,0.009058,0.000607,0.009084,-0.004976,87.524505,0.009098,
990,1520,0.603636,-3.041591,0.999997,0.000224,-0.003390,0.006875,0.001008,0.006973,-0.003488,84.445600,0.006973,
1390,640,-0.373472,-11.655050,0.999998,0.000178,-0.003400,0.006286,0.001920,0.006653,-0.003767,79.185735,0.006673,
600,1360,2.495849,-5.256871,0.999996,0.000237,-0.003751,0.007552,-0.000185,0.007555,-0.003754,-89.061233,0.007555,
1620,470,-1.050341,-12.166463,0.999997,0.000197,-0.003612,0.007450,0.000353,0.007461,-0.003623,88.175668,0.007462,
1550,1310,-1.266962,-4.984815,0.999995,0.000256,-0.005269,0.009024,-0.000252,0.009028,-0.005274,-88.990410,0.009071,
910,1010,2.149291,-7.707937,0.999998,0.000186,-0.002696,0.008433,0.000317,0.008442,-0.002705,88.367920,0.008622,
780,1840,0.695433,-1.228410,0.999997,0.000206,-0.002753,0.006944,-0.000826,0.007014,-0.002823,-85.163583,0.007058,
1130,2020,0.008710,-0.071400,0.999999,0.000000,-0.000145,0.004470,-0.000133,0.004473,-0.000149,-88.350722,0.005081,
1040,420,0.384860,-12.932368,0.999997,0.000214,-0.002415,0.006064,-0.000506,0.006094,-0.002445,-86.598853,0.006134,
1380,270,-0.191967,-13.858823,0.999998,0.000150,-0.001330,0.005486,-0.000074,0.005486,-0.001330,-89.379699,0.005724,
1430,70,-0.051030,-14.880018,0.999998,0.000154,-0.000361,0.004813,-0.000445,0.004851,-0.000399,-85.116241,0.005386,
1780,220,-1.004096,-13.680749,0.999998,0.000181,-0.003360,0.007554,-0.000710,0.007600,-0.003406,-86.292770,0.007614,
1120,460,0.215830,-12.825761,0.999998,0.000173,-0.002092,0.005574,-0.000535,0.005612,-0.002129,-86.025999,0.005666,
690,800,2.436374,-9.230696,0.999996,0.000246,-0.003872,0.007662,0.000687,0.007703,-0.003912,86.603397,0.007703,
1550,780,-1.373117,-9.813688,0.999995,0.000275,-0.005322,0.009266,-0.000039,0.009266,-0.005322,-89.845118,0.009300,
1510,310,-0.477438,-13.491250,0.999997,0.000223,-0.002385,0.006341,0.000022,0.006341,-0.002385,89.852723,0.006406,
1880,1300,-2.714934,-5.739453,0.999996,0.000226,-0.003610,0.007318,0.000169,0.007320,-0.003613,89.112717,0.007321,
640,1620,1.738585,-3.176975,0.999997,0.000199,-0.003774,0.007584,0.000100,0.007584,-0.003775,89.493341,0.007584,
1380,380,-0.262379,-13.238486,0.999998,0.000168,-0.001912,0.005766,0.000258,0.005775,-0.001920,88.074216,0.005882,
1860,1180,-2.931461,-6.552603,0.999997,0.000194,-0.003310,0.006794,0.000286,0.006802,-0.003318,88.378375,0.006803,
1470,490,-0.561132,-12.387187,0.999996,0.000202,-0.003066,0.006658,0.000814,0.006726,-0.003134,85.246218,0.006731,
1500,1050,-2.001184,-7.346448,0.999998,0.000160,-0.002950,0.009823,0.000308,0.009831,-0.002958,88.620067,0.010087,
1640,60,-0.118643,-14.906016,0.999998,0.000153,-0.000451,0.005479,-0.001406,0.005795,-0.000767,-77.316247,0.006296,
950,860,1.484141,-9.165919,0.999995,0.000284,-0.005262,0.009861,0.000473,0.009876,-0.005277,88.209372,0.009883,
810,240,0.681504,-13.763392,0.999997,0.000218,-0.002639,0.006936,0.000646,0.006980,-0.002683,86.158596,0.007042,
1830,1240,-2.687696,-6.082417,0.999997,0.000199,-0.003600,0.007184,0.000472,0.007204,-0.003620,87.501077,0.007204,
1240,600,-0.015131,-12.220882,0.999998,0.000156,-0.001801,0.004488,0.000193,0.004494,-0.001807,88.239414,0.004523,
1590,1230,-1.733261,-5.828226,0.999996,0.000259,-0.004825,0.009021,0.000762,0.009063,-0.004867,86.859217,0.009071,
640,2010,0.181547,-0.181281,0.999996,0.000261,-0.002071,0.006712,-0.002434,0.007341,-0.002700,-75.501086,0.007426,
1760,1530,-1.692803,-3.716232,0.999997,0.000195,-0.003924,0.007703,-0.000114,0.007704,-0.003925,-89.439682,0.007705,
860,1970,0.170994,-0.350424,0.999997,0.000209,-0.000786,0.005505,-0.001160,0.005712,-0.000993,-79.875193,0.006103,
1080,380,0.266990,-13.233282,0.999997,0.000196,-0.001961,0.005799,-0.000279,0.005809,-0.001971,-87.940352,0.005908,
1820,620,-2.142649,-10.530069,0.999997,0.000218,-0.003878,0.007690,-0.000118,0.007691,-0.003879,-89.414925,0.007691,
1740,1750,-1.124795,-1.988362,0.999997,0.000200,-0.003472,0.007475,0.000211,0.007479,-0.003476,88.897599,0.007485,
850,1730,0.769132,-1.889091,0.999998,0.000178,-0.002864,0.007001,-0.000128,0.007003,-0.002866,-89.254091,0.007041,
1840,210,-1.172186,-13.605559,0.999998,0.000169,-0.003625,0.007661,-0.000323,0.007670,-0.003634,-88.361634,0.007674,
1900,260,-1.570069,-13.036335,0.999995,0.000000,-0.003624,0.007229,-0.000065,0.007229,-0.003624,-89.658176,0.007229,
1600,570,-1.137273,-11.451576,0.999997,0.000219,-0.004131,0.007882,0.000516,0.007904,-0.004153,87.543190,0.007908,
1760,1110,-2.712386,-6.962277,0.999997,0.000220,-0.003387,0.007293,0.000591,0.007326,-0.003420,86.843470,0.007331,
1060,1330,0.468903,-4.098150,0.999996,0.000234,-0.004525,0.007261,0.002476,0.007760,-0.005024,78.604389,0.007872,
1170,670,0.108394,-11.844932,0.999998,0.000173,-0.002052,0.004233,-0.001404,0.004533,-0.002352,-77.962589,0.004534,
990,1500,0.620910,-3.181398,0.999995,0.000253,-0.003569,0.007000,0.001126,0.007118,-0.003688,83.987393,0.007120,
960,150,0.208967,-14.447510,0.999998,0.000155,-0.001229,0.005536,0.000593,0.005587,-0.001280,85.026855,0.005854,
1180,330,0.077582,-13.584332,0.999998,0.000150,-0.001458,0.005376,-0.000029,0.005376,-0.001458,-89.758350,0.005561,
730,490,1.515037,-11.740859,0.999997,0.000205,-0.003847,0.007683,-0.000171,0.007686,-0.003849,-89.150085,0.007686,
1210,1720,0.033406,-1.552879,0.999998,0.000138,-0.001504,0.005286,0.000105,0.005288,-0.001506,89.116156,0.005449,
830,440,1.045631,-12.360110,0.999997,0.000202,-0.003534,0.007431,-0.000258,0.007438,-0.003540,-88.654298,0.007440,
690,780,2.381809,-9.384653,0.999997,0.000208,-0.003881,0.007681,0.000640,0.007716,-0.003917,86.841380,0.007716,
640,1820,1.204658,-1.653479,0.999997,0.000230,-0.003552,0.007634,-0.000395,0.007648,-0.003566,-87.981541,0.007654,
1320,1640,-0.157995,-2.014771,0.999998,0.000177,-0.001989,0.005483,-0.000400,0.005505,-0.002010,-86.942003,0.005571,
800,1210,2.124570,-6.114291,0.999997,0.000223,-0.004118,0.008287,-0.000966,0.008362,-0.004192,-85.573955,0.008362,
930,860,1.588681,-9.101951,0.999996,0.000239,-0.005095,0.009612,0.000705,0.009646,-0.005129,87.262594,0.009652,
680,1910,0.702067,-0.876358,0.999996,0.000254,-0.002911,0.007437,-0.001556,0.007666,-0.003140,-81.629483,0.007707,
1570,80,-0.127655,-14.807333,0.999998,0.000164,-0.000688,0.005311,-0.000986,0.005469,-0.000846,-80.898727,0.005888,
1860,1160,-2.965182,-6.683657,0.999997,0.000182,-0.003255,0.006671,0.000235,0.006676,-0.003261,88.644908,0.006677,
720,350,1.249025,-12.784801,0.999997,0.000211,-0.003621,0.007521,0.000007,0.007521,-0.003621,89.965126,0.007523,
1120,440,0.211262,-12.938226,0.999998,0.000187,-0.002054,0.005580,-0.000476,0.005610,-0.002083,-86.445963,0.005671,
1040,400,0.370548,-13.055723,0.999997,0.000212,-0.002346,0.006020,-0.000436,0.006043,-0.002368,-87.024394,0.006089,
1640,1810,-0.662027,-1.375864,0.999998,0.000189,-0.002437,0.006875,0.000690,0.006926,-0.002488,85.787421,0.007017,
1380,360,-0.250457,-13.351370,0.999998,0.000180,-0.001809,0.005672,0.000198,0.005678,-0.001814,88.485769,0.005799,
1240,580,-0.014656,-12.311841,0.999998,0.000167,-0.001861,0.004651,0.000200,0.004657,-0.001867,88.245847,0.004688,
1880,980,-3.135392,-7.863117,0.999997,0.000214,-0.003044,0.006187,-0.000041,0.006188,-0.003045,-89.743777,0.006188,
1720,1160,-2.480345,-6.568131,0.999996,0.000230,-0.003631,0.007752,0.000862,0.007817,-0.003696,85.693452,0.007821,
1820,1550,-1.880715,-3.705623,0.999998,0.000197,-0.003830,0.007676,-0.000092,0.007677,-0.003831,-89.544355,0.007677,
1680,1750,-0.931553,-1.868816,0.999998,0.000190,-0.003264,0.007198,0.000202,0.007202,-0.003268,88.896803,0.007213,
850,1710,0.810640,-2.031527,0.999998,0.000167,-0.002903,0.007033,-0.000103,0.007034,-0.002904,-89.404394,0.007069,
1780,200,-0.929274,-13.832808,0.999997,0.000182,-0.003297,0.007577,-0.000881,0.007648,-0.003368,-85.399122,0.007666,
1210,1340,0.032190,-3.351329,0.999998,0.000148,-0.001566,0.003046,0.000727,0.003158,-0.001677,81.250115,0.003160,
640,2000,0.249553,-0.245387,0.999995,0.000283,-0.002219,0.007019,-0.002397,0.007604,-0.002804,-76.287610,0.007691,
1900,360,-1.852923,-12.310596,0.999998,0.000000,-0.003773,0.007389,-0.000007,0.007389,-0.003773,-89.962797,0.007390,
1170,650,0.112388,-11.932855,0.999998,0.000186,-0.002073,0.004403,-0.001246,0.004635,-0.002305,-79.478971,0.004635,
690,90,0.404212,-14.650802,0.999996,0.000218,-0.001990,0.006748,0.002128,0.007238,-0.002480,77.016776,0.007357,
1710,40,-0.092884,-14.997518,0.999998,0.000160,-0.000135,0.005609,-0.001925,0.006194,-0.000721,-73.087069,0.006775,
1130,820,0.334299,-10.970375,0.999997,0.000239,-0.003808,0.004835,-0.003221,0.005903,-0.004876,-71.651144,0.006307,
600,1340,2.548145,-5.408328,0.999997,0.000227,-0.003714,0.007432,-0.000218,0.007436,-0.003719,-88.878763,0.007436,
1840,250,-1.317425,-13.299324,0.999997,0.000220,-0.003639,0.007568,-0.000143,0.007569,-0.003641,-89.268622,0.007571,
990,1930,0.139514,-0.524561,0.999998,0.000178,-0.000726,0.005225,-0.000571,0.005279,-0.000780,-84.568792,0.005699,
830,300,0.778250,-13.370314,0.999997,0.000221,-0.002706,0.006969,0.000331,0.006980,-0.002717,88.041044,0.007037,
830,1520,1.208668,-3.482095,0.999995,0.000241,-0.003967,0.007736,0.000369,0.007748,-0.003979,88.193466,0.007749,
730,690,1.974274,-10.163707,0.999997,0.000241,-0.004179,0.007976,0.000339,0.007986,-0.004188,88.402645,0.007989,
1620,290,-0.721066,-13.460177,0.999997,0.000203,-0.002698,0.006954,-0.000352,0.006967,-0.002711,-87.915414,0.007023,
1140,1310,0.178695,-3.718705,0.999997,0.000217,-0.002913,0.004566,0.002779,0.005486,-0.003833,71.689367,0.005628,
1370,1720,-0.220963,-1.619175,0.999997,0.000206,-0.001663,0.005649,-0.000119,0.005651,-0.001665,-89.070438,0.005807,
690,760,2.327932,-9.540079,0.999995,0.000259,-0.003914,0.007753,0.000582,0.007782,-0.003943,87.150063,0.007782,
1120,880,0.774368,-10.583505,0.999995,0.000270,-0.001971,0.004049,-0.003069,0.005338,-0.003260,-67.219304,0.005381,
910,990,2.130202,-7.876103,0.999997,0.000210,-0.002842,0.008568,0.000567,0.008596,-0.002870,87.160878,0.008753,
640,1100,2.940708,-7.064185,0.999998,0.000182,-0.003269,0.006843,-0.000270,0.006850,-0.003276,-88.473697,0.006853,
780,1820,0.753487,-1.369584,0.999997,0.000195,-0.002901,0.007114,-0.000691,0.007161,-0.002949,-86.072272,0.007198,
1240,690,-0.012538,-11.862774,0.999998,0.000149,-0.001550,0.003361,0.000267,0.003375,-0.001564,86.901743,0.003378,
1890,1180,-3.027699,-6.597607,0.999997,0.000189,-0.003270,0.006457,0.000078,0.006458,-0.003270,89.539802,0.006458,
1860,1140,-2.997966,-6.817416,0.999998,0.000167,-0.003268,0.006705,0.000298,0.006714,-0.003277,88.292535,0.006714,
1380,1410,-0.340551,-3.454068,0.999996,0.000214,-0.003338,0.006111,-0.001945,0.006496,-0.003723,-78.809978,0.006519,
1700,130,-0.440532,-14.451010,0.999996,0.000238,-0.001689,0.006544,-0.001608,0.006847,-0.001992,-79.332409,0.007043,
1470,470,-0.546960,-12.521460,0.999997,0.000216,-0.003002,0.006630,0.000742,0.006687,-0.003058,85.622822,0.006695,
1090,400,0.257908,-13.128747,0.999998,0.000177,-0.001950,0.005676,-0.000332,0.005691,-0.001964,-87.509723,0.005781,
1510,730,-1.016036,-10.418945,0.999997,0.000190,-0.005256,0.008847,0.000896,0.008904,-0.005312,86.380833,0.008959,
1040,380,0.356529,-13.174145,0.999998,0.000207,-0.002281,0.006101,-0.000354,0.006116,-0.002296,-87.585183,0.006179,
840,970,2.301628,-8.012394,0.999997,0.000202,-0.003129,0.007960,0.000701,0.008004,-0.003173,86.396499,0.008061,
1640,1790,-0.713851,-1.513761,0.999998,0.000200,-0.002580,0.006907,0.000560,0.006940,-0.002613,86.630971,0.007010,
1550,80,-0.117498,-14.811340,0.999998,0.000160,-0.000471,0.005235,-0.000924,0.005381,-0.000617,-81.028378,0.005890,
1550,1290,-1.325843,-5.169483,0.999995,0.000238,-0.005325,0.009148,-0.000097,0.009149,-0.005326,-89.615266,0.009190,
1730,1600,-1.431097,-3.102943,0.999997,0.000229,-0.003779,0.007597,-0.000162,0.007599,-0.003781,-89.182384,0.007599,
1380,340,-0.241717,-13.463323,0.999997,0.000198,-0.001707,0.005681,0.000120,0.005683,-0.001709,89.067593,0.005832,
1860,1050,-3.087839,-7.410258,0.999998,0.000168,-0.003117,0.006558,0.000188,0.006561,-0.003121,88.887450,0.006564,
1130,1170,0.803164,-4.403015,0.999997,0.000000,-0.001814,0.003228,0.002851,0.004513,-0.003099,65.742353,0.004617,
1800,1550,-1.803619,-3.657231,0.999997,0.000242,-0.003830,0.007699,-0.000112,0.007700,-0.003831,-89.442098,0.007700,
1720,1140,-2.524207,-6.721363,0.999996,0.000225,-0.003516,0.007562,0.000710,0.007608,-0.003561,86.349887,0.007613,
1660,1750,-0.866192,-1.829098,0.999998,0.000204,-0.003141,0.007125,0.000215,0.007129,-0.003145,88.802233,0.007146,
1120,640,0.230575,-11.833107,0.999997,0.000197,-0.002743,0.005364,-0.001772,0.005735,-0.003113,-78.194896,0.005742,
1240,560,-0.016787,-12.407237,0.999998,0.000165,-0.001884,0.004798,0.000164,0.004802,-0.001888,88.593318,0.004838,
1870,1960,-0.691297,-0.720345,0.999997,0.000190,-0.003436,0.008424,0.001786,0.008687,-0.003699,81.621289,0.008718,
1780,180,-0.850513,-13.983669,0.999997,0.000197,-0.003169,0.007478,-0.001107,0.007592,-0.003283,-84.127511,0.007615,
1880,2020,-0.220063,-0.191427,0.999987,0.000000,0.000517,0.009663,0.005349,0.012127,-0.001947,65.264191,0.013026,
680,1890,0.794716,-1.030298,0.999997,0.000225,-0.003119,0.007556,-0.001320,0.007716,-0.003280,-83.054262,0.007745,
1840,230,-1.251357,-13.450032,0.999997,0.000205,-0.003627,0.007590,-0.000230,0.007595,-0.003631,-88.825982,0.007598,
1450,540,-0.532589,-12.106278,0.999997,0.000204,-0.003237,0.006669,0.001052,0.006780,-0.003347,84.005493,0.006780,
990,1910,0.168323,-0.630313,0.999998,0.000188,-0.000885,0.005339,-0.000544,0.005386,-0.000932,-85.042062,0.005757,
850,1910,0.337683,-0.698300,0.999997,0.000192,-0.001436,0.006083,-0.001081,0.006236,-0.001589,-81.982740,0.006481,
690,290,1.202067,-13.165725,0.999997,0.000210,-0.003581,0.007570,0.000214,0.007575,-0.003585,88.902661,0.007578,
1120,1310,0.243732,-3.847168,0.999997,0.000225,-0.003450,0.005333,0.002922,0.006216,-0.004334,73.179898,0.006375,
1230,1320,0.001534,-3.386202,0.999997,0.000209,-0.001467,0.002581,0.000062,0.002582,-0.001468,89.125567,0.002590,
1630,420,-0.999833,-12.515435,0.999998,0.000162,-0.003459,0.007362,0.000260,0.007369,-0.003465,88.623311,0.007373,
1640,260,-0.702284,-13.640571,0.999997,0.000187,-0.002531,0.006868,-0.000575,0.006904,-0.002566,-86.509429,0.006979,
780,1800,0.812663,-1.514076,0.999998,0.000182,-0.003014,0.007137,-0.000533,0.007164,-0.003042,-87.000987,0.007192,
600,1320,2.600974,-5.554119,0.999997,0.000207,-0.003672,0.007344,-0.000245,0.007350,-0.003678,-88.725045,0.007350,
960,830,1.298443,-9.504365,0.999997,0.000227,-0.005645,0.009885,-0.000053,0.009886,-0.005645,-89.805145,0.009919,
770,50,0.124763,-14.945079,0.999998,0.000171,-0.000537,0.005577,0.001667,0.006002,-0.000962,75.695679,0.006448,
1340,100,-0.038600,-14.746816,0.999998,0.000169,-0.000468,0.004787,-0.000212,0.004796,-0.000477,-87.692832,0.005284,
1170,1230,0.207803,-3.797447,0.999995,0.000229,-0.003152,0.002710,0.001933,0.003290,-0.003731,73.299760,0.004078,
1280,360,-0.076764,-13.425799,0.999998,0.000156,-0.001584,0.005354,0.000090,0.005355,-0.001585,89.260702,0.005502,
910,970,2.084055,-8.050838,0.999997,0.000214,-0.003094,0.008627,0.000787,0.008680,-0.003146,86.178070,0.008789,
1740,1110,-2.643647,-6.954062,0.999996,0.000223,-0.003413,0.007420,0.000639,0.007457,-0.003451,86.635665,0.007464,
1260,690,-0.044191,-11.841308,0.999999,0.000120,-0.001655,0.003515,0.000758,0.003624,-0.001764,81.824807,0.003625,
1860,1120,-3.032191,-6.953397,0.999998,0.000155,-0.003245,0.006690,0.000310,0.006700,-0.003255,88.211852,0.006701,
1770,860,-2.578270,-8.780115,0.999997,0.000214,-0.003669,0.007473,-0.000715,0.007518,-0.003715,-86.345556,0.007518,
650,1170,2.792144,-6.567227,0.999997,0.000218,-0.003473,0.007137,-0.000508,0.007161,-0.003498,-87.264561,0.007162,
1040,360,0.339112,-13.299960,0.999998,0.000211,-0.002249,0.006024,-0.000325,0.006037,-0.002262,-87.753768,0.006100,
1690,1390,-1.726374,-4.662476,0.999996,0.000241,-0.004325,0.008156,0.000154,0.008157,-0.004327,89.291607,0.008162,
1840,1430,-2.233289,-4.674610,0.999997,0.000201,-0.003805,0.007638,0.000093,0.007639,-0.003806,89.536113,0.007639,
830,1840,0.569344,-1.164532,0.999996,0.000212,-0.002110,0.006628,-0.000836,0.006708,-0.002190,-84.581085,0.006841,
1470,450,-0.528390,-12.654153,0.999997,0.000215,-0.002936,0.006603,0.000671,0.006650,-0.002983,85.995680,0.006662,
1130,1160,0.896578,-4.436455,0.999882,0.000000,-0.001349,0.002867,0.003465,0.004815,-0.003297,60.655775,0.004923,
1590,1210,-1.806332,-6.010725,0.999996,0.000251,-0.004652,0.008953,0.000919,0.009014,-0.004713,86.153656,0.009018,
1390,1620,-0.310585,-2.218992,0.999997,0.000199,-0.002427,0.005938,-0.000646,0.005988,-0.002477,-85.612551,0.006017,
1130,1720,0.156414,-1.587706,0.999998,0.000178,-0.001752,0.005477,0.000204,0.005483,-0.001757,88.387356,0.005600,
1880,1180,-2.995369,-6.580811,0.999997,0.000193,-0.003272,0.006577,0.000127,0.006579,-0.003274,89.258574,0.006579,
1110,80,0.035562,-14.840114,0.999999,0.000146,-0.000301,0.004706,0.000262,0.004719,-0.000314,87.011884,0.005277,
1840,1050,-3.025788,-7.407857,0.999998,0.000197,-0.003162,0.006725,0.000214,0.006729,-0.003167,88.758288,0.006733,
1070,400,0.299694,-13.104373,0.999997,0.000206,-0.002250,0.005838,-0.000476,0.005866,-0.002278,-86.644062,0.005914,
720,1900,0.624080,-0.876837,0.999997,0.000216,-0.002749,0.007162,-0.001327,0.007336,-0.002923,-82.503245,0.007387,
1600,490,-1.008746,-12.065138,0.999997,0.000198,-0.003689,0.007451,0.000456,0.007470,-0.003708,87.657927,0.007470,
1720,1120,-2.558523,-6.869752,0.999996,0.000238,-0.003420,0.007486,0.000632,0.007523,-0.003456,86.695354,0.007531,
1380,320,-0.227749,-13.579554,0.999998,0.000192,-0.001585,0.005658,0.000043,0.005659,-0.001586,89.656157,0.005838,
830,1460,1.321315,-3.956613,0.999996,0.000232,-0.004264,0.007963,0.000325,0.007971,-0.004273,88.479140,0.007978,
1510,750,-1.068183,-10.239900,0.999997,0.000200,-0.005407,0.009054,0.000750,0.009093,-0.005446,87.037267,0.009152,
1780,1730,-1.322212,-2.234207,0.999998,0.000178,-0.003628,0.007544,0.000043,0.007544,-0.003628,89.778840,0.007546,
1900,1000,-3.207366,-7.731000,0.999998,0.000000,-0.003040,0.006030,-0.000151,0.006033,-0.003043,-89.043703,0.006033,
1870,1950,-0.758068,-0.800855,0.999997,0.000190,-0.003477,0.008191,0.001514,0.008385,-0.003671,82.726942,0.008406,
1780,160,-0.764081,-14.132403,0.999997,0.000215,-0.003032,0.007535,-0.001387,0.007714,-0.003211,-82.646544,0.007750,
770,40,0.089880,-14.999732,0.999997,0.000230,-0.000369,0.005538,0.001686,0.005985,-0.000816,75.141794,0.006491,
780,1780,0.864081,-1.654674,0.999998,0.000173,-0.003149,0.007248,-0.000392,0.007263,-0.003164,-87.845049,0.007283,
1100,1330,0.303572,-3.856840,0.999997,0.000226,-0.003710,0.005999,0.002754,0.006726,-0.004437,75.215393,0.006839,
1390,140,-0.095526,-14.543879,0.999999,0.000131,-0.000619,0.005009,-0.000315,0.005026,-0.000637,-86.809531,0.005473,
1530,1560,-0.764442,-2.916657,0.999997,0.000210,-0.003465,0.007115,-0.000670,0.007157,-0.003508,-86.390593,0.007158,
600,1890,1.060261,-1.249569,0.999998,0.000168,-0.003643,0.007706,-0.000551,0.007733,-0.003670,-87.227659,0.007736,
1870,1350,-2.549558,-5.349031,0.999997,0.000236,-0.003703,0.007497,0.000163,0.007499,-0.003705,89.166678,0.007500,
850,1190,1.978615,-6.223579,0.999996,0.000249,-0.004273,0.008659,-0.001016,0.008738,-0.004352,-85.537201,0.008738,
970,400,0.547268,-12.936744,0.999997,0.000241,-0.002819,0.006508,-0.000412,0.006527,-0.002838,-87.476860,0.006545,
1550,1270,-1.388439,-5.352690,0.999996,0.000226,-0.005345,0.009268,0.000094,0.009269,-0.005346,89.632836,0.009305,
1520,590,-0.837568,-11.532670,0.999997,0.000207,-0.004102,0.007620,0.000959,0.007698,-0.004180,85.353265,0.007708,
1240,540,-0.015583,-12.503937,0.999998,0.000170,-0.001899,0.004940,0.000147,0.004943,-0.001902,88.766050,0.004987,
600,1300,2.652703,-5.702371,0.999997,0.000221,-0.003637,0.007362,-0.000270,0.007369,-0.003644,-88.596100,0.007369,
1340,140,-0.062550,-14.554962,0.999999,0.000136,-0.000707,0.004889,-0.000159,0.004893,-0.000712,-88.373025,0.005287,
680,1500,1.848165,-4.002852,0.999997,0.000202,-0.003904,0.007709,0.000052,0.007709,-0.003904,89.743304,0.007710,
1130,890,0.847070,-10.697974,0.999995,0.000000,-0.001634,0.003392,-0.003102,0.004871,-0.003113,-64.503512,0.004933,
1860,1100,-3.057235,-7.086858,0.999997,0.000195,-0.003197,0.006513,0.000114,0.006514,-0.003199,89.330061,0.006514,
1770,840,-2.530889,-8.929991,0.999995,0.000251,-0.003709,0.007482,-0.000699,0.007525,-0.003753,-86.440589,0.007525,
1110,1870,0.100534,-0.797796,0.999998,0.000164,-0.000923,0.005119,-0.000141,0.005122,-0.000926,-88.662645,0.005459,
1040,340,0.326312,-13.416881,0.999998,0.000221,-0.002168,0.005885,-0.000271,0.005894,-0.002177,-88.075782,0.005961,
1090,80,0.040089,-14.838189,0.999998,0.000153,-0.000268,0.004750,0.000328,0.004771,-0.000289,86.280432,0.005350,
650,1210,2.698319,-6.274558,0.999996,0.000214,-0.003580,0.007237,-0.000590,0.007269,-0.003612,-86.884836,0.007269,
950,1080,1.974068,-7.070082,0.999998,0.000171,-0.003176,0.009355,-0.000700,0.009394,-0.003215,-86.812646,0.009549,
910,950,2.033377,-8.224028,0.999997,0.000220,-0.003378,0.008794,0.000972,0.008871,-0.003455,85.462451,0.008943,
1400,1850,-0.162183,-0.918694,0.999998,0.000147,-0.001171,0.005324,0.000235,0.005332,-0.001179,87.934217,0.005602,
1870,1180,-2.962527,-6.565094,0.999997,0.000210,-0.003281,0.006678,0.000205,0.006683,-0.003285,88.820147,0.006683,
1290,1720,-0.089107,-1.563608,0.999998,0.000155,-0.001483,0.005402,-0.000022,0.005402,-0.001483,-89.817357,0.005582,
1530,200,-0.336962,-14.143564,0.999998,0.000169,-0.001536,0.005941,-0.000594,0.005988,-0.001583,-85.484072,0.006206,
1630,1490,-1.249127,-3.707641,0.999997,0.000195,-0.004120,0.007879,-0.000364,0.007890,-0.004131,-88.262698,0.007893,
1380,300,-0.214180,-13.691258,0.999998,0.000179,-0.001498,0.005592,0.000010,0.005592,-0.001498,89.922409,0.005790,
1720,1340,-1.988101,-5.132356,0.999997,0.000261,-0.004210,0.008062,0.000438,0.008077,-0.004225,87.960491,0.008080,
1840,1410,-2.282148,-4.827424,0.999997,0.000222,-0.003812,0.007621,0.000145,0.007622,-0.003814,89.274155,0.007622,
990,1890,0.197503,-0.740071,0.999998,0.000169,-0.001048,0.005465,-0.000521,0.005507,-0.001090,-85.458336,0.005832,
740,1770,1.016139,-1.803518,0.999998,0.000150,-0.003150,0.007449,-0.000445,0.007467,-0.003169,-87.599882,0.007496,
730,1970,0.289876,-0.393262,0.999997,0.000199,-0.001482,0.006181,-0.001820,0.006591,-0.001892,-77.296080,0.006787,
1470,430,-0.511401,-12.785943,0.999997,0.000202,-0.002847,0.006497,0.000595,0.006534,-0.002885,86.369279,0.006549,
860,1240,1.762627,-5.766374,0.999996,0.000230,-0.004757,0.008916,-0.000736,0.008955,-0.004796,-86.927940,0.008963,
1170,130,0.033850,-14.607111,0.999998,0.000146,-0.000451,0.004767,0.000130,0.004771,-0.000455,88.575745,0.005266,
1870,1110,-3.078669,-7.030967,0.999997,0.000213,-0.003185,0.006496,0.000182,0.006499,-0.003189,88.922357,0.006500,
1370,400,-0.252924,-13.132563,0.999997,0.000194,-0.001948,0.005679,0.000321,0.005692,-0.001961,87.591876,0.005783,
1550,1300,-1.296677,-5.077232,0.999994,0.000258,-0.005311,0.009096,-0.000177,0.009098,-0.005313,-89.296432,0.009141,
970,460,0.605809,-12.537921,0.999997,0.000210,-0.002990,0.006718,-0.000601,0.006755,-0.003027,-86.468702,0.006767,
1780,140,-0.668095,-14.284714,0.999997,0.000222,-0.002804,0.007337,-0.001609,0.007586,-0.003053,-81.199059,0.007634,
630,1520,1.996511,-3.966254,0.999998,0.000176,-0.003790,0.007632,0.000052,0.007632,-0.003790,89.737532,0.007632,
1210,140,0.011629,-14.563494,0.999998,0.000146,-0.000612,0.004792,0.000018,0.004792,-0.000612,89.811822,0.005216,
1310,1380,-0.140852,-3.345798,0.999997,0.000221,-0.002310,0.004542,-0.001682,0.004933,-0.002700,-76.924832,0.004940,
1550,1560,-0.833741,-2.964748,0.999998,0.000213,-0.003513,0.007220,-0.000605,0.007254,-0.003547,-86.785983,0.007254,
780,40,0.083573,-15.002028,0.999998,0.000197,-0.000535,0.005433,0.001563,0.005817,-0.000920,76.175636,0.006254,
590,720,2.598230,-9.653248,0.999997,0.000222,-0.003859,0.007390,0.000238,0.007395,-0.003864,88.789157,0.007397,
780,1760,0.917899,-1.804921,0.999997,0.000184,-0.003232,0.007239,-0.000292,0.007247,-0.003240,-88.404365,0.007260,
1240,520,-0.016528,-12.604458,0.999998,0.000181,-0.001899,0.005002,0.000138,0.005005,-0.001902,88.858261,0.005052,
1570,620,-1.093735,-11.140694,0.999996,0.000245,-0.004436,0.008008,0.000653,0.008042,-0.004470,87.006310,0.008059,
660,1910,0.760952,-0.910177,0.999998,0.000223,-0.002791,0.007651,-0.001650,0.007905,-0.003045,-81.230601,0.007974,
1900,1020,-3.219849,-7.608728,0.999998,0.000000,-0.003064,0.006260,-0.000100,0.006261,-0.003065,-89.385613,0.006262,
1860,1080,-3.068691,-7.217338,0.999997,0.000189,-0.003143,0.006410,0.000064,0.006410,-0.003144,89.614227,0.006411,
1130,880,0.762920,-10.736080,0.999998,0.000000,-0.002032,0.003416,-0.002576,0.004441,-0.003058,-68.298499,0.004545,
1130,80,0.029417,-14.842248,0.999998,0.000166,-0.000324,0.004651,0.000196,0.004659,-0.000332,87.746014,0.005198,
1280,470,-0.090404,-12.837668,0.999999,0.000125,-0.001862,0.005268,0.000226,0.005275,-0.001869,88.188860,0.005349,
1040,320,0.306369,-13.535243,0.999998,0.000186,-0.002066,0.005895,-0.000153,0.005898,-0.002069,-88.901379,0.005985,
690,1570,1.656122,-3.438150,0.999996,0.000229,-0.003837,0.007673,0.000137,0.007675,-0.003838,89.318311,0.007675,
910,930,1.964452,-8.401632,0.999997,0.000226,-0.003738,0.008963,0.001072,0.009052,-0.003828,85.209941,0.009088,
930,1080,2.036077,-7.095366,0.999998,0.000184,-0.003079,0.008935,-0.000736,0.008980,-0.003124,-86.505624,0.009117,
1390,1320,-0.421560,-4.092760,0.999995,0.000249,-0.004421,0.006997,-0.002673,0.007592,-0.005015,-77.456272,0.007721,
660,700,2.282153,-9.950195,0.999996,0.000216,-0.003884,0.007650,0.000352,0.007661,-0.003895,88.252922,0.007661,
900,970,2.114386,-8.043343,0.999997,0.000188,-0.003084,0.008502,0.000777,0.008554,-0.003136,86.181993,0.008655,
820,350,0.906712,-13.001824,0.999997,0.000204,-0.003191,0.007147,0.000056,0.007148,-0.003191,89.690239,0.007161,
1380,280,-0.198635,-13.804475,0.999998,0.000169,-0.001380,0.005561,-0.000064,0.005562,-0.001381,-89.469794,0.005792,
990,1870,0.228064,-0.847738,0.999998,0.000164,-0.001182,0.005542,-0.000454,0.005573,-0.001212,-86.152345,0.005862,
1850,1180,-2.897130,-6.538359,0.999997,0.000219,-0.003368,0.006908,0.000370,0.006921,-0.003381,87.938722,0.006922,
860,1280,1.631896,-5.409247,0.999996,0.000233,-0.004913,0.008902,-0.000434,0.008916,-0.004926,-88.204422,0.008932,
1190,1720,0.063644,-1.558607,0.999998,0.000170,-0.001523,0.005328,0.000076,0.005328,-0.001524,89.368368,0.005489,
1790,1740,-1.333373,-2.183364,0.999997,0.000204,-0.003609,0.007528,0.000103,0.007529,-0.003610,89.470534,0.007531,
1720,1100,-2.593058,-7.023465,0.999996,0.000230,-0.003348,0.007517,0.000614,0.007552,-0.003382,86.774957,0.007565,
740,60,0.177687,-14.879495,0.999997,0.000197,-0.000645,0.005924,0.001957,0.006463,-0.001184,74.606652,0.006882,
590,1330,2.611124,-5.503524,0.999996,0.000241,-0.003730,0.007361,-0.000116,0.007362,-0.003731,-89.402229,0.007363,
1510,770,-1.122867,-10.057722,0.999995,0.000254,-0.005539,0.009274,0.000588,0.009297,-0.005562,87.731308,0.009357,
1500,1490,-0.729684,-3.336910,0.999997,0.000214,-0.003767,0.007302,-0.001022,0.007395,-0.003861,-84.769645,0.007398,
600,1280,2.704028,-5.850449,0.999996,0.000220,-0.003603,0.007286,-0.000311,0.007295,-0.003612,-88.364159,0.007295,
810,1140,2.283117,-6.682821,0.999996,0.000267,-0.003611,0.008088,-0.000951,0.008165,-0.003688,-85.381832,0.008177,
1180,560,0.097173,-12.377634,0.999998,0.000156,-0.001996,0.004952,-0.000542,0.004994,-0.002038,-85.562683,0.005022,
1470,410,-0.491888,-12.918167,0.999997,0.000214,-0.002720,0.006403,0.000495,0.006429,-0.002746,86.904487,0.006452,
1340,1900,-0.073779,-0.642929,0.999998,0.000143,-0.000804,0.005013,0.000165,0.005018,-0.000809,88.374542,0.005388,
1130,310,0.145268,-13.670981,0.999998,0.000152,-0.001646,0.005450,-0.000159,0.005453,-0.001650,-88.714040,0.005593,
1240,500,-0.016309,-12.702475,0.999998,0.000159,-0.001885,0.005099,0.000135,0.005102,-0.001888,88.893180,0.005159,
1550,1250,-1.460204,-5.541875,0.999996,0.000241,-0.005282,0.009399,0.000297,0.009405,-0.005288,88.841152,0.009429,
1260,1590,-0.051624,-2.245653,0.999998,0.000149,-0.001849,0.005193,-0.000221,0.005199,-0.001856,-88.201891,0.005270,
1590,280,-0.617773,-13.575850,0.999998,0.000173,-0.002662,0.006735,-0.000279,0.006743,-0.002670,-88.300607,0.006792,
1250,140,-0.010478,-14.563469,0.999998,0.000198,-0.000613,0.004809,0.000009,0.004809,-0.000613,89.900222,0.005235,
1640,1540,-1.201285,-3.343724,0.999997,0.000200,-0.003904,0.007680,-0.000361,0.007692,-0.003915,-88.217879,0.007692,
1900,1740,-1.733129,-2.481175,0.999996,0.000000,-0.003635,0.007287,-0.000060,0.007288,-0.003635,-89.682719,0.007288,
1780,120,-0.571932,-14.428975,0.999997,0.000224,-0.002602,0.007420,-0.001902,0.007769,-0.002951,-79.607207,0.007844,
1740,1810,-0.951624,-1.535537,0.999996,0.000211,-0.003244,0.007480,0.000577,0.007511,-0.003275,86.929847,0.007531,
1130,30,0.006129,-15.071352,0.999998,0.000000,-0.000123,0.004486,0.000164,0.004491,-0.000129,87.969654,0.005113,
1860,1060,-3.083081,-7.342902,0.999998,0.000171,-0.003124,0.006496,0.000156,0.006498,-0.003126,89.073793,0.006500,
1520,1430,-0.880569,-3.859660,0.999997,0.000224,-0.004326,0.007832,-0.000988,0.007911,-0.004406,-85.386353,0.007928,
1450,520,-0.520481,-12.238463,0.999997,0.000213,-0.003160,0.006600,0.000994,0.006701,-0.003260,84.241758,0.006701,
590,710,2.573325,-9.727282,0.999996,0.000241,-0.003869,0.007395,0.000267,0.007401,-0.003875,88.642948,0.007404,
1040,300,0.289360,-13.653259,0.999997,0.000209,-0.001940,0.005780,-0.000093,0.005781,-0.001941,-89.308224,0.005884,
910,910,1.892328,-8.583202,0.999997,0.000214,-0.004090,0.009133,0.001076,0.009220,-0.004177,85.380112,0.009234,
780,1740,0.964164,-1.946189,0.999998,0.000159,-0.003271,0.007274,-0.000163,0.007276,-0.003274,-89.115149,0.007289,
690,1610,1.573207,-3.130313,0.999996,0.000236,-0.003789,0.007602,0.000126,0.007603,-0.003790,89.366931,0.007603,
1180,1390,0.088130,-3.226462,0.999998,0.000178,-0.001963,0.004115,0.001219,0.004351,-0.002199,79.068114,0.004351,
650,500,1.844423,-11.469517,0.999997,0.000237,-0.003820,0.007698,-0.000082,0.007698,-0.003821,-89.593731,0.007698,
690,1080,2.790637,-7.183620,0.999997,0.000195,-0.003275,0.007078,-0.000227,0.007083,-0.003280,-88.743870,0.007089,
940,970,1.991875,-8.080753,0.999997,0.000213,-0.003227,0.009167,0.000779,0.009215,-0.003276,86.416477,0.009343,
1510,790,-1.187348,-9.867304,0.999995,0.000263,-0.005632,0.009511,0.000378,0.009520,-0.005641,88.572419,0.009575,
1460,1910,-0.158126,-0.626145,0.999998,0.000143,-0.000799,0.005289,0.000513,0.005331,-0.000842,85.216104,0.005732,
1410,940,-1.392482,-8.997042,0.999991,0.000348,-0.004910,0.011829,0.004104,0.012781,-0.005862,76.938671,0.012796,
1520,190,-0.301694,-14.211165,0.999998,0.000167,-0.001522,0.005846,-0.000556,0.005888,-0.001563,-85.712141,0.006100,
1850,1960,-0.620273,-0.649098,0.999996,0.000205,-0.003543,0.008088,0.001627,0.008311,-0.003766,82.182342,0.008323,
1380,260,-0.185806,-13.911942,0.999998,0.000152,-0.001278,0.005430,-0.000099,0.005431,-0.001280,-89.150476,0.005679,
660,680,2.231575,-10.103432,0.999997,0.000191,-0.003919,0.007637,0.000304,0.007645,-0.003927,88.491863,0.007646,
870,790,1.626515,-9.602719,0.999996,0.000241,-0.004954,0.009015,0.000509,0.009034,-0.004972,87.917081,0.009049,
1400,1790,-0.215003,-1.244765,0.999998,0.000166,-0.001525,0.005559,0.000046,0.005560,-0.001525,89.629359,0.005745,
1130,1220,0.395946,-4.220986,0.999996,0.000264,-0.003632,0.004661,0.003011,0.005639,-0.004609,72.008108,0.006006,
740,1500,1.610830,-3.861520,0.999997,0.000245,-0.004015,0.007800,0.000110,0.007801,-0.004016,89.467043,0.007802,
1100,510,0.270040,-12.511642,0.999997,0.000199,-0.002485,0.005746,-0.000902,0.005844,-0.002583,-83.821318,0.005857,
1720,1060,-2.633045,-7.318912,0.999997,0.000219,-0.003195,0.007345,0.000249,0.007351,-0.003201,88.646103,0.007372,
1500,1470,-0.747489,-3.484330,0.999997,0.000222,-0.003951,0.007440,-0.001070,0.007539,-0.004051,-84.681034,0.007546,
1410,1720,-0.291565,-1.657250,0.999999,0.000181,-0.002071,0.005820,-0.000224,0.005827,-0.002077,-88.378809,0.005906,
1900,1730,-1.758775,-2.554014,0.999996,0.000000,-0.003660,0.007268,-0.000031,0.007268,-0.003660,-89.835306,0.007268,
1780,100,-0.462610,-14.581963,0.999997,0.000217,-0.002171,0.007046,-0.002071,0.007490,-0.002615,-77.903715,0.007603,
930,1140,1.828181,-6.545575,0.999996,0.000247,-0.004135,0.009417,-0.001064,0.009500,-0.004218,-85.536299,0.009520,
700,350,1.321464,-12.737200,0.999997,0.000207,-0.003631,0.007556,0.000006,0.007556,-0.003631,89.971078,0.007558,
1230,140,0.001064,-14.564807,0.999998,0.000137,-0.000628,0.004805,-0.000014,0.004805,-0.000628,-89.857179,0.005223,
1120,2020,0.010784,-0.071431,0.999998,0.000000,-0.000124,0.004475,-0.000163,0.004481,-0.000130,-87.970736,0.005101,
990,1850,0.254141,-0.962415,0.999998,0.000187,-0.001304,0.005656,-0.000406,0.005680,-0.001328,-86.675841,0.005942,
900,1730,0.627536,-1.803037,0.999997,0.000205,-0.002676,0.006717,-0.000039,0.006717,-0.002676,-89.759493,0.006763,
600,1260,2.756406,-5.995167,0.999997,0.000216,-0.003537,0.007097,-0.000286,0.007105,-0.003545,-88.459563,0.007105,
1040,280,0.269516,-13.766939,0.999997,0.000189,-0.001818,0.005749,0.000009,0.005749,-0.001818,89.928195,0.005877,
1180,600,0.094335,-12.185239,0.999998,0.000169,-0.002037,0.004696,-0.000750,0.004779,-0.002119,-83.720796,0.004789,
1640,1580,-1.129478,-3.037900,0.999998,0.000160,-0.003700,0.007514,-0.000301,0.007522,-0.003708,-88.463395,0.007522,
1280,1590,-0.089752,-2.253958,0.999998,0.000158,-0.001861,0.005269,-0.000212,0.005275,-0.001867,-88.299547,0.005349,
1540,1390,-1.034641,-4.252305,0.999997,0.000196,-0.004753,0.008354,-0.000777,0.008400,-0.004799,-86.620132,0.008428,
810,1510,1.305937,-3.609532,0.999997,0.000193,-0.004015,0.007832,0.000307,0.007840,-0.004023,88.515920,0.007841,
1860,1040,-3.094465,-7.476419,0.999998,0.000183,-0.003103,0.006605,0.000155,0.006607,-0.003105,89.086833,0.006611,
1040,750,0.599889,-10.701080,0.999996,0.000237,-0.005120,0.008121,-0.002277,0.008502,-0.005501,-80.512182,0.008623,
950,1250,1.255856,-5.409633,0.999995,0.000254,-0.005630,0.009647,0.000171,0.009649,-0.005632,89.359331,0.009694,
1790,100,-0.488192,-14.569253,0.999997,0.000257,-0.002009,0.007236,-0.002263,0.007760,-0.002533,-76.958269,0.007914,
1500,1430,-0.795925,-3.791315,0.999996,0.000241,-0.004313,0.007677,-0.001193,0.007794,-0.004431,-84.371155,0.007819,
1420,1280,-0.630580,-4.607311,0.999996,0.000252,-0.005443,0.008474,-0.002338,0.008857,-0.005825,-80.714451,0.009002,
590,1080,3.110333,-7.222708,0.999998,0.000190,-0.003059,0.006301,-0.000043,0.006301,-0.003059,-89.736790,0.006302,
920,970,2.053753,-8.060082,0.999996,0.000241,-0.003117,0.008786,0.000804,0.008840,-0.003171,86.155077,0.008957,
1410,930,-1.335407,-9.112278,0.999992,0.000316,-0.004701,0.011040,0.003754,0.011889,-0.005550,77.249945,0.011898,
590,810,2.826617,-9.001453,0.999997,0.000208,-0.003478,0.006919,0.000195,0.006922,-0.003482,88.923193,0.006922,
1450,500,-0.507169,-12.371604,0.999996,0.000209,-0.003099,0.006557,0.000933,0.006646,-0.003188,84.528541,0.006648,
1750,1960,-0.369206,-0.471600,0.999997,0.000188,-0.002248,0.006447,0.001722,0.006776,-0.002576,79.196696,0.006840,
870,770,1.563315,-9.781839,0.999995,0.000239,-0.004993,0.008952,0.000337,0.008960,-0.005002,88.615942,0.008980,
1380,240,-0.168619,-14.022417,0.999998,0.000156,-0.001182,0.005393,-0.000159,0.005397,-0.001186,-88.612022,0.005673,
1000,1750,0.370250,-1.541255,0.999997,0.000184,-0.001864,0.005991,-0.000051,0.005991,-0.001864,-89.626818,0.006132,
1150,1240,0.243933,-3.937068,0.999997,0.000201,-0.003416,0.003682,0.002829,0.004672,-0.004406,70.717809,0.005248,
660,660,2.176398,-10.257571,0.999997,0.000202,-0.003928,0.007714,0.000232,0.007719,-0.003932,88.859194,0.007719,
1510,1230,-1.318458,-5.597366,0.999997,0.000229,-0.005593,0.009795,0.000025,0.009795,-0.005593,89.907407,0.009828,
780,1720,1.009409,-2.096688,0.999998,0.000175,-0.003277,0.007341,-0.000101,0.007342,-0.003278,-89.457053,0.007356,
910,890,1.810415,-8.768868,0.999997,0.000201,-0.004463,0.009221,0.001017,0.009297,-0.004539,85.771880,0.009298,
1120,1160,0.912955,-4.598827,0.999882,0.000000,-0.001331,0.004104,0.003717,0.005991,-0.003218,63.086703,0.005996,
1820,600,-2.092645,-10.683448,0.999997,0.000204,-0.003875,0.007674,-0.000081,0.007674,-0.003875,-89.600373,0.007674,
1550,1230,-1.533664,-5.732309,0.999996,0.000232,-0.005189,0.009485,0.000500,0.009502,-0.005206,88.050763,0.009516,
1780,80,-0.366619,-14.712855,0.999996,0.000233,-0.001630,0.007062,-0.002584,0.007773,-0.002340,-74.630805,0.007975,
1130,350,0.162985,-13.450780,0.999998,0.000182,-0.001830,0.005494,-0.000252,0.005503,-0.001838,-88.029035,0.005603,
650,700,2.321055,-9.930848,0.999997,0.000217,-0.003836,0.007617,0.000329,0.007627,-0.003845,88.353593,0.007627,
1340,1880,-0.083542,-0.742277,0.999998,0.000185,-0.000920,0.005039,0.000123,0.005041,-0.000922,88.813098,0.005368,
680,350,1.394067,-12.688295,0.999996,0.000225,-0.003654,0.007570,0.000019,0.007570,-0.003654,89.904160,0.007572,
700,1100,2.740240,-7.039005,0.999997,0.000203,-0.003355,0.007242,-0.000499,0.007266,-0.003378,-87.308187,0.007272,
1470,390,-0.472455,-13.045857,0.999997,0.000201,-0.002536,0.006352,0.000360,0.006367,-0.002550,87.686376,0.006408,
1070,1520,0.356424,-2.828101,0.999996,0.000228,-0.002718,0.006048,0.001042,0.006170,-0.002840,83.312878,0.006176,
860,1950,0.218416,-0.458683,0.999998,0.000199,-0.001058,0.005688,-0.001109,0.005865,-0.001236,-80.899002,0.006184,
990,700,0.770676,-10.842421,0.999997,0.000197,-0.004907,0.008238,-0.001510,0.008409,-0.005078,-83.530035,0.008469,
1870,390,-1.813588,-12.164978,0.999997,0.000204,-0.003730,0.007441,0.000105,0.007442,-0.003731,89.459178,0.007442,
1410,1700,-0.305850,-1.773253,0.999998,0.000196,-0.002188,0.005893,-0.000288,0.005903,-0.002199,-87.958712,0.005967,
1280,120,-0.025540,-14.656748,0.999999,0.000158,-0.000417,0.004783,-0.000109,0.004786,-0.000419,-88.794919,0.005300,
1720,1430,-1.756168,-4.407680,0.999996,0.000223,-0.004191,0.007928,0.000061,0.007928,-0.004191,89.712869,0.007933,
920,1750,0.547521,-1.645915,0.999997,0.000195,-0.002273,0.006441,-0.000149,0.006444,-0.002275,-89.018897,0.006536,
1500,190,-0.270684,-14.225517,0.999998,0.000146,-0.001580,0.005722,-0.000459,0.005751,-0.001609,-86.417589,0.005934,
1690,1370,-1.777391,-4.828963,0.999997,0.000219,-0.004369,0.008168,0.000259,0.008173,-0.004374,88.818479,0.008180,
1040,260,0.249130,-13.883049,0.999998,0.000169,-0.001667,0.005591,0.000043,0.005591,-0.001667,89.661676,0.005741,
990,80,0.076396,-14.827150,0.999999,0.000151,-0.000379,0.005001,0.000626,0.005073,-0.000450,83.451785,0.005615,
1650,2000,-0.108090,-0.189138,0.999998,0.000186,-0.000566,0.005457,0.001412,0.005772,-0.000881,77.440399,0.006219,
810,790,1.911799,-9.484567,0.999996,0.000229,-0.004489,0.008493,0.000716,0.008533,-0.004528,86.853361,0.008538,
1630,1300,-1.697839,-5.290509,0.999996,0.000240,-0.004756,0.008662,0.000448,0.008677,-0.004771,88.090361,0.008692,
1550,1210,-1.612277,-5.922489,0.999996,0.000238,-0.005038,0.009380,0.000706,0.009414,-0.005073,87.202054,0.009424,
1750,1240,-2.388121,-5.975070,0.999996,0.000258,-0.003920,0.007780,0.000761,0.007829,-0.003969,86.295629,0.007829,
1240,1320,-0.013286,-3.389391,0.999998,0.000172,-0.001456,0.002579,-0.000300,0.002602,-0.001479,-85.770196,0.002610,
1090,1420,0.316173,-3.366433,0.999997,0.000174,-0.003131,0.005947,0.001823,0.006300,-0.003484,79.058439,0.006311,
1190,490,0.078426,-12.738557,0.999998,0.000181,-0.001864,0.005169,-0.000234,0.005177,-0.001872,-88.093783,0.005243,
980,1750,0.407428,-1.562084,0.999997,0.000211,-0.002134,0.006126,-0.000021,0.006126,-0.002134,-89.854515,0.006219,
760,1490,1.550231,-3.891198,0.999996,0.000279,-0.004072,0.007833,0.000136,0.007834,-0.004074,89.346406,0.007836,
870,750,1.502619,-9.961549,0.999996,0.000250,-0.005017,0.008851,0.000172,0.008853,-0.005019,89.290782,0.008879,
1400,1910,-0.106259,-0.607530,0.999998,0.000142,-0.000790,0.005099,0.000330,0.005117,-0.000808,86.800047,0.005502,
1340,1860,-0.095051,-0.845737,0.999998,0.000166,-0.001018,0.005128,0.000115,0.005130,-0.001020,88.927056,0.005431,
660,640,2.127411,-10.412089,0.999997,0.000204,-0.003912,0.007760,0.000153,0.007762,-0.003914,89.248951,0.007762,
580,810,2.860644,-8.981378,0.999997,0.000200,-0.003554,0.006870,0.000100,0.006871,-0.003555,89.448632,0.006873,
1380,440,-0.288358,-12.891734,0.999998,0.000190,-0.002316,0.005840,0.000605,0.005885,-0.002361,85.779392,0.005923,
1590,1190,-1.879056,-6.189361,0.999997,0.000227,-0.004439,0.008865,0.000993,0.008939,-0.004513,85.753442,0.008939,
1730,660,-1.883622,-10.410014,0.999998,0.000189,-0.004187,0.007997,-0.000209,0.008001,-0.004190,-89.019016,0.008004,
1540,270,-0.480809,-13.706004,0.999997,0.000213,-0.002029,0.006303,-0.000326,0.006316,-0.002042,-87.763559,0.006446,
700,1080,2.757918,-7.183131,0.999997,0.000206,-0.003264,0.007147,-0.000244,0.007153,-0.003270,-88.660782,0.007162,
730,1500,1.650845,-3.885234,0.999996,0.000250,-0.004002,0.007789,0.000100,0.007790,-0.004002,89.514133,0.007791,
610,60,0.381222,-14.761019,0.999994,0.000261,-0.003105,0.008032,0.002318,0.008495,-0.003569,78.701547,0.008532,
1470,590,-0.637512,-11.695704,0.999997,0.000217,-0.003838,0.007174,0.001297,0.007325,-0.003989,83.372850,0.007334,
1540,390,-0.664906,-12.917803,0.999996,0.000232,-0.002828,0.006729,0.000240,0.006735,-0.002834,88.559746,0.006763,
1900,1720,-1.786583,-2.628262,0.999996,0.000000,-0.003710,0.007269,0.000014,0.007269,-0.003710,89.924965,0.007269,
1350,760,-0.279474,-11.144596,0.999997,0.000223,-0.003824,0.005689,0.003133,0.006628,-0.004763,73.314561,0.006836,
580,520,2.151116,-11.151775,0.999998,0.000171,-0.003709,0.007580,-0.000013,0.007580,-0.003709,-89.931623,0.007581,
1790,920,-2.772395,-8.322803,0.999998,0.000167,-0.003404,0.007157,-0.000528,0.007183,-0.003431,-87.144429,0.007185,
990,1830,0.283148,-1.073997,0.999998,0.000178,-0.001441,0.005712,-0.000358,0.005730,-0.001459,-87.141278,0.005956,
670,1800,1.168647,-1.736617,0.999997,0.000222,-0.003487,0.007595,-0.000471,0.007615,-0.003507,-87.570383,0.007623,
1090,170,0.108999,-14.391541,0.999998,0.000159,-0.000771,0.005074,0.000245,0.005085,-0.000781,87.605220,0.005476,
910,870,1.730846,-8.952639,0.999996,0.000222,-0.004728,0.009318,0.000950,0.009382,-0.004792,86.147497,0.009383,
1170,80,0.018190,-14.845329,0.999998,0.000150,-0.000228,0.004628,0.000156,0.004633,-0.000233,88.163426,0.005220,
1040,240,0.229408,-13.992549,0.999998,0.000174,-0.001540,0.005582,0.000128,0.005584,-0.001542,88.973449,0.005768,
1280,80,-0.016129,-14.845094,0.999998,0.000150,-0.000225,0.004604,-0.000115,0.004607,-0.000228,-88.631513,0.005193,
1680,1970,-0.238964,-0.372536,0.999997,0.000198,-0.001172,0.005889,0.001555,0.006217,-0.001499,78.115716,0.006489,
740,1480,1.654067,-4.017905,0.999996,0.000229,-0.004052,0.007821,0.000061,0.007822,-0.004053,89.703593,0.007824,
1190,140,0.024427,-14.562572,0.999998,0.000138,-0.000556,0.004790,0.000066,0.004791,-0.000557,89.293394,0.005241,
750,1460,1.657671,-4.152696,0.999996,0.000229,-0.004111,0.007927,0.000040,0.007927,-0.004111,89.811951,0.007929,
1770,680,-2.098792,-10.169297,0.999996,0.000222,-0.004010,0.007812,-0.000321,0.007821,-0.004019,-88.443400,0.007822,
1140,180,0.069571,-14.358363,0.999998,0.000186,-0.000900,0.005033,0.000102,0.005034,-0.000902,89.016921,0.005369,
1820,580,-2.047798,-10.837857,0.999997,0.000187,-0.003845,0.007676,-0.000010,0.007676,-0.003845,-89.947853,0.007676,
1780,60,-0.231264,-14.865470,0.999997,0.000221,-0.000983,0.006766,-0.002737,0.007635,-0.001852,-72.383096,0.007965,
780,1700,1.054584,-2.242613,0.999997,0.000177,-0.003339,0.007316,-0.000036,0.007316,-0.003339,-89.808472,0.007326,
1510,1210,-1.400821,-5.795154,0.999996,0.000274,-0.005484,0.009848,0.000257,0.009853,-0.005488,89.041827,0.009874,
600,1240,2.803414,-6.135482,0.999997,0.000199,-0.003476,0.006966,-0.000293,0.006975,-0.003485,-88.393978,0.006975,
1240,1340,-0.012781,-3.333928,0.999998,0.000154,-0.001461,0.002956,-0.000304,0.002977,-0.001482,-86.082980,0.002977,
1570,200,-0.398140,-14.114423,0.999997,0.000208,-0.001855,0.006148,-0.000667,0.006204,-0.001910,-85.265483,0.006355,
660,620,2.078488,-10.568085,0.999998,0.000200,-0.003897,0.007714,0.000112,0.007715,-0.003898,89.448996,0.007715,
1430,940,-1.493890,-8.778189,0.999994,0.000290,-0.004998,0.011613,0.001758,0.011797,-0.005182,84.023214,0.011826,
1670,1240,-2.062784,-5.875906,0.999998,0.000189,-0.004250,0.008310,0.000831,0.008365,-0.004304,86.231655,0.008366,
1550,1410,-1.046213,-4.119175,0.999997,0.000204,-0.004579,0.008174,-0.000734,0.008216,-0.004621,-86.717261,0.008237,
960,1970,0.100062,-0.325059,0.999998,0.000149,-0.000643,0.005118,-0.000676,0.005197,-0.000722,-83.392500,0.005630,
1390,1720,-0.253393,-1.634313,0.999998,0.000161,-0.001761,0.005721,-0.000142,0.005724,-0.001763,-88.910306,0.005863,
1370,1670,-0.246216,-1.902436,0.999998,0.000176,-0.001871,0.005685,-0.000255,0.005694,-0.001880,-88.066909,0.005802,
1070,1420,0.382957,-3.444831,0.999998,0.000168,-0.003417,0.006292,0.001852,0.006634,-0.003759,79.558916,0.006653,
900,870,1.775952,-8.933459,0.999997,0.000210,-0.004609,0.009185,0.000987,0.009255,-0.004679,85.929291,0.009255,
1730,640,-1.833385,-10.571816,0.999996,0.000209,-0.004144,0.007969,-0.000123,0.007970,-0.004145,-89.416607,0.007973,
1520,270,-0.439812,-13.729919,0.999995,0.000237,-0.002138,0.006214,-0.000200,0.006219,-0.002143,-88.630804,0.006318,
1320,470,-0.171596,-12.802294,0.999998,0.000203,-0.002088,0.005474,0.000582,0.005519,-0.002132,85.620946,0.005566,
1580,1770,-0.600612,-1.563022,0.999997,0.000205,-0.002629,0.006638,0.000234,0.006644,-0.002635,88.553172,0.006691,
950,1230,1.333455,-5.608810,0.999995,0.000258,-0.005572,0.009792,-0.000079,0.009792,-0.005573,-89.706717,0.009823,
1340,1840,-0.107431,-0.947331,0.999998,0.000167,-0.001100,0.005138,0.000075,0.005139,-0.001101,89.307933,0.005411,
1590,1170,-1.951540,-6.368356,0.999997,0.000219,-0.004163,0.008856,0.001093,0.008947,-0.004254,85.235560,0.008951,
1860,1020,-3.098889,-7.611447,0.999998,0.000186,-0.003083,0.006593,-0.000084,0.006594,-0.003084,-89.504717,0.006598,
1190,470,0.077645,-12.841649,0.999998,0.000185,-0.001848,0.005201,-0.000214,0.005208,-0.001854,-88.262777,0.005279,
1380,1910,-0.092185,-0.600290,0.999998,0.000152,-0.000625,0.005059,0.000288,0.005073,-0.000639,87.104580,0.005526,
1460,1800,-0.305556,-1.241304,0.999998,0.000169,-0.001553,0.005816,0.000241,0.005824,-0.001561,88.125834,0.006029,
870,730,1.446294,-10.136043,0.999996,0.000230,-0.005001,0.008773,0.000022,0.008773,-0.005001,89.907005,0.008802,
700,1060,2.772116,-7.324577,0.999998,0.000187,-0.003221,0.007161,-0.000230,0.007167,-0.003226,-88.733725,0.007178,
1340,1570,-0.215299,-2.428528,0.999997,0.000184,-0.002130,0.005598,-0.000641,0.005651,-0.002183,-85.293954,0.005699,
1090,150,0.091393,-14.494487,0.999998,0.000137,-0.000648,0.005039,0.000294,0.005054,-0.000663,87.044131,0.005493,
1880,1490,-2.242939,-4.305435,0.999996,0.000244,-0.003814,0.007649,0.000002,0.007649,-0.003814,89.991047,0.007649,
670,1780,1.231582,-1.887074,0.999997,0.000204,-0.003524,0.007536,-0.000346,0.007547,-0.003535,-88.211848,0.007552,
910,850,1.647511,-9.144337,0.999996,0.000231,-0.004952,0.009391,0.000770,0.009432,-0.004993,86.935707,0.009438,
750,1440,1.703188,-4.312038,0.999997,0.000219,-0.004176,0.007944,-0.000020,0.007944,-0.004176,-89.907700,0.007947,
650,640,2.165787,-10.390824,0.999998,0.000184,-0.003895,0.007746,0.000154,0.007748,-0.003897,89.239793,0.007748,
1610,800,-1.744640,-9.475354,0.999996,0.000229,-0.004762,0.008859,-0.000648,0.008890,-0.004792,-87.283918,0.008899,
590,70,0.519661,-14.617205,0.999997,0.000202,-0.003370,0.008968,0.002509,0.009459,-0.003861,78.934305,0.009512,
780,1680,1.097019,-2.390186,0.999997,0.000185,-0.003435,0.007415,0.000035,0.007415,-0.003436,89.815255,0.007422,
740,1460,1.699065,-4.175166,0.999997,0.000205,-0.004096,0.007908,0.000000,0.007908,-0.004096,89.998282,0.007910,
1510,1190,-1.492054,-5.994765,0.999995,0.000279,-0.005283,0.009887,0.000489,0.009903,-0.005299,88.155904,0.009911,
1550,200,-0.365844,-14.130173,0.999997,0.000200,-0.001535,0.006041,-0.000668,0.006100,-0.001593,-84.997707,0.006328,
1750,50,-0.152836,-14.934242,0.999998,0.000174,-0.001046,0.006124,-0.002204,0.006748,-0.001670,-74.206551,0.007029,
1650,1090,-2.378065,-7.076039,0.999996,0.000249,-0.003187,0.007778,0.000695,0.007822,-0.003231,86.387190,0.007861,
1650,1240,-1.977275,-5.846678,0.999997,0.000224,-0.004365,0.008499,0.000838,0.008554,-0.004420,86.287210,0.008555,
1280,60,-0.007426,-14.935789,0.999998,0.000145,-0.000131,0.004556,-0.000113,0.004558,-0.000134,-88.622674,0.005188,
660,600,2.029877,-10.722430,0.999997,0.000194,-0.003870,0.007711,0.000080,0.007711,-0.003871,89.603368,0.007711,
1390,70,-0.035196,-14.885852,0.999998,0.000160,-0.000255,0.004733,-0.000360,0.004759,-0.000281,-85.887980,0.005340,
880,870,1.866559,-8.897060,0.999997,0.000211,-0.004436,0.008931,0.001014,0.009007,-0.004512,85.688374,0.009007,
1430,1470,-0.489129,-3.254097,0.999997,0.000215,-0.003389,0.006641,-0.001354,0.006821,-0.003569,-82.447898,0.006823,
1730,620,-1.786656,-10.727899,0.999997,0.000188,-0.004130,0.007917,-0.000074,0.007917,-0.004130,-89.648162,0.007920,
1150,1400,0.152259,-3.262115,0.999997,0.000205,-0.002302,0.004745,0.001530,0.005063,-0.002620,78.263597,0.005064,
1390,600,-0.364411,-11.909284,0.999997,0.000212,-0.003140,0.006178,0.001562,0.006433,-0.003395,80.732494,0.006436,
1300,850,-0.383695,-11.198107,0.999995,0.000233,-0.003719,0.002410,0.000797,0.002512,-0.003821,82.709385,0.003884,
990,1810,0.310140,-1.191487,0.999998,0.000186,-0.001574,0.005848,-0.000293,0.005860,-0.001586,-87.741196,0.006062,
1340,1820,-0.117594,-1.050550,0.999998,0.000162,-0.001235,0.005258,0.000032,0.005258,-0.001235,89.718257,0.005499,
1550,690,-1.134706,-10.620819,0.999997,0.000241,-0.004923,0.008584,0.000606,0.008611,-0.004950,87.434937,0.008643,
1570,380,-0.738114,-12.927948,0.999997,0.000212,-0.003091,0.006920,0.000210,0.006925,-0.003095,88.799646,0.006938,
1040,220,0.208363,-14.106422,0.999998,0.000177,-0.001429,0.005474,0.000188,0.005479,-0.001434,88.437062,0.005682,
1690,340,-1.043955,-12.972340,0.999997,0.000197,-0.003296,0.007374,-0.000095,0.007375,-0.003296,-89.489122,0.007388,
1900,1710,-1.813601,-2.699403,0.999997,0.000000,-0.003773,0.007257,0.000056,0.007257,-0.003773,89.708151,0.007259,
1210,1800,0.026712,-1.132186,0.999999,0.000143,-0.001186,0.005138,0.000047,0.005139,-0.001186,89.576811,0.005381,
700,1040,2.782974,-7.468321,0.999998,0.000183,-0.003220,0.007189,-0.000177,0.007192,-0.003223,-89.024553,0.007205,
1590,1150,-2.020315,-6.543787,0.999997,0.000200,-0.003901,0.008662,0.001050,0.008749,-0.003988,85.256379,0.008760,
1360,1910,-0.079206,-0.596415,0.999999,0.000121,-0.000652,0.005026,0.000244,0.005036,-0.000663,87.541003,0.005473,
1170,140,0.035211,-14.560791,0.999999,0.000126,-0.000490,0.004803,0.000122,0.004806,-0.000492,88.679386,0.005288,
870,710,1.391409,-10.313129,0.999996,0.000225,-0.004943,0.008680,-0.000103,0.008681,-0.004944,-89.564995,0.008709,
1240,1360,-0.012856,-3.273691,0.999998,0.000161,-0.001510,0.003275,-0.000273,0.003291,-0.001526,-86.747322,0.003294,
600,1220,2.849985,-6.274239,0.999998,0.000172,-0.003441,0.006990,-0.000332,0.007001,-0.003452,-88.178732,0.007001,
1470,1870,-0.222069,-0.845926,0.999998,0.000167,-0.001111,0.005527,0.000457,0.005559,-0.001142,86.082957,0.005871,
1860,1000,-3.085985,-7.743010,0.999998,0.000184,-0.003089,0.006503,-0.000189,0.006507,-0.003093,-88.870226,0.006510,
950,1210,1.419087,-5.806824,0.999995,0.000271,-0.005427,0.009832,-0.000300,0.009838,-0.005433,-88.872319,0.009856,
1540,430,-0.718001,-12.641544,0.999997,0.000181,-0.003209,0.006950,0.000467,0.006971,-0.003230,87.371653,0.006977,
1490,1460,-0.719473,-3.524850,0.999997,0.000225,-0.003952,0.007411,-0.001159,0.007528,-0.004069,-84.234019,0.007536,
670,1840,1.030696,-1.432076,0.999997,0.000191,-0.003344,0.007641,-0.000792,0.007698,-0.003400,-85.898620,0.007715,
730,1460,1.739652,-4.198693,0.999997,0.000199,-0.004087,0.007891,-0.000025,0.007891,-0.004087,-89.880736,0.007893,
910,830,1.570122,-9.330511,0.999996,0.000254,-0.005124,0.009427,0.000587,0.009451,-0.005148,87.691800,0.009463,
1190,450,0.077347,-12.947379,0.999998,0.000172,-0.001825,0.005287,-0.000201,0.005292,-0.001830,-88.385246,0.005375,
1100,490,0.266150,-12.628107,0.999997,0.000200,-0.002372,0.005781,-0.000769,0.005853,-0.002444,-84.661699,0.005880,
1090,130,0.078116,-14.594503,0.999998,0.000142,-0.000535,0.004987,0.000292,0.005002,-0.000551,86.983479,0.005486,
630,640,2.241971,-10.347174,0.999997,0.000198,-0.003842,0.007687,0.000139,0.007688,-0.003844,89.309381,0.007688,
590,60,0.448726,-14.705691,0.999996,0.000233,-0.002766,0.008858,0.003148,0.009656,-0.003563,75.779083,0.009765,
1650,1070,-2.407647,-7.232499,0.999997,0.000220,-0.003091,0.007696,0.000400,0.007710,-0.003106,87.877886,0.007759,
1760,790,-2.357899,-9.326640,0.999997,0.000237,-0.003898,0.007733,-0.000689,0.007774,-0.003939,-86.621673,0.007774,
1300,1390,-0.122774,-3.272582,0.999998,0.000212,-0.002077,0.004424,-0.001442,0.004729,-0.002383,-78.036580,0.004730,
1430,1510,-0.471999,-2.992019,0.999996,0.000215,-0.003188,0.006514,-0.001187,0.006657,-0.003332,-83.122628,0.006657,
660,580,1.982814,-10.876813,0.999997,0.000196,-0.003841,0.007707,0.000034,0.007707,-0.003841,89.832602,0.007707,
1750,60,-0.201867,-14.871837,0.999996,0.000224,-0.001311,0.006334,-0.002216,0.006929,-0.001907,-74.950531,0.007159,
1550,1320,-1.240035,-4.895240,0.999995,0.000266,-0.005210,0.008935,-0.000344,0.008943,-0.005219,-88.607625,0.008985,
1690,1350,-1.830444,-4.992590,0.999997,0.000231,-0.004401,0.008181,0.000358,0.008192,-0.004411,88.372897,0.008200,
780,1270,2.028187,-5.644047,0.999997,0.000212,-0.004317,0.008320,-0.000737,0.008363,-0.004360,-86.673389,0.008365,
1730,600,-1.739184,-10.888815,0.999997,0.000207,-0.004121,0.007875,-0.000048,0.007875,-0.004121,-89.770225,0.007878,
1360,270,-0.165119,-13.870824,0.999999,0.000140,-0.001362,0.005413,-0.000014,0.005413,-0.001362,-89.880141,0.005631,
580,1080,3.140432,-7.226091,0.999998,0.000175,-0.002954,0.006211,0.000010,0.006211,-0.002954,89.934891,0.006214,
1560,740,-1.306615,-10.144304,0.999997,0.000249,-0.005213,0.008940,0.000206,0.008943,-0.005216,89.165041,0.008984,
1340,1800,-0.130624,-1.159628,0.999998,0.000159,-0.001349,0.005306,-0.000029,0.005306,-0.001349,-89.747815,0.005515,
680,970,2.820641,-7.967483,0.999997,0.000201,-0.003304,0.007028,0.000251,0.007034,-0.003310,88.609517,0.007038,
1700,250,-0.849804,-13.613883,0.999997,0.000201,-0.002955,0.007267,-0.000653,0.007308,-0.002996,-86.362066,0.007348,
1240,1380,-0.013638,-3.205987,0.999998,0.000169,-0.001568,0.003596,-0.000255,0.003608,-0.001580,-87.174838,0.003617,
1720,310,-1.073492,-13.135128,0.999998,0.000191,-0.003253,0.007406,-0.000269,0.007413,-0.003259,-88.557387,0.007431,
1390,110,-0.067995,-14.692437,0.999998,0.000160,-0.000456,0.004935,-0.000354,0.004958,-0.000479,-86.258400,0.005469,
1320,1570,-0.172447,-2.400660,0.999998,0.000179,-0.002180,0.005474,-0.000645,0.005528,-0.002234,-85.219185,0.005562,
1110,840,0.503574,-10.640777,0.999996,0.000279,-0.004174,0.006045,-0.003327,0.007033,-0.005161,-73.467094,0.007285,
1470,780,-0.930191,-10.154094,0.999997,0.000242,-0.005679,0.009277,0.001189,0.009371,-0.005773,85.481156,0.009455,
1290,140,-0.033711,-14.560234,0.999998,0.000155,-0.000488,0.004844,-0.000091,0.004845,-0.000489,-89.020432,0.005335,
1140,160,0.060701,-14.458369,0.999998,0.000151,-0.000782,0.004990,0.000123,0.004993,-0.000784,88.780700,0.005370,
1270,1990,-0.008430,-0.205564,0.999998,0.000181,-0.000223,0.004565,0.000090,0.004566,-0.000225,88.925822,0.005148,
1900,1700,-1.839818,-2.772673,0.999997,0.000000,-0.003810,0.007232,0.000044,0.007232,-0.003810,89.772021,0.007236,
1210,400,0.038102,-13.220910,0.999998,0.000196,-0.001707,0.005313,-0.000167,0.005317,-0.001711,-88.641294,0.005429,
740,1440,1.744220,-4.335953,0.999997,0.000204,-0.004149,0.007922,-0.000052,0.007922,-0.004149,-89.751227,0.007925,
870,690,1.344043,-10.485284,0.999997,0.000209,-0.004839,0.008586,-0.000245,0.008591,-0.004844,-88.953476,0.008614,
1700,1770,-0.946192,-1.762278,0.999998,0.000162,-0.003130,0.007335,0.000417,0.007351,-0.003146,87.721106,0.007377,
780,1660,1.136901,-2.539184,0.999997,0.000194,-0.003508,0.007424,0.000101,0.007425,-0.003509,89.473035,0.007429,
1720,1040,-2.644732,-7.466947,0.999996,0.000220,-0.003175,0.007391,0.000185,0.007394,-0.003179,88.999752,0.007418,
1510,1170,-1.586460,-6.192850,0.999996,0.000253,-0.004960,0.009937,0.000723,0.009972,-0.004995,87.227618,0.009972,
1590,1130,-2.082340,-6.716684,0.999997,0.000202,-0.003640,0.008551,0.001048,0.008640,-0.003729,85.123806,0.008667,
1600,530,-1.069796,-11.763605,0.999997,0.000181,-0.003908,0.007652,0.000495,0.007673,-0.003929,87.553417,0.007674,
700,1020,2.784714,-7.614933,0.999997,0.000179,-0.003229,0.007243,0.000103,0.007244,-0.003230,89.437931,0.007258,
1040,200,0.188014,-14.213266,0.999998,0.000193,-0.001303,0.005421,0.000269,0.005431,-0.001314,87.714747,0.005667,
990,1790,0.337905,-1.310140,0.999997,0.000201,-0.001719,0.005946,-0.000202,0.005951,-0.001724,-88.493032,0.006124,
1770,1990,-0.252805,-0.286906,0.999997,0.000212,-0.001285,0.006766,0.002567,0.007515,-0.002033,73.738423,0.007774,
1470,1910,-0.165636,-0.631574,0.999998,0.000153,-0.000797,0.005325,0.000548,0.005374,-0.000845,84.923879,0.005779,
1820,560,-2.002893,-10.992511,0.999997,0.000184,-0.003828,0.007671,0.000038,0.007671,-0.003828,89.811439,0.007671,
670,1820,1.101228,-1.582591,0.999997,0.000214,-0.003436,0.007618,-0.000597,0.007650,-0.003468,-86.916322,0.007661,
1860,980,-3.073640,-7.872146,0.999998,0.000163,-0.003121,0.006428,-0.000095,0.006429,-0.003122,-89.431958,0.006430,
910,810,1.492142,-9.524081,0.999996,0.000255,-0.005244,0.009360,0.000389,0.009370,-0.005254,88.476946,0.009393,
1170,820,0.195453,-11.333500,0.999997,0.000219,-0.003153,0.002724,-0.002105,0.003400,-0.003829,-72.190178,0.004195,
1220,1550,0.021207,-2.442730,0.999998,0.000192,-0.001889,0.005112,0.000175,0.005117,-0.001894,88.568193,0.005174,
1450,940,-1.586579,-8.624861,0.999990,0.000358,-0.004576,0.011287,0.000457,0.011300,-0.004589,88.351119,0.011366,
1130,1460,0.203397,-3.013585,0.999997,0.000207,-0.002441,0.005287,0.001232,0.005479,-0.002632,81.159776,0.005480,
600,1420,2.344116,-4.803483,0.999997,0.000227,-0.003784,0.007617,-0.000124,0.007618,-0.003786,-89.375986,0.007618,
1190,430,0.074260,-13.053236,0.999998,0.000168,-0.001788,0.005290,-0.000168,0.005294,-0.001792,-88.644463,0.005385,
1840,770,-2.608359,-9.351704,0.999997,0.000202,-0.003701,0.007407,-0.000401,0.007421,-0.003715,-87.934283,0.007421,
660,560,1.937560,-11.031019,0.999997,0.000193,-0.003835,0.007657,-0.000015,0.007657,-0.003835,-89.924854,0.007657,
570,520,2.189940,-11.128137,0.999967,0.000657,-0.003685,0.007553,0.000001,0.007553,-0.003685,89.993312,0.007553,
940,1970,0.114864,-0.331566,0.999998,0.000190,-0.000572,0.005165,-0.000771,0.005267,-0.000674,-82.481095,0.005733,
1170,1720,0.093455,-1.566191,0.999998,0.000153,-0.001461,0.005345,0.000034,0.005345,-0.001461,89.710351,0.005525,
1590,640,-1.220012,-10.917839,0.999996,0.000228,-0.004541,0.008244,0.000438,0.008259,-0.004556,88.039985,0.008274,
1100,470,0.260596,-12.743695,0.999998,0.000186,-0.002261,0.005741,-0.000653,0.005794,-0.002314,-85.362461,0.005833,
1710,600,-1.656350,-10.933941,0.999995,0.000247,-0.004162,0.007910,0.000013,0.007910,-0.004162,89.938660,0.007914,
1100,270,0.167178,-13.868966,0.999998,0.000169,-0.001332,0.005396,0.000036,0.005396,-0.001332,89.689893,0.005622,
570,1080,3.170213,-7.233249,0.999975,0.000596,-0.002898,0.006115,0.000055,0.006115,-0.002898,89.650907,0.006118,
1340,1780,-0.141062,-1.264042,0.999998,0.000171,-0.001486,0.005402,-0.000049,0.005402,-0.001486,-89.595456,0.005581,
780,1650,1.156779,-2.612224,0.999997,0.000202,-0.003541,0.007453,0.000124,0.007454,-0.003542,89.351481,0.007457,
1720,350,-1.165388,-12.838289,0.999997,0.000193,-0.003501,0.007474,-0.000114,0.007475,-0.003502,-89.404143,0.007480,
1560,780,-1.425974,-9.781026,0.999995,0.000267,-0.005240,0.009199,-0.000153,0.009201,-0.005242,-89.393367,0.009231,
1580,1390,-1.225055,-4.380574,0.999998,0.000195,-0.004714,0.008435,-0.000440,0.008449,-0.004729,-88.084225,0.008470,
1090,110,0.061209,-14.694661,0.999998,0.000160,-0.000404,0.004905,0.000331,0.004926,-0.000425,86.443938,0.005459,
1550,560,-0.918494,-11.669273,0.999997,0.000223,-0.003977,0.007626,0.000763,0.007676,-0.004027,86.253986,0.007679,
1690,1330,-1.884928,-5.156485,0.999997,0.000204,-0.004377,0.008251,0.000466,0.008268,-0.004394,87.888642,0.008274,
1280,1910,-0.029363,-0.582873,0.999999,0.000133,-0.000563,0.004845,0.000083,0.004847,-0.000565,89.119799,0.005300,
1650,1050,-2.420125,-7.385279,0.999997,0.000223,-0.003001,0.007693,0.000263,0.007700,-0.003008,88.592268,0.007761,
1390,1810,-0.184486,-1.128056,0.999998,0.000180,-0.001270,0.005444,0.000138,0.005447,-0.001273,88.821487,0.005698,
1120,1210,0.481383,-4.390813,0.999994,0.000345,-0.003597,0.005135,0.003055,0.006098,-0.004560,72.507355,0.006343,
1270,1970,-0.014158,-0.297720,0.999998,0.000178,-0.000299,0.004604,0.000075,0.004606,-0.000300,89.124758,0.005154,
1610,1240,-1.795462,-5.777841,0.999997,0.000207,-0.004706,0.008863,0.000753,0.008904,-0.004748,86.834429,0.008911,
950,1630,0.630556,-2.389325,0.999997,0.000215,-0.002892,0.006694,0.000438,0.006714,-0.002912,87.390636,0.006734,
990,1770,0.362633,-1.429588,0.999997,0.000207,-0.001851,0.006035,-0.000145,0.006038,-0.001853,-88.943558,0.006186,
1510,1560,-0.695844,-2.864607,0.999997,0.000208,-0.003430,0.007016,-0.000778,0.007074,-0.003488,-85.762079,0.007074,
1590,1110,-2.143020,-6.887697,0.999997,0.000220,-0.003394,0.008364,0.000943,0.008439,-0.003469,85.441149,0.008483,
1900,1690,-1.866784,-2.845764,0.999997,0.000000,-0.003780,0.007278,-0.000015,0.007278,-0.003780,-89.923614,0.007280,
1440,1000,-1.779784,-7.948098,0.999992,0.000336,-0.005092,0.013792,0.000673,0.013816,-0.005116,87.961212,0.013970,
1620,1770,-0.709382,-1.625631,0.999998,0.000178,-0.002667,0.006900,0.000359,0.006913,-0.002680,87.850980,0.006971,
700,1000,2.773123,-7.758948,0.999997,0.000179,-0.003236,0.007161,0.000225,0.007166,-0.003241,88.763114,0.007177,
1600,510,-1.039140,-11.915834,0.999997,0.000221,-0.003766,0.007501,0.000465,0.007520,-0.003785,87.640691,0.007520,
1400,570,-0.385854,-12.061025,0.999997,0.000215,-0.003067,0.006192,0.001341,0.006382,-0.003257,81.921395,0.006383,
1770,1970,-0.375719,-0.435586,0.999996,0.000216,-0.001859,0.006714,0.002205,0.007247,-0.002393,76.388127,0.007386,
1040,180,0.163080,-14.323204,0.999998,0.000187,-0.001177,0.005298,0.000280,0.005310,-0.001189,87.524987,0.005574,
1820,540,-1.956772,-11.145597,0.999997,0.000193,-0.003837,0.007645,0.000050,0.007645,-0.003837,89.752616,0.007645,
900,1710,0.658583,-1.938627,0.999997,0.000222,-0.002846,0.006742,0.000055,0.006743,-0.002847,89.672053,0.006770,
1480,1400,-0.743308,-3.944473,0.999997,0.000214,-0.004506,0.007822,-0.001400,0.007979,-0.004663,-83.600645,0.008016,
910,790,1.423099,-9.710075,0.999995,0.000256,-0.005303,0.009271,0.000190,0.009273,-0.005305,89.254618,0.009306,
1860,960,-3.062583,-7.999646,0.999998,0.000181,-0.003180,0.006446,-0.000099,0.006447,-0.003181,-89.408622,0.006447,
570,510,2.165628,-11.205177,0.999984,0.000500,-0.003639,0.007628,0.000020,0.007628,-0.003639,89.897151,0.007631,
1190,410,0.073125,-13.159180,0.999998,0.000173,-0.001734,0.005317,-0.000153,0.005320,-0.001737,-88.753408,0.005426,
1300,690,-0.119836,-11.742317,0.999998,0.000153,-0.002146,0.004223,0.001692,0.004644,-0.002568,76.004933,0.004653,
620,810,2.721881,-9.053334,0.999998,0.000184,-0.003557,0.007135,0.000393,0.007149,-0.003571,87.897113,0.007149,
1140,140,0.051131,-14.558653,0.999998,0.000138,-0.000670,0.004863,0.000120,0.004866,-0.000672,88.758067,0.005273,
1270,140,-0.022500,-14.561975,0.999998,0.000177,-0.000551,0.004832,-0.000036,0.004832,-0.000552,-89.613221,0.005290,
1380,1430,-0.336756,-3.329843,0.999997,0.000217,-0.003177,0.006044,-0.001775,0.006373,-0.003507,-79.471580,0.006384,
870,670,1.298600,-10.658111,0.999997,0.000208,-0.004721,0.008423,-0.000326,0.008431,-0.004729,-88.578096,0.008452,
1050,920,1.289451,-9.181154,0.999991,0.000337,-0.004782,0.010673,-0.003014,0.011240,-0.005350,-79.344755,0.011244,
1820,990,-2.950520,-7.818530,0.999997,0.000202,-0.003236,0.006806,-0.000181,0.006809,-0.003240,-88.968209,0.006812,
660,540,1.893603,-11.184477,0.999997,0.000201,-0.003855,0.007688,-0.000059,0.007688,-0.003855,-89.706978,0.007688,
1570,640,-1.128162,-10.977996,0.999996,0.000226,-0.004587,0.008205,0.000595,0.008233,-0.004615,87.344284,0.008253,
1320,1530,-0.174978,-2.619480,0.999998,0.000193,-0.002203,0.005333,-0.000774,0.005412,-0.002281,-84.196530,0.005434,
780,1640,1.175770,-2.686195,0.999997,0.000194,-0.003586,0.007489,0.000144,0.007491,-0.003588,89.255304,0.007493,
1340,1760,-0.151680,-1.373811,0.999998,0.000168,-0.001560,0.005423,-0.000096,0.005424,-0.001562,-89.211266,0.005584,
1570,290,-0.582586,-13.540282,0.999996,0.000215,-0.002505,0.006641,-0.000233,0.006647,-0.002511,-88.543807,0.006713,
750,780,2.140483,-9.472501,0.999997,0.000271,-0.004143,0.008136,0.000712,0.008177,-0.004184,86.691501,0.008178,
600,700,2.510163,-9.824884,0.999996,0.000248,-0.003725,0.007509,0.000187,0.007512,-0.003728,89.046260,0.007512,
1260,1910,-0.016921,-0.581733,0.999998,0.000159,-0.000624,0.004817,0.000042,0.004817,-0.000625,89.562130,0.005239,
1390,1790,-0.202415,-1.237529,0.999998,0.000191,-0.001384,0.005510,0.000083,0.005511,-0.001385,89.308749,0.005733,
1550,540,-0.892341,-11.822626,0.999996,0.000258,-0.003892,0.007505,0.000744,0.007553,-0.003940,86.280940,0.007555,
1090,90,0.049098,-14.790362,0.999998,0.000156,-0.000305,0.004760,0.000319,0.004779,-0.000325,86.413107,0.005341,
1560,1390,-1.130508,-4.319430,0.999998,0.000176,-0.004738,0.008404,-0.000581,0.008430,-0.004764,-87.472463,0.008454,
1150,1720,0.122110,-1.570906,0.999998,0.000166,-0.001568,0.005401,0.000106,0.005403,-0.001570,89.129784,0.005559,
990,1750,0.386677,-1.550238,0.999997,0.000187,-0.001972,0.006061,-0.000048,0.006061,-0.001972,-89.654559,0.006183,
1650,1030,-2.434655,-7.540416,0.999996,0.000221,-0.002998,0.007742,0.000026,0.007742,-0.002998,89.860807,0.007808,
1270,1950,-0.014118,-0.390688,0.999998,0.000168,-0.000409,0.004727,0.000076,0.004728,-0.000410,89.147185,0.005239,
920,1970,0.125620,-0.333900,0.999998,0.000176,-0.000496,0.005220,-0.000902,0.005359,-0.000635,-81.239389,0.005856,
970,1260,1.107968,-5.227055,0.999995,0.000265,-0.005729,0.009594,0.000662,0.009623,-0.005758,87.532468,0.009684,
950,1650,0.609353,-2.255195,0.999997,0.000210,-0.002806,0.006620,0.000368,0.006634,-0.002820,87.767589,0.006659,
1690,1310,-1.941570,-5.322797,0.999997,0.000187,-0.004370,0.008228,0.000548,0.008251,-0.004394,87.512062,0.008257,
1900,1680,-1.890077,-2.917788,0.999997,0.000000,-0.003738,0.007318,-0.000075,0.007318,-0.003739,-89.612445,0.007319,
1440,980,-1.722723,-8.198230,0.999991,0.000386,-0.004929,0.012827,0.000997,0.012883,-0.004984,86.795804,0.012993,
1510,1150,-1.684424,-6.391962,0.999996,0.000241,-0.004611,0.009863,0.000841,0.009912,-0.004660,86.685432,0.009918,
1750,880,-2.552893,-8.646189,0.999997,0.000228,-0.003672,0.007611,-0.000803,0.007668,-0.003729,-85.951886,0.007669,
1590,1530,-1.023613,-3.292554,0.999997,0.000215,-0.003819,0.007602,-0.000535,0.007627,-0.003844,-87.322768,0.007627,
1860,940,-3.038269,-8.131700,0.999998,0.000179,-0.003224,0.006630,-0.000296,0.006639,-0.003233,-88.279232,0.006640,
1580,70,-0.114332,-14.857283,0.999998,0.000164,-0.000686,0.005348,-0.001054,0.005527,-0.000865,-80.369136,0.005945,
1600,1770,-0.655898,-1.595484,0.999998,0.000173,-0.002730,0.006751,0.000263,0.006758,-0.002737,88.414678,0.006799,
700,980,2.760870,-7.902417,0.999997,0.000197,-0.003279,0.007104,0.000214,0.007109,-0.003283,88.820032,0.007116,
1580,530,-0.993372,-11.815152,0.999997,0.000183,-0.003841,0.007557,0.000588,0.007587,-0.003872,87.056977,0.007587,
740,1420,1.793210,-4.493675,0.999996,0.000229,-0.004170,0.007988,-0.000098,0.007989,-0.004170,-89.540237,0.007991,
860,790,1.676418,-9.578577,0.999997,0.000248,-0.004906,0.008931,0.000557,0.008954,-0.004928,87.698029,0.008969,
1040,160,0.145336,-14.426762,0.999998,0.000179,-0.001019,0.005232,0.000340,0.005251,-0.001037,86.894339,0.005562,
650,2010,0.169410,-0.166735,0.999997,0.000212,-0.001180,0.006602,-0.002693,0.007443,-0.002021,-72.654646,0.007698,
1500,1110,-1.821354,-6.756476,0.999996,0.000213,-0.003864,0.009887,0.000857,0.009940,-0.003917,86.448783,0.010014,
570,500,2.143495,-11.281545,0.999987,0.000467,-0.003580,0.007650,0.000050,0.007650,-0.003581,89.745803,0.007655,
900,1690,0.691957,-2.073941,0.999997,0.000205,-0.002960,0.006795,0.000116,0.006796,-0.002962,89.319245,0.006815,
840,890,2.099991,-8.669035,0.999996,0.000232,-0.003914,0.008407,0.001032,0.008492,-0.004000,85.246988,0.008497,
730,780,2.222340,-9.442651,0.999997,0.000266,-0.004062,0.007973,0.000690,0.008013,-0.004101,86.729592,0.008014,
1480,1380,-0.766706,-4.107734,0.999997,0.000205,-0.004672,0.007983,-0.001415,0.008139,-0.004828,-83.695470,0.008186,
1570,270,-0.545664,-13.673069,0.999997,0.000206,-0.002374,0.006493,-0.000336,0.006506,-0.002387,-87.833212,0.006582,
1340,1740,-0.159707,-1.481920,0.999998,0.000157,-0.001663,0.005478,-0.000161,0.005482,-0.001667,-88.705401,0.005621,
610,770,2.654704,-9.326603,0.999997,0.000213,-0.003644,0.007361,0.000342,0.007372,-0.003655,88.221631,0.007372,
1390,1770,-0.217047,-1.351038,0.999998,0.000195,-0.001477,0.005608,0.000039,0.005609,-0.001477,89.685966,0.005814,
650,160,0.859278,-14.075522,0.999997,0.000226,-0.003120,0.007778,0.001280,0.007926,-0.003269,83.390069,0.007966,
1310,1280,-0.159801,-3.764042,0.999996,0.000236,-0.002844,0.003894,-0.002867,0.004949,-0.003898,-69.802660,0.005215,
1190,390,0.070454,-13.267153,0.999998,0.000179,-0.001674,0.005363,-0.000125,0.005365,-0.001677,-88.979994,0.005490,
1820,520,-1.913091,-11.298652,0.999997,0.000192,-0.003823,0.007660,0.000067,0.007661,-0.003823,89.667664,0.007661,
1770,1950,-0.462829,-0.558798,0.999996,0.000222,-0.002432,0.007024,0.001890,0.007388,-0.002796,79.104207,0.007461,
1300,1530,-0.132668,-2.586172,0.999998,0.000172,-0.002099,0.005216,-0.000644,0.005272,-0.002155,-85.004643,0.005301,
1270,1930,-0.021913,-0.486506,0.999998,0.000150,-0.000502,0.004778,0.000063,0.004778,-0.000503,89.312194,0.005251,
1080,1910,0.094625,-0.600410,0.999998,0.000148,-0.000627,0.005046,-0.000301,0.005062,-0.000643,-86.972655,0.005512,
1820,970,-2.940302,-7.956011,0.999998,0.000173,-0.003231,0.006769,-0.000152,0.006771,-0.003233,-89.129753,0.006773,
1900,1670,-1.910843,-2.991981,0.999997,0.000000,-0.003694,0.007351,-0.000106,0.007352,-0.003695,-89.449841,0.007352,
870,650,1.254202,-10.824918,0.999997,0.000220,-0.004598,0.008296,-0.000394,0.008308,-0.004610,-88.251807,0.008325,
840,190,0.478647,-14.129441,0.999996,0.000226,-0.001837,0.006442,0.000933,0.006545,-0.001941,83.651346,0.006724,
820,840,2.027427,-9.070224,0.999997,0.000217,-0.004291,0.008437,0.000933,0.008505,-0.004359,85.827548,0.008506,
1720,1020,-2.647649,-7.615780,0.999997,0.000188,-0.003174,0.007411,-0.000116,0.007413,-0.003176,-89.374434,0.007438,
930,280,0.482842,-13.650449,0.999996,0.000221,-0.002169,0.006391,0.000253,0.006398,-0.002176,88.307441,0.006506,
1030,940,1.507752,-8.754662,0.999996,0.000236,-0.004894,0.011560,-0.001562,0.011707,-0.005041,-84.625247,0.011744,
1280,690,-0.079422,-11.800416,0.999998,0.000186,-0.001910,0.003774,0.001331,0.004070,-0.002206,77.452006,0.004075,
1480,1360,-0.797943,-4.266152,0.999997,0.000205,-0.004881,0.008252,-0.001427,0.008405,-0.005034,-83.870294,0.008460,
1390,1560,-0.337927,-2.580213,0.999997,0.000193,-0.002594,0.006045,-0.000907,0.006139,-0.002689,-84.068214,0.006155,
1230,1440,0.002000,-2.962838,0.999997,0.000184,-0.001757,0.004316,0.000014,0.004316,-0.001757,89.872182,0.004341,
1170,800,0.144440,-11.386472,0.999996,0.000249,-0.002789,0.002895,-0.002419,0.003785,-0.003679,-69.799281,0.004311,
790,1800,0.781525,-1.495632,0.999998,0.000160,-0.003010,0.007069,-0.000518,0.007096,-0.003036,-87.065145,0.007121,
670,160,0.799744,-14.110720,0.999997,0.000204,-0.002963,0.007666,0.001439,0.007857,-0.003154,82.423895,0.007908,
1800,1050,-2.896235,-7.402061,0.999998,0.000200,-0.003258,0.006984,0.000217,0.006988,-0.003263,88.786655,0.006993,
990,1730,0.412295,-1.671886,0.999997,0.000188,-0.002066,0.006179,0.000025,0.006179,-0.002066,89.828635,0.006291,
1390,1750,-0.233610,-1.463283,0.999998,0.000185,-0.001599,0.005659,-0.000042,0.005659,-0.001600,-89.671750,0.005835,
1570,250,-0.504179,-13.800553,0.999997,0.000202,-0.002240,0.006408,-0.000432,0.006430,-0.002261,-87.150486,0.006523,
1840,730,-2.502476,-9.649004,0.999997,0.000212,-0.003743,0.007483,-0.000322,0.007492,-0.003752,-88.360155,0.007492,
700,1670,1.404021,-2.649844,0.999996,0.000213,-0.003685,0.007592,0.000061,0.007593,-0.003685,89.691842,0.007594,
1240,1820,-0.010675,-1.027770,0.999998,0.000147,-0.001130,0.005068,-0.000020,0.005068,-0.001130,-89.813517,0.005321,
620,1350,2.448523,-5.289593,0.999996,0.000238,-0.003743,0.007566,-0.000253,0.007571,-0.003749,-88.719206,0.007571,
780,1620,1.215661,-2.838811,0.999997,0.000188,-0.003657,0.007524,0.000187,0.007527,-0.003660,89.041639,0.007528,
1440,960,-1.645566,-8.457771,0.999991,0.000394,-0.004766,0.012331,0.001172,0.012411,-0.004846,86.097187,0.012509,
700,810,2.424202,-9.167438,0.999995,0.000263,-0.003904,0.007709,0.000741,0.007756,-0.003951,86.361631,0.007757,
950,1670,0.584540,-2.123835,0.999997,0.000214,-0.002748,0.006571,0.000305,0.006581,-0.002758,88.127270,0.006610,
660,520,1.848262,-11.340067,0.999997,0.000224,-0.003868,0.007680,-0.000093,0.007681,-0.003869,-89.538163,0.007681,
1130,1420,0.203886,-3.223501,0.999998,0.000189,-0.002587,0.005202,0.001654,0.005539,-0.002924,78.492262,0.005542,
1020,590,0.535613,-11.791594,0.999997,0.000206,-0.003596,0.006867,-0.001364,0.007042,-0.003770,-82.693676,0.007048,
1040,580,0.463526,-11.920852,0.999997,0.000217,-0.003319,0.006525,-0.001381,0.006715,-0.003509,-82.162429,0.006717,
750,960,2.577038,-8.062272,0.999996,0.000226,-0.003339,0.007503,0.000595,0.007536,-0.003372,86.866871,0.007550,
1040,1970,0.064080,-0.311785,0.999998,0.000167,-0.000476,0.004861,-0.000407,0.004892,-0.000506,-85.663578,0.005380,
910,1210,1.627559,-5.929210,0.999995,0.000262,-0.005017,0.009370,-0.000715,0.009405,-0.005052,-87.161110,0.009414,
1340,1720,-0.169635,-1.595698,0.999998,0.000187,-0.001750,0.005506,-0.000220,0.005513,-0.001756,-88.267806,0.005632,
700,960,2.746203,-8.044555,0.999996,0.000218,-0.003346,0.007224,0.000420,0.007241,-0.003363,87.729846,0.007247,
1120,900,0.949646,-10.493681,0.999995,0.000000,-0.001421,0.004279,-0.004232,0.006531,-0.003673,-61.978504,0.006548,
1680,1950,-0.306729,-0.492842,0.999996,0.000223,-0.001507,0.006231,0.001568,0.006537,-0.001813,78.971288,0.006750,
1820,500,-1.870523,-11.453402,0.999997,0.000186,-0.003801,0.007655,0.000078,0.007655,-0.003802,89.612259,0.007655,
1770,1930,-0.571526,-0.714833,0.999996,0.000221,-0.002696,0.007295,0.001750,0.007593,-0.002994,80.345876,0.007649,
760,1650,1.226882,-2.659038,0.999997,0.000207,-0.003633,0.007530,0.000112,0.007531,-0.003634,89.423067,0.007532,
1140,120,0.042011,-14.653399,0.999998,0.000158,-0.000525,0.004797,0.000160,0.004802,-0.000530,88.284795,0.005266,
1090,70,0.031012,-14.886431,0.999998,0.000149,-0.000221,0.004712,0.000317,0.004732,-0.000241,86.343254,0.005330,
1590,1550,-0.994986,-3.140581,0.999997,0.000235,-0.003732,0.007487,-0.000493,0.007508,-0.003754,-87.486266,0.007508,
1650,1010,-2.424355,-7.694307,0.999997,0.000212,-0.002991,0.007685,-0.000269,0.007692,-0.002997,-88.557985,0.007754,
1270,1910,-0.023265,-0.581693,0.999998,0.000147,-0.000610,0.004827,0.000061,0.004827,-0.000611,89.359258,0.005257,
1430,1360,-0.560196,-4.026754,0.999995,0.000269,-0.004493,0.007521,-0.002042,0.007859,-0.004831,-80.612682,0.007928,
610,810,2.756833,-9.035865,0.999997,0.000198,-0.003516,0.007058,0.000334,0.007069,-0.003526,88.194965,0.007069,
1690,1290,-2.000028,-5.486777,0.999998,0.000173,-0.004354,0.008248,0.000643,0.008281,-0.004387,87.085995,0.008286,
870,630,1.212257,-10.990750,0.999997,0.000199,-0.004474,0.008155,-0.000456,0.008172,-0.004491,-87.933566,0.008185,
1890,940,-3.133478,-8.101264,0.999998,0.000181,-0.003155,0.006371,-0.000126,0.006373,-0.003157,-89.243722,0.006373,
890,520,0.951101,-11.909916,0.999998,0.000192,-0.003803,0.007486,-0.000587,0.007517,-0.003833,-87.029708,0.007517,
940,1770,0.472155,-1.490214,0.999997,0.000197,-0.002201,0.006363,-0.000174,0.006367,-0.002205,-88.836978,0.006466,
1020,1910,0.142902,-0.621059,0.999998,0.000193,-0.000822,0.005228,-0.000449,0.005262,-0.000855,-85.777917,0.005647,
1480,1110,-1.743640,-6.693849,0.999995,0.000254,-0.004127,0.010549,0.000563,0.010570,-0.004148,87.805828,0.010652,
1600,1250,-1.713064,-5.670081,0.999997,0.000252,-0.004847,0.008964,0.000657,0.008995,-0.004878,87.280544,0.009006,
820,890,2.177225,-8.650186,0.999998,0.000225,-0.003905,0.008215,0.000984,0.008294,-0.003984,85.388546,0.008296,
780,1210,2.206504,-6.138144,0.999997,0.000233,-0.004040,0.008167,-0.000947,0.008240,-0.004113,-85.591364,0.008240,
770,1800,0.842983,-1.530935,0.999997,0.000207,-0.002992,0.007189,-0.000571,0.007221,-0.003024,-86.800280,0.007253,
730,640,1.846371,-10.565084,0.999997,0.000198,-0.004130,0.007947,0.000148,0.007948,-0.004131,89.300092,0.007951,
910,1460,0.978944,-3.729306,0.999996,0.000236,-0.004225,0.007800,0.000794,0.007852,-0.004278,86.239295,0.007862,
1440,940,-1.541731,-8.700187,0.999992,0.000325,-0.004759,0.011501,0.000996,0.011562,-0.004820,86.508617,0.011615,
1110,1420,0.258878,-3.294533,0.999997,0.000204,-0.002798,0.005595,0.001759,0.005949,-0.003152,78.632045,0.005952,
1670,220,-0.671902,-13.876057,0.999996,0.000216,-0.002786,0.006867,-0.000738,0.006923,-0.002842,-85.652916,0.006960,
950,1690,0.561158,-1.991665,0.999997,0.000217,-0.002668,0.006465,0.000240,0.006471,-0.002674,88.495295,0.006504,
730,760,2.165849,-9.604417,0.999997,0.000215,-0.004139,0.008002,0.000625,0.008034,-0.004171,87.059427,0.008036,
1890,980,-3.166058,-7.858710,0.999998,0.000177,-0.003033,0.006061,-0.000035,0.006061,-0.003033,-89.776897,0.006061,
820,210,0.573697,-13.978823,0.999997,0.000206,-0.002194,0.006656,0.000895,0.006745,-0.002283,84.284950,0.006862,
820,880,2.150784,-8.732533,0.999997,0.000212,-0.003996,0.008291,0.000994,0.008371,-0.004076,85.403603,0.008372,
740,1400,1.840960,-4.655201,0.999997,0.000211,-0.004184,0.008020,-0.000172,0.008023,-0.004186,-89.192841,0.008025,
1390,1730,-0.245486,-1.575776,0.999998,0.000168,-0.001696,0.005724,-0.000099,0.005725,-0.001697,-89.239374,0.005881,
700,1650,1.448742,-2.801611,0.999995,0.000257,-0.003721,0.007594,0.000109,0.007595,-0.003722,89.449596,0.007595,
670,780,2.458401,-9.355724,0.999995,0.000242,-0.003825,0.007582,0.000609,0.007615,-0.003858,86.952494,0.007615,
1370,1560,-0.285295,-2.534939,0.999997,0.000205,-0.002491,0.005858,-0.000878,0.005949,-0.002582,-84.060988,0.005966,
1480,1340,-0.831460,-4.439099,0.999996,0.000243,-0.005109,0.008511,-0.001392,0.008652,-0.005250,-84.225312,0.008717,
1460,1970,-0.079754,-0.317447,0.999998,0.000169,-0.000360,0.004987,0.000580,0.005049,-0.000422,83.880683,0.005602,
1120,890,0.865668,-10.541544,0.999995,0.000000,-0.001688,0.004182,-0.003551,0.005854,-0.003360,-64.786894,0.005876,
1190,370,0.067964,-13.375333,0.999998,0.000169,-0.001611,0.005354,-0.000111,0.005356,-0.001613,-89.087151,0.005495,
1040,600,0.473048,-11.789127,0.999997,0.000220,-0.003418,0.006641,-0.001481,0.006854,-0.003631,-81.797148,0.006859,
1340,1700,-0.176151,-1.701662,0.999998,0.000185,-0.001852,0.005531,-0.000267,0.005540,-0.001862,-87.928000,0.005639,
780,1600,1.255252,-2.990355,0.999997,0.000190,-0.003730,0.007581,0.000221,0.007586,-0.003735,88.881344,0.007586,
700,940,2.712849,-8.193130,0.999997,0.000207,-0.003409,0.007315,0.000581,0.007346,-0.003440,86.909161,0.007351,
1640,530,-1.227947,-11.658260,0.999998,0.000164,-0.003970,0.007737,0.000369,0.007749,-0.003981,88.196741,0.007750,
1750,900,-2.601017,-8.493765,0.999996,0.000231,-0.003564,0.007534,-0.000718,0.007581,-0.003611,-86.316406,0.007583,
1200,1550,0.058970,-2.455102,0.999999,0.000131,-0.001885,0.005137,0.000264,0.005147,-0.001894,87.852556,0.005206,
760,1630,1.269876,-2.811153,0.999995,0.000248,-0.003686,0.007566,0.000155,0.007569,-0.003688,89.211338,0.007569,
1900,1660,-1.933502,-3.066559,0.999998,0.000000,-0.003645,0.007362,-0.000092,0.007363,-0.003646,-89.519993,0.007363,
1250,60,-0.004605,-14.936996,0.999998,0.000152,-0.000228,0.004549,-0.000026,0.004549,-0.000228,-89.688915,0.005126,
950,700,0.969158,-10.669863,0.999997,0.000193,-0.005048,0.008585,-0.000990,0.008657,-0.005120,-85.866925,0.008705,
1820,480,-1.824745,-11.606522,0.999997,0.000207,-0.003797,0.007657,0.000106,0.007658,-0.003798,89.472026,0.007659,
1430,1340,-0.581494,-4.178988,0.999997,0.000223,-0.004770,0.007720,-0.002130,0.008073,-0.005123,-80.584556,0.008170,
1840,1770,-1.429963,-2.084654,0.999998,0.000192,-0.003668,0.007466,0.000077,0.007466,-0.003668,89.603541,0.007466,
1450,260,-0.294752,-13.857467,0.999998,0.000189,-0.001607,0.005737,-0.000178,0.005741,-0.001612,-88.612342,0.005923,
870,610,1.174676,-11.153265,0.999997,0.000204,-0.004336,0.007981,-0.000490,0.008001,-0.004356,-87.723792,0.008011,
1270,1890,-0.029852,-0.681096,0.999998,0.000164,-0.000694,0.004939,0.000057,0.004939,-0.000694,89.425108,0.005348,
660,500,1.805161,-11.493105,0.999997,0.000238,-0.003835,0.007708,-0.000093,0.007709,-0.003836,-89.536270,0.007709,
1880,940,-3.102653,-8.112334,0.999998,0.000170,-0.003170,0.006464,-0.000176,0.006468,-0.003174,-88.953429,0.006468,
1640,1770,-0.762087,-1.653130,0.999997,0.000234,-0.002709,0.007031,0.000425,0.007050,-0.002727,87.504150,0.007110,
1110,780,0.316185,-11.002705,0.999998,0.000214,-0.004168,0.005918,-0.003286,0.006895,-0.005144,-73.455173,0.007168,
1770,1910,-0.661683,-0.850309,0.999997,0.000207,-0.002929,0.007283,0.001459,0.007487,-0.003133,82.028246,0.007520,
1110,140,0.071335,-14.549532,0.999999,0.000120,-0.000642,0.004941,0.000193,0.004948,-0.000649,88.022013,0.005378,
1000,1910,0.159950,-0.627768,0.999998,0.000179,-0.000801,0.005302,-0.000525,0.005347,-0.000846,-85.118072,0.005748,
1800,1250,-2.552003,-5.964822,0.999996,0.000229,-0.003702,0.007468,0.000619,0.007502,-0.003736,86.837276,0.007502,
1860,920,-3.005633,-8.267482,0.999998,0.000163,-0.003253,0.006734,-0.000327,0.006745,-0.003263,-88.125745,0.006746,
1690,1270,-2.058811,-5.653293,0.999998,0.000175,-0.004289,0.008266,0.000735,0.008309,-0.004332,86.660869,0.008311,
1720,1000,-2.634950,-7.762692,0.999997,0.000187,-0.003172,0.007350,-0.000261,0.007356,-0.003178,-88.581303,0.007379,
710,640,1.927090,-10.520560,0.999997,0.000196,-0.004072,0.007869,0.000165,0.007872,-0.004074,89.210438,0.007873,
960,180,0.258352,-14.281005,0.999997,0.000199,-0.001518,0.005676,0.000499,0.005711,-0.001552,86.052893,0.005906,
1440,920,-1.420756,-8.913895,0.999993,0.000320,-0.004929,0.011074,0.000899,0.011124,-0.004980,86.796253,0.011144,
1510,1130,-1.774285,-6.588312,0.999996,0.000228,-0.004179,0.009772,0.000920,0.009832,-0.004240,86.243676,0.009863,
800,890,2.254063,-8.635424,0.999996,0.000271,-0.003798,0.008070,0.000959,0.008147,-0.003875,85.411373,0.008150,
1390,1710,-0.260148,-1.692473,0.999998,0.000174,-0.001811,0.005736,-0.000174,0.005740,-0.001815,-88.680922,0.005868,
1590,1570,-0.963923,-2.992749,0.999997,0.000210,-0.003677,0.007422,-0.000492,0.007444,-0.003699,-87.465158,0.007444,
1010,1640,0.451874,-2.204438,0.999997,0.000191,-0.002508,0.006274,0.000452,0.006297,-0.002531,87.064201,0.006337,
1650,240,-0.672727,-13.768020,0.999997,0.000204,-0.002564,0.006938,-0.000663,0.006984,-0.002610,-86.030508,0.007058,
740,1470,1.675329,-4.096903,0.999997,0.000206,-0.004071,0.007864,0.000030,0.007864,-0.004072,89.855325,0.007865,
700,920,2.681280,-8.339589,0.999997,0.000224,-0.003454,0.007301,0.000556,0.007330,-0.003483,87.045772,0.007333,
1040,620,0.480806,-11.658867,0.999996,0.000227,-0.003599,0.006714,-0.001616,0.006962,-0.003846,-81.300914,0.006974,
1340,1680,-0.186669,-1.816458,0.999998,0.000192,-0.001926,0.005609,-0.000310,0.005622,-0.001939,-87.645896,0.005711,
820,190,0.516723,-14.112741,0.999997,0.000215,-0.001999,0.006575,0.000975,0.006684,-0.002109,83.592001,0.006834,
670,760,2.404179,-9.506633,0.999996,0.000228,-0.003839,0.007605,0.000557,0.007632,-0.003866,87.219843,0.007632,
1080,1980,0.038422,-0.257964,0.999999,0.000157,-0.000227,0.004751,-0.000341,0.004774,-0.000250,-86.099422,0.005374,
1120,30,0.007952,-15.070457,0.999998,0.000000,-0.000039,0.004491,0.000200,0.004500,-0.000048,87.472166,0.005169,
830,390,0.955102,-12.729623,0.999997,0.000227,-0.003328,0.007264,-0.000110,0.007265,-0.003329,-89.402827,0.007274,
1150,820,0.261610,-11.164642,0.999997,0.000209,-0.003396,0.003651,-0.002776,0.004613,-0.004358,-70.884252,0.005186,
1700,1110,-2.506513,-6.937672,0.999997,0.000219,-0.003384,0.007593,0.000682,0.007636,-0.003426,86.458986,0.007649,
1650,990,-2.410528,-7.848971,0.999997,0.000201,-0.003051,0.007639,-0.000347,0.007650,-0.003062,-88.144669,0.007701,
780,970,2.493699,-7.994974,0.999996,0.000231,-0.003227,0.007618,0.000533,0.007644,-0.003253,87.191891,0.007673,
870,590,1.139774,-11.310627,0.999996,0.000217,-0.004217,0.007945,-0.000536,0.007969,-0.004240,-87.481806,0.007974,
620,300,1.482494,-12.913232,0.999998,0.000215,-0.003696,0.007477,0.000023,0.007477,-0.003696,89.883225,0.007477,
1890,1940,-0.888772,-0.954787,0.999997,0.000241,-0.003508,0.008251,0.001382,0.008411,-0.003669,83.384854,0.008434,
620,1590,1.879827,-3.454478,0.999997,0.000191,-0.003759,0.007642,0.000111,0.007643,-0.003760,89.441875,0.007643,
810,780,1.880075,-9.569027,0.999996,0.000231,-0.004523,0.008500,0.000658,0.008533,-0.004556,87.113077,0.008540,
1820,460,-1.781601,-11.762252,0.999997,0.000195,-0.003794,0.007632,0.000138,0.007634,-0.003795,89.306328,0.007634,
1780,1390,-2.098879,-4.853033,0.999998,0.000196,-0.003994,0.007799,0.000253,0.007805,-0.004000,88.769422,0.007806,
1870,940,-3.071627,-8.122828,0.999998,0.000196,-0.003199,0.006546,-0.000237,0.006552,-0.003205,-88.609832,0.006552,
740,1380,1.891427,-4.815683,0.999997,0.000207,-0.004211,0.007996,-0.000278,0.008003,-0.004217,-88.695348,0.008006,
1480,1320,-0.869765,-4.609365,0.999995,0.000258,-0.005324,0.008766,-0.001300,0.008885,-0.005443,-84.771638,0.008960,
1370,1800,-0.169496,-1.175159,0.999998,0.000159,-0.001271,0.005407,0.000091,0.005408,-0.001272,89.215565,0.005655,
1780,380,-1.454851,-12.466646,0.999996,0.000233,-0.003653,0.007603,0.000036,0.007603,-0.003653,89.815271,0.007605,
1340,1970,-0.034697,-0.302020,0.999998,0.000181,-0.000378,0.004709,0.000194,0.004716,-0.000386,87.824118,0.005238,
1160,1910,0.041577,-0.584723,0.999998,0.000156,-0.000553,0.004874,-0.000140,0.004878,-0.000556,-88.522166,0.005341,
900,1750,0.593758,-1.670051,0.999996,0.000245,-0.002493,0.006593,-0.000189,0.006597,-0.002497,-88.807187,0.006661,
1480,250,-0.328539,-13.893278,0.999998,0.000191,-0.001707,0.005885,-0.000275,0.005895,-0.001717,-87.926618,0.006064,
1270,1870,-0.031225,-0.780424,0.999998,0.000154,-0.000791,0.004969,0.000043,0.004970,-0.000791,89.576417,0.005340,
1020,1290,0.736118,-4.671669,0.999997,0.000212,-0.005543,0.008756,0.001874,0.008997,-0.005784,82.655786,0.009119,
1390,1690,-0.272505,-1.807171,0.999997,0.000194,-0.001938,0.005791,-0.000246,0.005799,-0.001945,-88.178092,0.005903,
960,160,0.227261,-14.391973,0.999997,0.000185,-0.001320,0.005602,0.000570,0.005649,-0.001367,85.322890,0.005894,
1690,1250,-2.117219,-5.819651,0.999998,0.000168,-0.004202,0.008180,0.000798,0.008231,-0.004253,86.329049,0.008233,
1440,900,-1.300035,-9.133872,0.999993,0.000297,-0.005206,0.010765,0.000910,0.010816,-0.005257,86.750423,0.010818,
1590,1590,-0.933372,-2.843374,0.999998,0.000183,-0.003555,0.007319,-0.000444,0.007337,-0.003573,-87.666453,0.007337,
1010,1620,0.467217,-2.328337,0.999997,0.000216,-0.002683,0.006380,0.000589,0.006418,-0.002721,86.295498,0.006443,
980,1070,1.906055,-7.115262,0.999995,0.000273,-0.003369,0.010326,-0.000396,0.010338,-0.003380,-88.343803,0.010542,
1720,980,-2.622549,-7.910791,0.999997,0.000194,-0.003229,0.007341,-0.000310,0.007350,-0.003239,-88.324108,0.007367,
640,850,2.745348,-8.795601,0.999998,0.000173,-0.003538,0.007174,0.000554,0.007203,-0.003567,87.046918,0.007203,
570,730,2.706481,-9.543152,0.999878,0.001246,-0.004607,0.008050,0.000376,0.008061,-0.004619,88.299496,0.008090,
1080,1960,0.053792,-0.353585,0.999998,0.000154,-0.000341,0.004825,-0.000331,0.004847,-0.000362,-86.344008,0.005399,
1510,1110,-1.859650,-6.779179,0.999996,0.000216,-0.003796,0.009619,0.000937,0.009684,-0.003861,86.025308,0.009750,
830,370,0.915355,-12.876519,0.999997,0.000208,-0.003166,0.007191,0.000035,0.007191,-0.003166,89.804896,0.007208,
1550,140,-0.241786,-14.482698,0.999997,0.000182,-0.001007,0.005672,-0.000819,0.005771,-0.001106,-83.110660,0.006126,
1650,220,-0.619190,-13.904934,0.999997,0.000207,-0.002417,0.006724,-0.000791,0.006792,-0.002485,-85.090355,0.006873,
1040,640,0.489960,-11.524463,0.999996,0.000244,-0.003826,0.006845,-0.001779,0.007134,-0.004115,-80.780905,0.007162,
1010,340,0.389768,-13.375949,0.999997,0.000197,-0.002078,0.006073,-0.000133,0.006075,-0.002080,-89.067378,0.006175,
700,900,2.647005,-8.484526,0.999997,0.000220,-0.003540,0.007376,0.000646,0.007414,-0.003578,86.624277,0.007415,
1160,30,0.002661,-15.072398,0.999999,0.000000,0.000019,0.004475,0.000146,0.004479,0.000014,88.126311,0.005181,
1580,430,-0.847052,-12.552530,0.999998,0.000204,-0.003267,0.007124,0.000322,0.007134,-0.003277,88.227048,0.007142,
1860,1450,-2.261109,-4.567826,0.999996,0.000229,-0.003803,0.007683,0.000053,0.007683,-0.003803,89.734225,0.007684,
760,970,2.558446,-7.988884,0.999996,0.000233,-0.003279,0.007502,0.000469,0.007522,-0.003300,87.515099,0.007541,
1340,1660,-0.192617,-1.928500,0.999998,0.000170,-0.001975,0.005540,-0.000405,0.005561,-0.001996,-86.927095,0.005635,
1530,700,-1.055814,-10.605484,0.999998,0.000194,-0.005013,0.008655,0.000775,0.008699,-0.005056,86.764321,0.008737,
870,570,1.108379,-11.472105,0.999997,0.000201,-0.004125,0.007832,-0.000551,0.007858,-0.004151,-87.366892,0.007862,
1190,1800,0.049612,-1.134548,0.999998,0.000141,-0.001142,0.005169,0.000005,0.005169,-0.001142,89.958140,0.005431,
1780,400,-1.501565,-12.314997,0.999996,0.000238,-0.003707,0.007581,0.000093,0.007581,-0.003708,89.528045,0.007582,
780,1580,1.292220,-3.143054,0.999997,0.000206,-0.003782,0.007601,0.000240,0.007606,-0.003787,88.794944,0.007606,
1780,530,-1.782556,-11.317636,0.999997,0.000201,-0.003874,0.007714,0.000088,0.007715,-0.003875,89.566942,0.007715,
1760,1390,-2.019186,-4.812149,0.999997,0.000227,-0.004062,0.007874,0.000246,0.007879,-0.004068,88.820386,0.007880,
1480,1300,-0.917561,-4.789811,0.999995,0.000259,-0.005497,0.009049,-0.001192,0.009146,-0.005594,-85.345649,0.009221,
1880,1940,-0.854295,-0.918163,0.999997,0.000207,-0.003506,0.008165,0.001336,0.008316,-0.003657,83.554090,0.008336,
1820,440,-1.739104,-11.911334,0.999997,0.000200,-0.003788,0.007577,0.000123,0.007579,-0.003790,89.382047,0.007579,
600,1350,2.521164,-5.333339,0.999997,0.000213,-0.003735,0.007505,-0.000200,0.007508,-0.003738,-88.982509,0.007508,
1240,1800,-0.010278,-1.128475,0.999998,0.000157,-0.001209,0.005117,-0.000030,0.005118,-0.001209,-89.728532,0.005350,
1850,940,-3.004781,-8.138342,0.999998,0.000158,-0.003236,0.006725,-0.000338,0.006736,-0.003247,-88.056680,0.006738,
600,1590,1.955093,-3.502907,0.999997,0.000181,-0.003745,0.007627,0.000088,0.007628,-0.003746,89.554811,0.007628,
910,1230,1.550094,-5.740626,0.999995,0.000256,-0.005171,0.009429,-0.000534,0.009448,-0.005190,-87.909716,0.009464,
1600,1110,-2.175974,-6.893084,0.999997,0.000224,-0.003387,0.008246,0.000907,0.008316,-0.003458,85.569198,0.008356,
1600,1950,-0.215689,-0.457245,0.999997,0.000190,-0.001079,0.005725,0.001112,0.005902,-0.001256,80.952306,0.006218,
1270,1850,-0.038182,-0.880526,0.999998,0.000170,-0.000896,0.005023,0.000047,0.005023,-0.000896,89.540509,0.005358,
1440,880,-1.179913,-9.347343,0.999994,0.000290,-0.005497,0.010515,0.000975,0.010574,-0.005556,86.526545,0.010579,
1540,310,-0.547941,-13.448062,0.999997,0.000225,-0.002311,0.006467,-0.000080,0.006467,-0.002311,-89.476618,0.006554,
1720,1810,-0.892114,-1.499259,0.999998,0.000176,-0.002932,0.007417,0.000766,0.007473,-0.002988,85.791527,0.007523,
620,850,2.816511,-8.768339,0.999997,0.000196,-0.003491,0.007107,0.000493,0.007130,-0.003514,87.342538,0.007130,
1450,1260,-0.860513,-4.991019,0.999997,0.000190,-0.005778,0.009244,-0.001537,0.009400,-0.005933,-84.216179,0.009507,
960,140,0.190758,-14.505107,0.999998,0.000176,-0.001144,0.005439,0.000591,0.005492,-0.001197,84.911149,0.005776,
1140,100,0.032417,-14.750079,0.999998,0.000164,-0.000420,0.004751,0.000157,0.004755,-0.000425,88.262902,0.005263,
1690,1230,-2.175753,-5.981726,0.999998,0.000181,-0.004116,0.008115,0.000876,0.008177,-0.004178,85.923633,0.008178,
1390,1670,-0.284075,-1.922472,0.999998,0.000182,-0.002088,0.005807,-0.000353,0.005823,-0.002104,-87.441933,0.005897,
1480,1910,-0.174097,-0.634876,0.999998,0.000157,-0.000922,0.005366,0.000573,0.005418,-0.000974,84.836562,0.005777,
1860,1430,-2.307963,-4.720306,0.999996,0.000259,-0.003786,0.007623,0.000089,0.007623,-0.003786,89.552221,0.007623,
1270,1720,-0.059304,-1.558494,0.999998,0.000180,-0.001500,0.005342,-0.000076,0.005343,-0.001501,-89.367772,0.005511,
830,350,0.876151,-13.018726,0.999997,0.000201,-0.003031,0.007123,0.000110,0.007125,-0.003033,89.382122,0.007151,
570,720,2.693030,-9.621996,0.999873,0.001294,-0.004640,0.007440,0.000635,0.007473,-0.004673,86.999558,0.007551,
700,880,2.601595,-8.636471,0.999996,0.000241,-0.003633,0.007520,0.000760,0.007571,-0.003685,86.117884,0.007572,
1160,870,0.565379,-11.123664,0.999996,0.000000,-0.003807,0.001870,-0.000796,0.001980,-0.003917,-82.169476,0.003917,
1040,1240,0.772235,-4.984404,0.999996,0.000248,-0.005837,0.009070,0.001975,0.009327,-0.006094,82.577876,0.009472,
1560,430,-0.783165,-12.595730,0.999998,0.000152,-0.003257,0.007070,0.000399,0.007086,-0.003272,87.791304,0.007092,
1650,970,-2.388524,-8.001551,0.999996,0.000208,-0.003151,0.007778,-0.000641,0.007815,-0.003188,-86.656238,0.007859,
650,220,1.115346,-13.607506,0.999997,0.000226,-0.003422,0.007688,0.000637,0.007725,-0.003459,86.727530,0.007739,
620,280,1.425602,-13.062615,0.999998,0.000201,-0.003692,0.007473,0.000063,0.007474,-0.003693,89.675377,0.007474,
1510,1060,-2.013709,-7.256137,0.999998,0.000162,-0.002954,0.009552,0.000453,0.009568,-0.002970,87.928566,0.009795,
1750,940,-2.668802,-8.198242,0.999997,0.000188,-0.003408,0.007369,-0.000611,0.007403,-0.003442,-86.767279,0.007409,
1340,1640,-0.197725,-2.038121,0.999998,0.000178,-0.001994,0.005541,-0.000432,0.005566,-0.002019,-86.731315,0.005635,
870,550,1.074519,-11.626560,0.999997,0.000205,-0.003998,0.007742,-0.000543,0.007767,-0.004023,-87.358692,0.007769,
780,1560,1.330382,-3.293863,0.999996,0.000233,-0.003862,0.007659,0.000235,0.007663,-0.003867,88.829432,0.007663,
1740,1770,-1.070620,-1.837355,0.999998,0.000171,-0.003411,0.007495,0.000321,0.007505,-0.003420,88.316056,0.007515,
1860,900,-2.972600,-8.400442,0.999998,0.000171,-0.003245,0.006679,-0.000262,0.006686,-0.003252,-88.490024,0.006686,
720,2010,0.123062,-0.153283,0.999997,0.000205,-0.000789,0.006012,-0.002181,0.006651,-0.001429,-73.665182,0.007002,
740,1360,1.945960,-4.975965,0.999997,0.000221,-0.004225,0.008018,-0.000361,0.008029,-0.004235,-88.312077,0.008033,
840,1590,1.051259,-2.923662,0.999997,0.000205,-0.003636,0.007428,0.000348,0.007439,-0.003647,88.202017,0.007439,
1460,950,-1.682717,-8.451514,0.999993,0.000291,-0.004330,0.011279,0.000078,0.011279,-0.004330,89.714912,0.011380,
1820,420,-1.696076,-12.065115,0.999997,0.000205,-0.003757,0.007575,0.000103,0.007576,-0.003758,89.478611,0.007576,
1780,420,-1.544043,-12.164042,0.999997,0.000209,-0.003730,0.007584,0.000120,0.007586,-0.003731,89.391576,0.007586,
810,2010,0.078586,-0.135093,0.999998,0.000168,-0.000438,0.005385,-0.001391,0.005700,-0.000753,-77.229069,0.006193,
880,510,0.974948,-11.957771,0.999996,0.000242,-0.003770,0.007465,-0.000545,0.007492,-0.003796,-87.229956,0.007492,
1080,1940,0.068767,-0.451068,0.999998,0.000156,-0.000458,0.004926,-0.000351,0.004949,-0.000480,-86.283154,0.005459,
930,1780,0.474520,-1.436536,0.999997,0.000207,-0.002100,0.006351,-0.000252,0.006359,-0.002107,-88.294384,0.006478,
1430,1260,-0.742937,-4.854806,0.999996,0.000252,-0.005760,0.008936,-0.002019,0.009208,-0.006032,-82.317019,0.009355,
1480,1280,-0.972152,-4.973052,0.999996,0.000235,-0.005646,0.009266,-0.001062,0.009341,-0.005722,-85.945438,0.009420,
1440,860,-1.067521,-9.564756,0.999996,0.000247,-0.005749,0.010259,0.001170,0.010344,-0.005834,85.841099,0.010372,
570,710,2.651627,-9.685848,0.999759,0.001748,-0.004731,0.006899,0.000684,0.006939,-0.004771,86.644443,0.007100,
1580,1110,-2.108035,-6.878449,0.999996,0.000229,-0.003407,0.008486,0.000977,0.008566,-0.003487,85.335929,0.008615,
620,830,2.769079,-8.911770,0.999998,0.000157,-0.003509,0.007065,0.000429,0.007082,-0.003527,87.680056,0.007082,
830,330,0.837438,-13.161212,0.999998,0.000186,-0.002920,0.007073,0.000138,0.007075,-0.002921,89.207013,0.007111,
1090,780,0.404362,-10.838118,0.999995,0.000287,-0.004669,0.006895,-0.003142,0.007694,-0.005468,-75.739753,0.007918,
960,120,0.160237,-14.610011,0.999998,0.000192,-0.000964,0.005355,0.000636,0.005418,-0.001027,84.308525,0.005756,
1280,1390,-0.083423,-3.218370,0.999998,0.000182,-0.001935,0.004087,-0.001141,0.004296,-0.002144,-79.625651,0.004296,
730,1480,1.694523,-4.040741,0.999996,0.000240,-0.004030,0.007792,0.000048,0.007792,-0.004030,89.768497,0.007794,
1230,60,0.000562,-14.937263,0.999999,0.000138,-0.000253,0.004528,0.000017,0.004528,-0.000253,89.799759,0.005088,
1280,100,-0.016281,-14.752845,0.999998,0.000164,-0.000305,0.004671,-0.000102,0.004673,-0.000307,-88.824691,0.005228,
1160,1180,0.623671,-4.001963,0.999997,0.000000,-0.003864,0.001971,0.000791,0.002076,-0.003970,82.418549,0.003971,
700,860,2.552447,-8.786848,0.999996,0.000257,-0.003680,0.007525,0.000736,0.007573,-0.003729,86.255742,0.007573,
1730,500,-1.523373,-11.670594,0.999996,0.000245,-0.003885,0.007712,0.000181,0.007715,-0.003888,89.106602,0.007715,
1020,1970,0.073026,-0.315764,0.999999,0.000150,-0.000422,0.004926,-0.000490,0.004971,-0.000467,-84.804473,0.005490,
1040,190,0.175028,-14.269088,0.999998,0.000202,-0.001248,0.005374,0.000285,0.005387,-0.001260,87.541976,0.005635,
1720,960,-2.601357,-8.059346,0.999997,0.000189,-0.003307,0.007459,-0.000559,0.007488,-0.003336,-87.037809,0.007503,
1390,1650,-0.295194,-2.038114,0.999997,0.000191,-0.002220,0.005841,-0.000478,0.005869,-0.002249,-86.620002,0.005923,
1650,950,-2.350406,-8.161061,0.999996,0.000234,-0.003312,0.007835,-0.000777,0.007889,-0.003366,-86.032242,0.007917,
1510,1090,-1.937868,-6.974435,0.999997,0.000181,-0.003384,0.009450,0.000791,0.009499,-0.003432,86.486120,0.009620,
620,260,1.363052,-13.214130,0.999997,0.000204,-0.003663,0.007575,0.000133,0.007576,-0.003664,89.320454,0.007578,
1890,1770,-1.612227,-2.232301,0.999997,0.000225,-0.003673,0.007244,-0.000027,0.007244,-0.003673,-89.857451,0.007244,
1010,140,0.146407,-14.521891,0.999998,0.000142,-0.000774,0.005259,0.000497,0.005299,-0.000815,85.326294,0.005707,
1450,1680,-0.413120,-1.951586,0.999997,0.000208,-0.002229,0.006184,-0.000244,0.006191,-0.002236,-88.337643,0.006270,
1340,1620,-0.205253,-2.150960,0.999998,0.000199,-0.002032,0.005563,-0.000444,0.005589,-0.002058,-86.664509,0.005654,
690,160,0.741922,-14.146097,0.999997,0.000211,-0.003052,0.007494,0.001309,0.007654,-0.003212,83.027188,0.007687,
1690,1210,-2.235041,-6.146765,0.999997,0.000208,-0.004025,0.008105,0.000928,0.008176,-0.004096,85.649122,0.008176,
1750,920,-2.636015,-8.344995,0.999997,0.000182,-0.003443,0.007349,-0.000589,0.007381,-0.003475,-86.885752,0.007385,
870,530,1.041940,-11.782868,0.999998,0.000207,-0.003860,0.007632,-0.000506,0.007654,-0.003882,-87.481407,0.007655,
1870,1010,-3.123391,-7.674542,0.999998,0.000186,-0.003054,0.006475,-0.000179,0.006479,-0.003057,-88.922745,0.006482,
1040,1220,0.851492,-5.172654,0.999995,0.000275,-0.005801,0.009393,0.001883,0.009623,-0.006031,83.040154,0.009726,
1720,1770,-1.007127,-1.798540,0.999998,0.000218,-0.003106,0.007432,0.000439,0.007450,-0.003124,87.619933,0.007482,
780,1540,1.369853,-3.449041,0.999996,0.000215,-0.003956,0.007772,0.000240,0.007777,-0.003961,88.826014,0.007777,
1870,400,-1.836709,-12.090337,0.999997,0.000197,-0.003732,0.007437,0.000101,0.007438,-0.003733,89.480310,0.007438,
820,1590,1.124292,-2.970472,0.999997,0.000226,-0.003685,0.007492,0.000310,0.007501,-0.003694,88.411460,0.007501,
1530,800,-1.333691,-9.692413,0.999995,0.000266,-0.005471,0.009531,0.000008,0.009531,-0.005471,89.968433,0.009565,
1160,330,0.105746,-13.579534,0.999998,0.000160,-0.001497,0.005419,-0.000050,0.005420,-0.001498,-89.586169,0.005597,
590,700,2.547288,-9.802453,0.999996,0.000271,-0.003880,0.007432,0.000225,0.007437,-0.003884,88.861918,0.007439,
1820,400,-1.650018,-12.216427,0.999997,0.000225,-0.003735,0.007554,0.000077,0.007555,-0.003736,89.608700,0.007555,
710,2010,0.133071,-0.156787,0.999998,0.000185,-0.000921,0.006094,-0.002256,0.006757,-0.001584,-73.622714,0.007068,
1860,880,-2.939784,-8.533860,0.999998,0.000184,-0.003292,0.006759,-0.000271,0.006766,-0.003299,-88.457793,0.006767,
580,740,2.686647,-9.483450,0.999997,0.000207,-0.004309,0.007817,0.000156,0.007819,-0.004311,89.260913,0.007833,
740,1340,1.998461,-5.137995,0.999998,0.000193,-0.004207,0.008054,-0.000441,0.008070,-0.004223,-87.940503,0.008073,
1440,840,-0.973977,-9.773043,0.999996,0.000237,-0.005888,0.009871,0.001425,0.009998,-0.006016,84.873763,0.010067,
1780,440,-1.588628,-12.010198,0.999997,0.000209,-0.003755,0.007600,0.000129,0.007602,-0.003757,89.351132,0.007602,
1850,50,-0.303966,-14.839658,0.999997,0.000207,-0.002685,0.007710,-0.002664,0.008353,-0.003328,-76.432090,0.008410,
960,100,0.124807,-14.719976,0.999998,0.000187,-0.000819,0.005215,0.000673,0.005289,-0.000893,83.708797,0.005663,
1840,710,-2.450174,-9.800047,0.999996,0.000226,-0.003779,0.007525,-0.000279,0.007532,-0.003786,-88.586283,0.007532,
1390,1630,-0.306193,-2.157938,0.999997,0.000195,-0.002371,0.005916,-0.000609,0.005961,-0.002415,-85.816829,0.005996,
1020,190,0.198860,-14.258380,0.999997,0.000196,-0.001173,0.005449,0.000354,0.005468,-0.001192,86.950351,0.005751,
800,1850,0.609156,-1.131233,0.999997,0.000203,-0.002577,0.006789,-0.000852,0.006866,-0.002654,-84.844359,0.006924,
1540,470,-0.769456,-12.357212,0.999998,0.000194,-0.003399,0.007105,0.000580,0.007137,-0.003431,86.846553,0.007139,
830,310,0.799463,-13.301229,0.999998,0.000202,-0.002775,0.006957,0.000242,0.006963,-0.002781,88.578458,0.007010,
1620,1450,-1.285641,-4.001807,0.999998,0.000159,-0.004358,0.007960,-0.000373,0.007971,-0.004370,-88.267471,0.007983,
700,840,2.504053,-8.936678,0.999996,0.000230,-0.003756,0.007525,0.000722,0.007571,-0.003802,86.351239,0.007571,
1160,1190,0.524781,-3.983131,0.999997,0.000000,-0.003851,0.002286,0.000670,0.002359,-0.003924,83.840431,0.003950,
1650,1260,-1.914222,-5.674227,0.999996,0.000278,-0.004495,0.008521,0.000728,0.008562,-0.004536,86.807850,0.008567,
1220,1730,0.018153,-1.497207,0.999998,0.000158,-0.001484,0.005288,0.000057,0.005289,-0.001485,89.514032,0.005456,
1690,1190,-2.292380,-6.309427,0.999997,0.000220,-0.003890,0.007997,0.000886,0.008063,-0.003956,85.758457,0.008063,
1510,1070,-1.990669,-7.156612,0.999998,0.000156,-0.003065,0.009511,0.000573,0.009537,-0.003091,87.395341,0.009732,
950,1420,0.864809,-3.913029,0.999997,0.000207,-0.004408,0.007826,0.001040,0.007914,-0.004496,85.173494,0.007939,
1570,230,-0.462371,-13.930216,0.999998,0.000186,-0.002115,0.006320,-0.000517,0.006351,-0.002146,-86.505866,0.006462,
1480,1260,-1.031279,-5.158407,0.999996,0.000230,-0.005770,0.009516,-0.000916,0.009570,-0.005825,-86.583579,0.009645,
1070,1920,0.092919,-0.552513,0.999998,0.000148,-0.000651,0.005001,-0.000310,0.005018,-0.000667,-86.874831,0.005450,
780,1490,1.469598,-3.842207,0.999995,0.000257,-0.004142,0.007851,0.000145,0.007853,-0.004144,89.306224,0.007857,
660,480,1.762636,-11.648098,0.999997,0.000217,-0.003799,0.007675,-0.000106,0.007675,-0.003800,-89.470981,0.007676,
1340,1600,-0.210656,-2.261717,0.999998,0.000171,-0.002076,0.005556,-0.000502,0.005589,-0.002109,-86.250727,0.005644,
1130,1800,0.119959,-1.153111,0.999998,0.000159,-0.001340,0.005263,0.000028,0.005263,-0.001340,89.755123,0.005470,
1510,700,-0.953305,-10.682376,0.999998,0.000185,-0.005032,0.008591,0.001034,0.008669,-0.005110,85.685446,0.008715,
870,510,1.011573,-11.933304,0.999997,0.000232,-0.003756,0.007495,-0.000496,0.007517,-0.003778,-87.480539,0.007517,
1720,940,-2.566587,-8.210248,0.999997,0.000193,-0.003396,0.007489,-0.000643,0.007527,-0.003434,-86.628681,0.007537,
730,160,0.619844,-14.222553,0.999996,0.000213,-0.002476,0.007109,0.001416,0.007313,-0.002681,81.767146,0.007400,
730,2010,0.116712,-0.152407,0.999997,0.000218,-0.000538,0.005899,-0.002102,0.006524,-0.001163,-73.426782,0.006960,
780,1520,1.409354,-3.607763,0.999997,0.000214,-0.004055,0.007816,0.000229,0.007821,-0.004059,88.895057,0.007822,
1650,930,-2.311052,-8.317258,0.999997,0.000220,-0.003509,0.007993,-0.000860,0.008057,-0.003573,-85.747247,0.008074,
910,1250,1.474568,-5.549522,0.999994,0.000298,-0.005257,0.009367,-0.000314,0.009373,-0.005264,-88.769966,0.009397,
1860,860,-2.899235,-8.673644,0.999997,0.000183,-0.003376,0.006972,-0.000354,0.006984,-0.003388,-88.040311,0.006985,
1440,820,-0.890253,-9.966208,0.999995,0.000255,-0.005896,0.009437,0.001578,0.009598,-0.006057,84.184598,0.009707,
970,420,0.567843,-12.803985,0.999997,0.000230,-0.002864,0.006594,-0.000497,0.006620,-0.002890,-87.002345,0.006637,
1270,1330,-0.057331,-3.411896,0.999997,0.000197,-0.001743,0.003084,-0.001332,0.003428,-0.002087,-75.551077,0.003454,
1780,880,-2.663018,-8.620480,0.999997,0.000216,-0.003568,0.007416,-0.000700,0.007461,-0.003612,-86.369576,0.007462,
1140,80,0.025290,-14.843984,0.999998,0.000165,-0.000301,0.004636,0.000179,0.004642,-0.000308,87.930695,0.005192,
1390,1610,-0.316199,-2.278180,0.999997,0.000201,-0.002484,0.005936,-0.000671,0.005989,-0.002538,-85.470728,0.006012,
990,1710,0.434866,-1.796817,0.999997,0.000207,-0.002207,0.006172,0.000144,0.006174,-0.002209,89.016228,0.006257,
1540,1070,-2.080982,-7.189722,0.999998,0.000200,-0.002914,0.008849,0.000671,0.008887,-0.002952,86.744593,0.009053,
620,240,1.296031,-13.366340,0.999997,0.000217,-0.003655,0.007526,0.000185,0.007529,-0.003658,89.050217,0.007530,
1040,1200,0.945177,-5.367646,0.999995,0.000265,-0.005558,0.009798,0.001825,0.010012,-0.005772,83.313738,0.010051,
1020,1350,0.632256,-4.171706,0.999997,0.000238,-0.004768,0.007901,0.001905,0.008181,-0.005049,81.629297,0.008256,
580,700,2.583811,-9.778990,0.999995,0.000251,-0.004453,0.007104,0.000395,0.007117,-0.004466,88.042800,0.007194,
1370,140,-0.083537,-14.546931,0.999998,0.000169,-0.000581,0.004945,-0.000268,0.004958,-0.000594,-87.225114,0.005414,
830,290,0.754562,-13.441028,0.999997,0.000216,-0.002629,0.007011,0.000413,0.007028,-0.002647,87.551350,0.007099,
1820,380,-1.602394,-12.368071,0.999997,0.000228,-0.003745,0.007588,0.000061,0.007588,-0.003746,89.691519,0.007588,
960,80,0.093310,-14.820178,0.999998,0.000179,-0.000601,0.005084,0.000704,0.005169,-0.000687,83.044632,0.005615,
950,1920,0.193832,-0.593527,0.999998,0.000195,-0.001098,0.005438,-0.000642,0.005501,-0.001161,-84.445217,0.005799,
1850,40,-0.231855,-14.910912,0.999981,0.000525,-0.002119,0.007554,-0.003001,0.008410,-0.002975,-74.089214,0.008529,
1210,1200,0.171483,-3.644702,0.999992,0.000000,-0.007194,0.002300,-0.000268,0.002308,-0.007201,-88.381344,0.007354,
1340,1580,-0.215245,-2.370798,0.999998,0.000167,-0.002106,0.005586,-0.000597,0.005632,-0.002152,-85.586114,0.005684,
1530,780,-1.266696,-9.882436,0.999995,0.000228,-0.005472,0.009347,0.000223,0.009350,-0.005475,89.138235,0.009396,
780,1940,0.352839,-0.560053,0.999997,0.000217,-0.001617,0.006419,-0.001605,0.006727,-0.001926,-79.115619,0.006929,
660,460,1.717695,-11.801945,0.999997,0.000209,-0.003782,0.007590,-0.000130,0.007591,-0.003784,-89.342945,0.007591,
1710,50,-0.133983,-14.940255,0.999998,0.000166,-0.000361,0.005667,-0.001870,0.006200,-0.000895,-74.091000,0.006703,
1180,1550,0.097067,-2.465485,0.999998,0.000165,-0.001956,0.005200,0.000334,0.005216,-0.001972,87.330537,0.005267,
1620,1430,-1.324545,-4.161685,0.999996,0.000228,-0.004447,0.008122,-0.000347,0.008132,-0.004456,-88.417863,0.008144,
1600,80,-0.156006,-14.798390,0.999998,0.000162,-0.000776,0.005489,-0.001162,0.005698,-0.000985,-79.820254,0.006091,
1610,940,-2.198080,-8.259453,0.999997,0.000222,-0.003448,0.008234,-0.000897,0.008302,-0.003516,-85.632273,0.008334,
1240,1780,-0.011899,-1.232185,0.999998,0.000140,-0.001291,0.005186,-0.000034,0.005186,-0.001291,-89.702545,0.005399,
700,820,2.453548,-9.089858,0.999996,0.000229,-0.003861,0.007660,0.000760,0.007710,-0.003911,86.242206,0.007710,
1260,1870,-0.023466,-0.778633,0.999998,0.000164,-0.000811,0.004962,0.000014,0.004962,-0.000811,89.865582,0.005323,
870,490,0.983477,-12.082037,0.999998,0.000207,-0.003694,0.007439,-0.000486,0.007461,-0.003715,-87.503834,0.007461,
1190,350,0.064900,-13.482153,0.999998,0.000153,-0.001536,0.005303,-0.000107,0.005304,-0.001538,-89.104477,0.005458,
1650,910,-2.260852,-8.481631,0.999996,0.000223,-0.003676,0.008141,-0.000995,0.008224,-0.003760,-85.219449,0.008234,
1720,920,-2.533166,-8.360553,0.999997,0.000212,-0.003502,0.007548,-0.000661,0.007587,-0.003541,-86.586657,0.007593,
1410,480,-0.383982,-12.590942,0.999997,0.000207,-0.002572,0.006153,0.000758,0.006218,-0.002638,85.072636,0.006242,
600,1650,1.821624,-3.048582,0.999998,0.000189,-0.003702,0.007475,0.000073,0.007476,-0.003702,89.627338,0.007476,
870,60,0.094364,-14.908847,0.999998,0.000164,-0.000598,0.005333,0.001114,0.005535,-0.000800,79.701836,0.005983,
1210,320,0.032042,-13.646149,0.999998,0.000140,-0.001478,0.005287,-0.000084,0.005288,-0.001479,-89.286411,0.005457,
1080,1920,0.087702,-0.551237,0.999998,0.000163,-0.000578,0.004972,-0.000305,0.004988,-0.000595,-86.858857,0.005449,
1810,100,-0.529314,-14.549844,0.999998,0.000186,-0.002193,0.007595,-0.002315,0.008115,-0.002713,-77.342229,0.008262,
1440,800,-0.816682,-10.149417,0.999995,0.000269,-0.005797,0.009210,0.001766,0.009415,-0.006002,83.378418,0.009533,
1780,860,-2.614337,-8.769960,0.999997,0.000224,-0.003648,0.007414,-0.000697,0.007458,-0.003692,-86.410599,0.007458,
740,1910,0.536122,-0.783029,0.999997,0.000220,-0.001954,0.006861,-0.001599,0.007142,-0.002235,-80.031110,0.007306,
1690,1170,-2.342538,-6.466892,0.999996,0.000243,-0.003773,0.007895,0.000902,0.007964,-0.003842,85.604572,0.007966,
1860,840,-2.850892,-8.816438,0.999997,0.000184,-0.003441,0.007007,-0.000364,0.007020,-0.003454,-88.007480,0.007020,
1490,700,-0.856922,-10.766682,0.999998,0.000229,-0.004978,0.008422,0.001294,0.008546,-0.005102,84.534228,0.008600,
670,1200,2.650933,-6.325552,0.999997,0.000214,-0.003607,0.007378,-0.000676,0.007420,-0.003649,-86.492928,0.007420,
1110,1800,0.147821,-1.164946,0.999998,0.000150,-0.001320,0.005325,-0.000032,0.005325,-0.001320,-89.721926,0.005546,
990,1690,0.453453,-1.920790,0.999997,0.000213,-0.002362,0.006259,0.000227,0.006265,-0.002368,88.491696,0.006327,
1000,1350,0.728984,-4.269489,0.999996,0.000256,-0.004944,0.008199,0.001654,0.008404,-0.005149,82.937406,0.008475,
1040,1180,1.056705,-5.565510,0.999996,0.000243,-0.005313,0.010267,0.001804,0.010473,-0.005519,83.481158,0.010478,
940,190,0.305638,-14.209442,0.999998,0.000170,-0.001513,0.005860,0.000581,0.005905,-0.001558,85.520831,0.006121,
1670,680,-1.676866,-10.376230,0.999996,0.000244,-0.004473,0.008281,-0.000164,0.008283,-0.004475,-89.264084,0.008292,
1390,1590,-0.326807,-2.398602,0.999997,0.000203,-0.002545,0.005955,-0.000785,0.006027,-0.002616,-84.767099,0.006045,
830,270,0.708501,-13.581392,0.999997,0.000213,-0.002490,0.006909,0.000526,0.006939,-0.002519,86.808616,0.007025,
1160,1730,0.103969,-1.514273,0.999998,0.000157,-0.001435,0.005376,0.000037,0.005376,-0.001435,89.691680,0.005567,
1820,360,-1.556623,-12.520773,0.999996,0.000232,-0.003759,0.007612,0.000020,0.007612,-0.003759,89.901333,0.007612,
740,1320,2.053832,-5.299078,0.999998,0.000205,-0.004183,0.008020,-0.000534,0.008043,-0.004206,-87.498377,0.008046,
1720,1110,-2.575094,-6.946596,0.999996,0.000251,-0.003386,0.007522,0.000653,0.007561,-0.003425,86.585992,0.007572,
810,1900,0.428435,-0.788244,0.999997,0.000209,-0.001858,0.006426,-0.001157,0.006585,-0.002016,-82.195688,0.006747,
660,440,1.674532,-11.953501,0.999997,0.000202,-0.003781,0.007559,-0.000106,0.007560,-0.003782,-89.466270,0.007560,
910,1270,1.407586,-5.362811,0.999995,0.000278,-0.005310,0.009260,-0.000128,0.009261,-0.005311,-89.496192,0.009294,
1840,690,-2.396984,-9.949563,0.999996,0.000231,-0.003811,0.007537,-0.000266,0.007543,-0.003817,-88.655961,0.007543,
1340,1560,-0.217265,-2.485795,0.999997,0.000176,-0.002166,0.005586,-0.000670,0.005643,-0.002223,-85.094571,0.005685,
1650,890,-2.204943,-8.644328,0.999997,0.000219,-0.003841,0.008147,-0.000964,0.008224,-0.003918,-85.430286,0.008227,
780,1960,0.273260,-0.429841,0.999997,0.000183,-0.001281,0.006037,-0.001578,0.006362,-0.001606,-78.337586,0.006617,
960,60,0.058290,-14.923708,0.999999,0.000187,-0.000429,0.004954,0.000668,0.005036,-0.000511,83.030252,0.005543,
1600,1450,-1.197848,-3.944940,0.999995,0.000245,-0.004348,0.007931,-0.000442,0.007947,-0.004363,-87.940972,0.007960,
1710,60,-0.168173,-14.886436,0.999998,0.000151,-0.000558,0.005804,-0.001846,0.006300,-0.001055,-74.938394,0.006749,
1150,140,0.045092,-14.560005,0.999998,0.000140,-0.000583,0.004841,0.000128,0.004844,-0.000586,88.644416,0.005287,
1260,1550,-0.053506,-2.453921,0.999997,0.000185,-0.001895,0.005111,-0.000277,0.005122,-0.001906,-87.742158,0.005177,
700,800,2.396922,-9.245041,0.999996,0.000256,-0.003919,0.007705,0.000700,0.007747,-0.003961,86.566749,0.007748,
1530,1800,-0.438369,-1.311323,0.999997,0.000211,-0.001989,0.006178,0.000350,0.006193,-0.002004,87.549469,0.006320,
1240,1760,-0.012395,-1.337119,0.999998,0.000156,-0.001368,0.005258,-0.000045,0.005259,-0.001369,-89.612422,0.005457,
1080,1900,0.102325,-0.651419,0.999998,0.000165,-0.000681,0.005114,-0.000302,0.005129,-0.000696,-87.020588,0.005565,
1210,860,0.181865,-11.450193,0.999984,0.000000,-0.007461,0.002142,0.000273,0.002150,-0.007469,88.372546,0.007690,
1440,780,-0.757351,-10.334264,0.999996,0.000242,-0.005639,0.008949,0.001906,0.009194,-0.005884,82.678490,0.009313,
1170,320,0.088520,-13.636541,0.999998,0.000151,-0.001412,0.005413,-0.000011,0.005413,-0.001412,-89.909024,0.005616,
870,470,0.951430,-12.231860,0.999998,0.000211,-0.003597,0.007385,-0.000456,0.007404,-0.003616,-87.626864,0.007404,
1780,840,-2.568057,-8.919635,0.999996,0.000239,-0.003682,0.007418,-0.000667,0.007458,-0.003722,-86.571707,0.007458,
1720,900,-2.492906,-8.513919,0.999997,0.000209,-0.003623,0.007756,-0.000837,0.007817,-0.003684,-85.815551,0.007822,
1280,1760,-0.068098,-1.347411,0.999999,0.000133,-0.001308,0.005271,0.000007,0.005271,-0.001308,89.938686,0.005489,
1600,60,-0.099515,-14.912022,0.999998,0.000158,-0.000535,0.005338,-0.001183,0.005567,-0.000765,-79.025860,0.006036,
1410,640,-0.442482,-11.574906,0.999997,0.000212,-0.003652,0.006644,0.001799,0.006950,-0.003958,80.368348,0.006972,
1450,800,-0.877016,-10.081169,0.999996,0.000251,-0.005803,0.009335,0.001507,0.009483,-0.005951,84.369781,0.009586,
1660,510,-1.271429,-11.764488,0.999996,0.000235,-0.003896,0.007714,0.000290,0.007721,-0.003903,88.572348,0.007721,
1890,400,-1.911086,-12.040142,0.999998,0.000183,-0.003684,0.007312,0.000089,0.007313,-0.003684,89.535625,0.007313,
1690,1150,-2.394261,-6.625746,0.999997,0.000236,-0.003641,0.007894,0.000924,0.007967,-0.003715,85.449212,0.007973,
850,60,0.104916,-14.908569,0.999997,0.000200,-0.000449,0.005406,0.001254,0.005663,-0.000707,78.409824,0.006172,
1820,350,-1.530856,-12.597387,0.999997,0.000218,-0.003756,0.007587,0.000005,0.007587,-0.003756,89.976425,0.007587,
1050,1640,0.357601,-2.139733,0.999998,0.000180,-0.002424,0.006050,0.000555,0.006086,-0.002460,86.267103,0.006123,
1140,60,0.015370,-14.936382,0.999998,0.000162,-0.000236,0.004568,0.000180,0.004575,-0.000243,87.862239,0.005148,
1510,1050,-2.030863,-7.356466,0.999998,0.000175,-0.002860,0.009460,0.000330,0.009468,-0.002868,88.468975,0.009710,
1630,1260,-1.821970,-5.639751,0.999996,0.000230,-0.004636,0.008671,0.000682,0.008706,-0.004671,87.074160,0.008714,
1090,1800,0.173395,-1.175627,0.999998,0.000144,-0.001253,0.005403,-0.000094,0.005404,-0.001254,-89.187883,0.005657,
1820,780,-2.559088,-9.312232,0.999997,0.000205,-0.003711,0.007457,-0.000491,0.007479,-0.003732,-87.488931,0.007479,
1040,1160,1.182980,-5.772894,0.999996,0.000221,-0.005145,0.010535,0.001785,0.010736,-0.005345,83.586635,0.010736,
890,1100,2.111862,-6.958019,0.999997,0.000223,-0.003278,0.008463,-0.000881,0.008529,-0.003344,-85.731928,0.008595,
1480,1240,-1.104657,-5.355130,0.999995,0.000281,-0.005836,0.009793,-0.000684,0.009823,-0.005866,-87.499527,0.009885,
1570,210,-0.419862,-14.053707,0.999998,0.000190,-0.001958,0.006161,-0.000620,0.006208,-0.002005,-85.660425,0.006336,
620,220,1.221605,-13.516347,0.999997,0.000208,-0.003664,0.007652,0.000288,0.007660,-0.003671,88.543921,0.007662,
1320,510,-0.175506,-12.582721,0.999998,0.000157,-0.002198,0.005417,0.000698,0.005480,-0.002262,84.808666,0.005508,
1540,450,-0.743063,-12.499932,0.999997,0.000214,-0.003334,0.007056,0.000535,0.007084,-0.003362,87.062222,0.007087,
1860,820,-2.804318,-8.955162,0.999997,0.000198,-0.003473,0.006986,-0.000326,0.006996,-0.003483,-88.216557,0.006996,
820,490,1.167786,-11.960293,0.999998,0.000155,-0.003813,0.007566,-0.000338,0.007576,-0.003823,-88.301670,0.007576,
1390,1570,-0.334809,-2.518380,0.999997,0.000213,-0.002574,0.006024,-0.000875,0.006112,-0.002663,-84.249135,0.006129,
930,1420,0.952824,-3.982528,0.999997,0.000212,-0.004481,0.007984,0.000897,0.008048,-0.004545,85.906057,0.008071,
690,1140,2.706072,-6.750142,0.999997,0.000204,-0.003447,0.007247,-0.000542,0.007274,-0.003475,-87.108100,0.007277,
660,420,1.630241,-12.104107,0.999996,0.000219,-0.003780,0.007622,-0.000107,0.007623,-0.003781,-89.462400,0.007623,
1350,1740,-0.175901,-1.489012,0.999998,0.000156,-0.001629,0.005529,-0.000121,0.005531,-0.001631,-89.028504,0.005684,
1460,930,-1.577592,-8.677403,0.999993,0.000309,-0.004678,0.010886,0.000012,0.010886,-0.004678,89.956483,0.010921,
950,1990,0.072548,-0.222796,0.999998,0.000144,-0.000451,0.005055,-0.000738,0.005152,-0.000549,-82.493325,0.005659,
1340,1540,-0.219625,-2.595313,0.999998,0.000180,-0.002234,0.005506,-0.000747,0.005577,-0.002306,-84.541066,0.005605,
1650,870,-2.149247,-8.808497,0.999996,0.000238,-0.004016,0.008328,-0.000993,0.008408,-0.004095,-85.429506,0.008409,
1130,140,0.058286,-14.556119,0.999999,0.000122,-0.000709,0.004884,0.000123,0.004887,-0.000712,88.742268,0.005280,
740,1300,2.109942,-5.459093,0.999998,0.000198,-0.004175,0.008056,-0.000634,0.008089,-0.004208,-87.042878,0.008091,
1080,1880,0.122154,-0.755543,0.999998,0.000164,-0.000822,0.005162,-0.000271,0.005174,-0.000834,-87.407831,0.005556,
1400,1450,-0.397125,-3.282810,0.999997,0.000205,-0.003321,0.006339,-0.001641,0.006611,-0.003593,-80.616098,0.006619,
780,1980,0.206485,-0.315612,0.999998,0.000173,-0.001018,0.005796,-0.001619,0.006161,-0.001383,-77.291639,0.006466,
990,1670,0.475000,-2.047424,0.999997,0.000204,-0.002543,0.006358,0.000343,0.006371,-0.002556,87.795426,0.006412,
590,1350,2.560024,-5.355153,0.999998,0.000213,-0.003862,0.007466,-0.000113,0.007468,-0.003863,-89.428741,0.007469,
1710,80,-0.251089,-14.764429,0.999997,0.000193,-0.000899,0.005997,-0.001822,0.006449,-0.001351,-76.071009,0.006802,
1210,30,0.004410,-15.073042,0.999999,0.000000,-0.000113,0.004498,0.000011,0.004498,-0.000113,89.866502,0.005130,
1830,460,-1.820475,-11.735472,0.999998,0.000166,-0.003784,0.007630,0.000119,0.007631,-0.003785,89.402291,0.007632,
830,250,0.659450,-13.718285,0.999997,0.000223,-0.002381,0.006835,0.000658,0.006882,-0.002428,85.936769,0.006981,
1780,820,-2.517607,-9.068179,0.999996,0.000230,-0.003743,0.007554,-0.000686,0.007595,-0.003785,-86.536878,0.007595,
1120,310,0.162106,-13.663264,0.999998,0.000160,-0.001634,0.005479,-0.000142,0.005481,-0.001637,-88.860702,0.005628,
810,2000,0.109033,-0.189896,0.999998,0.000194,-0.000577,0.005472,-0.001412,0.005785,-0.000891,-77.488193,0.006230,
1720,880,-2.442202,-8.670978,0.999997,0.000219,-0.003745,0.007753,-0.000856,0.007816,-0.003809,-85.763526,0.007817,
1840,750,-2.554952,-9.499888,0.999998,0.000196,-0.003703,0.007384,-0.000406,0.007399,-0.003718,-87.906230,0.007399,
1260,1530,-0.053599,-2.553961,0.999999,0.000129,-0.001913,0.005017,-0.000289,0.005029,-0.001925,-87.616311,0.005075,
1440,760,-0.708214,-10.509762,0.999996,0.000251,-0.005437,0.008608,0.001965,0.008878,-0.005706,82.184771,0.008997,
1590,1990,-0.105181,-0.237586,0.999998,0.000169,-0.000662,0.005313,0.001116,0.005514,-0.000863,79.761072,0.005932,
1820,800,-2.612804,-9.162324,0.999997,0.000211,-0.003661,0.007396,-0.000532,0.007422,-0.003687,-87.249600,0.007422,
910,1710,0.629871,-1.921361,0.999998,0.000209,-0.002650,0.006706,-0.000002,0.006706,-0.002650,-89.987161,0.006755,
870,450,0.920380,-12.381400,0.999998,0.000211,-0.003467,0.007271,-0.000393,0.007286,-0.003481,-87.907898,0.007288,
1030,1640,0.404653,-2.170513,0.999997,0.000179,-0.002379,0.006109,0.000462,0.006134,-0.002404,86.894527,0.006182,
1410,620,-0.435775,-11.703617,0.999997,0.000212,-0.003455,0.006551,0.001681,0.006826,-0.003730,80.715943,0.006836,
700,780,2.342364,-9.399324,0.999997,0.000222,-0.003938,0.007744,0.000648,0.007780,-0.003974,86.832594,0.007781,
1240,1740,-0.012049,-1.441808,0.999998,0.000154,-0.001473,0.005278,-0.000062,0.005278,-0.001474,-89.470893,0.005447,
1880,400,-1.873961,-12.065519,0.999998,0.000198,-0.003698,0.007381,0.000088,0.007382,-0.003699,89.546468,0.007382,
1690,1130,-2.439415,-6.782598,0.999997,0.000224,-0.003505,0.007685,0.000747,0.007734,-0.003554,86.195887,0.007743,
870,1100,2.174195,-6.970972,0.999997,0.000219,-0.003262,0.008231,-0.000835,0.008291,-0.003323,-85.865677,0.008345,
1130,1990,0.020601,-0.207382,0.999998,0.000150,-0.000278,0.004628,-0.000195,0.004636,-0.000286,-87.728902,0.005196,
1800,1770,-1.285691,-1.980484,0.999998,0.000173,-0.003558,0.007576,0.000264,0.007583,-0.003564,88.643337,0.007587,
1570,60,-0.084464,-14.914280,0.999998,0.000164,-0.000487,0.005214,-0.000991,0.005381,-0.000654,-80.412026,0.005873,
620,200,1.143658,-13.673371,0.999997,0.000212,-0.003657,0.007628,0.000352,0.007639,-0.003668,88.213887,0.007641,
1740,490,-1.540506,-11.722927,0.999996,0.000227,-0.003873,0.007691,0.000170,0.007693,-0.003875,89.159585,0.007693,
1860,800,-2.758059,-9.093538,0.999997,0.000222,-0.003539,0.007081,-0.000300,0.007089,-0.003548,-88.380539,0.007089,
1280,1800,-0.057943,-1.137710,0.999998,0.000170,-0.001110,0.005172,0.000020,0.005173,-0.001110,89.815142,0.005446,
1000,190,0.222392,-14.247698,0.999998,0.000159,-0.001104,0.005524,0.000432,0.005552,-0.001132,86.289665,0.005868,
1390,1550,-0.340219,-2.641093,0.999997,0.000183,-0.002619,0.006043,-0.000940,0.006144,-0.002720,-83.875905,0.006158,
1310,860,-0.505849,-11.075536,0.999995,0.000264,-0.003324,0.002549,0.000945,0.002698,-0.003472,81.080410,0.003645,
1080,1860,0.136457,-0.858636,0.999998,0.000162,-0.000925,0.005235,-0.000251,0.005245,-0.000935,-87.666121,0.005595,
1200,2020,0.004824,-0.071033,0.999998,0.000000,-0.000135,0.004461,0.000002,0.004461,-0.000135,89.975519,0.005075,
1340,1520,-0.221794,-2.702479,0.999998,0.000185,-0.002285,0.005506,-0.000863,0.005600,-0.002379,-83.755517,0.005621,
1040,1140,1.310324,-5.989124,0.999995,0.000255,-0.004961,0.010844,0.001986,0.011090,-0.005207,82.945599,0.011097,
1400,1430,-0.404210,-3.411149,0.999996,0.000221,-0.003429,0.006359,-0.001763,0.006667,-0.003737,-80.095539,0.006683,
1070,900,1.069052,-9.659966,0.999992,0.000347,-0.003981,0.008749,-0.003894,0.009845,-0.005078,-74.273061,0.009847,
790,70,0.179788,-14.840231,0.999998,0.000176,-0.001005,0.005752,0.001545,0.006088,-0.001341,77.713851,0.006398,
580,1350,2.597901,-5.378584,0.999998,0.000217,-0.004479,0.007359,0.000029,0.007359,-0.004479,89.861015,0.007417,
740,1280,2.167230,-5.623188,0.999998,0.000206,-0.004142,0.008065,-0.000710,0.008106,-0.004183,-86.682011,0.008108,
1340,310,-0.157155,-13.665882,0.999998,0.000166,-0.001621,0.005452,0.000153,0.005456,-0.001624,88.762943,0.005603,
950,1970,0.108466,-0.327068,0.999998,0.000170,-0.000617,0.005146,-0.000718,0.005234,-0.000706,-83.001272,0.005681,
990,1650,0.495360,-2.176298,0.999997,0.000206,-0.002710,0.006408,0.000482,0.006434,-0.002735,86.980255,0.006457,
1440,740,-0.669436,-10.683047,0.999996,0.000266,-0.005193,0.008343,0.002000,0.008632,-0.005482,81.767937,0.008736,
760,50,0.130348,-14.943287,0.999997,0.000196,-0.000434,0.005662,0.001767,0.006137,-0.000910,74.945822,0.006624,
1680,1710,-1.021941,-2.163276,0.999998,0.000185,-0.003318,0.007351,0.000064,0.007351,-0.003319,89.656072,0.007362,
1720,1080,-2.619918,-7.172768,0.999997,0.000205,-0.003254,0.007388,0.000357,0.007400,-0.003266,88.079601,0.007417,
1780,800,-2.462028,-9.222123,0.999997,0.000208,-0.003812,0.007621,-0.000677,0.007661,-0.003852,-86.622006,0.007661,
1650,850,-2.086523,-8.978162,0.999997,0.000226,-0.004180,0.008380,-0.000951,0.008452,-0.004251,-85.696385,0.008452,
870,430,0.890880,-12.525936,0.999998,0.000218,-0.003323,0.007199,-0.000301,0.007208,-0.003332,-88.362174,0.007215,
1820,820,-2.663517,-9.015075,0.999997,0.000211,-0.003612,0.007245,-0.000525,0.007270,-0.003637,-87.237875,0.007270,
1350,140,-0.069434,-14.551829,0.999998,0.000145,-0.000661,0.004896,-0.000179,0.004902,-0.000667,-88.154842,0.005317,
850,740,1.573026,-9.997770,0.999997,0.000234,-0.004851,0.008677,0.000245,0.008682,-0.004856,88.962807,0.008702,
670,1640,1.582186,-2.951877,0.999996,0.000224,-0.003754,0.007592,0.000109,0.007593,-0.003755,89.452042,0.007594,
910,1690,0.661579,-2.056133,0.999997,0.000199,-0.002765,0.006728,0.000061,0.006728,-0.002766,89.629581,0.006764,
830,230,0.607295,-13.855456,0.999996,0.000235,-0.002226,0.006707,0.000760,0.006771,-0.002290,85.174077,0.006888,
710,1100,2.705550,-7.034416,0.999997,0.000224,-0.003367,0.007308,-0.000515,0.007333,-0.003391,-87.245094,0.007340,
1000,830,1.065725,-9.709070,0.999995,0.000287,-0.005869,0.009928,-0.000921,0.009982,-0.005923,-86.673626,0.010039,
1240,1720,-0.013545,-1.547756,0.999998,0.000153,-0.001548,0.005280,-0.000063,0.005280,-0.001548,-89.467431,0.005429,
700,760,2.289385,-9.554174,0.999996,0.000233,-0.003969,0.007835,0.000608,0.007866,-0.004000,87.057575,0.007867,
1710,680,-1.850035,-10.291281,0.999995,0.000261,-0.004271,0.008103,-0.000264,0.008108,-0.004276,-88.779968,0.008112,
1130,1970,0.030957,-0.302060,0.999998,0.000160,-0.000383,0.004689,-0.000182,0.004695,-0.000390,-87.947656,0.005211,
1860,780,-2.707024,-9.239966,0.999997,0.000200,-0.003595,0.007303,-0.000300,0.007311,-0.003603,-88.421898,0.007311,
1800,1750,-1.341875,-2.132944,0.999998,0.000184,-0.003584,0.007543,0.000170,0.007546,-0.003586,89.127170,0.007549,
620,180,1.059614,-13.823368,0.999997,0.000213,-0.003646,0.007749,0.000525,0.007773,-0.003670,87.367687,0.007777,
1340,1500,-0.220477,-2.814105,0.999998,0.000176,-0.002346,0.005480,-0.000985,0.005602,-0.002469,-82.933918,0.005615,
1590,1970,-0.158543,-0.344695,0.999998,0.000167,-0.000897,0.005407,0.001071,0.005584,-0.001074,80.612568,0.005926,
1390,1530,-0.347919,-2.763181,0.999998,0.000175,-0.002696,0.005992,-0.001018,0.006110,-0.002814,-83.404339,0.006116,
1240,1550,-0.015798,-2.441857,0.999998,0.000141,-0.001885,0.005100,-0.000157,0.005104,-0.001889,-88.715070,0.005161,
1080,1840,0.154044,-0.965033,0.999998,0.000171,-0.001048,0.005271,-0.000195,0.005277,-0.001054,-88.232216,0.005585,
1690,1110,-2.473194,-6.933848,0.999997,0.000214,-0.003381,0.007620,0.000701,0.007664,-0.003426,86.370297,0.007679,
1690,1620,-1.241034,-2.854045,0.999998,0.000174,-0.003687,0.007551,-0.000182,0.007554,-0.003689,-89.071455,0.007554,
1410,420,-0.352367,-12.956280,0.999997,0.000210,-0.002430,0.006013,0.000572,0.006052,-0.002469,86.140009,0.006086,
820,530,1.239684,-11.652449,0.999998,0.000168,-0.003976,0.007739,-0.000347,0.007749,-0.003986,-88.306777,0.007750,
1550,60,-0.077250,-14.916259,0.999998,0.000153,-0.000270,0.005112,-0.000905,0.005260,-0.000418,-80.702941,0.005847,
1740,470,-1.499806,-11.876872,0.999996,0.000232,-0.003830,0.007656,0.000145,0.007658,-0.003832,89.277678,0.007658,
1290,1690,-0.094191,-1.724651,0.999998,0.000156,-0.001596,0.005351,-0.000081,0.005352,-0.001597,-89.329132,0.005495,
1090,900,1.007414,-9.994656,0.999996,0.000242,-0.002628,0.007009,-0.004440,0.008743,-0.004362,-68.669722,0.008743,
1320,310,-0.124265,-13.680403,0.999998,0.000180,-0.001568,0.005408,0.000094,0.005409,-0.001570,89.229389,0.005566,
990,1630,0.515426,-2.307460,0.999997,0.000208,-0.002839,0.006499,0.000569,0.006533,-0.002873,86.525911,0.006549,
740,1260,2.226022,-5.785051,0.999997,0.000213,-0.004078,0.007938,-0.000755,0.007985,-0.004125,-86.416494,0.007987,
1820,840,-2.711676,-8.872144,0.999997,0.000212,-0.003563,0.007152,-0.000552,0.007181,-0.003591,-87.057160,0.007181,
570,1350,2.641765,-5.406820,0.999734,0.002115,-0.004806,0.007253,0.000123,0.007254,-0.004807,89.414309,0.007381,
950,1950,0.140170,-0.429581,0.999998,0.000178,-0.000830,0.005318,-0.000742,0.005406,-0.000918,-83.217555,0.005786,
1780,780,-2.406791,-9.375236,0.999997,0.000225,-0.003840,0.007626,-0.000612,0.007658,-0.003873,-86.952496,0.007658,
1310,850,-0.415122,-11.099617,0.999995,0.000240,-0.003339,0.002802,0.001275,0.003056,-0.003593,78.727329,0.003876,
1190,330,0.063384,-13.587223,0.999998,0.000166,-0.001466,0.005348,-0.000051,0.005348,-0.001467,-89.572356,0.005527,
1740,1190,-2.479688,-6.351086,0.999997,0.000202,-0.003697,0.007609,0.000785,0.007663,-0.003751,86.047106,0.007664,
1200,1200,0.237293,-3.674853,0.999994,0.000000,-0.006427,0.002201,-0.000225,0.002207,-0.006433,-88.506680,0.006538,
1650,940,-2.330431,-8.238632,0.999997,0.000227,-0.003409,0.007884,-0.000787,0.007939,-0.003463,-86.032307,0.007960,
1320,490,-0.172078,-12.692028,0.999997,0.000190,-0.002150,0.005442,0.000632,0.005494,-0.002203,85.272027,0.005530,
1720,360,-1.187791,-12.763363,0.999997,0.000192,-0.003527,0.007470,-0.000073,0.007470,-0.003527,-89.618104,0.007474,
1440,720,-0.636760,-10.845925,0.999995,0.000271,-0.004936,0.008033,0.001953,0.008320,-0.005224,81.618244,0.008411,
1580,1450,-1.111748,-3.890235,0.999998,0.000161,-0.004349,0.007924,-0.000584,0.007951,-0.004376,-87.279978,0.007965,
1490,1980,-0.077051,-0.270952,0.999998,0.000157,-0.000490,0.005030,0.000656,0.005107,-0.000567,83.318003,0.005599,
790,510,1.320283,-11.732107,0.999996,0.000218,-0.003903,0.007727,-0.000271,0.007734,-0.003909,-88.665893,0.007734,
1630,400,-0.962355,-12.661053,0.999998,0.000133,-0.003340,0.007298,0.000187,0.007301,-0.003343,88.995014,0.007310,
1650,830,-2.024314,-9.145531,0.999997,0.000225,-0.004307,0.008409,-0.000862,0.008467,-0.004365,-86.139554,0.008468,
850,720,1.516992,-10.174390,0.999996,0.000236,-0.004825,0.008634,0.000115,0.008635,-0.004826,89.510892,0.008655,
870,410,0.860048,-12.669650,0.999997,0.000224,-0.003204,0.007139,-0.000214,0.007143,-0.003209,-88.816872,0.007156,
1600,270,-0.622157,-13.629678,0.999997,0.000197,-0.002612,0.006679,-0.000355,0.006693,-0.002625,-87.812207,0.006744,
1660,1710,-0.955156,-2.119794,0.999998,0.000175,-0.003385,0.007241,0.000008,0.007241,-0.003385,89.954930,0.007246,
1240,1700,-0.013640,-1.654768,0.999998,0.000166,-0.001612,0.005286,-0.000077,0.005287,-0.001613,-89.362047,0.005420,
700,740,2.232079,-9.715038,0.999996,0.000229,-0.004018,0.007841,0.000534,0.007865,-0.004042,87.429392,0.007866,
1340,1920,-0.060369,-0.541830,0.999998,0.000140,-0.000661,0.004890,0.000163,0.004895,-0.000665,88.320531,0.005310,
1690,680,-1.764221,-10.333729,0.999998,0.000179,-0.004339,0.008202,-0.000238,0.008207,-0.004344,-88.912013,0.008211,
1390,1510,-0.350727,-2.880644,0.999998,0.000189,-0.002771,0.005985,-0.001138,0.006130,-0.002917,-82.712574,0.006133,
1860,1200,-2.886737,-6.410900,0.999997,0.000178,-0.003388,0.007011,0.000378,0.007024,-0.003402,87.918855,0.007025,
670,1620,1.625457,-3.102857,0.999997,0.000234,-0.003779,0.007574,0.000107,0.007575,-0.003780,89.460176,0.007575,
830,210,0.554160,-13.987572,0.999997,0.000214,-0.002065,0.006594,0.000904,0.006687,-0.002158,84.102792,0.006826,
910,1670,0.693906,-2.190944,0.999997,0.000198,-0.002922,0.006826,0.000193,0.006830,-0.002926,88.863440,0.006854,
1790,800,-2.500687,-9.208013,0.999997,0.000212,-0.003797,0.007570,-0.000653,0.007607,-0.003834,-86.722982,0.007607,
1270,1800,-0.046510,-1.136045,0.999997,0.000187,-0.001144,0.005166,-0.000017,0.005166,-0.001144,-89.848833,0.005427,
1820,1280,-2.547728,-5.767683,0.999997,0.000204,-0.003738,0.007457,0.000488,0.007479,-0.003760,87.507296,0.007479,
620,160,0.965123,-13.982088,0.999998,0.000196,-0.003679,0.007771,0.000662,0.007809,-0.003717,86.700016,0.007812,
690,1100,2.773222,-7.043083,0.999997,0.000200,-0.003352,0.007191,-0.000478,0.007213,-0.003374,-87.410685,0.007218,
1440,1070,-1.738201,-6.978107,0.999992,0.000324,-0.004944,0.012987,-0.000944,0.013036,-0.004993,-86.996059,0.013154,
1240,310,-0.012342,-13.704470,0.999998,0.000189,-0.001448,0.005265,0.000030,0.005265,-0.001448,89.740653,0.005440,
1650,100,-0.249962,-14.674518,0.999998,0.000184,-0.001140,0.005889,-0.001386,0.006153,-0.001404,-79.240268,0.006449,
820,550,1.277666,-11.498384,0.999997,0.000183,-0.004066,0.007857,-0.000348,0.007867,-0.004076,-88.328197,0.007868,
1130,1950,0.040289,-0.394903,0.999998,0.000149,-0.000495,0.004777,-0.000182,0.004783,-0.000501,-88.020803,0.005258,
1290,1670,-0.096829,-1.832962,0.999998,0.000175,-0.001646,0.005348,-0.000106,0.005349,-0.001647,-89.135554,0.005479,
1590,1950,-0.204824,-0.452928,0.999998,0.000188,-0.001153,0.005666,0.001043,0.005822,-0.001309,81.499134,0.006109,
1780,760,-2.354339,-9.528156,0.999997,0.000207,-0.003881,0.007679,-0.000567,0.007707,-0.003908,-87.197831,0.007707,
950,1190,1.508473,-6.005885,0.999995,0.000282,-0.005213,0.009841,-0.000513,0.009859,-0.005231,-88.050528,0.009865,
740,1240,2.279832,-5.941281,0.999996,0.000221,-0.004004,0.007883,-0.000807,0.007938,-0.004058,-86.135110,0.007939,
1080,1650,0.279128,-2.029296,0.999997,0.000209,-0.002128,0.005797,0.000401,0.005817,-0.002149,87.108007,0.005883,
1370,780,-0.388847,-10.862955,0.999995,0.000268,-0.004588,0.006765,0.003174,0.007592,-0.005415,75.395531,0.007819,
1000,1010,1.889441,-7.760347,0.999994,0.000307,-0.003778,0.011757,-0.000032,0.011757,-0.003778,-89.883030,0.012005,
1560,1450,-1.024446,-3.829463,0.999998,0.000192,-0.004331,0.007880,-0.000737,0.007925,-0.004375,-86.558888,0.007939,
1080,1820,0.168589,-1.070207,0.999998,0.000166,-0.001148,0.005384,-0.000166,0.005388,-0.001152,-88.541766,0.005675,
1440,700,-0.610542,-11.001696,0.999996,0.000275,-0.004681,0.007737,0.001931,0.008030,-0.004975,81.361015,0.008106,
990,1610,0.534057,-2.440419,0.999997,0.000207,-0.002928,0.006627,0.000639,0.006670,-0.002971,86.192658,0.006683,
1530,1320,-1.134823,-4.824224,0.999997,0.000198,-0.005239,0.008939,-0.000582,0.008963,-0.005263,-87.655309,0.009008,
1540,630,-0.976382,-11.154639,0.999997,0.000193,-0.004443,0.007997,0.000842,0.008054,-0.004500,86.146021,0.008072,
790,490,1.282700,-11.887579,0.999997,0.000206,-0.003827,0.007631,-0.000273,0.007637,-0.003834,-88.633845,0.007637,
1730,430,-1.378740,-12.206955,0.999996,0.000245,-0.003763,0.007591,0.000155,0.007593,-0.003765,89.219396,0.007593,
1650,810,-1.962960,-9.315198,0.999997,0.000240,-0.004427,0.008510,-0.000805,0.008559,-0.004477,-86.452583,0.008563,
1330,140,-0.056385,-14.556262,0.999999,0.000124,-0.000712,0.004881,-0.000161,0.004885,-0.000717,-88.349569,0.005276,
1580,270,-0.570085,-13.658405,0.999997,0.000210,-0.002530,0.006566,-0.000314,0.006576,-0.002541,-88.024757,0.006633,
1200,860,0.263002,-11.436568,0.999990,0.000000,-0.006898,0.002316,0.000289,0.002325,-0.006907,88.203043,0.007029,
870,390,0.826925,-12.809213,0.999998,0.000194,-0.003127,0.007014,-0.000174,0.007017,-0.003130,-89.017929,0.007031,
1220,310,0.016351,-13.701862,0.999999,0.000138,-0.001445,0.005268,-0.000081,0.005269,-0.001446,-89.307311,0.005445,
1240,1680,-0.013691,-1.760896,0.999998,0.000161,-0.001670,0.005308,-0.000079,0.005309,-0.001671,-89.349194,0.005429,
700,720,2.177559,-9.869805,0.999996,0.000215,-0.004034,0.007780,0.000468,0.007799,-0.004052,87.732703,0.007801,
830,190,0.497738,-14.121618,0.999997,0.000218,-0.001854,0.006506,0.000976,0.006618,-0.001966,83.426250,0.006798,
1820,530,-1.935671,-11.223026,0.999997,0.000184,-0.003829,0.007646,0.000054,0.007646,-0.003829,89.731991,0.007646,
1860,1220,-2.840664,-6.267714,0.999998,0.000182,-0.003445,0.007019,0.000352,0.007031,-0.003457,88.077430,0.007032,
1390,1490,-0.353772,-2.999491,0.999997,0.000213,-0.002867,0.006054,-0.001257,0.006228,-0.003041,-82.132099,0.006228,
1340,1940,-0.050329,-0.444763,0.999998,0.000160,-0.000542,0.004826,0.000196,0.004833,-0.000549,87.913945,0.005292,
1280,830,-0.183959,-11.403662,0.999995,0.000261,-0.003551,0.002328,0.001100,0.002527,-0.003750,79.743624,0.003824,
910,1650,0.723825,-2.330944,0.999997,0.000183,-0.003114,0.006908,0.000324,0.006918,-0.003124,88.150488,0.006929,
1210,1740,0.031226,-1.445713,0.999998,0.000160,-0.001452,0.005297,0.000083,0.005298,-0.001453,89.296956,0.005475,
980,830,1.181934,-9.601809,0.999996,0.000256,-0.005815,0.009979,-0.000420,0.009990,-0.005826,-88.476977,0.010036,
1690,1530,-1.416410,-3.546818,0.999996,0.000217,-0.003999,0.007790,-0.000225,0.007794,-0.004004,-88.906826,0.007795,
1250,1800,-0.022382,-1.131478,0.999998,0.000167,-0.001183,0.005133,-0.000057,0.005133,-0.001183,-89.485076,0.005376,
880,310,0.656884,-13.384956,0.999998,0.000173,-0.002830,0.006785,0.000107,0.006786,-0.002831,89.364807,0.006817,
1130,1930,0.051699,-0.492006,0.999999,0.000132,-0.000596,0.004834,-0.000163,0.004839,-0.000600,-88.284026,0.005275,
1120,850,0.512636,-10.700618,0.999991,0.000373,-0.003383,0.004931,-0.002911,0.005849,-0.004301,-72.498495,0.006061,
1290,1650,-0.101333,-1.939928,0.999997,0.000208,-0.001705,0.005356,-0.000139,0.005359,-0.001708,-88.870536,0.005475,
620,140,0.863161,-14.137225,0.999997,0.000193,-0.003694,0.007832,0.000874,0.007898,-0.003760,85.688412,0.007901,
930,60,0.070542,-14.918206,0.999999,0.000137,-0.000323,0.005059,0.000825,0.005183,-0.000447,81.475254,0.005744,
830,900,2.165815,-8.578838,0.999997,0.000187,-0.003813,0.008253,0.001024,0.008340,-0.003899,85.182197,0.008346,
1300,310,-0.096215,-13.688192,0.999999,0.000144,-0.001357,0.005343,0.000018,0.005343,-0.001357,89.845146,0.005555,
840,550,1.195515,-11.547017,0.999997,0.000190,-0.004058,0.007826,-0.000395,0.007839,-0.004071,-88.097330,0.007841,
1430,1540,-0.453702,-2.792708,0.999997,0.000221,-0.003028,0.006446,-0.001043,0.006560,-0.003141,-83.791912,0.006562,
1510,1320,-1.030613,-4.743811,0.999996,0.000216,-0.005310,0.008906,-0.000870,0.008959,-0.005363,-86.512666,0.009017,
1340,1960,-0.037849,-0.348663,0.999998,0.000174,-0.000444,0.004749,0.000184,0.004756,-0.000450,87.970023,0.005251,
1190,1400,0.070221,-3.165077,0.999997,0.000202,-0.001861,0.004124,0.000891,0.004254,-0.001991,81.712336,0.004256,
1900,1650,-1.956999,-3.139903,0.999998,0.000000,-0.003605,0.007353,-0.000092,0.007354,-0.003606,-89.520630,0.007355,
1720,1910,-0.532122,-0.780823,0.999997,0.000194,-0.001893,0.006852,0.001599,0.007135,-0.002177,79.954002,0.007314,
660,400,1.586135,-12.260240,0.999996,0.000233,-0.003755,0.007616,-0.000083,0.007616,-0.003756,-89.582906,0.007617,
1460,1330,-0.746338,-4.421588,0.999996,0.000259,-0.005129,0.008373,-0.001698,0.008583,-0.005339,-82.939186,0.008668,
950,1930,0.179184,-0.540220,0.999998,0.000179,-0.001000,0.005399,-0.000682,0.005471,-0.001072,-83.980194,0.005798,
1480,1220,-1.185276,-5.552827,0.999995,0.000274,-0.005834,0.009990,-0.000430,0.010002,-0.005846,-88.445481,0.010049,
1820,1260,-2.600031,-5.920038,0.999997,0.000213,-0.003702,0.007417,0.000528,0.007442,-0.003727,87.285033,0.007442,
1440,680,-0.589205,-11.155854,0.999995,0.000288,-0.004425,0.007505,0.001856,0.007787,-0.004707,81.358033,0.007844,
910,1630,0.753107,-2.471474,0.999997,0.000180,-0.003249,0.007043,0.000392,0.007058,-0.003264,87.819599,0.007064,
1690,1550,-1.376123,-3.388741,0.999997,0.000215,-0.003913,0.007737,-0.000233,0.007741,-0.003918,-88.856660,0.007742,
1440,1050,-1.785818,-7.244671,0.999994,0.000299,-0.005177,0.013993,-0.000576,0.014010,-0.005194,-88.280454,0.014165,
1190,1740,0.058912,-1.451946,0.999998,0.000179,-0.001443,0.005333,0.000066,0.005333,-0.001443,89.442576,0.005517,
740,1220,2.337158,-6.101057,0.999997,0.000223,-0.003939,0.007901,-0.000857,0.007963,-0.004001,-85.883799,0.007963,
1130,1910,0.061601,-0.588811,0.999999,0.000119,-0.000732,0.004925,-0.000161,0.004930,-0.000736,-88.366739,0.005319,
870,810,1.693820,-9.417732,0.999997,0.000230,-0.004871,0.009011,0.000674,0.009044,-0.004904,87.225311,0.009054,
1510,1270,-1.170790,-5.206299,0.999996,0.000235,-0.005587,0.009441,-0.000431,0.009453,-0.005599,-88.357137,0.009507,
1780,170,-0.808437,-14.056517,0.999997,0.000222,-0.003091,0.007518,-0.001268,0.007667,-0.003241,-83.276030,0.007698,
1350,780,-0.304180,-11.028515,0.999996,0.000274,-0.004062,0.005798,0.003309,0.006805,-0.005070,73.066917,0.007072,
1730,1580,-1.472991,-3.256754,0.999997,0.000200,-0.003848,0.007661,-0.000183,0.007663,-0.003851,-89.087850,0.007663,
1310,140,-0.042411,-14.557622,0.999999,0.000137,-0.000572,0.004873,-0.000143,0.004877,-0.000576,-88.497608,0.005330,
1570,190,-0.376238,-14.177354,0.999998,0.000196,-0.001770,0.006094,-0.000699,0.006156,-0.001832,-84.958021,0.006321,
1010,1800,0.294304,-1.234703,0.999998,0.000167,-0.001559,0.005760,-0.000199,0.005765,-0.001564,-88.441969,0.005963,
910,1820,0.441605,-1.205740,0.999998,0.000184,-0.001841,0.006256,-0.000520,0.006289,-0.001874,-86.337614,0.006458,
700,700,2.122658,-10.024593,0.999997,0.000205,-0.004033,0.007803,0.000388,0.007816,-0.004046,88.126051,0.007818,
620,1470,2.148133,-4.373219,0.999997,0.000192,-0.003809,0.007663,-0.000022,0.007663,-0.003809,-89.888470,0.007663,
1800,1190,-2.698983,-6.407070,0.999997,0.000206,-0.003568,0.007343,0.000660,0.007383,-0.003607,86.553169,0.007384,
1890,1000,-3.176927,-7.735185,0.999998,0.000181,-0.003036,0.006189,-0.000168,0.006192,-0.003039,-88.956927,0.006192,
1390,1470,-0.358204,-3.119078,0.999997,0.000217,-0.003000,0.006135,-0.001445,0.006358,-0.003224,-81.219829,0.006358,
880,290,0.618461,-13.518563,0.999997,0.000196,-0.002708,0.006669,0.000219,0.006674,-0.002713,88.662445,0.006713,
1260,830,-0.113241,-11.506495,0.999995,0.000272,-0.003958,0.002119,0.000452,0.002153,-0.003991,85.770890,0.003995,
1100,850,0.600732,-10.451737,0.999995,0.000318,-0.004349,0.006643,-0.003406,0.007613,-0.005319,-74.107929,0.007811,
1650,790,-1.897886,-9.488380,0.999997,0.000229,-0.004524,0.008537,-0.000727,0.008578,-0.004565,-86.825853,0.008584,
1670,760,-1.897424,-9.707948,0.999997,0.000226,-0.004452,0.008395,-0.000571,0.008420,-0.004478,-87.459580,0.008426,
1000,770,0.862203,-10.283158,0.999996,0.000251,-0.005636,0.009075,-0.001422,0.009212,-0.005772,-84.530735,0.009309,
1000,80,0.074784,-14.828114,0.999999,0.000164,-0.000332,0.004975,0.000601,0.005043,-0.000399,83.624647,0.005606,
640,270,1.322925,-13.196460,0.999997,0.000209,-0.003586,0.007618,0.000220,0.007622,-0.003591,88.874603,0.007627,
1170,1400,0.111535,-3.210525,0.999998,0.000166,-0.002055,0.004384,0.001310,0.004641,-0.002311,78.928246,0.004641,
1200,30,0.006366,-15.075134,0.999999,0.000000,-0.000046,0.004513,0.000014,0.004513,-0.000046,89.824013,0.005185,
1520,630,-0.887449,-11.222097,0.999997,0.000211,-0.004376,0.007863,0.000971,0.007939,-0.004453,85.490857,0.007959,
790,470,1.246009,-12.038973,0.999998,0.000187,-0.003755,0.007601,-0.000246,0.007607,-0.003760,-88.760262,0.007607,
1290,1630,-0.104639,-2.045665,0.999998,0.000180,-0.001754,0.005343,-0.000169,0.005347,-0.001758,-88.633686,0.005450,
1680,1890,-0.524532,-0.884295,0.999997,0.000202,-0.002296,0.006629,0.001206,0.006790,-0.002456,82.435870,0.006876,
1280,310,-0.069579,-13.693900,0.999998,0.000171,-0.001358,0.005283,0.000034,0.005283,-0.001358,89.705233,0.005487,
620,120,0.751917,-14.295851,0.999997,0.000200,-0.003623,0.008016,0.001110,0.008121,-0.003728,84.602546,0.008130,
1340,1980,-0.029625,-0.254672,0.999998,0.000171,-0.000328,0.004673,0.000220,0.004683,-0.000337,87.480700,0.005223,
1890,1560,-2.121983,-3.793280,0.999997,0.000211,-0.003721,0.007581,-0.000040,0.007581,-0.003721,-89.798814,0.007581,
1820,1240,-2.651949,-6.068510,0.999996,0.000215,-0.003638,0.007266,0.000519,0.007291,-0.003663,87.282032,0.007291,
1780,810,-2.490026,-9.145433,0.999997,0.000197,-0.003778,0.007601,-0.000692,0.007643,-0.003820,-86.530613,0.007643,
830,1540,1.173638,-3.327915,0.999997,0.000185,-0.003900,0.007702,0.000392,0.007715,-0.003913,88.066251,0.007715,
1480,1200,-1.279122,-5.760730,0.999996,0.000254,-0.005695,0.010177,-0.000135,0.010178,-0.005696,-89.513771,0.010202,
1290,60,-0.009351,-14.936921,0.999998,0.000158,-0.000128,0.004541,-0.000134,0.004545,-0.000132,-88.351955,0.005174,
1440,660,-0.574490,-11.304969,0.999996,0.000266,-0.004195,0.007359,0.001778,0.007626,-0.004463,81.444524,0.007663,
1780,740,-2.298641,-9.683369,0.999998,0.000206,-0.003928,0.007760,-0.000514,0.007783,-0.003951,-87.487590,0.007783,
660,380,1.541800,-12.412447,0.999996,0.000222,-0.003740,0.007554,-0.000048,0.007554,-0.003740,-89.754941,0.007554,
1900,1640,-1.979015,-3.213335,0.999997,0.000000,-0.003638,0.007367,-0.000056,0.007368,-0.003639,-89.710760,0.007368,
820,510,1.204838,-11.807211,0.999997,0.000178,-0.003911,0.007667,-0.000343,0.007677,-0.003921,-88.306637,0.007678,
850,1740,0.751292,-1.820313,0.999997,0.000198,-0.002830,0.006905,-0.000143,0.006908,-0.002832,-89.155872,0.006945,
950,1890,0.250202,-0.762973,0.999998,0.000172,-0.001329,0.005660,-0.000594,0.005710,-0.001379,-85.175592,0.005959,
1010,880,1.253487,-9.262945,0.999995,0.000272,-0.005623,0.010561,-0.000510,0.010577,-0.005639,-88.196276,0.010584,
640,1350,2.371845,-5.246781,0.999997,0.000216,-0.003813,0.007610,-0.000319,0.007618,-0.003822,-88.399543,0.007619,
1040,1120,1.430234,-6.226167,0.999992,0.000342,-0.004971,0.011395,0.002333,0.011721,-0.005298,82.043916,0.011739,
910,1610,0.780317,-2.616332,0.999997,0.000199,-0.003325,0.007115,0.000456,0.007135,-0.003345,87.505810,0.007140,
740,1200,2.393195,-6.259177,0.999997,0.000227,-0.003843,0.007793,-0.000835,0.007852,-0.003903,-85.918634,0.007852,
870,830,1.766040,-9.242225,0.999996,0.000237,-0.004765,0.008980,0.000806,0.009027,-0.004812,86.657425,0.009034,
1650,760,-1.806356,-9.745428,0.999996,0.000272,-0.004603,0.008554,-0.000514,0.008575,-0.004623,-87.766260,0.008583,
1510,1030,-2.047133,-7.537116,0.999998,0.000191,-0.002736,0.009152,0.000032,0.009152,-0.002736,89.845034,0.009396,
1240,1660,-0.014009,-1.865642,0.999998,0.000177,-0.001728,0.005282,-0.000095,0.005283,-0.001729,-89.221997,0.005387,
1390,1450,-0.363358,-3.243944,0.999997,0.000215,-0.003185,0.006185,-0.001639,0.006463,-0.003463,-80.359942,0.006468,
1820,470,-1.803435,-11.683354,0.999997,0.000208,-0.003793,0.007649,0.000125,0.007650,-0.003794,89.371785,0.007650,
1730,1200,-2.419825,-6.266276,0.999996,0.000228,-0.003765,0.007710,0.000809,0.007766,-0.003822,85.988261,0.007767,
1130,1890,0.073747,-0.690700,0.999999,0.000132,-0.000844,0.005016,-0.000129,0.005019,-0.000846,-88.743950,0.005374,
700,1120,2.705013,-6.890313,0.999997,0.000187,-0.003416,0.007300,-0.000605,0.007334,-0.003450,-86.777356,0.007339,
1290,1610,-0.107628,-2.152557,0.999998,0.000173,-0.001822,0.005332,-0.000227,0.005340,-0.001830,-88.188067,0.005427,
1780,1650,-1.511874,-2.842963,0.999996,0.000230,-0.003730,0.007614,-0.000124,0.007615,-0.003732,-89.376197,0.007616,
1750,1980,-0.281590,-0.346960,0.999995,0.000250,-0.001718,0.006400,0.002036,0.006882,-0.002200,76.681320,0.007029,
1090,140,0.084283,-14.544680,0.999998,0.000135,-0.000588,0.004991,0.000277,0.005004,-0.000602,87.159995,0.005464,
1200,310,0.044773,-13.698013,0.999998,0.000175,-0.001412,0.005311,-0.000051,0.005312,-0.001412,-89.569164,0.005502,
1570,170,-0.330621,-14.297388,0.999998,0.000192,-0.001601,0.005957,-0.000776,0.006036,-0.001680,-84.200759,0.006230,
1470,1780,-0.345562,-1.366218,0.999997,0.000193,-0.001703,0.005942,0.000178,0.005946,-0.001708,88.669694,0.006123,
1880,1000,-3.146792,-7.736923,0.999997,0.000201,-0.003046,0.006298,-0.000162,0.006301,-0.003049,-89.006589,0.006302,
1650,770,-1.837399,-9.657821,0.999997,0.000246,-0.004589,0.008574,-0.000588,0.008600,-0.004616,-87.446004,0.008608,
1760,810,-2.413697,-9.171734,0.999996,0.000257,-0.003866,0.007715,-0.000743,0.007762,-0.003914,-86.345186,0.007762,
1190,2020,0.004525,-0.071398,0.999999,0.000000,-0.000076,0.004448,-0.000035,0.004448,-0.000076,-89.552028,0.005093,
1010,600,0.580647,-11.684888,0.999997,0.000233,-0.003809,0.007081,-0.001416,0.007262,-0.003990,-82.713203,0.007274,
1820,1220,-2.699187,-6.211387,0.999997,0.000202,-0.003577,0.007214,0.000540,0.007241,-0.003604,87.143441,0.007241,
700,450,1.546175,-11.974400,0.999995,0.000249,-0.003802,0.007612,-0.000143,0.007614,-0.003804,-89.280248,0.007614,
1350,490,-0.236918,-12.649409,0.999998,0.000169,-0.002214,0.005629,0.000675,0.005687,-0.002272,85.114976,0.005725,
1760,170,-0.742930,-14.097680,0.999998,0.000201,-0.003219,0.007339,-0.001120,0.007457,-0.003337,-84.010342,0.007470,
1100,830,0.503308,-10.590538,0.999995,0.000295,-0.004857,0.006790,-0.003326,0.007673,-0.005740,-75.135098,0.007981,
920,1650,0.692457,-2.310679,0.999997,0.000202,-0.002994,0.006832,0.000308,0.006842,-0.003004,88.205175,0.006858,
1480,1180,-1.378524,-5.968404,0.999995,0.000288,-0.005470,0.010273,0.000109,0.010274,-0.005471,89.604823,0.010281,
1640,1870,-0.497127,-0.972104,0.999997,0.000211,-0.001883,0.006510,0.001017,0.006631,-0.002005,83.188160,0.006802,
600,1470,2.224044,-4.419468,0.999998,0.000180,-0.003787,0.007653,-0.000021,0.007653,-0.003787,-89.893988,0.007653,
1260,1390,-0.046317,-3.188433,0.999999,0.000112,-0.001737,0.003863,-0.000637,0.003934,-0.001809,-83.594243,0.003938,
1690,1570,-1.338304,-3.235076,0.999997,0.000208,-0.003828,0.007629,-0.000247,0.007635,-0.003834,-88.768081,0.007635,
660,360,1.491717,-12.563264,0.999997,0.000217,-0.003728,0.007557,0.000009,0.007557,-0.003728,89.955447,0.007557,
1900,1630,-1.999565,-3.287783,0.999997,0.000000,-0.003688,0.007412,-0.000011,0.007412,-0.003688,-89.942901,0.007412,
620,100,0.630210,-14.457871,0.999996,0.000219,-0.003525,0.007976,0.001483,0.008164,-0.003714,82.769706,0.008175,
830,1740,0.808826,-1.853106,0.999998,0.000176,-0.002840,0.006987,-0.000188,0.006990,-0.002843,-88.901888,0.007031,
1030,60,0.039377,-14.929068,0.999999,0.000151,-0.000266,0.004774,0.000463,0.004817,-0.000308,84.793264,0.005392,
950,1870,0.281659,-0.874630,0.999998,0.000160,-0.001498,0.005735,-0.000521,0.005772,-0.001536,-85.901333,0.005979,
870,820,1.729259,-9.328935,0.999997,0.000224,-0.004824,0.008989,0.000740,0.009028,-0.004863,86.943684,0.009037,
640,250,1.256796,-13.351217,0.999997,0.000217,-0.003572,0.007637,0.000312,0.007646,-0.003581,88.404456,0.007651,
1570,150,-0.286144,-14.415531,0.999998,0.000183,-0.001419,0.005869,-0.000871,0.005972,-0.001522,-83.277435,0.006206,
610,700,2.471942,-9.847023,0.999995,0.000258,-0.003767,0.007524,0.000217,0.007528,-0.003772,88.901284,0.007528,
1450,1120,-1.558322,-6.440024,0.999995,0.000235,-0.004668,0.011141,-0.000474,0.011155,-0.004682,-88.285745,0.011203,
1330,180,-0.078001,-14.355741,0.999999,0.000156,-0.000936,0.005056,-0.000104,0.005058,-0.000938,-89.005612,0.005381,
1440,640,-0.559601,-11.451266,0.999996,0.000257,-0.004027,0.007123,0.001692,0.007374,-0.004278,81.559823,0.007406,
910,1590,0.806198,-2.758556,0.999997,0.000221,-0.003376,0.007125,0.000515,0.007150,-0.003401,87.201819,0.007153,
1020,250,0.272633,-13.919783,0.999998,0.000167,-0.001572,0.005689,0.000181,0.005693,-0.001576,88.574000,0.005879,
680,90,0.424403,-14.642812,0.999995,0.000244,-0.001833,0.006974,0.002339,0.007556,-0.002415,76.012556,0.007719,
1290,1590,-0.106938,-2.258200,0.999998,0.000183,-0.001887,0.005328,-0.000286,0.005339,-0.001898,-87.737003,0.005413,
1510,990,-2.005774,-7.913576,0.999997,0.000235,-0.002991,0.009487,-0.000530,0.009510,-0.003013,-87.572095,0.009720,
1130,1870,0.082931,-0.789349,0.999998,0.000164,-0.000970,0.005062,-0.000090,0.005064,-0.000971,-89.146894,0.005375,
980,1350,0.832022,-4.366423,0.999997,0.000276,-0.005014,0.008426,0.001370,0.008564,-0.005152,84.238858,0.008623,
1180,310,0.073353,-13.695258,0.999998,0.000143,-0.001377,0.005340,-0.000017,0.005340,-0.001377,-89.851160,0.005545,
1490,1760,-0.408502,-1.508586,0.999997,0.000187,-0.002148,0.006111,0.000054,0.006111,-0.002148,89.626632,0.006200,
1880,1560,-2.085082,-3.770314,0.999998,0.000175,-0.003730,0.007599,-0.000042,0.007599,-0.003730,-89.787661,0.007600,
1410,460,-0.374219,-12.712548,0.999997,0.000212,-0.002502,0.006094,0.000677,0.006147,-0.002555,85.522755,0.006177,
870,850,1.839226,-9.057222,0.999997,0.000230,-0.004584,0.008941,0.000935,0.009006,-0.004649,86.063148,0.009007,
1350,470,-0.233458,-12.761717,0.999998,0.000158,-0.002161,0.005629,0.000573,0.005671,-0.002203,85.818540,0.005717,
800,1230,2.062724,-5.949839,0.999997,0.000196,-0.004234,0.008313,-0.000882,0.008375,-0.004296,-86.000049,0.008376,
700,1140,2.671218,-6.744652,0.999997,0.000202,-0.003464,0.007324,-0.000577,0.007354,-0.003495,-86.948620,0.007357,
1390,1430,-0.369699,-3.371054,0.999996,0.000219,-0.003340,0.006200,-0.001808,0.006531,-0.003672,-79.618790,0.006548,
740,1180,2.440036,-6.412651,0.999997,0.000227,-0.003733,0.007738,-0.000845,0.007799,-0.003795,-85.811339,0.007800,
1070,140,0.096573,-14.540664,0.999998,0.000144,-0.000682,0.005064,0.000323,0.005082,-0.000700,86.791094,0.005509,
1230,840,0.010762,-11.538784,0.999989,0.000410,-0.005938,0.002402,-0.000074,0.002403,-0.005939,-89.492566,0.005974,
1820,1200,-2.747092,-6.357593,0.999997,0.000197,-0.003554,0.007204,0.000576,0.007234,-0.003585,86.945095,0.007234,
850,1420,1.313451,-4.226743,0.999996,0.000225,-0.004539,0.008235,0.000342,0.008244,-0.004548,88.466580,0.008259,
1780,1630,-1.554844,-2.995507,0.999995,0.000249,-0.003739,0.007581,-0.000140,0.007583,-0.003741,-89.289173,0.007583,
1430,60,-0.038898,-14.928817,0.999998,0.000173,-0.000307,0.004739,-0.000429,0.004775,-0.000343,-85.178486,0.005327,
1590,880,-1.931914,-8.797837,0.999997,0.000235,-0.004249,0.008841,-0.001073,0.008928,-0.004337,-85.345651,0.008930,
1480,1160,-1.485108,-6.176316,0.999995,0.000273,-0.005158,0.010324,0.000300,0.010330,-0.005164,88.888940,0.010330,
660,340,1.440741,-12.714470,0.999997,0.000230,-0.003693,0.007575,0.000015,0.007575,-0.003693,89.921667,0.007575,
1880,1020,-3.158882,-7.608133,0.999998,0.000158,-0.003053,0.006418,-0.000087,0.006419,-0.003054,-89.472875,0.006421,
1170,1740,0.089077,-1.457120,0.999998,0.000169,-0.001371,0.005358,0.000028,0.005359,-0.001371,89.765448,0.005567,
1650,750,-1.777598,-9.832236,0.999996,0.000269,-0.004621,0.008499,-0.000459,0.008516,-0.004637,-87.997970,0.008527,
1740,210,-0.832493,-13.844479,0.999997,0.000200,-0.003098,0.007357,-0.000861,0.007428,-0.003168,-85.325379,0.007455,
1780,190,-0.889970,-13.909061,0.999997,0.000192,-0.003246,0.007520,-0.000977,0.007608,-0.003334,-84.857419,0.007627,
1190,1480,0.078420,-2.808794,0.999998,0.000182,-0.001918,0.004821,0.000448,0.004850,-0.001947,86.213782,0.004882,
950,1850,0.322283,-0.994216,0.999997,0.000202,-0.001649,0.005835,-0.000468,0.005864,-0.001678,-86.438287,0.006040,
1640,1850,-0.553117,-1.104010,0.999997,0.000218,-0.002073,0.006654,0.000925,0.006751,-0.002170,84.016542,0.006893,
1630,940,-2.263531,-8.248310,0.999998,0.000192,-0.003391,0.008047,-0.000848,0.008110,-0.003454,-85.780715,0.008139,
620,80,0.491489,-14.614038,0.999996,0.000224,-0.003422,0.008261,0.001910,0.008566,-0.003727,80.946956,0.008590,
1090,910,1.083282,-9.922151,0.999993,0.000308,-0.002384,0.007650,-0.005001,0.009716,-0.004450,-67.545883,0.009728,
830,170,0.445020,-14.247564,0.999997,0.000207,-0.001671,0.006374,0.001082,0.006517,-0.001814,82.474407,0.006727,
1730,470,-1.461104,-11.901098,0.999997,0.000218,-0.003828,0.007658,0.000176,0.007661,-0.003830,89.124430,0.007661,
790,1860,0.604771,-1.077399,0.999997,0.000211,-0.002616,0.006807,-0.000944,0.006900,-0.002710,-84.334211,0.006953,
910,1570,0.830998,-2.899398,0.999997,0.000221,-0.003475,0.007169,0.000554,0.007197,-0.003504,87.030028,0.007198,
1050,880,1.038717,-9.607467,0.999996,0.000254,-0.005274,0.009952,-0.002180,0.010257,-0.005580,-82.011625,0.010271,
650,760,2.480558,-9.474171,0.999996,0.000210,-0.003769,0.007481,0.000508,0.007504,-0.003792,87.421643,0.007504,
1430,740,-0.618731,-10.738496,0.999995,0.000303,-0.005094,0.008133,0.002169,0.008480,-0.005440,80.922535,0.008592,
1440,620,-0.543127,-11.591745,0.999996,0.000240,-0.003856,0.006981,0.001591,0.007210,-0.004085,81.816879,0.007231,
1510,970,-1.950603,-8.099807,0.999997,0.000224,-0.003289,0.009465,-0.000759,0.009510,-0.003334,-86.604326,0.009651,
1640,290,-0.771870,-13.432198,0.999997,0.000195,-0.002729,0.007055,-0.000398,0.007071,-0.002746,-87.673277,0.007129,
1490,1780,-0.381842,-1.386728,0.999997,0.000186,-0.002017,0.006067,0.000135,0.006070,-0.002020,89.041087,0.006182,
1160,310,0.100233,-13.689135,0.999998,0.000157,-0.001398,0.005377,-0.000024,0.005377,-0.001398,-89.800150,0.005579,
1190,310,0.058042,-13.695634,0.999998,0.000161,-0.001388,0.005325,-0.000033,0.005326,-0.001388,-89.720583,0.005525,
1080,1800,0.185348,-1.180688,0.999998,0.000156,-0.001284,0.005434,-0.000109,0.005436,-0.001286,-89.074760,0.005682,
1860,1240,-2.792646,-6.130380,0.999997,0.000190,-0.003488,0.006988,0.000308,0.006997,-0.003497,88.319616,0.006997,
1130,1850,0.093829,-0.892954,0.999998,0.000162,-0.001066,0.005135,-0.000077,0.005136,-0.001067,-89.292067,0.005420,
1570,130,-0.239923,-14.532053,0.999998,0.000179,-0.001221,0.005712,-0.000912,0.005830,-0.001339,-82.627070,0.006108,
1000,250,0.303562,-13.905773,0.999998,0.000169,-0.001541,0.005808,0.000263,0.005817,-0.001550,87.954995,0.006025,
1240,1390,-0.013938,-3.169286,0.999998,0.000136,-0.001607,0.003745,-0.000246,0.003756,-0.001618,-87.375865,0.003768,
1290,1570,-0.109254,-2.363246,0.999998,0.000172,-0.001952,0.005285,-0.000350,0.005302,-0.001968,-87.239438,0.005360,
660,90,0.459047,-14.626019,0.999997,0.000198,-0.001718,0.007447,0.002679,0.008173,-0.002444,74.843146,0.008390,
870,870,1.909111,-8.883539,0.999997,0.000190,-0.004340,0.008813,0.001025,0.008892,-0.004420,85.570879,0.008893,
1350,450,-0.228036,-12.874034,0.999998,0.000161,-0.002091,0.005602,0.000503,0.005634,-0.002124,86.275671,0.005691,
1140,470,0.177475,-12.797512,0.999998,0.000165,-0.002112,0.005497,-0.000599,0.005544,-0.002159,-85.529338,0.005589,
1870,1560,-2.047711,-3.747104,0.999998,0.000184,-0.003753,0.007612,-0.000050,0.007613,-0.003753,-89.748032,0.007613,
1820,1180,-2.793892,-6.502687,0.999997,0.000215,-0.003492,0.007180,0.000538,0.007207,-0.003519,87.121578,0.007208,
1900,1620,-2.025502,-3.362249,0.999997,0.000000,-0.003717,0.007473,0.000016,0.007473,-0.003717,89.919571,0.007473,
1410,440,-0.362777,-12.834774,0.999995,0.000258,-0.002454,0.006061,0.000641,0.006109,-0.002502,85.719351,0.006142,
1540,1510,-0.859280,-3.306601,0.999998,0.000191,-0.003881,0.007503,-0.000786,0.007557,-0.003935,-86.069586,0.007559,
740,1160,2.492980,-6.570757,0.999997,0.000224,-0.003620,0.007714,-0.000852,0.007777,-0.003684,-85.726378,0.007781,
1190,1200,0.296158,-3.732291,0.999995,0.000000,-0.005509,0.002056,-0.000082,0.002057,-0.005510,-89.380083,0.005569,
1430,1320,-0.611229,-4.340310,0.999996,0.000233,-0.005034,0.008073,-0.002146,0.008415,-0.005376,-80.935117,0.008523,
1390,1410,-0.376303,-3.496262,0.999997,0.000206,-0.003456,0.006310,-0.001945,0.006683,-0.003829,-79.139679,0.006707,
780,1230,2.146287,-5.973580,0.999997,0.000214,-0.004159,0.008135,-0.000875,0.008197,-0.004221,-85.947983,0.008198,
1780,720,-2.247250,-9.839626,0.999998,0.000205,-0.003972,0.007737,-0.000453,0.007755,-0.003990,-87.786966,0.007756,
1010,180,0.198829,-14.307294,0.999998,0.000184,-0.001057,0.005415,0.000402,0.005440,-0.001081,86.460376,0.005760,
1220,840,0.068032,-11.530151,0.999991,0.000374,-0.005797,0.002347,0.000016,0.002347,-0.005797,89.887070,0.005832,
1480,1140,-1.592691,-6.385048,0.999996,0.000239,-0.004778,0.010423,0.000421,0.010434,-0.004789,88.416474,0.010446,
860,1350,1.428454,-4.792370,0.999996,0.000237,-0.004830,0.008600,0.000047,0.008601,-0.004831,89.801308,0.008622,
1040,940,1.460554,-8.837438,0.999993,0.000316,-0.005017,0.011674,-0.002480,0.012035,-0.005378,-81.725949,0.012057,
1880,1010,-3.153133,-7.672504,0.999998,0.000176,-0.003048,0.006363,-0.000174,0.006366,-0.003051,-88.942927,0.006368,
700,1160,2.636121,-6.598538,0.999997,0.000204,-0.003564,0.007434,-0.000680,0.007476,-0.003606,-86.476305,0.007477,
660,320,1.393720,-12.866554,0.999997,0.000218,-0.003650,0.007533,0.000104,0.007534,-0.003651,89.468346,0.007535,
1650,730,-1.720533,-10.001155,0.999997,0.000273,-0.004602,0.008426,-0.000384,0.008438,-0.004613,-88.312729,0.008450,
950,1830,0.349607,-1.106697,0.999997,0.000202,-0.001814,0.005911,-0.000362,0.005928,-0.001831,-87.322454,0.006071,
800,1650,1.085691,-2.568425,0.999997,0.000256,-0.003493,0.007400,0.000128,0.007402,-0.003495,89.327294,0.007405,
1720,210,-0.777605,-13.875660,0.999998,0.000185,-0.002687,0.007222,-0.001049,0.007331,-0.002797,-84.023608,0.007400,
1690,1590,-1.302252,-3.084011,0.999997,0.000196,-0.003777,0.007597,-0.000223,0.007602,-0.003781,-88.875737,0.007602,
1150,1740,0.115045,-1.464436,0.999998,0.000164,-0.001480,0.005401,0.000083,0.005402,-0.001481,89.306470,0.005582,
1440,600,-0.531861,-11.733961,0.999996,0.000222,-0.003647,0.006907,0.001455,0.007104,-0.003844,82.291054,0.007112,
910,1550,0.855620,-3.043169,0.999997,0.000220,-0.003625,0.007290,0.000629,0.007326,-0.003661,86.710950,0.007326,
1140,310,0.129144,-13.678476,0.999998,0.000132,-0.001573,0.005421,-0.000131,0.005423,-0.001576,-88.930665,0.005579,
1190,290,0.057016,-13.800934,0.999998,0.000159,-0.001303,0.005243,0.000006,0.005243,-0.001303,89.944918,0.005459,
1510,950,-1.878612,-8.293236,0.999996,0.000247,-0.003634,0.009593,-0.000902,0.009654,-0.003695,-86.117649,0.009742,
1080,1780,0.198867,-1.288453,0.999998,0.000167,-0.001403,0.005565,-0.000082,0.005566,-0.001404,-89.327819,0.005789,
1860,1260,-2.746123,-5.990426,0.999997,0.000207,-0.003553,0.007129,0.000321,0.007138,-0.003563,88.282142,0.007138,
1590,1930,-0.258436,-0.572746,0.999997,0.000203,-0.001337,0.005778,0.000975,0.005910,-0.001468,82.340251,0.006154,
750,1940,0.393982,-0.574603,0.999996,0.000229,-0.001369,0.006636,-0.001874,0.007053,-0.001786,-77.453670,0.007333,
1030,880,1.141506,-9.408294,0.999994,0.000325,-0.005369,0.010454,-0.001318,0.010563,-0.005478,-85.269389,0.010565,
1720,1450,-1.710652,-4.249485,0.999997,0.000205,-0.004145,0.007920,-0.000013,0.007920,-0.004145,-89.937458,0.007923,
1240,1370,-0.013022,-3.241062,0.999998,0.000171,-0.001543,0.003442,-0.000266,0.003456,-0.001557,-86.958250,0.003462,
1130,1830,0.105370,-0.996710,0.999998,0.000175,-0.001184,0.005169,-0.000033,0.005169,-0.001185,-89.705068,0.005416,
1290,1550,-0.110169,-2.470301,0.999998,0.000172,-0.001980,0.005227,-0.000417,0.005251,-0.002004,-86.699845,0.005300,
870,1310,1.487363,-5.113266,0.999995,0.000251,-0.004997,0.008849,-0.000143,0.008850,-0.004998,-89.409899,0.008875,
690,840,2.540522,-8.925921,0.999997,0.000213,-0.003727,0.007456,0.000685,0.007497,-0.003769,86.506881,0.007497,
1120,470,0.218049,-12.770094,0.999998,0.000184,-0.002105,0.005580,-0.000572,0.005622,-0.002148,-85.764642,0.005674,
1340,1810,-0.125026,-1.105351,0.999998,0.000168,-0.001292,0.005291,0.000005,0.005291,-0.001292,89.955969,0.005517,
1440,250,-0.267095,-13.921687,0.999997,0.000210,-0.001580,0.005682,-0.000170,0.005686,-0.001584,-88.657417,0.005868,
570,680,2.580531,-9.904361,0.999321,0.002922,-0.005154,0.007642,-0.000020,0.007642,-0.005154,-89.912457,0.007795,
1900,1610,-2.049992,-3.437234,0.999997,0.000000,-0.003724,0.007536,-0.000004,0.007536,-0.003724,-89.981025,0.007537,
1570,880,-1.844768,-8.829846,0.999998,0.000180,-0.004437,0.009064,-0.001031,0.009142,-0.004515,-85.656831,0.009142,
1150,60,0.012585,-14.937065,0.999999,0.000153,-0.000189,0.004553,0.000166,0.004559,-0.000195,87.993582,0.005155,
1350,430,-0.224332,-12.987458,0.999998,0.000172,-0.002054,0.005599,0.000434,0.005623,-0.002079,86.767269,0.005686,
1190,1190,0.384135,-3.744323,0.999994,0.000000,-0.006120,0.001708,-0.000211,0.001713,-0.006126,-88.456165,0.006321,
1780,250,-1.107458,-13.451564,0.999998,0.000189,-0.003476,0.007584,-0.000474,0.007604,-0.003496,-87.550574,0.007612,
1780,700,-2.190776,-9.993898,0.999998,0.000196,-0.003995,0.007725,-0.000389,0.007738,-0.004008,-88.099196,0.007739,
1820,1160,-2.833096,-6.644175,0.999996,0.000233,-0.003399,0.006996,0.000425,0.007014,-0.003417,87.660049,0.007014,
740,1140,2.535462,-6.721728,0.999997,0.000227,-0.003511,0.007566,-0.000689,0.007609,-0.003553,-86.454011,0.007614,
950,1810,0.386770,-1.232424,0.999997,0.000213,-0.001964,0.006094,-0.000317,0.006106,-0.001976,-87.752155,0.006231,
640,1230,2.686886,-6.143484,0.999996,0.000215,-0.003579,0.007183,-0.000520,0.007209,-0.003604,-87.239409,0.007209,
1390,1830,-0.169213,-1.021621,0.999998,0.000163,-0.001160,0.005357,0.000178,0.005362,-0.001165,88.439021,0.005641,
1080,910,1.106293,-9.749631,0.999994,0.000301,-0.002973,0.008394,-0.004881,0.010202,-0.004781,-69.672368,0.010209,
670,1100,2.839374,-7.050235,0.999997,0.000210,-0.003339,0.007059,-0.000413,0.007075,-0.003355,-87.727555,0.007078,
1800,110,-0.561832,-14.485950,0.999997,0.000227,-0.002232,0.007571,-0.002207,0.008045,-0.002706,-77.881132,0.008187,
990,140,0.161328,-14.515821,0.999998,0.000148,-0.000809,0.005311,0.000549,0.005360,-0.000858,84.918797,0.005758,
990,180,0.219480,-14.297498,0.999998,0.000157,-0.001105,0.005525,0.000459,0.005557,-0.001136,86.061101,0.005871,
700,1180,2.589199,-6.445820,0.999997,0.000219,-0.003663,0.007520,-0.000754,0.007570,-0.003713,-86.157654,0.007571,
1480,1120,-1.695136,-6.589785,0.999996,0.000234,-0.004327,0.010514,0.000524,0.010532,-0.004345,87.981182,0.010586,
1720,1530,-1.535554,-3.619139,0.999996,0.000232,-0.003934,0.007749,-0.000166,0.007752,-0.003936,-89.185031,0.007752,
1740,230,-0.903625,-13.697413,0.999997,0.000184,-0.003201,0.007407,-0.000697,0.007453,-0.003246,-86.258093,0.007473,
1430,1380,-0.542942,-3.879023,0.999995,0.000238,-0.004240,0.007292,-0.001915,0.007602,-0.004549,-80.815880,0.007651,
660,300,1.338391,-13.018190,0.999997,0.000205,-0.003597,0.007557,0.000205,0.007561,-0.003600,88.948518,0.007563,
1850,1320,-2.553167,-5.528070,0.999996,0.000220,-0.003723,0.007387,0.000301,0.007395,-0.003731,88.447671,0.007395,
1440,1020,-1.806748,-7.658235,0.999991,0.000371,-0.005277,0.013856,0.000207,0.013858,-0.005279,89.381553,0.013988,
1310,1740,-0.112101,-1.460508,0.999998,0.000169,-0.001470,0.005374,-0.000083,0.005375,-0.001471,-89.303025,0.005555,
630,1480,2.086402,-4.273554,0.999997,0.000199,-0.003835,0.007687,0.000000,0.007687,-0.003835,89.999763,0.007687,
1650,710,-1.663841,-10.169401,0.999997,0.000275,-0.004579,0.008449,-0.000235,0.008453,-0.004584,-88.966841,0.008464,
1130,1810,0.114592,-1.101484,0.999998,0.000161,-0.001279,0.005221,0.000003,0.005221,-0.001279,89.976671,0.005443,
1510,930,-1.799538,-8.482562,0.999996,0.000254,-0.004066,0.009738,-0.000938,0.009801,-0.004130,-86.132032,0.009842,
1010,460,0.487523,-12.627439,0.999996,0.000251,-0.002902,0.006455,-0.000767,0.006517,-0.002964,-85.346740,0.006526,
820,610,1.392603,-11.017257,0.999997,0.000211,-0.004328,0.008028,-0.000213,0.008031,-0.004332,-89.013727,0.008040,
1240,830,-0.039067,-11.556911,0.999995,0.000269,-0.004591,0.002078,0.000107,0.002079,-0.004593,89.078216,0.004599,
910,1530,0.882282,-3.193370,0.999997,0.000211,-0.003797,0.007429,0.000713,0.007474,-0.003843,86.380886,0.007475,
690,820,2.491087,-9.078304,0.999997,0.000197,-0.003817,0.007589,0.000727,0.007635,-0.003863,86.368783,0.007635,
870,1290,1.548469,-5.295620,0.999995,0.000240,-0.004999,0.008948,-0.000299,0.008955,-0.005006,-88.771331,0.008976,
1830,1560,-1.896891,-3.652917,0.999998,0.000167,-0.003795,0.007659,-0.000092,0.007660,-0.003796,-89.539938,0.007660,
1350,410,-0.216619,-13.098552,0.999998,0.000177,-0.001994,0.005552,0.000389,0.005572,-0.002014,87.056857,0.005643,
950,1790,0.416634,-1.350894,0.999996,0.000230,-0.002116,0.006143,-0.000228,0.006150,-0.002122,-88.422239,0.006247,
1740,830,-2.390477,-9.040122,0.999997,0.000208,-0.003873,0.007793,-0.000807,0.007848,-0.003929,-86.063501,0.007848,
1900,1600,-2.071867,-3.513383,0.999997,0.000000,-0.003742,0.007575,-0.000061,0.007575,-0.003742,-89.689918,0.007575,
1700,80,-0.243773,-14.767256,0.999997,0.000178,-0.000980,0.005946,-0.001745,0.006360,-0.001395,-76.631379,0.006686,
1590,760,-1.517815,-9.879202,0.999996,0.000222,-0.005032,0.008931,-0.000242,0.008935,-0.005036,-89.008686,0.008959,
1110,2020,0.011794,-0.073068,0.999998,0.000000,-0.000063,0.004491,-0.000194,0.004499,-0.000071,-87.570654,0.005154,
1290,1530,-0.110819,-2.572289,0.999998,0.000173,-0.002018,0.005161,-0.000491,0.005194,-0.002051,-86.106948,0.005232,
1220,1810,0.014674,-1.079023,0.999998,0.000150,-0.001160,0.005099,0.000026,0.005099,-0.001160,89.763136,0.005345,
740,1120,2.569386,-6.872497,0.999997,0.000218,-0.003421,0.007477,-0.000634,0.007513,-0.003458,-86.683225,0.007521,
1480,1100,-1.791922,-6.804598,0.999996,0.000226,-0.003926,0.010491,0.000560,0.010513,-0.003948,87.780272,0.010621,
1820,1140,-2.866252,-6.782617,0.999997,0.000202,-0.003345,0.006932,0.000436,0.006950,-0.003363,87.573900,0.006952,
750,1920,0.481266,-0.710460,0.999997,0.000217,-0.001683,0.006676,-0.001673,0.006998,-0.002006,-79.093138,0.007207,
840,1290,1.694920,-5.361182,0.999995,0.000281,-0.004774,0.008743,-0.000470,0.008759,-0.004791,-88.009399,0.008772,
1510,910,-1.705984,-8.679591,0.999996,0.000252,-0.004502,0.009836,-0.000901,0.009893,-0.004558,-86.416683,0.009903,
1040,920,1.338489,-9.071048,0.999993,0.000311,-0.004980,0.010886,-0.002055,0.011148,-0.005242,-82.740128,0.011154,
1590,1200,-1.844059,-6.100613,0.999996,0.000265,-0.004547,0.008901,0.000966,0.008970,-0.004617,85.912124,0.008971,
1750,340,-1.250037,-12.844267,0.999997,0.000188,-0.003614,0.007537,-0.000045,0.007537,-0.003615,-89.767385,0.007539,
1080,1760,0.216117,-1.403877,0.999998,0.000175,-0.001518,0.005615,-0.000019,0.005615,-0.001518,-89.846116,0.005809,
700,1620,1.512205,-3.030334,0.999997,0.000220,-0.003779,0.007578,0.000149,0.007580,-0.003781,89.250942,0.007580,
1000,100,0.098825,-14.727360,0.999998,0.000171,-0.000451,0.005055,0.000570,0.005113,-0.000510,84.150487,0.005633,
1700,1550,-1.416739,-3.415316,0.999997,0.000203,-0.003931,0.007750,-0.000213,0.007754,-0.003935,-88.953773,0.007754,
1240,1640,-0.014743,-1.971438,0.999998,0.000166,-0.001787,0.005273,-0.000090,0.005274,-0.001789,-89.273725,0.005364,
1410,60,-0.033163,-14.931258,0.999999,0.000126,-0.000317,0.004715,-0.000376,0.004742,-0.000345,-85.749626,0.005288,
1660,1890,-0.476554,-0.859673,0.999998,0.000176,-0.002144,0.006477,0.001118,0.006620,-0.002287,82.731784,0.006725,
1470,1000,-1.898383,-7.864238,0.999996,0.000218,-0.003550,0.011273,-0.000079,0.011273,-0.003551,-89.695373,0.011528,
1420,250,-0.235465,-13.939556,0.999998,0.000188,-0.001609,0.005583,-0.000071,0.005583,-0.001610,-89.436054,0.005748,
640,210,1.110310,-13.659110,0.999997,0.000227,-0.003475,0.007715,0.000545,0.007742,-0.003502,87.217293,0.007754,
1230,1380,0.001795,-3.202025,0.999997,0.000223,-0.001586,0.003605,0.000051,0.003606,-0.001587,89.439748,0.003614,
660,720,2.334732,-9.795279,0.999996,0.000221,-0.003856,0.007656,0.000409,0.007670,-0.003870,87.966430,0.007670,
1130,1790,0.124523,-1.205178,0.999998,0.000160,-0.001410,0.005327,0.000058,0.005328,-0.001410,89.505066,0.005521,
610,1100,3.035380,-7.083226,0.999997,0.000198,-0.003204,0.006579,-0.000147,0.006581,-0.003206,-89.137084,0.006582,
1230,830,0.004519,-11.562842,0.999986,0.000430,-0.004678,0.002089,-0.000022,0.002089,-0.004678,-89.811281,0.004687,
1440,1040,-1.804167,-7.395599,0.999990,0.000412,-0.005256,0.013973,-0.000342,0.013979,-0.005262,-88.982159,0.014121,
1120,1330,0.232483,-3.739524,0.999997,0.000222,-0.003255,0.005299,0.002711,0.006086,-0.004042,73.816823,0.006194,
870,800,1.659987,-9.510779,0.999997,0.000242,-0.004917,0.009034,0.000593,0.009059,-0.004942,87.571575,0.009072,
1870,40,-0.266911,-14.882047,0.999992,0.000371,-0.000838,0.009107,-0.004383,0.010763,-0.002494,-69.303487,0.011268,
620,410,1.758018,-12.084145,0.999997,0.000208,-0.003721,0.007529,-0.000096,0.007530,-0.003722,-89.513111,0.007530,
1290,1740,-0.083311,-1.455149,0.999997,0.000184,-0.001370,0.005353,-0.000001,0.005353,-0.001370,-89.987741,0.005562,
1040,150,0.132216,-14.479526,0.999998,0.000176,-0.000955,0.005219,0.000373,0.005242,-0.000977,86.558678,0.005575,
1470,180,-0.216587,-14.299719,0.999998,0.000170,-0.001084,0.005495,-0.000469,0.005528,-0.001117,-85.946035,0.005846,
1480,1080,-1.866840,-7.011410,0.999996,0.000215,-0.003561,0.010303,0.000426,0.010317,-0.003574,88.242708,0.010478,
1590,1910,-0.302466,-0.686336,0.999998,0.000203,-0.001584,0.005931,0.000927,0.006044,-0.001697,83.068961,0.006234,
660,970,2.885390,-7.960960,0.999997,0.000231,-0.003261,0.006883,0.000207,0.006887,-0.003265,88.829554,0.006890,
1140,690,0.172851,-11.654902,0.999997,0.000202,-0.002590,0.004763,-0.002109,0.005325,-0.003153,-75.078060,0.005355,
1390,1850,-0.150543,-0.914149,0.999998,0.000150,-0.001047,0.005295,0.000252,0.005305,-0.001057,87.731595,0.005615,
1290,1510,-0.111421,-2.674943,0.999998,0.000172,-0.002050,0.005089,-0.000605,0.005140,-0.002101,-85.192536,0.005168,
870,1270,1.612049,-5.471399,0.999995,0.000250,-0.004967,0.008982,-0.000447,0.008997,-0.004981,-88.166855,0.009014,
1350,390,-0.210663,-13.207621,0.999998,0.000173,-0.001916,0.005598,0.000320,0.005611,-0.001930,87.565948,0.005702,
1610,700,-1.448772,-10.353269,0.999997,0.000258,-0.004785,0.008572,0.000035,0.008572,-0.004785,89.851787,0.008592,
1010,580,0.565265,-11.827478,0.999997,0.000225,-0.003606,0.006913,-0.001310,0.007073,-0.003767,-83.007042,0.007078,
1190,860,0.327736,-11.381217,0.999993,0.000000,-0.006428,0.002337,0.000163,0.002340,-0.006431,88.936723,0.006510,
570,530,2.210886,-11.052310,0.999951,0.000791,-0.003618,0.007501,-0.000063,0.007501,-0.003618,-89.676537,0.007503,
1700,60,-0.160427,-14.889479,0.999998,0.000151,-0.000669,0.005737,-0.001749,0.006183,-0.001115,-75.681310,0.006591,
1730,1910,-0.549894,-0.788213,0.999996,0.000212,-0.002179,0.006958,0.001538,0.007210,-0.002431,80.694727,0.007337,
1810,1560,-1.821027,-3.604401,0.999998,0.000225,-0.003801,0.007698,-0.000118,0.007699,-0.003802,-89.412622,0.007699,
1390,60,-0.028162,-14.933057,0.999998,0.000177,-0.000201,0.004670,-0.000340,0.004693,-0.000225,-86.025864,0.005294,
1040,900,1.216708,-9.295420,0.999995,0.000274,-0.005124,0.010610,-0.001820,0.010818,-0.005332,-83.485445,0.010818,
620,60,0.345657,-14.789865,0.999996,0.000242,-0.003237,0.007702,0.002097,0.008090,-0.003625,79.513762,0.008105,
1730,300,-1.078978,-13.191188,0.999997,0.000195,-0.003302,0.007451,-0.000318,0.007460,-0.003311,-88.307665,0.007476,
1240,480,-0.016266,-12.807254,0.999998,0.000176,-0.001877,0.005173,0.000119,0.005175,-0.001879,89.029988,0.005240,
1040,1930,0.106416,-0.512079,0.999999,0.000140,-0.000760,0.005074,-0.000375,0.005098,-0.000784,-86.332623,0.005490,
1630,1000,-2.357602,-7.776302,0.999996,0.000220,-0.002971,0.007748,-0.000297,0.007756,-0.002979,-88.413170,0.007826,
1650,690,-1.611520,-10.340792,0.999996,0.000256,-0.004558,0.008388,-0.000133,0.008389,-0.004560,-89.412484,0.008400,
740,1100,2.601609,-7.023840,0.999997,0.000216,-0.003373,0.007447,-0.000609,0.007481,-0.003408,-86.787179,0.007491,
1200,1810,0.037353,-1.082231,0.999999,0.000125,-0.001104,0.005134,-0.000002,0.005134,-0.001104,-89.983838,0.005405,
950,740,1.058391,-10.317511,0.999997,0.000201,-0.005347,0.008976,-0.000798,0.009020,-0.005391,-86.821088,0.009078,
1870,1200,-2.921146,-6.427504,0.999997,0.000192,-0.003356,0.006951,0.000292,0.006959,-0.003364,88.377793,0.006961,
1130,1770,0.135384,-1.315066,0.999998,0.000166,-0.001501,0.005425,0.000084,0.005426,-0.001502,89.303098,0.005603,
1400,250,-0.203179,-13.956943,0.999997,0.000190,-0.001450,0.005497,-0.000101,0.005498,-0.001451,-89.165202,0.005699,
1500,1450,-0.771561,-3.636922,0.999996,0.000248,-0.004149,0.007581,-0.001147,0.007692,-0.004261,-84.467702,0.007707,
700,1600,1.556621,-3.183184,0.999996,0.000244,-0.003809,0.007632,0.000141,0.007634,-0.003811,89.292886,0.007634,
1600,1990,-0.112194,-0.238683,0.999997,0.000180,-0.000607,0.005364,0.001204,0.005598,-0.000841,79.023190,0.006037,
1410,1740,-0.276134,-1.540450,0.999998,0.000200,-0.001957,0.005786,-0.000133,0.005788,-0.001959,-89.012797,0.005888,
1000,120,0.127416,-14.624567,0.999998,0.000182,-0.000617,0.005204,0.000579,0.005261,-0.000674,84.370725,0.005726,
1210,1380,0.034637,-3.218648,0.999998,0.000170,-0.001652,0.003662,0.000570,0.003723,-0.001712,83.943337,0.003727,
1480,1060,-1.923964,-7.213163,0.999996,0.000233,-0.003283,0.010658,0.000275,0.010664,-0.003289,88.869682,0.010922,
660,740,2.388023,-9.644978,0.999996,0.000217,-0.003834,0.007615,0.000480,0.007635,-0.003854,87.604014,0.007635,
1900,1590,-2.092906,-3.590416,0.999998,0.000000,-0.003741,0.007574,-0.000078,0.007575,-0.003742,-89.604804,0.007575,
870,780,1.594131,-9.692496,0.999996,0.000229,-0.004973,0.008979,0.000422,0.008992,-0.004986,88.268006,0.009010,
1220,830,0.051019,-11.553668,0.999996,0.000230,-0.004544,0.002086,-0.000127,0.002088,-0.004546,-88.899081,0.004551,
1160,1270,0.151609,-3.753146,0.999998,0.000169,-0.002820,0.003492,0.002797,0.004553,-0.003881,69.227705,0.004915,
1700,1530,-1.456827,-3.570631,0.999997,0.000208,-0.003989,0.007784,-0.000199,0.007787,-0.003992,-89.031524,0.007788,
1240,470,-0.016223,-12.858915,0.999998,0.000184,-0.001863,0.005190,0.000111,0.005192,-0.001864,89.100568,0.005260,
1290,1490,-0.110146,-2.776649,0.999998,0.000149,-0.002070,0.005008,-0.000709,0.005078,-0.002140,-84.337802,0.005099,
1570,110,-0.194230,-14.646643,0.999998,0.000181,-0.000989,0.005583,-0.000973,0.005724,-0.001130,-81.754152,0.006064,
1230,180,0.000480,-14.369232,0.999998,0.000173,-0.000860,0.004931,0.000008,0.004931,-0.000861,89.918839,0.005267,
870,1250,1.678384,-5.656455,0.999996,0.000243,-0.004886,0.009034,-0.000616,0.009061,-0.004914,-87.470913,0.009072,
1730,1890,-0.630679,-0.931065,0.999997,0.000212,-0.002453,0.007085,0.001366,0.007277,-0.002645,82.008519,0.007367,
1510,900,-1.658723,-8.779847,0.999995,0.000277,-0.004711,0.009844,-0.000842,0.009893,-0.004760,-86.699092,0.009895,
1190,270,0.050258,-13.906649,0.999998,0.000165,-0.001211,0.005229,-0.000012,0.005229,-0.001211,-89.894130,0.005474,
1480,1470,-0.672051,-3.421157,0.999997,0.000237,-0.003820,0.007261,-0.001185,0.007387,-0.003946,-83.962013,0.007393,
1020,1930,0.121440,-0.518630,0.999998,0.000186,-0.000682,0.005150,-0.000469,0.005188,-0.000719,-85.430068,0.005622,
1590,1890,-0.356776,-0.808144,0.999998,0.000200,-0.001768,0.006056,0.000863,0.006150,-0.001862,83.781110,0.006307,
770,560,1.499868,-11.293736,0.999996,0.000241,-0.004091,0.007853,-0.000156,0.007855,-0.004093,-89.250860,0.007857,
1400,130,-0.091837,-14.590117,0.999998,0.000146,-0.000684,0.005001,-0.000335,0.005020,-0.000704,-86.636562,0.005436,
1170,60,0.010273,-14.937096,0.999998,0.000177,-0.000115,0.004543,0.000124,0.004546,-0.000119,88.479094,0.005182,
1690,1990,-0.171184,-0.256610,0.999998,0.000188,-0.000832,0.005752,0.001696,0.006163,-0.001243,76.373163,0.006518,
600,410,1.832273,-12.033656,0.999996,0.000246,-0.003704,0.007494,-0.000099,0.007495,-0.003705,-89.492876,0.007495,
780,1030,2.532153,-7.541661,0.999997,0.000229,-0.003101,0.007550,-0.000040,0.007550,-0.003101,-89.787290,0.007590,
950,720,1.012715,-10.494849,0.999996,0.000258,-0.005213,0.008768,-0.000906,0.008827,-0.005272,-86.307261,0.008882,
1040,140,0.120480,-14.531165,0.999998,0.000166,-0.000885,0.005169,0.000373,0.005192,-0.000908,86.486843,0.005546,
1710,300,-1.015566,-13.228781,0.999997,0.000204,-0.003175,0.007374,-0.000336,0.007385,-0.003185,-88.178712,0.007408,
1240,1620,-0.015452,-2.078353,0.999998,0.000169,-0.001807,0.005303,-0.000113,0.005305,-0.001809,-89.092879,0.005394,
1570,1560,-0.904699,-3.014850,0.999997,0.000198,-0.003661,0.007345,-0.000567,0.007374,-0.003690,-87.057362,0.007374,
950,1770,0.450640,-1.478188,0.999997,0.000210,-0.002253,0.006285,-0.000144,0.006287,-0.002255,-89.033110,0.006370,
700,1580,1.596534,-3.335633,0.999996,0.000230,-0.003810,0.007667,0.000145,0.007669,-0.003812,89.277445,0.007669,
620,1230,2.756611,-6.172355,0.999998,0.000174,-0.003504,0.007042,-0.000430,0.007060,-0.003522,-87.669289,0.007060,
1130,1750,0.143407,-1.422012,0.999998,0.000173,-0.001613,0.005428,0.000150,0.005431,-0.001616,88.779859,0.005577,
610,1990,0.417366,-0.399796,0.999995,0.000260,-0.003270,0.008204,-0.002203,0.008612,-0.003679,-79.497601,0.008642,
1770,1890,-0.756123,-1.005635,0.999997,0.000203,-0.003106,0.007453,0.001254,0.007600,-0.003253,83.317774,0.007626,
1740,1390,-1.937708,-4.770611,0.999997,0.000200,-0.004117,0.007955,0.000231,0.007959,-0.004122,88.902683,0.007961,
1390,1740,-0.240496,-1.520994,0.999998,0.000161,-0.001638,0.005703,-0.000072,0.005704,-0.001639,-89.440156,0.005873,
790,450,1.206248,-12.192999,0.999998,0.000179,-0.003701,0.007568,-0.000226,0.007572,-0.003705,-88.851490,0.007573,
1510,1260,-1.204648,-5.301224,0.999996,0.000252,-0.005605,0.009557,-0.000313,0.009563,-0.005612,-88.818498,0.009611,
1480,1040,-1.952238,-7.435833,0.999996,0.000245,-0.003181,0.010524,0.000122,0.010525,-0.003182,89.489088,0.010796,
1440,1060,-1.767718,-7.098351,0.999993,0.000306,-0.005099,0.013571,-0.000784,0.013604,-0.005132,-87.599249,0.013740,
830,150,0.382775,-14.377801,0.999997,0.000196,-0.001428,0.006244,0.001195,0.006426,-0.001610,81.346195,0.006687,
1000,140,0.154340,-14.517673,0.999998,0.000151,-0.000751,0.005287,0.000531,0.005333,-0.000797,85.008250,0.005753,
660,760,2.443931,-9.489438,0.999996,0.000218,-0.003809,0.007529,0.000536,0.007554,-0.003834,87.298921,0.007555,
1510,890,-1.611450,-8.878831,0.999995,0.000267,-0.004870,0.009889,-0.000775,0.009930,-0.004910,-87.001946,0.009930,
1870,1320,-2.626121,-5.571276,0.999997,0.000208,-0.003655,0.007323,0.000207,0.007327,-0.003659,88.921199,0.007327,
590,760,2.702581,-9.359711,0.999996,0.000229,-0.003716,0.007313,0.000176,0.007315,-0.003718,89.083967,0.007316,
1350,370,-0.203216,-13.322496,0.999998,0.000159,-0.001849,0.005650,0.000243,0.005658,-0.001857,88.149264,0.005768,
1480,1130,-1.642623,-6.487142,0.999996,0.000222,-0.004560,0.010458,0.000463,0.010473,-0.004575,88.236787,0.010501,
1390,1870,-0.133066,-0.808191,0.999998,0.000151,-0.000934,0.005199,0.000250,0.005209,-0.000945,87.670732,0.005550,
590,1100,3.098428,-7.096648,0.999997,0.000219,-0.003098,0.006335,-0.000083,0.006336,-0.003099,-89.497997,0.006337,
610,640,2.318699,-10.301015,0.999997,0.000210,-0.003785,0.007610,0.000114,0.007611,-0.003786,89.425465,0.007611,
870,1230,1.748621,-5.833518,0.999995,0.000244,-0.004763,0.008966,-0.000757,0.009008,-0.004805,-86.855401,0.009014,
1180,470,0.095158,-12.836565,0.999997,0.000186,-0.001852,0.005246,-0.000244,0.005255,-0.001861,-88.029844,0.005329,
1180,2020,0.005357,-0.071705,0.999998,0.000000,-0.000051,0.004446,-0.000068,0.004447,-0.000052,-89.136219,0.005105,
1220,810,0.033065,-11.585868,0.999997,0.000199,-0.002890,0.001609,-0.000442,0.001652,-0.002933,-84.440864,0.002941,
1510,920,-1.751955,-8.583371,0.999997,0.000231,-0.004268,0.009802,-0.000933,0.009864,-0.004330,-86.224161,0.009888,
1290,1470,-0.109794,-2.875619,0.999998,0.000187,-0.002076,0.004859,-0.000810,0.004953,-0.002169,-83.426277,0.004966,
880,570,1.065876,-11.499798,0.999997,0.000205,-0.004116,0.007809,-0.000610,0.007840,-0.004147,-87.079732,0.007844,
1590,1870,-0.402296,-0.929515,0.999997,0.000206,-0.001970,0.006197,0.000738,0.006263,-0.002036,84.877453,0.006390,
1480,1610,-0.554509,-2.455318,0.999996,0.000236,-0.002918,0.006603,-0.000606,0.006641,-0.002956,-86.372970,0.006655,
1080,1930,0.078148,-0.501833,0.999998,0.000171,-0.000520,0.004943,-0.000330,0.004963,-0.000539,-86.557213,0.005446,
750,540,1.539239,-11.400847,0.999996,0.000226,-0.003993,0.007792,-0.000141,0.007794,-0.003995,-89.313348,0.007795,
1390,180,-0.129809,-14.337091,0.999998,0.000184,-0.000878,0.005214,-0.000271,0.005226,-0.000890,-87.461667,0.005592,
1780,90,-0.417888,-14.645740,0.999997,0.000207,-0.001893,0.006949,-0.002291,0.007507,-0.002452,-76.303860,0.007657,
1730,1870,-0.710867,-1.073085,0.999997,0.000210,-0.002652,0.007170,0.001176,0.007309,-0.002791,83.268078,0.007377,
1690,1970,-0.252736,-0.378021,0.999997,0.000192,-0.001096,0.005942,0.001651,0.006310,-0.001464,77.431282,0.006605,
1240,1580,-0.017408,-2.284682,0.999998,0.000159,-0.001844,0.005158,-0.000129,0.005160,-0.001846,-88.940753,0.005229,
1650,1110,-2.341008,-6.920773,0.999996,0.000243,-0.003341,0.007825,0.000750,0.007875,-0.003391,86.175723,0.007901,
930,740,1.164497,-10.240359,0.999996,0.000229,-0.005273,0.008999,-0.000498,0.009016,-0.005290,-88.005587,0.009062,
1890,1200,-2.988767,-6.465275,0.999997,0.000174,-0.003340,0.006772,0.000168,0.006775,-0.003343,89.049597,0.006775,
610,1040,3.072992,-7.476549,0.999998,0.000187,-0.003135,0.006650,-0.000150,0.006653,-0.003138,-89.123100,0.006656,
710,160,0.679644,-14.184008,0.999997,0.000213,-0.003068,0.007306,0.001218,0.007447,-0.003209,83.391447,0.007470,
710,280,1.103491,-13.290563,0.999998,0.000215,-0.003523,0.007545,0.000284,0.007552,-0.003530,88.529312,0.007558,
1090,1480,0.310118,-3.011247,0.999996,0.000218,-0.002778,0.005790,0.001294,0.005981,-0.002969,81.594790,0.005981,
740,1520,1.567155,-3.703294,0.999997,0.000223,-0.003967,0.007789,0.000137,0.007791,-0.003969,89.330462,0.007791,
1130,1730,0.152903,-1.533326,0.999998,0.000169,-0.001704,0.005479,0.000177,0.005483,-0.001709,88.589827,0.005611,
1040,880,1.088700,-9.503001,0.999995,0.000269,-0.005292,0.010329,-0.001793,0.010532,-0.005495,-83.536093,0.010535,
850,1800,0.624598,-1.410607,0.999996,0.000228,-0.002447,0.006695,-0.000516,0.006724,-0.002476,-86.780073,0.006801,
1220,130,0.006369,-14.611226,0.999998,0.000153,-0.000559,0.004754,-0.000021,0.004754,-0.000560,-89.772020,0.005196,
700,1560,1.639771,-3.491128,0.999996,0.000233,-0.003840,0.007691,0.000135,0.007692,-0.003841,89.330234,0.007692,
1820,1120,-2.898991,-6.923024,0.999997,0.000215,-0.003336,0.006983,0.000479,0.007005,-0.003358,87.347267,0.007007,
1440,1080,-1.704794,-6.861383,0.999992,0.000330,-0.004820,0.012672,-0.001069,0.012737,-0.004885,-86.516921,0.012852,
1270,1740,-0.055542,-1.451098,0.999998,0.000160,-0.001422,0.005327,-0.000054,0.005327,-0.001422,-89.541229,0.005517,
1900,1580,-2.114594,-3.666034,0.999998,0.000000,-0.003709,0.007554,-0.000083,0.007555,-0.003710,-89.577320,0.007555,
1460,1130,-1.550488,-6.387782,0.999995,0.000263,-0.004788,0.010776,-0.000017,0.010776,-0.004788,-89.937574,0.010798,
1300,1570,-0.129614,-2.373929,0.999998,0.000177,-0.002054,0.005338,-0.000483,0.005369,-0.002086,-86.274583,0.005414,
1350,350,-0.192410,-13.435914,0.999997,0.000193,-0.001773,0.005563,0.000258,0.005572,-0.001782,87.990717,0.005691,
1000,580,0.603412,-11.794105,0.999997,0.000238,-0.003706,0.007054,-0.001296,0.007208,-0.003860,-83.228807,0.007214,
660,780,2.496689,-9.340586,0.999996,0.000217,-0.003793,0.007534,0.000587,0.007564,-0.003823,87.039752,0.007565,
1480,1020,-1.958719,-7.634689,0.999995,0.000262,-0.003176,0.010399,-0.000050,0.010399,-0.003176,-89.789252,0.010658,
700,970,2.754882,-7.973346,0.999997,0.000200,-0.003312,0.007153,0.000294,0.007161,-0.003321,88.391678,0.007167,
1160,470,0.133387,-12.824576,0.999998,0.000210,-0.002032,0.005365,-0.000454,0.005393,-0.002060,-86.502368,0.005443,
1060,1930,0.090199,-0.505384,0.999998,0.000164,-0.000684,0.004995,-0.000337,0.005015,-0.000704,-86.617803,0.005430,
590,750,2.676259,-9.432848,0.999997,0.000222,-0.003751,0.007372,0.000180,0.007374,-0.003754,89.070893,0.007375,
710,1420,1.915387,-4.560889,0.999997,0.000208,-0.004044,0.007898,-0.000152,0.007900,-0.004046,-89.268969,0.007901,
990,640,0.693936,-11.319180,0.999996,0.000210,-0.004317,0.007548,-0.001422,0.007716,-0.004485,-83.260432,0.007750,
1830,1320,-2.478035,-5.490661,0.999997,0.000212,-0.003762,0.007510,0.000388,0.007524,-0.003776,88.029568,0.007524,
1590,1850,-0.453893,-1.058410,0.999997,0.000204,-0.002138,0.006294,0.000672,0.006347,-0.002191,85.472827,0.006448,
870,1210,1.819246,-6.015599,0.999996,0.000242,-0.004604,0.008938,-0.000899,0.008998,-0.004663,-86.220527,0.009000,
1310,180,-0.059836,-14.361913,0.999998,0.000189,-0.000809,0.004985,-0.000122,0.004987,-0.000811,-88.796974,0.005352,
1290,1450,-0.110553,-2.972157,0.999998,0.000187,-0.002081,0.004720,-0.000943,0.004848,-0.002209,-82.254232,0.004855,
1880,1200,-2.954972,-6.446093,0.999997,0.000169,-0.003339,0.006868,0.000211,0.006872,-0.003344,88.816084,0.006873,
1850,1720,-1.603148,-2.489560,0.999997,0.000227,-0.003645,0.007461,-0.000102,0.007462,-0.003646,-89.476193,0.007462,
1610,740,-1.558624,-10.006067,0.999995,0.000255,-0.004861,0.008709,-0.000223,0.008713,-0.004865,-89.059884,0.008733,
630,1040,3.009256,-7.474020,0.999998,0.000202,-0.003211,0.006828,-0.000175,0.006831,-0.003215,-89.001948,0.006835,
690,280,1.174171,-13.242012,0.999997,0.000208,-0.003581,0.007577,0.000267,0.007583,-0.003588,88.631947,0.007587,
1690,1950,-0.320244,-0.495271,0.999997,0.000209,-0.001394,0.006299,0.001668,0.006645,-0.001741,78.278360,0.006891,
1140,200,0.080540,-14.257757,0.999998,0.000158,-0.000991,0.005103,0.000093,0.005105,-0.000993,89.123553,0.005413,
1240,1560,-0.016064,-2.390273,0.999998,0.000166,-0.001868,0.005144,-0.000155,0.005148,-0.001872,-88.733769,0.005211,
880,1990,0.103516,-0.235305,0.999998,0.000160,-0.000676,0.005316,-0.001053,0.005496,-0.000855,-80.320795,0.005914,
1540,350,-0.608040,-13.182279,0.999998,0.000203,-0.002477,0.006660,-0.000025,0.006660,-0.002478,-89.842867,0.006732,
1040,840,0.870107,-9.899018,0.999996,0.000232,-0.005788,0.009515,-0.001849,0.009735,-0.006008,-83.207246,0.009824,
1730,1850,-0.783879,-1.218894,0.999997,0.000175,-0.002838,0.007317,0.001008,0.007416,-0.002937,84.386273,0.007469,
1070,1480,0.366190,-3.067877,0.999997,0.000197,-0.002984,0.006070,0.001364,0.006271,-0.003185,81.615132,0.006271,
970,1100,1.837120,-6.838574,0.999996,0.000248,-0.003741,0.010010,-0.000739,0.010049,-0.003781,-86.932936,0.010151,
700,390,1.415226,-12.432084,0.999997,0.000207,-0.003687,0.007586,-0.000078,0.007587,-0.003687,-89.603749,0.007588,
1390,1890,-0.116744,-0.706292,0.999998,0.000145,-0.000820,0.005127,0.000280,0.005140,-0.000833,87.305580,0.005517,
1180,1190,0.429081,-3.816381,0.999994,0.000000,-0.005275,0.001840,-0.000018,0.001840,-0.005275,-89.857137,0.005355,
1250,1740,-0.026794,-1.444955,0.999999,0.000131,-0.001468,0.005284,-0.000097,0.005285,-0.001469,-89.180195,0.005456,
1440,1520,-0.498149,-2.954316,0.999997,0.000206,-0.003181,0.006580,-0.001103,0.006703,-0.003304,-83.635025,0.006703,
1860,270,-1.457418,-13.086662,0.999996,0.000240,-0.003650,0.007416,-0.000109,0.007417,-0.003651,-89.435342,0.007417,
1290,120,-0.027702,-14.656089,0.999999,0.000142,-0.000393,0.004794,-0.000132,0.004798,-0.000396,-88.539704,0.005326,
600,290,1.529806,-12.930209,0.999997,0.000248,-0.003665,0.007348,0.000022,0.007348,-0.003665,89.886375,0.007348,
1200,1930,0.018616,-0.486295,0.999998,0.000188,-0.000490,0.004773,-0.000032,0.004773,-0.000490,-89.655260,0.005251,
660,1220,2.638380,-6.190037,0.999996,0.000221,-0.003624,0.007259,-0.000603,0.007292,-0.003657,-86.840511,0.007292,
1480,1000,-1.934424,-7.848609,0.999996,0.000254,-0.003279,0.010678,-0.000224,0.010682,-0.003282,-89.080901,0.010943,
1650,1130,-2.301922,-6.761802,0.999997,0.000226,-0.003512,0.008033,0.000913,0.008105,-0.003583,85.507684,0.008123,
1470,500,-0.569197,-12.321420,0.999996,0.000215,-0.003106,0.006675,0.000840,0.006746,-0.003178,85.124894,0.006750,
590,740,2.650057,-9.506333,0.999996,0.000227,-0.003835,0.007431,0.000178,0.007434,-0.003838,89.094626,0.007435,
1260,470,-0.053159,-12.848274,0.999998,0.000182,-0.001862,0.005219,0.000238,0.005227,-0.001870,88.080497,0.005297,
820,970,2.363189,-8.006375,0.999997,0.000217,-0.003151,0.007839,0.000641,0.007876,-0.003189,86.674095,0.007924,
1620,1830,-0.566672,-1.217451,0.999996,0.000222,-0.002165,0.006584,0.000732,0.006645,-0.002226,85.250009,0.006764,
1570,1300,-1.401443,-5.140148,0.999994,0.000255,-0.005161,0.009019,0.000032,0.009019,-0.005162,89.869977,0.009050,
1140,850,0.454032,-10.952853,0.999995,0.000312,-0.003172,0.003449,-0.001994,0.004003,-0.003726,-74.469468,0.004471,
1630,1620,-1.026619,-2.716094,0.999996,0.000230,-0.003556,0.007403,-0.000264,0.007410,-0.003562,-88.620851,0.007412,
1900,1570,-2.137220,-3.741218,0.999998,0.000000,-0.003700,0.007540,-0.000065,0.007541,-0.003700,-89.670091,0.007541,
1350,330,-0.184402,-13.545711,0.999998,0.000190,-0.001684,0.005565,0.000190,0.005570,-0.001689,88.497228,0.005712,
1860,1700,-1.688652,-2.665766,0.999997,0.000208,-0.003669,0.007441,-0.000105,0.007442,-0.003670,-89.456332,0.007442,
730,1420,1.834445,-4.516730,0.999997,0.000190,-0.004133,0.007954,-0.000106,0.007955,-0.004134,-89.497954,0.007957,
1740,810,-2.334681,-9.196203,0.999996,0.000241,-0.003953,0.007818,-0.000771,0.007868,-0.004004,-86.267829,0.007868,
1630,1320,-1.638765,-5.117293,0.999994,0.000297,-0.004744,0.008592,0.000301,0.008598,-0.004751,88.708807,0.008614,
1570,90,-0.148183,-14.754619,0.999998,0.000166,-0.000810,0.005350,-0.000966,0.005498,-0.000958,-81.288803,0.005874,
1600,120,-0.259453,-14.571757,0.999998,0.000189,-0.001238,0.005833,-0.001086,0.005996,-0.001401,-81.465720,0.006273,
700,1540,1.682297,-3.645911,0.999996,0.000225,-0.003882,0.007724,0.000098,0.007725,-0.003882,89.516727,0.007725,
1160,1590,0.132814,-2.269666,0.999998,0.000143,-0.002013,0.005392,0.000435,0.005417,-0.002038,86.652888,0.005472,
1630,1200,-2.016289,-6.157882,0.999998,0.000154,-0.004240,0.008507,0.000968,0.008580,-0.004313,85.681575,0.008580,
870,1190,1.892266,-6.194593,0.999996,0.000241,-0.004417,0.008847,-0.000986,0.008920,-0.004490,-85.771992,0.008920,
1000,560,0.587342,-11.935468,0.999997,0.000221,-0.003539,0.006909,-0.001162,0.007037,-0.003667,-83.732645,0.007039,
1290,1430,-0.105703,-3.065178,0.999997,0.000198,-0.002061,0.004563,-0.001066,0.004730,-0.002229,-81.082738,0.004733,
690,260,1.114482,-13.393349,0.999998,0.000185,-0.003542,0.007560,0.000396,0.007574,-0.003556,87.958270,0.007579,
670,1040,2.879488,-7.470836,0.999998,0.000156,-0.003279,0.007027,-0.000176,0.007030,-0.003282,-89.022724,0.007035,
1140,220,0.089401,-14.154157,0.999998,0.000151,-0.001091,0.005147,0.000050,0.005147,-0.001091,89.542493,0.005424,
1170,180,0.048595,-14.362895,0.999998,0.000174,-0.000678,0.005007,0.000115,0.005009,-0.000681,88.843858,0.005434,
860,1990,0.114458,-0.237247,0.999997,0.000176,-0.000562,0.005441,-0.001197,0.005671,-0.000792,-79.127446,0.006142,
1690,1930,-0.407201,-0.629242,0.999997,0.000203,-0.001709,0.006457,0.001575,0.006750,-0.002002,79.452076,0.006934,
1610,720,-1.501528,-10.180320,0.999997,0.000227,-0.004854,0.008635,-0.000075,0.008635,-0.004854,-89.679814,0.008657,
830,1800,0.672690,-1.436197,0.999997,0.000192,-0.002432,0.006835,-0.000600,0.006874,-0.002470,-86.308114,0.006964,
740,1540,1.527404,-3.548671,0.999996,0.000231,-0.003918,0.007736,0.000170,0.007738,-0.003920,89.163807,0.007738,
950,1100,1.909997,-6.882457,0.999997,0.000219,-0.003525,0.009473,-0.000869,0.009531,-0.003583,-86.193477,0.009628,
680,390,1.489289,-12.384451,0.999997,0.000180,-0.003720,0.007571,-0.000071,0.007571,-0.003721,-89.641098,0.007572,
1230,1740,0.001837,-1.442296,0.999998,0.000176,-0.001469,0.005277,0.000000,0.005277,-0.001469,-89.998515,0.005447,
1240,1540,-0.016000,-2.490883,0.999998,0.000156,-0.001890,0.005043,-0.000156,0.005046,-0.001894,-88.713309,0.005098,
1760,1510,-1.736291,-3.871262,0.999996,0.000230,-0.003944,0.007750,-0.000067,0.007750,-0.003944,-89.672314,0.007751,
1040,820,0.793003,-10.089599,0.999995,0.000260,-0.005899,0.009171,-0.001974,0.009425,-0.006154,-82.660600,0.009571,
600,270,1.469463,-13.077731,0.999997,0.000218,-0.003653,0.007422,0.000089,0.007423,-0.003653,89.540668,0.007423,
1690,740,-1.927789,-9.838691,0.999997,0.000198,-0.004366,0.008254,-0.000522,0.008276,-0.004388,-87.636864,0.008281,
660,1200,2.685194,-6.337241,0.999997,0.000210,-0.003592,0.007335,-0.000647,0.007373,-0.003630,-86.625145,0.007373,
1590,1300,-1.502504,-5.194786,0.999996,0.000212,-0.005012,0.008916,0.000187,0.008918,-0.005015,89.230611,0.008941,
1780,680,-2.139669,-10.148521,0.999997,0.000198,-0.003986,0.007763,-0.000332,0.007772,-0.003996,-88.384782,0.007774,
1080,1740,0.228430,-1.514235,0.999998,0.000183,-0.001607,0.005653,0.000040,0.005654,-0.001607,89.682967,0.005826,
1400,380,-0.301800,-13.213088,0.999998,0.000182,-0.002188,0.005895,0.000399,0.005914,-0.002208,87.183753,0.005977,
590,1800,1.455609,-1.959835,0.999997,0.000206,-0.004002,0.007270,-0.000086,0.007271,-0.004003,-89.561236,0.007283,
1650,1150,-2.245801,-6.598153,0.999997,0.000238,-0.003698,0.008154,0.001007,0.008239,-0.003783,85.179856,0.008248,
790,430,1.169202,-12.342831,0.999998,0.000183,-0.003631,0.007450,-0.000222,0.007455,-0.003636,-88.850736,0.007455,
1140,240,0.100373,-14.050064,0.999998,0.000145,-0.001193,0.005200,0.000016,0.005200,-0.001193,89.856102,0.005448,
1490,1260,-1.091527,-5.212699,0.999997,0.000210,-0.005735,0.009566,-0.000727,0.009601,-0.005770,-87.285631,0.009666,
1320,610,-0.175237,-12.059054,0.999998,0.000163,-0.002265,0.005066,0.001209,0.005260,-0.002459,80.874897,0.005264,
1510,870,-1.515888,-9.074940,0.999995,0.000296,-0.005197,0.009914,-0.000528,0.009932,-0.005215,-88.000136,0.009936,
1900,1560,-2.158456,-3.817214,0.999997,0.000000,-0.003716,0.007553,-0.000037,0.007553,-0.003716,-89.810349,0.007553,
1730,1830,-0.855244,-1.366245,0.999998,0.000170,-0.002956,0.007347,0.000850,0.007416,-0.003026,85.312996,0.007458,
1430,320,-0.321801,-13.527073,0.999998,0.000250,-0.002019,0.005955,0.000139,0.005958,-0.002022,89.003941,0.006059,
1180,1930,0.026484,-0.487411,0.999998,0.000150,-0.000434,0.004803,-0.000103,0.004805,-0.000436,-88.872912,0.005315,
830,130,0.326571,-14.498309,0.999997,0.000205,-0.001222,0.006072,0.001254,0.006281,-0.001431,80.510372,0.006584,
1820,1100,-2.930099,-7.063993,0.999998,0.000192,-0.003276,0.006872,0.000310,0.006881,-0.003285,88.250739,0.006884,
950,1750,0.477516,-1.602984,0.999998,0.000194,-0.002355,0.006287,-0.000007,0.006287,-0.002355,-89.951642,0.006353,
1290,1410,-0.105665,-3.157561,0.999998,0.000201,-0.002026,0.004427,-0.001200,0.004643,-0.002242,-79.800349,0.004644,
790,1360,1.729109,-4.875076,0.999997,0.000213,-0.004458,0.008258,-0.000239,0.008262,-0.004463,-88.924298,0.008271,
1480,1420,-0.719468,-3.789164,0.999997,0.000210,-0.004328,0.007550,-0.001358,0.007704,-0.004481,-83.558110,0.007738,
1610,1200,-1.932675,-6.132153,0.999998,0.000177,-0.004385,0.008676,0.000956,0.008746,-0.004454,85.835855,0.008746,
1210,1400,0.035596,-3.142532,0.999998,0.000160,-0.001703,0.003937,0.000507,0.003982,-0.001748,84.900630,0.003992,
1190,250,0.049912,-14.011538,0.999998,0.000171,-0.001117,0.005132,0.000015,0.005132,-0.001117,89.864584,0.005398,
1180,860,0.383931,-11.314310,0.999994,0.000000,-0.005412,0.002068,-0.000135,0.002070,-0.005414,-88.964939,0.005464,
690,1040,2.814404,-7.470775,0.999998,0.000158,-0.003232,0.007146,-0.000175,0.007149,-0.003235,-89.033698,0.007160,
1720,830,-2.312196,-9.062299,0.999996,0.000242,-0.003984,0.007938,-0.000860,0.007999,-0.004045,-85.894651,0.007999,
1540,330,-0.577952,-13.315800,0.999997,0.000214,-0.002403,0.006647,-0.000061,0.006647,-0.002403,-89.616686,0.006732,
1610,60,-0.105484,-14.910720,0.999999,0.000143,-0.000467,0.005366,-0.001238,0.005618,-0.000719,-78.496049,0.006115,
870,1170,1.963599,-6.371492,0.999997,0.000228,-0.004185,0.008815,-0.001097,0.008907,-0.004277,-85.211304,0.008909,
1150,180,0.062397,-14.360971,0.999997,0.000199,-0.000790,0.005025,0.000116,0.005027,-0.000792,88.860818,0.005406,
1690,1910,-0.471639,-0.754353,0.999997,0.000204,-0.002048,0.006589,0.001400,0.006811,-0.002270,81.016850,0.006936,
1110,1480,0.255661,-2.957063,0.999996,0.000214,-0.002653,0.005583,0.001292,0.005781,-0.002851,81.289171,0.005781,
1640,1830,-0.609173,-1.238950,0.999997,0.000219,-0.002259,0.006717,0.000789,0.006786,-0.002327,85.017036,0.006897,
1740,270,-1.028062,-13.395945,0.999997,0.000210,-0.003341,0.007514,-0.000412,0.007529,-0.003357,-87.828732,0.007544,
1430,1620,-0.410027,-2.289590,0.999997,0.000194,-0.002460,0.006141,-0.000529,0.006173,-0.002492,-86.490737,0.006211,
700,1520,1.727648,-3.801158,0.999997,0.000213,-0.003917,0.007739,0.000085,0.007740,-0.003918,89.581996,0.007740,
1430,1720,-0.336609,-1.683454,0.999997,0.000222,-0.002111,0.005946,-0.000203,0.005951,-0.002116,-88.555000,0.006034,
1590,1830,-0.496553,-1.181151,0.999997,0.000213,-0.002327,0.006386,0.000563,0.006422,-0.002364,86.316584,0.006496,
1120,1590,0.218934,-2.322665,0.999998,0.000159,-0.002095,0.005605,0.000555,0.005645,-0.002135,85.894944,0.005700,
740,1560,1.485437,-3.395138,0.999996,0.000234,-0.003883,0.007698,0.000186,0.007701,-0.003886,89.080412,0.007701,
1130,1540,0.203274,-2.584953,0.999997,0.000176,-0.002199,0.005486,0.000741,0.005557,-0.002270,84.541872,0.005588,
600,310,1.585601,-12.782588,0.999997,0.000190,-0.003665,0.007448,-0.000037,0.007448,-0.003665,-89.806752,0.007449,
1000,540,0.573643,-12.070747,0.999997,0.000220,-0.003356,0.006791,-0.001013,0.006891,-0.003456,-84.356112,0.006891,
940,810,1.330881,-9.622615,0.999995,0.000252,-0.005553,0.009616,0.000015,0.009616,-0.005553,89.941751,0.009655,
840,1970,0.185340,-0.355512,0.999997,0.000190,-0.000713,0.005634,-0.001325,0.005900,-0.000978,-78.671899,0.006323,
660,1180,2.736368,-6.483711,0.999996,0.000231,-0.003535,0.007296,-0.000616,0.007331,-0.003570,-86.752705,0.007332,
1800,1730,-1.395105,-2.284202,0.999996,0.000231,-0.003640,0.007561,0.000054,0.007561,-0.003641,89.721291,0.007563,
1240,1520,-0.015990,-2.591802,0.999998,0.000161,-0.001894,0.004955,-0.000141,0.004958,-0.001896,-88.821261,0.005003,
1350,310,-0.171647,-13.657727,0.999998,0.000170,-0.001590,0.005482,0.000122,0.005484,-0.001592,89.012327,0.005642,
790,1160,2.305212,-6.533505,0.999997,0.000241,-0.003732,0.008029,-0.000945,0.008105,-0.003807,-85.435987,0.008110,
1440,1500,-0.508726,-3.084878,0.999997,0.000222,-0.003254,0.006629,-0.001177,0.006767,-0.003393,-83.299548,0.006767,
700,130,0.572589,-14.384705,0.999996,0.000230,-0.002817,0.007149,0.001604,0.007401,-0.003069,81.079773,0.007437,
1270,120,-0.021449,-14.657346,0.999998,0.000165,-0.000458,0.004771,-0.000082,0.004772,-0.000459,-89.101513,0.005265,
1670,740,-1.839425,-9.876308,0.999997,0.000214,-0.004480,0.008353,-0.000491,0.008372,-0.004498,-87.812419,0.008380,
1290,1390,-0.103555,-3.245276,0.999998,0.000202,-0.001986,0.004234,-0.001341,0.004511,-0.002263,-78.336616,0.004511,
1480,1440,-0.697432,-3.639350,0.999996,0.000228,-0.004097,0.007435,-0.001288,0.007577,-0.004239,-83.705189,0.007595,
600,1230,2.827282,-6.205312,0.999997,0.000189,-0.003458,0.006975,-0.000309,0.006984,-0.003467,-88.305480,0.006984,
1470,480,-0.554425,-12.454497,0.999996,0.000211,-0.003037,0.006637,0.000777,0.006699,-0.003099,85.437163,0.006706,
810,1360,1.638107,-4.828648,0.999996,0.000253,-0.004589,0.008374,-0.000176,0.008376,-0.004591,-89.220915,0.008389,
970,1420,0.776731,-3.843197,0.999997,0.000214,-0.004398,0.007680,0.001274,0.007813,-0.004531,84.042521,0.007847,
1460,990,-1.840660,-8.005162,0.999996,0.000252,-0.003941,0.011626,0.000124,0.011627,-0.003942,89.544497,0.011826,
870,1150,2.033139,-6.548277,0.999998,0.000199,-0.003912,0.008637,-0.001052,0.008725,-0.003999,-85.239532,0.008735,
1400,360,-0.288250,-13.331444,0.999997,0.000196,-0.002056,0.005839,0.000291,0.005850,-0.002067,87.894734,0.005933,
1040,250,0.240337,-13.937350,0.999998,0.000168,-0.001595,0.005574,0.000081,0.005575,-0.001596,89.354546,0.005742,
1050,60,0.033980,-14.929973,0.999998,0.000182,-0.000320,0.004720,0.000375,0.004748,-0.000348,85.767743,0.005293,
1900,1550,-2.181735,-3.893336,0.999997,0.000000,-0.003728,0.007554,-0.000012,0.007554,-0.003728,-89.937522,0.007555,
1840,1070,-3.013578,-7.274360,0.999998,0.000193,-0.003140,0.006633,0.000148,0.006635,-0.003142,89.134041,0.006638,
700,1550,1.661270,-3.567879,0.999996,0.000232,-0.003864,0.007706,0.000114,0.007707,-0.003865,89.436700,0.007707,
1570,70,-0.105931,-14.861127,0.999998,0.000162,-0.000581,0.005293,-0.001001,0.005459,-0.000747,-80.588133,0.005920,
790,410,1.132276,-12.491755,0.999997,0.000204,-0.003535,0.007432,-0.000142,0.007434,-0.003537,-89.258332,0.007436,
1730,1810,-0.920775,-1.514019,0.999997,0.000189,-0.003080,0.007449,0.000691,0.007494,-0.003125,86.260483,0.007529,
570,1990,0.561279,-0.516258,0.999443,0.002733,-0.003011,0.009415,-0.003687,0.010427,-0.004023,-74.655679,0.010517,
600,870,2.930404,-8.599110,0.999996,0.000229,-0.003329,0.006813,0.000295,0.006822,-0.003338,88.334710,0.006823,
1850,400,-1.761033,-12.142117,0.999998,0.000177,-0.003730,0.007513,0.000116,0.007514,-0.003732,89.411435,0.007514,
1860,1680,-1.738939,-2.816024,0.999997,0.000195,-0.003697,0.007485,-0.000056,0.007485,-0.003697,-89.712202,0.007485,
1320,590,-0.175800,-12.159292,0.999998,0.000168,-0.002237,0.005160,0.001062,0.005309,-0.002386,81.986475,0.005318,
1190,230,0.042283,-14.113480,0.999998,0.000180,-0.001022,0.005086,0.000014,0.005086,-0.001022,89.866430,0.005381,
1040,800,0.716796,-10.272978,0.999995,0.000266,-0.005757,0.008862,-0.002102,0.009158,-0.006053,-81.976293,0.009315,
660,1160,2.775404,-6.629127,0.999997,0.000207,-0.003474,0.007132,-0.000486,0.007155,-0.003496,-87.381971,0.007155,
1740,250,-0.966652,-13.547516,0.999998,0.000169,-0.003279,0.007478,-0.000544,0.007505,-0.003307,-87.114453,0.007523,
1480,1460,-0.681650,-3.494477,0.999997,0.000230,-0.003884,0.007320,-0.001215,0.007450,-0.004015,-83.879620,0.007458,
1290,1370,-0.099805,-3.329529,0.999998,0.000176,-0.001977,0.004021,-0.001500,0.004375,-0.002332,-76.715914,0.004378,
1590,1790,-0.585404,-1.443503,0.999997,0.000218,-0.002626,0.006614,0.000333,0.006626,-0.002638,87.940426,0.006671,
1650,1170,-2.192013,-6.435499,0.999997,0.000252,-0.003878,0.008200,0.000972,0.008278,-0.003956,85.428490,0.008281,
590,1230,2.861355,-6.222821,0.999998,0.000166,-0.003437,0.006947,-0.000234,0.006952,-0.003442,-88.709380,0.006952,
1430,1600,-0.421090,-2.412994,0.999997,0.000194,-0.002562,0.006234,-0.000639,0.006281,-0.002608,-85.868935,0.006311,
860,710,1.441270,-10.286096,0.999995,0.000258,-0.004879,0.008633,-0.000027,0.008633,-0.004879,-89.883443,0.008658,
1780,640,-2.035598,-10.463608,0.999997,0.000188,-0.003967,0.007782,-0.000203,0.007786,-0.003971,-89.010067,0.007786,
1010,560,0.554602,-11.964188,0.999997,0.000217,-0.003419,0.006791,-0.001163,0.006922,-0.003550,-83.584750,0.006922,
1080,1720,0.243935,-1.629485,0.999998,0.000181,-0.001717,0.005687,0.000093,0.005688,-0.001719,89.280131,0.005835,
1800,1710,-1.442896,-2.436603,0.999995,0.000263,-0.003689,0.007583,-0.000001,0.007583,-0.003689,-89.992677,0.007584,
600,230,1.333458,-13.374650,0.999997,0.000249,-0.003655,0.007466,0.000182,0.007469,-0.003658,89.061267,0.007469,
910,1480,0.950824,-3.574039,0.999996,0.000238,-0.004066,0.007730,0.000752,0.007778,-0.004114,86.365126,0.007782,
700,1500,1.770670,-3.955048,0.999997,0.000199,-0.003953,0.007739,0.000067,0.007740,-0.003953,89.671147,0.007740,
1440,1480,-0.517426,-3.218020,0.999997,0.000229,-0.003394,0.006728,-0.001271,0.006885,-0.003551,-82.949780,0.006886,
1100,1590,0.259620,-2.346959,0.999997,0.000187,-0.002229,0.005766,0.000616,0.005813,-0.002276,85.618319,0.005859,
1510,850,-1.426366,-9.274209,0.999995,0.000300,-0.005388,0.009905,-0.000321,0.009911,-0.005395,-88.796703,0.009924,
1720,1130,-2.541189,-6.796523,0.999996,0.000236,-0.003455,0.007491,0.000641,0.007528,-0.003492,86.658337,0.007535,
1290,180,-0.045493,-14.362577,0.999998,0.000154,-0.000705,0.004951,-0.000101,0.004953,-0.000707,-88.973658,0.005358,
1820,340,-1.505579,-12.673942,0.999997,0.000231,-0.003748,0.007536,0.000004,0.007536,-0.003748,89.978437,0.007536,
1010,1660,0.437093,-2.079549,0.999997,0.000212,-0.002351,0.006197,0.000344,0.006210,-0.002364,87.700418,0.006269,
1000,520,0.561689,-12.204244,0.999997,0.000217,-0.003202,0.006715,-0.000932,0.006801,-0.003288,-84.676546,0.006803,
1470,120,-0.130447,-14.622744,0.999998,0.000153,-0.000672,0.005220,-0.000586,0.005278,-0.000729,-84.376374,0.005720,
1690,1890,-0.549913,-0.895927,0.999997,0.000203,-0.002272,0.006733,0.001286,0.006913,-0.002453,82.027507,0.007010,
1470,560,-0.614516,-11.912853,0.999996,0.000237,-0.003628,0.006999,0.001150,0.007122,-0.003751,83.895962,0.007125,
1170,1260,0.134962,-3.719027,0.999998,0.000176,-0.002665,0.002927,0.002468,0.003860,-0.003599,69.286075,0.004314,
1240,1500,-0.016094,-2.690222,0.999998,0.000166,-0.001874,0.004818,-0.000160,0.004821,-0.001877,-88.630888,0.004860,
950,1730,0.506639,-1.731313,0.999998,0.000192,-0.002447,0.006522,0.000033,0.006522,-0.002447,89.789027,0.006589,
1340,1480,-0.221906,-2.920516,0.999997,0.000198,-0.002443,0.005438,-0.001146,0.005601,-0.002606,-81.892679,0.005605,
1520,1070,-2.021227,-7.171402,0.999997,0.000190,-0.002990,0.009282,0.000624,0.009314,-0.003022,87.095300,0.009503,
670,1860,0.952196,-1.275312,0.999996,0.000226,-0.003246,0.007665,-0.000979,0.007752,-0.003333,-84.911227,0.007777,
570,490,2.120608,-11.358629,0.999988,0.000428,-0.003536,0.007640,0.000019,0.007640,-0.003536,89.903185,0.007647,
1460,1490,-0.581104,-3.209890,0.999996,0.000244,-0.003540,0.006928,-0.001213,0.007067,-0.003679,-83.473833,0.007069,
1400,340,-0.274063,-13.447824,0.999997,0.000189,-0.001946,0.005768,0.000191,0.005773,-0.001951,88.584496,0.005873,
610,1970,0.561795,-0.581930,0.999996,0.000224,-0.003456,0.008373,-0.001893,0.008669,-0.003752,-81.127862,0.008695,
1270,1240,-0.114644,-3.630093,0.999997,0.000205,-0.002963,0.002029,-0.001365,0.002378,-0.003312,-75.664328,0.003415,
1620,950,-2.252159,-8.173335,0.999997,0.000195,-0.003314,0.008026,-0.000800,0.008082,-0.003370,-85.984906,0.008119,
1560,1980,-0.109390,-0.282187,0.999998,0.000147,-0.000508,0.005247,0.000957,0.005402,-0.000663,80.805504,0.005893,
1900,1540,-2.204438,-3.969067,0.999998,0.000000,-0.003728,0.007556,-0.000004,0.007556,-0.003728,-89.981115,0.007556,
790,390,1.091457,-12.640997,0.999998,0.000159,-0.003461,0.007434,-0.000091,0.007435,-0.003462,-89.522346,0.007441,
800,2010,0.084704,-0.138906,0.999998,0.000176,-0.000629,0.005437,-0.001407,0.005747,-0.000940,-77.559289,0.006166,
600,850,2.884932,-8.740396,0.999998,0.000186,-0.003400,0.007006,0.000358,0.007018,-0.003412,88.030754,0.007019,
1580,1310,-1.422274,-5.077735,0.999996,0.000247,-0.005079,0.008895,0.000050,0.008895,-0.005079,89.794387,0.008925,
1730,1790,-0.980587,-1.666700,0.999998,0.000193,-0.003153,0.007463,0.000527,0.007489,-0.003179,87.164672,0.007517,
1480,1480,-0.662163,-3.349183,0.999997,0.000220,-0.003768,0.007211,-0.001161,0.007333,-0.003889,-84.026951,0.007337,
1290,1350,-0.097532,-3.407857,0.999998,0.000179,-0.002015,0.003869,-0.001664,0.004307,-0.002453,-75.252366,0.004321,
1320,570,-0.177806,-12.263966,0.999998,0.000163,-0.002214,0.005226,0.000962,0.005348,-0.002336,82.748953,0.005362,
1180,30,0.004203,-15.072408,0.999999,0.000000,0.000092,0.004499,0.000043,0.004500,0.000091,89.443596,0.005249,
910,770,1.356995,-9.895398,0.999995,0.000244,-0.005293,0.009188,-0.000002,0.009188,-0.005293,-89.993063,0.009223,
1540,1930,-0.204083,-0.550808,0.999998,0.000183,-0.000849,0.005557,0.000851,0.005668,-0.000960,82.562327,0.006067,
1590,1770,-0.627935,-1.579564,0.999998,0.000189,-0.002731,0.006691,0.000231,0.006697,-0.002737,88.597392,0.006734,
1040,780,0.662746,-10.448107,0.999996,0.000240,-0.005526,0.008595,-0.002240,0.008942,-0.005873,-81.199948,0.009087,
1410,1620,-0.361615,-2.255246,0.999997,0.000202,-0.002468,0.006054,-0.000606,0.006097,-0.002511,-85.953717,0.006128,
1720,270,-0.965815,-13.433942,0.999997,0.000187,-0.003045,0.007407,-0.000536,0.007434,-0.003073,-87.074634,0.007471,
580,1230,2.894786,-6.243048,0.999998,0.000170,-0.003447,0.006940,-0.000153,0.006943,-0.003450,-89.157381,0.006943,
1320,1330,-0.167486,-3.615943,0.999997,0.000196,-0.002703,0.004525,-0.002463,0.005284,-0.003462,-72.864737,0.005368,
710,1480,1.774055,-4.087236,0.999996,0.000222,-0.004013,0.007773,0.000028,0.007773,-0.004013,89.863629,0.007775,
650,1860,1.016564,-1.317299,0.999997,0.000202,-0.003300,0.007727,-0.000850,0.007792,-0.003365,-85.616213,0.007816,
1080,1700,0.253313,-1.742289,0.999998,0.000179,-0.001839,0.005700,0.000188,0.005705,-0.001844,88.572344,0.005822,
1030,380,0.378490,-13.160362,0.999998,0.000179,-0.002259,0.006136,-0.000310,0.006148,-0.002270,-87.889273,0.006217,
980,190,0.244836,-14.236539,0.999997,0.000189,-0.001327,0.005619,0.000462,0.005650,-0.001357,86.214981,0.005898,
740,1580,1.445325,-3.238824,0.999997,0.000223,-0.003836,0.007684,0.000187,0.007687,-0.003839,89.071086,0.007687,
1270,1220,-0.171291,-3.669580,0.999993,0.000316,-0.004100,0.002196,-0.000498,0.002235,-0.004139,-85.505809,0.004143,
1460,970,-1.772600,-8.225234,0.999995,0.000285,-0.004081,0.011222,0.000141,0.011223,-0.004083,89.472922,0.011361,
1900,1750,-1.705899,-2.408966,0.999996,0.000000,-0.003628,0.007276,-0.000065,0.007277,-0.003629,-89.660232,0.007277,
1860,1660,-1.789059,-2.967350,0.999997,0.000201,-0.003731,0.007495,-0.000089,0.007496,-0.003732,-89.545584,0.007496,
700,1480,1.815229,-4.110882,0.999997,0.000187,-0.003984,0.007767,0.000022,0.007767,-0.003984,89.894884,0.007768,
650,980,2.923990,-7.889312,0.999997,0.000223,-0.003247,0.006804,0.000151,0.006807,-0.003249,89.140028,0.006809,
610,1950,0.698390,-0.737934,0.999996,0.000223,-0.003544,0.008032,-0.001417,0.008203,-0.003715,-83.120895,0.008215,
1460,1470,-0.596021,-3.353418,0.999997,0.000228,-0.003727,0.007041,-0.001332,0.007203,-0.003890,-83.050773,0.007211,
1500,1130,-1.732640,-6.554778,0.999997,0.000205,-0.004295,0.009959,0.000804,0.010004,-0.004340,86.783601,0.010033,
670,800,2.512083,-9.202973,0.999996,0.000227,-0.003796,0.007576,0.000641,0.007612,-0.003832,86.785699,0.007612,
970,700,0.869670,-10.753110,0.999997,0.000191,-0.004966,0.008430,-0.001246,0.008545,-0.005081,-84.732089,0.008596,
1780,620,-1.986172,-10.618382,0.999998,0.000144,-0.003947,0.007798,-0.000117,0.007799,-0.003949,-89.430111,0.007799,
1440,1460,-0.529194,-3.348863,0.999996,0.000228,-0.003592,0.006845,-0.001415,0.007033,-0.003781,-82.413089,0.007040,
1730,1770,-1.038487,-1.816050,0.999998,0.000189,-0.003233,0.007463,0.000396,0.007477,-0.003248,87.884008,0.007499,
950,1710,0.538836,-1.865652,0.999998,0.000198,-0.002550,0.006468,0.000126,0.006470,-0.002551,89.200776,0.006518,
1560,1960,-0.152105,-0.388780,0.999998,0.000164,-0.000712,0.005379,0.000941,0.005521,-0.000854,81.411473,0.005944,
870,1130,2.092357,-6.718767,0.999997,0.000209,-0.003625,0.008532,-0.001065,0.008625,-0.003717,-85.032869,0.008652,
1240,1480,-0.014729,-2.783958,0.999998,0.000169,-0.001856,0.004688,-0.000174,0.004693,-0.001861,-88.474124,0.004726,
840,1950,0.237499,-0.466629,0.999997,0.000194,-0.000929,0.005789,-0.001255,0.006015,-0.001156,-79.752534,0.006384,
1560,1310,-1.320528,-5.018594,0.999994,0.000275,-0.005210,0.008981,-0.000145,0.008983,-0.005212,-89.414855,0.009021,
840,730,1.591643,-10.061559,0.999995,0.000284,-0.004775,0.008613,0.000230,0.008617,-0.004779,89.014212,0.008634,
1190,210,0.042579,-14.214661,0.999998,0.000177,-0.000902,0.005026,0.000013,0.005026,-0.000902,89.873610,0.005359,
1650,1610,-1.115785,-2.837013,0.999998,0.000168,-0.003583,0.007444,-0.000268,0.007450,-0.003589,-88.608001,0.007452,
1500,1070,-1.958709,-7.145735,0.999998,0.000135,-0.003155,0.009771,0.000522,0.009792,-0.003176,87.689913,0.009991,
1820,810,-2.638794,-9.087970,0.999997,0.000218,-0.003636,0.007327,-0.000529,0.007352,-0.003661,-87.244890,0.007352,
1480,1920,-0.159118,-0.580831,0.999998,0.000172,-0.000863,0.005312,0.000578,0.005365,-0.000917,84.700895,0.005740,
660,1140,2.808553,-6.772507,0.999997,0.000186,-0.003397,0.007048,-0.000470,0.007069,-0.003418,-87.431163,0.007070,
1290,1330,-0.096315,-3.479669,0.999998,0.000198,-0.002067,0.003590,-0.001893,0.004164,-0.002641,-73.104465,0.004214,
1620,530,-1.148806,-11.712320,0.999998,0.000149,-0.003951,0.007717,0.000434,0.007733,-0.003967,87.873096,0.007734,
1430,1520,-0.465631,-2.924376,0.999997,0.000192,-0.003132,0.006492,-0.001136,0.006624,-0.003264,-83.358929,0.006625,
1590,1750,-0.666795,-1.710869,0.999998,0.000179,-0.002840,0.006761,0.000137,0.006763,-0.002842,89.183935,0.006792,
990,1660,0.485883,-2.111729,0.999997,0.000209,-0.002626,0.006379,0.000412,0.006398,-0.002645,87.385614,0.006430,
1690,1870,-0.613589,-1.025612,0.999997,0.000211,-0.002457,0.006886,0.001081,0.007010,-0.002580,83.486812,0.007091,
640,190,1.031350,-13.813059,0.999997,0.000206,-0.003424,0.007706,0.000711,0.007751,-0.003469,86.361727,0.007766,
1140,260,0.106989,-13.946931,0.999998,0.000148,-0.001332,0.005256,-0.000030,0.005256,-0.001332,-89.740279,0.005465,
1850,1620,-1.840935,-3.242646,0.999997,0.000214,-0.003732,0.007538,-0.000097,0.007539,-0.003733,-89.508704,0.007539,
750,1480,1.613808,-3.993497,0.999996,0.000225,-0.004076,0.007853,0.000089,0.007854,-0.004077,89.570879,0.007855,
570,1230,2.929186,-6.263344,0.999996,0.000224,-0.003460,0.006919,-0.000084,0.006920,-0.003461,-89.535504,0.006920,
1270,180,-0.031193,-14.365397,0.999999,0.000131,-0.000747,0.004931,-0.000046,0.004931,-0.000747,-89.536805,0.005316,
1300,1330,-0.118466,-3.517167,0.999997,0.000236,-0.002273,0.003873,-0.002101,0.004523,-0.002922,-72.817800,0.004587,
1320,550,-0.177536,-12.368360,0.999998,0.000175,-0.002198,0.005272,0.000877,0.005374,-0.002299,83.393043,0.005392,
1440,1490,-0.514289,-3.151485,0.999997,0.000237,-0.003318,0.006672,-0.001230,0.006822,-0.003467,-83.082172,0.006822,
650,1840,1.096989,-1.473276,0.999997,0.000213,-0.003405,0.007731,-0.000690,0.007773,-0.003448,-86.466513,0.007790,
1260,1220,-0.131711,-3.622644,0.999994,0.000297,-0.004409,0.002189,-0.000243,0.002198,-0.004418,-87.890010,0.004418,
1040,760,0.615769,-10.619016,0.999996,0.000231,-0.005265,0.008292,-0.002275,0.008664,-0.005637,-80.722512,0.008794,
630,980,2.988543,-7.882033,0.999998,0.000188,-0.003211,0.006654,0.000128,0.006655,-0.003213,89.256194,0.006657,
610,1930,0.818684,-0.900896,0.999997,0.000201,-0.003617,0.007978,-0.001070,0.008076,-0.003715,-84.772123,0.008085,
700,1460,1.861145,-4.268233,0.999998,0.000174,-0.003984,0.007814,-0.000020,0.007814,-0.003984,-89.903716,0.007815,
1800,810,-2.565440,-9.117512,0.999996,0.000245,-0.003713,0.007475,-0.000615,0.007508,-0.003747,-86.863935,0.007508,
1730,1750,-1.090714,-1.967142,0.999998,0.000185,-0.003310,0.007425,0.000276,0.007432,-0.003317,88.528746,0.007446,
1170,2020,0.006606,-0.070227,0.999998,0.000000,-0.000050,0.004458,-0.000098,0.004460,-0.000052,-88.753111,0.005120,
1000,500,0.547711,-12.338981,0.999996,0.000227,-0.003100,0.006662,-0.000876,0.006740,-0.003178,-84.910264,0.006744,
1650,1590,-1.150863,-2.987282,0.999998,0.000160,-0.003688,0.007521,-0.000290,0.007529,-0.003696,-88.520571,0.007529,
1010,380,0.423754,-13.132988,0.999997,0.000212,-0.002292,0.006200,-0.000269,0.006209,-0.002300,-88.189309,0.006278,
1090,190,0.121616,-14.291794,0.999998,0.000167,-0.000870,0.005192,0.000216,0.005200,-0.000877,87.959926,0.005567,
1350,290,-0.164460,-13.765480,0.999998,0.000152,-0.001511,0.005464,0.000075,0.005464,-0.001511,89.385358,0.005643,
1230,1210,0.010242,-3.593353,0.999993,0.000327,-0.006582,0.002385,-0.000074,0.002385,-0.006583,-89.528085,0.006665,
990,1800,0.324679,-1.251058,0.999998,0.000200,-0.001644,0.005890,-0.000249,0.005899,-0.001652,-88.108729,0.006086,
1480,1900,-0.187982,-0.687345,0.999998,0.000167,-0.000990,0.005412,0.000557,0.005460,-0.001038,85.061139,0.005799,
1900,1760,-1.677402,-2.335393,0.999997,0.000000,-0.003637,0.007253,-0.000048,0.007253,-0.003638,-89.745317,0.007253,
1780,600,-1.940690,-10.775561,0.999998,0.000155,-0.003927,0.007790,-0.000037,0.007790,-0.003927,-89.817604,0.007790,
1560,1940,-0.194444,-0.497852,0.999998,0.000180,-0.000860,0.005592,0.000937,0.005726,-0.000993,81.902000,0.006119,
1430,800,-0.759442,-10.221275,0.999994,0.000322,-0.005773,0.009053,0.001976,0.009312,-0.006031,82.537021,0.009446,
870,370,0.794964,-12.950625,0.999998,0.000180,-0.003091,0.006935,-0.000135,0.006937,-0.003093,-89.226364,0.006950,
1290,1310,-0.095401,-3.544628,0.999997,0.000199,-0.002140,0.003365,-0.002089,0.004068,-0.002843,-71.402152,0.004174,
1490,60,-0.055856,-14.925342,0.999998,0.000138,-0.000390,0.004901,-0.000640,0.004977,-0.000466,-83.198867,0.005498,
920,810,1.440710,-9.551775,0.999997,0.000219,-0.005334,0.009450,0.000294,0.009456,-0.005340,88.861501,0.009482,
950,1160,1.649730,-6.299282,0.999996,0.000258,-0.004742,0.009850,-0.000820,0.009896,-0.004788,-86.794579,0.009897,
590,1290,2.714485,-5.797810,0.999996,0.000246,-0.003615,0.007312,-0.000224,0.007317,-0.003619,-88.825290,0.007317,
950,1910,0.210325,-0.647894,0.999998,0.000185,-0.001202,0.005541,-0.000642,0.005601,-0.001263,-84.607863,0.005876,
1830,100,-0.583135,-14.504812,0.999996,0.000237,-0.003187,0.007853,-0.001722,0.008115,-0.003449,-81.338892,0.008146,
1240,1460,-0.016528,-2.877431,0.999998,0.000157,-0.001808,0.004532,-0.000192,0.004538,-0.001813,-88.263031,0.004568,
830,110,0.262014,-14.621747,0.999998,0.000182,-0.000975,0.005902,0.001312,0.006144,-0.001216,79.560145,0.006507,
1590,1730,-0.706398,-1.852949,0.999997,0.000180,-0.002910,0.006974,0.000078,0.006975,-0.002910,89.550092,0.007006,
1440,1440,-0.539974,-3.491681,0.999996,0.000247,-0.003798,0.006977,-0.001578,0.007203,-0.004025,-81.839261,0.007219,
1510,830,-1.337869,-9.474295,0.999995,0.000281,-0.005541,0.009823,-0.000096,0.009823,-0.005542,-89.642772,0.009850,
910,1510,0.909851,-3.346002,0.999997,0.000222,-0.003910,0.007570,0.000741,0.007617,-0.003958,86.323329,0.007619,
1820,1070,-2.949846,-7.266705,0.999997,0.000203,-0.003218,0.006807,0.000162,0.006810,-0.003221,89.072653,0.006813,
900,1990,0.090252,-0.230791,0.999998,0.000170,-0.000462,0.005203,-0.000962,0.005362,-0.000621,-80.621563,0.005866,
1040,1030,1.700356,-7.521796,0.999989,0.000404,-0.007050,0.016511,0.000139,0.016512,-0.007051,89.662991,0.016570,
1190,190,0.036439,-14.313022,0.999998,0.000159,-0.000808,0.004992,0.000055,0.004993,-0.000808,89.458809,0.005360,
1560,1010,-2.168075,-7.706759,0.999996,0.000237,-0.002697,0.008367,-0.000337,0.008377,-0.002707,-88.259119,0.008550,
750,90,0.294241,-14.704186,0.999997,0.000187,-0.001055,0.006078,0.001794,0.006504,-0.001481,76.651187,0.006818,
640,170,0.939508,-13.971775,0.999997,0.000186,-0.003390,0.007822,0.000943,0.007901,-0.003469,85.225823,0.007920,
970,1480,0.712303,-3.388993,0.999997,0.000204,-0.003818,0.007326,0.001089,0.007431,-0.003923,84.470262,0.007435,
1300,1310,-0.118814,-3.594075,0.999996,0.000241,-0.002366,0.003664,-0.002347,0.004470,-0.003172,-71.050047,0.004599,
1830,1620,-1.765539,-3.193829,0.999998,0.000196,-0.003792,0.007562,-0.000079,0.007563,-0.003792,-89.600851,0.007563,
1220,470,0.021757,-12.857109,0.999999,0.000138,-0.001880,0.005183,-0.000148,0.005186,-0.001883,-88.797127,0.005250,
1550,420,-0.736385,-12.688624,0.999998,0.000174,-0.003207,0.006990,0.000404,0.007006,-0.003223,87.732818,0.007014,
780,530,1.399395,-11.551472,0.999997,0.000200,-0.003990,0.007787,-0.000230,0.007792,-0.003994,-88.882611,0.007793,
1440,1530,-0.491496,-2.887430,0.999998,0.000196,-0.003156,0.006575,-0.001075,0.006692,-0.003273,-83.770619,0.006693,
1880,1510,-2.196261,-4.152019,0.999996,0.000224,-0.003807,0.007635,0.000010,0.007635,-0.003807,89.952430,0.007635,
1860,1750,-1.560864,-2.292126,0.999997,0.000216,-0.003663,0.007492,0.000001,0.007492,-0.003663,89.992303,0.007493,
1690,1850,-0.684180,-1.172822,0.999997,0.000189,-0.002634,0.007050,0.000965,0.007145,-0.002729,84.363594,0.007211,
1040,740,0.585816,-10.779278,0.999996,0.000234,-0.004979,0.007967,-0.002258,0.008350,-0.005361,-80.384041,0.008461,
1890,880,-3.036545,-8.490401,0.999998,0.000156,-0.003244,0.006392,-0.000070,0.006392,-0.003245,-89.584073,0.006392,
890,1420,1.132071,-4.110381,0.999998,0.000169,-0.004537,0.008159,0.000583,0.008185,-0.004564,87.376995,0.008203,
610,1910,0.929910,-1.059017,0.999997,0.000194,-0.003653,0.007771,-0.000763,0.007822,-0.003704,-86.195390,0.007825,
1140,700,0.174384,-11.608848,0.999997,0.000195,-0.002622,0.004727,-0.002207,0.005339,-0.003234,-74.503039,0.005379,
1520,1930,-0.186031,-0.542543,0.999998,0.000202,-0.000965,0.005452,0.000727,0.005533,-0.001047,83.615227,0.005879,
1650,1570,-1.185049,-3.135822,0.999997,0.000172,-0.003797,0.007580,-0.000301,0.007588,-0.003805,-88.487650,0.007588,
1900,1770,-1.649217,-2.262045,0.999997,0.000000,-0.003654,0.007216,-0.000033,0.007216,-0.003654,-89.825494,0.007216,
700,1440,1.906979,-4.424003,0.999997,0.000182,-0.003988,0.007822,-0.000074,0.007823,-0.003988,-89.638878,0.007823,
1410,520,-0.398051,-12.346421,0.999996,0.000230,-0.002780,0.006197,0.000984,0.006303,-0.002886,83.818330,0.006311,
1090,210,0.140823,-14.183331,0.999998,0.000157,-0.001004,0.005290,0.000198,0.005296,-0.001011,88.199719,0.005623,
1780,580,-1.893499,-10.931372,0.999997,0.000177,-0.003913,0.007710,-0.000027,0.007710,-0.003913,-89.866496,0.007710,
620,890,2.900242,-8.488315,0.999996,0.000234,-0.003349,0.006837,0.000334,0.006848,-0.003360,88.124662,0.006848,
1560,1920,-0.241139,-0.612340,0.999998,0.000180,-0.001069,0.005678,0.000875,0.005790,-0.001181,82.729830,0.006119,
1860,1640,-1.832581,-3.117377,0.999997,0.000202,-0.003713,0.007472,-0.000097,0.007472,-0.003714,-89.503454,0.007472,
760,130,0.445456,-14.449416,0.999998,0.000171,-0.001668,0.006608,0.001636,0.006919,-0.001979,79.212717,0.007127,
1220,1210,0.078494,-3.600747,0.999990,0.000364,-0.006277,0.002304,-0.000145,0.002306,-0.006280,-89.031469,0.006353,
1290,1290,-0.102177,-3.606433,0.999997,0.000225,-0.002226,0.003139,-0.002275,0.003974,-0.003061,-69.849911,0.004163,
1170,1190,0.478111,-3.892880,0.999995,0.000000,-0.004617,0.002186,0.000135,0.002189,-0.004620,88.865513,0.004622,
1480,1880,-0.218644,-0.795564,0.999998,0.000170,-0.001173,0.005507,0.000468,0.005540,-0.001206,86.010956,0.005826,
1730,1730,-1.142318,-2.114575,0.999998,0.000176,-0.003439,0.007467,0.000127,0.007469,-0.003440,89.333276,0.007477,
580,1290,2.750045,-5.820649,0.999997,0.000233,-0.003851,0.007229,-0.000129,0.007231,-0.003852,-89.333249,0.007236,
1760,530,-1.704118,-11.365359,0.999996,0.000233,-0.003925,0.007741,0.000097,0.007742,-0.003926,89.523633,0.007742,
1440,1420,-0.556194,-3.634873,0.999996,0.000231,-0.003977,0.007068,-0.001686,0.007320,-0.004228,-81.513864,0.007349,
830,90,0.206251,-14.731428,0.999998,0.000173,-0.000754,0.005701,0.001361,0.005977,-0.001029,78.570134,0.006391,
870,1110,2.155168,-6.891045,0.999997,0.000232,-0.003377,0.008342,-0.000911,0.008412,-0.003447,-85.581593,0.008458,
930,1160,1.741091,-6.353828,0.999996,0.000246,-0.004532,0.009522,-0.001002,0.009593,-0.004603,-85.942979,0.009596,
1590,1710,-0.742924,-1.993046,0.999997,0.000191,-0.003021,0.006873,-0.000044,0.006873,-0.003021,-89.747896,0.006890,
950,150,0.219366,-14.443338,0.999997,0.000189,-0.001233,0.005580,0.000650,0.005642,-0.001294,84.596575,0.005911,
990,1480,0.636742,-3.325011,0.999997,0.000202,-0.003731,0.007147,0.001204,0.007278,-0.003863,83.761330,0.007283,
1800,1070,-2.884666,-7.262071,0.999998,0.000205,-0.003265,0.006949,0.000168,0.006951,-0.003268,89.056563,0.006956,
1240,1440,-0.014327,-2.966182,0.999998,0.000160,-0.001755,0.004340,-0.000233,0.004349,-0.001764,-87.809705,0.004374,
1830,80,-0.443490,-14.662257,0.999996,0.000231,-0.002987,0.007954,-0.002110,0.008346,-0.003380,-79.452161,0.008397,
570,740,2.727728,-9.456776,0.999923,0.001013,-0.004575,0.008266,0.000073,0.008266,-0.004576,89.674874,0.008282,
1890,1620,-1.988726,-3.339193,0.999997,0.000223,-0.003678,0.007489,-0.000006,0.007489,-0.003678,-89.967694,0.007490,
1030,1050,1.749228,-7.228591,0.999989,0.000395,-0.005839,0.014971,0.000881,0.015008,-0.005876,87.580933,0.015125,
1640,490,-1.156304,-11.968837,0.999998,0.000178,-0.003820,0.007595,0.000336,0.007605,-0.003829,88.314460,0.007605,
1170,1240,0.181071,-3.774199,0.999997,0.000195,-0.002999,0.002738,0.002245,0.003512,-0.003774,70.972784,0.004215,
1880,880,-3.004051,-8.507767,0.999998,0.000144,-0.003249,0.006525,-0.000123,0.006526,-0.003250,-89.277794,0.006526,
920,1990,0.083114,-0.228973,0.999998,0.000152,-0.000318,0.005151,-0.000906,0.005297,-0.000465,-80.833046,0.005867,
1190,170,0.033173,-14.414598,0.999998,0.000166,-0.000716,0.004970,0.000065,0.004971,-0.000717,89.345326,0.005374,
1870,1510,-2.158020,-4.128364,0.999997,0.000194,-0.003815,0.007626,-0.000006,0.007626,-0.003815,-89.969035,0.007626,
1450,180,-0.194973,-14.308836,0.999999,0.000220,-0.001068,0.005392,-0.000386,0.005415,-0.001091,-86.594563,0.005727,
1820,1080,-2.944601,-7.198982,0.999998,0.000201,-0.003227,0.006780,0.000140,0.006782,-0.003229,89.200326,0.006785,
870,1420,1.223451,-4.168370,0.999997,0.000205,-0.004524,0.008217,0.000438,0.008232,-0.004539,88.034989,0.008246,
970,1040,1.991890,-7.439162,0.999997,0.000237,-0.002994,0.009935,-0.000140,0.009936,-0.002996,-89.380121,0.010194,
1450,120,-0.119312,-14.626492,0.999998,0.000161,-0.000657,0.005147,-0.000529,0.005195,-0.000705,-84.830094,0.005636,
610,1890,1.023279,-1.210979,0.999998,0.000172,-0.003632,0.007752,-0.000554,0.007779,-0.003659,-87.219654,0.007783,
1860,1730,-1.614473,-2.443390,0.999997,0.000205,-0.003661,0.007465,-0.000087,0.007466,-0.003662,-89.552272,0.007466,
1410,500,-0.391421,-12.465814,0.999997,0.000198,-0.002665,0.006152,0.000855,0.006235,-0.002747,84.509590,0.006249,
1560,1900,-0.285338,-0.726450,0.999998,0.000187,-0.001244,0.005835,0.000859,0.005937,-0.001346,83.181331,0.006226,
1200,470,0.058826,-12.846755,0.999998,0.000169,-0.001853,0.005184,-0.000228,0.005191,-0.001861,-88.148667,0.005260,
620,870,2.864167,-8.627615,0.999997,0.000191,-0.003425,0.007015,0.000449,0.007035,-0.003444,87.542186,0.007035,
700,680,2.070929,-10.182956,0.999998,0.000202,-0.004023,0.007864,0.000337,0.007874,-0.004032,88.375515,0.007874,
1900,1780,-1.619336,-2.190858,0.999998,0.000000,-0.003672,0.007197,0.000009,0.007197,-0.003672,89.955041,0.007197,
1040,720,0.553433,-10.940379,0.999996,0.000229,-0.004719,0.007650,-0.002204,0.008031,-0.005100,-80.191721,0.008128,
1210,1210,0.136578,-3.621316,0.999992,0.000333,-0.005864,0.002307,-0.000126,0.002309,-0.005866,-89.119872,0.005910,
1870,320,-1.637914,-12.687110,0.999997,0.000190,-0.003661,0.007445,0.000061,0.007446,-0.003661,89.684291,0.007446,
1730,1710,-1.189322,-2.265529,0.999998,0.000180,-0.003550,0.007496,0.000091,0.007497,-0.003550,89.530299,0.007501,
790,370,1.051311,-12.789222,0.999998,0.000179,-0.003418,0.007348,-0.000067,0.007349,-0.003419,-89.642240,0.007354,
1850,1900,-0.967119,-1.124594,0.999998,0.000190,-0.003672,0.007743,0.000658,0.007781,-0.003709,86.712893,0.007784,
1090,230,0.153177,-14.079835,0.999998,0.000186,-0.001106,0.005331,0.000157,0.005335,-0.001110,88.606943,0.005630,
1590,1690,-0.777367,-2.127757,0.999997,0.000197,-0.003108,0.006914,-0.000142,0.006916,-0.003110,-89.190398,0.006927,
1780,560,-1.847192,-11.085753,0.999997,0.000187,-0.003914,0.007708,0.000024,0.007708,-0.003914,89.880274,0.007708,
1440,1400,-0.567592,-3.776999,0.999996,0.000228,-0.004161,0.007276,-0.001757,0.007540,-0.004425,-81.461407,0.007578,
810,1160,2.230759,-6.517117,0.999997,0.000221,-0.003794,0.008155,-0.000972,0.008234,-0.003872,-85.377637,0.008239,
1400,320,-0.258596,-13.562971,0.999998,0.000187,-0.001841,0.005756,0.000105,0.005757,-0.001843,89.207228,0.005880,
990,1780,0.350185,-1.369940,0.999997,0.000214,-0.001784,0.006002,-0.000170,0.006006,-0.001788,-88.746544,0.006168,
1290,1710,-0.091898,-1.618670,0.999998,0.000148,-0.001513,0.005390,-0.000038,0.005390,-0.001513,-89.687327,0.005560,
1480,1860,-0.246469,-0.907082,0.999998,0.000177,-0.001311,0.005656,0.000450,0.005685,-0.001340,86.322405,0.005944,
1020,1050,1.799454,-7.255861,0.999994,0.000304,-0.004947,0.013693,0.000495,0.013706,-0.004960,88.480014,0.013879,
1270,60,-0.007236,-14.937002,0.999998,0.000137,-0.000141,0.004561,-0.000083,0.004562,-0.000143,-88.991612,0.005188,
870,1480,1.115447,-3.689758,0.999997,0.000225,-0.004186,0.007885,0.000548,0.007910,-0.004211,87.406134,0.007916,
1880,1620,-1.950658,-3.315383,0.999997,0.000217,-0.003676,0.007493,-0.000031,0.007493,-0.003676,-89.843208,0.007494,
1640,470,-1.122102,-12.119074,0.999997,0.000207,-0.003709,0.007501,0.000324,0.007510,-0.003718,88.347522,0.007511,
950,1170,1.601915,-6.201911,0.999995,0.000258,-0.004902,0.009871,-0.000756,0.009909,-0.004941,-87.077036,0.009909,
1510,810,-1.260179,-9.672060,0.999995,0.000271,-0.005632,0.009691,0.000155,0.009692,-0.005634,89.418839,0.009735,
1520,1510,-0.783399,-3.248692,0.999997,0.000191,-0.003693,0.007330,-0.000853,0.007395,-0.003759,-85.598981,0.007396,
1820,1040,-2.968877,-7.473222,0.999997,0.000202,-0.003251,0.006886,0.000166,0.006889,-0.003254,89.063474,0.006893,
650,1100,2.906901,-7.059101,0.999997,0.000185,-0.003284,0.006926,-0.000322,0.006936,-0.003294,-88.195847,0.006939,
1240,1420,-0.013909,-3.051125,0.999998,0.000152,-0.001692,0.004105,-0.000237,0.004114,-0.001702,-87.662673,0.004135,
570,480,2.098536,-11.434340,0.999992,0.000372,-0.003537,0.007563,-0.000024,0.007563,-0.003537,-89.874781,0.007569,
1170,1220,0.252876,-3.822651,0.999991,0.000340,-0.003454,0.002649,0.001382,0.002947,-0.003752,77.816095,0.003951,
1430,180,-0.171443,-14.319356,0.999998,0.000179,-0.001133,0.005324,-0.000329,0.005341,-0.001150,-87.093460,0.005622,
1520,1390,-0.941546,-4.181771,0.999997,0.000192,-0.004687,0.008242,-0.000995,0.008318,-0.004763,-85.626532,0.008347,
1860,750,-2.628521,-9.461430,0.999997,0.000211,-0.003637,0.007348,-0.000295,0.007356,-0.003645,-88.462576,0.007356,
610,1870,1.118989,-1.370475,0.999998,0.000195,-0.003635,0.007678,-0.000439,0.007695,-0.003652,-87.782555,0.007699,
1870,880,-2.971363,-8.521799,0.999998,0.000162,-0.003264,0.006645,-0.000202,0.006649,-0.003268,-88.830759,0.006649,
1840,1730,-1.541430,-2.386873,0.999996,0.000236,-0.003665,0.007505,-0.000044,0.007505,-0.003665,-89.776220,0.007506,
700,1420,1.956163,-4.582045,0.999997,0.000208,-0.004014,0.007863,-0.000175,0.007865,-0.004016,-89.157047,0.007866,
1210,120,0.012298,-14.657908,0.999998,0.000170,-0.000492,0.004729,0.000006,0.004729,-0.000492,89.937436,0.005200,
970,1600,0.601124,-2.549994,0.999997,0.000211,-0.002979,0.006698,0.000575,0.006733,-0.003013,86.610122,0.006745,
1270,780,-0.071385,-11.559158,0.999998,0.000185,-0.002022,0.002295,0.001665,0.002863,-0.002590,71.174924,0.003160,
1650,1550,-1.222162,-3.291945,0.999997,0.000182,-0.003872,0.007675,-0.000318,0.007684,-0.003880,-88.424732,0.007684,
1560,1880,-0.328156,-0.844757,0.999998,0.000191,-0.001450,0.005914,0.000760,0.005992,-0.001528,84.171195,0.006227,
1690,1090,-2.510785,-7.088448,0.999996,0.000228,-0.003283,0.007628,0.000593,0.007660,-0.003315,86.899626,0.007683,
1890,1900,-1.113685,-1.274647,0.999997,0.000217,-0.003710,0.007655,0.000630,0.007690,-0.003745,86.836657,0.007690,
1900,2000,-0.463729,-0.429025,0.999974,0.000000,-0.001577,0.010832,0.004875,0.012519,-0.003264,70.920900,0.012988,
1780,540,-1.803715,-11.239179,0.999997,0.000201,-0.003889,0.007722,0.000082,0.007722,-0.003889,89.594692,0.007722,
610,2000,0.347121,-0.323610,0.999996,0.000255,-0.002919,0.007800,-0.002466,0.008341,-0.003459,-77.645003,0.008381,
1440,1380,-0.584495,-3.923340,0.999995,0.000246,-0.004373,0.007464,-0.001828,0.007739,-0.004649,-81.418126,0.007791,
1030,1120,1.478677,-6.309946,0.999994,0.000291,-0.004856,0.011373,0.001470,0.011505,-0.004988,84.866738,0.011539,
1590,1670,-0.809535,-2.268559,0.999998,0.000198,-0.003143,0.007051,-0.000186,0.007054,-0.003147,-88.954710,0.007068,
790,350,1.009911,-12.934943,0.999997,0.000194,-0.003388,0.007296,0.000003,0.007296,-0.003388,89.981554,0.007302,
1740,1130,-2.610211,-6.805885,0.999996,0.000214,-0.003457,0.007383,0.000618,0.007418,-0.003492,86.748614,0.007422,
1400,300,-0.243350,-13.676968,0.999998,0.000183,-0.001754,0.005693,0.000053,0.005694,-0.001754,89.590796,0.005832,
1480,1840,-0.279361,-1.022243,0.999998,0.000171,-0.001470,0.005693,0.000376,0.005713,-0.001490,86.999657,0.005926,
1090,250,0.170555,-13.969560,0.999998,0.000175,-0.001245,0.005388,0.000116,0.005390,-0.001247,88.996423,0.005644,
1300,470,-0.128090,-12.826619,0.999998,0.000176,-0.002006,0.005376,0.000411,0.005398,-0.002029,86.819478,0.005454,
1290,1730,-0.085438,-1.509197,0.999998,0.000168,-0.001421,0.005398,-0.000005,0.005398,-0.001421,-89.953960,0.005596,
1620,490,-1.081734,-12.016165,0.999997,0.000234,-0.003706,0.007512,0.000397,0.007526,-0.003720,87.977541,0.007526,
1870,1620,-1.914671,-3.292358,0.999997,0.000209,-0.003681,0.007502,-0.000060,0.007503,-0.003681,-89.690084,0.007503,
1590,60,-0.094903,-14.911762,0.999998,0.000187,-0.000588,0.005296,-0.001114,0.005500,-0.000792,-79.626283,0.005947,
950,1130,1.789900,-6.594842,0.999996,0.000243,-0.004137,0.009697,-0.000940,0.009761,-0.004200,-86.131245,0.009792,
910,1470,0.964003,-3.651166,0.999997,0.000220,-0.004141,0.007770,0.000776,0.007821,-0.004191,86.288375,0.007827,
840,1930,0.299248,-0.587701,0.999998,0.000196,-0.001167,0.005978,-0.001234,0.006185,-0.001374,-80.468753,0.006496,
1000,480,0.532165,-12.471314,0.999997,0.000223,-0.003043,0.006613,-0.000814,0.006681,-0.003111,-85.215482,0.006686,
660,1120,2.841067,-6.910749,0.999997,0.000188,-0.003382,0.007066,-0.000537,0.007094,-0.003410,-87.067273,0.007096,
1860,730,-2.576325,-9.607898,0.999997,0.000223,-0.003664,0.007373,-0.000233,0.007377,-0.003669,-88.789507,0.007378,
1510,1010,-2.036692,-7.718368,0.999997,0.000200,-0.002819,0.009342,-0.000260,0.009347,-0.002824,-88.775338,0.009588,
1820,1020,-2.970345,-7.611758,0.999998,0.000190,-0.003263,0.006905,-0.000104,0.006906,-0.003264,-89.416816,0.006910,
1370,180,-0.113937,-14.342774,0.999999,0.000159,-0.000815,0.005166,-0.000232,0.005175,-0.000824,-87.780453,0.005561,
750,70,0.210492,-14.825845,0.999998,0.000186,-0.000751,0.005900,0.001856,0.006383,-0.001234,75.416344,0.006771,
1560,1860,-0.369673,-0.964723,0.999997,0.000201,-0.001614,0.006073,0.000686,0.006134,-0.001675,84.939420,0.006341,
700,1380,2.056971,-4.895609,0.999996,0.000228,-0.004032,0.007830,-0.000289,0.007837,-0.004039,-88.606463,0.007838,
1190,150,0.026318,-14.515372,0.999998,0.000153,-0.000621,0.004869,0.000091,0.004871,-0.000622,89.051887,0.005302,
1240,1400,-0.013640,-3.128721,0.999998,0.000139,-0.001637,0.003881,-0.000241,0.003892,-0.001647,-87.500013,0.003907,
1900,1990,-0.571375,-0.525911,0.999994,0.000000,-0.002366,0.010162,0.003736,0.011192,-0.003396,74.592605,0.011477,
1850,340,-1.616063,-12.593444,0.999998,0.000181,-0.003623,0.007485,0.000103,0.007486,-0.003624,89.466681,0.007487,
630,1100,2.970615,-7.070013,0.999998,0.000185,-0.003257,0.006752,-0.000222,0.006757,-0.003262,-88.729783,0.006758,
760,70,0.202745,-14.828693,0.999998,0.000184,-0.000794,0.005857,0.001770,0.006299,-0.001235,75.988650,0.006676,
870,1070,2.238172,-7.218203,0.999998,0.000186,-0.002974,0.008094,-0.000564,0.008123,-0.003002,-87.091209,0.008214,
1090,690,0.328924,-11.418899,0.999996,0.000242,-0.003577,0.006138,-0.002375,0.006688,-0.004126,-76.974875,0.006748,
1590,1650,-0.842026,-2.411178,0.999997,0.000207,-0.003188,0.007097,-0.000225,0.007102,-0.003193,-88.746528,0.007114,
830,1360,1.545467,-4.782155,0.999995,0.000326,-0.004684,0.008483,-0.000087,0.008483,-0.004685,-89.620802,0.008499,
1800,1830,-1.090301,-1.522759,0.999997,0.000225,-0.003390,0.007669,0.000687,0.007711,-0.003432,86.458634,0.007727,
1730,1560,-1.513230,-3.411553,0.999997,0.000198,-0.003878,0.007717,-0.000179,0.007719,-0.003881,-89.113913,0.007719,
1800,530,-1.859434,-11.269154,0.999997,0.000204,-0.003850,0.007672,0.000077,0.007673,-0.003851,89.617612,0.007673,
610,1850,1.199373,-1.520103,0.999997,0.000187,-0.003646,0.007590,-0.000302,0.007598,-0.003654,-88.461189,0.007600,
830,70,0.143710,-14.851185,0.999998,0.000185,-0.000496,0.005608,0.001429,0.005926,-0.000814,77.455525,0.006424,
1290,1750,-0.082501,-1.401740,0.999998,0.000145,-0.001319,0.005303,0.000011,0.005303,-0.001319,89.908110,0.005521,
1140,680,0.174187,-11.704298,0.999997,0.000211,-0.002554,0.004805,-0.002007,0.005316,-0.003066,-75.693644,0.005337,
910,1450,0.993993,-3.807814,0.999997,0.000230,-0.004305,0.007825,0.000782,0.007875,-0.004355,86.327788,0.007890,
600,2000,0.381241,-0.350474,0.999997,0.000236,-0.002498,0.008286,-0.002900,0.009016,-0.003228,-75.865390,0.009136,
1650,1530,-1.258679,-3.446874,0.999997,0.000201,-0.003933,0.007737,-0.000335,0.007747,-0.003943,-88.356678,0.007747,
1350,250,-0.141953,-13.980147,0.999998,0.000161,-0.001294,0.005285,-0.000043,0.005285,-0.001294,-89.628937,0.005510,
1000,460,0.517708,-12.604564,0.999996,0.000241,-0.002960,0.006545,-0.000745,0.006603,-0.003018,-85.547626,0.006611,
960,1730,0.482642,-1.717553,0.999998,0.000201,-0.002491,0.006445,0.000070,0.006446,-0.002492,89.549676,0.006501,
850,1540,1.095799,-3.275147,0.999997,0.000208,-0.003840,0.007636,0.000463,0.007655,-0.003859,87.692042,0.007655,
660,1100,2.873646,-7.055320,0.999997,0.000189,-0.003314,0.006994,-0.000370,0.007007,-0.003327,-87.947373,0.007010,
1480,1820,-0.306190,-1.138186,0.999998,0.000179,-0.001584,0.005838,0.000308,0.005851,-0.001597,87.626609,0.006049,
1860,1620,-1.878615,-3.268189,0.999997,0.000208,-0.003696,0.007516,-0.000077,0.007516,-0.003696,-89.604275,0.007516,
1190,120,0.021561,-14.656308,0.999998,0.000179,-0.000450,0.004754,0.000078,0.004756,-0.000451,89.143184,0.005250,
970,320,0.449773,-13.451466,0.999997,0.000198,-0.002344,0.006313,-0.000073,0.006314,-0.002345,-89.513655,0.006383,
990,1640,0.505665,-2.241301,0.999997,0.000204,-0.002779,0.006454,0.000535,0.006485,-0.002810,86.696853,0.006504,
840,1910,0.352945,-0.705703,0.999997,0.000199,-0.001368,0.006132,-0.001147,0.006304,-0.001539,-81.496577,0.006573,
1040,700,0.533193,-11.091156,0.999995,0.000260,-0.004457,0.007425,-0.002143,0.007799,-0.004832,-80.084271,0.007873,
1220,1470,0.021415,-2.834862,0.999998,0.000171,-0.001858,0.004631,0.000270,0.004642,-0.001870,87.619932,0.004671,
1510,290,-0.450057,-13.613871,0.999997,0.000205,-0.002285,0.006257,-0.000096,0.006258,-0.002286,-89.353347,0.006334,
1820,1000,-2.957278,-7.750293,0.999998,0.000189,-0.003259,0.006832,-0.000233,0.006837,-0.003265,-88.678029,0.006840,
840,910,2.158816,-8.502367,0.999997,0.000216,-0.003719,0.008318,0.001043,0.008408,-0.003809,85.083381,0.008420,
1030,1140,1.358162,-6.085626,0.999995,0.000278,-0.004971,0.011041,0.001328,0.011150,-0.005080,85.292498,0.011165,
570,620,2.420653,-10.359868,0.999855,0.001468,-0.004054,0.007631,0.000857,0.007694,-0.004116,85.829646,0.007700,
1400,280,-0.228305,-13.790786,0.999997,0.000183,-0.001633,0.005621,-0.000031,0.005621,-0.001634,-89.758478,0.005783,
1350,180,-0.095569,-14.349419,0.999998,0.000167,-0.000893,0.005124,-0.000138,0.005127,-0.000897,-88.685435,0.005477,
740,1980,0.237307,-0.328383,0.999998,0.000182,-0.000945,0.006038,-0.001898,0.006520,-0.001428,-75.736768,0.006855,
740,130,0.475113,-14.436383,0.999998,0.000174,-0.001769,0.006775,0.001769,0.007126,-0.002121,78.754905,0.007318,
1320,630,-0.172061,-11.959746,0.999998,0.000172,-0.002338,0.004973,0.001397,0.005231,-0.002596,79.539288,0.005231,
820,90,0.211918,-14.732845,0.999998,0.000171,-0.000869,0.005777,0.001409,0.006063,-0.001155,78.514197,0.006438,
650,1040,2.945242,-7.473677,0.999998,0.000185,-0.003244,0.006943,-0.000179,0.006946,-0.003247,-88.994515,0.006951,
1410,400,-0.339715,-13.075637,0.999997,0.000184,-0.002368,0.005978,0.000495,0.006007,-0.002397,86.615957,0.006048,
1880,1900,-1.076262,-1.236763,0.999998,0.000206,-0.003674,0.007666,0.000637,0.007702,-0.003709,86.794252,0.007703,
1190,130,0.023418,-14.608298,0.999998,0.000153,-0.000500,0.004751,0.000061,0.004752,-0.000500,89.330164,0.005222,
1440,1360,-0.605343,-4.079745,0.999995,0.000248,-0.004643,0.007702,-0.001940,0.007999,-0.004941,-81.276054,0.008073,
790,330,0.966002,-13.081228,0.999998,0.000205,-0.003316,0.007302,0.000090,0.007303,-0.003317,89.512233,0.007313,
850,1100,2.239264,-6.983048,0.999997,0.000205,-0.003265,0.008051,-0.000817,0.008110,-0.003323,-85.893504,0.008154,
1900,1980,-0.647109,-0.623236,0.999995,0.000000,-0.002969,0.009637,0.002736,0.010205,-0.003537,78.267685,0.010364,
1240,1600,-0.017210,-2.183294,0.999998,0.000167,-0.001828,0.005213,-0.000140,0.005216,-0.001830,-88.860236,0.005293,
1560,1840,-0.413608,-1.086964,0.999997,0.000197,-0.001806,0.006127,0.000615,0.006175,-0.001853,85.593725,0.006337,
680,410,1.533545,-12.231728,0.999996,0.000224,-0.003729,0.007625,-0.000117,0.007626,-0.003730,-89.411231,0.007627,
580,420,1.928513,-11.909411,0.999998,0.000185,-0.003665,0.007460,-0.000066,0.007460,-0.003665,-89.657852,0.007460,
1140,660,0.174404,-11.805922,0.999998,0.000182,-0.002481,0.004877,-0.001764,0.005278,-0.002882,-77.191045,0.005286,
1860,1600,-1.922939,-3.417760,0.999997,0.000207,-0.003715,0.007567,-0.000087,0.007568,-0.003715,-89.556297,0.007568,
1090,670,0.322372,-11.543365,0.999996,0.000229,-0.003440,0.006042,-0.002182,0.006520,-0.003919,-77.641671,0.006564,
820,1980,0.165038,-0.298696,0.999997,0.000188,-0.000670,0.005682,-0.001437,0.005992,-0.000980,-77.826902,0.006429,
1350,230,-0.126372,-14.090025,0.999998,0.000158,-0.001181,0.005282,-0.000088,0.005283,-0.001182,-89.219199,0.005546,
1650,1510,-1.293818,-3.601548,0.999997,0.000205,-0.004023,0.007826,-0.000331,0.007835,-0.004032,-88.400740,0.007836,
700,1360,2.109236,-5.055692,0.999996,0.000229,-0.004007,0.007830,-0.000370,0.007841,-0.004019,-88.213606,0.007842,
730,1360,1.987742,-4.996101,0.999997,0.000196,-0.004175,0.007972,-0.000372,0.007983,-0.004187,-88.247146,0.007986,
620,320,1.539550,-12.762586,0.999997,0.000220,-0.003666,0.007502,-0.000049,0.007502,-0.003667,-89.746803,0.007503,
660,1080,2.889389,-7.193071,0.999998,0.000158,-0.003251,0.006907,-0.000158,0.006910,-0.003254,-89.111395,0.006914,
1220,1650,0.020807,-1.920498,0.999998,0.000153,-0.001731,0.005280,0.000119,0.005282,-0.001733,89.029079,0.005385,
1830,1720,-1.530393,-2.435894,0.999997,0.000206,-0.003684,0.007538,-0.000022,0.007538,-0.003684,-89.885250,0.007539,
880,910,2.009355,-8.541314,0.999997,0.000185,-0.003881,0.008698,0.001064,0.008787,-0.003971,85.197331,0.008801,
590,2000,0.412877,-0.375695,0.999994,0.000321,-0.002161,0.008857,-0.003420,0.009832,-0.003136,-74.082909,0.010045,
1820,980,-2.945216,-7.887676,0.999998,0.000187,-0.003220,0.006769,-0.000138,0.006771,-0.003222,-89.209249,0.006773,
1320,1990,-0.017106,-0.206677,0.999998,0.000171,-0.000231,0.004600,0.000183,0.004607,-0.000238,87.832962,0.005188,
810,1520,1.287941,-3.531779,0.999997,0.000188,-0.003968,0.007767,0.000313,0.007776,-0.003977,88.474937,0.007776,
710,1720,1.248798,-2.245179,0.999998,0.000170,-0.003639,0.007561,-0.000015,0.007561,-0.003639,-89.923626,0.007563,
1230,1800,0.001636,-1.128120,0.999998,0.000159,-0.001220,0.005118,0.000005,0.005118,-0.001220,89.951256,0.005346,
870,1050,2.255664,-7.378532,0.999997,0.000206,-0.002841,0.008004,-0.000316,0.008013,-0.002851,-88.331212,0.008124,
1480,1800,-0.334535,-1.255774,0.999997,0.000201,-0.001724,0.005938,0.000248,0.005946,-0.001732,88.148670,0.006116,
1190,110,0.017822,-14.704196,0.999998,0.000161,-0.000398,0.004756,0.000083,0.004757,-0.000399,89.074614,0.005277,
1520,340,-0.545909,-13.277485,0.999998,0.000192,-0.002487,0.006592,0.000033,0.006592,-0.002487,89.790998,0.006658,
1740,530,-1.625397,-11.412935,0.999998,0.000208,-0.003952,0.007771,0.000126,0.007772,-0.003953,89.383847,0.007773,
1040,310,0.296974,-13.595327,0.999998,0.000196,-0.002002,0.005838,-0.000129,0.005840,-0.002004,-89.060465,0.005935,
1900,1970,-0.720717,-0.719796,0.999995,0.000000,-0.003292,0.009497,0.002197,0.009864,-0.003659,80.519852,0.009973,
820,110,0.273103,-14.617183,0.999998,0.000171,-0.001118,0.005951,0.001371,0.006208,-0.001374,79.400240,0.006521,
1390,120,-0.076390,-14.641835,0.999998,0.000165,-0.000514,0.004955,-0.000358,0.004979,-0.000537,-86.269233,0.005465,
1000,440,0.499451,-12.735631,0.999997,0.000226,-0.002845,0.006487,-0.000647,0.006531,-0.002890,-86.050249,0.006546,
1030,1160,1.233083,-5.869681,0.999995,0.000267,-0.005211,0.010699,0.001276,0.010801,-0.005313,85.444215,0.010802,
1720,1010,-2.641197,-7.689375,0.999998,0.000168,-0.003168,0.007390,-0.000222,0.007394,-0.003173,-88.795157,0.007419,
1140,640,0.176510,-11.904001,0.999998,0.000187,-0.002415,0.004979,-0.001528,0.005282,-0.002718,-78.773727,0.005283,
640,130,0.736387,-14.285849,0.999995,0.000267,-0.003189,0.007880,0.001388,0.008051,-0.003360,82.962324,0.008088,
1290,1770,-0.077002,-1.296532,0.999998,0.000147,-0.001222,0.005259,0.000062,0.005259,-0.001223,89.450499,0.005504,
910,1430,1.026392,-3.965317,0.999996,0.000233,-0.004431,0.007996,0.000751,0.008041,-0.004477,86.554792,0.008059,
570,420,1.964074,-11.886657,0.999998,0.000188,-0.003648,0.007447,-0.000074,0.007447,-0.003649,-89.619813,0.007448,
1230,1390,0.002227,-3.164385,0.999998,0.000161,-0.001612,0.003752,0.000049,0.003753,-0.001613,89.475451,0.003765,
1210,480,0.040718,-12.800221,0.999998,0.000148,-0.001884,0.005156,-0.000222,0.005163,-0.001891,-88.197540,0.005224,
1870,1900,-1.039903,-1.199442,0.999996,0.000230,-0.003646,0.007680,0.000646,0.007717,-0.003683,86.748181,0.007720,
1400,260,-0.210311,-13.902940,0.999998,0.000173,-0.001516,0.005506,-0.000070,0.005506,-0.001517,-89.431045,0.005689,
740,1960,0.322346,-0.449199,0.999997,0.000204,-0.001270,0.006244,-0.001812,0.006658,-0.001684,-77.129152,0.006924,
1410,380,-0.325152,-13.195793,0.999997,0.000198,-0.002296,0.005975,0.000414,0.005995,-0.002316,87.144374,0.006047,
1560,1820,-0.452560,-1.211525,0.999997,0.000192,-0.001924,0.006290,0.000506,0.006321,-0.001955,86.485640,0.006472,
1580,570,-1.053847,-11.507311,0.999997,0.000204,-0.004135,0.007826,0.000624,0.007858,-0.004167,87.022398,0.007863,
1440,1340,-0.631286,-4.234673,0.999997,0.000218,-0.004884,0.007918,-0.001974,0.008216,-0.005182,-81.429119,0.008309,
1510,180,-0.269314,-14.275794,0.999998,0.000173,-0.001503,0.005698,-0.000511,0.005734,-0.001539,-85.957938,0.005936,
1350,210,-0.115838,-14.194083,0.999998,0.000158,-0.001058,0.005181,-0.000087,0.005182,-0.001059,-89.200759,0.005476,
700,1340,2.165475,-5.211740,0.999997,0.000218,-0.004011,0.007801,-0.000459,0.007819,-0.004029,-87.777802,0.007820,
820,1960,0.228876,-0.414599,0.999997,0.000186,-0.000943,0.005804,-0.001369,0.006071,-0.001210,-78.954982,0.006427,
860,910,2.084693,-8.521208,0.999998,0.000204,-0.003781,0.008473,0.001051,0.008562,-0.003870,85.131299,0.008575,
1090,650,0.316441,-11.664169,0.999996,0.000223,-0.003264,0.005991,-0.001972,0.006394,-0.003667,-78.457505,0.006417,
1650,1490,-1.334280,-3.760378,0.999997,0.000194,-0.004118,0.007897,-0.000302,0.007905,-0.004125,-88.562651,0.007907,
1020,1650,0.421620,-2.127193,0.999996,0.000224,-0.002345,0.006140,0.000391,0.006158,-0.002363,87.370528,0.006213,
660,1060,2.899807,-7.332881,0.999998,0.000168,-0.003248,0.006958,-0.000212,0.006962,-0.003252,-88.809458,0.006967,
620,340,1.590234,-12.612583,0.999996,0.000230,-0.003649,0.007503,-0.000076,0.007503,-0.003650,-89.610592,0.007504,
780,1500,1.448862,-3.763675,0.999997,0.000228,-0.004115,0.007839,0.000191,0.007842,-0.004118,89.084200,0.007845,
710,1360,2.069818,-5.034622,0.999997,0.000218,-0.004070,0.007888,-0.000373,0.007899,-0.004082,-88.215904,0.007901,
810,1100,2.368857,-6.999284,0.999997,0.000184,-0.003273,0.007814,-0.000725,0.007861,-0.003320,-86.275275,0.007893,
1860,1580,-1.966309,-3.571983,0.999997,0.000197,-0.003748,0.007604,-0.000092,0.007605,-0.003749,-89.534682,0.007605,
1810,1720,-1.455992,-2.384405,0.999996,0.000253,-0.003692,0.007583,0.000012,0.007583,-0.003692,89.936652,0.007583,
1820,960,-2.935049,-8.022574,0.999998,0.000173,-0.003252,0.006822,-0.000235,0.006828,-0.003257,-88.662782,0.006830,
1300,1990,-0.013811,-0.205835,0.999998,0.000162,-0.000138,0.004577,0.000138,0.004581,-0.000142,88.325845,0.005209,
1310,1220,-0.308470,-3.976956,0.999991,0.000351,-0.003317,0.003283,-0.002081,0.003884,-0.003919,-73.881564,0.004505,
1480,1780,-0.361381,-1.374366,0.999997,0.000191,-0.001839,0.005997,0.000165,0.006001,-0.001843,88.797825,0.006148,
1340,1530,-0.220390,-2.650248,0.999998,0.000178,-0.002265,0.005485,-0.000804,0.005568,-0.002348,-84.138769,0.005591,
1490,1740,-0.436643,-1.632906,0.999997,0.000211,-0.002283,0.006290,-0.000028,0.006290,-0.002283,-89.812423,0.006368,
1190,90,0.015635,-14.799013,0.999998,0.000166,-0.000287,0.004652,0.000080,0.004653,-0.000288,89.071044,0.005214,
1140,620,0.178932,-12.002015,0.999998,0.000190,-0.002358,0.005045,-0.001337,0.005279,-0.002592,-80.072511,0.005279,
1370,1740,-0.207757,-1.504262,0.999997,0.000214,-0.001575,0.005610,-0.000063,0.005611,-0.001575,-89.496461,0.005788,
1520,380,-0.597583,-13.018635,0.999997,0.000209,-0.002729,0.006492,0.000268,0.006500,-0.002737,88.334210,0.006527,
1490,760,-0.984934,-10.235432,0.999995,0.000294,-0.005534,0.009110,0.000997,0.009177,-0.005602,86.121879,0.009252,
1900,1960,-0.791268,-0.816740,0.999995,0.000000,-0.003357,0.009182,0.001945,0.009477,-0.003652,81.381849,0.009559,
1420,50,-0.027996,-14.976348,0.999999,0.000137,-0.000255,0.004673,-0.000369,0.004701,-0.000283,-85.739819,0.005272,
1060,310,0.258492,-13.617532,0.999997,0.000213,-0.001828,0.005723,-0.000099,0.005724,-0.001829,-89.251014,0.005847,
1300,260,-0.081831,-13.952202,0.999998,0.000144,-0.001156,0.005205,-0.000047,0.005205,-0.001156,-89.572687,0.005467,
1540,1010,-2.118068,-7.708010,0.999998,0.000178,-0.002711,0.008631,-0.000289,0.008638,-0.002718,-88.542491,0.008834,
1000,420,0.481573,-12.867339,0.999997,0.000210,-0.002715,0.006380,-0.000524,0.006410,-0.002745,-86.715259,0.006432,
1020,710,0.639948,-10.906407,0.999996,0.000243,-0.004841,0.007925,-0.001917,0.008207,-0.005123,-81.643590,0.008291,
1750,1200,-2.491387,-6.283293,0.999997,0.000233,-0.003742,0.007558,0.000746,0.007607,-0.003791,86.236915,0.007607,
740,1940,0.406108,-0.578209,0.999997,0.000211,-0.001527,0.006689,-0.001878,0.007098,-0.001936,-77.717459,0.007339,
1870,200,-1.242364,-13.576762,0.999997,0.000192,-0.003667,0.007468,-0.000313,0.007477,-0.003676,-88.390276,0.007478,
1240,460,-0.016994,-12.912008,0.999998,0.000179,-0.001849,0.005215,0.000115,0.005217,-0.001851,89.064509,0.005290,
1490,180,-0.239116,-14.289344,0.999999,0.000130,-0.001365,0.005594,-0.000474,0.005626,-0.001397,-86.120767,0.005859,
870,1030,2.268812,-7.539002,0.999997,0.000228,-0.002816,0.008096,-0.000051,0.008097,-0.002816,-89.734179,0.008221,
910,1410,1.059265,-4.130905,0.999997,0.000234,-0.004559,0.008182,0.000724,0.008223,-0.004600,86.759362,0.008242,
790,1980,0.195507,-0.311059,0.999997,0.000194,-0.001035,0.005761,-0.001546,0.006096,-0.001371,-77.766574,0.006397,
620,130,0.807648,-14.216965,0.999997,0.000190,-0.003667,0.007941,0.000987,0.008025,-0.003750,85.174784,0.008030,
1090,630,0.313679,-11.787674,0.999996,0.000224,-0.003093,0.005940,-0.001767,0.006274,-0.003427,-79.315689,0.006282,
700,1320,2.218140,-5.367104,0.999997,0.000220,-0.004033,0.007862,-0.000522,0.007885,-0.004055,-87.491024,0.007886,
1350,190,-0.101685,-14.297820,0.999998,0.000159,-0.000953,0.005157,-0.000128,0.005160,-0.000956,-88.797797,0.005490,
1570,310,-0.619885,-13.406932,0.999996,0.000231,-0.002663,0.006695,-0.000109,0.006696,-0.002664,-89.333628,0.006743,
1640,210,-0.568471,-13.980825,0.999997,0.000213,-0.002119,0.006625,-0.000890,0.006714,-0.002209,-84.246387,0.006844,
820,910,2.233561,-8.487021,0.999997,0.000215,-0.003712,0.008187,0.001033,0.008276,-0.003801,85.072854,0.008285,
660,1040,2.913530,-7.472382,0.999998,0.000176,-0.003258,0.006992,-0.000181,0.006995,-0.003261,-88.988236,0.007000,
1310,1580,-0.150437,-2.332380,0.999998,0.000174,-0.002119,0.005421,-0.000538,0.005459,-0.002157,-85.938343,0.005499,
820,1940,0.286453,-0.533445,0.999997,0.000195,-0.001174,0.006044,-0.001353,0.006289,-0.001419,-79.724829,0.006597,
1690,1830,-0.744455,-1.307797,0.999998,0.000163,-0.002816,0.007050,0.000787,0.007112,-0.002878,85.470015,0.007155,
1460,1930,-0.132157,-0.522373,0.999998,0.000169,-0.000656,0.005218,0.000523,0.005264,-0.000702,84.956023,0.005717,
620,360,1.639824,-12.463816,0.999996,0.000255,-0.003668,0.007511,-0.000078,0.007512,-0.003669,-89.600565,0.007512,
1820,940,-2.907514,-8.161226,0.999997,0.000198,-0.003311,0.006976,-0.000450,0.006995,-0.003330,-87.499180,0.006998,
1320,1210,-0.406972,-4.116386,0.999992,0.000370,-0.003280,0.003494,-0.002038,0.004060,-0.003846,-74.483412,0.004570,
1580,950,-2.122348,-8.198595,0.999997,0.000204,-0.003323,0.008437,-0.000897,0.008506,-0.003391,-85.662789,0.008564,
1040,680,0.517454,-11.237159,0.999995,0.000262,-0.004233,0.007245,-0.002038,0.007596,-0.004584,-80.224362,0.007650,
1130,700,0.200891,-11.561777,0.999997,0.000189,-0.002795,0.005047,-0.002291,0.005668,-0.003416,-74.849611,0.005707,
1400,240,-0.194109,-14.012422,0.999998,0.000171,-0.001375,0.005478,-0.000136,0.005481,-0.001377,-88.865919,0.005702,
1140,600,0.181378,-12.101158,0.999997,0.000208,-0.002303,0.005149,-0.001146,0.005321,-0.002475,-81.450940,0.005326,
1700,1330,-1.928801,-5.175839,0.999996,0.000252,-0.004337,0.008183,0.000470,0.008201,-0.004355,87.851004,0.008206,
1500,1390,-0.847551,-4.105036,0.999996,0.000246,-0.004674,0.008120,-0.001218,0.008235,-0.004789,-84.608780,0.008271,
1650,1470,-1.373432,-3.919943,0.999996,0.000206,-0.004200,0.007950,-0.000244,0.007955,-0.004204,-88.851400,0.007959,
950,590,0.805400,-11.556053,0.999996,0.000234,-0.004112,0.007585,-0.001033,0.007676,-0.004202,-84.991063,0.007688,
1480,1760,-0.387275,-1.496718,0.999997,0.000184,-0.001968,0.006055,0.000091,0.006056,-0.001969,89.351530,0.006179,
1780,520,-1.759612,-11.395741,0.999997,0.000207,-0.003864,0.007707,0.000097,0.007708,-0.003865,89.520767,0.007708,
1440,580,-0.520626,-11.870982,0.999996,0.000211,-0.003422,0.006744,0.001315,0.006911,-0.003589,82.746068,0.006913,
650,1800,1.237030,-1.783029,0.999997,0.000203,-0.003538,0.007642,-0.000403,0.007656,-0.003553,-87.937283,0.007663,
1170,870,0.530358,-11.224620,0.999996,0.000000,-0.004940,0.001717,-0.000454,0.001747,-0.004971,-86.115622,0.005044,
1000,400,0.462934,-12.995171,0.999997,0.000215,-0.002551,0.006287,-0.000393,0.006304,-0.002568,-87.461707,0.006340,
1640,1970,-0.195374,-0.357172,0.999998,0.000179,-0.000767,0.005718,0.001414,0.006013,-0.001062,78.219316,0.006418,
1520,1820,-0.380505,-1.176313,0.999998,0.000185,-0.001898,0.006061,0.000406,0.006082,-0.001919,87.085803,0.006218,
1190,510,0.079361,-12.635291,0.999998,0.000151,-0.001883,0.005142,-0.000283,0.005153,-0.001895,-87.694931,0.005213,
1900,1950,-0.861571,-0.906127,0.999996,0.000000,-0.003415,0.008741,0.001688,0.008971,-0.003645,82.237524,0.009023,
1080,310,0.225928,-13.634101,0.999998,0.000165,-0.001573,0.005637,-0.000044,0.005638,-0.001574,-89.653937,0.005818,
1730,680,-1.935576,-10.249618,0.999998,0.000172,-0.004219,0.007992,-0.000292,0.007999,-0.004226,-88.629921,0.008003,
770,1160,2.379226,-6.548268,0.999997,0.000215,-0.003713,0.007898,-0.000919,0.007970,-0.003785,-85.500127,0.007973,
1430,1740,-0.315629,-1.561975,0.999997,0.000205,-0.002028,0.005894,-0.000100,0.005895,-0.002029,-89.276737,0.005990,
790,310,0.921680,-13.230003,0.999997,0.000213,-0.003279,0.007203,0.000187,0.007206,-0.003282,88.979240,0.007216,
1300,240,-0.073369,-14.057344,0.999999,0.000141,-0.001047,0.005146,-0.000077,0.005147,-0.001048,-89.285154,0.005440,
1200,250,0.038357,-14.011943,0.999998,0.000170,-0.001152,0.005126,-0.000003,0.005126,-0.001152,-89.969338,0.005379,
1210,180,0.016792,-14.366647,0.999998,0.000168,-0.000848,0.004945,0.000004,0.004945,-0.000848,89.957046,0.005289,
1410,50,-0.025662,-14.977337,0.999999,0.000128,-0.000253,0.004660,-0.000350,0.004685,-0.000278,-85.943810,0.005257,
570,1290,2.784977,-5.843561,0.999935,0.000985,-0.003970,0.007132,-0.000080,0.007132,-0.003970,-89.587268,0.007147,
1730,1690,-1.237954,-2.417645,0.999997,0.000199,-0.003614,0.007538,0.000023,0.007538,-0.003614,89.881634,0.007540,
800,910,2.308294,-8.472084,0.999997,0.000231,-0.003644,0.008054,0.000984,0.008136,-0.003727,85.224184,0.008146,
830,1100,2.303929,-6.990202,0.999997,0.000198,-0.003259,0.007930,-0.000780,0.007984,-0.003313,-86.029318,0.008023,
1860,1560,-2.010216,-3.723264,0.999997,0.000193,-0.003767,0.007623,-0.000060,0.007623,-0.003767,-89.699870,0.007623,
1140,580,0.181759,-12.204694,0.999998,0.000202,-0.002251,0.005239,-0.001012,0.005373,-0.002386,-82.441927,0.005385,
1620,210,-0.530451,-13.999793,0.999996,0.000224,-0.002056,0.006500,-0.000814,0.006577,-0.002132,-84.610600,0.006711,
1570,330,-0.654692,-13.271142,0.999997,0.000224,-0.002843,0.006784,-0.000005,0.006784,-0.002843,-89.970295,0.006814,
740,1920,0.497418,-0.715746,0.999997,0.000206,-0.001826,0.006770,-0.001692,0.007091,-0.002147,-79.255323,0.007273,
1240,420,-0.015804,-13.122381,0.999998,0.000187,-0.001793,0.005268,0.000087,0.005269,-0.001794,89.297238,0.005358,
910,1390,1.095703,-4.296341,0.999997,0.000238,-0.004732,0.008387,0.000676,0.008422,-0.004766,87.059491,0.008446,
580,1550,2.118685,-3.853251,0.999997,0.000197,-0.003664,0.007548,0.000050,0.007548,-0.003665,89.746296,0.007549,
1020,730,0.667856,-10.747600,0.999995,0.000248,-0.005088,0.008224,-0.001946,0.008503,-0.005367,-81.849654,0.008600,
1560,1770,-0.550293,-1.534651,0.999998,0.000190,-0.002270,0.006549,0.000295,0.006559,-0.002280,88.086784,0.006660,
1200,1490,0.059516,-2.754171,0.999999,0.000193,-0.001891,0.004827,0.000337,0.004844,-0.001908,87.136147,0.004880,
1820,920,-2.873870,-8.303406,0.999997,0.000200,-0.003351,0.006978,-0.000445,0.006997,-0.003370,-87.535099,0.006999,
740,1230,2.308781,-6.020354,0.999997,0.000213,-0.003976,0.007902,-0.000837,0.007960,-0.004035,-85.991070,0.007961,
1410,1360,-0.476114,-3.924448,0.999994,0.000285,-0.004213,0.007087,-0.002219,0.007507,-0.004633,-79.281028,0.007575,
870,1010,2.258989,-7.702015,0.999997,0.000231,-0.002834,0.008029,0.000271,0.008036,-0.002841,88.571442,0.008150,
620,380,1.689363,-12.309374,0.999996,0.000233,-0.003704,0.007552,-0.000077,0.007553,-0.003705,-89.606090,0.007553,
1520,1010,-2.062058,-7.716830,0.999998,0.000195,-0.002768,0.009055,-0.000257,0.009060,-0.002773,-88.757616,0.009285,
1870,190,-1.202436,-13.650578,0.999998,0.000182,-0.003660,0.007547,-0.000381,0.007560,-0.003673,-88.057351,0.007561,
1350,170,-0.091834,-14.399623,0.999998,0.000162,-0.000828,0.005090,-0.000159,0.005094,-0.000833,-88.466251,0.005466,
820,1920,0.351209,-0.655379,0.999998,0.000198,-0.001423,0.006142,-0.001247,0.006342,-0.001623,-80.879357,0.006589,
700,1300,2.272386,-5.526226,0.999997,0.000225,-0.003982,0.007826,-0.000576,0.007854,-0.004010,-87.211999,0.007855,
990,1590,0.552377,-2.572326,0.999997,0.000203,-0.002997,0.006616,0.000715,0.006669,-0.003050,85.769137,0.006677,
1400,220,-0.175421,-14.121104,0.999998,0.000181,-0.001261,0.005364,-0.000165,0.005369,-0.001265,-88.576318,0.005613,
1090,540,0.305165,-12.311221,0.999997,0.000193,-0.002706,0.005890,-0.001163,0.006045,-0.002861,-82.426696,0.006048,
1440,1930,-0.118866,-0.519120,0.999997,0.000189,-0.000737,0.005134,0.000454,0.005169,-0.000772,85.601423,0.005577,
1090,610,0.313283,-11.903585,0.999997,0.000203,-0.002923,0.005893,-0.001565,0.006163,-0.003192,-80.224176,0.006164,
1690,1790,-0.860701,-1.597243,0.999998,0.000171,-0.003069,0.007191,0.000497,0.007215,-0.003093,87.235519,0.007240,
1650,1450,-1.413562,-4.079178,0.999996,0.000223,-0.004287,0.008004,-0.000194,0.008007,-0.004291,-89.097228,0.008014,
660,280,1.281745,-13.170472,0.999997,0.000209,-0.003552,0.007613,0.000286,0.007620,-0.003559,88.535678,0.007625,
1740,1330,-2.097126,-5.248161,0.999998,0.000167,-0.004094,0.007918,0.000495,0.007938,-0.004114,87.645309,0.007940,
1640,1950,-0.254942,-0.471928,0.999998,0.000170,-0.000985,0.005937,0.001361,0.006195,-0.001243,79.267474,0.006555,
1480,1740,-0.414669,-1.617925,0.999997,0.000201,-0.002113,0.006230,0.000010,0.006230,-0.002113,89.932901,0.006336,
1900,1940,-0.925467,-0.991140,0.999997,0.000000,-0.003506,0.008368,0.001458,0.008544,-0.003682,83.101696,0.008571,
630,700,2.396072,-9.889424,0.999997,0.000208,-0.003797,0.007553,0.000272,0.007559,-0.003803,88.625416,0.007559,
1300,220,-0.068455,-14.159444,0.999998,0.000167,-0.000937,0.005110,-0.000068,0.005110,-0.000938,-89.353626,0.005441,
1100,310,0.193435,-13.648800,0.999998,0.000187,-0.001558,0.005554,-0.000081,0.005555,-0.001559,-89.347735,0.005730,
1520,1800,-0.417628,-1.300986,0.999997,0.000214,-0.002036,0.006117,0.000295,0.006128,-0.002046,87.930044,0.006239,
1190,530,0.079282,-12.532848,0.999998,0.000149,-0.001896,0.005082,-0.000338,0.005098,-0.001912,-87.231290,0.005151,
790,1960,0.260689,-0.425902,0.999998,0.000165,-0.001323,0.005983,-0.001493,0.006276,-0.001617,-78.887192,0.006518,
600,170,1.084598,-13.832613,0.999998,0.000186,-0.003667,0.007699,0.000552,0.007725,-0.003694,87.223561,0.007728,
1230,1830,0.001554,-0.975417,0.999998,0.000147,-0.001090,0.005034,-0.000007,0.005034,-0.001090,-89.932166,0.005296,
1440,1320,-0.660522,-4.396767,0.999996,0.000228,-0.005138,0.008276,-0.001985,0.008563,-0.005425,-81.756982,0.008665,
1140,560,0.184738,-12.308878,0.999998,0.000182,-0.002212,0.005273,-0.000908,0.005381,-0.002320,-83.180512,0.005398,
1330,1740,-0.143981,-1.475532,0.999998,0.000148,-0.001655,0.005449,-0.000177,0.005453,-0.001660,-88.570934,0.005591,
910,1370,1.139765,-4.467905,0.999997,0.000232,-0.004887,0.008528,0.000605,0.008555,-0.004914,87.422008,0.008586,
1190,180,0.033350,-14.364492,0.999998,0.000157,-0.000748,0.004967,0.000049,0.004967,-0.000748,89.512684,0.005356,
650,1780,1.301892,-1.935267,0.999996,0.000222,-0.003581,0.007554,-0.000285,0.007561,-0.003588,-88.537083,0.007564,
880,890,1.940299,-8.718245,0.999998,0.000201,-0.004152,0.008895,0.001103,0.008987,-0.004244,85.200286,0.008992,
700,1280,2.327028,-5.683089,0.999998,0.000202,-0.003911,0.007716,-0.000639,0.007751,-0.003946,-86.865541,0.007751,
1400,50,-0.022853,-14.978685,0.999999,0.000134,-0.000197,0.004627,-0.000338,0.004650,-0.000221,-86.015576,0.005247,
1730,320,-1.129442,-13.041011,0.999997,0.000202,-0.003414,0.007449,-0.000171,0.007451,-0.003416,-89.098689,0.007460,
1000,380,0.446431,-13.119081,0.999997,0.000212,-0.002383,0.006270,-0.000280,0.006279,-0.002392,-88.150964,0.006339,
1410,1340,-0.490260,-4.066938,0.999997,0.000196,-0.004459,0.007324,-0.002334,0.007769,-0.004904,-79.194379,0.007858,
830,410,0.990348,-12.582376,0.999997,0.000194,-0.003432,0.007342,-0.000214,0.007346,-0.003437,-88.861597,0.007351,
1570,350,-0.689734,-13.135309,0.999998,0.000209,-0.002981,0.006779,0.000082,0.006780,-0.002981,89.519949,0.006796,
1350,150,-0.075772,-14.502676,0.999998,0.000150,-0.000731,0.004989,-0.000199,0.004996,-0.000738,-88.012098,0.005394,
1820,900,-2.839992,-8.443313,0.999997,0.000195,-0.003387,0.006973,-0.000401,0.006988,-0.003403,-87.785042,0.006989,
1090,590,0.311371,-12.019530,0.999997,0.000218,-0.002816,0.005869,-0.001405,0.006091,-0.003038,-81.034853,0.006091,
740,1900,0.575643,-0.851155,0.999997,0.000202,-0.002093,0.006972,-0.001533,0.007225,-0.002345,-80.657234,0.007371,
790,270,0.821868,-13.518739,0.999997,0.000191,-0.003131,0.007135,0.000406,0.007151,-0.003147,87.740863,0.007168,
1650,1430,-1.455467,-4.240898,0.999996,0.000230,-0.004382,0.008108,-0.000141,0.008110,-0.004384,-89.351999,0.008119,
620,820,2.745947,-8.982244,0.999998,0.000176,-0.003528,0.007068,0.000400,0.007083,-0.003543,87.842470,0.007083,
650,420,1.668958,-12.082080,0.999997,0.000196,-0.003792,0.007600,-0.000096,0.007600,-0.003793,-89.516728,0.007600,
1620,670,-1.422741,-10.583424,0.999994,0.000261,-0.004652,0.008379,0.000128,0.008380,-0.004654,89.438995,0.008397,
1300,200,-0.060075,-14.262034,0.999998,0.000187,-0.000836,0.005055,-0.000132,0.005058,-0.000839,-88.716840,0.005421,
1540,1770,-0.507281,-1.510583,0.999997,0.000200,-0.002165,0.006471,0.000275,0.006480,-0.002173,88.180193,0.006596,
1480,980,-1.881903,-8.061071,0.999997,0.000231,-0.003481,0.010342,-0.000386,0.010353,-0.003492,-88.403246,0.010534,
1410,660,-0.449901,-11.438344,0.999996,0.000235,-0.003881,0.006804,0.001977,0.007158,-0.004235,79.847695,0.007198,
1520,1780,-0.447234,-1.421095,0.999997,0.000205,-0.002192,0.006267,0.000199,0.006271,-0.002196,88.653099,0.006364,
660,1020,2.916545,-7.612947,0.999998,0.000172,-0.003251,0.007014,0.000133,0.007015,-0.003253,89.259004,0.007022,
600,150,0.990937,-13.985312,0.999996,0.000231,-0.003671,0.007721,0.000713,0.007766,-0.003715,86.431632,0.007768,
1830,940,-2.940627,-8.154788,0.999998,0.000186,-0.003274,0.006895,-0.000406,0.006911,-0.003290,-87.718875,0.006913,
1810,1320,-2.402645,-5.452159,0.999996,0.000209,-0.003823,0.007631,0.000437,0.007648,-0.003840,87.817092,0.007648,
1190,550,0.079475,-12.432229,0.999998,0.000163,-0.001911,0.004945,-0.000376,0.004965,-0.001931,-86.872837,0.005006,
1000,340,0.409527,-13.363227,0.999997,0.000192,-0.002074,0.006132,-0.000104,0.006134,-0.002076,-89.271464,0.006240,
1400,200,-0.156798,-14.227550,0.999998,0.000206,-0.001128,0.005326,-0.000219,0.005334,-0.001135,-88.060630,0.005619,
880,1710,0.721229,-1.977592,0.999997,0.000236,-0.003045,0.006855,0.000073,0.006856,-0.003046,89.577690,0.006870,
1860,1540,-2.054474,-3.878144,0.999998,0.000190,-0.003763,0.007624,-0.000052,0.007624,-0.003763,-89.736982,0.007624,
1780,1070,-2.819890,-7.257169,0.999998,0.000156,-0.003271,0.007072,0.000182,0.007075,-0.003274,88.994000,0.007082,
1330,440,-0.184288,-12.953133,0.999999,0.000142,-0.002066,0.005511,0.000480,0.005542,-0.002097,86.387793,0.005596,
1140,540,0.183380,-12.415453,0.999997,0.000193,-0.002212,0.005343,-0.000816,0.005430,-0.002299,-83.905981,0.005451,
1410,1320,-0.512666,-4.217432,0.999996,0.000235,-0.004737,0.007590,-0.002431,0.008052,-0.005199,-79.238840,0.008165,
760,1230,2.228845,-5.997302,0.999997,0.000198,-0.004053,0.008001,-0.000854,0.008061,-0.004113,-85.966680,0.008062,
860,190,0.441833,-14.146711,0.999997,0.000210,-0.001930,0.006316,0.000810,0.006394,-0.002008,84.441027,0.006540,
1230,1810,0.001873,-1.076709,0.999998,0.000152,-0.001160,0.005090,-0.000001,0.005090,-0.001160,-89.994188,0.005335,
1620,1970,-0.183751,-0.353594,0.999998,0.000186,-0.000710,0.005592,0.001294,0.005847,-0.000965,78.841002,0.006269,
830,430,1.029237,-12.435362,0.999997,0.000197,-0.003515,0.007409,-0.000244,0.007414,-0.003520,-88.721077,0.007418,
620,910,2.933120,-8.350982,0.999997,0.000200,-0.003300,0.006793,0.000364,0.006806,-0.003314,87.936391,0.006807,
1820,880,-2.805644,-8.581879,0.999997,0.000208,-0.003472,0.007128,-0.000512,0.007152,-0.003497,-87.240070,0.007153,
740,1880,0.659009,-0.996440,0.999997,0.000198,-0.002360,0.007085,-0.001353,0.007274,-0.002550,-82.007686,0.007382,
910,1350,1.180563,-4.639131,0.999997,0.000241,-0.005048,0.008726,0.000516,0.008745,-0.005068,87.859517,0.008782,
700,1260,2.382180,-5.837050,0.999997,0.000213,-0.003872,0.007696,-0.000699,0.007738,-0.003914,-86.556971,0.007739,
870,990,2.244880,-7.861887,0.999997,0.000236,-0.002956,0.008044,0.000473,0.008065,-0.002976,87.539778,0.008156,
1700,2010,-0.110614,-0.149358,0.999999,0.000164,-0.000372,0.005589,0.001716,0.006048,-0.000831,75.036119,0.006557,
1560,950,-2.054901,-8.217347,0.999997,0.000204,-0.003368,0.008706,-0.000961,0.008782,-0.003444,-85.479570,0.008850,
1900,1930,-0.985857,-1.071643,0.999997,0.000000,-0.003616,0.008198,0.001221,0.008323,-0.003741,84.159208,0.008337,
1340,1390,-0.221802,-3.409439,0.999997,0.000187,-0.002781,0.005286,-0.001980,0.005746,-0.003241,-76.929873,0.005761,
620,800,2.698396,-9.125175,0.999997,0.000200,-0.003583,0.007234,0.000397,0.007249,-0.003598,87.899225,0.007249,
1140,520,0.182689,-12.524266,0.999997,0.000197,-0.002201,0.005385,-0.000748,0.005457,-0.002274,-84.425029,0.005483,
1590,1630,-0.872858,-2.552865,0.999998,0.000201,-0.003266,0.007166,-0.000294,0.007174,-0.003274,-88.388878,0.007183,
590,1610,1.948491,-3.374347,0.999997,0.000181,-0.003696,0.007533,0.000068,0.007533,-0.003697,89.653004,0.007534,
1470,700,-0.754758,-10.856923,0.999997,0.000231,-0.004915,0.008195,0.001546,0.008375,-0.005095,83.363784,0.008440,
1110,1740,0.180376,-1.491864,0.999997,0.000181,-0.001627,0.005544,0.000128,0.005546,-0.001630,88.979609,0.005701,
730,380,1.282138,-12.582409,0.999997,0.000216,-0.003653,0.007607,-0.000043,0.007608,-0.003653,-89.781083,0.007610,
590,1550,2.081354,-3.831079,0.999998,0.000169,-0.003740,0.007572,0.000048,0.007572,-0.003740,89.757941,0.007573,
1170,860,0.445882,-11.246885,0.999996,0.000000,-0.004582,0.002077,-0.000402,0.002101,-0.004607,-86.554021,0.004612,
1040,660,0.505420,-11.377581,0.999996,0.000232,-0.004038,0.007052,-0.001920,0.007375,-0.004361,-80.448611,0.007416,
790,250,0.768110,-13.657242,0.999997,0.000194,-0.003007,0.007086,0.000528,0.007114,-0.003034,87.011253,0.007139,
1090,570,0.307534,-12.136913,0.999997,0.000208,-0.002773,0.005825,-0.001310,0.006020,-0.002968,-81.529598,0.006020,
1080,50,0.022314,-14.979265,0.999999,0.000151,-0.000148,0.004610,0.000314,0.004630,-0.000169,86.240424,0.005252,
1770,1200,-2.566495,-6.302467,0.999996,0.000258,-0.003710,0.007472,0.000704,0.007516,-0.003754,86.412910,0.007516,
1300,180,-0.052891,-14.362594,0.999998,0.000167,-0.000737,0.004965,-0.000123,0.004968,-0.000739,-88.765138,0.005361,
940,550,0.799982,-11.826403,0.999997,0.000233,-0.003772,0.007384,-0.000864,0.007451,-0.003839,-85.599056,0.007452,
750,1160,2.454319,-6.562420,0.999997,0.000243,-0.003666,0.007775,-0.000883,0.007843,-0.003733,-85.613957,0.007846,
1230,440,0.002318,-13.017177,0.999998,0.000161,-0.001818,0.005261,-0.000025,0.005261,-0.001819,-89.800406,0.005344,
1620,1330,-1.564725,-5.007003,0.999994,0.000285,-0.004777,0.008624,0.000171,0.008626,-0.004779,89.269251,0.008643,
1440,1280,-0.743318,-4.741391,0.999996,0.000233,-0.005640,0.008909,-0.001914,0.009157,-0.005888,-82.629956,0.009281,
950,570,0.782616,-11.707483,0.999997,0.000215,-0.003908,0.007451,-0.000996,0.007538,-0.003995,-85.027364,0.007543,
660,980,2.891078,-7.891772,0.999997,0.000216,-0.003244,0.006872,0.000171,0.006875,-0.003246,89.033055,0.006879,
1570,370,-0.721535,-12.999046,0.999997,0.000213,-0.003066,0.006872,0.000173,0.006875,-0.003069,89.002324,0.006888,
1780,500,-1.716392,-11.549582,0.999997,0.000209,-0.003837,0.007700,0.000126,0.007702,-0.003838,89.373838,0.007702,
1190,570,0.077835,-12.335660,0.999998,0.000163,-0.001933,0.004845,-0.000454,0.004875,-0.001963,-86.184689,0.004906,
1570,420,-0.799669,-12.644465,0.999997,0.000211,-0.003221,0.007079,0.000330,0.007090,-0.003231,88.168892,0.007099,
1720,1330,-2.015711,-5.213453,0.999997,0.000257,-0.004201,0.008050,0.000479,0.008068,-0.004220,87.766417,0.008071,
1100,1290,0.338991,-4.104923,0.999996,0.000223,-0.004187,0.006285,0.003126,0.007147,-0.005049,74.582472,0.007347,
880,1730,0.685094,-1.839315,0.999996,0.000232,-0.002906,0.006892,-0.000030,0.006892,-0.002906,-89.826155,0.006921,
1650,680,-1.585290,-10.424203,0.999996,0.000237,-0.004547,0.008335,-0.000084,0.008336,-0.004548,-89.626077,0.008347,
1230,1790,0.000848,-1.179229,0.999998,0.000158,-0.001276,0.005152,0.000013,0.005152,-0.001276,89.886735,0.005366,
870,970,2.207895,-8.024554,0.999997,0.000226,-0.003087,0.008187,0.000737,0.008235,-0.003135,86.274849,0.008313,
1820,860,-2.757197,-8.729007,0.999997,0.000212,-0.003541,0.007215,-0.000580,0.007246,-0.003572,-86.924629,0.007246,
880,550,1.034582,-11.654814,0.999997,0.000204,-0.003959,0.007693,-0.000579,0.007722,-0.003988,-87.163524,0.007723,
1690,1770,-0.914803,-1.742865,0.999998,0.000174,-0.003175,0.007277,0.000383,0.007291,-0.003189,87.903572,0.007310,
1900,1920,-1.046942,-1.154161,0.999997,0.000000,-0.003686,0.008042,0.001018,0.008130,-0.003774,85.074501,0.008137,
1700,2000,-0.142269,-0.203912,0.999998,0.000162,-0.000558,0.005681,0.001739,0.006133,-0.001010,75.431587,0.006576,
1610,680,-1.399831,-10.525088,0.999995,0.000277,-0.004720,0.008487,0.000137,0.008489,-0.004721,89.406694,0.008506,
630,440,1.788153,-11.881763,0.999998,0.000191,-0.003760,0.007580,-0.000117,0.007581,-0.003762,-89.409908,0.007581,
620,780,2.644741,-9.271487,0.999997,0.000201,-0.003646,0.007377,0.000411,0.007392,-0.003662,87.867185,0.007392,
1100,1930,0.069815,-0.499181,0.999998,0.000188,-0.000529,0.004909,-0.000275,0.004923,-0.000543,-87.114660,0.005398,
1450,1780,-0.310696,-1.347490,0.999998,0.000181,-0.001710,0.005848,0.000136,0.005851,-0.001712,88.970955,0.006016,
1780,230,-1.039563,-13.605615,0.999997,0.000180,-0.003407,0.007569,-0.000621,0.007605,-0.003442,-86.769748,0.007616,
1480,1720,-0.436531,-1.744455,0.999997,0.000200,-0.002266,0.006239,-0.000112,0.006240,-0.002268,-89.245256,0.006318,
600,1550,2.043690,-3.807436,0.999998,0.000175,-0.003769,0.007588,0.000058,0.007588,-0.003769,89.707783,0.007588,
1070,1740,0.244493,-1.522854,0.999997,0.000192,-0.001691,0.005699,0.000071,0.005700,-0.001691,89.447646,0.005855,
1170,30,0.002720,-15.071460,0.999999,0.000000,0.000090,0.004473,0.000111,0.004475,0.000087,88.543546,0.005219,
710,380,1.355480,-12.534063,0.999996,0.000249,-0.003667,0.007598,-0.000064,0.007598,-0.003667,-89.672263,0.007600,
1390,1390,-0.380415,-3.625345,0.999997,0.000207,-0.003601,0.006409,-0.002072,0.006821,-0.004013,-78.754599,0.006856,
1590,1610,-0.901397,-2.696385,0.999998,0.000192,-0.003410,0.007222,-0.000351,0.007234,-0.003421,-88.111359,0.007238,
790,230,0.710726,-13.802912,0.999997,0.000199,-0.002890,0.006982,0.000666,0.007026,-0.002935,86.155272,0.007058,
580,1610,1.985408,-3.398021,0.999997,0.000186,-0.003651,0.007509,0.000055,0.007509,-0.003652,89.716529,0.007510,
1130,1710,0.159897,-1.641106,0.999998,0.000172,-0.001791,0.005474,0.000249,0.005483,-0.001800,88.036448,0.005590,
830,450,1.063179,-12.285048,0.999998,0.000186,-0.003570,0.007451,-0.000281,0.007458,-0.003577,-88.542879,0.007460,
1860,1520,-2.098023,-4.029734,0.999997,0.000187,-0.003772,0.007604,-0.000040,0.007604,-0.003772,-89.796110,0.007604,
1470,680,-0.728221,-11.018046,0.999995,0.000273,-0.004679,0.007954,0.001528,0.008136,-0.004861,83.199973,0.008188,
940,530,0.778293,-11.971348,0.999998,0.000195,-0.003627,0.007202,-0.000774,0.007257,-0.003682,-85.930122,0.007257,
1650,670,-1.560442,-10.506534,0.999997,0.000237,-0.004527,0.008290,-0.000026,0.008290,-0.004527,-89.883212,0.008301,
1210,440,0.039332,-13.009633,0.999998,0.000165,-0.001830,0.005270,-0.000194,0.005276,-0.001835,-88.436859,0.005356,
1300,160,-0.045789,-14.461066,0.999998,0.000158,-0.000618,0.004920,-0.000137,0.004923,-0.000621,-88.578843,0.005362,
1760,1130,-2.678084,-6.816258,0.999996,0.000237,-0.003438,0.007303,0.000589,0.007336,-0.003470,86.868204,0.007339,
1070,50,0.023369,-14.978535,0.999999,0.000146,-0.000180,0.004639,0.000324,0.004661,-0.000202,86.166015,0.005269,
1090,550,0.305727,-12.250904,0.999997,0.000194,-0.002731,0.005854,-0.001230,0.006027,-0.002904,-82.003109,0.006028,
950,550,0.762821,-11.855265,0.999997,0.000219,-0.003695,0.007285,-0.000890,0.007357,-0.003767,-85.393461,0.007357,
1040,860,0.971956,-9.701293,0.999995,0.000255,-0.005525,0.009934,-0.001796,0.010140,-0.005731,-83.458445,0.010169,
1650,660,-1.536262,-10.590791,0.999997,0.000240,-0.004487,0.008270,0.000025,0.008270,-0.004487,89.887378,0.008280,
830,1860,0.512516,-1.030535,0.999997,0.000206,-0.001922,0.006535,-0.000958,0.006642,-0.002029,-83.616828,0.006808,
1100,1270,0.367644,-4.231828,0.999997,0.000212,-0.004467,0.006490,0.003294,0.007404,-0.005381,74.493175,0.007653,
1700,1990,-0.179795,-0.260278,0.999998,0.000198,-0.000748,0.005789,0.001768,0.006236,-0.001196,75.792241,0.006620,
1660,1330,-1.751230,-5.096645,0.999997,0.000185,-0.004586,0.008385,0.000365,0.008396,-0.004596,88.390282,0.008408,
1900,1910,-1.101521,-1.236188,0.999997,0.000000,-0.003726,0.007872,0.000814,0.007928,-0.003783,86.007107,0.007931,
1230,1770,0.001410,-1.282847,0.999998,0.000159,-0.001336,0.005224,0.000005,0.005224,-0.001336,89.952110,0.005427,
1530,1200,-1.553370,-5.960238,0.999996,0.000242,-0.005166,0.009632,0.000630,0.009659,-0.005193,87.564958,0.009668,
1820,1060,-2.956036,-7.334687,0.999998,0.000191,-0.003227,0.006833,0.000198,0.006837,-0.003231,88.875648,0.006841,
880,530,1.005407,-11.808144,0.999998,0.000183,-0.003839,0.007595,-0.000547,0.007621,-0.003865,-87.268753,0.007621,
1290,840,-0.273660,-11.310916,0.999995,0.000248,-0.003806,0.002510,0.000933,0.002645,-0.003941,81.767943,0.004017,
1160,2020,0.006523,-0.070506,0.999999,0.000000,-0.000032,0.004459,-0.000114,0.004462,-0.000035,-88.549967,0.005133,
1570,810,-1.581532,-9.474935,0.999995,0.000257,-0.005087,0.009247,-0.000530,0.009267,-0.005106,-87.886815,0.009283,
1190,1390,0.068957,-3.203137,0.999998,0.000195,-0.001847,0.004005,0.000959,0.004158,-0.002001,80.923141,0.004159,
1280,1930,-0.026088,-0.488237,0.999998,0.000144,-0.000475,0.004788,0.000097,0.004790,-0.000476,88.941985,0.005277,
620,760,2.592903,-9.421257,0.999997,0.000203,-0.003678,0.007367,0.000382,0.007380,-0.003691,88.021432,0.007380,
850,200,0.487528,-14.071443,0.999997,0.000187,-0.001979,0.006454,0.000836,0.006536,-0.002061,84.395719,0.006683,
650,200,1.037415,-13.763816,0.999998,0.000184,-0.003339,0.007711,0.000781,0.007766,-0.003394,85.975604,0.007786,
1880,1980,-0.580630,-0.569286,0.999997,0.000205,-0.003124,0.009121,0.002434,0.009587,-0.003590,79.160874,0.009687,
1400,180,-0.139434,-14.333646,0.999998,0.000184,-0.001015,0.005242,-0.000267,0.005253,-0.001026,-87.561496,0.005568,
790,210,0.651812,-13.938638,0.999997,0.000208,-0.002732,0.006853,0.000815,0.006922,-0.002801,85.173845,0.006964,
1140,500,0.179996,-12.630481,0.999998,0.000168,-0.002169,0.005457,-0.000689,0.005518,-0.002231,-84.881499,0.005552,
1780,480,-1.672455,-11.703238,0.999996,0.000237,-0.003816,0.007691,0.000131,0.007693,-0.003818,89.345815,0.007693,
570,1610,2.021240,-3.420262,0.999996,0.000249,-0.003626,0.007484,0.000062,0.007485,-0.003626,89.681028,0.007486,
1590,1810,-0.544924,-1.313835,0.999997,0.000220,-0.002491,0.006530,0.000440,0.006551,-0.002513,87.213888,0.006610,
1480,1680,-0.481921,-1.995833,0.999997,0.000205,-0.002577,0.006373,-0.000329,0.006385,-0.002589,-87.900353,0.006423,
1780,210,-0.967271,-13.756358,0.999998,0.000177,-0.003328,0.007570,-0.000797,0.007628,-0.003386,-85.840954,0.007643,
1830,400,-1.686696,-12.191428,0.999996,0.000216,-0.003726,0.007538,0.000082,0.007539,-0.003726,89.580931,0.007539,
1690,1750,-0.964951,-1.888850,0.999998,0.000179,-0.003250,0.007231,0.000221,0.007235,-0.003255,88.792680,0.007247,
1440,1260,-0.801829,-4.926072,0.999997,0.000215,-0.005782,0.009106,-0.001791,0.009319,-0.005995,-83.234642,0.009445,
1300,140,-0.039000,-14.559905,0.999998,0.000165,-0.000498,0.004863,-0.000119,0.004866,-0.000500,-88.730819,0.005353,
620,1550,1.967283,-3.761051,0.999997,0.000189,-0.003794,0.007609,0.000075,0.007610,-0.003795,89.621312,0.007610,
660,960,2.879372,-8.030128,0.999997,0.000214,-0.003286,0.006945,0.000306,0.006954,-0.003295,88.287064,0.006957,
1650,1410,-1.501861,-4.405221,0.999996,0.000228,-0.004463,0.008249,-0.000067,0.008249,-0.004464,-89.697721,0.008259,
1900,1530,-2.226518,-4.044148,0.999997,0.000000,-0.003750,0.007569,0.000003,0.007569,-0.003750,89.983604,0.007569,
1820,1130,-2.882239,-6.853041,0.999997,0.000205,-0.003347,0.006962,0.000466,0.006983,-0.003368,87.416003,0.006984,
1720,750,-2.084179,-9.706340,0.999998,0.000186,-0.004200,0.008070,-0.000598,0.008100,-0.004229,-87.214254,0.008102,
1690,2010,-0.104382,-0.147668,0.999998,0.000196,-0.000510,0.005520,0.001589,0.005913,-0.000903,76.106419,0.006371,
1010,480,0.502244,-12.497174,0.999996,0.000229,-0.003030,0.006552,-0.000849,0.006626,-0.003105,-84.975875,0.006631,
630,420,1.744416,-12.032518,0.999997,0.000203,-0.003733,0.007560,-0.000110,0.007561,-0.003735,-89.442871,0.007561,
1030,950,1.563900,-8.640392,0.999993,0.000316,-0.004929,0.012151,-0.001669,0.012312,-0.005091,-84.469973,0.012374,
1080,1290,0.426649,-4.255310,0.999997,0.000227,-0.004681,0.007159,0.002973,0.007864,-0.005386,76.666584,0.008041,
770,1360,1.817486,-4.918056,0.999997,0.000211,-0.004353,0.008152,-0.000321,0.008161,-0.004361,-88.528434,0.008167,
1510,1200,-1.446321,-5.893356,0.999994,0.000319,-0.005379,0.009881,0.000383,0.009890,-0.005389,88.563041,0.009904,
1190,30,0.005882,-15.072881,0.999999,0.000000,0.000039,0.004507,0.000016,0.004507,0.000039,89.799901,0.005227,
620,740,2.538853,-9.567563,0.999997,0.000205,-0.003716,0.007402,0.000333,0.007412,-0.003726,88.286215,0.007412,
1060,50,0.025301,-14.977635,0.999999,0.000143,-0.000229,0.004654,0.000341,0.004678,-0.000252,86.019517,0.005262,
640,970,2.949156,-7.953850,0.999998,0.000190,-0.003255,0.006745,0.000148,0.006748,-0.003257,89.151956,0.006749,
1140,460,0.175597,-12.852685,0.999998,0.000180,-0.002095,0.005490,-0.000559,0.005531,-0.002136,-85.807240,0.005578,
950,530,0.743503,-11.998062,0.999997,0.000201,-0.003594,0.007149,-0.000827,0.007212,-0.003657,-85.622015,0.007212,
1380,1930,-0.077535,-0.501990,0.999998,0.000142,-0.000503,0.004961,0.000316,0.004979,-0.000521,86.705634,0.005474,
960,190,0.276120,-14.223684,0.999997,0.000209,-0.001600,0.005743,0.000491,0.005776,-0.001633,86.193602,0.005955,
1780,460,-1.630830,-11.858970,0.999996,0.000235,-0.003789,0.007633,0.000136,0.007634,-0.003791,89.316948,0.007634,
1400,140,-0.100947,-14.541125,0.999998,0.000160,-0.000744,0.005049,-0.000310,0.005066,-0.000761,-86.945357,0.005464,
1570,760,-1.416777,-9.933829,0.999993,0.000305,-0.005159,0.009025,-0.000061,0.009025,-0.005160,-89.754886,0.009056,
1230,1750,0.000952,-1.388815,0.999998,0.000177,-0.001434,0.005268,0.000006,0.005268,-0.001434,89.951202,0.005447,
1190,1370,0.066628,-3.279934,0.999998,0.000182,-0.001804,0.003766,0.001087,0.003970,-0.002009,79.340102,0.003970,
1570,790,-1.512264,-9.659302,0.999995,0.000266,-0.005160,0.009179,-0.000343,0.009188,-0.005168,-88.628942,0.009211,
1420,1630,-0.379018,-2.212324,0.999997,0.000213,-0.002440,0.006074,-0.000535,0.006107,-0.002473,-86.416967,0.006144,
1660,530,-1.306776,-11.610034,0.999998,0.000174,-0.003968,0.007778,0.000299,0.007786,-0.003976,88.544306,0.007786,
1400,1350,-0.439889,-3.942150,0.999995,0.000254,-0.004205,0.006949,-0.002372,0.007432,-0.004689,-78.478238,0.007517,
1090,530,0.302807,-12.370572,0.999997,0.000198,-0.002676,0.005881,-0.001098,0.006019,-0.002814,-82.804443,0.006023,
1480,1660,-0.504428,-2.125700,0.999996,0.000232,-0.002739,0.006427,-0.000425,0.006447,-0.002759,-87.352490,0.006469,
790,190,0.589329,-14.079329,0.999997,0.000200,-0.002592,0.006822,0.000969,0.006921,-0.002690,84.184865,0.006978,
1130,440,0.190749,-12.950474,0.999998,0.000176,-0.002048,0.005543,-0.000496,0.005576,-0.002080,-86.276242,0.005635,
810,1860,0.552261,-1.050644,0.999996,0.000240,-0.002264,0.006658,-0.000934,0.006754,-0.002361,-84.087099,0.006856,
1000,320,0.386860,-13.491292,0.999997,0.000197,-0.001942,0.006109,-0.000011,0.006109,-0.001942,-89.919844,0.006243,
650,180,0.953484,-13.919205,0.999998,0.000179,-0.003262,0.007727,0.001045,0.007825,-0.003360,84.615528,0.007851,
1480,1570,-0.589337,-2.721714,0.999997,0.000212,-0.003056,0.006717,-0.000747,0.006774,-0.003113,-85.654701,0.006781,
1650,1370,-1.597505,-4.737299,0.999997,0.000230,-0.004576,0.008333,0.000113,0.008334,-0.004577,89.498260,0.008348,
1590,1520,-1.039212,-3.368898,0.999998,0.000202,-0.003883,0.007646,-0.000556,0.007672,-0.003910,-87.244081,0.007673,
660,940,2.849995,-8.171684,0.999997,0.000206,-0.003354,0.007086,0.000488,0.007109,-0.003377,87.328055,0.007112,
830,470,1.096552,-12.136544,0.999998,0.000174,-0.003660,0.007478,-0.000327,0.007488,-0.003669,-88.321806,0.007488,
1340,250,-0.127745,-13.986970,0.999997,0.000188,-0.001314,0.005247,-0.000004,0.005247,-0.001314,-89.965619,0.005461,
1170,850,0.357351,-11.259605,0.999993,0.000310,-0.004169,0.002269,-0.000565,0.002318,-0.004218,-85.020436,0.004225,
1200,1470,0.058541,-2.850066,0.999998,0.000177,-0.001886,0.004694,0.000405,0.004719,-0.001911,86.490248,0.004747,
1620,1010,-2.335627,-7.697746,0.999997,0.000204,-0.002890,0.007844,-0.000260,0.007850,-0.002897,-88.614347,0.007939,
1300,120,-0.030798,-14.655861,0.999998,0.000178,-0.000410,0.004804,-0.000144,0.004808,-0.000414,-88.415284,0.005329,
710,1960,0.376395,-0.476120,0.999996,0.000231,-0.002296,0.006518,-0.001757,0.006855,-0.002633,-79.132229,0.006916,
1430,120,-0.106044,-14.631377,0.999999,0.000140,-0.000709,0.005082,-0.000439,0.005116,-0.000742,-85.691360,0.005529,
1280,1990,-0.009421,-0.205137,0.999998,0.000174,-0.000190,0.004570,0.000104,0.004572,-0.000193,88.749668,0.005172,
640,910,2.866893,-8.369512,0.999998,0.000187,-0.003318,0.006932,0.000427,0.006950,-0.003336,87.620357,0.006951,
1810,1250,-2.589471,-5.979616,0.999996,0.000225,-0.003688,0.007412,0.000581,0.007442,-0.003718,87.011970,0.007442,
1690,1730,-1.009273,-2.033479,0.999998,0.000190,-0.003277,0.007357,0.000124,0.007359,-0.003279,89.330925,0.007373,
1480,350,-0.455293,-13.282787,0.999996,0.000227,-0.002345,0.006195,0.000204,0.006200,-0.002350,88.634491,0.006260,
1490,1200,-1.336553,-5.806366,0.999997,0.000236,-0.005614,0.010118,0.000062,0.010119,-0.005614,89.774318,0.010139,
1900,1900,-1.151336,-1.312440,0.999997,0.000000,-0.003750,0.007646,0.000618,0.007680,-0.003784,86.906510,0.007680,
1730,1670,-1.281294,-2.569288,0.999997,0.000214,-0.003659,0.007570,-0.000049,0.007570,-0.003659,-89.747690,0.007571,
750,1360,1.902897,-4.956417,0.999996,0.000263,-0.004265,0.008066,-0.000355,0.008076,-0.004275,-88.350932,0.008081,
1040,120,0.102333,-14.633523,0.999998,0.000194,-0.000729,0.005081,0.000409,0.005110,-0.000758,85.996132,0.005515,
910,1330,1.229676,-4.817550,0.999997,0.000238,-0.005188,0.008867,0.000378,0.008878,-0.005198,88.458797,0.008921,
740,1860,0.730246,-1.136174,0.999997,0.000207,-0.002550,0.007212,-0.001148,0.007345,-0.002683,-83.381726,0.007433,
1610,1260,-1.729072,-5.600883,0.999996,0.000269,-0.004785,0.008858,0.000628,0.008887,-0.004814,87.369046,0.008897,
1280,790,-0.098999,-11.490720,0.999996,0.000251,-0.002353,0.002506,0.002050,0.003256,-0.003103,69.922593,0.003674,
1190,1350,0.064441,-3.354189,0.999998,0.000183,-0.001790,0.003468,0.001246,0.003748,-0.002070,77.324107,0.003755,
620,720,2.486806,-9.717741,0.999996,0.000227,-0.003771,0.007503,0.000289,0.007510,-0.003778,88.530888,0.007510,
1280,840,-0.235479,-11.379437,0.999996,0.000249,-0.004139,0.002331,0.000564,0.002380,-0.004188,85.051644,0.004201,
1780,660,-2.086677,-10.304958,0.999997,0.000207,-0.003968,0.007812,-0.000253,0.007817,-0.003973,-88.771461,0.007817,
1680,750,-1.912671,-9.773772,0.999998,0.000171,-0.004405,0.008308,-0.000548,0.008331,-0.004429,-87.537651,0.008337,
700,1240,2.437553,-5.989413,0.999996,0.000231,-0.003860,0.007700,-0.000744,0.007748,-0.003908,-86.334723,0.007748,
1040,30,0.015812,-15.069090,0.999999,0.000000,-0.000210,0.004658,0.000358,0.004684,-0.000236,85.810336,0.005278,
1860,760,-2.656107,-9.387498,0.999997,0.000200,-0.003631,0.007358,-0.000308,0.007367,-0.003639,-88.396359,0.007367,
820,450,1.098340,-12.262478,0.999998,0.000171,-0.003572,0.007484,-0.000259,0.007490,-0.003578,-88.661190,0.007492,
1140,440,0.169165,-12.963348,0.999998,0.000185,-0.002035,0.005491,-0.000503,0.005525,-0.002068,-86.191901,0.005583,
1520,1760,-0.480518,-1.552384,0.999997,0.000203,-0.002310,0.006318,0.000109,0.006319,-0.002311,89.277683,0.006395,
1590,1090,-2.188748,-7.050813,0.999997,0.000231,-0.003158,0.008238,0.000807,0.008294,-0.003215,85.969984,0.008364,
960,1710,0.508870,-1.847406,0.999998,0.000205,-0.002632,0.006390,0.000205,0.006395,-0.002637,88.696774,0.006428,
1440,1240,-0.870795,-5.107054,0.999997,0.000223,-0.005873,0.009350,-0.001619,0.009520,-0.006043,-83.996341,0.009635,
790,170,0.523099,-14.210406,0.999997,0.000191,-0.002362,0.006633,0.001102,0.006766,-0.002495,83.115315,0.006843,
1480,1690,-0.471683,-1.932585,0.999997,0.000195,-0.002490,0.006319,-0.000281,0.006328,-0.002499,-88.177840,0.006375,
1350,130,-0.065282,-14.599151,0.999998,0.000158,-0.000604,0.004848,-0.000186,0.004854,-0.000610,-88.051028,0.005288,
1400,120,-0.082120,-14.641012,0.999998,0.000161,-0.000619,0.004981,-0.000361,0.005004,-0.000642,-86.321496,0.005445,
1180,1490,0.097346,-2.767258,0.999998,0.000176,-0.001985,0.004947,0.000576,0.004995,-0.002033,85.284620,0.005023,
1180,850,0.315036,-11.337709,0.999994,0.000302,-0.004700,0.002199,-0.000288,0.002211,-0.004712,-87.615829,0.004715,
1650,1350,-1.649860,-4.907284,0.999996,0.000241,-0.004596,0.008410,0.000223,0.008414,-0.004600,89.016244,0.008426,
1110,440,0.231331,-12.926238,0.999998,0.000198,-0.002062,0.005636,-0.000472,0.005665,-0.002091,-86.501616,0.005729,
1590,1580,-0.948770,-2.917686,0.999997,0.000195,-0.003624,0.007377,-0.000479,0.007398,-0.003644,-87.509044,0.007399,
1300,100,-0.024727,-14.751399,0.999998,0.000183,-0.000314,0.004697,-0.000143,0.004701,-0.000318,-88.368006,0.005254,
1020,1490,0.523791,-3.160022,0.999997,0.000198,-0.003370,0.006711,0.001201,0.006853,-0.003511,83.296511,0.006853,
1870,180,-1.158259,-13.727599,0.999998,0.000163,-0.003656,0.007634,-0.000468,0.007653,-0.003676,-87.628769,0.007655,
1820,1970,-0.447024,-0.470062,0.999994,0.000278,-0.002450,0.007748,0.002410,0.008289,-0.002991,77.350387,0.008395,
860,1230,1.795635,-5.854162,0.999996,0.000231,-0.004696,0.008890,-0.000801,0.008937,-0.004743,-86.637968,0.008942,
1000,300,0.365746,-13.607491,0.999997,0.000190,-0.001839,0.006002,0.000068,0.006003,-0.001840,89.504139,0.006151,
1900,1880,-1.244393,-1.462077,0.999997,0.000000,-0.003676,0.007523,0.000437,0.007540,-0.003693,87.767741,0.007540,
1170,1300,0.104435,-3.592354,0.999996,0.000247,-0.002276,0.003343,0.002262,0.004141,-0.003073,70.582968,0.004300,
1700,70,-0.199903,-14.829803,0.999998,0.000145,-0.000845,0.005870,-0.001765,0.006305,-0.001281,-76.132170,0.006666,
830,910,2.195178,-8.496334,0.999997,0.000214,-0.003720,0.008248,0.001046,0.008339,-0.003811,85.041486,0.008349,
1470,980,-1.846719,-8.085958,0.999997,0.000201,-0.003723,0.010749,-0.000165,0.010751,-0.003725,-89.345779,0.010918,
1630,1640,-0.990127,-2.567751,0.999997,0.000209,-0.003467,0.007353,-0.000233,0.007358,-0.003472,-88.765326,0.007362,
1410,120,-0.090186,-14.638330,0.999998,0.000156,-0.000695,0.005014,-0.000367,0.005038,-0.000718,-86.337357,0.005450,
600,210,1.257096,-13.528320,0.999997,0.000219,-0.003659,0.007540,0.000264,0.007546,-0.003666,88.651022,0.007547,
1260,1990,-0.006016,-0.206220,0.999998,0.000177,-0.000229,0.004558,0.000066,0.004559,-0.000230,89.209728,0.005137,
1830,380,-1.640559,-12.343082,0.999997,0.000212,-0.003731,0.007574,0.000069,0.007574,-0.003732,89.649475,0.007575,
1870,1260,-2.781030,-6.009227,0.999997,0.000213,-0.003526,0.007067,0.000250,0.007073,-0.003532,88.648459,0.007073,
1230,1730,0.003423,-1.493785,0.999998,0.000160,-0.001495,0.005273,0.000000,0.005273,-0.001495,89.997750,0.005436,
950,510,0.721088,-12.139140,0.999997,0.000220,-0.003520,0.007100,-0.000808,0.007161,-0.003581,-85.674047,0.007161,
1820,320,-1.454672,-12.826144,0.999996,0.000233,-0.003675,0.007483,-0.000032,0.007483,-0.003675,-89.835946,0.007483,
1160,1930,0.034829,-0.487943,0.999999,0.000164,-0.000463,0.004811,-0.000153,0.004816,-0.000467,-88.341954,0.005311,
620,700,2.435553,-9.870533,0.999996,0.000229,-0.003800,0.007537,0.000245,0.007543,-0.003806,88.763100,0.007543,
1860,1500,-2.142798,-4.181912,0.999997,0.000179,-0.003804,0.007633,-0.000015,0.007633,-0.003804,-89.925893,0.007633,
1660,1830,-0.657877,-1.263093,0.999997,0.000220,-0.002698,0.006866,0.000704,0.006918,-0.002750,85.809994,0.006966,
1550,760,-1.311005,-9.998230,0.999995,0.000265,-0.005298,0.009098,0.000147,0.009099,-0.005300,89.414282,0.009140,
1560,810,-1.528745,-9.502674,0.999994,0.000288,-0.005178,0.009329,-0.000451,0.009343,-0.005192,-88.222495,0.009362,
1110,1160,0.926813,-4.763753,0.999996,0.000000,-0.001651,0.005051,0.004023,0.006936,-0.003536,64.894802,0.006936,
1080,250,0.181592,-13.965547,0.999998,0.000176,-0.001276,0.005416,0.000133,0.005419,-0.001279,88.859369,0.005665,
1040,80,0.061077,-14.831714,0.999999,0.000151,-0.000462,0.004846,0.000429,0.004881,-0.000497,85.411879,0.005372,
1090,510,0.296542,-12.489258,0.999997,0.000195,-0.002601,0.005856,-0.000971,0.005966,-0.002711,-83.531518,0.005974,
790,150,0.455963,-14.344824,0.999997,0.000211,-0.002171,0.006568,0.001225,0.006736,-0.002340,82.166400,0.006840,
1220,190,0.010292,-14.318353,0.999998,0.000164,-0.000914,0.004961,0.000005,0.004961,-0.000914,89.955450,0.005280,
1670,440,-1.177710,-12.274335,0.999996,0.000230,-0.003623,0.007504,0.000198,0.007507,-0.003627,88.981150,0.007509,
1190,840,0.207514,-11.422513,0.999994,0.000298,-0.004448,0.002260,-0.000349,0.002278,-0.004466,-87.031190,0.004466,
1570,770,-1.447044,-9.841874,0.999994,0.000277,-0.005169,0.009065,-0.000150,0.009067,-0.005170,-89.395673,0.009096,
1690,1710,-1.055041,-2.184693,0.999998,0.000187,-0.003287,0.007390,0.000102,0.007391,-0.003288,89.451560,0.007406,
1650,1330,-1.704092,-5.075418,0.999996,0.000231,-0.004637,0.008435,0.000318,0.008443,-0.004645,88.605891,0.008457,
660,1230,2.614816,-6.117368,0.999996,0.000226,-0.003661,0.007317,-0.000593,0.007349,-0.003692,-86.917085,0.007349,
1310,440,-0.142675,-12.979521,0.999999,0.000137,-0.001976,0.005405,0.000398,0.005426,-0.001998,86.925532,0.005489,
1300,80,-0.018723,-14.844821,0.999998,0.000161,-0.000234,0.004633,-0.000160,0.004639,-0.000239,-88.114664,0.005224,
1140,420,0.165467,-13.073399,0.999998,0.000191,-0.001999,0.005492,-0.000447,0.005519,-0.002025,-86.596310,0.005583,
1570,1580,-0.876453,-2.867304,0.999998,0.000170,-0.003494,0.007253,-0.000498,0.007276,-0.003517,-87.352477,0.007277,
1480,1640,-0.526292,-2.256918,0.999997,0.000212,-0.002838,0.006534,-0.000506,0.006562,-0.002865,-86.917296,0.006579,
1770,850,-2.554631,-8.855460,0.999996,0.000232,-0.003686,0.007452,-0.000701,0.007496,-0.003730,-86.410623,0.007496,
1590,1500,-1.069715,-3.523215,0.999997,0.000201,-0.004045,0.007725,-0.000578,0.007754,-0.004073,-87.194516,0.007757,
1690,120,-0.384131,-14.523368,0.999997,0.000223,-0.001623,0.006446,-0.001615,0.006757,-0.001934,-79.090572,0.006960,
660,920,2.818440,-8.313552,0.999997,0.000207,-0.003375,0.007077,0.000493,0.007100,-0.003398,87.303427,0.007102,
1360,1330,-0.293034,-3.840618,0.999998,0.000205,-0.003657,0.005911,-0.002755,0.006648,-0.004394,-75.031135,0.006762,
940,390,0.618188,-12.944803,0.999997,0.000204,-0.002716,0.006618,-0.000274,0.006626,-0.002724,-88.318352,0.006661,
940,1710,0.561378,-1.880480,0.999998,0.000185,-0.002450,0.006546,0.000051,0.006546,-0.002450,89.677122,0.006614,
1600,1140,-2.088550,-6.638370,0.999998,0.000198,-0.003737,0.008500,0.001045,0.008589,-0.003826,85.155229,0.008606,
1480,1670,-0.493816,-2.060430,0.999997,0.000221,-0.002657,0.006398,-0.000370,0.006413,-0.002672,-87.661200,0.006442,
1440,1220,-0.952455,-5.295786,0.999997,0.000215,-0.005872,0.009776,-0.001440,0.009907,-0.006003,-84.784712,0.009981,
1400,100,-0.064233,-14.739921,0.999998,0.000156,-0.000513,0.004890,-0.000365,0.004914,-0.000537,-86.155947,0.005391,
1900,1870,-1.288926,-1.539220,0.999996,0.000000,-0.003660,0.007445,0.000381,0.007458,-0.003673,88.036177,0.007458,
790,500,1.301378,-11.809417,0.999996,0.000228,-0.003859,0.007682,-0.000275,0.007689,-0.003866,-88.634379,0.007689,
1890,1260,-2.850471,-6.049478,0.999997,0.000211,-0.003465,0.006907,0.000149,0.006909,-0.003468,89.178115,0.006909,
1800,1970,-0.420381,-0.452142,0.999996,0.000223,-0.001521,0.007361,0.002787,0.008163,-0.002323,73.944902,0.008411,
620,680,2.381768,-10.018889,0.999997,0.000207,-0.003811,0.007537,0.000242,0.007543,-0.003816,88.776572,0.007543,
950,490,0.700010,-12.282566,0.999997,0.000211,-0.003432,0.007022,-0.000765,0.007078,-0.003488,-85.837371,0.007078,
1560,790,-1.460462,-9.688096,0.999995,0.000270,-0.005239,0.009259,-0.000246,0.009264,-0.005244,-89.026349,0.009291,
980,1930,0.146996,-0.527909,0.999998,0.000181,-0.000832,0.005257,-0.000590,0.005314,-0.000889,-84.518645,0.005692,
750,640,1.762128,-10.607970,0.999998,0.000194,-0.004217,0.008024,0.000113,0.008025,-0.004218,89.471773,0.008029,
1110,910,1.042046,-10.268442,0.999993,0.000000,-0.001547,0.005860,-0.004885,0.008287,-0.003974,-63.583983,0.008289,
1190,1330,0.063546,-3.420585,0.999998,0.000177,-0.001780,0.003156,0.001392,0.003522,-0.002145,75.287834,0.003550,
1820,280,-1.341285,-13.129738,0.999997,0.000211,-0.003589,0.007595,-0.000212,0.007599,-0.003593,-88.914157,0.007602,
1230,1710,0.002786,-1.598898,0.999998,0.000168,-0.001584,0.005292,0.000020,0.005292,-0.001584,89.830545,0.005432,
1280,1870,-0.039851,-0.781693,0.999999,0.000129,-0.000772,0.004976,0.000070,0.004977,-0.000773,89.303413,0.005357,
830,890,2.139995,-8.659427,0.999997,0.000207,-0.003909,0.008302,0.001008,0.008385,-0.003991,85.312330,0.008388,
1500,250,-0.366794,-13.873500,0.999997,0.000180,-0.002003,0.005997,-0.000247,0.006005,-0.002011,-88.234519,0.006113,
1860,250,-1.390483,-13.238355,0.999997,0.000214,-0.003654,0.007432,-0.000129,0.007434,-0.003655,-89.334715,0.007434,
1190,850,0.267895,-11.402241,0.999993,0.000306,-0.005353,0.002334,0.000004,0.002334,-0.005353,89.972965,0.005367,
790,130,0.389126,-14.473991,0.999996,0.000221,-0.001888,0.006327,0.001340,0.006540,-0.002101,80.964121,0.006678,
1030,1490,0.491408,-3.130180,0.999996,0.000222,-0.003308,0.006613,0.001247,0.006767,-0.003462,82.944959,0.006768,
1650,1310,-1.763335,-5.244744,0.999996,0.000233,-0.004647,0.008514,0.000435,0.008528,-0.004661,88.107903,0.008540,
1450,760,-0.763055,-10.448669,0.999996,0.000242,-0.005478,0.008773,0.001757,0.008987,-0.005691,83.073554,0.009093,
1340,1330,-0.224260,-3.720590,0.999997,0.000210,-0.003147,0.005196,-0.002690,0.005988,-0.003939,-73.591202,0.006087,
1190,440,0.076040,-13.000345,0.999999,0.000166,-0.001811,0.005293,-0.000186,0.005298,-0.001816,-88.498580,0.005384,
1690,1690,-1.099306,-2.332101,0.999997,0.000193,-0.003351,0.007339,0.000018,0.007339,-0.003351,89.905521,0.007349,
1200,190,0.028392,-14.315696,0.999998,0.000163,-0.000862,0.004977,0.000035,0.004977,-0.000862,89.659833,0.005320,
1690,100,-0.301683,-14.656553,0.999997,0.000185,-0.001301,0.006182,-0.001645,0.006527,-0.001647,-78.133269,0.006789,
1420,1190,-0.986393,-5.434286,0.999997,0.000205,-0.005416,0.009980,-0.001933,0.010219,-0.005655,-82.951940,0.010238,
1900,1860,-1.331554,-1.613552,0.999997,0.000000,-0.003624,0.007379,0.000293,0.007386,-0.003632,88.474471,0.007387,
1290,1270,-0.116309,-3.668160,0.999996,0.000257,-0.002429,0.002892,-0.002386,0.003805,-0.003342,-69.055727,0.004153,
1610,180,-0.430207,-14.202567,0.999997,0.000202,-0.001811,0.006226,-0.000882,0.006321,-0.001907,-83.807427,0.006485,
1140,1610,0.171822,-2.184648,0.999998,0.000157,-0.002090,0.005502,0.000496,0.005534,-0.002122,86.277170,0.005584,
960,1930,0.167734,-0.536798,0.999998,0.000172,-0.001022,0.005346,-0.000633,0.005408,-0.001084,-84.380109,0.005722,
1140,400,0.160809,-13.183578,0.999997,0.000184,-0.001945,0.005473,-0.000384,0.005493,-0.001965,-87.048466,0.005567,
1570,750,-1.386890,-10.024339,0.999996,0.000263,-0.005148,0.008970,0.000013,0.008970,-0.005148,89.948227,0.009002,
1080,1680,0.264112,-1.856641,0.999998,0.000175,-0.001958,0.005745,0.000249,0.005753,-0.001966,88.148404,0.005849,
1780,870,-2.638984,-8.695291,0.999997,0.000216,-0.003619,0.007439,-0.000711,0.007485,-0.003664,-86.333962,0.007486,
1880,1260,-2.815638,-6.028132,0.999998,0.000186,-0.003484,0.006991,0.000190,0.006994,-0.003488,88.962050,0.006994,
1070,1080,1.431792,-6.343984,0.999979,0.000000,-0.005986,0.018014,0.005687,0.019294,-0.007265,77.320877,0.019489,
620,660,2.331394,-10.172949,0.999996,0.000222,-0.003826,0.007569,0.000209,0.007573,-0.003829,88.947074,0.007573,
790,110,0.318341,-14.599347,0.999997,0.000221,-0.001582,0.006224,0.001514,0.006507,-0.001866,79.401812,0.006701,
1400,80,-0.047685,-14.836459,0.999998,0.000154,-0.000375,0.004800,-0.000384,0.004829,-0.000404,-85.779738,0.005358,
1610,1140,-2.126328,-6.648974,0.999998,0.000197,-0.003722,0.008415,0.001048,0.008505,-0.003812,85.100021,0.008521,
1830,600,-2.133573,-10.661307,0.999996,0.000223,-0.003867,0.007652,-0.000079,0.007653,-0.003867,-89.605664,0.007653,
1860,1460,-2.236600,-4.489258,0.999997,0.000217,-0.003819,0.007686,0.000040,0.007686,-0.003820,89.800812,0.007686,
1180,1870,0.041006,-0.780599,0.999998,0.000161,-0.000758,0.004969,-0.000091,0.004971,-0.000760,-89.086303,0.005355,
670,300,1.302901,-13.041186,0.999997,0.000201,-0.003606,0.007557,0.000198,0.007560,-0.003610,88.983374,0.007563,
1900,1850,-1.372221,-1.684562,0.999998,0.000000,-0.003576,0.007264,0.000231,0.007269,-0.003581,88.779270,0.007269,
1000,280,0.339170,-13.731213,0.999997,0.000191,-0.001702,0.005953,0.000163,0.005957,-0.001706,88.782834,0.006136,
750,1600,1.366440,-3.062773,0.999997,0.000207,-0.003766,0.007587,0.000182,0.007590,-0.003769,89.082136,0.007590,
910,1310,1.283712,-4.995324,0.999997,0.000240,-0.005275,0.009008,0.000228,0.009012,-0.005279,89.084133,0.009056,
1430,760,-0.656409,-10.572484,0.999996,0.000271,-0.005363,0.008416,0.002156,0.008745,-0.005692,81.312617,0.008877,
1440,1200,-1.043509,-5.502089,0.999996,0.000237,-0.005820,0.010193,-0.001222,0.010286,-0.005912,-85.662437,0.010324,
1730,1650,-1.325295,-2.722871,0.999997,0.000222,-0.003698,0.007603,-0.000103,0.007604,-0.003699,-89.479674,0.007605,
590,1360,2.534909,-5.279512,0.999997,0.000247,-0.003920,0.007534,-0.000115,0.007535,-0.003921,-89.422535,0.007537,
1860,770,-2.681035,-9.314078,0.999997,0.000188,-0.003616,0.007360,-0.000298,0.007368,-0.003624,-88.444690,0.007368,
1030,1470,0.500376,-3.263238,0.999997,0.000220,-0.003438,0.006707,0.001360,0.006886,-0.003617,82.498730,0.006889,
870,950,2.165784,-8.189168,0.999997,0.000209,-0.003321,0.008295,0.000880,0.008361,-0.003388,85.693106,0.008411,
1350,110,-0.051537,-14.697665,0.999998,0.000169,-0.000508,0.004860,-0.000255,0.004872,-0.000520,-87.289688,0.005351,
1770,1870,-0.837124,-1.151010,0.999998,0.000173,-0.003265,0.007413,0.000982,0.007502,-0.003355,84.786756,0.007516,
950,470,0.676870,-12.426394,0.999997,0.000200,-0.003262,0.006945,-0.000656,0.006987,-0.003304,-86.337307,0.006990,
1230,1690,0.001613,-1.703921,0.999998,0.000165,-0.001622,0.005299,0.000006,0.005299,-0.001622,89.951055,0.005431,
1110,1200,0.587796,-4.570442,0.999988,0.000422,-0.003622,0.005607,0.003197,0.006606,-0.004621,72.643480,0.006779,
1650,1290,-1.822021,-5.419732,0.999996,0.000233,-0.004601,0.008557,0.000552,0.008580,-0.004624,87.601976,0.008589,
1300,60,-0.011105,-14.937591,0.999999,0.000143,-0.000144,0.004538,-0.000149,0.004543,-0.000149,-88.182651,0.005162,
700,1230,2.465932,-6.068581,0.999996,0.000231,-0.003823,0.007645,-0.000747,0.007694,-0.003871,-86.287757,0.007694,
1400,60,-0.029895,-14.932019,0.999998,0.000148,-0.000264,0.004684,-0.000361,0.004710,-0.000290,-85.851298,0.005279,
800,610,1.480546,-10.967276,0.999996,0.000229,-0.004306,0.008026,-0.000123,0.008027,-0.004307,-89.426308,0.008035,
830,870,2.077701,-8.829174,0.999997,0.000196,-0.004113,0.008465,0.001023,0.008548,-0.004195,85.379594,0.008548,
1090,490,0.289706,-12.607833,0.999997,0.000198,-0.002499,0.005871,-0.000854,0.005957,-0.002585,-84.233537,0.005974,
740,970,2.625688,-7.985031,0.999997,0.000206,-0.003299,0.007412,0.000425,0.007429,-0.003316,87.733371,0.007443,
1360,1590,-0.253043,-2.343553,0.999998,0.000187,-0.002178,0.005719,-0.000607,0.005765,-0.002225,-85.630453,0.005815,
1320,1390,-0.166720,-3.331128,0.999997,0.000216,-0.002489,0.004814,-0.001746,0.005210,-0.002885,-77.219794,0.005220,
700,1170,2.612075,-6.522782,0.999997,0.000218,-0.003620,0.007485,-0.000732,0.007533,-0.003668,-86.245205,0.007533,
1900,1840,-1.410252,-1.759167,0.999997,0.000000,-0.003580,0.007183,0.000227,0.007188,-0.003585,88.791282,0.007188,
1630,160,-0.407795,-14.313666,0.999998,0.000184,-0.001546,0.006348,-0.001175,0.006519,-0.001718,-81.708076,0.006758,
1860,1440,-2.283867,-4.643429,0.999996,0.000237,-0.003801,0.007656,0.000067,0.007656,-0.003801,89.665657,0.007656,
1260,790,-0.055448,-11.577006,0.999996,0.000250,-0.002075,0.001895,0.001248,0.002254,-0.002435,73.925315,0.002713,
660,900,2.783546,-8.454571,0.999997,0.000224,-0.003425,0.007075,0.000477,0.007096,-0.003447,87.402851,0.007097,
1810,600,-2.055048,-10.705832,0.999997,0.000191,-0.003865,0.007701,-0.000062,0.007701,-0.003865,-89.693378,0.007701,
1120,190,0.095433,-14.301177,0.999998,0.000188,-0.000984,0.005106,0.000117,0.005108,-0.000987,88.897942,0.005419,
910,1290,1.342554,-5.177673,0.999995,0.000259,-0.005304,0.009145,0.000062,0.009145,-0.005304,89.752530,0.009184,
730,1600,1.443090,-3.108782,0.999997,0.000204,-0.003772,0.007612,0.000144,0.007614,-0.003774,89.273859,0.007614,
740,1840,0.802531,-1.284888,0.999997,0.000198,-0.002753,0.007270,-0.000982,0.007365,-0.002849,-84.454960,0.007428,
1000,260,0.316040,-13.846542,0.999997,0.000187,-0.001583,0.005814,0.000214,0.005820,-0.001590,88.341944,0.006017,
1730,1630,-1.370042,-2.875935,0.999998,0.000199,-0.003727,0.007591,-0.000132,0.007593,-0.003729,-89.332844,0.007593,
1200,1870,0.025654,-0.778619,0.999998,0.000153,-0.000814,0.004965,-0.000044,0.004965,-0.000814,-89.565715,0.005326,
650,300,1.374730,-12.993490,0.999997,0.000212,-0.003602,0.007547,0.000182,0.007550,-0.003605,89.062760,0.007552,
1190,1310,0.065068,-3.481580,0.999998,0.000168,-0.001804,0.002877,0.001547,0.003342,-0.002269,73.264958,0.003413,
1440,1180,-1.149077,-5.719389,0.999995,0.000284,-0.005555,0.010438,-0.001001,0.010500,-0.005617,-86.432751,0.010509,
1740,510,-1.581984,-11.569267,0.999996,0.000221,-0.003912,0.007739,0.000157,0.007741,-0.003914,89.230332,0.007741,
680,910,2.731931,-8.399845,0.999997,0.000223,-0.003446,0.007180,0.000517,0.007205,-0.003471,87.222488,0.007207,
1570,730,-1.331035,-10.202224,0.999997,0.000245,-0.005096,0.008857,0.000166,0.008859,-0.005098,89.317812,0.008893,
910,1840,0.403017,-1.082893,0.999998,0.000181,-0.001700,0.006102,-0.000609,0.006149,-0.001747,-85.561782,0.006337,
1230,1670,0.002987,-1.811686,0.999998,0.000160,-0.001698,0.005288,0.000000,0.005288,-0.001698,89.997888,0.005400,
870,930,2.110250,-8.358827,0.999997,0.000205,-0.003556,0.008495,0.001068,0.008589,-0.003650,84.974161,0.008621,
1030,1450,0.508501,-3.396690,0.999996,0.000236,-0.003624,0.006818,0.001498,0.007028,-0.003834,81.996548,0.007038,
580,1360,2.571265,-5.303755,0.999997,0.000244,-0.004523,0.007493,-0.000016,0.007493,-0.004523,-89.924936,0.007546,
1520,1740,-0.508518,-1.675876,0.999997,0.000212,-0.002414,0.006429,0.000010,0.006429,-0.002414,89.938383,0.006495,
950,450,0.655685,-12.563196,0.999998,0.000203,-0.003075,0.006842,-0.000549,0.006872,-0.003105,-86.842578,0.006883,
1140,380,0.153813,-13.295028,0.999998,0.000169,-0.001894,0.005507,-0.000327,0.005522,-0.001909,-87.474839,0.005609,
1290,1970,-0.019550,-0.298432,0.999998,0.000159,-0.000254,0.004622,0.000132,0.004626,-0.000258,88.451592,0.005199,
1770,1830,-0.987239,-1.454673,0.999997,0.000203,-0.003421,0.007552,0.000624,0.007587,-0.003457,86.757844,0.007597,
1690,1670,-1.138804,-2.476570,0.999998,0.000181,-0.003431,0.007401,-0.000058,0.007401,-0.003431,-89.690672,0.007408,
1090,450,0.275804,-12.843670,0.999998,0.000182,-0.002303,0.005813,-0.000629,0.005862,-0.002352,-85.593959,0.005900,
720,970,2.689100,-7.978558,0.999997,0.000208,-0.003282,0.007282,0.000353,0.007294,-0.003294,88.089568,0.007305,
570,610,2.392518,-10.447876,0.999908,0.001145,-0.003539,0.007453,0.000575,0.007483,-0.003569,87.013136,0.007485,
1390,1990,-0.032676,-0.210940,0.999998,0.000161,-0.000199,0.004728,0.000347,0.004753,-0.000224,85.988357,0.005364,
1230,1360,0.001282,-3.269300,0.999997,0.000189,-0.001540,0.003266,0.000054,0.003267,-0.001541,89.362250,0.003269,
830,850,2.013093,-8.999167,0.999997,0.000192,-0.004286,0.008490,0.000972,0.008563,-0.004359,85.676088,0.008564,
680,1230,2.541862,-6.094067,0.999996,0.000231,-0.003725,0.007484,-0.000675,0.007524,-0.003766,-86.563875,0.007524,
1790,1580,-1.701425,-3.400585,0.999997,0.000202,-0.003844,0.007652,-0.000113,0.007653,-0.003846,-89.434689,0.007653,
1900,1830,-1.447858,-1.831040,0.999996,0.000000,-0.003599,0.007193,0.000197,0.007196,-0.003603,88.952969,0.007196,
1610,160,-0.378160,-14.326205,0.999996,0.000219,-0.001606,0.006221,-0.001019,0.006351,-0.001736,-82.700669,0.006565,
1360,370,-0.220613,-13.313608,0.999998,0.000154,-0.001826,0.005664,0.000211,0.005670,-0.001832,88.388688,0.005787,
1350,90,-0.039536,-14.793659,0.999998,0.000178,-0.000374,0.004745,-0.000231,0.004755,-0.000384,-87.416318,0.005283,
1100,190,0.112655,-14.295246,0.999998,0.000172,-0.000884,0.005154,0.000186,0.005160,-0.000889,88.235767,0.005517,
680,1170,2.685193,-6.538386,0.999997,0.000215,-0.003559,0.007358,-0.000647,0.007396,-0.003598,-86.620731,0.007397,
1650,1270,-1.883702,-5.588987,0.999996,0.000246,-0.004529,0.008526,0.000677,0.008561,-0.004564,87.039299,0.008567,
1220,1870,0.009689,-0.776912,0.999998,0.000166,-0.000861,0.004950,0.000010,0.004950,-0.000861,89.900014,0.005289,
1650,800,-1.932120,-9.401535,0.999997,0.000246,-0.004482,0.008526,-0.000774,0.008572,-0.004528,-86.607991,0.008576,
1860,1420,-2.332583,-4.796872,0.999996,0.000246,-0.003773,0.007601,0.000117,0.007602,-0.003774,89.409838,0.007602,
1000,240,0.288772,-13.964890,0.999998,0.000178,-0.001477,0.005780,0.000304,0.005793,-0.001489,87.601523,0.006017,
1730,1610,-1.409927,-3.026333,0.999997,0.000216,-0.003751,0.007582,-0.000154,0.007584,-0.003753,-89.223765,0.007584,
780,910,2.381192,-8.459691,0.999997,0.000250,-0.003601,0.007929,0.000890,0.007997,-0.003670,85.613710,0.008006,
740,750,2.095407,-9.700601,0.999997,0.000223,-0.004162,0.008009,0.000593,0.008038,-0.004191,87.215033,0.008040,
1170,440,0.111768,-12.991498,0.999999,0.000153,-0.001839,0.005349,-0.000225,0.005356,-0.001846,-88.206226,0.005441,
740,1080,2.629124,-7.171442,0.999997,0.000212,-0.003311,0.007368,-0.000355,0.007379,-0.003323,-88.099666,0.007392,
1760,1910,-0.632916,-0.835929,0.999996,0.000209,-0.002976,0.007205,0.001407,0.007396,-0.003167,82.273726,0.007422,
650,280,1.316301,-13.145326,0.999997,0.000219,-0.003564,0.007591,0.000240,0.007596,-0.003569,88.766288,0.007601,
1190,1290,0.067331,-3.536061,0.999997,0.000195,-0.001916,0.002575,0.001668,0.003127,-0.002468,71.698768,0.003297,
1440,1160,-1.269040,-5.931691,0.999994,0.000286,-0.005258,0.010671,-0.000909,0.010723,-0.005309,-86.742996,0.010723,
1030,1430,0.518284,-3.534178,0.999996,0.000263,-0.003817,0.006899,0.001651,0.007148,-0.004066,81.438028,0.007170,
1460,250,-0.298969,-13.907173,0.999998,0.000172,-0.001534,0.005779,-0.000271,0.005789,-0.001544,-87.879365,0.005995,
570,1360,2.623634,-5.330163,0.999677,0.002264,-0.004847,0.007462,0.000037,0.007462,-0.004847,89.827990,0.007572,
1890,1970,-0.687803,-0.692836,0.999995,0.000268,-0.003330,0.009264,0.002171,0.009627,-0.003694,80.489909,0.009714,
950,430,0.635513,-12.697860,0.999997,0.000219,-0.002915,0.006727,-0.000470,0.006750,-0.002938,-87.214221,0.006769,
870,910,2.047187,-8.530517,0.999998,0.000194,-0.003842,0.008583,0.001049,0.008671,-0.003930,85.206964,0.008684,
1570,710,-1.279263,-10.381926,0.999997,0.000245,-0.005016,0.008756,0.000310,0.008763,-0.005023,88.711917,0.008794,
1290,1950,-0.022638,-0.391111,0.999998,0.000174,-0.000348,0.004738,0.000128,0.004742,-0.000351,88.555682,0.005284,
1600,1180,-1.956485,-6.289799,0.999997,0.000201,-0.004207,0.008772,0.001066,0.008859,-0.004294,85.334567,0.008861,
1520,1720,-0.537492,-1.809320,0.999997,0.000203,-0.002475,0.006600,-0.000032,0.006600,-0.002475,-89.798989,0.006668,
1230,1650,0.003774,-1.916966,0.999998,0.000163,-0.001738,0.005269,0.000012,0.005269,-0.001738,89.898856,0.005370,
1140,360,0.147288,-13.405788,0.999998,0.000175,-0.001808,0.005496,-0.000250,0.005505,-0.001816,-88.042339,0.005610,
1070,980,1.434975,-8.681096,0.999940,0.000000,-0.006353,0.018047,-0.005239,0.019125,-0.007431,-78.380394,0.019282,
690,1420,1.996359,-4.603096,0.999996,0.000216,-0.003990,0.007825,-0.000189,0.007828,-0.003993,-89.084481,0.007828,
1810,1690,-1.530180,-2.612797,0.999996,0.000224,-0.003722,0.007563,-0.000026,0.007563,-0.003722,-89.870169,0.007563,
1480,1620,-0.544445,-2.388184,0.999997,0.000225,-0.002907,0.006587,-0.000573,0.006622,-0.002941,-86.561650,0.006636,
1770,1290,-2.330327,-5.615630,0.999996,0.000230,-0.003921,0.007732,0.000614,0.007764,-0.003953,86.989925,0.007765,
570,590,2.343009,-10.593068,0.999906,0.001085,-0.003063,0.007426,0.000238,0.007431,-0.003068,88.699655,0.007469,
830,830,1.950728,-9.168285,0.999996,0.000213,-0.004427,0.008623,0.000890,0.008684,-0.004487,86.116941,0.008685,
1330,1460,-0.198086,-3.006357,0.999998,0.000201,-0.002422,0.005251,-0.001186,0.005431,-0.002601,-81.409679,0.005432,
980,950,1.778629,-8.358728,0.999995,0.000253,-0.003946,0.010463,0.000609,0.010489,-0.003971,87.582833,0.010592,
590,330,1.673768,-12.603969,0.999997,0.000178,-0.003748,0.007451,-0.000101,0.007452,-0.003749,-89.481768,0.007452,
1690,1650,-1.181218,-2.627806,0.999998,0.000189,-0.003540,0.007516,-0.000095,0.007517,-0.003541,-89.508370,0.007521,
1090,430,0.270227,-12.960044,0.999998,0.000178,-0.002154,0.005769,-0.000482,0.005798,-0.002183,-86.533390,0.005857,
1900,1820,-1.487996,-1.900830,0.999996,0.000000,-0.003605,0.007153,0.000163,0.007155,-0.003607,89.131948,0.007155,
710,1800,1.025980,-1.641527,0.999997,0.000223,-0.003492,0.007532,-0.000431,0.007549,-0.003508,-87.764451,0.007555,
1600,1010,-2.279409,-7.702076,0.999997,0.000204,-0.002831,0.007980,-0.000269,0.007987,-0.002838,-88.573782,0.008098,
1720,1710,-1.153538,-2.244465,0.999998,0.000160,-0.003462,0.007481,0.000121,0.007483,-0.003463,89.364072,0.007490,
740,1670,1.257945,-2.551989,0.999997,0.000209,-0.003608,0.007571,0.000020,0.007571,-0.003608,89.895351,0.007574,
1180,370,0.084245,-13.371189,0.999998,0.000159,-0.001617,0.005365,-0.000093,0.005366,-0.001619,-89.239212,0.005505,
820,1290,1.789479,-5.405139,0.999997,0.000268,-0.004609,0.008586,-0.000523,0.008607,-0.004630,-87.734057,0.008615,
700,1220,2.493750,-6.145941,0.999996,0.000235,-0.003784,0.007575,-0.000736,0.007622,-0.003832,-86.309949,0.007622,
1000,220,0.264950,-14.077293,0.999998,0.000174,-0.001341,0.005644,0.000349,0.005661,-0.001358,87.145005,0.005911,
1460,190,-0.217415,-14.249664,0.999998,0.000196,-0.001093,0.005521,-0.000427,0.005549,-0.001121,-86.321921,0.005868,
1710,1200,-2.343139,-6.246122,0.999996,0.000241,-0.003861,0.007880,0.000882,0.007946,-0.003927,85.726602,0.007946,
1390,1970,-0.048969,-0.306505,0.999998,0.000176,-0.000325,0.004800,0.000325,0.004821,-0.000346,86.389687,0.005378,
810,1480,1.365996,-3.848939,0.999996,0.000216,-0.004160,0.007910,0.000261,0.007915,-0.004166,88.760116,0.007919,
1650,1250,-1.945127,-5.760758,0.999996,0.000246,-0.004440,0.008526,0.000782,0.008573,-0.004487,86.562986,0.008576,
1770,1580,-1.623827,-3.353385,0.999998,0.000161,-0.003844,0.007670,-0.000133,0.007672,-0.003846,-89.336739,0.007672,
1360,1870,-0.107524,-0.797937,0.999998,0.000168,-0.000878,0.005108,0.000175,0.005113,-0.000884,88.325727,0.005466,
1620,1990,-0.122881,-0.240230,0.999998,0.000181,-0.000467,0.005473,0.001336,0.005760,-0.000754,77.889589,0.006261,
1090,60,0.026110,-14.933555,0.999999,0.000140,-0.000188,0.004649,0.000294,0.004667,-0.000206,86.533720,0.005274,
790,50,0.107628,-14.952054,0.999998,0.000171,-0.000747,0.005436,0.001499,0.005780,-0.001091,77.070457,0.006142,
660,910,2.800832,-8.384138,0.999996,0.000227,-0.003387,0.007055,0.000476,0.007076,-0.003408,87.397693,0.007078,
1030,1410,0.534365,-3.674299,0.999995,0.000269,-0.003994,0.007059,0.001777,0.007338,-0.004272,81.089056,0.007371,
730,740,2.109532,-9.763255,0.999998,0.000176,-0.004143,0.007962,0.000575,0.007990,-0.004171,87.285503,0.007992,
1590,1140,-2.050562,-6.629135,0.999997,0.000211,-0.003779,0.008590,0.001038,0.008677,-0.003866,85.236465,0.008694,
1730,1590,-1.451940,-3.179401,0.999997,0.000216,-0.003818,0.007627,-0.000175,0.007630,-0.003821,-89.124377,0.007630,
1170,1280,0.115690,-3.657403,0.999997,0.000207,-0.002437,0.003129,0.002428,0.004039,-0.003347,69.446776,0.004320,
1140,340,0.141999,-13.515330,0.999998,0.000192,-0.001706,0.005444,-0.000205,0.005450,-0.001712,-88.359841,0.005574,
1650,780,-1.866919,-9.573096,0.999997,0.000232,-0.004557,0.008556,-0.000669,0.008590,-0.004592,-87.087645,0.008597,
1860,1400,-2.382834,-4.947659,0.999996,0.000239,-0.003779,0.007527,0.000161,0.007530,-0.003781,89.182611,0.007530,
950,410,0.616309,-12.831269,0.999997,0.000218,-0.002806,0.006614,-0.000391,0.006630,-0.002822,-87.627124,0.006655,
660,880,2.746064,-8.599862,0.999997,0.000217,-0.003492,0.007262,0.000602,0.007296,-0.003525,86.803870,0.007297,
1600,1310,-1.524016,-5.132807,0.999995,0.000260,-0.004942,0.008786,0.000177,0.008789,-0.004944,89.262715,0.008812,
1380,310,-0.219885,-13.635108,0.999998,0.000192,-0.001544,0.005617,0.000033,0.005617,-0.001544,89.738061,0.005804,
1570,1520,-0.963100,-3.315812,0.999998,0.000204,-0.003860,0.007568,-0.000633,0.007603,-0.003895,-86.839022,0.007604,
1230,1630,0.003506,-2.022321,0.999998,0.000164,-0.001779,0.005281,0.000016,0.005281,-0.001779,89.873646,0.005374,
830,810,1.884285,-9.346151,0.999996,0.000226,-0.004569,0.008695,0.000789,0.008742,-0.004616,86.609307,0.008747,
1460,270,-0.322497,-13.793143,0.999997,0.000190,-0.001659,0.005850,-0.000193,0.005855,-0.001664,-88.527026,0.006034,
1270,720,-0.058030,-11.723369,0.999997,0.000197,-0.001731,0.003204,0.001263,0.003509,-0.002036,76.445990,0.003524,
1690,620,-1.618505,-10.822266,0.999996,0.000237,-0.004271,0.008031,0.000020,0.008031,-0.004271,89.907976,0.008036,
1900,1810,-1.521985,-1.974382,0.999997,0.000000,-0.003624,0.007196,0.000131,0.007198,-0.003625,89.304521,0.007198,
870,890,1.982303,-8.702056,0.999998,0.000179,-0.004080,0.008767,0.001091,0.008859,-0.004172,85.179641,0.008864,
1610,690,-1.424648,-10.438440,0.999995,0.000270,-0.004757,0.008533,0.000082,0.008534,-0.004758,89.645829,0.008552,
980,930,1.682085,-8.570549,0.999996,0.000222,-0.004366,0.010390,0.000551,0.010411,-0.004386,87.864025,0.010454,
1090,410,0.262603,-13.072202,0.999998,0.000184,-0.002025,0.005683,-0.000379,0.005702,-0.002043,-87.190939,0.005777,
1770,1270,-2.385316,-5.769579,0.999997,0.000216,-0.003877,0.007652,0.000657,0.007689,-0.003915,86.748851,0.007690,
1440,190,-0.196219,-14.260205,0.999998,0.000219,-0.001163,0.005455,-0.000351,0.005473,-0.001181,-86.975375,0.005760,
740,1820,0.866460,-1.429026,0.999997,0.000184,-0.002865,0.007385,-0.000800,0.007447,-0.002927,-85.566340,0.007503,
1440,1140,-1.391388,-6.148614,0.999994,0.000289,-0.004953,0.011032,-0.000891,0.011082,-0.005002,-86.820434,0.011099,
1190,1270,0.080546,-3.582901,0.999997,0.000199,-0.002163,0.002296,0.001758,0.002906,-0.002773,70.869752,0.003281,
1350,70,-0.027475,-14.888111,0.999998,0.000145,-0.000262,0.004661,-0.000241,0.004673,-0.000273,-87.208970,0.005245,
1570,690,-1.230267,-10.555320,0.999997,0.000222,-0.004886,0.008575,0.000416,0.008587,-0.004898,88.233485,0.008616,
1000,200,0.235193,-14.192816,0.999998,0.000176,-0.001188,0.005594,0.000425,0.005621,-0.001215,86.428614,0.005915,
1160,370,0.116516,-13.363969,0.999998,0.000150,-0.001661,0.005421,-0.000129,0.005424,-0.001664,-88.957941,0.005557,
1390,1950,-0.061188,-0.403641,0.999998,0.000180,-0.000423,0.004884,0.000334,0.004905,-0.000444,86.408463,0.005425,
1520,1700,-0.567944,-1.941104,0.999997,0.000204,-0.002581,0.006477,-0.000130,0.006478,-0.002583,-89.176211,0.006523,
1720,410,-1.300542,-12.383952,0.999997,0.000218,-0.003702,0.007591,0.000121,0.007593,-0.003703,89.384827,0.007593,
680,1670,1.478243,-2.698276,0.999997,0.000191,-0.003684,0.007586,0.000053,0.007587,-0.003685,89.731710,0.007588,
1250,1220,-0.086110,-3.595968,0.999993,0.000323,-0.004852,0.002168,-0.000128,0.002170,-0.004854,-88.955034,0.004863,
790,40,0.077143,-15.005350,0.999999,0.000145,-0.000636,0.005368,0.001474,0.005710,-0.000978,76.927123,0.006107,
840,1230,1.888755,-5.890098,0.999996,0.000216,-0.004545,0.008737,-0.000853,0.008792,-0.004600,-86.339387,0.008795,
900,1610,0.813544,-2.637360,0.999997,0.000214,-0.003287,0.007146,0.000420,0.007163,-0.003304,87.699394,0.007170,
1460,1870,-0.211189,-0.843605,0.999998,0.000176,-0.001066,0.005488,0.000447,0.005518,-0.001097,86.112974,0.005843,
1070,970,1.412995,-8.838008,0.999940,0.000000,-0.005847,0.016446,-0.005903,0.017913,-0.007313,-76.047408,0.018013,
740,1650,1.303234,-2.705284,0.999995,0.000262,-0.003662,0.007568,0.000096,0.007569,-0.003663,89.510717,0.007570,
1870,170,-1.111213,-13.805811,0.999998,0.000163,-0.003653,0.007663,-0.000541,0.007689,-0.003679,-87.268138,0.007692,
730,700,2.000619,-10.083515,0.999996,0.000257,-0.004186,0.007971,0.000384,0.007983,-0.004198,88.193952,0.007987,
1570,1140,-1.976989,-6.606782,0.999998,0.000181,-0.003886,0.008829,0.001067,0.008918,-0.003975,85.238162,0.008936,
700,1200,2.540460,-6.295963,0.999996,0.000224,-0.003703,0.007507,-0.000732,0.007555,-0.003750,-86.280188,0.007555,
1140,320,0.133505,-13.624676,0.999998,0.000151,-0.001609,0.005456,-0.000147,0.005459,-0.001613,-88.811388,0.005609,
1550,880,-1.755308,-8.869135,0.999997,0.000241,-0.004614,0.009310,-0.000962,0.009376,-0.004680,-86.066767,0.009376,
1590,1260,-1.630229,-5.556265,0.999996,0.000269,-0.004987,0.009038,0.000529,0.009058,-0.005007,87.843287,0.009075,
660,860,2.699863,-8.748800,0.999997,0.000207,-0.003566,0.007324,0.000640,0.007361,-0.003603,86.647659,0.007362,
1310,1460,-0.153519,-2.965773,0.999998,0.000188,-0.002205,0.004980,-0.001045,0.005129,-0.002354,-81.893325,0.005134,
1680,1330,-1.841429,-5.138272,0.999998,0.000170,-0.004429,0.008299,0.000438,0.008314,-0.004444,88.033424,0.008321,
1030,1390,0.548622,-3.822644,0.999996,0.000263,-0.004166,0.007253,0.001854,0.007547,-0.004460,81.003070,0.007588,
1690,1630,-1.221809,-2.778671,0.999998,0.000184,-0.003628,0.007531,-0.000160,0.007533,-0.003630,-89.177726,0.007535,
1890,1980,-0.613764,-0.595944,0.999995,0.000258,-0.003045,0.009367,0.002569,0.009878,-0.003556,78.755110,0.010006,
1730,1570,-1.493025,-3.334028,0.999997,0.000205,-0.003864,0.007700,-0.000173,0.007703,-0.003866,-89.143070,0.007703,
950,390,0.591490,-12.962535,0.999997,0.000198,-0.002756,0.006579,-0.000326,0.006590,-0.002767,-88.004166,0.006619,
750,1880,0.636110,-0.985847,0.999997,0.000200,-0.002257,0.006993,-0.001357,0.007188,-0.002452,-81.824590,0.007308,
1900,1800,-1.555396,-2.045735,0.999997,0.000000,-0.003658,0.007221,0.000085,0.007221,-0.003659,89.550944,0.007222,
1860,1380,-2.434728,-5.096772,0.999997,0.000212,-0.003761,0.007532,0.000177,0.007534,-0.003763,89.102384,0.007534,
1230,1610,0.001316,-2.128390,0.999998,0.000187,-0.001824,0.005254,-0.000017,0.005254,-0.001824,-89.865992,0.005335,
830,790,1.821170,-9.517798,0.999996,0.000223,-0.004652,0.008648,0.000675,0.008683,-0.004686,87.100825,0.008692,
1090,390,0.253930,-13.186306,0.999998,0.000177,-0.001888,0.005702,-0.000290,0.005713,-0.001899,-87.812661,0.005820,
800,970,2.428016,-7.999594,0.999996,0.000258,-0.003215,0.007734,0.000602,0.007767,-0.003248,86.863349,0.007801,
1650,1230,-2.009785,-5.932165,0.999997,0.000217,-0.004306,0.008436,0.000879,0.008496,-0.004366,86.072863,0.008497,
1670,620,-1.532349,-10.869693,0.999997,0.000198,-0.004296,0.008074,0.000094,0.008074,-0.004296,89.564298,0.008080,
1180,190,0.043115,-14.313001,0.999998,0.000148,-0.000757,0.005016,0.000081,0.005017,-0.000758,89.197974,0.005409,
1770,1250,-2.437884,-5.922519,0.999997,0.000220,-0.003856,0.007663,0.000697,0.007705,-0.003898,86.547728,0.007705,
1390,1930,-0.081145,-0.504011,0.999998,0.000146,-0.000564,0.004995,0.000323,0.005014,-0.000583,86.685266,0.005484,
1440,1120,-1.512889,-6.367353,0.999994,0.000275,-0.004760,0.011296,-0.000997,0.011358,-0.004822,-86.460482,0.011401,
1000,180,0.210358,-14.300628,0.999998,0.000176,-0.001033,0.005471,0.000442,0.005501,-0.001063,86.133274,0.005836,
1070,960,1.395577,-8.992954,0.999987,0.000000,-0.005262,0.015142,-0.005958,0.016754,-0.006874,-74.858074,0.016843,
870,1090,2.194838,-7.052818,0.999998,0.000196,-0.003140,0.008187,-0.000793,0.008242,-0.003195,-86.012610,0.008311,
1480,1600,-0.562905,-2.521400,0.999997,0.000227,-0.002945,0.006622,-0.000640,0.006665,-0.002987,-86.191202,0.006677,
1140,370,0.151548,-13.349283,0.999998,0.000167,-0.001848,0.005523,-0.000286,0.005534,-0.001859,-87.783690,0.005633,
770,80,0.235226,-14.769836,0.999997,0.000181,-0.000990,0.005900,0.001662,0.006280,-0.001370,77.121945,0.006604,
1350,270,-0.150307,-13.877959,0.999998,0.000147,-0.001400,0.005380,0.000020,0.005380,-0.001400,89.833324,0.005583,
740,1780,0.988312,-1.725700,0.999998,0.000161,-0.003078,0.007406,-0.000508,0.007431,-0.003103,-87.230447,0.007465,
680,1650,1.522890,-2.850351,0.999996,0.000220,-0.003729,0.007609,0.000102,0.007609,-0.003730,89.485454,0.007610,
1440,1870,-0.189244,-0.833391,0.999997,0.000189,-0.001132,0.005412,0.000354,0.005431,-0.001151,86.916955,0.005724,
880,1610,0.878842,-2.680650,0.999997,0.000231,-0.003324,0.007215,0.000381,0.007229,-0.003338,87.929824,0.007236,
880,610,1.132456,-11.181349,0.999997,0.000170,-0.004334,0.007962,-0.000565,0.007988,-0.004360,-87.373326,0.007999,
1140,300,0.125079,-13.732812,0.999998,0.000150,-0.001541,0.005367,-0.000107,0.005369,-0.001543,-89.114504,0.005528,
1240,1220,-0.045549,-3.573412,0.999992,0.000340,-0.005215,0.002157,-0.000040,0.002157,-0.005215,-89.690491,0.005241,
1250,720,-0.027855,-11.757535,0.999998,0.000143,-0.001517,0.002944,0.000636,0.003033,-0.001606,82.040122,0.003034,
1190,1250,0.101624,-3.621858,0.999997,0.000213,-0.002626,0.002079,0.001662,0.002607,-0.003154,72.380930,0.003371,
1860,710,-2.526398,-9.756332,0.999998,0.000192,-0.003703,0.007453,-0.000214,0.007457,-0.003707,-88.903247,0.007457,
1650,140,-0.376287,-14.429824,0.999998,0.000191,-0.001633,0.006259,-0.001221,0.006444,-0.001818,-81.401701,0.006644,
1700,670,-1.781247,-10.394931,0.999997,0.000206,-0.004282,0.008120,-0.000201,0.008123,-0.004285,-89.071970,0.008127,
640,1170,2.825699,-6.577245,0.999997,0.000218,-0.003425,0.007036,-0.000465,0.007057,-0.003445,-87.458763,0.007058,
1520,1680,-0.592406,-2.069548,0.999997,0.000204,-0.002685,0.006515,-0.000239,0.006521,-0.002691,-88.513796,0.006555,
1570,670,-1.186289,-10.727686,0.999996,0.000242,-0.004775,0.008450,0.000494,0.008469,-0.004793,87.862699,0.008493,
1860,1360,-2.484869,-5.249480,0.999996,0.000233,-0.003742,0.007556,0.000193,0.007559,-0.003745,89.020835,0.007559,
1030,960,1.608838,-8.509362,0.999994,0.000303,-0.005023,0.012732,-0.001725,0.012898,-0.005189,-84.501083,0.012980,
790,90,0.246061,-14.722355,0.999998,0.000181,-0.001249,0.005942,0.001483,0.006236,-0.001543,78.796614,0.006496,
1030,1370,0.563334,-3.966352,0.999996,0.000257,-0.004397,0.007446,0.001936,0.007754,-0.004705,80.949032,0.007813,
1050,1660,0.343964,-2.017160,0.999997,0.000210,-0.002369,0.005975,0.000475,0.006002,-0.002396,86.751246,0.006043,
1690,1610,-1.260470,-2.930576,0.999997,0.000196,-0.003735,0.007559,-0.000197,0.007562,-0.003738,-88.999026,0.007562,
1810,1670,-1.577550,-2.764778,0.999996,0.000215,-0.003712,0.007581,-0.000055,0.007581,-0.003712,-89.721860,0.007582,
1570,1260,-1.529667,-5.506776,0.999996,0.000275,-0.005152,0.009200,0.000363,0.009209,-0.005162,88.552295,0.009232,
1150,1220,0.317240,-4.010554,0.999994,0.000292,-0.003365,0.003436,0.002245,0.004110,-0.004039,73.286790,0.004706,
1900,1790,-1.588633,-2.119206,0.999997,0.000000,-0.003676,0.007180,0.000055,0.007180,-0.003677,89.710332,0.007181,
1050,1090,1.518232,-6.486006,0.999985,0.000519,-0.005767,0.014391,0.004026,0.015165,-0.006541,79.112775,0.015213,
1730,1550,-1.533986,-3.488690,0.999997,0.000205,-0.003888,0.007718,-0.000182,0.007721,-0.003890,-89.100113,0.007721,
750,1900,0.557045,-0.844445,0.999997,0.000184,-0.002004,0.006903,-0.001535,0.007160,-0.002261,-80.492911,0.007320,
1650,1210,-2.069577,-6.099472,0.999997,0.000218,-0.004200,0.008363,0.000949,0.008434,-0.004272,85.704752,0.008434,
790,700,1.740772,-10.204691,0.999996,0.000262,-0.004475,0.008297,0.000274,0.008302,-0.004480,88.769739,0.008311,
1160,1490,0.138933,-2.800163,0.999998,0.000192,-0.002170,0.005098,0.000889,0.005205,-0.002277,83.127380,0.005219,
660,840,2.651968,-8.893489,0.999997,0.000219,-0.003584,0.007266,0.000597,0.007299,-0.003616,86.862507,0.007299,
950,370,0.566968,-13.094959,0.999997,0.000192,-0.002712,0.006499,-0.000253,0.006506,-0.002719,-88.426354,0.006536,
1760,870,-2.565603,-8.714886,0.999996,0.000245,-0.003677,0.007552,-0.000765,0.007604,-0.003728,-86.121085,0.007605,
750,1100,2.567513,-7.021858,0.999996,0.000215,-0.003337,0.007501,-0.000631,0.007538,-0.003373,-86.679758,0.007551,
1230,1590,0.001711,-2.232337,0.999998,0.000171,-0.001865,0.005172,0.000011,0.005172,-0.001865,89.908772,0.005239,
1160,190,0.058663,-14.311535,0.999998,0.000160,-0.000754,0.005035,0.000124,0.005037,-0.000756,88.773857,0.005433,
1310,120,-0.035282,-14.655998,0.999998,0.000195,-0.000457,0.004808,-0.000154,0.004813,-0.000462,-88.329026,0.005311,
610,340,1.626801,-12.585735,0.999997,0.000201,-0.003647,0.007469,-0.000113,0.007470,-0.003648,-89.416306,0.007471,
1770,1230,-2.492966,-6.075542,0.999997,0.000201,-0.003797,0.007587,0.000732,0.007633,-0.003844,86.337066,0.007634,
700,1400,2.006128,-4.739926,0.999997,0.000208,-0.004054,0.007848,-0.000239,0.007852,-0.004059,-88.851508,0.007854,
830,770,1.757247,-9.693263,0.999996,0.000232,-0.004721,0.008667,0.000533,0.008688,-0.004742,87.724994,0.008700,
930,1040,2.099918,-7.452323,0.999998,0.000183,-0.002671,0.008733,-0.000212,0.008737,-0.002675,-88.936763,0.008953,
770,60,0.155122,-14.890512,0.999998,0.000172,-0.000722,0.005707,0.001677,0.006118,-0.001133,76.224768,0.006510,
1140,280,0.116175,-13.840126,0.999998,0.000155,-0.001444,0.005332,-0.000058,0.005333,-0.001445,-89.510261,0.005516,
1000,160,0.180769,-14.412856,0.999998,0.000174,-0.000900,0.005424,0.000515,0.005465,-0.000941,85.378010,0.005844,
1120,370,0.191489,-13.329086,0.999998,0.000202,-0.001896,0.005637,-0.000298,0.005649,-0.001908,-87.738979,0.005747,
1070,950,1.357220,-9.128466,0.999989,0.000000,-0.004571,0.013758,-0.005866,0.015475,-0.006288,-73.689110,0.015565,
860,1260,1.693512,-5.585364,0.999996,0.000220,-0.004855,0.008937,-0.000591,0.008962,-0.004881,-87.550959,0.008974,
1820,1390,-2.256228,-4.937703,0.999996,0.000218,-0.003840,0.007646,0.000219,0.007650,-0.003844,88.906255,0.007650,
1340,120,-0.054459,-14.649663,0.999998,0.000156,-0.000574,0.004839,-0.000199,0.004847,-0.000581,-87.895257,0.005293,
1860,1340,-2.537953,-5.402432,0.999996,0.000228,-0.003719,0.007466,0.000204,0.007469,-0.003722,88.955739,0.007469,
740,1760,1.043780,-1.880196,0.999997,0.000200,-0.003201,0.007435,-0.000384,0.007449,-0.003215,-87.933436,0.007473,
1390,1910,-0.098281,-0.602319,0.999998,0.000144,-0.000682,0.005081,0.000307,0.005097,-0.000698,86.956490,0.005526,
1440,1100,-1.619296,-6.595235,0.999993,0.000317,-0.004701,0.012186,-0.001120,0.012259,-0.004775,-86.222827,0.012359,
1770,1680,-1.407898,-2.589742,0.999997,0.000197,-0.003669,0.007577,-0.000037,0.007577,-0.003670,-89.813348,0.007579,
1190,1230,0.143513,-3.660434,0.999996,0.000239,-0.003376,0.002175,0.001111,0.002389,-0.003590,79.093163,0.003655,
1690,1200,-2.264158,-6.227423,0.999997,0.000198,-0.003959,0.008064,0.000913,0.008133,-0.004028,85.682737,0.008133,
890,380,0.748478,-12.920510,0.999997,0.000217,-0.003132,0.006936,-0.000195,0.006940,-0.003135,-88.889905,0.006951,
1520,1850,-0.330793,-1.000095,0.999998,0.000207,-0.001628,0.005918,0.000509,0.005952,-0.001663,86.157684,0.006142,
1220,1610,0.020986,-2.131299,0.999998,0.000183,-0.001825,0.005248,0.000124,0.005250,-0.001827,88.998472,0.005330,
1290,440,-0.105799,-12.993175,0.999998,0.000157,-0.001820,0.005331,0.000200,0.005337,-0.001826,88.396011,0.005425,
730,200,0.775809,-13.933153,0.999997,0.000196,-0.002831,0.007292,0.001009,0.007392,-0.002931,84.363522,0.007444,
1900,1890,-1.198026,-1.387488,0.999997,0.000000,-0.003716,0.007534,0.000502,0.007556,-0.003738,87.450472,0.007557,
1100,1350,0.298167,-3.739516,0.999996,0.000219,-0.003511,0.005938,0.002549,0.006582,-0.004155,75.824745,0.006657,
1570,650,-1.148687,-10.895124,0.999996,0.000246,-0.004652,0.008284,0.000565,0.008308,-0.004677,87.503292,0.008330,
1030,1350,0.584846,-4.118108,0.999996,0.000244,-0.004653,0.007714,0.002035,0.008040,-0.004980,80.892051,0.008116,
1520,1660,-0.616513,-2.202126,0.999997,0.000191,-0.002755,0.006632,-0.000312,0.006643,-0.002765,-88.097613,0.006674,
740,910,2.524617,-8.434522,0.999996,0.000217,-0.003545,0.007607,0.000730,0.007654,-0.003593,86.270954,0.007659,
1030,1660,0.390810,-2.051663,0.999996,0.000224,-0.002320,0.006075,0.000391,0.006093,-0.002339,87.340916,0.006148,
600,1290,2.678089,-5.776711,0.999996,0.000214,-0.003626,0.007343,-0.000288,0.007350,-0.003633,-88.497333,0.007350,
790,680,1.689663,-10.369552,0.999997,0.000206,-0.004450,0.008283,0.000159,0.008285,-0.004452,89.283696,0.008292,
1650,1190,-2.133711,-6.269035,0.999997,0.000230,-0.004068,0.008374,0.001007,0.008455,-0.004149,85.402285,0.008456,
1690,1810,-0.804672,-1.454789,0.999998,0.000166,-0.002949,0.007229,0.000648,0.007270,-0.002990,86.371132,0.007308,
1730,1530,-1.574373,-3.642504,0.999996,0.000228,-0.003920,0.007747,-0.000149,0.007749,-0.003922,-89.268383,0.007749,
1230,1570,0.001494,-2.335094,0.999998,0.000173,-0.001879,0.005168,0.000015,0.005168,-0.001879,89.877215,0.005231,
830,750,1.698365,-9.866505,0.999996,0.000251,-0.004739,0.008612,0.000410,0.008625,-0.004751,88.242782,0.008640,
1770,1210,-2.543952,-6.227479,0.999996,0.000244,-0.003736,0.007493,0.000700,0.007536,-0.003779,86.444474,0.007536,
830,220,0.582463,-13.921048,0.999997,0.000237,-0.002149,0.006621,0.000828,0.006698,-0.002227,84.652962,0.006823,
950,350,0.541221,-13.223241,0.999997,0.000220,-0.002612,0.006483,-0.000153,0.006485,-0.002615,-89.037363,0.006526,
1140,480,0.178136,-12.743628,0.999998,0.000167,-0.002133,0.005502,-0.000642,0.005556,-0.002186,-85.227756,0.005598,
1700,50,-0.128368,-14.943414,0.999998,0.000145,-0.000469,0.005585,-0.001744,0.006051,-0.000935,-75.027237,0.006515,
1000,360,0.427268,-13.243256,0.999997,0.000193,-0.002205,0.006167,-0.000215,0.006172,-0.002211,-88.530423,0.006254,
740,950,2.594361,-8.135231,0.999996,0.000232,-0.003379,0.007486,0.000656,0.007526,-0.003419,86.556163,0.007536,
1060,950,1.405085,-8.981517,0.999989,0.000409,-0.004914,0.013372,-0.005046,0.014673,-0.006215,-75.552445,0.014730,
990,760,0.891341,-10.321977,0.999997,0.000212,-0.005536,0.009033,-0.001291,0.009146,-0.005650,-84.976289,0.009230,
620,1170,2.892140,-6.598059,0.999997,0.000197,-0.003354,0.006842,-0.000334,0.006853,-0.003365,-88.125653,0.006853,
870,350,0.761240,-13.087280,0.999997,0.000179,-0.003015,0.006936,-0.000052,0.006936,-0.003015,-89.700355,0.006956,
620,640,2.280757,-10.323153,0.999997,0.000203,-0.003820,0.007652,0.000125,0.007654,-0.003822,89.375014,0.007654,
1340,370,-0.184178,-13.331408,0.999998,0.000161,-0.001882,0.005629,0.000289,0.005640,-0.001893,87.800128,0.005741,
1140,1490,0.183175,-2.836707,0.999998,0.000171,-0.002235,0.005251,0.000934,0.005365,-0.002349,82.995777,0.005379,
870,1860,0.435254,-0.995925,0.999997,0.000232,-0.002033,0.006274,-0.000740,0.006339,-0.002098,-84.951082,0.006459,
1090,2000,0.023985,-0.163724,0.999999,0.000140,-0.000134,0.004613,-0.000296,0.004631,-0.000153,-86.447111,0.005261,
1610,670,-1.375583,-10.610578,0.999995,0.000256,-0.004679,0.008405,0.000185,0.008408,-0.004682,89.190488,0.008426,
710,1780,1.089505,-1.792272,0.999996,0.000212,-0.003558,0.007514,-0.000322,0.007524,-0.003568,-88.333360,0.007527,
1230,1550,0.002596,-2.438265,0.999998,0.000177,-0.001888,0.005109,0.000009,0.005109,-0.001888,89.929280,0.005167,
960,650,0.840089,-11.124321,0.999996,0.000240,-0.004540,0.007954,-0.001171,0.008063,-0.004649,-84.691366,0.008094,
1060,940,1.360671,-9.102874,0.999988,0.000431,-0.004480,0.012099,-0.004834,0.013406,-0.005786,-74.876542,0.013447,
660,820,2.604204,-9.036551,0.999997,0.000207,-0.003655,0.007357,0.000605,0.007390,-0.003688,86.863929,0.007390,
1070,30,0.007473,-15.071386,0.999999,0.000000,-0.000101,0.004611,0.000393,0.004644,-0.000133,85.266279,0.005287,
1700,1710,-1.087378,-2.204061,0.999998,0.000174,-0.003294,0.007428,0.000127,0.007429,-0.003295,89.323769,0.007445,
1090,370,0.243407,-13.300709,0.999997,0.000191,-0.001801,0.005727,-0.000224,0.005734,-0.001808,-88.296402,0.005863,
910,1490,0.937998,-3.497130,0.999997,0.000226,-0.004016,0.007690,0.000742,0.007737,-0.004063,86.389288,0.007740,
1860,1320,-2.589994,-5.548602,0.999996,0.000212,-0.003690,0.007344,0.000249,0.007350,-0.003696,88.708822,0.007350,
1030,1330,0.611428,-4.276590,0.999996,0.000247,-0.004924,0.007992,0.002090,0.008322,-0.005253,81.032389,0.008417,
1870,160,-1.063562,-13.883283,0.999998,0.000155,-0.003645,0.007654,-0.000611,0.007687,-0.003678,-86.913766,0.007689,
690,1590,1.613929,-3.283491,0.999996,0.000253,-0.003822,0.007649,0.000144,0.007651,-0.003824,89.283305,0.007651,
1700,40,-0.092916,-14.998517,0.999998,0.000168,-0.000251,0.005508,-0.001764,0.006005,-0.000748,-74.253309,0.006545,
880,670,1.249831,-10.688264,0.999997,0.000207,-0.004769,0.008439,-0.000389,0.008451,-0.004781,-88.312658,0.008475,
1270,840,-0.197407,-11.437470,0.999994,0.000274,-0.004497,0.002248,0.000278,0.002259,-0.004509,87.643703,0.004509,
1100,1550,0.269840,-2.579394,0.999998,0.000161,-0.002449,0.005764,0.000881,0.005857,-0.002542,83.946854,0.005874,
1820,950,-2.922558,-8.090431,0.999997,0.000199,-0.003280,0.006893,-0.000359,0.006906,-0.003292,-87.983868,0.006908,
1450,1200,-1.103996,-5.572630,0.999996,0.000237,-0.005870,0.010309,-0.000960,0.010365,-0.005927,-86.615659,0.010401,
1830,1580,-1.851913,-3.498526,0.999998,0.000192,-0.003798,0.007642,-0.000113,0.007643,-0.003799,-89.435699,0.007643,
1450,1600,-0.475251,-2.452925,0.999997,0.000229,-0.002830,0.006426,-0.000713,0.006480,-0.002885,-85.619294,0.006493,
1570,630,-1.108036,-11.059428,0.999996,0.000235,-0.004517,0.008109,0.000620,0.008139,-0.004547,87.194420,0.008158,
820,70,0.149366,-14.849943,0.999997,0.000208,-0.000598,0.005654,0.001467,0.005981,-0.000925,77.432796,0.006439,
690,640,2.008725,-10.477317,0.999997,0.000205,-0.003987,0.007808,0.000177,0.007811,-0.003990,89.138273,0.007811,
1340,1460,-0.222425,-3.029679,0.999998,0.000205,-0.002560,0.005397,-0.001322,0.005610,-0.002774,-80.808380,0.005611,
740,1740,1.095346,-2.026476,0.999997,0.000203,-0.003300,0.007405,-0.000228,0.007410,-0.003305,-88.781263,0.007424,
1480,1580,-0.581937,-2.654459,0.999997,0.000225,-0.003016,0.006692,-0.000715,0.006745,-0.003068,-85.808364,0.006754,
1080,2000,0.025270,-0.163744,0.999998,0.000161,-0.000133,0.004642,-0.000319,0.004663,-0.000154,-86.193368,0.005298,
610,1830,1.280530,-1.676052,0.999997,0.000202,-0.003650,0.007561,-0.000233,0.007566,-0.003654,-88.808990,0.007567,
870,310,0.685926,-13.367625,0.999997,0.000188,-0.002868,0.006813,0.000113,0.006814,-0.002869,89.330149,0.006843,
1270,440,-0.069977,-13.001585,0.999997,0.000196,-0.001803,0.005285,0.000189,0.005290,-0.001808,88.477366,0.005377,
1780,750,-2.327615,-9.605525,0.999998,0.000202,-0.003900,0.007735,-0.000547,0.007761,-0.003926,-87.313501,0.007761,
1800,1390,-2.178639,-4.894488,0.999998,0.000184,-0.003921,0.007719,0.000243,0.007724,-0.003926,88.806024,0.007724,
1190,830,0.155597,-11.448787,0.999994,0.000283,-0.003682,0.002226,-0.000885,0.002356,-0.003812,-81.659071,0.003847,
1700,1070,-2.561551,-7.242100,0.999996,0.000220,-0.003218,0.007457,0.000289,0.007464,-0.003226,88.450432,0.007487,
790,290,0.871547,-13.370941,0.999998,0.000181,-0.003204,0.007195,0.000288,0.007203,-0.003212,88.416334,0.007217,
730,1580,1.483170,-3.263732,0.999996,0.000225,-0.003843,0.007686,0.000172,0.007689,-0.003845,89.145651,0.007689,
990,740,0.844396,-10.501167,0.999995,0.000265,-0.005362,0.008795,-0.001397,0.008932,-0.005499,-84.417851,0.009011,
1890,1140,-3.093272,-6.855222,0.999998,0.000171,-0.003146,0.006445,0.000205,0.006449,-0.003150,88.778627,0.006450,
1520,1830,-0.363404,-1.116534,0.999998,0.000159,-0.001797,0.005946,0.000418,0.005968,-0.001819,86.922274,0.006118,
1650,1390,-1.548244,-4.572735,0.999996,0.000238,-0.004533,0.008289,0.000016,0.008289,-0.004533,89.928654,0.008301,
830,730,1.639353,-10.037975,0.999995,0.000261,-0.004724,0.008543,0.000284,0.008549,-0.004730,88.776015,0.008565,
1260,1470,-0.052822,-2.845826,0.999999,0.000141,-0.001856,0.004660,-0.000384,0.004682,-0.001879,-86.642893,0.004713,
1810,1650,-1.623540,-2.916627,0.999996,0.000220,-0.003743,0.007598,-0.000085,0.007599,-0.003743,-89.572578,0.007599,
1090,350,0.232604,-13.413622,0.999998,0.000180,-0.001702,0.005659,-0.000163,0.005663,-0.001706,-88.732833,0.005810,
660,800,2.551064,-9.190272,0.999997,0.000216,-0.003750,0.007531,0.000614,0.007564,-0.003783,86.891287,0.007564,
990,550,0.616014,-11.974753,0.999997,0.000213,-0.003586,0.006942,-0.001088,0.007053,-0.003697,-84.158740,0.007056,
1900,1010,-3.214718,-7.670061,0.999998,0.000000,-0.003050,0.006137,-0.000182,0.006140,-0.003054,-88.866049,0.006140,
900,370,0.700629,-13.010555,0.999996,0.000226,-0.002974,0.006811,-0.000129,0.006813,-0.002976,-89.242236,0.006831,
1860,1300,-2.641558,-5.697308,0.999997,0.000210,-0.003658,0.007355,0.000284,0.007362,-0.003665,88.524616,0.007362,
1030,1310,0.640221,-4.439186,0.999996,0.000255,-0.005183,0.008232,0.002136,0.008564,-0.005515,81.167221,0.008682,
880,650,1.208146,-10.854958,0.999996,0.000243,-0.004640,0.008281,-0.000465,0.008297,-0.004657,-87.942201,0.008318,
750,1800,0.901864,-1.565481,0.999997,0.000218,-0.002927,0.007350,-0.000668,0.007393,-0.002970,-86.296153,0.007441,
1450,1580,-0.490382,-2.584102,0.999997,0.000200,-0.002968,0.006499,-0.000815,0.006568,-0.003037,-85.115506,0.006574,
570,560,2.270416,-10.829846,0.999945,0.000873,-0.003150,0.007651,0.000076,0.007652,-0.003151,89.595019,0.007692,
1690,420,-1.211358,-12.379455,0.999997,0.000184,-0.003625,0.007548,0.000147,0.007550,-0.003627,89.246221,0.007552,
1680,1980,-0.203501,-0.315016,0.999998,0.000187,-0.001034,0.005809,0.001597,0.006163,-0.001389,77.492610,0.006466,
1770,1190,-2.590465,-6.377193,0.999996,0.000246,-0.003686,0.007495,0.000734,0.007543,-0.003734,86.261808,0.007543,
1080,1550,0.322451,-2.624550,0.999998,0.000175,-0.002623,0.005950,0.000981,0.006061,-0.002733,83.553652,0.006070,
860,1700,0.800146,-2.085553,0.999997,0.000177,-0.003014,0.006945,0.000004,0.006945,-0.003014,89.976864,0.006965,
1570,1200,-1.750287,-6.060401,0.999997,0.000224,-0.004720,0.009150,0.000912,0.009209,-0.004780,86.255176,0.009212,
1060,2020,0.013168,-0.071421,0.999998,0.000000,-0.000166,0.004586,-0.000263,0.004600,-0.000180,-86.841836,0.005211,
790,2000,0.122632,-0.195376,0.999998,0.000164,-0.000795,0.005558,-0.001491,0.005890,-0.001128,-77.430786,0.006253,
620,620,2.233321,-10.478144,0.999997,0.000194,-0.003822,0.007671,0.000068,0.007671,-0.003822,89.662439,0.007671,
1660,930,-2.345151,-8.313242,0.999997,0.000232,-0.003506,0.007911,-0.000798,0.007967,-0.003562,-86.018672,0.007981,
1480,1560,-0.596650,-2.788487,0.999997,0.000218,-0.003121,0.006754,-0.000789,0.006817,-0.003184,-85.462414,0.006822,
1340,1420,-0.222343,-3.250247,0.999998,0.000174,-0.002698,0.005304,-0.001728,0.005662,-0.003055,-78.319134,0.005668,
910,1420,1.042828,-4.048234,0.999996,0.000260,-0.004488,0.008089,0.000736,0.008132,-0.004531,86.662255,0.008150,
1760,750,-2.247819,-9.637352,0.999996,0.000241,-0.004010,0.007855,-0.000583,0.007884,-0.004038,-87.195182,0.007884,
1480,1070,-1.894732,-7.108723,0.999996,0.000215,-0.003422,0.010451,0.000351,0.010460,-0.003431,88.550591,0.010665,
740,1720,1.141561,-2.176253,0.999998,0.000169,-0.003436,0.007453,-0.000121,0.007454,-0.003437,-89.363618,0.007462,
1190,70,0.008318,-14.892188,0.999998,0.000158,-0.000208,0.004578,0.000112,0.004581,-0.000211,88.656789,0.005172,
900,1660,0.741469,-2.283022,0.999997,0.000195,-0.003113,0.006944,0.000278,0.006952,-0.003121,88.419442,0.006964,
1870,150,-1.015882,-13.957660,0.999998,0.000157,-0.003628,0.007714,-0.000726,0.007760,-0.003674,-86.354109,0.007763,
950,330,0.513541,-13.354504,0.999997,0.000213,-0.002480,0.006542,-0.000058,0.006543,-0.002480,-89.631231,0.006606,
780,460,1.262818,-12.091950,0.999997,0.000199,-0.003758,0.007589,-0.000224,0.007593,-0.003763,-88.870642,0.007593,
610,1740,1.562190,-2.348768,0.999998,0.000200,-0.003637,0.007499,0.000052,0.007500,-0.003637,89.731531,0.007501,
700,660,2.020250,-10.342051,0.999997,0.000217,-0.004038,0.007875,0.000245,0.007880,-0.004043,88.820134,0.007881,
1500,1850,-0.296704,-0.982045,0.999998,0.000201,-0.001658,0.005798,0.000408,0.005821,-0.001680,86.880535,0.005991,
1400,160,-0.117845,-14.438740,0.999998,0.000199,-0.000854,0.005193,-0.000295,0.005207,-0.000869,-87.213377,0.005579,
1670,360,-1.020696,-12.870138,0.999998,0.000151,-0.003423,0.007267,0.000042,0.007267,-0.003423,89.773672,0.007271,
740,150,0.557277,-14.301132,0.999997,0.000197,-0.002040,0.006916,0.001593,0.007191,-0.002315,80.210715,0.007341,
1230,720,0.002497,-11.774470,0.999997,0.000207,-0.001497,0.002848,-0.000064,0.002849,-0.001498,-89.150189,0.002850,
1440,1300,-0.696991,-4.564551,0.999996,0.000227,-0.005393,0.008566,-0.001976,0.008841,-0.005668,-82.094907,0.008957,
1290,1930,-0.031318,-0.489503,0.999998,0.000154,-0.000453,0.004795,0.000129,0.004799,-0.000456,88.587378,0.005297,
1240,1470,-0.016296,-2.832030,0.999998,0.000158,-0.001834,0.004618,-0.000177,0.004623,-0.001838,-88.433777,0.004655,
620,1290,2.605624,-5.737279,0.999994,0.000270,-0.003694,0.007376,-0.000388,0.007389,-0.003708,-87.994911,0.007389,
1730,1510,-1.618157,-3.800105,0.999996,0.000241,-0.003980,0.007795,-0.000106,0.007796,-0.003981,-89.482743,0.007796,
1640,1560,-1.165094,-3.188246,0.999997,0.000172,-0.003820,0.007604,-0.000320,0.007613,-0.003829,-88.395394,0.007613,
1810,1630,-1.665724,-3.072276,0.999997,0.000191,-0.003798,0.007600,-0.000091,0.007601,-0.003798,-89.544942,0.007601,
1760,1010,-2.770274,-7.687227,0.999998,0.000199,-0.003235,0.007198,-0.000222,0.007202,-0.003239,-88.783873,0.007215,
1320,1930,-0.042801,-0.489250,0.999998,0.000180,-0.000533,0.004823,0.000152,0.004827,-0.000537,88.371274,0.005291,
1090,330,0.221524,-13.527428,0.999998,0.000180,-0.001639,0.005672,-0.000101,0.005674,-0.001640,-89.208617,0.005839,
570,550,2.254021,-10.902550,0.999949,0.000899,-0.003275,0.007433,-0.000007,0.007433,-0.003275,-89.959868,0.007450,
1070,2000,0.026149,-0.164007,0.999999,0.000153,-0.000172,0.004659,-0.000324,0.004680,-0.000194,-86.177834,0.005296,
1560,1800,-0.492941,-1.340134,0.999997,0.000209,-0.002084,0.006384,0.000421,0.006405,-0.002105,87.161464,0.006529,
820,1900,0.412017,-0.780651,0.999997,0.000197,-0.001620,0.006357,-0.001186,0.006530,-0.001793,-81.723799,0.006747,
730,1800,0.957925,-1.598660,0.999998,0.000203,-0.003157,0.007454,-0.000582,0.007486,-0.003189,-86.869091,0.007513,
1690,1070,-2.529812,-7.240189,0.999996,0.000235,-0.003193,0.007515,0.000313,0.007524,-0.003202,88.325340,0.007552,
1130,330,0.155315,-13.559328,0.999998,0.000169,-0.001715,0.005489,-0.000193,0.005494,-0.001720,-88.463350,0.005621,
900,1170,1.832607,-6.322239,0.999996,0.000239,-0.004415,0.009145,-0.001047,0.009226,-0.004495,-85.609712,0.009227,
1430,1580,-0.432177,-2.537988,0.999997,0.000216,-0.002740,0.006286,-0.000762,0.006350,-0.002804,-85.209281,0.006364,
1530,440,-0.696787,-12.595084,0.999996,0.000232,-0.003170,0.006937,0.000516,0.006963,-0.003197,87.086180,0.006971,
1860,1280,-2.693656,-5.842991,0.999996,0.000221,-0.003614,0.007304,0.000319,0.007314,-0.003624,88.325634,0.007314,
1470,1500,-0.609165,-3.172292,0.999996,0.000226,-0.003579,0.006969,-0.001137,0.007090,-0.003700,-83.917479,0.007092,
660,1000,2.902360,-7.753210,0.999998,0.000192,-0.003246,0.006957,0.000240,0.006963,-0.003251,88.653129,0.006968,
740,770,2.151316,-9.539603,0.999997,0.000264,-0.004125,0.008069,0.000677,0.008107,-0.004162,86.833287,0.008108,
1550,1200,-1.652706,-6.015484,0.999996,0.000227,-0.004935,0.009374,0.000797,0.009418,-0.004979,86.821584,0.009423,
1770,1170,-2.638980,-6.528197,0.999997,0.000226,-0.003612,0.007457,0.000720,0.007503,-0.003658,86.293280,0.007504,
1480,1540,-0.611086,-2.923535,0.999997,0.000224,-0.003303,0.006838,-0.000887,0.006915,-0.003380,-85.039651,0.006916,
620,580,2.134732,-10.785438,0.999998,0.000177,-0.003842,0.007654,0.000026,0.007654,-0.003842,89.871164,0.007655,
860,1680,0.835494,-2.222758,0.999997,0.000172,-0.003116,0.007000,0.000108,0.007001,-0.003117,89.388075,0.007015,
1460,1070,-1.823680,-7.057452,0.999994,0.000275,-0.004010,0.011394,-0.000108,0.011395,-0.004011,-89.599060,0.011560,
790,2010,0.092141,-0.142382,0.999998,0.000171,-0.000700,0.005458,-0.001440,0.005779,-0.001021,-77.467116,0.006168,
1610,650,-1.331496,-10.776162,0.999996,0.000233,-0.004608,0.008313,0.000270,0.008319,-0.004614,88.802951,0.008335,
1810,1580,-1.777884,-3.449910,0.999997,0.000186,-0.003778,0.007649,-0.000113,0.007650,-0.003779,-89.434605,0.007650,
1230,1220,0.008988,-3.568921,0.999989,0.000400,-0.005269,0.002180,-0.000024,0.002180,-0.005269,-89.818142,0.005295,
950,310,0.485043,-13.486468,0.999997,0.000203,-0.002384,0.006321,-0.000002,0.006321,-0.002384,-89.984754,0.006384,
1060,1080,1.481336,-6.517123,0.999984,0.000000,-0.006348,0.017134,0.004687,0.018035,-0.007249,79.118656,0.018150,
940,650,0.930480,-11.051417,0.999997,0.000198,-0.004585,0.008083,-0.000964,0.008155,-0.004658,-85.674937,0.008183,
710,200,0.838829,-13.890503,0.999997,0.000201,-0.003281,0.007415,0.000810,0.007476,-0.003342,85.691519,0.007490,
1230,1530,0.003322,-2.538750,0.999998,0.000175,-0.001894,0.005004,0.000021,0.005004,-0.001894,89.821579,0.005053,
700,1730,1.260354,-2.193549,0.999998,0.000180,-0.003659,0.007554,-0.000038,0.007554,-0.003659,-89.803314,0.007556,
1020,1870,0.193604,-0.834550,0.999998,0.000252,-0.001119,0.005429,-0.000382,0.005452,-0.001141,-86.674764,0.005750,
910,750,1.298053,-10.078383,0.999995,0.000258,-0.005251,0.009099,-0.000185,0.009101,-0.005253,-89.262553,0.009137,
1390,90,-0.053285,-14.788639,0.999998,0.000154,-0.000369,0.004812,-0.000359,0.004836,-0.000394,-86.051952,0.005372,
1800,270,-1.240614,-13.253704,0.999998,0.000170,-0.003513,0.007587,-0.000372,0.007600,-0.003525,-88.084260,0.007606,
990,1570,0.565908,-2.704724,0.999997,0.000196,-0.003049,0.006635,0.000780,0.006697,-0.003111,85.422084,0.006703,
1290,1910,-0.033955,-0.583726,0.999998,0.000146,-0.000517,0.004856,0.000115,0.004858,-0.000520,88.774536,0.005335,
590,970,3.107277,-7.928717,0.999997,0.000219,-0.003034,0.006256,-0.000001,0.006256,-0.003034,-89.996097,0.006257,
830,200,0.525120,-14.054762,0.999998,0.000198,-0.001964,0.006571,0.000952,0.006676,-0.002069,83.713054,0.006835,
570,540,2.232925,-10.978003,0.999950,0.000867,-0.003414,0.007384,-0.000103,0.007385,-0.003415,-89.454520,0.007392,
780,1480,1.489755,-3.920947,0.999996,0.000254,-0.004156,0.007868,0.000120,0.007870,-0.004158,89.426909,0.007874,
1810,1610,-1.712433,-3.220810,0.999997,0.000189,-0.003796,0.007558,-0.000087,0.007559,-0.003797,-89.559781,0.007559,
740,1700,1.187298,-2.324071,0.999997,0.000192,-0.003527,0.007484,-0.000052,0.007484,-0.003527,-89.727829,0.007488,
690,1480,1.854235,-4.135228,0.999998,0.000150,-0.003956,0.007758,0.000012,0.007758,-0.003956,89.942621,0.007759,
1340,560,-0.220617,-12.279313,0.999998,0.000172,-0.002372,0.005463,0.001036,0.005597,-0.002507,82.593148,0.005607,
1090,310,0.210033,-13.641845,0.999998,0.000172,-0.001529,0.005592,-0.000057,0.005593,-0.001530,-89.543374,0.005781,
1190,810,0.110692,-11.487693,0.999997,0.000226,-0.002761,0.002091,-0.001604,0.002573,-0.003243,-73.261479,0.003424,
1870,140,-0.963596,-14.035502,0.999997,0.000203,-0.003609,0.007850,-0.000886,0.007918,-0.003677,-85.605895,0.007925,
1210,720,0.031805,-11.753650,0.999999,0.000143,-0.001535,0.002970,-0.000744,0.003090,-0.001655,-80.860009,0.003093,
1650,650,-1.513523,-10.673971,0.999996,0.000249,-0.004449,0.008254,0.000054,0.008255,-0.004449,89.755404,0.008263,
680,830,2.555890,-8.989511,0.999998,0.000182,-0.003747,0.007434,0.000660,0.007473,-0.003785,86.633326,0.007473,
830,710,1.584878,-10.208980,0.999996,0.000246,-0.004673,0.008482,0.000153,0.008484,-0.004674,89.333616,0.008498,
700,620,1.919429,-10.656340,0.999997,0.000198,-0.004022,0.007815,0.000101,0.007816,-0.004023,89.512582,0.007817,
1600,730,-1.480604,-10.119507,0.999996,0.000223,-0.004917,0.008726,-0.000086,0.008727,-0.004918,-89.637230,0.008750,
1570,610,-1.078977,-11.220295,0.999997,0.000218,-0.004368,0.007940,0.000678,0.007977,-0.004405,86.856905,0.007992,
1390,2000,-0.024893,-0.163917,0.999999,0.000149,-0.000157,0.004667,0.000322,0.004688,-0.000179,86.199768,0.005314,
940,710,1.042420,-10.542607,0.999996,0.000217,-0.005101,0.008718,-0.000794,0.008764,-0.005147,-86.723514,0.008808,
1130,1690,0.168492,-1.753017,0.999998,0.000157,-0.001862,0.005561,0.000303,0.005573,-0.001874,87.667143,0.005672,
1860,1480,-2.189619,-4.335724,0.999997,0.000183,-0.003830,0.007635,0.000019,0.007635,-0.003830,89.904150,0.007635,
1010,1740,0.361594,-1.589438,0.999997,0.000213,-0.001918,0.006018,0.000006,0.006018,-0.001918,89.959093,0.006149,
1480,1520,-0.629621,-3.061531,0.999997,0.000227,-0.003513,0.006943,-0.001002,0.007039,-0.003609,-84.574917,0.007039,
650,1190,2.745973,-6.423305,0.999997,0.000207,-0.003544,0.007295,-0.000623,0.007331,-0.003579,-86.719469,0.007331,
880,1170,1.920653,-6.355985,0.999997,0.000218,-0.004265,0.008922,-0.001094,0.009012,-0.004355,-85.287424,0.009014,
1690,1030,-2.554885,-7.541242,0.999997,0.000208,-0.003122,0.007541,0.000046,0.007541,-0.003122,89.755096,0.007578,
1770,1150,-2.680276,-6.675460,0.999997,0.000213,-0.003492,0.007274,0.000588,0.007306,-0.003524,86.882328,0.007307,
690,200,0.906416,-13.847000,0.999998,0.000171,-0.003331,0.007542,0.000867,0.007611,-0.003400,85.467872,0.007625,
1810,1200,-2.711692,-6.344817,0.999997,0.000204,-0.003567,0.007267,0.000603,0.007301,-0.003600,86.826364,0.007301,
1220,1220,0.058010,-3.576637,0.999995,0.000254,-0.005081,0.002148,0.000024,0.002148,-0.005081,89.811015,0.005101,
1830,1920,-0.788307,-0.894774,0.999997,0.000215,-0.003468,0.007850,0.001125,0.007961,-0.003579,84.380263,0.007974,
860,1660,0.866891,-2.364542,0.999998,0.000154,-0.003195,0.007102,0.000170,0.007105,-0.003198,89.053478,0.007116,
620,560,2.089884,-10.938947,0.999997,0.000183,-0.003812,0.007598,-0.000032,0.007598,-0.003812,-89.840198,0.007598,
1730,1540,-1.554291,-3.565843,0.999997,0.000207,-0.003897,0.007728,-0.000172,0.007730,-0.003900,-89.150829,0.007730,
1060,1070,1.507706,-6.692445,0.999986,0.000000,-0.006949,0.018789,0.003921,0.019373,-0.007533,81.526735,0.019532,
910,710,1.190548,-10.436404,0.999996,0.000227,-0.005060,0.008761,-0.000490,0.008778,-0.005077,-87.970710,0.008814,
860,1290,1.598469,-5.318797,0.999996,0.000231,-0.004931,0.008882,-0.000369,0.008892,-0.004941,-88.469185,0.008910,
950,290,0.456907,-13.608441,0.999997,0.000200,-0.002262,0.006285,0.000120,0.006287,-0.002264,89.193643,0.006369,
1730,1930,-0.461780,-0.649795,0.999997,0.000210,-0.001929,0.006823,0.001783,0.007172,-0.002278,78.914308,0.007329,
1470,1480,-0.626929,-3.316448,0.999997,0.000219,-0.003736,0.007110,-0.001225,0.007247,-0.003873,-83.633904,0.007253,
700,1710,1.309328,-2.345805,0.999997,0.000190,-0.003629,0.007557,-0.000005,0.007557,-0.003629,-89.973671,0.007559,
1600,1070,-2.258364,-7.219788,0.999997,0.000220,-0.002992,0.008039,0.000526,0.008064,-0.003017,87.274230,0.008149,
1670,340,-0.977302,-13.014704,0.999997,0.000203,-0.003355,0.007277,-0.000026,0.007277,-0.003355,-89.859162,0.007284,
1400,1870,-0.142491,-0.812696,0.999998,0.000146,-0.001065,0.005237,0.000238,0.005246,-0.001074,87.840395,0.005543,
890,360,0.714801,-13.060247,0.999997,0.000209,-0.003070,0.006833,-0.000139,0.006835,-0.003072,-89.194818,0.006847,
1430,1490,-0.480998,-3.122346,0.999996,0.000227,-0.003273,0.006579,-0.001287,0.006745,-0.003438,-82.676725,0.006745,
570,970,3.165961,-7.915591,0.999977,0.000546,-0.002727,0.006175,-0.000176,0.006178,-0.002731,-88.870389,0.006192,
1880,1420,-2.408243,-4.842324,0.999995,0.000256,-0.003812,0.007569,0.000090,0.007569,-0.003813,89.544558,0.007569,
670,640,2.087408,-10.433920,0.999997,0.000210,-0.003924,0.007765,0.000161,0.007767,-0.003926,89.212761,0.007767,
1080,710,0.371683,-11.241898,0.999996,0.000244,-0.003956,0.006538,-0.002508,0.007106,-0.004524,-77.225328,0.007194,
1090,290,0.197976,-13.752281,0.999998,0.000167,-0.001440,0.005543,0.000041,0.005543,-0.001440,89.663210,0.005752,
780,1440,1.576889,-4.241111,0.999996,0.000239,-0.004264,0.008043,0.000071,0.008043,-0.004264,89.670544,0.008048,
1650,610,-1.424567,-10.999890,0.999996,0.000226,-0.004305,0.008035,0.000176,0.008037,-0.004308,89.184137,0.008044,
1130,1650,0.183782,-1.974523,0.999998,0.000168,-0.001981,0.005516,0.000428,0.005540,-0.002006,86.745768,0.005610,
920,710,1.140965,-10.472355,0.999997,0.000200,-0.005070,0.008764,-0.000581,0.008789,-0.005094,-87.597715,0.008826,
1600,710,-1.425755,-10.294261,0.999996,0.000236,-0.004856,0.008635,0.000054,0.008635,-0.004857,89.769203,0.008658,
830,670,1.483938,-10.548749,0.999996,0.000239,-0.004616,0.008380,-0.000044,0.008380,-0.004616,-89.807860,0.008394,
1850,1920,-0.862759,-0.970309,0.999997,0.000203,-0.003660,0.007874,0.000912,0.007946,-0.003732,85.505812,0.007951,
660,260,1.221251,-13.322656,0.999998,0.000211,-0.003509,0.007642,0.000431,0.007659,-0.003525,87.788330,0.007667,
1380,2000,-0.024273,-0.163058,0.999999,0.000150,-0.000124,0.004644,0.000300,0.004663,-0.000143,86.416924,0.005304,
1570,570,-1.011180,-11.536382,0.999997,0.000216,-0.004085,0.007769,0.000674,0.007808,-0.004123,86.755196,0.007812,
1800,670,-2.191791,-10.186035,0.999996,0.000241,-0.003902,0.007705,-0.000282,0.007711,-0.003909,-88.610055,0.007712,
720,910,2.594342,-8.423178,0.999997,0.000214,-0.003520,0.007445,0.000645,0.007483,-0.003558,86.642903,0.007486,
1300,1930,-0.034093,-0.488097,0.999998,0.000155,-0.000443,0.004803,0.000149,0.004807,-0.000447,88.371827,0.005312,
1790,1200,-2.639136,-6.322639,0.999996,0.000222,-0.003616,0.007380,0.000658,0.007419,-0.003655,86.590176,0.007419,
620,540,2.044339,-11.089515,0.999997,0.000192,-0.003769,0.007615,-0.000060,0.007615,-0.003769,-89.697958,0.007615,
930,1100,1.981409,-6.917058,0.999996,0.000215,-0.003406,0.009061,-0.000934,0.009131,-0.003476,-85.738554,0.009217,
1300,1670,-0.114813,-1.835819,0.999998,0.000150,-0.001708,0.005388,-0.000140,0.005391,-0.001710,-88.870708,0.005510,
860,1640,0.899808,-2.508636,0.999998,0.000167,-0.003284,0.007205,0.000222,0.007210,-0.003288,88.786609,0.007219,
1290,1890,-0.043938,-0.683679,0.999998,0.000171,-0.000633,0.004944,0.000121,0.004946,-0.000636,88.756344,0.005382,
1390,1370,-0.385923,-3.751569,0.999996,0.000241,-0.003818,0.006538,-0.002251,0.007006,-0.004286,-78.251299,0.007065,
1210,1220,0.102833,-3.598649,0.999991,0.000334,-0.004673,0.002123,0.000158,0.002127,-0.004677,88.673164,0.004683,
1730,1950,-0.370782,-0.514940,0.999997,0.000215,-0.001640,0.006534,0.001831,0.006926,-0.002031,77.932632,0.007120,
910,170,0.310095,-14.306674,0.999998,0.000191,-0.001305,0.005874,0.000768,0.005955,-0.001386,83.963107,0.006233,
880,1290,1.498108,-5.267511,0.999994,0.000261,-0.005069,0.008998,-0.000225,0.009001,-0.005073,-89.082022,0.009025,
1810,1590,-1.755373,-3.373034,0.999997,0.000187,-0.003777,0.007604,-0.000118,0.007606,-0.003778,-89.404082,0.007606,
1340,540,-0.219758,-12.388708,0.999998,0.000178,-0.002293,0.005505,0.000894,0.005607,-0.002394,83.542858,0.005626,
740,1680,1.234688,-2.476394,0.999997,0.000215,-0.003579,0.007560,-0.000007,0.007560,-0.003579,-89.963021,0.007564,
1850,1670,-1.729322,-2.866131,0.999997,0.000210,-0.003729,0.007543,-0.000070,0.007543,-0.003730,-89.645194,0.007544,
570,600,2.367840,-10.516460,0.999912,0.001096,-0.003173,0.007565,0.000263,0.007571,-0.003180,88.597940,0.007603,
800,590,1.437689,-11.128132,0.999995,0.000228,-0.004220,0.007931,-0.000187,0.007934,-0.004223,-89.118138,0.007939,
700,80,0.336563,-14.722305,0.999996,0.000212,-0.001851,0.006623,0.002182,0.007152,-0.002380,76.373739,0.007284,
1380,1870,-0.124605,-0.805744,0.999998,0.000162,-0.000843,0.005160,0.000239,0.005169,-0.000853,87.720458,0.005543,
1350,1520,-0.243177,-2.722975,0.999997,0.000210,-0.002391,0.005615,-0.000976,0.005732,-0.002508,-83.148729,0.005747,
1190,770,0.069301,-11.570992,0.999997,0.000236,-0.001970,0.002516,-0.001720,0.003099,-0.002554,-71.255098,0.003309,
760,1450,1.639298,-4.209119,0.999996,0.000260,-0.004163,0.007966,0.000053,0.007966,-0.004163,89.748815,0.007969,
1520,890,-1.658667,-8.847311,0.999995,0.000251,-0.004748,0.009712,-0.000872,0.009764,-0.004800,-86.561201,0.009765,
1090,270,0.180836,-13.864294,0.999998,0.000180,-0.001327,0.005425,0.000064,0.005426,-0.001328,89.456463,0.005657,
1540,1130,-1.897471,-6.651279,0.999996,0.000238,-0.003960,0.009191,0.001064,0.009277,-0.004046,85.403985,0.009302,
810,1800,0.721680,-1.461637,0.999997,0.000197,-0.002757,0.006965,-0.000561,0.006997,-0.002789,-86.706111,0.007045,
1560,250,-0.483799,-13.811313,0.999997,0.000215,-0.002056,0.006365,-0.000463,0.006390,-0.002082,-86.861868,0.006518,
780,900,2.355649,-8.540094,0.999997,0.000246,-0.003689,0.007974,0.000936,0.008049,-0.003763,85.440079,0.008055,
1080,650,0.352760,-11.621820,0.999997,0.000189,-0.003423,0.006191,-0.001988,0.006586,-0.003818,-78.764484,0.006614,
1110,120,0.061086,-14.646622,0.999998,0.000161,-0.000535,0.004887,0.000228,0.004897,-0.000544,87.596241,0.005368,
830,60,0.115242,-14.906102,0.999998,0.000177,-0.000370,0.005457,0.001395,0.005774,-0.000687,77.206000,0.006307,
1650,70,-0.153660,-14.848934,0.999998,0.000178,-0.000717,0.005667,-0.001451,0.005981,-0.001031,-77.780165,0.006395,
1130,770,0.226500,-11.212903,0.999997,0.000226,-0.003452,0.004918,-0.003140,0.005965,-0.004499,-71.559748,0.006217,
1440,560,-0.511332,-12.000272,0.999997,0.000198,-0.003280,0.006640,0.001187,0.006780,-0.003420,83.269358,0.006780,
1830,1200,-2.782231,-6.368949,0.999997,0.000175,-0.003531,0.007166,0.000543,0.007193,-0.003558,87.103986,0.007193,
920,250,0.452955,-13.827848,0.999997,0.000206,-0.001896,0.006258,0.000431,0.006280,-0.001919,86.980759,0.006437,
1890,550,-2.245979,-10.906582,0.999997,0.000202,-0.003831,0.007675,-0.000012,0.007675,-0.003831,-89.940872,0.007675,
830,650,1.437768,-10.715953,0.999995,0.000234,-0.004553,0.008311,-0.000137,0.008313,-0.004554,-89.391283,0.008325,
700,1630,1.492341,-2.954459,0.999997,0.000206,-0.003758,0.007580,0.000145,0.007582,-0.003760,89.266772,0.007582,
950,270,0.423926,-13.739893,0.999996,0.000222,-0.002159,0.006178,0.000207,0.006183,-0.002164,88.579520,0.006275,
1720,650,-1.815785,-10.512771,0.999997,0.000227,-0.004198,0.008011,-0.000146,0.008013,-0.004200,-89.314843,0.008016,
660,220,1.083154,-13.629049,0.999997,0.000210,-0.003368,0.007653,0.000730,0.007701,-0.003417,86.224751,0.007717,
1280,1270,-0.097132,-3.615357,0.999996,0.000252,-0.002272,0.002541,-0.002048,0.003294,-0.003025,-69.798907,0.003659,
1720,1390,-1.853783,-4.729416,0.999997,0.000246,-0.004225,0.008033,0.000234,0.008037,-0.004230,88.907916,0.008041,
620,520,2.001992,-11.244576,0.999997,0.000201,-0.003759,0.007664,-0.000079,0.007664,-0.003760,-89.603435,0.007665,
1030,1290,0.680955,-4.610810,0.999996,0.000238,-0.005475,0.008583,0.002087,0.008886,-0.005778,81.730844,0.009019,
590,830,2.872227,-8.861682,0.999998,0.000188,-0.003423,0.006947,0.000239,0.006953,-0.003429,88.678783,0.006953,
860,1620,0.929403,-2.653058,0.999997,0.000191,-0.003423,0.007290,0.000342,0.007301,-0.003434,88.171353,0.007305,
580,510,2.128601,-11.228360,0.999998,0.000171,-0.003678,0.007618,-0.000007,0.007618,-0.003678,-89.965241,0.007619,
990,1100,1.759761,-6.777920,0.999995,0.000252,-0.004069,0.010731,-0.000370,0.010741,-0.004079,-88.569115,0.010844,
1060,1060,1.517100,-6.895030,0.999985,0.000000,-0.007375,0.020053,0.003117,0.020402,-0.007725,83.597008,0.020602,
1260,1930,-0.015727,-0.486244,0.999998,0.000157,-0.000511,0.004775,0.000035,0.004776,-0.000511,89.619110,0.005244,
1690,490,-1.348362,-11.845768,0.999997,0.000193,-0.003819,0.007647,0.000221,0.007652,-0.003823,88.897780,0.007652,
1010,1700,0.401090,-1.833156,0.999997,0.000209,-0.002150,0.006063,0.000196,0.006068,-0.002155,88.631922,0.006152,
1480,1500,-0.645678,-3.204204,0.999997,0.000207,-0.003668,0.007080,-0.001102,0.007192,-0.003780,-84.205654,0.007195,
910,150,0.265517,-14.426110,0.999998,0.000174,-0.001110,0.005757,0.000834,0.005857,-0.001210,83.171631,0.006184,
1770,1130,-2.712650,-6.821293,0.999997,0.000224,-0.003416,0.007254,0.000569,0.007284,-0.003446,86.955979,0.007288,
1340,1870,-0.087846,-0.793223,0.999998,0.000187,-0.000975,0.005075,0.000117,0.005078,-0.000978,88.896265,0.005388,
740,1660,1.281393,-2.628351,0.999997,0.000223,-0.003635,0.007572,0.000062,0.007572,-0.003635,89.680533,0.007574,
1340,520,-0.220370,-12.499195,0.999997,0.000181,-0.002216,0.005561,0.000759,0.005634,-0.002289,84.476196,0.005667,
1810,1570,-1.799073,-3.526216,0.999997,0.000199,-0.003785,0.007680,-0.000113,0.007681,-0.003786,-89.437400,0.007681,
1160,1550,0.138050,-2.483642,0.999997,0.000193,-0.002103,0.005320,0.000608,0.005369,-0.002152,85.348305,0.005404,
1520,870,-1.565706,-9.045289,0.999995,0.000256,-0.005066,0.009763,-0.000666,0.009793,-0.005096,-87.434143,0.009796,
1090,470,0.282658,-12.727257,0.999998,0.000184,-0.002394,0.005828,-0.000742,0.005894,-0.002461,-84.886152,0.005921,
1860,740,-2.601346,-9.535002,0.999997,0.000216,-0.003650,0.007357,-0.000267,0.007363,-0.003656,-88.612311,0.007363,
1190,750,0.064604,-11.624542,0.999998,0.000171,-0.001831,0.002765,-0.001588,0.003260,-0.002326,-72.673911,0.003358,
1290,1870,-0.046563,-0.780684,0.999998,0.000152,-0.000733,0.004989,0.000103,0.004991,-0.000735,88.965019,0.005389,
1390,1330,-0.412842,-4.023412,0.999996,0.000242,-0.004304,0.006872,-0.002615,0.007454,-0.004885,-77.458592,0.007573,
570,1170,3.050879,-6.665972,0.999994,0.000286,-0.002985,0.006340,-0.000024,0.006340,-0.002985,-89.854619,0.006344,
1730,1970,-0.286363,-0.389870,0.999997,0.000187,-0.001373,0.006153,0.001827,0.006573,-0.001793,77.053165,0.006796,
730,1300,2.150936,-5.475103,0.999998,0.000199,-0.004129,0.008008,-0.000616,0.008039,-0.004160,-87.101982,0.008041,
1550,440,-0.764248,-12.547171,0.999998,0.000173,-0.003308,0.007056,0.000473,0.007077,-0.003329,87.393383,0.007081,
780,1790,0.838114,-1.582862,0.999998,0.000166,-0.003081,0.007177,-0.000451,0.007197,-0.003101,-87.489695,0.007220,
950,250,0.393660,-13.857246,0.999997,0.000206,-0.002009,0.006064,0.000294,0.006075,-0.002019,87.918934,0.006187,
1640,1980,-0.162528,-0.299035,0.999998,0.000185,-0.000638,0.005646,0.001439,0.005960,-0.000951,77.697415,0.006404,
780,880,2.303664,-8.698123,0.999996,0.000236,-0.003833,0.007936,0.000909,0.008006,-0.003902,85.609762,0.008007,
1130,750,0.211531,-11.314393,0.999997,0.000245,-0.003230,0.004941,-0.002945,0.005891,-0.004181,-72.107872,0.006062,
700,1610,1.534084,-3.107085,0.999996,0.000223,-0.003795,0.007605,0.000141,0.007606,-0.003796,89.289525,0.007606,
1540,490,-0.793457,-12.214946,0.999997,0.000209,-0.003460,0.007138,0.000633,0.007176,-0.003497,86.595989,0.007176,
1700,1390,-1.769134,-4.685848,0.999996,0.000251,-0.004278,0.008112,0.000183,0.008115,-0.004280,89.153251,0.008119,
1690,470,-1.308860,-11.996941,0.999997,0.000184,-0.003743,0.007599,0.000220,0.007603,-0.003748,88.887834,0.007603,
1060,1050,1.525846,-7.092480,0.999980,0.000000,-0.007722,0.020092,0.002077,0.020246,-0.007876,85.752826,0.020412,
1650,120,-0.313247,-14.552394,0.999997,0.000215,-0.001389,0.006092,-0.001325,0.006320,-0.001617,-80.245718,0.006566,
700,60,0.214973,-14.869758,0.999996,0.000243,-0.001264,0.006604,0.002464,0.007312,-0.001972,73.967993,0.007567,
1480,1700,-0.460014,-1.867570,0.999997,0.000190,-0.002412,0.006233,-0.000227,0.006239,-0.002418,-88.496591,0.006292,
1900,1520,-2.248370,-4.120654,0.999997,0.000000,-0.003768,0.007625,0.000025,0.007625,-0.003768,89.873250,0.007625,
1520,750,-1.122005,-10.198136,0.999998,0.000158,-0.005375,0.009073,0.000609,0.009098,-0.005401,87.589905,0.009151,
830,630,1.391979,-10.881377,0.999996,0.000226,-0.004458,0.008099,-0.000189,0.008102,-0.004460,-89.136732,0.008116,
840,630,1.348016,-10.907761,0.999996,0.000231,-0.004478,0.008124,-0.000264,0.008130,-0.004483,-88.800704,0.008144,
910,130,0.224613,-14.536494,0.999998,0.000171,-0.000955,0.005599,0.000896,0.005719,-0.001076,82.354298,0.006079,
1060,930,1.304559,-9.216322,0.999990,0.000404,-0.004332,0.011079,-0.004490,0.012292,-0.005545,-74.884368,0.012312,
700,1350,2.136676,-5.133588,0.999996,0.000227,-0.004004,0.007804,-0.000412,0.007818,-0.004018,-88.003795,0.007819,
1570,550,-0.983514,-11.692006,0.999997,0.000193,-0.003930,0.007637,0.000638,0.007672,-0.003965,86.854146,0.007673,
1670,1200,-2.184150,-6.204876,0.999997,0.000216,-0.004037,0.008237,0.000951,0.008310,-0.004110,85.595980,0.008310,
1770,400,-1.464390,-12.338215,0.999994,0.000272,-0.003709,0.007587,0.000088,0.007587,-0.003709,89.554827,0.007588,
620,500,1.957604,-11.397483,0.999997,0.000191,-0.003768,0.007649,-0.000071,0.007649,-0.003769,-89.643887,0.007650,
1030,1270,0.731620,-4.784788,0.999996,0.000252,-0.005664,0.008872,0.002004,0.009143,-0.005935,82.291958,0.009278,
1080,360,0.257504,-13.348290,0.999998,0.000188,-0.001824,0.005742,-0.000195,0.005747,-0.001829,-88.523135,0.005872,
1010,1680,0.420594,-1.955677,0.999997,0.000227,-0.002242,0.006201,0.000245,0.006208,-0.002249,88.337974,0.006286,
730,840,2.389767,-8.968778,0.999996,0.000239,-0.003868,0.007787,0.000839,0.007847,-0.003928,85.906018,0.007847,
1390,530,-0.348878,-12.327801,0.999997,0.000199,-0.002688,0.006023,0.001036,0.006144,-0.002809,83.308088,0.006152,
1810,1550,-1.842934,-3.681729,0.999997,0.000222,-0.003825,0.007693,-0.000105,0.007694,-0.003826,-89.478455,0.007694,
810,1500,1.326244,-3.689046,0.999997,0.000194,-0.004060,0.007884,0.000300,0.007892,-0.004067,88.561754,0.007893,
1290,1850,-0.054580,-0.882885,0.999999,0.000140,-0.000847,0.005036,0.000101,0.005038,-0.000849,89.017703,0.005394,
760,950,2.526383,-8.141338,0.999997,0.000222,-0.003376,0.007573,0.000692,0.007617,-0.003420,86.397905,0.007630,
1340,500,-0.217168,-12.608699,0.999998,0.000159,-0.002174,0.005558,0.000658,0.005614,-0.002230,85.169656,0.005653,
1870,1140,-3.031411,-6.831831,0.999998,0.000187,-0.003215,0.006641,0.000250,0.006648,-0.003222,88.549887,0.006649,
1800,250,-1.176992,-13.406493,0.999997,0.000216,-0.003466,0.007621,-0.000522,0.007645,-0.003490,-87.312572,0.007655,
660,170,0.877001,-14.015243,0.999997,0.000207,-0.003087,0.007723,0.001315,0.007881,-0.003244,83.164633,0.007922,
1360,310,-0.188492,-13.649959,0.999998,0.000188,-0.001574,0.005525,0.000085,0.005526,-0.001575,89.317795,0.005694,
1890,1580,-2.078718,-3.641701,0.999998,0.000194,-0.003705,0.007561,-0.000071,0.007562,-0.003705,-89.639732,0.007562,
1640,1960,-0.227617,-0.413342,0.999998,0.000182,-0.000886,0.005797,0.001377,0.006070,-0.001158,78.801911,0.006445,
1190,730,0.063132,-11.683805,0.999998,0.000169,-0.001791,0.003079,-0.001432,0.003469,-0.002181,-74.766441,0.003507,
1130,730,0.202252,-11.415272,0.999996,0.000247,-0.003006,0.005001,-0.002711,0.005832,-0.003838,-72.946193,0.005929,
1550,1640,-0.727846,-2.395262,0.999997,0.000183,-0.003151,0.006960,-0.000378,0.006974,-0.003166,-87.862715,0.006984,
990,1530,0.594759,-2.971973,0.999997,0.000218,-0.003291,0.006819,0.000945,0.006906,-0.003379,84.706942,0.006907,
1860,700,-2.499527,-9.831951,0.999997,0.000206,-0.003720,0.007495,-0.000208,0.007499,-0.003724,-88.937839,0.007499,
740,1970,0.281776,-0.390431,0.999998,0.000179,-0.001137,0.006103,-0.001839,0.006543,-0.001577,-76.535969,0.006830,
1900,1500,-2.295895,-4.275147,0.999997,0.000000,-0.003800,0.007692,0.000026,0.007692,-0.003800,89.871478,0.007692,
1060,1040,1.535499,-7.300218,0.999972,0.000000,-0.008062,0.020272,0.001232,0.020326,-0.008116,87.515430,0.020463,
1730,1990,-0.202317,-0.270747,0.999997,0.000194,-0.000929,0.006015,0.001986,0.006543,-0.001457,75.115258,0.006870,
1050,950,1.457011,-8.838792,0.999989,0.000401,-0.005240,0.012838,-0.003855,0.013626,-0.006027,-78.450599,0.013656,
690,240,1.049680,-13.546066,0.999998,0.000201,-0.003488,0.007567,0.000510,0.007590,-0.003511,87.365317,0.007597,
1280,370,-0.080064,-13.371425,0.999998,0.000150,-0.001622,0.005360,0.000093,0.005362,-0.001623,89.233125,0.005499,
1500,750,-1.015201,-10.283420,0.999996,0.000216,-0.005435,0.009031,0.000901,0.009087,-0.005491,86.448969,0.009152,
830,610,1.350189,-11.040468,0.999996,0.000225,-0.004355,0.008020,-0.000273,0.008026,-0.004361,-88.735487,0.008036,
1080,1660,0.273793,-1.969067,0.999997,0.000177,-0.002068,0.005775,0.000341,0.005790,-0.002083,87.514003,0.005865,
1470,1890,-0.196058,-0.737616,0.999998,0.000164,-0.000968,0.005421,0.000509,0.005461,-0.001008,85.472428,0.005812,
650,1630,1.678992,-3.076244,0.999997,0.000231,-0.003762,0.007582,0.000091,0.007583,-0.003762,89.541726,0.007583,
580,630,2.405788,-10.307616,0.999997,0.000234,-0.004234,0.007759,0.000453,0.007777,-0.004251,87.841132,0.007788,
690,1990,0.254739,-0.288441,0.999997,0.000238,-0.001255,0.006867,-0.002653,0.007656,-0.002045,-73.423168,0.007928,
1440,520,-0.489073,-12.265421,0.999997,0.000209,-0.003163,0.006532,0.001047,0.006644,-0.003275,83.906658,0.006644,
1720,1070,-2.625926,-7.245271,0.999998,0.000195,-0.003212,0.007343,0.000264,0.007349,-0.003218,88.568994,0.007368,
910,110,0.178201,-14.651546,0.999998,0.000178,-0.000729,0.005542,0.000931,0.005678,-0.000864,81.733205,0.006118,
1510,1800,-0.394997,-1.288696,0.999997,0.000215,-0.002075,0.006058,0.000246,0.006065,-0.002083,88.266086,0.006163,
580,830,2.905798,-8.842955,0.999998,0.000189,-0.003422,0.006927,0.000160,0.006929,-0.003425,89.113629,0.006930,
620,480,1.912088,-11.551533,0.999997,0.000210,-0.003777,0.007614,-0.000098,0.007615,-0.003777,-89.507016,0.007615,
1690,1320,-1.913147,-5.240376,0.999998,0.000176,-0.004369,0.008250,0.000509,0.008271,-0.004389,87.694991,0.008276,
1140,1550,0.181172,-2.514512,0.999998,0.000169,-0.002158,0.005459,0.000726,0.005528,-0.002227,84.606052,0.005563,
1060,850,0.811392,-9.999421,0.999994,0.000302,-0.005519,0.008916,-0.002309,0.009277,-0.005879,-81.128307,0.009387,
1590,480,-0.956028,-12.164406,0.999997,0.000195,-0.003655,0.007415,0.000489,0.007436,-0.003676,87.478003,0.007436,
1390,510,-0.342036,-12.450294,0.999997,0.000178,-0.002640,0.005966,0.000958,0.006071,-0.002745,83.724988,0.006080,
940,370,0.594428,-13.077312,0.999997,0.000193,-0.002645,0.006529,-0.000189,0.006533,-0.002649,-88.817205,0.006571,
1100,1190,0.694252,-4.766547,0.999993,0.000312,-0.003652,0.006030,0.003363,0.007083,-0.004706,72.604376,0.007210,
1850,1140,-2.964653,-6.807583,0.999998,0.000161,-0.003299,0.006754,0.000347,0.006766,-0.003311,88.028041,0.006767,
820,1230,1.977932,-5.921912,0.999996,0.000242,-0.004356,0.008539,-0.000875,0.008598,-0.004415,-86.136235,0.008599,
1570,530,-0.955187,-11.841235,0.999997,0.000203,-0.003823,0.007523,0.000631,0.007558,-0.003858,86.826353,0.007559,
1340,480,-0.213582,-12.719455,0.999998,0.000183,-0.002120,0.005561,0.000601,0.005608,-0.002167,85.555459,0.005656,
1130,710,0.200750,-11.514311,0.999997,0.000203,-0.002860,0.005050,-0.002414,0.005728,-0.003539,-74.300563,0.005781,
620,1670,1.700994,-2.847811,0.999998,0.000175,-0.003724,0.007526,0.000092,0.007527,-0.003725,89.533851,0.007527,
1890,540,-2.222907,-10.983609,0.999997,0.000207,-0.003832,0.007644,0.000003,0.007644,-0.003832,89.983158,0.007644,
1190,710,0.064814,-11.749432,0.999998,0.000184,-0.001799,0.003409,-0.001281,0.003707,-0.002097,-76.901798,0.003717,
1640,1940,-0.284865,-0.532356,0.999997,0.000197,-0.001109,0.006049,0.001347,0.006295,-0.001354,79.685065,0.006626,
1290,1830,-0.059131,-0.984068,0.999998,0.000146,-0.000926,0.005097,0.000054,0.005098,-0.000926,89.483174,0.005431,
710,1700,1.297357,-2.396806,0.999996,0.000222,-0.003661,0.007553,0.000007,0.007553,-0.003661,89.964913,0.007554,
1860,160,-1.027512,-13.919918,0.999998,0.000161,-0.003644,0.007690,-0.000609,0.007723,-0.003676,-86.931894,0.007726,
720,1970,0.309310,-0.402862,0.999997,0.000203,-0.001832,0.006278,-0.001816,0.006666,-0.002220,-77.937870,0.006789,
990,990,1.887049,-7.973566,0.999995,0.000266,-0.003571,0.010863,0.000172,0.010865,-0.003573,89.318407,0.011075,
1900,1230,-2.953068,-6.274612,0.999997,0.000000,-0.003415,0.006903,0.000164,0.006906,-0.003418,89.087466,0.006906,
1060,1030,1.540792,-7.504771,0.999974,0.000000,-0.008095,0.020675,0.000252,0.020677,-0.008097,89.498293,0.020839,
1580,310,-0.648573,-13.390455,0.999996,0.000238,-0.002799,0.006753,-0.000097,0.006754,-0.002800,-89.416145,0.006787,
690,220,0.980299,-13.695813,0.999998,0.000185,-0.003411,0.007494,0.000686,0.007537,-0.003454,86.414983,0.007546,
1800,310,-1.356900,-12.947600,0.999997,0.000224,-0.003606,0.007549,-0.000136,0.007550,-0.003608,-89.299650,0.007553,
690,1970,0.381038,-0.437315,0.999996,0.000218,-0.001804,0.006812,-0.002278,0.007378,-0.002369,-76.066050,0.007533,
1740,480,-1.520795,-11.799338,0.999996,0.000225,-0.003853,0.007675,0.000158,0.007677,-0.003855,89.214683,0.007677,
700,630,1.943330,-10.577588,0.999997,0.000196,-0.004035,0.007826,0.000142,0.007828,-0.004037,89.312469,0.007829,
1060,920,1.244446,-9.315764,0.999991,0.000348,-0.004327,0.010358,-0.004092,0.011421,-0.005391,-75.435383,0.011427,
830,590,1.311675,-11.203974,0.999996,0.000215,-0.004280,0.008017,-0.000328,0.008026,-0.004289,-88.474533,0.008032,
650,1610,1.724443,-3.228865,0.999997,0.000215,-0.003786,0.007618,0.000110,0.007619,-0.003787,89.449495,0.007619,
1480,960,-1.810850,-8.261498,0.999996,0.000234,-0.003830,0.010426,-0.000541,0.010446,-0.003850,-87.830963,0.010566,
1880,1580,-2.041276,-3.617815,0.999997,0.000213,-0.003716,0.007574,-0.000073,0.007574,-0.003716,-89.627182,0.007575,
910,90,0.139420,-14.758529,0.999998,0.000149,-0.000579,0.005302,0.000931,0.005445,-0.000723,81.218335,0.005915,
760,770,2.070733,-9.570412,0.999997,0.000213,-0.004224,0.008163,0.000680,0.008201,-0.004261,86.866211,0.008203,
1060,830,0.710309,-10.170352,0.999995,0.000272,-0.005631,0.008798,-0.002394,0.009185,-0.006018,-80.820880,0.009331,
980,1550,0.612638,-2.862467,0.999997,0.000200,-0.003259,0.006827,0.000836,0.006896,-0.003328,85.293776,0.006897,
1320,370,-0.145388,-13.354006,0.999998,0.000151,-0.001807,0.005547,0.000254,0.005555,-0.001816,88.026066,0.005665,
1390,490,-0.335472,-12.569083,0.999997,0.000211,-0.002612,0.006007,0.000899,0.006099,-0.002705,84.108237,0.006112,
1570,510,-0.926456,-11.992797,0.999997,0.000209,-0.003747,0.007429,0.000604,0.007461,-0.003780,86.917286,0.007461,
1670,1320,-1.825749,-5.203289,0.999998,0.000172,-0.004496,0.008353,0.000449,0.008368,-0.004512,88.002954,0.008377,
1650,1200,-2.101107,-6.183493,0.999998,0.000239,-0.004139,0.008384,0.000987,0.008461,-0.004216,85.522946,0.008461,
1400,1930,-0.087118,-0.504576,0.999998,0.000142,-0.000662,0.005026,0.000348,0.005047,-0.000683,86.512102,0.005477,
1770,380,-1.418358,-12.492010,0.999997,0.000211,-0.003662,0.007601,0.000050,0.007601,-0.003662,89.745955,0.007603,
1130,690,0.200347,-11.610052,0.999997,0.000202,-0.002750,0.005045,-0.002199,0.005622,-0.003327,-75.285671,0.005654,
1570,1640,-0.792366,-2.439256,0.999996,0.000222,-0.003235,0.007074,-0.000335,0.007085,-0.003246,-88.138863,0.007093,
1640,1920,-0.349428,-0.655216,0.999997,0.000211,-0.001371,0.006108,0.001247,0.006310,-0.001573,80.781884,0.006569,
570,830,2.940027,-8.821611,0.999997,0.000200,-0.003422,0.006924,0.000109,0.006925,-0.003423,89.393700,0.006926,
1140,1870,0.072989,-0.787127,0.999998,0.000172,-0.000909,0.005027,-0.000091,0.005028,-0.000910,-89.117999,0.005358,
1030,1250,0.791604,-4.967029,0.999996,0.000256,-0.005796,0.009107,0.001831,0.009329,-0.006018,83.098182,0.009459,
1060,1020,1.526045,-7.715984,0.999977,0.000000,-0.007882,0.020956,-0.000963,0.020988,-0.007914,-88.089136,0.021198,
1290,1810,-0.065883,-1.087187,0.999998,0.000149,-0.001047,0.005167,0.000074,0.005167,-0.001048,89.318839,0.005463,
1650,1520,-1.275747,-3.524954,0.999997,0.000182,-0.003973,0.007791,-0.000331,0.007800,-0.003982,-88.391257,0.007800,
1580,290,-0.610637,-13.522935,0.999996,0.000222,-0.002656,0.006699,-0.000202,0.006704,-0.002660,-88.762529,0.006751,
620,460,1.869558,-11.703220,0.999997,0.000219,-0.003755,0.007599,-0.000129,0.007601,-0.003757,-89.350267,0.007601,
780,860,2.251381,-8.859135,0.999997,0.000201,-0.003959,0.008077,0.000942,0.008150,-0.004032,85.552178,0.008151,
1800,290,-1.299788,-13.101264,0.999997,0.000209,-0.003578,0.007619,-0.000253,0.007625,-0.003584,-88.706330,0.007630,
600,1170,2.958298,-6.622913,0.999998,0.000157,-0.003260,0.006655,-0.000220,0.006660,-0.003265,-88.730603,0.006661,
940,350,0.567108,-13.207268,0.999997,0.000220,-0.002540,0.006553,-0.000079,0.006554,-0.002541,-89.503113,0.006609,
1470,1260,-0.975085,-5.105548,0.999996,0.000245,-0.005802,0.009436,-0.001106,0.009516,-0.005882,-85.871255,0.009604,
1810,1530,-1.885745,-3.835311,0.999997,0.000214,-0.003843,0.007672,-0.000060,0.007672,-0.003843,-89.699843,0.007672,
570,1100,3.160846,-7.112293,0.999978,0.000577,-0.002924,0.006073,0.000018,0.006073,-0.002924,89.886588,0.006074,
1430,1930,-0.112007,-0.514777,0.999998,0.000182,-0.000756,0.005108,0.000413,0.005137,-0.000785,85.986410,0.005534,
1900,1220,-2.975253,-6.346305,0.999998,0.000000,-0.003418,0.006967,0.000193,0.006970,-0.003422,88.935859,0.006971,
910,70,0.096324,-14.864868,0.999998,0.000154,-0.000386,0.005205,0.000941,0.005360,-0.000540,80.696555,0.005902,
990,970,1.824338,-8.179804,0.999996,0.000222,-0.003804,0.010563,0.000293,0.010569,-0.003810,88.832861,0.010705,
680,630,2.023537,-10.534523,0.999997,0.000231,-0.003955,0.007778,0.000145,0.007780,-0.003957,89.292231,0.007780,
1860,140,-0.927618,-14.072977,0.999998,0.000182,-0.003618,0.007838,-0.000870,0.007903,-0.003684,-85.684143,0.007909,
1110,1180,0.751375,-4.670035,0.999996,0.000226,-0.002501,0.004864,0.003213,0.006069,-0.003706,69.445706,0.006118,
690,1950,0.470987,-0.565255,0.999996,0.000223,-0.002354,0.007032,-0.001932,0.007414,-0.002736,-78.813693,0.007498,
1870,1580,-2.003773,-3.594668,0.999997,0.000221,-0.003736,0.007587,-0.000079,0.007587,-0.003736,-89.598431,0.007588,
750,1740,1.062861,-2.007839,0.999997,0.000216,-0.003246,0.007351,-0.000220,0.007356,-0.003251,-88.812680,0.007372,
1390,470,-0.328041,-12.691149,0.999997,0.000207,-0.002561,0.006048,0.000812,0.006124,-0.002637,84.656558,0.006144,
1740,460,-1.477543,-11.954789,0.999996,0.000223,-0.003817,0.007632,0.000144,0.007633,-0.003819,89.277672,0.007633,
1080,690,0.362856,-11.369891,0.999996,0.000242,-0.003730,0.006413,-0.002332,0.006923,-0.004240,-77.651263,0.006982,
830,570,1.270591,-11.365473,0.999997,0.000193,-0.004187,0.007909,-0.000357,0.007920,-0.004197,-88.310300,0.007924,
1480,920,-1.619235,-8.684726,0.999995,0.000257,-0.004679,0.010429,-0.000457,0.010443,-0.004693,-88.267463,0.010461,
1720,390,-1.258057,-12.536097,0.999996,0.000223,-0.003630,0.007557,0.000070,0.007558,-0.003630,89.641939,0.007560,
1370,2000,-0.021731,-0.162279,0.999998,0.000149,-0.000139,0.004626,0.000276,0.004642,-0.000155,86.700664,0.005273,
830,960,2.313926,-8.089355,0.999996,0.000244,-0.003209,0.007912,0.000745,0.007961,-0.003258,86.185504,0.008005,
1350,1320,-0.261923,-3.836886,0.999998,0.000210,-0.003513,0.005581,-0.002850,0.006400,-0.004332,-73.958190,0.006533,
830,540,1.218259,-11.600306,0.999997,0.000174,-0.004013,0.007795,-0.000368,0.007807,-0.004024,-88.215048,0.007808,
740,1640,1.322562,-2.780998,0.999996,0.000247,-0.003682,0.007583,0.000124,0.007584,-0.003684,89.370210,0.007585,
1520,1640,-0.639634,-2.334503,0.999997,0.000209,-0.002860,0.006716,-0.000398,0.006733,-0.002876,-87.622197,0.006757,
960,1550,0.680132,-2.915716,0.999997,0.000212,-0.003474,0.007024,0.000819,0.007088,-0.003538,85.565511,0.007088,
780,570,1.479297,-11.237701,0.999995,0.000256,-0.004133,0.007883,-0.000145,0.007885,-0.004135,-89.310483,0.007888,
1850,1200,-2.852564,-6.397561,0.999998,0.000145,-0.003448,0.007071,0.000447,0.007090,-0.003467,87.572437,0.007090,
1570,490,-0.896709,-12.142033,0.999997,0.000211,-0.003609,0.007326,0.000554,0.007354,-0.003637,87.109283,0.007354,
1060,1010,1.535018,-7.932961,0.999982,0.000000,-0.007724,0.020608,-0.001904,0.020736,-0.007851,-86.172731,0.020938,
1310,780,-0.165716,-11.338953,0.999997,0.000207,-0.002888,0.003867,0.002903,0.004944,-0.003964,69.660371,0.005235,
1130,670,0.202446,-11.714076,0.999998,0.000187,-0.002676,0.005078,-0.002013,0.005569,-0.003167,-76.282144,0.005587,
900,1670,0.724575,-2.212643,0.999997,0.000216,-0.003059,0.006915,0.000214,0.006920,-0.003064,88.768892,0.006935,
1290,1790,-0.071287,-1.191076,0.999998,0.000159,-0.001137,0.005209,0.000053,0.005209,-0.001137,89.517582,0.005478,
1640,1900,-0.406366,-0.777453,0.999997,0.000211,-0.001591,0.006305,0.001199,0.006484,-0.001770,81.553967,0.006703,
1730,460,-1.440937,-11.978649,0.999997,0.000193,-0.003808,0.007625,0.000172,0.007627,-0.003810,89.136681,0.007627,
790,1940,0.335305,-0.552369,0.999996,0.000228,-0.001647,0.006313,-0.001496,0.006585,-0.001919,-79.700133,0.006774,
1030,1230,0.870224,-5.149418,0.999995,0.000266,-0.005857,0.009454,0.001673,0.009634,-0.006038,83.837919,0.009737,
780,840,2.192112,-9.022316,0.999997,0.000190,-0.004078,0.008155,0.000940,0.008227,-0.004150,85.633625,0.008227,
950,320,0.499407,-13.422167,0.999997,0.000194,-0.002427,0.006457,-0.000024,0.006457,-0.002427,-89.842577,0.006523,
1390,450,-0.319800,-12.812627,0.999997,0.000197,-0.002480,0.005951,0.000710,0.006010,-0.002539,85.221046,0.006034,
590,1170,2.990184,-6.634849,0.999999,0.000127,-0.003180,0.006549,-0.000158,0.006552,-0.003182,-89.068275,0.006553,
1810,1510,-1.930549,-3.988992,0.999997,0.000198,-0.003845,0.007634,-0.000044,0.007634,-0.003845,-89.781590,0.007634,
590,150,1.027058,-13.948134,0.999997,0.000232,-0.003645,0.007688,0.000726,0.007735,-0.003691,86.347718,0.007737,
790,1100,2.435630,-7.006713,0.999996,0.000211,-0.003313,0.007699,-0.000718,0.007746,-0.003359,-86.283668,0.007769,
690,1930,0.579756,-0.718016,0.999997,0.000219,-0.002679,0.007296,-0.001800,0.007611,-0.002994,-80.080011,0.007668,
1560,1910,-0.262580,-0.669723,0.999998,0.000168,-0.001148,0.005751,0.000866,0.005858,-0.001255,82.957329,0.006169,
1430,1910,-0.130929,-0.615576,0.999998,0.000167,-0.000895,0.005203,0.000401,0.005229,-0.000921,86.249704,0.005583,
1740,440,-1.438674,-12.107120,0.999996,0.000236,-0.003783,0.007586,0.000160,0.007589,-0.003785,89.192359,0.007589,
830,550,1.237025,-11.521721,0.999997,0.000185,-0.004060,0.007835,-0.000364,0.007846,-0.004072,-88.246732,0.007848,
1620,1710,-0.829900,-2.043994,0.999997,0.000179,-0.002874,0.007061,0.000114,0.007063,-0.002875,89.342071,0.007103,
650,1590,1.769309,-3.382426,0.999997,0.000226,-0.003790,0.007631,0.000111,0.007632,-0.003791,89.444983,0.007632,
1800,650,-2.140021,-10.342022,0.999997,0.000199,-0.003925,0.007758,-0.000210,0.007762,-0.003929,-88.971038,0.007762,
1480,380,-0.487824,-13.092159,0.999998,0.000192,-0.002590,0.006391,0.000342,0.006404,-0.002603,87.823080,0.006442,
1000,1870,0.216710,-0.843527,0.999998,0.000179,-0.001086,0.005499,-0.000448,0.005530,-0.001116,-86.126306,0.005848,
1710,840,-2.300476,-8.993175,0.999997,0.000207,-0.003983,0.007972,-0.000897,0.008039,-0.004050,-85.733291,0.008039,
900,1980,0.111614,-0.282797,0.999998,0.000166,-0.000549,0.005250,-0.000969,0.005408,-0.000707,-80.756256,0.005879,
810,960,2.378540,-8.081038,0.999996,0.000249,-0.003258,0.007810,0.000708,0.007856,-0.003303,86.353973,0.007889,
1900,1210,-2.999092,-6.416249,0.999998,0.000000,-0.003384,0.006895,0.000191,0.006898,-0.003387,88.936548,0.006899,
1340,1590,-0.214320,-2.315939,0.999998,0.000155,-0.002098,0.005571,-0.000556,0.005611,-0.002138,-85.877277,0.005664,
1340,460,-0.208750,-12.831894,0.999998,0.000153,-0.002090,0.005536,0.000533,0.005573,-0.002127,86.021026,0.005624,
1720,370,-1.212669,-12.686614,0.999997,0.000220,-0.003552,0.007496,-0.000028,0.007496,-0.003552,-89.855618,0.007500,
1300,370,-0.111981,-13.363998,0.999997,0.000172,-0.001630,0.005437,0.000109,0.005439,-0.001632,89.115785,0.005582,
990,950,1.740484,-8.394479,0.999996,0.000237,-0.004119,0.010798,0.000394,0.010808,-0.004129,88.488321,0.010908,
1060,1000,1.545227,-8.149765,0.999974,0.000000,-0.007558,0.020183,-0.002868,0.020476,-0.007851,-84.159156,0.020661,
880,1670,0.787794,-2.254772,0.999996,0.000268,-0.003170,0.007031,0.000200,0.007035,-0.003174,88.879188,0.007046,
1130,650,0.202460,-11.816706,0.999998,0.000175,-0.002639,0.005121,-0.001794,0.005516,-0.003034,-77.592115,0.005525,
1330,1320,-0.197290,-3.713539,0.999997,0.000218,-0.002980,0.004827,-0.002690,0.005664,-0.003817,-72.712549,0.005777,
1480,690,-0.789689,-10.893779,0.999997,0.000232,-0.004829,0.008181,0.001416,0.008333,-0.004981,83.860910,0.008386,
1860,120,-0.813960,-14.233240,0.999996,0.000221,-0.003571,0.008056,-0.001153,0.008169,-0.003684,-84.392102,0.008182,
1430,960,-1.601320,-8.534406,0.999996,0.000338,-0.005197,0.012861,0.002001,0.013080,-0.005416,83.753464,0.013145,
660,1550,1.816110,-3.665117,0.999997,0.000184,-0.003837,0.007669,0.000114,0.007670,-0.003838,89.431763,0.007670,
1570,470,-0.869617,-12.289539,0.999997,0.000215,-0.003445,0.007248,0.000483,0.007270,-0.003467,87.421333,0.007272,
1640,1880,-0.467631,-0.908593,0.999997,0.000209,-0.001808,0.006442,0.001069,0.006578,-0.001944,82.738034,0.006759,
780,550,1.439119,-11.395791,0.999995,0.000250,-0.004064,0.007845,-0.000200,0.007849,-0.004068,-89.036335,0.007850,
830,520,1.182642,-11.756008,0.999997,0.000197,-0.003941,0.007705,-0.000375,0.007717,-0.003953,-88.158561,0.007718,
1390,430,-0.308710,-12.932228,0.999997,0.000188,-0.002364,0.005888,0.000597,0.005931,-0.002407,85.884769,0.005966,
790,1920,0.405384,-0.678550,0.999997,0.000195,-0.001973,0.006350,-0.001293,0.006546,-0.002169,-81.370645,0.006669,
690,440,1.562102,-12.027112,0.999995,0.000255,-0.003757,0.007602,-0.000132,0.007603,-0.003758,-89.336152,0.007603,
780,820,2.130628,-9.186673,0.999998,0.000177,-0.004166,0.008182,0.000874,0.008243,-0.004227,85.969363,0.008244,
1290,1990,-0.011720,-0.206161,0.999998,0.000169,-0.000140,0.004574,0.000117,0.004577,-0.000143,88.575833,0.005204,
1470,1200,-1.220495,-5.705827,0.999995,0.000287,-0.005758,0.010250,-0.000413,0.010261,-0.005769,-88.522034,0.010287,
1810,1490,-1.974893,-4.142319,0.999998,0.000188,-0.003836,0.007673,-0.000014,0.007673,-0.003836,-89.931188,0.007673,
940,630,0.900802,-11.212022,0.999998,0.000180,-0.004422,0.007888,-0.000966,0.007963,-0.004498,-85.539572,0.007985,
1880,1030,-3.160777,-7.543918,0.999998,0.000151,-0.003057,0.006435,0.000047,0.006436,-0.003057,89.716054,0.006438,
690,1910,0.671725,-0.856690,0.999997,0.000226,-0.002980,0.007340,-0.001466,0.007544,-0.003184,-82.068756,0.007574,
580,1170,3.022050,-6.648375,0.999998,0.000145,-0.003051,0.006458,-0.000081,0.006458,-0.003052,-89.512218,0.006462,
580,170,1.157988,-13.758455,0.999998,0.000204,-0.003455,0.007776,0.000405,0.007790,-0.003470,87.938330,0.007806,
860,1600,0.963790,-2.800972,0.999997,0.000221,-0.003557,0.007361,0.000381,0.007374,-0.003570,88.003141,0.007375,
620,440,1.825054,-11.856967,0.999997,0.000214,-0.003740,0.007564,-0.000128,0.007566,-0.003741,-89.351032,0.007566,
1600,1710,-0.772084,-2.010712,0.999997,0.000180,-0.002962,0.006935,0.000026,0.006935,-0.002962,89.852322,0.006960,
1740,420,-1.395888,-12.260165,0.999996,0.000244,-0.003744,0.007602,0.000140,0.007604,-0.003746,89.295491,0.007604,
830,530,1.200326,-11.680146,0.999997,0.000182,-0.003977,0.007729,-0.000372,0.007741,-0.003989,-88.180839,0.007742,
1430,1890,-0.157693,-0.723777,0.999998,0.000170,-0.001023,0.005293,0.000362,0.005313,-0.001044,86.727313,0.005630,
1580,1890,-0.339096,-0.799733,0.999997,0.000206,-0.001654,0.005982,0.000819,0.006069,-0.001741,83.943084,0.006251,
1120,1610,0.213642,-2.209195,0.999998,0.000152,-0.002042,0.005580,0.000469,0.005609,-0.002070,86.493109,0.005673,
790,960,2.444460,-8.075282,0.999996,0.000238,-0.003284,0.007700,0.000682,0.007742,-0.003326,86.461282,0.007767,
1900,1200,-3.022980,-6.485561,0.999997,0.000000,-0.003340,0.006687,0.000135,0.006688,-0.003342,89.227144,0.006688,
900,1960,0.154733,-0.388981,0.999998,0.000178,-0.000748,0.005381,-0.000926,0.005518,-0.000885,-81.593704,0.005927,
1060,990,1.517772,-8.332069,0.999978,0.000000,-0.006954,0.018956,-0.003586,0.019443,-0.007442,-82.263025,0.019621,
1030,1210,0.954003,-5.349309,0.999995,0.000266,-0.005766,0.009853,0.001541,0.010004,-0.005917,84.420278,0.010059,
1070,60,0.029888,-14.932813,0.999999,0.000149,-0.000229,0.004685,0.000319,0.004706,-0.000250,86.300084,0.005295,
1480,360,-0.466010,-13.220474,0.999997,0.000203,-0.002425,0.006273,0.000256,0.006281,-0.002433,88.314990,0.006334,
1390,410,-0.297018,-13.051649,0.999997,0.000190,-0.002238,0.005847,0.000486,0.005876,-0.002267,86.575663,0.005927,
1130,630,0.201933,-11.924003,0.999997,0.000196,-0.002572,0.005188,-0.001585,0.005499,-0.002883,-78.891415,0.005501,
1020,370,0.392103,-13.209097,0.999998,0.000183,-0.002229,0.006154,-0.000258,0.006162,-0.002237,-88.241375,0.006239,
1890,580,-2.315705,-10.675738,0.999996,0.000213,-0.003784,0.007649,0.000011,0.007649,-0.003784,89.946384,0.007649,
1860,100,-0.691233,-14.397016,0.999996,0.000225,-0.003506,0.008139,-0.001586,0.008351,-0.003718,-82.382305,0.008368,
1480,670,-0.760768,-11.054321,0.999995,0.000245,-0.004613,0.007950,0.001427,0.008110,-0.004773,83.602677,0.008152,
650,1570,1.810203,-3.533404,0.999997,0.000216,-0.003799,0.007661,0.000130,0.007662,-0.003800,89.348686,0.007662,
1080,1670,0.270131,-1.913595,0.999998,0.000170,-0.002018,0.005756,0.000284,0.005766,-0.002029,87.908013,0.005850,
990,930,1.636707,-8.614817,0.999996,0.000242,-0.004526,0.010630,0.000360,0.010638,-0.004535,88.640596,0.010677,
980,1870,0.238230,-0.854178,0.999999,0.000153,-0.001316,0.005586,-0.000447,0.005615,-0.001345,-86.308784,0.005863,
1570,450,-0.843765,-12.431099,0.999997,0.000211,-0.003318,0.007152,0.000400,0.007167,-0.003333,87.817468,0.007173,
1640,1860,-0.523679,-1.036311,0.999997,0.000214,-0.001976,0.006600,0.000980,0.006711,-0.002087,83.565320,0.006869,
1100,1230,0.480154,-4.498684,0.999995,0.000263,-0.004816,0.006761,0.003350,0.007661,-0.005715,74.969311,0.007964,
1040,1050,1.682980,-7.195368,0.999979,0.000685,-0.006759,0.016489,0.001347,0.016567,-0.006837,86.695821,0.016651,
1680,670,-1.695566,-10.437518,0.999997,0.000213,-0.004395,0.008199,-0.000159,0.008201,-0.004397,-89.278069,0.008208,
790,1900,0.473084,-0.810006,0.999997,0.000221,-0.002210,0.006596,-0.001210,0.006760,-0.002374,-82.317406,0.006859,
640,1550,1.891774,-3.713843,0.999997,0.000202,-0.003785,0.007649,0.000088,0.007650,-0.003786,89.559837,0.007650,
1340,440,-0.206366,-12.941220,0.999998,0.000148,-0.002068,0.005560,0.000471,0.005588,-0.002097,86.483442,0.005646,
1760,1190,-2.553022,-6.367738,0.999997,0.000219,-0.003717,0.007536,0.000749,0.007586,-0.003767,86.209990,0.007586,
820,1350,1.619573,-4.891679,0.999997,0.000246,-0.004659,0.008466,-0.000194,0.008469,-0.004662,-89.152709,0.008483,
1280,1780,-0.060771,-1.242705,0.999998,0.000163,-0.001226,0.005229,0.000025,0.005229,-0.001226,89.778630,0.005469,
1510,200,-0.304516,-14.158668,0.999998,0.000185,-0.001661,0.005831,-0.000465,0.005860,-0.001690,-86.460583,0.006033,
940,470,0.711462,-12.399724,0.999998,0.000181,-0.003334,0.007026,-0.000645,0.007065,-0.003374,-86.453596,0.007068,
700,70,0.277207,-14.795652,0.999995,0.000267,-0.001570,0.006714,0.002385,0.007352,-0.002208,75.032068,0.007545,
1520,490,-0.724050,-12.265301,0.999997,0.000169,-0.003474,0.007082,0.000716,0.007130,-0.003523,86.136291,0.007130,
580,160,1.111742,-13.834291,0.999998,0.000193,-0.003525,0.007706,0.000523,0.007730,-0.003549,87.339277,0.007739,
1080,670,0.357936,-11.495953,0.999996,0.000217,-0.003563,0.006301,-0.002135,0.006743,-0.004005,-78.298294,0.006783,
690,1890,0.764760,-1.013172,0.999997,0.000228,-0.003165,0.007468,-0.001264,0.007616,-0.003313,-83.314215,0.007638,
1100,1610,0.254872,-2.233981,0.999998,0.000183,-0.002126,0.005715,0.000505,0.005747,-0.002159,86.333307,0.005806,
1440,1030,-1.803989,-7.525110,0.999987,0.000461,-0.005282,0.013812,-0.000069,0.013812,-0.005282,-89.792889,0.013939,
1580,1910,-0.289290,-0.680435,0.999998,0.000181,-0.001474,0.005865,0.000891,0.005972,-0.001580,83.177149,0.006188,
1810,1470,-2.022295,-4.297689,0.999997,0.000193,-0.003858,0.007732,0.000035,0.007732,-0.003858,89.826991,0.007732,
1710,1440,-1.690570,-4.304892,0.999996,0.000248,-0.004214,0.007951,0.000007,0.007951,-0.004214,89.966062,0.007956,
600,830,2.838212,-8.879716,0.999997,0.000185,-0.003439,0.006979,0.000317,0.006989,-0.003448,88.259642,0.006989,
1740,400,-1.354299,-12.411500,0.999997,0.000226,-0.003683,0.007609,0.000085,0.007610,-0.003684,89.569826,0.007611,
1060,980,1.495325,-8.499710,0.999984,0.000000,-0.006470,0.017276,-0.004265,0.018019,-0.007213,-80.119122,0.018138,
770,960,2.510697,-8.068087,0.999997,0.000209,-0.003287,0.007598,0.000631,0.007634,-0.003324,86.690978,0.007656,
830,510,1.164817,-11.831722,0.999997,0.000190,-0.003901,0.007651,-0.000371,0.007663,-0.003913,-88.160917,0.007663,
1390,390,-0.286723,-13.168786,0.999998,0.000169,-0.002101,0.005848,0.000391,0.005867,-0.002121,87.187537,0.005942,
590,1740,1.635948,-2.403767,0.999997,0.000191,-0.003892,0.007455,0.000087,0.007456,-0.003892,89.562559,0.007458,
1900,1190,-3.042442,-6.551032,0.999998,0.000000,-0.003301,0.006477,0.000074,0.006477,-0.003302,89.567864,0.006478,
900,1940,0.196618,-0.499738,0.999998,0.000180,-0.000915,0.005616,-0.000954,0.005752,-0.001051,-81.859615,0.006126,
1480,340,-0.442644,-13.345333,0.999997,0.000216,-0.002282,0.006198,0.000150,0.006201,-0.002285,88.988252,0.006272,
620,420,1.781063,-12.007745,0.999997,0.000204,-0.003720,0.007534,-0.000110,0.007535,-0.003721,-89.439920,0.007535,
990,910,1.532877,-8.824899,0.999995,0.000265,-0.004968,0.010534,0.000309,0.010540,-0.004974,88.858338,0.010545,
770,1100,2.501942,-7.013013,0.999996,0.000248,-0.003290,0.007589,-0.000671,0.007630,-0.003331,-86.482217,0.007651,
890,60,0.085112,-14.914907,0.999998,0.000170,-0.000513,0.005229,0.000986,0.005394,-0.000677,80.523732,0.005876,
1380,1670,-0.264648,-1.912339,0.999997,0.000182,-0.001951,0.005739,-0.000288,0.005749,-0.001962,-87.858886,0.005845,
1860,80,-0.550456,-14.557536,0.999996,0.000238,-0.003409,0.008649,-0.002047,0.008987,-0.003747,-80.622740,0.009028,
1130,610,0.203820,-12.027074,0.999998,0.000195,-0.002516,0.005243,-0.001373,0.005479,-0.002752,-80.253590,0.005479,
800,1350,1.710690,-4.935619,0.999998,0.000202,-0.004538,0.008342,-0.000269,0.008347,-0.004544,-88.805987,0.008358,
1010,500,0.517168,-12.363607,0.999995,0.000263,-0.003096,0.006609,-0.000932,0.006697,-0.003185,-84.563011,0.006700,
580,540,2.195567,-10.999767,0.999997,0.000207,-0.003532,0.007491,-0.000036,0.007491,-0.003532,-89.812798,0.007495,
1280,1210,-0.268220,-3.748971,0.999994,0.000281,-0.004362,0.002161,-0.000293,0.002174,-0.004375,-87.429775,0.004375,
1240,1870,-0.007973,-0.776357,0.999998,0.000180,-0.000872,0.004956,-0.000012,0.004956,-0.000872,-89.878907,0.005291,
1640,1840,-0.581845,-1.171861,0.999997,0.000225,-0.002172,0.006664,0.000858,0.006746,-0.002255,84.505589,0.006869,
940,450,0.686936,-12.540545,0.999998,0.000208,-0.003193,0.006917,-0.000554,0.006947,-0.003223,-86.873904,0.006953,
900,1550,0.893271,-3.071063,0.999998,0.000208,-0.003693,0.007373,0.000615,0.007407,-0.003727,86.828622,0.007407,
1430,1870,-0.177880,-0.828219,0.999998,0.000179,-0.001172,0.005369,0.000297,0.005383,-0.001185,87.406503,0.005657,
1730,1940,-0.417158,-0.583087,0.999997,0.000220,-0.001773,0.006720,0.001848,0.007105,-0.002157,78.241409,0.007285,
1770,1110,-2.746656,-6.967414,0.999997,0.000208,-0.003371,0.007247,0.000570,0.007277,-0.003402,86.935132,0.007283,
1290,1250,-0.146115,-3.725425,0.999997,0.000224,-0.002806,0.002699,-0.002303,0.003535,-0.003642,-70.042645,0.004145,
1890,570,-2.292780,-10.753092,0.999997,0.000234,-0.003808,0.007637,0.000003,0.007637,-0.003808,89.985024,0.007637,
650,1550,1.854360,-3.690421,0.999997,0.000195,-0.003802,0.007656,0.000101,0.007657,-0.003803,89.496260,0.007657,
1740,1010,-2.705270,-7.689918,0.999998,0.000188,-0.003247,0.007311,-0.000255,0.007317,-0.003253,-88.618192,0.007332,
1610,630,-1.288312,-10.945241,0.999996,0.000240,-0.004515,0.008149,0.000359,0.008159,-0.004525,88.376049,0.008176,
1440,1010,-1.795007,-7.800556,0.999995,0.000278,-0.005163,0.013972,0.000474,0.013984,-0.005174,88.580929,0.014141,
1230,1510,0.002908,-2.639256,0.999998,0.000163,-0.001894,0.004882,0.000048,0.004883,-0.001895,89.598288,0.004923,
1740,380,-1.306235,-12.565673,0.999997,0.000236,-0.003672,0.007593,0.000052,0.007594,-0.003672,89.735134,0.007595,
900,1920,0.242993,-0.613170,0.999997,0.000181,-0.001143,0.005700,-0.000898,0.005815,-0.001259,-82.649785,0.006119,
690,1870,0.847138,-1.157498,0.999997,0.000202,-0.003290,0.007453,-0.001019,0.007549,-0.003385,-84.626947,0.007563,
1190,690,0.064948,-11.822183,0.999998,0.000161,-0.001826,0.003678,-0.001125,0.003900,-0.002047,-78.881801,0.003901,
1350,1800,-0.143452,-1.164302,0.999999,0.000161,-0.001309,0.005340,0.000012,0.005340,-0.001309,89.898891,0.005567,
1050,940,1.405838,-8.957889,0.999993,0.000330,-0.004935,0.011902,-0.003604,0.012641,-0.005674,-78.410234,0.012663,
900,1930,0.221976,-0.557684,0.999998,0.000168,-0.001035,0.005664,-0.000933,0.005792,-0.001163,-82.214357,0.006128,
1690,880,-2.329196,-8.693405,0.999997,0.000220,-0.003760,0.007904,-0.000903,0.007973,-0.003830,-85.599870,0.007975,
1570,430,-0.815298,-12.573679,0.999998,0.000189,-0.003253,0.007087,0.000349,0.007099,-0.003265,88.066618,0.007107,
1390,370,-0.274109,-13.285398,0.999997,0.000179,-0.001984,0.005794,0.000278,0.005804,-0.001994,87.954600,0.005898,
580,150,1.064553,-13.910345,0.999998,0.000211,-0.003587,0.007649,0.000734,0.007697,-0.003635,86.278018,0.007701,
1390,1260,-0.522447,-4.535439,0.999993,0.000302,-0.005239,0.007832,-0.002911,0.008451,-0.005859,-77.994968,0.008658,
1090,120,0.070248,-14.645058,0.999998,0.000137,-0.000479,0.004969,0.000319,0.004988,-0.000497,86.657105,0.005495,
830,490,1.129499,-11.985865,0.999998,0.000157,-0.003780,0.007534,-0.000362,0.007546,-0.003792,-88.171766,0.007546,
880,490,0.945218,-12.108238,0.999998,0.000183,-0.003686,0.007407,-0.000530,0.007433,-0.003711,-87.269797,0.007433,
860,1580,0.995867,-2.949117,0.999997,0.000204,-0.003658,0.007417,0.000399,0.007432,-0.003672,87.939970,0.007432,
740,1620,1.362570,-2.934134,0.999996,0.000226,-0.003714,0.007581,0.000136,0.007583,-0.003716,89.310316,0.007584,
1430,1850,-0.203333,-0.940541,0.999998,0.000181,-0.001308,0.005415,0.000272,0.005426,-0.001319,87.688611,0.005660,
1480,320,-0.418078,-13.468261,0.999996,0.000224,-0.002146,0.006250,0.000051,0.006251,-0.002146,89.650923,0.006352,
1690,1440,-1.606494,-4.257326,0.999996,0.000237,-0.004238,0.008024,-0.000035,0.008024,-0.004238,-89.836033,0.008029,
620,400,1.736823,-12.159199,0.999997,0.000224,-0.003725,0.007540,-0.000096,0.007540,-0.003726,-89.512042,0.007541,
1900,1180,-3.059831,-6.613962,0.999997,0.000000,-0.003260,0.006332,0.000039,0.006332,-0.003260,89.764619,0.006333,
1520,1620,-0.659767,-2.469130,0.999998,0.000208,-0.003027,0.006807,-0.000487,0.006831,-0.003051,-87.171977,0.006844,
1030,1190,1.050581,-5.555572,0.999995,0.000259,-0.005589,0.010201,0.001408,0.010326,-0.005714,84.943165,0.010345,
1660,670,-1.606067,-10.483570,0.999997,0.000220,-0.004497,0.008271,-0.000078,0.008272,-0.004498,-89.652179,0.008282,
1770,1090,-2.774794,-7.111919,0.999997,0.000200,-0.003327,0.007143,0.000330,0.007153,-0.003337,88.196528,0.007158,
690,1400,2.046536,-4.760968,0.999997,0.000211,-0.004015,0.007807,-0.000236,0.007811,-0.004020,-88.856264,0.007812,
570,90,0.739506,-14.369912,0.999829,0.001602,-0.004635,0.009615,0.001677,0.009810,-0.004830,83.376297,0.009810,
690,1850,0.926909,-1.311937,0.999997,0.000207,-0.003358,0.007567,-0.000804,0.007626,-0.003417,-85.811187,0.007640,
580,500,2.106988,-11.304077,0.999998,0.000192,-0.003641,0.007628,0.000011,0.007628,-0.003641,89.945036,0.007630,
1490,200,-0.271702,-14.176242,0.999998,0.000184,-0.001515,0.005708,-0.000426,0.005733,-0.001540,-86.634252,0.005934,
1010,2000,0.040076,-0.168361,0.999999,0.000133,-0.000160,0.004807,-0.000537,0.004864,-0.000217,-83.895920,0.005495,
1060,30,0.007756,-15.071162,0.999999,0.000000,-0.000207,0.004626,0.000369,0.004654,-0.000235,85.653255,0.005244,
950,230,0.359629,-13.981922,0.999998,0.000183,-0.001877,0.005977,0.000359,0.005993,-0.001893,87.389175,0.006127,
1440,310,-0.329626,-13.575084,0.999997,0.000237,-0.001925,0.005922,0.000066,0.005922,-0.001925,89.515947,0.006042,
1340,420,-0.198055,-13.052564,0.999999,0.000160,-0.002045,0.005562,0.000443,0.005588,-0.002071,86.677193,0.005649,
1100,710,0.298209,-11.352577,0.999996,0.000230,-0.003581,0.005962,-0.002573,0.006612,-0.004231,-75.831993,0.006698,
1580,1870,-0.383815,-0.920881,0.999997,0.000221,-0.001876,0.006134,0.000707,0.006196,-0.001938,84.991398,0.006340,
1330,780,-0.229361,-11.188555,0.999997,0.000209,-0.003507,0.004826,0.003205,0.005916,-0.004597,71.216114,0.006211,
1390,350,-0.263148,-13.399279,0.999997,0.000185,-0.001857,0.005722,0.000189,0.005727,-0.001862,88.570526,0.005842,
600,1610,1.911666,-3.350483,0.999997,0.000186,-0.003722,0.007546,0.000094,0.007546,-0.003723,89.524403,0.007547,
1480,1190,-1.327556,-5.861626,0.999996,0.000248,-0.005593,0.010216,-0.000010,0.010216,-0.005593,-89.964130,0.010231,
1540,1730,-0.571360,-1.770242,0.999997,0.000218,-0.002408,0.006599,0.000050,0.006599,-0.002409,89.683398,0.006679,
580,1740,1.672681,-2.432039,0.999997,0.000207,-0.004415,0.007397,0.000155,0.007399,-0.004417,89.247733,0.007445,
1780,850,-2.590690,-8.844520,0.999997,0.000222,-0.003657,0.007398,-0.000681,0.007440,-0.003698,-86.488704,0.007440,
580,310,1.658452,-12.725594,0.999997,0.000232,-0.004217,0.007480,-0.000196,0.007483,-0.004220,-89.038771,0.007503,
1060,250,0.207715,-13.954909,0.999998,0.000174,-0.001457,0.005479,0.000091,0.005480,-0.001458,89.250910,0.005676,
1370,1260,-0.420094,-4.361407,0.999995,0.000283,-0.004815,0.006979,-0.003276,0.007828,-0.005663,-75.474972,0.008084,
1230,1490,0.002251,-2.734004,0.999998,0.000172,-0.001875,0.004751,0.000037,0.004751,-0.001875,89.677378,0.004786,
650,1530,1.898340,-3.842390,0.999998,0.000183,-0.003822,0.007643,0.000073,0.007644,-0.003822,89.634737,0.007644,
1670,880,-2.254950,-8.709127,0.999997,0.000209,-0.003840,0.008043,-0.000928,0.008115,-0.003912,-85.562822,0.008117,
1610,610,-1.250325,-11.105249,0.999996,0.000233,-0.004403,0.007993,0.000425,0.008007,-0.004417,88.040167,0.008022,
1250,120,-0.010588,-14.658804,0.999998,0.000152,-0.000523,0.004745,-0.000021,0.004745,-0.000523,-89.775904,0.005204,
1900,1170,-3.076600,-6.676298,0.999998,0.000000,-0.003215,0.006345,0.000046,0.006345,-0.003215,89.724258,0.006345,
830,690,1.532628,-10.378268,0.999996,0.000253,-0.004651,0.008457,0.000059,0.008457,-0.004652,89.743982,0.008471,
1030,1170,1.171639,-5.767691,0.999995,0.000260,-0.005338,0.010542,0.001288,0.010646,-0.005441,85.394004,0.010647,
860,1560,1.027710,-3.098564,0.999997,0.000207,-0.003722,0.007469,0.000450,0.007487,-0.003740,87.703123,0.007487,
1570,410,-0.785791,-12.716219,0.999997,0.000216,-0.003190,0.007060,0.000311,0.007070,-0.003199,88.264525,0.007080,
740,1600,1.405295,-3.085651,0.999997,0.000208,-0.003768,0.007599,0.000162,0.007601,-0.003771,89.184386,0.007601,
1520,1600,-0.681330,-2.605538,0.999998,0.000184,-0.003223,0.006929,-0.000573,0.006961,-0.003255,-86.778349,0.006966,
1770,520,-1.721826,-11.419167,0.999996,0.000228,-0.003886,0.007722,0.000093,0.007722,-0.003887,89.539474,0.007722,
1430,1830,-0.223863,-1.044982,0.999998,0.000192,-0.001459,0.005534,0.000177,0.005539,-0.001463,88.548494,0.005740,
1160,1390,0.129978,-3.281633,0.999998,0.000185,-0.002148,0.004464,0.001487,0.004784,-0.002467,77.888577,0.004784,
990,890,1.420755,-9.031767,0.999994,0.000311,-0.005353,0.010466,0.000096,0.010466,-0.005354,89.651961,0.010467,
1770,1070,-2.787412,-7.254035,0.999997,0.000182,-0.003280,0.007130,0.000203,0.007134,-0.003284,88.882518,0.007142,
1480,300,-0.395662,-13.594509,0.999997,0.000226,-0.002049,0.006120,-0.000062,0.006121,-0.002049,-89.567521,0.006231,
1730,340,-1.178721,-12.891048,0.999997,0.000207,-0.003545,0.007485,-0.000091,0.007486,-0.003546,-89.528471,0.007489,
1820,110,-0.613735,-14.457196,0.999995,0.000265,-0.002840,0.007816,-0.001802,0.008112,-0.003136,-80.656061,0.008181,
1690,1420,-1.653447,-4.420025,0.999995,0.000252,-0.004275,0.008093,0.000028,0.008093,-0.004275,89.871743,0.008097,
620,600,2.184715,-10.631742,0.999997,0.000196,-0.003851,0.007663,0.000073,0.007664,-0.003852,89.638792,0.007664,
1060,1870,0.146474,-0.813943,0.999998,0.000181,-0.001064,0.005260,-0.000251,0.005269,-0.001074,-87.734422,0.005569,
720,1350,2.055557,-5.095573,0.999998,0.000186,-0.004126,0.007923,-0.000402,0.007937,-0.004140,-88.090351,0.007939,
580,490,2.085524,-11.380080,0.999997,0.000232,-0.003611,0.007625,-0.000003,0.007625,-0.003611,-89.984175,0.007629,
1810,1450,-2.067973,-4.452156,0.999998,0.000192,-0.003879,0.007698,0.000073,0.007698,-0.003879,89.638627,0.007698,
1130,590,0.204500,-12.134626,0.999998,0.000198,-0.002430,0.005324,-0.001170,0.005497,-0.002603,-81.603631,0.005500,
1640,1820,-0.635402,-1.304565,0.999997,0.000209,-0.002345,0.006802,0.000738,0.006861,-0.002404,85.418578,0.006963,
1710,1940,-0.389991,-0.573602,0.999997,0.000209,-0.001365,0.006577,0.001858,0.006990,-0.001778,77.465296,0.007265,
1050,2020,0.015284,-0.074935,0.999998,0.000000,-0.000211,0.004579,-0.000276,0.004595,-0.000227,-86.713427,0.005180,
690,1830,0.998258,-1.460522,0.999997,0.000184,-0.003443,0.007510,-0.000616,0.007544,-0.003478,-86.789016,0.007552,
950,210,0.329340,-14.096769,0.999998,0.000187,-0.001701,0.005844,0.000435,0.005869,-0.001726,86.711077,0.006033,
1000,2000,0.041909,-0.168772,0.999998,0.000141,-0.000153,0.004844,-0.000580,0.004910,-0.000219,-83.468146,0.005548,
590,1990,0.483363,-0.457559,0.999995,0.000284,-0.002924,0.008862,-0.002702,0.009452,-0.003514,-77.684880,0.009555,
880,1550,0.967730,-3.124087,0.999997,0.000193,-0.003746,0.007467,0.000530,0.007492,-0.003771,87.301998,0.007492,
900,1910,0.266364,-0.671015,0.999997,0.000193,-0.001218,0.005779,-0.000877,0.005887,-0.001326,-82.963795,0.006176,
1340,400,-0.195566,-13.164596,0.999998,0.000163,-0.001986,0.005513,0.000405,0.005535,-0.002008,86.918350,0.005604,
1290,830,-0.215283,-11.333412,0.999996,0.000235,-0.003394,0.002565,0.001504,0.002923,-0.003752,76.604304,0.003942,
620,1610,1.837091,-3.300341,0.999998,0.000162,-0.003760,0.007581,0.000117,0.007583,-0.003762,89.407413,0.007583,
570,1740,1.723979,-2.448031,0.999892,0.001233,-0.004707,0.007321,0.000201,0.007324,-0.004710,89.041001,0.007423,
1590,460,-0.925746,-12.314216,0.999997,0.000231,-0.003528,0.007317,0.000435,0.007335,-0.003545,87.706167,0.007336,
1480,390,-0.499261,-13.026376,0.999997,0.000191,-0.002669,0.006419,0.000387,0.006435,-0.002685,87.567651,0.006465,
880,1790,0.567838,-1.434063,0.999997,0.000198,-0.002569,0.006555,-0.000326,0.006567,-0.002580,-87.957852,0.006617,
740,1800,0.931114,-1.581468,0.999998,0.000189,-0.002997,0.007409,-0.000656,0.007450,-0.003038,-86.407553,0.007492,
850,1220,1.876743,-5.963167,0.999996,0.000218,-0.004551,0.008774,-0.000874,0.008831,-0.004608,-86.261697,0.008834,
1390,330,-0.249583,-13.514156,0.999997,0.000191,-0.001728,0.005717,0.000095,0.005718,-0.001730,89.270634,0.005865,
1640,110,-0.269760,-14.618179,0.999998,0.000174,-0.001066,0.005939,-0.001355,0.006192,-0.001319,-79.425859,0.006523,
1570,390,-0.756080,-12.857273,0.999997,0.000212,-0.003135,0.006973,0.000244,0.006979,-0.003141,88.618653,0.006990,
1860,60,-0.403419,-14.745293,0.999995,0.000288,-0.002921,0.008338,-0.002545,0.008886,-0.003469,-77.837250,0.008957,
880,470,0.915700,-12.257509,0.999997,0.000216,-0.003561,0.007332,-0.000479,0.007353,-0.003582,-87.487457,0.007354,
1190,780,0.075744,-11.547937,0.999997,0.000226,-0.002082,0.002391,-0.001759,0.002999,-0.002691,-70.909150,0.003300,
580,300,1.630255,-12.800020,0.999998,0.000221,-0.004406,0.007157,-0.000252,0.007162,-0.004411,-88.753316,0.007226,
1900,1160,-3.093189,-6.740658,0.999998,0.000000,-0.003185,0.006363,0.000073,0.006364,-0.003186,89.561837,0.006364,
1370,1240,-0.474335,-4.505308,0.999995,0.000307,-0.004951,0.007143,-0.003272,0.007972,-0.005779,-75.792639,0.008236,
1820,1010,-2.963349,-7.680952,0.999998,0.000190,-0.003266,0.006873,-0.000210,0.006878,-0.003271,-88.812009,0.006880,
1430,1810,-0.246212,-1.160709,0.999998,0.000164,-0.001590,0.005657,0.000128,0.005660,-0.001592,88.989644,0.005837,
820,860,2.088662,-8.902383,0.999997,0.000216,-0.004157,0.008404,0.001009,0.008485,-0.004237,85.434345,0.008485,
1610,590,-1.212582,-11.265732,0.999997,0.000224,-0.004257,0.007977,0.000435,0.007993,-0.004272,87.965943,0.007999,
1480,280,-0.368860,-13.715930,0.999997,0.000207,-0.001896,0.006041,-0.000154,0.006044,-0.001899,-88.886201,0.006181,
1230,120,0.000834,-14.659657,0.999998,0.000150,-0.000517,0.004727,-0.000015,0.004727,-0.000517,-89.837395,0.005185,
650,1510,1.942463,-3.995268,0.999997,0.000186,-0.003832,0.007660,0.000031,0.007660,-0.003832,89.844882,0.007661,
1690,450,-1.271040,-12.150412,0.999998,0.000183,-0.003714,0.007576,0.000198,0.007580,-0.003718,88.996645,0.007580,
1520,1580,-0.707459,-2.749349,0.999997,0.000198,-0.003370,0.007025,-0.000658,0.007066,-0.003412,-86.394979,0.007068,
860,1540,1.057727,-3.248053,0.999997,0.000206,-0.003813,0.007598,0.000481,0.007618,-0.003833,87.590735,0.007618,
1540,930,-1.913850,-8.423684,0.999998,0.000187,-0.003838,0.009168,-0.001062,0.009254,-0.003925,-85.362943,0.009290,
1030,1150,1.296547,-5.978390,0.999995,0.000261,-0.005078,0.010872,0.001294,0.010977,-0.005183,85.393221,0.010982,
1770,100,-0.439369,-14.591507,0.999997,0.000197,-0.002323,0.006880,-0.001909,0.007261,-0.002703,-78.733561,0.007339,
1770,1050,-2.798878,-7.398713,0.999997,0.000191,-0.003251,0.007185,0.000257,0.007192,-0.003258,88.592573,0.007202,
1050,30,0.011484,-15.070708,0.999999,0.000000,-0.000230,0.004660,0.000359,0.004687,-0.000256,85.828936,0.005270,
1230,1470,0.002789,-2.826924,0.999998,0.000174,-0.001841,0.004622,0.000051,0.004623,-0.001841,89.547776,0.004654,
1230,1340,0.001438,-3.331715,0.999997,0.000182,-0.001485,0.002929,0.000056,0.002930,-0.001485,89.274180,0.002930,
1860,690,-2.472729,-9.907698,0.999997,0.000199,-0.003743,0.007522,-0.000197,0.007526,-0.003747,-88.998738,0.007526,
610,790,2.708388,-9.180021,0.999997,0.000212,-0.003583,0.007247,0.000357,0.007259,-0.003595,88.115565,0.007259,
1080,590,0.339653,-11.990379,0.999997,0.000201,-0.002965,0.006024,-0.001447,0.006251,-0.003192,-81.078346,0.006251,
1040,1870,0.169418,-0.824630,0.999998,0.000188,-0.001186,0.005343,-0.000291,0.005356,-0.001198,-87.448728,0.005622,
1590,440,-0.894754,-12.460512,0.999997,0.000223,-0.003376,0.007224,0.000340,0.007235,-0.003387,88.166246,0.007240,
1000,1470,0.607437,-3.362968,0.999996,0.000231,-0.003735,0.007094,0.001300,0.007248,-0.003889,83.248935,0.007254,
900,1890,0.310349,-0.789071,0.999998,0.000164,-0.001426,0.005903,-0.000827,0.005995,-0.001518,-83.643415,0.006234,
820,710,1.632100,-10.185642,0.999996,0.000247,-0.004632,0.008442,0.000217,0.008446,-0.004636,89.050097,0.008459,
830,1220,1.967012,-5.993321,0.999997,0.000191,-0.004366,0.008561,-0.000907,0.008624,-0.004430,-86.005182,0.008625,
1480,370,-0.477340,-13.156055,0.999998,0.000198,-0.002509,0.006359,0.000300,0.006369,-0.002519,88.062406,0.006415,
1570,590,-1.043630,-11.379106,0.999997,0.000213,-0.004251,0.007871,0.000683,0.007909,-0.004290,86.787598,0.007918,
1610,570,-1.177440,-11.424452,0.999996,0.000240,-0.004135,0.007884,0.000461,0.007902,-0.004153,87.808577,0.007905,
760,1350,1.887293,-5.018477,0.999998,0.000206,-0.004310,0.008112,-0.000372,0.008123,-0.004321,-88.287623,0.008129,
730,1990,0.204155,-0.269476,0.999997,0.000200,-0.001032,0.006112,-0.002009,0.006639,-0.001558,-75.322517,0.006943,
860,1790,0.619883,-1.462001,0.999997,0.000216,-0.002568,0.006657,-0.000393,0.006673,-0.002585,-87.564103,0.006730,
1410,580,-0.420971,-11.965311,0.999997,0.000181,-0.003265,0.006353,0.001450,0.006567,-0.003479,81.609072,0.006571,
880,270,0.577905,-13.652408,0.999997,0.000185,-0.002603,0.006572,0.000301,0.006582,-0.002613,88.123829,0.006628,
730,1560,1.524499,-3.418980,0.999996,0.000236,-0.003873,0.007703,0.000161,0.007706,-0.003876,89.205735,0.007706,
1810,1430,-2.117483,-4.605379,0.999998,0.000187,-0.003890,0.007685,0.000137,0.007686,-0.003892,89.320588,0.007686,
1640,1800,-0.688003,-1.445550,0.999998,0.000197,-0.002519,0.006898,0.000622,0.006939,-0.002560,86.236972,0.007018,
820,1880,0.474248,-0.909671,0.999996,0.000215,-0.001840,0.006439,-0.001076,0.006577,-0.001977,-82.718133,0.006749,
1390,310,-0.235296,-13.628133,0.999998,0.000183,-0.001626,0.005676,0.000043,0.005677,-0.001627,89.662927,0.005847,
950,190,0.291979,-14.217184,0.999998,0.000193,-0.001582,0.005803,0.000532,0.005841,-0.001620,85.899128,0.006031,
920,1290,1.288892,-5.144354,0.999995,0.000279,-0.005358,0.009180,0.000170,0.009182,-0.005360,89.331634,0.009225,
1350,120,-0.059759,-14.647882,0.999998,0.000182,-0.000560,0.004856,-0.000232,0.004866,-0.000570,-87.549009,0.005321,
1900,1150,-3.109233,-6.806817,0.999998,0.000000,-0.003170,0.006319,0.000132,0.006321,-0.003172,89.203933,0.006321,
1340,380,-0.189058,-13.273725,0.999998,0.000160,-0.001920,0.005611,0.000321,0.005624,-0.001933,87.560036,0.005715,
1060,1610,0.348421,-2.303300,0.999998,0.000178,-0.002512,0.006038,0.000676,0.006091,-0.002566,85.506023,0.006116,
1480,260,-0.341619,-13.834384,0.999998,0.000190,-0.001780,0.005916,-0.000228,0.005923,-0.001787,-88.302833,0.006076,
1430,1790,-0.265067,-1.271865,0.999998,0.000166,-0.001725,0.005670,0.000056,0.005670,-0.001725,89.565798,0.005813,
1770,1030,-2.810549,-7.543764,0.999997,0.000196,-0.003230,0.007186,0.000053,0.007187,-0.003231,89.709058,0.007199,
1750,860,-2.505024,-8.800116,0.999996,0.000228,-0.003718,0.007558,-0.000758,0.007609,-0.003769,-86.170782,0.007609,
1030,1130,1.419217,-6.199513,0.999994,0.000288,-0.004878,0.011143,0.001373,0.011260,-0.004995,85.137173,0.011284,
1520,1560,-0.730456,-2.890289,0.999997,0.000208,-0.003470,0.007081,-0.000731,0.007132,-0.003520,-86.057504,0.007132,
1760,150,-0.655602,-14.246638,0.999997,0.000207,-0.003067,0.007282,-0.001338,0.007452,-0.003237,-82.750161,0.007473,
1230,1450,0.001307,-2.918359,0.999998,0.000162,-0.001790,0.004414,0.000023,0.004414,-0.001790,89.787573,0.004440,
790,1740,0.931239,-1.927083,0.999998,0.000162,-0.003271,0.007239,-0.000145,0.007241,-0.003273,-89.210834,0.007253,
1290,290,-0.077476,-13.796279,0.999999,0.000139,-0.001266,0.005299,-0.000024,0.005299,-0.001266,-89.794711,0.005535,
860,1520,1.088570,-3.403277,0.999997,0.000190,-0.003953,0.007704,0.000488,0.007724,-0.003973,87.604559,0.007725,
650,1490,1.987906,-4.148100,0.999997,0.000181,-0.003835,0.007678,0.000025,0.007678,-0.003835,89.876683,0.007678,
1080,630,0.348133,-11.747614,0.999996,0.000225,-0.003273,0.006104,-0.001825,0.006447,-0.003615,-79.363486,0.006463,
1430,680,-0.547030,-11.203252,0.999994,0.000287,-0.004320,0.007342,0.001950,0.007659,-0.004637,80.756450,0.007716,
1000,1450,0.623618,-3.507251,0.999997,0.000194,-0.003888,0.007231,0.001369,0.007398,-0.004054,83.083576,0.007409,
1130,570,0.204993,-12.238546,0.999998,0.000192,-0.002341,0.005384,-0.001018,0.005516,-0.002473,-82.619599,0.005526,
1100,1870,0.110344,-0.801379,0.999998,0.000159,-0.000902,0.005145,-0.000184,0.005151,-0.000907,-88.260693,0.005499,
1550,1520,-0.886082,-3.261103,0.999996,0.000226,-0.003870,0.007479,-0.000724,0.007525,-0.003916,-86.364109,0.007527,
630,1220,2.745914,-6.229046,0.999997,0.000199,-0.003525,0.007107,-0.000506,0.007131,-0.003549,-87.280719,0.007131,
1570,440,-0.829590,-12.503210,0.999998,0.000188,-0.003281,0.007099,0.000369,0.007113,-0.003294,87.964929,0.007119,
610,1810,1.348332,-1.821682,0.999997,0.000212,-0.003626,0.007456,-0.000149,0.007458,-0.003628,-89.228945,0.007459,
1860,670,-2.421321,-10.058542,0.999996,0.000234,-0.003788,0.007531,-0.000163,0.007533,-0.003790,-89.175595,0.007533,
900,1870,0.354724,-0.906472,0.999997,0.000209,-0.001597,0.005983,-0.000727,0.006052,-0.001666,-84.571836,0.006253,
880,250,0.537571,-13.782553,0.999998,0.000174,-0.002447,0.006500,0.000408,0.006518,-0.002466,87.392946,0.006582,
1680,1370,-1.733269,-4.807030,0.999996,0.000237,-0.004426,0.008221,0.000220,0.008225,-0.004430,89.001915,0.008233,
1560,760,-1.364121,-9.965084,0.999995,0.000260,-0.005227,0.009070,0.000039,0.009070,-0.005227,89.843249,0.009105,
900,1290,1.395572,-5.211322,0.999996,0.000233,-0.005226,0.009096,-0.000032,0.009096,-0.005226,-89.873359,0.009129,
740,1060,2.640987,-7.318240,0.999997,0.000211,-0.003232,0.007355,-0.000248,0.007360,-0.003238,-88.657181,0.007378,
1030,1110,1.538802,-6.420467,0.999993,0.000333,-0.004869,0.011852,0.001590,0.012002,-0.005019,84.617039,0.012055,
1410,560,-0.414058,-12.093691,0.999997,0.000229,-0.003136,0.006321,0.001296,0.006495,-0.003310,82.333724,0.006495,
1390,290,-0.221743,-13.740345,0.999998,0.000185,-0.001532,0.005629,-0.000023,0.005629,-0.001533,-89.812301,0.005820,
1810,1410,-2.167221,-4.761917,0.999997,0.000194,-0.003886,0.007719,0.000166,0.007721,-0.003889,89.182525,0.007721,
690,1680,1.417387,-2.596729,0.999995,0.000252,-0.003645,0.007585,0.000022,0.007585,-0.003645,89.888867,0.007587,
1070,1090,1.405893,-6.193582,0.999979,0.000000,-0.005240,0.015560,0.006121,0.017227,-0.006908,74.759623,0.017340,
1640,1780,-0.738832,-1.582065,0.999997,0.000226,-0.002640,0.006973,0.000493,0.006998,-0.002665,87.074367,0.007064,
820,1840,0.588993,-1.175100,0.999997,0.000200,-0.002254,0.006694,-0.000831,0.006771,-0.002330,-84.738749,0.006880,
1000,1790,0.321839,-1.300727,0.999997,0.000187,-0.001633,0.005881,-0.000187,0.005885,-0.001638,-88.574486,0.006075,
1290,270,-0.072519,-13.903129,0.999999,0.000138,-0.001167,0.005240,-0.000029,0.005240,-0.001167,-89.744712,0.005502,
800,710,1.723163,-10.141743,0.999996,0.000245,-0.004550,0.008359,0.000309,0.008367,-0.004558,88.631782,0.008378,
940,510,0.756776,-12.113493,0.999997,0.000226,-0.003522,0.007128,-0.000748,0.007180,-0.003574,-85.999807,0.007180,
990,870,1.315168,-9.239829,0.999994,0.000301,-0.005620,0.010320,-0.000157,0.010322,-0.005621,-89.435191,0.010335,
1520,1540,-0.751087,-3.033817,0.999998,0.000196,-0.003523,0.007119,-0.000778,0.007175,-0.003580,-85.840795,0.007175,
1840,270,-1.384003,-13.146077,0.999996,0.000254,-0.003644,0.007525,-0.000125,0.007527,-0.003645,-89.356822,0.007528,
1900,1140,-3.124620,-6.868485,0.999998,0.000000,-0.003143,0.006316,0.000175,0.006320,-0.003146,88.937783,0.006320,
1610,550,-1.143999,-11.580897,0.999996,0.000236,-0.004045,0.007802,0.000455,0.007820,-0.004062,87.802782,0.007822,
650,1470,2.031133,-4.305950,0.999997,0.000178,-0.003873,0.007703,-0.000027,0.007703,-0.003873,-89.867268,0.007703,
1080,1620,0.293733,-2.204694,0.999998,0.000184,-0.002310,0.005868,0.000603,0.005912,-0.002354,85.805021,0.005952,
1330,120,-0.047768,-14.651517,0.999998,0.000153,-0.000565,0.004825,-0.000172,0.004830,-0.000571,-88.175194,0.005279,
1680,430,-1.194195,-12.325699,0.999997,0.000179,-0.003622,0.007527,0.000167,0.007529,-0.003624,89.139600,0.007531,
1740,150,-0.595505,-14.282319,0.999997,0.000251,-0.002592,0.007093,-0.001406,0.007293,-0.002792,-81.902311,0.007359,
770,1740,0.997505,-1.967307,0.999998,0.000143,-0.003260,0.007292,-0.000176,0.007295,-0.003263,-89.043768,0.007308,
590,1040,3.135959,-7.479115,0.999998,0.000171,-0.003034,0.006459,-0.000156,0.006461,-0.003037,-89.057490,0.006465,
1770,1010,-2.801774,-7.686038,0.999998,0.000190,-0.003235,0.007150,-0.000218,0.007154,-0.003239,-88.796146,0.007165,
860,1500,1.124139,-3.561008,0.999997,0.000205,-0.004073,0.007806,0.000483,0.007825,-0.004093,87.677113,0.007828,
1080,1870,0.129122,-0.806217,0.999998,0.000160,-0.000871,0.005192,-0.000260,0.005203,-0.000882,-87.552200,0.005569,
1430,1770,-0.289195,-1.389969,0.999997,0.000205,-0.001865,0.005819,0.000012,0.005819,-0.001865,89.913062,0.005942,
730,180,0.700072,-14.078080,0.999997,0.000193,-0.002683,0.007163,0.001191,0.007305,-0.002825,83.198697,0.007367,
1340,190,-0.092533,-14.301304,0.999998,0.000167,-0.000980,0.005120,-0.000101,0.005121,-0.000982,-89.052678,0.005436,
740,1350,1.971241,-5.056170,0.999997,0.000220,-0.004216,0.008038,-0.000403,0.008051,-0.004229,-88.119693,0.008055,
1080,1610,0.298944,-2.264334,0.999998,0.000173,-0.002376,0.005879,0.000668,0.005933,-0.002429,85.406660,0.005965,
1620,1370,-1.459683,-4.664746,0.999996,0.000223,-0.004699,0.008437,-0.000035,0.008437,-0.004699,-89.847298,0.008455,
1480,240,-0.313596,-13.952694,0.999997,0.000195,-0.001621,0.005854,-0.000317,0.005867,-0.001634,-87.574892,0.006056,
1030,1200,1.001634,-5.450307,0.999995,0.000255,-0.005702,0.010032,0.001469,0.010168,-0.005838,84.713113,0.010205,
1740,930,-2.618588,-8.275646,0.999997,0.000210,-0.003418,0.007370,-0.000606,0.007404,-0.003452,-86.795379,0.007410,
920,1930,0.205565,-0.552224,0.999997,0.000210,-0.000842,0.005586,-0.000866,0.005701,-0.000957,-82.460668,0.006106,
610,1770,1.478263,-2.122566,0.999996,0.000247,-0.003658,0.007395,-0.000047,0.007395,-0.003658,-89.757246,0.007395,
1230,1430,0.003230,-3.003820,0.999998,0.000151,-0.001723,0.004212,0.000017,0.004212,-0.001723,89.837662,0.004235,
1030,1090,1.633011,-6.682579,0.999990,0.000443,-0.005112,0.012906,0.001711,0.013067,-0.005273,84.621715,0.013148,
1090,1180,0.804313,-4.973447,0.999996,0.000244,-0.003728,0.006678,0.003466,0.007727,-0.004776,73.166605,0.007798,
1560,1780,-0.530318,-1.466776,0.999997,0.000210,-0.002201,0.006482,0.000331,0.006494,-0.002213,87.816792,0.006603,
740,1020,2.657645,-7.614274,0.999997,0.000196,-0.003189,0.007425,0.000139,0.007426,-0.003191,89.251578,0.007451,
1360,1230,-0.466024,-4.466097,0.999996,0.000278,-0.004721,0.006542,-0.003324,0.007450,-0.005629,-74.725569,0.007768,
920,890,1.765953,-8.789175,0.999998,0.000176,-0.004575,0.009356,0.000990,0.009426,-0.004645,85.954435,0.009426,
1410,760,-0.549602,-10.708277,0.999995,0.000253,-0.005158,0.007939,0.002509,0.008403,-0.005622,79.518186,0.008562,
640,1410,2.216383,-4.790037,0.999997,0.000221,-0.003836,0.007657,-0.000177,0.007660,-0.003839,-89.118572,0.007660,
880,450,0.886216,-12.403688,0.999998,0.000187,-0.003413,0.007217,-0.000399,0.007232,-0.003428,-87.852724,0.007235,
1000,1770,0.344839,-1.421194,0.999997,0.000196,-0.001752,0.005989,-0.000131,0.005991,-0.001755,-89.032054,0.006160,
950,610,0.831600,-11.400394,0.999997,0.000227,-0.004261,0.007721,-0.001045,0.007811,-0.004352,-85.050563,0.007828,
940,490,0.734373,-12.256634,0.999997,0.000215,-0.003460,0.007099,-0.000709,0.007146,-0.003507,-86.175511,0.007147,
800,690,1.670594,-10.310639,0.999997,0.000220,-0.004520,0.008327,0.000188,0.008329,-0.004523,89.163409,0.008340,
1520,1520,-0.774230,-3.176906,0.999997,0.000198,-0.003616,0.007231,-0.000812,0.007291,-0.003676,-85.740490,0.007291,
1340,360,-0.179053,-13.389398,0.999997,0.000176,-0.001843,0.005596,0.000285,0.005607,-0.001854,87.806153,0.005713,
1900,1130,-3.141604,-6.929485,0.999998,0.000000,-0.003111,0.006333,0.000213,0.006337,-0.003115,88.708975,0.006338,
1070,1100,1.377798,-6.047833,0.999986,0.000000,-0.004748,0.014126,0.006225,0.015994,-0.006617,73.294292,0.016073,
580,1100,3.129485,-7.104076,0.999997,0.000213,-0.002990,0.006216,-0.000027,0.006216,-0.002991,-89.834693,0.006217,
1800,150,-0.770799,-14.178653,0.999998,0.000197,-0.002837,0.007660,-0.001617,0.007903,-0.003081,-81.435994,0.007967,
1860,310,-1.573298,-12.789363,0.999997,0.000210,-0.003643,0.007470,0.000026,0.007470,-0.003643,89.865211,0.007470,
1390,270,-0.203477,-13.854445,0.999998,0.000165,-0.001420,0.005516,-0.000076,0.005517,-0.001421,-89.372700,0.005729,
820,1300,1.760887,-5.318263,0.999996,0.000256,-0.004635,0.008572,-0.000465,0.008589,-0.004651,-87.985579,0.008599,
1360,190,-0.111539,-14.293902,0.999998,0.000149,-0.000921,0.005189,-0.000170,0.005194,-0.000926,-88.404238,0.005541,
1430,1750,-0.306077,-1.504601,0.999997,0.000217,-0.001968,0.005830,-0.000081,0.005831,-0.001969,-89.407917,0.005932,
650,1450,2.079570,-4.458628,0.999997,0.000178,-0.003894,0.007699,-0.000089,0.007700,-0.003895,-89.560115,0.007700,
1610,530,-1.108481,-11.738247,0.999997,0.000194,-0.003937,0.007692,0.000460,0.007710,-0.003955,87.737686,0.007711,
1770,990,-2.788899,-7.829562,0.999998,0.000183,-0.003266,0.007089,-0.000210,0.007093,-0.003271,-88.840335,0.007100,
1160,1870,0.057310,-0.782661,0.999998,0.000166,-0.000757,0.004996,-0.000106,0.004998,-0.000759,-88.942313,0.005387,
1030,1180,1.109574,-5.657075,0.999994,0.000295,-0.005453,0.010382,0.001338,0.010494,-0.005565,85.205029,0.010500,
860,1480,1.158379,-3.717722,0.999997,0.000228,-0.004184,0.007894,0.000483,0.007914,-0.004203,87.711538,0.007919,
1560,1930,-0.218919,-0.555978,0.999998,0.000174,-0.000973,0.005638,0.000908,0.005760,-0.001095,82.320705,0.006118,
1170,120,0.029585,-14.655437,0.999998,0.000163,-0.000406,0.004774,0.000144,0.004778,-0.000410,88.404202,0.005296,
1050,1480,0.429305,-3.133652,0.999997,0.000212,-0.003233,0.006406,0.001418,0.006610,-0.003437,81.802800,0.006612,
1480,220,-0.285520,-14.069710,0.999997,0.000208,-0.001506,0.005719,-0.000379,0.005739,-0.001526,-87.004894,0.005945,
610,1230,2.791592,-6.188218,0.999997,0.000185,-0.003484,0.007008,-0.000371,0.007021,-0.003498,-87.977714,0.007021,
980,910,1.579769,-8.774764,0.999995,0.000264,-0.004824,0.010340,0.000488,0.010356,-0.004840,88.159994,0.010363,
1350,440,-0.226586,-12.930148,0.999998,0.000158,-0.002080,0.005597,0.000464,0.005625,-0.002108,86.550540,0.005684,
1010,1540,0.527235,-2.856135,0.999996,0.000225,-0.003128,0.006613,0.000957,0.006706,-0.003221,84.439922,0.006708,
870,1740,0.694084,-1.786326,0.999997,0.000228,-0.002870,0.006855,-0.000090,0.006856,-0.002871,-89.467389,0.006886,
1030,1510,0.479880,-2.999502,0.999997,0.000213,-0.003235,0.006523,0.001179,0.006664,-0.003376,83.207912,0.006664,
960,1350,0.929418,-4.452213,0.999997,0.000204,-0.005070,0.008585,0.001082,0.008670,-0.005155,85.497130,0.008722,
900,890,1.854679,-8.751830,0.999996,0.000238,-0.004335,0.009102,0.001051,0.009184,-0.004417,85.553897,0.009186,
1410,740,-0.518822,-10.864769,0.999995,0.000246,-0.004836,0.007611,0.002485,0.008089,-0.005314,79.115884,0.008221,
1790,1260,-2.487752,-5.874684,0.999996,0.000225,-0.003775,0.007555,0.000629,0.007589,-0.003810,86.833044,0.007589,
740,480,1.456039,-11.841840,0.999997,0.000210,-0.003841,0.007654,-0.000182,0.007657,-0.003844,-89.094513,0.007657,
880,430,0.857341,-12.545677,0.999998,0.000188,-0.003307,0.007126,-0.000312,0.007135,-0.003316,-88.286404,0.007141,
1560,1740,-0.604509,-1.732291,0.999998,0.000201,-0.002492,0.006657,0.000106,0.006658,-0.002493,89.333814,0.006728,
1420,310,-0.291523,-13.598498,0.999997,0.000219,-0.001993,0.005831,0.000134,0.005834,-0.001996,89.021196,0.005930,
1230,1850,0.002582,-0.874998,0.999998,0.000169,-0.000978,0.005000,-0.000012,0.005000,-0.000978,-89.881917,0.005301,
1690,430,-1.231803,-12.302324,0.999997,0.000179,-0.003656,0.007555,0.000161,0.007557,-0.003658,89.177625,0.007558,
720,1790,1.022941,-1.692828,0.999998,0.000209,-0.003376,0.007496,-0.000435,0.007513,-0.003394,-87.711324,0.007525,
620,1410,2.292991,-4.834529,0.999997,0.000216,-0.003830,0.007596,-0.000146,0.007597,-0.003832,-89.266551,0.007597,
1450,1640,-0.444490,-2.198855,0.999998,0.000208,-0.002463,0.006251,-0.000447,0.006273,-0.002486,-87.069018,0.006318,
990,850,1.214625,-9.446948,0.999996,0.000258,-0.005762,0.010179,-0.000392,0.010188,-0.005771,-88.591070,0.010218,
780,800,2.073275,-9.351762,0.999998,0.000188,-0.004249,0.008273,0.000781,0.008321,-0.004297,86.443002,0.008323,
1740,360,-1.264106,-12.716957,0.999997,0.000218,-0.003656,0.007532,-0.000005,0.007532,-0.003656,-89.973055,0.007533,
1520,1500,-0.793208,-3.321930,0.999997,0.000211,-0.003795,0.007420,-0.000899,0.007491,-0.003866,-85.444844,0.007493,
860,1460,1.191539,-3.874519,0.999997,0.000216,-0.004303,0.007908,0.000442,0.007924,-0.004319,87.931374,0.007934,
1780,150,-0.715119,-14.211115,0.999997,0.000215,-0.002938,0.007452,-0.001493,0.007662,-0.003148,-81.982244,0.007702,
1860,390,-1.776107,-12.189421,0.999998,0.000168,-0.003733,0.007482,0.000112,0.007484,-0.003735,89.426517,0.007484,
1770,970,-2.777695,-7.970890,0.999998,0.000182,-0.003321,0.007091,-0.000278,0.007099,-0.003329,-88.471721,0.007103,
820,1280,1.819019,-5.491315,0.999997,0.000245,-0.004599,0.008596,-0.000584,0.008622,-0.004625,-87.470398,0.008630,
900,1900,0.287296,-0.728923,0.999998,0.000180,-0.001312,0.005874,-0.000862,0.005976,-0.001414,-83.255194,0.006247,
1190,670,0.069196,-11.897003,0.999998,0.000179,-0.001864,0.003950,-0.000985,0.004112,-0.002026,-80.643151,0.004112,
1430,1730,-0.327405,-1.622638,0.999997,0.000196,-0.002078,0.005946,-0.000134,0.005948,-0.002080,-89.043772,0.006037,
1050,1460,0.437033,-3.263684,0.999996,0.000220,-0.003330,0.006510,0.001541,0.006745,-0.003566,81.305778,0.006749,
830,360,0.896256,-12.947310,0.999997,0.000202,-0.003094,0.007155,0.000085,0.007156,-0.003095,89.525500,0.007177,
1900,1120,-3.156792,-6.995444,0.999998,0.000000,-0.003062,0.006317,0.000198,0.006321,-0.003066,88.793689,0.006322,
1760,1070,-2.754169,-7.251380,0.999997,0.000197,-0.003269,0.007184,0.000222,0.007188,-0.003274,88.781877,0.007198,
1030,1530,0.469834,-2.868031,0.999997,0.000205,-0.003155,0.006467,0.001099,0.006591,-0.003279,83.565351,0.006591,
730,960,2.644732,-8.057526,0.999996,0.000231,-0.003330,0.007392,0.000521,0.007418,-0.003355,87.222309,0.007429,
1230,1870,0.000599,-0.776112,0.999998,0.000168,-0.000887,0.004951,0.000005,0.004951,-0.000887,89.947877,0.005280,
1610,510,-1.077072,-11.891554,0.999996,0.000240,-0.003786,0.007528,0.000439,0.007545,-0.003803,87.780120,0.007545,
1480,200,-0.255460,-14.183445,0.999998,0.000197,-0.001352,0.005666,-0.000439,0.005693,-0.001379,-86.436196,0.005940,
650,1430,2.129328,-4.613010,0.999997,0.000211,-0.003890,0.007729,-0.000132,0.007730,-0.003891,-89.349965,0.007730,
1320,1870,-0.070916,-0.786831,0.999998,0.000171,-0.000868,0.005043,0.000099,0.005045,-0.000870,89.037606,0.005394,
1730,380,-1.272307,-12.589320,0.999997,0.000245,-0.003645,0.007566,0.000028,0.007566,-0.003645,89.858019,0.007568,
1010,620,0.596331,-11.540271,0.999996,0.000235,-0.003955,0.007169,-0.001526,0.007374,-0.004160,-82.330439,0.007394,
1070,910,1.136308,-9.576066,0.999993,0.000308,-0.003688,0.009137,-0.004438,0.010523,-0.005074,-72.656096,0.010526,
1150,120,0.036767,-14.655375,0.999998,0.000162,-0.000465,0.004787,0.000159,0.004792,-0.000470,88.263430,0.005283,
610,1210,2.838437,-6.327133,0.999997,0.000190,-0.003469,0.007066,-0.000420,0.007083,-0.003485,-87.718223,0.007083,
1680,410,-1.155027,-12.477072,0.999998,0.000184,-0.003544,0.007484,0.000129,0.007486,-0.003546,89.332418,0.007489,
890,1220,1.688853,-5.884216,0.999996,0.000211,-0.004905,0.009171,-0.000746,0.009211,-0.004945,-86.973504,0.009219,
1340,1230,-0.379725,-4.248584,0.999996,0.000214,-0.004066,0.005206,-0.003235,0.006223,-0.005083,-72.545512,0.006627,
950,630,0.856278,-11.244578,0.999997,0.000193,-0.004381,0.007816,-0.001059,0.007907,-0.004472,-85.075648,0.007930,
990,2000,0.043892,-0.169476,0.999998,0.000158,-0.000203,0.004869,-0.000601,0.004940,-0.000273,-83.333044,0.005553,
1850,1990,-0.405682,-0.391943,0.999996,0.000223,-0.003330,0.008108,0.002095,0.008479,-0.003702,79.941664,0.008502,
1200,1390,0.051924,-3.191262,0.999998,0.000187,-0.001743,0.003894,0.000715,0.003983,-0.001832,82.883683,0.003987,
1450,1620,-0.459500,-2.323397,0.999997,0.000228,-0.002646,0.006330,-0.000580,0.006368,-0.002684,-86.316887,0.006394,
880,590,1.098202,-11.339608,0.999997,0.000201,-0.004224,0.007921,-0.000602,0.007950,-0.004253,-87.171289,0.007957,
1130,550,0.204486,-12.345325,0.999997,0.000184,-0.002253,0.005414,-0.000879,0.005514,-0.002352,-83.543848,0.005534,
1530,1520,-0.807033,-3.202804,0.999997,0.000204,-0.003703,0.007322,-0.000774,0.007376,-0.003757,-86.002443,0.007377,
1400,310,-0.252344,-13.618917,0.999998,0.000175,-0.001806,0.005723,0.000081,0.005724,-0.001807,89.384300,0.005852,
1520,1480,-0.815706,-3.473226,0.999997,0.000211,-0.004003,0.007548,-0.000961,0.007628,-0.004083,-85.275873,0.007634,
1290,250,-0.067476,-14.008384,0.999999,0.000135,-0.001075,0.005158,-0.000068,0.005159,-0.001076,-89.374345,0.005443,
900,1880,0.332695,-0.847558,0.999998,0.000185,-0.001523,0.005920,-0.000772,0.006000,-0.001602,-84.139650,0.006213,
1070,2020,0.012091,-0.070149,0.999998,0.000000,-0.000084,0.004603,-0.000328,0.004626,-0.000107,-86.014287,0.005281,
1080,1160,0.998743,-5.256710,0.999996,0.000206,-0.003553,0.007670,0.004077,0.008995,-0.004878,71.998828,0.009006,
690,1810,1.065657,-1.614320,0.999997,0.000195,-0.003496,0.007575,-0.000487,0.007597,-0.003517,-87.484177,0.007604,
1640,1760,-0.783967,-1.725200,0.999998,0.000199,-0.002774,0.007037,0.000362,0.007050,-0.002787,87.888401,0.007102,
1560,1200,-1.701570,-6.036760,0.999996,0.000227,-0.004831,0.009259,0.000869,0.009312,-0.004884,86.485047,0.009316,
1300,1870,-0.054360,-0.781986,0.999998,0.000157,-0.000737,0.004999,0.000119,0.005002,-0.000740,88.810516,0.005399,
1230,1890,0.001509,-0.676348,0.999998,0.000151,-0.000761,0.004915,0.000017,0.004916,-0.000762,89.825283,0.005291,
990,830,1.124338,-9.653554,0.999996,0.000263,-0.005852,0.009953,-0.000639,0.009979,-0.005878,-87.689256,0.010032,
1810,1390,-2.218379,-4.916172,0.999997,0.000200,-0.003870,0.007688,0.000227,0.007693,-0.003875,88.877384,0.007693,
800,250,0.736447,-13.675127,0.999997,0.000204,-0.002922,0.007022,0.000534,0.007050,-0.002950,86.935855,0.007082,
1130,780,0.239363,-11.164815,0.999998,0.000179,-0.003568,0.004960,-0.003225,0.006042,-0.004650,-71.451657,0.006328,
1770,950,-2.755162,-8.114145,0.999998,0.000174,-0.003389,0.007240,-0.000521,0.007266,-0.003414,-87.198564,0.007270,
860,1440,1.229209,-4.033392,0.999996,0.000230,-0.004429,0.008011,0.000423,0.008026,-0.004443,88.055428,0.008041,
1740,340,-1.214979,-12.868338,0.999997,0.000196,-0.003604,0.007510,-0.000058,0.007510,-0.003604,-89.699906,0.007512,
940,1290,1.181352,-5.071246,0.999996,0.000224,-0.005452,0.009242,0.000449,0.009255,-0.005466,88.251740,0.009306,
1480,180,-0.225699,-14.295249,0.999998,0.000160,-0.001212,0.005548,-0.000481,0.005582,-0.001246,-85.952359,0.005861,
870,1720,0.733011,-1.928207,0.999996,0.000231,-0.002935,0.006962,-0.000041,0.006962,-0.002935,-89.761012,0.006990,
610,1190,2.888902,-6.473515,0.999996,0.000229,-0.003396,0.007016,-0.000396,0.007031,-0.003411,-87.824002,0.007032,
970,1160,1.550291,-6.228037,0.999994,0.000288,-0.005018,0.010161,-0.000589,0.010184,-0.005041,-87.782110,0.010184,
870,1220,1.783429,-5.923816,0.999995,0.000245,-0.004691,0.008959,-0.000832,0.009010,-0.004741,-86.525053,0.009014,
1660,430,-1.122948,-12.372677,0.999997,0.000217,-0.003552,0.007449,0.000184,0.007452,-0.003555,89.040363,0.007455,
1190,650,0.070430,-11.977586,0.999997,0.000201,-0.001881,0.004160,-0.000835,0.004273,-0.001995,-82.273457,0.004277,
1740,1510,-1.656885,-3.822410,0.999996,0.000226,-0.003971,0.007792,-0.000096,0.007793,-0.003972,-89.534277,0.007793,
1230,2000,0.000492,-0.158853,0.999999,0.000137,-0.000209,0.004541,-0.000020,0.004542,-0.000209,-89.757308,0.005128,
1850,1970,-0.551461,-0.569838,0.999996,0.000208,-0.003503,0.008310,0.001849,0.008593,-0.003785,81.308912,0.008613,
1430,1710,-0.343195,-1.742481,0.999998,0.000207,-0.002159,0.005925,-0.000254,0.005933,-0.002167,-88.204776,0.006005,
1640,1070,-2.376487,-7.229221,0.999997,0.000203,-0.003056,0.007749,0.000442,0.007767,-0.003074,87.663500,0.007823,
1520,1460,-0.843686,-3.626713,0.999997,0.000212,-0.004148,0.007661,-0.000968,0.007739,-0.004227,-85.345733,0.007750,
1130,530,0.205638,-12.453171,0.999997,0.000201,-0.002220,0.005434,-0.000781,0.005513,-0.002299,-84.232811,0.005538,
940,1350,1.030983,-4.532822,0.999997,0.000188,-0.005024,0.008671,0.000852,0.008724,-0.005077,86.453899,0.008763,
1290,230,-0.059659,-14.108790,0.999998,0.000146,-0.000974,0.005110,-0.000053,0.005111,-0.000974,-89.504436,0.005427,
1610,490,-1.045427,-12.040517,0.999997,0.000223,-0.003673,0.007477,0.000428,0.007493,-0.003690,87.804999,0.007493,
1390,1520,-0.349200,-2.820981,0.999998,0.000174,-0.002740,0.005972,-0.001080,0.006104,-0.002872,-83.038969,0.006108,
1080,30,0.007327,-15.069882,0.999998,0.000000,-0.000048,0.004575,0.000392,0.004608,-0.000081,85.181944,0.005275,
1590,1360,-1.340331,-4.668995,0.999997,0.000210,-0.004874,0.008595,-0.000226,0.008598,-0.004878,-89.037564,0.008624,
1030,1550,0.458124,-2.734578,0.999997,0.000207,-0.003013,0.006425,0.000970,0.006523,-0.003111,84.193818,0.006526,
1340,340,-0.171482,-13.500768,0.999998,0.000191,-0.001746,0.005506,0.000252,0.005515,-0.001755,88.011702,0.005635,
1410,680,-0.464258,-11.302041,0.999996,0.000243,-0.004078,0.006926,0.002121,0.007321,-0.004473,79.458817,0.007381,
1030,820,0.850415,-10.016304,0.999996,0.000224,-0.005904,0.009356,-0.001739,0.009551,-0.006100,-83.581126,0.009673,
900,1860,0.374576,-0.966622,0.999997,0.000217,-0.001676,0.006062,-0.000699,0.006125,-0.001739,-84.879437,0.006312,
1430,1640,-0.398429,-2.167370,0.999997,0.000229,-0.002388,0.006091,-0.000472,0.006117,-0.002415,-86.822638,0.006162,
1040,370,0.347906,-13.236787,0.999998,0.000209,-0.002259,0.006106,-0.000323,0.006118,-0.002272,-87.792109,0.006185,
1860,150,-0.978859,-13.996106,0.999998,0.000153,-0.003634,0.007727,-0.000720,0.007772,-0.003679,-86.388221,0.007776,
1640,1740,-0.828134,-1.864785,0.999998,0.000178,-0.002904,0.007035,0.000223,0.007040,-0.002909,88.714774,0.007075,
1560,1180,-1.782093,-6.227703,0.999996,0.000224,-0.004604,0.009221,0.000989,0.009291,-0.004675,85.928950,0.009291,
690,1790,1.130728,-1.763841,0.999997,0.000196,-0.003559,0.007534,-0.000386,0.007548,-0.003572,-88.008471,0.007551,
650,1410,2.178260,-4.768812,0.999997,0.000219,-0.003867,0.007692,-0.000184,0.007695,-0.003870,-89.085786,0.007695,
1260,310,-0.040181,-13.699053,0.999998,0.000171,-0.001440,0.005262,0.000078,0.005263,-0.001441,89.334535,0.005440,
990,810,1.044118,-9.852965,0.999995,0.000267,-0.005834,0.009675,-0.000868,0.009723,-0.005883,-86.805244,0.009794,
860,1420,1.267605,-4.198467,0.999996,0.000225,-0.004528,0.008227,0.000394,0.008239,-0.004540,88.231670,0.008253,
860,70,0.129362,-14.854682,0.999998,0.000150,-0.000667,0.005474,0.001229,0.005711,-0.000904,79.089239,0.006139,
1230,1910,0.001179,-0.578494,0.999998,0.000166,-0.000654,0.004811,0.000006,0.004811,-0.000654,89.934872,0.005218,
1120,1870,0.091734,-0.793089,0.999998,0.000165,-0.000965,0.005096,-0.000113,0.005098,-0.000967,-88.930216,0.005416,
980,250,0.332839,-13.890479,0.999998,0.000202,-0.001763,0.005923,0.000243,0.005931,-0.001771,88.194563,0.006089,
610,1170,2.925420,-6.610071,0.999997,0.000190,-0.003305,0.006760,-0.000272,0.006767,-0.003313,-88.451445,0.006768,
1440,1090,-1.659593,-6.728653,0.999992,0.000336,-0.004748,0.012510,-0.001128,0.012583,-0.004821,-86.275383,0.012697,
790,380,1.071168,-12.715572,0.999998,0.000153,-0.003444,0.007390,-0.000089,0.007391,-0.003445,-89.528312,0.007397,
1130,1740,0.147583,-1.476589,0.999998,0.000164,-0.001654,0.005453,0.000161,0.005457,-0.001657,88.704530,0.005595,
1480,160,-0.195434,-14.406114,0.999998,0.000164,-0.001040,0.005482,-0.000542,0.005527,-0.001084,-85.280407,0.005857,
1900,1110,-3.172066,-7.060249,0.999998,0.000000,-0.003042,0.006225,0.000103,0.006226,-0.003043,89.360776,0.006226,
950,650,0.884577,-11.087994,0.999997,0.000206,-0.004565,0.008011,-0.001062,0.008100,-0.004654,-85.207098,0.008130,
1200,1210,0.190197,-3.657758,0.999994,0.000268,-0.005348,0.002215,-0.000037,0.002215,-0.005348,-89.717535,0.005374,
730,1220,2.377386,-6.111481,0.999996,0.000234,-0.003891,0.007824,-0.000836,0.007883,-0.003951,-85.939646,0.007883,
1810,1370,-2.269861,-5.069170,0.999997,0.000205,-0.003860,0.007618,0.000299,0.007626,-0.003868,88.506583,0.007627,
1740,320,-1.163852,-13.019739,0.999997,0.000195,-0.003507,0.007488,-0.000127,0.007489,-0.003509,-89.340239,0.007494,
1130,510,0.202608,-12.562413,0.999997,0.000183,-0.002180,0.005456,-0.000690,0.005518,-0.002241,-84.881141,0.005550,
1620,1070,-2.316445,-7.225924,0.999997,0.000225,-0.003002,0.007874,0.000496,0.007896,-0.003024,87.391770,0.007968,
1370,1520,-0.294900,-2.771309,0.999997,0.000209,-0.002649,0.005811,-0.001153,0.005965,-0.002803,-82.376240,0.005969,
1850,1950,-0.687588,-0.727660,0.999996,0.000212,-0.003593,0.008014,0.001388,0.008178,-0.003756,83.275196,0.008187,
1770,930,-2.720953,-8.262772,0.999997,0.000183,-0.003422,0.007265,-0.000562,0.007294,-0.003452,-86.999241,0.007298,
1290,210,-0.057520,-14.212719,0.999998,0.000172,-0.000874,0.005076,-0.000089,0.005077,-0.000875,-89.141144,0.005428,
1540,1990,-0.082599,-0.227619,0.999998,0.000187,-0.000324,0.005107,0.000880,0.005246,-0.000463,81.025250,0.005809,
1190,630,0.072540,-12.062047,0.999998,0.000187,-0.001894,0.004352,-0.000719,0.004433,-0.001976,-83.513247,0.004442,
1520,1440,-0.867289,-3.781778,0.999997,0.000215,-0.004260,0.007778,-0.000974,0.007856,-0.004339,-85.402907,0.007870,
720,210,0.842142,-13.839371,0.999997,0.000189,-0.003145,0.007368,0.000812,0.007431,-0.003208,85.607706,0.007454,
990,790,0.975514,-10.045782,0.999997,0.000220,-0.005745,0.009395,-0.001064,0.009470,-0.005820,-85.999168,0.009552,
900,1840,0.418853,-1.090421,0.999997,0.000195,-0.001841,0.006167,-0.000608,0.006213,-0.001887,-85.680860,0.006371,
940,610,0.873616,-11.367634,0.999997,0.000216,-0.004281,0.007776,-0.000961,0.007853,-0.004357,-85.469523,0.007868,
1350,460,-0.230748,-12.817872,0.999998,0.000159,-0.002128,0.005596,0.000534,0.005633,-0.002165,86.062273,0.005683,
860,1400,1.309077,-4.365579,0.999996,0.000237,-0.004623,0.008339,0.000318,0.008347,-0.004631,88.594283,0.008364,
1590,1340,-1.390377,-4.842914,0.999996,0.000210,-0.004977,0.008715,-0.000076,0.008716,-0.004977,-89.680044,0.008745,
1020,570,0.526004,-11.926299,0.999997,0.000209,-0.003391,0.006702,-0.001245,0.006853,-0.003542,-83.071237,0.006855,
1640,1720,-0.867226,-2.006179,0.999998,0.000188,-0.003054,0.007126,0.000096,0.007127,-0.003055,89.456947,0.007151,
960,250,0.372587,-13.868796,0.999997,0.000199,-0.002010,0.006011,0.000254,0.006019,-0.002018,88.185888,0.006127,
600,190,1.176528,-13.676262,0.999996,0.000221,-0.003662,0.007570,0.000397,0.007584,-0.003676,87.980392,0.007585,
720,1770,1.081635,-1.845509,0.999997,0.000206,-0.003437,0.007507,-0.000306,0.007516,-0.003446,-88.401736,0.007525,
1560,1160,-1.860750,-6.410087,0.999997,0.000215,-0.004301,0.009133,0.001099,0.009222,-0.004391,85.352891,0.009226,
690,1770,1.190297,-1.916222,0.999996,0.000220,-0.003596,0.007545,-0.000272,0.007552,-0.003603,-88.600207,0.007555,
1240,400,-0.014948,-13.227426,0.999998,0.000155,-0.001748,0.005292,0.000089,0.005293,-0.001749,89.275051,0.005394,
610,1150,2.957407,-6.743109,0.999998,0.000168,-0.003260,0.006728,-0.000303,0.006738,-0.003270,-88.261977,0.006739,
820,1260,1.881812,-5.663902,0.999997,0.000231,-0.004531,0.008595,-0.000725,0.008635,-0.004570,-86.848615,0.008640,
1010,820,0.967383,-9.874609,0.999996,0.000248,-0.005851,0.009639,-0.001272,0.009743,-0.005955,-85.337046,0.009823,
1340,320,-0.164328,-13.610470,0.999998,0.000169,-0.001663,0.005485,0.000166,0.005489,-0.001667,88.668488,0.005628,
1540,750,-1.228843,-10.122132,0.999995,0.000288,-0.005323,0.009059,0.000330,0.009067,-0.005330,88.685810,0.009113,
950,1780,0.432991,-1.414165,0.999996,0.000230,-0.002188,0.006228,-0.000194,0.006232,-0.002192,-88.680974,0.006323,
1190,1210,0.237041,-3.706883,0.999995,0.000261,-0.004761,0.002174,0.000144,0.002176,-0.004764,88.814938,0.004770,
1110,900,0.966889,-10.334487,0.999995,0.000000,-0.001810,0.005476,-0.004327,0.007489,-0.003823,-65.049262,0.007489,
1030,1570,0.444790,-2.607896,0.999997,0.000203,-0.002834,0.006363,0.000833,0.006438,-0.002909,84.866154,0.006448,
730,1740,1.127820,-2.046002,0.999997,0.000217,-0.003410,0.007446,-0.000190,0.007449,-0.003414,-89.000105,0.007458,
1480,140,-0.166216,-14.514470,0.999998,0.000172,-0.000922,0.005331,-0.000550,0.005379,-0.000970,-85.014150,0.005734,
1280,1530,-0.093040,-2.566364,0.999998,0.000151,-0.001956,0.005097,-0.000357,0.005115,-0.001974,-87.113178,0.005159,
1010,1520,0.539706,-2.987216,0.999997,0.000193,-0.003228,0.006662,0.001030,0.006768,-0.003334,84.118267,0.006769,
1610,470,-1.014573,-12.190010,0.999997,0.000208,-0.003608,0.007449,0.000387,0.007463,-0.003622,87.997493,0.007464,
1740,300,-1.111902,-13.171568,0.999997,0.000209,-0.003445,0.007473,-0.000249,0.007478,-0.003451,-88.695826,0.007486,
1690,410,-1.190021,-12.455538,0.999997,0.000191,-0.003579,0.007524,0.000130,0.007525,-0.003581,89.329887,0.007528,
1430,1690,-0.361441,-1.861995,0.999998,0.000203,-0.002242,0.006059,-0.000277,0.006068,-0.002252,-88.092115,0.006135,
710,1220,2.453924,-6.134536,0.999996,0.000259,-0.003816,0.007679,-0.000773,0.007731,-0.003867,-86.170790,0.007731,
810,380,1.003313,-12.760188,0.999998,0.000174,-0.003415,0.007371,-0.000084,0.007372,-0.003416,-89.555672,0.007379,
1740,1490,-1.701119,-3.980362,0.999997,0.000179,-0.004013,0.007800,-0.000068,0.007800,-0.004013,-89.670882,0.007801,
1680,1070,-2.498939,-7.239055,0.999995,0.000251,-0.003165,0.007563,0.000328,0.007573,-0.003175,88.249209,0.007606,
1130,490,0.200503,-12.673409,0.999998,0.000163,-0.002144,0.005543,-0.000647,0.005597,-0.002198,-85.224247,0.005640,
1450,1300,-0.753616,-4.627913,0.999996,0.000220,-0.005440,0.008737,-0.001783,0.008958,-0.005661,-82.941645,0.009061,
1190,610,0.074900,-12.150451,0.999998,0.000159,-0.001915,0.004551,-0.000605,0.004607,-0.001971,-84.700311,0.004623,
1880,1140,-3.062264,-6.843126,0.999998,0.000194,-0.003167,0.006543,0.000214,0.006548,-0.003172,88.736095,0.006549,
1290,190,-0.047287,-14.312928,0.999998,0.000170,-0.000756,0.004995,-0.000121,0.004998,-0.000758,-88.795001,0.005387,
1770,910,-2.688270,-8.405838,0.999997,0.000195,-0.003447,0.007293,-0.000554,0.007321,-0.003476,-87.053588,0.007324,
1220,2000,0.002468,-0.159027,0.999999,0.000127,-0.000225,0.004540,-0.000022,0.004540,-0.000225,-89.734277,0.005118,
1850,1930,-0.807088,-0.892395,0.999997,0.000205,-0.003638,0.007988,0.001046,0.008081,-0.003732,84.900391,0.008089,
650,1390,2.228256,-4.922725,0.999997,0.000210,-0.003874,0.007630,-0.000255,0.007635,-0.003879,-88.730419,0.007636,
1520,1420,-0.894364,-3.937738,0.999997,0.000212,-0.004413,0.007895,-0.000994,0.007974,-0.004492,-85.410724,0.007996,
900,1820,0.458500,-1.215262,0.999998,0.000182,-0.001977,0.006325,-0.000513,0.006357,-0.002008,-86.478385,0.006499,
700,230,0.981639,-13.645414,0.999998,0.000181,-0.003464,0.007500,0.000560,0.007529,-0.003492,87.083728,0.007535,
1860,130,-0.871266,-14.153308,0.999997,0.000215,-0.003600,0.007970,-0.001017,0.008059,-0.003689,-85.016752,0.008069,
950,670,0.918016,-10.921520,0.999997,0.000207,-0.004756,0.008240,-0.001064,0.008326,-0.004843,-85.351224,0.008363,
1350,480,-0.236196,-12.705745,0.999998,0.000176,-0.002186,0.005641,0.000623,0.005690,-0.002235,85.474989,0.005734,
990,770,0.916993,-10.230554,0.999997,0.000223,-0.005617,0.009154,-0.001213,0.009253,-0.005716,-85.337152,0.009338,
1900,1100,-3.180232,-7.119738,0.999998,0.000000,-0.002998,0.006082,-0.000023,0.006082,-0.002998,-89.853993,0.006082,
1120,1410,0.230566,-3.313265,0.999998,0.000201,-0.002726,0.005384,0.001842,0.005783,-0.003124,77.786472,0.005789,
900,330,0.634994,-13.282926,0.999997,0.000205,-0.002702,0.006758,0.000006,0.006758,-0.002702,89.963292,0.006803,
1860,790,-2.732737,-9.165209,0.999996,0.000227,-0.003570,0.007196,-0.000299,0.007204,-0.003579,-88.411330,0.007204,
1290,780,-0.114865,-11.465589,0.999996,0.000246,-0.002404,0.002975,0.002363,0.003865,-0.003295,69.352884,0.004173,
1640,1700,-0.905482,-2.149135,0.999997,0.000201,-0.003169,0.007171,0.000052,0.007171,-0.003169,89.713954,0.007187,
1560,1140,-1.939389,-6.595360,0.999997,0.000192,-0.003964,0.008967,0.001070,0.009055,-0.004052,85.299604,0.009072,
1340,300,-0.152060,-13.720175,0.999998,0.000158,-0.001574,0.005424,0.000146,0.005427,-0.001577,88.806981,0.005583,
1110,30,0.006025,-15.068790,0.999998,0.000000,0.000005,0.004501,0.000254,0.004515,-0.000009,86.770172,0.005208,
610,1130,2.992995,-6.878774,0.999998,0.000167,-0.003250,0.006774,-0.000381,0.006789,-0.003265,-87.828860,0.006790,
860,1380,1.354841,-4.533855,0.999996,0.000249,-0.004720,0.008483,0.000200,0.008486,-0.004723,89.130601,0.008504,
1880,1500,-2.219471,-4.228997,0.999997,0.000216,-0.003813,0.007660,0.000014,0.007660,-0.003813,89.931957,0.007660,
1280,1730,-0.071580,-1.506616,0.999998,0.000187,-0.001443,0.005371,-0.000029,0.005371,-0.001443,-89.756087,0.005560,
1230,320,0.001768,-13.651465,0.999998,0.000148,-0.001494,0.005270,-0.000030,0.005271,-0.001494,-89.743310,0.005433,
1810,1350,-2.323535,-5.221895,0.999997,0.000208,-0.003851,0.007608,0.000353,0.007619,-0.003862,88.235264,0.007619,
970,1860,0.268804,-0.917398,0.999998,0.000168,-0.001535,0.005709,-0.000429,0.005734,-0.001560,-86.622221,0.005929,
1040,60,0.036674,-14.930702,0.999998,0.000165,-0.000311,0.004744,0.000414,0.004777,-0.000344,85.353568,0.005329,
1610,450,-0.980957,-12.337726,0.999997,0.000220,-0.003531,0.007399,0.000350,0.007411,-0.003542,88.168090,0.007413,
690,1750,1.246157,-2.066318,0.999997,0.000207,-0.003630,0.007524,-0.000170,0.007527,-0.003633,-89.128746,0.007528,
1480,120,-0.136048,-14.621404,0.999998,0.000163,-0.000773,0.005264,-0.000597,0.005322,-0.000831,-84.401392,0.005726,
1460,750,-0.796704,-10.479140,0.999995,0.000298,-0.005404,0.008768,0.001626,0.008952,-0.005588,83.538149,0.009044,
1730,1490,-1.660754,-3.956787,0.999995,0.000236,-0.004034,0.007820,-0.000077,0.007820,-0.004034,-89.627935,0.007822,
700,210,0.910179,-13.793615,0.999998,0.000176,-0.003373,0.007456,0.000736,0.007506,-0.003423,86.128714,0.007516,
1190,590,0.075909,-12.240849,0.999998,0.000160,-0.001947,0.004695,-0.000508,0.004733,-0.001985,-85.649953,0.004754,
1640,1190,-2.091154,-6.255745,0.999997,0.000195,-0.004111,0.008448,0.001018,0.008530,-0.004193,85.397000,0.008530,
1660,1070,-2.437885,-7.234871,0.999996,0.000218,-0.003127,0.007654,0.000373,0.007667,-0.003140,88.021694,0.007708,
1130,120,0.049427,-14.650887,0.999998,0.000147,-0.000576,0.004825,0.000168,0.004831,-0.000582,88.218509,0.005274,
1130,470,0.197851,-12.783653,0.999998,0.000172,-0.002105,0.005540,-0.000583,0.005584,-0.002149,-85.666143,0.005633,
800,1610,1.161294,-2.867019,0.999997,0.000221,-0.003633,0.007479,0.000218,0.007483,-0.003637,88.874267,0.007484,
1080,900,1.034468,-9.826973,0.999994,0.000301,-0.003271,0.007894,-0.004307,0.009363,-0.004739,-71.175514,0.009363,
1290,170,-0.043961,-14.411446,0.999998,0.000158,-0.000661,0.004930,-0.000105,0.004932,-0.000663,-88.920099,0.005354,
1520,1840,-0.348146,-1.058923,0.999998,0.000178,-0.001699,0.005891,0.000455,0.005918,-0.001726,86.583765,0.006087,
1240,380,-0.013332,-13.334843,0.999998,0.000161,-0.001698,0.005322,0.000078,0.005323,-0.001698,89.363549,0.005438,
1430,1670,-0.376171,-1.985186,0.999998,0.000199,-0.002297,0.006088,-0.000350,0.006103,-0.002311,-87.613963,0.006162,
670,1940,0.572763,-0.665173,0.999998,0.000203,-0.002400,0.007552,-0.002128,0.007988,-0.002836,-78.420536,0.008099,
1180,1210,0.281660,-3.771044,0.999996,0.000220,-0.004187,0.002222,0.000401,0.002247,-0.004212,86.431729,0.004215,
1790,1680,-1.479813,-2.639177,0.999997,0.000195,-0.003682,0.007577,-0.000015,0.007577,-0.003682,-89.921799,0.007578,
990,750,0.865929,-10.413186,0.999996,0.000230,-0.005451,0.008925,-0.001357,0.009052,-0.005578,-84.654903,0.009133,
950,1110,1.869858,-6.787603,0.999996,0.000241,-0.003741,0.009560,-0.000922,0.009624,-0.003804,-86.054988,0.009694,
1770,890,-2.651806,-8.554243,0.999997,0.000217,-0.003552,0.007425,-0.000702,0.007469,-0.003596,-86.357557,0.007471,
880,330,0.694497,-13.245057,0.999997,0.000196,-0.002944,0.006907,-0.000003,0.006907,-0.002944,-89.984478,0.006932,
1290,720,-0.096092,-11.658826,0.999998,0.000190,-0.002043,0.003679,0.001803,0.004200,-0.002564,73.889156,0.004234,
1730,480,-1.482471,-11.824314,0.999997,0.000225,-0.003852,0.007675,0.000189,0.007678,-0.003856,89.061236,0.007678,
900,1800,0.499564,-1.342307,0.999997,0.000195,-0.002143,0.006401,-0.000410,0.006420,-0.002163,-87.256508,0.006533,
650,1370,2.280136,-5.075045,0.999997,0.000216,-0.003870,0.007610,-0.000329,0.007620,-0.003880,-88.360609,0.007620,
1220,1270,0.022279,-3.498067,0.999997,0.000210,-0.001904,0.001706,0.000526,0.001781,-0.001979,81.876582,0.002180,
1850,1910,-0.916943,-1.048065,0.999997,0.000198,-0.003675,0.007764,0.000769,0.007815,-0.003727,86.170255,0.007818,
1560,1120,-2.005015,-6.769499,0.999997,0.000207,-0.003582,0.008836,0.001068,0.008927,-0.003673,85.118926,0.008974,
1840,810,-2.710655,-9.057639,0.999997,0.000205,-0.003583,0.007157,-0.000434,0.007174,-0.003600,-87.687728,0.007174,
610,1110,3.025268,-7.017029,0.999998,0.000175,-0.003226,0.006676,-0.000255,0.006683,-0.003233,-88.526593,0.006684,
1810,1330,-2.376068,-5.374125,0.999996,0.000208,-0.003835,0.007666,0.000406,0.007681,-0.003849,87.980865,0.007681,
860,1360,1.403917,-4.706960,0.999996,0.000241,-0.004798,0.008581,0.000097,0.008582,-0.004798,89.583383,0.008602,
1490,1680,-0.509242,-2.015309,0.999997,0.000198,-0.002691,0.006432,-0.000337,0.006444,-0.002703,-87.889021,0.006472,
1050,120,0.093361,-14.637069,0.999998,0.000207,-0.000713,0.005063,0.000372,0.005087,-0.000737,86.327985,0.005498,
1640,1680,-0.948708,-2.294062,0.999997,0.000224,-0.003273,0.007268,-0.000039,0.007268,-0.003273,-89.787096,0.007280,
1050,380,0.333263,-13.190631,0.999997,0.000213,-0.002284,0.006026,-0.000381,0.006044,-0.002301,-87.379842,0.006101,
830,100,0.234309,-14.677805,0.999998,0.000173,-0.000857,0.005769,0.001318,0.006022,-0.001110,79.152174,0.006410,
1430,1300,-0.645052,-4.502855,0.999996,0.000234,-0.005289,0.008364,-0.002162,0.008698,-0.005623,-81.213157,0.008821,
1890,560,-2.269606,-10.829479,0.999997,0.000220,-0.003824,0.007660,-0.000021,0.007660,-0.003824,-89.894816,0.007660,
1780,1510,-1.814323,-3.917592,0.999997,0.000198,-0.003904,0.007701,-0.000059,0.007701,-0.003905,-89.708784,0.007702,
1510,1820,-0.362385,-1.167155,0.999998,0.000188,-0.001931,0.006009,0.000331,0.006022,-0.001944,87.617459,0.006147,
1480,100,-0.108096,-14.724743,0.999998,0.000178,-0.000613,0.005139,-0.000607,0.005202,-0.000677,-84.039019,0.005657,
830,380,0.934487,-12.802608,0.999997,0.000255,-0.003243,0.007222,-0.000030,0.007222,-0.003243,-89.837430,0.007234,
1470,600,-0.646192,-11.623388,0.999997,0.000187,-0.003889,0.007255,0.001313,0.007408,-0.004042,83.371502,0.007418,
1340,280,-0.143413,-13.827621,0.999998,0.000152,-0.001485,0.005420,0.000079,0.005421,-0.001486,89.348297,0.005602,
890,1480,1.032198,-3.633397,0.999997,0.000201,-0.004125,0.007847,0.000659,0.007884,-0.004161,86.858335,0.007888,
690,1730,1.298351,-2.218127,0.999997,0.000193,-0.003625,0.007551,-0.000041,0.007551,-0.003625,-89.790384,0.007553,
1190,790,0.081196,-11.526940,0.999996,0.000249,-0.002237,0.002275,-0.001737,0.002866,-0.002828,-71.203794,0.003288,
990,730,0.823075,-10.589079,0.999995,0.000267,-0.005245,0.008636,-0.001432,0.008782,-0.005391,-84.169873,0.008857,
1130,450,0.193157,-12.895297,0.999998,0.000174,-0.002062,0.005549,-0.000513,0.005584,-0.002096,-86.158494,0.005641,
1100,2020,0.011546,-0.072685,0.999998,0.000000,-0.000021,0.004513,-0.000251,0.004527,-0.000035,-86.846500,0.005207,
1030,1990,0.046044,-0.214932,0.999998,0.000144,-0.000326,0.004809,-0.000472,0.004852,-0.000369,-84.789888,0.005402,
1610,430,-0.946904,-12.487949,0.999997,0.000177,-0.003422,0.007314,0.000306,0.007322,-0.003431,88.370356,0.007327,
1290,150,-0.035255,-14.511755,0.999998,0.000160,-0.000546,0.004889,-0.000104,0.004891,-0.000548,-88.900832,0.005359,
1520,1130,-1.815975,-6.612890,0.999995,0.000259,-0.004091,0.009564,0.000985,0.009635,-0.004161,85.896380,0.009664,
1740,280,-1.056762,-13.319537,0.999997,0.000197,-0.003366,0.007507,-0.000355,0.007518,-0.003377,-88.132220,0.007531,
730,1100,2.634948,-7.025526,0.999997,0.000204,-0.003387,0.007401,-0.000583,0.007432,-0.003419,-86.914171,0.007440,
1440,750,-0.687968,-10.596752,0.999997,0.000244,-0.005308,0.008466,0.001985,0.008746,-0.005588,81.961853,0.008858,
1430,1650,-0.392336,-2.106340,0.999997,0.000225,-0.002366,0.006086,-0.000439,0.006108,-0.002389,-87.037438,0.006156,
900,1780,0.537658,-1.472814,0.999997,0.000188,-0.002272,0.006512,-0.000327,0.006525,-0.002284,-87.868135,0.006622,
1240,360,-0.015552,-13.440115,0.999998,0.000163,-0.001629,0.005286,0.000090,0.005287,-0.001630,89.256126,0.005415,
1890,1800,-1.517592,-2.014048,0.999997,0.000210,-0.003658,0.007270,0.000086,0.007271,-0.003658,89.548543,0.007271,
1520,1860,-0.311411,-0.938103,0.999998,0.000197,-0.001566,0.005887,0.000536,0.005925,-0.001604,85.905175,0.006129,
1770,1310,-2.273966,-5.457631,0.999996,0.000232,-0.003976,0.007829,0.000551,0.007855,-0.004002,87.333092,0.007856,
1750,380,-1.344169,-12.541186,0.999996,0.000263,-0.003673,0.007607,0.000075,0.007608,-0.003673,89.618954,0.007609,
880,630,1.168022,-11.019331,0.999997,0.000199,-0.004487,0.008144,-0.000534,0.008166,-0.004510,-87.582326,0.008181,
1100,1410,0.285436,-3.386572,0.999997,0.000198,-0.003027,0.005781,0.001875,0.006163,-0.003409,78.465986,0.006175,
610,1090,3.042832,-7.147247,0.999998,0.000192,-0.003179,0.006509,-0.000079,0.006509,-0.003180,-89.532373,0.006510,
1550,1740,-0.580665,-1.718440,0.999998,0.000187,-0.002378,0.006561,0.000106,0.006563,-0.002379,89.321256,0.006645,
1850,1890,-1.014494,-1.200772,0.999997,0.000206,-0.003659,0.007762,0.000587,0.007792,-0.003689,87.067147,0.007795,
590,190,1.213686,-13.641161,0.999997,0.000203,-0.003576,0.007555,0.000340,0.007565,-0.003587,88.250454,0.007568,
1070,1150,1.102525,-5.501450,0.999994,0.000272,-0.003924,0.008958,0.004169,0.010190,-0.005156,73.542840,0.010190,
830,80,0.175828,-14.791514,0.999997,0.000176,-0.000639,0.005681,0.001422,0.005987,-0.000944,77.887426,0.006437,
1110,1220,0.480830,-4.448973,0.999996,0.000260,-0.004350,0.006102,0.003363,0.007090,-0.005339,73.619340,0.007387,
820,1240,1.945985,-5.835742,0.999997,0.000218,-0.004428,0.008580,-0.000834,0.008633,-0.004481,-86.347626,0.008635,
1350,600,-0.248859,-12.029790,0.999997,0.000194,-0.002682,0.005544,0.001474,0.005800,-0.002938,80.140337,0.005800,
1640,1660,-0.988865,-2.442484,0.999997,0.000196,-0.003398,0.007328,-0.000171,0.007331,-0.003401,-89.086292,0.007337,
860,1340,1.454280,-4.877946,0.999996,0.000228,-0.004875,0.008634,-0.000009,0.008634,-0.004875,-89.959714,0.008658,
1450,600,-0.569017,-11.697151,0.999997,0.000204,-0.003762,0.007039,0.001443,0.007228,-0.003951,82.517886,0.007239,
1560,1100,-2.070577,-6.948858,0.999996,0.000217,-0.003310,0.008636,0.000906,0.008704,-0.003378,85.685025,0.008777,
1020,1710,0.371393,-1.760315,0.999997,0.000193,-0.002143,0.005976,0.000199,0.005981,-0.002148,88.600092,0.006059,
1790,1660,-1.527118,-2.791334,0.999996,0.000224,-0.003711,0.007607,-0.000096,0.007608,-0.003711,-89.515554,0.007609,
1100,770,0.345138,-10.982740,0.999997,0.000221,-0.004289,0.006338,-0.003156,0.007205,-0.005156,-74.645583,0.007425,
1480,80,-0.078952,-14.825639,0.999998,0.000143,-0.000455,0.005017,-0.000632,0.005089,-0.000527,-83.496229,0.005596,
1340,260,-0.132389,-13.936296,0.999998,0.000168,-0.001370,0.005273,0.000030,0.005273,-0.001370,89.738064,0.005472,
800,1590,1.199728,-3.018285,0.999996,0.000239,-0.003739,0.007560,0.000285,0.007567,-0.003746,88.557497,0.007567,
750,1540,1.487941,-3.524478,0.999995,0.000244,-0.003920,0.007753,0.000192,0.007757,-0.003923,89.060256,0.007757,
950,1090,1.946888,-6.978646,0.999997,0.000210,-0.003350,0.009389,-0.000785,0.009437,-0.003398,-86.488787,0.009559,
1230,1860,0.002102,-0.825528,0.999998,0.000177,-0.000936,0.004974,-0.000009,0.004974,-0.000936,-89.909874,0.005286,
700,910,2.664583,-8.412734,0.999997,0.000225,-0.003497,0.007325,0.000579,0.007356,-0.003528,86.948221,0.007358,
1710,140,-0.493008,-14.380455,0.999996,0.000233,-0.001780,0.006694,-0.001589,0.006982,-0.002068,-79.721626,0.007172,
690,1710,1.346371,-2.370731,0.999997,0.000207,-0.003598,0.007562,-0.000005,0.007562,-0.003598,-89.972643,0.007565,
1180,580,0.096591,-12.279975,0.999998,0.000159,-0.002034,0.004860,-0.000641,0.004919,-0.002093,-84.730919,0.004937,
1650,280,-0.775395,-13.487979,0.999997,0.000205,-0.002811,0.007042,-0.000411,0.007059,-0.002828,-87.614369,0.007105,
1810,1310,-2.429382,-5.530311,0.999996,0.000213,-0.003811,0.007561,0.000456,0.007580,-0.003829,87.706923,0.007580,
1780,1130,-2.746223,-6.826576,0.999997,0.000219,-0.003400,0.007209,0.000540,0.007236,-0.003427,87.094491,0.007240,
1290,130,-0.032510,-14.608274,0.999998,0.000164,-0.000436,0.004820,-0.000101,0.004822,-0.000438,-88.900572,0.005333,
990,710,0.787965,-10.758704,0.999997,0.000221,-0.005018,0.008367,-0.001500,0.008533,-0.005184,-83.683555,0.008598,
1130,430,0.189075,-13.004791,0.999998,0.000196,-0.002039,0.005537,-0.000487,0.005568,-0.002070,-86.339942,0.005629,
1380,890,-0.949909,-9.946832,0.999996,0.000216,-0.003551,0.007332,0.003836,0.008548,-0.004767,72.408392,0.008567,
650,1350,2.335050,-5.225782,0.999997,0.000223,-0.003861,0.007619,-0.000357,0.007630,-0.003872,-88.221546,0.007630,
1740,240,-0.936021,-13.624598,0.999997,0.000182,-0.003238,0.007458,-0.000618,0.007493,-0.003273,-86.705903,0.007513,
810,1440,1.447360,-4.167431,0.999996,0.000214,-0.004337,0.008049,0.000139,0.008050,-0.004338,89.356747,0.008059,
1240,340,-0.014683,-13.544694,0.999998,0.000158,-0.001566,0.005281,0.000059,0.005281,-0.001566,89.506433,0.005425,
900,1760,0.574920,-1.603514,0.999997,0.000214,-0.002431,0.006574,-0.000243,0.006580,-0.002437,-88.454571,0.006653,
1850,1870,-1.108196,-1.359565,0.999997,0.000216,-0.003658,0.007672,0.000448,0.007690,-0.003675,87.738106,0.007692,
900,250,0.488977,-13.808516,0.999997,0.000196,-0.002093,0.006384,0.000443,0.006408,-0.002116,87.018990,0.006529,
1440,730,-0.652807,-10.764694,0.999996,0.000271,-0.005076,0.008195,0.001980,0.008484,-0.005365,81.692772,0.008583,
890,1800,0.521483,-1.355051,0.999997,0.000197,-0.002335,0.006456,-0.000398,0.006474,-0.002353,-87.411345,0.006554,
1520,1880,-0.276942,-0.822403,0.999998,0.000183,-0.001382,0.005699,0.000573,0.005745,-0.001428,85.400455,0.005982,
1700,750,-1.998944,-9.737430,0.999997,0.000214,-0.004286,0.008190,-0.000583,0.008217,-0.004313,-87.331779,0.008220,
1690,390,-1.150693,-12.605631,0.999998,0.000172,-0.003484,0.007446,0.000094,0.007446,-0.003485,89.507777,0.007451,
610,1070,3.055089,-7.277479,0.999998,0.000181,-0.003145,0.006520,-0.000116,0.006521,-0.003146,-89.311490,0.006522,
1640,1310,-1.715070,-5.224867,0.999996,0.000249,-0.004712,0.008575,0.000414,0.008588,-0.004725,88.217284,0.008602,
1560,70,-0.099930,-14.863015,0.999998,0.000154,-0.000452,0.005243,-0.000960,0.005400,-0.000609,-80.686872,0.005916,
1480,190,-0.241832,-14.239594,0.999998,0.000186,-0.001281,0.005611,-0.000457,0.005641,-0.001311,-86.221808,0.005905,
1030,720,0.603800,-10.883605,0.999997,0.000219,-0.004859,0.007864,-0.002071,0.008193,-0.005187,-80.982299,0.008289,
1270,1210,-0.224476,-3.691430,0.999993,0.000300,-0.004884,0.002142,-0.000032,0.002142,-0.004884,-89.740948,0.004896,
1380,1590,-0.300494,-2.378895,0.999997,0.000226,-0.002480,0.005892,-0.000749,0.005958,-0.002546,-84.928574,0.005979,
1070,480,0.338172,-12.625325,0.999996,0.000239,-0.002611,0.006023,-0.000839,0.006103,-0.002692,-84.502411,0.006117,
1080,1410,0.351447,-3.466373,0.999998,0.000169,-0.003386,0.006174,0.001945,0.006554,-0.003766,78.928221,0.006578,
950,520,0.731476,-12.068161,0.999997,0.000230,-0.003556,0.007126,-0.000820,0.007188,-0.003619,-85.636460,0.007188,
690,1690,1.393241,-2.520830,0.999996,0.000250,-0.003611,0.007574,-0.000001,0.007574,-0.003611,-89.994852,0.007577,
1610,410,-0.914159,-12.634203,0.999998,0.000154,-0.003291,0.007181,0.000217,0.007185,-0.003295,88.811120,0.007194,
1770,1330,-2.219042,-5.302024,0.999997,0.000210,-0.004004,0.007782,0.000497,0.007803,-0.004025,87.587497,0.007804,
1560,1080,-2.117862,-7.117889,0.999997,0.000218,-0.003015,0.008507,0.000747,0.008555,-0.003063,86.304151,0.008670,
940,1930,0.189073,-0.544807,0.999998,0.000185,-0.000931,0.005472,-0.000738,0.005556,-0.001015,-83.510520,0.005917,
890,1540,0.945230,-3.172855,0.999998,0.000184,-0.003769,0.007505,0.000599,0.007537,-0.003801,86.968183,0.007537,
1180,1980,0.015094,-0.251726,0.999998,0.000152,-0.000188,0.004590,-0.000127,0.004593,-0.000191,-88.476532,0.005197,
1510,120,-0.166681,-14.607247,0.999997,0.000184,-0.000923,0.005393,-0.000709,0.005472,-0.001001,-83.669641,0.005827,
1080,800,0.497943,-10.605098,0.999995,0.000270,-0.005138,0.007646,-0.003105,0.008360,-0.005852,-77.047030,0.008580,
1860,1130,-3.015233,-6.886259,0.999998,0.000147,-0.003263,0.006722,0.000325,0.006732,-0.003273,88.137415,0.006733,
1860,1190,-2.909774,-6.481621,0.999997,0.000186,-0.003345,0.006911,0.000344,0.006923,-0.003356,88.079428,0.006924,
1340,240,-0.122698,-14.039495,0.999998,0.000172,-0.001258,0.005257,-0.000036,0.005257,-0.001259,-89.682303,0.005490,
860,1320,1.509837,-5.053182,0.999996,0.000239,-0.004928,0.008712,-0.000130,0.008714,-0.004929,-89.455663,0.008739,
1690,860,-2.278599,-8.851992,0.999997,0.000239,-0.003891,0.008009,-0.000910,0.008078,-0.003960,-85.653970,0.008078,
950,1070,2.002432,-7.162616,0.999997,0.000212,-0.003008,0.009382,-0.000593,0.009410,-0.003036,-87.265112,0.009605,
740,460,1.414189,-11.995464,0.999997,0.000226,-0.003782,0.007606,-0.000177,0.007609,-0.003785,-89.112018,0.007609,
1850,1850,-1.190460,-1.509223,0.999997,0.000201,-0.003645,0.007618,0.000300,0.007626,-0.003653,88.473220,0.007628,
1700,1950,-0.334483,-0.501073,0.999997,0.000222,-0.001274,0.006348,0.001754,0.006733,-0.001658,77.640640,0.007016,
1520,1900,-0.240236,-0.708873,0.999997,0.000189,-0.001236,0.005652,0.000667,0.005716,-0.001300,84.515908,0.005993,
1480,60,-0.052158,-14.925752,0.999999,0.000130,-0.000314,0.004867,-0.000616,0.004939,-0.000386,-83.309910,0.005494,
950,580,0.794222,-11.632200,0.999997,0.000219,-0.004014,0.007515,-0.001022,0.007605,-0.004104,-84.973834,0.007613,
820,1220,2.011560,-6.008888,0.999996,0.000228,-0.004298,0.008463,-0.000908,0.008527,-0.004363,-85.950376,0.008528,
1790,1380,-2.164563,-4.951857,0.999997,0.000215,-0.003968,0.007743,0.000299,0.007751,-0.003976,88.539656,0.007752,
1750,1680,-1.333306,-2.540988,0.999997,0.000238,-0.003671,0.007581,-0.000045,0.007582,-0.003671,-89.769924,0.007583,
1100,1150,1.022138,-4.988966,0.999993,0.000000,-0.002084,0.006194,0.004874,0.008450,-0.004340,65.168058,0.008451,
1730,220,-0.838586,-13.788946,0.999998,0.000195,-0.002930,0.007308,-0.000886,0.007384,-0.003006,-85.089269,0.007427,
990,690,0.755817,-10.925642,0.999997,0.000209,-0.004788,0.008097,-0.001496,0.008268,-0.004960,-83.465462,0.008323,
1380,870,-0.798847,-10.081607,0.999993,0.000298,-0.004484,0.007494,0.003239,0.008313,-0.005304,75.796043,0.008418,
910,1800,0.481109,-1.334694,0.999997,0.000211,-0.001990,0.006346,-0.000417,0.006366,-0.002011,-87.140190,0.006509,
1010,680,0.649130,-11.095702,0.999996,0.000234,-0.004557,0.007712,-0.001717,0.007948,-0.004793,-82.181346,0.008004,
1100,1250,0.413639,-4.364663,0.999994,0.000306,-0.004625,0.006721,0.003382,0.007652,-0.005557,74.599412,0.007909,
1290,110,-0.023783,-14.704747,0.999998,0.000166,-0.000340,0.004743,-0.000139,0.004747,-0.000344,-88.429317,0.005294,
1720,670,-1.866300,-10.350683,0.999996,0.000237,-0.004238,0.008022,-0.000238,0.008026,-0.004243,-88.888552,0.008031,
1810,1290,-2.483756,-5.677829,0.999996,0.000216,-0.003782,0.007455,0.000511,0.007478,-0.003805,87.400915,0.007479,
1610,390,-0.881780,-12.777292,0.999998,0.000150,-0.003157,0.007077,0.000141,0.007079,-0.003159,89.208266,0.007093,
1550,1720,-0.610132,-1.851274,0.999996,0.000220,-0.002518,0.006707,0.000042,0.006707,-0.002518,89.737751,0.006776,
1390,250,-0.189240,-13.961798,0.999998,0.000167,-0.001310,0.005459,-0.000130,0.005461,-0.001312,-88.901571,0.005701,
580,1040,3.165936,-7.480266,0.999998,0.000153,-0.002903,0.006328,-0.000170,0.006331,-0.002906,-88.943258,0.006338,
690,1670,1.441529,-2.673269,0.999996,0.000223,-0.003673,0.007593,0.000059,0.007593,-0.003673,89.697458,0.007595,
1900,1090,-3.186719,-7.179673,0.999997,0.000000,-0.002982,0.005983,-0.000084,0.005984,-0.002983,-89.466318,0.005984,
1640,1640,-1.025096,-2.591251,0.999997,0.000196,-0.003501,0.007395,-0.000218,0.007399,-0.003505,-88.853001,0.007403,
1030,1970,0.069259,-0.314223,0.999998,0.000160,-0.000449,0.004890,-0.000447,0.004927,-0.000486,-85.251611,0.005431,
1560,1060,-2.156620,-7.288553,0.999997,0.000211,-0.002807,0.008454,0.000503,0.008477,-0.002830,87.450194,0.008631,
680,1930,0.603667,-0.731045,0.999997,0.000244,-0.002641,0.007450,-0.001906,0.007798,-0.002989,-79.652444,0.007869,
1180,1940,0.023429,-0.439377,0.999998,0.000178,-0.000377,0.004783,-0.000114,0.004786,-0.000379,-88.739534,0.005320,
1430,1630,-0.403814,-2.229273,0.999997,0.000215,-0.002415,0.006108,-0.000493,0.006136,-0.002444,-86.701424,0.006179,
1080,780,0.450707,-10.755871,0.999996,0.000251,-0.004888,0.007304,-0.003040,0.008020,-0.005604,-76.747990,0.008228,
810,900,2.244171,-8.560608,0.999998,0.000219,-0.003774,0.008122,0.000992,0.008204,-0.003857,85.263565,0.008209,
860,1300,1.566758,-5.229065,0.999995,0.000235,-0.004945,0.008836,-0.000295,0.008843,-0.004952,-88.772375,0.008864,
1840,1190,-2.841454,-6.454228,0.999997,0.000188,-0.003467,0.007077,0.000490,0.007100,-0.003490,87.343031,0.007100,
1340,220,-0.108662,-14.146450,0.999998,0.000173,-0.001150,0.005195,-0.000031,0.005195,-0.001150,-89.721765,0.005458,
910,160,0.286741,-14.366155,0.999998,0.000174,-0.001213,0.005851,0.000812,0.005943,-0.001305,83.529068,0.006247,
590,1160,3.005691,-6.701994,0.999998,0.000138,-0.003182,0.006540,-0.000185,0.006543,-0.003186,-88.910159,0.006544,
1840,390,-1.701272,-12.242139,0.999997,0.000205,-0.003726,0.007546,0.000096,0.007546,-0.003727,89.514021,0.007547,
1130,410,0.184452,-13.118691,0.999998,0.000186,-0.002001,0.005510,-0.000437,0.005535,-0.002026,-86.683728,0.005601,
880,190,0.403019,-14.164882,0.999997,0.000221,-0.001998,0.006171,0.000717,0.006234,-0.002060,85.024325,0.006352,
740,440,1.374580,-12.147331,0.999997,0.000200,-0.003727,0.007565,-0.000162,0.007568,-0.003730,-89.176192,0.007568,
950,1050,2.039189,-7.355522,0.999997,0.000224,-0.002802,0.009363,-0.000343,0.009373,-0.002812,-88.384482,0.009620,
1850,1830,-1.268209,-1.665064,0.999998,0.000197,-0.003661,0.007586,0.000256,0.007592,-0.003667,88.698655,0.007593,
1240,320,-0.013421,-13.652594,0.999998,0.000171,-0.001481,0.005283,0.000034,0.005283,-0.001482,89.714188,0.005450,
1490,1380,-0.813934,-4.146691,0.999996,0.000227,-0.004732,0.008096,-0.001318,0.008230,-0.004866,-84.193599,0.008276,
990,670,0.728452,-11.081008,0.999997,0.000212,-0.004610,0.007865,-0.001475,0.008037,-0.004782,-83.348332,0.008086,
1650,1500,-1.314158,-3.681276,0.999997,0.000209,-0.004074,0.007858,-0.000321,0.007867,-0.004082,-88.461012,0.007869,
950,560,0.773329,-11.781400,0.999996,0.000232,-0.003799,0.007369,-0.000938,0.007447,-0.003877,-85.229879,0.007450,
580,690,2.557738,-9.854348,0.999996,0.000240,-0.004510,0.007412,0.000057,0.007412,-0.004510,89.725628,0.007470,
690,1650,1.486396,-2.825498,0.999996,0.000233,-0.003727,0.007603,0.000104,0.007604,-0.003728,89.472464,0.007605,
570,1950,0.842627,-0.882978,0.999968,0.000656,-0.003761,0.008721,-0.001624,0.008929,-0.003968,-82.706588,0.008947,
960,1290,1.070911,-4.986662,0.999995,0.000277,-0.005501,0.009230,0.000724,0.009266,-0.005537,87.193333,0.009324,
1290,90,-0.019646,-14.798115,0.999998,0.000172,-0.000258,0.004635,-0.000125,0.004638,-0.000261,-88.539443,0.005211,
1010,660,0.626551,-11.248299,0.999995,0.000260,-0.004300,0.007536,-0.001672,0.007768,-0.004532,-82.113934,0.007803,
1530,410,-0.660376,-12.800566,0.999996,0.000236,-0.002902,0.006793,0.000344,0.006805,-0.002914,87.969965,0.006829,
1710,220,-0.784613,-13.817170,0.999997,0.000198,-0.002719,0.007181,-0.000942,0.007270,-0.002807,-84.611089,0.007333,
1560,1040,-2.173206,-7.455639,0.999997,0.000216,-0.002688,0.008351,0.000241,0.008356,-0.002693,88.748746,0.008530,
1900,1080,-3.190952,-7.241481,0.999998,0.000000,-0.002986,0.005922,-0.000012,0.005922,-0.002986,-89.920657,0.005922,
660,1930,0.654731,-0.757518,0.999996,0.000242,-0.002602,0.007743,-0.001992,0.008114,-0.002972,-79.471375,0.008210,
1390,230,-0.172412,-14.072839,0.999998,0.000160,-0.001193,0.005383,-0.000173,0.005387,-0.001198,-88.493460,0.005657,
1030,1950,0.087895,-0.411278,0.999998,0.000177,-0.000603,0.005036,-0.000466,0.005074,-0.000641,-85.302695,0.005526,
1750,1760,-1.134641,-1.935735,0.999997,0.000227,-0.003571,0.007509,0.000221,0.007513,-0.003576,88.856481,0.007516,
1030,700,0.579331,-11.038225,0.999995,0.000254,-0.004601,0.007621,-0.002028,0.007948,-0.004928,-80.822037,0.008024,
1610,370,-0.848964,-12.916866,0.999998,0.000158,-0.003033,0.007023,0.000056,0.007023,-0.003033,89.680362,0.007045,
840,1610,1.018120,-2.774501,0.999997,0.000210,-0.003595,0.007405,0.000323,0.007415,-0.003605,88.319258,0.007416,
1640,1620,-1.062217,-2.738772,0.999997,0.000198,-0.003550,0.007412,-0.000255,0.007418,-0.003556,-88.670432,0.007421,
780,780,2.013791,-9.519151,0.999998,0.000164,-0.004335,0.008304,0.000713,0.008344,-0.004375,86.780299,0.008348,
1080,760,0.416507,-10.903303,0.999996,0.000249,-0.004627,0.007078,-0.002918,0.007765,-0.005314,-76.749398,0.007939,
1430,720,-0.589315,-10.900040,0.999996,0.000245,-0.004809,0.007801,0.002104,0.008143,-0.005151,80.774662,0.008238,
1340,200,-0.100476,-14.249454,0.999998,0.000162,-0.001025,0.005142,-0.000081,0.005143,-0.001026,-89.247534,0.005444,
810,1220,2.051208,-6.019984,0.999997,0.000231,-0.004238,0.008363,-0.000909,0.008428,-0.004304,-85.893402,0.008429,
860,1720,0.761523,-1.944533,0.999997,0.000191,-0.002898,0.007013,-0.000091,0.007014,-0.002899,-89.474048,0.007049,
1180,1400,0.089121,-3.183390,0.999998,0.000181,-0.001972,0.004237,0.001142,0.004440,-0.002175,79.898427,0.004440,
770,240,0.798827,-13.698712,0.999998,0.000172,-0.002925,0.007207,0.000711,0.007256,-0.002974,86.003500,0.007295,
1430,1610,-0.416441,-2.350600,0.999997,0.000198,-0.002503,0.006183,-0.000579,0.006221,-0.002541,-86.205025,0.006256,
1130,390,0.176391,-13.227956,0.999998,0.000169,-0.001986,0.005528,-0.000398,0.005549,-0.002007,-86.973093,0.005620,
1840,370,-1.654108,-12.394335,0.999995,0.000258,-0.003699,0.007562,0.000079,0.007563,-0.003700,89.599842,0.007563,
910,1100,2.047544,-6.940571,0.999997,0.000225,-0.003307,0.008734,-0.000934,0.008806,-0.003379,-85.589617,0.008885,
580,1160,3.038307,-6.713746,0.999998,0.000151,-0.003033,0.006459,-0.000125,0.006461,-0.003034,-89.246208,0.006465,
1850,1810,-1.336185,-1.813096,0.999997,0.000210,-0.003672,0.007492,0.000165,0.007494,-0.003674,89.155137,0.007494,
820,1200,2.072650,-6.175392,0.999996,0.000237,-0.004171,0.008399,-0.000985,0.008476,-0.004248,-85.544525,0.008476,
730,940,2.611407,-8.206251,0.999996,0.000214,-0.003413,0.007437,0.000641,0.007474,-0.003451,86.632381,0.007482,
950,1030,2.056911,-7.536052,0.999998,0.000197,-0.002746,0.009106,-0.000046,0.009106,-0.002746,-89.777416,0.009342,
1260,1210,-0.176160,-3.645310,0.999995,0.000271,-0.005429,0.002279,0.000128,0.002281,-0.005431,89.051552,0.005455,
1100,1140,1.090085,-5.052617,0.999990,0.000000,-0.002145,0.006874,0.005704,0.009636,-0.004907,64.164215,0.009636,
1630,1700,-0.877195,-2.131816,0.999997,0.000200,-0.003008,0.007119,0.000096,0.007120,-0.003009,89.459741,0.007148,
1090,320,0.215464,-13.584742,0.999998,0.000176,-0.001587,0.005656,-0.000084,0.005657,-0.001588,-89.333157,0.005835,
740,420,1.332403,-12.299032,0.999998,0.000198,-0.003705,0.007594,-0.000130,0.007595,-0.003707,-89.339187,0.007596,
1240,300,-0.010544,-13.757072,0.999998,0.000175,-0.001411,0.005240,0.000033,0.005240,-0.001411,89.719041,0.005423,
1470,1990,-0.054797,-0.217823,0.999998,0.000178,-0.000229,0.004911,0.000603,0.004981,-0.000299,83.396888,0.005587,
590,690,2.521255,-9.877994,0.999997,0.000231,-0.003862,0.007518,0.000147,0.007520,-0.003864,89.258076,0.007521,
1470,1380,-0.722456,-4.062803,0.999997,0.000210,-0.004626,0.007881,-0.001531,0.008066,-0.004810,-83.122783,0.008116,
690,1630,1.528577,-2.979126,0.999997,0.000210,-0.003757,0.007574,0.000131,0.007575,-0.003759,89.335282,0.007576,
1640,1910,-0.377964,-0.715422,0.999996,0.000230,-0.001468,0.006183,0.001213,0.006371,-0.001656,81.203882,0.006611,
710,560,1.742013,-11.148100,0.999997,0.000194,-0.003976,0.007756,-0.000066,0.007756,-0.003977,-89.679781,0.007757,
1530,390,-0.637482,-12.934518,0.999996,0.000227,-0.002757,0.006638,0.000265,0.006645,-0.002764,88.388549,0.006677,
1290,70,-0.012508,-14.891790,0.999998,0.000159,-0.000168,0.004592,-0.000151,0.004597,-0.000173,-88.179309,0.005211,
1810,1710,-1.480752,-2.459998,0.999996,0.000252,-0.003722,0.007571,-0.000010,0.007571,-0.003722,-89.948097,0.007571,
570,1040,3.192636,-7.480832,0.999964,0.000688,-0.002843,0.006214,-0.000179,0.006217,-0.002847,-88.868812,0.006225,
840,1790,0.671358,-1.489715,0.999997,0.000182,-0.002478,0.006781,-0.000490,0.006807,-0.002504,-86.980548,0.006886,
1390,210,-0.156556,-14.178806,0.999998,0.000177,-0.001081,0.005301,-0.000215,0.005308,-0.001088,-88.072499,0.005607,
1900,1070,-3.197807,-7.300425,0.999998,0.000000,-0.003000,0.005926,0.000060,0.005927,-0.003001,89.618050,0.005927,
1400,610,-0.399775,-11.806318,0.999996,0.000224,-0.003322,0.006397,0.001676,0.006678,-0.003603,80.487916,0.006685,
1610,350,-0.810754,-13.058254,0.999998,0.000153,-0.002911,0.007035,-0.000052,0.007036,-0.002911,-89.698597,0.007070,
780,760,1.954586,-9.685217,0.999997,0.000195,-0.004379,0.008268,0.000621,0.008298,-0.004410,87.196869,0.008304,
1240,1930,-0.004735,-0.485295,0.999999,0.000123,-0.000524,0.004765,0.000002,0.004765,-0.000524,89.977143,0.005226,
1650,1480,-1.353576,-3.840264,0.999997,0.000192,-0.004165,0.007911,-0.000272,0.007917,-0.004171,-88.709306,0.007921,
1180,1380,0.087055,-3.267500,0.999998,0.000189,-0.001947,0.003988,0.001285,0.004255,-0.002213,78.292810,0.004256,
750,260,0.915787,-13.518427,0.999998,0.000145,-0.002962,0.007347,0.000618,0.007384,-0.002999,86.581934,0.007427,
830,400,0.973960,-12.656272,0.999997,0.000189,-0.003388,0.007299,-0.000183,0.007302,-0.003391,-89.017806,0.007308,
1690,140,-0.454845,-14.396937,0.999996,0.000247,-0.001926,0.006529,-0.001402,0.006755,-0.002153,-80.826684,0.006902,
1020,810,0.870135,-10.038284,0.999997,0.000202,-0.005837,0.009335,-0.001593,0.009500,-0.006002,-84.070151,0.009610,
1430,1590,-0.426008,-2.474480,0.999997,0.000204,-0.002647,0.006261,-0.000695,0.006315,-0.002701,-85.562671,0.006337,
1080,740,0.394962,-11.037712,0.999996,0.000239,-0.004358,0.006816,-0.002811,0.007483,-0.005025,-76.647271,0.007629,
860,1740,0.722473,-1.802486,0.999997,0.000207,-0.002851,0.006887,-0.000123,0.006888,-0.002853,-89.276490,0.006922,
1030,1930,0.115335,-0.516161,0.999998,0.000166,-0.000727,0.005112,-0.000428,0.005143,-0.000758,-85.830492,0.005553,
790,1220,2.135730,-6.044493,0.999997,0.000192,-0.004139,0.008208,-0.000918,0.008275,-0.004207,-85.768634,0.008276,
990,650,0.704845,-11.242418,0.999996,0.000233,-0.004418,0.007678,-0.001446,0.007848,-0.004588,-83.276668,0.007886,
1060,1290,0.525215,-4.403947,0.999995,0.000248,-0.005045,0.007842,0.002677,0.008376,-0.005579,78.721545,0.008529,
1340,180,-0.085852,-14.353481,0.999998,0.000157,-0.000929,0.005094,-0.000112,0.005096,-0.000931,-88.931367,0.005427,
1240,280,-0.011753,-13.861714,0.999998,0.000153,-0.001333,0.005206,0.000035,0.005207,-0.001333,89.695880,0.005409,
1740,1070,-2.689180,-7.249362,0.999997,0.000200,-0.003231,0.007255,0.000253,0.007261,-0.003237,88.619930,0.007275,
570,1160,3.066804,-6.727462,0.999993,0.000306,-0.002960,0.006373,-0.000093,0.006374,-0.002961,-89.432151,0.006380,
820,1610,1.091400,-2.820659,0.999998,0.000204,-0.003601,0.007435,0.000263,0.007441,-0.003608,88.634981,0.007443,
1100,920,1.135441,-10.010472,0.999993,0.000000,-0.001525,0.007521,-0.005516,0.010131,-0.004136,-64.674837,0.010188,
1520,690,-0.985254,-10.728515,0.999998,0.000177,-0.004943,0.008510,0.000942,0.008576,-0.005008,86.016016,0.008616,
820,1180,2.136500,-6.344335,0.999996,0.000230,-0.004014,0.008346,-0.001007,0.008427,-0.004095,-85.372256,0.008428,
1130,370,0.171434,-13.338875,0.999998,0.000178,-0.001921,0.005585,-0.000318,0.005598,-0.001934,-87.576515,0.005687,
890,960,2.122880,-8.120781,0.999997,0.000205,-0.003218,0.008430,0.000835,0.008490,-0.003278,85.921738,0.008563,
1480,750,-0.904204,-10.376597,0.999996,0.000290,-0.005455,0.008942,0.001251,0.009050,-0.005563,85.071502,0.009129,
1470,440,-0.520132,-12.720303,0.999997,0.000215,-0.002895,0.006565,0.000639,0.006608,-0.002938,86.155774,0.006621,
740,400,1.290493,-12.451258,0.999997,0.000221,-0.003682,0.007620,-0.000087,0.007621,-0.003683,-89.560526,0.007622,
950,1010,2.043012,-7.716776,0.999998,0.000169,-0.002830,0.009277,0.000257,0.009283,-0.002835,88.784996,0.009514,
1850,1790,-1.405401,-1.966240,0.999997,0.000223,-0.003664,0.007489,0.000120,0.007490,-0.003665,89.385462,0.007491,
1330,1380,-0.194212,-3.420116,0.999997,0.000199,-0.002702,0.004979,-0.002007,0.005472,-0.003195,-76.203372,0.005497,
1640,1890,-0.438015,-0.843230,0.999997,0.000196,-0.001713,0.006392,0.001145,0.006551,-0.001871,82.114682,0.006748,
1610,330,-0.772686,-13.199668,0.999998,0.000188,-0.002856,0.007043,-0.000111,0.007044,-0.002857,-89.359490,0.007086,
1390,190,-0.138248,-14.285149,0.999998,0.000177,-0.000951,0.005259,-0.000250,0.005269,-0.000961,-87.697889,0.005612,
700,100,0.422670,-14.606674,0.999996,0.000216,-0.002416,0.006720,0.001797,0.007061,-0.002757,79.263789,0.007117,
1670,1640,-1.131080,-2.658571,0.999997,0.000209,-0.003528,0.007465,-0.000140,0.007466,-0.003530,-89.272002,0.007470,
1650,580,-1.363336,-11.239365,0.999996,0.000221,-0.004190,0.007927,0.000259,0.007932,-0.004195,88.778039,0.007937,
1900,1060,-3.205768,-7.356781,0.999998,0.000000,-0.003014,0.005957,0.000158,0.005960,-0.003017,88.989527,0.005960,
1250,1210,-0.120649,-3.614136,0.999993,0.000312,-0.006097,0.002371,0.000101,0.002373,-0.006099,89.318404,0.006148,
1530,370,-0.613426,-13.065301,0.999997,0.000217,-0.002616,0.006501,0.000147,0.006503,-0.002618,89.076312,0.006544,
1400,590,-0.392012,-11.935912,0.999996,0.000216,-0.003194,0.006257,0.001519,0.006495,-0.003432,81.088400,0.006499,
1470,1970,-0.083486,-0.318973,0.999998,0.000190,-0.000387,0.005023,0.000623,0.005094,-0.000458,83.516594,0.005636,
1610,1700,-0.820817,-2.097329,0.999998,0.000165,-0.002955,0.006983,0.000043,0.006984,-0.002955,89.753527,0.007011,
1810,1900,-0.827042,-0.997807,0.999997,0.000208,-0.003008,0.007732,0.001402,0.007912,-0.003188,82.681628,0.007962,
1430,1570,-0.437445,-2.599513,0.999997,0.000210,-0.002821,0.006313,-0.000842,0.006390,-0.002897,-84.779953,0.006400,
1810,1730,-1.430597,-2.308491,0.999997,0.000230,-0.003667,0.007562,0.000057,0.007562,-0.003667,89.709183,0.007563,
1800,1010,-2.899770,-7.683853,0.999998,0.000146,-0.003231,0.007000,-0.000205,0.007004,-0.003235,-88.852009,0.007011,
1280,1980,-0.012551,-0.251806,0.999998,0.000173,-0.000246,0.004588,0.000115,0.004591,-0.000249,88.639580,0.005163,
1180,1360,0.084540,-3.346192,0.999998,0.000189,-0.001914,0.003770,0.001415,0.004103,-0.002247,76.770180,0.004109,
750,240,0.856122,-13.667823,0.999998,0.000155,-0.002846,0.007327,0.000793,0.007389,-0.002907,85.568079,0.007445,
1260,190,-0.025104,-14.316130,0.999998,0.000176,-0.000839,0.004960,-0.000021,0.004961,-0.000839,-89.793473,0.005310,
1630,480,-1.102069,-12.067547,0.999998,0.000161,-0.003702,0.007513,0.000350,0.007524,-0.003713,88.211813,0.007524,
820,1790,0.721305,-1.517647,0.999997,0.000188,-0.002632,0.006931,-0.000514,0.006959,-0.002660,-86.931854,0.007023,
1030,1910,0.133585,-0.617460,0.999998,0.000182,-0.000866,0.005201,-0.000406,0.005228,-0.000893,-86.185156,0.005593,
1340,160,-0.077510,-14.454547,0.999998,0.000142,-0.000806,0.005019,-0.000172,0.005024,-0.000811,-88.309853,0.005394,
1390,170,-0.120645,-14.389323,0.999998,0.000176,-0.000811,0.005189,-0.000290,0.005203,-0.000825,-87.237043,0.005593,
780,740,1.896160,-9.849909,0.999997,0.000207,-0.004406,0.008294,0.000521,0.008315,-0.004427,87.652944,0.008321,
860,1760,0.686415,-1.668717,0.999997,0.000218,-0.002768,0.006803,-0.000231,0.006809,-0.002774,-88.619367,0.006847,
580,820,2.883228,-8.912611,0.999997,0.000206,-0.003456,0.006915,0.000147,0.006917,-0.003458,89.190679,0.006917,
1080,720,0.378893,-11.174463,0.999996,0.000240,-0.004089,0.006621,-0.002614,0.007226,-0.004693,-76.988363,0.007332,
1780,1190,-2.627638,-6.387922,0.999996,0.000248,-0.003642,0.007440,0.000714,0.007486,-0.003688,86.329170,0.007486,
1470,420,-0.502039,-12.851975,0.999997,0.000224,-0.002797,0.006451,0.000548,0.006483,-0.002829,86.623403,0.006500,
1780,1930,-0.597069,-0.727664,0.999995,0.000251,-0.002650,0.007424,0.001837,0.007749,-0.002974,79.982178,0.007818,
860,1610,0.946147,-2.727007,0.999997,0.000218,-0.003494,0.007326,0.000371,0.007339,-0.003507,88.038058,0.007341,
1880,990,-3.141079,-7.800562,0.999997,0.000225,-0.003052,0.006237,-0.000104,0.006238,-0.003053,-89.359112,0.006238,
820,1160,2.193337,-6.510469,0.999997,0.000213,-0.003824,0.008230,-0.000987,0.008311,-0.003904,-85.350383,0.008316,
990,630,0.682675,-11.395157,0.999996,0.000227,-0.004191,0.007448,-0.001388,0.007612,-0.004354,-83.292749,0.007638,
1550,1260,-1.424755,-5.447320,0.999996,0.000244,-0.005313,0.009331,0.000201,0.009334,-0.005316,89.214984,0.009364,
740,1410,1.816268,-4.574320,0.999996,0.000231,-0.004169,0.008016,-0.000132,0.008017,-0.004171,-89.377662,0.008019,
740,380,1.246304,-12.606704,0.999997,0.000221,-0.003620,0.007566,-0.000026,0.007566,-0.003620,-89.866843,0.007569,
1100,910,1.062046,-10.100935,0.999993,0.000000,-0.001898,0.006895,-0.004909,0.009088,-0.004092,-65.924155,0.009103,
1180,840,0.249050,-11.359417,0.999995,0.000272,-0.004035,0.002323,-0.000690,0.002397,-0.004109,-83.878324,0.004128,
790,780,1.970142,-9.534045,0.999998,0.000161,-0.004387,0.008350,0.000708,0.008390,-0.004426,86.826448,0.008394,
1850,1770,-1.466990,-2.112360,0.999997,0.000230,-0.003677,0.007413,0.000055,0.007413,-0.003677,89.717178,0.007413,
1130,1200,0.522670,-4.307042,0.999992,0.000384,-0.003030,0.003957,0.002302,0.004647,-0.003720,73.309040,0.004919,
840,1990,0.123246,-0.239483,0.999998,0.000154,-0.000443,0.005521,-0.001332,0.005805,-0.000727,-77.961752,0.006325,
700,120,0.526603,-14.453413,0.999995,0.000240,-0.002709,0.007167,0.001730,0.007461,-0.003003,80.345682,0.007508,
1610,310,-0.733119,-13.340259,0.999998,0.000196,-0.002804,0.006862,-0.000169,0.006865,-0.002807,-88.999804,0.006903,
1500,690,-0.884978,-10.808531,0.999998,0.000188,-0.004916,0.008391,0.001178,0.008495,-0.005019,84.978084,0.008541,
1530,350,-0.585642,-13.196048,0.999998,0.000191,-0.002486,0.006597,0.000030,0.006597,-0.002486,89.813830,0.006664,
1240,260,-0.009854,-13.965157,0.999998,0.000151,-0.001241,0.005152,0.000042,0.005152,-0.001241,89.624623,0.005378,
930,960,1.997293,-8.158135,0.999997,0.000215,-0.003324,0.009026,0.000898,0.009091,-0.003388,85.864321,0.009189,
1470,1700,-0.438146,-1.854238,0.999997,0.000191,-0.002247,0.006168,-0.000183,0.006172,-0.002251,-88.758008,0.006247,
1470,1950,-0.109274,-0.419267,0.999998,0.000209,-0.000505,0.005143,0.000584,0.005202,-0.000565,84.154160,0.005709,
1430,1550,-0.447215,-2.727508,0.999997,0.000217,-0.002974,0.006391,-0.000988,0.006494,-0.003077,-84.040885,0.006497,
580,1890,1.134632,-1.322368,0.999997,0.000183,-0.003554,0.007703,-0.000470,0.007723,-0.003573,-87.613411,0.007730,
1900,1050,-3.209893,-7.418868,0.999998,0.000000,-0.003040,0.006120,0.000197,0.006124,-0.003044,88.766501,0.006124,
1280,1960,-0.017843,-0.344310,0.999998,0.000164,-0.000334,0.004661,0.000092,0.004663,-0.000335,88.946961,0.005202,
830,600,1.330841,-11.122573,0.999995,0.000239,-0.004319,0.008036,-0.000304,0.008044,-0.004327,-88.593692,0.008052,
1810,1750,-1.379190,-2.157172,0.999997,0.000207,-0.003591,0.007554,0.000151,0.007556,-0.003593,89.225357,0.007559,
950,990,2.015542,-7.907313,0.999998,0.000179,-0.002967,0.009369,0.000536,0.009392,-0.002990,87.516774,0.009597,
1600,350,-0.781487,-13.074588,0.999998,0.000177,-0.002980,0.006964,-0.000006,0.006964,-0.002980,-89.965410,0.006988,
1650,420,-1.069183,-12.468030,0.999997,0.000198,-0.003517,0.007390,0.000189,0.007394,-0.003520,89.007694,0.007396,
1180,1340,0.083687,-3.421804,0.999998,0.000193,-0.001919,0.003534,0.001578,0.003957,-0.002343,74.968261,0.003980,
1890,1190,-3.010152,-6.533488,0.999998,0.000171,-0.003306,0.006604,0.000116,0.006605,-0.003308,89.328859,0.006605,
1390,150,-0.103309,-14.493781,0.999998,0.000161,-0.000670,0.005086,-0.000310,0.005103,-0.000687,-86.921125,0.005538,
1420,1790,-0.248553,-1.262582,0.999998,0.000154,-0.001741,0.005635,0.000026,0.005635,-0.001741,89.801903,0.005770,
860,1780,0.641609,-1.529486,0.999997,0.000217,-0.002652,0.006776,-0.000350,0.006789,-0.002665,-87.879643,0.006841,
1080,700,0.364074,-11.306309,0.999995,0.000248,-0.003841,0.006469,-0.002414,0.007007,-0.004378,-77.454400,0.007079,
1070,320,0.247587,-13.569374,0.999998,0.000171,-0.001737,0.005734,-0.000095,0.005735,-0.001738,-89.271306,0.005882,
820,1140,2.247585,-6.674951,0.999996,0.000230,-0.003625,0.008160,-0.000992,0.008243,-0.003708,-85.223202,0.008257,
1780,1010,-2.834792,-7.685971,0.999998,0.000164,-0.003240,0.007100,-0.000212,0.007104,-0.003245,-88.826973,0.007113,
1730,800,-2.267612,-9.287382,0.999996,0.000250,-0.004034,0.007886,-0.000762,0.007935,-0.004082,-86.358627,0.007936,
1880,1070,-3.138212,-7.288578,0.999998,0.000179,-0.003071,0.006211,0.000081,0.006212,-0.003072,89.498893,0.006212,
1700,90,-0.280546,-14.709402,0.999997,0.000191,-0.001096,0.006030,-0.001695,0.006413,-0.001479,-77.278571,0.006716,
720,1410,1.900005,-4.617715,0.999998,0.000168,-0.004099,0.007925,-0.000166,0.007928,-0.004102,-89.211168,0.007929,
740,360,1.200066,-12.758742,0.999997,0.000195,-0.003547,0.007487,0.000051,0.007487,-0.003547,89.737341,0.007490,
700,140,0.619046,-14.316936,0.999996,0.000218,-0.002939,0.007206,0.001460,0.007411,-0.003145,81.973574,0.007440,
1610,290,-0.694290,-13.475791,0.999997,0.000209,-0.002728,0.006890,-0.000303,0.006900,-0.002737,-88.197996,0.006949,
770,780,2.055898,-9.504027,0.999998,0.000152,-0.004273,0.008252,0.000716,0.008293,-0.004314,86.740677,0.008295,
1130,790,0.254291,-11.117519,0.999997,0.000222,-0.003656,0.004991,-0.003315,0.006115,-0.004780,-71.260551,0.006431,
1850,1750,-1.523654,-2.265020,0.999997,0.000230,-0.003678,0.007519,0.000024,0.007519,-0.003678,89.878522,0.007519,
1300,770,-0.129821,-11.437456,0.999998,0.000193,-0.002518,0.003441,0.002563,0.004392,-0.003468,69.649625,0.004631,
990,610,0.667049,-11.540725,0.999997,0.000231,-0.003970,0.007354,-0.001300,0.007501,-0.004117,-83.532112,0.007513,
1530,1260,-1.316310,-5.380753,0.999996,0.000225,-0.005485,0.009475,-0.000036,0.009475,-0.005485,-89.863274,0.009514,
950,1800,0.401405,-1.292074,0.999996,0.000240,-0.002040,0.006100,-0.000267,0.006109,-0.002049,-88.126414,0.006218,
1900,1040,-3.217418,-7.480031,0.999998,0.000000,-0.003054,0.006285,0.000158,0.006288,-0.003057,89.033778,0.006289,
1430,1530,-0.458353,-2.857269,0.999997,0.000196,-0.003079,0.006479,-0.001085,0.006600,-0.003201,-83.606864,0.006601,
1030,1890,0.161090,-0.725093,0.999998,0.000202,-0.000991,0.005293,-0.000387,0.005316,-0.001015,-86.490247,0.005645,
1600,330,-0.743295,-13.216172,0.999997,0.000206,-0.002886,0.006996,-0.000088,0.006997,-0.002887,-89.490530,0.007032,
1530,330,-0.553309,-13.331237,0.999998,0.000205,-0.002386,0.006631,-0.000041,0.006631,-0.002386,-89.736351,0.006718,
1390,130,-0.085521,-14.592080,0.999998,0.000152,-0.000570,0.004967,-0.000336,0.004988,-0.000591,-86.535996,0.005450,
1810,360,-1.517952,-12.545615,0.999996,0.000217,-0.003764,0.007616,0.000012,0.007616,-0.003764,89.938179,0.007617,
580,1880,1.181946,-1.399282,0.999997,0.000195,-0.003558,0.007664,-0.000401,0.007678,-0.003573,-87.956697,0.007685,
1670,320,-0.933202,-13.163181,0.999998,0.000154,-0.003291,0.007298,-0.000117,0.007299,-0.003292,-89.365345,0.007311,
1880,1190,-2.977134,-6.515531,0.999997,0.000177,-0.003308,0.006718,0.000173,0.006721,-0.003311,89.014205,0.006721,
1450,1060,-1.809098,-7.139116,0.999995,0.000252,-0.004410,0.012616,-0.000371,0.012625,-0.004418,-88.752699,0.012813,
1180,1320,0.081698,-3.489511,0.999998,0.000180,-0.001964,0.003278,0.001772,0.003821,-0.002507,72.966107,0.003883,
950,970,1.962342,-8.095321,0.999997,0.000199,-0.003295,0.009397,0.000770,0.009444,-0.003342,86.541597,0.009577,
1420,1770,-0.269569,-1.378991,0.999997,0.000211,-0.001867,0.005767,-0.000029,0.005767,-0.001867,-89.779199,0.005885,
1280,1940,-0.022015,-0.439038,0.999998,0.000164,-0.000437,0.004783,0.000117,0.004785,-0.000439,88.716287,0.005290,
780,720,1.840960,-10.017606,0.999997,0.000226,-0.004424,0.008258,0.000424,0.008272,-0.004439,88.087125,0.008279,
820,1120,2.300316,-6.836128,0.999997,0.000220,-0.003432,0.007945,-0.000838,0.008006,-0.003494,-85.810092,0.008028,
1100,30,0.005590,-15.069951,0.999998,0.000000,0.000006,0.004498,0.000308,0.004519,-0.000015,86.098001,0.005210,
690,420,1.518221,-12.180485,0.999997,0.000206,-0.003725,0.007598,-0.000114,0.007599,-0.003726,-89.425314,0.007600,
1610,710,-1.474189,-10.267349,0.999996,0.000246,-0.004820,0.008594,-0.000007,0.008594,-0.004820,-89.969263,0.008615,
1690,1380,-1.751206,-4.746041,0.999997,0.000217,-0.004351,0.008178,0.000201,0.008181,-0.004354,89.082838,0.008187,
870,290,0.646325,-13.503649,0.999997,0.000196,-0.002781,0.006731,0.000221,0.006736,-0.002786,88.671129,0.006770,
710,700,2.083305,-10.044670,0.999998,0.000178,-0.004083,0.007857,0.000382,0.007870,-0.004095,88.169890,0.007872,
700,160,0.713040,-14.163327,0.999997,0.000202,-0.003112,0.007401,0.001236,0.007544,-0.003255,83.383899,0.007568,
790,900,2.318493,-8.546911,0.999997,0.000268,-0.003713,0.008020,0.000973,0.008101,-0.003793,85.291214,0.008106,
1160,1210,0.350909,-3.938397,0.999996,0.000223,-0.003534,0.002766,0.001197,0.002986,-0.003754,79.594204,0.003967,
1860,1070,-3.075393,-7.280053,0.999998,0.000171,-0.003134,0.006452,0.000110,0.006453,-0.003135,89.339872,0.006454,
740,340,1.151284,-12.908109,0.999997,0.000185,-0.003470,0.007457,0.000109,0.007458,-0.003471,89.428011,0.007464,
1530,310,-0.524605,-13.463180,0.999997,0.000213,-0.002332,0.006414,-0.000039,0.006414,-0.002332,-89.743361,0.006493,
1470,1680,-0.458088,-1.980113,0.999997,0.000208,-0.002420,0.006315,-0.000282,0.006324,-0.002429,-88.153863,0.006380,
930,1800,0.443334,-1.314337,0.999997,0.000201,-0.001981,0.006214,-0.000357,0.006230,-0.001997,-87.509204,0.006362,
1390,550,-0.352603,-12.209521,0.999997,0.000205,-0.002769,0.006025,0.001146,0.006172,-0.002916,82.692837,0.006175,
1470,1930,-0.138377,-0.524506,0.999998,0.000181,-0.000673,0.005252,0.000557,0.005304,-0.000725,84.672301,0.005752,
1850,1730,-1.578089,-2.413438,0.999997,0.000223,-0.003661,0.007486,-0.000068,0.007486,-0.003661,-89.652857,0.007487,
1080,680,0.360455,-11.434600,0.999996,0.000232,-0.003637,0.006368,-0.002233,0.006843,-0.004113,-77.969932,0.006890,
1430,1950,-0.086441,-0.410757,0.999998,0.000190,-0.000641,0.005021,0.000449,0.005056,-0.000676,85.497610,0.005490,
580,1870,1.228410,-1.477231,0.999997,0.000212,-0.003614,0.007564,-0.000366,0.007576,-0.003626,-88.125240,0.007578,
1810,1770,-1.320721,-2.003080,0.999998,0.000195,-0.003542,0.007557,0.000232,0.007562,-0.003547,88.805413,0.007566,
920,190,0.336302,-14.196601,0.999997,0.000216,-0.001416,0.005950,0.000683,0.006012,-0.001479,84.747112,0.006266,
930,940,1.925194,-8.344056,0.999998,0.000195,-0.003711,0.009206,0.001037,0.009289,-0.003794,85.440504,0.009340,
1180,1300,0.082854,-3.548798,0.999997,0.000199,-0.002048,0.003032,0.001950,0.003694,-0.002711,71.240075,0.003826,
950,1040,2.048663,-7.445974,0.999997,0.000221,-0.002766,0.009217,-0.000187,0.009220,-0.002769,-89.108208,0.009461,
780,700,1.785108,-10.182560,0.999997,0.000236,-0.004411,0.008230,0.000315,0.008238,-0.004418,88.571423,0.008245,
1900,1030,-3.221875,-7.544923,0.999998,0.000000,-0.003058,0.006294,0.000055,0.006294,-0.003059,89.661383,0.006295,
1670,300,-0.886558,-13.308348,0.999998,0.000160,-0.003228,0.007158,-0.000229,0.007163,-0.003233,-88.737810,0.007174,
1090,2020,0.011273,-0.073150,0.999999,0.000000,-0.000007,0.004550,-0.000323,0.004573,-0.000030,-85.971934,0.005263,
1870,1190,-2.943187,-6.497499,0.999996,0.000215,-0.003317,0.006820,0.000258,0.006827,-0.003323,88.541582,0.006827,
1810,340,-1.467157,-12.698972,0.999997,0.000224,-0.003735,0.007537,-0.000014,0.007537,-0.003735,-89.930879,0.007537,
820,1100,2.336501,-6.994360,0.999997,0.000199,-0.003255,0.007875,-0.000750,0.007925,-0.003305,-86.163670,0.007961,
1810,1260,-2.562148,-5.904520,0.999997,0.000222,-0.003731,0.007485,0.000576,0.007515,-0.003761,87.068647,0.007515,
1480,1730,-0.426095,-1.681901,0.999996,0.000216,-0.002183,0.006275,-0.000037,0.006275,-0.002183,-89.747994,0.006371,
690,700,2.163384,-10.007015,0.999997,0.000230,-0.004003,0.007765,0.000388,0.007778,-0.004016,88.111370,0.007779,
1880,50,-0.384480,-14.773542,0.999975,0.000636,-0.001556,0.009674,-0.004290,0.011125,-0.003007,-71.307902,0.011510,
950,950,1.889114,-8.285692,0.999996,0.000224,-0.003665,0.009543,0.000943,0.009610,-0.003732,85.936254,0.009689,
1510,1580,-0.672815,-2.723428,0.999997,0.000218,-0.003270,0.006952,-0.000668,0.006996,-0.003313,-86.278769,0.006999,
1280,1920,-0.028407,-0.536172,0.999998,0.000138,-0.000512,0.004793,0.000078,0.004795,-0.000513,89.156938,0.005265,
690,400,1.473673,-12.332228,0.999998,0.000179,-0.003709,0.007608,-0.000106,0.007609,-0.003710,-89.465762,0.007610,
900,1740,0.610081,-1.735963,0.999997,0.000212,-0.002576,0.006642,-0.000114,0.006643,-0.002578,-89.289906,0.006699,
1670,1700,-1.010152,-2.214087,0.999998,0.000154,-0.003392,0.007295,-0.000012,0.007295,-0.003392,-89.937749,0.007301,
870,270,0.602259,-13.639649,0.999997,0.000207,-0.002666,0.006650,0.000320,0.006661,-0.002677,88.035750,0.006704,
910,960,2.060206,-8.136484,0.999997,0.000210,-0.003244,0.008701,0.000875,0.008765,-0.003308,85.833208,0.008853,
1850,1710,-1.627450,-2.564255,0.999997,0.000216,-0.003636,0.007466,-0.000103,0.007467,-0.003636,-89.470480,0.007468,
580,210,1.329995,-13.458249,0.999997,0.000216,-0.003338,0.007445,0.000141,0.007447,-0.003340,89.250194,0.007460,
1430,260,-0.260951,-13.875547,0.999998,0.000197,-0.001665,0.005641,-0.000066,0.005642,-0.001666,-89.486053,0.005797,
1640,1600,-1.096697,-2.887238,0.999998,0.000169,-0.003613,0.007458,-0.000298,0.007466,-0.003621,-88.459851,0.007467,
1250,1340,-0.027072,-3.347234,0.999999,0.000139,-0.001504,0.003032,-0.000634,0.003120,-0.001591,-82.187806,0.003120,
1740,220,-0.867832,-13.772920,0.999997,0.000194,-0.003159,0.007360,-0.000782,0.007418,-0.003217,-85.771042,0.007440,
700,330,1.271630,-12.887355,0.999997,0.000201,-0.003622,0.007531,0.000038,0.007531,-0.003622,89.806782,0.007533,
700,600,1.873321,-10.812530,0.999998,0.000186,-0.004012,0.007798,0.000050,0.007798,-0.004012,89.756000,0.007799,
1340,580,-0.221770,-12.170146,0.999997,0.000196,-0.002457,0.005466,0.001214,0.005648,-0.002639,81.478204,0.005652,
1430,1970,-0.067231,-0.313082,0.999998,0.000165,-0.000480,0.004896,0.000438,0.004932,-0.000516,85.375941,0.005422,
1210,1860,0.019209,-0.828255,0.999999,0.000147,-0.000879,0.004987,-0.000025,0.004987,-0.000879,-89.751987,0.005324,
610,1050,3.066357,-7.408315,0.999998,0.000181,-0.003137,0.006607,-0.000197,0.006611,-0.003141,-88.843198,0.006614,
1090,1160,0.967606,-5.092247,0.999996,0.000214,-0.002817,0.006686,0.004247,0.008308,-0.004438,69.104883,0.008314,
740,320,1.106835,-13.057228,0.999998,0.000175,-0.003349,0.007402,0.000186,0.007405,-0.003352,89.009354,0.007416,
1820,260,-1.279385,-13.283941,0.999997,0.000213,-0.003568,0.007615,-0.000294,0.007623,-0.003575,-88.493187,0.007628,
1480,400,-0.510767,-12.961221,0.999997,0.000208,-0.002746,0.006451,0.000443,0.006473,-0.002767,87.248407,0.006495,
1530,290,-0.496416,-13.586481,0.999997,0.000209,-0.002222,0.006396,-0.000183,0.006400,-0.002226,-88.784194,0.006498,
1210,2000,0.004314,-0.159446,0.999999,0.000124,-0.000194,0.004541,-0.000033,0.004541,-0.000194,-89.602152,0.005136,
900,190,0.366039,-14.183153,0.999998,0.000192,-0.001602,0.006043,0.000698,0.006106,-0.001665,84.822649,0.006313,
1800,710,-2.297255,-9.878787,0.999997,0.000221,-0.003892,0.007665,-0.000389,0.007678,-0.003905,-88.074773,0.007678,
1770,1060,-2.793199,-7.326222,0.999997,0.000185,-0.003272,0.007153,0.000239,0.007158,-0.003278,88.687183,0.007167,
1790,360,-1.443495,-12.596002,0.999996,0.000252,-0.003646,0.007599,-0.000020,0.007599,-0.003646,-89.898995,0.007602,
1770,1350,-2.163048,-5.147274,0.999998,0.000184,-0.004032,0.007746,0.000432,0.007762,-0.004048,87.902602,0.007765,
1530,760,-1.204351,-10.067187,0.999996,0.000212,-0.005404,0.009149,0.000388,0.009159,-0.005414,88.473430,0.009210,
1870,50,-0.364111,-14.791053,0.999986,0.000475,-0.001838,0.008932,-0.003702,0.010082,-0.002988,-72.745229,0.010357,
1280,1900,-0.032330,-0.631409,0.999998,0.000153,-0.000624,0.004903,0.000094,0.004905,-0.000625,89.029267,0.005339,
990,590,0.649244,-11.685605,0.999997,0.000234,-0.003827,0.007244,-0.001263,0.007386,-0.003969,-83.575261,0.007393,
950,500,0.710948,-12.211865,0.999998,0.000212,-0.003484,0.007071,-0.000794,0.007130,-0.003543,-85.721877,0.007130,
1610,580,-1.194381,-11.345384,0.999997,0.000223,-0.004185,0.007930,0.000450,0.007946,-0.004202,87.877156,0.007951,
1300,860,-0.469413,-11.176423,0.999990,0.000350,-0.003914,0.002199,0.000544,0.002247,-0.003962,84.954910,0.003974,
990,120,0.132314,-14.622528,0.999998,0.000189,-0.000674,0.005243,0.000601,0.005303,-0.000735,84.254281,0.005747,
1760,1930,-0.541498,-0.696727,0.999997,0.000209,-0.002737,0.007157,0.001671,0.007431,-0.003012,80.666452,0.007476,
950,930,1.810320,-8.474782,0.999997,0.000228,-0.004075,0.009684,0.000960,0.009751,-0.004142,86.029871,0.009787,
870,250,0.564415,-13.766973,0.999998,0.000191,-0.002496,0.006558,0.000444,0.006580,-0.002518,87.198234,0.006640,
1390,570,-0.355805,-12.090168,0.999997,0.000199,-0.002893,0.006052,0.001284,0.006233,-0.003073,81.992738,0.006233,
1080,660,0.355004,-11.556047,0.999997,0.000210,-0.003493,0.006229,-0.002053,0.006645,-0.003909,-78.551875,0.006679,
1650,1640,-1.060466,-2.613839,0.999997,0.000201,-0.003514,0.007417,-0.000201,0.007421,-0.003518,-88.946701,0.007424,
900,1720,0.641755,-1.869986,0.999997,0.000216,-0.002766,0.006758,0.000018,0.006758,-0.002766,89.892124,0.006795,
1650,1700,-0.941090,-2.168870,0.999997,0.000202,-0.003351,0.007221,0.000001,0.007221,-0.003351,89.996218,0.007228,
640,1610,1.761216,-3.252788,0.999998,0.000177,-0.003776,0.007612,0.000101,0.007613,-0.003777,89.491524,0.007613,
1860,180,-1.122493,-13.763723,0.999998,0.000175,-0.003649,0.007680,-0.000469,0.007699,-0.003669,-87.633929,0.007702,
1810,860,-2.722539,-8.739494,0.999997,0.000201,-0.003564,0.007265,-0.000628,0.007301,-0.003600,-86.694050,0.007301,
1260,250,-0.035216,-14.011584,0.999998,0.000149,-0.001151,0.005127,0.000000,0.005127,-0.001151,89.997746,0.005380,
700,310,1.222588,-13.039434,0.999997,0.000218,-0.003601,0.007523,0.000121,0.007524,-0.003603,89.377753,0.007526,
1030,1870,0.181272,-0.828706,0.999998,0.000203,-0.001132,0.005388,-0.000338,0.005406,-0.001150,-87.044362,0.005695,
1430,1990,-0.044836,-0.213374,0.999999,0.000153,-0.000356,0.004823,0.000462,0.004864,-0.000397,84.945774,0.005401,
1090,1140,1.113030,-5.235807,0.999992,0.000000,-0.002614,0.007954,0.005577,0.010353,-0.005013,66.727121,0.010355,
1570,1380,-1.198146,-4.435640,0.999998,0.000188,-0.004784,0.008503,-0.000470,0.008520,-0.004801,-87.974977,0.008543,
580,200,1.289880,-13.532097,0.999997,0.000192,-0.003092,0.007544,-0.000030,0.007544,-0.003092,-89.835805,0.007585,
1450,1320,-0.712165,-4.452250,0.999996,0.000220,-0.005190,0.008430,-0.001836,0.008673,-0.005433,-82.454188,0.008765,
610,1030,3.078686,-7.545057,0.999998,0.000192,-0.003139,0.006667,-0.000033,0.006667,-0.003139,-89.804653,0.006671,
1380,770,-0.419160,-10.853358,0.999995,0.000256,-0.004701,0.007052,0.003017,0.007781,-0.005430,76.413241,0.007981,
1340,600,-0.220963,-12.062901,0.999997,0.000194,-0.002536,0.005405,0.001398,0.005644,-0.002775,80.302151,0.005645,
1740,200,-0.795005,-13.919201,0.999997,0.000199,-0.003025,0.007366,-0.000944,0.007451,-0.003110,-84.850479,0.007485,
1410,1860,-0.164315,-0.871366,0.999998,0.000171,-0.001226,0.005330,0.000228,0.005338,-0.001234,88.011087,0.005590,
1620,1190,-2.007782,-6.231724,0.999998,0.000187,-0.004207,0.008594,0.001011,0.008673,-0.004286,85.511933,0.008673,
1900,1240,-2.930592,-6.206351,0.999997,0.000000,-0.003423,0.006822,0.000139,0.006824,-0.003425,89.223094,0.006824,
1800,690,-2.244866,-10.032888,0.999998,0.000188,-0.003899,0.007637,-0.000355,0.007648,-0.003910,-88.240414,0.007648,
1420,1930,-0.103403,-0.510665,0.999998,0.000174,-0.000759,0.005088,0.000377,0.005112,-0.000783,86.321560,0.005507,
680,70,0.300028,-14.788769,0.999997,0.000210,-0.001260,0.007124,0.002815,0.007981,-0.002117,73.056743,0.008269,
740,300,1.056683,-13.205285,0.999998,0.000181,-0.003226,0.007432,0.000335,0.007443,-0.003237,88.201631,0.007464,
870,230,0.514976,-13.902221,0.999997,0.000208,-0.002350,0.006468,0.000552,0.006503,-0.002385,86.432578,0.006579,
820,330,0.866741,-13.143606,0.999998,0.000172,-0.003057,0.007120,0.000108,0.007121,-0.003058,89.389377,0.007145,
1650,1000,-2.416327,-7.771607,0.999997,0.000195,-0.003012,0.007643,-0.000297,0.007652,-0.003020,-88.402206,0.007708,
840,1090,2.291873,-7.066380,0.999997,0.000215,-0.003180,0.007974,-0.000767,0.008027,-0.003233,-86.086351,0.008077,
1770,1370,-2.111627,-4.990523,0.999998,0.000185,-0.004042,0.007816,0.000346,0.007826,-0.004052,88.330617,0.007828,
1610,560,-1.160710,-11.502742,0.999995,0.000292,-0.004086,0.007834,0.000462,0.007851,-0.004104,87.784460,0.007854,
1280,1880,-0.038583,-0.732330,0.999998,0.000159,-0.000718,0.004955,0.000064,0.004955,-0.000719,89.354718,0.005356,
1380,1730,-0.230230,-1.569445,0.999997,0.000196,-0.001632,0.005687,-0.000079,0.005688,-0.001632,-89.384697,0.005858,
1510,760,-1.095789,-10.149317,0.999996,0.000229,-0.005471,0.009155,0.000679,0.009186,-0.005502,87.346704,0.009246,
760,450,1.319436,-12.119436,0.999997,0.000195,-0.003764,0.007570,-0.000222,0.007575,-0.003769,-88.877306,0.007575,
900,1700,0.675386,-2.005793,0.999997,0.000222,-0.002908,0.006748,0.000086,0.006749,-0.002909,89.490926,0.006770,
950,1150,1.696583,-6.400410,0.999996,0.000264,-0.004569,0.009834,-0.000879,0.009888,-0.004622,-86.521859,0.009895,
770,900,2.393323,-8.533243,0.999997,0.000235,-0.003668,0.007910,0.000907,0.007980,-0.003738,85.547379,0.007986,
1480,420,-0.531239,-12.830812,0.999997,0.000203,-0.002878,0.006542,0.000547,0.006574,-0.002910,86.688216,0.006588,
1530,270,-0.460663,-13.718566,0.999996,0.000223,-0.002073,0.006258,-0.000256,0.006266,-0.002080,-88.240148,0.006383,
1860,200,-1.206049,-13.613317,0.999997,0.000196,-0.003658,0.007526,-0.000323,0.007535,-0.003667,-88.344715,0.007536,
1020,870,1.142833,-9.437388,0.999995,0.000276,-0.005680,0.010379,-0.000945,0.010435,-0.005736,-86.643756,0.010452,
1520,910,-1.750030,-8.653111,0.999996,0.000243,-0.004378,0.009650,-0.000976,0.009717,-0.004446,-86.037014,0.009729,
700,580,1.827176,-10.970450,0.999997,0.000195,-0.003988,0.007775,0.000006,0.007775,-0.003988,89.972650,0.007775,
1650,90,-0.217238,-14.733129,0.999998,0.000173,-0.001021,0.005805,-0.001405,0.006083,-0.001299,-78.815653,0.006407,
1140,250,0.103339,-13.998257,0.999998,0.000142,-0.001248,0.005228,-0.000008,0.005228,-0.001248,-89.932540,0.005461,
1610,730,-1.529623,-10.092735,0.999996,0.000230,-0.004862,0.008680,-0.000146,0.008682,-0.004864,-89.380975,0.008703,
740,630,1.780664,-10.665617,0.999997,0.000202,-0.004165,0.007939,0.000094,0.007940,-0.004166,89.555764,0.007943,
1630,1580,-1.093429,-3.015483,0.999998,0.000143,-0.003672,0.007481,-0.000335,0.007491,-0.003682,-88.282890,0.007491,
1440,60,-0.040581,-14.928509,0.999998,0.000151,-0.000267,0.004766,-0.000476,0.004811,-0.000312,-84.647861,0.005384,
870,1540,1.020003,-3.223363,0.999996,0.000212,-0.003793,0.007562,0.000511,0.007585,-0.003816,87.430550,0.007585,
880,70,0.114719,-14.856658,0.999998,0.000173,-0.000718,0.005350,0.001063,0.005531,-0.000898,80.344857,0.005936,
1550,1380,-1.103346,-4.373213,0.999998,0.000175,-0.004837,0.008463,-0.000664,0.008496,-0.004870,-87.148367,0.008527,
950,480,0.688908,-12.354173,0.999997,0.000225,-0.003348,0.006989,-0.000709,0.007037,-0.003396,-86.097142,0.007039,
580,190,1.250185,-13.605803,0.999997,0.000212,-0.003286,0.007571,0.000214,0.007575,-0.003290,88.870689,0.007597,
1820,240,-1.212222,-13.437444,0.999997,0.000213,-0.003542,0.007639,-0.000392,0.007653,-0.003556,-87.994357,0.007659,
1740,180,-0.718883,-14.068441,0.999996,0.000219,-0.002905,0.007243,-0.001121,0.007366,-0.003028,-83.771702,0.007405,
1080,640,0.349559,-11.686886,0.999996,0.000216,-0.003354,0.006154,-0.001915,0.006525,-0.003725,-79.031165,0.006547,
1340,620,-0.221454,-11.951305,0.999997,0.000196,-0.002620,0.005319,0.001573,0.005619,-0.002920,79.189074,0.005621,
990,1010,1.927047,-7.742973,0.999995,0.000269,-0.003420,0.011032,0.000111,0.011032,-0.003420,89.561650,0.011295,
1110,1150,1.005636,-4.822177,0.999993,0.000000,-0.001314,0.005237,0.004612,0.007618,-0.003695,62.691799,0.007619,
1030,1850,0.207654,-0.940739,0.999998,0.000190,-0.001276,0.005443,-0.000275,0.005454,-0.001287,-87.655926,0.005702,
610,1010,3.069934,-7.677542,0.999998,0.000187,-0.003142,0.006624,0.000191,0.006628,-0.003146,88.880030,0.006631,
1800,630,-2.090511,-10.497095,0.999998,0.000189,-0.003919,0.007725,-0.000161,0.007727,-0.003921,-89.210218,0.007728,
820,310,0.825797,-13.285019,0.999998,0.000198,-0.002888,0.007039,0.000239,0.007045,-0.002893,88.619117,0.007082,
740,1930,0.453076,-0.648278,0.999998,0.000199,-0.001692,0.006762,-0.001811,0.007134,-0.002063,-78.402352,0.007342,
1770,1810,-1.054283,-1.605757,0.999996,0.000234,-0.003459,0.007566,0.000489,0.007587,-0.003481,87.467240,0.007596,
1900,1250,-2.907157,-6.139722,0.999997,0.000000,-0.003434,0.006786,0.000136,0.006788,-0.003436,89.234974,0.006788,
1880,1630,-1.928042,-3.239821,0.999998,0.000197,-0.003670,0.007461,-0.000044,0.007461,-0.003670,-89.771797,0.007462,
1690,370,-1.111793,-12.753479,0.999998,0.000146,-0.003395,0.007349,0.000002,0.007349,-0.003395,89.991815,0.007356,
870,210,0.471245,-14.027297,0.999997,0.000206,-0.002170,0.006309,0.000638,0.006357,-0.002217,85.718655,0.006453,
1590,580,-1.111684,-11.400097,0.999997,0.000213,-0.004191,0.007902,0.000556,0.007928,-0.004216,87.373962,0.007933,
820,1090,2.355620,-7.073929,0.999997,0.000184,-0.003191,0.007851,-0.000707,0.007896,-0.003236,-86.350155,0.007939,
1360,770,-0.329972,-11.008194,0.999997,0.000204,-0.004189,0.006177,0.003188,0.007079,-0.005091,74.200357,0.007303,
1050,1340,0.503183,-4.084597,0.999996,0.000218,-0.004552,0.007387,0.002304,0.007817,-0.004981,79.447148,0.007914,
820,1080,2.374586,-7.152808,0.999997,0.000191,-0.003126,0.007790,-0.000579,0.007820,-0.003156,-86.971167,0.007869,
1070,580,0.367465,-12.020120,0.999996,0.000239,-0.003046,0.006127,-0.001409,0.006339,-0.003257,-81.462089,0.006340,
610,860,2.874205,-8.683193,0.999997,0.000169,-0.003403,0.007007,0.000425,0.007025,-0.003420,87.665836,0.007026,
1850,460,-1.895941,-11.687649,0.999997,0.000184,-0.003750,0.007616,0.000092,0.007617,-0.003750,89.535341,0.007617,
1280,1860,-0.042134,-0.831136,0.999999,0.000142,-0.000825,0.005010,0.000090,0.005012,-0.000826,89.111828,0.005374,
1600,1190,-1.922117,-6.202934,0.999997,0.000179,-0.004347,0.008761,0.001015,0.008839,-0.004425,85.599815,0.008839,
720,1730,1.187655,-2.145191,0.999997,0.000180,-0.003559,0.007502,-0.000073,0.007502,-0.003559,-89.619645,0.007505,
910,190,0.350905,-14.191109,0.999998,0.000198,-0.001440,0.005993,0.000699,0.006058,-0.001505,84.674104,0.006308,
700,560,1.781565,-11.123702,0.999997,0.000201,-0.003960,0.007744,-0.000043,0.007744,-0.003960,-89.791436,0.007744,
670,440,1.636761,-11.978493,0.999997,0.000208,-0.003759,0.007572,-0.000120,0.007574,-0.003760,-89.394687,0.007574,
1340,70,-0.025466,-14.888519,0.999999,0.000135,-0.000298,0.004651,-0.000210,0.004659,-0.000307,-87.577746,0.005212,
950,910,1.718538,-8.671175,0.999996,0.000238,-0.004468,0.009810,0.000908,0.009867,-0.004526,86.376753,0.009878,
1650,110,-0.280933,-14.615513,0.999998,0.000193,-0.001253,0.006002,-0.001371,0.006252,-0.001503,-79.650198,0.006527,
1390,1860,-0.141435,-0.861288,0.999998,0.000153,-0.000984,0.005261,0.000262,0.005272,-0.000995,87.603006,0.005602,
740,280,1.003194,-13.353982,0.999997,0.000211,-0.003123,0.007450,0.000483,0.007472,-0.003145,87.387723,0.007503,
890,560,1.009370,-11.606120,0.999998,0.000171,-0.004013,0.007698,-0.000644,0.007733,-0.004048,-86.863502,0.007736,
1580,1850,-0.430918,-1.047103,0.999997,0.000195,-0.002038,0.006226,0.000635,0.006274,-0.002086,85.632891,0.006390,
970,120,0.148184,-14.615011,0.999998,0.000183,-0.000916,0.005314,0.000611,0.005373,-0.000975,84.447788,0.005725,
1760,830,-2.467647,-9.015816,0.999994,0.000284,-0.003807,0.007630,-0.000749,0.007679,-0.003856,-86.271466,0.007679,
1530,250,-0.430026,-13.838478,0.999997,0.000209,-0.001928,0.006189,-0.000363,0.006205,-0.001944,-87.447034,0.006347,
1530,1580,-0.741020,-2.773543,0.999998,0.000193,-0.003408,0.007082,-0.000622,0.007118,-0.003445,-86.617464,0.007120,
800,1030,2.470400,-7.540185,0.999996,0.000229,-0.003016,0.007638,-0.000052,0.007639,-0.003016,-89.721994,0.007695,
1390,590,-0.360006,-11.970229,0.999997,0.000203,-0.003055,0.006113,0.001465,0.006341,-0.003284,81.135922,0.006343,
1700,1970,-0.262390,-0.381126,0.999997,0.000184,-0.001015,0.005989,0.001728,0.006392,-0.001418,76.870545,0.006714,
1440,500,-0.475701,-12.397298,0.999996,0.000205,-0.003045,0.006486,0.000970,0.006583,-0.003143,84.249941,0.006586,
1480,440,-0.549647,-12.699624,0.999997,0.000204,-0.002939,0.006615,0.000617,0.006655,-0.002978,86.319408,0.006667,
580,1990,0.514715,-0.485169,0.999994,0.000283,-0.002995,0.009127,-0.003189,0.009915,-0.003783,-76.122770,0.010007,
1460,1110,-1.656572,-6.610001,0.999995,0.000252,-0.004463,0.011181,-0.000081,0.011181,-0.004464,-89.703059,0.011257,
1860,220,-1.285279,-13.459492,0.999997,0.000193,-0.003650,0.007531,-0.000259,0.007537,-0.003656,-88.672806,0.007538,
1730,1380,-1.922052,-4.830685,0.999996,0.000252,-0.004169,0.007971,0.000287,0.007978,-0.004176,88.647594,0.007981,
610,990,3.056559,-7.811794,0.999998,0.000184,-0.003143,0.006533,0.000136,0.006535,-0.003145,89.194530,0.006536,
1340,640,-0.222908,-11.843192,0.999997,0.000216,-0.002711,0.005287,0.001748,0.005653,-0.003076,78.194974,0.005660,
700,50,0.167071,-14.930365,0.999998,0.000186,-0.000943,0.006320,0.002437,0.007062,-0.001686,73.065125,0.007376,
1740,160,-0.635611,-14.212007,0.999997,0.000220,-0.002705,0.007159,-0.001331,0.007336,-0.002882,-82.448829,0.007392,
820,470,1.132962,-12.111480,0.999997,0.000189,-0.003690,0.007523,-0.000313,0.007531,-0.003698,-88.403735,0.007532,
870,190,0.423818,-14.156462,0.999997,0.000221,-0.002015,0.006246,0.000761,0.006315,-0.002084,84.779496,0.006436,
1800,610,-2.040995,-10.651378,0.999997,0.000191,-0.003880,0.007726,-0.000085,0.007726,-0.003880,-89.582740,0.007727,
1030,1830,0.228263,-1.046949,0.999998,0.000201,-0.001407,0.005551,-0.000201,0.005557,-0.001413,-88.346147,0.005776,
1900,1260,-2.884443,-6.071849,0.999997,0.000000,-0.003438,0.006821,0.000110,0.006822,-0.003439,89.384355,0.006822,
1770,1790,-1.119983,-1.756534,0.999998,0.000213,-0.003530,0.007540,0.000375,0.007552,-0.003543,88.062168,0.007557,
1890,1630,-1.964220,-3.263882,0.999997,0.000218,-0.003663,0.007440,-0.000031,0.007440,-0.003663,-89.841137,0.007441,
1820,220,-1.139788,-13.591428,0.999997,0.000210,-0.003523,0.007695,-0.000546,0.007721,-0.003550,-87.221006,0.007730,
1280,1840,-0.050102,-0.931505,0.999998,0.000154,-0.000910,0.005040,0.000045,0.005041,-0.000910,89.569229,0.005372,
1080,620,0.345724,-11.810146,0.999997,0.000218,-0.003185,0.006074,-0.001737,0.006389,-0.003500,-79.718205,0.006399,
1090,1130,1.175141,-5.315287,0.999987,0.000000,-0.002706,0.008806,0.006241,0.011540,-0.005440,66.342102,0.011547,
1820,510,-1.891385,-11.375247,0.999997,0.000191,-0.003816,0.007664,0.000071,0.007664,-0.003816,89.646111,0.007664,
990,1030,1.938037,-7.535220,0.999996,0.000258,-0.003361,0.010723,-0.000007,0.010723,-0.003361,-89.973140,0.010969,
1640,190,-0.512241,-14.115427,0.999997,0.000222,-0.001918,0.006553,-0.001004,0.006670,-0.002035,-83.330431,0.006837,
1140,1730,0.135664,-1.524115,0.999998,0.000167,-0.001635,0.005433,0.000145,0.005436,-0.001638,88.821755,0.005577,
650,440,1.712092,-11.928435,0.999998,0.000179,-0.003809,0.007562,-0.000097,0.007563,-0.003810,-89.510550,0.007563,
1390,610,-0.366372,-11.844930,0.999996,0.000225,-0.003226,0.006219,0.001669,0.006505,-0.003512,80.268700,0.006512,
910,210,0.392764,-14.066948,0.999998,0.000184,-0.001650,0.006100,0.000622,0.006150,-0.001700,85.443494,0.006352,
1820,1190,-2.770038,-6.429260,0.999996,0.000223,-0.003533,0.007211,0.000578,0.007242,-0.003564,86.930876,0.007242,
1550,1000,-2.132785,-7.792295,0.999998,0.000201,-0.002742,0.008569,-0.000472,0.008589,-0.002762,-87.613644,0.008769,
950,870,1.530385,-9.065766,0.999995,0.000259,-0.005152,0.009828,0.000571,0.009850,-0.005174,87.820098,0.009854,
1460,70,-0.059090,-14.878103,0.999999,0.000118,-0.000288,0.004893,-0.000581,0.004957,-0.000353,-83.680068,0.005532,
740,260,0.945514,-13.502551,0.999997,0.000189,-0.003019,0.007406,0.000606,0.007441,-0.003054,86.682825,0.007481,
720,1090,2.685667,-7.104588,0.999997,0.000208,-0.003347,0.007313,-0.000420,0.007330,-0.003364,-87.749900,0.007338,
1530,230,-0.389036,-13.966171,0.999997,0.000190,-0.001759,0.006084,-0.000461,0.006111,-0.001786,-86.650481,0.006284,
1340,770,-0.252439,-11.162051,0.999996,0.000237,-0.003671,0.005273,0.003190,0.006294,-0.004692,72.248195,0.006542,
920,1610,0.747444,-2.592088,0.999997,0.000200,-0.003323,0.007068,0.000501,0.007092,-0.003347,87.244135,0.007095,
1760,850,-2.518205,-8.865869,0.999996,0.000240,-0.003727,0.007515,-0.000723,0.007562,-0.003773,-86.333244,0.007562,
910,700,1.168932,-10.525133,0.999997,0.000211,-0.004995,0.008685,-0.000545,0.008706,-0.005017,-87.723334,0.008740,
1490,120,-0.146230,-14.615477,0.999998,0.000153,-0.000877,0.005308,-0.000607,0.005367,-0.000937,-84.445887,0.005734,
690,1660,1.464157,-2.748980,0.999996,0.000234,-0.003702,0.007605,0.000086,0.007605,-0.003703,89.564385,0.007606,
1140,1990,0.017548,-0.205342,0.999999,0.000122,-0.000268,0.004612,-0.000171,0.004618,-0.000274,-87.992523,0.005181,
700,540,1.737365,-11.279440,0.999997,0.000192,-0.003928,0.007764,-0.000083,0.007765,-0.003928,-89.593736,0.007765,
1440,480,-0.462725,-12.530855,0.999997,0.000207,-0.002895,0.006424,0.000847,0.006500,-0.002972,84.847113,0.006508,
1470,1120,-1.649283,-6.544145,0.999996,0.000227,-0.004475,0.010741,0.000268,0.010746,-0.004479,88.991681,0.010796,
1860,240,-1.357630,-13.311000,0.999997,0.000204,-0.003652,0.007420,-0.000146,0.007422,-0.003654,-89.244763,0.007422,
1650,130,-0.344509,-14.491147,0.999997,0.000207,-0.001526,0.006160,-0.001267,0.006363,-0.001729,-80.879462,0.006580,
720,630,1.863269,-10.621934,0.999998,0.000168,-0.004077,0.007881,0.000113,0.007882,-0.004078,89.459279,0.007884,
1400,1510,-0.378157,-2.904417,0.999997,0.000200,-0.002879,0.006122,-0.001142,0.006265,-0.003022,-82.880480,0.006266,
1710,1380,-1.836358,-4.788847,0.999998,0.000262,-0.004252,0.008066,0.000270,0.008072,-0.004258,88.744029,0.008076,
1800,230,-1.107861,-13.559676,0.999997,0.000222,-0.003415,0.007636,-0.000663,0.007675,-0.003455,-86.580392,0.007688,
1710,1580,-1.394846,-3.207084,0.999997,0.000209,-0.003819,0.007620,-0.000221,0.007624,-0.003824,-88.894501,0.007624,
1740,140,-0.550340,-14.354593,0.999997,0.000219,-0.002491,0.006980,-0.001491,0.007210,-0.002720,-81.260870,0.007281,
1690,350,-1.066523,-12.897609,0.999998,0.000164,-0.003315,0.007338,-0.000088,0.007339,-0.003316,-89.525304,0.007350,
1240,190,-0.006906,-14.318582,0.999998,0.000185,-0.000896,0.004949,0.000027,0.004950,-0.000897,89.738239,0.005274,
1870,1980,-0.547058,-0.543753,0.999996,0.000206,-0.003273,0.008880,0.002250,0.009283,-0.003676,79.841153,0.009350,
1820,200,-1.063048,-13.747426,0.999997,0.000223,-0.003444,0.007707,-0.000670,0.007747,-0.003484,-86.571359,0.007760,
610,970,3.045872,-7.940712,0.999997,0.000179,-0.003144,0.006463,0.000073,0.006464,-0.003144,89.561996,0.006465,
1350,580,-0.248144,-12.142468,0.999997,0.000214,-0.002623,0.005607,0.001322,0.005814,-0.002830,81.092308,0.005815,
1740,750,-2.166955,-9.671941,0.999997,0.000214,-0.004117,0.007970,-0.000575,0.007997,-0.004144,-87.283135,0.007999,
570,1340,2.660737,-5.477136,0.999804,0.001710,-0.004886,0.007366,0.000332,0.007375,-0.004895,88.448705,0.007505,
1330,1860,-0.084818,-0.841675,0.999998,0.000152,-0.000992,0.005099,0.000099,0.005100,-0.000994,89.065896,0.005408,
1610,750,-1.586630,-9.919341,0.999995,0.000238,-0.004870,0.008747,-0.000301,0.008754,-0.004876,-88.736393,0.008773,
870,170,0.375744,-14.277063,0.999997,0.000214,-0.001807,0.006095,0.000835,0.006182,-0.001894,84.034140,0.006335,
1340,1400,-0.221522,-3.357692,0.999997,0.000186,-0.002752,0.005296,-0.001903,0.005723,-0.003180,-77.343300,0.005735,
1080,600,0.340435,-11.931586,0.999997,0.000201,-0.003025,0.006048,-0.001541,0.006303,-0.003279,-80.620357,0.006305,
1090,930,1.212715,-9.747587,0.999991,0.000000,-0.002267,0.009726,-0.006244,0.012386,-0.004928,-66.919728,0.012472,
990,1050,1.921263,-7.318150,0.999995,0.000268,-0.003417,0.011167,-0.000094,0.011168,-0.003418,-89.631417,0.011445,
1770,1770,-1.178845,-1.909630,0.999998,0.000193,-0.003576,0.007550,0.000239,0.007555,-0.003581,88.769051,0.007559,
1300,1730,-0.100932,-1.512014,0.999998,0.000145,-0.001445,0.005409,-0.000022,0.005409,-0.001445,-89.815323,0.005601,
820,1060,2.394123,-7.307982,0.999997,0.000200,-0.003010,0.007712,-0.000320,0.007721,-0.003020,-88.290570,0.007782,
910,230,0.431235,-13.944413,0.999997,0.000197,-0.001786,0.006182,0.000543,0.006219,-0.001823,86.119881,0.006394,
1850,280,-1.452128,-13.042589,0.999996,0.000227,-0.003647,0.007434,-0.000083,0.007434,-0.003647,-89.570984,0.007435,
1280,1820,-0.052377,-1.033050,0.999998,0.000163,-0.001008,0.005130,0.000048,0.005130,-0.001009,89.553224,0.005436,
1390,1310,-0.430746,-4.162528,0.999996,0.000244,-0.004554,0.007139,-0.002728,0.007745,-0.005159,-77.491774,0.007886,
1660,470,-1.196699,-12.071358,0.999997,0.000233,-0.003761,0.007546,0.000309,0.007554,-0.003770,88.435055,0.007554,
800,2000,0.114767,-0.192023,0.999997,0.000196,-0.000744,0.005519,-0.001443,0.005835,-0.001060,-77.625814,0.006217,
750,300,1.025771,-13.222510,0.999998,0.000193,-0.003188,0.007374,0.000342,0.007385,-0.003199,88.145585,0.007407,
890,700,1.267943,-10.459642,0.999997,0.000200,-0.004933,0.008678,-0.000338,0.008687,-0.004941,-88.578252,0.008714,
1820,490,-1.847587,-11.530561,0.999997,0.000196,-0.003795,0.007650,0.000092,0.007651,-0.003796,89.538796,0.007651,
940,70,0.085089,-14.867407,0.999998,0.000161,-0.000460,0.005110,0.000812,0.005226,-0.000576,81.876587,0.005731,
950,850,1.441430,-9.263211,0.999994,0.000287,-0.005393,0.009864,0.000349,0.009872,-0.005401,88.690765,0.009887,
700,520,1.694744,-11.435978,0.999997,0.000204,-0.003912,0.007741,-0.000119,0.007742,-0.003914,-89.416420,0.007743,
650,1220,2.674519,-6.203338,0.999996,0.000228,-0.003596,0.007212,-0.000570,0.007242,-0.003626,-86.988243,0.007242,
1040,100,0.077225,-14.735605,0.999998,0.000177,-0.000615,0.004937,0.000406,0.004966,-0.000645,85.843328,0.005401,
1480,460,-0.567665,-12.564440,0.999997,0.000210,-0.002973,0.006660,0.000651,0.006704,-0.003017,86.151491,0.006715,
940,870,1.580338,-9.034736,0.999996,0.000232,-0.005056,0.009701,0.000702,0.009735,-0.005090,87.281240,0.009738,
1320,770,-0.183521,-11.310209,0.999996,0.000254,-0.003065,0.004310,0.002986,0.005368,-0.004122,70.499555,0.005619,
920,1590,0.772768,-2.734483,0.999997,0.000234,-0.003379,0.007110,0.000566,0.007141,-0.003409,86.921978,0.007143,
1090,1680,0.245340,-1.847694,0.999998,0.000161,-0.001844,0.005687,0.000217,0.005694,-0.001850,88.347357,0.005809,
1650,150,-0.407291,-14.368623,0.999997,0.000213,-0.001735,0.006370,-0.001201,0.006544,-0.001909,-81.745730,0.006730,
1860,680,-2.446116,-9.983530,0.999997,0.000216,-0.003771,0.007536,-0.000176,0.007539,-0.003773,-89.106121,0.007539,
1440,460,-0.448441,-12.657881,0.999997,0.000200,-0.002742,0.006341,0.000717,0.006398,-0.002798,85.517055,0.006414,
980,1150,1.553331,-6.292587,0.999994,0.000286,-0.004934,0.010342,-0.000452,0.010356,-0.004947,-88.306553,0.010359,
1890,530,-2.200985,-11.059733,0.999996,0.000236,-0.003818,0.007612,0.000006,0.007612,-0.003818,89.968568,0.007612,
1900,1270,-2.859982,-6.001971,0.999997,0.000000,-0.003450,0.006950,0.000103,0.006951,-0.003452,89.430380,0.006951,
1350,1380,-0.249127,-3.503964,0.999996,0.000227,-0.002972,0.005519,-0.002115,0.006016,-0.003470,-76.757439,0.006040,
1570,240,-0.483979,-13.865271,0.999997,0.000185,-0.002177,0.006395,-0.000481,0.006422,-0.002204,-86.796407,0.006526,
1820,180,-0.976262,-13.902797,0.999997,0.000218,-0.003385,0.007769,-0.000893,0.007840,-0.003456,-85.451274,0.007858,
1770,40,-0.126290,-14.989053,0.999997,0.000207,-0.000548,0.006099,-0.002440,0.006899,-0.001348,-71.857506,0.007313,
1740,120,-0.459157,-14.492468,0.999997,0.000226,-0.002215,0.006866,-0.001708,0.007177,-0.002525,-79.692239,0.007281,
870,150,0.323175,-14.401400,0.999998,0.000202,-0.001634,0.006031,0.000954,0.006148,-0.001751,83.010640,0.006335,
1720,1490,-1.620346,-3.931673,0.999994,0.000272,-0.004061,0.007836,-0.000095,0.007837,-0.004062,-89.543896,0.007839,
1770,1750,-1.235578,-2.060056,0.999998,0.000182,-0.003618,0.007520,0.000142,0.007521,-0.003620,89.267725,0.007523,
610,950,3.031843,-8.070129,0.999998,0.000173,-0.003205,0.006638,0.000213,0.006643,-0.003210,88.758904,0.006644,
1530,1000,-2.079865,-7.801361,0.999998,0.000189,-0.002792,0.008975,-0.000431,0.008991,-0.002807,-87.906788,0.009200,
1130,1860,0.088733,-0.841323,0.999998,0.000159,-0.001018,0.005110,-0.000091,0.005112,-0.001020,-89.153947,0.005411,
740,1730,1.117260,-2.101144,0.999998,0.000171,-0.003368,0.007426,-0.000161,0.007429,-0.003370,-89.147801,0.007439,
840,610,1.307667,-11.069055,0.999995,0.000232,-0.004386,0.008021,-0.000339,0.008030,-0.004396,-88.437207,0.008042,
910,250,0.470481,-13.818794,0.999997,0.000201,-0.001943,0.006327,0.000458,0.006353,-0.001968,86.842458,0.006504,
1520,1400,-0.923877,-4.098050,0.999997,0.000209,-0.004591,0.008114,-0.001004,0.008193,-0.004669,-85.511319,0.008220,
1570,1060,-2.183468,-7.290532,0.999998,0.000183,-0.002844,0.008293,0.000471,0.008313,-0.002864,87.580601,0.008446,
1680,470,-1.272244,-12.020109,0.999997,0.000180,-0.003743,0.007584,0.000253,0.007590,-0.003749,88.721176,0.007590,
700,500,1.649999,-11.591367,0.999997,0.000199,-0.003888,0.007707,-0.000134,0.007708,-0.003889,-89.336724,0.007708,
1890,460,-2.044523,-11.592199,0.999997,0.000220,-0.003694,0.007544,0.000038,0.007544,-0.003694,89.808073,0.007545,
740,240,0.883929,-13.652857,0.999998,0.000165,-0.002886,0.007395,0.000770,0.007452,-0.002943,85.742806,0.007507,
1080,580,0.338088,-12.050646,0.999997,0.000219,-0.002904,0.005980,-0.001360,0.006184,-0.003107,-81.486526,0.006184,
1820,870,-2.781234,-8.654715,0.999997,0.000209,-0.003504,0.007198,-0.000565,0.007228,-0.003534,-86.988591,0.007229,
1030,1810,0.251538,-1.163701,0.999997,0.000205,-0.001561,0.005639,-0.000158,0.005643,-0.001565,-88.740111,0.005826,
1580,1990,-0.101250,-0.234555,0.999998,0.000173,-0.000630,0.005250,0.001030,0.005425,-0.000805,80.350930,0.005855,
1290,310,-0.082929,-13.691560,0.999998,0.000158,-0.001332,0.005306,0.000018,0.005306,-0.001332,89.846527,0.005521,
720,270,1.039188,-13.389653,0.999998,0.000213,-0.003366,0.007506,0.000411,0.007522,-0.003382,87.839357,0.007535,
990,1070,1.874559,-7.091087,0.999996,0.000244,-0.003601,0.010748,-0.000235,0.010751,-0.003605,-89.061042,0.010944,
950,830,1.354822,-9.462443,0.999996,0.000236,-0.005547,0.009813,0.000127,0.009814,-0.005548,89.526915,0.009841,
910,600,0.986294,-11.352343,0.999997,0.000226,-0.004247,0.007828,-0.000772,0.007877,-0.004296,-86.354872,0.007888,
1480,900,-1.510765,-8.892446,0.999994,0.000277,-0.005045,0.010316,-0.000363,0.010325,-0.005054,-88.648272,0.010326,
580,1840,1.349933,-1.697412,0.999996,0.000233,-0.004085,0.007685,-0.000162,0.007687,-0.004088,-89.211974,0.007693,
1040,1610,0.399394,-2.338859,0.999998,0.000193,-0.002482,0.006130,0.000605,0.006172,-0.002525,86.001264,0.006206,
1090,920,1.156665,-9.842919,0.999993,0.000000,-0.002211,0.008541,-0.005597,0.010926,-0.004595,-66.924475,0.010971,
750,280,0.971696,-13.372606,0.999997,0.000221,-0.003073,0.007396,0.000495,0.007420,-0.003097,87.296408,0.007453,
1440,440,-0.438210,-12.782664,0.999997,0.000200,-0.002575,0.006261,0.000573,0.006298,-0.002612,86.307189,0.006329,
1860,660,-2.396349,-10.134002,0.999996,0.000235,-0.003799,0.007537,-0.000167,0.007539,-0.003802,-89.154987,0.007539,
860,810,1.744934,-9.399106,0.999997,0.000231,-0.004812,0.008935,0.000717,0.008972,-0.004849,87.020475,0.008982,
1100,900,0.980720,-10.161427,0.999993,0.000297,-0.002110,0.006255,-0.004377,0.008126,-0.003981,-66.849201,0.008127,
900,1410,1.104773,-4.162441,0.999997,0.000234,-0.004589,0.008230,0.000634,0.008261,-0.004620,87.177507,0.008281,
870,130,0.272743,-14.518573,0.999998,0.000190,-0.001392,0.005830,0.000986,0.005962,-0.001525,82.361922,0.006195,
610,930,2.999789,-8.206985,0.999997,0.000177,-0.003271,0.006780,0.000381,0.006794,-0.003285,87.831705,0.006795,
1570,220,-0.442645,-13.991533,0.999998,0.000182,-0.002049,0.006215,-0.000562,0.006253,-0.002087,-86.129513,0.006367,
1190,1680,0.070045,-1.772416,0.999998,0.000176,-0.001641,0.005327,0.000123,0.005329,-0.001644,88.988868,0.005458,
1900,1490,-2.319828,-4.352213,0.999997,0.000000,-0.003805,0.007695,-0.000009,0.007695,-0.003805,-89.957263,0.007696,
1740,100,-0.368163,-14.628769,0.999996,0.000232,-0.001986,0.006475,-0.001737,0.006818,-0.002329,-78.837429,0.006931,
1770,50,-0.173264,-14.929082,0.999998,0.000195,-0.000791,0.006311,-0.002506,0.007106,-0.001587,-72.392855,0.007460,
900,1090,2.101854,-7.033924,0.999997,0.000241,-0.003154,0.008500,-0.000810,0.008556,-0.003210,-86.044636,0.008644,
670,1220,2.601624,-6.177851,0.999996,0.000228,-0.003638,0.007335,-0.000630,0.007371,-0.003674,-86.726545,0.007371,
1650,590,-1.383598,-11.160406,0.999997,0.000215,-0.004221,0.007967,0.000216,0.007971,-0.004225,88.983211,0.007976,
1770,1730,-1.285218,-2.212084,0.999998,0.000183,-0.003639,0.007549,0.000040,0.007549,-0.003639,89.794521,0.007550,
620,1030,3.045926,-7.543754,0.999998,0.000182,-0.003176,0.006767,-0.000039,0.006767,-0.003176,-89.775794,0.006771,
1530,210,-0.357380,-14.082060,0.999997,0.000191,-0.001610,0.005931,-0.000542,0.005969,-0.001648,-85.909025,0.006166,
1020,490,0.479792,-12.457106,0.999996,0.000234,-0.003010,0.006501,-0.000895,0.006584,-0.003094,-84.672389,0.006588,
730,720,2.053730,-9.923032,0.999997,0.000225,-0.004160,0.007963,0.000486,0.007982,-0.004180,87.709719,0.007985,
770,100,0.304622,-14.654077,0.999996,0.000222,-0.001266,0.006196,0.001672,0.006553,-0.001624,77.928125,0.006826,
890,600,1.073099,-11.290145,0.999998,0.000190,-0.004301,0.007896,-0.000659,0.007932,-0.004336,-86.918096,0.007943,
1580,1830,-0.475128,-1.170417,0.999997,0.000198,-0.002241,0.006326,0.000532,0.006359,-0.002274,86.461074,0.006445,
720,1470,1.757465,-4.142268,0.999997,0.000207,-0.004040,0.007811,-0.000002,0.007811,-0.004040,-89.991474,0.007813,
1850,260,-1.387624,-13.192572,0.999997,0.000230,-0.003649,0.007507,-0.000134,0.007509,-0.003651,-89.314004,0.007510,
1820,160,-0.882934,-14.061133,0.999997,0.000229,-0.003318,0.007813,-0.001086,0.007918,-0.003423,-84.478216,0.007943,
700,270,1.107762,-13.342248,0.999998,0.000186,-0.003570,0.007541,0.000324,0.007550,-0.003580,88.332351,0.007554,
1080,1730,0.235693,-1.572130,0.999997,0.000181,-0.001664,0.005689,0.000057,0.005690,-0.001665,89.556030,0.005851,
1290,330,-0.087603,-13.584308,0.999998,0.000167,-0.001424,0.005354,0.000039,0.005355,-0.001424,89.674142,0.005547,
1440,420,-0.425066,-12.905763,0.999997,0.000191,-0.002434,0.006168,0.000460,0.006193,-0.002458,86.949232,0.006237,
1800,870,-2.710572,-8.676895,0.999997,0.000216,-0.003559,0.007319,-0.000667,0.007359,-0.003600,-86.506617,0.007360,
1380,1510,-0.323540,-2.855774,0.999998,0.000186,-0.002711,0.005889,-0.001168,0.006045,-0.002867,-82.403971,0.006048,
1550,1580,-0.808887,-2.821889,0.999997,0.000222,-0.003403,0.007144,-0.000536,0.007171,-0.003430,-87.099851,0.007173,
870,110,0.222772,-14.636795,0.999998,0.000184,-0.001210,0.005739,0.001074,0.005901,-0.001372,81.407849,0.006176,
930,1660,0.651631,-2.225099,0.999997,0.000216,-0.002792,0.006704,0.000246,0.006711,-0.002799,88.514139,0.006741,
1750,800,-2.347631,-9.262424,0.999996,0.000257,-0.003937,0.007765,-0.000733,0.007811,-0.003983,-86.429212,0.007811,
710,840,2.467488,-8.948176,0.999995,0.000250,-0.003797,0.007604,0.000755,0.007654,-0.003846,86.227377,0.007654,
1180,1280,0.092087,-3.601417,0.999997,0.000201,-0.002208,0.002771,0.002116,0.003548,-0.002985,69.818942,0.003814,
750,1220,2.297809,-6.088589,0.999997,0.000210,-0.003980,0.007974,-0.000880,0.008039,-0.004045,-85.812521,0.008039,
1130,810,0.293296,-11.017915,0.999996,0.000253,-0.003767,0.004907,-0.003303,0.006021,-0.004882,-71.356031,0.006397,
1020,510,0.492037,-12.323880,0.999996,0.000238,-0.003116,0.006562,-0.001004,0.006666,-0.003219,-84.139768,0.006667,
1560,1020,-2.178339,-7.622431,0.999997,0.000215,-0.002671,0.008322,-0.000148,0.008324,-0.002673,-89.226960,0.008499,
1740,80,-0.281080,-14.751363,0.999997,0.000203,-0.001587,0.006261,-0.001905,0.006699,-0.002025,-77.054592,0.006871,
630,1960,0.560019,-0.587109,0.999996,0.000221,-0.003287,0.007897,-0.001751,0.008165,-0.003555,-81.305082,0.008188,
890,580,1.040900,-11.448453,0.999998,0.000208,-0.004164,0.007840,-0.000673,0.007878,-0.004201,-86.803052,0.007883,
660,630,2.102464,-10.490336,0.999998,0.000197,-0.003900,0.007736,0.000138,0.007737,-0.003901,89.319297,0.007737,
910,140,0.245101,-14.482471,0.999998,0.000168,-0.001037,0.005650,0.000852,0.005757,-0.001144,82.855605,0.006095,
660,1290,2.455890,-5.666616,0.999996,0.000224,-0.003798,0.007522,-0.000508,0.007545,-0.003821,-87.433642,0.007545,
670,340,1.405859,-12.739236,0.999997,0.000220,-0.003657,0.007561,0.000004,0.007561,-0.003657,89.978479,0.007562,
700,1030,2.786624,-7.541056,0.999997,0.000193,-0.003228,0.007230,-0.000049,0.007230,-0.003228,-89.731909,0.007244,
1860,640,-2.344050,-10.285133,0.999996,0.000242,-0.003801,0.007621,-0.000123,0.007623,-0.003803,-89.385515,0.007623,
780,680,1.733267,-10.348191,0.999997,0.000228,-0.004381,0.008242,0.000186,0.008245,-0.004383,89.156763,0.008250,
1340,1380,-0.222352,-3.460545,0.999997,0.000202,-0.002813,0.005261,-0.002074,0.005763,-0.003314,-76.401815,0.005784,
1830,260,-1.314389,-13.253044,0.999996,0.000227,-0.003617,0.007606,-0.000198,0.007610,-0.003621,-88.989061,0.007613,
610,910,2.965714,-8.344489,0.999997,0.000193,-0.003291,0.006736,0.000319,0.006747,-0.003301,88.179802,0.006747,
1000,1930,0.133597,-0.522746,0.999998,0.000170,-0.000663,0.005208,-0.000554,0.005260,-0.000714,-84.653626,0.005706,
700,250,1.046215,-13.493015,0.999997,0.000203,-0.003517,0.007560,0.000429,0.007577,-0.003533,87.785108,0.007582,
1540,1450,-0.938742,-3.766970,0.999997,0.000234,-0.004222,0.007787,-0.000842,0.007845,-0.004281,-86.007388,0.007856,
1820,140,-0.778141,-14.221180,0.999997,0.000231,-0.003208,0.007796,-0.001357,0.007961,-0.003373,-83.071757,0.007991,
1290,350,-0.091543,-13.476875,0.999998,0.000160,-0.001509,0.005373,0.000062,0.005374,-0.001509,89.483210,0.005543,
910,690,1.149738,-10.610179,0.999997,0.000200,-0.004928,0.008584,-0.000590,0.008610,-0.004954,-87.504442,0.008642,
860,1730,0.742463,-1.873090,0.999998,0.000186,-0.002878,0.006986,-0.000111,0.006987,-0.002879,-89.354948,0.007023,
1700,1490,-1.538313,-3.884440,0.999995,0.000264,-0.004101,0.007856,-0.000128,0.007858,-0.004102,-89.384738,0.007860,
740,220,0.819653,-13.797543,0.999997,0.000183,-0.002784,0.007283,0.000957,0.007373,-0.002874,84.615157,0.007432,
1310,1860,-0.066767,-0.834386,0.999999,0.000144,-0.000843,0.005050,0.000105,0.005052,-0.000845,88.975128,0.005412,
1240,240,-0.009961,-14.066914,0.999998,0.000151,-0.001119,0.005085,0.000021,0.005085,-0.001119,89.806310,0.005344,
880,970,2.176687,-8.030644,0.999998,0.000199,-0.003075,0.008282,0.000762,0.008333,-0.003125,86.180562,0.008420,
1080,560,0.335676,-12.165953,0.999998,0.000188,-0.002797,0.005923,-0.001244,0.006097,-0.002971,-82.036156,0.006098,
1440,400,-0.411351,-13.026873,0.999996,0.000212,-0.002345,0.006136,0.000377,0.006153,-0.002362,87.461722,0.006208,
1480,880,-1.404232,-9.097939,0.999994,0.000281,-0.005404,0.010289,-0.000156,0.010290,-0.005405,-89.431560,0.010295,
1340,1510,-0.221165,-2.758823,0.999998,0.000174,-0.002310,0.005496,-0.000924,0.005604,-0.002418,-83.339415,0.005621,
1900,1480,-2.341367,-4.429066,0.999997,0.000000,-0.003801,0.007683,-0.000028,0.007683,-0.003801,-89.862123,0.007684,
990,1510,0.612525,-3.110324,0.999996,0.000231,-0.003482,0.006923,0.001064,0.007031,-0.003590,84.219939,0.007031,
1180,1260,0.108725,-3.652643,0.999997,0.000202,-0.002468,0.002526,0.002122,0.003306,-0.003248,69.816938,0.003784,
1080,190,0.131659,-14.287532,0.999998,0.000178,-0.000902,0.005232,0.000236,0.005241,-0.000911,87.801268,0.005600,
770,1220,2.216627,-6.066864,0.999997,0.000200,-0.004049,0.008085,-0.000905,0.008152,-0.004116,-85.756651,0.008152,
1870,1030,-3.130765,-7.544584,0.999998,0.000189,-0.003074,0.006517,0.000039,0.006517,-0.003074,89.769016,0.006521,
1720,1870,-0.687673,-1.061820,0.999997,0.000207,-0.002418,0.007099,0.001242,0.007258,-0.002577,82.686093,0.007359,
1130,830,0.373210,-10.921281,0.999995,0.000266,-0.003652,0.004766,-0.003120,0.005796,-0.004682,-71.727592,0.006151,
650,1330,2.386193,-5.382091,0.999997,0.000213,-0.003813,0.007653,-0.000393,0.007667,-0.003827,-88.039023,0.007667,
920,1410,1.015700,-4.097970,0.999998,0.000207,-0.004563,0.008139,0.000816,0.008191,-0.004615,86.340359,0.008213,
1740,60,-0.187304,-14.877754,0.999997,0.000202,-0.001121,0.006172,-0.002100,0.006734,-0.001682,-75.029060,0.007009,
800,1790,0.777059,-1.548091,0.999998,0.000167,-0.002973,0.007058,-0.000442,0.007077,-0.002992,-87.484187,0.007105,
1560,1000,-2.161319,-7.790508,0.999997,0.000222,-0.002760,0.008426,-0.000466,0.008445,-0.002779,-87.618867,0.008608,
1090,30,0.006655,-15.070626,0.999998,0.000000,-0.000040,0.004523,0.000370,0.004553,-0.000070,85.391609,0.005218,
890,480,0.893567,-12.208607,0.999997,0.000214,-0.003577,0.007318,-0.000521,0.007343,-0.003602,-87.267299,0.007343,
580,1340,2.622632,-5.452717,0.999997,0.000258,-0.004519,0.007387,0.000144,0.007389,-0.004521,89.306903,0.007450,
1770,1710,-1.333890,-2.361661,0.999997,0.000200,-0.003643,0.007553,0.000017,0.007553,-0.003643,89.911589,0.007555,
870,1840,0.482918,-1.122829,0.999996,0.000224,-0.002201,0.006343,-0.000608,0.006386,-0.002244,-85.951733,0.006479,
1000,1610,0.504961,-2.416694,0.999997,0.000228,-0.002895,0.006542,0.000665,0.006588,-0.002942,85.988575,0.006601,
870,330,0.724171,-13.227024,0.999997,0.000192,-0.002920,0.006977,0.000052,0.006977,-0.002920,89.699573,0.007008,
1020,610,0.549471,-11.651225,0.999997,0.000228,-0.003782,0.007008,-0.001521,0.007218,-0.003992,-82.125090,0.007232,
640,630,2.179874,-10.446481,0.999998,0.000188,-0.003866,0.007702,0.000120,0.007703,-0.003867,89.405163,0.007703,
910,120,0.202111,-14.593554,0.999998,0.000185,-0.000846,0.005599,0.000932,0.005731,-0.000977,81.937270,0.006132,
610,760,2.628283,-9.400852,0.999996,0.000211,-0.003668,0.007354,0.000332,0.007364,-0.003678,88.275460,0.007364,
780,660,1.683170,-10.514555,0.999996,0.000239,-0.004353,0.008166,0.000110,0.008167,-0.004354,89.495005,0.008173,
640,1290,2.531244,-5.700494,0.999997,0.000235,-0.003720,0.007431,-0.000461,0.007450,-0.003739,-87.636976,0.007450,
670,320,1.357092,-12.890852,0.999997,0.000215,-0.003635,0.007521,0.000089,0.007522,-0.003635,89.542914,0.007523,
950,1480,0.788820,-3.450406,0.999998,0.000163,-0.003947,0.007487,0.000994,0.007573,-0.004033,85.069183,0.007578,
1480,1930,-0.143589,-0.527035,0.999998,0.000202,-0.000783,0.005289,0.000583,0.005345,-0.000838,84.565513,0.005749,
1340,1360,-0.220353,-3.564588,0.999997,0.000217,-0.002921,0.005263,-0.002303,0.005867,-0.003525,-75.311963,0.005906,
860,970,2.238452,-8.021089,0.999996,0.000254,-0.003105,0.008104,0.000732,0.008152,-0.003153,86.278907,0.008221,
1590,1000,-2.242864,-7.782747,0.999997,0.000195,-0.002860,0.008035,-0.000362,0.008047,-0.002872,-88.099325,0.008156,
1530,170,-0.282012,-14.319094,0.999998,0.000183,-0.001279,0.005737,-0.000671,0.005800,-0.001343,-84.589470,0.006073,
910,670,1.105260,-10.780171,0.999997,0.000198,-0.004782,0.008410,-0.000641,0.008441,-0.004813,-87.223402,0.008468,
1120,1730,0.169447,-1.539648,0.999998,0.000168,-0.001692,0.005538,0.000170,0.005542,-0.001696,88.652092,0.005680,
1820,120,-0.669209,-14.380029,0.999996,0.000234,-0.003000,0.007879,-0.001623,0.008116,-0.003237,-81.694532,0.008171,
1290,370,-0.096354,-13.367654,0.999998,0.000161,-0.001614,0.005398,0.000086,0.005399,-0.001615,89.295710,0.005542,
1440,380,-0.395211,-13.152839,0.999997,0.000207,-0.002271,0.006147,0.000298,0.006157,-0.002281,87.973192,0.006226,
650,460,1.755892,-11.777740,0.999997,0.000209,-0.003790,0.007598,-0.000126,0.007600,-0.003791,-89.365639,0.007600,
1180,1240,0.151353,-3.699411,0.999997,0.000215,-0.002903,0.002372,0.001847,0.002955,-0.003485,72.497325,0.003756,
1610,1340,-1.488828,-4.895678,0.999996,0.000237,-0.004847,0.008620,0.000075,0.008620,-0.004848,89.681627,0.008642,
1240,220,-0.008070,-14.169629,0.999998,0.000178,-0.001039,0.005038,0.000015,0.005038,-0.001039,89.862734,0.005320,
740,200,0.747882,-13.948364,0.999997,0.000185,-0.002633,0.007236,0.001121,0.007362,-0.002758,83.598393,0.007439,
1070,1860,0.145057,-0.861964,0.999998,0.000174,-0.001036,0.005264,-0.000239,0.005273,-0.001045,-87.833854,0.005584,
1080,540,0.332696,-12.284869,0.999998,0.000183,-0.002710,0.005975,-0.001120,0.006118,-0.002852,-82.766832,0.006122,
1480,1770,-0.375589,-1.436414,0.999998,0.000171,-0.001898,0.006016,0.000122,0.006018,-0.001900,89.119728,0.006153,
1060,190,0.150531,-14.278740,0.999997,0.000177,-0.001099,0.005299,0.000239,0.005308,-0.001108,87.865669,0.005600,
1480,860,-1.302716,-9.308206,0.999994,0.000287,-0.005685,0.010214,0.000112,0.010215,-0.005686,89.595458,0.010237,
1900,1470,-2.363618,-4.506250,0.999997,0.000000,-0.003798,0.007675,-0.000016,0.007675,-0.003798,-89.919805,0.007675,
1130,850,0.477401,-10.831924,0.999994,0.000305,-0.003142,0.004106,-0.002493,0.004881,-0.003916,-72.739521,0.005170,
1080,2020,0.011923,-0.071435,0.999998,0.000000,-0.000036,0.004596,-0.000351,0.004623,-0.000063,-85.696347,0.005302,
650,1310,2.441551,-5.532522,0.999997,0.000208,-0.003777,0.007537,-0.000432,0.007553,-0.003793,-87.818686,0.007553,
1700,1870,-0.638737,-1.038866,0.999997,0.000193,-0.002404,0.006945,0.001160,0.007086,-0.002546,83.033056,0.007179,
990,1220,1.147253,-5.516736,0.999994,0.000317,-0.005847,0.010008,0.000585,0.010029,-0.005868,87.890582,0.010078,
1540,1310,-1.214301,-4.950205,0.999996,0.000227,-0.005286,0.009049,-0.000368,0.009058,-0.005296,-88.528943,0.009101,
1860,1510,-2.120552,-4.105727,0.999997,0.000175,-0.003791,0.007623,-0.000028,0.007623,-0.003791,-89.857570,0.007623,
990,1490,0.628861,-3.251858,0.999996,0.000225,-0.003660,0.007065,0.001172,0.007192,-0.003787,83.836147,0.007195,
1140,1410,0.178020,-3.242489,0.999996,0.000246,-0.002455,0.005006,0.001596,0.005333,-0.002782,78.420437,0.005335,
1740,260,-0.996740,-13.473259,0.999998,0.000192,-0.003319,0.007507,-0.000475,0.007527,-0.003340,-87.492721,0.007543,
1650,1060,-2.413667,-7.308295,0.999997,0.000227,-0.003038,0.007671,0.000300,0.007680,-0.003047,88.394028,0.007734,
610,890,2.933676,-8.476526,0.999997,0.000197,-0.003299,0.006765,0.000272,0.006772,-0.003307,88.454409,0.006773,
1560,980,-2.128963,-7.959159,0.999997,0.000215,-0.002930,0.008512,-0.000728,0.008558,-0.002976,-86.376026,0.008690,
980,1610,0.563418,-2.461340,0.999998,0.000177,-0.002929,0.006652,0.000584,0.006687,-0.002964,86.524046,0.006702,
1770,1690,-1.383050,-2.515420,0.999997,0.000199,-0.003661,0.007556,-0.000015,0.007556,-0.003661,-89.925668,0.007558,
780,640,1.633851,-10.676670,0.999995,0.000249,-0.004330,0.008083,0.000035,0.008083,-0.004330,89.839512,0.008090,
890,460,0.867039,-12.353944,0.999997,0.000212,-0.003419,0.007211,-0.000445,0.007230,-0.003438,-87.608876,0.007233,
850,1840,0.526523,-1.145712,0.999996,0.000205,-0.002134,0.006480,-0.000740,0.006543,-0.002197,-85.128602,0.006660,
1290,810,-0.156641,-11.381328,0.999996,0.000219,-0.002934,0.002643,0.002234,0.003427,-0.003719,70.645507,0.004136,
780,50,0.115346,-14.948248,0.999999,0.000167,-0.000656,0.005503,0.001575,0.005882,-0.001035,76.456380,0.006280,
1530,150,-0.239618,-14.436289,0.999998,0.000168,-0.001110,0.005675,-0.000748,0.005756,-0.001192,-83.784996,0.006077,
1040,1290,0.625996,-4.542742,0.999996,0.000243,-0.005345,0.008389,0.002267,0.008753,-0.005709,80.866136,0.008887,
1630,1400,-1.434392,-4.439722,0.999996,0.000224,-0.004563,0.008333,-0.000137,0.008335,-0.004564,-89.392074,0.008347,
1220,1930,0.006337,-0.485393,0.999999,0.000132,-0.000554,0.004768,0.000013,0.004768,-0.000554,89.855651,0.005216,
1120,770,0.263088,-11.139473,0.999997,0.000230,-0.003741,0.005420,-0.003195,0.006425,-0.004745,-72.550262,0.006664,
870,90,0.171926,-14.746846,0.999998,0.000182,-0.000955,0.005420,0.001082,0.005598,-0.001134,80.628848,0.005919,
1440,360,-0.378803,-13.276377,0.999997,0.000202,-0.002211,0.006033,0.000243,0.006040,-0.002218,88.312222,0.006110,
940,950,1.927020,-8.265350,0.999997,0.000215,-0.003587,0.009317,0.000962,0.009388,-0.003658,85.760722,0.009464,
750,840,2.313368,-8.989443,0.999997,0.000223,-0.003927,0.007986,0.000886,0.008051,-0.003993,85.771744,0.008051,
620,630,2.256885,-10.401562,0.999998,0.000178,-0.003826,0.007669,0.000082,0.007670,-0.003827,89.590056,0.007670,
1570,1000,-2.187102,-7.788902,0.999997,0.000220,-0.002814,0.008280,-0.000421,0.008295,-0.002830,-87.829951,0.008434,
890,120,0.220924,-14.586303,0.999998,0.000157,-0.001144,0.005686,0.000960,0.005818,-0.001276,82.150689,0.006116,
1340,1340,-0.220259,-3.667864,0.999997,0.000208,-0.003080,0.005225,-0.002568,0.005955,-0.003810,-74.130920,0.006032,
1770,1960,-0.416869,-0.495024,0.999998,0.000174,-0.002165,0.006723,0.001979,0.007144,-0.002586,77.996816,0.007234,
1030,1770,0.294160,-1.392167,0.999997,0.000196,-0.001821,0.005848,-0.000017,0.005848,-0.001821,-89.873191,0.005985,
1080,520,0.327232,-12.407068,0.999997,0.000187,-0.002667,0.005977,-0.001024,0.006097,-0.002786,-83.337899,0.006104,
1820,100,-0.552722,-14.536600,0.999996,0.000236,-0.002678,0.007737,-0.002029,0.008118,-0.003059,-79.358533,0.008200,
1240,440,-0.015223,-13.016855,0.999998,0.000182,-0.001811,0.005260,0.000100,0.005261,-0.001813,89.191700,0.005345,
1050,1860,0.172206,-0.873587,0.999998,0.000194,-0.001232,0.005348,-0.000234,0.005356,-0.001240,-87.968851,0.005608,
1100,1730,0.202393,-1.557123,0.999997,0.000209,-0.001664,0.005630,0.000099,0.005632,-0.001666,89.219846,0.005786,
1390,1290,-0.457699,-4.306828,0.999995,0.000257,-0.004828,0.007401,-0.002861,0.008037,-0.005464,-77.462337,0.008208,
1180,1220,0.217215,-3.744725,0.999994,0.000268,-0.003706,0.002399,0.000982,0.002553,-0.003860,81.087260,0.003927,
650,560,1.975013,-11.008088,0.999997,0.000185,-0.003821,0.007631,-0.000019,0.007631,-0.003821,-89.903095,0.007631,
700,1090,2.750857,-7.111414,0.999998,0.000209,-0.003311,0.007188,-0.000356,0.007200,-0.003323,-88.060460,0.007207,
700,480,1.608631,-11.745883,0.999998,0.000190,-0.003850,0.007670,-0.000154,0.007672,-0.003852,-89.232001,0.007672,
1130,870,0.666047,-10.766046,0.999998,0.000202,-0.002365,0.003430,-0.002259,0.004207,-0.003141,-71.031120,0.004374,
1690,330,-1.021572,-13.046605,0.999997,0.000197,-0.003289,0.007395,-0.000107,0.007397,-0.003290,-89.424988,0.007412,
1560,960,-2.081201,-8.130962,0.999997,0.000205,-0.003237,0.008595,-0.000872,0.008658,-0.003301,-85.808568,0.008740,
1130,1630,0.187895,-2.086264,0.999998,0.000160,-0.002022,0.005540,0.000457,0.005568,-0.002049,86.552663,0.005632,
1840,1510,-2.045966,-4.059795,0.999997,0.000186,-0.003786,0.007619,-0.000057,0.007619,-0.003787,-89.713446,0.007619,
1390,1580,-0.329896,-2.458480,0.999997,0.000200,-0.002554,0.005988,-0.000835,0.006069,-0.002634,-84.469569,0.006086,
1480,840,-1.209555,-9.515033,0.999994,0.000299,-0.005813,0.010061,0.000363,0.010070,-0.005822,88.689400,0.010110,
1420,190,-0.173925,-14.269762,0.999998,0.000195,-0.001223,0.005366,-0.000276,0.005378,-0.001234,-87.604762,0.005634,
1080,1120,1.253353,-5.613225,0.999989,0.000000,-0.003552,0.010963,0.006367,0.013360,-0.005949,69.370369,0.013387,
1480,1750,-0.401060,-1.557288,0.999997,0.000190,-0.002044,0.006124,0.000046,0.006124,-0.002044,89.679110,0.006236,
800,1930,0.351479,-0.607990,0.999997,0.000217,-0.001725,0.006239,-0.001345,0.006460,-0.001946,-80.666395,0.006628,
970,1220,1.262870,-5.619003,0.999996,0.000287,-0.005735,0.009970,0.000176,0.009972,-0.005737,89.358852,0.010010,
1530,380,-0.625228,-13.001028,0.999996,0.000248,-0.002695,0.006531,0.000216,0.006536,-0.002700,88.656822,0.006569,
1630,1860,-0.506481,-1.028227,0.999998,0.000197,-0.001857,0.006519,0.000961,0.006628,-0.001966,83.538242,0.006808,
610,870,2.897674,-8.612481,0.999997,0.000199,-0.003368,0.006922,0.000374,0.006935,-0.003381,87.922235,0.006936,
650,1290,2.492646,-5.684176,0.999997,0.000230,-0.003753,0.007474,-0.000483,0.007495,-0.003774,-87.542370,0.007495,
990,1470,0.645105,-3.398978,0.999997,0.000213,-0.003792,0.007201,0.001240,0.007340,-0.003930,83.641634,0.007346,
910,650,1.067907,-10.949129,0.999997,0.000215,-0.004623,0.008222,-0.000703,0.008260,-0.004661,-86.876935,0.008283,
1500,1930,-0.163507,-0.535232,0.999998,0.000180,-0.001013,0.005366,0.000631,0.005428,-0.001075,84.407558,0.005748,
1900,1460,-2.387992,-4.583621,0.999997,0.000000,-0.003810,0.007683,0.000019,0.007683,-0.003810,89.902936,0.007683,
780,620,1.588261,-10.838755,0.999996,0.000249,-0.004279,0.008057,-0.000041,0.008057,-0.004279,-89.807642,0.008062,
740,180,0.677754,-14.088858,0.999997,0.000196,-0.002445,0.007087,0.001291,0.007259,-0.002617,82.424207,0.007352,
1290,790,-0.122399,-11.438223,0.999997,0.000220,-0.002531,0.002891,0.002382,0.003789,-0.003429,69.350713,0.004182,
1520,1310,-1.108809,-4.876365,0.999997,0.000199,-0.005341,0.009033,-0.000664,0.009064,-0.005371,-87.359479,0.009116,
1610,1380,-1.388143,-4.553342,0.999997,0.000213,-0.004695,0.008426,-0.000170,0.008428,-0.004697,-89.255832,0.008447,
1440,340,-0.360400,-13.391796,0.999997,0.000205,-0.002115,0.005966,0.000178,0.005970,-0.002119,88.735657,0.006054,
1730,450,-1.419988,-12.053924,0.999996,0.000222,-0.003785,0.007591,0.000180,0.007594,-0.003788,89.092236,0.007594,
1340,1210,-0.473541,-4.355068,0.999992,0.000353,-0.003547,0.004898,-0.002937,0.005819,-0.004468,-72.592251,0.006091,
580,530,2.173403,-11.075165,0.999997,0.000183,-0.003668,0.007552,-0.000036,0.007552,-0.003668,-89.818461,0.007553,
1340,1320,-0.226637,-3.772249,0.999997,0.000209,-0.003227,0.005170,-0.002801,0.006018,-0.004076,-73.148394,0.006143,
1890,520,-2.179137,-11.135584,0.999997,0.000229,-0.003779,0.007586,-0.000002,0.007586,-0.003779,-89.990707,0.007586,
1590,940,-2.128040,-8.275859,0.999998,0.000210,-0.003432,0.008455,-0.000959,0.008532,-0.003508,-85.418663,0.008577,
1880,1360,-2.560528,-5.296873,0.999996,0.000237,-0.003685,0.007533,0.000110,0.007534,-0.003686,89.438631,0.007534,
1180,820,0.163187,-11.407352,0.999996,0.000249,-0.003097,0.002379,-0.001707,0.002868,-0.003585,-74.033372,0.003794,
840,1730,0.798771,-1.906325,0.999998,0.000171,-0.002852,0.007004,-0.000128,0.007005,-0.002853,-89.256786,0.007045,
860,1980,0.144443,-0.294061,0.999997,0.000183,-0.000682,0.005511,-0.001205,0.005738,-0.000908,-79.370248,0.006168,
1400,490,-0.361042,-12.546737,0.999997,0.000209,-0.002602,0.006068,0.000841,0.006149,-0.002683,84.512432,0.006165,
1860,170,-1.074861,-13.842196,0.999998,0.000171,-0.003651,0.007713,-0.000541,0.007739,-0.003677,-87.280937,0.007742,
980,1030,1.967438,-7.536402,0.999997,0.000233,-0.003091,0.010197,-0.000012,0.010197,-0.003091,-89.949302,0.010457,
1530,130,-0.205210,-14.546667,0.999998,0.000179,-0.000930,0.005512,-0.000783,0.005606,-0.001024,-83.170949,0.005970,
1820,80,-0.407995,-14.695461,0.999996,0.000236,-0.002326,0.007773,-0.002437,0.008330,-0.002883,-77.117673,0.008460,
1130,1610,0.192781,-2.195353,0.999998,0.000161,-0.002065,0.005548,0.000491,0.005579,-0.002096,86.328004,0.005636,
1030,1750,0.311886,-1.506999,0.999997,0.000216,-0.001941,0.005850,0.000067,0.005850,-0.001941,89.507978,0.005960,
1560,940,-2.025610,-8.304575,0.999997,0.000207,-0.003520,0.008809,-0.001034,0.008896,-0.003606,-85.238643,0.008948,
830,1400,1.449267,-4.447045,0.999996,0.000264,-0.004574,0.008287,0.000128,0.008288,-0.004575,89.431325,0.008303,
730,1540,1.566254,-3.572828,0.999996,0.000232,-0.003925,0.007720,0.000153,0.007722,-0.003927,89.247687,0.007722,
1790,1900,-0.767845,-0.964058,0.999997,0.000218,-0.002943,0.007598,0.001500,0.007807,-0.003153,82.056734,0.007856,
1080,1110,1.300125,-5.729136,0.999962,0.000000,-0.003824,0.012282,0.006789,0.014762,-0.006304,69.934679,0.014814,
1480,820,-1.124167,-9.716360,0.999996,0.000259,-0.005837,0.009860,0.000582,0.009882,-0.005859,87.879742,0.009938,
800,1910,0.417634,-0.733436,0.999997,0.000240,-0.002012,0.006415,-0.001198,0.006582,-0.002179,-82.065629,0.006706,
910,1220,1.588831,-5.835056,0.999996,0.000261,-0.005092,0.009405,-0.000642,0.009434,-0.005120,-87.467830,0.009445,
890,680,1.223866,-10.633458,0.999997,0.000212,-0.004843,0.008529,-0.000433,0.008543,-0.004857,-88.149056,0.008569,
1850,1580,-1.928508,-3.547771,0.999998,0.000184,-0.003782,0.007618,-0.000103,0.007619,-0.003783,-89.484143,0.007619,
1770,1670,-1.430510,-2.665776,0.999997,0.000209,-0.003684,0.007600,-0.000063,0.007600,-0.003684,-89.678676,0.007601,
780,600,1.543833,-11.000076,0.999995,0.000254,-0.004237,0.007964,-0.000102,0.007965,-0.004237,-89.519057,0.007971,
1460,1770,-0.341274,-1.417982,0.999998,0.000187,-0.001733,0.005942,0.000134,0.005944,-0.001736,89.003227,0.006113,
860,1910,0.324827,-0.694248,0.999997,0.000194,-0.001509,0.006037,-0.001015,0.006172,-0.001644,-82.468798,0.006392,
570,1430,2.435212,-4.797457,0.999638,0.002228,-0.004211,0.007148,-0.000806,0.007205,-0.004268,-85.963444,0.007246,
1610,1060,-2.295268,-7.301228,0.999996,0.000229,-0.002933,0.007892,0.000369,0.007905,-0.002946,88.050400,0.007989,
1300,190,-0.055189,-14.312798,0.999998,0.000185,-0.000783,0.005006,-0.000132,0.005009,-0.000786,-88.695782,0.005388,
910,630,1.034464,-11.112451,0.999997,0.000202,-0.004472,0.008067,-0.000738,0.008110,-0.004516,-86.642180,0.008128,
610,850,2.850394,-8.754181,0.999997,0.000189,-0.003435,0.007053,0.000433,0.007071,-0.003453,87.637589,0.007072,
1440,320,-0.340655,-13.515207,0.999997,0.000234,-0.002003,0.006013,0.000097,0.006014,-0.002004,89.306988,0.006125,
750,1280,2.126938,-5.608235,0.999997,0.000201,-0.004202,0.008149,-0.000699,0.008189,-0.004241,-86.770105,0.008191,
650,1270,2.547802,-5.833800,0.999996,0.000238,-0.003750,0.007493,-0.000547,0.007519,-0.003777,-87.222084,0.007519,
1290,770,-0.104973,-11.497804,0.999997,0.000229,-0.002298,0.003055,0.002290,0.003901,-0.003144,69.726790,0.004137,
1240,200,-0.008207,-14.269676,0.999998,0.000182,-0.000939,0.004988,0.000022,0.004988,-0.000939,89.791124,0.005302,
1570,940,-2.057996,-8.295589,0.999998,0.000169,-0.003461,0.008680,-0.001021,0.008766,-0.003546,-85.226237,0.008819,
1730,1470,-1.705477,-4.112794,0.999995,0.000254,-0.004056,0.007854,-0.000035,0.007854,-0.004056,-89.833815,0.007855,
580,550,2.218604,-10.923296,0.999997,0.000195,-0.003439,0.007520,0.000033,0.007520,-0.003440,89.824972,0.007529,
1880,520,-2.140854,-11.158182,0.999998,0.000173,-0.003776,0.007593,0.000013,0.007593,-0.003776,89.935118,0.007593,
1340,1300,-0.239707,-3.879924,0.999997,0.000215,-0.003484,0.005251,-0.003039,0.006205,-0.004438,-72.584934,0.006393,
1900,1450,-2.412101,-4.659999,0.999995,0.000000,-0.003823,0.007672,0.000036,0.007672,-0.003823,89.822373,0.007672,
780,1350,1.800064,-4.978273,0.999997,0.000227,-0.004399,0.008201,-0.000325,0.008209,-0.004407,-88.524054,0.008217,
1090,1920,0.082065,-0.549378,0.999997,0.000185,-0.000568,0.004943,-0.000283,0.004957,-0.000583,-87.062977,0.005419,
980,1010,1.956409,-7.735769,0.999996,0.000234,-0.003151,0.010453,0.000183,0.010455,-0.003153,89.229749,0.010726,
860,1960,0.194361,-0.404493,0.999998,0.000192,-0.000917,0.005551,-0.001109,0.005736,-0.001102,-80.540229,0.006087,
1400,470,-0.353583,-12.670989,0.999997,0.000215,-0.002557,0.006098,0.000764,0.006165,-0.002624,84.993836,0.006187,
1130,1590,0.199436,-2.310079,0.999998,0.000184,-0.002101,0.005545,0.000571,0.005587,-0.002143,85.755844,0.005637,
1030,1730,0.334087,-1.628082,0.999997,0.000214,-0.002067,0.005984,0.000141,0.005986,-0.002069,88.995955,0.006080,
1180,800,0.115543,-11.454966,0.999996,0.000258,-0.002614,0.002482,-0.002077,0.003221,-0.003353,-70.405452,0.003798,
820,1730,0.856304,-1.941376,0.999997,0.000195,-0.003036,0.007091,-0.000127,0.007092,-0.003037,-89.280436,0.007117,
1860,190,-1.165930,-13.686821,0.999998,0.000187,-0.003657,0.007587,-0.000384,0.007600,-0.003670,-88.046017,0.007602,
1820,300,-1.401980,-12.975509,0.999997,0.000226,-0.003629,0.007571,-0.000146,0.007573,-0.003631,-89.251321,0.007575,
1560,920,-1.956286,-8.482964,0.999997,0.000217,-0.003899,0.008914,-0.001065,0.009002,-0.003987,-85.282514,0.009022,
1870,1360,-2.523360,-5.272607,0.999996,0.000258,-0.003715,0.007547,0.000147,0.007549,-0.003717,89.252203,0.007549,
1150,1860,0.068443,-0.835106,0.999998,0.000171,-0.000880,0.005063,-0.000098,0.005065,-0.000882,-89.051203,0.005411,
740,160,0.597130,-14.231218,0.999996,0.000215,-0.002186,0.007032,0.001512,0.007274,-0.002428,80.917509,0.007407,
1080,500,0.320528,-12.526326,0.999997,0.000195,-0.002621,0.005956,-0.000941,0.006058,-0.002723,-83.810146,0.006068,
740,1890,0.618110,-0.924546,0.999998,0.000181,-0.002242,0.007051,-0.001463,0.007276,-0.002467,-81.261374,0.007401,
710,1540,1.643798,-3.620593,0.999997,0.000216,-0.003908,0.007718,0.000116,0.007719,-0.003909,89.426141,0.007719,
990,1450,0.662378,-3.541262,0.999997,0.000201,-0.003938,0.007348,0.001297,0.007495,-0.004085,83.527886,0.007505,
890,660,1.180313,-10.802324,0.999997,0.000214,-0.004731,0.008348,-0.000498,0.008367,-0.004750,-87.821895,0.008392,
1690,1960,-0.284221,-0.435852,0.999997,0.000202,-0.001230,0.006063,0.001641,0.006416,-0.001582,77.887111,0.006685,
1080,1100,1.339955,-5.852887,0.999962,0.000000,-0.004268,0.013765,0.007110,0.016231,-0.006734,70.871281,0.016310,
950,1220,1.375073,-5.705220,0.999996,0.000264,-0.005514,0.009824,-0.000191,0.009826,-0.005517,-89.286116,0.009851,
830,1380,1.495964,-4.613267,0.999995,0.000299,-0.004633,0.008368,0.000031,0.008368,-0.004634,89.862765,0.008384,
1650,1580,-1.167450,-3.062112,0.999997,0.000170,-0.003743,0.007538,-0.000296,0.007546,-0.003750,-88.498216,0.007546,
1530,1440,-0.909461,-3.813957,0.999997,0.000210,-0.004273,0.007825,-0.000902,0.007892,-0.004340,-85.757298,0.007905,
950,810,1.273527,-9.661042,0.999996,0.000249,-0.005622,0.009668,-0.000128,0.009669,-0.005623,-89.521294,0.009712,
1290,750,-0.097436,-11.560582,0.999997,0.000225,-0.002154,0.003290,0.002135,0.004028,-0.002892,70.942071,0.004153,
1790,1760,-1.278322,-2.033318,0.999998,0.000166,-0.003570,0.007558,0.000223,0.007562,-0.003575,88.854987,0.007566,
780,580,1.500754,-11.157764,0.999995,0.000241,-0.004173,0.007893,-0.000122,0.007895,-0.004175,-89.419059,0.007899,
1280,190,-0.039553,-14.314563,0.999998,0.000159,-0.000786,0.004976,-0.000094,0.004977,-0.000787,-89.067031,0.005351,
580,560,2.241633,-10.846180,0.999996,0.000230,-0.003353,0.007649,0.000086,0.007649,-0.003354,89.549745,0.007669,
1440,540,-0.501012,-12.133093,0.999996,0.000221,-0.003208,0.006589,0.001105,0.006713,-0.003331,83.642443,0.006713,
650,1250,2.600933,-5.983210,0.999997,0.000226,-0.003684,0.007384,-0.000575,0.007413,-0.003714,-87.032975,0.007413,
910,610,1.001122,-11.273424,0.999997,0.000208,-0.004331,0.007890,-0.000761,0.007937,-0.004378,-86.448797,0.007951,
1530,110,-0.160323,-14.657193,0.999998,0.000174,-0.000779,0.005421,-0.000833,0.005531,-0.000889,-82.482180,0.005941,
1880,460,-2.007199,-11.615334,0.999997,0.000219,-0.003697,0.007556,0.000051,0.007556,-0.003697,89.740509,0.007557,
1770,1260,-2.411935,-5.845851,0.999996,0.000238,-0.003861,0.007652,0.000673,0.007692,-0.003900,86.665243,0.007692,
1390,1270,-0.497691,-4.458802,0.999995,0.000259,-0.005094,0.007649,-0.002911,0.008282,-0.005727,-77.722829,0.008482,
1730,1430,-1.799166,-4.429867,0.999997,0.000200,-0.004123,0.007904,0.000077,0.007904,-0.004124,89.634565,0.007907,
1140,1930,0.045379,-0.490478,0.999999,0.000133,-0.000571,0.004824,-0.000156,0.004828,-0.000575,-88.347294,0.005275,
1550,940,-1.987241,-8.317842,0.999997,0.000205,-0.003569,0.008952,-0.001048,0.009039,-0.003656,-85.246661,0.009094,
1340,1280,-0.257029,-3.984218,0.999997,0.000231,-0.003750,0.005320,-0.003238,0.006358,-0.004787,-72.235170,0.006623,
810,840,2.067244,-9.058679,0.999997,0.000207,-0.004209,0.008343,0.000923,0.008410,-0.004276,85.816431,0.008411,
610,830,2.803669,-8.898302,0.999998,0.000177,-0.003471,0.007013,0.000381,0.007026,-0.003484,87.923941,0.007027,
1030,1710,0.349376,-1.745852,0.999997,0.000213,-0.002165,0.005922,0.000239,0.005929,-0.002172,88.310713,0.005999,
1130,1570,0.199712,-2.419274,0.999998,0.000178,-0.002123,0.005515,0.000648,0.005570,-0.002177,85.184236,0.005614,
1020,470,0.464865,-12.586275,0.999997,0.000209,-0.002873,0.006420,-0.000783,0.006485,-0.002938,-85.214833,0.006495,
960,1030,2.025207,-7.537721,0.999998,0.000203,-0.002860,0.009389,-0.000053,0.009389,-0.002860,-89.753441,0.009625,
860,1940,0.246079,-0.518540,0.999998,0.000192,-0.001179,0.005810,-0.001126,0.005987,-0.001356,-81.067188,0.006278,
1770,1650,-1.473898,-2.819613,0.999997,0.000221,-0.003725,0.007608,-0.000112,0.007609,-0.003726,-89.431677,0.007609,
1480,800,-1.049260,-9.912963,0.999996,0.000246,-0.005778,0.009591,0.000835,0.009636,-0.005824,86.900105,0.009706,
1280,1230,-0.166311,-3.707968,0.999996,0.000258,-0.003295,0.002300,-0.001370,0.002617,-0.003612,-76.956544,0.003731,
1590,1060,-2.239399,-7.297073,0.999996,0.000247,-0.002915,0.008044,0.000419,0.008060,-0.002931,87.814690,0.008159,
1560,900,-1.880443,-8.663478,0.999997,0.000214,-0.004211,0.009097,-0.001102,0.009188,-0.004302,-85.297847,0.009194,
1240,160,-0.007745,-14.468734,0.999998,0.000160,-0.000701,0.004902,0.000003,0.004902,-0.000701,89.969399,0.005303,
740,140,0.518382,-14.368612,0.999997,0.000192,-0.001909,0.006801,0.001668,0.007109,-0.002217,79.522314,0.007275,
1250,1540,-0.034961,-2.498882,0.999999,0.000128,-0.001903,0.005046,-0.000259,0.005056,-0.001912,-87.872064,0.005105,
1080,480,0.312167,-12.646334,0.999997,0.000208,-0.002561,0.005942,-0.000848,0.006026,-0.002645,-84.360969,0.006041,
1290,1860,-0.050186,-0.832142,0.999998,0.000138,-0.000791,0.005022,0.000111,0.005024,-0.000793,88.907609,0.005402,
1900,1440,-2.436960,-4.737669,0.999995,0.000000,-0.003840,0.007604,0.000049,0.007604,-0.003840,89.756572,0.007604,
1820,60,-0.274733,-14.848521,0.999995,0.000279,-0.002012,0.007219,-0.002475,0.007841,-0.002634,-75.900002,0.007980,
1180,780,0.094308,-11.505766,0.999996,0.000277,-0.002286,0.002726,-0.002156,0.003526,-0.003086,-69.649709,0.003843,
750,1960,0.311463,-0.445941,0.999997,0.000211,-0.001095,0.006172,-0.001799,0.006593,-0.001515,-76.832401,0.006906,
1530,320,-0.538008,-13.398351,0.999998,0.000216,-0.002368,0.006533,-0.000028,0.006533,-0.002368,-89.820769,0.006615,
640,40,0.152378,-14.973271,0.999996,0.000281,-0.002005,0.006505,0.002458,0.007164,-0.002664,74.992272,0.007242,
780,1730,0.986306,-2.020306,0.999998,0.000157,-0.003273,0.007328,-0.000122,0.007329,-0.003274,-89.341905,0.007343,
740,1870,0.696202,-1.066661,0.999996,0.000221,-0.002452,0.007122,-0.001236,0.007279,-0.002609,-82.760739,0.007375,
580,220,1.369992,-13.383131,0.999997,0.000211,-0.003722,0.007235,0.000383,0.007248,-0.003736,88.002650,0.007250,
1250,440,-0.034010,-13.011338,0.999998,0.000184,-0.001811,0.005270,0.000187,0.005275,-0.001816,88.489941,0.005359,
1650,570,-1.343272,-11.318833,0.999997,0.000220,-0.004146,0.007897,0.000291,0.007904,-0.004153,88.617735,0.007907,
1610,770,-1.647597,-9.742133,0.999996,0.000229,-0.004855,0.008834,-0.000432,0.008848,-0.004869,-88.192889,0.008863,
820,1040,2.407189,-7.463284,0.999996,0.000223,-0.002955,0.007741,-0.000203,0.007745,-0.002959,-88.915286,0.007817,
1530,940,-1.913598,-8.348252,0.999996,0.000245,-0.003709,0.009268,-0.001020,0.009347,-0.003789,-85.534445,0.009403,
870,1680,0.802749,-2.203609,0.999996,0.000226,-0.003151,0.006980,0.000144,0.006982,-0.003153,89.186791,0.006993,
990,1430,0.678154,-3.689231,0.999996,0.000210,-0.004138,0.007442,0.001385,0.007605,-0.004301,83.274067,0.007627,
640,50,0.218475,-14.907680,0.999995,0.000293,-0.002136,0.006787,0.002407,0.007395,-0.002744,75.825534,0.007477,
770,380,1.139651,-12.672586,0.999998,0.000182,-0.003447,0.007419,-0.000023,0.007419,-0.003447,-89.876999,0.007425,
1770,1760,-1.206634,-1.984594,0.999998,0.000151,-0.003603,0.007529,0.000202,0.007532,-0.003607,88.960319,0.007535,
1380,190,-0.129281,-14.287945,0.999998,0.000166,-0.000879,0.005237,-0.000253,0.005247,-0.000890,-87.632772,0.005616,
1290,730,-0.094275,-11.622701,0.999997,0.000192,-0.002071,0.003567,0.001909,0.004152,-0.002656,72.949162,0.004206,
570,470,2.076851,-11.510228,0.999993,0.000337,-0.003566,0.007499,-0.000063,0.007499,-0.003567,-89.673064,0.007502,
1080,950,1.334094,-9.323717,0.999986,0.000000,-0.003978,0.013758,-0.006526,0.015900,-0.006120,-71.824866,0.016040,
1130,320,0.150114,-13.616460,0.999998,0.000150,-0.001673,0.005490,-0.000167,0.005494,-0.001677,-88.662080,0.005631,
780,1290,1.968089,-5.475998,0.999998,0.000168,-0.004354,0.008297,-0.000633,0.008329,-0.004386,-87.143399,0.008333,
780,560,1.458985,-11.317258,0.999996,0.000239,-0.004101,0.007872,-0.000173,0.007875,-0.004103,-89.172383,0.007877,
650,1230,2.651246,-6.131313,0.999996,0.000224,-0.003626,0.007249,-0.000555,0.007277,-0.003654,-87.086035,0.007277,
930,1220,1.483960,-5.775437,0.999996,0.000246,-0.005300,0.009651,-0.000445,0.009664,-0.005314,-88.296249,0.009680,
1730,890,-2.502939,-8.586373,0.999997,0.000215,-0.003664,0.007723,-0.000851,0.007786,-0.003727,-85.750678,0.007788,
790,840,2.150790,-9.033308,0.999997,0.000192,-0.004117,0.008211,0.000939,0.008282,-0.004188,85.667490,0.008282,
1030,1690,0.366223,-1.866236,0.999997,0.000190,-0.002240,0.006075,0.000267,0.006084,-0.002249,88.163478,0.006152,
700,460,1.566450,-11.898167,0.999996,0.000227,-0.003820,0.007607,-0.000154,0.007609,-0.003822,-89.229451,0.007609,
1770,1630,-1.518286,-2.969726,0.999997,0.000221,-0.003740,0.007581,-0.000131,0.007583,-0.003741,-89.338898,0.007583,
1860,620,-2.295062,-10.439472,0.999997,0.000237,-0.003792,0.007661,-0.000064,0.007661,-0.003793,-89.678576,0.007661,
1130,1550,0.203112,-2.530275,0.999998,0.000164,-0.002176,0.005501,0.000699,0.005565,-0.002239,84.838266,0.005600,
760,1730,1.052391,-2.060585,0.999998,0.000176,-0.003286,0.007359,-0.000145,0.007361,-0.003288,-89.217544,0.007375,
1360,1930,-0.067782,-0.496794,0.999998,0.000132,-0.000544,0.004903,0.000260,0.004915,-0.000557,87.276612,0.005383,
1340,1260,-0.288003,-4.088224,0.999996,0.000244,-0.003938,0.005368,-0.003424,0.006492,-0.005062,-71.827025,0.006822,
940,1030,2.081192,-7.537311,0.999998,0.000198,-0.002694,0.008856,-0.000031,0.008856,-0.002694,-89.845841,0.009080,
1440,300,-0.320482,-13.632758,0.999998,0.000202,-0.001857,0.005851,0.000028,0.005851,-0.001857,89.793114,0.005979,
1560,880,-1.801139,-8.848387,0.999997,0.000212,-0.004524,0.009172,-0.000997,0.009244,-0.004596,-85.859416,0.009244,
1230,1540,0.003449,-2.490473,0.999997,0.000197,-0.001890,0.005048,0.000012,0.005048,-0.001890,89.897316,0.005101,
1480,780,-0.986453,-10.101120,0.999997,0.000236,-0.005686,0.009329,0.001011,0.009397,-0.005753,86.164639,0.009476,
1650,1420,-1.478783,-4.323106,0.999996,0.000225,-0.004427,0.008178,-0.000100,0.008178,-0.004428,-89.547529,0.008188,
1650,1560,-1.204349,-3.213107,0.999997,0.000170,-0.003845,0.007625,-0.000306,0.007633,-0.003853,-88.472023,0.007633,
1240,140,-0.004590,-14.565317,0.999998,0.000158,-0.000627,0.004814,0.000004,0.004814,-0.000627,89.955850,0.005234,
1750,520,-1.643659,-11.466858,0.999996,0.000234,-0.003944,0.007732,0.000124,0.007733,-0.003945,89.393398,0.007733,
1530,1380,-1.005341,-4.300618,0.999997,0.000211,-0.004804,0.008403,-0.000866,0.008460,-0.004861,-86.262726,0.008491,
1080,460,0.304528,-12.765363,0.999998,0.000177,-0.002465,0.005896,-0.000751,0.005963,-0.002532,-84.907212,0.005985,
1280,1250,-0.119770,-3.661128,0.999995,0.000269,-0.002697,0.002333,-0.001953,0.003002,-0.003366,-71.086253,0.003695,
990,1410,0.698978,-3.838746,0.999996,0.000214,-0.004361,0.007559,0.001448,0.007733,-0.004535,83.171905,0.007771,
910,590,0.970613,-11.430630,0.999997,0.000206,-0.004172,0.007781,-0.000764,0.007830,-0.004221,-86.357810,0.007838,
1690,310,-0.975450,-13.195778,0.999997,0.000204,-0.003252,0.007292,-0.000187,0.007295,-0.003255,-88.982058,0.007309,
1690,1060,-2.536033,-7.314980,0.999996,0.000218,-0.003141,0.007486,0.000275,0.007493,-0.003148,88.516563,0.007525,
1810,1970,-0.431026,-0.455577,0.999996,0.000223,-0.001860,0.007567,0.002705,0.008288,-0.002581,75.076698,0.008482,
740,120,0.429296,-14.507434,0.999997,0.000188,-0.001611,0.006769,0.001858,0.007162,-0.002004,78.044234,0.007390,
950,790,1.204293,-9.854466,0.999996,0.000242,-0.005602,0.009527,-0.000359,0.009535,-0.005611,-88.642801,0.009585,
1730,260,-0.965731,-13.491355,0.999998,0.000178,-0.003134,0.007464,-0.000571,0.007494,-0.003164,-86.923091,0.007525,
1550,1760,-0.547694,-1.588062,0.999998,0.000187,-0.002242,0.006526,0.000250,0.006534,-0.002249,88.366622,0.006638,
1180,760,0.086798,-11.556338,0.999997,0.000219,-0.002096,0.002944,-0.002023,0.003656,-0.002808,-70.622816,0.003827,
750,400,1.253406,-12.476014,0.999998,0.000195,-0.003646,0.007600,-0.000085,0.007601,-0.003647,-89.567928,0.007603,
1510,1440,-0.825621,-3.748689,0.999997,0.000222,-0.004249,0.007720,-0.001075,0.007816,-0.004345,-84.910346,0.007832,
1600,70,-0.127371,-14.855353,0.999998,0.000153,-0.000668,0.005464,-0.001205,0.005692,-0.000896,-79.273779,0.006121,
1320,190,-0.073137,-14.308474,0.999998,0.000211,-0.000925,0.005059,-0.000106,0.005061,-0.000927,-88.989889,0.005389,
1610,1210,-1.898895,-6.046255,0.999997,0.000198,-0.004471,0.008730,0.000921,0.008794,-0.004535,86.029915,0.008796,
1730,870,-2.456202,-8.740808,0.999997,0.000229,-0.003742,0.007672,-0.000812,0.007730,-0.003800,-85.950921,0.007730,
1400,1250,-0.605257,-4.704540,0.999994,0.000304,-0.005530,0.008405,-0.002661,0.008896,-0.006020,-79.549010,0.009079,
610,1250,2.744187,-6.048960,0.999997,0.000211,-0.003545,0.007073,-0.000353,0.007084,-0.003557,-88.097666,0.007084,
1900,1430,-2.460726,-4.814111,0.999996,0.000000,-0.003863,0.007541,0.000075,0.007542,-0.003863,89.625708,0.007542,
580,470,2.041077,-11.533492,0.999997,0.000221,-0.003627,0.007538,-0.000051,0.007538,-0.003628,-89.736343,0.007540,
1080,940,1.280372,-9.444714,0.999986,0.000000,-0.003347,0.011857,-0.006335,0.014151,-0.005641,-70.097967,0.014247,
730,1960,0.333403,-0.454768,0.999997,0.000228,-0.001644,0.006312,-0.001776,0.006690,-0.002022,-77.969726,0.006863,
1770,1850,-0.916691,-1.303509,0.999998,0.000183,-0.003349,0.007536,0.000798,0.007594,-0.003407,85.829244,0.007607,
1840,330,-1.554732,-12.696656,0.999997,0.000252,-0.003654,0.007493,0.000071,0.007494,-0.003655,89.632718,0.007494,
1390,1250,-0.548276,-4.615447,0.999994,0.000276,-0.005344,0.008031,-0.002896,0.008631,-0.005944,-78.293251,0.008834,
1760,1890,-0.724040,-0.986136,0.999997,0.000197,-0.003145,0.007351,0.001205,0.007488,-0.003282,83.534726,0.007507,
1530,90,-0.128835,-14.763316,0.999998,0.000161,-0.000589,0.005215,-0.000800,0.005323,-0.000697,-82.292434,0.005786,
1530,300,-0.511673,-13.524589,0.999997,0.000217,-0.002278,0.006377,-0.000098,0.006378,-0.002279,-89.348373,0.006464,
700,440,1.524438,-12.050758,0.999996,0.000247,-0.003771,0.007612,-0.000135,0.007613,-0.003773,-89.318239,0.007614,
1130,1530,0.203150,-2.641043,0.999997,0.000184,-0.002223,0.005463,0.000772,0.005540,-0.002300,84.323369,0.005566,
1290,710,-0.097813,-11.695221,0.999998,0.000182,-0.002028,0.003785,0.001708,0.004250,-0.002492,74.780714,0.004271,
1030,1670,0.383789,-1.989742,0.999997,0.000204,-0.002296,0.006095,0.000342,0.006109,-0.002310,87.670910,0.006169,
1860,600,-2.248206,-10.592728,0.999997,0.000230,-0.003805,0.007638,-0.000047,0.007638,-0.003806,-89.763402,0.007638,
650,1650,1.635033,-2.923224,0.999996,0.000241,-0.003729,0.007567,0.000080,0.007568,-0.003730,89.594606,0.007568,
1240,120,-0.004492,-14.659662,0.999998,0.000142,-0.000526,0.004734,-0.000010,0.004734,-0.000526,-89.893132,0.005189,
1140,1330,0.175823,-3.630530,0.999997,0.000199,-0.002750,0.004635,0.002535,0.005421,-0.003536,72.766973,0.005504,
1480,760,-0.926917,-10.286188,0.999996,0.000284,-0.005536,0.009061,0.001173,0.009155,-0.005630,85.435014,0.009235,
780,540,1.420011,-11.474058,0.999996,0.000245,-0.004018,0.007812,-0.000221,0.007816,-0.004022,-88.932365,0.007817,
1650,550,-1.304600,-11.478602,0.999997,0.000218,-0.004063,0.007851,0.000327,0.007860,-0.004072,88.429783,0.007862,
1180,1730,0.076092,-1.508236,0.999998,0.000173,-0.001461,0.005359,0.000059,0.005359,-0.001461,89.504378,0.005541,
590,1540,2.102489,-3.907476,0.999998,0.000171,-0.003746,0.007586,0.000040,0.007586,-0.003747,89.798832,0.007586,
650,900,2.817127,-8.447693,0.999997,0.000237,-0.003381,0.007011,0.000439,0.007030,-0.003400,87.587260,0.007031,
1600,750,-1.538673,-9.943428,0.999995,0.000233,-0.004953,0.008824,-0.000242,0.008828,-0.004958,-88.993543,0.008850,
1570,1760,-0.591787,-1.613563,0.999997,0.000212,-0.002515,0.006617,0.000215,0.006623,-0.002521,88.649587,0.006685,
1080,440,0.296439,-12.885794,0.999998,0.000173,-0.002353,0.005886,-0.000629,0.005934,-0.002401,-85.661816,0.005969,
1020,550,0.515977,-12.058390,0.999997,0.000217,-0.003267,0.006640,-0.001137,0.006768,-0.003396,-83.536043,0.006768,
1030,1220,0.912057,-5.245783,0.999995,0.000253,-0.005828,0.009657,0.001618,0.009824,-0.005995,84.098876,0.009903,
740,100,0.341543,-14.641489,0.999997,0.000195,-0.001324,0.006344,0.001821,0.006754,-0.001735,77.295459,0.007015,
800,1970,0.216234,-0.365900,0.999998,0.000172,-0.001087,0.005798,-0.001454,0.006092,-0.001381,-78.552152,0.006388,
1900,1420,-2.485208,-4.887894,0.999997,0.000000,-0.003863,0.007538,0.000073,0.007538,-0.003863,89.632179,0.007539,
1670,1060,-2.475342,-7.312853,0.999997,0.000200,-0.003090,0.007575,0.000279,0.007582,-0.003097,88.503904,0.007624,
1140,190,0.074520,-14.307564,0.999998,0.000174,-0.000946,0.005071,0.000106,0.005073,-0.000948,88.995746,0.005394,
750,380,1.210137,-12.628658,0.999996,0.000235,-0.003562,0.007520,-0.000007,0.007521,-0.003562,-89.963758,0.007524,
1150,1680,0.134836,-1.788188,0.999998,0.000144,-0.001774,0.005446,0.000221,0.005453,-0.001781,88.248960,0.005561,
1110,320,0.183596,-13.600177,0.999998,0.000175,-0.001642,0.005571,-0.000127,0.005573,-0.001644,-88.989776,0.005727,
910,570,0.943994,-11.585129,0.999997,0.000199,-0.004028,0.007681,-0.000751,0.007729,-0.004076,-86.343238,0.007733,
1730,240,-0.903948,-13.641740,0.999998,0.000170,-0.003029,0.007421,-0.000727,0.007471,-0.003080,-86.037566,0.007510,
950,770,1.139529,-10.045164,0.999995,0.000231,-0.005533,0.009272,-0.000568,0.009294,-0.005555,-87.805998,0.009353,
990,1390,0.724416,-3.996377,0.999996,0.000235,-0.004554,0.007810,0.001486,0.007987,-0.004730,83.241713,0.008032,
1730,740,-2.098177,-9.768682,0.999999,0.000163,-0.004159,0.008004,-0.000558,0.008030,-0.004185,-87.376565,0.008032,
1440,260,-0.277283,-13.865901,0.999998,0.000200,-0.001636,0.005690,-0.000122,0.005692,-0.001638,-89.044124,0.005860,
1730,850,-2.405621,-8.892125,0.999997,0.000231,-0.003821,0.007736,-0.000821,0.007794,-0.003879,-85.955400,0.007794,
1340,1240,-0.336490,-4.200571,0.999995,0.000260,-0.004078,0.005255,-0.003311,0.006310,-0.005133,-72.319235,0.006711,
1510,1380,-0.910974,-4.228023,0.999997,0.000190,-0.004785,0.008299,-0.001108,0.008392,-0.004878,-85.195271,0.008429,
890,1460,1.064647,-3.791264,0.999996,0.000223,-0.004258,0.007871,0.000657,0.007906,-0.004294,86.907289,0.007916,
850,1380,1.401903,-4.560622,0.999995,0.000263,-0.004697,0.008443,0.000135,0.008445,-0.004699,89.409533,0.008463,
1030,1650,0.398000,-2.111612,0.999997,0.000203,-0.002343,0.006082,0.000426,0.006103,-0.002364,87.115725,0.006155,
1560,860,-1.721366,-9.033058,0.999996,0.000225,-0.004766,0.009281,-0.000884,0.009336,-0.004821,-86.414196,0.009338,
1860,580,-2.200971,-10.746329,0.999997,0.000197,-0.003831,0.007646,-0.000031,0.007646,-0.003831,-89.845887,0.007646,
1640,130,-0.333127,-14.496170,0.999997,0.000201,-0.001323,0.006099,-0.001266,0.006309,-0.001533,-80.579051,0.006580,
690,80,0.353408,-14.715204,0.999996,0.000216,-0.001728,0.006861,0.002410,0.007491,-0.002358,75.349387,0.007660,
1690,290,-0.927291,-13.339440,0.999997,0.000182,-0.003176,0.007258,-0.000326,0.007268,-0.003186,-88.212708,0.007287,
1130,1510,0.205786,-2.749106,0.999998,0.000156,-0.002271,0.005418,0.000866,0.005514,-0.002368,83.654357,0.005532,
780,520,1.377411,-11.630572,0.999996,0.000211,-0.003960,0.007752,-0.000239,0.007757,-0.003965,-88.829563,0.007757,
1240,100,-0.003205,-14.754038,0.999999,0.000142,-0.000444,0.004640,-0.000014,0.004640,-0.000444,-89.841154,0.005120,
610,1270,2.694843,-5.903993,0.999996,0.000219,-0.003602,0.007275,-0.000363,0.007287,-0.003614,-88.090315,0.007287,
1290,690,-0.098884,-11.770370,0.999998,0.000173,-0.002023,0.003978,0.001536,0.004348,-0.002393,76.443351,0.004356,
1770,1610,-1.559992,-3.122589,0.999996,0.000238,-0.003781,0.007609,-0.000141,0.007611,-0.003783,-89.290982,0.007611,
1180,740,0.082958,-11.615052,0.999998,0.000187,-0.002002,0.003206,-0.001842,0.003792,-0.002588,-72.361301,0.003875,
800,1950,0.282534,-0.483243,0.999997,0.000199,-0.001417,0.006080,-0.001427,0.006342,-0.001679,-79.576557,0.006572,
1530,70,-0.088987,-14.867054,0.999999,0.000135,-0.000427,0.005112,-0.000841,0.005237,-0.000552,-81.550759,0.005755,
1810,1950,-0.558933,-0.606678,0.999995,0.000249,-0.002289,0.007641,0.002198,0.008106,-0.002754,78.059530,0.008244,
1380,1250,-0.496798,-4.525137,0.999995,0.000260,-0.005138,0.007587,-0.003132,0.008316,-0.005867,-76.895970,0.008547,
740,80,0.259791,-14.761499,0.999997,0.000194,-0.001063,0.006018,0.001849,0.006471,-0.001517,76.214618,0.006769,
1730,1320,-2.083936,-5.310993,0.999998,0.000205,-0.004133,0.007979,0.000528,0.008002,-0.004156,87.510429,0.008004,
1480,740,-0.881657,-10.465943,0.999996,0.000263,-0.005365,0.008840,0.001300,0.008958,-0.005483,84.812353,0.009032,
1080,420,0.285840,-13.004439,0.999998,0.000178,-0.002213,0.005809,-0.000495,0.005839,-0.002243,-86.482258,0.005891,
650,1670,1.588282,-2.772247,0.999997,0.000222,-0.003738,0.007544,0.000050,0.007545,-0.003739,89.743855,0.007545,
650,1720,1.467770,-2.391740,0.999996,0.000251,-0.003728,0.007583,0.000009,0.007583,-0.003728,89.952266,0.007583,
1650,530,-1.266412,-11.633424,0.999997,0.000178,-0.003971,0.007752,0.000331,0.007761,-0.003980,88.382187,0.007762,
630,900,2.884541,-8.429539,0.999997,0.000197,-0.003325,0.006858,0.000377,0.006872,-0.003339,87.883391,0.006873,
1390,1230,-0.615878,-4.787027,0.999995,0.000266,-0.005378,0.008274,-0.002766,0.008813,-0.005917,-78.969654,0.008984,
650,260,1.255034,-13.299803,0.999998,0.000205,-0.003543,0.007653,0.000368,0.007665,-0.003555,88.117815,0.007672,
570,1730,1.742141,-2.532813,0.999898,0.001207,-0.004678,0.007804,0.000244,0.007809,-0.004683,88.880348,0.007860,
990,1370,0.749630,-4.154862,0.999996,0.000261,-0.004741,0.008058,0.001509,0.008234,-0.004917,83.366733,0.008285,
580,1540,2.140266,-3.929385,0.999997,0.000190,-0.003666,0.007488,0.000025,0.007488,-0.003666,89.870669,0.007489,
700,420,1.481157,-12.205037,0.999997,0.000210,-0.003721,0.007591,-0.000110,0.007592,-0.003723,-89.441745,0.007592,
760,570,1.562902,-11.190516,0.999995,0.000249,-0.004095,0.007863,-0.000113,0.007864,-0.004096,-89.456491,0.007866,
1010,1220,1.027893,-5.392315,0.999995,0.000285,-0.005892,0.009961,0.001178,0.010048,-0.005979,85.773562,0.010108,
1400,190,-0.147522,-14.281099,0.999998,0.000191,-0.001077,0.005290,-0.000243,0.005299,-0.001086,-87.820715,0.005599,
1610,1190,-1.966787,-6.218290,0.999998,0.000182,-0.004273,0.008678,0.001015,0.008757,-0.004352,85.545354,0.008757,
1440,240,-0.256308,-13.979942,0.999997,0.000213,-0.001529,0.005686,-0.000205,0.005692,-0.001535,-88.376268,0.005890,
1900,1410,-2.510557,-4.963062,0.999996,0.000000,-0.003826,0.007594,0.000058,0.007595,-0.003827,89.710277,0.007595,
1840,90,-0.550049,-14.547910,0.999997,0.000211,-0.003455,0.008019,-0.001773,0.008287,-0.003722,-81.411519,0.008301,
1560,840,-1.643850,-9.220609,0.999995,0.000260,-0.004970,0.009319,-0.000730,0.009356,-0.005007,-87.084289,0.009364,
1710,1480,-1.600703,-3.987708,0.999996,0.000229,-0.004108,0.007854,-0.000084,0.007854,-0.004108,-89.596931,0.007857,
600,350,1.687851,-12.480750,0.999997,0.000193,-0.003669,0.007444,-0.000104,0.007445,-0.003670,-89.462923,0.007446,
1340,1220,-0.421880,-4.299362,0.999995,0.000274,-0.003847,0.005144,-0.003140,0.006132,-0.004835,-72.534379,0.006463,
1860,560,-2.153481,-10.899380,0.999997,0.000215,-0.003813,0.007634,-0.000004,0.007634,-0.003813,-89.982263,0.007634,
1030,1630,0.411681,-2.234815,0.999997,0.000194,-0.002419,0.006134,0.000496,0.006163,-0.002448,86.691334,0.006206,
1530,920,-1.836942,-8.535160,0.999997,0.000215,-0.004074,0.009414,-0.001057,0.009496,-0.004156,-85.545482,0.009521,
1730,830,-2.351417,-9.052024,0.999997,0.000220,-0.003921,0.007860,-0.000837,0.007919,-0.003980,-85.957973,0.007919,
720,570,1.723801,-11.093542,0.999996,0.000211,-0.004015,0.007790,-0.000064,0.007790,-0.004015,-89.687494,0.007791,
1790,1060,-2.858699,-7.329890,0.999997,0.000190,-0.003253,0.007032,0.000204,0.007036,-0.003257,88.862052,0.007042,
1080,930,1.237167,-9.570332,0.999991,0.000000,-0.003014,0.010623,-0.005926,0.012838,-0.005229,-69.503953,0.012911,
1690,270,-0.873451,-13.488872,0.999997,0.000180,-0.003081,0.007223,-0.000448,0.007242,-0.003101,-87.513344,0.007267,
800,1990,0.149675,-0.248732,0.999997,0.000220,-0.000854,0.005653,-0.001488,0.005977,-0.001178,-77.714911,0.006332,
1240,80,-0.002527,-14.846236,0.999998,0.000152,-0.000334,0.004585,-0.000005,0.004585,-0.000334,-89.939323,0.005112,
1070,120,0.078602,-14.641699,0.999998,0.000146,-0.000561,0.005010,0.000355,0.005033,-0.000583,86.368620,0.005506,
1180,720,0.082483,-11.682260,0.999998,0.000184,-0.001955,0.003482,-0.001636,0.003936,-0.002409,-74.481714,0.003969,
1260,1230,-0.101602,-3.606590,0.999997,0.000192,-0.003601,0.001992,-0.000654,0.002067,-0.003677,-83.420708,0.003686,
1130,1490,0.204340,-2.855109,0.999997,0.000186,-0.002327,0.005370,0.001003,0.005498,-0.002455,82.696129,0.005509,
1290,670,-0.102815,-11.852789,0.999998,0.000193,-0.002049,0.004174,0.001378,0.004465,-0.002341,78.059429,0.004467,
1820,1930,-0.698266,-0.783359,0.999995,0.000252,-0.003046,0.007877,0.001558,0.008095,-0.003264,82.036592,0.008145,
820,1020,2.411656,-7.618415,0.999997,0.000218,-0.002969,0.007731,0.000125,0.007732,-0.002971,89.328515,0.007801,
1770,1570,-1.644871,-3.429953,0.999998,0.000183,-0.003868,0.007707,-0.000130,0.007709,-0.003869,-89.354721,0.007709,
780,500,1.340563,-11.785380,0.999996,0.000213,-0.003879,0.007692,-0.000250,0.007698,-0.003885,-88.764113,0.007698,
1510,320,-0.490733,-13.425765,0.999997,0.000221,-0.002435,0.006467,0.000038,0.006468,-0.002436,89.758084,0.006533,
740,500,1.495882,-11.689791,0.999997,0.000216,-0.003876,0.007700,-0.000191,0.007703,-0.003879,-89.054869,0.007703,
1270,1860,-0.033744,-0.830270,0.999999,0.000155,-0.000845,0.005001,0.000063,0.005002,-0.000846,89.386553,0.005355,
1150,720,0.149630,-11.562936,0.999998,0.000198,-0.002511,0.004328,-0.002320,0.005041,-0.003224,-72.920980,0.005106,
860,1920,0.301707,-0.635463,0.999998,0.000188,-0.001381,0.005913,-0.001034,0.006056,-0.001525,-82.087550,0.006300,
1810,1930,-0.670037,-0.763724,0.999996,0.000222,-0.002715,0.007811,0.001844,0.008125,-0.003029,80.344575,0.008212,
910,550,0.917616,-11.736399,0.999997,0.000197,-0.003943,0.007593,-0.000722,0.007638,-0.003988,-86.433066,0.007640,
1050,320,0.286474,-13.548247,0.999998,0.000181,-0.002013,0.005833,-0.000154,0.005836,-0.002016,-88.876707,0.005928,
1420,1250,-0.718512,-4.867795,0.999994,0.000292,-0.005805,0.008871,-0.002169,0.009185,-0.006119,-81.764970,0.009353,
1000,1730,0.392318,-1.661470,0.999998,0.000183,-0.001983,0.006126,0.000010,0.006126,-0.001983,89.926844,0.006252,
1480,720,-0.840766,-10.640464,0.999997,0.000245,-0.005153,0.008596,0.001364,0.008730,-0.005287,84.388140,0.008795,
840,1350,1.524867,-4.842498,0.999994,0.000307,-0.004747,0.008540,-0.000096,0.008541,-0.004747,-89.586003,0.008558,
1390,1210,-0.712805,-4.956344,0.999995,0.000249,-0.005394,0.008299,-0.002644,0.008792,-0.005887,-79.442258,0.008959,
650,1690,1.541987,-2.621610,0.999997,0.000215,-0.003759,0.007582,0.000028,0.007583,-0.003759,89.858796,0.007583,
990,1350,0.778518,-4.319102,0.999996,0.000269,-0.004974,0.008328,0.001526,0.008500,-0.005146,83.539802,0.008563,
1710,740,-2.013690,-9.803320,0.999998,0.000175,-0.004257,0.008121,-0.000566,0.008147,-0.004283,-87.388270,0.008151,
1080,400,0.276852,-13.120117,0.999997,0.000190,-0.002089,0.005757,-0.000394,0.005777,-0.002109,-87.129620,0.005846,
950,750,1.084054,-10.227612,0.999997,0.000204,-0.005407,0.009069,-0.000734,0.009106,-0.005444,-87.104022,0.009164,
700,640,1.968699,-10.498669,0.999997,0.000203,-0.004033,0.007834,0.000174,0.007837,-0.004036,89.159320,0.007838,
650,240,1.187079,-13.454000,0.999997,0.000208,-0.003484,0.007631,0.000476,0.007652,-0.003504,87.551416,0.007661,
1500,1190,-1.438678,-5.952768,0.999995,0.000306,-0.005386,0.010023,0.000344,0.010031,-0.005393,88.723457,0.010040,
760,550,1.519623,-11.347160,0.999996,0.000233,-0.004032,0.007808,-0.000154,0.007810,-0.004034,-89.254050,0.007811,
1900,1400,-2.534694,-5.041294,0.999996,0.000000,-0.003787,0.007653,0.000040,0.007653,-0.003787,89.798856,0.007653,
580,1730,1.699589,-2.508442,0.999998,0.000176,-0.004396,0.007647,0.000187,0.007650,-0.004399,89.112395,0.007678,
1250,1520,-0.033633,-2.599385,0.999998,0.000161,-0.001903,0.004967,-0.000265,0.004977,-0.001913,-87.793021,0.005021,
1130,180,0.079521,-14.355221,0.999997,0.000198,-0.000956,0.005030,0.000098,0.005032,-0.000957,89.059580,0.005344,
1610,1170,-2.033409,-6.393679,0.999997,0.000201,-0.004041,0.008642,0.001072,0.008732,-0.004131,85.204459,0.008736,
1440,220,-0.232906,-14.093478,0.999998,0.000189,-0.001370,0.005533,-0.000251,0.005542,-0.001379,-87.918031,0.005771,
1560,820,-1.565288,-9.409461,0.999994,0.000287,-0.005131,0.009328,-0.000553,0.009349,-0.005152,-87.811708,0.009365,
1690,1480,-1.518326,-3.938761,0.999994,0.000264,-0.004151,0.007885,-0.000117,0.007886,-0.004153,-89.442163,0.007890,
1690,2000,-0.136272,-0.201939,0.999998,0.000174,-0.000658,0.005632,0.001642,0.006035,-0.001061,76.215808,0.006444,
1030,1610,0.423723,-2.355301,0.999997,0.000207,-0.002517,0.006225,0.000583,0.006263,-0.002556,86.203320,0.006299,
1730,810,-2.295286,-9.209564,0.999996,0.000233,-0.004006,0.007866,-0.000790,0.007919,-0.004058,-86.209599,0.007919,
720,550,1.680154,-11.250601,0.999996,0.000211,-0.003979,0.007789,-0.000096,0.007790,-0.003979,-89.531706,0.007791,
1750,420,-1.433833,-12.235256,0.999996,0.000244,-0.003719,0.007598,0.000129,0.007600,-0.003720,89.347293,0.007600,
1840,1370,-2.385023,-5.131367,0.999997,0.000214,-0.003818,0.007539,0.000261,0.007545,-0.003824,88.682207,0.007545,
1550,1060,-2.128608,-7.284194,0.999998,0.000206,-0.002817,0.008630,0.000521,0.008653,-0.002840,87.397718,0.008822,
1860,540,-2.108830,-11.052817,0.999997,0.000188,-0.003768,0.007612,0.000026,0.007613,-0.003769,89.870475,0.007613,
1180,700,0.086882,-11.755738,0.999998,0.000174,-0.001947,0.003717,-0.001467,0.004074,-0.002304,-76.310133,0.004086,
890,540,0.981625,-11.758738,0.999998,0.000171,-0.003888,0.007623,-0.000607,0.007655,-0.003920,-86.989188,0.007656,
1370,120,-0.069421,-14.644101,0.999999,0.000140,-0.000484,0.004908,-0.000308,0.004925,-0.000501,-86.743299,0.005421,
1340,1440,-0.222966,-3.140596,0.999998,0.000183,-0.002626,0.005376,-0.001533,0.005659,-0.002909,-79.518700,0.005660,
1090,1120,1.236024,-5.413587,0.999987,0.000000,-0.002945,0.010121,0.006831,0.013040,-0.005864,66.860697,0.013062,
1810,1910,-0.777989,-0.919912,0.999997,0.000217,-0.002908,0.007697,0.001547,0.007918,-0.003129,81.869710,0.007976,
1130,1470,0.204277,-2.958079,0.999997,0.000203,-0.002405,0.005317,0.001152,0.005486,-0.002573,81.691947,0.005489,
1240,60,-0.000825,-14.937854,0.999998,0.000146,-0.000244,0.004539,-0.000007,0.004539,-0.000244,-89.919993,0.005106,
780,920,2.406984,-8.380085,0.999996,0.000234,-0.003521,0.007819,0.000791,0.007874,-0.003575,86.031205,0.007885,
1290,650,-0.104695,-11.938993,0.999998,0.000189,-0.002074,0.004362,0.001224,0.004586,-0.002299,79.590189,0.004586,
1330,1800,-0.115976,-1.152492,0.999998,0.000151,-0.001341,0.005264,-0.000030,0.005264,-0.001342,-89.738440,0.005471,
1770,1550,-1.689203,-3.586622,0.999997,0.000202,-0.003883,0.007709,-0.000123,0.007710,-0.003884,-89.390512,0.007710,
740,520,1.536608,-11.533337,0.999996,0.000215,-0.003919,0.007758,-0.000162,0.007760,-0.003921,-89.205497,0.007760,
1390,1190,-0.816640,-5.122424,0.999992,0.000319,-0.005145,0.008337,-0.002825,0.008905,-0.005713,-78.630429,0.009023,
1710,1320,-1.999804,-5.275975,0.999995,0.000289,-0.004263,0.008103,0.000518,0.008124,-0.004285,87.604612,0.008128,
1480,940,-1.720697,-8.475306,0.999996,0.000241,-0.004231,0.010578,-0.000558,0.010599,-0.004252,-87.845605,0.010667,
650,1710,1.493406,-2.468038,0.999997,0.000222,-0.003751,0.007598,0.000012,0.007598,-0.003751,89.941659,0.007599,
1560,1250,-1.512583,-5.569730,0.999996,0.000252,-0.005193,0.009326,0.000380,0.009336,-0.005203,88.503744,0.009356,
700,400,1.436671,-12.355626,0.999997,0.000202,-0.003696,0.007604,-0.000093,0.007604,-0.003697,-89.530984,0.007605,
910,530,0.889119,-11.890656,0.999997,0.000218,-0.003810,0.007459,-0.000689,0.007501,-0.003852,-86.514813,0.007502,
1030,320,0.326656,-13.523308,0.999997,0.000183,-0.002045,0.005965,-0.000114,0.005967,-0.002047,-89.187687,0.006064,
990,1330,0.814309,-4.488693,0.999996,0.000246,-0.005217,0.008585,0.001475,0.008741,-0.005373,83.968248,0.008817,
950,730,1.034601,-10.405287,0.999997,0.000218,-0.005289,0.008873,-0.000855,0.008924,-0.005340,-86.558658,0.008982,
1790,640,-2.075272,-10.440928,0.999998,0.000171,-0.003956,0.007763,-0.000188,0.007766,-0.003959,-89.081426,0.007767,
1690,1980,-0.213158,-0.319047,0.999998,0.000183,-0.000973,0.005858,0.001695,0.006256,-0.001370,76.802770,0.006577,
950,800,1.238353,-9.758446,0.999995,0.000270,-0.005611,0.009618,-0.000236,0.009622,-0.005615,-89.114074,0.009666,
1440,200,-0.210464,-14.203490,0.999998,0.000193,-0.001239,0.005522,-0.000335,0.005539,-0.001255,-87.170193,0.005808,
1080,820,0.556647,-10.445777,0.999995,0.000269,-0.005241,0.007868,-0.003056,0.008545,-0.005919,-77.501835,0.008754,
1560,800,-1.495384,-9.593361,0.999995,0.000264,-0.005215,0.009317,-0.000347,0.009325,-0.005223,-88.633312,0.009348,
1730,790,-2.239500,-9.366173,0.999996,0.000245,-0.004069,0.007929,-0.000745,0.007975,-0.004115,-86.460136,0.007976,
590,1730,1.662162,-2.480050,0.999997,0.000187,-0.003898,0.007516,0.000114,0.007517,-0.003900,89.425461,0.007519,
1900,1510,-2.271805,-4.197135,0.999997,0.000000,-0.003785,0.007675,0.000044,0.007675,-0.003785,89.780753,0.007675,
1670,1420,-1.567113,-4.372841,0.999996,0.000225,-0.004371,0.008131,-0.000035,0.008131,-0.004371,-89.841580,0.008139,
630,1540,1.951387,-3.812487,0.999997,0.000184,-0.003789,0.007619,0.000058,0.007620,-0.003789,89.709671,0.007620,
1030,1590,0.433582,-2.479866,0.999997,0.000213,-0.002661,0.006310,0.000705,0.006365,-0.002716,85.536348,0.006388,
1530,1060,-2.071024,-7.274458,0.999997,0.000201,-0.002852,0.009078,0.000512,0.009099,-0.002874,87.549318,0.009303,
1420,210,-0.194085,-14.160530,0.999998,0.000195,-0.001368,0.005419,-0.000199,0.005425,-0.001374,-88.325088,0.005641,
1610,1150,-2.097730,-6.565883,0.999998,0.000193,-0.003839,0.008454,0.001040,0.008542,-0.003927,85.197932,0.008551,
1460,1190,-1.215210,-5.746807,0.999997,0.000238,-0.005777,0.010414,-0.000551,0.010433,-0.005796,-88.053493,0.010454,
1840,1350,-2.436789,-5.282398,0.999997,0.000206,-0.003797,0.007560,0.000268,0.007566,-0.003803,88.647032,0.007566,
1860,520,-2.065177,-11.203204,0.999997,0.000193,-0.003761,0.007623,0.000045,0.007623,-0.003761,89.772469,0.007623,
580,620,2.382164,-10.384758,0.999997,0.000238,-0.003969,0.007634,0.000515,0.007657,-0.003992,87.464497,0.007659,
640,490,1.858762,-11.523693,0.999997,0.000208,-0.003786,0.007664,-0.000080,0.007665,-0.003787,-89.601695,0.007665,
1750,400,-1.390080,-12.388226,0.999997,0.000222,-0.003693,0.007600,0.000093,0.007601,-0.003694,89.530443,0.007602,
780,940,2.441012,-8.224481,0.999996,0.000227,-0.003371,0.007669,0.000690,0.007712,-0.003414,86.435411,0.007728,
1210,2020,0.003087,-0.069455,0.999999,0.000000,-0.000169,0.004481,-0.000004,0.004481,-0.000169,-89.953138,0.005079,
1230,1990,0.000379,-0.204383,0.999999,0.000142,-0.000251,0.004549,-0.000005,0.004549,-0.000251,-89.941963,0.005114,
1130,1450,0.203269,-3.065292,0.999997,0.000203,-0.002481,0.005259,0.001320,0.005478,-0.002699,80.582214,0.005478,
740,540,1.578887,-11.376282,0.999995,0.000242,-0.003989,0.007801,-0.000123,0.007802,-0.003991,-89.404056,0.007803,
1810,1890,-0.875204,-1.075619,0.999997,0.000200,-0.003109,0.007765,0.001296,0.007917,-0.003261,83.297906,0.007958,
1340,1200,-0.539187,-4.400328,0.999993,0.000318,-0.003162,0.004482,-0.002684,0.005330,-0.004010,-72.458302,0.005552,
1070,1800,0.197451,-1.185593,0.999998,0.000172,-0.001390,0.005461,-0.000095,0.005463,-0.001391,-89.206715,0.005678,
1020,530,0.504617,-12.191693,0.999998,0.000210,-0.003182,0.006597,-0.001088,0.006716,-0.003302,-83.727005,0.006717,
1130,1680,0.172024,-1.809275,0.999998,0.000171,-0.001891,0.005560,0.000321,0.005574,-0.001904,87.534452,0.005667,
1290,630,-0.107548,-12.031047,0.999998,0.000165,-0.002076,0.004534,0.001101,0.004712,-0.002254,80.786493,0.004714,
1360,130,-0.071515,-14.596629,0.999998,0.000169,-0.000564,0.004867,-0.000227,0.004877,-0.000573,-87.613947,0.005331,
990,260,0.330361,-13.839515,0.999997,0.000204,-0.001678,0.005883,0.000218,0.005889,-0.001684,88.346083,0.006066,
1560,1220,-1.623683,-5.854934,0.999996,0.000246,-0.005021,0.009325,0.000679,0.009357,-0.005053,87.296618,0.009367,
660,200,1.005330,-13.785757,0.999998,0.000191,-0.003290,0.007692,0.000905,0.007767,-0.003364,85.320998,0.007790,
1770,1530,-1.731808,-3.739734,0.999997,0.000196,-0.003913,0.007704,-0.000109,0.007705,-0.003914,-89.462139,0.007705,
990,1550,0.581470,-2.838292,0.999997,0.000212,-0.003144,0.006739,0.000837,0.006809,-0.003214,85.194545,0.006813,
1180,680,0.087452,-11.831960,0.999998,0.000172,-0.001961,0.003959,-0.001319,0.004239,-0.002242,-77.988663,0.004242,
1680,2010,-0.098561,-0.144242,0.999998,0.000193,-0.000653,0.005471,0.001499,0.005819,-0.001000,76.960945,0.006222,
610,1280,2.668264,-5.829215,0.999996,0.000206,-0.003643,0.007333,-0.000365,0.007345,-0.003655,-88.097887,0.007345,
1700,410,-1.226111,-12.431433,0.999997,0.000208,-0.003625,0.007559,0.000128,0.007560,-0.003627,89.345110,0.007562,
1890,1410,-2.471377,-4.940881,0.999996,0.000225,-0.003794,0.007573,0.000077,0.007574,-0.003794,89.613848,0.007574,
1730,770,-2.182617,-9.527657,0.999998,0.000211,-0.004117,0.008019,-0.000676,0.008056,-0.004154,-86.822120,0.008058,
910,510,0.861130,-12.039210,0.999998,0.000194,-0.003647,0.007302,-0.000640,0.007339,-0.003684,-86.665205,0.007339,
1250,320,-0.027360,-13.648741,0.999998,0.000174,-0.001479,0.005298,0.000065,0.005298,-0.001480,89.452428,0.005468,
1440,180,-0.183169,-14.314066,0.999998,0.000215,-0.001088,0.005358,-0.000357,0.005378,-0.001108,-86.841799,0.005679,
950,780,1.170869,-9.950558,0.999995,0.000244,-0.005580,0.009410,-0.000465,0.009425,-0.005595,-88.224503,0.009480,
1480,700,-0.805127,-10.809790,0.999997,0.000237,-0.004939,0.008315,0.001417,0.008465,-0.005088,83.965681,0.008522,
1900,1390,-2.557874,-5.118305,0.999995,0.000000,-0.003741,0.007658,0.000016,0.007658,-0.003741,89.919957,0.007659,
950,710,0.989845,-10.582986,0.999996,0.000224,-0.005132,0.008685,-0.000946,0.008750,-0.005196,-86.102260,0.008801,
1790,620,-2.026643,-10.596377,0.999998,0.000156,-0.003928,0.007753,-0.000127,0.007754,-0.003929,-89.379071,0.007754,
610,1290,2.642203,-5.757383,0.999996,0.000230,-0.003666,0.007357,-0.000346,0.007368,-0.003677,-88.201478,0.007368,
1590,1700,-0.759922,-2.060092,0.999997,0.000209,-0.003067,0.006871,-0.000097,0.006872,-0.003068,-89.438425,0.006885,
1640,630,-1.423232,-10.863935,0.999996,0.000248,-0.004418,0.008113,0.000173,0.008115,-0.004421,89.207526,0.008126,
610,1540,2.027620,-3.860632,0.999997,0.000211,-0.003783,0.007616,0.000065,0.007617,-0.003784,89.675814,0.007617,
1860,500,-2.021389,-11.357462,0.999997,0.000201,-0.003764,0.007618,0.000062,0.007618,-0.003764,89.687944,0.007618,
1030,1790,0.272243,-1.273235,0.999998,0.000193,-0.001683,0.005698,-0.000070,0.005698,-0.001683,-89.456473,0.005855,
780,960,2.477915,-8.072302,0.999996,0.000226,-0.003282,0.007657,0.000655,0.007696,-0.003321,86.586514,0.007720,
1480,1310,-0.893326,-4.698626,0.999995,0.000260,-0.005415,0.008913,-0.001250,0.009021,-0.005523,-85.052960,0.009097,
1390,1170,-0.947266,-5.296180,0.999991,0.000371,-0.004421,0.008274,-0.003332,0.009096,-0.005243,-76.150571,0.009131,
1130,1670,0.175699,-1.865415,0.999998,0.000171,-0.001929,0.005538,0.000362,0.005555,-0.001946,87.233303,0.005638,
920,1350,1.130586,-4.604238,0.999996,0.000252,-0.005051,0.008718,0.000621,0.008746,-0.005079,87.421915,0.008784,
740,560,1.622597,-11.219657,0.999996,0.000241,-0.004029,0.007802,-0.000115,0.007803,-0.004030,-89.441811,0.007805,
630,880,2.849276,-8.567500,0.999998,0.000189,-0.003422,0.007007,0.000440,0.007025,-0.003441,87.586692,0.007026,
1230,1970,0.000321,-0.295565,0.999998,0.000154,-0.000351,0.004586,0.000004,0.004586,-0.000351,89.949370,0.005104,
1690,250,-0.820206,-13.627933,0.999997,0.000198,-0.002981,0.007202,-0.000602,0.007238,-0.003017,-86.628674,0.007271,
660,180,0.925386,-13.936964,0.999997,0.000199,-0.003162,0.007662,0.001179,0.007789,-0.003289,83.856350,0.007820,
1610,1130,-2.155803,-6.732347,0.999998,0.000201,-0.003611,0.008375,0.001028,0.008463,-0.003699,85.131480,0.008485,
640,470,1.815174,-11.676759,0.999998,0.000199,-0.003783,0.007620,-0.000124,0.007621,-0.003784,-89.376831,0.007621,
1520,1980,-0.094607,-0.277433,0.999998,0.000161,-0.000516,0.005124,0.000793,0.005233,-0.000625,82.149133,0.005716,
1700,470,-1.346892,-11.974945,0.999997,0.000204,-0.003778,0.007614,0.000195,0.007617,-0.003782,89.021656,0.007618,
1400,750,-0.483841,-10.853476,0.999997,0.000222,-0.004814,0.007444,0.002647,0.007991,-0.005361,78.320982,0.008145,
1770,1510,-1.775282,-3.893692,0.999997,0.000202,-0.003934,0.007727,-0.000064,0.007727,-0.003935,-89.686782,0.007728,
1440,1190,-1.094779,-5.608303,0.999995,0.000274,-0.005699,0.010328,-0.001106,0.010404,-0.005775,-86.071667,0.010425,
560,1950,0.885016,-0.913461,0.999968,0.000000,-0.003908,0.009095,-0.001620,0.009294,-0.004107,-83.003523,0.009315,
1810,1870,-0.969051,-1.233577,0.999997,0.000203,-0.003220,0.007695,0.001016,0.007789,-0.003314,84.725191,0.007818,
1340,840,-0.442774,-10.792813,0.999993,0.000345,-0.003688,0.005036,0.003103,0.006027,-0.004680,72.286139,0.006327,
1350,320,-0.177678,-13.602507,0.999998,0.000171,-0.001644,0.005530,0.000144,0.005532,-0.001647,88.851181,0.005681,
910,730,1.242550,-10.259940,0.999995,0.000259,-0.005162,0.008895,-0.000345,0.008904,-0.005170,-88.593805,0.008942,
930,800,1.350720,-9.678728,0.999996,0.000223,-0.005465,0.009477,0.000034,0.009477,-0.005465,89.867751,0.009514,
940,1610,0.680423,-2.543800,0.999997,0.000220,-0.003141,0.006874,0.000524,0.006901,-0.003168,87.015475,0.006909,
1130,720,0.202861,-11.463833,0.999996,0.000223,-0.002939,0.005036,-0.002574,0.005795,-0.003697,-73.577594,0.005868,
760,430,1.280841,-12.270818,0.999997,0.000189,-0.003701,0.007550,-0.000178,0.007553,-0.003704,-89.093243,0.007553,
1890,1400,-2.495970,-5.017833,0.999996,0.000242,-0.003759,0.007598,0.000066,0.007599,-0.003759,89.669280,0.007599,
1170,1540,0.116792,-2.525713,0.999997,0.000203,-0.002053,0.005223,0.000506,0.005258,-0.002088,86.041877,0.005295,
1790,600,-1.978770,-10.752909,0.999998,0.000163,-0.003893,0.007756,-0.000039,0.007756,-0.003893,-89.809277,0.007756,
1480,660,-0.748146,-11.135074,0.999996,0.000234,-0.004529,0.007837,0.001424,0.007999,-0.004691,83.517542,0.008039,
1800,1930,-0.646945,-0.754034,0.999996,0.000213,-0.002549,0.007704,0.001970,0.008070,-0.002914,79.489641,0.008173,
700,360,1.346240,-12.660638,0.999996,0.000212,-0.003650,0.007559,-0.000012,0.007559,-0.003650,-89.937712,0.007560,
860,1900,0.352611,-0.757376,0.999997,0.000198,-0.001622,0.006152,-0.000999,0.006278,-0.001748,-82.793518,0.006480,
1080,840,0.653729,-10.279514,0.999995,0.000266,-0.005309,0.007972,-0.002928,0.008589,-0.005926,-78.101337,0.008793,
1570,1840,-0.431234,-1.096959,0.999998,0.000174,-0.001975,0.006189,0.000595,0.006232,-0.002018,85.853288,0.006360,
1290,1230,-0.196995,-3.774800,0.999995,0.000265,-0.003218,0.002588,-0.001776,0.003088,-0.003718,-74.269591,0.003980,
1120,210,0.109003,-14.196928,0.999998,0.000139,-0.001081,0.005190,0.000084,0.005191,-0.001082,89.229187,0.005477,
1680,2000,-0.128705,-0.197949,0.999998,0.000184,-0.000762,0.005586,0.001550,0.005944,-0.001121,76.984598,0.006317,
1390,890,-0.981033,-9.781414,0.999992,0.000310,-0.004225,0.008313,0.003525,0.009236,-0.005148,75.327030,0.009257,
1000,640,0.650675,-11.356946,0.999996,0.000231,-0.004206,0.007418,-0.001496,0.007607,-0.004395,-82.783630,0.007638,
780,980,2.505902,-7.919332,0.999996,0.000235,-0.003170,0.007558,0.000401,0.007573,-0.003185,87.859746,0.007605,
1550,1700,-0.639348,-1.986319,0.999997,0.000224,-0.002625,0.006683,-0.000002,0.006683,-0.002625,-89.985580,0.006735,
1560,1240,-1.546510,-5.662428,0.999996,0.000242,-0.005147,0.009368,0.000472,0.009384,-0.005163,88.139390,0.009399,
1180,660,0.089509,-11.914699,0.999998,0.000200,-0.001991,0.004181,-0.001154,0.004390,-0.002200,-79.749860,0.004390,
820,1000,2.398293,-7.773951,0.999997,0.000201,-0.003003,0.007691,0.000298,0.007699,-0.003011,88.403601,0.007760,
1130,860,0.569299,-10.797161,0.999996,0.000237,-0.002769,0.003699,-0.002212,0.004383,-0.003453,-72.811994,0.004619,
1040,1410,0.495058,-3.632700,0.999995,0.000270,-0.003878,0.006910,0.001824,0.007210,-0.004178,80.660211,0.007240,
1130,1430,0.203407,-3.169665,0.999997,0.000199,-0.002549,0.005205,0.001527,0.005495,-0.002839,79.252618,0.005496,
970,260,0.366901,-13.820399,0.999998,0.000196,-0.001998,0.006001,0.000195,0.006006,-0.002002,88.606133,0.006116,
590,350,1.724378,-12.454194,0.999997,0.000172,-0.003785,0.007401,-0.000096,0.007402,-0.003786,-89.507263,0.007403,
1810,1850,-1.046163,-1.386444,0.999997,0.000211,-0.003347,0.007730,0.000776,0.007784,-0.003401,86.013079,0.007804,
1690,230,-0.757486,-13.776887,0.999997,0.000212,-0.002858,0.007111,-0.000766,0.007169,-0.002917,-85.634294,0.007210,
580,970,3.137795,-7.924024,0.999997,0.000186,-0.002836,0.006214,-0.000089,0.006214,-0.002837,-89.434514,0.006222,
1890,1320,-2.698848,-5.616233,0.999997,0.000199,-0.003633,0.007298,0.000154,0.007300,-0.003635,89.193452,0.007300,
560,1930,0.993433,-1.084836,0.999997,0.000000,-0.003616,0.008201,-0.001014,0.008287,-0.003702,-85.131041,0.008303,
740,1000,2.643269,-7.765083,0.999997,0.000194,-0.003210,0.007335,0.000275,0.007342,-0.003218,88.506061,0.007361,
1230,1950,0.000229,-0.387806,0.999998,0.000148,-0.000453,0.004704,-0.000008,0.004704,-0.000453,-89.910927,0.005190,
1610,1110,-2.209748,-6.900629,0.999997,0.000207,-0.003385,0.008142,0.000863,0.008207,-0.003449,85.741917,0.008241,
1050,930,1.350797,-9.070934,0.999989,0.000381,-0.004822,0.011160,-0.003301,0.011815,-0.005477,-78.779068,0.011825,
580,1390,2.495369,-5.077081,0.999997,0.000226,-0.005070,0.007628,0.000102,0.007629,-0.005070,89.541736,0.007766,
1650,510,-1.232326,-11.789764,0.999997,0.000200,-0.003914,0.007689,0.000320,0.007698,-0.003923,88.423552,0.007699,
1850,720,-2.513815,-9.703406,0.999997,0.000231,-0.003737,0.007461,-0.000255,0.007467,-0.003742,-88.696925,0.007467,
910,490,0.836260,-12.183492,0.999998,0.000193,-0.003478,0.007230,-0.000564,0.007260,-0.003507,-86.991253,0.007261,
1370,1680,-0.240892,-1.845513,0.999998,0.000166,-0.001824,0.005710,-0.000227,0.005717,-0.001831,-88.273336,0.005838,
1730,750,-2.126743,-9.690004,0.999998,0.000190,-0.004152,0.008023,-0.000587,0.008052,-0.004180,-87.248097,0.008054,
660,160,0.828857,-14.094812,0.999997,0.000211,-0.002978,0.007726,0.001431,0.007914,-0.003166,82.515896,0.007966,
1340,820,-0.357768,-10.896621,0.999995,0.000285,-0.004059,0.005228,0.003262,0.006260,-0.005090,72.455404,0.006656,
1330,320,-0.146832,-13.618970,0.999998,0.000165,-0.001662,0.005453,0.000152,0.005457,-0.001665,88.775345,0.005593,
1190,720,0.063938,-11.714731,0.999998,0.000190,-0.001796,0.003255,-0.001355,0.003596,-0.002136,-75.890298,0.003617,
1480,640,-0.723648,-11.291937,0.999996,0.000230,-0.004345,0.007609,0.001395,0.007770,-0.004506,83.431126,0.007803,
700,570,1.803814,-11.047746,0.999996,0.000223,-0.003977,0.007756,-0.000019,0.007756,-0.003977,-89.909391,0.007757,
950,1820,0.368177,-1.169243,0.999997,0.000202,-0.001888,0.006037,-0.000356,0.006053,-0.001904,-87.436132,0.006190,
1210,1540,0.041094,-2.500380,0.999998,0.000184,-0.001883,0.005062,0.000261,0.005072,-0.001893,87.847421,0.005126,
1670,2010,-0.091244,-0.141089,0.999998,0.000156,-0.000690,0.005431,0.001435,0.005750,-0.001010,77.441354,0.006140,
1340,50,-0.015065,-14.981135,0.999999,0.000142,-0.000187,0.004538,-0.000200,0.004546,-0.000196,-87.576093,0.005140,
1600,810,-1.730966,-9.405480,0.999996,0.000238,-0.004819,0.008966,-0.000678,0.009000,-0.004852,-87.189203,0.009009,
1190,1860,0.036717,-0.828945,0.999999,0.000129,-0.000836,0.005014,-0.000079,0.005015,-0.000837,-89.224360,0.005373,
1900,1370,-2.606941,-5.271036,0.999996,0.000000,-0.003663,0.007534,0.000063,0.007535,-0.003663,89.678384,0.007536,
860,1880,0.404669,-0.880211,0.999997,0.000211,-0.001802,0.006132,-0.000884,0.006229,-0.001899,-83.719836,0.006386,
1620,630,-1.333748,-10.916456,0.999996,0.000231,-0.004505,0.008141,0.000294,0.008148,-0.004512,88.669928,0.008163,
1520,1960,-0.128166,-0.379527,0.999998,0.000167,-0.000681,0.005226,0.000763,0.005323,-0.000778,82.754495,0.005750,
990,1600,0.543464,-2.506540,0.999998,0.000205,-0.002963,0.006632,0.000677,0.006680,-0.003010,85.982900,0.006690,
1890,1390,-2.519828,-5.094157,0.999995,0.000265,-0.003727,0.007601,0.000047,0.007601,-0.003727,89.762763,0.007602,
1630,660,-1.447993,-10.640398,0.999996,0.000274,-0.004587,0.008305,0.000124,0.008306,-0.004588,89.447023,0.008321,
1660,330,-0.921979,-13.109436,0.999998,0.000192,-0.003285,0.007266,-0.000077,0.007267,-0.003285,-89.580183,0.007278,
1400,730,-0.461387,-11.000204,0.999996,0.000234,-0.004519,0.007214,0.002545,0.007742,-0.005047,78.276280,0.007860,
1770,1490,-1.820244,-4.050095,0.999997,0.000192,-0.003949,0.007758,-0.000026,0.007758,-0.003949,-89.875100,0.007758,
1080,860,0.754281,-10.114659,0.999992,0.000322,-0.005001,0.007941,-0.003067,0.008631,-0.005692,-77.319726,0.008776,
950,1280,1.155759,-5.122804,0.999996,0.000238,-0.005542,0.009348,0.000505,0.009365,-0.005559,88.059159,0.009419,
1020,840,0.992047,-9.750256,0.999996,0.000231,-0.005888,0.009962,-0.001334,0.010074,-0.006000,-85.222653,0.010135,
1440,160,-0.161515,-14.419202,0.999998,0.000203,-0.000987,0.005342,-0.000419,0.005370,-0.001015,-86.225856,0.005705,
1130,1390,0.201355,-3.382518,0.999997,0.000203,-0.002682,0.005098,0.001951,0.005560,-0.003144,76.684103,0.005575,
920,1090,2.041085,-7.016533,0.999996,0.000227,-0.003212,0.008787,-0.000835,0.008845,-0.003270,-86.036581,0.008944,
1880,930,-3.086443,-8.177469,0.999998,0.000173,-0.003210,0.006548,-0.000231,0.006554,-0.003216,-88.645801,0.006554,
1390,870,-0.848016,-9.955997,0.999992,0.000315,-0.005022,0.008355,0.002894,0.008954,-0.005621,78.300681,0.009051,
1560,1260,-1.477135,-5.478346,0.999996,0.000252,-0.005229,0.009272,0.000284,0.009277,-0.005235,88.879108,0.009303,
1530,1700,-0.592057,-1.957665,0.999997,0.000195,-0.002510,0.006542,-0.000065,0.006543,-0.002510,-89.591419,0.006601,
820,980,2.379962,-7.927447,0.999997,0.000220,-0.003099,0.007778,0.000504,0.007801,-0.003122,87.350308,0.007853,
1180,640,0.090397,-12.002732,0.999997,0.000197,-0.002002,0.004354,-0.001011,0.004511,-0.002159,-81.174487,0.004513,
830,1420,1.404659,-4.279210,0.999995,0.000265,-0.004469,0.008201,0.000200,0.008204,-0.004472,89.094672,0.008215,
1880,1320,-2.662560,-5.594170,0.999997,0.000208,-0.003644,0.007306,0.000174,0.007309,-0.003647,89.089740,0.007309,
740,980,2.632394,-7.911185,0.999997,0.000198,-0.003263,0.007327,0.000297,0.007335,-0.003271,88.393205,0.007349,
780,1420,1.621542,-4.404582,0.999996,0.000213,-0.004319,0.008093,-0.000013,0.008093,-0.004319,-89.938362,0.008099,
1690,210,-0.699262,-13.913622,0.999997,0.000215,-0.002705,0.006976,-0.000916,0.007062,-0.002791,-84.643699,0.007114,
1230,1930,0.000133,-0.484562,0.999999,0.000133,-0.000538,0.004764,0.000011,0.004764,-0.000538,89.885117,0.005218,
1810,1830,-1.126265,-1.544125,0.999997,0.000220,-0.003438,0.007693,0.000627,0.007728,-0.003473,86.788621,0.007742,
1520,1190,-1.544071,-6.026196,0.999996,0.000250,-0.005166,0.009754,0.000631,0.009781,-0.005193,87.581913,0.009787,
700,340,1.294801,-12.811788,0.999997,0.000203,-0.003624,0.007543,0.000017,0.007543,-0.003624,89.910456,0.007545,
1520,1940,-0.166985,-0.487181,0.999998,0.000188,-0.000894,0.005428,0.000765,0.005519,-0.000986,83.196310,0.005887,
910,880,1.771373,-8.861862,0.999997,0.000200,-0.004607,0.009260,0.000991,0.009330,-0.004678,85.933015,0.009330,
1480,620,-0.702494,-11.443592,0.999996,0.000220,-0.004149,0.007486,0.001327,0.007635,-0.004298,83.573227,0.007656,
910,450,0.786752,-12.469168,0.999997,0.000199,-0.003316,0.007089,-0.000475,0.007111,-0.003337,-87.391760,0.007116,
660,140,0.735678,-14.247708,0.999996,0.000232,-0.002750,0.007649,0.001701,0.007920,-0.003021,80.940784,0.007994,
1340,800,-0.298247,-11.002375,0.999996,0.000245,-0.003921,0.005384,0.003380,0.006482,-0.005019,72.001276,0.006799,
910,320,0.593839,-13.364736,0.999997,0.000223,-0.002454,0.006632,0.000079,0.006632,-0.002455,89.500365,0.006707,
1270,320,-0.057000,-13.643626,0.999997,0.000208,-0.001449,0.005316,0.000044,0.005316,-0.001450,89.627305,0.005496,
860,1860,0.455438,-1.004321,0.999996,0.000231,-0.002004,0.006343,-0.000799,0.006419,-0.002080,-84.584339,0.006550,
1610,1090,-2.250745,-7.060426,0.999996,0.000230,-0.003150,0.008048,0.000776,0.008101,-0.003204,86.053857,0.008160,
1170,720,0.101906,-11.649506,0.999998,0.000186,-0.002113,0.003769,-0.001878,0.004317,-0.002662,-73.719518,0.004356,
1610,660,-1.353929,-10.693647,0.999997,0.000231,-0.004645,0.008337,0.000234,0.008342,-0.004649,88.965678,0.008360,
800,1150,2.294391,-6.607503,0.999996,0.000247,-0.003681,0.008076,-0.000956,0.008153,-0.003758,-85.379535,0.008161,
1610,1580,-1.021199,-2.966055,0.999997,0.000198,-0.003639,0.007452,-0.000416,0.007468,-0.003654,-87.853649,0.007468,
1880,1410,-2.433181,-4.918275,0.999996,0.000246,-0.003788,0.007555,0.000095,0.007556,-0.003788,89.518287,0.007556,
640,570,2.035771,-10.910064,0.999997,0.000193,-0.003820,0.007638,-0.000003,0.007638,-0.003820,-89.984848,0.007638,
1020,800,0.834322,-10.128859,0.999996,0.000232,-0.005812,0.009220,-0.001674,0.009404,-0.005996,-83.720803,0.009522,
1500,810,-1.203024,-9.714353,0.999994,0.000314,-0.005721,0.009732,0.000344,0.009740,-0.005729,88.724777,0.009790,
560,640,2.565825,-10.199103,0.999523,0.000000,-0.005591,0.007453,0.000898,0.007515,-0.005653,86.080373,0.007827,
1390,1350,-0.396259,-3.883506,0.999995,0.000246,-0.004058,0.006683,-0.002430,0.007207,-0.004583,-77.826899,0.007295,
580,350,1.762142,-12.428970,0.999998,0.000163,-0.004123,0.007248,-0.000122,0.007250,-0.004124,-89.386274,0.007273,
1900,1360,-2.633128,-5.346178,0.999996,0.000000,-0.003646,0.007465,0.000088,0.007466,-0.003647,89.547022,0.007467,
850,1900,0.366966,-0.762777,0.999997,0.000207,-0.001551,0.006202,-0.001068,0.006347,-0.001696,-82.301751,0.006572,
800,70,0.166782,-14.843600,0.999998,0.000160,-0.000958,0.005711,0.001496,0.006032,-0.001278,77.915211,0.006357,
1680,610,-1.552516,-10.927277,0.999997,0.000178,-0.004255,0.008003,0.000084,0.008003,-0.004256,89.608839,0.008009,
1670,940,-2.397573,-8.230894,0.999998,0.000196,-0.003396,0.007764,-0.000712,0.007809,-0.003442,-86.364705,0.007827,
1170,1860,0.052328,-0.831515,0.999999,0.000167,-0.000791,0.005033,-0.000112,0.005035,-0.000793,-88.900651,0.005414,
1690,190,-0.630184,-14.058495,0.999997,0.000200,-0.002541,0.006924,-0.001046,0.007038,-0.002655,-83.769492,0.007109,
570,1830,1.429376,-1.815770,0.999794,0.001698,-0.004913,0.007718,-0.000317,0.007726,-0.004921,-88.560989,0.007822,
1130,1370,0.201947,-3.484003,0.999998,0.000176,-0.002751,0.005048,0.002135,0.005595,-0.003298,75.649468,0.005624,
1460,130,-0.139320,-14.572119,0.999998,0.000157,-0.000698,0.005213,-0.000535,0.005261,-0.000746,-84.870747,0.005693,
1570,1820,-0.473738,-1.222507,0.999997,0.000197,-0.002123,0.006354,0.000487,0.006382,-0.002151,86.722980,0.006494,
1050,1800,0.227980,-1.200718,0.999998,0.000174,-0.001622,0.005535,-0.000055,0.005535,-0.001623,-89.563376,0.005691,
780,1400,1.671323,-4.564212,0.999997,0.000203,-0.004353,0.008156,-0.000099,0.008157,-0.004353,-89.544312,0.008163,
1290,610,-0.109655,-12.124708,0.999998,0.000180,-0.002075,0.004676,0.000955,0.004808,-0.002208,82.103045,0.004814,
1160,230,0.073677,-14.108211,0.999998,0.000187,-0.000997,0.005134,0.000074,0.005135,-0.000998,89.311089,0.005445,
1230,380,0.002872,-13.334825,0.999998,0.000163,-0.001699,0.005321,-0.000017,0.005321,-0.001699,-89.859491,0.005435,
1770,1470,-1.866054,-4.205891,0.999998,0.000184,-0.003965,0.007769,0.000017,0.007769,-0.003965,89.916940,0.007770,
900,1350,1.230863,-4.672222,0.999997,0.000242,-0.005011,0.008714,0.000407,0.008726,-0.005023,88.302911,0.008760,
1860,1890,-1.050851,-1.238145,0.999998,0.000177,-0.003638,0.007720,0.000574,0.007749,-0.003667,87.113183,0.007753,
1080,880,0.876803,-9.962820,0.999993,0.000298,-0.004251,0.007619,-0.003389,0.008518,-0.005150,-75.137750,0.008580,
1440,140,-0.134223,-14.528050,0.999998,0.000194,-0.000826,0.005208,-0.000425,0.005238,-0.000856,-85.992277,0.005620,
740,960,2.613163,-8.059273,0.999996,0.000224,-0.003339,0.007458,0.000560,0.007487,-0.003368,87.036525,0.007499,
1480,600,-0.684822,-11.589338,0.999997,0.000205,-0.003958,0.007351,0.001251,0.007488,-0.004094,83.763432,0.007499,
930,1280,1.266451,-5.202652,0.999994,0.000280,-0.005444,0.009300,0.000208,0.009303,-0.005447,89.189981,0.009348,
1810,1810,-1.192705,-1.698081,0.999997,0.000224,-0.003512,0.007677,0.000468,0.007697,-0.003531,87.610479,0.007705,
1560,1280,-1.410385,-5.291627,0.999995,0.000250,-0.005261,0.009175,0.000090,0.009176,-0.005262,89.641225,0.009209,
1830,1060,-2.988072,-7.337497,0.999998,0.000193,-0.003185,0.006762,0.000202,0.006766,-0.003189,88.837660,0.006770,
1890,1700,-1.800741,-2.748315,0.999997,0.000203,-0.003781,0.007289,0.000000,0.007289,-0.003781,89.998206,0.007291,
1180,620,0.092713,-12.091647,0.999998,0.000177,-0.002007,0.004547,-0.000898,0.004668,-0.002128,-82.335792,0.004674,
820,960,2.346220,-8.085249,0.999996,0.000241,-0.003222,0.007858,0.000726,0.007905,-0.003269,86.264799,0.007945,
700,320,1.250105,-12.964378,0.999997,0.000200,-0.003607,0.007523,0.000070,0.007523,-0.003608,89.638004,0.007525,
1430,1180,-1.095644,-5.632121,0.999996,0.000270,-0.005377,0.010371,-0.001475,0.010508,-0.005514,-84.694449,0.010512,
1150,320,0.118543,-13.630179,0.999999,0.000145,-0.001526,0.005434,-0.000090,0.005436,-0.001527,-89.257026,0.005607,
890,880,1.859980,-8.824201,0.999997,0.000240,-0.004384,0.009038,0.001056,0.009121,-0.004466,85.526848,0.009122,
1520,1920,-0.202357,-0.597350,0.999998,0.000182,-0.001043,0.005479,0.000684,0.005550,-0.001114,84.073513,0.005872,
910,430,0.759867,-12.611819,0.999997,0.000203,-0.003252,0.007027,-0.000410,0.007043,-0.003269,-87.721703,0.007049,
1870,930,-3.054426,-8.189681,0.999998,0.000166,-0.003228,0.006640,-0.000283,0.006648,-0.003236,-88.360282,0.006648,
1860,230,-1.322931,-13.384123,0.999997,0.000202,-0.003651,0.007470,-0.000200,0.007473,-0.003655,-88.970464,0.007474,
1070,520,0.353247,-12.382923,0.999997,0.000179,-0.002666,0.006060,-0.000985,0.006170,-0.002776,-83.636778,0.006180,
1340,780,-0.261592,-11.111956,0.999996,0.000242,-0.003801,0.005330,0.003280,0.006386,-0.004857,72.151907,0.006669,
1240,180,-0.007872,-14.368429,0.999998,0.000169,-0.000841,0.004927,0.000024,0.004928,-0.000841,89.762102,0.005272,
1900,1350,-2.659704,-5.420532,0.999996,0.000000,-0.003642,0.007358,0.000099,0.007359,-0.003642,89.483043,0.007359,
860,1840,0.505405,-1.134910,0.999996,0.000225,-0.002164,0.006412,-0.000669,0.006464,-0.002216,-85.565942,0.006570,
1010,170,0.186527,-14.359311,0.999998,0.000187,-0.001000,0.005397,0.000440,0.005427,-0.001030,86.087999,0.005765,
1390,850,-0.740121,-10.122091,0.999995,0.000248,-0.005383,0.008291,0.002668,0.008793,-0.005885,79.342075,0.008959,
850,1980,0.149739,-0.295652,0.999997,0.000176,-0.000628,0.005581,-0.001281,0.005835,-0.000882,-78.790391,0.006291,
680,750,2.338845,-9.599861,0.999996,0.000227,-0.003880,0.007718,0.000534,0.007743,-0.003904,87.367277,0.007743,
1610,1070,-2.287235,-7.224459,0.999997,0.000222,-0.002983,0.007951,0.000508,0.007975,-0.003007,87.344975,0.008055,
560,630,2.516587,-10.291316,0.999679,0.000000,-0.004834,0.008161,0.001251,0.008281,-0.004953,84.549699,0.008334,
1660,2010,-0.082591,-0.137864,0.999998,0.000168,-0.000630,0.005414,0.001410,0.005727,-0.000943,77.496459,0.006141,
890,320,0.646315,-13.333878,0.999998,0.000196,-0.002785,0.006793,0.000042,0.006793,-0.002786,89.750492,0.006830,
1250,380,-0.030208,-13.329164,0.999998,0.000164,-0.001678,0.005332,0.000143,0.005335,-0.001681,88.835329,0.005455,
1770,1450,-1.912340,-4.362698,0.999997,0.000203,-0.003989,0.007785,0.000059,0.007785,-0.003989,89.714499,0.007786,
570,1980,0.636662,-0.604147,0.999587,0.002296,-0.003924,0.009228,-0.002616,0.009729,-0.004426,-79.151993,0.009742,
1130,1350,0.201370,-3.583862,0.999997,0.000194,-0.002849,0.005058,0.002373,0.005716,-0.003507,74.512195,0.005765,
740,940,2.577991,-8.209928,0.999996,0.000227,-0.003414,0.007476,0.000673,0.007517,-0.003455,86.478366,0.007525,
580,180,1.205888,-13.682156,0.999997,0.000223,-0.003402,0.007687,0.000349,0.007698,-0.003413,88.197042,0.007715,
1870,1410,-2.395074,-4.895208,0.999996,0.000270,-0.003764,0.007548,0.000118,0.007549,-0.003766,89.400597,0.007549,
1280,1610,-0.089352,-2.148461,0.999998,0.000188,-0.001809,0.005302,-0.000186,0.005307,-0.001814,-88.506577,0.005395,
790,580,1.459005,-11.182960,0.999995,0.000235,-0.004168,0.007894,-0.000166,0.007896,-0.004170,-89.209958,0.007901,
1880,870,-2.986149,-8.572566,0.999998,0.000170,-0.003279,0.006659,-0.000155,0.006662,-0.003281,-89.108652,0.006662,
1140,230,0.095274,-14.102016,0.999998,0.000142,-0.001145,0.005183,0.000031,0.005183,-0.001145,89.717990,0.005445,
1030,1800,0.262137,-1.219078,0.999998,0.000199,-0.001618,0.005625,-0.000114,0.005627,-0.001620,-89.101348,0.005794,
1810,1060,-2.923243,-7.334273,0.999998,0.000176,-0.003251,0.006898,0.000197,0.006902,-0.003255,88.886282,0.006906,
1550,1900,-0.273418,-0.722663,0.999998,0.000202,-0.001127,0.005797,0.000833,0.005895,-0.001226,83.238193,0.006222,
1290,570,-0.110165,-12.318957,0.999998,0.000182,-0.002077,0.004982,0.000719,0.005054,-0.002149,84.246449,0.005073,
660,120,0.625947,-14.402630,0.999996,0.000236,-0.002494,0.007729,0.002046,0.008123,-0.002888,79.092876,0.008235,
1810,1790,-1.262615,-1.852362,0.999997,0.000227,-0.003525,0.007600,0.000363,0.007612,-0.003536,88.131176,0.007618,
1310,320,-0.113081,-13.631026,0.999998,0.000173,-0.001509,0.005393,0.000056,0.005394,-0.001510,89.535797,0.005565,
1480,580,-0.670000,-11.736279,0.999996,0.000236,-0.003805,0.007217,0.001193,0.007344,-0.003933,83.893693,0.007350,
1670,100,-0.276240,-14.662513,0.999998,0.000157,-0.001398,0.006060,-0.001486,0.006346,-0.001683,-79.134586,0.006575,
1530,190,-0.316163,-14.204766,0.999998,0.000182,-0.001457,0.005885,-0.000612,0.005936,-0.001508,-85.270567,0.006170,
1690,170,-0.566205,-14.191340,0.999997,0.000199,-0.002311,0.006799,-0.001212,0.006957,-0.002470,-82.551248,0.007054,
890,1680,0.739006,-2.163882,0.999997,0.000221,-0.003124,0.006920,0.000181,0.006923,-0.003127,88.967608,0.006934,
1080,1600,0.302578,-2.323539,0.999997,0.000194,-0.002433,0.005908,0.000720,0.005970,-0.002495,85.102220,0.005996,
880,1350,1.331408,-4.734453,0.999997,0.000219,-0.004931,0.008663,0.000217,0.008667,-0.004934,89.086382,0.008695,
1860,210,-1.245451,-13.537315,0.999997,0.000199,-0.003652,0.007532,-0.000295,0.007539,-0.003660,-88.492355,0.007540,
1690,560,-1.488451,-11.300603,0.999996,0.000218,-0.004069,0.007840,0.000175,0.007843,-0.004072,89.157219,0.007845,
1060,130,0.094356,-14.588722,0.999998,0.000136,-0.000732,0.005074,0.000328,0.005092,-0.000750,86.773987,0.005498,
1340,760,-0.243310,-11.212765,0.999997,0.000220,-0.003562,0.005237,0.003100,0.006219,-0.004545,72.415061,0.006436,
780,1380,1.719543,-4.731135,0.999997,0.000215,-0.004386,0.008237,-0.000183,0.008240,-0.004389,-89.169858,0.008246,
1860,930,-3.021151,-8.198655,0.999998,0.000148,-0.003249,0.006708,-0.000342,0.006720,-0.003260,-88.036594,0.006721,
1190,1450,0.074838,-2.949177,0.999998,0.000173,-0.001922,0.004542,0.000600,0.004597,-0.001977,84.740444,0.004612,
910,410,0.730592,-12.753169,0.999997,0.000195,-0.003160,0.006956,-0.000360,0.006968,-0.003173,-87.963092,0.006978,
1440,120,-0.113810,-14.628822,0.999998,0.000161,-0.000680,0.005111,-0.000483,0.005151,-0.000720,-85.262792,0.005580,
1480,810,-1.085749,-9.814997,0.999995,0.000249,-0.005816,0.009708,0.000711,0.009741,-0.005848,87.383028,0.009806,
1080,610,0.343118,-11.870158,0.999997,0.000209,-0.003101,0.006058,-0.001638,0.006342,-0.003386,-80.160888,0.006347,
1010,150,0.158285,-14.470860,0.999998,0.000156,-0.000849,0.005327,0.000497,0.005367,-0.000889,85.428392,0.005753,
1900,1340,-2.684617,-5.494130,0.999995,0.000000,-0.003650,0.007271,0.000121,0.007272,-0.003651,89.365913,0.007272,
1850,680,-2.409341,-10.005660,0.999997,0.000198,-0.003797,0.007545,-0.000218,0.007549,-0.003802,-88.897024,0.007549,
1880,1700,-1.762712,-2.722837,0.999997,0.000182,-0.003763,0.007345,-0.000042,0.007345,-0.003763,-89.785637,0.007345,
1560,1720,-0.633080,-1.865191,0.999997,0.000198,-0.002687,0.006738,-0.000001,0.006738,-0.002687,-89.996619,0.006784,
1870,460,-1.969601,-11.638885,0.999997,0.000192,-0.003724,0.007576,0.000076,0.007577,-0.003725,89.616933,0.007577,
1630,1920,-0.336699,-0.651584,0.999997,0.000202,-0.001271,0.006036,0.001208,0.006231,-0.001466,80.852802,0.006516,
1390,810,-0.562726,-10.466098,0.999995,0.000278,-0.005381,0.008131,0.002943,0.008745,-0.005994,78.230438,0.008943,
1410,1180,-0.992120,-5.429935,0.999995,0.000259,-0.005319,0.009774,-0.002276,0.010109,-0.005655,-81.610155,0.010133,
1180,1420,0.091677,-3.094798,0.999998,0.000178,-0.001996,0.004432,0.000996,0.004582,-0.002146,81.389748,0.004585,
1850,1440,-2.245276,-4.620184,0.999997,0.000218,-0.003803,0.007659,0.000074,0.007659,-0.003804,89.627609,0.007659,
1890,1890,-1.160710,-1.349966,0.999997,0.000209,-0.003691,0.007580,0.000533,0.007605,-0.003716,87.298648,0.007605,
820,940,2.309432,-8.241656,0.999996,0.000251,-0.003409,0.007935,0.000791,0.007990,-0.003463,86.029274,0.008013,
1770,1430,-1.959552,-4.517667,0.999997,0.000202,-0.004021,0.007822,0.000135,0.007824,-0.004023,89.345590,0.007825,
660,100,0.519630,-14.553487,0.999996,0.000225,-0.001973,0.007463,0.002401,0.008038,-0.002549,76.514703,0.008216,
1270,380,-0.064311,-13.322081,0.999998,0.000174,-0.001667,0.005363,0.000115,0.005365,-0.001669,89.060442,0.005491,
1590,1320,-1.445613,-5.017873,0.999995,0.000270,-0.005012,0.008783,0.000047,0.008783,-0.005012,89.804999,0.008812,
1520,360,-0.573415,-13.145134,0.999998,0.000199,-0.002635,0.006467,0.000165,0.006470,-0.002638,88.964589,0.006507,
1130,1330,0.200366,-3.680308,0.999997,0.000213,-0.002990,0.004990,0.002624,0.005776,-0.003776,73.338079,0.005866,
1500,1570,-0.650051,-2.768300,0.999997,0.000220,-0.003252,0.006892,-0.000729,0.006944,-0.003304,-85.912481,0.006947,
1610,1050,-2.303609,-7.380261,0.999997,0.000219,-0.002886,0.007901,0.000290,0.007909,-0.002894,88.462738,0.008003,
1400,40,-0.015863,-15.025405,0.999999,0.000137,-0.000138,0.004595,-0.000331,0.004618,-0.000161,-86.019489,0.005242,
1290,320,-0.083982,-13.638481,0.999998,0.000174,-0.001376,0.005337,0.000030,0.005337,-0.001376,89.746846,0.005541,
560,620,2.453796,-10.334263,0.999855,0.000000,-0.004234,0.007659,0.001502,0.007846,-0.004420,82.913420,0.007867,
860,1820,0.551206,-1.262303,0.999997,0.000231,-0.002355,0.006582,-0.000589,0.006621,-0.002394,-86.247095,0.006705,
740,920,2.542859,-8.359742,0.999996,0.000222,-0.003494,0.007511,0.000664,0.007551,-0.003534,86.558818,0.007556,
1690,150,-0.491049,-14.331559,0.999996,0.000227,-0.002088,0.006695,-0.001367,0.006902,-0.002296,-81.356149,0.007030,
780,1360,1.774253,-4.897610,0.999997,0.000218,-0.004391,0.008199,-0.000283,0.008206,-0.004398,-88.713356,0.008213,
1860,330,-1.625270,-12.641404,0.999998,0.000194,-0.003643,0.007459,0.000104,0.007460,-0.003644,89.464468,0.007460,
1480,560,-0.651331,-11.878680,0.999996,0.000226,-0.003675,0.007105,0.001121,0.007220,-0.003790,84.125623,0.007223,
1810,1990,-0.290133,-0.300198,0.999995,0.000245,-0.001350,0.007256,0.002807,0.008091,-0.002184,73.443047,0.008371,
1820,1730,-1.467016,-2.333004,0.999997,0.000208,-0.003669,0.007545,0.000031,0.007545,-0.003669,89.841263,0.007546,
890,300,0.609039,-13.468929,0.999998,0.000182,-0.002624,0.006663,0.000171,0.006666,-0.002628,88.948074,0.006716,
980,130,0.155136,-14.566256,0.999998,0.000178,-0.000878,0.005307,0.000576,0.005360,-0.000931,84.728430,0.005727,
680,1350,2.215071,-5.170234,0.999997,0.000214,-0.003975,0.007699,-0.000423,0.007714,-0.003991,-87.925731,0.007716,
1340,740,-0.227688,-11.320677,0.999997,0.000213,-0.003387,0.005187,0.002878,0.006064,-0.004264,73.062917,0.006228,
910,390,0.700743,-12.894089,0.999997,0.000203,-0.002984,0.006853,-0.000251,0.006859,-0.002990,-88.536507,0.006878,
1080,1580,0.311650,-2.444612,0.999997,0.000207,-0.002536,0.005966,0.000835,0.006047,-0.002618,84.441392,0.006066,
1220,480,0.022059,-12.806399,0.999998,0.000154,-0.001894,0.005163,-0.000143,0.005166,-0.001897,-88.836790,0.005227,
1870,870,-2.953240,-8.588354,0.999998,0.000166,-0.003299,0.006761,-0.000236,0.006767,-0.003305,-88.656298,0.006767,
1010,130,0.135605,-14.573344,0.999998,0.000171,-0.000710,0.005212,0.000512,0.005256,-0.000754,85.095339,0.005684,
1460,810,-0.968493,-9.926324,0.999996,0.000244,-0.005831,0.009535,0.001148,0.009621,-0.005916,85.751187,0.009705,
1900,1330,-2.709730,-5.566141,0.999996,0.000000,-0.003646,0.007244,0.000133,0.007246,-0.003648,89.299132,0.007246,
1850,660,-2.357568,-10.156264,0.999996,0.000225,-0.003812,0.007554,-0.000191,0.007558,-0.003815,-89.036961,0.007558,
570,630,2.451969,-10.294622,0.999679,0.002148,-0.004449,0.007889,0.000729,0.007932,-0.004492,86.631415,0.007955,
660,80,0.390750,-14.706664,0.999996,0.000210,-0.001438,0.007525,0.002926,0.008395,-0.002309,73.430399,0.008674,
1350,520,-0.241951,-12.481678,0.999997,0.000181,-0.002336,0.005664,0.000857,0.005755,-0.002427,83.950874,0.005778,
1630,1960,-0.217473,-0.412472,0.999998,0.000160,-0.000797,0.005728,0.001317,0.005984,-0.001053,79.005127,0.006389,
1520,1380,-0.959728,-4.266789,0.999997,0.000199,-0.004779,0.008357,-0.000978,0.008429,-0.004852,-85.764302,0.008462,
1890,1880,-1.208017,-1.425042,0.999997,0.000217,-0.003672,0.007568,0.000467,0.007587,-0.003691,87.626482,0.007588,
1850,1420,-2.295479,-4.774350,0.999996,0.000222,-0.003785,0.007616,0.000117,0.007617,-0.003786,89.414046,0.007617,
1570,1320,-1.343365,-4.960585,0.999995,0.000274,-0.005104,0.008855,-0.000125,0.008856,-0.005105,-89.485650,0.008891,
1440,100,-0.085078,-14.732345,0.999998,0.000176,-0.000525,0.005004,-0.000471,0.005044,-0.000564,-85.162438,0.005527,
1390,790,-0.508464,-10.624082,0.999995,0.000283,-0.005206,0.007740,0.002928,0.008372,-0.005838,77.829514,0.008587,
1130,1310,0.208474,-3.779543,0.999997,0.000230,-0.003186,0.004920,0.002866,0.005831,-0.004097,72.368244,0.005988,
1690,600,-1.573076,-10.981603,0.999996,0.000222,-0.004211,0.007925,0.000082,0.007926,-0.004211,89.610545,0.007931,
1190,320,0.059792,-13.641935,0.999999,0.000160,-0.001432,0.005368,-0.000035,0.005368,-0.001432,-89.701719,0.005559,
610,1600,1.895554,-3.402090,0.999998,0.000161,-0.003745,0.007600,0.000118,0.007601,-0.003746,89.403210,0.007602,
1150,380,0.135559,-13.304496,0.999998,0.000161,-0.001792,0.005453,-0.000243,0.005462,-0.001800,-88.082456,0.005566,
1770,1410,-2.011199,-4.675598,0.999997,0.000230,-0.004019,0.007821,0.000206,0.007825,-0.004023,89.004336,0.007826,
740,900,2.505667,-8.510652,0.999997,0.000212,-0.003601,0.007701,0.000810,0.007759,-0.003659,85.922283,0.007763,
890,280,0.572472,-13.600813,0.999997,0.000207,-0.002473,0.006565,0.000285,0.006574,-0.002482,88.197008,0.006639,
1760,1810,-1.020720,-1.583046,0.999996,0.000251,-0.003456,0.007537,0.000476,0.007558,-0.003477,87.523771,0.007566,
780,1340,1.826061,-5.059602,0.999997,0.000211,-0.004399,0.008234,-0.000365,0.008244,-0.004409,-88.344347,0.008251,
1690,130,-0.423471,-14.458499,0.999997,0.000227,-0.001761,0.006446,-0.001498,0.006711,-0.002026,-79.969298,0.006884,
640,550,1.990692,-11.061756,0.999997,0.000173,-0.003812,0.007619,-0.000052,0.007619,-0.003812,-89.741168,0.007619,
1560,1700,-0.664879,-2.001218,0.999997,0.000214,-0.002829,0.006734,-0.000061,0.006734,-0.002829,-89.636675,0.006763,
1180,1440,0.094724,-3.005394,0.999998,0.000176,-0.001996,0.004566,0.000864,0.004678,-0.002108,82.623290,0.004686,
820,920,2.262749,-8.404097,0.999996,0.000236,-0.003613,0.008147,0.000984,0.008229,-0.003695,85.252368,0.008243,
1870,1700,-1.725508,-2.695167,0.999997,0.000195,-0.003720,0.007394,-0.000086,0.007394,-0.003721,-89.558391,0.007394,
560,610,2.412403,-10.448359,0.999908,0.000000,-0.003468,0.007280,0.000984,0.007369,-0.003558,84.813837,0.007371,
1410,1160,-1.115470,-5.637332,0.999995,0.000283,-0.005017,0.009905,-0.002547,0.010328,-0.005440,-80.575227,0.010333,
1010,110,0.106105,-14.678958,0.999998,0.000174,-0.000561,0.005103,0.000542,0.005155,-0.000613,84.579827,0.005632,
1480,540,-0.632173,-12.021711,0.999997,0.000228,-0.003539,0.006989,0.001049,0.007092,-0.003643,84.367417,0.007093,
1340,720,-0.222930,-11.428521,0.999996,0.000241,-0.003196,0.005231,0.002627,0.005983,-0.003948,74.032342,0.006084,
1900,1320,-2.735807,-5.638118,0.999997,0.000000,-0.003629,0.007305,0.000135,0.007307,-0.003631,89.295093,0.007307,
660,1350,2.297084,-5.207625,0.999996,0.000239,-0.003916,0.007636,-0.000377,0.007649,-0.003928,-88.131344,0.007650,
1220,440,0.019219,-13.014102,0.999998,0.000164,-0.001833,0.005265,-0.000141,0.005268,-0.001835,-88.860237,0.005348,
1420,790,-0.672350,-10.384608,0.999995,0.000297,-0.005624,0.008684,0.002282,0.009039,-0.005979,81.152588,0.009195,
910,370,0.670900,-13.029704,0.999996,0.000228,-0.002791,0.006734,-0.000090,0.006735,-0.002792,-89.460111,0.006767,
1610,1030,-2.318207,-7.538360,0.999998,0.000210,-0.002839,0.007979,0.000037,0.007979,-0.002839,89.801572,0.008089,
870,1280,1.579893,-5.383529,0.999996,0.000225,-0.004983,0.008951,-0.000371,0.008960,-0.004993,-88.475781,0.008980,
1880,650,-2.446356,-10.163286,0.999996,0.000234,-0.003791,0.007569,-0.000100,0.007570,-0.003792,-89.493899,0.007570,
1630,1940,-0.275656,-0.529211,0.999997,0.000201,-0.001047,0.005997,0.001300,0.006229,-0.001279,79.870311,0.006579,
1390,50,-0.021543,-14.979534,0.999998,0.000154,-0.000147,0.004615,-0.000324,0.004637,-0.000169,-86.122030,0.005260,
1390,770,-0.466736,-10.775652,0.999995,0.000264,-0.004914,0.007436,0.002864,0.008068,-0.005546,77.559226,0.008255,
840,70,0.138973,-14.850566,0.999998,0.000182,-0.000509,0.005577,0.001359,0.005866,-0.000798,77.968270,0.006363,
1080,1560,0.319081,-2.563640,0.999997,0.000184,-0.002610,0.005954,0.000937,0.006056,-0.002712,83.828651,0.006067,
990,1310,0.853898,-4.663009,0.999997,0.000243,-0.005432,0.008826,0.001385,0.008959,-0.005565,84.503693,0.009046,
610,1310,2.590443,-5.607569,0.999997,0.000211,-0.003680,0.007378,-0.000317,0.007387,-0.003689,-88.360504,0.007387,
1520,1340,-1.038209,-4.611048,0.999997,0.000209,-0.005142,0.008733,-0.000838,0.008783,-0.005193,-86.557730,0.008832,
1880,1890,-1.123039,-1.312686,0.999998,0.000197,-0.003664,0.007626,0.000548,0.007653,-0.003691,87.227478,0.007655,
1900,1310,-2.761436,-5.711724,0.999997,0.000000,-0.003601,0.007352,0.000119,0.007353,-0.003602,89.376885,0.007354,
1010,540,0.541418,-12.097953,0.999997,0.000219,-0.003261,0.006700,-0.001049,0.006809,-0.003371,-84.050675,0.006809,
700,470,1.588226,-11.821399,0.999998,0.000183,-0.003830,0.007635,-0.000159,0.007638,-0.003832,-89.203906,0.007638,
1130,1290,0.223039,-3.881567,0.999997,0.000232,-0.003407,0.004927,0.003075,0.005939,-0.004419,71.787658,0.006170,
1200,1230,0.111425,-3.615164,0.999997,0.000204,-0.003562,0.002017,0.000734,0.002112,-0.003657,82.628087,0.003672,
1870,70,-0.510642,-14.626868,0.999997,0.000244,-0.003127,0.008863,-0.002372,0.009316,-0.003579,-79.205842,0.009399,
740,880,2.452035,-8.669059,0.999997,0.000221,-0.003706,0.007731,0.000867,0.007797,-0.003772,85.687764,0.007798,
1770,1390,-2.059479,-4.832760,0.999997,0.000211,-0.004037,0.007834,0.000251,0.007840,-0.004042,88.787280,0.007841,
660,60,0.257848,-14.860008,0.999997,0.000214,-0.000912,0.006972,0.002924,0.007938,-0.001878,71.717253,0.008297,
860,1800,0.599706,-1.397129,0.999996,0.000224,-0.002489,0.006621,-0.000466,0.006644,-0.002513,-87.077999,0.006710,
640,510,1.904508,-11.369321,0.999997,0.000236,-0.003816,0.007673,-0.000084,0.007673,-0.003817,-89.582651,0.007673,
1010,90,0.084253,-14.778481,0.999998,0.000169,-0.000409,0.004971,0.000536,0.005024,-0.000462,84.364210,0.005553,
1730,940,-2.600802,-8.207024,0.999998,0.000183,-0.003400,0.007440,-0.000634,0.007477,-0.003437,-86.663757,0.007485,
580,1380,2.520257,-5.152584,0.999996,0.000237,-0.005045,0.007628,0.000186,0.007630,-0.005047,89.161101,0.007762,
1340,700,-0.219719,-11.530039,0.999997,0.000218,-0.003006,0.005251,0.002339,0.005867,-0.003623,75.230976,0.005921,
780,250,0.798254,-13.640934,0.999998,0.000175,-0.002999,0.007149,0.000582,0.007182,-0.003033,86.729351,0.007211,
1690,580,-1.528736,-11.141563,0.999996,0.000236,-0.004139,0.007923,0.000146,0.007925,-0.004141,89.307648,0.007928,
1390,40,-0.014870,-15.025014,0.999999,0.000138,-0.000085,0.004595,-0.000326,0.004618,-0.000107,-86.029172,0.005271,
950,690,0.949749,-10.754360,0.999996,0.000211,-0.004953,0.008449,-0.001019,0.008526,-0.005030,-85.677550,0.008572,
1560,1680,-0.698828,-2.136485,0.999997,0.000204,-0.002961,0.006824,-0.000139,0.006826,-0.002963,-89.183412,0.006846,
1820,1300,-2.492826,-5.622468,0.999997,0.000202,-0.003761,0.007448,0.000459,0.007467,-0.003780,87.658396,0.007467,
1300,1270,-0.143782,-3.734570,0.999997,0.000239,-0.002654,0.003332,-0.002686,0.004361,-0.003683,-69.047389,0.004693,
850,1960,0.202539,-0.407598,0.999998,0.000175,-0.000858,0.005608,-0.001175,0.005815,-0.001065,-80.012042,0.006192,
1350,560,-0.246300,-12.256815,0.999997,0.000179,-0.002538,0.005575,0.001143,0.005733,-0.002696,82.133866,0.005736,
700,300,1.194624,-13.115138,0.999997,0.000215,-0.003597,0.007540,0.000172,0.007543,-0.003600,89.116337,0.007545,
1860,720,-2.551813,-9.682110,0.999997,0.000217,-0.003682,0.007407,-0.000213,0.007412,-0.003687,-88.898401,0.007412,
1430,1800,-0.256780,-1.216322,0.999998,0.000156,-0.001654,0.005638,0.000085,0.005639,-0.001655,89.332604,0.005797,
1650,490,-1.194050,-11.943553,0.999997,0.000203,-0.003852,0.007630,0.000312,0.007638,-0.003860,88.446220,0.007638,
1440,80,-0.066854,-14.829289,0.999998,0.000157,-0.000396,0.004898,-0.000490,0.004943,-0.000441,-84.755913,0.005471,
1320,230,-0.091132,-14.103717,0.999998,0.000185,-0.001128,0.005194,-0.000031,0.005195,-0.001128,-89.717567,0.005465,
1630,800,-1.838053,-9.436480,0.999997,0.000199,-0.004639,0.008659,-0.000715,0.008697,-0.004677,-86.929190,0.008705,
1600,190,-0.435650,-14.150202,0.999996,0.000237,-0.002005,0.006282,-0.000804,0.006359,-0.002082,-84.506142,0.006485,
1080,1540,0.325140,-2.684536,0.999997,0.000186,-0.002637,0.005956,0.001021,0.006076,-0.002756,83.317379,0.006084,
960,1150,1.650193,-6.366389,0.999995,0.000313,-0.004714,0.010009,-0.000797,0.010052,-0.004758,-86.910880,0.010056,
640,1030,2.981475,-7.543529,0.999998,0.000193,-0.003232,0.006891,-0.000039,0.006891,-0.003232,-89.777011,0.006895,
1520,800,-1.278577,-9.731958,0.999995,0.000247,-0.005555,0.009595,0.000129,0.009596,-0.005556,89.513154,0.009636,
820,650,1.482218,-10.691355,0.999995,0.000251,-0.004509,0.008278,-0.000083,0.008278,-0.004510,-89.626335,0.008289,
610,1750,1.534094,-2.272254,0.999997,0.000214,-0.003646,0.007484,0.000012,0.007484,-0.003646,89.936835,0.007485,
990,1270,0.962742,-5.027878,0.999996,0.000256,-0.005747,0.009335,0.001125,0.009418,-0.005831,85.758865,0.009507,
1870,1890,-1.086959,-1.275530,0.999998,0.000187,-0.003645,0.007674,0.000567,0.007702,-0.003673,87.141763,0.007705,
560,600,2.389253,-10.506857,0.999912,0.000000,-0.002910,0.007474,0.000409,0.007490,-0.002926,87.748944,0.007549,
1130,1270,0.247681,-3.977360,0.999996,0.000243,-0.003637,0.004981,0.003293,0.006095,-0.004751,71.303489,0.006405,
950,540,0.753025,-11.926575,0.999997,0.000193,-0.003631,0.007196,-0.000850,0.007263,-0.003698,-85.537012,0.007263,
780,1320,1.883434,-5.227258,0.999997,0.000207,-0.004386,0.008307,-0.000484,0.008325,-0.004405,-87.821543,0.008330,
1010,520,0.530095,-12.229951,0.999997,0.000203,-0.003168,0.006642,-0.000998,0.006743,-0.003268,-84.250395,0.006744,
740,860,2.404640,-8.822575,0.999996,0.000233,-0.003795,0.007747,0.000827,0.007806,-0.003854,85.923644,0.007806,
820,900,2.205259,-8.568905,0.999997,0.000211,-0.003809,0.008186,0.001013,0.008271,-0.003894,85.204518,0.008276,
910,350,0.639156,-13.163218,0.999996,0.000221,-0.002642,0.006735,0.000002,0.006735,-0.002642,89.989647,0.006787,
1730,730,-2.067909,-9.849735,0.999998,0.000181,-0.004160,0.007979,-0.000523,0.008001,-0.004182,-87.535634,0.008004,
620,110,0.693057,-14.376487,0.999997,0.000199,-0.003566,0.008009,0.001280,0.008149,-0.003706,83.764050,0.008160,
1630,1340,-1.586059,-4.945401,0.999996,0.000250,-0.004702,0.008523,0.000175,0.008525,-0.004704,89.243813,0.008540,
570,1460,2.353526,-4.565094,0.999926,0.000943,-0.003134,0.007848,0.000125,0.007849,-0.003135,89.345622,0.007902,
1340,680,-0.221954,-11.633305,0.999997,0.000191,-0.002851,0.005254,0.002128,0.005779,-0.003376,76.145443,0.005806,
590,410,1.870302,-12.009165,0.999996,0.000225,-0.003700,0.007467,-0.000085,0.007468,-0.003700,-89.565845,0.007468,
1520,1570,-0.718920,-2.819816,0.999997,0.000206,-0.003433,0.007059,-0.000693,0.007105,-0.003478,-86.237768,0.007105,
1860,870,-2.919734,-8.602807,0.999998,0.000185,-0.003338,0.006867,-0.000314,0.006876,-0.003347,-88.240538,0.006877,
1770,1590,-1.602290,-3.277932,0.999997,0.000203,-0.003822,0.007628,-0.000134,0.007630,-0.003824,-89.327393,0.007630,
1480,520,-0.615021,-12.162556,0.999997,0.000213,-0.003333,0.006850,0.000930,0.006934,-0.003418,84.821947,0.006934,
1010,70,0.056639,-14.878352,0.999998,0.000173,-0.000289,0.004891,0.000569,0.004953,-0.000351,83.808875,0.005528,
1560,1660,-0.731765,-2.276917,0.999997,0.000196,-0.003103,0.006945,-0.000281,0.006953,-0.003111,-88.402021,0.006966,
1500,1370,-0.878143,-4.269461,0.999997,0.000213,-0.004876,0.008300,-0.001208,0.008410,-0.004986,-84.804367,0.008458,
1690,110,-0.339928,-14.592271,0.999997,0.000197,-0.001478,0.006379,-0.001675,0.006721,-0.001820,-78.453331,0.006953,
1080,1350,0.368991,-3.848441,0.999997,0.000203,-0.003875,0.006459,0.002454,0.007012,-0.004428,77.297624,0.007093,
1860,480,-1.977886,-11.509786,0.999997,0.000192,-0.003748,0.007598,0.000062,0.007598,-0.003749,89.688089,0.007598,
1200,1360,0.048388,-3.300193,0.999998,0.000154,-0.001689,0.003492,0.000888,0.003641,-0.001838,80.536737,0.003641,
1010,50,0.035368,-14.975264,0.999998,0.000153,-0.000134,0.004743,0.000506,0.004795,-0.000186,84.136258,0.005433,
700,280,1.139029,-13.265613,0.999998,0.000205,-0.003575,0.007566,0.000256,0.007572,-0.003581,88.682167,0.007575,
1360,1730,-0.197747,-1.553943,0.999998,0.000176,-0.001661,0.005625,-0.000107,0.005626,-0.001662,-89.162503,0.005781,
1650,470,-1.160015,-12.096073,0.999997,0.000220,-0.003755,0.007520,0.000314,0.007529,-0.003764,88.404364,0.007529,
940,1810,0.405110,-1.241144,0.999997,0.000199,-0.001949,0.006164,-0.000371,0.006180,-0.001966,-87.389121,0.006315,
1640,1490,-1.291929,-3.733789,0.999998,0.000166,-0.004130,0.007897,-0.000333,0.007906,-0.004140,-88.414282,0.007909,
800,670,1.619802,-10.475897,0.999995,0.000266,-0.004479,0.008301,0.000092,0.008301,-0.004480,89.589757,0.008310,
1430,1780,-0.276233,-1.330302,0.999997,0.000190,-0.001797,0.005765,0.000041,0.005766,-0.001798,89.693180,0.005900,
950,60,0.063058,-14.920780,0.999998,0.000196,-0.000396,0.004994,0.000716,0.005088,-0.000489,82.560225,0.005614,
760,250,0.858015,-13.608341,0.999998,0.000159,-0.002935,0.007290,0.000675,0.007335,-0.002979,86.239259,0.007378,
560,590,2.369143,-10.569595,0.999906,0.000000,-0.002735,0.007190,0.000339,0.007202,-0.002747,88.046684,0.007269,
1220,230,0.011221,-14.117241,0.999998,0.000160,-0.001076,0.005064,-0.000031,0.005064,-0.001076,-89.715331,0.005336,
680,1030,2.852187,-7.542131,0.999998,0.000175,-0.003263,0.007118,-0.000035,0.007119,-0.003263,-89.804221,0.007127,
740,840,2.352687,-8.977206,0.999996,0.000240,-0.003898,0.007888,0.000860,0.007950,-0.003960,85.850137,0.007950,
990,1250,1.024716,-5.219117,0.999995,0.000270,-0.005829,0.009611,0.000939,0.009667,-0.005886,86.532981,0.009744,
610,1730,1.587157,-2.421766,0.999997,0.000208,-0.003635,0.007480,0.000090,0.007481,-0.003636,89.533860,0.007481,
1130,1250,0.277256,-4.078690,0.999996,0.000258,-0.003775,0.004914,0.003312,0.006032,-0.004893,71.338897,0.006410,
1440,280,-0.299554,-13.750678,0.999998,0.000190,-0.001763,0.005837,-0.000072,0.005837,-0.001763,-89.458123,0.005988,
780,1300,1.940242,-5.394436,0.999997,0.000191,-0.004372,0.008293,-0.000574,0.008319,-0.004398,-87.409666,0.008324,
870,70,0.122134,-14.854498,0.999998,0.000164,-0.000724,0.005407,0.001149,0.005615,-0.000932,79.726944,0.006018,
650,1990,0.294962,-0.297595,0.999996,0.000234,-0.001555,0.007307,-0.002730,0.008081,-0.002328,-74.178878,0.008319,
820,1320,1.701951,-5.146341,0.999997,0.000242,-0.004669,0.008501,-0.000362,0.008511,-0.004679,-88.428432,0.008525,
1210,780,0.038616,-11.614375,0.999997,0.000206,-0.001846,0.001895,-0.000973,0.002133,-0.002084,-76.261089,0.002436,
1770,440,-1.550561,-12.034730,0.999996,0.000219,-0.003753,0.007595,0.000135,0.007597,-0.003755,89.320720,0.007597,
1890,990,-3.171589,-7.797878,0.999998,0.000188,-0.003036,0.006115,-0.000105,0.006116,-0.003037,-89.339986,0.006116,
580,410,1.907191,-11.983054,0.999998,0.000174,-0.003707,0.007436,-0.000068,0.007437,-0.003708,-89.652402,0.007437,
570,1450,2.372115,-4.652459,0.999900,0.001202,-0.003273,0.007773,-0.000090,0.007774,-0.003273,-89.534188,0.007806,
1640,1410,-1.457312,-4.379639,0.999996,0.000227,-0.004494,0.008284,-0.000112,0.008285,-0.004495,-89.499115,0.008295,
1720,1190,-2.405618,-6.332458,0.999996,0.000264,-0.003759,0.007739,0.000820,0.007797,-0.003818,85.942902,0.007798,
600,130,0.882048,-14.141880,0.999997,0.000194,-0.003625,0.007956,0.001022,0.008046,-0.003714,84.997613,0.008054,
1540,1790,-0.473840,-1.382632,0.999997,0.000219,-0.001986,0.006284,0.000342,0.006298,-0.002000,87.633728,0.006437,
1290,550,-0.111701,-12.419575,0.999998,0.000171,-0.002080,0.005068,0.000625,0.005122,-0.002134,85.042848,0.005146,
1180,1460,0.095320,-2.911689,0.999998,0.000198,-0.001989,0.004739,0.000732,0.004817,-0.002068,83.865879,0.004833,
1190,1540,0.078329,-2.511605,0.999998,0.000151,-0.001899,0.005105,0.000275,0.005116,-0.001910,87.755361,0.005170,
1740,540,-1.645940,-11.335609,0.999997,0.000221,-0.003968,0.007789,0.000116,0.007790,-0.003969,89.434225,0.007790,
890,440,0.838949,-12.496451,0.999998,0.000207,-0.003319,0.007118,-0.000373,0.007132,-0.003332,-87.954945,0.007137,
1010,1920,0.139863,-0.571639,0.999998,0.000199,-0.000726,0.005201,-0.000488,0.005241,-0.000766,-85.322383,0.005662,
950,890,1.626220,-8.868234,0.999996,0.000247,-0.004816,0.009823,0.000790,0.009866,-0.004858,86.920926,0.009866,
1800,1140,-2.798912,-6.768252,0.999997,0.000209,-0.003414,0.007066,0.000467,0.007087,-0.003435,87.451384,0.007088,
1340,660,-0.219756,-11.735790,0.999998,0.000202,-0.002755,0.005273,0.001941,0.005717,-0.003200,77.099278,0.005731,
1350,540,-0.243546,-12.368786,0.999997,0.000210,-0.002443,0.005621,0.001012,0.005746,-0.002568,82.958172,0.005756,
1000,1980,0.067144,-0.267495,0.999999,0.000131,-0.000323,0.004962,-0.000602,0.005029,-0.000391,-83.587811,0.005596,
1240,1350,-0.013127,-3.306162,0.999998,0.000141,-0.001481,0.003132,-0.000296,0.003151,-0.001500,-86.340386,0.003152,
1010,40,0.025448,-15.021956,0.999999,0.000147,-0.000037,0.004718,0.000509,0.004772,-0.000091,83.958691,0.005459,
1730,710,-2.013416,-10.008782,0.999997,0.000211,-0.004186,0.007971,-0.000419,0.007986,-0.004201,-88.026336,0.007989,
950,440,0.644648,-12.631018,0.999997,0.000225,-0.002987,0.006787,-0.000511,0.006814,-0.003014,-87.016699,0.006829,
1430,920,-1.372055,-9.006275,0.999994,0.000308,-0.004952,0.011035,0.001528,0.011180,-0.005096,84.590388,0.011194,
1080,1520,0.330698,-2.803040,0.999997,0.000211,-0.002675,0.005963,0.001087,0.006098,-0.002810,82.936239,0.006104,
910,330,0.608456,-13.298779,0.999997,0.000212,-0.002530,0.006704,0.000049,0.006704,-0.002531,89.695862,0.006771,
1650,1320,-1.732406,-5.159372,0.999996,0.000237,-0.004651,0.008468,0.000381,0.008479,-0.004662,88.337694,0.008493,
1840,870,-2.852092,-8.629405,0.999997,0.000221,-0.003442,0.007062,-0.000444,0.007081,-0.003460,-87.584514,0.007081,
700,260,1.076985,-13.418245,0.999998,0.000192,-0.003549,0.007540,0.000376,0.007552,-0.003562,88.057751,0.007556,
1640,1510,-1.255294,-3.576990,0.999997,0.000201,-0.004015,0.007820,-0.000359,0.007831,-0.004026,-88.262969,0.007832,
1520,780,-1.210855,-9.919581,0.999995,0.000253,-0.005544,0.009378,0.000365,0.009386,-0.005553,88.599599,0.009439,
1860,440,-1.888842,-11.814528,0.999998,0.000180,-0.003724,0.007525,0.000090,0.007526,-0.003725,89.540560,0.007526,
1680,1770,-0.882314,-1.725222,0.999998,0.000181,-0.003197,0.007232,0.000342,0.007243,-0.003209,88.124538,0.007258,
560,580,2.343261,-10.647643,0.999942,0.000000,-0.002617,0.007913,0.000408,0.007929,-0.002633,87.783679,0.008077,
1560,1640,-0.759421,-2.416813,0.999997,0.000207,-0.003220,0.007039,-0.000365,0.007052,-0.003233,-87.966019,0.007060,
1650,450,-1.125379,-12.246042,0.999997,0.000221,-0.003654,0.007480,0.000251,0.007486,-0.003660,88.706854,0.007486,
760,350,1.108222,-12.874084,0.999997,0.000196,-0.003320,0.007409,0.000123,0.007410,-0.003322,89.345612,0.007424,
1580,1570,-0.926198,-2.966591,0.999998,0.000190,-0.003648,0.007365,-0.000522,0.007390,-0.003673,-87.290245,0.007390,
1200,230,0.032055,-14.114463,0.999998,0.000205,-0.001067,0.005067,0.000000,0.005067,-0.001067,89.996675,0.005343,
1480,500,-0.599362,-12.297576,0.999996,0.000213,-0.003158,0.006767,0.000814,0.006833,-0.003224,85.341337,0.006837,
1770,1640,-1.495503,-2.895099,0.999997,0.000231,-0.003728,0.007585,-0.000124,0.007586,-0.003730,-89.372330,0.007586,
1200,1340,0.047131,-3.362496,0.999998,0.000167,-0.001662,0.003179,0.001034,0.003391,-0.001873,78.437587,0.003397,
1130,1230,0.354264,-4.171997,0.999996,0.000264,-0.003813,0.004784,0.003185,0.005835,-0.004864,71.733100,0.006253,
920,1830,0.404771,-1.135591,0.999998,0.000190,-0.001725,0.006084,-0.000512,0.006117,-0.001759,-86.265982,0.006299,
1650,80,-0.186489,-14.790337,0.999998,0.000181,-0.000863,0.005756,-0.001440,0.006056,-0.001163,-78.239958,0.006427,
610,1710,1.637486,-2.572712,0.999997,0.000220,-0.003638,0.007491,0.000090,0.007491,-0.003639,89.537344,0.007492,
590,630,2.368511,-10.331670,0.999996,0.000267,-0.003872,0.007645,0.000153,0.007647,-0.003874,89.239841,0.007647,
990,1230,1.104396,-5.416789,0.999995,0.000288,-0.005861,0.009901,0.000672,0.009929,-0.005890,87.563000,0.009987,
1390,380,-0.281120,-13.226672,0.999998,0.000151,-0.002045,0.005828,0.000334,0.005843,-0.002059,87.573271,0.005927,
1690,90,-0.267525,-14.716289,0.999997,0.000180,-0.001145,0.005992,-0.001635,0.006348,-0.001501,-77.692211,0.006636,
830,970,2.331982,-8.009411,0.999996,0.000228,-0.003131,0.007891,0.000670,0.007931,-0.003171,86.533433,0.007984,
650,1970,0.433711,-0.455465,0.999996,0.000244,-0.002053,0.007672,-0.002600,0.008324,-0.002705,-75.932365,0.008492,
740,820,2.293903,-9.140415,0.999997,0.000222,-0.003967,0.007901,0.000821,0.007958,-0.004023,86.059415,0.007958,
1720,1510,-1.577500,-3.775719,0.999996,0.000251,-0.004001,0.007801,-0.000134,0.007803,-0.004003,-89.348563,0.007804,
660,1030,2.916803,-7.542907,0.999997,0.000190,-0.003257,0.007008,-0.000031,0.007008,-0.003257,-89.829149,0.007014,
1770,420,-1.506820,-12.187741,0.999996,0.000242,-0.003721,0.007592,0.000116,0.007593,-0.003722,89.412468,0.007593,
1760,740,-2.219980,-9.717506,0.999997,0.000227,-0.004027,0.007873,-0.000549,0.007898,-0.004052,-87.363289,0.007899,
1400,440,-0.337941,-12.852726,0.999997,0.000207,-0.002470,0.006005,0.000669,0.006057,-0.002522,85.513036,0.006086,
570,410,1.943355,-11.960029,0.999998,0.000184,-0.003708,0.007404,-0.000081,0.007405,-0.003708,-89.583910,0.007405,
1810,1380,-2.243383,-4.991826,0.999998,0.000194,-0.003868,0.007643,0.000264,0.007649,-0.003875,88.686310,0.007649,
600,110,0.764127,-14.303602,0.999997,0.000186,-0.003550,0.008067,0.001347,0.008222,-0.003704,83.474336,0.008235,
1000,1960,0.093866,-0.368207,0.999998,0.000165,-0.000448,0.005046,-0.000567,0.005104,-0.000506,-84.172723,0.005624,
1310,1320,-0.142893,-3.606004,0.999997,0.000199,-0.002552,0.004078,-0.002432,0.004875,-0.003348,-71.867320,0.004987,
1860,420,-1.843207,-11.964993,0.999998,0.000179,-0.003739,0.007502,0.000107,0.007503,-0.003740,89.452273,0.007504,
1630,1520,-1.197835,-3.472987,0.999997,0.000182,-0.003978,0.007784,-0.000379,0.007796,-0.003991,-88.156196,0.007797,
780,1280,1.998023,-5.559355,0.999997,0.000192,-0.004339,0.008310,-0.000692,0.008348,-0.004377,-86.877275,0.008351,
1660,1770,-0.818210,-1.685562,0.999998,0.000187,-0.003034,0.007135,0.000330,0.007146,-0.003045,88.144833,0.007172,
570,1440,2.405427,-4.723366,0.999854,0.001453,-0.003645,0.007301,-0.000545,0.007328,-0.003672,-87.155272,0.007328,
1520,760,-1.149881,-10.106634,0.999996,0.000217,-0.005441,0.009161,0.000538,0.009181,-0.005461,87.894328,0.009235,
1340,860,-0.581098,-10.702988,0.999993,0.000328,-0.002954,0.004303,0.002587,0.005131,-0.003782,72.255078,0.005320,
1080,1500,0.334898,-2.924898,0.999997,0.000196,-0.002746,0.005918,0.001179,0.006076,-0.002903,82.384198,0.006078,
1410,920,-1.274541,-9.218110,0.999991,0.000323,-0.004664,0.010581,0.003354,0.011286,-0.005370,78.124228,0.011291,
1040,40,0.021847,-15.022757,0.999999,0.000149,-0.000215,0.004642,0.000343,0.004666,-0.000239,85.974579,0.005255,
620,970,3.014359,-7.944106,0.999997,0.000187,-0.003201,0.006552,0.000093,0.006553,-0.003202,89.456633,0.006553,
1660,1190,-2.174096,-6.278546,0.999997,0.000235,-0.004010,0.008284,0.000979,0.008361,-0.004088,85.473983,0.008362,
1130,1210,0.442090,-4.270974,0.999993,0.000352,-0.003358,0.004362,0.002683,0.005203,-0.004199,72.598128,0.005520,
1560,1620,-0.789613,-2.559602,0.999998,0.000198,-0.003272,0.007089,-0.000395,0.007104,-0.003287,-87.819525,0.007111,
1650,60,-0.122705,-14.903735,0.999998,0.000170,-0.000603,0.005512,-0.001432,0.005831,-0.000922,-77.456285,0.006269,
860,470,0.988296,-12.207230,0.999997,0.000221,-0.003621,0.007421,-0.000416,0.007436,-0.003637,-87.843479,0.007437,
920,1810,0.443337,-1.259948,0.999997,0.000208,-0.001896,0.006278,-0.000465,0.006304,-0.001922,-86.755005,0.006462,
700,240,1.015427,-13.568734,0.999998,0.000193,-0.003498,0.007548,0.000483,0.007569,-0.003519,87.500125,0.007575,
1660,610,-1.468119,-10.974550,0.999996,0.000212,-0.004283,0.008027,0.000145,0.008029,-0.004285,89.326643,0.008035,
610,1690,1.689144,-2.721071,0.999996,0.000218,-0.003667,0.007490,0.000069,0.007491,-0.003667,89.643890,0.007491,
950,460,0.666497,-12.494603,0.999998,0.000182,-0.003169,0.006895,-0.000600,0.006931,-0.003205,-86.598930,0.006937,
820,1340,1.644551,-4.976448,0.999998,0.000250,-0.004667,0.008469,-0.000255,0.008474,-0.004672,-88.887335,0.008489,
1730,690,-1.962569,-10.169609,0.999997,0.000206,-0.004210,0.008003,-0.000326,0.008012,-0.004219,-88.471852,0.008016,
910,310,0.580550,-13.429379,0.999997,0.000212,-0.002367,0.006559,0.000130,0.006561,-0.002369,89.168668,0.006645,
990,1210,1.191817,-5.621802,0.999994,0.000309,-0.005811,0.010130,0.000466,0.010144,-0.005825,88.327438,0.010181,
560,570,2.319315,-10.736209,0.999947,0.000000,-0.002655,0.007941,0.000276,0.007948,-0.002662,88.511146,0.008091,
1810,1000,-2.926006,-7.752707,0.999998,0.000170,-0.003235,0.006902,-0.000230,0.006908,-0.003240,-88.699321,0.006912,
1480,480,-0.584981,-12.432229,0.999997,0.000207,-0.003038,0.006697,0.000726,0.006751,-0.003092,85.761284,0.006759,
1370,380,-0.243813,-13.247477,0.999998,0.000173,-0.001849,0.005713,0.000223,0.005720,-0.001856,88.314830,0.005836,
870,740,1.474484,-10.049717,0.999996,0.000257,-0.005008,0.008803,0.000090,0.008804,-0.005008,89.628160,0.008832,
740,1040,2.654291,-7.467331,0.999997,0.000199,-0.003202,0.007378,-0.000190,0.007382,-0.003206,-88.969859,0.007403,
1770,1620,-1.538791,-3.045707,0.999997,0.000211,-0.003755,0.007598,-0.000130,0.007600,-0.003757,-89.343704,0.007600,
660,430,1.651587,-12.027934,0.999996,0.000212,-0.003786,0.007588,-0.000103,0.007589,-0.003787,-89.480392,0.007589,
1200,1320,0.046369,-3.422480,0.999998,0.000162,-0.001654,0.002842,0.001156,0.003122,-0.001934,76.389943,0.003152,
1400,1310,-0.478309,-4.228548,0.999995,0.000246,-0.004728,0.007432,-0.002627,0.007976,-0.005271,-78.314512,0.008112,
1420,1260,-0.684608,-4.779067,0.999995,0.000269,-0.005687,0.008725,-0.002238,0.009065,-0.006027,-81.373254,0.009227,
1000,1940,0.118334,-0.469992,0.999998,0.000165,-0.000586,0.005177,-0.000576,0.005234,-0.000643,-84.349695,0.005708,
1760,700,-2.112327,-10.029820,0.999997,0.000214,-0.004058,0.007823,-0.000394,0.007836,-0.004071,-88.104997,0.007838,
1780,1670,-1.466854,-2.690880,0.999997,0.000182,-0.003691,0.007595,-0.000053,0.007595,-0.003691,-89.731249,0.007596,
580,250,1.475030,-13.164123,0.999997,0.000179,-0.004784,0.007103,0.000424,0.007118,-0.004800,87.959259,0.007261,
1780,1770,-1.214535,-1.933023,0.999998,0.000178,-0.003567,0.007562,0.000249,0.007568,-0.003573,88.718763,0.007571,
1320,1620,-0.163577,-2.125963,0.999998,0.000173,-0.002050,0.005463,-0.000465,0.005492,-0.002079,-86.470197,0.005546,
1540,1370,-1.073200,-4.421832,0.999997,0.000207,-0.004904,0.008494,-0.000730,0.008533,-0.004944,-86.889840,0.008569,
780,1260,2.058063,-5.728279,0.999997,0.000216,-0.004286,0.008297,-0.000775,0.008345,-0.004334,-86.490503,0.008347,
930,1990,0.079380,-0.225645,0.999998,0.000147,-0.000346,0.005121,-0.000843,0.005248,-0.000473,-81.427316,0.005806,
1800,1100,-2.864057,-7.053584,0.999997,0.000208,-0.003335,0.006998,0.000376,0.007012,-0.003348,87.919595,0.007014,
1310,1300,-0.149287,-3.689073,0.999997,0.000214,-0.002677,0.003991,-0.002692,0.004942,-0.003628,-70.543587,0.005120,
1860,400,-1.798783,-12.114757,0.999997,0.000179,-0.003741,0.007483,0.000112,0.007484,-0.003742,89.429672,0.007484,
1030,40,0.024207,-15.021351,0.999999,0.000137,-0.000132,0.004661,0.000388,0.004692,-0.000163,85.396673,0.005327,
940,1150,1.740449,-6.425750,0.999996,0.000229,-0.004448,0.009643,-0.000964,0.009708,-0.004513,-86.106186,0.009716,
1520,740,-1.093594,-10.288116,0.999997,0.000198,-0.005313,0.008967,0.000672,0.008999,-0.005344,87.313549,0.009051,
760,330,1.063831,-13.020722,0.999997,0.000195,-0.003272,0.007373,0.000144,0.007375,-0.003274,89.223846,0.007390,
600,970,3.076974,-7.933581,0.999997,0.000189,-0.003116,0.006358,0.000055,0.006358,-0.003116,89.668181,0.006359,
1310,1520,-0.154149,-2.655374,0.999998,0.000156,-0.002185,0.005251,-0.000784,0.005332,-0.002267,-84.046367,0.005352,
1080,1480,0.337630,-3.039376,0.999997,0.000193,-0.002864,0.005921,0.001305,0.006111,-0.003053,81.724812,0.006111,
1180,1480,0.096258,-2.815726,0.999998,0.000193,-0.001984,0.004889,0.000626,0.004946,-0.002040,84.840052,0.004971,
1800,1570,-1.760894,-3.502344,0.999997,0.000216,-0.003811,0.007687,-0.000114,0.007688,-0.003812,-89.430360,0.007688,
1130,1410,0.203604,-3.276583,0.999997,0.000217,-0.002624,0.005183,0.001765,0.005563,-0.003004,77.834192,0.005569,
1690,510,-1.387021,-11.692109,0.999996,0.000229,-0.003916,0.007747,0.000232,0.007752,-0.003920,88.860116,0.007752,
700,220,0.946638,-13.719813,0.999998,0.000183,-0.003427,0.007455,0.000649,0.007494,-0.003465,86.601002,0.007501,
860,450,0.956191,-12.356009,0.999998,0.000258,-0.003524,0.007340,-0.000376,0.007353,-0.003537,-88.021412,0.007354,
1630,60,-0.114819,-14.906402,0.999998,0.000164,-0.000381,0.005437,-0.001359,0.005738,-0.000683,-77.483227,0.006269,
850,1170,2.046765,-6.397195,0.999997,0.000226,-0.004019,0.008598,-0.001071,0.008688,-0.004110,-85.180654,0.008693,
660,240,1.151732,-13.478014,0.999998,0.000211,-0.003447,0.007631,0.000561,0.007660,-0.003475,87.107152,0.007670,
1530,400,-0.649024,-12.867963,0.999996,0.000237,-0.002825,0.006732,0.000300,0.006742,-0.002834,88.204663,0.006770,
1560,1600,-0.816238,-2.701931,0.999998,0.000191,-0.003324,0.007094,-0.000459,0.007114,-0.003344,-87.483576,0.007118,
930,1980,0.100432,-0.279903,0.999998,0.000145,-0.000441,0.005173,-0.000863,0.005302,-0.000571,-81.458615,0.005821,
1060,1470,0.400932,-3.162240,0.999997,0.000194,-0.003167,0.006302,0.001510,0.006537,-0.003402,81.156879,0.006539,
990,1920,0.154564,-0.577980,0.999998,0.000174,-0.000808,0.005258,-0.000542,0.005306,-0.000856,-84.938039,0.005698,
1590,660,-1.261450,-10.750581,0.999996,0.000218,-0.004674,0.008379,0.000392,0.008391,-0.004686,88.281538,0.008410,
990,1190,1.288635,-5.829481,0.999995,0.000283,-0.005653,0.010271,0.000216,0.010274,-0.005656,89.224022,0.010291,
1070,560,0.363370,-12.141463,0.999997,0.000194,-0.002884,0.006063,-0.001242,0.006232,-0.003053,-82.242014,0.006232,
640,450,1.772689,-11.829608,0.999997,0.000206,-0.003798,0.007587,-0.000117,0.007589,-0.003799,-89.411497,0.007589,
1810,980,-2.913532,-7.889385,0.999998,0.000167,-0.003227,0.006836,-0.000147,0.006838,-0.003229,-89.163843,0.006841,
770,600,1.586810,-10.975264,0.999996,0.000250,-0.004211,0.007959,-0.000080,0.007960,-0.004212,-89.621899,0.007964,
580,260,1.507773,-13.091325,0.999996,0.000214,-0.004900,0.007611,0.000330,0.007620,-0.004909,88.488062,0.007724,
740,800,2.239506,-9.296281,0.999997,0.000221,-0.004024,0.007927,0.000749,0.007974,-0.004071,86.427192,0.007974,
1760,1770,-1.143400,-1.884497,0.999998,0.000219,-0.003587,0.007539,0.000240,0.007544,-0.003592,88.764003,0.007547,
1320,1600,-0.166334,-2.235633,0.999998,0.000169,-0.002125,0.005463,-0.000513,0.005498,-0.002160,-86.147979,0.005540,
610,1960,0.631583,-0.658895,0.999997,0.000216,-0.003490,0.008135,-0.001663,0.008369,-0.003724,-82.016612,0.008386,
1420,1220,-0.830822,-5.147294,0.999996,0.000243,-0.005826,0.009304,-0.001954,0.009553,-0.006074,-82.758761,0.009669,
1200,1300,0.046728,-3.475457,0.999997,0.000189,-0.001696,0.002482,0.001252,0.002828,-0.002042,74.534970,0.002920,
1000,1920,0.147077,-0.575560,0.999998,0.000180,-0.000727,0.005232,-0.000527,0.005278,-0.000773,-84.985305,0.005701,
1170,780,0.122552,-11.447498,0.999997,0.000247,-0.002497,0.003081,-0.002462,0.004012,-0.003429,-69.282149,0.004335,
1830,1960,-0.549030,-0.575593,0.999995,0.000258,-0.003171,0.007872,0.001837,0.008170,-0.003469,80.799342,0.008201,
1480,680,-0.774526,-10.974846,0.999996,0.000237,-0.004717,0.008058,0.001420,0.008214,-0.004873,83.733431,0.008261,
1700,1190,-2.330631,-6.317580,0.999997,0.000219,-0.003859,0.007905,0.000877,0.007970,-0.003924,85.761692,0.007970,
560,560,2.283023,-10.820358,0.999945,0.000000,-0.002810,0.007638,0.000058,0.007638,-0.002810,89.681191,0.007727,
820,1360,1.591550,-4.805951,0.999996,0.000281,-0.004635,0.008434,-0.000136,0.008436,-0.004637,-89.404630,0.008449,
1370,320,-0.211470,-13.587078,0.999997,0.000192,-0.001615,0.005620,0.000063,0.005620,-0.001615,89.497819,0.005787,
1690,530,-1.425692,-11.534360,0.999995,0.000263,-0.003989,0.007807,0.000230,0.007811,-0.003994,88.881096,0.007812,
1870,650,-2.407999,-10.187163,0.999996,0.000241,-0.003790,0.007576,-0.000127,0.007578,-0.003792,-89.358184,0.007578,
850,1280,1.678310,-5.429878,0.999995,0.000264,-0.004838,0.008835,-0.000497,0.008853,-0.004856,-87.918932,0.008867,
1750,70,-0.257975,-14.804377,0.999996,0.000223,-0.001588,0.006440,-0.002141,0.006975,-0.002123,-75.961521,0.007151,
1240,1230,-0.032122,-3.551510,0.999997,0.000190,-0.004075,0.001880,-0.000160,0.001885,-0.004080,-88.464276,0.004083,
1730,670,-1.910401,-10.329418,0.999997,0.000193,-0.004206,0.007981,-0.000254,0.007987,-0.004211,-88.806254,0.007991,
780,1240,2.117840,-5.892827,0.999997,0.000226,-0.004210,0.008166,-0.000835,0.008222,-0.004266,-86.158175,0.008224,
910,290,0.544447,-13.561802,0.999997,0.000200,-0.002229,0.006516,0.000275,0.006525,-0.002238,88.198926,0.006631,
1860,380,-1.753196,-12.266473,0.999997,0.000191,-0.003716,0.007475,0.000100,0.007475,-0.003717,89.488679,0.007476,
1560,1580,-0.843434,-2.845045,0.999998,0.000196,-0.003425,0.007190,-0.000508,0.007215,-0.003449,-87.266282,0.007217,
1730,1120,-2.592308,-6.875097,0.999996,0.000232,-0.003426,0.007442,0.000630,0.007479,-0.003462,86.692111,0.007485,
1080,1460,0.342296,-3.154961,0.999997,0.000185,-0.002983,0.006085,0.001494,0.006325,-0.003223,80.881493,0.006325,
880,1330,1.381998,-4.909685,0.999995,0.000262,-0.004994,0.008760,0.000090,0.008760,-0.004995,89.626957,0.008789,
1020,40,0.026126,-15.021139,0.999999,0.000139,-0.000074,0.004681,0.000443,0.004722,-0.000115,84.724466,0.005387,
1790,470,-1.690289,-11.756614,0.999997,0.000229,-0.003819,0.007676,0.000125,0.007677,-0.003820,89.378239,0.007677,
930,1970,0.120950,-0.334385,0.999998,0.000173,-0.000525,0.005188,-0.000838,0.005309,-0.000646,-81.825943,0.005793,
1520,720,-1.048234,-10.464198,0.999997,0.000181,-0.005181,0.008798,0.000809,0.008844,-0.005228,86.699075,0.008893,
1110,1850,0.116987,-0.902221,0.999998,0.000162,-0.001029,0.005179,-0.000136,0.005182,-0.001032,-88.743635,0.005486,
850,1940,0.257601,-0.522668,0.999998,0.000188,-0.001120,0.005870,-0.001199,0.006070,-0.001320,-80.534463,0.006385,
1300,230,-0.070088,-14.108235,0.999998,0.000151,-0.000991,0.005125,-0.000065,0.005126,-0.000991,-89.394289,0.005438,
1710,940,-2.533317,-8.213763,0.999997,0.000208,-0.003392,0.007546,-0.000665,0.007586,-0.003433,-86.534201,0.007598,
700,200,0.872219,-13.868124,0.999998,0.000178,-0.003336,0.007475,0.000824,0.007538,-0.003398,85.667790,0.007550,
1290,1520,-0.111682,-2.624468,0.999997,0.000186,-0.002033,0.005123,-0.000550,0.005165,-0.002075,-85.632345,0.005198,
1470,260,-0.326975,-13.842431,0.999998,0.000184,-0.001637,0.005853,-0.000239,0.005861,-0.001644,-88.172538,0.006046,
1180,1920,0.028627,-0.535499,0.999998,0.000158,-0.000484,0.004812,-0.000091,0.004814,-0.000486,-89.015941,0.005300,
1230,1920,0.000868,-0.532315,0.999998,0.000156,-0.000599,0.004788,0.000011,0.004788,-0.000599,89.884192,0.005217,
640,430,1.728191,-11.980922,0.999998,0.000169,-0.003783,0.007582,-0.000093,0.007582,-0.003784,-89.529376,0.007582,
1330,60,-0.017821,-14.936270,0.999999,0.000126,-0.000250,0.004573,-0.000187,0.004581,-0.000257,-87.782295,0.005147,
990,1170,1.392152,-6.035742,0.999994,0.000276,-0.005403,0.010415,-0.000039,0.010415,-0.005403,-89.857076,0.010418,
670,1960,0.465042,-0.519346,0.999997,0.000274,-0.001844,0.007205,-0.002446,0.007824,-0.002462,-75.803941,0.008001,
740,760,2.124146,-9.620583,0.999997,0.000235,-0.004154,0.008040,0.000631,0.008073,-0.004187,87.043977,0.008075,
1000,1900,0.171623,-0.679008,0.999998,0.000162,-0.000878,0.005373,-0.000519,0.005415,-0.000921,-85.281705,0.005795,
1560,1560,-0.866719,-2.989068,0.999998,0.000201,-0.003577,0.007287,-0.000583,0.007318,-0.003608,-86.939009,0.007318,
1220,1250,0.029453,-3.529243,0.999998,0.000182,-0.002582,0.001524,0.000468,0.001576,-0.002635,83.581694,0.002651,
1540,1750,-0.542454,-1.640567,0.999997,0.000213,-0.002299,0.006443,0.000141,0.006446,-0.002301,89.074645,0.006533,
700,40,0.119569,-14.990643,0.999998,0.000180,-0.000738,0.006123,0.002389,0.006873,-0.001488,72.572450,0.007232,
1060,1730,0.269663,-1.589694,0.999997,0.000198,-0.001877,0.005768,0.000145,0.005770,-0.001880,88.910538,0.005886,
920,1470,0.923678,-3.622223,0.999997,0.000186,-0.004119,0.007712,0.000822,0.007769,-0.004176,86.046083,0.007776,
1610,270,-0.646661,-13.616591,0.999997,0.000207,-0.002602,0.006736,-0.000394,0.006753,-0.002618,-87.586626,0.006809,
1790,450,-1.646349,-11.910552,0.999997,0.000220,-0.003789,0.007598,0.000126,0.007600,-0.003790,89.363639,0.007600,
820,1380,1.541660,-4.638740,0.999995,0.000273,-0.004587,0.008332,-0.000021,0.008332,-0.004587,-89.905410,0.008346,
1820,410,-1.673806,-12.141403,0.999997,0.000205,-0.003750,0.007563,0.000095,0.007563,-0.003750,89.518679,0.007563,
580,570,2.265155,-10.768995,0.999996,0.000242,-0.003273,0.007741,0.000141,0.007743,-0.003274,89.267341,0.007774,
1900,1300,-2.786349,-5.787631,0.999997,0.000000,-0.003565,0.007362,0.000099,0.007363,-0.003566,89.479422,0.007364,
1150,780,0.172948,-11.318412,0.999995,0.000265,-0.002997,0.004006,-0.002956,0.005087,-0.004078,-69.914052,0.005387,
1560,1570,-0.855517,-2.916362,0.999998,0.000198,-0.003492,0.007243,-0.000539,0.007270,-0.003519,-87.130810,0.007271,
1260,130,-0.016920,-14.610333,0.999998,0.000168,-0.000544,0.004777,-0.000016,0.004777,-0.000544,-89.824219,0.005230,
880,1310,1.438436,-5.086245,0.999996,0.000261,-0.005036,0.008907,-0.000072,0.008908,-0.005037,-89.703402,0.008933,
650,1960,0.504329,-0.535289,0.999996,0.000242,-0.002276,0.007615,-0.002353,0.008146,-0.002808,-77.277858,0.008276,
850,1130,2.166527,-6.736074,0.999997,0.000205,-0.003576,0.008340,-0.001045,0.008431,-0.003667,-85.024061,0.008455,
1790,1000,-2.861445,-7.756160,0.999998,0.000166,-0.003258,0.007016,-0.000225,0.007021,-0.003262,-88.746216,0.007027,
1470,280,-0.350731,-13.724671,0.999997,0.000202,-0.001766,0.005984,-0.000184,0.005988,-0.001771,-88.639933,0.006152,
560,550,2.275960,-10.882579,0.999949,0.000000,-0.002988,0.007256,-0.000087,0.007257,-0.002989,-89.512301,0.007295,
1410,210,-0.180246,-14.167703,0.999998,0.000215,-0.001296,0.005373,-0.000183,0.005378,-0.001301,-88.425705,0.005612,
930,1950,0.152929,-0.434702,0.999998,0.000185,-0.000695,0.005394,-0.000834,0.005506,-0.000807,-82.341257,0.005947,
650,1950,0.566619,-0.609338,0.999996,0.000244,-0.002468,0.007680,-0.002115,0.008103,-0.002891,-78.684642,0.008213,
610,1670,1.738341,-2.873899,0.999997,0.000179,-0.003707,0.007490,0.000096,0.007491,-0.003708,89.509080,0.007491,
850,1920,0.314446,-0.641101,0.999998,0.000167,-0.001331,0.005967,-0.001102,0.006130,-0.001493,-81.597312,0.006393,
1110,1830,0.126402,-1.004626,0.999998,0.000156,-0.001155,0.005228,-0.000096,0.005229,-0.001156,-89.140907,0.005493,
820,1370,1.565406,-4.720685,0.999995,0.000299,-0.004610,0.008383,-0.000080,0.008383,-0.004611,-89.646381,0.008397,
1070,540,0.358427,-12.261354,0.999997,0.000191,-0.002746,0.006072,-0.001089,0.006204,-0.002878,-83.063289,0.006210,
1320,1580,-0.171848,-2.346349,0.999998,0.000171,-0.002171,0.005480,-0.000590,0.005525,-0.002216,-85.616914,0.005561,
1650,430,-1.086934,-12.394076,0.999997,0.000196,-0.003549,0.007423,0.000211,0.007427,-0.003553,88.897176,0.007429,
1390,750,-0.434573,-10.923691,0.999996,0.000233,-0.004616,0.007147,0.002759,0.007762,-0.005231,77.433820,0.007917,
650,1540,1.876180,-3.766017,0.999998,0.000184,-0.003818,0.007639,0.000085,0.007640,-0.003818,89.575472,0.007640,
990,1150,1.503402,-6.243553,0.999994,0.000277,-0.005049,0.010547,-0.000229,0.010550,-0.005052,-89.159478,0.010553,
1690,940,-2.464923,-8.222793,0.999997,0.000230,-0.003400,0.007648,-0.000677,0.007689,-0.003442,-86.505397,0.007703,
780,1460,1.533848,-4.077981,0.999996,0.000225,-0.004222,0.007931,0.000104,0.007932,-0.004223,89.508367,0.007937,
1310,1800,-0.090232,-1.141645,0.999998,0.000141,-0.001179,0.005197,0.000029,0.005197,-0.001180,89.742106,0.005449,
1660,40,-0.067567,-15.008418,0.999999,0.000149,-0.000526,0.005280,-0.001404,0.005602,-0.000848,-77.096850,0.006039,
1350,1220,-0.467789,-4.413943,0.999995,0.000262,-0.004253,0.005857,-0.003283,0.006829,-0.005225,-73.501115,0.007142,
600,630,2.332229,-10.355015,0.999995,0.000280,-0.003760,0.007626,0.000071,0.007626,-0.003760,89.643923,0.007627,
1680,1190,-2.251190,-6.298657,0.999997,0.000228,-0.003925,0.008091,0.000907,0.008159,-0.003993,85.708370,0.008160,
1280,230,-0.050041,-14.112010,0.999998,0.000137,-0.001005,0.005098,-0.000032,0.005098,-0.001005,-89.698752,0.005401,
1690,550,-1.468898,-11.379233,0.999996,0.000248,-0.004035,0.007814,0.000188,0.007817,-0.004038,89.090583,0.007818,
1470,540,-0.597337,-12.052644,0.999997,0.000213,-0.003432,0.006879,0.001052,0.006985,-0.003538,84.232859,0.006985,
1860,360,-1.701843,-12.415721,0.999997,0.000215,-0.003672,0.007450,0.000096,0.007451,-0.003673,89.507375,0.007451,
1020,1690,0.389177,-1.879921,0.999998,0.000178,-0.002228,0.006103,0.000241,0.006110,-0.002235,88.343018,0.006183,
1710,580,-1.611673,-11.092280,0.999996,0.000245,-0.004121,0.007902,0.000081,0.007903,-0.004122,89.615963,0.007905,
1610,1010,-2.306894,-7.701121,0.999997,0.000204,-0.002847,0.007902,-0.000268,0.007908,-0.002854,-88.572395,0.008010,
590,1900,1.051071,-1.210819,0.999997,0.000196,-0.003647,0.007687,-0.000617,0.007720,-0.003681,-86.891867,0.007723,
1120,1470,0.229547,-2.984716,0.999997,0.000207,-0.002557,0.005460,0.001284,0.005661,-0.002758,81.116822,0.005662,
840,480,1.077035,-12.084812,0.999998,0.000168,-0.003682,0.007468,-0.000380,0.007481,-0.003695,-88.048646,0.007481,
1200,1280,0.053827,-3.520749,0.999997,0.000200,-0.001881,0.002159,0.001344,0.002566,-0.002288,73.177232,0.002816,
1420,130,-0.108303,-14.584444,0.999998,0.000144,-0.000808,0.005072,-0.000354,0.005094,-0.000829,-86.565324,0.005466,
1680,530,-1.386647,-11.559500,0.999996,0.000233,-0.003987,0.007800,0.000248,0.007805,-0.003992,88.796446,0.007806,
1350,380,-0.206532,-13.264467,0.999998,0.000160,-0.001877,0.005644,0.000269,0.005654,-0.001887,87.953958,0.005757,
1900,1290,-2.810150,-5.860287,0.999996,0.000000,-0.003522,0.007234,0.000094,0.007235,-0.003523,89.497605,0.007236,
820,1820,0.642120,-1.308191,0.999997,0.000203,-0.002402,0.006831,-0.000726,0.006888,-0.002459,-85.530129,0.006981,
1160,1250,0.181727,-3.821864,0.999996,0.000227,-0.003077,0.003280,0.002693,0.004268,-0.004064,69.865128,0.004815,
1790,430,-1.603565,-12.062342,0.999997,0.000197,-0.003770,0.007599,0.000126,0.007600,-0.003772,89.363673,0.007600,
650,1940,0.622780,-0.689465,0.999996,0.000231,-0.002660,0.007801,-0.001931,0.008146,-0.003006,-79.868019,0.008239,
1870,1130,-3.047881,-6.897813,0.999998,0.000164,-0.003213,0.006654,0.000283,0.006662,-0.003222,88.358398,0.006663,
1080,1440,0.342239,-3.280605,0.999997,0.000194,-0.003139,0.006092,0.001683,0.006389,-0.003436,79.981569,0.006395,
560,540,2.268468,-10.957602,0.999950,0.000000,-0.003197,0.007192,-0.000233,0.007197,-0.003202,-88.715226,0.007212,
1520,700,-1.004176,-10.642577,0.999998,0.000178,-0.005037,0.008627,0.000907,0.008687,-0.005097,86.218814,0.008731,
1380,250,-0.177814,-13.966835,0.999998,0.000149,-0.001230,0.005416,-0.000130,0.005419,-0.001233,-88.882871,0.005681,
1180,1900,0.033964,-0.632605,0.999998,0.000153,-0.000606,0.004889,-0.000104,0.004891,-0.000608,-88.912292,0.005331,
610,1650,1.784072,-3.025120,0.999997,0.000197,-0.003732,0.007502,0.000099,0.007503,-0.003733,89.494193,0.007503,
1480,1940,-0.127704,-0.474215,0.999998,0.000212,-0.000695,0.005251,0.000600,0.005311,-0.000755,84.293760,0.005747,
1110,1810,0.142722,-1.111406,0.999998,0.000154,-0.001265,0.005301,-0.000072,0.005302,-0.001266,-89.369627,0.005538,
1410,190,-0.160123,-14.275504,0.999998,0.000212,-0.001168,0.005327,-0.000248,0.005336,-0.001177,-87.814117,0.005607,
920,1280,1.319424,-5.236483,0.999995,0.000278,-0.005382,0.009252,0.000073,0.009252,-0.005382,89.713398,0.009293,
1720,1890,-0.612286,-0.921959,0.999997,0.000222,-0.002182,0.007014,0.001425,0.007230,-0.002398,81.391541,0.007365,
1850,1980,-0.479564,-0.484382,0.999996,0.000216,-0.003455,0.008388,0.001984,0.008711,-0.003778,80.739607,0.008736,
1410,1800,-0.222476,-1.198144,0.999998,0.000157,-0.001582,0.005551,0.000047,0.005551,-0.001582,89.624437,0.005720,
1440,810,-0.852610,-10.057983,0.999995,0.000254,-0.005860,0.009288,0.001663,0.009469,-0.006041,83.809191,0.009588,
910,270,0.508501,-13.691701,0.999997,0.000205,-0.002069,0.006390,0.000348,0.006404,-0.002083,87.650405,0.006534,
1730,650,-1.856971,-10.490965,0.999997,0.000204,-0.004165,0.007990,-0.000165,0.007992,-0.004167,-89.221237,0.007994,
1470,520,-0.583165,-12.188604,0.999997,0.000200,-0.003229,0.006754,0.000935,0.006841,-0.003316,84.696860,0.006842,
1650,40,-0.062853,-15.011270,0.999999,0.000136,-0.000376,0.005252,-0.001401,0.005581,-0.000705,-76.767963,0.006078,
1460,910,-1.464188,-8.897740,0.999994,0.000287,-0.005082,0.010669,0.000024,0.010669,-0.005082,89.913554,0.010673,
1860,340,-1.653089,-12.565054,0.999998,0.000195,-0.003643,0.007466,0.000114,0.007467,-0.003644,89.412665,0.007468,
1290,530,-0.110896,-12.522958,0.999998,0.000168,-0.002047,0.005136,0.000510,0.005172,-0.002083,85.960971,0.005204,
1650,410,-1.050747,-12.543105,0.999998,0.000188,-0.003489,0.007386,0.000174,0.007389,-0.003491,89.083537,0.007393,
1560,1190,-1.741617,-6.133736,0.999997,0.000217,-0.004713,0.009257,0.000937,0.009319,-0.004776,86.179096,0.009320,
990,1130,1.612183,-6.453526,0.999995,0.000281,-0.004670,0.010595,-0.000326,0.010602,-0.004677,-88.777033,0.010627,
670,1540,1.799325,-3.716655,0.999997,0.000176,-0.003863,0.007685,0.000101,0.007686,-0.003863,89.497117,0.007686,
700,180,0.794101,-14.019634,0.999997,0.000188,-0.003237,0.007371,0.000999,0.007464,-0.003330,84.665714,0.007478,
1540,1570,-0.786675,-2.869254,0.999997,0.000204,-0.003427,0.007124,-0.000609,0.007159,-0.003462,-86.708357,0.007160,
780,1220,2.176029,-6.055222,0.999997,0.000210,-0.004099,0.008148,-0.000915,0.008216,-0.004167,-85.751899,0.008217,
1690,570,-1.506361,-11.221862,0.999996,0.000232,-0.004106,0.007885,0.000171,0.007887,-0.004109,89.182268,0.007889,
1220,1230,0.043299,-3.558576,0.999998,0.000186,-0.004015,0.001887,0.000246,0.001897,-0.004025,87.616956,0.004027,
650,1910,0.788382,-0.926088,0.999997,0.000249,-0.002965,0.007722,-0.001480,0.007923,-0.003166,-82.260185,0.007976,
590,1890,1.097957,-1.286172,0.999997,0.000194,-0.003648,0.007681,-0.000523,0.007705,-0.003672,-87.362484,0.007708,
1850,1700,-1.652997,-2.638603,0.999996,0.000232,-0.003651,0.007480,-0.000091,0.007481,-0.003651,-89.531179,0.007481,
1860,650,-2.370516,-10.209376,0.999996,0.000241,-0.003812,0.007574,-0.000155,0.007576,-0.003814,-89.220873,0.007576,
1900,1280,-2.835541,-5.933476,0.999996,0.000000,-0.003488,0.007075,0.000097,0.007075,-0.003488,89.474855,0.007076,
580,340,1.736360,-12.501536,0.999997,0.000185,-0.004066,0.007281,-0.000135,0.007283,-0.004068,-89.317403,0.007300,
1610,970,-2.259386,-8.017662,0.999998,0.000198,-0.003119,0.008029,-0.000730,0.008076,-0.003167,-86.268798,0.008139,
840,460,1.045649,-12.234189,0.999998,0.000181,-0.003606,0.007444,-0.000333,0.007454,-0.003616,-88.275483,0.007456,
1840,70,-0.408738,-14.708753,0.999994,0.000288,-0.003336,0.008036,-0.002010,0.008381,-0.003681,-80.265407,0.008401,
820,1800,0.696420,-1.448016,0.999997,0.000195,-0.002577,0.006913,-0.000594,0.006950,-0.002614,-86.431655,0.007020,
1350,1200,-0.577587,-4.535237,0.999988,0.000439,-0.003495,0.005331,-0.003105,0.006314,-0.004478,-72.434002,0.006495,
1520,250,-0.409462,-13.850210,0.999997,0.000206,-0.001984,0.006124,-0.000304,0.006135,-0.001995,-87.858362,0.006259,
1390,730,-0.418255,-11.059332,0.999996,0.000221,-0.004340,0.006918,0.002647,0.007509,-0.004931,77.408065,0.007631,
1880,1130,-3.078678,-6.908932,0.999998,0.000179,-0.003160,0.006550,0.000247,0.006556,-0.003166,88.546452,0.006558,
1160,1230,0.244357,-3.880594,0.999997,0.000176,-0.003249,0.003109,0.002303,0.003855,-0.003995,72.038660,0.004535,
1080,1420,0.348870,-3.405068,0.999998,0.000176,-0.003308,0.006121,0.001867,0.006477,-0.003665,79.196341,0.006496,
1180,1880,0.040523,-0.730959,0.999998,0.000154,-0.000705,0.004937,-0.000081,0.004938,-0.000706,-89.174741,0.005341,
1790,410,-1.560270,-12.214209,0.999997,0.000215,-0.003728,0.007568,0.000106,0.007569,-0.003729,89.460382,0.007569,
1520,680,-0.966954,-10.812537,0.999997,0.000204,-0.004857,0.008411,0.000970,0.008481,-0.004927,85.841848,0.008518,
560,530,2.246111,-11.030685,0.999951,0.000000,-0.003518,0.007417,-0.000123,0.007419,-0.003520,-89.354081,0.007422,
1090,380,0.248898,-13.243864,0.999997,0.000176,-0.001847,0.005730,-0.000257,0.005739,-0.001856,-88.061230,0.005857,
1540,690,-1.084649,-10.655436,0.999996,0.000264,-0.004952,0.008574,0.000708,0.008611,-0.004989,87.012853,0.008647,
1360,250,-0.154156,-13.976840,0.999998,0.000162,-0.001257,0.005331,-0.000078,0.005332,-0.001258,-89.325058,0.005574,
590,1460,2.285848,-4.519857,0.999996,0.000229,-0.003681,0.007681,0.000000,0.007681,-0.003681,89.998412,0.007683,
1100,540,0.278236,-12.338202,0.999997,0.000209,-0.002639,0.005774,-0.001152,0.005929,-0.002794,-82.339281,0.005932,
1440,1990,-0.047825,-0.215498,0.999999,0.000161,-0.000293,0.004844,0.000495,0.004891,-0.000341,84.546998,0.005461,
1730,630,-1.810585,-10.649171,0.999997,0.000205,-0.004131,0.007943,-0.000093,0.007944,-0.004132,-89.556547,0.007946,
910,470,0.812004,-12.327454,0.999997,0.000200,-0.003383,0.007145,-0.000517,0.007170,-0.003408,-87.197494,0.007173,
990,1110,1.715540,-6.670410,0.999995,0.000265,-0.004255,0.010754,-0.000382,0.010764,-0.004265,-88.542370,0.010841,
1130,840,0.419569,-10.872336,0.999994,0.000299,-0.003423,0.004520,-0.002867,0.005447,-0.004350,-72.089673,0.005761,
1890,870,-3.018369,-8.555083,0.999997,0.000195,-0.003269,0.006543,-0.000104,0.006544,-0.003270,-89.393111,0.006544,
1640,40,-0.061252,-15.011655,0.999998,0.000147,-0.000210,0.005210,-0.001395,0.005547,-0.000548,-76.381267,0.006114,
1640,1530,-1.218928,-3.421060,0.999997,0.000193,-0.003936,0.007709,-0.000363,0.007720,-0.003947,-88.215620,0.007721,
1270,1520,-0.073418,-2.610790,0.999998,0.000183,-0.001918,0.005016,-0.000321,0.005031,-0.001933,-87.358714,0.005076,
1390,1800,-0.193504,-1.183987,0.999998,0.000188,-0.001328,0.005467,0.000104,0.005469,-0.001329,89.124219,0.005704,
610,1630,1.830390,-3.175456,0.999997,0.000198,-0.003730,0.007523,0.000096,0.007524,-0.003731,89.510651,0.007524,
1760,1990,-0.243132,-0.285471,0.999996,0.000235,-0.001452,0.006570,0.002365,0.007216,-0.002097,74.735693,0.007424,
1650,630,-1.467696,-10.838742,0.999995,0.000244,-0.004381,0.008109,0.000127,0.008111,-0.004382,89.418366,0.008119,
780,1180,2.290551,-6.381782,0.999997,0.000222,-0.003831,0.007975,-0.000899,0.008043,-0.003899,-85.670136,0.008044,
1690,1010,-2.546279,-7.691885,0.999997,0.000207,-0.003143,0.007500,-0.000235,0.007505,-0.003148,-88.735750,0.007537,
1310,60,-0.013125,-14.937211,0.999999,0.000127,-0.000182,0.004547,-0.000159,0.004552,-0.000187,-88.081089,0.005152,
1020,130,0.127143,-14.577164,0.999997,0.000176,-0.000738,0.005180,0.000465,0.005217,-0.000774,85.536432,0.005630,
1200,1260,0.063229,-3.562074,0.999997,0.000213,-0.002275,0.001895,0.001276,0.002254,-0.002634,74.266891,0.002848,
820,1780,0.744010,-1.585957,0.999997,0.000186,-0.002680,0.007002,-0.000452,0.007023,-0.002701,-87.332993,0.007085,
1020,1670,0.406202,-2.004149,0.999997,0.000198,-0.002277,0.006144,0.000301,0.006155,-0.002288,87.956099,0.006222,
950,1600,0.662513,-2.589829,0.999997,0.000237,-0.003114,0.006872,0.000564,0.006903,-0.003145,86.779829,0.006912,
650,1890,0.880792,-1.081672,0.999997,0.000225,-0.003132,0.007774,-0.001215,0.007907,-0.003266,-83.719045,0.007947,
1900,1380,-2.581946,-5.194247,0.999996,0.000000,-0.003693,0.007597,0.000022,0.007597,-0.003693,89.887225,0.007598,
1410,170,-0.139968,-14.380423,0.999998,0.000211,-0.001033,0.005233,-0.000290,0.005247,-0.001046,-87.353192,0.005554,
1310,210,-0.072805,-14.209688,0.999998,0.000181,-0.000951,0.005107,-0.000086,0.005108,-0.000952,-89.185546,0.005433,
1610,950,-2.220177,-8.177723,0.999997,0.000208,-0.003338,0.008113,-0.000814,0.008171,-0.003395,-85.956189,0.008210,
1090,440,0.274416,-12.900961,0.999998,0.000182,-0.002234,0.005805,-0.000557,0.005843,-0.002273,-86.053662,0.005891,
1290,510,-0.109934,-12.624942,0.999998,0.000164,-0.001992,0.005195,0.000431,0.005221,-0.002018,86.581682,0.005265,
580,330,1.710885,-12.575837,0.999997,0.000205,-0.004061,0.007464,-0.000149,0.007466,-0.004063,-89.261243,0.007476,
1590,680,-1.305932,-10.580632,0.999996,0.000224,-0.004805,0.008518,0.000293,0.008525,-0.004812,88.741334,0.008548,
650,1280,2.519969,-5.758568,0.999996,0.000241,-0.003754,0.007494,-0.000518,0.007518,-0.003778,-87.367400,0.007518,
1540,1190,-1.644518,-6.084631,0.999996,0.000241,-0.004906,0.009524,0.000805,0.009569,-0.004951,86.815729,0.009571,
920,1260,1.388675,-5.426792,0.999994,0.000298,-0.005372,0.009383,-0.000110,0.009384,-0.005373,-89.571758,0.009417,
580,1460,2.323757,-4.543797,0.999996,0.000229,-0.003333,0.007753,0.000060,0.007753,-0.003333,89.687802,0.007778,
560,520,2.226071,-11.106312,0.999967,0.000000,-0.003641,0.007518,0.000025,0.007518,-0.003641,89.870326,0.007519,
930,720,1.114532,-10.417547,0.999997,0.000215,-0.005124,0.008812,-0.000606,0.008838,-0.005150,-87.514561,0.008878,
1390,710,-0.399731,-11.200766,0.999996,0.000232,-0.004108,0.006727,0.002473,0.007265,-0.004646,77.731787,0.007359,
950,420,0.625451,-12.765731,0.999997,0.000219,-0.002851,0.006663,-0.000434,0.006683,-0.002871,-87.390620,0.006705,
1160,1290,0.134993,-3.682522,0.999998,0.000180,-0.002609,0.003646,0.002614,0.004594,-0.003558,70.057141,0.004819,
1100,520,0.271085,-12.455220,0.999997,0.000211,-0.002541,0.005746,-0.000974,0.005859,-0.002653,-83.387732,0.005867,
1860,320,-1.601482,-12.714592,0.999997,0.000205,-0.003647,0.007463,0.000067,0.007463,-0.003648,89.652647,0.007464,
1210,380,0.036265,-13.327663,0.999998,0.000171,-0.001660,0.005335,-0.000135,0.005337,-0.001663,-88.892509,0.005462,
1790,390,-1.514897,-12.367515,0.999996,0.000241,-0.003700,0.007580,0.000054,0.007580,-0.003700,89.727308,0.007581,
580,600,2.335629,-10.537438,0.999997,0.000211,-0.003362,0.007604,0.000179,0.007607,-0.003365,89.065918,0.007623,
590,1880,1.144622,-1.363253,0.999998,0.000182,-0.003652,0.007674,-0.000482,0.007695,-0.003673,-87.566868,0.007697,
1300,250,-0.078138,-14.004972,0.999998,0.000143,-0.001103,0.005169,-0.000070,0.005169,-0.001103,-89.358334,0.005445,
1600,1130,-2.118913,-6.724409,0.999998,0.000213,-0.003624,0.008463,0.001039,0.008551,-0.003713,85.121012,0.008576,
1070,40,0.015978,-15.024752,0.999999,0.000127,-0.000130,0.004606,0.000345,0.004631,-0.000154,85.859173,0.005261,
1080,1640,0.283635,-2.086810,0.999997,0.000210,-0.002187,0.005823,0.000465,0.005850,-0.002213,86.691407,0.005907,
820,1760,0.791035,-1.728371,0.999998,0.000173,-0.002823,0.007070,-0.000360,0.007083,-0.002836,-87.917304,0.007130,
990,1090,1.803061,-6.887971,0.999996,0.000234,-0.003867,0.010581,-0.000340,0.010589,-0.003875,-88.654146,0.010716,
840,440,1.009352,-12.382439,0.999997,0.000213,-0.003533,0.007410,-0.000292,0.007418,-0.003541,-88.470770,0.007420,
1180,1860,0.044565,-0.830440,0.999999,0.000150,-0.000816,0.005023,-0.000103,0.005024,-0.000818,-88.988676,0.005392,
1650,390,-1.012860,-12.693280,0.999997,0.000180,-0.003439,0.007399,0.000109,0.007400,-0.003440,89.424410,0.007406,
1520,660,-0.933486,-10.981677,0.999997,0.000226,-0.004661,0.008150,0.000991,0.008226,-0.004738,85.601188,0.008258,
1170,1800,0.072717,-1.140061,0.999998,0.000150,-0.001112,0.005205,-0.000065,0.005205,-0.001112,-89.414749,0.005483,
1640,950,-2.316731,-8.165375,0.999996,0.000233,-0.003292,0.007895,-0.000784,0.007950,-0.003347,-86.011685,0.007983,
1460,1990,-0.053244,-0.217239,0.999998,0.000193,-0.000209,0.004884,0.000577,0.004949,-0.000274,83.619130,0.005563,
610,1610,1.874892,-3.325849,0.999998,0.000173,-0.003738,0.007564,0.000118,0.007565,-0.003739,89.403859,0.007565,
780,1160,2.342644,-6.542097,0.999997,0.000233,-0.003718,0.007967,-0.000933,0.008041,-0.003792,-85.462631,0.008045,
1690,990,-2.534053,-7.843500,0.999997,0.000234,-0.003173,0.007469,-0.000279,0.007476,-0.003180,-88.498124,0.007504,
1450,1440,-0.580218,-3.532662,0.999996,0.000240,-0.003900,0.007123,-0.001535,0.007333,-0.004110,-82.217507,0.007351,
1220,850,0.085683,-11.506956,0.999991,0.000000,-0.007252,0.002482,0.000132,0.002484,-0.007254,89.221562,0.007373,
1610,930,-2.170008,-8.343684,0.999997,0.000236,-0.003547,0.008368,-0.000998,0.008451,-0.003629,-85.245620,0.008479,
1460,1710,-0.407897,-1.782513,0.999997,0.000206,-0.002103,0.006067,-0.000132,0.006069,-0.002105,-89.076882,0.006163,
950,1540,0.726904,-3.014517,0.999997,0.000181,-0.003557,0.007120,0.000790,0.007178,-0.003615,85.791325,0.007178,
1000,130,0.141256,-14.571218,0.999998,0.000178,-0.000692,0.005237,0.000548,0.005287,-0.000742,84.761948,0.005725,
1200,1220,0.144960,-3.637665,0.999996,0.000224,-0.004329,0.002171,0.000354,0.002191,-0.004348,86.895572,0.004348,
560,510,2.202088,-11.179905,0.999984,0.000000,-0.003581,0.007655,0.000070,0.007656,-0.003582,89.645085,0.007661,
1160,1330,0.124133,-3.528721,0.999995,0.000262,-0.002331,0.003945,0.002174,0.004624,-0.003010,72.644334,0.004694,
1570,680,-1.208358,-10.641247,0.999997,0.000217,-0.004827,0.008519,0.000461,0.008535,-0.004843,88.023839,0.008561,
630,1280,2.595250,-5.792531,0.999996,0.000248,-0.003706,0.007417,-0.000454,0.007435,-0.003725,-87.668982,0.007435,
1580,1190,-1.834951,-6.172997,0.999996,0.000236,-0.004528,0.009001,0.000980,0.009071,-0.004599,85.879016,0.009072,
1410,150,-0.117711,-14.485956,0.999998,0.000215,-0.000899,0.005174,-0.000308,0.005190,-0.000915,-87.105066,0.005540,
580,320,1.685249,-12.650386,0.999997,0.000205,-0.004115,0.007612,-0.000155,0.007614,-0.004117,-89.243613,0.007623,
1730,610,-1.763387,-10.810070,0.999997,0.000198,-0.004130,0.007900,-0.000068,0.007900,-0.004131,-89.674514,0.007903,
910,1730,0.602796,-1.788889,0.999997,0.000209,-0.002510,0.006646,-0.000058,0.006646,-0.002510,-89.634882,0.006712,
920,1240,1.459119,-5.615922,0.999994,0.000274,-0.005325,0.009493,-0.000305,0.009499,-0.005332,-88.819887,0.009523,
1100,500,0.267072,-12.570710,0.999997,0.000185,-0.002430,0.005763,-0.000835,0.005847,-0.002515,-84.241675,0.005866,
1390,1420,-0.372823,-3.433050,0.999996,0.000221,-0.003401,0.006247,-0.001882,0.006601,-0.003755,-79.344404,0.006622,
1280,250,-0.056413,-14.009429,0.999999,0.000128,-0.001091,0.005150,-0.000041,0.005150,-0.001091,-89.625660,0.005428,
1790,370,-1.467591,-12.519934,0.999996,0.000250,-0.003648,0.007615,0.000001,0.007615,-0.003648,89.992756,0.007617,
580,590,2.311599,-10.615765,0.999997,0.000207,-0.003294,0.007535,0.000174,0.007538,-0.003296,89.082271,0.007558,
820,1740,0.838878,-1.871886,0.999998,0.000182,-0.002955,0.007060,-0.000197,0.007064,-0.002958,-88.872918,0.007095,
1860,300,-1.545345,-12.866060,0.999997,0.000226,-0.003639,0.007450,-0.000013,0.007450,-0.003639,-89.934186,0.007450,
1200,1240,0.094481,-3.594985,0.999996,0.000240,-0.002992,0.001855,0.001023,0.002062,-0.003199,78.561813,0.003244,
1650,350,-0.931190,-12.986893,0.999998,0.000159,-0.003321,0.007193,-0.000056,0.007193,-0.003322,-89.692984,0.007200,
1470,400,-0.482835,-12.982508,0.999997,0.000212,-0.002625,0.006367,0.000424,0.006387,-0.002645,87.305976,0.006418,
990,1290,0.903212,-4.844255,0.999997,0.000251,-0.005619,0.009088,0.001251,0.009194,-0.005725,85.172332,0.009286,
1490,1920,-0.167692,-0.583543,0.999998,0.000173,-0.001013,0.005352,0.000599,0.005408,-0.001069,84.673408,0.005728,
840,420,0.975181,-12.532143,0.999997,0.000223,-0.003443,0.007348,-0.000238,0.007353,-0.003448,-88.736548,0.007358,
1150,1800,0.094451,-1.141434,0.999998,0.000175,-0.001196,0.005226,-0.000035,0.005226,-0.001197,-89.686695,0.005476,
1780,830,-2.542873,-8.993614,0.999995,0.000255,-0.003711,0.007482,-0.000670,0.007522,-0.003751,-86.587666,0.007522,
1390,690,-0.388480,-11.336609,0.999996,0.000233,-0.003859,0.006592,0.002290,0.007072,-0.004339,78.169996,0.007132,
910,720,1.217618,-10.347183,0.999995,0.000258,-0.005109,0.008810,-0.000420,0.008823,-0.005122,-88.275248,0.008861,
1060,40,0.017624,-15.024084,0.999999,0.000144,-0.000188,0.004615,0.000340,0.004639,-0.000212,85.966192,0.005239,
1080,1400,0.354258,-3.530398,0.999997,0.000189,-0.003448,0.006222,0.002021,0.006627,-0.003854,78.657390,0.006656,
1690,970,-2.518731,-7.991374,0.999996,0.000237,-0.003267,0.007545,-0.000509,0.007568,-0.003291,-87.311467,0.007590,
1880,30,-0.140529,-14.993226,0.999995,0.000000,0.000646,0.010480,-0.005939,0.013274,-0.002147,-64.811449,0.014250,
610,1590,1.917207,-3.478732,0.999998,0.000177,-0.003753,0.007637,0.000108,0.007638,-0.003754,89.456218,0.007638,
780,1140,2.394711,-6.701096,0.999996,0.000255,-0.003564,0.007873,-0.000844,0.007935,-0.003626,-85.803029,0.007944,
1520,640,-0.901599,-11.143490,0.999997,0.000212,-0.004473,0.007920,0.000974,0.007996,-0.004549,85.531216,0.008021,
1620,1130,-2.193558,-6.741897,0.999997,0.000226,-0.003579,0.008285,0.000999,0.008368,-0.003662,85.219075,0.008390,
930,1600,0.726504,-2.638594,0.999997,0.000217,-0.003303,0.007026,0.000584,0.007059,-0.003335,86.775373,0.007062,
650,1870,0.978531,-1.238588,0.999997,0.000211,-0.003242,0.007716,-0.000980,0.007803,-0.003329,-84.928589,0.007831,
750,1520,1.528423,-3.680829,0.999996,0.000250,-0.003957,0.007791,0.000158,0.007793,-0.003959,89.229871,0.007794,
1180,1840,0.050683,-0.932502,0.999999,0.000148,-0.000907,0.005062,-0.000053,0.005063,-0.000908,-89.491174,0.005399,
760,310,1.018063,-13.169145,0.999997,0.000203,-0.003235,0.007310,0.000238,0.007315,-0.003240,88.706292,0.007331,
820,1720,0.874063,-2.011676,0.999997,0.000186,-0.003120,0.007120,-0.000099,0.007121,-0.003121,-89.445563,0.007139,
1100,480,0.264290,-12.687014,0.999998,0.000187,-0.002316,0.005762,-0.000707,0.005823,-0.002377,-85.036833,0.005856,
1340,1730,-0.165081,-1.538689,0.999998,0.000164,-0.001696,0.005508,-0.000183,0.005513,-0.001701,-88.543889,0.005646,
1180,1990,0.010545,-0.205737,0.999998,0.000160,-0.000147,0.004577,-0.000122,0.004580,-0.000150,-88.524520,0.005204,
560,500,2.176672,-11.259787,0.999987,0.000000,-0.003494,0.007701,0.000127,0.007703,-0.003496,89.352032,0.007714,
1610,910,-2.111270,-8.514133,0.999997,0.000228,-0.003773,0.008437,-0.001029,0.008523,-0.003859,-85.214295,0.008536,
1160,1310,0.127369,-3.607188,0.999997,0.000192,-0.002443,0.003760,0.002419,0.004592,-0.003275,71.022991,0.004730,
1710,560,-1.568961,-11.251452,0.999996,0.000263,-0.004074,0.007817,0.000144,0.007819,-0.004076,89.305680,0.007821,
800,1570,1.235514,-3.171002,0.999996,0.000230,-0.003825,0.007603,0.000284,0.007610,-0.003832,88.576801,0.007610,
1650,330,-0.886998,-13.131559,0.999997,0.000187,-0.003181,0.007210,-0.000108,0.007211,-0.003182,-89.404269,0.007228,
1390,1440,-0.367009,-3.307975,0.999997,0.000217,-0.003265,0.006186,-0.001726,0.006492,-0.003570,-79.968948,0.006502,
720,510,1.593405,-11.562668,0.999997,0.000212,-0.003902,0.007716,-0.000158,0.007719,-0.003904,-89.223180,0.007719,
1410,130,-0.099158,-14.587421,0.999998,0.000155,-0.000769,0.005037,-0.000335,0.005056,-0.000789,-86.712657,0.005441,
690,1220,2.530862,-6.156034,0.999997,0.000221,-0.003745,0.007491,-0.000705,0.007535,-0.003789,-86.423341,0.007535,
920,1220,1.536275,-5.809241,0.999995,0.000266,-0.005187,0.009531,-0.000542,0.009551,-0.005207,-87.892281,0.009564,
1790,350,-1.417419,-12.673496,0.999996,0.000219,-0.003635,0.007573,-0.000023,0.007573,-0.003635,-89.881005,0.007575,
1200,820,0.102926,-11.517004,0.999996,0.000245,-0.003218,0.001958,-0.000946,0.002126,-0.003385,-79.960207,0.003422,
1860,280,-1.487795,-13.013347,0.999996,0.000228,-0.003651,0.007370,-0.000063,0.007371,-0.003652,-89.673223,0.007371,
1770,1980,-0.317649,-0.366922,0.999996,0.000218,-0.001582,0.006836,0.002447,0.007496,-0.002241,74.915760,0.007695,
1470,380,-0.462891,-13.108297,0.999998,0.000191,-0.002448,0.006332,0.000309,0.006343,-0.002459,87.987319,0.006396,
1180,250,0.060026,-14.008599,0.999998,0.000146,-0.001094,0.005139,0.000031,0.005139,-0.001094,89.711462,0.005414,
670,1920,0.684158,-0.820913,0.999998,0.000244,-0.002693,0.007544,-0.001825,0.007859,-0.003009,-80.185697,0.007931,
580,580,2.288320,-10.692089,0.999997,0.000217,-0.003247,0.007742,0.000181,0.007745,-0.003250,89.054807,0.007778,
990,1280,0.931256,-4.935375,0.999998,0.000227,-0.005693,0.009204,0.001184,0.009297,-0.005787,85.484105,0.009390,
1000,600,0.620160,-11.647952,0.999997,0.000237,-0.003857,0.007203,-0.001342,0.007363,-0.004017,-83.179007,0.007374,
990,1740,0.398938,-1.611523,0.999998,0.000171,-0.002014,0.006120,-0.000008,0.006120,-0.002014,-89.944255,0.006238,
600,40,0.263013,-14.887782,0.999979,0.000560,-0.001131,0.008265,0.003807,0.009614,-0.002480,70.488201,0.009982,
1730,590,-1.715141,-10.968742,0.999996,0.000222,-0.004103,0.007839,-0.000007,0.007839,-0.004103,-89.965475,0.007842,
890,1570,0.900482,-2.947472,0.999997,0.000204,-0.003597,0.007301,0.000526,0.007327,-0.003623,87.242946,0.007327,
780,1120,2.431214,-6.856709,0.999997,0.000238,-0.003417,0.007676,-0.000718,0.007723,-0.003464,-86.310468,0.007736,
1100,460,0.256959,-12.800876,0.999998,0.000180,-0.002213,0.005730,-0.000601,0.005775,-0.002258,-85.695907,0.005821,
1870,30,-0.146470,-14.988323,0.999992,0.000000,0.000563,0.009605,-0.005330,0.012073,-0.001905,-65.153926,0.012981,
870,640,1.233423,-10.908170,0.999997,0.000200,-0.004543,0.008247,-0.000432,0.008262,-0.004558,-88.066342,0.008277,
1080,1360,0.363222,-3.780489,0.999996,0.000211,-0.003757,0.006441,0.002358,0.006960,-0.004275,77.591329,0.007020,
840,400,0.939796,-12.679666,0.999997,0.000215,-0.003324,0.007235,-0.000178,0.007238,-0.003327,-89.036065,0.007246,
1520,620,-0.874704,-11.298454,0.999997,0.000226,-0.004294,0.007825,0.000974,0.007902,-0.004371,85.432514,0.007917,
650,1850,1.057287,-1.394710,0.999997,0.000201,-0.003364,0.007749,-0.000754,0.007800,-0.003415,-86.137982,0.007820,
820,1700,0.918068,-2.154331,0.999998,0.000167,-0.003205,0.007200,-0.000051,0.007200,-0.003206,-89.719557,0.007214,
1700,1130,-2.473545,-6.786977,0.999996,0.000246,-0.003490,0.007608,0.000708,0.007653,-0.003535,86.364018,0.007660,
590,1600,1.970581,-3.449817,0.999997,0.000205,-0.003704,0.007578,0.000061,0.007578,-0.003705,89.688374,0.007579,
1050,50,0.027014,-14.976714,0.999999,0.000146,-0.000261,0.004673,0.000354,0.004698,-0.000287,85.917316,0.005267,
1320,1730,-0.130889,-1.520856,0.999998,0.000186,-0.001604,0.005439,-0.000158,0.005443,-0.001607,-88.715976,0.005593,
1180,1820,0.054395,-1.032851,0.999999,0.000124,-0.001013,0.005107,-0.000058,0.005107,-0.001014,-89.460136,0.005408,
1390,670,-0.381654,-11.463852,0.999996,0.000217,-0.003625,0.006459,0.002124,0.006888,-0.004054,78.579747,0.006924,
1080,130,0.082647,-14.592482,0.999997,0.000167,-0.000551,0.005021,0.000321,0.005040,-0.000570,86.711214,0.005520,
690,1540,1.721748,-3.669402,0.999996,0.000233,-0.003872,0.007717,0.000086,0.007718,-0.003873,89.574402,0.007718,
1410,110,-0.079745,-14.689711,0.999998,0.000157,-0.000632,0.004983,-0.000378,0.005008,-0.000657,-86.169852,0.005443,
610,1570,1.962011,-3.632911,0.999998,0.000172,-0.003776,0.007608,0.000086,0.007609,-0.003776,89.566091,0.007609,
1060,1350,0.452619,-3.958400,0.999997,0.000205,-0.004290,0.007016,0.002334,0.007479,-0.004753,78.782985,0.007570,
1560,1990,-0.089710,-0.229886,0.999999,0.000148,-0.000417,0.005174,0.000947,0.005330,-0.000573,80.640701,0.005852,
560,490,2.152467,-11.337869,0.999988,0.000000,-0.003429,0.007679,0.000068,0.007679,-0.003429,89.647147,0.007694,
1610,890,-2.051426,-8.682505,0.999997,0.000239,-0.004000,0.008553,-0.001067,0.008643,-0.004090,-85.178179,0.008647,
700,510,1.672751,-11.513305,0.999997,0.000199,-0.003901,0.007707,-0.000130,0.007708,-0.003902,-89.356176,0.007709,
1650,310,-0.846523,-13.273525,0.999998,0.000178,-0.003024,0.007094,-0.000219,0.007098,-0.003029,-88.761250,0.007124,
720,1550,1.584408,-3.519304,0.999996,0.000234,-0.003888,0.007704,0.000145,0.007706,-0.003890,89.285179,0.007706,
1870,1020,-3.128701,-7.609925,0.999998,0.000180,-0.003059,0.006510,-0.000090,0.006511,-0.003060,-89.459923,0.006515,
740,740,2.067246,-9.780347,0.999997,0.000216,-0.004174,0.008010,0.000559,0.008036,-0.004199,87.380678,0.008039,
980,1470,0.684113,-3.429857,0.999997,0.000214,-0.003844,0.007295,0.001173,0.007418,-0.003966,84.053029,0.007424,
1710,540,-1.525561,-11.406695,0.999994,0.000300,-0.004005,0.007786,0.000168,0.007789,-0.004008,89.182586,0.007790,
1790,330,-1.370957,-12.821960,0.999997,0.000209,-0.003624,0.007490,-0.000025,0.007490,-0.003624,-89.870783,0.007491,
880,1230,1.701254,-5.815173,0.999995,0.000237,-0.004854,0.009066,-0.000708,0.009102,-0.004890,-87.097109,0.009110,
620,2010,0.246859,-0.229828,0.999997,0.000226,-0.003004,0.007058,-0.002328,0.007571,-0.003517,-77.584168,0.007577,
1100,440,0.253795,-12.914038,0.999998,0.000187,-0.002127,0.005718,-0.000496,0.005749,-0.002158,-86.399814,0.005809,
1350,1680,-0.204984,-1.826384,0.999998,0.000194,-0.001891,0.005655,-0.000277,0.005666,-0.001901,-87.903639,0.005767,
700,380,1.393840,-12.509694,0.999996,0.000221,-0.003672,0.007580,-0.000053,0.007581,-0.003672,-89.728605,0.007582,
1050,760,0.564733,-10.686395,0.999997,0.000192,-0.005159,0.008030,-0.002466,0.008476,-0.005605,-79.747278,0.008622,
650,1920,0.732422,-0.848774,0.999997,0.000257,-0.002903,0.007772,-0.001646,0.008020,-0.003152,-81.429327,0.008081,
1050,40,0.019797,-15.023449,0.999999,0.000167,-0.000224,0.004637,0.000337,0.004660,-0.000247,86.048201,0.005245,
970,1740,0.443192,-1.637409,0.999997,0.000217,-0.002350,0.006279,0.000039,0.006279,-0.002350,89.738851,0.006345,
1700,870,-2.341198,-8.764885,0.999996,0.000225,-0.003810,0.007857,-0.000867,0.007921,-0.003874,-85.772068,0.007921,
780,1100,2.469463,-7.011098,0.999996,0.000226,-0.003302,0.007648,-0.000703,0.007692,-0.003347,-86.342326,0.007714,
980,440,0.558681,-12.692491,0.999997,0.000233,-0.002921,0.006612,-0.000588,0.006649,-0.002957,-86.484647,0.006662,
1860,260,-1.424158,-13.162793,0.999996,0.000229,-0.003653,0.007451,-0.000128,0.007452,-0.003654,-89.341371,0.007453,
890,1530,0.958757,-3.248859,0.999998,0.000178,-0.003805,0.007542,0.000605,0.007574,-0.003837,86.955424,0.007574,
1070,380,0.287288,-13.221256,0.999997,0.000209,-0.002110,0.005863,-0.000340,0.005877,-0.002124,-87.559637,0.005952,
1740,1980,-0.259104,-0.337107,0.999996,0.000216,-0.001479,0.006203,0.001942,0.006666,-0.001941,76.591776,0.006857,
1180,1800,0.061948,-1.137727,0.999998,0.000144,-0.001122,0.005187,-0.000032,0.005187,-0.001122,-89.710969,0.005458,
760,610,1.650514,-10.870579,0.999996,0.000255,-0.004202,0.007976,-0.000036,0.007976,-0.004202,-89.828277,0.007980,
1000,1880,0.203481,-0.789437,0.999998,0.000160,-0.001024,0.005445,-0.000485,0.005481,-0.001060,-85.736503,0.005814,
680,1410,2.061241,-4.702719,0.999997,0.000204,-0.003967,0.007787,-0.000207,0.007791,-0.003971,-88.991879,0.007792,
930,260,0.451474,-13.775900,0.999998,0.000199,-0.002013,0.006199,0.000318,0.006211,-0.002026,87.784474,0.006335,
1850,800,-2.721869,-9.112878,0.999996,0.000219,-0.003582,0.007163,-0.000376,0.007176,-0.003595,-87.997873,0.007176,
560,480,2.127146,-11.413990,0.999992,0.000000,-0.003423,0.007527,-0.000023,0.007527,-0.003423,-89.881858,0.007537,
940,1990,0.076076,-0.224683,0.999999,0.000129,-0.000396,0.005088,-0.000785,0.005198,-0.000506,-82.008116,0.005733,
1390,650,-0.376379,-11.591441,0.999997,0.000181,-0.003452,0.006331,0.001994,0.006722,-0.003843,78.913360,0.006745,
1200,800,0.069632,-11.548526,0.999997,0.000220,-0.002362,0.001880,-0.001285,0.002239,-0.002721,-74.395564,0.002904,
680,570,1.882500,-11.001317,0.999997,0.000185,-0.003902,0.007704,-0.000016,0.007704,-0.003902,-89.921115,0.007705,
1310,190,-0.062983,-14.312197,0.999998,0.000198,-0.000849,0.005024,-0.000122,0.005026,-0.000852,-88.811155,0.005380,
910,1160,1.829030,-6.396450,0.999996,0.000239,-0.004351,0.009240,-0.001073,0.009324,-0.004435,-85.515177,0.009327,
610,1780,1.447147,-2.048845,0.999995,0.000249,-0.003648,0.007428,-0.000090,0.007429,-0.003649,-89.532931,0.007429,
1690,540,-1.446929,-11.456873,0.999996,0.000267,-0.004011,0.007805,0.000209,0.007808,-0.004015,88.985823,0.007809,
970,1280,1.045613,-5.035951,0.999996,0.000266,-0.005612,0.009310,0.000819,0.009355,-0.005657,86.867124,0.009423,
1370,30,-0.008234,-15.070913,0.999999,0.000000,0.000016,0.004597,-0.000289,0.004615,-0.000002,-86.408214,0.005328,
1520,600,-0.848493,-11.454423,0.999997,0.000214,-0.004155,0.007693,0.000971,0.007772,-0.004234,85.344218,0.007783,
1690,950,-2.483521,-8.145322,0.999997,0.000218,-0.003354,0.007631,-0.000690,0.007674,-0.003397,-86.421381,0.007691,
1070,1540,0.352215,-2.707565,0.999997,0.000191,-0.002644,0.006015,0.000980,0.006125,-0.002753,83.625214,0.006135,
1790,310,-1.320933,-12.972320,0.999997,0.000211,-0.003620,0.007534,-0.000134,0.007536,-0.003622,-89.314132,0.007537,
1210,1460,0.039004,-2.888032,0.999998,0.000156,-0.001870,0.004546,0.000401,0.004571,-0.001895,86.438904,0.004593,
1470,60,-0.048816,-14.926645,0.999999,0.000125,-0.000232,0.004828,-0.000592,0.004897,-0.000300,-83.412273,0.005489,
760,290,0.968137,-13.314944,0.999998,0.000177,-0.003162,0.007357,0.000390,0.007371,-0.003176,87.879404,0.007395,
1070,460,0.330993,-12.745523,0.999998,0.000171,-0.002554,0.005981,-0.000763,0.006049,-0.002622,-84.929759,0.006067,
1170,1320,0.102345,-3.523496,0.999997,0.000208,-0.002170,0.003562,0.002045,0.004217,-0.002825,72.244357,0.004297,
1660,750,-1.823401,-9.812269,0.999997,0.000248,-0.004531,0.008447,-0.000490,0.008465,-0.004549,-87.842015,0.008473,
660,1280,2.483537,-5.741712,0.999996,0.000243,-0.003791,0.007525,-0.000543,0.007551,-0.003817,-87.256936,0.007551,
1620,890,-2.090763,-8.672339,0.999997,0.000241,-0.003964,0.008436,-0.001029,0.008521,-0.004049,-85.289691,0.008524,
1460,1780,-0.329016,-1.358324,0.999997,0.000184,-0.001663,0.005890,0.000169,0.005894,-0.001667,88.717376,0.006076,
970,1720,0.469688,-1.765927,0.999997,0.000210,-0.002499,0.006354,0.000158,0.006357,-0.002502,88.979219,0.006404,
1650,290,-0.798529,-13.416515,0.999997,0.000188,-0.002876,0.007078,-0.000366,0.007092,-0.002889,-87.899615,0.007132,
620,2000,0.312513,-0.297147,0.999996,0.000246,-0.003179,0.007416,-0.002200,0.007855,-0.003618,-78.725836,0.007863,
580,1600,2.007589,-3.473291,0.999998,0.000179,-0.003648,0.007561,0.000033,0.007561,-0.003648,89.831243,0.007562,
650,1830,1.135153,-1.551154,0.999997,0.000222,-0.003431,0.007672,-0.000608,0.007705,-0.003464,-86.875549,0.007718,
1080,1340,0.374076,-3.914607,0.999997,0.000203,-0.004011,0.006528,0.002562,0.007118,-0.004601,77.034563,0.007219,
820,1680,0.959103,-2.301829,0.999998,0.000172,-0.003301,0.007288,0.000066,0.007288,-0.003301,89.644014,0.007299,
1810,940,-2.873827,-8.168958,0.999998,0.000185,-0.003349,0.007050,-0.000496,0.007074,-0.003373,-87.275844,0.007076,
780,1080,2.502452,-7.163605,0.999996,0.000227,-0.003204,0.007571,-0.000455,0.007590,-0.003223,-87.586256,0.007619,
1860,460,-1.933080,-11.664215,0.999998,0.000182,-0.003738,0.007598,0.000084,0.007599,-0.003739,89.577476,0.007599,
980,400,0.519885,-12.955406,0.999996,0.000237,-0.002787,0.006454,-0.000438,0.006475,-0.002808,-87.291193,0.006493,
880,880,1.902995,-8.808091,0.999997,0.000205,-0.004306,0.008923,0.001069,0.009009,-0.004391,85.411049,0.009010,
560,470,2.109504,-11.488843,0.999993,0.000000,-0.003456,0.007428,-0.000094,0.007429,-0.003456,-89.507292,0.007435,
1740,1960,-0.344895,-0.458611,0.999997,0.000201,-0.001942,0.006374,0.001748,0.006727,-0.002295,78.598242,0.006839,
1290,490,-0.109181,-12.729185,0.999998,0.000148,-0.001944,0.005265,0.000369,0.005284,-0.001963,87.077832,0.005342,
1610,870,-1.982786,-8.857044,0.999996,0.000246,-0.004235,0.008671,-0.001062,0.008758,-0.004321,-85.325881,0.008758,
1580,1250,-1.614816,-5.624861,0.999997,0.000234,-0.005035,0.009149,0.000528,0.009169,-0.005055,87.872684,0.009185,
1390,630,-0.370945,-11.717010,0.999997,0.000200,-0.003350,0.006250,0.001853,0.006595,-0.003696,79.443363,0.006611,
1000,1860,0.229053,-0.899407,0.999998,0.000188,-0.001147,0.005574,-0.000429,0.005601,-0.001175,-86.364847,0.005907,
760,590,1.605898,-11.031872,0.999996,0.000227,-0.004150,0.007925,-0.000072,0.007925,-0.004151,-89.660057,0.007928,
820,630,1.437043,-10.856330,0.999997,0.000216,-0.004429,0.008085,-0.000140,0.008086,-0.004431,-89.360774,0.008098,
1520,580,-0.824819,-11.607159,0.999997,0.000205,-0.004033,0.007548,0.000936,0.007623,-0.004108,85.409116,0.007630,
1190,380,0.068643,-13.321433,0.999998,0.000187,-0.001640,0.005364,-0.000116,0.005366,-0.001642,-89.050177,0.005499,
800,1890,0.482660,-0.864042,0.999996,0.000218,-0.002198,0.006547,-0.001104,0.006684,-0.002335,-82.913257,0.006784,
930,1480,0.871158,-3.514606,0.999997,0.000197,-0.004052,0.007628,0.000872,0.007692,-0.004117,85.753910,0.007699,
660,1410,2.139446,-4.746532,0.999997,0.000219,-0.003895,0.007731,-0.000187,0.007734,-0.003898,-89.080513,0.007734,
610,1790,1.415674,-1.974773,0.999996,0.000237,-0.003646,0.007491,-0.000124,0.007493,-0.003647,-89.359786,0.007493,
760,270,0.912947,-13.464151,0.999998,0.000160,-0.003049,0.007288,0.000521,0.007314,-0.003075,87.122099,0.007345,
1680,1130,-2.404269,-6.777814,0.999996,0.000223,-0.003489,0.007763,0.000787,0.007818,-0.003544,86.019094,0.007829,
1160,1990,0.013532,-0.206210,0.999999,0.000136,-0.000157,0.004583,-0.000153,0.004588,-0.000162,-88.148877,0.005206,
1790,290,-1.264676,-13.127461,0.999997,0.000194,-0.003590,0.007608,-0.000255,0.007614,-0.003595,-88.695509,0.007618,
1310,170,-0.055200,-14.411291,0.999998,0.000161,-0.000760,0.004959,-0.000132,0.004962,-0.000763,-88.678770,0.005344,
1690,930,-2.448010,-8.298899,0.999997,0.000220,-0.003467,0.007684,-0.000694,0.007727,-0.003510,-86.451067,0.007738,
1740,1170,-2.528186,-6.504151,0.999997,0.000237,-0.003637,0.007673,0.000831,0.007734,-0.003698,85.819644,0.007736,
1850,780,-2.671125,-9.258198,0.999997,0.000183,-0.003649,0.007351,-0.000359,0.007363,-0.003660,-88.132965,0.007363,
930,240,0.414765,-13.900007,0.999997,0.000194,-0.001869,0.006162,0.000441,0.006186,-0.001893,86.866816,0.006340,
1360,2020,-0.012634,-0.072222,0.999998,0.000000,-0.000094,0.004565,0.000181,0.004572,-0.000101,87.777855,0.005223,
680,810,2.501613,-9.140481,0.999996,0.000270,-0.003812,0.007592,0.000686,0.007633,-0.003853,86.569508,0.007633,
950,1700,0.549361,-1.929224,0.999998,0.000196,-0.002611,0.006424,0.000197,0.006428,-0.002615,88.753797,0.006465,
1200,780,0.055260,-11.589631,0.999997,0.000224,-0.001906,0.002081,-0.001367,0.002505,-0.002329,-72.783598,0.002796,
570,1540,2.177182,-3.952921,0.999973,0.000660,-0.003621,0.007382,0.000009,0.007382,-0.003621,89.950546,0.007383,
580,1330,2.647672,-5.526532,0.999996,0.000260,-0.004311,0.007438,0.000073,0.007439,-0.004312,89.642723,0.007470,
1600,890,-2.009430,-8.695544,0.999998,0.000225,-0.004048,0.008672,-0.001092,0.008765,-0.004141,-85.126715,0.008770,
680,1480,1.893319,-4.156409,0.999997,0.000188,-0.003918,0.007744,0.000007,0.007744,-0.003918,89.965332,0.007744,
780,1060,2.515182,-7.313753,0.999997,0.000216,-0.003117,0.007512,-0.000273,0.007519,-0.003124,-88.527499,0.007555,
570,1600,2.042434,-3.495778,0.999996,0.000266,-0.003616,0.007541,0.000022,0.007541,-0.003616,89.884799,0.007543,
1760,2010,-0.140656,-0.159501,0.999998,0.000187,-0.000913,0.006132,0.002361,0.006850,-0.001631,73.082443,0.007157,
1650,270,-0.751043,-13.559222,0.999997,0.000187,-0.002761,0.006984,-0.000468,0.007007,-0.002783,-87.254744,0.007056,
650,1810,1.204217,-1.703994,0.999997,0.000202,-0.003510,0.007649,-0.000456,0.007667,-0.003529,-87.662606,0.007676,
820,1660,0.997927,-2.450427,0.999997,0.000186,-0.003396,0.007324,0.000164,0.007327,-0.003398,89.122309,0.007333,
1460,1740,-0.374289,-1.596665,0.999997,0.000192,-0.001902,0.006078,0.000008,0.006078,-0.001902,89.939030,0.006218,
960,1700,0.521001,-1.911769,0.999997,0.000215,-0.002690,0.006370,0.000276,0.006378,-0.002698,88.255050,0.006403,
1840,1560,-1.934436,-3.676751,0.999997,0.000196,-0.003798,0.007646,-0.000081,0.007647,-0.003799,-89.592913,0.007647,
880,860,1.830421,-8.984684,0.999997,0.000225,-0.004553,0.008985,0.000967,0.009054,-0.004622,85.934736,0.009055,
1450,60,-0.045042,-14.926737,0.999998,0.000147,-0.000221,0.004792,-0.000517,0.004844,-0.000273,-84.169607,0.005443,
560,460,2.091564,-11.561972,0.999994,0.000000,-0.003491,0.007432,-0.000094,0.007433,-0.003492,-89.508275,0.007438,
660,570,1.960035,-10.954163,0.999997,0.000205,-0.003828,0.007668,0.000008,0.007668,-0.003828,89.958307,0.007668,
1740,1940,-0.436901,-0.591968,0.999996,0.000230,-0.002183,0.006827,0.001763,0.007160,-0.002515,79.311410,0.007265,
1000,1840,0.258493,-1.013729,0.999998,0.000183,-0.001297,0.005622,-0.000357,0.005640,-0.001315,-87.050308,0.005902,
1810,960,-2.901774,-8.026831,0.999998,0.000170,-0.003289,0.006898,-0.000279,0.006905,-0.003297,-88.431964,0.006908,
1130,1480,0.205092,-2.907775,0.999997,0.000207,-0.002370,0.005336,0.001079,0.005484,-0.002518,82.176860,0.005490,
1080,1320,0.389910,-4.047912,0.999997,0.000226,-0.004298,0.006750,0.002736,0.007391,-0.004939,76.823652,0.007529,
1070,440,0.321176,-12.865192,0.999998,0.000168,-0.002467,0.005962,-0.000673,0.006016,-0.002521,-85.466466,0.006042,
1520,560,-0.798398,-11.761080,0.999997,0.000207,-0.003857,0.007457,0.000901,0.007528,-0.003928,85.476943,0.007530,
1310,150,-0.046589,-14.509593,0.999998,0.000148,-0.000615,0.004908,-0.000150,0.004912,-0.000619,-88.445183,0.005351,
580,480,2.063094,-11.456461,0.999996,0.000248,-0.003610,0.007582,-0.000026,0.007582,-0.003610,-89.869066,0.007585,
1230,780,0.002732,-11.641138,0.999995,0.000266,-0.001858,0.001700,-0.000051,0.001701,-0.001859,-89.172314,0.002061,
1660,1130,-2.337459,-6.767562,0.999997,0.000216,-0.003491,0.007943,0.000874,0.008010,-0.003557,85.653523,0.008026,
1790,270,-1.205760,-13.278298,0.999997,0.000186,-0.003524,0.007571,-0.000373,0.007584,-0.003537,-88.077116,0.007589,
1750,1500,-1.718958,-3.924686,0.999997,0.000183,-0.003975,0.007796,-0.000065,0.007796,-0.003976,-89.681746,0.007796,
880,410,0.827338,-12.688362,0.999996,0.000242,-0.003205,0.007092,-0.000249,0.007098,-0.003211,-88.614306,0.007109,
800,630,1.525038,-10.805187,0.999996,0.000228,-0.004363,0.008078,-0.000071,0.008079,-0.004363,-89.672176,0.008087,
1660,370,-1.006869,-12.819932,0.999998,0.000179,-0.003445,0.007319,0.000061,0.007320,-0.003446,89.675654,0.007324,
1610,850,-1.915614,-9.030029,0.999996,0.000239,-0.004430,0.008759,-0.000933,0.008824,-0.004495,-85.974879,0.008825,
610,1550,2.005190,-3.783294,0.999997,0.000189,-0.003784,0.007599,0.000075,0.007599,-0.003784,89.622490,0.007599,
770,920,2.440387,-8.374230,0.999997,0.000220,-0.003521,0.007747,0.000745,0.007796,-0.003570,86.231205,0.007806,
1690,910,-2.407851,-8.453874,0.999997,0.000245,-0.003583,0.007865,-0.000880,0.007933,-0.003650,-85.631058,0.007941,
620,1330,2.500267,-5.440730,0.999997,0.000224,-0.003729,0.007469,-0.000313,0.007478,-0.003738,-88.402354,0.007478,
970,1700,0.494126,-1.890921,0.999997,0.000218,-0.002641,0.006323,0.000293,0.006333,-0.002651,88.131169,0.006361,
1330,1580,-0.194157,-2.357297,0.999998,0.000153,-0.002152,0.005534,-0.000597,0.005580,-0.002198,-85.582044,0.005622,
650,1790,1.270034,-1.859168,0.999996,0.000216,-0.003559,0.007607,-0.000347,0.007618,-0.003570,-88.220936,0.007623,
1760,2000,-0.188334,-0.219854,0.999997,0.000205,-0.001154,0.006363,0.002384,0.007055,-0.001847,73.805628,0.007317,
690,1200,2.577616,-6.305861,0.999997,0.000231,-0.003674,0.007455,-0.000722,0.007502,-0.003721,-86.303290,0.007502,
700,830,2.478416,-9.011746,0.999997,0.000213,-0.003808,0.007585,0.000748,0.007634,-0.003857,86.259648,0.007634,
1480,1990,-0.057318,-0.218779,0.999999,0.000160,-0.000328,0.004940,0.000620,0.005012,-0.000400,83.377834,0.005571,
780,1040,2.526853,-7.465830,0.999997,0.000222,-0.003100,0.007552,-0.000194,0.007556,-0.003103,-88.954330,0.007596,
1650,250,-0.697026,-13.697502,0.999997,0.000203,-0.002633,0.006971,-0.000603,0.007009,-0.002671,-86.423959,0.007075,
820,1640,1.035756,-2.598028,0.999997,0.000195,-0.003488,0.007417,0.000209,0.007421,-0.003492,88.904301,0.007425,
1200,760,0.047436,-11.634019,0.999997,0.000192,-0.001732,0.002368,-0.001300,0.002745,-0.002110,-73.805161,0.002874,
840,380,0.904382,-12.822002,0.999998,0.000219,-0.003164,0.007127,-0.000034,0.007128,-0.003164,-89.810155,0.007142,
960,1410,0.832985,-3.957984,0.999997,0.000226,-0.004475,0.007841,0.001158,0.007949,-0.004583,84.674606,0.007980,
560,450,2.069204,-11.636391,0.999995,0.000000,-0.003562,0.007498,-0.000036,0.007498,-0.003562,-89.814006,0.007501,
880,840,1.754026,-9.167203,0.999996,0.000254,-0.004759,0.009081,0.000831,0.009131,-0.004809,86.575288,0.009136,
750,900,2.466846,-8.518583,0.999996,0.000222,-0.003618,0.007783,0.000844,0.007845,-0.003680,85.791120,0.007850,
680,1440,1.985926,-4.468983,0.999997,0.000183,-0.003938,0.007760,-0.000100,0.007761,-0.003938,-89.509019,0.007762,
740,1090,2.617339,-7.098449,0.999996,0.000224,-0.003340,0.007412,-0.000505,0.007436,-0.003364,-87.317224,0.007447,
1390,830,-0.636779,-10.290076,0.999995,0.000266,-0.005417,0.008317,0.002726,0.008838,-0.005939,79.173370,0.009011,
960,1680,0.545295,-2.039021,0.999997,0.000212,-0.002747,0.006490,0.000320,0.006501,-0.002758,88.016234,0.006526,
570,1530,2.198578,-4.027998,0.999962,0.000746,-0.003632,0.007320,-0.000078,0.007320,-0.003633,-89.592791,0.007320,
1840,1540,-1.979629,-3.829624,0.999997,0.000209,-0.003788,0.007641,-0.000063,0.007642,-0.003789,-89.683965,0.007642,
1370,60,-0.024989,-14.933080,0.999998,0.000145,-0.000141,0.004640,-0.000283,0.004657,-0.000158,-86.619927,0.005288,
1360,1150,-1.009433,-4.943152,0.999994,0.000000,-0.002078,0.006238,-0.004636,0.008307,-0.004147,-65.943634,0.008307,
1290,470,-0.108291,-12.833676,0.999998,0.000149,-0.001906,0.005324,0.000291,0.005336,-0.001917,87.700250,0.005406,
1740,1920,-0.528570,-0.730780,0.999996,0.000221,-0.002461,0.006964,0.001562,0.007216,-0.002714,80.830667,0.007290,
1520,610,-0.861674,-11.376619,0.999997,0.000241,-0.004218,0.007761,0.000978,0.007840,-0.004297,85.364743,0.007852,
1080,1300,0.411111,-4.184784,0.999997,0.000226,-0.004549,0.007058,0.002870,0.007729,-0.005220,76.844034,0.007886,
1350,680,-0.248888,-11.590307,0.999997,0.000196,-0.003033,0.005511,0.002177,0.006034,-0.003555,76.499573,0.006066,
1310,130,-0.039546,-14.607211,0.999998,0.000167,-0.000525,0.004841,-0.000140,0.004844,-0.000529,-88.510708,0.005315,
570,1030,3.200785,-7.544074,0.999971,0.000646,-0.002726,0.006247,-0.000011,0.006247,-0.002726,-89.927110,0.006264,
1000,1820,0.281904,-1.125472,0.999998,0.000167,-0.001428,0.005747,-0.000321,0.005761,-0.001442,-87.444263,0.005995,
1450,1110,-1.613544,-6.550229,0.999994,0.000279,-0.004543,0.011488,-0.000524,0.011505,-0.004560,-88.130838,0.011587,
1780,1450,-1.951833,-4.384940,0.999997,0.000219,-0.003950,0.007767,0.000070,0.007768,-0.003950,89.655901,0.007768,
1520,540,-0.777898,-11.907726,0.999997,0.000205,-0.003675,0.007275,0.000836,0.007339,-0.003738,85.657361,0.007339,
1820,1690,-1.567491,-2.637867,0.999997,0.000206,-0.003738,0.007574,-0.000038,0.007574,-0.003739,-89.809879,0.007574,
580,610,2.359238,-10.461044,0.999997,0.000229,-0.003608,0.007542,0.000355,0.007553,-0.003620,88.175778,0.007555,
1640,1130,-2.263692,-6.755479,0.999996,0.000229,-0.003540,0.008115,0.000952,0.008192,-0.003617,85.363024,0.008211,
850,760,1.630674,-9.824034,0.999996,0.000253,-0.004868,0.008771,0.000386,0.008782,-0.004879,88.378455,0.008800,
1730,1280,-2.196573,-5.633826,0.999997,0.000270,-0.004100,0.008003,0.000686,0.008042,-0.004139,86.766486,0.008043,
1790,250,-1.142795,-13.428901,0.999997,0.000201,-0.003464,0.007605,-0.000509,0.007628,-0.003487,-87.371785,0.007638,
850,1780,0.668655,-1.544026,0.999996,0.000242,-0.002596,0.006836,-0.000390,0.006852,-0.002612,-87.639096,0.006916,
1540,890,-1.752157,-8.796335,0.999996,0.000251,-0.004562,0.009431,-0.001003,0.009502,-0.004634,-85.920946,0.009503,
1690,890,-2.354128,-8.614088,0.999997,0.000221,-0.003719,0.007913,-0.000939,0.007988,-0.003794,-85.415846,0.007991,
780,1020,2.531975,-7.617568,0.999996,0.000220,-0.003098,0.007548,0.000138,0.007550,-0.003100,89.259536,0.007590,
770,840,2.231614,-9.013027,0.999997,0.000192,-0.004039,0.008105,0.000931,0.008176,-0.004110,85.639259,0.008176,
1420,1990,-0.042380,-0.213054,0.999999,0.000147,-0.000387,0.004798,0.000427,0.004833,-0.000422,85.322781,0.005354,
1330,380,-0.168730,-13.285763,0.999998,0.000156,-0.001922,0.005566,0.000334,0.005581,-0.001937,87.447675,0.005667,
670,810,2.539755,-9.127141,0.999996,0.000231,-0.003762,0.007518,0.000656,0.007556,-0.003800,86.683290,0.007556,
560,440,2.044109,-11.712538,0.999995,0.000000,-0.003594,0.007553,0.000002,0.007553,-0.003594,89.990013,0.007556,
880,390,0.796182,-12.830092,0.999997,0.000205,-0.003136,0.007012,-0.000198,0.007016,-0.003140,-88.885368,0.007029,
880,820,1.681660,-9.350749,0.999997,0.000244,-0.004873,0.009074,0.000676,0.009107,-0.004906,87.231974,0.009116,
1610,830,-1.847286,-9.207648,0.999996,0.000221,-0.004590,0.008829,-0.000855,0.008883,-0.004644,-86.368746,0.008886,
1200,740,0.046036,-11.684577,0.999998,0.000167,-0.001671,0.002736,-0.001185,0.003035,-0.001969,-75.860757,0.003080,
960,1660,0.568981,-2.170709,0.999997,0.000202,-0.002788,0.006579,0.000366,0.006593,-0.002802,87.765323,0.006618,
610,1510,2.093316,-4.089699,0.999997,0.000195,-0.003771,0.007619,0.000032,0.007619,-0.003771,89.837672,0.007619,
1650,230,-0.646605,-13.838869,0.999997,0.000199,-0.002498,0.006824,-0.000723,0.006880,-0.002554,-85.590968,0.006955,
1360,1140,-1.088424,-5.010923,0.999994,0.000000,-0.001794,0.006639,-0.005316,0.009207,-0.004363,-64.209707,0.009212,
1350,60,-0.021215,-14.934747,0.999998,0.000156,-0.000207,0.004613,-0.000227,0.004623,-0.000217,-87.310931,0.005218,
730,1180,2.478296,-6.421160,0.999996,0.000231,-0.003696,0.007694,-0.000828,0.007753,-0.003755,-85.865853,0.007755,
1290,450,-0.107376,-12.941269,0.999998,0.000148,-0.001850,0.005329,0.000214,0.005335,-0.001856,88.296638,0.005417,
1150,1540,0.159863,-2.553373,0.999998,0.000182,-0.002156,0.005374,0.000747,0.005448,-0.002230,84.387744,0.005478,
820,1860,0.530496,-1.039826,0.999997,0.000220,-0.002046,0.006591,-0.000963,0.006697,-0.002152,-83.714582,0.006838,
1310,110,-0.031085,-14.705048,0.999998,0.000180,-0.000400,0.004751,-0.000165,0.004756,-0.000405,-88.169774,0.005274,
700,1410,1.981622,-4.661297,0.999997,0.000192,-0.004042,0.007854,-0.000209,0.007858,-0.004045,-88.994225,0.007859,
1070,1600,0.328967,-2.344928,0.999998,0.000182,-0.002513,0.006001,0.000734,0.006064,-0.002576,85.111308,0.006086,
1000,1800,0.310989,-1.243278,0.999998,0.000181,-0.001575,0.005825,-0.000238,0.005833,-0.001583,-88.156298,0.006033,
1380,1450,-0.332570,-3.209392,0.999997,0.000223,-0.002996,0.006019,-0.001574,0.006286,-0.003263,-80.377040,0.006287,
650,1770,1.332857,-2.011010,0.999996,0.000226,-0.003599,0.007555,-0.000223,0.007559,-0.003603,-88.856629,0.007562,
1780,1970,-0.390731,-0.437605,0.999993,0.000296,-0.001705,0.006933,0.002434,0.007572,-0.002344,75.296686,0.007753,
1350,660,-0.250138,-11.699086,0.999998,0.000211,-0.002891,0.005502,0.001965,0.005939,-0.003328,77.453363,0.005954,
730,900,2.540472,-8.505024,0.999997,0.000215,-0.003586,0.007617,0.000775,0.007670,-0.003640,86.060821,0.007674,
1080,1280,0.440293,-4.325414,0.999996,0.000248,-0.004805,0.007244,0.003029,0.007963,-0.005523,76.655167,0.008159,
1450,1090,-1.707376,-6.794846,0.999994,0.000296,-0.004412,0.011889,-0.000556,0.011908,-0.004431,-88.048874,0.012037,
640,530,1.947882,-11.215139,0.999997,0.000204,-0.003820,0.007682,-0.000081,0.007683,-0.003820,-89.595646,0.007683,
1790,230,-1.073488,-13.582966,0.999997,0.000201,-0.003400,0.007607,-0.000657,0.007646,-0.003440,-86.596362,0.007659,
1400,400,-0.314842,-13.093140,0.999997,0.000185,-0.002294,0.005911,0.000490,0.005940,-0.002323,86.595212,0.005987,
580,1030,3.170382,-7.544804,0.999998,0.000178,-0.002830,0.006358,-0.000023,0.006358,-0.002831,-89.859564,0.006371,
1740,1900,-0.616600,-0.873035,0.999996,0.000214,-0.002679,0.007138,0.001357,0.007322,-0.002863,82.274803,0.007379,
650,1160,2.808909,-6.637888,0.999997,0.000213,-0.003439,0.007048,-0.000450,0.007067,-0.003459,-87.547399,0.007068,
780,1000,2.517546,-7.768009,0.999997,0.000198,-0.003091,0.007503,0.000285,0.007511,-0.003099,88.460001,0.007549,
1740,1910,-0.575297,-0.803641,0.999995,0.000239,-0.002578,0.007055,0.001449,0.007268,-0.002791,81.626749,0.007333,
1520,520,-0.756582,-12.050431,0.999997,0.000202,-0.003575,0.007147,0.000772,0.007202,-0.003630,85.903642,0.007202,
1870,780,-2.743418,-9.219047,0.999997,0.000200,-0.003552,0.007247,-0.000231,0.007252,-0.003557,-88.777398,0.007252,
840,750,1.648495,-9.888950,0.999997,0.000229,-0.004791,0.008653,0.000367,0.008663,-0.004801,88.437781,0.008680,
830,760,1.727694,-9.780906,0.999996,0.000243,-0.004730,0.008652,0.000471,0.008668,-0.004746,87.986643,0.008681,
1490,1280,-1.028677,-5.024549,0.999996,0.000238,-0.005612,0.009305,-0.000883,0.009357,-0.005664,-86.623417,0.009426,
1290,1800,-0.069195,-1.138695,0.999998,0.000151,-0.001092,0.005178,0.000056,0.005178,-0.001092,89.490033,0.005459,
670,790,2.486080,-9.279369,0.999996,0.000231,-0.003815,0.007591,0.000627,0.007625,-0.003850,86.861583,0.007625,
1880,530,-2.162458,-11.083433,0.999997,0.000191,-0.003808,0.007608,0.000016,0.007608,-0.003808,89.920698,0.007608,
1840,1520,-2.024167,-3.982676,0.999997,0.000200,-0.003793,0.007620,-0.000053,0.007620,-0.003793,-89.734054,0.007620,
1690,870,-2.303728,-8.771876,0.999997,0.000225,-0.003820,0.007938,-0.000888,0.008005,-0.003886,-85.704878,0.008006,
960,1640,0.591072,-2.302574,0.999997,0.000202,-0.002844,0.006606,0.000450,0.006628,-0.002865,87.280305,0.006648,
1400,1990,-0.035025,-0.211938,0.999998,0.000190,-0.000271,0.004749,0.000369,0.004776,-0.000298,85.820724,0.005351,
1360,920,-1.127644,-10.070395,0.999990,0.000000,-0.001567,0.007127,0.005519,0.009806,-0.004246,64.111106,0.009835,
1610,810,-1.778220,-9.386096,0.999996,0.000230,-0.004724,0.008855,-0.000717,0.008892,-0.004762,-86.983590,0.008900,
560,650,2.570963,-10.104091,0.999476,0.000000,-0.006368,0.007904,0.000747,0.007942,-0.006407,87.013758,0.008426,
880,800,1.611531,-9.534083,0.999997,0.000239,-0.004969,0.009113,0.000514,0.009132,-0.004987,87.911062,0.009145,
610,1490,2.139366,-4.243343,0.999997,0.000203,-0.003784,0.007638,0.000003,0.007638,-0.003784,89.987414,0.007639,
710,1180,2.552169,-6.437256,0.999997,0.000232,-0.003669,0.007581,-0.000777,0.007634,-0.003723,-86.065718,0.007635,
820,1620,1.071669,-2.748292,0.999997,0.000199,-0.003559,0.007425,0.000242,0.007430,-0.003565,88.739028,0.007432,
910,60,0.078252,-14.916229,0.999997,0.000193,-0.000304,0.005130,0.000914,0.005279,-0.000454,80.700930,0.005852,
1310,90,-0.023966,-14.797160,0.999998,0.000174,-0.000308,0.004680,-0.000158,0.004685,-0.000313,-88.191280,0.005238,
1290,430,-0.104276,-13.045671,0.999998,0.000149,-0.001785,0.005329,0.000187,0.005334,-0.001790,88.496838,0.005430,
1010,400,0.439755,-13.009430,0.999998,0.000182,-0.002405,0.006197,-0.000352,0.006211,-0.002419,-87.659608,0.006262,
1450,1070,-1.784202,-7.021528,0.999994,0.000280,-0.004392,0.012105,-0.000460,0.012118,-0.004405,-88.405682,0.012268,
1550,620,-1.003970,-11.203130,0.999996,0.000240,-0.004419,0.007973,0.000788,0.008023,-0.004469,86.376505,0.008041,
1000,1780,0.332168,-1.360221,0.999997,0.000197,-0.001687,0.005954,-0.000159,0.005957,-0.001690,-88.808542,0.006140,
1360,1450,-0.278021,-3.147494,0.999998,0.000189,-0.002743,0.005696,-0.001504,0.005956,-0.003003,-80.187464,0.005956,
1200,720,0.045593,-11.740139,0.999998,0.000176,-0.001655,0.003104,-0.001057,0.003328,-0.001880,-78.027631,0.003338,
890,340,0.682171,-13.196532,0.999997,0.000181,-0.002973,0.006811,-0.000074,0.006812,-0.002974,-89.569491,0.006830,
1070,1580,0.337708,-2.465977,0.999997,0.000224,-0.002577,0.006045,0.000832,0.006125,-0.002656,84.539195,0.006143,
1790,210,-1.001202,-13.734647,0.999998,0.000179,-0.003331,0.007633,-0.000828,0.007695,-0.003393,-85.707537,0.007713,
1140,870,0.636510,-10.897574,0.999997,0.000219,-0.002676,0.002800,-0.001764,0.003319,-0.003195,-73.603225,0.003763,
880,1030,2.241793,-7.540005,0.999997,0.000230,-0.002790,0.008187,-0.000045,0.008188,-0.002790,-89.763166,0.008325,
1520,500,-0.735463,-12.194807,0.999997,0.000182,-0.003506,0.007113,0.000743,0.007165,-0.003558,86.016665,0.007165,
1880,540,-2.184879,-11.006465,0.999998,0.000164,-0.003828,0.007624,0.000009,0.007624,-0.003828,89.954468,0.007624,
1870,770,-2.717274,-9.292810,0.999996,0.000210,-0.003577,0.007323,-0.000233,0.007328,-0.003582,-88.777305,0.007329,
1500,1510,-0.710853,-3.192677,0.999997,0.000234,-0.003649,0.007169,-0.000969,0.007256,-0.003736,-84.920572,0.007257,
1520,1690,-0.579879,-2.004699,0.999996,0.000225,-0.002640,0.006469,-0.000187,0.006473,-0.002644,-88.822989,0.006509,
1470,1280,-0.915249,-4.919210,0.999996,0.000242,-0.005673,0.009194,-0.001255,0.009299,-0.005778,-85.209747,0.009390,
1720,1930,-0.449528,-0.645515,0.999997,0.000183,-0.001626,0.006725,0.001830,0.007109,-0.002009,78.165513,0.007329,
670,770,2.431145,-9.431997,0.999996,0.000230,-0.003832,0.007585,0.000586,0.007615,-0.003862,87.068053,0.007616,
1690,850,-2.251409,-8.932685,0.999996,0.000240,-0.003958,0.008066,-0.000934,0.008138,-0.004030,-85.585790,0.008138,
830,740,1.668486,-9.952443,0.999995,0.000265,-0.004739,0.008567,0.000349,0.008576,-0.004748,88.498738,0.008593,
560,660,2.610601,-10.054365,0.999492,0.000000,-0.006439,0.007716,0.000270,0.007721,-0.006444,88.906317,0.008278,
1410,90,-0.060798,-14.787396,0.999998,0.000148,-0.000496,0.004847,-0.000370,0.004872,-0.000521,-86.052446,0.005351,
940,1410,0.922899,-4.027179,0.999998,0.000185,-0.004542,0.007999,0.000972,0.008074,-0.004617,85.594619,0.008102,
650,1750,1.389156,-2.163604,0.999996,0.000243,-0.003642,0.007557,-0.000134,0.007559,-0.003644,-89.315356,0.007561,
780,1200,2.236512,-6.220478,0.999997,0.000226,-0.003977,0.008129,-0.000940,0.008201,-0.004050,-85.588141,0.008201,
1740,1880,-0.696988,-1.015329,0.999997,0.000206,-0.002894,0.007191,0.001174,0.007326,-0.003028,83.444914,0.007363,
1400,1330,-0.456677,-4.081947,0.999996,0.000232,-0.004449,0.007191,-0.002504,0.007706,-0.004965,-78.359071,0.007813,
1360,1990,-0.026166,-0.208126,0.999998,0.000174,-0.000207,0.004681,0.000299,0.004699,-0.000225,86.511961,0.005301,
960,1620,0.611980,-2.436130,0.999996,0.000219,-0.002911,0.006675,0.000489,0.006700,-0.002935,87.088202,0.006717,
880,780,1.543750,-9.717727,0.999996,0.000222,-0.005027,0.009043,0.000344,0.009052,-0.005036,88.600416,0.009071,
1200,700,0.046983,-11.803148,0.999998,0.000159,-0.001673,0.003410,-0.000918,0.003570,-0.001833,-80.069443,0.003571,
1830,870,-2.818323,-8.642472,0.999997,0.000217,-0.003483,0.007130,-0.000506,0.007154,-0.003507,-87.275190,0.007154,
820,1580,1.140331,-3.044795,0.999997,0.000204,-0.003747,0.007518,0.000325,0.007527,-0.003756,88.348876,0.007527,
1310,70,-0.015997,-14.891827,0.999999,0.000137,-0.000219,0.004617,-0.000163,0.004623,-0.000225,-88.069741,0.005213,
840,360,0.867813,-12.962931,0.999998,0.000194,-0.002987,0.007089,0.000091,0.007090,-0.002987,89.481606,0.007119,
1340,1450,-0.222945,-3.085393,0.999998,0.000181,-0.002597,0.005382,-0.001429,0.005630,-0.002845,-80.148801,0.005631,
1130,380,0.174657,-13.283110,0.999998,0.000167,-0.001957,0.005567,-0.000359,0.005584,-0.001974,-87.276847,0.005663,
600,390,1.786820,-12.183394,0.999998,0.000175,-0.003705,0.007462,-0.000097,0.007463,-0.003706,-89.502501,0.007463,
1360,910,-1.054574,-10.147488,0.999990,0.000000,-0.002217,0.006605,0.005078,0.008921,-0.004533,65.489952,0.008921,
1000,1760,0.358490,-1.481401,0.999997,0.000192,-0.001811,0.005984,-0.000092,0.005985,-0.001812,-89.326141,0.006138,
1080,1260,0.484687,-4.476289,0.999995,0.000275,-0.005097,0.007535,0.003081,0.008247,-0.005808,76.998893,0.008473,
1610,790,-1.711796,-9.563418,0.999996,0.000220,-0.004803,0.008862,-0.000588,0.008888,-0.004829,-87.540653,0.008899,
870,340,0.742249,-13.156807,0.999997,0.000188,-0.002965,0.006965,0.000006,0.006965,-0.002965,89.963603,0.006991,
610,1470,2.186069,-4.396787,0.999997,0.000192,-0.003785,0.007649,-0.000023,0.007649,-0.003785,-89.885883,0.007649,
1450,1050,-1.833763,-7.274463,0.999994,0.000298,-0.004414,0.012928,-0.000278,0.012933,-0.004418,-89.081852,0.013147,
590,820,2.849135,-8.931357,0.999997,0.000210,-0.003441,0.006926,0.000217,0.006931,-0.003446,88.799935,0.006931,
1150,440,0.148815,-12.976027,0.999998,0.000179,-0.001997,0.005440,-0.000442,0.005466,-0.002023,-86.613638,0.005527,
600,610,2.284494,-10.508491,0.999997,0.000235,-0.003768,0.007663,0.000031,0.007663,-0.003768,89.842133,0.007664,
690,1180,2.626176,-6.455614,0.999997,0.000204,-0.003634,0.007472,-0.000730,0.007520,-0.003682,-86.254428,0.007521,
1790,190,-0.922734,-13.889982,0.999997,0.000183,-0.003195,0.007575,-0.001028,0.007672,-0.003292,-84.597139,0.007698,
1370,1650,-0.254466,-2.014669,0.999998,0.000177,-0.001996,0.005653,-0.000359,0.005670,-0.002013,-87.321909,0.005749,
1140,860,0.542852,-10.924964,0.999997,0.000216,-0.002934,0.003016,-0.001682,0.003458,-0.003376,-75.259451,0.003947,
1810,820,-2.627644,-9.029039,0.999996,0.000221,-0.003650,0.007319,-0.000564,0.007348,-0.003679,-87.066338,0.007348,
1290,410,-0.102510,-13.152221,0.999998,0.000161,-0.001719,0.005355,0.000163,0.005358,-0.001722,88.677637,0.005471,
1700,1930,-0.419537,-0.637785,0.999996,0.000217,-0.001625,0.006550,0.001677,0.006881,-0.001956,78.845958,0.007092,
1880,550,-2.207782,-10.929513,0.999997,0.000209,-0.003832,0.007653,-0.000007,0.007653,-0.003832,-89.962711,0.007653,
1560,690,-1.183809,-10.587851,0.999997,0.000209,-0.004896,0.008575,0.000512,0.008594,-0.004915,87.828149,0.008624,
740,1750,1.071185,-1.953728,0.999997,0.000210,-0.003245,0.007392,-0.000305,0.007401,-0.003253,-88.360214,0.007419,
680,1310,2.325702,-5.481507,0.999997,0.000221,-0.003934,0.007740,-0.000525,0.007763,-0.003958,-87.431244,0.007764,
560,670,2.655434,-9.965797,0.999483,0.000000,-0.006233,0.007484,0.000179,0.007487,-0.006235,89.251560,0.008020,
670,750,2.377503,-9.581575,0.999996,0.000229,-0.003844,0.007642,0.000527,0.007667,-0.003868,87.377165,0.007667,
1520,480,-0.712350,-12.336726,0.999997,0.000200,-0.003417,0.007036,0.000684,0.007081,-0.003462,86.273011,0.007081,
1690,830,-2.188406,-9.096254,0.999996,0.000229,-0.004075,0.008106,-0.000908,0.008174,-0.004142,-85.759628,0.008174,
1010,60,0.045493,-14.926620,0.999998,0.000181,-0.000212,0.004805,0.000535,0.004861,-0.000269,83.983215,0.005464,
1340,1990,-0.022221,-0.207880,0.999998,0.000174,-0.000280,0.004642,0.000231,0.004653,-0.000291,87.319269,0.005213,
1490,1000,-1.964542,-7.835759,0.999995,0.000294,-0.003130,0.010233,-0.000321,0.010240,-0.003138,-88.626046,0.010493,
1100,420,0.246223,-13.027122,0.999998,0.000184,-0.002026,0.005640,-0.000398,0.005660,-0.002046,-87.032040,0.005732,
920,1200,1.619053,-5.999429,0.999995,0.000271,-0.005030,0.009491,-0.000733,0.009528,-0.005067,-87.118428,0.009534,
1410,1920,-0.103969,-0.558222,0.999998,0.000151,-0.000804,0.005084,0.000348,0.005104,-0.000824,86.625198,0.005481,
1200,680,0.049758,-11.873874,0.999998,0.000152,-0.001719,0.003707,-0.000783,0.003818,-0.001830,-81.946656,0.003819,
770,370,1.120380,-12.744551,0.999998,0.000182,-0.003396,0.007378,0.000018,0.007378,-0.003396,89.906905,0.007386,
890,1740,0.637568,-1.751959,0.999997,0.000204,-0.002742,0.006741,-0.000086,0.006742,-0.002743,-89.483014,0.006780,
1560,1540,-0.893827,-3.136334,0.999997,0.000215,-0.003764,0.007409,-0.000653,0.007447,-0.003802,-86.664727,0.007447,
590,390,1.824226,-12.157679,0.999997,0.000187,-0.003746,0.007421,-0.000095,0.007422,-0.003747,-89.511852,0.007422,
950,340,0.526749,-13.287803,0.999995,0.000242,-0.002546,0.006542,-0.000105,0.006543,-0.002547,-89.338533,0.006597,
1800,1450,-2.030334,-4.429706,0.999997,0.000219,-0.003895,0.007712,0.000077,0.007713,-0.003895,89.620443,0.007713,
880,760,1.482131,-9.898337,0.999996,0.000229,-0.005077,0.008978,0.000178,0.008980,-0.005079,89.273661,0.009006,
1360,900,-0.969914,-10.203807,0.999995,0.000000,-0.002245,0.006013,0.004511,0.008000,-0.004232,66.234028,0.008004,
1160,250,0.080737,-14.004197,0.999999,0.000138,-0.001108,0.005168,0.000046,0.005168,-0.001108,89.576407,0.005442,
1660,350,-0.965836,-12.965389,0.999998,0.000129,-0.003396,0.007219,-0.000009,0.007219,-0.003396,-89.953669,0.007223,
1740,1860,-0.778723,-1.162731,0.999997,0.000202,-0.003018,0.007312,0.000985,0.007405,-0.003112,84.600036,0.007437,
1730,1060,-2.663645,-7.320113,0.999997,0.000216,-0.003193,0.007314,0.000246,0.007320,-0.003199,88.658148,0.007339,
1730,570,-1.672294,-11.124317,0.999996,0.000235,-0.004060,0.007804,0.000073,0.007805,-0.004061,89.645885,0.007807,
740,720,2.012104,-9.940418,0.999997,0.000233,-0.004197,0.008030,0.000462,0.008047,-0.004214,87.837054,0.008050,
1480,1510,-0.637223,-3.133158,0.999997,0.000207,-0.003605,0.007005,-0.001057,0.007109,-0.003709,-84.363654,0.007112,
650,1180,2.770475,-6.495446,0.999997,0.000203,-0.003509,0.007239,-0.000581,0.007270,-0.003540,-86.915031,0.007271,
960,1600,0.631464,-2.569449,0.999997,0.000228,-0.003020,0.006789,0.000556,0.006820,-0.003052,86.765369,0.006833,
1290,390,-0.099691,-13.261671,0.999998,0.000159,-0.001666,0.005377,0.000126,0.005380,-0.001668,88.973134,0.005507,
1110,60,0.020674,-14.934355,0.999998,0.000158,-0.000185,0.004612,0.000261,0.004626,-0.000199,86.900232,0.005231,
1000,1740,0.380716,-1.600726,0.999997,0.000188,-0.001914,0.006056,-0.000020,0.006056,-0.001914,-89.852818,0.006191,
1370,1610,-0.266930,-2.242164,0.999997,0.000213,-0.002227,0.005783,-0.000549,0.005820,-0.002264,-86.096949,0.005868,
1450,1030,-1.851465,-7.531220,0.999992,0.000343,-0.004427,0.012646,-0.000043,0.012646,-0.004427,-89.855278,0.012834,
1830,850,-2.770454,-8.788596,0.999997,0.000215,-0.003540,0.007147,-0.000521,0.007173,-0.003565,-87.217189,0.007173,
660,1310,2.403640,-5.515999,0.999997,0.000194,-0.003809,0.007603,-0.000470,0.007622,-0.003828,-87.644084,0.007622,
1830,1980,-0.409226,-0.417063,0.999997,0.000214,-0.002973,0.007892,0.002185,0.008314,-0.003396,79.046024,0.008361,
1510,1680,-0.564615,-2.051768,0.999997,0.000214,-0.002735,0.006494,-0.000291,0.006503,-0.002745,-88.198845,0.006529,
1690,1940,-0.365373,-0.560940,0.999998,0.000188,-0.001556,0.006436,0.001673,0.006772,-0.001893,78.640759,0.006988,
730,1160,2.527480,-6.577283,0.999997,0.000203,-0.003585,0.007648,-0.000818,0.007707,-0.003644,-85.857370,0.007711,
760,1030,2.594652,-7.541549,0.999997,0.000212,-0.003164,0.007477,-0.000060,0.007477,-0.003165,-89.677816,0.007507,
920,1180,1.702983,-6.188326,0.999996,0.000248,-0.004751,0.009457,-0.000908,0.009515,-0.004809,-86.356146,0.009515,
1100,400,0.239253,-13.137918,0.999998,0.000178,-0.001912,0.005614,-0.000327,0.005628,-0.001926,-87.520164,0.005721,
1080,1240,0.539344,-4.631491,0.999995,0.000274,-0.005246,0.007852,0.003076,0.008538,-0.005932,77.419410,0.008751,
1870,730,-2.612842,-9.586878,0.999996,0.000228,-0.003632,0.007341,-0.000184,0.007344,-0.003635,-89.037257,0.007344,
700,490,1.628805,-11.668877,0.999997,0.000193,-0.003877,0.007698,-0.000145,0.007700,-0.003878,-89.282046,0.007700,
1180,1780,0.065134,-1.241012,0.999998,0.000148,-0.001219,0.005260,-0.000021,0.005260,-0.001219,-89.816837,0.005507,
770,350,1.075420,-12.894754,0.999997,0.000187,-0.003307,0.007369,0.000086,0.007370,-0.003307,89.537112,0.007383,
660,1790,1.235355,-1.836884,0.999997,0.000191,-0.003518,0.007583,-0.000405,0.007598,-0.003533,-87.914201,0.007604,
1560,1760,-0.568227,-1.600127,0.999997,0.000200,-0.002343,0.006573,0.000244,0.006580,-0.002350,88.431011,0.006669,
1790,50,-0.190567,-14.924181,0.999998,0.000208,-0.000544,0.006473,-0.002829,0.007471,-0.001542,-70.560174,0.007889,
990,1700,0.444446,-1.859156,0.999997,0.000217,-0.002277,0.006206,0.000193,0.006211,-0.002281,88.697337,0.006283,
1650,210,-0.587855,-13.971565,0.999996,0.000221,-0.002323,0.006687,-0.000865,0.006770,-0.002405,-84.566296,0.006863,
610,1450,2.232724,-4.549760,0.999997,0.000212,-0.003795,0.007666,-0.000047,0.007666,-0.003795,-89.764303,0.007667,
880,1410,1.198661,-4.223606,0.999997,0.000188,-0.004598,0.008291,0.000488,0.008310,-0.004617,87.833764,0.008327,
670,730,2.323240,-9.737505,0.999996,0.000219,-0.003876,0.007670,0.000472,0.007689,-0.003896,87.665348,0.007689,
1690,1050,-2.543364,-7.390549,0.999997,0.000198,-0.003123,0.007489,0.000273,0.007496,-0.003130,88.528079,0.007530,
840,340,0.828815,-13.106354,0.999997,0.000199,-0.002884,0.007103,0.000138,0.007105,-0.002886,89.205872,0.007146,
560,680,2.649542,-9.881011,0.999321,0.000000,-0.005996,0.007753,-0.000186,0.007755,-0.005999,-89.223547,0.008133,
950,360,0.554641,-13.159252,0.999998,0.000195,-0.002666,0.006460,-0.000200,0.006464,-0.002670,-88.746161,0.006497,
880,740,1.421634,-10.077828,0.999996,0.000237,-0.005060,0.008844,0.000018,0.008844,-0.005060,89.926788,0.008874,
1280,130,-0.027771,-14.608939,0.999998,0.000159,-0.000464,0.004803,-0.000072,0.004804,-0.000465,-89.215678,0.005299,
670,1480,1.932604,-4.180079,0.999996,0.000222,-0.003886,0.007737,0.000007,0.007737,-0.003886,89.963378,0.007737,
1360,30,-0.007593,-15.072313,0.999998,0.000000,-0.000011,0.004558,-0.000261,0.004573,-0.000026,-86.741809,0.005265,
1560,670,-1.140321,-10.759173,0.999995,0.000259,-0.004760,0.008437,0.000584,0.008463,-0.004786,87.471540,0.008487,
1390,1920,-0.090433,-0.553063,0.999998,0.000143,-0.000620,0.005037,0.000304,0.005053,-0.000636,86.935148,0.005505,
1200,660,0.051618,-11.950473,0.999998,0.000166,-0.001757,0.003940,-0.000664,0.004016,-0.001834,-83.440943,0.004021,
630,1180,2.840067,-6.517541,0.999997,0.000219,-0.003444,0.007070,-0.000469,0.007091,-0.003465,-87.449652,0.007092,
1110,380,0.213074,-13.261393,0.999998,0.000206,-0.001870,0.005654,-0.000301,0.005666,-0.001882,-87.715363,0.005772,
1350,500,-0.238711,-12.593200,0.999998,0.000143,-0.002255,0.005639,0.000735,0.005707,-0.002323,84.726366,0.005740,
1360,360,-0.214152,-13.370149,0.999998,0.000172,-0.001800,0.005618,0.000219,0.005624,-0.001807,88.307458,0.005743,
1750,1060,-2.727539,-7.322958,0.999997,0.000186,-0.003238,0.007249,0.000245,0.007255,-0.003243,88.663581,0.007269,
1480,1490,-0.654387,-3.276274,0.999998,0.000197,-0.003721,0.007142,-0.001134,0.007259,-0.003838,-84.103688,0.007263,
740,700,1.958394,-10.102623,0.999996,0.000266,-0.004227,0.008027,0.000384,0.008039,-0.004239,88.208892,0.008043,
1000,1720,0.404776,-1.723365,0.999997,0.000199,-0.002048,0.006129,0.000063,0.006129,-0.002048,89.557185,0.006241,
1530,60,-0.071227,-14.918130,0.999999,0.000141,-0.000326,0.005040,-0.000812,0.005160,-0.000447,-81.580327,0.005718,
1450,1010,-1.838613,-7.775631,0.999993,0.000326,-0.004361,0.012891,0.000262,0.012895,-0.004365,89.131462,0.013117,
1370,1280,-0.384995,-4.224682,0.999997,0.000218,-0.004521,0.006743,-0.003158,0.007568,-0.005346,-75.362031,0.007780,
1290,590,-0.111270,-12.219863,0.999998,0.000191,-0.002079,0.004856,0.000805,0.004949,-0.002171,83.468418,0.004961,
710,1160,2.599506,-6.590350,0.999997,0.000210,-0.003584,0.007504,-0.000733,0.007553,-0.003632,-86.235951,0.007554,
1690,1920,-0.438067,-0.692415,0.999997,0.000190,-0.001872,0.006483,0.001453,0.006728,-0.002117,80.413453,0.006881,
1690,1000,-2.541129,-7.768071,0.999997,0.000232,-0.003148,0.007471,-0.000262,0.007477,-0.003155,-88.587125,0.007508,
920,1160,1.785278,-6.376801,0.999996,0.000251,-0.004439,0.009380,-0.001053,0.009459,-0.004519,-85.666365,0.009463,
1100,380,0.231249,-13.252352,0.999998,0.000189,-0.001824,0.005688,-0.000266,0.005698,-0.001834,-87.973500,0.005817,
1520,460,-0.689168,-12.478452,0.999997,0.000206,-0.003253,0.006945,0.000604,0.006980,-0.003289,86.620581,0.006984,
840,320,0.790385,-13.249056,0.999998,0.000200,-0.002831,0.006971,0.000151,0.006974,-0.002833,89.120001,0.007014,
820,1850,0.560868,-1.107918,0.999998,0.000187,-0.002148,0.006654,-0.000901,0.006745,-0.002240,-84.214635,0.006871,
1410,70,-0.043060,-14.883394,0.999998,0.000148,-0.000367,0.004778,-0.000394,0.004808,-0.000398,-85.642121,0.005337,
970,640,0.782838,-11.239081,0.999996,0.000236,-0.004419,0.007749,-0.001279,0.007882,-0.004552,-84.065214,0.007913,
1350,2020,-0.011479,-0.069841,0.999998,0.000000,-0.000191,0.004565,0.000162,0.004571,-0.000196,88.046152,0.005168,
790,920,2.369646,-8.385635,0.999996,0.000232,-0.003528,0.007899,0.000844,0.007961,-0.003590,85.800306,0.007974,
1640,810,-1.916877,-9.332627,0.999996,0.000214,-0.004501,0.008585,-0.000797,0.008633,-0.004549,-86.526211,0.008637,
1830,830,-2.722531,-8.929786,0.999997,0.000205,-0.003544,0.007116,-0.000503,0.007140,-0.003567,-87.304170,0.007140,
1120,250,0.131503,-13.986070,0.999999,0.000152,-0.001315,0.005292,0.000000,0.005292,-0.001315,-89.997721,0.005510,
770,330,1.031660,-13.042229,0.999997,0.000201,-0.003254,0.007358,0.000125,0.007359,-0.003256,89.323104,0.007375,
650,1480,2.009573,-4.226865,0.999997,0.000193,-0.003848,0.007699,0.000006,0.007699,-0.003848,89.970312,0.007699,
1560,1520,-0.923223,-3.288633,0.999997,0.000215,-0.003880,0.007531,-0.000682,0.007572,-0.003921,-86.592273,0.007574,
1180,1760,0.071074,-1.348955,0.999999,0.000134,-0.001321,0.005299,0.000002,0.005299,-0.001321,89.982372,0.005516,
1200,640,0.054070,-12.028010,0.999998,0.000178,-0.001790,0.004159,-0.000564,0.004212,-0.001843,-84.634050,0.004223,
790,1180,2.252428,-6.372339,0.999996,0.000231,-0.003853,0.008051,-0.000921,0.008122,-0.003924,-85.603544,0.008124,
880,720,1.368800,-10.254591,0.999996,0.000214,-0.005014,0.008764,-0.000115,0.008765,-0.005015,-89.521599,0.008795,
1650,190,-0.531719,-14.106835,0.999997,0.000215,-0.002138,0.006638,-0.000984,0.006747,-0.002247,-83.678391,0.006871,
1790,40,-0.134866,-14.986256,0.999998,0.000167,-0.000225,0.006279,-0.002833,0.007339,-0.001286,-69.469790,0.007839,
1050,1920,0.106881,-0.559238,0.999998,0.000166,-0.000812,0.005073,-0.000316,0.005090,-0.000829,-86.932293,0.005462,
1610,990,-2.292445,-7.856869,0.999997,0.000217,-0.002966,0.007901,-0.000434,0.007919,-0.002983,-87.716127,0.007998,
1300,1980,-0.016885,-0.253192,0.999998,0.000164,-0.000189,0.004602,0.000150,0.004606,-0.000193,88.207806,0.005211,
760,1410,1.733193,-4.530540,0.999996,0.000265,-0.004267,0.008061,-0.000104,0.008062,-0.004267,-89.516533,0.008067,
1360,340,-0.207476,-13.480257,0.999997,0.000214,-0.001722,0.005594,0.000201,0.005599,-0.001727,88.427755,0.005734,
620,530,2.022831,-11.167384,0.999997,0.000208,-0.003758,0.007655,-0.000069,0.007655,-0.003758,-89.654906,0.007656,
670,710,2.269845,-9.892064,0.999996,0.000218,-0.003917,0.007691,0.000396,0.007704,-0.003930,88.047601,0.007705,
1590,1720,-0.724331,-1.922688,0.999997,0.000183,-0.002960,0.006941,0.000020,0.006941,-0.002961,89.881825,0.006966,
1840,1910,-0.880416,-1.010827,0.999998,0.000192,-0.003668,0.007782,0.000828,0.007842,-0.003728,85.886300,0.007845,
560,900,3.107703,-8.344119,0.999994,0.000000,-0.003019,0.006430,0.000059,0.006431,-0.003019,89.642323,0.006435,
1350,1280,-0.296842,-4.062892,0.999996,0.000259,-0.004006,0.005789,-0.003281,0.006787,-0.005003,-73.090646,0.007037,
1300,280,-0.087087,-13.848726,0.999998,0.000147,-0.001237,0.005287,-0.000035,0.005287,-0.001238,-89.690043,0.005531,
1510,60,-0.062966,-14.920937,0.999998,0.000161,-0.000421,0.004974,-0.000711,0.005066,-0.000513,-82.617042,0.005577,
1000,1700,0.423906,-1.845895,0.999997,0.000211,-0.002161,0.006132,0.000167,0.006135,-0.002165,88.843638,0.006223,
1790,170,-0.840161,-14.037472,0.999998,0.000191,-0.003040,0.007614,-0.001336,0.007779,-0.003205,-82.959316,0.007819,
1800,210,-1.033486,-13.712736,0.999998,0.000169,-0.003357,0.007682,-0.000830,0.007744,-0.003419,-85.726352,0.007762,
1800,1130,-2.814597,-6.839017,0.999997,0.000205,-0.003409,0.007099,0.000494,0.007122,-0.003432,87.315239,0.007123,
1450,990,-1.803274,-8.041895,0.999994,0.000299,-0.004344,0.012352,0.000437,0.012363,-0.004356,88.502064,0.012542,
1870,820,-2.839501,-8.937652,0.999997,0.000207,-0.003444,0.006941,-0.000258,0.006948,-0.003451,-88.576304,0.006948,
1520,440,-0.665878,-12.618002,0.999997,0.000225,-0.003049,0.006848,0.000494,0.006873,-0.003074,87.151537,0.006885,
1830,810,-2.676287,-9.072842,0.999997,0.000217,-0.003601,0.007245,-0.000483,0.007267,-0.003623,-87.454973,0.007267,
1100,360,0.221885,-13.367574,0.999998,0.000196,-0.001750,0.005652,-0.000209,0.005658,-0.001756,-88.385727,0.005792,
1670,1000,-2.477696,-7.770408,0.999997,0.000202,-0.003093,0.007566,-0.000281,0.007573,-0.003100,-88.489975,0.007614,
1090,520,0.299587,-12.430257,0.999997,0.000218,-0.002642,0.005868,-0.001029,0.005991,-0.002765,-83.202583,0.005997,
1740,1840,-0.849244,-1.309820,0.999998,0.000180,-0.003142,0.007387,0.000816,0.007450,-0.003205,85.592498,0.007474,
1730,550,-1.628913,-11.280772,0.999996,0.000247,-0.004013,0.007788,0.000114,0.007789,-0.004014,89.447064,0.007791,
1400,1980,-0.042507,-0.260138,0.999998,0.000176,-0.000322,0.004794,0.000362,0.004819,-0.000347,85.977083,0.005375,
1370,1860,-0.123722,-0.854283,0.999998,0.000154,-0.000908,0.005224,0.000217,0.005231,-0.000916,87.973239,0.005587,
1170,1480,0.117559,-2.831998,0.999998,0.000194,-0.002071,0.004965,0.000817,0.005058,-0.002165,83.462664,0.005076,
950,640,0.870071,-11.166653,0.999998,0.000184,-0.004466,0.007898,-0.001061,0.007988,-0.004556,-85.131008,0.008015,
1100,250,0.158018,-13.974172,0.999998,0.000138,-0.001270,0.005364,0.000082,0.005365,-0.001271,89.290743,0.005607,
1080,1990,0.031292,-0.210260,0.999999,0.000146,-0.000177,0.004704,-0.000334,0.004726,-0.000199,-86.101478,0.005346,
1350,1160,-0.921233,-4.710307,0.999996,0.000000,-0.001761,0.004973,-0.004023,0.006852,-0.003641,-64.963787,0.006857,
1680,630,-1.598085,-10.763925,0.999997,0.000196,-0.004322,0.008111,0.000012,0.008111,-0.004322,89.944541,0.008117,
750,1610,1.347152,-2.985852,0.999996,0.000223,-0.003733,0.007558,0.000165,0.007560,-0.003735,89.160716,0.007560,
880,700,1.316755,-10.429715,0.999996,0.000212,-0.004914,0.008666,-0.000243,0.008670,-0.004919,-88.975777,0.008696,
1640,790,-1.852803,-9.504163,0.999997,0.000209,-0.004588,0.008613,-0.000696,0.008650,-0.004624,-86.992401,0.008657,
670,690,2.216932,-10.045824,0.999997,0.000215,-0.003959,0.007683,0.000353,0.007694,-0.003970,88.262724,0.007695,
960,1580,0.651151,-2.704233,0.999997,0.000217,-0.003196,0.006839,0.000675,0.006884,-0.003241,86.170977,0.006888,
1560,1480,-0.978818,-3.592875,0.999997,0.000202,-0.004075,0.007758,-0.000715,0.007801,-0.004118,-86.552797,0.007805,
1360,320,-0.193115,-13.594878,0.999997,0.000189,-0.001639,0.005578,0.000106,0.005580,-0.001640,89.159019,0.005736,
1810,240,-1.176275,-13.460697,0.999998,0.000182,-0.003473,0.007646,-0.000520,0.007671,-0.003497,-87.327843,0.007681,
920,1140,1.870742,-6.564749,0.999996,0.000246,-0.004066,0.009252,-0.001098,0.009342,-0.004156,-85.319420,0.009361,
620,510,1.979143,-11.321366,0.999997,0.000204,-0.003762,0.007653,-0.000079,0.007654,-0.003763,-89.605190,0.007654,
770,1180,2.328412,-6.389367,0.999997,0.000214,-0.003823,0.007914,-0.000891,0.007981,-0.003891,-85.683047,0.007982,
1180,1740,0.073360,-1.454125,0.999998,0.000167,-0.001411,0.005346,0.000051,0.005346,-0.001411,89.570073,0.005541,
560,890,3.092712,-8.408651,0.999994,0.000000,-0.003079,0.006351,0.000029,0.006351,-0.003080,89.826340,0.006352,
1650,170,-0.469197,-14.237983,0.999997,0.000198,-0.001963,0.006481,-0.001112,0.006625,-0.002107,-82.620907,0.006770,
590,1750,1.608593,-2.327941,0.999998,0.000198,-0.003891,0.007353,0.000041,0.007353,-0.003891,89.791396,0.007358,
1200,620,0.056307,-12.112872,0.999998,0.000158,-0.001821,0.004392,-0.000495,0.004431,-0.001860,-85.473767,0.004450,
1860,1350,-2.512029,-5.326292,0.999996,0.000241,-0.003730,0.007527,0.000199,0.007531,-0.003734,88.986191,0.007531,
1210,60,0.004384,-14.937181,0.999998,0.000147,-0.000190,0.004536,0.000059,0.004537,-0.000190,89.285177,0.005132,
1350,1260,-0.331106,-4.182188,0.999996,0.000245,-0.004231,0.005937,-0.003454,0.006999,-0.005294,-72.903207,0.007299,
1840,1890,-0.977056,-1.165401,0.999996,0.000235,-0.003649,0.007791,0.000661,0.007829,-0.003687,86.706273,0.007833,
1770,60,-0.224347,-14.865584,0.999996,0.000256,-0.001125,0.006646,-0.002572,0.007420,-0.001899,-73.249398,0.007709,
1450,970,-1.731065,-8.268567,0.999992,0.000362,-0.004322,0.011899,0.000574,0.011919,-0.004342,87.974702,0.012064,
1010,190,0.210224,-14.254378,0.999998,0.000182,-0.001127,0.005485,0.000393,0.005508,-0.001151,86.613458,0.005811,
1270,1310,-0.057985,-3.466339,0.999998,0.000174,-0.001792,0.002757,-0.001449,0.003179,-0.002214,-73.751052,0.003260,
850,1160,2.079000,-6.482667,0.999997,0.000221,-0.003914,0.008508,-0.001034,0.008594,-0.004000,-85.276093,0.008601,
1710,1700,-1.143136,-2.299090,0.999998,0.000170,-0.003405,0.007449,0.000105,0.007450,-0.003406,89.446669,0.007459,
1470,1300,-0.861859,-4.738053,0.999996,0.000250,-0.005515,0.008979,-0.001394,0.009112,-0.005648,-84.556921,0.009199,
1300,1960,-0.024812,-0.343476,0.999998,0.000174,-0.000289,0.004684,0.000142,0.004688,-0.000293,88.366568,0.005252,
1740,1820,-0.919837,-1.459359,0.999997,0.000190,-0.003200,0.007445,0.000652,0.007485,-0.003240,86.508041,0.007507,
1510,1000,-2.022806,-7.815368,0.999997,0.000218,-0.002901,0.009461,-0.000398,0.009474,-0.002914,-88.156328,0.009705,
1100,340,0.212283,-13.479145,0.999998,0.000191,-0.001686,0.005605,-0.000157,0.005609,-0.001689,-88.768668,0.005754,
670,670,2.162302,-10.201039,0.999998,0.000187,-0.003948,0.007725,0.000279,0.007732,-0.003955,88.629914,0.007732,
1600,1160,-2.027683,-6.470803,0.999997,0.000197,-0.003965,0.008660,0.001072,0.008750,-0.004055,85.181532,0.008758,
1400,1960,-0.059089,-0.355566,0.999998,0.000173,-0.000469,0.004857,0.000342,0.004879,-0.000491,86.335630,0.005373,
1520,420,-0.643994,-12.752157,0.999997,0.000225,-0.002877,0.006756,0.000389,0.006772,-0.002893,87.690703,0.006796,
1240,250,-0.009708,-14.015413,0.999998,0.000141,-0.001172,0.005115,0.000036,0.005115,-0.001172,89.676197,0.005360,
1830,790,-2.621655,-9.220235,0.999997,0.000211,-0.003667,0.007388,-0.000469,0.007408,-0.003687,-87.573856,0.007408,
1870,810,-2.816870,-9.007063,0.999996,0.000240,-0.003463,0.006941,-0.000245,0.006946,-0.003469,-88.653441,0.006946,
1690,200,-0.665114,-13.985231,0.999996,0.000211,-0.002630,0.006979,-0.000991,0.007080,-0.002731,-84.174574,0.007141,
1560,1460,-1.006791,-3.750506,0.999997,0.000201,-0.004252,0.007832,-0.000735,0.007877,-0.004297,-86.531630,0.007888,
1110,1860,0.108686,-0.849470,0.999998,0.000169,-0.000985,0.005158,-0.000149,0.005162,-0.000989,-88.612904,0.005479,
750,1590,1.385491,-3.139380,0.999997,0.000215,-0.003800,0.007623,0.000196,0.007626,-0.003803,89.016290,0.007626,
1140,710,0.175658,-11.561167,0.999998,0.000179,-0.002657,0.004701,-0.002313,0.005367,-0.003324,-73.923458,0.005418,
1360,300,-0.184892,-13.702969,0.999998,0.000164,-0.001519,0.005495,0.000058,0.005496,-0.001520,89.522483,0.005676,
1350,1150,-0.999861,-4.768097,0.999993,0.000000,-0.001746,0.005275,-0.004624,0.007571,-0.004041,-63.601724,0.007576,
920,1120,1.942845,-6.747172,0.999997,0.000226,-0.003704,0.009083,-0.001074,0.009172,-0.003793,-85.231672,0.009218,
1520,1450,-0.855910,-3.703998,0.999997,0.000205,-0.004207,0.007715,-0.000968,0.007793,-0.004285,-85.390225,0.007806,
1180,1960,0.019115,-0.343451,0.999998,0.000178,-0.000255,0.004653,-0.000102,0.004655,-0.000257,-88.807277,0.005233,
1620,810,-1.824765,-9.368191,0.999997,0.000210,-0.004639,0.008749,-0.000752,0.008791,-0.004681,-86.797159,0.008797,
880,680,1.271755,-10.602908,0.999997,0.000211,-0.004828,0.008530,-0.000362,0.008540,-0.004838,-88.450020,0.008565,
1650,370,-0.972638,-12.844012,0.999998,0.000167,-0.003388,0.007269,0.000014,0.007269,-0.003388,89.926857,0.007275,
1200,600,0.056900,-12.202063,0.999998,0.000147,-0.001858,0.004542,-0.000435,0.004572,-0.001887,-86.132950,0.004595,
1730,530,-1.585241,-11.437812,0.999997,0.000228,-0.003957,0.007793,0.000143,0.007795,-0.003959,89.302856,0.007795,
950,620,0.844795,-11.322876,0.999998,0.000197,-0.004316,0.007782,-0.001057,0.007874,-0.004407,-85.043035,0.007893,
990,720,0.805039,-10.674678,0.999996,0.000257,-0.005123,0.008488,-0.001469,0.008645,-0.005280,-83.911450,0.008716,
830,1180,2.094531,-6.332981,0.999996,0.000230,-0.004050,0.008450,-0.001026,0.008533,-0.004133,-85.338246,0.008535,
1010,210,0.239671,-14.139239,0.999998,0.000187,-0.001277,0.005579,0.000340,0.005596,-0.001293,87.170661,0.005859,
580,240,1.440943,-13.235064,0.999997,0.000195,-0.004316,0.006701,0.000546,0.006728,-0.004343,87.172113,0.006822,
1450,950,-1.641831,-8.508165,0.999991,0.000348,-0.004458,0.011616,0.000529,0.011634,-0.004476,88.116031,0.011736,
560,880,3.075216,-8.472581,0.999994,0.000000,-0.003157,0.006239,0.000005,0.006239,-0.003157,89.972260,0.006239,
1660,630,-1.511669,-10.813114,0.999996,0.000236,-0.004354,0.008122,0.000095,0.008123,-0.004354,89.564347,0.008130,
1730,1360,-1.974863,-4.988867,0.999997,0.000238,-0.004156,0.007966,0.000365,0.007977,-0.004167,88.274547,0.007980,
580,1750,1.644521,-2.356756,0.999997,0.000208,-0.004494,0.007163,0.000074,0.007163,-0.004495,89.638566,0.007241,
1190,60,0.007035,-14.938041,0.999999,0.000152,-0.000162,0.004539,0.000084,0.004541,-0.000163,88.973847,0.005151,
1710,1280,-2.114945,-5.602548,0.999996,0.000259,-0.004167,0.008150,0.000676,0.008186,-0.004204,86.868172,0.008187,
1740,1800,-0.981716,-1.610201,0.999997,0.000214,-0.003277,0.007499,0.000496,0.007522,-0.003300,87.368819,0.007540,
690,1640,1.507693,-2.903248,0.999996,0.000220,-0.003742,0.007587,0.000123,0.007588,-0.003744,89.380403,0.007588,
630,1160,2.876045,-6.656628,0.999998,0.000178,-0.003339,0.006871,-0.000366,0.006884,-0.003352,-87.950910,0.006884,
1400,1940,-0.077497,-0.454282,0.999998,0.000161,-0.000587,0.004980,0.000368,0.005004,-0.000611,86.237091,0.005459,
1360,280,-0.172279,-13.815730,0.999998,0.000150,-0.001424,0.005497,0.000001,0.005497,-0.001424,89.991042,0.005706,
670,650,2.112259,-10.356053,0.999997,0.000205,-0.003938,0.007770,0.000193,0.007774,-0.003942,89.054818,0.007774,
1790,150,-0.742839,-14.195791,0.999998,0.000210,-0.002852,0.007548,-0.001580,0.007783,-0.003087,-81.548410,0.007838,
1610,1000,-2.299619,-7.778525,0.999998,0.000200,-0.002890,0.007867,-0.000328,0.007877,-0.002900,-88.255026,0.007968,
1100,320,0.198373,-13.593244,0.999998,0.000179,-0.001613,0.005616,-0.000106,0.005618,-0.001614,-89.157929,0.005784,
1270,1270,-0.075472,-3.570218,0.999997,0.000211,-0.002146,0.002232,-0.001649,0.002784,-0.002697,-71.501652,0.003166,
1870,800,-2.792911,-9.075543,0.999997,0.000237,-0.003495,0.007001,-0.000233,0.007006,-0.003500,-88.730980,0.007006,
1080,530,0.329475,-12.345903,0.999998,0.000172,-0.002689,0.005982,-0.001070,0.006112,-0.002819,-83.070031,0.006118,
750,1570,1.426603,-3.291306,0.999997,0.000222,-0.003859,0.007693,0.000208,0.007696,-0.003862,88.971068,0.007696,
1520,400,-0.622609,-12.886886,0.999997,0.000216,-0.002787,0.006660,0.000307,0.006670,-0.002797,88.142047,0.006699,
1350,900,-0.951333,-10.388518,0.999924,0.000000,-0.001865,0.005095,0.004485,0.007292,-0.004061,63.905638,0.007307,
1430,1860,-0.190611,-0.883849,0.999998,0.000190,-0.001249,0.005410,0.000297,0.005423,-0.001262,87.448621,0.005676,
1560,1440,-1.040698,-3.909306,0.999997,0.000194,-0.004400,0.007964,-0.000735,0.008007,-0.004444,-86.612080,0.008023,
920,1100,2.016085,-6.929415,0.999997,0.000218,-0.003353,0.008889,-0.000944,0.008961,-0.003425,-85.616500,0.009044,
630,100,0.593435,-14.495093,0.999995,0.000251,-0.003310,0.007905,0.001620,0.008134,-0.003539,81.942768,0.008157,
1220,250,0.013197,-14.016135,0.999999,0.000138,-0.001165,0.005113,-0.000030,0.005113,-0.001165,-89.730463,0.005360,
1150,1480,0.161198,-2.870571,0.999998,0.000142,-0.002199,0.005114,0.000972,0.005241,-0.002327,82.554474,0.005252,
1180,1720,0.080144,-1.562945,0.999998,0.000160,-0.001499,0.005339,0.000060,0.005340,-0.001499,89.493739,0.005508,
880,660,1.228286,-10.772338,0.999997,0.000222,-0.004706,0.008348,-0.000423,0.008362,-0.004720,-88.144043,0.008385,
1200,580,0.056664,-12.291641,0.999998,0.000153,-0.001877,0.004709,-0.000398,0.004733,-0.001900,-86.552471,0.004763,
1060,1990,0.035309,-0.212354,0.999998,0.000156,-0.000292,0.004732,-0.000363,0.004758,-0.000318,-85.888609,0.005320,
580,230,1.405635,-13.307212,0.999997,0.000200,-0.003989,0.006878,0.000507,0.006902,-0.004012,87.336097,0.006932,
870,1180,1.927010,-6.281797,0.999997,0.000231,-0.004315,0.008831,-0.001050,0.008915,-0.004398,-85.463757,0.008915,
1800,590,-1.994807,-10.806772,0.999997,0.000204,-0.003851,0.007726,-0.000008,0.007726,-0.003851,-89.960830,0.007726,
1470,580,-0.631358,-11.768541,0.999997,0.000230,-0.003783,0.007123,0.001266,0.007268,-0.003928,83.465023,0.007275,
960,1560,0.670416,-2.844352,0.999997,0.000216,-0.003380,0.006949,0.000787,0.007008,-0.003440,85.666854,0.007009,
970,720,0.906131,-10.582016,0.999997,0.000192,-0.005164,0.008646,-0.001186,0.008747,-0.005265,-85.126599,0.008808,
990,60,0.050307,-14.925842,0.999998,0.000159,-0.000229,0.004850,0.000598,0.004919,-0.000298,83.372494,0.005516,
1010,230,0.259213,-14.029415,0.999998,0.000174,-0.001406,0.005667,0.000288,0.005679,-0.001418,87.669293,0.005912,
1360,260,-0.159496,-13.925487,0.999998,0.000149,-0.001304,0.005345,-0.000039,0.005345,-0.001304,-89.663921,0.005574,
1690,1280,-2.029274,-5.569683,0.999998,0.000166,-0.004332,0.008275,0.000688,0.008312,-0.004369,86.883196,0.008316,
1730,510,-1.543371,-11.594036,0.999996,0.000243,-0.003901,0.007747,0.000161,0.007749,-0.003903,89.210189,0.007749,
1690,810,-2.131491,-9.258779,0.999997,0.000225,-0.004146,0.008172,-0.000807,0.008224,-0.004198,-86.266063,0.008225,
1200,130,0.018260,-14.609651,0.999998,0.000144,-0.000522,0.004748,0.000025,0.004748,-0.000522,89.725797,0.005207,
560,870,3.060301,-8.533426,0.999997,0.000000,-0.003208,0.006278,0.000030,0.006278,-0.003208,89.821675,0.006279,
1080,1220,0.625751,-4.800680,0.999994,0.000280,-0.005315,0.007955,0.002901,0.008561,-0.005922,78.191862,0.008769,
690,1620,1.550272,-3.054904,0.999997,0.000216,-0.003772,0.007576,0.000130,0.007578,-0.003773,89.345192,0.007578,
690,1160,2.670745,-6.604837,0.999998,0.000181,-0.003533,0.007357,-0.000627,0.007393,-0.003569,-86.717301,0.007394,
670,630,2.063312,-10.512471,0.999997,0.000212,-0.003921,0.007752,0.000138,0.007753,-0.003922,89.322520,0.007753,
1450,930,-1.530951,-8.732287,0.999992,0.000325,-0.004741,0.011047,0.000406,0.011057,-0.004752,88.528598,0.011094,
1650,1630,-1.077895,-2.688064,0.999997,0.000194,-0.003537,0.007415,-0.000224,0.007419,-0.003542,-88.828304,0.007422,
640,1390,2.267463,-4.943471,0.999997,0.000197,-0.003851,0.007582,-0.000249,0.007587,-0.003857,-88.754209,0.007588,
1610,250,-0.606125,-13.744975,0.999997,0.000209,-0.002446,0.006657,-0.000514,0.006686,-0.002475,-86.779353,0.006760,
1250,1790,-0.022059,-1.182645,0.999998,0.000158,-0.001235,0.005157,-0.000068,0.005158,-0.001235,-89.390562,0.005386,
740,1030,2.658485,-7.540069,0.999997,0.000196,-0.003189,0.007411,-0.000034,0.007411,-0.003189,-89.818424,0.007435,
1300,1940,-0.030021,-0.440832,0.999998,0.000175,-0.000384,0.004793,0.000159,0.004798,-0.000389,88.243823,0.005330,
830,920,2.226005,-8.411852,0.999996,0.000240,-0.003627,0.008226,0.001007,0.008311,-0.003711,85.179856,0.008326,
1100,300,0.190937,-13.703208,0.999998,0.000173,-0.001497,0.005511,-0.000041,0.005512,-0.001497,-89.666034,0.005700,
800,730,1.778879,-9.974845,0.999998,0.000166,-0.004544,0.008376,0.000408,0.008389,-0.004557,88.193097,0.008399,
860,1750,0.704145,-1.735177,0.999997,0.000217,-0.002813,0.006805,-0.000164,0.006807,-0.002815,-89.024156,0.006841,
1400,1920,-0.096830,-0.555758,0.999998,0.000144,-0.000726,0.005060,0.000334,0.005079,-0.000745,86.706548,0.005485,
1450,1860,-0.213118,-0.893429,0.999998,0.000164,-0.001167,0.005516,0.000407,0.005541,-0.001192,86.529570,0.005833,
1520,820,-1.353178,-9.535360,0.999995,0.000260,-0.005500,0.009713,-0.000125,0.009714,-0.005501,-89.530433,0.009742,
1010,440,0.472368,-12.758994,0.999997,0.000212,-0.002737,0.006380,-0.000630,0.006423,-0.002780,-86.066472,0.006442,
1350,30,-0.008390,-15.072201,0.999999,0.000000,-0.000069,0.004522,-0.000270,0.004538,-0.000085,-86.640524,0.005191,
1560,1420,-1.072801,-4.070423,0.999997,0.000192,-0.004528,0.008115,-0.000686,0.008153,-0.004565,-86.901093,0.008172,
1820,1450,-2.107330,-4.475309,0.999998,0.000177,-0.003855,0.007681,0.000075,0.007681,-0.003856,89.626165,0.007681,
1740,1780,-1.044272,-1.761366,0.999998,0.000193,-0.003359,0.007506,0.000373,0.007519,-0.003372,88.033810,0.007533,
880,640,1.187777,-10.935775,0.999997,0.000217,-0.004571,0.008230,-0.000509,0.008250,-0.004591,-87.726944,0.008268,
750,1550,1.467676,-3.445977,0.999996,0.000240,-0.003902,0.007722,0.000206,0.007726,-0.003906,88.984084,0.007726,
1200,560,0.060470,-12.391114,0.999998,0.000165,-0.001891,0.004853,-0.000360,0.004872,-0.001910,-86.954270,0.004910,
980,1090,1.841357,-6.916576,0.999997,0.000222,-0.003673,0.010210,-0.000552,0.010232,-0.003695,-87.725756,0.010363,
1360,240,-0.146031,-14.030946,0.999998,0.000155,-0.001210,0.005333,-0.000116,0.005335,-0.001212,-88.983530,0.005593,
920,1080,2.065494,-7.102668,0.999997,0.000218,-0.003042,0.008747,-0.000759,0.008796,-0.003091,-86.332234,0.008925,
740,680,1.905717,-10.264699,0.999996,0.000255,-0.004240,0.008019,0.000290,0.008026,-0.004247,88.647856,0.008030,
1420,1510,-0.439806,-2.960364,0.999996,0.000218,-0.003144,0.006403,-0.001212,0.006555,-0.003295,-82.879233,0.006555,
1670,560,-1.406726,-11.347548,0.999995,0.000265,-0.004097,0.007872,0.000220,0.007876,-0.004101,88.945580,0.007879,
1320,250,-0.101150,-13.999379,0.999998,0.000167,-0.001245,0.005199,-0.000014,0.005199,-0.001245,-89.874800,0.005429,
970,60,0.055110,-14.924566,0.999998,0.000164,-0.000402,0.004914,0.000635,0.004989,-0.000476,83.276655,0.005506,
1390,1340,-0.404838,-3.953161,0.999996,0.000222,-0.004179,0.006768,-0.002530,0.007324,-0.004736,-77.594093,0.007428,
1240,450,-0.015344,-12.963142,0.999998,0.000187,-0.001836,0.005241,0.000116,0.005243,-0.001838,89.059893,0.005320,
1690,1700,-1.077943,-2.258604,0.999997,0.000197,-0.003308,0.007365,0.000072,0.007366,-0.003308,89.613850,0.007378,
1790,130,-0.648935,-14.338350,0.999997,0.000238,-0.002632,0.007510,-0.001875,0.007846,-0.002968,-79.853393,0.007923,
760,1310,1.997889,-5.345891,0.999998,0.000163,-0.004278,0.008144,-0.000562,0.008169,-0.004304,-87.413282,0.008173,
1470,460,-0.538187,-12.587856,0.999997,0.000225,-0.002968,0.006624,0.000703,0.006675,-0.003019,85.832611,0.006685,
1380,1990,-0.031073,-0.210117,0.999999,0.000130,-0.000166,0.004712,0.000334,0.004735,-0.000189,86.106293,0.005362,
670,1160,2.740282,-6.620809,0.999997,0.000195,-0.003491,0.007214,-0.000521,0.007239,-0.003516,-87.218359,0.007240,
1770,1920,-0.616349,-0.782341,0.999998,0.000193,-0.002813,0.007216,0.001586,0.007461,-0.003058,81.223822,0.007501,
1450,910,-1.413020,-8.954115,0.999993,0.000307,-0.005117,0.010811,0.000394,0.010821,-0.005127,88.583127,0.010826,
840,300,0.751433,-13.384366,0.999997,0.000215,-0.002724,0.006898,0.000288,0.006907,-0.002733,88.287954,0.006957,
1880,200,-1.279539,-13.541399,0.999997,0.000207,-0.003663,0.007406,-0.000300,0.007414,-0.003671,-88.447556,0.007415,
1100,280,0.173870,-13.815276,0.999998,0.000172,-0.001395,0.005460,0.000046,0.005460,-0.001395,89.618807,0.005674,
960,1540,0.690968,-2.987136,0.999997,0.000197,-0.003555,0.007070,0.000842,0.007136,-0.003621,85.499503,0.007137,
1180,1680,0.086267,-1.776232,0.999998,0.000163,-0.001621,0.005350,0.000103,0.005352,-0.001623,89.150599,0.005488,
1690,770,-2.013033,-9.592575,0.999997,0.000188,-0.004298,0.008243,-0.000651,0.008277,-0.004332,-87.034912,0.008280,
1630,1470,-1.289139,-3.868243,0.999996,0.000219,-0.004246,0.007968,-0.000332,0.007977,-0.004255,-88.442726,0.007983,
1250,1770,-0.025576,-1.286645,0.999998,0.000144,-0.001316,0.005236,-0.000057,0.005236,-0.001317,-89.498067,0.005448,
810,920,2.298855,-8.397697,0.999997,0.000226,-0.003582,0.008066,0.000938,0.008141,-0.003657,85.424408,0.008155,
1060,770,0.534167,-10.676310,0.999996,0.000251,-0.005145,0.007909,-0.002673,0.008435,-0.005672,-78.865620,0.008600,
880,620,1.150785,-11.101991,0.999997,0.000181,-0.004404,0.008045,-0.000551,0.008070,-0.004428,-87.472248,0.008082,
1560,1400,-1.109998,-4.234007,0.999998,0.000183,-0.004671,0.008295,-0.000609,0.008324,-0.004699,-87.315545,0.008347,
1080,1200,0.729185,-4.965710,0.999995,0.000268,-0.005101,0.007957,0.003017,0.008620,-0.005764,77.597173,0.008782,
920,1060,2.108438,-7.281294,0.999997,0.000211,-0.002817,0.008731,-0.000514,0.008754,-0.002840,-87.454087,0.008932,
1270,1460,-0.070463,-2.899589,0.999998,0.000166,-0.001909,0.004638,-0.000496,0.004675,-0.001947,-85.688195,0.004697,
1680,510,-1.347284,-11.716387,0.999997,0.000180,-0.003889,0.007723,0.000261,0.007729,-0.003895,88.712061,0.007729,
1010,420,0.455351,-12.886053,0.999997,0.000211,-0.002555,0.006293,-0.000480,0.006319,-0.002581,-86.905030,0.006354,
670,610,2.014337,-10.667652,0.999998,0.000207,-0.003906,0.007728,0.000089,0.007729,-0.003907,89.563271,0.007729,
1010,250,0.288966,-13.912064,0.999998,0.000166,-0.001540,0.005753,0.000230,0.005760,-0.001547,88.195357,0.005962,
1640,410,-1.015980,-12.566141,0.999998,0.000155,-0.003457,0.007361,0.000213,0.007365,-0.003461,88.874109,0.007370,
1810,1960,-0.498598,-0.533300,0.999996,0.000216,-0.002078,0.007566,0.002436,0.008146,-0.002659,76.600198,0.008308,
1340,2020,-0.008243,-0.068584,0.999998,0.000000,-0.000194,0.004573,0.000176,0.004580,-0.000201,87.885147,0.005176,
1200,1380,0.049948,-3.227736,0.999998,0.000177,-0.001724,0.003770,0.000768,0.003875,-0.001829,82.192047,0.003877,
690,120,0.552457,-14.439906,0.999994,0.000269,-0.002628,0.007318,0.001826,0.007643,-0.002953,79.918661,0.007708,
1300,1920,-0.037994,-0.536006,0.999998,0.000142,-0.000479,0.004810,0.000140,0.004814,-0.000483,88.483296,0.005302,
1030,1920,0.123403,-0.566033,0.999998,0.000162,-0.000793,0.005135,-0.000396,0.005161,-0.000819,-86.196901,0.005548,
650,1730,1.442863,-2.315101,0.999996,0.000253,-0.003696,0.007553,-0.000026,0.007553,-0.003696,-89.866333,0.007554,
1580,1070,-2.196528,-7.213009,0.999997,0.000232,-0.002977,0.008227,0.000598,0.008259,-0.003009,86.952787,0.008360,
1400,1900,-0.115834,-0.656876,0.999998,0.000148,-0.000853,0.005132,0.000309,0.005148,-0.000868,87.052954,0.005512,
1490,1700,-0.486337,-1.885897,0.999997,0.000189,-0.002572,0.006305,-0.000264,0.006313,-0.002580,-88.295047,0.006348,
740,1310,2.081597,-5.379081,0.999997,0.000229,-0.004180,0.008023,-0.000586,0.008051,-0.004208,-87.256700,0.008054,
990,1860,0.241396,-0.904911,0.999998,0.000180,-0.001230,0.005615,-0.000435,0.005642,-0.001257,-86.377094,0.005924,
1440,1710,-0.365054,-1.755798,0.999997,0.000203,-0.002104,0.005966,-0.000215,0.005971,-0.002110,-88.473081,0.006056,
1650,560,-1.324106,-11.399306,0.999997,0.000214,-0.004105,0.007886,0.000316,0.007894,-0.004114,88.489253,0.007897,
1730,490,-1.503309,-11.747687,0.999996,0.000231,-0.003871,0.007684,0.000195,0.007687,-0.003874,89.034325,0.007687,
1050,1600,0.379473,-2.382491,0.999997,0.000202,-0.002510,0.006099,0.000653,0.006148,-0.002559,85.687212,0.006176,
1450,890,-1.292860,-9.171409,0.999994,0.000294,-0.005451,0.010571,0.000504,0.010587,-0.005467,88.199472,0.010589,
590,1680,1.787829,-2.851357,0.999997,0.000229,-0.003738,0.007385,0.000083,0.007386,-0.003738,89.573488,0.007386,
1830,770,-2.571623,-9.370934,0.999997,0.000204,-0.003724,0.007434,-0.000439,0.007451,-0.003741,-87.751985,0.007451,
1230,40,0.000805,-15.027222,0.999999,0.000145,-0.000210,0.004452,0.000014,0.004452,-0.000210,89.827651,0.005024,
910,240,0.450823,-13.881972,0.999997,0.000200,-0.001864,0.006280,0.000513,0.006312,-0.001897,86.411560,0.006478,
790,220,0.680895,-13.871340,0.999997,0.000206,-0.002816,0.006878,0.000736,0.006933,-0.002872,85.685589,0.006967,
1740,1760,-1.096791,-1.913091,0.999998,0.000193,-0.003442,0.007485,0.000275,0.007492,-0.003449,88.558828,0.007500,
1540,1250,-1.405926,-5.510375,0.999996,0.000233,-0.005370,0.009478,0.000193,0.009480,-0.005372,89.253604,0.009508,
1630,1430,-1.367896,-4.189281,0.999996,0.000232,-0.004418,0.008123,-0.000272,0.008129,-0.004424,-88.756349,0.008139,
1740,1930,-0.484643,-0.662578,0.999996,0.000234,-0.002322,0.006923,0.001690,0.007222,-0.002621,79.957584,0.007312,
1300,710,-0.116855,-11.662054,0.999997,0.000204,-0.002193,0.004045,0.001923,0.004591,-0.002738,74.169695,0.004619,
880,600,1.115650,-11.260183,0.999997,0.000200,-0.004281,0.007927,-0.000582,0.007955,-0.004309,-87.278139,0.007964,
820,1560,1.177548,-3.196973,0.999997,0.000207,-0.003832,0.007631,0.000342,0.007641,-0.003843,88.295042,0.007641,
1060,750,0.499391,-10.832629,0.999995,0.000247,-0.004879,0.007537,-0.002632,0.008072,-0.005413,-78.514116,0.008227,
620,470,1.890414,-11.627066,0.999997,0.000226,-0.003766,0.007606,-0.000124,0.007608,-0.003767,-89.376239,0.007608,
1250,1460,-0.034041,-2.885807,0.999999,0.000138,-0.001815,0.004555,-0.000353,0.004575,-0.001835,-86.838549,0.004604,
670,590,1.967252,-10.823257,0.999998,0.000188,-0.003885,0.007742,0.000048,0.007742,-0.003885,89.765668,0.007742,
590,340,1.699369,-12.528755,0.999997,0.000175,-0.003761,0.007405,-0.000103,0.007405,-0.003762,-89.473713,0.007406,
750,1530,1.508716,-3.603760,0.999996,0.000238,-0.003937,0.007778,0.000172,0.007780,-0.003940,89.158596,0.007780,
1520,840,-1.433783,-9.341642,0.999995,0.000269,-0.005382,0.009772,-0.000360,0.009781,-0.005390,-88.639959,0.009798,
1080,1180,0.840973,-5.121111,0.999994,0.000276,-0.004453,0.007698,0.003257,0.008516,-0.005271,75.902896,0.008596,
1310,380,-0.130599,-13.303442,0.999998,0.000139,-0.001757,0.005463,0.000206,0.005468,-0.001763,88.364603,0.005582,
1200,1400,0.052937,-3.151988,0.999998,0.000172,-0.001760,0.004025,0.000667,0.004101,-0.001836,83.511924,0.004109,
920,1040,2.127496,-7.455471,0.999997,0.000195,-0.002658,0.008580,-0.000228,0.008585,-0.002663,-88.835761,0.008788,
1100,260,0.162755,-13.921707,0.999998,0.000161,-0.001291,0.005365,0.000046,0.005365,-0.001291,89.602774,0.005600,
960,1520,0.711586,-3.129801,0.999998,0.000184,-0.003645,0.007152,0.000918,0.007230,-0.003722,85.173414,0.007231,
1010,690,0.659883,-11.018141,0.999996,0.000238,-0.004686,0.007838,-0.001744,0.008076,-0.004924,-82.218264,0.008141,
1730,1000,-2.667385,-7.762823,0.999998,0.000176,-0.003196,0.007315,-0.000271,0.007322,-0.003203,-88.522681,0.007341,
1020,1370,0.608053,-4.014832,0.999995,0.000274,-0.004529,0.007594,0.001836,0.007866,-0.004801,81.575316,0.007929,
1690,750,-1.956087,-9.753946,0.999997,0.000188,-0.004339,0.008248,-0.000560,0.008273,-0.004364,-87.457833,0.008278,
1790,1960,-0.462429,-0.516151,0.999995,0.000239,-0.001857,0.007132,0.002370,0.007719,-0.002444,76.097948,0.007890,
1560,1070,-2.137899,-7.203820,0.999996,0.000237,-0.002898,0.008502,0.000635,0.008537,-0.002933,86.820528,0.008676,
610,1430,2.282180,-4.703872,0.999997,0.000224,-0.003803,0.007668,-0.000095,0.007669,-0.003804,-89.527038,0.007669,
950,600,0.819205,-11.479117,0.999996,0.000249,-0.004197,0.007656,-0.001040,0.007747,-0.004288,-85.023426,0.007761,
1400,1880,-0.133706,-0.759278,0.999998,0.000145,-0.001001,0.005189,0.000246,0.005199,-0.001011,87.726563,0.005513,
720,1750,1.136318,-1.993840,0.999997,0.000240,-0.003498,0.007461,-0.000195,0.007464,-0.003501,-88.981411,0.007469,
1560,1380,-1.151128,-4.404905,0.999998,0.000180,-0.004807,0.008483,-0.000560,0.008507,-0.004830,-87.592682,0.008533,
620,1730,1.553089,-2.394428,0.999997,0.000232,-0.003601,0.007496,0.000064,0.007496,-0.003602,89.669267,0.007498,
720,1310,2.164139,-5.413621,0.999996,0.000256,-0.004098,0.007949,-0.000561,0.007975,-0.004124,-87.340002,0.007976,
1300,1900,-0.043570,-0.634413,0.999998,0.000163,-0.000566,0.004923,0.000144,0.004927,-0.000570,88.493532,0.005390,
1240,130,-0.004749,-14.612885,0.999998,0.000133,-0.000574,0.004769,0.000001,0.004769,-0.000574,89.985639,0.005207,
850,1180,2.012414,-6.310250,0.999996,0.000236,-0.004141,0.008654,-0.001064,0.008742,-0.004229,-85.277122,0.008744,
1250,1750,-0.025926,-1.392946,0.999998,0.000154,-0.001425,0.005264,-0.000093,0.005265,-0.001426,-89.201251,0.005446,
1450,870,-1.182663,-9.387913,0.999995,0.000256,-0.005739,0.010452,0.000731,0.010485,-0.005772,87.421717,0.010502,
1560,710,-1.230018,-10.412787,0.999996,0.000247,-0.005068,0.008776,0.000420,0.008789,-0.005080,88.261872,0.008824,
1740,1740,-1.152270,-2.062539,0.999998,0.000189,-0.003508,0.007483,0.000137,0.007485,-0.003510,89.287096,0.007490,
1470,1920,-0.152666,-0.578358,0.999998,0.000157,-0.000730,0.005273,0.000550,0.005323,-0.000780,84.804769,0.005749,
1180,1660,0.087431,-1.882799,0.999998,0.000164,-0.001662,0.005359,0.000120,0.005361,-0.001664,89.018212,0.005488,
1830,750,-2.517192,-9.516823,0.999997,0.000208,-0.003733,0.007421,-0.000435,0.007438,-0.003750,-87.770285,0.007438,
650,1930,0.677488,-0.767135,0.999996,0.000240,-0.002817,0.007841,-0.001784,0.008132,-0.003107,-80.744280,0.008207,
1340,1170,-0.818430,-4.509357,0.999996,0.000000,-0.001724,0.003918,-0.003161,0.005334,-0.003140,-65.871708,0.005362,
1850,820,-2.769225,-8.970299,0.999997,0.000179,-0.003510,0.007030,-0.000390,0.007044,-0.003525,-87.884701,0.007044,
1620,780,-1.727710,-9.630728,0.999996,0.000241,-0.004760,0.008803,-0.000555,0.008826,-0.004783,-87.661458,0.008836,
950,2000,0.056474,-0.173617,0.999998,0.000167,-0.000371,0.004934,-0.000700,0.005025,-0.000462,-82.610756,0.005555,
1040,770,0.639152,-10.535235,0.999995,0.000256,-0.005400,0.008449,-0.002260,0.008809,-0.005759,-80.961180,0.008946,
880,580,1.081982,-11.418648,0.999997,0.000207,-0.004167,0.007875,-0.000612,0.007906,-0.004198,-87.096529,0.007911,
580,1680,1.825516,-2.877889,0.999998,0.000202,-0.003924,0.007325,0.000112,0.007326,-0.003925,89.430701,0.007333,
1520,1250,-1.296828,-5.437515,0.999994,0.000282,-0.005563,0.009629,-0.000058,0.009629,-0.005563,-89.780876,0.009668,
1220,40,0.001854,-15.026829,0.999999,0.000118,-0.000207,0.004473,0.000035,0.004473,-0.000207,89.571562,0.005049,
1760,1450,-1.872319,-4.339215,0.999997,0.000202,-0.004009,0.007803,0.000053,0.007803,-0.004009,89.741657,0.007804,
590,290,1.566639,-12.900945,0.999998,0.000202,-0.003835,0.007284,0.000010,0.007284,-0.003835,89.948583,0.007288,
670,570,1.921999,-10.977855,0.999997,0.000192,-0.003864,0.007689,-0.000008,0.007689,-0.003864,-89.958991,0.007689,
920,1020,2.132889,-7.623942,0.999997,0.000200,-0.002626,0.008523,0.000149,0.008525,-0.002628,89.236706,0.008731,
1630,560,-1.241905,-11.451074,0.999997,0.000190,-0.004102,0.007870,0.000382,0.007882,-0.004115,88.174854,0.007885,
1080,1380,0.359011,-3.655754,0.999997,0.000208,-0.003574,0.006349,0.002201,0.006816,-0.004040,78.039141,0.006855,
750,1500,1.570281,-3.837088,0.999996,0.000248,-0.004022,0.007800,0.000137,0.007801,-0.004024,89.337406,0.007802,
1880,1060,-3.144624,-7.351294,0.999998,0.000167,-0.003071,0.006262,0.000144,0.006265,-0.003073,89.114838,0.006265,
1630,140,-0.350321,-14.440812,0.999997,0.000226,-0.001311,0.006124,-0.001194,0.006311,-0.001498,-81.100165,0.006595,
1290,1220,-0.242969,-3.801519,0.999992,0.000354,-0.003569,0.002534,-0.001219,0.002768,-0.003803,-79.108855,0.003933,
1470,320,-0.399342,-13.480677,0.999997,0.000201,-0.002011,0.006174,0.000005,0.006174,-0.002011,89.961742,0.006298,
1290,380,-0.097717,-13.315840,0.999998,0.000141,-0.001641,0.005396,0.000104,0.005397,-0.001642,89.154385,0.005533,
610,1410,2.331477,-4.858430,0.999996,0.000225,-0.003817,0.007569,-0.000141,0.007570,-0.003818,-89.288165,0.007571,
960,1500,0.730808,-3.274794,0.999997,0.000182,-0.003743,0.007261,0.000974,0.007346,-0.003829,84.980974,0.007349,
830,640,1.414290,-10.799382,0.999995,0.000240,-0.004508,0.008215,-0.000159,0.008217,-0.004510,-89.282480,0.008231,
1010,670,0.638019,-11.173542,0.999996,0.000237,-0.004430,0.007605,-0.001696,0.007839,-0.004664,-82.131934,0.007886,
1450,850,-1.078081,-9.597181,0.999996,0.000235,-0.005892,0.010239,0.001072,0.010310,-0.005963,86.213960,0.010352,
1450,1920,-0.137844,-0.570272,0.999998,0.000133,-0.000764,0.005202,0.000469,0.005239,-0.000801,85.531641,0.005644,
1100,1210,0.574871,-4.633141,0.999995,0.000267,-0.004523,0.006764,0.003447,0.007734,-0.005492,74.291027,0.007958,
700,1750,1.209621,-2.043020,0.999997,0.000208,-0.003663,0.007506,-0.000156,0.007509,-0.003665,-89.197451,0.007509,
620,1710,1.602171,-2.544974,0.999997,0.000216,-0.003617,0.007527,0.000057,0.007527,-0.003617,89.706507,0.007529,
1560,1360,-1.193039,-4.576436,0.999997,0.000203,-0.004923,0.008616,-0.000491,0.008633,-0.004941,-87.927141,0.008663,
1180,1640,0.090954,-1.990789,0.999998,0.000157,-0.001736,0.005323,0.000152,0.005327,-0.001739,88.766843,0.005433,
1200,1420,0.054778,-3.070384,0.999998,0.000147,-0.001800,0.004233,0.000574,0.004287,-0.001854,84.616998,0.004300,
1300,1880,-0.052608,-0.732675,0.999998,0.000177,-0.000684,0.004974,0.000127,0.004977,-0.000687,88.716280,0.005394,
1830,730,-2.464445,-9.667659,0.999997,0.000197,-0.003765,0.007534,-0.000361,0.007546,-0.003777,-88.173699,0.007546,
1620,760,-1.664469,-9.809332,0.999996,0.000252,-0.004810,0.008739,-0.000407,0.008751,-0.004822,-88.279735,0.008766,
1340,1160,-0.904958,-4.551606,0.999996,0.000000,-0.001246,0.003922,-0.003702,0.005853,-0.003177,-62.454051,0.005860,
1740,1720,-1.200712,-2.214091,0.999998,0.000189,-0.003561,0.007508,0.000043,0.007508,-0.003561,89.777542,0.007511,
660,1240,2.590715,-6.043962,0.999996,0.000224,-0.003693,0.007393,-0.000601,0.007425,-0.003725,-86.908101,0.007425,
1790,660,-2.126127,-10.284767,0.999995,0.000249,-0.003939,0.007781,-0.000251,0.007786,-0.003944,-88.773452,0.007787,
1280,710,-0.078120,-11.727067,0.999998,0.000166,-0.001882,0.003541,0.001478,0.003918,-0.002259,75.698747,0.003933,
1740,1450,-1.791162,-4.294961,0.999998,0.000171,-0.004052,0.007873,0.000043,0.007874,-0.004053,89.792703,0.007875,
580,280,1.571855,-12.943421,0.999997,0.000220,-0.004721,0.007487,0.000055,0.007488,-0.004721,89.742674,0.007572,
1730,910,-2.550923,-8.428409,0.999997,0.000217,-0.003554,0.007591,-0.000707,0.007636,-0.003598,-86.386492,0.007640,
1500,1250,-1.182533,-5.356318,0.999997,0.000216,-0.005718,0.009695,-0.000414,0.009706,-0.005730,-88.462386,0.009758,
920,1000,2.115052,-7.795005,0.999998,0.000196,-0.002737,0.008673,0.000457,0.008691,-0.002755,87.707544,0.008883,
880,560,1.049901,-11.578270,0.999997,0.000193,-0.004041,0.007738,-0.000595,0.007768,-0.004071,-87.117633,0.007771,
580,1800,1.492349,-1.991744,0.999997,0.000197,-0.005144,0.006882,0.000127,0.006883,-0.005145,89.394904,0.007159,
1620,1810,-0.616082,-1.351442,0.999997,0.000208,-0.002334,0.006748,0.000613,0.006789,-0.002375,86.152933,0.006890,
1640,1570,-1.147164,-3.111951,0.999998,0.000160,-0.003763,0.007558,-0.000315,0.007567,-0.003772,-88.406089,0.007567,
940,770,1.195634,-10.003224,0.999996,0.000223,-0.005499,0.009274,-0.000442,0.009288,-0.005513,-88.287810,0.009342,
670,550,1.876639,-11.130826,0.999997,0.000182,-0.003870,0.007687,-0.000052,0.007687,-0.003870,-89.743968,0.007687,
990,1540,0.589215,-2.905457,0.999997,0.000218,-0.003206,0.006771,0.000891,0.006850,-0.003285,84.937139,0.006852,
1090,710,0.333172,-11.297338,0.999996,0.000244,-0.003762,0.006284,-0.002541,0.006891,-0.004368,-76.582146,0.006973,
1880,1050,-3.149883,-7.416789,0.999999,0.000147,-0.003069,0.006365,0.000179,0.006369,-0.003072,88.912013,0.006370,
600,1730,1.622649,-2.450340,0.999998,0.000193,-0.003673,0.007467,0.000099,0.007468,-0.003674,89.492511,0.007468,
1450,830,-0.990533,-9.798611,0.999995,0.000256,-0.005896,0.009812,0.001280,0.009915,-0.006000,85.370871,0.009988,
1170,380,0.102518,-13.313527,0.999998,0.000166,-0.001652,0.005392,-0.000109,0.005394,-0.001654,-89.113139,0.005527,
1560,1340,-1.241236,-4.752089,0.999996,0.000225,-0.005051,0.008803,-0.000384,0.008814,-0.005062,-88.413862,0.008846,
1750,1720,-1.236996,-2.238884,0.999997,0.000201,-0.003603,0.007524,0.000020,0.007524,-0.003603,89.895245,0.007526,
1010,650,0.617455,-11.322913,0.999996,0.000252,-0.004177,0.007434,-0.001634,0.007660,-0.004403,-82.138807,0.007689,
1470,1320,-0.817452,-4.560348,0.999995,0.000280,-0.005302,0.008682,-0.001492,0.008839,-0.005459,-83.978073,0.008920,
960,1480,0.749665,-3.419249,0.999997,0.000192,-0.003874,0.007408,0.001044,0.007504,-0.003969,84.756311,0.007508,
1380,1270,-0.445944,-4.377365,0.999995,0.000250,-0.004893,0.007253,-0.003101,0.007999,-0.005638,-76.475415,0.008220,
840,280,0.704522,-13.525867,0.999997,0.000211,-0.002592,0.006922,0.000432,0.006942,-0.002612,87.405605,0.007013,
740,660,1.854326,-10.423863,0.999996,0.000235,-0.004198,0.008028,0.000221,0.008032,-0.004202,88.963758,0.008035,
1300,1860,-0.057883,-0.832815,0.999999,0.000144,-0.000791,0.005029,0.000116,0.005031,-0.000793,88.854292,0.005410,
1020,690,0.614553,-11.064880,0.999995,0.000245,-0.004594,0.007680,-0.001866,0.007957,-0.004871,-81.545784,0.008023,
1620,740,-1.605164,-9.982289,0.999996,0.000236,-0.004824,0.008641,-0.000285,0.008647,-0.004830,-88.789912,0.008667,
1200,1440,0.056410,-2.984349,0.999998,0.000151,-0.001844,0.004373,0.000499,0.004412,-0.001883,85.442918,0.004428,
1250,1920,-0.009970,-0.532714,0.999999,0.000129,-0.000579,0.004783,0.000012,0.004783,-0.000579,89.875728,0.005221,
820,1540,1.212772,-3.352621,0.999997,0.000183,-0.003919,0.007713,0.000355,0.007723,-0.003930,88.255584,0.007724,
1340,900,-0.928875,-10.549036,0.999924,0.000000,-0.001513,0.003518,0.004536,0.006189,-0.004184,59.505910,0.006316,
640,1080,2.951115,-7.199785,0.999998,0.000180,-0.003215,0.006764,-0.000136,0.006766,-0.003217,-89.219248,0.006769,
1180,1620,0.093162,-2.096566,0.999998,0.000160,-0.001801,0.005302,0.000167,0.005306,-0.001805,88.652166,0.005395,
1740,1700,-1.251169,-2.364785,0.999997,0.000215,-0.003628,0.007530,0.000034,0.007530,-0.003628,89.825015,0.007531,
1480,130,-0.152112,-14.567192,0.999998,0.000165,-0.000859,0.005278,-0.000565,0.005329,-0.000910,-84.786009,0.005701,
1280,1450,-0.089119,-2.956288,0.999997,0.000207,-0.001986,0.004638,-0.000749,0.004722,-0.002070,-83.629619,0.004734,
1520,860,-1.521642,-9.141754,0.999995,0.000282,-0.005183,0.009779,-0.000572,0.009800,-0.005204,-87.812924,0.009807,
1750,740,-2.179546,-9.734967,0.999997,0.000212,-0.004070,0.007912,-0.000554,0.007937,-0.004096,-87.360351,0.007938,
880,540,1.019488,-11.732516,0.999998,0.000192,-0.003897,0.007663,-0.000565,0.007691,-0.003925,-87.206416,0.007692,
1730,930,-2.584639,-8.281331,0.999997,0.000205,-0.003421,0.007421,-0.000612,0.007455,-0.003455,-86.777542,0.007462,
1710,1000,-2.603802,-7.765205,0.999997,0.000216,-0.003170,0.007398,-0.000252,0.007404,-0.003176,-88.632742,0.007429,
600,430,1.878189,-11.881939,0.999998,0.000174,-0.003710,0.007512,-0.000097,0.007513,-0.003710,-89.504552,0.007513,
1400,1860,-0.151173,-0.865384,0.999998,0.000154,-0.001113,0.005290,0.000246,0.005299,-0.001122,87.807049,0.005585,
590,220,1.332520,-13.417811,0.999997,0.000259,-0.003591,0.007475,0.000204,0.007479,-0.003595,88.944097,0.007481,
1000,1370,0.702584,-4.109024,0.999995,0.000280,-0.004732,0.007934,0.001631,0.008140,-0.004938,82.779599,0.008202,
920,980,2.078603,-7.973302,0.999997,0.000220,-0.002955,0.008758,0.000708,0.008800,-0.002997,86.553856,0.008948,
1640,2000,-0.104592,-0.187825,0.999998,0.000184,-0.000391,0.005399,0.001404,0.005722,-0.000714,77.060478,0.006236,
1880,1040,-3.155708,-7.480955,0.999999,0.000147,-0.003059,0.006443,0.000145,0.006446,-0.003061,89.123138,0.006448,
750,1510,1.548341,-3.757763,0.999997,0.000243,-0.003990,0.007790,0.000146,0.007792,-0.003992,89.289254,0.007793,
670,530,1.831506,-11.287020,0.999997,0.000206,-0.003866,0.007715,-0.000087,0.007716,-0.003866,-89.567656,0.007716,
1060,1940,0.080825,-0.456352,0.999998,0.000161,-0.000615,0.004974,-0.000364,0.004997,-0.000639,-86.288062,0.005439,
790,1280,1.955059,-5.544719,0.999997,0.000187,-0.004405,0.008369,-0.000671,0.008404,-0.004440,-87.002709,0.008408,
1450,810,-0.909584,-9.986412,0.999995,0.000252,-0.005842,0.009423,0.001412,0.009553,-0.005971,84.758602,0.009652,
1090,1540,0.298221,-2.661236,0.999998,0.000180,-0.002597,0.005871,0.001017,0.005991,-0.002717,83.245752,0.006000,
920,770,1.304264,-9.927200,0.999996,0.000204,-0.005361,0.009213,-0.000130,0.009215,-0.005362,-89.488663,0.009256,
1010,630,0.603484,-11.466658,0.999996,0.000232,-0.004023,0.007216,-0.001558,0.007427,-0.004235,-82.252612,0.007452,
1730,1700,-1.213652,-2.341698,0.999997,0.000191,-0.003590,0.007512,0.000063,0.007512,-0.003590,89.676244,0.007515,
1750,1700,-1.285998,-2.388877,0.999996,0.000244,-0.003632,0.007545,0.000017,0.007545,-0.003632,89.911420,0.007547,
1560,1320,-1.292279,-4.929305,0.999995,0.000269,-0.005162,0.008895,-0.000235,0.008899,-0.005166,-89.041104,0.008937,
1250,780,-0.034110,-11.618952,0.999998,0.000179,-0.001864,0.001857,0.000861,0.002047,-0.002053,77.579547,0.002367,
1200,1880,0.024444,-0.730591,0.999998,0.000154,-0.000753,0.004924,-0.000029,0.004924,-0.000753,-89.704195,0.005305,
630,2010,0.213255,-0.203539,0.999997,0.000208,-0.002846,0.006805,-0.002224,0.007293,-0.003334,-77.630957,0.007302,
1360,1270,-0.353922,-4.207995,0.999998,0.000189,-0.004399,0.006379,-0.003325,0.007323,-0.005343,-74.161986,0.007576,
1300,1840,-0.066004,-0.934784,0.999999,0.000139,-0.000912,0.005078,0.000082,0.005079,-0.000913,89.218307,0.005415,
1620,720,-1.549522,-10.156701,0.999996,0.000250,-0.004831,0.008587,-0.000145,0.008588,-0.004833,-89.379689,0.008611,
960,1460,0.772127,-3.569222,0.999997,0.000201,-0.004065,0.007533,0.001107,0.007638,-0.004169,84.597966,0.007648,
1520,880,-1.613776,-8.944194,0.999995,0.000257,-0.004914,0.009740,-0.000774,0.009781,-0.004955,-86.986545,0.009781,
1100,240,0.149757,-14.029147,0.999998,0.000163,-0.001225,0.005355,0.000110,0.005356,-0.001226,89.041545,0.005613,
1340,890,-0.865753,-10.592687,0.999996,0.000000,-0.001625,0.003737,0.003599,0.005544,-0.003432,63.341671,0.005596,
1740,1680,-1.296028,-2.517259,0.999997,0.000221,-0.003660,0.007581,-0.000027,0.007581,-0.003660,-89.864211,0.007583,
1320,1450,-0.174595,-3.036213,0.999998,0.000157,-0.002301,0.005071,-0.001163,0.005250,-0.002480,-81.247841,0.005253,
1810,400,-1.612818,-12.241072,0.999996,0.000249,-0.003738,0.007564,0.000081,0.007564,-0.003739,89.586993,0.007564,
970,1920,0.170554,-0.583498,0.999999,0.000137,-0.001042,0.005354,-0.000581,0.005406,-0.001095,-84.855474,0.005717,
1690,730,-1.898248,-9.922402,0.999997,0.000212,-0.004395,0.008243,-0.000477,0.008261,-0.004413,-87.843747,0.008267,
1180,1600,0.095985,-2.202416,0.999998,0.000151,-0.001837,0.005315,0.000213,0.005321,-0.001843,88.292358,0.005404,
1880,590,-2.300846,-10.622245,0.999996,0.000240,-0.003799,0.007657,-0.000009,0.007657,-0.003799,-89.953656,0.007657,
640,1040,2.978259,-7.474034,0.999997,0.000205,-0.003239,0.006884,-0.000181,0.006887,-0.003242,-88.973866,0.006891,
1760,350,-1.311247,-12.744163,0.999996,0.000217,-0.003611,0.007563,-0.000019,0.007563,-0.003611,-89.902467,0.007566,
920,960,2.029324,-8.146572,0.999997,0.000225,-0.003277,0.008861,0.000903,0.008928,-0.003343,85.770787,0.009022,
880,520,0.989925,-11.883341,0.999997,0.000212,-0.003795,0.007523,-0.000537,0.007549,-0.003821,-87.292212,0.007549,
1640,1550,-1.183386,-3.266879,0.999997,0.000194,-0.003866,0.007643,-0.000337,0.007653,-0.003876,-88.324392,0.007653,
1620,1790,-0.662992,-1.487823,0.999997,0.000211,-0.002507,0.006780,0.000485,0.006805,-0.002533,87.017370,0.006879,
670,510,1.788106,-11.440007,0.999997,0.000225,-0.003858,0.007689,-0.000111,0.007690,-0.003859,-89.449106,0.007690,
1260,850,-0.197108,-11.462324,0.999989,0.000369,-0.005764,0.002315,-0.000266,0.002323,-0.005773,-88.115351,0.005810,
1310,2010,-0.008881,-0.115644,0.999998,0.000158,-0.000069,0.004538,0.000174,0.004545,-0.000076,87.835862,0.005205,
1560,1300,-1.349502,-5.110871,0.999994,0.000264,-0.005243,0.009065,-0.000072,0.009066,-0.005244,-89.710999,0.009103,
1090,1740,0.212583,-1.507196,0.999998,0.000172,-0.001592,0.005611,0.000053,0.005611,-0.001593,89.581474,0.005783,
1450,790,-0.844786,-10.173594,0.999996,0.000242,-0.005730,0.009220,0.001589,0.009387,-0.005897,83.998986,0.009489,
1010,610,0.589237,-11.611912,0.999996,0.000238,-0.003883,0.007138,-0.001475,0.007332,-0.004077,-82.506855,0.007348,
1060,1900,0.118192,-0.658076,0.999998,0.000208,-0.000856,0.005165,-0.000310,0.005181,-0.000872,-87.060633,0.005548,
930,1540,0.796949,-3.065664,0.999997,0.000219,-0.003561,0.007219,0.000712,0.007265,-0.003608,86.238137,0.007265,
920,750,1.245068,-10.112435,0.999996,0.000236,-0.005295,0.009113,-0.000300,0.009119,-0.005301,-88.806475,0.009159,
1620,700,-1.497204,-10.326597,0.999995,0.000270,-0.004770,0.008555,-0.000028,0.008555,-0.004770,-89.879972,0.008574,
840,260,0.661939,-13.663099,0.999997,0.000215,-0.002435,0.006779,0.000550,0.006812,-0.002468,86.594117,0.006897,
1190,400,0.071622,-13.213193,0.999998,0.000178,-0.001709,0.005352,-0.000136,0.005354,-0.001711,-88.895028,0.005469,
590,430,1.915477,-11.858121,0.999998,0.000179,-0.003690,0.007495,-0.000066,0.007495,-0.003690,-89.664011,0.007496,
770,1280,2.040270,-5.574761,0.999997,0.000200,-0.004289,0.008257,-0.000699,0.008296,-0.004328,-86.822521,0.008299,
1730,950,-2.617045,-8.132088,0.999997,0.000192,-0.003362,0.007448,-0.000624,0.007484,-0.003398,-86.706631,0.007494,
1400,1840,-0.170945,-0.971188,0.999998,0.000154,-0.001229,0.005348,0.000200,0.005354,-0.001235,88.262159,0.005608,
1570,700,-1.253532,-10.469906,0.999997,0.000254,-0.004950,0.008660,0.000359,0.008669,-0.004959,88.491371,0.008699,
1360,1250,-0.398332,-4.335571,0.999992,0.000328,-0.004606,0.006518,-0.003394,0.007472,-0.005560,-74.304253,0.007763,
1580,170,-0.349570,-14.289260,0.999997,0.000217,-0.001764,0.006003,-0.000778,0.006080,-0.001841,-84.338866,0.006236,
630,2000,0.279664,-0.270534,0.999996,0.000246,-0.002952,0.007172,-0.002168,0.007616,-0.003396,-78.407001,0.007631,
1200,1860,0.028024,-0.828730,0.999999,0.000149,-0.000857,0.005005,-0.000054,0.005006,-0.000857,-89.471083,0.005354,
1630,1720,-0.838732,-1.989151,0.999998,0.000186,-0.002922,0.007087,0.000125,0.007089,-0.002923,89.282730,0.007125,
1780,1890,-0.786082,-1.024304,0.999996,0.000230,-0.003082,0.007551,0.001314,0.007711,-0.003242,83.058733,0.007743,
1180,1580,0.096290,-2.309467,0.999998,0.000150,-0.001893,0.005261,0.000255,0.005270,-0.001902,87.964063,0.005337,
1300,1450,-0.130932,-2.994206,0.999998,0.000171,-0.002156,0.004811,-0.001060,0.004969,-0.002314,-81.537763,0.004973,
1740,1660,-1.342284,-2.669728,0.999997,0.000225,-0.003701,0.007608,-0.000089,0.007609,-0.003702,-89.551119,0.007610,
1300,1820,-0.070373,-1.037745,0.999998,0.000153,-0.000995,0.005137,0.000077,0.005138,-0.000996,89.284477,0.005450,
1100,220,0.136170,-14.135254,0.999998,0.000163,-0.001093,0.005248,0.000124,0.005251,-0.001095,88.882894,0.005540,
1340,30,-0.007938,-15.069461,0.999999,0.000000,-0.000112,0.004485,-0.000245,0.004498,-0.000125,-86.956439,0.005123,
1250,1730,-0.028456,-1.498104,0.999998,0.000140,-0.001508,0.005289,-0.000106,0.005290,-0.001510,-89.110234,0.005450,
960,1440,0.796064,-3.725580,0.999997,0.000200,-0.004232,0.007668,0.001134,0.007775,-0.004339,84.605962,0.007792,
1860,1570,-1.988228,-3.647438,0.999998,0.000191,-0.003763,0.007605,-0.000077,0.007605,-0.003764,-89.609443,0.007606,
1250,850,-0.136602,-11.492840,0.999977,0.000556,-0.006375,0.002239,-0.000310,0.002250,-0.006387,-87.940738,0.006479,
1160,860,0.480903,-11.145929,0.999996,0.000251,-0.003740,0.002192,-0.000749,0.002285,-0.003834,-82.911815,0.003857,
1690,710,-1.844906,-10.087247,0.999998,0.000205,-0.004406,0.008203,-0.000375,0.008214,-0.004418,-88.297779,0.008222,
630,760,2.555459,-9.439778,0.999997,0.000197,-0.003702,0.007402,0.000413,0.007417,-0.003717,87.870882,0.007417,
570,1680,1.862365,-2.901978,0.999990,0.000425,-0.004028,0.007270,0.000150,0.007272,-0.004030,89.239340,0.007287,
880,500,0.959830,-12.032966,0.999997,0.000212,-0.003734,0.007432,-0.000547,0.007459,-0.003761,-87.199961,0.007459,
920,940,1.961929,-8.328392,0.999997,0.000229,-0.003625,0.009052,0.001062,0.009140,-0.003714,85.242458,0.009193,
1830,820,-2.700150,-9.000912,0.999997,0.000217,-0.003567,0.007171,-0.000488,0.007193,-0.003589,-87.401185,0.007193,
630,410,1.720578,-12.108167,0.999997,0.000212,-0.003731,0.007547,-0.000099,0.007548,-0.003732,-89.496023,0.007548,
710,480,1.569697,-11.770744,0.999997,0.000212,-0.003834,0.007662,-0.000159,0.007664,-0.003837,-89.209965,0.007664,
1490,1860,-0.263411,-0.916055,0.999997,0.000202,-0.001466,0.005713,0.000439,0.005740,-0.001493,86.510023,0.005956,
920,2010,0.049905,-0.127826,0.999999,0.000153,-0.000131,0.004984,-0.000819,0.005112,-0.000259,-81.122285,0.005759,
670,490,1.745179,-11.595941,0.999997,0.000219,-0.003826,0.007705,-0.000116,0.007706,-0.003827,-89.422965,0.007706,
1380,1710,-0.243846,-1.684264,0.999998,0.000166,-0.001723,0.005683,-0.000143,0.005686,-0.001725,-88.894250,0.005831,
910,1540,0.868630,-3.117806,0.999997,0.000234,-0.003706,0.007359,0.000675,0.007400,-0.003747,86.520238,0.007400,
1560,1500,-0.952297,-3.440494,0.999997,0.000200,-0.003955,0.007628,-0.000695,0.007669,-0.003996,-86.579218,0.007672,
1170,400,0.105414,-13.205887,0.999998,0.000165,-0.001725,0.005394,-0.000134,0.005396,-0.001727,-88.921737,0.005512,
1050,830,0.768090,-10.078010,0.999995,0.000255,-0.005788,0.009099,-0.002177,0.009410,-0.006100,-81.850240,0.009547,
1620,680,-1.445561,-10.500558,0.999994,0.000268,-0.004702,0.008456,0.000078,0.008457,-0.004702,89.659917,0.008474,
820,1030,2.411506,-7.541725,0.999995,0.000256,-0.002954,0.007746,-0.000048,0.007746,-0.002954,-89.743043,0.007818,
740,640,1.804590,-10.586617,0.999997,0.000202,-0.004173,0.007987,0.000138,0.007988,-0.004174,89.350608,0.007991,
1210,40,0.003502,-15.027870,0.999999,0.000126,-0.000137,0.004495,0.000012,0.004495,-0.000137,89.847311,0.005114,
750,1490,1.592410,-3.915885,0.999996,0.000249,-0.004045,0.007821,0.000121,0.007823,-0.004047,89.415981,0.007824,
1010,590,0.571976,-11.757966,0.999997,0.000224,-0.003718,0.006999,-0.001368,0.007170,-0.003889,-82.840487,0.007179,
710,300,1.159111,-13.139188,0.999997,0.000214,-0.003568,0.007516,0.000195,0.007519,-0.003572,88.994381,0.007522,
840,240,0.609878,-13.798512,0.999996,0.000235,-0.002298,0.006734,0.000668,0.006783,-0.002347,85.791334,0.006889,
820,1520,1.248510,-3.507506,0.999997,0.000202,-0.003963,0.007742,0.000342,0.007752,-0.003973,88.328045,0.007753,
710,660,1.977808,-10.362743,0.999997,0.000234,-0.004089,0.007918,0.000243,0.007923,-0.004094,88.843218,0.007925,
820,1410,1.470739,-4.388338,0.999994,0.000282,-0.004477,0.008242,0.000100,0.008243,-0.004478,89.549226,0.008253,
1610,210,-0.511108,-14.009475,0.999996,0.000222,-0.002110,0.006430,-0.000754,0.006496,-0.002176,-84.992715,0.006613,
910,1300,1.311952,-5.085967,0.999995,0.000262,-0.005288,0.009080,0.000149,0.009081,-0.005289,89.406195,0.009122,
730,520,1.575563,-11.509044,0.999997,0.000206,-0.003928,0.007761,-0.000149,0.007763,-0.003930,-89.270997,0.007763,
1740,1640,-1.384758,-2.822526,0.999998,0.000214,-0.003714,0.007597,-0.000117,0.007598,-0.003716,-89.408523,0.007599,
1470,840,-1.151792,-9.567458,0.999993,0.000325,-0.005850,0.010071,0.000622,0.010095,-0.005874,87.765486,0.010140,
1190,1460,0.077263,-2.903904,0.999998,0.000189,-0.001922,0.004658,0.000540,0.004702,-0.001966,85.338120,0.004723,
560,860,3.042841,-8.594669,0.999997,0.000000,-0.003251,0.006458,0.000079,0.006459,-0.003251,89.534007,0.006459,
1710,1340,-1.944372,-5.112666,0.999997,0.000258,-0.004283,0.008116,0.000426,0.008130,-0.004297,88.032953,0.008135,
1870,590,-2.262898,-10.645855,0.999997,0.000215,-0.003822,0.007650,-0.000021,0.007650,-0.003823,-89.896334,0.007650,
890,1280,1.478779,-5.331161,0.999994,0.000273,-0.005124,0.009071,-0.000220,0.009075,-0.005128,-89.110415,0.009100,
960,1420,0.820698,-3.880660,0.999997,0.000211,-0.004388,0.007760,0.001156,0.007869,-0.004497,84.610715,0.007896,
1610,1720,-0.782004,-1.956793,0.999998,0.000153,-0.002883,0.007046,0.000116,0.007047,-0.002885,89.331126,0.007086,
1300,1800,-0.080546,-1.140259,0.999998,0.000146,-0.001105,0.005186,0.000064,0.005186,-0.001106,89.417068,0.005463,
1790,110,-0.537462,-14.498818,0.999997,0.000232,-0.002283,0.007433,-0.002121,0.007876,-0.002726,-78.209626,0.007999,
880,480,0.930245,-12.182223,0.999997,0.000208,-0.003630,0.007369,-0.000508,0.007393,-0.003654,-87.363568,0.007393,
1200,1840,0.032582,-0.930223,0.999998,0.000159,-0.000946,0.005018,-0.000005,0.005018,-0.000946,-89.955912,0.005332,
1430,1920,-0.121018,-0.565175,0.999998,0.000161,-0.000824,0.005137,0.000394,0.005163,-0.000850,86.233389,0.005537,
1520,1320,-1.082986,-4.785323,0.999997,0.000207,-0.005277,0.008931,-0.000727,0.008968,-0.005314,-87.077383,0.009019,
920,920,1.891693,-8.508365,0.999996,0.000235,-0.004030,0.009203,0.001066,0.009288,-0.004116,85.425918,0.009308,
1180,1560,0.096328,-2.412404,0.999998,0.000157,-0.001931,0.005237,0.000309,0.005250,-0.001944,87.536556,0.005309,
630,390,1.675354,-12.258455,0.999996,0.000222,-0.003705,0.007560,-0.000088,0.007560,-0.003705,-89.553925,0.007561,
1330,2020,-0.005466,-0.069516,0.999998,0.000000,-0.000165,0.004591,0.000206,0.004599,-0.000174,87.522319,0.005214,
910,2010,0.050627,-0.127547,0.999999,0.000140,-0.000158,0.005033,-0.000877,0.005177,-0.000303,-80.665015,0.005811,
1710,1680,-1.187864,-2.448581,0.999997,0.000200,-0.003508,0.007458,0.000000,0.007458,-0.003508,-89.998571,0.007462,
1050,810,0.692730,-10.265294,0.999994,0.000288,-0.005777,0.008829,-0.002294,0.009181,-0.006129,-81.282355,0.009351,
1400,1820,-0.189359,-1.080142,0.999998,0.000163,-0.001334,0.005448,0.000136,0.005451,-0.001337,88.849514,0.005682,
1680,210,-0.671343,-13.928322,0.999996,0.000230,-0.002732,0.006902,-0.000859,0.006978,-0.002808,-84.944072,0.007022,
1580,1510,-1.014902,-3.417648,0.999997,0.000194,-0.003917,0.007622,-0.000606,0.007654,-0.003949,-86.999917,0.007655,
1580,1130,-2.045632,-6.705215,0.999998,0.000182,-0.003670,0.008645,0.001065,0.008737,-0.003761,85.093295,0.008765,
1580,190,-0.395397,-14.167098,0.999998,0.000195,-0.001951,0.006168,-0.000711,0.006230,-0.002013,-85.030731,0.006359,
670,470,1.701231,-11.749557,0.999997,0.000216,-0.003789,0.007626,-0.000118,0.007627,-0.003790,-89.406064,0.007627,
1620,660,-1.401514,-10.666352,0.999996,0.000249,-0.004627,0.008323,0.000174,0.008325,-0.004629,89.229536,0.008343,
820,1390,1.517483,-4.554927,0.999997,0.000253,-0.004553,0.008286,0.000025,0.008286,-0.004553,89.888572,0.008300,
620,450,1.847470,-11.780381,0.999997,0.000231,-0.003748,0.007594,-0.000130,0.007595,-0.003750,-89.342350,0.007596,
670,900,2.749821,-8.463291,0.999997,0.000208,-0.003460,0.007158,0.000519,0.007183,-0.003485,87.209530,0.007184,
1790,700,-2.231205,-9.975401,0.999998,0.000188,-0.003944,0.007683,-0.000380,0.007696,-0.003957,-88.129066,0.007697,
1100,200,0.121275,-14.240562,0.999998,0.000154,-0.000958,0.005249,0.000186,0.005254,-0.000964,88.288566,0.005594,
1730,970,-2.648932,-7.981148,0.999997,0.000183,-0.003287,0.007342,-0.000410,0.007358,-0.003303,-87.795684,0.007371,
610,1390,2.381052,-5.007814,0.999996,0.000222,-0.003801,0.007507,-0.000163,0.007509,-0.003803,-89.176774,0.007510,
1250,1710,-0.028369,-1.604445,0.999998,0.000160,-0.001579,0.005307,-0.000123,0.005309,-0.001581,-88.975228,0.005452,
1740,1620,-1.426276,-2.974552,0.999997,0.000209,-0.003738,0.007588,-0.000134,0.007590,-0.003739,-89.321404,0.007590,
1350,400,-0.215429,-13.152652,0.999998,0.000182,-0.001960,0.005554,0.000362,0.005571,-0.001978,87.245651,0.005649,
1360,220,-0.131659,-14.137130,0.999998,0.000154,-0.001086,0.005234,-0.000115,0.005236,-0.001088,-88.955012,0.005526,
1010,570,0.559554,-11.899095,0.999997,0.000223,-0.003503,0.006842,-0.001240,0.006989,-0.003650,-83.257833,0.006991,
1530,280,-0.477861,-13.654506,0.999996,0.000221,-0.002156,0.006361,-0.000233,0.006368,-0.002162,-88.432999,0.006476,
890,1300,1.417604,-5.149211,0.999995,0.000272,-0.005128,0.009008,-0.000052,0.009008,-0.005128,-89.789076,0.009037,
750,1470,1.635655,-4.072483,0.999996,0.000226,-0.004099,0.007892,0.000060,0.007893,-0.004099,89.711895,0.007895,
960,1990,0.069161,-0.221732,0.999998,0.000142,-0.000479,0.005011,-0.000693,0.005097,-0.000565,-82.916867,0.005588,
740,620,1.757332,-10.745378,0.999997,0.000216,-0.004152,0.007914,0.000058,0.007914,-0.004152,89.724528,0.007917,
1600,1600,-0.953434,-2.793104,0.999998,0.000187,-0.003532,0.007321,-0.000378,0.007334,-0.003545,-88.008395,0.007335,
860,1030,2.296082,-7.539784,0.999996,0.000241,-0.002840,0.008000,-0.000053,0.008000,-0.002840,-89.717246,0.008112,
1370,860,-0.688051,-10.285336,0.999993,0.000309,-0.004290,0.006837,0.003395,0.007791,-0.005244,74.304497,0.007945,
1530,500,-0.770291,-12.167703,0.999997,0.000176,-0.003508,0.007141,0.000691,0.007186,-0.003552,86.302562,0.007186,
880,900,1.976377,-8.626296,0.999998,0.000195,-0.004007,0.008805,0.001092,0.008898,-0.004099,85.163147,0.008907,
910,1600,0.793689,-2.687671,0.999997,0.000210,-0.003351,0.007121,0.000496,0.007144,-0.003374,87.295092,0.007148,
920,900,1.806690,-8.697502,0.999997,0.000192,-0.004396,0.009332,0.001046,0.009411,-0.004475,85.665644,0.009415,
1200,1820,0.034139,-1.030432,0.999999,0.000133,-0.001047,0.005092,-0.000011,0.005092,-0.001047,-89.900649,0.005378,
1570,830,-1.655213,-9.286905,0.999995,0.000239,-0.004969,0.009219,-0.000698,0.009253,-0.005003,-87.191354,0.009263,
1450,320,-0.360035,-13.504059,0.999997,0.000222,-0.001982,0.006064,0.000040,0.006064,-0.001982,89.715244,0.006184,
1580,1150,-1.983597,-6.530869,0.999997,0.000213,-0.003966,0.008793,0.001075,0.008883,-0.004056,85.217994,0.008894,
1330,1170,-0.799177,-4.357806,0.999993,0.000000,-0.001898,0.003039,-0.002662,0.004201,-0.003060,-66.421792,0.004344,
910,1880,0.320110,-0.842765,0.999997,0.000187,-0.001367,0.005865,-0.000762,0.005944,-0.001446,-84.050962,0.006200,
670,450,1.658667,-11.903253,0.999996,0.000216,-0.003755,0.007576,-0.000121,0.007577,-0.003757,-89.388397,0.007577,
1690,690,-1.789710,-10.250407,0.999997,0.000218,-0.004362,0.008203,-0.000287,0.008209,-0.004369,-88.691042,0.008215,
570,330,1.749369,-12.544194,0.999889,0.001263,-0.004241,0.007459,-0.000168,0.007461,-0.004243,-89.176905,0.007485,
900,2010,0.051821,-0.128011,0.999999,0.000147,-0.000262,0.005095,-0.000917,0.005247,-0.000415,-80.553364,0.005834,
620,430,1.805393,-11.932790,0.999998,0.000204,-0.003727,0.007547,-0.000118,0.007548,-0.003728,-89.400228,0.007548,
1450,770,-0.787173,-10.360400,0.999996,0.000245,-0.005572,0.008931,0.001693,0.009126,-0.005767,83.431308,0.009232,
840,220,0.561998,-13.931147,0.999997,0.000227,-0.002114,0.006555,0.000773,0.006623,-0.002182,84.942099,0.006751,
960,130,0.175050,-14.557442,0.999998,0.000172,-0.001043,0.005382,0.000598,0.005437,-0.001099,84.725026,0.005750,
1100,180,0.106044,-14.346153,0.999998,0.000156,-0.000819,0.005080,0.000182,0.005085,-0.000824,88.234933,0.005459,
1300,1780,-0.084387,-1.243809,0.999998,0.000171,-0.001182,0.005277,0.000057,0.005277,-0.001182,89.490577,0.005539,
1730,1410,-1.846859,-4.588580,0.999997,0.000194,-0.004161,0.007979,0.000146,0.007980,-0.004162,89.309483,0.007983,
1130,60,0.017894,-14.934812,0.999999,0.000157,-0.000229,0.004576,0.000201,0.004585,-0.000237,87.610940,0.005163,
1060,690,0.442141,-11.267061,0.999995,0.000250,-0.004089,0.006871,-0.002265,0.007321,-0.004539,-78.769967,0.007391,
1680,890,-2.317939,-8.621612,0.999997,0.000209,-0.003741,0.007964,-0.000942,0.008039,-0.003817,-85.428737,0.008042,
1490,1840,-0.294262,-1.029868,0.999998,0.000167,-0.001625,0.005752,0.000356,0.005769,-0.001642,87.246447,0.005945,
810,100,0.252908,-14.672207,0.999998,0.000179,-0.001206,0.005926,0.001409,0.006195,-0.001474,79.217748,0.006472,
1560,1130,-1.971808,-6.681617,0.999997,0.000202,-0.003782,0.008883,0.001063,0.008972,-0.003871,85.237274,0.009000,
800,1370,1.658072,-4.769411,0.999996,0.000227,-0.004514,0.008304,-0.000152,0.008306,-0.004516,-89.319968,0.008317,
1400,1800,-0.205612,-1.189352,0.999998,0.000169,-0.001457,0.005508,0.000072,0.005509,-0.001458,89.410016,0.005709,
1470,1060,-1.888069,-7.196822,0.999996,0.000226,-0.003570,0.011200,0.000113,0.011201,-0.003571,89.561348,0.011444,
1250,1690,-0.030640,-1.712238,0.999998,0.000159,-0.001641,0.005307,-0.000132,0.005310,-0.001643,-88.908592,0.005437,
1740,1600,-1.470900,-3.127844,0.999997,0.000225,-0.003771,0.007599,-0.000153,0.007601,-0.003774,-89.228999,0.007601,
630,370,1.627969,-12.413692,0.999996,0.000227,-0.003688,0.007558,-0.000056,0.007558,-0.003688,-89.716482,0.007559,
960,1400,0.847001,-4.035420,0.999997,0.000212,-0.004564,0.007974,0.001158,0.008080,-0.004670,84.767634,0.008113,
610,1370,2.432585,-5.158778,0.999996,0.000230,-0.003768,0.007567,-0.000190,0.007570,-0.003771,-89.038507,0.007570,
1370,920,-1.143183,-9.899000,0.999990,0.000000,-0.002180,0.008161,0.005646,0.010646,-0.004666,66.239858,0.010673,
1360,200,-0.121067,-14.239430,0.999998,0.000152,-0.000989,0.005213,-0.000164,0.005218,-0.000993,-88.485946,0.005541,
910,260,0.490502,-13.754262,0.999997,0.000202,-0.002014,0.006345,0.000393,0.006363,-0.002032,87.314714,0.006500,
1010,550,0.547797,-12.029825,0.999997,0.000214,-0.003337,0.006738,-0.001098,0.006856,-0.003455,-83.853580,0.006857,
920,880,1.725793,-8.882973,0.999996,0.000220,-0.004717,0.009401,0.000951,0.009465,-0.004781,86.163988,0.009465,
790,140,0.421974,-14.411275,0.999996,0.000237,-0.002040,0.006440,0.001260,0.006623,-0.002223,81.725160,0.006741,
1200,1800,0.038561,-1.133492,0.999998,0.000147,-0.001157,0.005153,0.000024,0.005153,-0.001158,89.785553,0.005407,
1340,550,-0.220898,-12.333035,0.999998,0.000163,-0.002333,0.005468,0.000960,0.005585,-0.002449,83.084245,0.005599,
1260,230,-0.029690,-14.115286,0.999998,0.000162,-0.001055,0.005089,0.000006,0.005089,-0.001055,89.941161,0.005371,
890,1600,0.860215,-2.730760,0.999998,0.000200,-0.003350,0.007211,0.000429,0.007228,-0.003367,87.679721,0.007234,
880,920,2.041312,-8.454912,0.999997,0.000198,-0.003745,0.008631,0.001089,0.008726,-0.003840,85.009513,0.008747,
1420,1270,-0.658802,-4.694028,0.999996,0.000238,-0.005564,0.008578,-0.002305,0.008944,-0.005931,-80.970989,0.009102,
1100,1990,0.027198,-0.208515,0.999998,0.000135,-0.000207,0.004680,-0.000290,0.004697,-0.000224,-86.616220,0.005299,
1510,1920,-0.191022,-0.592206,0.999998,0.000161,-0.001128,0.005428,0.000641,0.005490,-0.001190,84.470692,0.005776,
750,1450,1.678825,-4.233402,0.999996,0.000224,-0.004137,0.007940,0.000009,0.007940,-0.004137,89.955042,0.007943,
740,600,1.710991,-10.903910,0.999996,0.000239,-0.004106,0.007924,0.000000,0.007924,-0.004106,89.998735,0.007925,
1230,1460,0.002100,-2.875267,0.999998,0.000171,-0.001817,0.004528,0.000045,0.004528,-0.001818,89.594492,0.004558,
900,2000,0.070378,-0.178559,0.999998,0.000159,-0.000376,0.005140,-0.000930,0.005293,-0.000529,-80.686140,0.005830,
1600,1580,-0.985931,-2.943160,0.999997,0.000203,-0.003640,0.007420,-0.000450,0.007438,-0.003658,-87.672970,0.007438,
1450,1660,-0.430058,-2.076015,0.999997,0.000208,-0.002307,0.006191,-0.000345,0.006205,-0.002321,-87.677958,0.006270,
1820,930,-2.889909,-8.232676,0.999997,0.000220,-0.003341,0.007004,-0.000470,0.007025,-0.003362,-87.406173,0.007027,
670,430,1.614412,-12.052492,0.999996,0.000225,-0.003764,0.007603,-0.000117,0.007604,-0.003765,-89.411813,0.007604,
580,430,1.950775,-11.835386,0.999998,0.000175,-0.003637,0.007498,-0.000044,0.007498,-0.003637,-89.772778,0.007500,
1870,1640,-1.870729,-3.142191,0.999998,0.000197,-0.003683,0.007456,-0.000084,0.007457,-0.003684,-89.568600,0.007457,
1450,750,-0.742613,-10.534518,0.999996,0.000257,-0.005365,0.008635,0.001798,0.008862,-0.005592,82.798321,0.008963,
1550,670,-1.092750,-10.791375,0.999996,0.000241,-0.004766,0.008419,0.000676,0.008453,-0.004800,87.070867,0.008479,
1100,160,0.093724,-14.446897,0.999998,0.000154,-0.000722,0.005052,0.000239,0.005062,-0.000732,87.632844,0.005471,
1690,670,-1.739584,-10.417722,0.999997,0.000209,-0.004340,0.008159,-0.000186,0.008162,-0.004343,-89.149873,0.008167,
1730,1390,-1.896187,-4.749119,0.999997,0.000222,-0.004169,0.007995,0.000234,0.007999,-0.004173,88.899208,0.008002,
1560,1510,-0.937563,-3.363454,0.999997,0.000196,-0.003923,0.007578,-0.000690,0.007619,-0.003965,-86.578510,0.007621,
1790,680,-2.178475,-10.128135,0.999998,0.000186,-0.003944,0.007709,-0.000332,0.007718,-0.003953,-88.371018,0.007719,
1580,130,-0.253887,-14.526612,0.999998,0.000177,-0.001352,0.005760,-0.000935,0.005880,-0.001473,-82.635572,0.006120,
1360,730,-0.297192,-11.249564,0.999997,0.000257,-0.003715,0.005978,0.002835,0.006747,-0.004483,74.838185,0.006867,
840,200,0.505942,-14.063232,0.999997,0.000206,-0.001943,0.006517,0.000910,0.006614,-0.002040,83.931400,0.006774,
1370,930,-1.208529,-9.807068,0.999990,0.000000,-0.002314,0.009308,0.006330,0.012090,-0.005096,66.275648,0.012139,
890,1160,1.915492,-6.431113,0.999998,0.000173,-0.004179,0.008987,-0.001099,0.009078,-0.004270,-85.260258,0.009084,
570,320,1.723231,-12.618945,0.999865,0.001324,-0.004331,0.007749,-0.000205,0.007753,-0.004335,-89.030332,0.007771,
1250,1670,-0.031014,-1.817156,0.999998,0.000174,-0.001716,0.005293,-0.000155,0.005297,-0.001719,-88.731439,0.005404,
1750,90,-0.345728,-14.679361,0.999996,0.000220,-0.002113,0.006414,-0.001787,0.006774,-0.002472,-78.628230,0.006856,
880,940,2.106251,-8.280615,0.999997,0.000206,-0.003439,0.008519,0.001016,0.008605,-0.003525,85.176710,0.008652,
610,1350,2.484238,-5.311982,0.999996,0.000233,-0.003733,0.007537,-0.000228,0.007541,-0.003737,-88.842096,0.007541,
1300,1760,-0.092913,-1.351098,0.999998,0.000148,-0.001294,0.005296,0.000021,0.005296,-0.001294,89.818923,0.005522,
1660,890,-2.242895,-8.636894,0.999997,0.000225,-0.003810,0.008072,-0.000964,0.008150,-0.003887,-85.391995,0.008153,
1320,50,-0.011320,-14.982162,0.999999,0.000132,-0.000173,0.004487,-0.000160,0.004492,-0.000178,-88.034008,0.005088,
1820,1830,-1.160370,-1.568639,0.999996,0.000230,-0.003505,0.007696,0.000502,0.007718,-0.003527,87.440544,0.007728,
1350,50,-0.017759,-14.980062,0.999998,0.000157,-0.000156,0.004558,-0.000216,0.004568,-0.000166,-87.382985,0.005181,
670,410,1.569685,-12.206437,0.999996,0.000230,-0.003753,0.007638,-0.000112,0.007639,-0.003754,-89.439002,0.007640,
1200,1780,0.039735,-1.237201,0.999998,0.000161,-0.001270,0.005236,0.000034,0.005237,-0.001270,89.702379,0.005463,
570,430,1.986818,-11.812225,0.999997,0.000211,-0.003617,0.007505,-0.000032,0.007505,-0.003618,-89.834191,0.007507,
1560,1150,-1.901400,-6.503294,0.999998,0.000182,-0.004126,0.009066,0.001103,0.009157,-0.004217,85.255016,0.009167,
1550,630,-1.021291,-11.122051,0.999996,0.000231,-0.004486,0.008056,0.000766,0.008103,-0.004533,86.515789,0.008122,
1400,1780,-0.222341,-1.300759,0.999998,0.000190,-0.001574,0.005614,0.000022,0.005614,-0.001574,89.824060,0.005792,
1870,1070,-3.106886,-7.285919,0.999997,0.000184,-0.003116,0.006341,0.000094,0.006342,-0.003116,89.430084,0.006342,
780,1370,1.746375,-4.814013,0.999996,0.000221,-0.004390,0.008227,-0.000235,0.008232,-0.004394,-88.931361,0.008238,
1430,1660,-0.382970,-2.045509,0.999998,0.000202,-0.002332,0.006073,-0.000397,0.006091,-0.002351,-87.302150,0.006144,
920,1300,1.259049,-5.053151,0.999996,0.000254,-0.005338,0.009100,0.000258,0.009105,-0.005343,88.977952,0.009150,
1100,140,0.077959,-14.546773,0.999998,0.000131,-0.000606,0.004969,0.000231,0.004978,-0.000616,87.628722,0.005428,
630,350,1.579474,-12.564224,0.999996,0.000237,-0.003677,0.007534,-0.000021,0.007534,-0.003677,-89.890672,0.007535,
1360,180,-0.104204,-14.346408,0.999998,0.000161,-0.000851,0.005149,-0.000178,0.005155,-0.000856,-88.301449,0.005524,
890,260,0.531839,-13.731953,0.999997,0.000189,-0.002371,0.006459,0.000352,0.006473,-0.002385,87.719099,0.006547,
1010,530,0.535811,-12.164291,0.999997,0.000216,-0.003210,0.006665,-0.001024,0.006771,-0.003315,-84.140090,0.006771,
1340,1930,-0.056122,-0.493847,0.999998,0.000152,-0.000590,0.004854,0.000178,0.004860,-0.000596,88.127699,0.005301,
830,240,0.632398,-13.787774,0.999996,0.000242,-0.002311,0.006797,0.000710,0.006852,-0.002366,85.570927,0.006961,
1090,1600,0.279045,-2.304720,0.999997,0.000212,-0.002309,0.005815,0.000649,0.005866,-0.002361,85.460237,0.005904,
1840,590,-2.148607,-10.715676,0.999997,0.000194,-0.003837,0.007647,-0.000046,0.007647,-0.003837,-89.769253,0.007647,
870,1300,1.517601,-5.203323,0.999995,0.000243,-0.005009,0.008918,-0.000225,0.008921,-0.005013,-89.075210,0.008944,
750,1430,1.727786,-4.390446,0.999996,0.000235,-0.004200,0.007973,-0.000048,0.007973,-0.004200,-89.774777,0.007977,
1520,1990,-0.075269,-0.225176,0.999999,0.000153,-0.000425,0.005062,0.000785,0.005173,-0.000536,82.015589,0.005689,
740,580,1.664387,-11.063706,0.999995,0.000245,-0.004067,0.007872,-0.000072,0.007873,-0.004067,-89.655503,0.007874,
1840,930,-2.956984,-8.215539,0.999998,0.000206,-0.003279,0.006872,-0.000407,0.006888,-0.003295,-87.707820,0.006890,
1360,710,-0.288214,-11.368810,0.999997,0.000212,-0.003498,0.005864,0.002595,0.006535,-0.004169,75.500081,0.006617,
1820,1510,-1.968794,-4.012772,0.999997,0.000204,-0.003840,0.007625,-0.000052,0.007626,-0.003840,-89.740339,0.007626,
1600,1560,-1.014724,-3.091305,0.999997,0.000223,-0.003703,0.007474,-0.000463,0.007494,-0.003722,-87.632535,0.007494,
1240,230,-0.008925,-14.118786,0.999998,0.000167,-0.001082,0.005065,0.000016,0.005065,-0.001082,89.854211,0.005335,
1560,130,-0.229951,-14.535629,0.999998,0.000178,-0.001065,0.005670,-0.000882,0.005784,-0.001179,-82.660796,0.006112,
1690,650,-1.689474,-10.578063,0.999996,0.000224,-0.004336,0.008086,-0.000100,0.008087,-0.004337,-89.538818,0.008094,
1730,1370,-1.947603,-4.909201,0.999997,0.000232,-0.004166,0.007956,0.000327,0.007965,-0.004175,88.458299,0.007968,
960,1380,0.877607,-4.199166,0.999997,0.000210,-0.004787,0.008243,0.001172,0.008348,-0.004891,84.901457,0.008389,
1370,1130,-1.186394,-5.263750,0.999996,0.000000,-0.002064,0.008640,-0.006037,0.011355,-0.004780,-65.778353,0.011403,
1250,1680,-0.031251,-1.764349,0.999998,0.000158,-0.001672,0.005305,-0.000140,0.005308,-0.001675,-88.849901,0.005427,
870,1160,2.000377,-6.460764,0.999997,0.000222,-0.004041,0.008746,-0.001084,0.008838,-0.004132,-85.188718,0.008844,
840,180,0.452953,-14.191938,0.999997,0.000222,-0.001732,0.006339,0.000968,0.006454,-0.001847,83.254913,0.006647,
1690,520,-1.406788,-11.613726,0.999995,0.000253,-0.003957,0.007784,0.000237,0.007789,-0.003961,88.841752,0.007789,
610,920,2.981981,-8.276215,0.999997,0.000189,-0.003293,0.006769,0.000356,0.006782,-0.003306,87.974243,0.006782,
860,90,0.181921,-14.744405,0.999998,0.000177,-0.000881,0.005470,0.001131,0.005665,-0.001076,80.196011,0.006017,
1750,110,-0.440963,-14.546713,0.999996,0.000236,-0.002441,0.006843,-0.001709,0.007148,-0.002746,-79.896272,0.007212,
1250,1650,-0.032393,-1.923857,0.999998,0.000184,-0.001764,0.005283,-0.000157,0.005286,-0.001767,-88.727800,0.005382,
670,830,2.592723,-8.976690,0.999997,0.000209,-0.003692,0.007361,0.000620,0.007396,-0.003727,86.801998,0.007396,
1050,790,0.632086,-10.434648,0.999995,0.000265,-0.005538,0.008480,-0.002426,0.008888,-0.005946,-80.454036,0.009056,
1200,1760,0.044492,-1.343811,0.999999,0.000143,-0.001365,0.005258,0.000071,0.005259,-0.001365,89.384573,0.005457,
910,1280,1.373093,-5.269035,0.999995,0.000261,-0.005311,0.009204,-0.000037,0.009204,-0.005311,-89.852624,0.009241,
610,1330,2.536298,-5.461153,0.999997,0.000218,-0.003701,0.007410,-0.000282,0.007417,-0.003709,-88.549519,0.007417,
560,850,3.019700,-8.661959,0.999997,0.000000,-0.003329,0.006679,0.000107,0.006680,-0.003330,89.386727,0.006680,
1370,890,-0.918328,-10.103331,0.999996,0.000228,-0.002929,0.006339,0.003988,0.007819,-0.004409,69.641018,0.007841,
1400,1760,-0.239596,-1.413424,0.999997,0.000207,-0.001679,0.005682,-0.000038,0.005682,-0.001679,-89.702797,0.005838,
880,960,2.154739,-8.113981,0.999997,0.000210,-0.003196,0.008325,0.000819,0.008382,-0.003254,85.953140,0.008452,
1880,340,-1.725150,-12.509695,0.999997,0.000215,-0.003698,0.007399,0.000055,0.007400,-0.003698,89.717929,0.007400,
1540,1150,-1.814086,-6.462721,0.999997,0.000208,-0.004304,0.009368,0.001065,0.009451,-0.004386,85.573022,0.009459,
1890,1660,-1.897551,-3.041965,0.999998,0.000166,-0.003658,0.007389,-0.000091,0.007390,-0.003659,-89.528396,0.007390,
1550,1340,-1.189873,-4.717405,0.999997,0.000205,-0.005088,0.008808,-0.000486,0.008825,-0.005105,-88.001082,0.008861,
610,1820,1.314910,-1.749301,0.999996,0.000209,-0.003637,0.007480,-0.000185,0.007483,-0.003640,-89.047155,0.007484,
1500,1990,-0.067692,-0.222345,0.999998,0.000194,-0.000481,0.005003,0.000680,0.005086,-0.000564,83.039046,0.005575,
1350,1860,-0.105295,-0.847591,0.999998,0.000158,-0.000999,0.005161,0.000150,0.005164,-0.001003,88.604326,0.005477,
630,330,1.528098,-12.716027,0.999997,0.000228,-0.003669,0.007521,-0.000034,0.007521,-0.003669,-89.824025,0.007522,
1600,1540,-1.047114,-3.242317,0.999997,0.000237,-0.003780,0.007553,-0.000479,0.007573,-0.003800,-87.583121,0.007573,
1660,70,-0.164324,-14.844135,0.999997,0.000232,-0.000865,0.005695,-0.001483,0.006014,-0.001184,-77.835214,0.006372,
1750,1280,-2.278344,-5.663793,0.999997,0.000236,-0.004027,0.007836,0.000677,0.007875,-0.004066,86.745671,0.007876,
1100,560,0.280497,-12.220259,0.999997,0.000203,-0.002702,0.005717,-0.001283,0.005909,-0.002893,-81.524791,0.005909,
600,1030,3.109747,-7.544018,0.999997,0.000207,-0.003108,0.006569,-0.000032,0.006569,-0.003108,-89.812717,0.006572,
1180,1540,0.097383,-2.516808,0.999998,0.000167,-0.001966,0.005157,0.000359,0.005175,-0.001984,87.119714,0.005222,
740,780,2.181121,-9.457597,0.999997,0.000268,-0.004088,0.008065,0.000707,0.008106,-0.004129,86.680864,0.008107,
920,1320,1.202162,-4.870099,0.999998,0.000235,-0.005259,0.008925,0.000424,0.008937,-0.005272,88.290984,0.008985,
1800,1510,-1.892532,-3.966187,0.999997,0.000199,-0.003856,0.007655,-0.000057,0.007655,-0.003856,-89.717128,0.007655,
1370,1140,-1.116044,-5.179174,0.999996,0.000000,-0.002171,0.007662,-0.005340,0.010005,-0.004513,-66.317857,0.010021,
1820,590,-2.070796,-10.760540,0.999997,0.000184,-0.003858,0.007672,-0.000042,0.007672,-0.003858,-89.793246,0.007672,
1620,640,-1.354977,-10.833263,0.999996,0.000237,-0.004548,0.008239,0.000239,0.008244,-0.004553,88.928508,0.008259,
1310,1600,-0.144831,-2.222396,0.999998,0.000170,-0.002051,0.005426,-0.000461,0.005454,-0.002079,-86.485925,0.005505,
1790,90,-0.441072,-14.634197,0.999997,0.000238,-0.001726,0.007180,-0.002523,0.007845,-0.002391,-75.231145,0.008042,
1730,1350,-2.001930,-5.069948,0.999997,0.000244,-0.004142,0.007998,0.000418,0.008012,-0.004157,88.030696,0.008014,
1530,480,-0.747100,-12.311199,0.999997,0.000190,-0.003449,0.007084,0.000653,0.007124,-0.003489,86.466572,0.007124,
1060,630,0.416285,-11.666273,0.999996,0.000231,-0.003462,0.006426,-0.001782,0.006737,-0.003774,-80.089398,0.006753,
1360,160,-0.091928,-14.446728,0.999998,0.000161,-0.000752,0.005086,-0.000221,0.005094,-0.000761,-87.838969,0.005496,
1120,230,0.117274,-14.093369,0.999998,0.000168,-0.001215,0.005255,0.000037,0.005255,-0.001215,89.672940,0.005502,
750,1410,1.774387,-4.552884,0.999996,0.000246,-0.004215,0.008041,-0.000116,0.008043,-0.004216,-89.457383,0.008046,
760,410,1.237405,-12.423811,0.999998,0.000176,-0.003620,0.007558,-0.000106,0.007559,-0.003621,-89.455127,0.007561,
1400,1740,-0.256345,-1.529485,0.999998,0.000178,-0.001791,0.005748,-0.000106,0.005749,-0.001793,-89.194943,0.005884,
610,1160,2.941798,-6.676098,0.999998,0.000176,-0.003270,0.006716,-0.000269,0.006723,-0.003277,-88.459484,0.006724,
1660,250,-0.727637,-13.680680,0.999996,0.000217,-0.002851,0.007023,-0.000557,0.007054,-0.002882,-86.781002,0.007093,
1450,1040,-1.842450,-7.408949,0.999993,0.000332,-0.004418,0.012855,-0.000183,0.012857,-0.004420,-89.393204,0.013064,
610,900,2.949984,-8.410060,0.999997,0.000181,-0.003289,0.006738,0.000286,0.006746,-0.003298,88.370125,0.006746,
1300,1740,-0.097981,-1.457994,0.999998,0.000162,-0.001391,0.005359,-0.000019,0.005359,-0.001391,-89.834645,0.005562,
840,160,0.398317,-14.317691,0.999997,0.000202,-0.001565,0.006292,0.001113,0.006447,-0.001720,82.092116,0.006676,
880,1400,1.218596,-4.306340,0.999997,0.000201,-0.004649,0.008352,0.000452,0.008368,-0.004665,88.011313,0.008386,
610,1530,2.050271,-3.936803,0.999997,0.000180,-0.003782,0.007623,0.000058,0.007624,-0.003782,89.710990,0.007624,
1250,1630,-0.033400,-2.028914,0.999998,0.000172,-0.001812,0.005311,-0.000162,0.005315,-0.001816,-88.695419,0.005403,
1750,130,-0.534035,-14.406540,0.999997,0.000213,-0.002689,0.007004,-0.001546,0.007245,-0.002930,-81.151716,0.007289,
670,850,2.638211,-8.831458,0.999996,0.000227,-0.003630,0.007323,0.000650,0.007361,-0.003668,86.617258,0.007361,
1200,1740,0.044644,-1.446980,0.999998,0.000163,-0.001445,0.005314,0.000082,0.005315,-0.001446,89.307077,0.005496,
960,1360,0.909177,-4.365081,0.999998,0.000194,-0.004970,0.008485,0.001110,0.008576,-0.005061,85.315234,0.008622,
1520,1150,-1.726639,-6.419706,0.999997,0.000207,-0.004499,0.009676,0.000936,0.009738,-0.004561,86.239301,0.009744,
1100,580,0.281798,-12.106804,0.999997,0.000224,-0.002724,0.005734,-0.001346,0.005943,-0.002933,-81.172752,0.005944,
920,1340,1.151138,-4.693966,0.999997,0.000236,-0.005124,0.008809,0.000566,0.008832,-0.005147,87.676337,0.008872,
1010,510,0.523809,-12.295467,0.999996,0.000232,-0.003127,0.006632,-0.000964,0.006726,-0.003222,-84.410826,0.006728,
1530,1340,-1.088998,-4.647034,0.999997,0.000190,-0.005111,0.008762,-0.000691,0.008796,-0.005146,-87.153601,0.008839,
590,1830,1.351119,-1.739696,0.999996,0.000215,-0.003886,0.007446,-0.000222,0.007450,-0.003890,-88.875878,0.007452,
1890,1650,-1.921126,-3.116182,0.999998,0.000172,-0.003619,0.007392,-0.000092,0.007393,-0.003620,-89.521122,0.007393,
590,280,1.536522,-12.974041,0.999998,0.000194,-0.003871,0.007354,0.000068,0.007355,-0.003872,89.650609,0.007358,
630,310,1.475888,-12.866207,0.999997,0.000214,-0.003669,0.007521,0.000039,0.007521,-0.003669,89.801684,0.007522,
1400,2010,-0.018704,-0.118023,0.999998,0.000159,-0.000161,0.004647,0.000333,0.004670,-0.000184,86.052218,0.005289,
830,1680,0.926594,-2.280804,0.999997,0.000172,-0.003182,0.007211,0.000046,0.007211,-0.003183,89.743930,0.007228,
1690,630,-1.640929,-10.740131,0.999996,0.000213,-0.004309,0.008093,-0.000025,0.008093,-0.004309,-89.885321,0.008099,
1600,1520,-1.077560,-3.395578,0.999997,0.000223,-0.003935,0.007699,-0.000505,0.007721,-0.003957,-87.520171,0.007721,
1400,990,-1.491898,-8.365536,0.999980,0.000000,-0.006862,0.019808,0.003620,0.020291,-0.007344,82.405502,0.020547,
1330,1520,-0.198355,-2.688092,0.999998,0.000179,-0.002222,0.005391,-0.000804,0.005475,-0.002306,-84.032747,0.005497,
1860,1830,-1.304285,-1.697179,0.999997,0.000216,-0.003684,0.007523,0.000242,0.007528,-0.003690,88.765859,0.007529,
1880,580,-2.277648,-10.699345,0.999997,0.000217,-0.003804,0.007648,-0.000002,0.007648,-0.003804,-89.990356,0.007648,
570,270,1.594173,-12.990277,0.999622,0.002315,-0.005317,0.008124,0.000253,0.008129,-0.005322,88.921793,0.008257,
1730,1330,-2.056896,-5.233028,0.999997,0.000219,-0.004144,0.007987,0.000493,0.008007,-0.004164,87.677850,0.008010,
760,390,1.195529,-12.575834,0.999998,0.000178,-0.003540,0.007533,-0.000047,0.007533,-0.003540,-89.756485,0.007538,
1670,1280,-1.940855,-5.539474,0.999997,0.000202,-0.004418,0.008401,0.000682,0.008437,-0.004454,86.963626,0.008442,
630,1600,1.820783,-3.353684,0.999997,0.000172,-0.003748,0.007618,0.000102,0.007619,-0.003749,89.486114,0.007619,
1530,460,-0.722876,-12.453884,0.999998,0.000196,-0.003344,0.007028,0.000596,0.007062,-0.003379,86.724793,0.007064,
1410,230,-0.198229,-14.060516,0.999998,0.000183,-0.001429,0.005475,-0.000137,0.005477,-0.001432,-88.863445,0.005681,
1120,730,0.235855,-11.354946,0.999997,0.000258,-0.003286,0.005339,-0.002793,0.006165,-0.004112,-73.537928,0.006278,
840,140,0.340697,-14.445463,0.999997,0.000202,-0.001320,0.006077,0.001168,0.006257,-0.001500,81.236465,0.006534,
980,1990,0.059985,-0.220358,0.999998,0.000145,-0.000369,0.004952,-0.000638,0.005028,-0.000444,-83.258856,0.005567,
1450,1020,-1.845428,-7.650520,0.999994,0.000314,-0.004406,0.012715,0.000131,0.012716,-0.004407,89.560171,0.012914,
750,1390,1.824623,-4.713837,0.999997,0.000221,-0.004238,0.008056,-0.000205,0.008059,-0.004242,-89.045992,0.008063,
1410,40,-0.017945,-15.023470,0.999999,0.000128,-0.000197,0.004629,-0.000336,0.004653,-0.000220,-86.038041,0.005250,
880,1380,1.259257,-4.475103,0.999997,0.000193,-0.004772,0.008512,0.000373,0.008523,-0.004783,88.391441,0.008544,
720,1030,2.722713,-7.541607,0.999997,0.000219,-0.003235,0.007343,-0.000034,0.007343,-0.003235,-89.815473,0.007360,
750,110,0.371162,-14.581093,0.999998,0.000184,-0.001292,0.006546,0.001865,0.006967,-0.001713,77.277935,0.007261,
1680,270,-0.843014,-13.505617,0.999998,0.000151,-0.003123,0.007167,-0.000428,0.007185,-0.003141,-87.619955,0.007204,
1700,890,-2.392026,-8.607122,0.999997,0.000212,-0.003711,0.007868,-0.000928,0.007942,-0.003785,-85.447471,0.007945,
600,680,2.459932,-9.977828,0.999996,0.000233,-0.003751,0.007537,0.000161,0.007539,-0.003753,89.180907,0.007539,
1840,1130,-2.948557,-6.868252,0.999997,0.000201,-0.003302,0.006857,0.000413,0.006874,-0.003319,87.675746,0.006875,
590,1820,1.386663,-1.815775,0.999997,0.000205,-0.003946,0.007300,-0.000176,0.007303,-0.003949,-89.105748,0.007311,
1360,140,-0.075956,-14.549639,0.999998,0.000157,-0.000612,0.004916,-0.000217,0.004924,-0.000620,-87.759372,0.005364,
960,1340,0.950376,-4.538125,0.999997,0.000191,-0.005134,0.008660,0.001070,0.008743,-0.005217,85.589680,0.008797,
1310,230,-0.078981,-14.107740,0.999998,0.000163,-0.001049,0.005155,-0.000052,0.005155,-0.001049,-89.519788,0.005449,
920,1360,1.109734,-4.516724,0.999997,0.000249,-0.004985,0.008614,0.000664,0.008646,-0.005017,87.211700,0.008683,
1510,1340,-0.985459,-4.568571,0.999997,0.000218,-0.005166,0.008698,-0.000980,0.008767,-0.005234,-85.977140,0.008822,
1100,600,0.286272,-11.990476,0.999997,0.000204,-0.002769,0.005715,-0.001462,0.005960,-0.003014,-80.488784,0.005960,
820,1500,1.284935,-3.663647,0.999997,0.000199,-0.004060,0.007873,0.000345,0.007883,-0.004070,88.345894,0.007884,
590,270,1.505453,-13.047995,0.999997,0.000219,-0.003887,0.007442,0.000121,0.007443,-0.003888,89.387755,0.007446,
1880,1660,-1.861916,-3.016818,0.999998,0.000147,-0.003678,0.007431,-0.000084,0.007431,-0.003678,-89.569203,0.007431,
1250,1610,-0.032876,-2.137179,0.999998,0.000166,-0.001821,0.005267,-0.000206,0.005273,-0.001827,-88.335684,0.005355,
1750,150,-0.624738,-14.266042,0.999997,0.000214,-0.002921,0.007183,-0.001331,0.007355,-0.003093,-82.618189,0.007386,
670,870,2.685935,-8.683609,0.999996,0.000217,-0.003588,0.007381,0.000694,0.007424,-0.003632,86.392834,0.007425,
1200,1720,0.048636,-1.556279,0.999998,0.000159,-0.001513,0.005305,0.000091,0.005306,-0.001514,89.238396,0.005467,
1400,980,-1.482781,-8.556091,0.999981,0.000000,-0.006604,0.018288,0.004518,0.019083,-0.007398,80.024450,0.019243,
1890,1150,-3.077691,-6.789781,0.999998,0.000169,-0.003167,0.006436,0.000164,0.006439,-0.003170,89.022259,0.006439,
1000,1680,0.442175,-1.969968,0.999997,0.000216,-0.002313,0.006258,0.000240,0.006265,-0.002320,88.397661,0.006335,
1360,1510,-0.270129,-2.804229,0.999996,0.000229,-0.002591,0.005703,-0.001156,0.005861,-0.002749,-82.213506,0.005864,
1830,710,-2.412577,-9.821475,0.999997,0.000200,-0.003786,0.007563,-0.000315,0.007571,-0.003795,-88.413262,0.007571,
690,660,2.059524,-10.321179,0.999998,0.000197,-0.003984,0.007831,0.000244,0.007836,-0.003989,88.816143,0.007836,
1660,410,-1.085140,-12.520474,0.999997,0.000219,-0.003496,0.007426,0.000155,0.007428,-0.003498,89.186608,0.007433,
1010,1560,0.513449,-2.722887,0.999997,0.000181,-0.003066,0.006576,0.000889,0.006658,-0.003147,84.773393,0.006661,
1420,1750,-0.286243,-1.493778,0.999997,0.000231,-0.001986,0.005783,-0.000105,0.005785,-0.001988,-89.223287,0.005878,
1880,570,-2.255078,-10.776106,0.999998,0.000203,-0.003822,0.007637,-0.000007,0.007637,-0.003822,-89.964267,0.007637,
780,1090,2.486863,-7.087048,0.999997,0.000199,-0.003255,0.007628,-0.000597,0.007660,-0.003288,-86.870191,0.007686,
1340,230,-0.114880,-14.093378,0.999998,0.000171,-0.001202,0.005263,-0.000046,0.005263,-0.001203,-89.590031,0.005515,
1730,1310,-2.110778,-5.389876,0.999997,0.000223,-0.004128,0.008003,0.000564,0.008029,-0.004154,87.344665,0.008031,
750,1370,1.875800,-4.875808,0.999996,0.000239,-0.004257,0.008069,-0.000313,0.008077,-0.004265,-88.544851,0.008081,
1640,890,-2.167810,-8.652265,0.999997,0.000199,-0.003869,0.008228,-0.000975,0.008306,-0.003947,-85.420682,0.008310,
1510,480,-0.677717,-12.362471,0.999996,0.000231,-0.003323,0.006957,0.000692,0.007003,-0.003369,86.166523,0.007005,
920,1800,0.463502,-1.325079,0.999997,0.000214,-0.001951,0.006288,-0.000399,0.006307,-0.001970,-87.234753,0.006453,
1360,120,-0.066077,-14.644856,0.999998,0.000164,-0.000523,0.004879,-0.000271,0.004893,-0.000537,-87.137616,0.005367,
880,1360,1.306394,-4.648352,0.999997,0.000216,-0.004882,0.008612,0.000278,0.008618,-0.004887,88.819843,0.008644,
1400,970,-1.455981,-8.726882,0.999985,0.000000,-0.005923,0.016765,0.005195,0.017898,-0.007056,77.697779,0.018031,
1100,620,0.286143,-11.877581,0.999997,0.000216,-0.002854,0.005755,-0.001624,0.006051,-0.003150,-79.664881,0.006053,
1250,1590,-0.033089,-2.241186,0.999998,0.000152,-0.001820,0.005172,-0.000212,0.005179,-0.001827,-88.262583,0.005253,
1750,590,-1.798210,-10.923149,0.999997,0.000207,-0.004036,0.007788,-0.000012,0.007788,-0.004036,-89.942985,0.007790,
670,890,2.732512,-8.534899,0.999997,0.000216,-0.003488,0.007259,0.000589,0.007291,-0.003520,86.870615,0.007293,
1100,730,0.307046,-11.232122,0.999997,0.000238,-0.003807,0.006072,-0.002788,0.006805,-0.004539,-75.278455,0.006930,
620,1310,2.552834,-5.588765,0.999997,0.000207,-0.003714,0.007403,-0.000360,0.007414,-0.003726,-88.148607,0.007414,
630,290,1.417440,-13.017414,0.999997,0.000202,-0.003647,0.007494,0.000081,0.007495,-0.003648,89.583198,0.007496,
1600,1500,-1.110157,-3.552541,0.999997,0.000209,-0.004078,0.007777,-0.000515,0.007799,-0.004101,-87.518018,0.007803,
1200,1700,0.049266,-1.661160,0.999998,0.000157,-0.001609,0.005316,0.000124,0.005318,-0.001612,88.970682,0.005454,
1670,1880,-0.534095,-0.935282,0.999998,0.000163,-0.002412,0.006611,0.001050,0.006732,-0.002532,83.450275,0.006800,
1010,490,0.510562,-12.430681,0.999996,0.000235,-0.003066,0.006582,-0.000894,0.006665,-0.003148,-84.750746,0.006668,
1670,200,-0.612475,-14.011920,0.999996,0.000233,-0.002618,0.006838,-0.000894,0.006922,-0.002702,-84.645199,0.006977,
1310,1680,-0.129719,-1.786543,0.999998,0.000182,-0.001738,0.005416,-0.000192,0.005421,-0.001743,-88.461221,0.005535,
1040,1990,0.042581,-0.214221,0.999999,0.000128,-0.000358,0.004784,-0.000427,0.004819,-0.000394,-85.288607,0.005352,
840,120,0.283982,-14.562953,0.999997,0.000193,-0.001125,0.005963,0.001240,0.006174,-0.001336,80.360955,0.006497,
1390,2010,-0.018274,-0.117477,0.999999,0.000154,-0.000094,0.004622,0.000312,0.004643,-0.000115,86.232313,0.005296,
1690,610,-1.595183,-10.903397,0.999996,0.000223,-0.004236,0.007962,0.000056,0.007962,-0.004236,89.737667,0.007967,
1140,40,0.007926,-15.026204,0.999998,0.000173,-0.000168,0.004504,0.000144,0.004508,-0.000172,88.234342,0.005109,
970,1540,0.655541,-2.958243,0.999998,0.000199,-0.003472,0.006982,0.000887,0.007057,-0.003547,85.187204,0.007057,
1730,1290,-2.167344,-5.550898,0.999996,0.000252,-0.004111,0.008046,0.000651,0.008081,-0.004146,86.943095,0.008082,
1660,390,-1.047494,-12.669731,0.999997,0.000200,-0.003471,0.007426,0.000121,0.007428,-0.003472,89.363079,0.007433,
1480,230,-0.300289,-14.011085,0.999997,0.000202,-0.001557,0.005790,-0.000351,0.005807,-0.001573,-87.270590,0.006006,
1860,1810,-1.373951,-1.845031,0.999997,0.000235,-0.003699,0.007421,0.000157,0.007423,-0.003701,89.189352,0.007423,
1410,250,-0.218342,-13.949196,0.999998,0.000182,-0.001567,0.005535,-0.000069,0.005536,-0.001568,-89.442663,0.005707,
1880,560,-2.231738,-10.852821,0.999997,0.000227,-0.003833,0.007646,-0.000016,0.007646,-0.003833,-89.919160,0.007646,
920,1780,0.494964,-1.447871,0.999997,0.000204,-0.002066,0.006404,-0.000303,0.006414,-0.002077,-87.952032,0.006546,
1340,530,-0.220564,-12.441844,0.999997,0.000198,-0.002252,0.005550,0.000836,0.005638,-0.002340,83.953225,0.005665,
690,900,2.681768,-8.477908,0.999997,0.000214,-0.003505,0.007300,0.000602,0.007334,-0.003539,86.819302,0.007335,
1320,1610,-0.164934,-2.179787,0.999998,0.000155,-0.002092,0.005470,-0.000490,0.005501,-0.002124,-86.309816,0.005549,
1530,420,-0.673220,-12.733352,0.999996,0.000226,-0.002988,0.006837,0.000404,0.006853,-0.003005,87.647376,0.006871,
1400,30,-0.009341,-15.071901,0.999999,0.000000,-0.000104,0.004605,-0.000344,0.004630,-0.000129,-85.840545,0.005273,
1520,1300,-1.136561,-4.970523,0.999996,0.000215,-0.005404,0.009146,-0.000597,0.009171,-0.005428,-87.655940,0.009222,
1310,250,-0.088835,-14.003761,0.999998,0.000150,-0.001162,0.005185,-0.000053,0.005185,-0.001163,-89.518340,0.005442,
1360,100,-0.047312,-14.745922,0.999998,0.000173,-0.000392,0.004832,-0.000266,0.004845,-0.000405,-87.089084,0.005376,
750,1350,1.930758,-5.037295,0.999997,0.000218,-0.004265,0.008074,-0.000386,0.008086,-0.004277,-88.211345,0.008090,
640,1310,2.478040,-5.552014,0.999997,0.000213,-0.003751,0.007481,-0.000407,0.007496,-0.003765,-87.929696,0.007496,
1420,1310,-0.576084,-4.360526,0.999995,0.000257,-0.005023,0.007994,-0.002321,0.008396,-0.005425,-80.187041,0.008515,
1180,1520,0.097597,-2.617240,0.999998,0.000158,-0.001980,0.005085,0.000449,0.005113,-0.002009,86.375435,0.005152,
1380,2010,-0.018255,-0.117142,0.999998,0.000167,-0.000072,0.004592,0.000285,0.004610,-0.000090,86.518804,0.005272,
1630,1060,-2.354513,-7.304730,0.999997,0.000246,-0.002986,0.007769,0.000362,0.007782,-0.002998,88.075763,0.007850,
880,1340,1.356833,-4.821767,0.999996,0.000232,-0.004971,0.008717,0.000162,0.008719,-0.004973,89.323775,0.008747,
1050,770,0.582609,-10.605920,0.999996,0.000241,-0.005282,0.008191,-0.002469,0.008629,-0.005720,-79.937502,0.008781,
670,1330,2.309647,-5.342113,0.999997,0.000214,-0.003912,0.007714,-0.000470,0.007733,-0.003931,-87.689946,0.007733,
960,1320,0.991174,-4.713708,0.999997,0.000178,-0.005287,0.008858,0.000953,0.008922,-0.005350,86.163159,0.008981,
1890,1130,-3.110047,-6.918759,0.999998,0.000174,-0.003130,0.006448,0.000240,0.006454,-0.003136,88.567283,0.006455,
1880,330,-1.700493,-12.584390,0.999998,0.000183,-0.003673,0.007396,0.000065,0.007397,-0.003674,89.662055,0.007397,
1480,1250,-1.066937,-5.255769,0.999995,0.000267,-0.005815,0.009658,-0.000812,0.009700,-0.005858,-87.003100,0.009770,
1290,1680,-0.096034,-1.779507,0.999998,0.000160,-0.001629,0.005348,-0.000098,0.005349,-0.001630,-89.194965,0.005483,
1830,690,-2.359364,-9.972324,0.999997,0.000218,-0.003819,0.007558,-0.000286,0.007565,-0.003827,-88.561332,0.007565,
1770,1000,-2.795544,-7.758200,0.999998,0.000196,-0.003250,0.007127,-0.000235,0.007132,-0.003255,-88.704443,0.007141,
1010,320,0.366490,-13.501093,0.999997,0.000202,-0.001972,0.006062,-0.000039,0.006062,-0.001972,-89.718297,0.006184,
1150,40,0.006396,-15.026955,0.999999,0.000154,-0.000104,0.004492,0.000146,0.004497,-0.000109,88.186025,0.005131,
1200,540,0.059427,-12.488692,0.999998,0.000158,-0.001893,0.004969,-0.000305,0.004983,-0.001906,-87.457794,0.005028,
1390,2020,-0.012425,-0.071060,0.999999,0.000000,-0.000036,0.004598,0.000299,0.004617,-0.000056,86.322476,0.005300,
1300,450,-0.125905,-12.934859,0.999999,0.000147,-0.001948,0.005365,0.000309,0.005378,-0.001961,87.584920,0.005443,
1880,1150,-3.045745,-6.776511,0.999998,0.000192,-0.003184,0.006530,0.000174,0.006533,-0.003187,88.974931,0.006533,
560,840,2.996113,-8.731621,0.999998,0.000000,-0.003417,0.006811,0.000060,0.006811,-0.003417,89.661939,0.006811,
1060,490,0.368615,-12.541939,0.999996,0.000233,-0.002610,0.006087,-0.000837,0.006167,-0.002689,-84.552437,0.006184,
1690,590,-1.550646,-11.060747,0.999996,0.000228,-0.004175,0.007924,0.000109,0.007925,-0.004176,89.483122,0.007929,
710,900,2.610654,-8.491823,0.999997,0.000211,-0.003562,0.007453,0.000689,0.007496,-0.003605,86.435641,0.007497,
1650,1720,-0.900158,-2.025833,0.999998,0.000179,-0.003213,0.007175,0.000053,0.007175,-0.003213,89.706911,0.007188,
930,700,1.069579,-10.594936,0.999997,0.000191,-0.004998,0.008662,-0.000728,0.008701,-0.005037,-86.956845,0.008737,
1320,1590,-0.169978,-2.292006,0.999998,0.000176,-0.002150,0.005476,-0.000538,0.005514,-0.002188,-85.981337,0.005553,
840,100,0.223525,-14.681601,0.999998,0.000184,-0.000842,0.005702,0.001243,0.005930,-0.001070,79.599869,0.006321,
1520,1280,-1.193300,-5.153879,0.999996,0.000223,-0.005519,0.009336,-0.000414,0.009347,-0.005530,-88.403595,0.009400,
1650,1880,-0.485703,-0.915966,0.999997,0.000207,-0.002054,0.006498,0.001061,0.006627,-0.002184,83.033533,0.006754,
1250,1570,-0.035098,-2.343642,0.999998,0.000168,-0.001856,0.005178,-0.000240,0.005186,-0.001864,-88.047565,0.005254,
670,660,2.137055,-10.278997,0.999997,0.000195,-0.003947,0.007749,0.000237,0.007754,-0.003951,88.837333,0.007754,
1310,270,-0.095509,-13.899882,0.999998,0.000154,-0.001264,0.005260,-0.000003,0.005260,-0.001264,-89.969686,0.005491,
1620,620,-1.315180,-10.996806,0.999996,0.000238,-0.004459,0.008058,0.000342,0.008067,-0.004468,88.437286,0.008083,
590,260,1.471941,-13.122179,0.999996,0.000220,-0.003884,0.007362,0.000168,0.007364,-0.003886,89.145701,0.007368,
1100,1360,0.294157,-3.679661,0.999997,0.000211,-0.003425,0.005895,0.002439,0.006495,-0.004025,76.189272,0.006557,
1490,1340,-0.882678,-4.483184,0.999997,0.000212,-0.005136,0.008594,-0.001253,0.008707,-0.005249,-84.829332,0.008768,
1010,450,0.479851,-12.694395,0.999997,0.000230,-0.002826,0.006407,-0.000703,0.006460,-0.002879,-85.671980,0.006473,
820,1480,1.324554,-3.822766,0.999996,0.000230,-0.004167,0.007928,0.000319,0.007937,-0.004175,88.488733,0.007940,
1840,1450,-2.183480,-4.520534,0.999997,0.000201,-0.003818,0.007676,0.000074,0.007677,-0.003819,89.629626,0.007677,
1410,270,-0.236619,-13.838377,0.999998,0.000184,-0.001696,0.005604,-0.000020,0.005604,-0.001696,-89.841009,0.005748,
1040,810,0.753878,-10.183584,0.999994,0.000295,-0.005846,0.009000,-0.002025,0.009271,-0.006117,-82.372151,0.009428,
880,1320,1.408213,-4.997282,0.999996,0.000255,-0.005007,0.008820,0.000009,0.008820,-0.005007,89.961574,0.008847,
1050,750,0.548005,-10.766066,0.999996,0.000232,-0.005014,0.007850,-0.002453,0.008302,-0.005466,-79.562087,0.008440,
1240,1990,-0.002304,-0.204928,0.999998,0.000172,-0.000230,0.004548,0.000010,0.004548,-0.000230,89.883504,0.005123,
720,1880,0.706868,-1.021184,0.999998,0.000176,-0.002939,0.007251,-0.001148,0.007379,-0.003067,-83.653065,0.007414,
1450,860,-1.128298,-9.494564,0.999996,0.000225,-0.005831,0.010353,0.000901,0.010403,-0.005881,86.823820,0.010432,
670,1310,2.365648,-5.498676,0.999997,0.000205,-0.003850,0.007669,-0.000504,0.007691,-0.003872,-87.499560,0.007691,
1090,1240,0.490062,-4.535178,0.999995,0.000278,-0.004990,0.007337,0.003252,0.008142,-0.005796,76.092121,0.008382,
860,130,0.287849,-14.512925,0.999998,0.000185,-0.001329,0.005890,0.001052,0.006040,-0.001479,81.875131,0.006297,
1360,80,-0.038619,-14.839344,0.999998,0.000153,-0.000287,0.004718,-0.000270,0.004733,-0.000302,-86.925346,0.005299,
830,1160,2.154436,-6.502013,0.999997,0.000193,-0.003850,0.008311,-0.000999,0.008392,-0.003932,-85.335612,0.008398,
1410,1300,-0.542499,-4.372477,0.999996,0.000235,-0.005035,0.007874,-0.002522,0.008350,-0.005510,-79.330083,0.008491,
1750,1000,-2.729951,-7.760451,0.999998,0.000181,-0.003235,0.007227,-0.000251,0.007233,-0.003241,-88.627297,0.007246,
1080,230,0.165986,-14.075050,0.999998,0.000197,-0.001129,0.005353,0.000185,0.005358,-0.001134,88.370634,0.005647,
750,1330,1.985134,-5.202252,0.999998,0.000196,-0.004240,0.008101,-0.000475,0.008119,-0.004258,-87.798971,0.008123,
600,660,2.408350,-10.127894,0.999996,0.000246,-0.003775,0.007524,0.000146,0.007526,-0.003777,89.260573,0.007526,
1790,740,-2.339368,-9.666105,0.999997,0.000208,-0.003883,0.007689,-0.000485,0.007709,-0.003904,-87.605027,0.007709,
1730,1270,-2.224361,-5.714643,0.999997,0.000245,-0.004081,0.007925,0.000708,0.007967,-0.004122,86.636791,0.007969,
1870,1660,-1.824835,-2.991179,0.999998,0.000170,-0.003702,0.007465,-0.000090,0.007466,-0.003703,-89.539400,0.007466,
1750,570,-1.751090,-11.076510,0.999997,0.000211,-0.004003,0.007745,0.000039,0.007745,-0.004003,89.808830,0.007746,
1160,40,0.006162,-15.027169,0.999999,0.000132,-0.000021,0.004480,0.000128,0.004484,-0.000024,88.369800,0.005163,
590,130,0.918361,-14.105032,0.999996,0.000247,-0.003601,0.007966,0.001043,0.008059,-0.003694,84.889092,0.008068,
1830,670,-2.307016,-10.122658,0.999997,0.000214,-0.003826,0.007579,-0.000231,0.007584,-0.003831,-88.838698,0.007584,
920,1760,0.531720,-1.583947,0.999997,0.000206,-0.002200,0.006465,-0.000213,0.006470,-0.002205,-88.595378,0.006578,
770,1680,1.130783,-2.411577,0.999998,0.000162,-0.003422,0.007444,-0.000007,0.007444,-0.003422,-89.965707,0.007452,
1180,1500,0.097093,-2.717612,0.999998,0.000179,-0.001984,0.004998,0.000535,0.005038,-0.002025,85.644009,0.005071,
1530,2010,-0.046703,-0.128052,0.999999,0.000149,-0.000207,0.004886,0.000786,0.005005,-0.000326,81.423713,0.005600,
1200,1680,0.053077,-1.769262,0.999998,0.000181,-0.001661,0.005322,0.000135,0.005324,-0.001663,88.895089,0.005448,
1840,1830,-1.230492,-1.632607,0.999998,0.000187,-0.003637,0.007640,0.000278,0.007647,-0.003644,88.588729,0.007649,
960,1300,1.042919,-4.895343,0.999996,0.000233,-0.005427,0.009112,0.000798,0.009156,-0.005471,86.866380,0.009214,
1880,320,-1.674382,-12.659542,0.999997,0.000209,-0.003663,0.007405,0.000055,0.007406,-0.003663,89.715345,0.007406,
1390,1110,-1.325341,-5.869253,0.999989,0.000000,-0.004298,0.012923,-0.006282,0.014971,-0.006346,-71.943240,0.015029,
840,1750,0.761687,-1.768080,0.999997,0.000180,-0.002752,0.006918,-0.000238,0.006924,-0.002758,-88.593239,0.006971,
890,640,1.142406,-10.968652,0.999996,0.000226,-0.004581,0.008205,-0.000583,0.008231,-0.004608,-87.394841,0.008251,
1340,470,-0.211900,-12.774844,0.999998,0.000158,-0.002105,0.005550,0.000568,0.005592,-0.002147,85.777203,0.005642,
990,320,0.407092,-13.478337,0.999997,0.000210,-0.002022,0.006168,-0.000017,0.006168,-0.002023,-89.881685,0.006288,
1040,830,0.832002,-9.998699,0.999996,0.000242,-0.005875,0.009359,-0.001914,0.009596,-0.006112,-82.946284,0.009716,
1020,850,1.037141,-9.646899,0.999996,0.000239,-0.005877,0.010148,-0.001187,0.010235,-0.005964,-85.787122,0.010282,
1520,1260,-1.260614,-5.340412,0.999995,0.000251,-0.005569,0.009538,-0.000166,0.009540,-0.005570,-89.372316,0.009585,
1310,290,-0.102893,-13.793231,0.999998,0.000149,-0.001352,0.005321,0.000013,0.005321,-0.001352,89.887662,0.005532,
560,830,2.974901,-8.799899,0.999997,0.000000,-0.003447,0.006910,0.000056,0.006911,-0.003447,89.690968,0.006911,
1300,1610,-0.124852,-2.158912,0.999998,0.000167,-0.001903,0.005381,-0.000332,0.005396,-0.001918,-87.395868,0.005470,
1650,1860,-0.544484,-1.047544,0.999996,0.000231,-0.002243,0.006686,0.000955,0.006787,-0.002344,83.963521,0.006895,
840,80,0.172045,-14.790981,0.999998,0.000177,-0.000642,0.005621,0.001338,0.005895,-0.000916,78.429058,0.006344,
1410,290,-0.254866,-13.725430,0.999997,0.000187,-0.001814,0.005708,0.000040,0.005709,-0.001814,89.694499,0.005834,
1080,730,0.387081,-11.105606,0.999995,0.000253,-0.004218,0.006730,-0.002718,0.007367,-0.004856,-76.796343,0.007491,
1870,1150,-3.013343,-6.764347,0.999997,0.000203,-0.003210,0.006616,0.000204,0.006621,-0.003214,88.809688,0.006621,
1490,1320,-0.923841,-4.657214,0.999996,0.000225,-0.005338,0.008809,-0.001134,0.008899,-0.005429,-85.447036,0.008971,
810,740,1.760500,-9.911804,0.999997,0.000204,-0.004603,0.008453,0.000428,0.008467,-0.004617,88.124504,0.008479,
670,1290,2.417113,-5.650213,0.999997,0.000215,-0.003842,0.007580,-0.000533,0.007604,-0.003867,-87.332192,0.007605,
1010,430,0.462763,-12.824313,0.999997,0.000206,-0.002643,0.006345,-0.000560,0.006379,-0.002678,-86.448901,0.006407,
1620,600,-1.275305,-11.157895,0.999996,0.000222,-0.004343,0.008002,0.000374,0.008013,-0.004354,88.267382,0.008023,
1690,790,-2.073607,-9.425157,0.999997,0.000223,-0.004230,0.008267,-0.000748,0.008312,-0.004275,-86.584764,0.008313,
880,1300,1.467889,-5.176182,0.999995,0.000259,-0.005068,0.008972,-0.000153,0.008974,-0.005069,-89.375754,0.008999,
1050,730,0.521305,-10.920365,0.999996,0.000228,-0.004729,0.007594,-0.002369,0.008033,-0.005169,-79.484425,0.008143,
1360,60,-0.022500,-14.934426,0.999998,0.000148,-0.000169,0.004619,-0.000250,0.004632,-0.000182,-87.018571,0.005247,
1430,860,-1.010741,-9.643322,0.999995,0.000271,-0.005584,0.010108,0.001534,0.010256,-0.005733,84.469447,0.010280,
670,1140,2.774185,-6.764167,0.999998,0.000160,-0.003418,0.007114,-0.000487,0.007136,-0.003440,-87.355523,0.007138,
1660,310,-0.877676,-13.256058,0.999998,0.000154,-0.003178,0.007156,-0.000182,0.007160,-0.003181,-88.990097,0.007174,
750,1310,2.039760,-5.362828,0.999998,0.000188,-0.004228,0.008074,-0.000578,0.008101,-0.004255,-87.315458,0.008105,
600,640,2.355593,-10.277805,0.999996,0.000258,-0.003765,0.007579,0.000104,0.007580,-0.003766,89.472388,0.007580,
1560,370,-0.690674,-13.017961,0.999997,0.000201,-0.002906,0.006785,0.000118,0.006786,-0.002907,89.303147,0.006809,
1180,40,0.007686,-15.027362,0.999999,0.000134,0.000005,0.004497,0.000045,0.004498,0.000004,89.427585,0.005196,
760,1290,2.055071,-5.509617,0.999997,0.000200,-0.004258,0.008182,-0.000647,0.008216,-0.004291,-87.031261,0.008218,
1390,1100,-1.363315,-5.998608,0.999986,0.000000,-0.005061,0.014166,-0.006470,0.016141,-0.007035,-73.028846,0.016185,
1540,650,-1.009335,-10.991771,0.999998,0.000183,-0.004594,0.008163,0.000832,0.008217,-0.004648,86.285533,0.008241,
960,1720,0.498305,-1.784326,0.999998,0.000205,-0.002567,0.006450,0.000130,0.006452,-0.002569,89.176519,0.006496,
1200,1640,0.056918,-1.982073,0.999998,0.000177,-0.001760,0.005289,0.000196,0.005295,-0.001766,88.405516,0.005391,
890,620,1.106667,-11.132059,0.999998,0.000166,-0.004423,0.008032,-0.000632,0.008064,-0.004455,-87.101759,0.008079,
1050,1100,1.474095,-6.351286,0.999990,0.000452,-0.005428,0.013244,0.004041,0.014081,-0.006265,78.297753,0.014110,
820,1750,0.815656,-1.800890,0.999998,0.000176,-0.002885,0.007064,-0.000280,0.007072,-0.002893,-88.391082,0.007111,
1470,360,-0.442754,-13.234642,0.999997,0.000196,-0.002272,0.006204,0.000203,0.006209,-0.002277,88.631394,0.006282,
750,1680,1.199208,-2.454323,0.999997,0.000192,-0.003503,0.007516,-0.000038,0.007517,-0.003503,-89.800602,0.007522,
1020,830,0.949208,-9.850344,0.999996,0.000231,-0.005878,0.009744,-0.001435,0.009874,-0.006009,-84.793528,0.009952,
1830,650,-2.255250,-10.276988,0.999997,0.000208,-0.003812,0.007647,-0.000172,0.007649,-0.003815,-89.138117,0.007649,
560,820,2.955697,-8.867260,0.999995,0.000000,-0.003511,0.006920,0.000039,0.006920,-0.003511,89.783835,0.006921,
1100,1340,0.300983,-3.798382,0.999996,0.000223,-0.003602,0.005974,0.002656,0.006661,-0.004289,75.488273,0.006753,
820,1460,1.363025,-3.982579,0.999996,0.000238,-0.004267,0.007960,0.000266,0.007966,-0.004273,88.756059,0.007973,
1730,1250,-2.282172,-5.871021,0.999997,0.000225,-0.004041,0.007875,0.000769,0.007924,-0.004091,86.324305,0.007926,
1520,1240,-1.333589,-5.536649,0.999996,0.000227,-0.005544,0.009703,0.000052,0.009703,-0.005545,89.804127,0.009736,
1310,730,-0.141765,-11.536124,0.999997,0.000204,-0.002466,0.004123,0.002376,0.004891,-0.003234,72.101301,0.004975,
1340,450,-0.206577,-12.886655,0.999998,0.000146,-0.002074,0.005553,0.000505,0.005586,-0.002107,86.230980,0.005642,
1250,1550,-0.034522,-2.449146,0.999998,0.000157,-0.001895,0.005099,-0.000262,0.005108,-0.001905,-87.854884,0.005163,
840,500,1.107867,-11.933288,0.999998,0.000175,-0.003808,0.007541,-0.000398,0.007554,-0.003822,-87.993273,0.007555,
920,1030,2.133802,-7.539764,0.999997,0.000216,-0.002628,0.008536,-0.000044,0.008536,-0.002628,-89.774290,0.008744,
590,1850,1.273969,-1.589518,0.999997,0.000204,-0.003688,0.007438,-0.000272,0.007445,-0.003695,-88.598295,0.007445,
790,740,1.853243,-9.869106,0.999998,0.000170,-0.004468,0.008355,0.000491,0.008374,-0.004486,87.809336,0.008381,
1010,410,0.446845,-12.948010,0.999998,0.000201,-0.002478,0.006233,-0.000409,0.006253,-0.002497,-87.314868,0.006295,
680,1490,1.871062,-4.080691,0.999997,0.000182,-0.003915,0.007719,0.000034,0.007720,-0.003915,89.834237,0.007720,
880,1280,1.528480,-5.357171,0.999995,0.000263,-0.005052,0.009000,-0.000303,0.009006,-0.005059,-88.764146,0.009029,
1620,580,-1.235198,-11.317632,0.999996,0.000220,-0.004203,0.007943,0.000393,0.007956,-0.004216,88.150147,0.007961,
1050,710,0.497683,-11.071290,0.999996,0.000235,-0.004450,0.007337,-0.002269,0.007759,-0.004872,-79.471945,0.007843,
1790,300,-1.292571,-13.049474,0.999998,0.000186,-0.003613,0.007580,-0.000206,0.007584,-0.003616,-88.946170,0.007587,
1710,1060,-2.600265,-7.318183,0.999996,0.000227,-0.003193,0.007392,0.000259,0.007399,-0.003200,88.601413,0.007421,
750,1290,2.097991,-5.526118,0.999998,0.000191,-0.004213,0.008140,-0.000658,0.008175,-0.004247,-86.960576,0.008177,
1350,1990,-0.023924,-0.208240,0.999998,0.000166,-0.000243,0.004665,0.000267,0.004679,-0.000258,86.898013,0.005261,
1620,1150,-2.133581,-6.573637,0.999997,0.000208,-0.003800,0.008366,0.001030,0.008452,-0.003887,85.194479,0.008461,
1410,730,-0.506679,-10.940882,0.999996,0.000243,-0.004691,0.007483,0.002442,0.007954,-0.005163,79.069728,0.008071,
1690,1660,-1.160293,-2.552246,0.999997,0.000190,-0.003484,0.007459,-0.000075,0.007459,-0.003484,-89.605855,0.007465,
1670,1890,-0.500746,-0.871983,0.999997,0.000192,-0.002282,0.006546,0.001142,0.006691,-0.002428,82.746159,0.006775,
670,1270,2.470180,-5.803126,0.999996,0.000244,-0.003822,0.007564,-0.000613,0.007597,-0.003855,-86.925803,0.007597,
1060,730,0.475298,-10.981837,0.999996,0.000205,-0.004590,0.007343,-0.002500,0.007846,-0.005092,-78.633666,0.007961,
1130,40,0.010173,-15.025711,0.999998,0.000173,-0.000154,0.004499,0.000162,0.004504,-0.000160,88.010637,0.005111,
1520,650,-0.916281,-11.062432,0.999997,0.000233,-0.004570,0.008021,0.000987,0.008098,-0.004647,85.545716,0.008127,
960,1740,0.467242,-1.651309,0.999997,0.000201,-0.002424,0.006359,0.000042,0.006359,-0.002424,89.726296,0.006419,
590,1140,3.039113,-6.833639,0.999998,0.000181,-0.003163,0.006638,-0.000259,0.006645,-0.003170,-88.489282,0.006647,
1830,630,-2.206324,-10.429993,0.999997,0.000232,-0.003836,0.007701,-0.000117,0.007702,-0.003837,-89.419258,0.007702,
1850,1260,-2.709156,-5.971671,0.999998,0.000194,-0.003579,0.007212,0.000378,0.007225,-0.003592,87.998878,0.007226,
1540,870,-1.666251,-8.987517,0.999995,0.000277,-0.004846,0.009503,-0.000857,0.009554,-0.004897,-86.596194,0.009555,
1330,1190,-0.606900,-4.297237,0.999997,0.000228,-0.002688,0.003307,-0.002049,0.003940,-0.003321,-72.822949,0.004238,
1750,550,-1.707843,-11.233315,0.999997,0.000219,-0.003962,0.007786,0.000082,0.007786,-0.003963,89.601585,0.007787,
1560,350,-0.659076,-13.153046,0.999998,0.000209,-0.002794,0.006740,0.000017,0.006740,-0.002794,89.897987,0.006773,
1470,340,-0.423112,-13.356842,0.999997,0.000200,-0.002123,0.006129,0.000096,0.006130,-0.002124,89.330333,0.006226,
1390,1090,-1.373984,-6.144195,0.999850,0.000000,-0.005672,0.015397,-0.006558,0.017272,-0.007546,-74.049070,0.017317,
1670,1720,-0.966512,-2.068661,0.999999,0.000152,-0.003317,0.007313,0.000059,0.007314,-0.003317,89.681519,0.007324,
1490,260,-0.360229,-13.825245,0.999998,0.000184,-0.001955,0.005969,-0.000204,0.005975,-0.001961,-88.523292,0.006091,
1250,1530,-0.034240,-2.548879,0.999998,0.000144,-0.001902,0.005005,-0.000262,0.005015,-0.001912,-87.830353,0.005062,
1730,1230,-2.336131,-6.028062,0.999996,0.000241,-0.003960,0.007885,0.000826,0.007942,-0.004017,86.028608,0.007942,
1320,450,-0.166898,-12.911634,0.999998,0.000151,-0.002062,0.005458,0.000508,0.005492,-0.002096,86.155364,0.005543,
1230,1680,0.002682,-1.758443,0.999998,0.000155,-0.001663,0.005294,0.000007,0.005294,-0.001663,89.942256,0.005415,
610,100,0.664240,-14.419768,0.999996,0.000213,-0.003523,0.008064,0.001538,0.008264,-0.003724,82.566127,0.008278,
1660,290,-0.829858,-13.397950,0.999998,0.000171,-0.003068,0.007116,-0.000317,0.007126,-0.003078,-88.216843,0.007148,
560,810,2.930393,-8.940826,0.999992,0.000000,-0.003704,0.006780,-0.000095,0.006781,-0.003705,-89.481955,0.006791,
1100,1320,0.307422,-3.916608,0.999996,0.000250,-0.003824,0.006059,0.002831,0.006812,-0.004577,75.093503,0.006945,
1510,1840,-0.329522,-1.048881,0.999998,0.000176,-0.001739,0.005837,0.000381,0.005856,-0.001758,87.129790,0.006010,
880,1260,1.594387,-5.539278,0.999995,0.000259,-0.005025,0.009100,-0.000463,0.009115,-0.005040,-88.125766,0.009132,
820,1440,1.402998,-4.142822,0.999996,0.000238,-0.004349,0.008046,0.000191,0.008049,-0.004352,89.118620,0.008058,
1050,690,0.484261,-11.215078,0.999995,0.000263,-0.004223,0.007097,-0.002195,0.007507,-0.004634,-79.400710,0.007576,
850,1400,1.355646,-4.391713,0.999996,0.000246,-0.004645,0.008335,0.000252,0.008340,-0.004649,88.886007,0.008358,
1200,1620,0.056127,-2.088803,0.999998,0.000174,-0.001815,0.005270,0.000193,0.005276,-0.001820,88.443181,0.005359,
1210,1440,0.038200,-2.977050,0.999998,0.000146,-0.001810,0.004322,0.000418,0.004350,-0.001839,86.114272,0.004367,
1890,420,-1.955286,-11.894007,0.999998,0.000203,-0.003686,0.007410,0.000045,0.007411,-0.003686,89.766128,0.007411,
840,520,1.142732,-11.781549,0.999997,0.000201,-0.003937,0.007668,-0.000407,0.007683,-0.003952,-87.993582,0.007684,
1520,1220,-1.412247,-5.730085,0.999997,0.000229,-0.005456,0.009742,0.000288,0.009748,-0.005461,88.913701,0.009771,
1310,710,-0.137772,-11.622400,0.999997,0.000205,-0.002398,0.004297,0.002149,0.004927,-0.003028,73.648777,0.004970,
1790,280,-1.235091,-13.202773,0.999997,0.000185,-0.003556,0.007584,-0.000306,0.007593,-0.003565,-88.426735,0.007598,
1410,710,-0.485155,-11.087613,0.999995,0.000239,-0.004400,0.007278,0.002295,0.007713,-0.004835,79.269654,0.007796,
590,1840,1.313514,-1.662494,0.999996,0.000209,-0.003767,0.007501,-0.000232,0.007506,-0.003772,-88.820908,0.007506,
1350,1970,-0.039151,-0.303687,0.999998,0.000165,-0.000345,0.004733,0.000226,0.004743,-0.000355,87.457397,0.005284,
750,1270,2.156400,-5.689819,0.999997,0.000220,-0.004178,0.008102,-0.000734,0.008145,-0.004222,-86.591158,0.008147,
1010,390,0.433489,-13.071182,0.999997,0.000204,-0.002343,0.006195,-0.000305,0.006206,-0.002354,-87.954652,0.006266,
900,1030,2.186673,-7.539469,0.999996,0.000249,-0.002691,0.008336,-0.000050,0.008336,-0.002691,-89.739992,0.008509,
1600,1150,-2.058722,-6.554014,0.999998,0.000172,-0.003852,0.008551,0.001045,0.008638,-0.003939,85.217872,0.008649,
1620,560,-1.200977,-11.476744,0.999996,0.000228,-0.004084,0.007846,0.000414,0.007861,-0.004099,88.014216,0.007863,
1670,1870,-0.566110,-1.000892,0.999997,0.000205,-0.002536,0.006755,0.000974,0.006856,-0.002637,84.079571,0.006916,
1540,850,-1.582765,-9.177806,0.999994,0.000303,-0.005122,0.009545,-0.000643,0.009573,-0.005150,-87.493371,0.009582,
670,1250,2.525932,-5.954223,0.999997,0.000222,-0.003769,0.007544,-0.000664,0.007583,-0.003807,-86.654322,0.007583,
1390,1080,-1.403960,-6.293158,0.999850,0.000000,-0.006304,0.017427,-0.006021,0.018867,-0.007744,-76.547685,0.018967,
1320,1190,-0.582664,-4.171221,0.999997,0.000211,-0.002950,0.002811,-0.001465,0.003162,-0.003301,-76.521891,0.003734,
620,1750,1.497562,-2.244349,0.999997,0.000196,-0.003625,0.007514,-0.000009,0.007514,-0.003625,-89.954944,0.007515,
950,400,0.603501,-12.896733,0.999997,0.000204,-0.002775,0.006593,-0.000352,0.006606,-0.002788,-87.851978,0.006633,
1320,40,-0.007621,-15.026714,0.999998,0.000153,-0.000126,0.004453,-0.000161,0.004459,-0.000131,-87.982698,0.005074,
1830,1260,-2.637460,-5.936634,0.999997,0.000202,-0.003658,0.007356,0.000476,0.007376,-0.003679,87.527598,0.007377,
1830,610,-2.158278,-10.585015,0.999996,0.000223,-0.003862,0.007661,-0.000092,0.007661,-0.003863,-89.543185,0.007661,
700,590,1.850050,-10.891785,0.999998,0.000172,-0.004003,0.007795,0.000030,0.007795,-0.004003,89.852377,0.007796,
960,1760,0.440632,-1.527090,0.999997,0.000205,-0.002313,0.006205,-0.000049,0.006205,-0.002313,-89.671752,0.006272,
580,1140,3.072395,-6.843970,0.999998,0.000144,-0.002990,0.006590,-0.000195,0.006594,-0.002994,-88.836017,0.006603,
890,420,0.809961,-12.637649,0.999997,0.000202,-0.003253,0.007074,-0.000319,0.007084,-0.003263,-88.232986,0.007091,
1280,450,-0.089165,-12.945271,0.999999,0.000137,-0.001815,0.005296,0.000181,0.005300,-0.001819,88.544922,0.005386,
1670,1660,-1.092045,-2.509734,0.999997,0.000199,-0.003458,0.007418,-0.000087,0.007419,-0.003459,-89.541058,0.007424,
1540,370,-0.639699,-13.048320,0.999997,0.000200,-0.002625,0.006588,0.000087,0.006589,-0.002626,89.459690,0.006634,
1100,1300,0.323379,-4.038107,0.999996,0.000252,-0.004073,0.006232,0.003021,0.007052,-0.004893,74.809617,0.007227,
1530,1930,-0.196949,-0.547720,0.999998,0.000190,-0.000910,0.005507,0.000787,0.005602,-0.001005,83.105353,0.005974,
1750,530,-1.665055,-11.388461,0.999997,0.000224,-0.003953,0.007753,0.000111,0.007754,-0.003954,89.458419,0.007755,
1060,710,0.455666,-11.127634,0.999996,0.000214,-0.004327,0.007109,-0.002367,0.007580,-0.004797,-78.756515,0.007669,
840,540,1.178769,-11.626739,0.999997,0.000195,-0.004028,0.007800,-0.000395,0.007813,-0.004041,-88.090652,0.007815,
630,270,1.359363,-13.167207,0.999997,0.000197,-0.003648,0.007593,0.000150,0.007595,-0.003650,89.234308,0.007597,
900,170,0.320374,-14.301267,0.999998,0.000175,-0.001447,0.005923,0.000774,0.006003,-0.001527,84.067687,0.006240,
820,1420,1.449095,-4.305324,0.999995,0.000263,-0.004433,0.008182,0.000132,0.008183,-0.004434,89.402802,0.008193,
880,1240,1.666181,-5.724774,0.999996,0.000243,-0.004910,0.009099,-0.000636,0.009128,-0.004939,-87.405232,0.009138,
1210,1680,0.035332,-1.765374,0.999997,0.000190,-0.001668,0.005319,0.000137,0.005322,-0.001671,88.873134,0.005443,
1520,1200,-1.502294,-5.930037,0.999995,0.000268,-0.005275,0.009749,0.000526,0.009767,-0.005294,87.995861,0.009779,
560,430,2.021980,-11.789379,0.999997,0.000000,-0.003595,0.007548,-0.000017,0.007548,-0.003595,-89.912702,0.007551,
1310,690,-0.140531,-11.711683,0.999997,0.000196,-0.002338,0.004453,0.001890,0.004944,-0.002828,75.447775,0.004961,
1730,1450,-1.751822,-4.272912,0.999997,0.000207,-0.004094,0.007901,0.000017,0.007901,-0.004094,89.916912,0.007903,
1250,1510,-0.035154,-2.647837,0.999998,0.000167,-0.001890,0.004904,-0.000285,0.004916,-0.001902,-87.604536,0.004958,
1410,690,-0.471830,-11.229278,0.999995,0.000248,-0.004180,0.007039,0.002193,0.007452,-0.004593,79.323756,0.007519,
1050,670,0.468862,-11.357340,0.999996,0.000236,-0.004009,0.006942,-0.002062,0.007318,-0.004384,-79.682606,0.007365,
1200,1600,0.057110,-2.193694,0.999998,0.000168,-0.001849,0.005269,0.000217,0.005276,-0.001856,88.253777,0.005352,
1890,930,-3.118470,-8.166834,0.999998,0.000167,-0.003193,0.006463,-0.000197,0.006467,-0.003197,-88.831886,0.006467,
1450,730,-0.702255,-10.708305,0.999996,0.000263,-0.005150,0.008367,0.001816,0.008606,-0.005390,82.479348,0.008697,
1880,420,-1.918672,-11.917282,0.999998,0.000199,-0.003705,0.007442,0.000056,0.007442,-0.003706,89.710739,0.007443,
1820,1150,-2.849896,-6.713518,0.999997,0.000218,-0.003359,0.006935,0.000413,0.006952,-0.003376,87.707374,0.006953,
1640,1450,-1.371695,-4.055785,0.999996,0.000218,-0.004295,0.007999,-0.000243,0.008004,-0.004300,-88.866171,0.008012,
1790,70,-0.305013,-14.789078,0.999997,0.000233,-0.001134,0.007185,-0.002926,0.008111,-0.002060,-72.437482,0.008432,
1670,1850,-0.628336,-1.142789,0.999997,0.000222,-0.002694,0.006867,0.000861,0.006944,-0.002770,84.894595,0.006991,
1620,870,-2.024207,-8.843997,0.999996,0.000220,-0.004189,0.008591,-0.001047,0.008676,-0.004274,-85.347251,0.008676,
1110,1540,0.248577,-2.615992,0.999997,0.000196,-0.002376,0.005675,0.000848,0.005763,-0.002464,84.054667,0.005783,
1350,1950,-0.047010,-0.398009,0.999998,0.000156,-0.000471,0.004791,0.000236,0.004802,-0.000482,87.441082,0.005289,
590,120,0.858991,-14.186149,0.999997,0.000215,-0.003596,0.008056,0.001173,0.008173,-0.003713,84.309358,0.008185,
720,1840,0.858820,-1.316675,0.999997,0.000232,-0.003194,0.007377,-0.000769,0.007433,-0.003250,-85.859074,0.007452,
1570,1900,-0.296158,-0.734080,0.999998,0.000178,-0.001391,0.005881,0.000868,0.005983,-0.001493,83.288590,0.006228,
1740,1830,-0.885707,-1.385405,0.999998,0.000187,-0.003174,0.007416,0.000738,0.007467,-0.003225,86.031231,0.007490,
670,1230,2.578833,-6.105790,0.999996,0.000229,-0.003679,0.007397,-0.000634,0.007433,-0.003715,-86.735313,0.007433,
1010,370,0.413646,-13.195288,0.999997,0.000199,-0.002242,0.006179,-0.000244,0.006186,-0.002250,-88.340544,0.006262,
580,1430,2.393819,-4.773235,0.999996,0.000233,-0.004072,0.007377,-0.000473,0.007396,-0.004092,-87.636097,0.007410,
1620,540,-1.166226,-11.634206,0.999997,0.000191,-0.003995,0.007777,0.000427,0.007793,-0.004011,87.923457,0.007794,
750,1250,2.212987,-5.851141,0.999997,0.000222,-0.004097,0.007964,-0.000781,0.008014,-0.004148,-86.311028,0.008016,
1390,970,-1.405299,-8.902666,0.999967,0.000000,-0.005629,0.017548,0.006169,0.019087,-0.007169,75.986482,0.019283,
1260,450,-0.052058,-12.953486,0.999998,0.000198,-0.001817,0.005260,0.000226,0.005267,-0.001825,88.170998,0.005349,
680,590,1.928873,-10.845143,0.999998,0.000159,-0.003913,0.007759,0.000036,0.007759,-0.003913,89.824855,0.007759,
630,1120,2.942582,-6.932419,0.999998,0.000165,-0.003314,0.006888,-0.000434,0.006906,-0.003332,-87.569509,0.006908,
960,1780,0.410543,-1.402864,0.999996,0.000224,-0.002194,0.006163,-0.000164,0.006166,-0.002197,-88.874704,0.006250,
600,1750,1.571620,-2.300191,0.999997,0.000212,-0.003666,0.007458,0.000023,0.007458,-0.003666,89.879261,0.007458,
1480,530,-0.623879,-12.092237,0.999997,0.000216,-0.003438,0.006921,0.000991,0.007015,-0.003532,84.585559,0.007015,
1310,40,-0.007190,-15.026463,0.999999,0.000139,-0.000082,0.004451,-0.000150,0.004456,-0.000087,-88.110673,0.005096,
950,380,0.578903,-13.029206,0.999997,0.000181,-0.002739,0.006542,-0.000298,0.006552,-0.002749,-88.164301,0.006580,
1750,1260,-2.333374,-5.817640,0.999997,0.000215,-0.003968,0.007743,0.000718,0.007786,-0.004012,86.504441,0.007788,
1830,590,-2.109563,-10.739903,0.999997,0.000195,-0.003850,0.007656,-0.000047,0.007656,-0.003851,-89.763965,0.007656,
1310,1190,-0.551193,-4.058204,0.999994,0.000310,-0.003358,0.002410,-0.000960,0.002565,-0.003513,-80.798096,0.003635,
900,230,0.449602,-13.936027,0.999997,0.000192,-0.001940,0.006254,0.000529,0.006288,-0.001974,86.323237,0.006432,
1450,710,-0.671798,-10.872223,0.999996,0.000268,-0.004894,0.008050,0.001811,0.008298,-0.005142,82.184677,0.008377,
1530,1910,-0.229765,-0.655139,0.999998,0.000184,-0.001078,0.005608,0.000724,0.005685,-0.001155,83.891214,0.006010,
1200,1580,0.059621,-2.297617,0.999998,0.000160,-0.001859,0.005210,0.000250,0.005219,-0.001868,87.977270,0.005289,
840,560,1.212721,-11.467073,0.999997,0.000192,-0.004100,0.007834,-0.000400,0.007847,-0.004113,-88.081687,0.007850,
630,250,1.292824,-13.321658,0.999997,0.000208,-0.003629,0.007606,0.000209,0.007609,-0.003633,88.933118,0.007612,
1870,420,-1.880520,-11.940732,0.999998,0.000182,-0.003742,0.007474,0.000088,0.007475,-0.003743,89.550729,0.007475,
1100,1280,0.351971,-4.171980,0.999997,0.000223,-0.004316,0.006355,0.003211,0.007246,-0.005207,74.481170,0.007474,
1750,510,-1.620963,-11.543538,0.999996,0.000234,-0.003927,0.007728,0.000135,0.007729,-0.003929,89.335568,0.007730,
780,1690,1.076248,-2.315817,0.999997,0.000179,-0.003386,0.007372,0.000000,0.007372,-0.003386,89.998590,0.007380,
670,140,0.706962,-14.263838,0.999997,0.000214,-0.002725,0.007519,0.001708,0.007796,-0.003002,80.776315,0.007865,
820,1400,1.493621,-4.471039,0.999996,0.000261,-0.004516,0.008271,0.000066,0.008271,-0.004517,89.703723,0.008283,
1790,490,-1.733054,-11.602087,0.999997,0.000213,-0.003841,0.007703,0.000120,0.007704,-0.003842,89.405924,0.007704,
920,1670,0.666485,-2.175006,0.999997,0.000206,-0.002779,0.006744,0.000174,0.006747,-0.002783,88.955000,0.006782,
1600,870,-1.938362,-8.871322,0.999995,0.000266,-0.004291,0.008756,-0.001045,0.008840,-0.004374,-85.447649,0.008840,
1050,650,0.457519,-11.496484,0.999996,0.000235,-0.003788,0.006792,-0.001898,0.007122,-0.004119,-80.129831,0.007151,
740,1550,1.507187,-3.471648,0.999996,0.000233,-0.003898,0.007717,0.000179,0.007720,-0.003900,89.117584,0.007720,
590,110,0.800011,-14.267697,0.999997,0.000194,-0.003582,0.008144,0.001374,0.008303,-0.003741,83.404238,0.008316,
750,1860,0.705635,-1.125086,0.999996,0.000229,-0.002470,0.007136,-0.001161,0.007274,-0.002608,-83.206706,0.007370,
1010,350,0.398271,-13.317926,0.999997,0.000205,-0.002123,0.006058,-0.000201,0.006063,-0.002128,-88.592383,0.006152,
1310,670,-0.144164,-11.799866,0.999998,0.000184,-0.002277,0.004571,0.001643,0.004945,-0.002650,77.183319,0.004949,
1520,1180,-1.588155,-6.124331,0.999996,0.000240,-0.005014,0.009763,0.000735,0.009799,-0.005050,87.161360,0.009801,
1220,710,0.017561,-11.795611,0.999999,0.000134,-0.001505,0.003054,-0.000421,0.003092,-0.001543,-84.771022,0.003092,
1640,450,-1.088268,-12.268576,0.999997,0.000203,-0.003627,0.007452,0.000276,0.007459,-0.003634,88.575284,0.007460,
1060,670,0.429173,-11.406295,0.999997,0.000190,-0.003852,0.006724,-0.002085,0.007120,-0.004248,-79.242388,0.007164,
880,1220,1.736276,-5.905163,0.999996,0.000224,-0.004786,0.009065,-0.000786,0.009109,-0.004831,-86.761963,0.009115,
1350,1930,-0.062204,-0.496749,0.999998,0.000138,-0.000576,0.004881,0.000225,0.004890,-0.000585,87.644317,0.005341,
750,1230,2.269337,-6.009851,0.999997,0.000209,-0.004021,0.007955,-0.000848,0.008015,-0.004081,-85.968182,0.008016,
1690,1720,-1.032132,-2.109582,0.999998,0.000193,-0.003282,0.007395,0.000113,0.007397,-0.003284,89.392532,0.007412,
970,290,0.410763,-13.637559,0.999997,0.000195,-0.002170,0.006153,0.000084,0.006154,-0.002171,89.422317,0.006242,
1730,1210,-2.392924,-6.189030,0.999996,0.000237,-0.003831,0.007780,0.000831,0.007839,-0.003891,85.925599,0.007839,
590,1030,3.140538,-7.544093,0.999997,0.000194,-0.003032,0.006480,-0.000026,0.006480,-0.003032,-89.843480,0.006485,
1410,670,-0.453977,-11.371221,0.999996,0.000240,-0.003984,0.006848,0.002057,0.007226,-0.004361,79.600158,0.007277,
1220,1990,0.002940,-0.205110,0.999999,0.000127,-0.000262,0.004552,-0.000019,0.004552,-0.000263,-89.769246,0.005112,
1250,1490,-0.034774,-2.744504,0.999998,0.000172,-0.001865,0.004756,-0.000316,0.004771,-0.001880,-87.276876,0.004807,
1800,1990,-0.281347,-0.300259,0.999996,0.000237,-0.000913,0.007130,0.002930,0.008084,-0.001866,71.963901,0.008466,
1660,270,-0.779965,-13.541212,0.999997,0.000174,-0.002988,0.007054,-0.000423,0.007071,-0.003006,-87.593724,0.007098,
1330,890,-0.848064,-10.745669,0.999996,0.000000,-0.001531,0.003122,0.002813,0.004446,-0.002856,64.796486,0.004506,
860,430,0.923773,-12.503087,0.999998,0.000243,-0.003376,0.007280,-0.000304,0.007289,-0.003385,-88.368056,0.007295,
750,1180,2.404314,-6.406204,0.999997,0.000212,-0.003774,0.007794,-0.000857,0.007857,-0.003837,-85.788214,0.007858,
1300,40,-0.006911,-15.026273,0.999998,0.000151,-0.000057,0.004455,-0.000124,0.004459,-0.000060,-88.425005,0.005114,
1660,1180,-2.203922,-6.361735,0.999996,0.000258,-0.003919,0.008207,0.000964,0.008284,-0.003995,85.482595,0.008285,
1600,1480,-1.145406,-3.707167,0.999997,0.000202,-0.004175,0.007892,-0.000513,0.007914,-0.004197,-87.569868,0.007919,
1730,1460,-1.728281,-4.192387,0.999996,0.000255,-0.004076,0.007886,-0.000002,0.007886,-0.004076,-89.991433,0.007888,
780,730,1.868518,-9.934458,0.999997,0.000204,-0.004415,0.008290,0.000466,0.008307,-0.004432,87.900453,0.008314,
1530,1890,-0.272837,-0.772696,0.999998,0.000187,-0.001280,0.005718,0.000689,0.005785,-0.001348,84.428421,0.006054,
670,1210,2.626438,-6.251296,0.999996,0.000223,-0.003609,0.007343,-0.000644,0.007380,-0.003646,-86.647567,0.007381,
1430,1280,-0.690570,-4.677257,0.999996,0.000253,-0.005567,0.008707,-0.002134,0.009020,-0.005880,-81.677121,0.009157,
1790,720,-2.284714,-9.821084,0.999997,0.000211,-0.003933,0.007710,-0.000425,0.007726,-0.003948,-87.914086,0.007726,
1750,490,-1.578965,-11.700473,0.999996,0.000236,-0.003874,0.007699,0.000141,0.007700,-0.003876,89.303411,0.007701,
560,800,2.910448,-9.008289,0.999989,0.000000,-0.003896,0.006624,-0.000197,0.006628,-0.003900,-88.927224,0.006662,
1890,1720,-1.749196,-2.600839,0.999996,0.000215,-0.003695,0.007348,-0.000041,0.007349,-0.003695,-89.788196,0.007349,
760,1690,1.142006,-2.357345,0.999998,0.000145,-0.003395,0.007442,-0.000080,0.007443,-0.003395,-89.575160,0.007452,
910,300,0.563730,-13.495430,0.999998,0.000189,-0.002299,0.006530,0.000204,0.006534,-0.002304,88.677422,0.006628,
630,230,1.224608,-13.472940,0.999997,0.000201,-0.003614,0.007618,0.000310,0.007627,-0.003622,88.418177,0.007630,
1790,510,-1.776558,-11.448579,0.999997,0.000193,-0.003842,0.007684,0.000119,0.007686,-0.003843,89.408305,0.007686,
1100,1260,0.388721,-4.294604,0.999996,0.000255,-0.004571,0.006635,0.003362,0.007566,-0.005502,74.517289,0.007822,
1730,1170,-2.490985,-6.495736,0.999996,0.000241,-0.003659,0.007721,0.000845,0.007783,-0.003721,85.778263,0.007786,
1410,650,-0.445669,-11.508201,0.999996,0.000223,-0.003765,0.006736,0.001891,0.007066,-0.004096,80.097687,0.007096,
1730,1260,-2.252853,-5.792637,0.999997,0.000220,-0.004060,0.007876,0.000728,0.007920,-0.004105,86.522654,0.007922,
840,1030,2.352458,-7.539220,0.999996,0.000255,-0.002903,0.007874,-0.000052,0.007875,-0.002903,-89.723400,0.007965,
1250,1470,-0.033941,-2.840562,0.999998,0.000149,-0.001830,0.004633,-0.000331,0.004650,-0.001847,-87.074596,0.004683,
650,140,0.761021,-14.231424,0.999995,0.000252,-0.002954,0.007734,0.001524,0.007947,-0.003167,82.043889,0.008002,
730,1860,0.756782,-1.152719,0.999997,0.000200,-0.002787,0.007278,-0.001049,0.007386,-0.002895,-84.114605,0.007443,
1400,1650,-0.319074,-2.056805,0.999998,0.000181,-0.002332,0.005929,-0.000521,0.005962,-0.002365,-86.405968,0.006004,
1180,1290,0.087128,-3.577519,0.999997,0.000202,-0.002120,0.002906,0.002026,0.003621,-0.002836,70.560817,0.003810,
1020,1990,0.048388,-0.217073,0.999998,0.000154,-0.000277,0.004844,-0.000519,0.004896,-0.000329,-84.266708,0.005473,
1620,520,-1.131750,-11.790710,0.999997,0.000202,-0.003900,0.007643,0.000428,0.007659,-0.003915,87.877019,0.007660,
840,1000,2.336309,-7.775783,0.999997,0.000226,-0.002953,0.007799,0.000330,0.007809,-0.002963,88.241001,0.007884,
1050,630,0.450119,-11.627795,0.999996,0.000233,-0.003562,0.006592,-0.001713,0.006873,-0.003843,-80.675132,0.006889,
1040,790,0.688299,-10.362032,0.999996,0.000217,-0.005646,0.008727,-0.002187,0.009052,-0.005971,-81.535709,0.009205,
1500,1150,-1.636743,-6.356134,0.999995,0.000268,-0.004723,0.010036,0.000727,0.010072,-0.004758,87.186576,0.010077,
610,1120,3.008844,-6.947553,0.999998,0.000153,-0.003240,0.006748,-0.000354,0.006761,-0.003253,-87.971754,0.006762,
880,230,0.492323,-13.913123,0.999997,0.000200,-0.002308,0.006402,0.000519,0.006433,-0.002339,86.598924,0.006512,
1310,650,-0.146188,-11.889629,0.999998,0.000172,-0.002223,0.004709,0.001428,0.004991,-0.002505,78.805605,0.004991,
1530,1870,-0.305708,-0.884459,0.999998,0.000192,-0.001433,0.005836,0.000596,0.005884,-0.001481,85.341828,0.006121,
1390,960,-1.374373,-9.052618,0.999967,0.000000,-0.004847,0.015010,0.006440,0.016916,-0.006753,73.514345,0.017030,
1390,320,-0.242049,-13.571050,0.999997,0.000191,-0.001666,0.005705,0.000065,0.005706,-0.001666,89.493937,0.005868,
1450,1130,-1.502993,-6.333558,0.999994,0.000273,-0.004815,0.010962,-0.000413,0.010973,-0.004826,-88.502372,0.010999,
1060,650,0.422372,-11.538736,0.999996,0.000228,-0.003631,0.006612,-0.001930,0.006963,-0.003982,-79.677217,0.006987,
1750,470,-1.538447,-11.852718,0.999996,0.000232,-0.003832,0.007657,0.000123,0.007658,-0.003834,89.385063,0.007658,
750,1210,2.325293,-6.169050,0.999997,0.000219,-0.003939,0.007944,-0.000890,0.008010,-0.004005,-85.741725,0.008010,
1200,1560,0.058992,-2.403656,0.999999,0.000139,-0.001888,0.005174,0.000268,0.005184,-0.001898,87.826557,0.005246,
1200,710,0.046544,-11.769435,0.999998,0.000188,-0.001653,0.003274,-0.000985,0.003463,-0.001843,-79.103213,0.003466,
1890,1280,-2.801954,-5.909116,0.999996,0.000215,-0.003529,0.007140,0.000141,0.007142,-0.003531,89.241601,0.007142,
710,1520,1.687971,-3.776843,0.999998,0.000223,-0.003957,0.007751,0.000095,0.007752,-0.003958,89.536503,0.007752,
1780,2010,-0.158121,-0.163464,0.999997,0.000211,-0.000558,0.006331,0.002621,0.007215,-0.001442,71.364681,0.007635,
710,1210,2.479617,-6.210437,0.999996,0.000230,-0.003764,0.007599,-0.000756,0.007650,-0.003814,-86.211767,0.007650,
1880,1720,-1.712123,-2.574048,0.999997,0.000187,-0.003681,0.007382,-0.000082,0.007383,-0.003681,-89.573492,0.007383,
820,370,0.947720,-12.857713,0.999997,0.000187,-0.003291,0.007266,-0.000009,0.007266,-0.003291,-89.949994,0.007276,
1850,420,-1.806778,-11.990095,0.999998,0.000180,-0.003722,0.007524,0.000106,0.007525,-0.003723,89.458758,0.007525,
1600,1460,-1.178744,-3.866139,0.999997,0.000201,-0.004280,0.007931,-0.000458,0.007948,-0.004297,-87.855250,0.007957,
880,460,0.902019,-12.331924,0.999998,0.000200,-0.003481,0.007279,-0.000443,0.007297,-0.003500,-87.649102,0.007300,
1770,740,-2.259871,-9.700141,0.999997,0.000218,-0.003981,0.007830,-0.000537,0.007854,-0.004005,-87.401242,0.007855,
1660,1160,-2.255670,-6.523840,0.999997,0.000261,-0.003752,0.008090,0.000967,0.008168,-0.003830,85.362513,0.008174,
670,1190,2.675246,-6.398311,0.999996,0.000237,-0.003596,0.007385,-0.000687,0.007428,-0.003639,-86.433625,0.007429,
630,210,1.145853,-13.629128,0.999997,0.000212,-0.003597,0.007692,0.000392,0.007705,-0.003610,88.011208,0.007710,
1100,1240,0.437838,-4.434232,0.999994,0.000298,-0.004731,0.006730,0.003380,0.007653,-0.005654,74.732891,0.007938,
1000,1290,0.847314,-4.790571,0.999996,0.000267,-0.005617,0.008998,0.001463,0.009143,-0.005762,84.339384,0.009246,
1890,1360,-2.596312,-5.321775,0.999996,0.000215,-0.003659,0.007496,0.000093,0.007497,-0.003660,89.521112,0.007498,
950,280,0.440472,-13.673960,0.999997,0.000199,-0.002212,0.006274,0.000174,0.006278,-0.002215,88.826613,0.006368,
1690,180,-0.598228,-14.125801,0.999997,0.000191,-0.002429,0.006828,-0.001114,0.006960,-0.002561,-83.232901,0.007040,
1730,1150,-2.540241,-6.651624,0.999997,0.000213,-0.003555,0.007592,0.000743,0.007641,-0.003604,86.204679,0.007645,
560,780,2.877452,-9.134415,0.999974,0.000000,-0.004216,0.006819,-0.000150,0.006821,-0.004218,-89.221563,0.006884,
1790,530,-1.820583,-11.293200,0.999997,0.000201,-0.003867,0.007692,0.000083,0.007692,-0.003868,89.589586,0.007692,
1880,190,-1.238969,-13.615210,0.999997,0.000199,-0.003655,0.007506,-0.000385,0.007519,-0.003669,-88.025847,0.007520,
870,980,2.226682,-7.942723,0.999997,0.000249,-0.003015,0.008124,0.000628,0.008160,-0.003050,86.784436,0.008246,
1410,630,-0.439114,-11.638960,0.999997,0.000208,-0.003548,0.006566,0.001728,0.006853,-0.003835,80.568044,0.006869,
1830,570,-2.063161,-10.890583,0.999998,0.000182,-0.003816,0.007668,0.000010,0.007668,-0.003816,89.949977,0.007668,
1400,1690,-0.292545,-1.819289,0.999997,0.000220,-0.002098,0.005869,-0.000296,0.005880,-0.002109,-87.878056,0.005958,
940,40,0.037696,-15.016266,0.999998,0.000157,-0.000169,0.004867,0.000718,0.004967,-0.000269,82.045484,0.005587,
1000,1990,0.053240,-0.217775,0.999999,0.000114,-0.000236,0.004903,-0.000604,0.004973,-0.000306,-83.381293,0.005574,
1250,1450,-0.033387,-2.930099,0.999998,0.000152,-0.001795,0.004461,-0.000382,0.004484,-0.001819,-86.520253,0.004511,
730,1840,0.828513,-1.298710,0.999997,0.000229,-0.002958,0.007338,-0.000889,0.007414,-0.003034,-85.098991,0.007455,
1620,500,-1.096508,-11.941369,0.999996,0.000240,-0.003765,0.007541,0.000404,0.007556,-0.003779,87.955017,0.007556,
1530,1850,-0.347304,-1.008417,0.999998,0.000196,-0.001606,0.005987,0.000575,0.006030,-0.001649,85.693299,0.006233,
1760,1150,-2.644827,-6.669321,0.999997,0.000206,-0.003526,0.007352,0.000626,0.007387,-0.003562,86.718829,0.007389,
1390,30,-0.007104,-15.071788,0.999999,0.000000,-0.000053,0.004605,-0.000344,0.004630,-0.000078,-85.802449,0.005301,
840,980,2.320674,-7.932677,0.999997,0.000223,-0.003058,0.007893,0.000566,0.007922,-0.003087,87.048080,0.007986,
1180,1330,0.083124,-3.456721,0.999998,0.000190,-0.001933,0.003391,0.001667,0.003870,-0.002412,73.968763,0.003909,
1750,450,-1.495459,-12.009007,0.999996,0.000228,-0.003791,0.007608,0.000146,0.007610,-0.003793,89.265967,0.007610,
860,250,0.588896,-13.755785,0.999997,0.000217,-0.002476,0.006618,0.000503,0.006646,-0.002504,86.842202,0.006713,
1520,1160,-1.682753,-6.324202,0.999996,0.000228,-0.004674,0.009709,0.000888,0.009764,-0.004729,86.482164,0.009765,
1660,1140,-2.311651,-6.686879,0.999997,0.000228,-0.003580,0.008032,0.000954,0.008110,-0.003658,85.332851,0.008123,
1350,1910,-0.071675,-0.592774,0.999999,0.000128,-0.000704,0.005005,0.000212,0.005013,-0.000712,87.871276,0.005424,
1310,630,-0.150294,-11.982909,0.999998,0.000168,-0.002205,0.004826,0.001282,0.005053,-0.002432,79.981735,0.005054,
1190,2010,0.005309,-0.114662,0.999999,0.000130,-0.000107,0.004499,-0.000055,0.004499,-0.000107,-89.311279,0.005135,
1880,1280,-2.766235,-5.886174,0.999996,0.000241,-0.003548,0.007202,0.000186,0.007205,-0.003551,89.008117,0.007205,
630,190,1.066973,-13.781536,0.999997,0.000210,-0.003570,0.007700,0.000528,0.007725,-0.003595,87.324729,0.007731,
920,1740,0.563887,-1.707279,0.999997,0.000206,-0.002333,0.006500,-0.000094,0.006501,-0.002334,-89.393105,0.006587,
1470,1720,-0.416441,-1.733039,0.999997,0.000199,-0.002122,0.006160,-0.000072,0.006161,-0.002123,-89.499844,0.006259,
980,1290,0.960472,-4.895509,0.999996,0.000274,-0.005591,0.009152,0.001061,0.009228,-0.005666,85.905378,0.009308,
1510,720,-0.994472,-10.505712,0.999998,0.000172,-0.005181,0.008771,0.000963,0.008837,-0.005247,86.068965,0.008889,
1710,1600,-1.356735,-3.056052,0.999997,0.000195,-0.003749,0.007602,-0.000182,0.007605,-0.003752,-89.081089,0.007605,
1890,1350,-2.622869,-5.396353,0.999996,0.000227,-0.003655,0.007410,0.000106,0.007411,-0.003656,89.450454,0.007412,
870,1520,1.049148,-3.377497,0.999997,0.000190,-0.003912,0.007668,0.000530,0.007692,-0.003936,87.385743,0.007693,
1360,690,-0.282382,-11.485740,0.999996,0.000218,-0.003300,0.005761,0.002359,0.006338,-0.003877,76.244398,0.006391,
900,150,0.277503,-14.419941,0.999998,0.000179,-0.001254,0.005819,0.000852,0.005920,-0.001355,83.229341,0.006203,
1010,330,0.378292,-13.437682,0.999997,0.000193,-0.002028,0.006095,-0.000077,0.006096,-0.002029,-89.459439,0.006208,
1120,1930,0.057173,-0.494197,0.999999,0.000126,-0.000593,0.004851,-0.000182,0.004857,-0.000599,-88.083401,0.005296,
1670,180,-0.548128,-14.150360,0.999997,0.000201,-0.002451,0.006681,-0.001004,0.006790,-0.002560,-83.797277,0.006858,
1530,1830,-0.379706,-1.123879,0.999998,0.000178,-0.001745,0.006000,0.000489,0.006031,-0.001776,86.402484,0.006199,
1470,300,-0.377266,-13.603020,0.999996,0.000221,-0.001915,0.006057,-0.000084,0.006058,-0.001916,-89.398147,0.006193,
1650,900,-2.231868,-8.563472,0.999997,0.000215,-0.003763,0.008125,-0.000984,0.008206,-0.003844,-85.301825,0.008212,
1790,550,-1.863392,-11.138965,0.999997,0.000200,-0.003886,0.007686,0.000052,0.007686,-0.003887,89.743628,0.007686,
1860,590,-2.224727,-10.668838,0.999997,0.000191,-0.003831,0.007644,-0.000040,0.007645,-0.003831,-89.802587,0.007645,
1410,610,-0.433128,-11.769625,0.999996,0.000231,-0.003389,0.006549,0.001620,0.006806,-0.003647,80.970488,0.006812,
670,1170,2.720709,-6.548344,0.999996,0.000229,-0.003525,0.007278,-0.000590,0.007310,-0.003557,-86.882652,0.007311,
1260,1610,-0.052802,-2.140578,0.999998,0.000179,-0.001832,0.005277,-0.000207,0.005283,-0.001838,-88.331177,0.005364,
800,1090,2.419876,-7.080899,0.999997,0.000195,-0.003238,0.007723,-0.000641,0.007760,-0.003276,-86.662219,0.007791,
1100,1220,0.526942,-4.561807,0.999995,0.000271,-0.004762,0.006843,0.003378,0.007754,-0.005674,74.897377,0.008027,
860,110,0.232903,-14.631930,0.999998,0.000170,-0.001127,0.005779,0.001132,0.005960,-0.001308,80.924780,0.006265,
1780,2000,-0.209080,-0.224702,0.999998,0.000186,-0.000782,0.006609,0.002704,0.007493,-0.001666,71.901615,0.007869,
1090,1860,0.126676,-0.855973,0.999999,0.000145,-0.000916,0.005212,-0.000237,0.005221,-0.000925,-87.791537,0.005573,
1600,1440,-1.215356,-4.026095,0.999997,0.000204,-0.004420,0.008009,-0.000433,0.008024,-0.004435,-88.007855,0.008039,
1380,2020,-0.012351,-0.071513,0.999998,0.000000,-0.000001,0.004565,0.000283,0.004582,-0.000018,86.467597,0.005281,
1480,1150,-1.536700,-6.277244,0.999995,0.000258,-0.004966,0.010372,0.000385,0.010381,-0.004976,88.563666,0.010384,
1400,1670,-0.306135,-1.937742,0.999998,0.000173,-0.002233,0.005874,-0.000412,0.005895,-0.002254,-87.096848,0.005950,
1410,320,-0.279886,-13.550291,0.999998,0.000184,-0.001994,0.005813,0.000148,0.005816,-0.001997,88.917100,0.005910,
1750,430,-1.455335,-12.157918,0.999996,0.000232,-0.003746,0.007606,0.000139,0.007608,-0.003747,89.298763,0.007608,
960,1010,2.014673,-7.724677,0.999998,0.000175,-0.002916,0.009588,0.000225,0.009592,-0.002920,88.968132,0.009834,
1450,1150,-1.382028,-6.112083,0.999994,0.000284,-0.005171,0.010761,-0.000406,0.010772,-0.005182,-88.542413,0.010774,
1250,1430,-0.030772,-3.019234,0.999998,0.000157,-0.001747,0.004241,-0.000407,0.004269,-0.001775,-86.129411,0.004289,
560,770,2.854177,-9.205151,0.999951,0.000000,-0.004329,0.007031,-0.000080,0.007031,-0.004329,-89.595390,0.007094,
930,40,0.039586,-15.016841,0.999999,0.000136,-0.000123,0.004909,0.000792,0.005030,-0.000245,81.259158,0.005672,
860,230,0.538911,-13.889949,0.999997,0.000251,-0.002314,0.006532,0.000600,0.006572,-0.002354,86.135009,0.006660,
1620,480,-1.066055,-12.091347,0.999997,0.000200,-0.003652,0.007483,0.000378,0.007495,-0.003664,88.058858,0.007496,
1200,1990,0.007236,-0.206169,0.999999,0.000138,-0.000208,0.004569,-0.000080,0.004570,-0.000209,-89.040341,0.005161,
1020,770,0.748476,-10.403579,0.999996,0.000217,-0.005594,0.008838,-0.001874,0.009077,-0.005833,-82.719894,0.009199,
1050,610,0.443793,-11.758751,0.999997,0.000213,-0.003415,0.006539,-0.001587,0.006786,-0.003662,-81.157072,0.006793,
1200,1540,0.059086,-2.506633,0.999998,0.000155,-0.001878,0.005078,0.000263,0.005088,-0.001888,87.837025,0.005144,
750,1630,1.306652,-2.834563,0.999996,0.000246,-0.003700,0.007584,0.000141,0.007585,-0.003702,89.283864,0.007586,
1660,1120,-2.356337,-6.845435,0.999997,0.000219,-0.003418,0.007827,0.000773,0.007880,-0.003471,86.085921,0.007899,
1220,450,0.020708,-12.960862,0.999998,0.000158,-0.001851,0.005251,-0.000142,0.005254,-0.001854,-88.852846,0.005329,
710,1190,2.528285,-6.361436,0.999997,0.000223,-0.003692,0.007561,-0.000763,0.007613,-0.003744,-86.139306,0.007613,
1530,1810,-0.420167,-1.248299,0.999997,0.000200,-0.001930,0.006164,0.000419,0.006185,-0.001952,87.041000,0.006324,
650,1500,1.965675,-4.072296,0.999998,0.000168,-0.003838,0.007663,0.000029,0.007663,-0.003838,89.855927,0.007663,
630,170,0.975892,-13.940524,0.999997,0.000205,-0.003572,0.007820,0.000713,0.007864,-0.003617,86.432044,0.007873,
880,1200,1.812732,-6.088941,0.999996,0.000235,-0.004585,0.009021,-0.000930,0.009084,-0.004648,-86.108379,0.009085,
1410,590,-0.424922,-11.902578,0.999996,0.000218,-0.003302,0.006412,0.001507,0.006641,-0.003530,81.379509,0.006645,
1520,1140,-1.772159,-6.517389,0.999997,0.000220,-0.004286,0.009646,0.000981,0.009715,-0.004354,85.991050,0.009733,
1710,1260,-2.170985,-5.765663,0.999997,0.000214,-0.004117,0.008055,0.000738,0.008100,-0.004162,86.543020,0.008101,
1180,1310,0.084347,-3.518904,0.999998,0.000169,-0.002002,0.003159,0.001864,0.003762,-0.002605,72.082687,0.003853,
1880,180,-1.194377,-13.692300,0.999996,0.000217,-0.003662,0.007594,-0.000477,0.007614,-0.003682,-87.578148,0.007616,
710,60,0.205795,-14.870504,0.999995,0.000275,-0.001319,0.006427,0.002292,0.007054,-0.001947,74.692146,0.007286,
1170,840,0.281883,-11.282232,0.999994,0.000300,-0.003739,0.002544,-0.001070,0.002721,-0.003916,-80.592703,0.004014,
600,1310,2.626597,-5.627847,0.999997,0.000207,-0.003652,0.007360,-0.000260,0.007366,-0.003658,-88.646806,0.007366,
1360,380,-0.225051,-13.255646,0.999998,0.000168,-0.001846,0.005677,0.000232,0.005684,-0.001853,88.238164,0.005797,
1490,1720,-0.461782,-1.759902,0.999997,0.000200,-0.002425,0.006332,-0.000154,0.006335,-0.002428,-88.989952,0.006393,
1850,600,-2.209853,-10.615242,0.999996,0.000237,-0.003811,0.007645,-0.000055,0.007646,-0.003811,-89.725413,0.007646,
1490,540,-0.668878,-11.991413,0.999996,0.000248,-0.003611,0.007078,0.001001,0.007171,-0.003704,84.696301,0.007172,
1150,2010,0.009101,-0.114845,0.999999,0.000133,-0.000100,0.004504,-0.000130,0.004508,-0.000104,-88.381189,0.005146,
850,1680,0.866625,-2.243758,0.999998,0.000158,-0.003081,0.007040,0.000065,0.007040,-0.003081,89.632521,0.007058,
1790,990,-2.854848,-7.825587,0.999998,0.000166,-0.003264,0.006986,-0.000194,0.006989,-0.003268,-88.913619,0.006994,
1100,1200,0.621855,-4.705021,0.999993,0.000315,-0.004151,0.006474,0.003437,0.007488,-0.005165,73.549148,0.007666,
1380,1130,-1.207010,-5.443791,0.999996,0.000000,-0.002758,0.009703,-0.005827,0.012004,-0.005059,-68.459112,0.012053,
1550,820,-1.514972,-9.435902,0.999993,0.000309,-0.005234,0.009429,-0.000451,0.009443,-0.005248,-88.238217,0.009463,
840,130,0.313357,-14.503012,0.999997,0.000206,-0.001227,0.006009,0.001203,0.006204,-0.001422,80.804735,0.006500,
880,130,0.257368,-14.524184,0.999998,0.000189,-0.001376,0.005765,0.000938,0.005886,-0.001497,82.638196,0.006118,
1150,1190,0.562910,-4.089054,0.999997,0.000249,-0.003190,0.002465,0.001134,0.002683,-0.003409,79.075884,0.003591,
1010,310,0.357115,-13.562065,0.999997,0.000206,-0.001911,0.005985,-0.000011,0.005985,-0.001911,-89.920252,0.006115,
1750,410,-1.412394,-12.312134,0.999996,0.000245,-0.003706,0.007593,0.000113,0.007594,-0.003707,89.427023,0.007595,
1120,1990,0.023120,-0.208586,0.999998,0.000174,-0.000263,0.004644,-0.000227,0.004655,-0.000273,-87.362042,0.005224,
1600,1420,-1.255390,-4.187983,0.999997,0.000195,-0.004529,0.008227,-0.000398,0.008239,-0.004541,-88.214066,0.008254,
1720,1830,-0.826098,-1.354344,0.999998,0.000172,-0.002783,0.007269,0.000921,0.007352,-0.002867,84.807922,0.007411,
1080,1690,0.258617,-1.800001,0.999998,0.000183,-0.001895,0.005731,0.000225,0.005737,-0.001902,88.312153,0.005845,
1620,460,-1.032875,-12.241453,0.999997,0.000228,-0.003582,0.007438,0.000338,0.007448,-0.003593,88.244032,0.007450,
1200,450,0.058634,-12.952100,0.999998,0.000172,-0.001848,0.005272,-0.000211,0.005278,-0.001854,-88.302233,0.005356,
1250,1410,-0.030156,-3.101074,0.999998,0.000155,-0.001701,0.004022,-0.000418,0.004052,-0.001731,-85.842527,0.004066,
660,1010,2.908827,-7.682974,0.999998,0.000176,-0.003247,0.006992,0.000234,0.006997,-0.003253,88.694270,0.007003,
1510,500,-0.700209,-12.219979,0.999997,0.000194,-0.003470,0.007060,0.000780,0.007118,-0.003527,85.787815,0.007118,
630,150,0.878381,-14.096887,0.999997,0.000211,-0.003550,0.007779,0.000890,0.007849,-0.003619,85.536920,0.007857,
920,1720,0.592892,-1.841041,0.999998,0.000205,-0.002432,0.006675,-0.000043,0.006675,-0.002432,-89.729335,0.006757,
1530,1790,-0.452176,-1.370187,0.999997,0.000215,-0.002053,0.006223,0.000295,0.006233,-0.002064,87.961340,0.006351,
630,1500,2.041187,-4.118988,0.999997,0.000199,-0.003796,0.007638,0.000041,0.007638,-0.003796,89.793898,0.007638,
920,40,0.040764,-15.017162,0.999999,0.000131,-0.000099,0.004937,0.000854,0.005078,-0.000240,80.630804,0.005730,
1340,730,-0.225243,-11.372998,0.999996,0.000242,-0.003281,0.005206,0.002764,0.006027,-0.004102,73.461724,0.006156,
1660,1100,-2.391862,-7.001690,0.999996,0.000238,-0.003283,0.007752,0.000729,0.007800,-0.003330,86.237381,0.007827,
1020,310,0.337000,-13.572362,0.999997,0.000219,-0.001945,0.005933,-0.000053,0.005933,-0.001945,-89.616490,0.006049,
1830,550,-2.018497,-11.045098,0.999997,0.000186,-0.003814,0.007643,0.000054,0.007643,-0.003814,89.730161,0.007643,
750,1650,1.264371,-2.683025,0.999996,0.000235,-0.003657,0.007560,0.000101,0.007561,-0.003658,89.482176,0.007562,
1670,540,-1.365944,-11.505718,0.999997,0.000212,-0.004037,0.007821,0.000239,0.007826,-0.004042,88.843556,0.007828,
1410,570,-0.418063,-12.028624,0.999997,0.000202,-0.003215,0.006329,0.001380,0.006525,-0.003410,81.934832,0.006527,
1150,840,0.349610,-11.095568,0.999989,0.000379,-0.003318,0.003278,-0.001984,0.003829,-0.003869,-74.481968,0.004445,
1880,1370,-2.534509,-5.221139,0.999997,0.000232,-0.003692,0.007557,0.000088,0.007558,-0.003693,89.550706,0.007558,
1490,520,-0.650051,-12.133865,0.999998,0.000214,-0.003464,0.006953,0.000916,0.007033,-0.003544,85.012517,0.007033,
700,1290,2.299580,-5.605076,0.999998,0.000208,-0.003946,0.007767,-0.000600,0.007798,-0.003977,-87.076352,0.007798,
1630,900,-2.157238,-8.580545,0.999997,0.000205,-0.003812,0.008276,-0.000993,0.008357,-0.003893,-85.336658,0.008364,
1060,1310,0.492460,-4.248630,0.999997,0.000193,-0.004775,0.007497,0.002597,0.008024,-0.005301,78.530692,0.008161,
1880,120,-0.883590,-14.160768,0.999997,0.000211,-0.003544,0.008128,-0.001210,0.008252,-0.003668,-84.143566,0.008269,
1650,1340,-1.676747,-4.991998,0.999996,0.000232,-0.004612,0.008417,0.000266,0.008422,-0.004618,88.830773,0.008435,
810,820,2.006376,-9.225568,0.999997,0.000214,-0.004321,0.008479,0.000846,0.008535,-0.004377,86.233436,0.008536,
970,1640,0.561826,-2.282812,0.999997,0.000192,-0.002850,0.006581,0.000485,0.006605,-0.002875,87.062826,0.006624,
880,1160,1.958887,-6.447889,0.999997,0.000194,-0.004104,0.008865,-0.001100,0.008957,-0.004197,-85.184486,0.008963,
1310,610,-0.153783,-12.080462,0.999998,0.000172,-0.002184,0.004914,0.001148,0.005095,-0.002365,81.034199,0.005099,
560,760,2.822082,-9.281749,0.999910,0.000000,-0.004459,0.007337,-0.000169,0.007339,-0.004461,-89.177429,0.007396,
1100,1180,0.772478,-4.824589,0.999995,0.000272,-0.003070,0.005669,0.003414,0.006844,-0.004246,70.998586,0.006910,
1400,1630,-0.330952,-2.177312,0.999998,0.000166,-0.002446,0.005992,-0.000615,0.006037,-0.002491,-85.850670,0.006068,
1450,1170,-1.263590,-5.892667,0.999994,0.000288,-0.005542,0.010527,-0.000543,0.010545,-0.005560,-88.066690,0.010550,
1790,970,-2.844206,-7.965782,0.999998,0.000178,-0.003298,0.006975,-0.000225,0.006980,-0.003303,-88.747443,0.006984,
1140,2010,0.010412,-0.115462,0.999999,0.000123,-0.000147,0.004513,-0.000147,0.004518,-0.000151,-88.200502,0.005131,
1520,1360,-0.993787,-4.435710,0.999997,0.000203,-0.004976,0.008537,-0.000908,0.008597,-0.005037,-86.172355,0.008639,
1530,1770,-0.487025,-1.499226,0.999997,0.000197,-0.002217,0.006415,0.000231,0.006422,-0.002223,88.467652,0.006522,
1200,1520,0.060940,-2.606717,0.999998,0.000175,-0.001883,0.004979,0.000301,0.004993,-0.001896,87.495060,0.005040,
1380,1120,-1.249568,-5.559921,0.999989,0.000000,-0.002932,0.010904,-0.006365,0.013387,-0.005415,-68.691333,0.013469,
710,1170,2.576651,-6.514206,0.999997,0.000222,-0.003631,0.007561,-0.000774,0.007614,-0.003684,-86.061921,0.007615,
1740,1580,-1.510217,-3.279895,0.999997,0.000203,-0.003812,0.007678,-0.000161,0.007680,-0.003815,-89.198658,0.007680,
1440,130,-0.124456,-14.578093,0.999998,0.000187,-0.000746,0.005132,-0.000439,0.005165,-0.000779,-85.749040,0.005569,
1700,1830,-0.772672,-1.323609,0.999998,0.000162,-0.002757,0.007113,0.000848,0.007185,-0.002829,85.122078,0.007239,
1430,1120,-1.464246,-6.284174,0.999995,0.000282,-0.004922,0.011387,-0.001702,0.011563,-0.005097,-84.105169,0.011590,
1580,870,-1.852134,-8.901874,0.999997,0.000193,-0.004467,0.008967,-0.000990,0.009039,-0.004540,-85.806796,0.009039,
1050,590,0.435775,-11.888682,0.999997,0.000219,-0.003306,0.006452,-0.001483,0.006672,-0.003526,-81.549125,0.006676,
930,2000,0.063080,-0.176588,0.999998,0.000163,-0.000244,0.005006,-0.000791,0.005122,-0.000361,-81.612365,0.005718,
1130,1180,0.710545,-4.370141,0.999997,0.000219,-0.002229,0.003339,0.002404,0.004233,-0.003123,69.595878,0.004390,
1600,1400,-1.295410,-4.356388,0.999997,0.000202,-0.004618,0.008366,-0.000337,0.008374,-0.004627,-88.512585,0.008390,
630,130,0.771031,-14.252786,0.999996,0.000218,-0.003505,0.007929,0.001111,0.008036,-0.003612,84.499319,0.008050,
1760,1470,-1.826404,-4.182846,0.999998,0.000180,-0.003993,0.007788,0.000007,0.007788,-0.003993,89.967211,0.007789,
860,510,1.048856,-11.908717,0.999998,0.000227,-0.003775,0.007520,-0.000463,0.007539,-0.003794,-87.655831,0.007539,
860,1690,0.818175,-2.154318,0.999998,0.000154,-0.003070,0.006965,0.000059,0.006966,-0.003071,89.661509,0.006982,
840,110,0.252161,-14.624378,0.999997,0.000190,-0.000982,0.005860,0.001251,0.006081,-0.001203,79.952606,0.006441,
1610,960,-2.238924,-8.098846,0.999998,0.000187,-0.003221,0.008057,-0.000780,0.008111,-0.003274,-86.064011,0.008161,
1410,550,-0.407878,-12.159812,0.999997,0.000217,-0.003048,0.006293,0.001213,0.006447,-0.003203,82.723034,0.006447,
670,1150,2.757375,-6.693016,0.999998,0.000172,-0.003448,0.007154,-0.000484,0.007176,-0.003470,-87.391876,0.007177,
1360,400,-0.234786,-13.141877,0.999998,0.000185,-0.001937,0.005609,0.000329,0.005623,-0.001951,87.504859,0.005710,
1480,40,-0.026807,-15.020116,0.999999,0.000135,-0.000177,0.004743,-0.000611,0.004818,-0.000252,-83.021146,0.005424,
1250,1390,-0.029736,-3.178483,0.999999,0.000132,-0.001644,0.003771,-0.000463,0.003811,-0.001684,-85.148569,0.003819,
1660,1080,-2.428451,-7.157897,0.999996,0.000241,-0.003177,0.007705,0.000529,0.007731,-0.003203,87.223838,0.007769,
1620,440,-0.999229,-12.390772,0.999997,0.000194,-0.003523,0.007400,0.000310,0.007409,-0.003531,88.375236,0.007412,
930,600,0.903929,-11.413316,0.999997,0.000229,-0.004198,0.007754,-0.000893,0.007821,-0.004264,-85.748392,0.007831,
1880,810,-2.850227,-8.987438,0.999997,0.000229,-0.003421,0.006885,-0.000206,0.006889,-0.003425,-88.857339,0.006889,
1670,520,-1.328217,-11.663837,0.999997,0.000175,-0.003931,0.007753,0.000279,0.007760,-0.003937,88.634393,0.007760,
1040,1310,0.590472,-4.379336,0.999996,0.000273,-0.005056,0.008031,0.002303,0.008425,-0.005450,80.305385,0.008545,
1110,340,0.194689,-13.487676,0.999997,0.000212,-0.001715,0.005562,-0.000180,0.005566,-0.001720,-88.586626,0.005700,
970,1660,0.541615,-2.150869,0.999997,0.000188,-0.002787,0.006532,0.000402,0.006550,-0.002804,87.531914,0.006572,
920,1700,0.621481,-1.975326,0.999998,0.000198,-0.002509,0.006626,-0.000011,0.006626,-0.002509,-89.932637,0.006690,
1710,720,-1.958835,-9.965447,0.999997,0.000212,-0.004244,0.008086,-0.000452,0.008103,-0.004260,-87.903487,0.008106,
1110,800,0.354453,-10.881561,0.999995,0.000257,-0.004372,0.006125,-0.003429,0.007146,-0.005393,-73.419245,0.007449,
680,1290,2.379791,-5.635102,0.999998,0.000191,-0.003908,0.007639,-0.000556,0.007665,-0.003935,-87.250581,0.007666,
750,1670,1.222211,-2.530584,0.999997,0.000185,-0.003560,0.007537,0.000009,0.007537,-0.003560,89.952160,0.007541,
1790,950,-2.822910,-8.106617,0.999998,0.000172,-0.003363,0.007112,-0.000488,0.007135,-0.003386,-87.340190,0.007138,
700,1570,1.618513,-3.413746,0.999996,0.000229,-0.003815,0.007676,0.000140,0.007678,-0.003817,89.299869,0.007678,
1530,1750,-0.517470,-1.627909,0.999997,0.000205,-0.002330,0.006374,0.000098,0.006375,-0.002332,89.352695,0.006451,
880,1140,2.024756,-6.622604,0.999998,0.000182,-0.003840,0.008665,-0.001054,0.008753,-0.003928,-85.217710,0.008769,
1090,700,0.330997,-11.356916,0.999996,0.000241,-0.003672,0.006207,-0.002447,0.006780,-0.004245,-76.820700,0.006851,
560,750,2.797329,-9.348404,0.999910,0.000000,-0.004644,0.008152,-0.000111,0.008153,-0.004645,-89.501111,0.008179,
1380,1110,-1.303561,-5.672623,0.999989,0.000000,-0.003678,0.012686,-0.006973,0.015255,-0.006246,-69.780235,0.015338,
1870,1370,-2.496993,-5.196560,0.999997,0.000231,-0.003722,0.007557,0.000128,0.007558,-0.003724,89.348022,0.007558,
1520,1090,-1.968009,-6.990140,0.999998,0.000166,-0.003318,0.009223,0.000808,0.009275,-0.003370,86.331204,0.009390,
1750,390,-1.366046,-12.464665,0.999997,0.000230,-0.003680,0.007600,0.000084,0.007601,-0.003680,89.574852,0.007602,
1250,1860,-0.017536,-0.827430,0.999998,0.000166,-0.000898,0.004982,-0.000010,0.004982,-0.000898,-89.907072,0.005310,
1760,1330,-2.178703,-5.284639,0.999997,0.000207,-0.004045,0.007813,0.000498,0.007834,-0.004066,87.600491,0.007836,
1880,130,-0.942364,-14.079421,0.999998,0.000187,-0.003594,0.008012,-0.001059,0.008108,-0.003690,-84.829626,0.008118,
820,1600,1.109724,-2.894910,0.999997,0.000219,-0.003639,0.007457,0.000287,0.007465,-0.003646,88.519152,0.007465,
1180,1700,0.082208,-1.668180,0.999998,0.000162,-0.001551,0.005328,0.000081,0.005329,-0.001552,89.326291,0.005482,
1790,60,-0.244042,-14.860248,0.999998,0.000245,-0.000831,0.006850,-0.002879,0.007810,-0.001791,-71.570602,0.008182,
1130,2010,0.012364,-0.116405,0.999999,0.000143,-0.000169,0.004509,-0.000152,0.004514,-0.000174,-88.138261,0.005115,
1830,530,-1.974477,-11.199298,0.999997,0.000199,-0.003817,0.007634,0.000058,0.007634,-0.003818,89.708704,0.007634,
1430,1100,-1.571796,-6.521625,0.999994,0.000303,-0.005042,0.012594,-0.001964,0.012810,-0.005258,-83.722132,0.012878,
1000,1970,0.081461,-0.317943,0.999998,0.000161,-0.000396,0.004992,-0.000581,0.005054,-0.000458,-83.916918,0.005590,
630,110,0.658152,-14.414567,0.999996,0.000237,-0.003375,0.007973,0.001414,0.008146,-0.003549,83.004933,0.008169,
1870,1630,-1.892433,-3.216864,0.999998,0.000188,-0.003688,0.007476,-0.000067,0.007476,-0.003688,-89.658228,0.007477,
630,1920,0.800609,-0.906901,0.999997,0.000201,-0.003538,0.007871,-0.001079,0.007972,-0.003639,-84.642203,0.007982,
1040,130,0.110386,-14.582589,0.999998,0.000171,-0.000793,0.005128,0.000378,0.005152,-0.000817,86.365375,0.005538,
1100,120,0.066283,-14.645958,0.999998,0.000150,-0.000505,0.004931,0.000270,0.004945,-0.000518,87.160839,0.005435,
1740,1470,-1.746072,-4.136812,0.999995,0.000252,-0.004039,0.007830,-0.000016,0.007830,-0.004039,-89.924428,0.007831,
1400,1720,-0.269694,-1.643844,0.999998,0.000167,-0.001921,0.005763,-0.000185,0.005767,-0.001925,-88.618149,0.005873,
710,1150,2.619602,-6.665404,0.999997,0.000202,-0.003531,0.007430,-0.000663,0.007470,-0.003571,-86.549238,0.007472,
840,1690,0.877907,-2.190499,0.999998,0.000171,-0.003016,0.007093,-0.000032,0.007093,-0.003016,-89.816806,0.007119,
1180,230,0.053684,-14.111638,0.999998,0.000157,-0.000985,0.005094,0.000034,0.005094,-0.000985,89.677937,0.005404,
1050,960,1.501751,-8.705087,0.999991,0.000338,-0.005607,0.013892,-0.003986,0.014675,-0.006390,-78.882585,0.014716,
1520,1120,-1.857938,-6.710303,0.999996,0.000229,-0.003928,0.009493,0.000977,0.009563,-0.003999,85.857960,0.009606,
1200,1500,0.058543,-2.706192,0.999998,0.000195,-0.001884,0.004878,0.000329,0.004894,-0.001900,87.217690,0.004934,
1000,1310,0.801570,-4.612551,0.999997,0.000233,-0.005422,0.008726,0.001583,0.008901,-0.005597,83.692781,0.008999,
1310,590,-0.153473,-12.178589,0.999998,0.000167,-0.002197,0.005041,0.001022,0.005183,-0.002338,82.113802,0.005191,
970,360,0.499549,-13.196692,0.999998,0.000178,-0.002626,0.006368,-0.000276,0.006377,-0.002634,-88.243061,0.006409,
1560,870,-1.761996,-8.940118,0.999997,0.000211,-0.004645,0.009214,-0.000946,0.009278,-0.004709,-86.113307,0.009278,
730,800,2.278287,-9.283847,0.999997,0.000220,-0.003983,0.007863,0.000732,0.007908,-0.004028,86.478880,0.007908,
970,40,0.029807,-15.020144,0.999998,0.000171,-0.000280,0.004779,0.000597,0.004849,-0.000349,83.364735,0.005409,
750,1420,1.750937,-4.471017,0.999995,0.000267,-0.004206,0.008011,-0.000084,0.008012,-0.004206,-89.606348,0.008015,
1160,1350,0.124235,-3.449073,0.999997,0.000204,-0.002255,0.004177,0.001916,0.004704,-0.002782,74.607725,0.004730,
600,990,3.088914,-7.806919,0.999998,0.000183,-0.003114,0.006450,0.000135,0.006452,-0.003116,89.194401,0.006453,
830,930,2.253674,-8.328233,0.999996,0.000240,-0.003533,0.008137,0.000923,0.008209,-0.003606,85.506803,0.008229,
1190,1410,0.071614,-3.122246,0.999998,0.000169,-0.001879,0.004242,0.000823,0.004350,-0.001987,82.474134,0.004356,
1500,1090,-1.901331,-6.954076,0.999996,0.000212,-0.003449,0.009711,0.000731,0.009752,-0.003490,86.830524,0.009882,
1250,1810,-0.022595,-1.080981,0.999998,0.000168,-0.001141,0.005106,-0.000032,0.005106,-0.001141,-89.703213,0.005361,
1680,330,-0.987920,-13.067628,0.999996,0.000210,-0.003298,0.007377,-0.000088,0.007378,-0.003299,-89.526904,0.007391,
840,960,2.282377,-8.092562,0.999996,0.000224,-0.003207,0.007984,0.000764,0.008036,-0.003259,86.111292,0.008084,
1240,1610,-0.015969,-2.131241,0.999998,0.000178,-0.001825,0.005264,-0.000140,0.005267,-0.001828,-88.866133,0.005348,
750,1690,1.175053,-2.377992,0.999997,0.000184,-0.003459,0.007486,-0.000072,0.007486,-0.003459,-89.624484,0.007494,
1050,1760,0.264204,-1.428818,0.999998,0.000162,-0.001851,0.005749,0.000085,0.005750,-0.001852,89.362600,0.005870,
1660,1060,-2.443673,-7.309656,0.999997,0.000212,-0.003071,0.007621,0.000285,0.007628,-0.003078,88.473808,0.007675,
1450,1190,-1.155219,-5.677613,0.999996,0.000251,-0.005799,0.010411,-0.000790,0.010449,-0.005838,-87.216694,0.010473,
670,390,1.526832,-12.359829,0.999996,0.000215,-0.003747,0.007560,-0.000066,0.007560,-0.003748,-89.664034,0.007560,
880,1120,2.090331,-6.795964,0.999997,0.000213,-0.003507,0.008580,-0.001047,0.008670,-0.003597,-85.084219,0.008712,
1360,420,-0.241138,-13.032131,0.999998,0.000187,-0.002005,0.005623,0.000409,0.005644,-0.002027,86.941755,0.005719,
800,1290,1.881023,-5.442618,0.999997,0.000222,-0.004516,0.008443,-0.000574,0.008469,-0.004542,-87.469098,0.008476,
920,1680,0.653056,-2.107657,0.999997,0.000206,-0.002680,0.006686,0.000107,0.006687,-0.002681,89.347766,0.006731,
1520,1080,-1.996287,-7.079643,0.999997,0.000176,-0.003159,0.009210,0.000715,0.009251,-0.003200,86.704762,0.009396,
1620,420,-0.964437,-12.539782,0.999998,0.000166,-0.003414,0.007307,0.000269,0.007314,-0.003421,88.564211,0.007319,
930,380,0.633257,-12.995499,0.999996,0.000216,-0.002662,0.006626,-0.000181,0.006630,-0.002666,-88.886573,0.006672,
630,90,0.523932,-14.574687,0.999995,0.000252,-0.003238,0.007959,0.001858,0.008260,-0.003538,80.818395,0.008288,
1370,1380,-0.313599,-3.592719,0.999997,0.000228,-0.003395,0.005975,-0.002227,0.006477,-0.003898,-77.288809,0.006522,
1750,350,-1.274472,-12.768024,0.999996,0.000211,-0.003623,0.007552,-0.000019,0.007552,-0.003623,-89.901291,0.007554,
1650,540,-1.285646,-11.556540,0.999996,0.000223,-0.004011,0.007801,0.000325,0.007810,-0.004020,88.426791,0.007811,
1530,1730,-0.545856,-1.754998,0.999997,0.000212,-0.002415,0.006578,0.000024,0.006578,-0.002415,89.849119,0.006655,
1380,950,-1.317440,-9.395153,0.999985,0.000000,-0.003741,0.012816,0.007284,0.015564,-0.006489,69.328168,0.015635,
680,40,0.132847,-14.987695,0.999998,0.000188,-0.000383,0.006257,0.002678,0.007202,-0.001328,70.552482,0.007666,
1050,570,0.427217,-12.018830,0.999997,0.000210,-0.003208,0.006377,-0.001386,0.006574,-0.003404,-81.935842,0.006575,
1280,1670,-0.081033,-1.829283,0.999997,0.000192,-0.001634,0.005329,-0.000119,0.005331,-0.001636,-89.020085,0.005462,
1870,350,-1.713656,-12.462922,0.999997,0.000215,-0.003686,0.007433,0.000082,0.007434,-0.003687,89.579761,0.007434,
1010,290,0.335580,-13.678579,0.999997,0.000195,-0.001798,0.005953,0.000095,0.005954,-0.001799,89.296285,0.006108,
1830,510,-1.929178,-11.353339,0.999997,0.000203,-0.003810,0.007661,0.000072,0.007662,-0.003811,89.641141,0.007662,
560,740,2.785240,-9.432672,0.999923,0.000000,-0.005061,0.009143,-0.000064,0.009143,-0.005062,-89.743688,0.009161,
1310,570,-0.154796,-12.282806,0.999998,0.000165,-0.002196,0.005134,0.000939,0.005253,-0.002314,82.813708,0.005265,
1340,1690,-0.181505,-1.758732,0.999998,0.000186,-0.001887,0.005591,-0.000282,0.005601,-0.001898,-87.839998,0.005698,
1600,1380,-1.340787,-4.527491,0.999996,0.000212,-0.004731,0.008457,-0.000259,0.008462,-0.004736,-88.874509,0.008482,
1700,610,-1.637567,-10.878976,0.999995,0.000257,-0.004209,0.007934,0.000024,0.007934,-0.004209,89.886084,0.007939,
710,800,2.356523,-9.258158,0.999995,0.000289,-0.003957,0.007749,0.000716,0.007793,-0.004001,86.513202,0.007794,
810,660,1.550360,-10.582506,0.999996,0.000228,-0.004493,0.008301,0.000002,0.008301,-0.004493,89.993080,0.008311,
1150,800,0.204492,-11.236479,0.999996,0.000244,-0.003193,0.003835,-0.002962,0.004916,-0.004275,-69.938284,0.005345,
1840,890,-2.890978,-8.491267,0.999998,0.000185,-0.003361,0.006849,-0.000328,0.006859,-0.003371,-88.160191,0.006860,
920,130,0.215888,-14.539987,0.999998,0.000179,-0.000913,0.005549,0.000844,0.005657,-0.001021,82.678542,0.006030,
1610,1360,-1.436761,-4.723534,0.999997,0.000208,-0.004796,0.008525,-0.000047,0.008525,-0.004796,-89.796921,0.008547,
1170,110,0.024927,-14.705471,0.999998,0.000175,-0.000353,0.004760,0.000140,0.004764,-0.000357,88.429046,0.005307,
760,180,0.630743,-14.111165,0.999997,0.000206,-0.002355,0.006903,0.001234,0.007065,-0.002517,82.536325,0.007162,
810,770,1.849569,-9.651805,0.999996,0.000226,-0.004546,0.008505,0.000586,0.008531,-0.004572,87.435451,0.008538,
1660,50,-0.097872,-14.955603,0.999999,0.000151,-0.000626,0.005374,-0.001431,0.005698,-0.000949,-77.251374,0.006106,
1730,1130,-2.575849,-6.800627,0.999996,0.000228,-0.003449,0.007436,0.000626,0.007472,-0.003485,86.718440,0.007478,
1330,1340,-0.193139,-3.617798,0.999998,0.000178,-0.002861,0.004921,-0.002479,0.005643,-0.003584,-73.752359,0.005712,
1100,860,0.647279,-10.379617,0.999994,0.000327,-0.003916,0.006253,-0.003376,0.007272,-0.004935,-73.208259,0.007425,
1390,800,-0.534347,-10.546269,0.999996,0.000277,-0.005328,0.007928,0.002943,0.008552,-0.005953,78.028148,0.008769,
1200,1610,0.057769,-2.140819,0.999998,0.000168,-0.001827,0.005276,0.000193,0.005282,-0.001832,88.444308,0.005363,
1250,1830,-0.017941,-0.978975,0.999999,0.000156,-0.001067,0.005047,-0.000027,0.005047,-0.001067,-89.749818,0.005320,
670,1130,2.791016,-6.834807,0.999998,0.000164,-0.003410,0.007118,-0.000519,0.007143,-0.003436,-87.184252,0.007145,
880,1100,2.143537,-6.965193,0.999997,0.000219,-0.003275,0.008340,-0.000857,0.008403,-0.003338,-85.801623,0.008462,
1450,2010,-0.030212,-0.121853,0.999999,0.000150,-0.000089,0.004679,0.000459,0.004723,-0.000132,84.551406,0.005379,
840,940,2.241237,-8.251983,0.999997,0.000221,-0.003437,0.008107,0.000860,0.008171,-0.003501,85.761098,0.008199,
1450,1630,-0.451897,-2.260578,0.999997,0.000217,-0.002544,0.006290,-0.000516,0.006320,-0.002574,-86.669628,0.006356,
1660,1040,-2.458997,-7.463588,0.999997,0.000209,-0.003018,0.007676,0.000187,0.007679,-0.003021,89.000000,0.007737,
1030,1760,0.304829,-1.449741,0.999998,0.000205,-0.001871,0.005830,0.000033,0.005830,-0.001871,89.754181,0.005953,
1520,1060,-2.045625,-7.267635,0.999997,0.000188,-0.002887,0.009313,0.000490,0.009332,-0.002907,87.704611,0.009551,
610,1420,2.305899,-4.780794,0.999997,0.000226,-0.003813,0.007631,-0.000122,0.007632,-0.003814,-89.388034,0.007632,
920,1660,0.678850,-2.241954,0.999997,0.000203,-0.002884,0.006785,0.000245,0.006792,-0.002891,88.551992,0.006817,
740,1290,2.138694,-5.540938,0.999998,0.000187,-0.004159,0.008082,-0.000671,0.008119,-0.004195,-86.873221,0.008120,
630,70,0.382201,-14.734788,0.999996,0.000246,-0.003037,0.007845,0.002099,0.008236,-0.003428,79.452698,0.008275,
1380,940,-1.268360,-9.508331,0.999985,0.000000,-0.003154,0.011177,0.006761,0.013863,-0.005840,68.330883,0.013920,
680,50,0.186116,-14.924802,0.999998,0.000186,-0.000659,0.006471,0.002708,0.007383,-0.001571,71.388196,0.007778,
1750,330,-1.225299,-12.920643,0.999997,0.000192,-0.003599,0.007522,-0.000060,0.007522,-0.003599,-89.693421,0.007525,
1880,350,-1.750013,-12.435162,0.999997,0.000230,-0.003722,0.007405,0.000038,0.007405,-0.003722,89.805502,0.007405,
560,730,2.766928,-9.542854,0.999878,0.000000,-0.005096,0.008731,0.000476,0.008748,-0.005112,88.029745,0.008789,
1530,1710,-0.576027,-1.891847,0.999997,0.000214,-0.002458,0.006613,-0.000018,0.006613,-0.002458,-89.887889,0.006685,
1310,550,-0.155893,-12.384976,0.999998,0.000175,-0.002203,0.005203,0.000866,0.005303,-0.002303,83.415452,0.005318,
1360,1670,-0.228449,-1.893136,0.999998,0.000175,-0.001872,0.005650,-0.000275,0.005660,-0.001882,-87.907710,0.005765,
1830,490,-1.885398,-11.506386,0.999997,0.000200,-0.003799,0.007639,0.000088,0.007640,-0.003800,89.559990,0.007640,
680,110,0.522215,-14.505056,0.999996,0.000245,-0.002402,0.007300,0.001978,0.007688,-0.002790,78.907848,0.007784,
970,270,0.380994,-13.760539,0.999997,0.000202,-0.002065,0.006067,0.000163,0.006071,-0.002068,88.851654,0.006172,
1010,270,0.309992,-13.800200,0.999997,0.000181,-0.001650,0.005806,0.000158,0.005810,-0.001654,88.783327,0.005987,
1730,820,-2.323045,-9.130485,0.999997,0.000207,-0.003973,0.007875,-0.000817,0.007931,-0.004029,-86.073168,0.007931,
710,780,2.304450,-9.413343,0.999997,0.000221,-0.004005,0.007810,0.000651,0.007846,-0.004040,86.854506,0.007847,
1130,800,0.272895,-11.067147,0.999996,0.000258,-0.003690,0.004974,-0.003347,0.006117,-0.004832,-71.155110,0.006451,
760,1090,2.551772,-7.091927,0.999996,0.000232,-0.003243,0.007503,-0.000548,0.007531,-0.003270,-87.087415,0.007552,
1170,70,0.014164,-14.891467,0.999998,0.000160,-0.000169,0.004595,0.000155,0.004600,-0.000174,88.139226,0.005214,
1060,610,0.409284,-11.794224,0.999997,0.000195,-0.003359,0.006386,-0.001655,0.006660,-0.003632,-80.617158,0.006669,
1310,1340,-0.140705,-3.522585,0.999996,0.000232,-0.002456,0.004253,-0.002179,0.004899,-0.003101,-73.500593,0.004956,
1790,930,-2.788836,-8.249786,0.999998,0.000173,-0.003401,0.007175,-0.000562,0.007205,-0.003431,-86.968163,0.007207,
880,1080,2.188259,-7.132675,0.999998,0.000188,-0.003024,0.008240,-0.000739,0.008289,-0.003073,-86.261242,0.008381,
960,40,0.033390,-15.019090,0.999998,0.000175,-0.000278,0.004786,0.000598,0.004856,-0.000348,83.351266,0.005418,
1450,1420,-0.596173,-3.675908,0.999997,0.000207,-0.004059,0.007199,-0.001612,0.007426,-0.004285,-82.010592,0.007455,
810,730,1.731709,-9.995751,0.999996,0.000218,-0.004611,0.008422,0.000378,0.008433,-0.004622,88.338623,0.008446,
1730,1110,-2.608552,-6.950639,0.999996,0.000234,-0.003398,0.007473,0.000651,0.007512,-0.003437,86.587630,0.007521,
780,1410,1.646387,-4.484046,0.999997,0.000202,-0.004342,0.008126,-0.000058,0.008126,-0.004342,-89.732871,0.008133,
760,160,0.557659,-14.248111,0.999996,0.000214,-0.002153,0.006868,0.001433,0.007090,-0.002375,81.184980,0.007217,
1480,850,-1.255302,-9.412352,0.999995,0.000263,-0.005770,0.010168,0.000233,0.010171,-0.005774,89.164115,0.010202,
740,390,1.267769,-12.529236,0.999997,0.000236,-0.003654,0.007609,-0.000064,0.007610,-0.003654,-89.672577,0.007612,
1180,1610,0.094989,-2.148625,0.999998,0.000163,-0.001833,0.005320,0.000185,0.005325,-0.001838,88.516751,0.005409,
1250,1850,-0.019963,-0.878410,0.999998,0.000171,-0.000949,0.005010,-0.000028,0.005010,-0.000949,-89.731745,0.005323,
1730,1640,-1.346791,-2.799003,0.999998,0.000223,-0.003713,0.007598,-0.000125,0.007599,-0.003714,-89.364380,0.007600,
670,1090,2.852082,-7.120903,0.999998,0.000183,-0.003317,0.006994,-0.000273,0.007002,-0.003324,-88.486554,0.007005,
1040,980,1.631499,-8.311882,0.999989,0.000391,-0.005925,0.014646,-0.002400,0.014922,-0.006201,-83.433790,0.014993,
1660,1020,-2.460825,-7.618730,0.999996,0.000214,-0.003034,0.007667,-0.000156,0.007669,-0.003037,-89.164815,0.007724,
1100,820,0.456078,-10.652700,0.999995,0.000290,-0.004823,0.006743,-0.003334,0.007636,-0.005716,-75.017274,0.007944,
620,1980,0.455993,-0.463675,0.999996,0.000242,-0.003412,0.008199,-0.001982,0.008528,-0.003741,-80.574800,0.008550,
1050,550,0.418972,-12.148925,0.999997,0.000202,-0.003072,0.006341,-0.001225,0.006498,-0.003229,-82.703015,0.006498,
840,920,2.189415,-8.418102,0.999996,0.000226,-0.003616,0.008307,0.001025,0.008395,-0.003703,85.119820,0.008414,
1440,2010,-0.029874,-0.121699,0.999999,0.000137,-0.000153,0.004650,0.000407,0.004685,-0.000187,85.186756,0.005304,
1740,1890,-0.657837,-0.945907,0.999997,0.000197,-0.002792,0.007166,0.001270,0.007326,-0.002951,82.848127,0.007372,
1030,1740,0.321346,-1.566162,0.999998,0.000228,-0.002012,0.005939,0.000096,0.005940,-0.002013,89.305853,0.006042,
930,360,0.607172,-13.125431,0.999997,0.000206,-0.002538,0.006565,-0.000068,0.006565,-0.002538,-89.573095,0.006621,
1600,1360,-1.389713,-4.697385,0.999996,0.000224,-0.004843,0.008562,-0.000136,0.008563,-0.004845,-89.416880,0.008588,
1620,400,-0.930082,-12.687067,0.999998,0.000136,-0.003277,0.007213,0.000182,0.007216,-0.003280,89.008238,0.007226,
920,1640,0.706041,-2.377490,0.999997,0.000196,-0.003101,0.006897,0.000358,0.006910,-0.003114,87.952528,0.006921,
1760,470,-1.576411,-11.829792,0.999996,0.000234,-0.003821,0.007666,0.000131,0.007668,-0.003823,89.344647,0.007668,
1360,440,-0.246805,-12.917389,0.999998,0.000182,-0.002100,0.005659,0.000481,0.005689,-0.002130,86.462707,0.005749,
1780,330,-1.334570,-12.846780,0.999997,0.000220,-0.003624,0.007494,-0.000025,0.007494,-0.003624,-89.870976,0.007495,
1750,310,-1.175692,-13.071564,0.999997,0.000203,-0.003574,0.007483,-0.000135,0.007485,-0.003576,-89.301779,0.007487,
1690,1260,-2.088157,-5.736943,0.999998,0.000173,-0.004242,0.008229,0.000774,0.008277,-0.004290,86.463751,0.008279,
1300,1720,-0.104057,-1.564868,0.999998,0.000158,-0.001495,0.005429,-0.000037,0.005429,-0.001495,-89.697329,0.005608,
1380,930,-1.233717,-9.620995,0.999990,0.000000,-0.002870,0.010056,0.006178,0.012534,-0.005348,68.145026,0.012579,
660,110,0.569645,-14.481713,0.999997,0.000216,-0.002257,0.007615,0.002187,0.008077,-0.002720,78.053004,0.008220,
1530,1690,-0.606842,-2.022872,0.999997,0.000203,-0.002570,0.006516,-0.000121,0.006517,-0.002572,-89.235254,0.006565,
1340,1670,-0.188993,-1.872626,0.999997,0.000196,-0.001955,0.005581,-0.000354,0.005598,-0.001972,-87.319759,0.005679,
1450,1610,-0.466589,-2.385998,0.999997,0.000217,-0.002751,0.006368,-0.000649,0.006414,-0.002797,-85.948255,0.006431,
1640,870,-2.107165,-8.820396,0.999995,0.000254,-0.004068,0.008421,-0.001022,0.008504,-0.004151,-85.352917,0.008504,
1010,470,0.494963,-12.562360,0.999997,0.000232,-0.002978,0.006510,-0.000812,0.006579,-0.003047,-85.144252,0.006585,
1150,650,0.152808,-11.883288,0.999998,0.000177,-0.002271,0.004744,-0.001458,0.005035,-0.002562,-78.716215,0.005036,
1820,150,-0.833434,-14.138670,0.999997,0.000263,-0.003261,0.007789,-0.001214,0.007921,-0.003393,-83.802171,0.007948,
1830,470,-1.842365,-11.657459,0.999997,0.000192,-0.003795,0.007644,0.000113,0.007645,-0.003796,89.435265,0.007645,
1470,40,-0.025946,-15.020472,0.999999,0.000125,-0.000073,0.004716,-0.000600,0.004790,-0.000147,-82.964895,0.005448,
1430,580,-0.488458,-11.900143,0.999996,0.000240,-0.003352,0.006602,0.001359,0.006784,-0.003534,82.361514,0.006786,
760,140,0.480501,-14.386353,0.999997,0.000179,-0.001816,0.006652,0.001529,0.006920,-0.002084,80.074515,0.007100,
1870,480,-2.014759,-11.486303,0.999998,0.000188,-0.003725,0.007596,0.000056,0.007596,-0.003726,89.717557,0.007597,
690,1980,0.320433,-0.364951,0.999995,0.000248,-0.001549,0.006935,-0.002527,0.007630,-0.002244,-74.609214,0.007843,
760,370,1.154038,-12.723825,0.999997,0.000191,-0.003436,0.007423,0.000048,0.007423,-0.003436,89.744122,0.007430,
560,720,2.766606,-9.651427,0.999873,0.000000,-0.005150,0.007519,0.000951,0.007590,-0.005221,85.732581,0.007767,
600,1410,2.370113,-4.880336,0.999997,0.000229,-0.003789,0.007564,-0.000134,0.007566,-0.003790,-89.323428,0.007566,
1020,1530,0.501944,-2.896021,0.999997,0.000200,-0.003194,0.006562,0.001053,0.006674,-0.003306,83.908975,0.006674,
1090,680,0.325995,-11.481705,0.999997,0.000232,-0.003501,0.006082,-0.002285,0.006599,-0.004018,-77.250965,0.006651,
880,1060,2.219324,-7.296617,0.999998,0.000190,-0.002893,0.008115,-0.000428,0.008132,-0.002909,-87.778384,0.008241,
1730,1090,-2.642343,-7.101851,0.999996,0.000219,-0.003309,0.007400,0.000472,0.007421,-0.003329,87.483537,0.007434,
1730,1620,-1.389661,-2.951143,0.999998,0.000193,-0.003741,0.007593,-0.000137,0.007594,-0.003742,-89.308348,0.007595,
1000,1110,1.670268,-6.624669,0.999996,0.000231,-0.004395,0.011062,-0.000023,0.011062,-0.004395,-89.913368,0.011140,
1250,1870,-0.016164,-0.776952,0.999998,0.000161,-0.000849,0.004957,-0.000009,0.004957,-0.000849,-89.915951,0.005301,
620,1960,0.597356,-0.622532,0.999997,0.000214,-0.003508,0.008013,-0.001623,0.008237,-0.003732,-82.133818,0.008249,
840,900,2.130388,-8.585016,0.999997,0.000205,-0.003825,0.008338,0.001028,0.008424,-0.003912,85.201473,0.008431,
1660,1000,-2.446514,-7.772891,0.999997,0.000202,-0.003059,0.007602,-0.000296,0.007610,-0.003067,-88.410196,0.007657,
1100,800,0.399773,-10.792391,0.999995,0.000265,-0.004685,0.006692,-0.003376,0.007618,-0.005611,-74.653796,0.007897,
1140,1350,0.174745,-3.537691,0.999998,0.000178,-0.002660,0.004725,0.002300,0.005383,-0.003318,74.042274,0.005431,
800,80,0.200818,-14.784006,0.999998,0.000170,-0.001076,0.005801,0.001476,0.006104,-0.001379,78.382174,0.006403,
670,1070,2.861360,-7.259514,0.999998,0.000155,-0.003275,0.007006,-0.000168,0.007009,-0.003277,-89.062976,0.007014,
1070,930,1.266767,-9.383008,0.999988,0.000429,-0.003648,0.010938,-0.005400,0.012719,-0.005430,-71.741768,0.012764,
1050,530,0.409707,-12.275949,0.999997,0.000209,-0.002922,0.006297,-0.001062,0.006417,-0.003043,-83.515247,0.006420,
1430,2010,-0.027704,-0.120050,0.999999,0.000157,-0.000242,0.004636,0.000360,0.004663,-0.000269,85.799448,0.005236,
1130,1500,0.205001,-2.802656,0.999998,0.000166,-0.002288,0.005386,0.000935,0.005498,-0.002400,83.153954,0.005513,
1740,1870,-0.740362,-1.090171,0.999997,0.000216,-0.002963,0.007236,0.001070,0.007347,-0.003074,84.073645,0.007380,
1250,1760,-0.025744,-1.340114,0.999998,0.000144,-0.001366,0.005259,-0.000076,0.005260,-0.001367,-89.342464,0.005458,
1750,290,-1.120655,-13.221757,0.999997,0.000204,-0.003536,0.007521,-0.000222,0.007525,-0.003541,-88.851906,0.007530,
1600,1340,-1.439896,-4.869814,0.999995,0.000239,-0.004923,0.008673,0.000006,0.008673,-0.004923,89.973728,0.008699,
1620,380,-0.896097,-12.827477,0.999998,0.000148,-0.003094,0.007105,0.000082,0.007106,-0.003095,89.538690,0.007125,
1360,1180,-0.764064,-4.776469,0.999994,0.000296,-0.002872,0.005357,-0.003398,0.006578,-0.004094,-70.222274,0.006644,
1490,440,-0.579136,-12.677290,0.999997,0.000178,-0.002938,0.006644,0.000576,0.006678,-0.002973,86.572520,0.006691,
1310,530,-0.154523,-12.491933,0.999998,0.000184,-0.002193,0.005295,0.000773,0.005374,-0.002272,84.166653,0.005396,
730,140,0.534989,-14.362512,0.999996,0.000227,-0.002259,0.006914,0.001608,0.007188,-0.002533,80.339945,0.007292,
1380,30,-0.008633,-15.069456,0.999999,0.000000,-0.000018,0.004607,-0.000329,0.004631,-0.000041,-85.951734,0.005323,
1530,1670,-0.631647,-2.152006,0.999997,0.000187,-0.002699,0.006638,-0.000223,0.006643,-0.002704,-88.634826,0.006681,
1830,890,-2.857557,-8.502167,0.999997,0.000201,-0.003408,0.006937,-0.000383,0.006951,-0.003423,-87.879899,0.006951,
920,1620,0.734685,-2.521969,0.999997,0.000191,-0.003266,0.007037,0.000461,0.007058,-0.003287,87.441717,0.007063,
1220,1670,0.019443,-1.814881,0.999998,0.000149,-0.001690,0.005296,0.000095,0.005298,-0.001691,89.218338,0.005412,
1010,710,0.687926,-10.855304,0.999996,0.000250,-0.004925,0.008087,-0.001769,0.008323,-0.005161,-82.394371,0.008402,
1880,260,-1.497742,-13.101065,0.999996,0.000237,-0.003647,0.007324,-0.000084,0.007324,-0.003648,-89.560927,0.007324,
1890,650,-2.483957,-10.139426,0.999996,0.000245,-0.003787,0.007569,-0.000081,0.007569,-0.003788,-89.592259,0.007569,
590,1410,2.407248,-4.902021,0.999997,0.000204,-0.004172,0.007574,-0.000192,0.007577,-0.004175,-89.065031,0.007590,
580,110,0.835049,-14.230993,0.999998,0.000199,-0.003740,0.008239,0.001354,0.008390,-0.003891,83.631141,0.008398,
1670,1260,-2.001755,-5.707191,0.999997,0.000204,-0.004352,0.008376,0.000764,0.008422,-0.004398,86.575323,0.008425,
1150,630,0.156351,-11.975783,0.999998,0.000191,-0.002230,0.004836,-0.001296,0.005067,-0.002460,-79.925111,0.005067,
760,120,0.404453,-14.515275,0.999997,0.000189,-0.001514,0.006623,0.001755,0.006986,-0.001876,78.332365,0.007231,
1800,370,-1.505121,-12.494027,0.999996,0.000249,-0.003706,0.007617,0.000024,0.007617,-0.003706,89.878432,0.007618,
560,710,2.696728,-9.683555,0.999759,0.000000,-0.005299,0.006407,0.001000,0.006492,-0.005384,85.154159,0.006945,
710,1130,2.653993,-6.812809,0.999997,0.000195,-0.003443,0.007346,-0.000582,0.007378,-0.003474,-86.920925,0.007382,
1400,1570,-0.358959,-2.540798,0.999995,0.000262,-0.002562,0.006077,-0.000834,0.006157,-0.002642,-84.539245,0.006178,
740,330,1.129184,-12.982485,0.999998,0.000160,-0.003415,0.007439,0.000134,0.007441,-0.003417,89.293931,0.007449,
1850,480,-1.939940,-11.534247,0.999997,0.000204,-0.003774,0.007605,0.000076,0.007606,-0.003774,89.617488,0.007606,
1450,1590,-0.482021,-2.518399,0.999997,0.000214,-0.002899,0.006465,-0.000770,0.006528,-0.002962,-85.333092,0.006537,
690,1960,0.424019,-0.498943,0.999997,0.000186,-0.002086,0.006796,-0.002038,0.007241,-0.002531,-77.673715,0.007350,
1460,40,-0.026212,-15.020942,0.999999,0.000122,-0.000039,0.004689,-0.000550,0.004752,-0.000102,-83.447299,0.005429,
1450,880,-1.237683,-9.281704,0.999995,0.000276,-0.005612,0.010533,0.000593,0.010554,-0.005634,87.899084,0.010562,
1380,1690,-0.254210,-1.797596,0.999998,0.000182,-0.001832,0.005728,-0.000209,0.005734,-0.001838,-88.421219,0.005856,
1410,530,-0.400933,-12.285520,0.999997,0.000226,-0.002860,0.006240,0.001060,0.006362,-0.002981,83.445772,0.006366,
1730,1070,-2.657070,-7.246524,0.999997,0.000202,-0.003212,0.007297,0.000249,0.007303,-0.003218,88.645003,0.007320,
1260,360,-0.046397,-13.433111,0.999998,0.000146,-0.001597,0.005301,0.000139,0.005304,-0.001600,88.844654,0.005441,
800,60,0.131906,-14.901152,0.999998,0.000166,-0.000844,0.005563,0.001489,0.005893,-0.001173,77.531779,0.006238,
1100,780,0.358265,-10.919602,0.999996,0.000250,-0.004426,0.006436,-0.003234,0.007326,-0.005316,-74.613591,0.007571,
1880,40,-0.271548,-14.876077,0.999995,0.000272,-0.000513,0.009999,-0.005087,0.012058,-0.002572,-67.966113,0.012702,
620,1940,0.723615,-0.784129,0.999997,0.000193,-0.003609,0.007985,-0.001203,0.008109,-0.003733,-84.137072,0.008117,
1660,980,-2.433473,-7.923150,0.999997,0.000203,-0.003142,0.007641,-0.000457,0.007660,-0.003161,-87.576767,0.007699,
1580,150,-0.302746,-14.409615,0.999997,0.000193,-0.001577,0.005941,-0.000890,0.006045,-0.001681,-83.337816,0.006240,
1150,1760,0.108796,-1.355410,0.999998,0.000178,-0.001389,0.005375,0.000037,0.005375,-0.001389,89.689983,0.005581,
1820,1890,-0.906257,-1.100130,0.999997,0.000208,-0.003290,0.007800,0.001062,0.007901,-0.003391,84.576862,0.007927,
1050,510,0.402465,-12.400682,0.999996,0.000225,-0.002782,0.006223,-0.000921,0.006316,-0.002875,-84.218775,0.006325,
840,880,2.069082,-8.753460,0.999997,0.000206,-0.004013,0.008489,0.001042,0.008575,-0.004099,85.268955,0.008578,
1430,560,-0.479347,-12.030883,0.999997,0.000196,-0.003263,0.006537,0.001255,0.006695,-0.003421,82.815401,0.006695,
880,1040,2.235789,-7.457895,0.999997,0.000215,-0.002779,0.008152,-0.000221,0.008157,-0.002783,-88.844669,0.008293,
1120,1970,0.034861,-0.303073,0.999998,0.000176,-0.000377,0.004712,-0.000211,0.004721,-0.000385,-87.628556,0.005243,
1530,1650,-0.655205,-2.287483,0.999997,0.000201,-0.002846,0.006748,-0.000322,0.006758,-0.002857,-88.082492,0.006785,
670,1050,2.873157,-7.399917,0.999998,0.000159,-0.003278,0.007021,-0.000238,0.007027,-0.003283,-88.674373,0.007032,
1600,1320,-1.497218,-5.044884,0.999995,0.000264,-0.004942,0.008740,0.000107,0.008741,-0.004942,89.552872,0.008766,
1120,1350,0.230397,-3.631394,0.999996,0.000252,-0.003076,0.005330,0.002443,0.005988,-0.003734,74.915913,0.006049,
1360,860,-0.640348,-10.419219,0.999993,0.000315,-0.003729,0.005968,0.003369,0.007024,-0.004785,72.600467,0.007176,
1310,490,-0.150601,-12.705564,0.999998,0.000173,-0.002129,0.005384,0.000592,0.005430,-0.002175,85.518698,0.005466,
1420,2010,-0.024239,-0.119368,0.999999,0.000154,-0.000278,0.004641,0.000343,0.004665,-0.000302,86.029359,0.005221,
1090,660,0.319984,-11.603442,0.999996,0.000225,-0.003357,0.006008,-0.002070,0.006445,-0.003794,-78.078685,0.006479,
1490,620,-0.745780,-11.404842,0.999996,0.000229,-0.004259,0.007586,0.001279,0.007722,-0.004395,83.905159,0.007747,
1620,800,-1.792275,-9.455114,0.999996,0.000215,-0.004688,0.008745,-0.000680,0.008779,-0.004722,-87.108933,0.008788,
1830,910,-2.890252,-8.364112,0.999997,0.000201,-0.003337,0.006915,-0.000371,0.006928,-0.003350,-87.928570,0.006930,
1370,2020,-0.013042,-0.072310,0.999998,0.000000,-0.000013,0.004558,0.000232,0.004570,-0.000024,87.102375,0.005263,
580,1410,2.444432,-4.924984,0.999996,0.000215,-0.005144,0.007607,-0.000448,0.007623,-0.005159,-87.988669,0.007780,
920,860,1.639863,-9.072499,0.999996,0.000244,-0.004979,0.009490,0.000798,0.009534,-0.005023,86.852409,0.009538,
1200,1670,0.053001,-1.821808,0.999998,0.000186,-0.001689,0.005314,0.000145,0.005317,-0.001692,88.812608,0.005433,
1880,290,-1.590052,-12.881847,0.999995,0.000247,-0.003658,0.007286,-0.000005,0.007286,-0.003658,-89.973166,0.007287,
1000,1660,0.459663,-2.092928,0.999997,0.000214,-0.002477,0.006296,0.000364,0.006311,-0.002492,87.626075,0.006357,
760,100,0.316801,-14.650379,0.999997,0.000197,-0.001186,0.006238,0.001756,0.006633,-0.001580,77.343573,0.006929,
1030,1860,0.194723,-0.885020,0.999998,0.000204,-0.001204,0.005439,-0.000322,0.005454,-0.001220,-87.234394,0.005725,
990,880,1.368118,-9.139109,0.999991,0.000381,-0.005494,0.010402,-0.000020,0.010402,-0.005494,-89.929367,0.010408,
560,700,2.673467,-9.740771,0.999626,0.000000,-0.005411,0.006031,0.000712,0.006075,-0.005455,86.455361,0.006686,
580,100,0.771056,-14.313015,0.999996,0.000225,-0.003893,0.008618,0.001639,0.008830,-0.004104,82.657044,0.008837,
1040,1100,1.544197,-6.460732,0.999993,0.000460,-0.005313,0.012886,0.002727,0.013286,-0.005713,81.658023,0.013329,
1770,480,-1.635361,-11.728900,0.999996,0.000248,-0.003817,0.007687,0.000135,0.007689,-0.003819,89.326532,0.007689,
1150,610,0.159955,-12.073354,0.999998,0.000202,-0.002209,0.004955,-0.001158,0.005138,-0.002392,-81.040150,0.005142,
1410,820,-0.714480,-10.197239,0.999996,0.000268,-0.005787,0.008937,0.002333,0.009298,-0.006148,81.210164,0.009458,
730,1620,1.400577,-2.957638,0.999997,0.000230,-0.003722,0.007595,0.000142,0.007597,-0.003723,89.282008,0.007598,
1000,1090,1.763967,-6.849217,0.999996,0.000242,-0.004094,0.011077,-0.000011,0.011077,-0.004094,-89.958101,0.011202,
1880,800,-2.826444,-9.055578,0.999998,0.000221,-0.003449,0.006937,-0.000185,0.006940,-0.003452,-88.981947,0.006940,
1730,1050,-2.670687,-7.393454,0.999996,0.000217,-0.003199,0.007325,0.000250,0.007331,-0.003205,88.641367,0.007350,
1450,50,-0.036741,-14.973253,0.999999,0.000130,-0.000143,0.004717,-0.000494,0.004767,-0.000193,-84.249916,0.005397,
590,230,1.368688,-13.341043,0.999997,0.000241,-0.003651,0.007320,0.000210,0.007324,-0.003655,88.905660,0.007324,
1320,1200,-0.488587,-4.145378,0.999997,0.000217,-0.003134,0.003139,-0.001599,0.003523,-0.003518,-76.495348,0.004066,
790,1990,0.158280,-0.252227,0.999998,0.000183,-0.000921,0.005700,-0.001547,0.006044,-0.001264,-77.479870,0.006375,
1600,1300,-1.551649,-5.222054,0.999995,0.000249,-0.004946,0.008846,0.000259,0.008851,-0.004951,88.924918,0.008872,
880,1020,2.239580,-7.622041,0.999997,0.000232,-0.002801,0.008167,0.000143,0.008169,-0.002803,89.251303,0.008301,
1260,340,-0.044915,-13.537707,0.999998,0.000168,-0.001516,0.005318,0.000103,0.005320,-0.001518,89.132910,0.005481,
1360,840,-0.536955,-10.559186,0.999995,0.000270,-0.004517,0.006633,0.003409,0.007593,-0.005477,74.274998,0.007837,
1110,360,0.204998,-13.377198,0.999998,0.000212,-0.001789,0.005626,-0.000226,0.005633,-0.001796,-88.254337,0.005755,
1800,1890,-0.845379,-1.059194,0.999998,0.000184,-0.003017,0.007709,0.001408,0.007891,-0.003198,82.643284,0.007938,
1720,1730,-1.108179,-2.094890,0.999998,0.000173,-0.003337,0.007422,0.000158,0.007424,-0.003339,89.160502,0.007437,
1490,600,-0.724984,-11.557314,0.999997,0.000207,-0.004046,0.007442,0.001207,0.007568,-0.004171,84.069074,0.007581,
1050,490,0.394572,-12.521594,0.999996,0.000231,-0.002641,0.006175,-0.000801,0.006248,-0.002713,-84.853740,0.006266,
840,860,2.002346,-8.926019,0.999997,0.000186,-0.004257,0.008558,0.000985,0.008633,-0.004332,85.629877,0.008633,
630,430,1.766989,-11.958018,0.999998,0.000192,-0.003740,0.007572,-0.000112,0.007573,-0.003741,-89.434429,0.007573,
940,1370,0.991246,-4.360919,0.999997,0.000198,-0.004877,0.008463,0.000905,0.008525,-0.004938,86.135555,0.008560,
1310,470,-0.149067,-12.816785,0.999998,0.000174,-0.002065,0.005419,0.000529,0.005456,-0.002102,85.973644,0.005504,
1620,820,-1.858437,-9.279142,0.999997,0.000205,-0.004582,0.008750,-0.000819,0.008800,-0.004632,-86.498586,0.008804,
1530,1630,-0.677835,-2.420276,0.999997,0.000204,-0.003052,0.006841,-0.000441,0.006861,-0.003072,-87.452986,0.006873,
1200,2010,0.005001,-0.115013,0.999998,0.000139,-0.000136,0.004511,-0.000029,0.004512,-0.000136,-89.636527,0.005133,
1100,760,0.329228,-11.047075,0.999996,0.000249,-0.004168,0.006247,-0.003071,0.007085,-0.005006,-74.738352,0.007284,
1450,1570,-0.498146,-2.649717,0.999996,0.000227,-0.003036,0.006519,-0.000871,0.006598,-0.003115,-84.835286,0.006601,
670,1030,2.885863,-7.541156,0.999998,0.000172,-0.003272,0.007049,-0.000031,0.007049,-0.003272,-89.826378,0.007055,
970,880,1.475966,-9.044363,0.999996,0.000254,-0.005249,0.010123,0.000435,0.010135,-0.005262,88.379943,0.010138,
1660,1370,-1.644295,-4.761449,0.999997,0.000231,-0.004535,0.008292,0.000145,0.008293,-0.004536,89.354520,0.008306,
1830,930,-2.923589,-8.224490,0.999998,0.000205,-0.003306,0.006944,-0.000436,0.006962,-0.003325,-87.569561,0.006964,
1680,310,-0.942592,-13.216762,0.999998,0.000168,-0.003267,0.007259,-0.000171,0.007262,-0.003270,-89.072226,0.007274,
1380,1570,-0.309122,-2.496005,0.999998,0.000196,-0.002559,0.005944,-0.000874,0.006033,-0.002647,-84.194578,0.006048,
1410,800,-0.645573,-10.373882,0.999996,0.000261,-0.005669,0.008605,0.002470,0.009021,-0.006085,80.453770,0.009202,
920,1600,0.761027,-2.663117,0.999997,0.000215,-0.003357,0.007094,0.000545,0.007123,-0.003385,87.021690,0.007126,
1360,1690,-0.218069,-1.778276,0.999998,0.000197,-0.001813,0.005661,-0.000233,0.005668,-0.001820,-88.213516,0.005788,
1870,290,-1.553103,-12.911045,0.999996,0.000225,-0.003651,0.007337,-0.000022,0.007337,-0.003651,-89.886651,0.007337,
860,1670,0.850941,-2.293576,0.999998,0.000148,-0.003158,0.007057,0.000150,0.007059,-0.003161,89.160536,0.007072,
1660,960,-2.401407,-8.078941,0.999996,0.000220,-0.003248,0.007761,-0.000736,0.007810,-0.003297,-86.193867,0.007841,
1730,1030,-2.679912,-7.539282,0.999997,0.000205,-0.003204,0.007364,0.000023,0.007364,-0.003204,89.875052,0.007385,
1390,950,-1.353908,-9.214121,0.999985,0.000000,-0.004308,0.013386,0.006457,0.015492,-0.006414,71.939544,0.015568,
760,80,0.246299,-14.767291,0.999997,0.000187,-0.000943,0.005922,0.001744,0.006340,-0.001360,76.535150,0.006675,
1770,460,-1.592628,-11.882111,0.999995,0.000252,-0.003785,0.007633,0.000142,0.007635,-0.003787,89.286319,0.007635,
1150,590,0.157858,-12.172345,0.999998,0.000202,-0.002193,0.005088,-0.001047,0.005235,-0.002341,-81.978145,0.005245,
1000,1620,0.495847,-2.351881,0.999997,0.000219,-0.002814,0.006479,0.000616,0.006520,-0.002855,86.226972,0.006536,
790,1970,0.229004,-0.369234,0.999998,0.000177,-0.001151,0.005829,-0.001508,0.006141,-0.001463,-78.313374,0.006415,
630,1980,0.419584,-0.428595,0.999996,0.000242,-0.003124,0.007975,-0.002091,0.008356,-0.003505,-79.677071,0.008392,
880,1000,2.223525,-7.783995,0.999997,0.000238,-0.002877,0.008090,0.000379,0.008103,-0.002890,88.025009,0.008213,
560,690,2.671165,-9.814342,0.999453,0.000000,-0.005585,0.007085,-0.000305,0.007092,-0.005592,-88.619799,0.007475,
1310,1200,-0.459482,-4.033966,0.999996,0.000242,-0.003351,0.002649,-0.001082,0.002838,-0.003540,-80.085392,0.003749,
590,240,1.404256,-13.267953,0.999997,0.000219,-0.003745,0.007201,0.000214,0.007205,-0.003749,88.881111,0.007207,
1450,40,-0.026771,-15.019656,0.999999,0.000114,-0.000066,0.004678,-0.000489,0.004728,-0.000116,-84.176234,0.005393,
1310,450,-0.145455,-12.925087,0.999998,0.000142,-0.002014,0.005407,0.000433,0.005432,-0.002039,86.670327,0.005488,
1830,950,-2.957195,-8.084964,0.999998,0.000182,-0.003241,0.006792,-0.000313,0.006802,-0.003250,-88.214514,0.006804,
1260,320,-0.041800,-13.645874,0.999998,0.000186,-0.001477,0.005308,0.000064,0.005308,-0.001477,89.463650,0.005479,
1700,1730,-1.042563,-2.055116,0.999998,0.000168,-0.003268,0.007376,0.000136,0.007377,-0.003270,89.268501,0.007393,
760,60,0.161049,-14.887853,0.999998,0.000185,-0.000618,0.005754,0.001762,0.006209,-0.001073,75.527430,0.006637,
900,1370,1.186727,-4.500004,0.999997,0.000207,-0.004858,0.008542,0.000504,0.008561,-0.004877,87.850729,0.008588,
1850,700,-2.461272,-9.852488,0.999996,0.000235,-0.003767,0.007506,-0.000242,0.007511,-0.003772,-88.770097,0.007511,
1530,1610,-0.701766,-2.559639,0.999998,0.000193,-0.003262,0.006954,-0.000539,0.006982,-0.003291,-86.987122,0.006986,
970,250,0.352612,-13.879565,0.999998,0.000202,-0.001918,0.005966,0.000231,0.005973,-0.001925,88.320591,0.006097,
1200,1480,0.059531,-2.802174,0.999998,0.000185,-0.001889,0.004761,0.000366,0.004781,-0.001909,86.859180,0.004814,
990,1180,1.339590,-5.931004,0.999994,0.000297,-0.005529,0.010349,0.000066,0.010350,-0.005529,89.763520,0.010358,
1000,1080,1.807381,-6.961946,0.999996,0.000262,-0.003989,0.011013,0.000002,0.011013,-0.003989,89.992378,0.011152,
1640,570,-1.301452,-11.345434,0.999997,0.000218,-0.004173,0.007916,0.000326,0.007924,-0.004182,88.455231,0.007928,
1730,1010,-2.673686,-7.690240,0.999998,0.000178,-0.003202,0.007350,-0.000244,0.007356,-0.003208,-88.673971,0.007376,
1450,1550,-0.511129,-2.781178,0.999996,0.000231,-0.003129,0.006583,-0.000978,0.006681,-0.003226,-84.307793,0.006682,
840,1670,0.913761,-2.333599,0.999998,0.000144,-0.003178,0.007165,0.000124,0.007167,-0.003179,89.313021,0.007182,
630,450,1.811479,-11.805490,0.999997,0.000208,-0.003774,0.007595,-0.000128,0.007596,-0.003775,-89.354348,0.007596,
790,1950,0.295967,-0.486619,0.999997,0.000202,-0.001514,0.006171,-0.001504,0.006455,-0.001798,-79.308371,0.006663,
1230,2010,-0.000134,-0.114398,0.999999,0.000128,-0.000160,0.004528,-0.000036,0.004528,-0.000161,-89.558142,0.005138,
1010,360,0.405214,-13.258399,0.999997,0.000213,-0.002187,0.006107,-0.000242,0.006114,-0.002194,-88.332186,0.006194,
980,1110,1.755843,-6.709603,0.999993,0.000319,-0.004109,0.010443,-0.000608,0.010468,-0.004135,-87.611550,0.010545,
1100,740,0.310082,-11.172882,0.999996,0.000256,-0.003922,0.006110,-0.002890,0.006883,-0.004694,-75.026744,0.007034,
1150,1500,0.161532,-2.766548,0.999997,0.000181,-0.002198,0.005216,0.000890,0.005321,-0.002303,83.247512,0.005337,
610,1980,0.489655,-0.493567,0.999996,0.000231,-0.003421,0.008449,-0.002042,0.008791,-0.003763,-80.508172,0.008821,
1790,910,-2.756015,-8.395546,0.999997,0.000174,-0.003419,0.007158,-0.000508,0.007182,-0.003443,-87.258220,0.007184,
1070,1140,1.172050,-5.592005,0.999992,0.000310,-0.003755,0.009503,0.004772,0.011042,-0.005294,72.126782,0.011045,
710,1110,2.687858,-6.959568,0.999997,0.000202,-0.003408,0.007341,-0.000603,0.007374,-0.003442,-86.801793,0.007380,
980,1310,0.910538,-4.713684,0.999996,0.000254,-0.005411,0.008902,0.001199,0.009002,-0.005511,85.244951,0.009077,
1400,1000,-1.502490,-8.163285,0.999938,0.000000,-0.007199,0.020666,0.002656,0.020917,-0.007450,84.604253,0.021203,
1330,1760,-0.135007,-1.367824,0.999998,0.000149,-0.001564,0.005390,-0.000119,0.005392,-0.001566,-89.021186,0.005548,
1390,930,-1.255645,-9.434121,0.999990,0.000358,-0.003474,0.010544,0.005769,0.012613,-0.005543,70.270507,0.012644,
1420,230,-0.214102,-14.052795,0.999998,0.000199,-0.001493,0.005522,-0.000142,0.005524,-0.001496,-88.837013,0.005715,
1260,300,-0.040724,-13.752110,0.999998,0.000176,-0.001390,0.005237,0.000081,0.005238,-0.001391,89.297955,0.005426,
1410,490,-0.387380,-12.527891,0.999997,0.000203,-0.002620,0.006149,0.000805,0.006223,-0.002694,84.795723,0.006241,
840,840,1.939204,-9.096069,0.999997,0.000181,-0.004413,0.008647,0.000921,0.008712,-0.004478,85.986927,0.008713,
1640,1370,-1.551300,-4.714314,0.999998,0.000203,-0.004611,0.008370,0.000069,0.008370,-0.004612,89.695527,0.008385,
1260,1690,-0.047024,-1.714626,0.999998,0.000157,-0.001632,0.005320,-0.000134,0.005323,-0.001635,-88.897480,0.005453,
560,790,2.899347,-9.069352,0.999980,0.000000,-0.004075,0.006570,-0.000255,0.006577,-0.004081,-88.628465,0.006640,
1290,40,-0.006005,-15.027139,0.999999,0.000150,-0.000038,0.004454,-0.000092,0.004456,-0.000040,-88.833295,0.005122,
1700,830,-2.229694,-9.085299,0.999997,0.000203,-0.004066,0.008055,-0.000898,0.008121,-0.004132,-85.784974,0.008122,
1200,1460,0.057694,-2.896795,0.999998,0.000168,-0.001881,0.004587,0.000434,0.004616,-0.001910,86.181575,0.004639,
1830,1390,-2.292981,-4.960197,0.999997,0.000212,-0.003835,0.007605,0.000214,0.007609,-0.003839,88.927914,0.007609,
1530,1590,-0.729220,-2.703000,0.999998,0.000189,-0.003382,0.007054,-0.000602,0.007089,-0.003416,-86.709858,0.007090,
680,1870,0.880639,-1.177827,0.999997,0.000205,-0.003240,0.007520,-0.001057,0.007622,-0.003343,-84.443641,0.007642,
1660,940,-2.364840,-8.236060,0.999997,0.000222,-0.003415,0.007824,-0.000742,0.007873,-0.003464,-86.241635,0.007892,
1000,1060,1.867357,-7.182431,0.999994,0.000281,-0.003806,0.011683,0.000054,0.011683,-0.003806,89.801958,0.011917,
920,1560,0.809102,-2.948554,0.999997,0.000212,-0.003488,0.007139,0.000614,0.007175,-0.003523,86.701911,0.007175,
1750,270,-1.062523,-13.373955,0.999997,0.000209,-0.003500,0.007553,-0.000331,0.007563,-0.003510,-88.286766,0.007569,
750,1660,1.244153,-2.605786,0.999997,0.000207,-0.003616,0.007546,0.000065,0.007546,-0.003616,89.665033,0.007548,
970,230,0.321974,-14.000465,0.999997,0.000194,-0.001776,0.005865,0.000297,0.005876,-0.001788,87.778532,0.006025,
1010,1860,0.217165,-0.894796,0.999998,0.000191,-0.001164,0.005535,-0.000400,0.005559,-0.001188,-86.592665,0.005854,
710,500,1.611140,-11.615734,0.999997,0.000205,-0.003874,0.007697,-0.000143,0.007699,-0.003876,-89.293435,0.007699,
1770,920,-2.703821,-8.334103,0.999997,0.000203,-0.003424,0.007271,-0.000536,0.007298,-0.003451,-87.135755,0.007301,
1820,270,-1.311231,-13.205619,0.999996,0.000217,-0.003572,0.007601,-0.000250,0.007606,-0.003577,-88.718620,0.007611,
1220,2010,0.001392,-0.113790,0.999999,0.000120,-0.000185,0.004521,-0.000024,0.004521,-0.000186,-89.711130,0.005117,
1730,990,-2.660685,-7.836527,0.999997,0.000180,-0.003207,0.007286,-0.000256,0.007293,-0.003214,-88.603698,0.007310,
630,470,1.851613,-11.651371,0.999997,0.000215,-0.003787,0.007611,-0.000135,0.007613,-0.003788,-89.319435,0.007613,
1100,720,0.302797,-11.292753,0.999996,0.000239,-0.003679,0.006017,-0.002686,0.006712,-0.004373,-75.508373,0.006814,
790,1930,0.372546,-0.616652,0.999997,0.000217,-0.001793,0.006315,-0.001409,0.006553,-0.002031,-80.415642,0.006709,
1450,1530,-0.521970,-2.915321,0.999997,0.000213,-0.003193,0.006640,-0.001019,0.006744,-0.003297,-84.146889,0.006745,
1740,1950,-0.391156,-0.525315,0.999996,0.000240,-0.002065,0.006628,0.001760,0.006971,-0.002407,78.979461,0.007081,
1860,290,-1.517252,-12.940209,0.999997,0.000218,-0.003649,0.007387,-0.000028,0.007387,-0.003649,-89.853912,0.007388,
590,1870,1.190950,-1.441490,0.999997,0.000211,-0.003671,0.007602,-0.000422,0.007618,-0.003686,-87.861405,0.007619,
1310,430,-0.139956,-13.034139,0.999998,0.000146,-0.001943,0.005423,0.000373,0.005442,-0.001962,87.109026,0.005512,
920,1370,1.088924,-4.432301,0.999997,0.000261,-0.004909,0.008517,0.000701,0.008554,-0.004945,87.017595,0.008589,
560,910,3.122403,-8.278165,0.999994,0.000000,-0.002978,0.006428,0.000074,0.006429,-0.002979,89.550988,0.006435,
1330,880,-0.752097,-10.776365,0.999997,0.000000,-0.001948,0.003227,0.002384,0.004157,-0.002879,68.673714,0.004259,
1790,890,-2.721246,-8.538041,0.999997,0.000199,-0.003485,0.007274,-0.000608,0.007308,-0.003519,-86.774811,0.007310,
1880,790,-2.803213,-9.124944,0.999998,0.000220,-0.003488,0.007051,-0.000176,0.007054,-0.003491,-89.042526,0.007054,
1370,880,-0.836947,-10.163896,0.999997,0.000201,-0.003373,0.006289,0.003610,0.007489,-0.004573,71.616793,0.007550,
1410,470,-0.379458,-12.651155,0.999997,0.000207,-0.002526,0.006136,0.000719,0.006195,-0.002585,85.289329,0.006223,
1830,1280,-2.584195,-5.786318,0.999996,0.000211,-0.003702,0.007412,0.000442,0.007429,-0.003720,87.724789,0.007429,
1690,1080,-2.523246,-7.164360,0.999995,0.000251,-0.003242,0.007576,0.000437,0.007593,-0.003260,87.690004,0.007619,
570,1690,1.839351,-2.826679,0.999984,0.000502,-0.004166,0.007054,0.000270,0.007060,-0.004173,88.620576,0.007099,
1090,640,0.315900,-11.724702,0.999996,0.000229,-0.003185,0.005980,-0.001874,0.006348,-0.003553,-78.878264,0.006363,
990,380,0.469929,-13.103033,0.999997,0.000229,-0.002517,0.006327,-0.000317,0.006338,-0.002528,-87.948159,0.006381,
800,390,1.056878,-12.663325,0.999998,0.000146,-0.003456,0.007425,-0.000114,0.007426,-0.003457,-89.401074,0.007432,
1310,1760,-0.104607,-1.352953,0.999998,0.000146,-0.001382,0.005335,-0.000038,0.005335,-0.001382,-89.677820,0.005538,
1200,1660,0.054089,-1.875514,0.999998,0.000170,-0.001714,0.005315,0.000152,0.005318,-0.001717,88.763495,0.005428,
1000,1040,1.900506,-7.420775,0.999994,0.000302,-0.003749,0.011687,0.000055,0.011687,-0.003750,89.796830,0.011934,
1260,280,-0.038529,-13.855990,0.999998,0.000164,-0.001308,0.005241,0.000046,0.005242,-0.001309,89.598420,0.005456,
1830,1370,-2.345513,-5.110402,0.999997,0.000211,-0.003820,0.007547,0.000274,0.007554,-0.003827,88.618781,0.007554,
1300,1210,-0.341801,-3.909106,0.999996,0.000238,-0.003641,0.002676,-0.001036,0.002842,-0.003807,-80.921417,0.003958,
1020,230,0.246599,-14.036230,0.999998,0.000171,-0.001439,0.005635,0.000234,0.005643,-0.001447,88.110001,0.005862,
920,1540,0.831420,-3.090499,0.999997,0.000222,-0.003621,0.007288,0.000692,0.007332,-0.003665,86.382894,0.007332,
1680,870,-2.265925,-8.780813,0.999997,0.000216,-0.003860,0.008025,-0.000913,0.008095,-0.003930,-85.631989,0.008096,
1530,1570,-0.752914,-2.845334,0.999997,0.000203,-0.003435,0.007100,-0.000644,0.007139,-0.003474,-86.515249,0.007140,
1090,1280,0.395564,-4.249222,0.999997,0.000218,-0.004556,0.006826,0.003131,0.007630,-0.005360,75.589785,0.007836,
1580,1470,-1.077903,-3.732075,0.999998,0.000190,-0.004227,0.007892,-0.000613,0.007923,-0.004258,-87.112934,0.007930,
1590,1880,-0.379445,-0.868504,0.999998,0.000177,-0.001872,0.006091,0.000796,0.006170,-0.001950,84.348084,0.006307,
860,1430,1.248475,-4.114391,0.999996,0.000239,-0.004475,0.008131,0.000410,0.008145,-0.004488,88.137659,0.008159,
1740,130,-0.506074,-14.422356,0.999997,0.000218,-0.002367,0.006911,-0.001606,0.007181,-0.002637,-80.454518,0.007265,
560,420,2.000103,-11.864459,0.999998,0.000000,-0.003661,0.007483,-0.000090,0.007483,-0.003661,-89.538132,0.007484,
840,820,1.871366,-9.272998,0.999996,0.000211,-0.004587,0.008769,0.000832,0.008821,-0.004639,86.449769,0.008825,
1880,250,-1.463274,-13.174763,0.999996,0.000222,-0.003649,0.007305,-0.000097,0.007306,-0.003650,-89.492409,0.007306,
1520,1040,-2.066580,-7.449921,0.999998,0.000188,-0.002725,0.008990,0.000197,0.008993,-0.002728,89.038399,0.009222,
710,1090,2.719067,-7.108119,0.999997,0.000212,-0.003327,0.007259,-0.000376,0.007272,-0.003340,-87.966713,0.007280,
1450,1510,-0.535594,-3.046048,0.999997,0.000216,-0.003262,0.006683,-0.001075,0.006798,-0.003376,-83.897893,0.006798,
590,1860,1.234159,-1.517199,0.999997,0.000202,-0.003684,0.007476,-0.000340,0.007486,-0.003694,-88.256622,0.007487,
630,490,1.897489,-11.498997,0.999997,0.000207,-0.003787,0.007648,-0.000086,0.007649,-0.003788,-89.567126,0.007649,
1810,1280,-2.509749,-5.754161,0.999997,0.000209,-0.003769,0.007497,0.000534,0.007522,-0.003794,87.292690,0.007522,
970,210,0.291365,-14.115060,0.999998,0.000180,-0.001641,0.005734,0.000390,0.005754,-0.001662,86.979201,0.005923,
1320,2020,-0.006027,-0.070066,0.999998,0.000000,-0.000102,0.004577,0.000217,0.004587,-0.000112,87.353807,0.005233,
1600,1280,-1.613733,-5.401065,0.999995,0.000253,-0.004941,0.008922,0.000442,0.008936,-0.004955,88.174525,0.008954,
1790,870,-2.675409,-8.685883,0.999997,0.000221,-0.003588,0.007378,-0.000692,0.007422,-0.003632,-86.401690,0.007422,
580,1690,1.801435,-2.805182,0.999998,0.000200,-0.004027,0.007216,0.000193,0.007220,-0.004030,89.016438,0.007236,
1730,1190,-2.443574,-6.341251,0.999996,0.000240,-0.003721,0.007677,0.000800,0.007733,-0.003777,86.004180,0.007734,
1750,250,-1.002401,-13.524326,0.999998,0.000201,-0.003443,0.007516,-0.000442,0.007534,-0.003461,-87.694707,0.007542,
1150,570,0.162362,-12.275312,0.999998,0.000180,-0.002199,0.005138,-0.000955,0.005260,-0.002321,-82.703762,0.005272,
1530,720,-1.099921,-10.428191,0.999997,0.000210,-0.005156,0.008817,0.000671,0.008849,-0.005188,87.255342,0.008893,
1870,790,-2.767453,-9.145108,0.999997,0.000221,-0.003527,0.007123,-0.000229,0.007128,-0.003531,-88.769805,0.007128,
1770,960,-2.769421,-8.040873,0.999998,0.000169,-0.003360,0.007163,-0.000408,0.007179,-0.003376,-87.785331,0.007183,
1790,160,-0.792669,-14.116235,0.999998,0.000197,-0.002961,0.007627,-0.001459,0.007824,-0.003158,-82.295893,0.007873,
750,1640,1.284646,-2.758130,0.999995,0.000264,-0.003679,0.007579,0.000130,0.007581,-0.003681,89.339359,0.007582,
1370,900,-0.999721,-10.042615,0.999995,0.000282,-0.002638,0.006801,0.004491,0.008596,-0.004434,68.208970,0.008598,
1170,1760,0.083665,-1.349934,0.999998,0.000144,-0.001287,0.005333,-0.000024,0.005333,-0.001287,-89.794694,0.005566,
1410,450,-0.369297,-12.773472,0.999996,0.000224,-0.002476,0.006085,0.000657,0.006135,-0.002526,85.639485,0.006167,
710,1620,1.474918,-3.005255,0.999996,0.000233,-0.003764,0.007593,0.000156,0.007595,-0.003766,89.214266,0.007596,
790,1910,0.439345,-0.742358,0.999997,0.000211,-0.002123,0.006489,-0.001238,0.006663,-0.002297,-81.981169,0.006770,
1210,2010,0.003623,-0.114487,0.999999,0.000138,-0.000159,0.004519,-0.000020,0.004519,-0.000159,-89.757529,0.005129,
1670,1080,-2.458152,-7.159785,0.999996,0.000269,-0.003190,0.007664,0.000501,0.007687,-0.003213,87.361202,0.007721,
780,390,1.126326,-12.618777,0.999998,0.000158,-0.003466,0.007443,-0.000068,0.007444,-0.003467,-89.643532,0.007450,
1160,1610,0.130636,-2.161180,0.999998,0.000167,-0.001952,0.005391,0.000361,0.005409,-0.001970,87.188917,0.005475,
1280,40,-0.005897,-15.027367,0.999999,0.000136,-0.000031,0.004463,-0.000053,0.004464,-0.000032,-89.324270,0.005136,
1050,470,0.386670,-12.646228,0.999997,0.000223,-0.002542,0.006145,-0.000715,0.006203,-0.002600,-85.328000,0.006230,
1100,700,0.295115,-11.410796,0.999996,0.000239,-0.003495,0.005913,-0.002474,0.006523,-0.004106,-76.129765,0.006596,
1200,1900,0.021961,-0.630019,0.999998,0.000166,-0.000661,0.004884,-0.000053,0.004885,-0.000661,-89.454180,0.005300,
990,360,0.450840,-13.228330,0.999998,0.000167,-0.002326,0.006233,-0.000220,0.006239,-0.002332,-88.529171,0.006305,
1110,700,0.261683,-11.466312,0.999997,0.000232,-0.003294,0.005602,-0.002443,0.006229,-0.003921,-75.609315,0.006298,
1470,1860,-0.235551,-0.902117,0.999998,0.000171,-0.001186,0.005607,0.000462,0.005638,-0.001217,86.131093,0.005934,
1260,260,-0.035298,-13.960902,0.999998,0.000164,-0.001197,0.005153,0.000023,0.005153,-0.001198,89.793423,0.005394,
1310,410,-0.137273,-13.143814,0.999998,0.000161,-0.001880,0.005436,0.000319,0.005450,-0.001894,87.510561,0.005533,
1530,1550,-0.775536,-2.988280,0.999998,0.000195,-0.003501,0.007129,-0.000696,0.007174,-0.003547,-86.271536,0.007174,
920,1520,0.857393,-3.238032,0.999997,0.000224,-0.003801,0.007444,0.000777,0.007497,-0.003855,86.064201,0.007498,
1830,1350,-2.397605,-5.262021,0.999996,0.000220,-0.003804,0.007572,0.000298,0.007580,-0.003811,88.500603,0.007580,
1470,620,-0.662446,-11.479515,0.999996,0.000227,-0.004032,0.007366,0.001365,0.007527,-0.004193,83.267441,0.007544,
1680,850,-2.210513,-8.943584,0.999996,0.000255,-0.003998,0.008148,-0.000953,0.008222,-0.004072,-85.540269,0.008222,
1680,290,-0.895484,-13.358394,0.999998,0.000154,-0.003201,0.007207,-0.000302,0.007215,-0.003209,-88.340820,0.007230,
560,400,1.963591,-12.013309,0.999997,0.000000,-0.003867,0.007299,-0.000116,0.007300,-0.003869,-89.402657,0.007305,
1400,940,-1.345048,-9.153228,0.999989,0.000383,-0.004326,0.011839,0.005393,0.013473,-0.005960,73.143038,0.013503,
1000,230,0.275343,-14.022271,0.999998,0.000185,-0.001407,0.005701,0.000324,0.005716,-0.001422,87.396150,0.005951,
1450,1490,-0.546644,-3.180087,0.999997,0.000231,-0.003425,0.006798,-0.001210,0.006939,-0.003566,-83.340426,0.006940,
640,1370,2.319353,-5.094601,0.999997,0.000218,-0.003827,0.007591,-0.000306,0.007599,-0.003835,-88.467112,0.007599,
590,1690,1.763187,-2.778015,0.999997,0.000215,-0.003784,0.007358,0.000111,0.007359,-0.003785,89.430733,0.007360,
1270,860,-0.309927,-11.396065,0.999994,0.000000,-0.006525,0.002244,-0.000176,0.002247,-0.006528,-88.850551,0.006633,
1520,1020,-2.070828,-7.626127,0.999998,0.000189,-0.002710,0.008910,-0.000098,0.008910,-0.002711,-89.518575,0.009135,
630,930,2.933229,-8.222751,0.999997,0.000202,-0.003303,0.006917,0.000464,0.006938,-0.003324,87.404104,0.006940,
1750,230,-0.937290,-13.675388,0.999997,0.000192,-0.003371,0.007448,-0.000599,0.007481,-0.003404,-86.841790,0.007491,
1660,920,-2.324681,-8.393211,0.999996,0.000229,-0.003596,0.008016,-0.000900,0.008086,-0.003665,-85.592237,0.008098,
700,530,1.715742,-11.357980,0.999997,0.000198,-0.003923,0.007762,-0.000102,0.007763,-0.003924,-89.501409,0.007763,
840,60,0.109296,-14.907086,0.999998,0.000191,-0.000377,0.005431,0.001328,0.005720,-0.000666,77.711601,0.006256,
1770,940,-2.737134,-8.188757,0.999997,0.000185,-0.003411,0.007274,-0.000580,0.007306,-0.003442,-86.904136,0.007310,
850,1300,1.615844,-5.251731,0.999995,0.000234,-0.004876,0.008758,-0.000361,0.008767,-0.004885,-88.484543,0.008787,
580,270,1.540614,-13.017198,0.999997,0.000230,-0.004788,0.007764,0.000204,0.007767,-0.004791,89.067719,0.007837,
1740,500,-1.561164,-11.645393,0.999996,0.000237,-0.003890,0.007717,0.000168,0.007720,-0.003892,89.168518,0.007720,
1880,240,-1.431168,-13.246357,0.999996,0.000220,-0.003654,0.007304,-0.000122,0.007305,-0.003655,-89.361115,0.007305,
970,190,0.258483,-14.230593,0.999997,0.000195,-0.001505,0.005681,0.000469,0.005711,-0.001535,86.282899,0.005911,
1410,430,-0.357422,-12.895795,0.999996,0.000223,-0.002443,0.006032,0.000607,0.006075,-0.002486,85.921605,0.006108,
1550,1920,-0.232695,-0.609267,0.999998,0.000186,-0.000941,0.005627,0.000853,0.005736,-0.001050,82.718382,0.006108,
1070,1280,0.492142,-4.407414,0.999995,0.000261,-0.005000,0.007639,0.002864,0.008258,-0.005619,77.808389,0.008435,
1560,1470,-0.992306,-3.672173,0.999997,0.000209,-0.004164,0.007795,-0.000724,0.007839,-0.004208,-86.549188,0.007846,
1200,520,0.060797,-12.589742,0.999998,0.000142,-0.001892,0.005071,-0.000298,0.005083,-0.001905,-87.554498,0.005136,
1790,850,-2.627463,-8.834302,0.999996,0.000226,-0.003626,0.007346,-0.000654,0.007385,-0.003664,-86.602292,0.007385,
700,930,2.696188,-8.265563,0.999997,0.000223,-0.003425,0.007309,0.000575,0.007340,-0.003455,86.944032,0.007344,
1590,1860,-0.427744,-0.993456,0.999997,0.000217,-0.002052,0.006274,0.000714,0.006335,-0.002113,85.130935,0.006451,
1710,1040,-2.612956,-7.466236,0.999996,0.000223,-0.003173,0.007432,0.000192,0.007436,-0.003177,88.963284,0.007462,
1330,700,-0.192579,-11.574059,0.999998,0.000172,-0.002817,0.004957,0.002276,0.005574,-0.003434,74.826763,0.005624,
1390,900,-1.057213,-9.706484,0.999994,0.000255,-0.003803,0.008504,0.004060,0.009723,-0.005021,73.293149,0.009724,
1100,680,0.289239,-11.530920,0.999996,0.000250,-0.003316,0.005814,-0.002273,0.006349,-0.003850,-76.766692,0.006396,
1530,1530,-0.796783,-3.130468,0.999998,0.000200,-0.003622,0.007238,-0.000741,0.007289,-0.003672,-86.112647,0.007289,
670,1010,2.876636,-7.684859,0.999998,0.000173,-0.003259,0.007045,0.000230,0.007050,-0.003264,88.719604,0.007057,
1870,1720,-1.675857,-2.545487,0.999997,0.000192,-0.003664,0.007423,-0.000125,0.007425,-0.003665,-89.356579,0.007425,
790,1890,0.507144,-0.877952,0.999997,0.000216,-0.002321,0.006629,-0.001147,0.006774,-0.002466,-82.811135,0.006857,
710,1070,2.732708,-7.251295,0.999997,0.000197,-0.003238,0.007192,-0.000216,0.007197,-0.003243,-88.814540,0.007208,
1600,1260,-1.681234,-5.579375,0.999996,0.000268,-0.004892,0.008952,0.000593,0.008978,-0.004917,87.552283,0.008991,
1360,820,-0.440453,-10.686629,0.999993,0.000310,-0.004684,0.006557,0.003345,0.007477,-0.005604,74.620621,0.007781,
1150,550,0.161387,-12.379824,0.999998,0.000177,-0.002219,0.005222,-0.000857,0.005319,-0.002316,-83.513716,0.005334,
1390,1640,-0.301175,-2.098251,0.999997,0.000202,-0.002297,0.005878,-0.000546,0.005914,-0.002333,-86.197917,0.005958,
1660,870,-2.188710,-8.799070,0.999996,0.000230,-0.003964,0.008226,-0.000964,0.008302,-0.004039,-85.504482,0.008303,
1810,420,-1.657449,-12.089694,0.999998,0.000193,-0.003772,0.007585,0.000117,0.007586,-0.003773,89.409252,0.007586,
860,1410,1.289159,-4.281798,0.999996,0.000229,-0.004575,0.008303,0.000364,0.008313,-0.004586,88.380366,0.008328,
1270,30,-0.005295,-15.070557,0.999998,0.000000,0.000000,0.004426,-0.000015,0.004426,0.000000,-89.810188,0.005111,
1050,450,0.377121,-12.767363,0.999997,0.000195,-0.002478,0.006056,-0.000646,0.006105,-0.002526,-85.698316,0.006135,
1790,1560,-1.745341,-3.556852,0.999997,0.000224,-0.003850,0.007712,-0.000113,0.007713,-0.003851,-89.439891,0.007713,
1320,2010,-0.008889,-0.115441,0.999998,0.000171,-0.000126,0.004561,0.000197,0.004569,-0.000134,87.592318,0.005200,
1100,230,0.141745,-14.083842,0.999998,0.000169,-0.001159,0.005306,0.000115,0.005308,-0.001161,88.981310,0.005581,
1400,930,-1.291718,-9.262699,0.999992,0.000319,-0.004159,0.010834,0.004935,0.012313,-0.005638,73.321454,0.012328,
780,1890,0.531959,-0.888474,0.999997,0.000198,-0.002312,0.006712,-0.001226,0.006875,-0.002475,-82.396849,0.006964,
1270,40,-0.005531,-15.027173,0.999998,0.000155,-0.000048,0.004471,-0.000029,0.004471,-0.000048,-89.635027,0.005135,
920,1500,0.883550,-3.391839,0.999997,0.000230,-0.003945,0.007594,0.000801,0.007650,-0.004001,86.046567,0.007652,
560,130,1.024364,-13.995612,0.999997,0.000000,-0.003759,0.007970,0.000936,0.008044,-0.003833,85.467338,0.008047,
1660,900,-2.268427,-8.555745,0.999997,0.000222,-0.003747,0.008062,-0.000984,0.008143,-0.003829,-85.268207,0.008148,
1470,1620,-0.515980,-2.368098,0.999997,0.000218,-0.002872,0.006521,-0.000608,0.006560,-0.002911,-86.314517,0.006574,
1050,360,0.317245,-13.313104,0.999998,0.000210,-0.002207,0.005970,-0.000321,0.005983,-0.002220,-87.757557,0.006048,
1310,390,-0.132823,-13.250787,0.999998,0.000151,-0.001801,0.005429,0.000240,0.005437,-0.001809,88.098864,0.005538,
1450,1470,-0.557570,-3.316423,0.999997,0.000228,-0.003637,0.006904,-0.001348,0.007073,-0.003807,-82.827804,0.007080,
1830,1330,-2.450578,-5.413987,0.999996,0.000226,-0.003771,0.007557,0.000365,0.007569,-0.003783,88.156570,0.007569,
1410,410,-0.345796,-13.015740,0.999997,0.000198,-0.002401,0.005989,0.000532,0.006022,-0.002435,86.387966,0.006059,
660,1370,2.241984,-5.054706,0.999997,0.000222,-0.003913,0.007640,-0.000334,0.007649,-0.003923,-88.343062,0.007650,
1540,110,-0.169770,-14.655271,0.999998,0.000166,-0.000741,0.005450,-0.000870,0.005570,-0.000861,-82.154623,0.005996,
630,910,2.900253,-8.359361,0.999998,0.000189,-0.003299,0.006864,0.000402,0.006880,-0.003315,87.737438,0.006881,
1790,830,-2.578938,-8.981023,0.999996,0.000229,-0.003680,0.007404,-0.000634,0.007440,-0.003717,-86.737551,0.007440,
790,1870,0.571386,-1.007953,0.999996,0.000224,-0.002547,0.006718,-0.000997,0.006824,-0.002653,-83.925599,0.006880,
1230,1760,0.001218,-1.336307,0.999998,0.000187,-0.001384,0.005247,0.000005,0.005247,-0.001384,89.954080,0.005439,
680,530,1.792430,-11.310466,0.999998,0.000198,-0.003878,0.007728,-0.000087,0.007729,-0.003879,-89.571046,0.007729,
970,170,0.226507,-14.341953,0.999997,0.000187,-0.001321,0.005578,0.000506,0.005615,-0.001358,85.827434,0.005859,
1750,210,-0.865645,-13.822899,0.999998,0.000184,-0.003303,0.007404,-0.000766,0.007459,-0.003358,-85.926224,0.007471,
1750,960,-2.701659,-8.049810,0.999998,0.000191,-0.003345,0.007301,-0.000461,0.007321,-0.003365,-87.522883,0.007329,
1800,190,-0.955503,-13.868592,0.999997,0.000199,-0.003214,0.007637,-0.001044,0.007736,-0.003313,-84.555323,0.007763,
1200,480,0.060133,-12.795075,0.999998,0.000170,-0.001858,0.005162,-0.000239,0.005170,-0.001866,-88.053621,0.005236,
1240,710,-0.013444,-11.798653,0.999998,0.000174,-0.001514,0.003038,0.000288,0.003056,-0.001532,86.389641,0.003056,
1390,880,-0.916875,-9.870998,0.999982,0.000484,-0.004662,0.008336,0.003127,0.009050,-0.005375,77.152916,0.009103,
1100,660,0.285315,-11.650228,0.999996,0.000232,-0.003149,0.005770,-0.002028,0.006209,-0.003589,-77.774588,0.006234,
570,820,2.918063,-8.891170,0.999995,0.000265,-0.003467,0.006916,0.000096,0.006917,-0.003468,89.468037,0.006917,
1060,230,0.189161,-14.064534,0.999998,0.000167,-0.001351,0.005435,0.000158,0.005439,-0.001354,88.670514,0.005663,
1720,340,-1.141665,-12.914191,0.999997,0.000191,-0.003450,0.007457,-0.000133,0.007458,-0.003451,-89.300088,0.007465,
1740,1550,-1.573349,-3.513214,0.999997,0.000202,-0.003881,0.007708,-0.000172,0.007711,-0.003883,-89.148517,0.007711,
930,500,0.780593,-12.159699,0.999997,0.000217,-0.003475,0.007147,-0.000667,0.007188,-0.003516,-86.421419,0.007189,
1530,1950,-0.151903,-0.435186,0.999998,0.000178,-0.000726,0.005382,0.000823,0.005491,-0.000835,82.457546,0.005917,
1660,1490,-1.374989,-3.786512,0.999996,0.000208,-0.004104,0.007894,-0.000257,0.007899,-0.004110,-88.774827,0.007902,
1430,1070,-1.687699,-6.925696,0.999984,0.000471,-0.005648,0.014075,-0.001676,0.014217,-0.005790,-85.178232,0.014298,
1260,2020,-0.004121,-0.070634,0.999999,0.000000,-0.000124,0.004525,0.000003,0.004525,-0.000124,89.958058,0.005155,
780,710,1.812811,-10.100432,0.999997,0.000259,-0.004424,0.008226,0.000374,0.008237,-0.004435,88.309306,0.008245,
560,120,0.970647,-14.077438,0.999994,0.000000,-0.003905,0.008121,0.000976,0.008200,-0.003983,85.390460,0.008201,
1520,1000,-2.053966,-7.807273,0.999997,0.000202,-0.002838,0.009198,-0.000418,0.009213,-0.002853,-88.011969,0.009433,
640,1670,1.625599,-2.797705,0.999997,0.000220,-0.003737,0.007536,0.000064,0.007536,-0.003738,89.674256,0.007536,
1880,230,-1.396726,-13.319950,0.999996,0.000216,-0.003648,0.007340,-0.000178,0.007342,-0.003651,-89.074352,0.007343,
920,1480,0.911010,-3.545007,0.999997,0.000211,-0.004059,0.007679,0.000803,0.007734,-0.004114,86.103613,0.007739,
1600,1240,-1.747381,-5.760874,0.999997,0.000237,-0.004800,0.008953,0.000724,0.008991,-0.004838,86.992850,0.008999,
840,800,1.804888,-9.450784,0.999996,0.000219,-0.004696,0.008740,0.000711,0.008778,-0.004734,86.977376,0.008787,
1870,1280,-2.729373,-5.864112,0.999996,0.000249,-0.003598,0.007251,0.000259,0.007258,-0.003604,88.635740,0.007258,
1150,530,0.160769,-12.485790,0.999998,0.000186,-0.002199,0.005332,-0.000790,0.005414,-0.002281,-84.079204,0.005436,
1450,1450,-0.572691,-3.459871,0.999996,0.000244,-0.003828,0.007057,-0.001485,0.007256,-0.004027,-82.366845,0.007271,
1310,370,-0.127464,-13.361438,0.999998,0.000154,-0.001706,0.005485,0.000179,0.005489,-0.001711,88.574752,0.005617,
1680,1830,-0.715231,-1.294695,0.999998,0.000162,-0.002863,0.006987,0.000730,0.007041,-0.002917,85.783852,0.007075,
1790,810,-2.527937,-9.131751,0.999997,0.000217,-0.003753,0.007538,-0.000660,0.007576,-0.003792,-86.666295,0.007576,
1830,1310,-2.504954,-5.565129,0.999996,0.000209,-0.003741,0.007463,0.000406,0.007478,-0.003756,87.925207,0.007478,
1050,430,0.366085,-12.888986,0.999997,0.000191,-0.002477,0.006049,-0.000585,0.006089,-0.002516,-86.094925,0.006120,
1470,1560,-0.565930,-2.765414,0.999996,0.000233,-0.003083,0.006675,-0.000826,0.006745,-0.003152,-85.193820,0.006749,
1520,110,-0.154677,-14.659118,0.999998,0.000188,-0.000804,0.005397,-0.000792,0.005496,-0.000904,-82.838003,0.005894,
790,1850,0.637284,-1.147147,0.999997,0.000204,-0.002696,0.006856,-0.000864,0.006934,-0.002773,-84.870599,0.006980,
630,890,2.867195,-8.497936,0.999997,0.000210,-0.003382,0.006924,0.000383,0.006938,-0.003396,87.871859,0.006939,
1030,360,0.361367,-13.283743,0.999997,0.000192,-0.002221,0.006053,-0.000296,0.006063,-0.002231,-87.955300,0.006133,
1660,1730,-0.911659,-1.973768,0.999998,0.000159,-0.003249,0.007224,0.000099,0.007225,-0.003250,89.461146,0.007237,
1570,1880,-0.343112,-0.851438,0.999997,0.000204,-0.001593,0.005979,0.000753,0.006053,-0.001667,84.375459,0.006254,
1410,390,-0.332047,-13.136367,0.999997,0.000196,-0.002342,0.005971,0.000463,0.005996,-0.002368,86.823444,0.006040,
1540,130,-0.212669,-14.543560,0.999997,0.000181,-0.000906,0.005562,-0.000824,0.005665,-0.001010,-82.852702,0.006043,
1810,1340,-2.349333,-5.298952,0.999997,0.000204,-0.003843,0.007639,0.000374,0.007651,-0.003855,88.138493,0.007651,
970,150,0.196018,-14.455266,0.999998,0.000170,-0.001141,0.005485,0.000558,0.005532,-0.001187,85.221209,0.005824,
1780,130,-0.620884,-14.355607,0.999996,0.000238,-0.002690,0.007363,-0.001761,0.007663,-0.002989,-80.346064,0.007724,
1610,900,-2.080737,-8.598029,0.999997,0.000243,-0.003889,0.008475,-0.001030,0.008560,-0.003975,-85.270278,0.008567,
1690,1040,-2.549601,-7.465954,0.999997,0.000196,-0.003125,0.007528,0.000198,0.007532,-0.003129,88.936892,0.007567,
1040,230,0.218195,-14.050279,0.999998,0.000192,-0.001486,0.005548,0.000164,0.005552,-0.001489,88.667920,0.005747,
1720,1550,-1.494645,-3.463075,0.999997,0.000214,-0.003917,0.007729,-0.000188,0.007732,-0.003920,-89.075051,0.007732,
1710,820,-2.243285,-9.153218,0.999997,0.000228,-0.004095,0.007995,-0.000851,0.008055,-0.004154,-85.994062,0.008056,
640,1650,1.671328,-2.947461,0.999996,0.000263,-0.003735,0.007555,0.000087,0.007556,-0.003736,89.557873,0.007556,
1100,640,0.285523,-11.761729,0.999996,0.000229,-0.002988,0.005808,-0.001808,0.006165,-0.003345,-78.827929,0.006172,
1260,710,-0.042600,-11.775064,0.999999,0.000148,-0.001608,0.003223,0.000890,0.003381,-0.001766,79.884523,0.003383,
1530,1970,-0.119268,-0.331502,0.999998,0.000158,-0.000549,0.005187,0.000833,0.005306,-0.000668,81.900053,0.005780,
1190,1890,0.031361,-0.681053,0.999998,0.000154,-0.000680,0.004907,-0.000070,0.004908,-0.000681,-89.281822,0.005318,
1090,1220,0.576424,-4.682292,0.999993,0.000292,-0.005050,0.007455,0.003215,0.008233,-0.005829,76.395158,0.008467,
1140,1200,0.495681,-4.180851,0.999998,0.000213,-0.003033,0.003303,0.001753,0.003756,-0.003486,75.519979,0.004190,
1660,1470,-1.415078,-3.943397,0.999996,0.000218,-0.004178,0.007925,-0.000213,0.007929,-0.004181,-88.992440,0.007933,
1800,170,-0.868673,-14.020836,0.999998,0.000181,-0.003057,0.007702,-0.001343,0.007867,-0.003222,-82.993909,0.007910,
1260,1200,-0.223308,-3.664148,0.999995,0.000000,-0.006548,0.002303,0.000347,0.002317,-0.006561,87.756208,0.006655,
1880,220,-1.359012,-13.395361,0.999997,0.000190,-0.003655,0.007382,-0.000240,0.007387,-0.003660,-88.756256,0.007388,
1750,190,-0.791631,-13.973415,0.999997,0.000183,-0.003233,0.007388,-0.000923,0.007468,-0.003313,-85.068801,0.007484,
560,110,0.920757,-14.156297,0.999989,0.000000,-0.004009,0.008460,0.001246,0.008584,-0.004133,84.350485,0.008586,
1720,300,-1.048022,-13.209687,0.999998,0.000180,-0.003199,0.007418,-0.000347,0.007429,-0.003210,-88.128926,0.007452,
1520,980,-2.009973,-7.993237,0.999997,0.000201,-0.003082,0.009237,-0.000686,0.009275,-0.003120,-86.821507,0.009439,
680,990,2.831963,-7.827605,0.999997,0.000206,-0.003253,0.007020,0.000198,0.007024,-0.003256,88.895842,0.007030,
1840,1470,-2.136302,-4.366378,0.999997,0.000194,-0.003821,0.007694,0.000047,0.007695,-0.003821,89.766018,0.007695,
1470,1080,-1.829703,-6.982507,0.999994,0.000264,-0.003820,0.010694,0.000190,0.010696,-0.003823,89.251038,0.010840,
710,1050,2.743792,-7.396097,0.999998,0.000189,-0.003235,0.007220,-0.000242,0.007225,-0.003241,-88.676220,0.007238,
880,980,2.198096,-7.947096,0.999997,0.000225,-0.002999,0.008221,0.000656,0.008259,-0.003037,86.664271,0.008355,
1060,590,0.402373,-11.924076,0.999997,0.000208,-0.003236,0.006317,-0.001524,0.006554,-0.003473,-81.150793,0.006558,
1750,680,-2.018223,-10.208796,0.999998,0.000154,-0.004087,0.007913,-0.000319,0.007921,-0.004095,-88.476172,0.007923,
1450,690,-0.647476,-11.030914,0.999996,0.000269,-0.004658,0.007765,0.001790,0.008018,-0.004911,81.964423,0.008085,
1780,1980,-0.332384,-0.368520,0.999996,0.000229,-0.001421,0.007037,0.002671,0.007810,-0.002194,73.864618,0.008056,
1450,300,-0.340117,-13.622087,0.999997,0.000191,-0.001854,0.005912,-0.000028,0.005912,-0.001854,-89.790569,0.006048,
580,650,2.457662,-10.157205,0.999996,0.000227,-0.004902,0.007637,0.000341,0.007646,-0.004911,88.442744,0.007748,
1310,350,-0.122386,-13.471116,0.999998,0.000159,-0.001635,0.005421,0.000129,0.005423,-0.001638,88.952947,0.005563,
700,1310,2.246554,-5.446840,0.999997,0.000225,-0.004019,0.007865,-0.000556,0.007891,-0.004045,-87.328490,0.007892,
1620,840,-1.925939,-9.102630,0.999997,0.000205,-0.004435,0.008684,-0.000917,0.008748,-0.004499,-86.021687,0.008749,
920,1460,0.936800,-3.698700,0.999997,0.000213,-0.004193,0.007747,0.000828,0.007805,-0.004250,86.050024,0.007815,
840,760,1.679074,-9.803237,0.999996,0.000238,-0.004792,0.008708,0.000436,0.008722,-0.004806,88.152521,0.008738,
1210,1760,0.030175,-1.340331,0.999998,0.000163,-0.001388,0.005244,0.000081,0.005245,-0.001389,89.301937,0.005435,
1600,1220,-1.816031,-5.936370,0.999997,0.000227,-0.004654,0.008909,0.000876,0.008965,-0.004710,86.321341,0.008969,
970,130,0.163593,-14.561540,0.999998,0.000176,-0.000994,0.005349,0.000575,0.005401,-0.001046,84.862651,0.005729,
630,870,2.829911,-8.640297,0.999997,0.000192,-0.003460,0.007095,0.000503,0.007119,-0.003484,87.279376,0.007120,
1830,1290,-2.557959,-5.712977,0.999996,0.000206,-0.003715,0.007396,0.000432,0.007413,-0.003732,87.778284,0.007413,
790,1830,0.694722,-1.283284,0.999997,0.000197,-0.002844,0.006965,-0.000715,0.007017,-0.002896,-85.853567,0.007052,
1830,1660,-1.675277,-2.891320,0.999997,0.000207,-0.003741,0.007553,-0.000100,0.007554,-0.003742,-89.495233,0.007554,
1660,880,-2.216883,-8.717348,0.999997,0.000225,-0.003882,0.008138,-0.000952,0.008213,-0.003957,-85.499087,0.008215,
1190,360,0.066536,-13.428343,0.999999,0.000141,-0.001579,0.005329,-0.000116,0.005331,-0.001581,-89.039347,0.005476,
1140,1190,0.589945,-4.208226,0.999998,0.000215,-0.002778,0.002970,0.001646,0.003408,-0.003216,75.100218,0.003830,
1590,900,-2.005487,-8.618817,0.999998,0.000169,-0.003971,0.008699,-0.001078,0.008790,-0.004062,-85.170000,0.008799,
1330,2010,-0.010506,-0.115007,0.999998,0.000174,-0.000174,0.004574,0.000196,0.004582,-0.000182,87.645453,0.005189,
1750,170,-0.709220,-14.118883,0.999997,0.000204,-0.003108,0.007260,-0.001129,0.007382,-0.003229,-83.854505,0.007401,
1760,130,-0.563107,-14.388784,0.999998,0.000187,-0.002826,0.007105,-0.001563,0.007345,-0.003066,-81.260922,0.007378,
1520,130,-0.193681,-14.550076,0.999998,0.000194,-0.000964,0.005455,-0.000729,0.005537,-0.001046,-83.599523,0.005883,
1240,40,-0.003093,-15.026831,0.999999,0.000143,-0.000192,0.004450,-0.000009,0.004450,-0.000192,-89.885597,0.005031,
1790,1340,-2.269989,-5.260031,0.999997,0.000203,-0.003951,0.007686,0.000433,0.007702,-0.003967,87.870184,0.007703,
1640,1470,-1.331958,-3.894304,0.999997,0.000199,-0.004227,0.007964,-0.000275,0.007970,-0.004233,-88.709264,0.007976,
830,1600,1.071555,-2.873341,0.999997,0.000203,-0.003623,0.007424,0.000309,0.007432,-0.003632,88.399572,0.007433,
1570,1860,-0.387777,-0.973574,0.999997,0.000203,-0.001785,0.006139,0.000672,0.006196,-0.001841,85.186302,0.006363,
1100,840,0.549185,-10.527206,0.999995,0.000289,-0.004681,0.006819,-0.003374,0.007736,-0.005598,-74.797475,0.007989,
1100,450,0.255868,-12.856793,0.999998,0.000190,-0.002178,0.005729,-0.000549,0.005767,-0.002216,-86.043334,0.005818,
1000,1020,1.903398,-7.642989,0.999995,0.000283,-0.003732,0.011469,-0.000041,0.011469,-0.003732,-89.846264,0.011700,
1430,880,-1.126018,-9.436721,0.999993,0.000302,-0.005323,0.010450,0.001465,0.010585,-0.005458,84.737274,0.010587,
1360,800,-0.384297,-10.819637,0.999995,0.000276,-0.004547,0.006508,0.003382,0.007461,-0.005500,74.268899,0.007736,
1520,960,-1.952620,-8.175994,0.999997,0.000223,-0.003382,0.009296,-0.000878,0.009357,-0.003442,-86.056315,0.009465,
1190,1870,0.033035,-0.778029,0.999998,0.000149,-0.000783,0.004965,-0.000071,0.004966,-0.000784,-89.293604,0.005339,
660,390,1.563422,-12.335652,0.999995,0.000252,-0.003744,0.007573,-0.000069,0.007573,-0.003745,-89.651146,0.007573,
990,1160,1.448619,-6.137255,0.999995,0.000265,-0.005241,0.010483,-0.000130,0.010484,-0.005242,-89.527594,0.010484,
780,1390,1.695927,-4.647534,0.999998,0.000191,-0.004368,0.008205,-0.000136,0.008206,-0.004369,-89.381561,0.008212,
720,1050,2.711718,-7.396206,0.999997,0.000200,-0.003251,0.007273,-0.000247,0.007279,-0.003257,-88.658657,0.007292,
660,990,2.897167,-7.822254,0.999997,0.000213,-0.003241,0.006908,0.000193,0.006911,-0.003245,88.911203,0.006916,
1360,610,-0.276281,-11.941288,0.999997,0.000187,-0.002807,0.005661,0.001520,0.005926,-0.003071,80.128271,0.005927,
1450,1430,-0.587378,-3.605676,0.999996,0.000223,-0.003978,0.007146,-0.001574,0.007364,-0.004197,-82.100419,0.007388,
1410,370,-0.318971,-13.255142,0.999997,0.000199,-0.002239,0.005969,0.000360,0.005985,-0.002255,87.492234,0.006045,
660,410,1.608907,-12.183017,0.999996,0.000224,-0.003770,0.007633,-0.000102,0.007634,-0.003771,-89.487978,0.007634,
750,1990,0.187350,-0.263236,0.999998,0.000176,-0.000642,0.005882,-0.001875,0.006382,-0.001142,-75.055877,0.006807,
1190,1760,0.058430,-1.346486,0.999999,0.000128,-0.001348,0.005275,0.000037,0.005275,-0.001348,89.678008,0.005481,
920,1440,0.965591,-3.855156,0.999997,0.000225,-0.004354,0.007859,0.000819,0.007914,-0.004409,86.182654,0.007931,
710,1030,2.757584,-7.540778,0.999997,0.000197,-0.003229,0.007286,-0.000047,0.007286,-0.003229,-89.741295,0.007302,
770,580,1.542161,-11.133065,0.999995,0.000249,-0.004164,0.007898,-0.000102,0.007899,-0.004165,-89.515355,0.007903,
1670,1840,-0.658206,-1.209914,0.999997,0.000221,-0.002768,0.006852,0.000773,0.006913,-0.002830,85.435800,0.006951,
1600,1200,-1.888639,-6.117734,0.999997,0.000214,-0.004469,0.008780,0.000971,0.008851,-0.004539,85.829646,0.008852,
1260,240,-0.033282,-14.064338,0.999998,0.000149,-0.001107,0.005108,-0.000007,0.005108,-0.001107,-89.932797,0.005375,
1790,790,-2.472661,-9.283923,0.999997,0.000219,-0.003819,0.007567,-0.000623,0.007601,-0.003853,-86.878167,0.007601,
1590,1660,-0.825504,-2.340238,0.999997,0.000214,-0.003159,0.007070,-0.000196,0.007074,-0.003163,-88.902885,0.007087,
1830,1270,-2.609688,-5.860861,0.999997,0.000207,-0.003679,0.007416,0.000459,0.007435,-0.003698,87.634799,0.007435,
630,60,0.314056,-14.813962,0.999996,0.000250,-0.002957,0.007424,0.002132,0.007845,-0.003378,78.834878,0.007870,
1230,800,0.002758,-11.610689,0.999995,0.000283,-0.002469,0.001536,-0.000051,0.001537,-0.002470,-89.273776,0.002495,
1750,660,-1.966278,-10.367499,0.999997,0.000184,-0.004095,0.007906,-0.000244,0.007911,-0.004100,-88.837922,0.007913,
1820,210,-1.102206,-13.667458,0.999996,0.000229,-0.003486,0.007711,-0.000601,0.007743,-0.003518,-86.938713,0.007754,
1420,40,-0.020592,-15.022159,0.999999,0.000127,-0.000204,0.004637,-0.000348,0.004662,-0.000229,-85.908735,0.005256,
1530,1990,-0.078441,-0.225458,0.999998,0.000167,-0.000380,0.005090,0.000832,0.005213,-0.000504,81.537092,0.005751,
770,1980,0.214342,-0.319447,0.999998,0.000168,-0.000952,0.005844,-0.001699,0.006246,-0.001353,-76.716362,0.006571,
1340,2000,-0.017217,-0.162176,0.999998,0.000164,-0.000229,0.004598,0.000214,0.004608,-0.000238,87.468735,0.005189,
1500,130,-0.172893,-14.557701,0.999998,0.000161,-0.001038,0.005359,-0.000593,0.005413,-0.001093,-84.747455,0.005725,
1260,860,-0.243370,-11.445978,0.999989,0.000000,-0.006866,0.002231,-0.000437,0.002252,-0.006887,-87.252861,0.007023,
670,990,2.863946,-7.826252,0.999997,0.000204,-0.003248,0.006966,0.000194,0.006970,-0.003251,88.910733,0.006975,
810,1600,1.144565,-2.918065,0.999997,0.000242,-0.003666,0.007492,0.000269,0.007499,-0.003673,88.621214,0.007499,
1430,300,-0.302571,-13.644916,0.999998,0.000204,-0.001894,0.005811,0.000081,0.005812,-0.001895,89.398741,0.005928,
590,250,1.438910,-13.196074,0.999997,0.000207,-0.003875,0.007278,0.000192,0.007281,-0.003878,89.015547,0.007286,
1360,780,-0.343902,-10.945010,0.999996,0.000245,-0.004331,0.006298,0.003262,0.007219,-0.005252,74.230595,0.007464,
560,100,0.857819,-14.240126,0.999966,0.000000,-0.004383,0.009249,0.001476,0.009407,-0.004541,83.890504,0.009409,
1790,1320,-2.325498,-5.415006,0.999996,0.000215,-0.003904,0.007717,0.000481,0.007737,-0.003924,87.634324,0.007737,
670,1420,2.074745,-4.647272,0.999996,0.000232,-0.003939,0.007763,-0.000171,0.007765,-0.003942,-89.164027,0.007766,
970,110,0.133216,-14.668993,0.999998,0.000203,-0.000843,0.005265,0.000640,0.005331,-0.000910,84.082132,0.005704,
640,990,2.961663,-7.819553,0.999998,0.000181,-0.003238,0.006768,0.000167,0.006771,-0.003241,89.043447,0.006773,
1410,350,-0.303185,-13.378161,0.999997,0.000196,-0.002146,0.005852,0.000283,0.005862,-0.002156,87.976169,0.005930,
880,1180,1.883700,-6.267555,0.999996,0.000227,-0.004399,0.008942,-0.001032,0.009021,-0.004478,-85.603669,0.009022,
1590,1020,-2.258369,-7.620986,0.999997,0.000240,-0.002792,0.008132,-0.000141,0.008134,-0.002794,-89.261066,0.008265,
1120,450,0.213546,-12.882275,0.999998,0.000168,-0.002065,0.005582,-0.000497,0.005614,-0.002098,-86.293701,0.005673,
1520,940,-1.879057,-8.363473,0.999995,0.000261,-0.003792,0.009465,-0.000978,0.009536,-0.003864,-85.803450,0.009594,
1460,1150,-1.435497,-6.168800,0.999993,0.000306,-0.005196,0.010683,-0.000072,0.010683,-0.005196,-89.740848,0.010684,
1190,1850,0.040929,-0.880899,0.999999,0.000148,-0.000880,0.005041,-0.000055,0.005042,-0.000880,-89.463794,0.005386,
1450,1390,-0.619331,-3.895027,0.999996,0.000234,-0.004386,0.007505,-0.001725,0.007750,-0.004631,-81.910986,0.007799,
1880,140,-0.999946,-13.999008,0.999998,0.000194,-0.003622,0.007864,-0.000897,0.007933,-0.003692,-85.561396,0.007939,
920,1420,0.999080,-4.016448,0.999997,0.000224,-0.004489,0.008037,0.000817,0.008090,-0.004542,86.282987,0.008111,
750,580,1.625117,-11.087225,0.999995,0.000248,-0.004094,0.007893,-0.000077,0.007894,-0.004094,-89.632890,0.007896,
1360,590,-0.275728,-12.055240,0.999997,0.000188,-0.002766,0.005709,0.001408,0.005937,-0.002993,80.807699,0.005937,
1210,800,0.049365,-11.579769,0.999996,0.000242,-0.002360,0.001697,-0.000901,0.001888,-0.002551,-78.027812,0.002647,
1830,1250,-2.664349,-6.011966,0.999997,0.000206,-0.003633,0.007254,0.000478,0.007275,-0.003654,87.491355,0.007275,
710,1010,2.747904,-7.689690,0.999998,0.000171,-0.003235,0.007261,0.000208,0.007265,-0.003240,88.862888,0.007279,
1290,1760,-0.080361,-1.348791,0.999999,0.000117,-0.001272,0.005274,0.000039,0.005274,-0.001272,89.656321,0.005505,
1570,1660,-0.764002,-2.297873,0.999997,0.000181,-0.003164,0.007009,-0.000265,0.007016,-0.003171,-88.510181,0.007026,
750,1970,0.274943,-0.387440,0.999997,0.000197,-0.000982,0.006025,-0.001817,0.006468,-0.001425,-76.296768,0.006797,
590,100,0.735769,-14.348479,0.999997,0.000191,-0.003594,0.008369,0.001651,0.008592,-0.003817,82.286717,0.008610,
1600,1620,-0.919333,-2.645600,0.999998,0.000206,-0.003380,0.007277,-0.000312,0.007286,-0.003389,-88.327126,0.007292,
1530,1920,-0.213653,-0.600991,0.999998,0.000173,-0.000988,0.005524,0.000737,0.005607,-0.001070,83.624145,0.005953,
1700,1810,-0.833912,-1.470651,0.999998,0.000152,-0.002924,0.007287,0.000714,0.007337,-0.002973,86.019434,0.007381,
1790,750,-2.366845,-9.587828,0.999997,0.000205,-0.003867,0.007662,-0.000516,0.007685,-0.003890,-87.441066,0.007685,
1340,2010,-0.013115,-0.115361,0.999998,0.000166,-0.000194,0.004575,0.000196,0.004583,-0.000202,87.648451,0.005179,
1080,40,0.015054,-15.024978,0.999998,0.000155,-0.000102,0.004572,0.000339,0.004597,-0.000126,85.874518,0.005237,
770,1960,0.288210,-0.435161,0.999997,0.000177,-0.001213,0.006083,-0.001642,0.006435,-0.001566,-77.883644,0.006712,
1090,1200,0.676996,-4.837976,0.999995,0.000258,-0.004626,0.007267,0.003366,0.008154,-0.005513,75.242844,0.008321,
1260,220,-0.028265,-14.165101,0.999998,0.000173,-0.001001,0.005045,0.000022,0.005045,-0.001001,89.793566,0.005343,
1080,1370,0.360858,-3.718703,0.999996,0.000210,-0.003655,0.006401,0.002288,0.006897,-0.004151,77.768050,0.006945,
880,1420,1.178527,-4.139059,0.999997,0.000190,-0.004540,0.008190,0.000505,0.008210,-0.004560,87.731358,0.008226,
560,90,0.783323,-14.338431,0.999829,0.000000,-0.005267,0.010182,0.001336,0.010296,-0.005382,85.094956,0.010300,
1410,330,-0.288805,-13.492226,0.999997,0.000197,-0.002035,0.005812,0.000186,0.005816,-0.002040,88.639637,0.005902,
1360,760,-0.318940,-11.071553,0.999997,0.000223,-0.004075,0.006083,0.003114,0.006962,-0.004954,74.243089,0.007166,
1640,430,-1.052201,-12.417927,0.999998,0.000162,-0.003543,0.007408,0.000248,0.007414,-0.003548,88.701454,0.007416,
840,740,1.619986,-9.974908,0.999996,0.000253,-0.004788,0.008624,0.000298,0.008631,-0.004795,88.726300,0.008648,
1620,860,-1.989266,-8.930039,0.999996,0.000237,-0.004287,0.008620,-0.000997,0.008697,-0.004363,-85.609304,0.008697,
1790,820,-2.553846,-9.054922,0.999996,0.000214,-0.003715,0.007477,-0.000647,0.007515,-0.003752,-86.700021,0.007515,
1790,1280,-2.432901,-5.722275,0.999996,0.000242,-0.003813,0.007593,0.000586,0.007623,-0.003843,87.065541,0.007623,
630,850,2.780901,-8.783346,0.999997,0.000178,-0.003527,0.007152,0.000527,0.007178,-0.003553,87.180344,0.007178,
1490,420,-0.559528,-12.810019,0.999997,0.000192,-0.002881,0.006595,0.000500,0.006621,-0.002907,86.989975,0.006637,
1080,510,0.323544,-12.466413,0.999997,0.000180,-0.002647,0.005957,-0.000981,0.006067,-0.002757,-83.577074,0.006076,
1540,60,-0.074272,-14.916223,0.999998,0.000154,-0.000271,0.005069,-0.000858,0.005203,-0.000406,-81.094049,0.005788,
1520,920,-1.796724,-8.555233,0.999996,0.000239,-0.004151,0.009605,-0.001006,0.009678,-0.004224,-85.840683,0.009704,
620,490,1.935315,-11.474567,0.999998,0.000176,-0.003774,0.007629,-0.000078,0.007630,-0.003774,-89.610257,0.007630,
1450,1370,-0.640144,-4.047729,0.999995,0.000244,-0.004620,0.007732,-0.001790,0.007987,-0.004875,-81.916576,0.008051,
790,800,2.030394,-9.366299,0.999997,0.000205,-0.004279,0.008365,0.000784,0.008414,-0.004328,86.464721,0.008415,
670,360,1.453964,-12.587586,0.999996,0.000215,-0.003697,0.007568,0.000016,0.007568,-0.003697,89.917916,0.007568,
920,1400,1.032291,-4.179511,0.999997,0.000218,-0.004656,0.008255,0.000802,0.008305,-0.004706,86.460004,0.008329,
960,1280,1.100651,-5.080407,0.999996,0.000254,-0.005576,0.009338,0.000652,0.009366,-0.005604,87.500261,0.009427,
1720,1150,-2.503702,-6.645379,0.999997,0.000200,-0.003578,0.007671,0.000797,0.007727,-0.003634,85.969638,0.007732,
1190,1830,0.041613,-0.980355,0.999999,0.000133,-0.000972,0.005058,-0.000018,0.005058,-0.000972,-89.831825,0.005368,
670,1580,1.712485,-3.409617,0.999996,0.000261,-0.003860,0.007646,0.000138,0.007647,-0.003861,89.312421,0.007647,
1830,1230,-2.711684,-6.153762,0.999997,0.000190,-0.003569,0.007154,0.000482,0.007176,-0.003591,87.428979,0.007176,
620,990,3.025890,-7.811888,0.999998,0.000177,-0.003179,0.006610,0.000144,0.006612,-0.003182,89.154766,0.006614,
1700,590,-1.592879,-11.036602,0.999996,0.000246,-0.004162,0.007923,0.000086,0.007924,-0.004163,89.593478,0.007927,
1170,360,0.097682,-13.421113,0.999999,0.000128,-0.001576,0.005360,-0.000076,0.005361,-0.001577,-89.375712,0.005511,
1480,1390,-0.755273,-4.026029,0.999996,0.000208,-0.004579,0.007900,-0.001408,0.008057,-0.004735,-83.643318,0.008098,
710,990,2.735505,-7.833446,0.999997,0.000189,-0.003248,0.007151,0.000202,0.007155,-0.003252,88.888952,0.007164,
1270,1760,-0.054223,-1.345066,0.999998,0.000146,-0.001342,0.005258,-0.000034,0.005259,-0.001342,-89.703499,0.005465,
750,1950,0.349362,-0.507408,0.999997,0.000216,-0.001202,0.006416,-0.001846,0.006840,-0.001626,-77.071552,0.007147,
1260,30,-0.004804,-15.072760,0.999999,0.000000,-0.000006,0.004400,0.000004,0.004400,-0.000006,89.946094,0.005078,
1360,630,-0.278249,-11.829746,0.999997,0.000202,-0.002877,0.005697,0.001673,0.006012,-0.003191,79.339148,0.006016,
670,970,2.854066,-7.964993,0.999997,0.000216,-0.003283,0.006965,0.000231,0.006970,-0.003288,88.712071,0.006974,
1820,1470,-2.059747,-4.320942,0.999998,0.000181,-0.003829,0.007724,0.000039,0.007724,-0.003829,89.805129,0.007724,
1480,2010,-0.032437,-0.121959,0.999998,0.000182,-0.000167,0.004804,0.000591,0.004873,-0.000236,83.315727,0.005496,
1660,860,-2.158753,-8.882391,0.999996,0.000241,-0.004041,0.008290,-0.000973,0.008366,-0.004117,-85.516400,0.008366,
680,510,1.750191,-11.465281,0.999998,0.000196,-0.003869,0.007703,-0.000115,0.007704,-0.003870,-89.428783,0.007704,
760,1050,2.583595,-7.391503,0.999996,0.000227,-0.003163,0.007448,-0.000277,0.007455,-0.003170,-88.504896,0.007483,
1050,1280,0.594962,-4.557282,0.999996,0.000229,-0.005349,0.008285,0.002461,0.008716,-0.005780,80.076518,0.008869,
1490,1640,-0.554064,-2.277197,0.999998,0.000193,-0.002855,0.006590,-0.000479,0.006615,-0.002879,-87.101324,0.006633,
790,1810,0.755097,-1.426299,0.999997,0.000186,-0.002962,0.007053,-0.000601,0.007089,-0.002998,-86.577999,0.007117,
1750,370,-1.323860,-12.616735,0.999997,0.000233,-0.003665,0.007576,0.000056,0.007576,-0.003665,89.714068,0.007578,
1600,1640,-0.889837,-2.501872,0.999997,0.000213,-0.003246,0.007180,-0.000226,0.007185,-0.003250,-88.759804,0.007196,
610,1920,0.874249,-0.979732,0.999997,0.000204,-0.003643,0.007874,-0.000926,0.007948,-0.003717,-85.434344,0.007954,
1720,1950,-0.359785,-0.511971,0.999997,0.000213,-0.001305,0.006467,0.001872,0.006894,-0.001732,77.139165,0.007173,
1790,730,-2.312104,-9.744160,0.999997,0.000200,-0.003906,0.007708,-0.000457,0.007726,-0.003924,-87.752545,0.007727,
1150,510,0.159012,-12.592868,0.999998,0.000184,-0.002170,0.005361,-0.000716,0.005429,-0.002237,-84.619199,0.005456,
1110,1840,0.122450,-0.953584,0.999998,0.000160,-0.001088,0.005186,-0.000107,0.005188,-0.001090,-89.021513,0.005470,
620,1370,2.396045,-5.136786,0.999997,0.000229,-0.003767,0.007576,-0.000224,0.007580,-0.003771,-88.871227,0.007580,
1360,740,-0.298941,-11.191146,0.999997,0.000247,-0.003833,0.006002,0.002924,0.006806,-0.004637,74.631122,0.006953,
950,40,0.036008,-15.017749,0.999998,0.000186,-0.000231,0.004830,0.000648,0.004911,-0.000312,82.820568,0.005500,
1790,2000,-0.218266,-0.228070,0.999997,0.000253,-0.000647,0.006692,0.002842,0.007664,-0.001619,71.119751,0.008079,
560,80,0.735234,-14.451913,0.999775,0.000000,-0.005339,0.010600,0.002121,0.010877,-0.005617,82.546827,0.010879,
1520,900,-1.705128,-8.748606,0.999996,0.000256,-0.004590,0.009667,-0.000929,0.009728,-0.004651,-86.289097,0.009731,
1260,200,-0.028324,-14.266341,0.999998,0.000177,-0.000900,0.005005,-0.000015,0.005005,-0.000900,-89.853556,0.005336,
1490,400,-0.538696,-12.941604,0.999996,0.000227,-0.002804,0.006533,0.000412,0.006551,-0.002823,87.478156,0.006572,
1080,490,0.316327,-12.586258,0.999996,0.000222,-0.002591,0.005958,-0.000893,0.006051,-0.002683,-84.097964,0.006063,
650,380,1.578361,-12.387183,0.999996,0.000229,-0.003727,0.007574,-0.000060,0.007575,-0.003727,-89.693818,0.007575,
900,130,0.232339,-14.534573,0.999998,0.000152,-0.001089,0.005661,0.000911,0.005782,-0.001210,82.448123,0.006099,
1410,310,-0.270383,-13.609274,0.999998,0.000190,-0.001949,0.005776,0.000120,0.005778,-0.001951,89.106721,0.005879,
920,1380,1.067962,-4.347221,0.999997,0.000235,-0.004830,0.008458,0.000730,0.008498,-0.004870,86.863904,0.008529,
1830,1210,-2.758579,-6.297968,0.999997,0.000177,-0.003546,0.007174,0.000528,0.007200,-0.003572,87.186306,0.007200,
1450,1350,-0.667565,-4.210655,0.999997,0.000230,-0.004839,0.007990,-0.001819,0.008243,-0.005092,-82.085476,0.008319,
970,90,0.101633,-14.773245,0.999998,0.000186,-0.000676,0.005095,0.000657,0.005169,-0.000750,83.582448,0.005587,
1370,840,-0.585682,-10.436348,0.999995,0.000272,-0.004890,0.007320,0.003305,0.008157,-0.005727,75.787176,0.008376,
1410,880,-1.023351,-9.639773,0.999997,0.000207,-0.005229,0.009852,0.002302,0.010195,-0.005573,81.510745,0.010210,
1190,1810,0.048712,-1.084283,0.999999,0.000124,-0.001090,0.005148,-0.000017,0.005148,-0.001090,-89.847423,0.005425,
1050,850,0.866026,-9.899771,0.999995,0.000255,-0.005608,0.009364,-0.002095,0.009652,-0.005896,-82.182909,0.009731,
1370,360,-0.232708,-13.360396,0.999998,0.000174,-0.001786,0.005629,0.000200,0.005634,-0.001792,88.454452,0.005757,
1890,630,-2.433856,-10.292337,0.999996,0.000227,-0.003819,0.007613,-0.000057,0.007613,-0.003819,-89.713931,0.007613,
900,990,2.156327,-7.872281,0.999996,0.000241,-0.002856,0.008415,0.000543,0.008441,-0.002882,87.250549,0.008581,
1770,1280,-2.356834,-5.692696,0.999998,0.000200,-0.003896,0.007678,0.000642,0.007714,-0.003931,86.836279,0.007714,
840,720,1.564849,-10.149091,0.999996,0.000250,-0.004754,0.008574,0.000164,0.008576,-0.004756,89.296639,0.008593,
1620,1300,-1.648657,-5.267804,0.999996,0.000252,-0.004794,0.008712,0.000396,0.008724,-0.004805,88.324098,0.008739,
1000,1000,1.875322,-7.878070,0.999994,0.000308,-0.003812,0.011758,-0.000028,0.011759,-0.003812,-89.898332,0.011998,
980,1430,0.722120,-3.727237,0.999997,0.000202,-0.004246,0.007550,0.001337,0.007700,-0.004396,83.613024,0.007726,
1860,1710,-1.664028,-2.591956,0.999997,0.000197,-0.003649,0.007436,-0.000125,0.007438,-0.003650,-89.352216,0.007438,
1360,530,-0.268137,-12.403286,0.999997,0.000201,-0.002537,0.005780,0.001059,0.005913,-0.002670,82.856959,0.005922,
740,1050,2.647499,-7.392149,0.999997,0.000196,-0.003210,0.007362,-0.000254,0.007369,-0.003216,-88.623099,0.007388,
830,720,1.612100,-10.124122,0.999996,0.000248,-0.004687,0.008504,0.000217,0.008508,-0.004690,89.056737,0.008523,
1360,1470,-0.276116,-3.034270,0.999996,0.000221,-0.002712,0.005694,-0.001390,0.005918,-0.002936,-80.852040,0.005918,
870,1600,0.926100,-2.775687,0.999997,0.000235,-0.003482,0.007306,0.000400,0.007321,-0.003497,87.880598,0.007323,
1470,2010,-0.032681,-0.122348,0.999998,0.000176,-0.000082,0.004770,0.000571,0.004836,-0.000148,83.374736,0.005501,
1660,840,-2.096866,-9.049466,0.999997,0.000235,-0.004173,0.008290,-0.000922,0.008358,-0.004241,-85.794147,0.008358,
1400,230,-0.185359,-14.066757,0.999998,0.000156,-0.001317,0.005429,-0.000152,0.005432,-0.001320,-88.710885,0.005666,
1090,1260,0.436995,-4.387256,0.999996,0.000254,-0.004834,0.007097,0.003235,0.007917,-0.005655,75.765043,0.008156,
710,970,2.722284,-7.977272,0.999996,0.000217,-0.003304,0.007224,0.000316,0.007234,-0.003313,88.284285,0.007242,
1820,230,-1.176742,-13.513376,0.999997,0.000225,-0.003533,0.007660,-0.000472,0.007680,-0.003553,-87.591314,0.007687,
1540,500,-0.805072,-12.142399,0.999997,0.000204,-0.003515,0.007182,0.000649,0.007222,-0.003554,86.541054,0.007222,
770,800,2.115099,-9.337546,0.999997,0.000195,-0.004215,0.008182,0.000770,0.008230,-0.004263,86.460386,0.008231,
630,830,2.733796,-8.925722,0.999997,0.000185,-0.003533,0.007126,0.000476,0.007147,-0.003554,87.447777,0.007147,
790,1790,0.807504,-1.563733,0.999998,0.000167,-0.003080,0.007124,-0.000432,0.007142,-0.003099,-87.579836,0.007163,
1600,1660,-0.856321,-2.360687,0.999998,0.000206,-0.003178,0.007095,-0.000172,0.007098,-0.003181,-89.039860,0.007111,
670,1980,0.344445,-0.372623,0.999997,0.000213,-0.001252,0.007326,-0.002922,0.008227,-0.002153,-72.866619,0.008532,
1750,610,-1.844509,-10.763730,0.999997,0.000186,-0.004036,0.007887,-0.000052,0.007887,-0.004036,-89.749609,0.007888,
880,1370,1.282799,-4.561522,0.999997,0.000198,-0.004834,0.008565,0.000333,0.008574,-0.004842,88.575717,0.008598,
1490,1620,-0.574263,-2.409105,0.999996,0.000239,-0.002879,0.006621,-0.000531,0.006650,-0.002909,-86.811160,0.006668,
1150,490,0.156501,-12.700454,0.999998,0.000166,-0.002131,0.005414,-0.000645,0.005469,-0.002186,-85.148014,0.005505,
1250,2020,-0.003282,-0.069596,0.999999,0.000000,-0.000115,0.004521,-0.000018,0.004521,-0.000115,-89.775487,0.005155,
1490,1900,-0.200370,-0.691651,0.999997,0.000184,-0.001147,0.005458,0.000566,0.005506,-0.001195,85.135818,0.005792,
1190,40,0.006336,-15.027955,0.999999,0.000126,-0.000052,0.004504,0.000022,0.004505,-0.000052,89.721446,0.005172,
920,1580,0.783706,-2.805614,0.999997,0.000227,-0.003401,0.007098,0.000587,0.007131,-0.003434,86.808264,0.007133,
1330,1180,-0.704982,-4.327674,0.999993,0.000322,-0.002332,0.003143,-0.002246,0.003946,-0.003136,-70.318667,0.004168,
1360,720,-0.293258,-11.308094,0.999997,0.000233,-0.003608,0.005936,0.002719,0.006656,-0.004329,75.160704,0.006756,
780,430,1.206292,-12.319857,0.999997,0.000200,-0.003659,0.007491,-0.000209,0.007495,-0.003662,-88.926950,0.007496,
880,1050,2.226566,-7.376687,0.999998,0.000188,-0.002815,0.008104,-0.000327,0.008114,-0.002825,-88.287721,0.008238,
930,580,0.877909,-11.567049,0.999998,0.000218,-0.004081,0.007630,-0.000889,0.007697,-0.004148,-85.684072,0.007705,
880,440,0.871584,-12.475039,0.999998,0.000199,-0.003355,0.007167,-0.000356,0.007179,-0.003367,-88.065299,0.007184,
1340,710,-0.223304,-11.479784,0.999995,0.000256,-0.003108,0.005257,0.002473,0.005933,-0.003784,74.702839,0.006008,
1520,1100,-1.936822,-6.897749,0.999997,0.000199,-0.003474,0.009291,0.000911,0.009356,-0.003539,85.937163,0.009447,
670,950,2.833099,-8.105202,0.999997,0.000211,-0.003347,0.007091,0.000453,0.007111,-0.003367,87.519698,0.007114,
650,360,1.529439,-12.536998,0.999997,0.000210,-0.003733,0.007546,0.000005,0.007546,-0.003733,89.973428,0.007547,
1260,180,-0.022555,-14.365549,0.999998,0.000156,-0.000774,0.004937,-0.000009,0.004937,-0.000775,-89.914458,0.005310,
1700,570,-1.548110,-11.196492,0.999996,0.000253,-0.004096,0.007891,0.000152,0.007892,-0.004098,89.271329,0.007894,
690,1700,1.369236,-2.446677,0.999996,0.000250,-0.003588,0.007560,-0.000006,0.007560,-0.003588,-89.968465,0.007563,
1830,450,-1.799119,-11.811841,0.999997,0.000180,-0.003775,0.007595,0.000115,0.007597,-0.003776,89.421927,0.007597,
750,1190,2.379879,-6.327583,0.999997,0.000224,-0.003820,0.007809,-0.000850,0.007871,-0.003881,-85.840040,0.007871,
640,410,1.684828,-12.133780,0.999996,0.000207,-0.003769,0.007572,-0.000095,0.007573,-0.003769,-89.519838,0.007573,
1620,1280,-1.712576,-5.443448,0.999995,0.000243,-0.004775,0.008780,0.000546,0.008802,-0.004797,87.696339,0.008813,
840,700,1.511470,-10.318700,0.999996,0.000246,-0.004719,0.008512,0.000033,0.008512,-0.004719,89.855758,0.008529,
960,1310,1.017469,-4.804002,0.999997,0.000194,-0.005358,0.008986,0.000871,0.009039,-0.005411,86.538896,0.009097,
980,1410,0.744152,-3.880245,0.999996,0.000215,-0.004444,0.007666,0.001375,0.007821,-0.004599,83.602011,0.007861,
1540,480,-0.782437,-12.286345,0.999997,0.000199,-0.003423,0.007116,0.000610,0.007151,-0.003458,86.700895,0.007152,
630,810,2.687061,-9.069132,0.999997,0.000196,-0.003581,0.007211,0.000460,0.007231,-0.003600,87.561634,0.007231,
1450,1820,-0.263486,-1.116732,0.999998,0.000181,-0.001447,0.005720,0.000266,0.005730,-0.001457,87.874288,0.005956,
1790,710,-2.257482,-9.898653,0.999997,0.000206,-0.003938,0.007697,-0.000400,0.007710,-0.003952,-88.031101,0.007711,
720,1290,2.222425,-5.573451,0.999997,0.000216,-0.004039,0.007943,-0.000637,0.007976,-0.004072,-86.966083,0.007977,
1320,730,-0.166414,-11.481512,0.999997,0.000201,-0.002713,0.004518,0.002534,0.005318,-0.003513,72.484712,0.005408,
920,1820,0.423337,-1.196290,0.999998,0.000190,-0.001811,0.006202,-0.000494,0.006232,-0.001841,-86.483523,0.006403,
950,2010,0.043501,-0.125898,0.999998,0.000139,-0.000325,0.004845,-0.000654,0.004926,-0.000406,-82.896009,0.005469,
1370,820,-0.493333,-10.581755,0.999991,0.000339,-0.004945,0.007214,0.003257,0.008031,-0.005762,75.909795,0.008281,
1190,1790,0.049806,-1.186379,0.999998,0.000159,-0.001188,0.005202,0.000013,0.005202,-0.001188,89.883636,0.005452,
1350,360,-0.197087,-13.379785,0.999998,0.000163,-0.001816,0.005613,0.000248,0.005621,-0.001824,88.093088,0.005735,
710,950,2.696820,-8.122750,0.999997,0.000218,-0.003372,0.007340,0.000552,0.007368,-0.003401,87.059540,0.007376,
650,1980,0.365778,-0.380423,0.999997,0.000220,-0.001785,0.007613,-0.002723,0.008345,-0.002517,-74.954229,0.008561,
1820,190,-1.020888,-13.823705,0.999996,0.000240,-0.003410,0.007723,-0.000780,0.007777,-0.003464,-86.011649,0.007792,
880,990,2.212305,-7.865011,0.999996,0.000257,-0.002942,0.008143,0.000500,0.008165,-0.002965,87.420964,0.008267,
850,1600,0.998535,-2.825454,0.999997,0.000221,-0.003593,0.007397,0.000364,0.007410,-0.003605,88.104442,0.007410,
740,1690,1.211223,-2.400963,0.999997,0.000227,-0.003554,0.007540,-0.000032,0.007540,-0.003554,-89.836738,0.007544,
1340,1470,-0.223818,-2.977290,0.999997,0.000242,-0.002504,0.005414,-0.001228,0.005600,-0.002690,-81.384843,0.005602,
1650,50,-0.093082,-14.958030,0.999999,0.000128,-0.000496,0.005338,-0.001407,0.005660,-0.000818,-77.125579,0.006118,
1360,700,-0.285230,-11.428394,0.999997,0.000216,-0.003387,0.005797,0.002481,0.006425,-0.004014,75.807528,0.006491,
860,1050,2.283873,-7.378832,0.999997,0.000223,-0.002865,0.007926,-0.000313,0.007935,-0.002874,-88.338314,0.008035,
1000,980,1.823069,-8.103503,0.999995,0.000264,-0.003962,0.011101,-0.000045,0.011102,-0.003962,-89.826983,0.011252,
670,1900,0.777740,-0.969589,0.999998,0.000187,-0.002924,0.007614,-0.001509,0.007826,-0.003136,-82.007863,0.007878,
570,1370,2.587040,-5.256118,0.999657,0.002175,-0.005345,0.007852,0.000270,0.007858,-0.005350,88.826360,0.008027,
1640,350,-0.897739,-13.004229,0.999997,0.000192,-0.003159,0.007173,-0.000109,0.007174,-0.003161,-89.395027,0.007191,
1600,1680,-0.824294,-2.218062,0.999998,0.000186,-0.003127,0.007011,-0.000129,0.007012,-0.003129,-89.270106,0.007026,
1660,820,-2.036233,-9.214911,0.999996,0.000241,-0.004281,0.008370,-0.000830,0.008424,-0.004336,-86.263532,0.008425,
930,560,0.851460,-11.720718,0.999998,0.000191,-0.003951,0.007533,-0.000871,0.007599,-0.004017,-85.686450,0.007603,
1740,1560,-1.552823,-3.436484,0.999997,0.000205,-0.003858,0.007719,-0.000164,0.007722,-0.003861,-89.190627,0.007722,
1410,860,-0.907199,-9.837058,0.999995,0.000261,-0.005454,0.009415,0.002171,0.009725,-0.005765,81.860437,0.009781,
790,1770,0.859204,-1.712857,0.999997,0.000186,-0.003183,0.007234,-0.000333,0.007245,-0.003194,-88.168880,0.007262,
1340,690,-0.220335,-11.581069,0.999997,0.000199,-0.002912,0.005238,0.002224,0.005806,-0.003479,75.686532,0.005844,
570,1750,1.691321,-2.388719,0.999862,0.001438,-0.004842,0.006930,0.000094,0.006930,-0.004843,89.544325,0.007110,
560,70,0.716908,-14.562428,0.999767,0.000000,-0.004665,0.010405,0.003717,0.011272,-0.005531,76.872437,0.011273,
1150,470,0.155659,-12.810974,0.999998,0.000189,-0.002097,0.005430,-0.000553,0.005470,-0.002138,-85.818143,0.005514,
1830,1190,-2.805544,-6.440258,0.999997,0.000201,-0.003503,0.007143,0.000542,0.007171,-0.003530,87.095385,0.007171,
880,400,0.812774,-12.760257,0.999997,0.000210,-0.003168,0.007054,-0.000220,0.007059,-0.003173,-88.767929,0.007071,
1700,550,-1.507694,-11.354062,0.999997,0.000241,-0.004040,0.007788,0.000179,0.007791,-0.004042,89.132459,0.007793,
1510,270,-0.417562,-13.742679,0.999997,0.000213,-0.002193,0.006164,-0.000159,0.006167,-0.002196,-88.912020,0.006252,
1330,420,-0.179127,-13.064696,0.999999,0.000144,-0.002045,0.005528,0.000459,0.005556,-0.002073,86.540857,0.005615,
720,1230,2.387984,-6.044715,0.999996,0.000252,-0.003892,0.007812,-0.000807,0.007868,-0.003947,-86.075063,0.007868,
1710,1400,-1.786309,-4.627631,0.999997,0.000236,-0.004246,0.008077,0.000160,0.008079,-0.004248,89.257934,0.008082,
690,140,0.648654,-14.298212,0.999996,0.000234,-0.002851,0.007313,0.001551,0.007544,-0.003082,81.513915,0.007586,
960,1980,0.087511,-0.274012,0.999998,0.000138,-0.000555,0.005072,-0.000695,0.005157,-0.000640,-83.064331,0.005622,
710,760,2.247689,-9.570657,0.999996,0.000214,-0.004043,0.007904,0.000615,0.007935,-0.004074,87.062242,0.007936,
920,840,1.556822,-9.261989,0.999995,0.000259,-0.005159,0.009537,0.000597,0.009561,-0.005183,87.677769,0.009573,
1250,1370,-0.028628,-3.251564,0.999998,0.000150,-0.001579,0.003482,-0.000510,0.003533,-0.001630,-84.302168,0.003536,
940,2010,0.046433,-0.126892,0.999999,0.000134,-0.000221,0.004869,-0.000704,0.004964,-0.000316,-82.265444,0.005559,
1880,210,-1.319062,-13.469296,0.999997,0.000201,-0.003664,0.007386,-0.000270,0.007392,-0.003671,-88.601651,0.007392,
690,1600,1.594038,-3.206960,0.999995,0.000263,-0.003810,0.007630,0.000135,0.007632,-0.003811,89.324905,0.007632,
1250,1200,-0.153123,-3.640016,0.999993,0.000000,-0.007561,0.002391,0.000235,0.002397,-0.007567,88.649610,0.007734,
1820,130,-0.724238,-14.298277,0.999996,0.000239,-0.003138,0.007858,-0.001488,0.008056,-0.003336,-82.430506,0.008096,
1190,1770,0.055932,-1.294321,0.999999,0.000135,-0.001309,0.005261,0.000013,0.005261,-0.001309,89.885004,0.005478,
1290,360,-0.093008,-13.422420,0.999997,0.000182,-0.001567,0.005392,0.000078,0.005393,-0.001568,89.361541,0.005548,
710,930,2.663388,-8.270740,0.999997,0.000216,-0.003434,0.007344,0.000585,0.007376,-0.003466,86.904913,0.007380,
720,1690,1.285398,-2.448739,0.999997,0.000244,-0.003675,0.007578,0.000030,0.007578,-0.003675,89.848306,0.007579,
960,990,1.981963,-7.921537,0.999998,0.000153,-0.003052,0.009668,0.000489,0.009687,-0.003070,87.803569,0.009901,
660,1590,1.729497,-3.356833,0.999996,0.000247,-0.003819,0.007634,0.000129,0.007635,-0.003821,89.355289,0.007635,
950,50,0.050403,-14.970006,0.999999,0.000205,-0.000304,0.004894,0.000669,0.004979,-0.000388,82.782055,0.005539,
670,930,2.800025,-8.250134,0.999997,0.000205,-0.003405,0.007156,0.000525,0.007182,-0.003431,87.159221,0.007185,
670,1880,0.872198,-1.124375,0.999997,0.000232,-0.003104,0.007594,-0.001238,0.007736,-0.003245,-83.482093,0.007769,
1350,840,-0.490822,-10.675367,0.999996,0.000263,-0.004086,0.005821,0.003312,0.006827,-0.005091,73.114541,0.007096,
1350,1890,-0.089389,-0.696713,0.999998,0.000161,-0.000822,0.005040,0.000178,0.005046,-0.000827,88.267063,0.005412,
840,1050,2.341320,-7.382929,0.999997,0.000219,-0.002929,0.007814,-0.000288,0.007821,-0.002937,-88.465170,0.007902,
1640,330,-0.857284,-13.149774,0.999998,0.000186,-0.003035,0.007141,-0.000131,0.007143,-0.003037,-89.264957,0.007169,
940,1310,1.123668,-4.886790,0.999998,0.000152,-0.005336,0.009034,0.000610,0.009060,-0.005362,87.571842,0.009111,
560,60,0.572376,-14.661575,0.999701,0.000000,-0.003685,0.010499,0.005775,0.012553,-0.005738,70.422813,0.012568,
1790,690,-2.205157,-10.051732,0.999998,0.000188,-0.003950,0.007683,-0.000357,0.007694,-0.003961,-88.242573,0.007696,
630,790,2.634583,-9.216338,0.999997,0.000196,-0.003641,0.007378,0.000467,0.007397,-0.003660,87.578932,0.007398,
1320,710,-0.164827,-11.572928,0.999997,0.000203,-0.002626,0.004594,0.002309,0.005269,-0.003302,73.696732,0.005325,
1010,300,0.347465,-13.619770,0.999997,0.000214,-0.001861,0.005945,0.000033,0.005945,-0.001861,89.754527,0.006082,
840,680,1.460365,-10.489807,0.999996,0.000239,-0.004667,0.008448,-0.000063,0.008449,-0.004667,-89.725555,0.008464,
1540,460,-0.756512,-12.428276,0.999997,0.000209,-0.003371,0.007086,0.000554,0.007115,-0.003401,86.973666,0.007118,
1620,1260,-1.775097,-5.620384,0.999996,0.000244,-0.004699,0.008759,0.000662,0.008791,-0.004731,87.192445,0.008800,
930,2010,0.048104,-0.127452,0.999998,0.000161,-0.000156,0.004927,-0.000760,0.005038,-0.000267,-81.676086,0.005670,
1350,420,-0.219485,-13.043153,0.999998,0.000188,-0.002023,0.005588,0.000416,0.005610,-0.002045,86.882649,0.005678,
1610,190,-0.455806,-14.142115,0.999997,0.000214,-0.001929,0.006344,-0.000856,0.006432,-0.002016,-84.152062,0.006580,
700,1430,1.930512,-4.503099,0.999997,0.000215,-0.003995,0.007841,-0.000127,0.007843,-0.003996,-89.387264,0.007843,
1190,1750,0.059246,-1.397965,0.999998,0.000149,-0.001388,0.005296,0.000058,0.005297,-0.001389,89.506748,0.005493,
1180,1230,0.178809,-3.727041,0.999997,0.000204,-0.003223,0.002395,0.001500,0.002770,-0.003598,75.948836,0.003769,
1330,360,-0.160241,-13.398475,0.999997,0.000177,-0.001832,0.005572,0.000276,0.005582,-0.001843,87.871577,0.005689,
960,750,1.030380,-10.269623,0.999996,0.000221,-0.005422,0.009041,-0.000877,0.009094,-0.005475,-86.540839,0.009157,
1510,250,-0.389416,-13.861552,0.999997,0.000202,-0.002033,0.006055,-0.000261,0.006063,-0.002041,-88.155465,0.006170,
1870,2000,-0.403952,-0.367884,0.999996,0.000217,-0.002266,0.008596,0.003200,0.009468,-0.003139,74.745922,0.009646,
1700,1600,-1.319003,-3.031631,0.999997,0.000200,-0.003740,0.007602,-0.000189,0.007605,-0.003743,-89.047808,0.007605,
750,1930,0.440258,-0.643203,0.999997,0.000221,-0.001540,0.006684,-0.001805,0.007063,-0.001918,-78.148171,0.007304,
1880,310,-1.648399,-12.733914,0.999997,0.000217,-0.003669,0.007395,0.000044,0.007395,-0.003669,89.772320,0.007395,
1830,1150,-2.883157,-6.722248,0.999997,0.000213,-0.003334,0.006868,0.000397,0.006883,-0.003350,87.775446,0.006884,
710,740,2.191873,-9.730955,0.999998,0.000200,-0.004085,0.007880,0.000561,0.007906,-0.004111,87.320216,0.007908,
1100,1380,0.287958,-3.559479,0.999997,0.000209,-0.003274,0.005807,0.002198,0.006311,-0.003778,77.086216,0.006351,
1310,330,-0.113865,-13.576282,0.999998,0.000166,-0.001558,0.005390,0.000087,0.005391,-0.001559,89.286392,0.005548,
920,800,1.404933,-9.644937,0.999996,0.000229,-0.005365,0.009391,0.000177,0.009393,-0.005368,89.312185,0.009425,
1800,130,-0.674019,-14.326762,0.999997,0.000242,-0.002627,0.007649,-0.001921,0.007997,-0.002974,-79.748878,0.008084,
1260,160,-0.021050,-14.463562,0.999998,0.000164,-0.000664,0.004921,-0.000040,0.004921,-0.000664,-89.584582,0.005340,
1450,1880,-0.190059,-0.784926,0.999997,0.000189,-0.001036,0.005387,0.000416,0.005414,-0.001062,86.307065,0.005738,
1040,110,0.090455,-14.685184,0.999998,0.000211,-0.000679,0.005022,0.000418,0.005052,-0.000710,85.828060,0.005471,
610,1180,2.907917,-6.543179,0.999996,0.000228,-0.003353,0.006891,-0.000328,0.006902,-0.003363,-88.169756,0.006902,
1410,510,-0.394136,-12.406073,0.999997,0.000202,-0.002713,0.006161,0.000911,0.006253,-0.002805,84.200225,0.006264,
580,1850,1.310754,-1.624846,0.999996,0.000217,-0.003718,0.007439,-0.000173,0.007441,-0.003721,-89.112717,0.007441,
870,1810,0.552305,-1.319041,0.999997,0.000211,-0.002461,0.006563,-0.000482,0.006588,-0.002487,-86.949471,0.006654,
1600,670,-1.329907,-10.637651,0.999995,0.000255,-0.004708,0.008432,0.000257,0.008437,-0.004713,88.880755,0.008456,
800,330,0.931570,-13.102631,0.999997,0.000206,-0.003323,0.007247,0.000059,0.007248,-0.003323,89.680969,0.007256,
1340,510,-0.219103,-12.554367,0.999998,0.000153,-0.002195,0.005564,0.000699,0.005627,-0.002257,84.894219,0.005663,
1890,1370,-2.570634,-5.245724,0.999996,0.000227,-0.003664,0.007546,0.000074,0.007546,-0.003665,89.623164,0.007547,
990,300,0.382961,-13.598615,0.999998,0.000159,-0.001918,0.006045,0.000074,0.006046,-0.001919,89.467183,0.006178,
840,660,1.414331,-10.657503,0.999996,0.000211,-0.004611,0.008361,-0.000152,0.008362,-0.004613,-89.328420,0.008377,
790,1660,1.101742,-2.516619,0.999997,0.000210,-0.003498,0.007388,0.000098,0.007389,-0.003498,89.486530,0.007392,
1630,1020,-2.371073,-7.619359,0.999997,0.000210,-0.002926,0.007817,-0.000149,0.007819,-0.002929,-89.205375,0.007901,
1380,230,-0.160733,-14.076496,0.999998,0.000152,-0.001133,0.005350,-0.000177,0.005355,-0.001138,-88.433923,0.005642,
1540,440,-0.730065,-12.569937,0.999997,0.000200,-0.003278,0.007003,0.000508,0.007028,-0.003303,87.177564,0.007032,
1880,2000,-0.427418,-0.392271,0.999984,0.000476,-0.001865,0.009272,0.003766,0.010426,-0.003019,72.964970,0.010729,
1440,1550,-0.478674,-2.754600,0.999996,0.000217,-0.003085,0.006503,-0.001016,0.006609,-0.003192,-84.019262,0.006611,
710,910,2.629182,-8.418211,0.999997,0.000222,-0.003514,0.007381,0.000605,0.007414,-0.003547,86.830750,0.007416,
800,1310,1.821960,-5.270972,0.999997,0.000239,-0.004523,0.008444,-0.000473,0.008461,-0.004540,-87.912606,0.008468,
1070,1260,0.537571,-4.562010,0.999995,0.000298,-0.005309,0.007937,0.002864,0.008529,-0.005902,78.308464,0.008736,
1410,2010,-0.020903,-0.118713,0.999999,0.000163,-0.000243,0.004648,0.000342,0.004672,-0.000267,86.023190,0.005247,
790,1750,0.908133,-1.854777,0.999998,0.000173,-0.003253,0.007189,-0.000203,0.007193,-0.003257,-88.887625,0.007204,
1450,1330,-0.695199,-4.369324,0.999996,0.000229,-0.005071,0.008250,-0.001840,0.008500,-0.005321,-82.277321,0.008589,
960,970,1.927756,-8.109013,0.999997,0.000177,-0.003353,0.009643,0.000730,0.009684,-0.003393,86.795818,0.009827,
1290,1340,-0.096704,-3.444579,0.999998,0.000195,-0.002031,0.003743,-0.001766,0.004240,-0.002529,-74.274552,0.004266,
1700,1580,-1.358029,-3.183557,0.999997,0.000207,-0.003790,0.007598,-0.000230,0.007602,-0.003794,-88.843603,0.007602,
810,880,2.189161,-8.723586,0.999998,0.000228,-0.003934,0.008196,0.000968,0.008273,-0.004011,85.464923,0.008274,
750,1890,0.597682,-0.916442,0.999997,0.000196,-0.002153,0.006980,-0.001468,0.007210,-0.002383,-81.087980,0.007347,
1620,1240,-1.840497,-5.796194,0.999997,0.000200,-0.004631,0.008781,0.000790,0.008827,-0.004677,86.638816,0.008833,
1420,750,-0.583314,-10.720359,0.999995,0.000276,-0.005119,0.008047,0.002326,0.008445,-0.005518,80.271552,0.008577,
1100,100,0.049341,-14.743033,0.999998,0.000157,-0.000378,0.004805,0.000283,0.004820,-0.000394,86.886140,0.005353,
1250,860,-0.167627,-11.469767,0.999977,0.000000,-0.007419,0.002063,-0.000451,0.002084,-0.007440,-87.284603,0.007676,
920,260,0.472570,-13.764230,0.999997,0.000206,-0.001959,0.006268,0.000368,0.006285,-0.001975,87.443702,0.006428,
1830,1130,-2.915711,-6.859279,0.999997,0.000202,-0.003315,0.006912,0.000450,0.006931,-0.003335,87.486971,0.006933,
1450,1800,-0.289941,-1.234267,0.999998,0.000149,-0.001597,0.005765,0.000197,0.005770,-0.001603,88.469662,0.005957,
720,1670,1.329644,-2.601765,0.999997,0.000236,-0.003668,0.007592,0.000071,0.007592,-0.003669,89.639170,0.007594,
1500,650,-0.827168,-11.134048,0.999997,0.000226,-0.004551,0.007887,0.001194,0.008001,-0.004664,84.564047,0.008037,
1600,650,-1.285839,-10.804665,0.999996,0.000245,-0.004596,0.008323,0.000338,0.008332,-0.004605,88.501289,0.008347,
1240,50,-0.001526,-14.982862,0.999999,0.000130,-0.000217,0.004480,-0.000008,0.004480,-0.000217,-89.899294,0.005052,
870,1790,0.594373,-1.447315,0.999997,0.000199,-0.002623,0.006601,-0.000344,0.006614,-0.002636,-87.867793,0.006659,
570,1870,1.261899,-1.518761,0.999948,0.000833,-0.003571,0.007529,-0.000335,0.007539,-0.003581,-88.274107,0.007542,
1310,310,-0.110165,-13.685884,0.999998,0.000161,-0.001465,0.005376,0.000046,0.005377,-0.001466,89.614648,0.005559,
1430,1880,-0.167814,-0.775844,0.999998,0.000162,-0.001090,0.005313,0.000307,0.005328,-0.001105,87.262294,0.005624,
970,1180,1.450599,-6.023432,0.999996,0.000252,-0.005371,0.010097,-0.000375,0.010106,-0.005380,-88.613067,0.010113,
860,1390,1.331064,-4.449405,0.999995,0.000252,-0.004672,0.008395,0.000258,0.008400,-0.004677,88.869458,0.008418,
1170,1500,0.117965,-2.732252,0.999998,0.000169,-0.002087,0.005073,0.000705,0.005142,-0.002156,84.426482,0.005164,
1410,750,-0.531102,-10.787058,0.999996,0.000249,-0.004996,0.007757,0.002506,0.008231,-0.005471,79.274188,0.008379,
840,640,1.368884,-10.826063,0.999996,0.000227,-0.004530,0.008238,-0.000223,0.008242,-0.004533,-88.999665,0.008256,
1360,230,-0.138508,-14.085157,0.999998,0.000156,-0.001150,0.005308,-0.000128,0.005311,-0.001153,-88.868465,0.005587,
1540,420,-0.704351,-12.713991,0.999997,0.000208,-0.003128,0.006914,0.000418,0.006932,-0.003145,87.621745,0.006942,
930,640,0.960556,-11.095415,0.999997,0.000191,-0.004518,0.008040,-0.000890,0.008103,-0.004581,-85.964940,0.008126,
1340,670,-0.221416,-11.684319,0.999998,0.000176,-0.002798,0.005259,0.002034,0.005743,-0.003282,76.605291,0.005763,
1610,1020,-2.314320,-7.620857,0.999998,0.000209,-0.002848,0.007958,-0.000149,0.007960,-0.002850,-89.211617,0.008066,
560,50,0.412614,-14.756871,0.999836,0.000000,-0.002456,0.010771,0.007189,0.013926,-0.005611,66.305752,0.014013,
650,1600,1.745759,-3.305000,0.999996,0.000227,-0.003796,0.007630,0.000102,0.007631,-0.003797,89.488300,0.007631,
1290,1320,-0.095523,-3.513862,0.999998,0.000192,-0.002113,0.003455,-0.001993,0.004095,-0.002753,-72.201151,0.004175,
790,1730,0.954719,-2.002220,0.999998,0.000179,-0.003288,0.007284,-0.000095,0.007285,-0.003289,-89.484657,0.007296,
1620,330,-0.800185,-13.182861,0.999998,0.000184,-0.002845,0.007073,-0.000130,0.007074,-0.002847,-89.247811,0.007119,
1050,870,0.978652,-9.706020,0.999995,0.000259,-0.005373,0.009798,-0.002153,0.010098,-0.005673,-82.077325,0.010124,
710,890,2.590413,-8.567476,0.999996,0.000230,-0.003611,0.007544,0.000762,0.007595,-0.003663,86.108717,0.007597,
1070,2010,0.019070,-0.117358,0.999998,0.000160,-0.000114,0.004619,-0.000319,0.004641,-0.000135,-86.160398,0.005282,
590,1310,2.662473,-5.649468,0.999997,0.000215,-0.003624,0.007310,-0.000154,0.007312,-0.003626,-89.195725,0.007312,
1060,960,1.444194,-8.841578,0.999987,0.000422,-0.005487,0.014662,-0.005079,0.015870,-0.006695,-76.623185,0.015935,
1450,1310,-0.730712,-4.539690,0.999996,0.000229,-0.005314,0.008586,-0.001816,0.008819,-0.005548,-82.678627,0.008917,
780,1110,2.450472,-6.933500,0.999996,0.000246,-0.003357,0.007644,-0.000716,0.007691,-0.003403,-86.291246,0.007708,
1260,120,-0.017632,-14.658126,0.999998,0.000164,-0.000497,0.004755,-0.000050,0.004755,-0.000497,-89.452771,0.005228,
680,490,1.707047,-11.619323,0.999997,0.000193,-0.003845,0.007700,-0.000134,0.007702,-0.003846,-89.336153,0.007702,
630,770,2.581889,-9.365024,0.999997,0.000198,-0.003688,0.007421,0.000436,0.007438,-0.003705,87.755019,0.007438,
750,1870,0.672029,-1.054078,0.999996,0.000218,-0.002349,0.007035,-0.001249,0.007198,-0.002512,-82.548950,0.007307,
1700,1560,-1.394905,-3.336446,0.999997,0.000224,-0.003877,0.007693,-0.000225,0.007697,-0.003881,-88.887744,0.007697,
1020,110,0.100719,-14.680882,0.999998,0.000168,-0.000600,0.005080,0.000500,0.005124,-0.000644,85.004853,0.005582,
920,240,0.432188,-13.892424,0.999997,0.000200,-0.001818,0.006221,0.000491,0.006251,-0.001848,86.519883,0.006423,
710,1600,1.517198,-3.159012,0.999996,0.000242,-0.003778,0.007619,0.000147,0.007621,-0.003780,89.258915,0.007621,
1420,690,-0.512557,-11.179963,0.999995,0.000242,-0.004305,0.007256,0.002099,0.007625,-0.004674,80.022845,0.007690,
1500,630,-0.801521,-11.289699,0.999995,0.000264,-0.004378,0.007724,0.001205,0.007843,-0.004497,84.368012,0.007871,
1310,510,-0.153549,-12.599143,0.999998,0.000169,-0.002179,0.005340,0.000680,0.005400,-0.002240,84.876924,0.005427,
870,1770,0.636729,-1.584547,0.999997,0.000196,-0.002756,0.006747,-0.000255,0.006754,-0.002763,-88.463621,0.006791,
930,620,0.929422,-11.257097,0.999997,0.000219,-0.004357,0.007899,-0.000895,0.007964,-0.004422,-85.845715,0.007980,
570,1860,1.306706,-1.590454,0.999942,0.000871,-0.003637,0.007402,-0.000268,0.007409,-0.003643,-88.610674,0.007409,
1100,60,0.022597,-14.934222,0.999998,0.000151,-0.000188,0.004632,0.000279,0.004648,-0.000204,86.702988,0.005254,
940,990,2.042830,-7.896663,0.999996,0.000240,-0.002900,0.009164,0.000571,0.009191,-0.002927,87.294752,0.009391,
1580,670,-1.234197,-10.695565,0.999996,0.000208,-0.004769,0.008457,0.000418,0.008470,-0.004782,88.192272,0.008494,
960,1960,0.113874,-0.374568,0.999998,0.000172,-0.000753,0.005189,-0.000675,0.005265,-0.000828,-83.600202,0.005662,
1340,650,-0.221925,-11.790234,0.999997,0.000218,-0.002733,0.005283,0.001852,0.005691,-0.003140,77.599220,0.005701,
1510,230,-0.354085,-13.985894,0.999997,0.000188,-0.001905,0.005953,-0.000337,0.005968,-0.001919,-87.546785,0.006093,
840,620,1.327205,-10.987976,0.999996,0.000224,-0.004432,0.008032,-0.000304,0.008040,-0.004440,-88.602633,0.008054,
1300,1410,-0.126302,-3.182367,0.999998,0.000183,-0.002104,0.004583,-0.001312,0.004831,-0.002352,-79.284001,0.004832,
1010,1580,0.499509,-2.591338,0.999996,0.000227,-0.002997,0.006510,0.000827,0.006581,-0.003068,85.067269,0.006586,
1540,400,-0.676186,-12.850212,0.999996,0.000238,-0.002932,0.006823,0.000304,0.006832,-0.002941,88.219054,0.006854,
860,490,1.019589,-12.057760,0.999997,0.000198,-0.003694,0.007461,-0.000454,0.007479,-0.003712,-87.670638,0.007479,
1000,960,1.744562,-8.320822,0.999995,0.000262,-0.004161,0.011176,0.000035,0.011177,-0.004162,89.869941,0.011297,
1360,680,-0.278518,-11.544704,0.999997,0.000210,-0.003234,0.005745,0.002249,0.006277,-0.003766,76.694772,0.006319,
1700,1850,-0.708574,-1.183342,0.999997,0.000186,-0.002590,0.007132,0.001036,0.007242,-0.002699,83.983637,0.007319,
1740,1150,-2.573214,-6.656861,0.999997,0.000205,-0.003545,0.007515,0.000705,0.007560,-0.003590,86.366819,0.007563,
1370,1340,-0.326776,-3.837255,0.999997,0.000229,-0.003753,0.006212,-0.002607,0.006852,-0.004394,-76.191714,0.006943,
1230,50,0.000436,-14.982716,0.999999,0.000123,-0.000230,0.004477,0.000015,0.004477,-0.000230,89.818143,0.005042,
900,1050,2.171739,-7.370884,0.999997,0.000234,-0.002761,0.008348,-0.000373,0.008360,-0.002773,-88.076702,0.008516,
1400,1700,-0.284017,-1.759995,0.999998,0.000197,-0.002034,0.005828,-0.000258,0.005836,-0.002043,-88.125642,0.005923,
1000,170,0.195758,-14.356348,0.999998,0.000202,-0.000974,0.005458,0.000479,0.005494,-0.001009,85.759939,0.005849,
920,220,0.397135,-14.013108,0.999998,0.000191,-0.001667,0.006048,0.000549,0.006087,-0.001706,85.953643,0.006280,
790,1710,0.999027,-2.147831,0.999997,0.000193,-0.003341,0.007279,-0.000033,0.007279,-0.003341,-89.823650,0.007287,
1660,850,-2.126744,-8.966627,0.999996,0.000251,-0.004113,0.008302,-0.000957,0.008376,-0.004186,-85.617183,0.008376,
1410,950,-1.438676,-8.877052,0.999983,0.000514,-0.005198,0.012853,0.004375,0.013858,-0.006202,77.069160,0.013883,
710,870,2.540389,-8.720307,0.999996,0.000253,-0.003689,0.007590,0.000789,0.007645,-0.003744,86.020283,0.007646,
750,1850,0.741925,-1.198813,0.999997,0.000206,-0.002574,0.007184,-0.001082,0.007303,-0.002693,-83.749360,0.007386,
1700,1540,-1.436628,-3.493294,0.999997,0.000208,-0.003968,0.007784,-0.000203,0.007787,-0.003972,-89.011028,0.007788,
1190,1730,0.060487,-1.505043,0.999998,0.000173,-0.001496,0.005346,0.000069,0.005347,-0.001496,89.419332,0.005517,
770,1660,1.172291,-2.560107,0.999998,0.000169,-0.003531,0.007458,0.000098,0.007459,-0.003532,89.486600,0.007463,
1150,450,0.150664,-12.921249,0.999998,0.000185,-0.002040,0.005440,-0.000470,0.005469,-0.002069,-86.421075,0.005523,
1290,420,-0.103402,-13.099283,0.999998,0.000150,-0.001746,0.005339,0.000178,0.005344,-0.001750,88.558766,0.005448,
620,550,2.067858,-11.013878,0.999998,0.000173,-0.003784,0.007592,-0.000048,0.007592,-0.003785,-89.757585,0.007592,
1620,1220,-1.910096,-5.975874,0.999997,0.000189,-0.004485,0.008695,0.000897,0.008756,-0.004546,86.126071,0.008758,
1310,360,-0.125561,-13.415796,0.999998,0.000153,-0.001667,0.005470,0.000154,0.005474,-0.001670,88.767091,0.005611,
580,1310,2.698415,-5.673042,0.999997,0.000216,-0.003991,0.007221,0.000075,0.007222,-0.003992,89.615571,0.007235,
1370,2010,-0.017256,-0.117480,0.999998,0.000164,-0.000086,0.004577,0.000249,0.004591,-0.000099,86.957171,0.005244,
1250,30,-0.003451,-15.071591,0.999999,0.000000,-0.000138,0.004409,-0.000003,0.004409,-0.000138,-89.957225,0.005013,
580,290,1.601287,-12.871681,0.999997,0.000223,-0.004615,0.007147,-0.000125,0.007149,-0.004616,-89.389428,0.007249,
1450,1290,-0.774650,-4.714730,0.999995,0.000244,-0.005556,0.008901,-0.001726,0.009104,-0.005760,-83.284159,0.009210,
630,750,2.528547,-9.514242,0.999997,0.000201,-0.003726,0.007418,0.000389,0.007431,-0.003740,88.002287,0.007431,
1310,750,-0.146209,-11.451762,0.999997,0.000225,-0.002585,0.003985,0.002617,0.004900,-0.003500,70.724923,0.005048,
680,470,1.664594,-11.774687,0.999997,0.000223,-0.003807,0.007624,-0.000128,0.007626,-0.003808,-89.360685,0.007626,
1000,110,0.111860,-14.676022,0.999998,0.000172,-0.000532,0.005130,0.000585,0.005190,-0.000592,84.164985,0.005682,
930,660,0.992968,-10.934041,0.999997,0.000212,-0.004668,0.008249,-0.000862,0.008307,-0.004726,-86.200273,0.008333,
1400,690,-0.429711,-11.281859,0.999995,0.000249,-0.004038,0.006820,0.002252,0.007268,-0.004486,78.736741,0.007334,
1240,1690,-0.013862,-1.707985,0.999998,0.000164,-0.001633,0.005302,-0.000076,0.005303,-0.001634,-89.372036,0.005431,
870,1750,0.675001,-1.717546,0.999997,0.000214,-0.002841,0.006766,-0.000126,0.006768,-0.002842,-89.250315,0.006797,
840,600,1.288734,-11.148600,0.999996,0.000222,-0.004333,0.008042,-0.000367,0.008053,-0.004344,-88.301159,0.008062,
1430,1820,-0.234008,-1.102979,0.999998,0.000183,-0.001529,0.005636,0.000162,0.005639,-0.001532,88.702618,0.005832,
1490,1510,-0.674395,-3.164996,0.999997,0.000213,-0.003647,0.007102,-0.001022,0.007198,-0.003744,-84.619227,0.007200,
760,1110,2.517804,-6.940285,0.999996,0.000233,-0.003363,0.007567,-0.000682,0.007609,-0.003405,-86.442821,0.007623,
1320,1410,-0.167753,-3.233470,0.999998,0.000162,-0.002419,0.004931,-0.001558,0.005248,-0.002735,-78.510632,0.005250,
1500,230,-0.335442,-13.994383,0.999997,0.000172,-0.001885,0.005901,-0.000319,0.005914,-0.001898,-87.656782,0.006040,
1320,1470,-0.176206,-2.934878,0.999999,0.000169,-0.002267,0.005143,-0.001012,0.005279,-0.002402,-82.361612,0.005286,
1090,1470,0.310534,-3.068628,0.999997,0.000195,-0.002819,0.005861,0.001356,0.006068,-0.003025,81.325882,0.006068,
1490,1560,-0.627333,-2.811927,0.999998,0.000191,-0.003226,0.006843,-0.000792,0.006905,-0.003288,-85.531271,0.006908,
1120,1370,0.229127,-3.525305,0.999997,0.000196,-0.002910,0.005338,0.002181,0.005879,-0.003451,76.062604,0.005908,
1680,1850,-0.656258,-1.157407,0.999997,0.000194,-0.002688,0.006957,0.000905,0.007041,-0.002772,84.688500,0.007094,
560,40,0.258159,-14.883636,0.999936,0.000000,-0.000143,0.011176,0.007447,0.014870,-0.003836,63.617086,0.015440,
1260,100,-0.010563,-14.753687,0.999998,0.000157,-0.000400,0.004657,-0.000057,0.004657,-0.000401,-89.356252,0.005162,
1540,380,-0.653262,-12.984734,0.999996,0.000223,-0.002727,0.006620,0.000166,0.006623,-0.002729,88.984089,0.006657,
1860,890,-2.956929,-8.467368,0.999997,0.000189,-0.003259,0.006686,-0.000257,0.006692,-0.003266,-88.519540,0.006693,
810,1180,2.175369,-6.355553,0.999997,0.000227,-0.003954,0.008243,-0.000981,0.008322,-0.004033,-85.428872,0.008323,
1400,1660,-0.312715,-1.997552,0.999998,0.000184,-0.002285,0.005890,-0.000472,0.005918,-0.002312,-86.704081,0.005965,
1630,640,-1.401709,-10.806827,0.999995,0.000258,-0.004507,0.008229,0.000180,0.008231,-0.004510,89.189983,0.008244,
1700,1520,-1.477951,-3.648786,0.999996,0.000226,-0.004017,0.007788,-0.000194,0.007791,-0.004020,-89.057124,0.007792,
1340,490,-0.214987,-12.663840,0.999998,0.000178,-0.002148,0.005550,0.000630,0.005601,-0.002199,85.354257,0.005644,
790,1690,1.041767,-2.292632,0.999997,0.000195,-0.003419,0.007361,0.000039,0.007361,-0.003419,89.790772,0.007367,
750,1830,0.809523,-1.344725,0.999997,0.000187,-0.002718,0.007233,-0.000895,0.007313,-0.002798,-84.902984,0.007380,
710,850,2.491931,-8.873661,0.999996,0.000246,-0.003748,0.007555,0.000752,0.007605,-0.003798,86.209283,0.007605,
1690,1020,-2.551468,-7.616334,0.999998,0.000194,-0.003127,0.007529,-0.000114,0.007530,-0.003128,-89.388088,0.007566,
620,590,2.159522,-10.708785,0.999998,0.000184,-0.003850,0.007660,0.000057,0.007660,-0.003851,89.718728,0.007660,
570,1310,2.734649,-5.702880,0.999897,0.001218,-0.004183,0.007119,0.000244,0.007125,-0.004188,88.764740,0.007161,
1050,890,1.099453,-9.503343,0.999995,0.000278,-0.005165,0.010038,-0.002268,0.010369,-0.005496,-81.694104,0.010376,
1070,1240,0.598462,-4.726721,0.999996,0.000237,-0.005485,0.008305,0.002813,0.008857,-0.006037,78.901623,0.009050,
1080,2010,0.019034,-0.117311,0.999998,0.000156,-0.000084,0.004599,-0.000322,0.004621,-0.000106,-86.083156,0.005276,
920,200,0.355909,-14.136106,0.999998,0.000196,-0.001518,0.006026,0.000658,0.006083,-0.001575,85.055406,0.006314,
980,170,0.214858,-14.348139,0.999997,0.000186,-0.001171,0.005549,0.000500,0.005586,-0.001208,85.765943,0.005878,
1240,2020,-0.002836,-0.069065,0.999998,0.000000,-0.000087,0.004524,-0.000068,0.004525,-0.000088,-89.160099,0.005175,
1150,360,0.130157,-13.413289,0.999998,0.000159,-0.001713,0.005448,-0.000182,0.005453,-0.001717,-88.545289,0.005576,
590,370,1.773679,-12.304926,0.999998,0.000183,-0.003781,0.007386,-0.000083,0.007387,-0.003782,-89.573446,0.007387,
890,760,1.431738,-9.925509,0.999994,0.000258,-0.005123,0.009040,0.000100,0.009040,-0.005124,89.597477,0.009067,
1220,50,0.001359,-14.982119,0.999999,0.000113,-0.000204,0.004491,0.000035,0.004491,-0.000204,89.576517,0.005072,
1400,950,-1.387639,-9.031066,0.999984,0.000506,-0.004720,0.013252,0.005636,0.014873,-0.006341,73.950761,0.014927,
1300,1700,-0.108961,-1.675409,0.999998,0.000150,-0.001564,0.005401,-0.000070,0.005402,-0.001565,-89.424575,0.005559,
960,1940,0.151765,-0.483198,0.999998,0.000159,-0.000937,0.005328,-0.000684,0.005401,-0.001011,-83.837520,0.005743,
870,1730,0.714541,-1.856791,0.999997,0.000219,-0.002896,0.006946,-0.000071,0.006947,-0.002897,-89.584825,0.006978,
1450,1270,-0.829346,-4.899652,0.999996,0.000223,-0.005731,0.009146,-0.001605,0.009317,-0.005902,-83.912330,0.009427,
1780,1090,-2.806948,-7.114625,0.999997,0.000191,-0.003319,0.007075,0.000302,0.007084,-0.003327,88.339850,0.007088,
950,660,0.901065,-11.004741,0.999997,0.000202,-0.004661,0.008122,-0.001063,0.008209,-0.004749,-85.280530,0.008243,
760,1370,1.833106,-4.855539,0.999995,0.000260,-0.004298,0.008130,-0.000304,0.008137,-0.004305,-88.601797,0.008142,
840,580,1.246910,-11.312233,0.999997,0.000198,-0.004217,0.007948,-0.000388,0.007960,-0.004229,-88.172791,0.007966,
1490,1490,-0.692597,-3.307086,0.999997,0.000210,-0.003739,0.007231,-0.001070,0.007335,-0.003843,-84.478756,0.007338,
620,1920,0.837561,-0.941686,0.999997,0.000194,-0.003671,0.007878,-0.000931,0.007953,-0.003746,-85.420159,0.007957,
1650,1540,-1.240655,-3.368474,0.999996,0.000202,-0.003902,0.007721,-0.000331,0.007730,-0.003912,-88.368358,0.007730,
1510,240,-0.371910,-13.922760,0.999997,0.000202,-0.001968,0.006030,-0.000312,0.006042,-0.001980,-87.767879,0.006160,
1090,1450,0.313657,-3.189071,0.999998,0.000174,-0.002908,0.005928,0.001512,0.006180,-0.003160,80.550680,0.006180,
960,730,0.981425,-10.449875,0.999996,0.000218,-0.005284,0.008824,-0.001001,0.008895,-0.005355,-85.959997,0.008956,
1890,890,-3.052761,-8.427913,0.999998,0.000143,-0.003222,0.006382,-0.000100,0.006383,-0.003223,-89.401531,0.006384,
1540,360,-0.624625,-13.112994,0.999997,0.000200,-0.002535,0.006603,0.000024,0.006603,-0.002535,89.846815,0.006662,
1150,1440,0.158483,-3.071163,0.999998,0.000152,-0.002228,0.004920,0.001155,0.005102,-0.002410,81.044679,0.005105,
1340,110,-0.046416,-14.698836,0.999998,0.000156,-0.000522,0.004826,-0.000220,0.004835,-0.000531,-87.643643,0.005303,
1400,880,-0.966840,-9.745876,0.999992,0.000299,-0.005063,0.009164,0.002709,0.009663,-0.005561,79.574690,0.009700,
1620,1200,-1.974083,-6.146106,0.999998,0.000178,-0.004315,0.008581,0.000949,0.008651,-0.004385,85.812604,0.008651,
1610,640,-1.309946,-10.860730,0.999996,0.000228,-0.004563,0.008246,0.000306,0.008254,-0.004570,88.630266,0.008270,
1350,1880,-0.094354,-0.745486,0.999998,0.000185,-0.000881,0.005052,0.000146,0.005056,-0.000885,88.588732,0.005400,
930,1180,1.653281,-6.161013,0.999996,0.000261,-0.004844,0.009580,-0.000853,0.009630,-0.004894,-86.627466,0.009630,
1600,770,-1.598464,-9.765044,0.999996,0.000212,-0.004956,0.008882,-0.000377,0.008892,-0.004966,-88.439699,0.008913,
1050,1820,0.209041,-1.090303,0.999998,0.000189,-0.001505,0.005527,-0.000129,0.005529,-0.001507,-88.950946,0.005717,
790,1670,1.081911,-2.443649,0.999997,0.000205,-0.003484,0.007398,0.000088,0.007399,-0.003485,89.536479,0.007403,
620,570,2.111699,-10.861839,0.999998,0.000173,-0.003834,0.007621,-0.000007,0.007621,-0.003834,-89.966597,0.007621,
750,1810,0.870350,-1.490471,0.999998,0.000191,-0.002868,0.007381,-0.000745,0.007435,-0.002921,-85.865616,0.007491,
1440,1750,-0.326387,-1.515903,0.999997,0.000213,-0.001907,0.005870,-0.000044,0.005870,-0.001907,-89.673112,0.005989,
1670,1020,-2.490995,-7.619189,0.999997,0.000197,-0.003059,0.007616,-0.000139,0.007617,-0.003060,-89.253721,0.007666,
1020,2010,0.030059,-0.122329,0.999999,0.000129,-0.000126,0.004688,-0.000479,0.004736,-0.000173,-84.373158,0.005371,
1700,1500,-1.516678,-3.804139,0.999995,0.000250,-0.004074,0.007828,-0.000163,0.007830,-0.004076,-89.215752,0.007832,
1220,170,0.008776,-14.417137,0.999998,0.000154,-0.000800,0.004928,-0.000012,0.004928,-0.000800,-89.883326,0.005289,
1080,570,0.337711,-12.108046,0.999998,0.000194,-0.002850,0.005936,-0.001294,0.006123,-0.003036,-81.792124,0.006123,
920,180,0.318236,-14.254829,0.999997,0.000202,-0.001330,0.005858,0.000703,0.005926,-0.001398,84.466960,0.006196,
670,910,2.767034,-8.392525,0.999997,0.000215,-0.003425,0.007119,0.000495,0.007143,-0.003448,87.315523,0.007144,
1540,50,-0.058508,-14.966878,0.999998,0.000172,-0.000186,0.004976,-0.000828,0.005105,-0.000315,-81.111064,0.005722,
710,830,2.442458,-9.022633,0.999996,0.000231,-0.003844,0.007674,0.000778,0.007726,-0.003896,86.152691,0.007726,
1050,980,1.564983,-8.403251,0.999984,0.000457,-0.006281,0.016058,-0.003471,0.016585,-0.006808,-81.368184,0.016673,
1300,1660,-0.115523,-1.888612,0.999997,0.000190,-0.001742,0.005393,-0.000163,0.005397,-0.001746,-88.693342,0.005508,
740,1370,1.918804,-4.896724,0.999996,0.000205,-0.004219,0.008007,-0.000322,0.008016,-0.004228,-88.491758,0.008020,
780,1310,1.911576,-5.311435,0.999997,0.000208,-0.004376,0.008297,-0.000530,0.008319,-0.004398,-87.610305,0.008323,
870,1710,0.751225,-1.998652,0.999997,0.000218,-0.002997,0.006922,0.000009,0.006922,-0.002997,89.949384,0.006943,
1260,80,-0.009568,-14.843542,0.999998,0.000150,-0.000282,0.004580,-0.000043,0.004581,-0.000282,-89.493236,0.005134,
950,300,0.469986,-13.546650,0.999997,0.000195,-0.002323,0.006251,0.000050,0.006251,-0.002323,89.667358,0.006319,
1440,1510,-0.503192,-3.019301,0.999996,0.000220,-0.003212,0.006598,-0.001127,0.006726,-0.003340,-83.530461,0.006726,
1450,1250,-0.890812,-5.084004,0.999996,0.000225,-0.005816,0.009339,-0.001456,0.009478,-0.005954,-84.562685,0.009581,
1490,1470,-0.711152,-3.451405,0.999997,0.000228,-0.003864,0.007353,-0.001118,0.007463,-0.003974,-84.361994,0.007469,
1800,1090,-2.872655,-7.123223,0.999997,0.000243,-0.003305,0.006944,0.000250,0.006950,-0.003311,88.605726,0.006952,
1880,720,-2.623103,-9.637202,0.999997,0.000214,-0.003652,0.007340,-0.000140,0.007342,-0.003654,-89.272323,0.007342,
1610,170,-0.406934,-14.261836,0.999997,0.000217,-0.001705,0.006204,-0.000942,0.006314,-0.001816,-83.300495,0.006501,
1660,800,-1.974402,-9.388139,0.999997,0.000225,-0.004397,0.008476,-0.000787,0.008524,-0.004445,-86.516168,0.008526,
870,760,1.532272,-9.872010,0.999995,0.000249,-0.005018,0.008910,0.000249,0.008915,-0.005023,88.975221,0.008939,
630,730,2.475473,-9.662937,0.999996,0.000226,-0.003760,0.007488,0.000343,0.007499,-0.003770,88.252623,0.007499,
1620,1180,-2.041600,-6.318176,0.999997,0.000195,-0.004101,0.008597,0.001049,0.008683,-0.004188,85.308239,0.008685,
580,370,1.812233,-12.279890,0.999998,0.000171,-0.004024,0.007318,-0.000082,0.007319,-0.004024,-89.585678,0.007331,
810,720,1.704334,-10.078638,0.999996,0.000255,-0.004606,0.008400,0.000325,0.008408,-0.004614,88.569700,0.008421,
1320,110,-0.036784,-14.702102,0.999998,0.000153,-0.000462,0.004764,-0.000172,0.004770,-0.000468,-88.116400,0.005258,
840,780,1.742343,-9.624498,0.999996,0.000235,-0.004772,0.008760,0.000574,0.008784,-0.004797,87.573867,0.008797,
1580,770,-1.497824,-9.815174,0.999994,0.000283,-0.005098,0.008995,-0.000243,0.008999,-0.005102,-89.014097,0.009026,
1540,340,-0.593719,-13.248826,0.999998,0.000205,-0.002440,0.006696,-0.000060,0.006696,-0.002441,-89.626629,0.006777,
1150,1420,0.155510,-3.167207,0.999998,0.000191,-0.002255,0.004865,0.001330,0.005106,-0.002495,79.756148,0.005106,
950,240,0.376924,-13.919762,0.999998,0.000189,-0.001946,0.006058,0.000348,0.006073,-0.001961,87.512149,0.006199,
660,590,2.005662,-10.800741,0.999997,0.000187,-0.003857,0.007726,0.000057,0.007726,-0.003857,89.717386,0.007726,
600,1770,1.514966,-2.151934,0.999996,0.000237,-0.003659,0.007343,-0.000034,0.007344,-0.003659,-89.822661,0.007344,
1880,890,-3.020591,-8.442648,0.999999,0.000123,-0.003225,0.006489,-0.000143,0.006491,-0.003227,-89.154273,0.006491,
1090,1430,0.314275,-3.303494,0.999998,0.000177,-0.003044,0.005921,0.001718,0.006239,-0.003361,79.516447,0.006245,
750,1790,0.930747,-1.638797,0.999998,0.000181,-0.002971,0.007325,-0.000589,0.007358,-0.003005,-86.734695,0.007399,
920,160,0.275174,-14.371402,0.999998,0.000187,-0.001182,0.005801,0.000796,0.005891,-0.001271,83.581341,0.006200,
1120,710,0.229977,-11.462180,0.999997,0.000221,-0.003109,0.005336,-0.002503,0.006022,-0.003795,-74.670691,0.006090,
1060,170,0.132614,-14.384027,0.999998,0.000159,-0.000971,0.005178,0.000265,0.005189,-0.000982,87.535610,0.005513,
1700,1480,-1.559847,-3.964048,0.999995,0.000249,-0.004136,0.007871,-0.000097,0.007872,-0.004137,-89.537728,0.007876,
1150,430,0.147532,-13.031926,0.999998,0.000183,-0.001963,0.005447,-0.000410,0.005470,-0.001986,-86.840559,0.005538,
1440,1730,-0.346749,-1.635969,0.999997,0.000175,-0.002021,0.006018,-0.000100,0.006019,-0.002022,-89.287774,0.006126,
1000,940,1.646016,-8.552023,0.999995,0.000261,-0.004459,0.010992,0.000078,0.010992,-0.004460,89.711157,0.011057,
790,1650,1.121208,-2.589854,0.999997,0.000220,-0.003513,0.007428,0.000116,0.007429,-0.003514,89.393380,0.007432,
600,1370,2.470891,-5.181194,0.999996,0.000241,-0.003771,0.007553,-0.000161,0.007555,-0.003773,-89.183528,0.007555,
1520,2010,-0.044262,-0.126951,0.999999,0.000158,-0.000270,0.004853,0.000725,0.004954,-0.000370,82.098677,0.005519,
770,1560,1.369169,-3.319677,0.999996,0.000227,-0.003873,0.007664,0.000227,0.007668,-0.003878,88.872598,0.007669,
1360,640,-0.276469,-11.773554,0.999997,0.000218,-0.002934,0.005715,0.001774,0.006065,-0.003284,78.845876,0.006072,
1330,1880,-0.073923,-0.739348,0.999997,0.000195,-0.000899,0.005026,0.000099,0.005028,-0.000901,89.040205,0.005362,
910,1180,1.749824,-6.211564,0.999996,0.000234,-0.004643,0.009308,-0.000950,0.009372,-0.004708,-86.120482,0.009372,
1500,1550,-0.670561,-2.907804,0.999996,0.000240,-0.003424,0.006974,-0.000834,0.007040,-0.003490,-85.440834,0.007041,
1400,860,-0.849635,-9.943888,0.999996,0.000233,-0.005433,0.008892,0.002410,0.009287,-0.005828,80.701272,0.009387,
1510,1020,-2.043901,-7.627601,0.999998,0.000173,-0.002754,0.009207,-0.000100,0.009208,-0.002755,-89.521387,0.009452,
1300,760,-0.124131,-11.474677,0.999996,0.000238,-0.002420,0.003512,0.002484,0.004414,-0.003323,70.027380,0.004598,
1050,970,1.537267,-8.560352,0.999989,0.000369,-0.005978,0.014976,-0.003855,0.015663,-0.006665,-79.898457,0.015720,
1530,50,-0.056150,-14.967770,0.999998,0.000153,-0.000240,0.004951,-0.000772,0.005063,-0.000352,-81.722216,0.005654,
870,1690,0.786699,-2.133648,0.999997,0.000209,-0.003120,0.006929,0.000108,0.006930,-0.003121,89.383452,0.006941,
560,30,0.125086,-14.997719,0.999936,0.000000,0.001006,0.011822,0.007340,0.015531,-0.002703,63.190570,0.016595,
1190,1710,0.065333,-1.611559,0.999998,0.000157,-0.001552,0.005323,0.000090,0.005324,-0.001554,89.248659,0.005476,
1850,1280,-2.657454,-5.824806,0.999997,0.000215,-0.003638,0.007345,0.000361,0.007357,-0.003650,88.119835,0.007357,
710,810,2.384205,-9.179628,0.999996,0.000257,-0.003937,0.007761,0.000753,0.007810,-0.003985,86.330237,0.007810,
1300,1470,-0.131832,-2.895850,0.999997,0.000213,-0.002161,0.004944,-0.000951,0.005069,-0.002286,-82.507721,0.005077,
1130,360,0.165759,-13.394687,0.999998,0.000176,-0.001875,0.005550,-0.000280,0.005560,-0.001886,-87.842401,0.005655,
750,160,0.577093,-14.239662,0.999996,0.000229,-0.002093,0.006948,0.001507,0.007193,-0.002338,80.784777,0.007338,
1620,1160,-2.105028,-6.490390,0.999997,0.000207,-0.003904,0.008436,0.001027,0.008521,-0.003989,85.276796,0.008527,
1260,60,-0.006328,-14.937445,0.999998,0.000151,-0.000186,0.004554,-0.000050,0.004554,-0.000186,-89.399239,0.005155,
1240,1200,-0.073603,-3.629021,0.999989,0.000000,-0.008194,0.002333,0.000147,0.002335,-0.008197,89.197665,0.008446,
890,1240,1.615275,-5.698860,0.999995,0.000241,-0.005019,0.009203,-0.000572,0.009226,-0.005042,-87.700776,0.009240,
1130,1440,0.204487,-3.117643,0.999997,0.000221,-0.002515,0.005233,0.001413,0.005482,-0.002764,79.982032,0.005482,
840,1020,2.352822,-7.618645,0.999997,0.000234,-0.002905,0.007862,0.000132,0.007864,-0.002906,89.295944,0.007952,
1310,420,-0.138514,-13.087517,0.999998,0.000163,-0.001913,0.005438,0.000350,0.005454,-0.001930,87.282188,0.005532,
750,1770,0.985048,-1.784969,0.999997,0.000176,-0.003091,0.007421,-0.000466,0.007442,-0.003111,-87.469086,0.007475,
1450,1230,-0.969149,-5.272878,0.999997,0.000221,-0.005851,0.009710,-0.001294,0.009817,-0.005958,-85.278025,0.009891,
1540,320,-0.560495,-13.383463,0.999997,0.000211,-0.002358,0.006560,-0.000056,0.006560,-0.002358,-89.640978,0.006646,
1050,240,0.214268,-14.001364,0.999998,0.000163,-0.001514,0.005529,0.000119,0.005531,-0.001516,89.033266,0.005716,
970,1560,0.636762,-2.818732,0.999997,0.000215,-0.003286,0.006876,0.000790,0.006937,-0.003347,85.583863,0.006939,
590,1370,2.508921,-5.203963,0.999996,0.000254,-0.004044,0.007559,-0.000072,0.007560,-0.004045,-89.644494,0.007566,
1700,1460,-1.605498,-4.121720,0.999997,0.000222,-0.004179,0.007923,-0.000071,0.007923,-0.004179,-89.661533,0.007927,
1010,2010,0.031384,-0.122095,0.999999,0.000131,-0.000079,0.004751,-0.000520,0.004806,-0.000135,-83.927989,0.005474,
670,1110,2.823153,-6.977972,0.999998,0.000186,-0.003372,0.007115,-0.000531,0.007142,-0.003399,-87.109299,0.007144,
1870,890,-2.988607,-8.455519,0.999998,0.000150,-0.003237,0.006588,-0.000206,0.006593,-0.003241,-88.799318,0.006593,
1740,1520,-1.635473,-3.745376,0.999996,0.000231,-0.003951,0.007760,-0.000113,0.007761,-0.003952,-89.449457,0.007761,
970,300,0.423812,-13.576073,0.999997,0.000186,-0.002227,0.006145,0.000027,0.006145,-0.002227,89.817498,0.006222,
1150,410,0.142443,-13.140204,0.999998,0.000190,-0.001901,0.005442,-0.000329,0.005457,-0.001915,-87.443567,0.005537,
1370,1880,-0.109942,-0.752786,0.999998,0.000154,-0.000777,0.005081,0.000210,0.005089,-0.000785,87.949030,0.005479,
1050,910,1.221917,-9.280814,0.999991,0.000344,-0.004858,0.010337,-0.002704,0.010803,-0.005324,-80.205754,0.010804,
1880,1090,-3.126390,-7.164100,0.999997,0.000205,-0.003098,0.006213,-0.000018,0.006213,-0.003098,-89.891216,0.006213,
740,310,1.082615,-13.130381,0.999998,0.000181,-0.003279,0.007399,0.000259,0.007405,-0.003285,88.611721,0.007421,
1190,1690,0.068256,-1.719479,0.999998,0.000169,-0.001626,0.005331,0.000113,0.005333,-0.001628,89.067480,0.005467,
1090,1410,0.315445,-3.426239,0.999997,0.000181,-0.003233,0.005967,0.001926,0.006354,-0.003620,78.639293,0.006375,
1610,150,-0.348120,-14.391456,0.999997,0.000205,-0.001506,0.006158,-0.001056,0.006301,-0.001649,-82.295023,0.006535,
580,860,2.976103,-8.634260,0.999998,0.000159,-0.003293,0.006722,0.000166,0.006725,-0.003295,89.049459,0.006725,
870,1670,0.819185,-2.275021,0.999997,0.000207,-0.003170,0.007040,0.000176,0.007043,-0.003173,89.010479,0.007055,
960,1920,0.181492,-0.587631,0.999998,0.000163,-0.001122,0.005398,-0.000601,0.005453,-0.001177,-84.776225,0.005739,
790,720,1.796231,-10.036213,0.999997,0.000205,-0.004499,0.008304,0.000393,0.008316,-0.004511,88.242966,0.008326,
1850,1660,-1.751560,-2.942685,0.999997,0.000226,-0.003744,0.007517,-0.000094,0.007517,-0.003745,-89.519330,0.007517,
1030,240,0.244963,-13.985091,0.999998,0.000172,-0.001520,0.005640,0.000166,0.005643,-0.001524,88.670707,0.005839,
1490,1450,-0.728603,-3.599120,0.999997,0.000229,-0.004058,0.007477,-0.001204,0.007601,-0.004183,-84.105152,0.007614,
630,690,2.372562,-9.965881,0.999997,0.000216,-0.003798,0.007551,0.000263,0.007557,-0.003804,88.672706,0.007557,
1660,780,-1.910734,-9.555528,0.999997,0.000227,-0.004487,0.008476,-0.000694,0.008514,-0.004524,-86.945141,0.008519,
790,1630,1.160383,-2.739971,0.999997,0.000199,-0.003591,0.007488,0.000168,0.007491,-0.003594,89.132091,0.007493,
1830,1110,-2.948950,-6.998789,0.999997,0.000214,-0.003272,0.006867,0.000382,0.006882,-0.003286,87.843634,0.006884,
1330,1820,-0.106571,-1.046697,0.999998,0.000160,-0.001220,0.005218,0.000021,0.005218,-0.001220,89.811463,0.005459,
1580,1410,-1.184240,-4.214988,0.999998,0.000167,-0.004610,0.008257,-0.000491,0.008276,-0.004629,-87.818945,0.008295,
1290,1480,-0.110975,-2.827318,0.999998,0.000162,-0.002079,0.004929,-0.000761,0.005011,-0.002161,-83.874626,0.005027,
1860,1980,-0.514081,-0.517935,0.999996,0.000216,-0.003367,0.008631,0.002110,0.008992,-0.003727,80.310420,0.009035,
1080,550,0.334127,-12.225682,0.999998,0.000175,-0.002745,0.005945,-0.001182,0.006103,-0.002903,-82.394248,0.006106,
1000,920,1.536587,-8.770196,0.999995,0.000275,-0.004856,0.010671,0.000088,0.010672,-0.004857,89.675156,0.010686,
710,1230,2.426504,-6.057205,0.999996,0.000247,-0.003857,0.007738,-0.000781,0.007790,-0.003909,-86.164533,0.007790,
750,1580,1.407100,-3.215209,0.999997,0.000220,-0.003827,0.007670,0.000206,0.007674,-0.003831,88.973744,0.007674,
1360,620,-0.277423,-11.885741,0.999997,0.000200,-0.002833,0.005687,0.001595,0.005975,-0.003122,79.736708,0.005978,
1050,440,0.371258,-12.828474,0.999997,0.000189,-0.002476,0.006046,-0.000621,0.006091,-0.002521,-85.850777,0.006121,
1700,1440,-1.648378,-4.280673,0.999996,0.000236,-0.004231,0.007995,-0.000010,0.007995,-0.004231,-89.950930,0.007999,
1050,1550,0.400267,-2.690239,0.999997,0.000196,-0.002725,0.006182,0.000889,0.006270,-0.002813,84.357604,0.006281,
1450,1210,-1.056783,-5.470576,0.999996,0.000234,-0.005889,0.010140,-0.001119,0.010218,-0.005966,-86.025122,0.010266,
920,140,0.234488,-14.485350,0.999998,0.000174,-0.000990,0.005604,0.000804,0.005700,-0.001087,83.149614,0.006053,
580,1370,2.544984,-5.228588,0.999996,0.000248,-0.004876,0.007699,0.000114,0.007700,-0.004877,89.481880,0.007791,
1250,1990,-0.004060,-0.205580,0.999998,0.000170,-0.000239,0.004548,0.000034,0.004548,-0.000239,89.588659,0.005120,
1120,170,0.085674,-14.401143,0.999998,0.000174,-0.000863,0.005011,0.000134,0.005014,-0.000866,88.695059,0.005360,
1530,1510,-0.818746,-3.275302,0.999997,0.000203,-0.003797,0.007426,-0.000825,0.007486,-0.003858,-85.820769,0.007488,
1890,1090,-3.157013,-7.171064,0.999997,0.000193,-0.003057,0.006092,-0.000038,0.006092,-0.003058,-89.762494,0.006092,
870,1650,0.851663,-2.417739,0.999997,0.000184,-0.003202,0.007097,0.000216,0.007102,-0.003207,88.799672,0.007113,
930,1240,1.406299,-5.581401,0.999994,0.000252,-0.005436,0.009593,-0.000196,0.009596,-0.005438,-89.253860,0.009624,
1090,1390,0.322636,-3.546049,0.999997,0.000196,-0.003397,0.006060,0.002132,0.006519,-0.003856,77.864361,0.006555,
570,700,2.623934,-9.756026,0.999626,0.002174,-0.004804,0.006735,0.000510,0.006757,-0.004826,87.473047,0.006961,
570,370,1.853786,-12.253349,0.999988,0.000433,-0.004182,0.007258,-0.000109,0.007259,-0.004183,-89.452617,0.007287,
640,590,2.082211,-10.754680,0.999998,0.000188,-0.003836,0.007692,0.000072,0.007692,-0.003836,89.642552,0.007692,
1300,740,-0.118878,-11.546735,0.999997,0.000217,-0.002302,0.003722,0.002285,0.004491,-0.003071,71.409395,0.004591,
1560,110,-0.184978,-14.648535,0.999998,0.000191,-0.000843,0.005533,-0.000938,0.005668,-0.000978,-81.804913,0.006059,
1880,710,-2.598376,-9.710830,0.999997,0.000231,-0.003664,0.007392,-0.000142,0.007394,-0.003666,-89.265614,0.007394,
1610,130,-0.298289,-14.508151,0.999998,0.000199,-0.001287,0.005916,-0.001101,0.006081,-0.001451,-81.498636,0.006352,
1820,2000,-0.242774,-0.241470,0.999992,0.000344,-0.001989,0.007011,0.002492,0.007655,-0.002633,75.511799,0.007779,
1490,1430,-0.752480,-3.752683,0.999996,0.000228,-0.004289,0.007579,-0.001282,0.007716,-0.004426,-83.903723,0.007744,
960,1900,0.219335,-0.700137,0.999998,0.000169,-0.001291,0.005591,-0.000601,0.005643,-0.001343,-85.045289,0.005895,
1350,240,-0.134513,-14.035439,0.999998,0.000141,-0.001240,0.005289,-0.000082,0.005290,-0.001241,-89.282613,0.005533,
800,100,0.264249,-14.668435,0.999998,0.000193,-0.001373,0.006021,0.001433,0.006289,-0.001642,79.404204,0.006524,
1550,700,-1.154648,-10.534722,0.999996,0.000247,-0.005009,0.008676,0.000559,0.008699,-0.005032,87.665242,0.008735,
1560,1410,-1.091143,-4.151512,0.999998,0.000180,-0.004596,0.008200,-0.000643,0.008232,-0.004628,-87.129084,0.008253,
1240,860,-0.101335,-11.483052,0.999977,0.000000,-0.008941,0.002425,-0.000348,0.002436,-0.008952,-88.246881,0.009257,
750,1750,1.039507,-1.934889,0.999997,0.000207,-0.003184,0.007341,-0.000302,0.007350,-0.003193,-88.355194,0.007371,
1520,50,-0.052450,-14.968037,0.999998,0.000158,-0.000297,0.004925,-0.000720,0.005022,-0.000395,-82.292696,0.005585,
1230,1480,0.002163,-2.781818,0.999998,0.000194,-0.001860,0.004690,0.000041,0.004690,-0.001861,89.644781,0.004724,
1450,1410,-0.603999,-3.746420,0.999997,0.000229,-0.004142,0.007333,-0.001651,0.007566,-0.004375,-81.973882,0.007597,
1090,360,0.238408,-13.358137,0.999998,0.000171,-0.001751,0.005688,-0.000198,0.005693,-0.001756,-88.475136,0.005831,
830,1990,0.128992,-0.239542,0.999998,0.000175,-0.000448,0.005550,-0.001393,0.005857,-0.000756,-77.545196,0.006372,
1360,600,-0.276054,-11.996367,0.999997,0.000188,-0.002785,0.005679,0.001466,0.005925,-0.003032,80.449408,0.005926,
1060,2010,0.020319,-0.118019,0.999998,0.000146,-0.000181,0.004622,-0.000297,0.004640,-0.000199,-86.476512,0.005247,
1860,1960,-0.657051,-0.686111,0.999997,0.000198,-0.003489,0.008234,0.001708,0.008477,-0.003733,81.877590,0.008497,
1840,1530,-2.001215,-3.906319,0.999997,0.000204,-0.003791,0.007635,-0.000055,0.007635,-0.003791,-89.723476,0.007635,
1700,1420,-1.696042,-4.442368,0.999996,0.000239,-0.004249,0.008050,0.000066,0.008051,-0.004249,89.690261,0.008055,
710,1250,2.371245,-5.899962,0.999997,0.000235,-0.003895,0.007744,-0.000738,0.007790,-0.003942,-86.386142,0.007790,
1340,610,-0.221903,-12.004854,0.999998,0.000185,-0.002583,0.005357,0.001472,0.005621,-0.002848,79.828618,0.005621,
1660,1200,-2.142252,-6.194153,0.999997,0.000232,-0.004074,0.008310,0.000971,0.008386,-0.004150,85.544524,0.008386,
1050,1530,0.407469,-2.811827,0.999997,0.000216,-0.002874,0.006249,0.001048,0.006368,-0.002992,83.531609,0.006371,
1730,1660,-1.304753,-2.645988,0.999997,0.000228,-0.003682,0.007579,-0.000085,0.007580,-0.003683,-89.566562,0.007581,
1620,1140,-2.163772,-6.658642,0.999997,0.000214,-0.003688,0.008332,0.001042,0.008421,-0.003778,85.083366,0.008436,
680,1370,2.162435,-5.015979,0.999998,0.000205,-0.003991,0.007753,-0.000334,0.007763,-0.004001,-88.372628,0.007764,
630,670,2.318433,-10.117190,0.999997,0.000211,-0.003813,0.007570,0.000245,0.007575,-0.003818,88.766800,0.007575,
1830,1090,-2.970372,-7.135612,0.999998,0.000199,-0.003218,0.006718,0.000162,0.006721,-0.003220,89.066794,0.006723,
1050,420,0.360201,-12.949109,0.999997,0.000203,-0.002452,0.006037,-0.000557,0.006073,-0.002488,-86.263643,0.006106,
1250,1970,-0.006338,-0.297732,0.999998,0.000177,-0.000307,0.004586,0.000009,0.004586,-0.000307,89.889376,0.005128,
750,1560,1.446336,-3.369165,0.999996,0.000239,-0.003888,0.007690,0.000205,0.007694,-0.003891,88.983701,0.007694,
1000,900,1.423772,-8.985816,0.999994,0.000295,-0.005299,0.010651,-0.000003,0.010651,-0.005299,-89.990519,0.010651,
630,120,0.714592,-14.332287,0.999996,0.000227,-0.003445,0.007988,0.001249,0.008123,-0.003580,83.835151,0.008142,
790,1120,2.399023,-6.852403,0.999997,0.000213,-0.003435,0.007740,-0.000745,0.007789,-0.003484,-86.203103,0.007804,
1580,110,-0.207155,-14.641207,0.999998,0.000170,-0.001133,0.005638,-0.001003,0.005784,-0.001278,-81.747109,0.006077,
1090,1370,0.326815,-3.670866,0.999997,0.000202,-0.003522,0.006127,0.002322,0.006657,-0.004051,77.148464,0.006709,
1610,110,-0.238639,-14.629173,0.999998,0.000184,-0.001087,0.005793,-0.001177,0.005989,-0.001283,-80.555557,0.006306,
1230,1820,0.001289,-1.026788,0.999998,0.000138,-0.001128,0.005066,-0.000005,0.005066,-0.001128,-89.951750,0.005319,
1880,700,-2.572132,-9.785765,0.999997,0.000231,-0.003689,0.007454,-0.000128,0.007456,-0.003691,-89.341078,0.007456,
870,1630,0.882442,-2.558863,0.999997,0.000195,-0.003265,0.007172,0.000299,0.007180,-0.003274,88.359910,0.007190,
960,1880,0.251949,-0.812358,0.999998,0.000167,-0.001437,0.005608,-0.000496,0.005642,-0.001471,-85.993236,0.005854,
1880,300,-1.619449,-12.808112,0.999997,0.000230,-0.003660,0.007350,0.000017,0.007350,-0.003660,89.912708,0.007350,
920,120,0.194333,-14.596650,0.999998,0.000182,-0.000808,0.005550,0.000887,0.005672,-0.000930,82.202275,0.006084,
910,1240,1.511199,-5.644397,0.999994,0.000281,-0.005222,0.009411,-0.000412,0.009422,-0.005234,-88.387960,0.009442,
1810,2000,-0.231312,-0.230875,0.999995,0.000242,-0.001188,0.006879,0.002754,0.007729,-0.002039,72.839484,0.008012,
1490,1410,-0.776376,-3.907303,0.999997,0.000205,-0.004470,0.007790,-0.001303,0.007927,-0.004607,-84.002008,0.007962,
800,120,0.337134,-14.544474,0.999997,0.000219,-0.001645,0.006216,0.001375,0.006449,-0.001878,80.361662,0.006634,
1650,1380,-1.572738,-4.655074,0.999996,0.000241,-0.004563,0.008308,0.000061,0.008308,-0.004564,89.726458,0.008321,
1540,300,-0.535655,-13.510609,0.999997,0.000211,-0.002246,0.006456,-0.000150,0.006458,-0.002249,-89.012424,0.006557,
1240,850,-0.066099,-11.503027,0.999989,0.000000,-0.007272,0.002413,-0.000220,0.002418,-0.007277,-88.699747,0.007412,
1270,1480,-0.071423,-2.806564,0.999999,0.000128,-0.001892,0.004773,-0.000432,0.004801,-0.001920,-86.307291,0.004832,
1550,680,-1.113189,-10.706164,0.999997,0.000245,-0.004838,0.008505,0.000645,0.008536,-0.004869,87.239575,0.008564,
1250,1950,-0.007748,-0.389050,0.999998,0.000168,-0.000413,0.004704,0.000010,0.004704,-0.000413,89.884602,0.005210,
1450,1650,-0.436633,-2.137040,0.999997,0.000215,-0.002384,0.006216,-0.000390,0.006234,-0.002402,-87.411017,0.006288,
1700,1400,-1.744905,-4.605641,0.999996,0.000240,-0.004272,0.008098,0.000136,0.008100,-0.004273,89.369151,0.008104,
1820,170,-0.929204,-13.980220,0.999997,0.000238,-0.003362,0.007820,-0.000996,0.007908,-0.003450,-84.949007,0.007929,
1300,720,-0.115859,-11.626259,0.999997,0.000204,-0.002217,0.003932,0.002041,0.004548,-0.002832,73.213734,0.004593,
1010,760,0.779831,-10.430529,0.999996,0.000237,-0.005527,0.008842,-0.001700,0.009041,-0.005726,-83.344578,0.009147,
1360,580,-0.275306,-12.113786,0.999997,0.000192,-0.002737,0.005725,0.001361,0.005939,-0.002950,81.085764,0.005939,
1040,1370,0.522273,-3.917732,0.999996,0.000240,-0.004279,0.007259,0.002031,0.007607,-0.004626,80.301717,0.007666,
1160,450,0.131492,-12.932008,0.999998,0.000178,-0.001958,0.005394,-0.000357,0.005412,-0.001976,-87.226861,0.005477,
1710,1660,-1.232313,-2.599051,0.999998,0.000204,-0.003584,0.007528,-0.000095,0.007529,-0.003584,-89.512598,0.007531,
1290,800,-0.134821,-11.406056,0.999997,0.000188,-0.002717,0.002758,0.002320,0.003608,-0.003568,69.861221,0.004144,
1660,1220,-2.079923,-6.027047,0.999997,0.000216,-0.004193,0.008290,0.000914,0.008356,-0.004259,85.836238,0.008357,
1610,90,-0.190545,-14.742307,0.999998,0.000179,-0.000816,0.005563,-0.001171,0.005772,-0.001025,-79.919013,0.006159,
710,1270,2.316324,-5.744373,0.999998,0.000214,-0.003906,0.007751,-0.000679,0.007790,-0.003945,-86.676140,0.007790,
1050,1510,0.415266,-2.937683,0.999996,0.000223,-0.003040,0.006300,0.001177,0.006446,-0.003186,82.926309,0.006446,
1860,1940,-0.785023,-0.845071,0.999997,0.000209,-0.003570,0.008057,0.001240,0.008188,-0.003701,83.980524,0.008201,
1890,1520,-2.211969,-4.097657,0.999997,0.000219,-0.003779,0.007611,0.000005,0.007611,-0.003779,89.975613,0.007611,
1720,1590,-1.412352,-3.155343,0.999997,0.000219,-0.003811,0.007615,-0.000189,0.007618,-0.003814,-89.050153,0.007618,
1000,880,1.309950,-9.199851,0.999994,0.000320,-0.005599,0.010538,-0.000261,0.010542,-0.005604,-89.074240,0.010549,
1400,170,-0.129219,-14.385219,0.999998,0.000165,-0.000938,0.005213,-0.000287,0.005226,-0.000952,-87.337898,0.005567,
1600,110,-0.229275,-14.632628,0.999998,0.000189,-0.001152,0.005758,-0.001109,0.005931,-0.001326,-81.099586,0.006226,
1130,420,0.185920,-13.061791,0.999997,0.000197,-0.002020,0.005524,-0.000464,0.005553,-0.002048,-86.489986,0.005616,
1880,690,-2.546050,-9.861197,0.999997,0.000223,-0.003712,0.007492,-0.000111,0.007494,-0.003713,-89.431363,0.007494,
630,650,2.268036,-10.269006,0.999997,0.000211,-0.003828,0.007656,0.000181,0.007659,-0.003830,89.096490,0.007659,
1480,1090,-1.830253,-6.908071,0.999997,0.000195,-0.003729,0.010365,0.000484,0.010381,-0.003745,88.037079,0.010514,
1830,1070,-2.981765,-7.270300,0.999998,0.000202,-0.003177,0.006732,0.000161,0.006734,-0.003180,89.070981,0.006738,
1200,50,0.004849,-14.982721,0.999999,0.000136,-0.000141,0.004513,0.000039,0.004514,-0.000141,89.519211,0.005132,
1490,1390,-0.800147,-4.064012,0.999996,0.000225,-0.004640,0.008020,-0.001308,0.008153,-0.004774,-84.161287,0.008193,
920,100,0.152744,-14.709374,0.999998,0.000158,-0.000586,0.005364,0.000885,0.005493,-0.000715,81.715113,0.005973,
1390,940,-1.304828,-9.327299,0.999985,0.000477,-0.003739,0.011738,0.006204,0.013918,-0.005919,70.640490,0.013969,
1370,1820,-0.153695,-1.065176,0.999998,0.000183,-0.001167,0.005342,0.000139,0.005345,-0.001170,88.777367,0.005620,
1050,2010,0.022265,-0.119787,0.999998,0.000141,-0.000234,0.004625,-0.000319,0.004645,-0.000255,-86.256345,0.005223,
800,140,0.398753,-14.419938,0.999997,0.000219,-0.001927,0.006354,0.001212,0.006527,-0.002101,81.839562,0.006664,
950,1240,1.295365,-5.509307,0.999995,0.000243,-0.005619,0.009713,0.000049,0.009713,-0.005619,89.816468,0.009753,
750,1730,1.084533,-2.080990,0.999997,0.000181,-0.003306,0.007390,-0.000167,0.007393,-0.003308,-89.107080,0.007406,
1540,260,-0.465841,-13.766464,0.999997,0.000220,-0.001960,0.006224,-0.000365,0.006241,-0.001976,-87.454719,0.006379,
1630,1380,-1.481531,-4.605681,0.999996,0.000239,-0.004621,0.008353,-0.000038,0.008354,-0.004621,-89.834276,0.008369,
870,1610,0.911243,-2.702312,0.999997,0.000221,-0.003403,0.007266,0.000374,0.007280,-0.003416,87.992953,0.007284,
1620,1120,-2.221200,-6.825254,0.999997,0.000208,-0.003476,0.008180,0.000907,0.008250,-0.003546,85.574922,0.008277,
960,1860,0.285144,-0.926035,0.999998,0.000178,-0.001616,0.005756,-0.000463,0.005785,-0.001645,-86.419215,0.005962,
1250,1930,-0.009345,-0.487132,0.999998,0.000145,-0.000514,0.004770,0.000008,0.004770,-0.000514,89.907892,0.005236,
1090,1350,0.331742,-3.794395,0.999997,0.000205,-0.003674,0.006224,0.002501,0.006821,-0.004270,76.593754,0.006892,
1240,30,-0.005261,-15.069288,0.999999,0.000000,-0.000211,0.004424,-0.000012,0.004424,-0.000211,-89.849671,0.004991,
1250,1480,-0.033703,-2.792937,0.999998,0.000161,-0.001849,0.004696,-0.000318,0.004711,-0.001865,-87.221286,0.004745,
1660,1240,-2.019508,-5.862676,0.999997,0.000212,-0.004287,0.008402,0.000834,0.008456,-0.004341,86.255045,0.008457,
1300,700,-0.117821,-11.701962,0.999998,0.000186,-0.002164,0.004129,0.001805,0.004610,-0.002646,75.077109,0.004627,
1760,490,-1.619284,-11.675998,0.999996,0.000249,-0.003854,0.007705,0.000132,0.007707,-0.003856,89.345645,0.007707,
1450,670,-0.623351,-11.186623,0.999995,0.000285,-0.004413,0.007587,0.001728,0.007831,-0.004657,81.966065,0.007877,
1310,800,-0.193499,-11.261358,0.999994,0.000293,-0.003119,0.003724,0.002902,0.004789,-0.004183,69.848999,0.005215,
1700,1380,-1.793836,-4.767516,0.999997,0.000231,-0.004300,0.008122,0.000235,0.008126,-0.004304,88.915270,0.008131,
570,580,2.320989,-10.669680,0.999942,0.000894,-0.002993,0.007811,0.000264,0.007818,-0.003000,88.599828,0.007888,
610,120,0.787682,-14.258595,0.999997,0.000184,-0.003623,0.008015,0.001123,0.008122,-0.003730,84.536850,0.008131,
1040,1350,0.538445,-4.066016,0.999996,0.000237,-0.004533,0.007481,0.002138,0.007850,-0.004902,80.205674,0.007931,
1360,560,-0.272617,-12.231134,0.999997,0.000176,-0.002667,0.005679,0.001228,0.005856,-0.002844,81.798840,0.005857,
1000,860,1.205522,-9.404710,0.999995,0.000281,-0.005790,0.010334,-0.000551,0.010353,-0.005809,-88.043886,0.010379,
1610,70,-0.132063,-14.854453,0.999998,0.000152,-0.000601,0.005520,-0.001262,0.005770,-0.000851,-78.793244,0.006230,
1050,1490,0.425249,-3.067413,0.999997,0.000213,-0.003182,0.006370,0.001337,0.006554,-0.003365,82.182109,0.006555,
1860,1920,-0.900287,-1.007514,0.999997,0.000210,-0.003608,0.007883,0.000935,0.007958,-0.003683,85.377966,0.007966,
1270,1560,-0.072908,-2.407060,0.999998,0.000177,-0.001882,0.005180,-0.000244,0.005188,-0.001890,-88.019692,0.005252,
710,1290,2.260633,-5.590045,0.999998,0.000215,-0.003991,0.007859,-0.000617,0.007891,-0.004023,-87.028465,0.007892,
820,1690,0.939114,-2.227997,0.999998,0.000162,-0.003252,0.007251,0.000005,0.007251,-0.003252,89.970409,0.007264,
1420,170,-0.151160,-14.375437,0.999998,0.000216,-0.001087,0.005261,-0.000315,0.005276,-0.001103,-87.163829,0.005566,
1720,1570,-1.453928,-3.308702,0.999997,0.000226,-0.003881,0.007690,-0.000198,0.007694,-0.003884,-89.020031,0.007694,
1180,450,0.094673,-12.942869,0.999999,0.000161,-0.001813,0.005304,-0.000200,0.005309,-0.001819,-88.392735,0.005396,
1010,740,0.738946,-10.605554,0.999996,0.000225,-0.005291,0.008543,-0.001780,0.008768,-0.005516,-82.785963,0.008865,
1820,250,-1.246260,-13.359462,0.999996,0.000219,-0.003558,0.007632,-0.000334,0.007642,-0.003568,-88.292641,0.007648,
630,630,2.219465,-10.424161,0.999998,0.000185,-0.003851,0.007683,0.000102,0.007684,-0.003852,89.493940,0.007684,
1230,420,0.003390,-13.122835,0.999998,0.000186,-0.001799,0.005265,-0.000037,0.005265,-0.001799,-89.699614,0.005352,
1830,1050,-2.994441,-7.405587,0.999998,0.000199,-0.003198,0.006791,0.000222,0.006796,-0.003203,88.726853,0.006799,
1040,2010,0.025237,-0.121468,0.999998,0.000150,-0.000240,0.004633,-0.000364,0.004660,-0.000267,-85.752304,0.005234,
750,1710,1.130158,-2.228857,0.999998,0.000161,-0.003390,0.007432,-0.000126,0.007434,-0.003391,-89.334663,0.007443,
1190,50,0.007133,-14.982794,0.999999,0.000135,-0.000104,0.004515,0.000049,0.004516,-0.000105,89.395035,0.005155,
1540,240,-0.427253,-13.893503,0.999997,0.000205,-0.001815,0.006239,-0.000490,0.006269,-0.001844,-86.530282,0.006444,
800,160,0.467734,-14.288320,0.999997,0.000194,-0.002126,0.006537,0.001139,0.006685,-0.002273,82.630639,0.006798,
1600,130,-0.283192,-14.515247,0.999998,0.000193,-0.001333,0.005853,-0.001027,0.005997,-0.001477,-82.022317,0.006249,
870,1590,0.942865,-2.850358,0.999997,0.000206,-0.003571,0.007352,0.000417,0.007368,-0.003586,87.817785,0.007369,
640,930,2.900864,-8.229763,0.999997,0.000228,-0.003315,0.006961,0.000476,0.006983,-0.003337,87.354334,0.006986,
1040,1020,1.702219,-7.678107,0.999983,0.000546,-0.006931,0.016616,-0.000558,0.016629,-0.006944,-88.642615,0.016705,
920,80,0.114217,-14.811917,0.999998,0.000146,-0.000456,0.005215,0.000926,0.005362,-0.000604,80.957929,0.005874,
930,1120,1.905422,-6.730628,0.999997,0.000210,-0.003785,0.009238,-0.001035,0.009320,-0.003866,-85.482544,0.009365,
1250,1910,-0.010958,-0.579647,0.999998,0.000156,-0.000642,0.004809,0.000018,0.004809,-0.000642,89.810262,0.005222,
1090,1330,0.339625,-3.915782,0.999997,0.000221,-0.003918,0.006315,0.002720,0.006994,-0.004596,76.000336,0.007108,
1490,1370,-0.828708,-4.227412,0.999997,0.000207,-0.004828,0.008187,-0.001315,0.008319,-0.004960,-84.286970,0.008370,
1630,1360,-1.531466,-4.775393,0.999996,0.000255,-0.004672,0.008460,0.000075,0.008460,-0.004673,89.672066,0.008475,
1230,2020,-0.001327,-0.068917,0.999999,0.000000,-0.000142,0.004525,-0.000053,0.004526,-0.000143,-89.353902,0.005145,
1460,1210,-1.114730,-5.541313,0.999995,0.000275,-0.005839,0.010163,-0.000862,0.010210,-0.005885,-86.925384,0.010249,
960,1840,0.318296,-1.043669,0.999997,0.000210,-0.001749,0.005794,-0.000366,0.005812,-0.001767,-87.226280,0.005959,
1210,1500,0.039837,-2.699449,0.999998,0.000164,-0.001894,0.004843,0.000320,0.004858,-0.001909,87.284701,0.004895,
1450,630,-0.592445,-11.479175,0.999996,0.000239,-0.004013,0.007164,0.001559,0.007378,-0.004226,82.207696,0.007404,
1620,360,-0.858900,-12.967589,0.999998,0.000149,-0.002954,0.007064,-0.000056,0.007064,-0.002954,-89.682342,0.007096,
1700,1360,-1.848978,-4.931808,0.999997,0.000217,-0.004334,0.008112,0.000343,0.008121,-0.004343,88.421121,0.008128,
1880,170,-1.147408,-13.769772,0.999997,0.000210,-0.003665,0.007625,-0.000544,0.007651,-0.003692,-87.246751,0.007652,
1360,540,-0.269473,-12.344284,0.999997,0.000200,-0.002587,0.005735,0.001127,0.005884,-0.002737,82.422999,0.005889,
990,680,0.742041,-11.004507,0.999997,0.000194,-0.004697,0.007965,-0.001482,0.008136,-0.004868,-83.411939,0.008189,
1300,680,-0.120927,-11.784008,0.999998,0.000183,-0.002147,0.004308,0.001592,0.004679,-0.002519,76.874629,0.004684,
1660,1260,-1.958168,-5.689741,0.999996,0.000240,-0.004413,0.008443,0.000747,0.008486,-0.004456,86.684783,0.008489,
1050,1470,0.433872,-3.198579,0.999997,0.000211,-0.003281,0.006460,0.001486,0.006682,-0.003503,81.519576,0.006684,
1000,840,1.109533,-9.606952,0.999996,0.000256,-0.005858,0.010076,-0.000831,0.010119,-0.005901,-87.023302,0.010165,
1860,1900,-1.004063,-1.162049,0.999997,0.000201,-0.003638,0.007708,0.000650,0.007745,-0.003675,86.733382,0.007749,
1430,460,-0.422945,-12.676396,0.999997,0.000210,-0.002613,0.006230,0.000665,0.006280,-0.002663,85.725068,0.006304,
870,1560,0.990248,-3.074335,0.999998,0.000182,-0.003723,0.007447,0.000475,0.007467,-0.003743,87.570897,0.007467,
1440,1590,-0.453377,-2.494809,0.999997,0.000185,-0.002775,0.006369,-0.000736,0.006428,-0.002834,-85.430478,0.006443,
720,1370,2.002605,-4.935639,0.999997,0.000207,-0.004121,0.007923,-0.000343,0.007932,-0.004131,-88.369431,0.007935,
570,570,2.298354,-10.750491,0.999947,0.000876,-0.003035,0.007813,0.000188,0.007816,-0.003038,89.008296,0.007880,
1160,170,0.051846,-14.412080,0.999998,0.000183,-0.000645,0.004990,0.000135,0.004993,-0.000648,88.627502,0.005430,
1420,1670,-0.352700,-1.969930,0.999997,0.000208,-0.002338,0.006038,-0.000394,0.006056,-0.002357,-87.309435,0.006106,
750,1910,0.518385,-0.775340,0.999997,0.000211,-0.001825,0.006773,-0.001591,0.007058,-0.002110,-79.843210,0.007246,
990,780,0.946318,-10.138979,0.999997,0.000199,-0.005683,0.009270,-0.001142,0.009356,-0.005770,-85.659460,0.009441,
710,1730,1.224342,-2.169268,0.999998,0.000181,-0.003639,0.007541,-0.000045,0.007541,-0.003639,-89.770778,0.007542,
630,610,2.169796,-10.578429,0.999998,0.000184,-0.003855,0.007675,0.000096,0.007676,-0.003856,89.524396,0.007676,
1600,1980,-0.143233,-0.293445,0.999998,0.000173,-0.000725,0.005423,0.001199,0.005648,-0.000950,79.341796,0.006049,
1340,590,-0.220823,-12.115538,0.999997,0.000210,-0.002490,0.005445,0.001312,0.005656,-0.002701,80.849849,0.005658,
1250,1890,-0.014924,-0.679205,0.999998,0.000148,-0.000729,0.004930,0.000004,0.004930,-0.000729,89.964184,0.005322,
580,120,0.893783,-14.149502,0.999997,0.000232,-0.003700,0.008082,0.001134,0.008190,-0.003808,84.553022,0.008197,
1680,1730,-0.976903,-2.014428,0.999998,0.000209,-0.003285,0.007335,0.000112,0.007336,-0.003286,89.393849,0.007349,
800,600,1.458595,-11.048759,0.999995,0.000241,-0.004269,0.007980,-0.000159,0.007982,-0.004271,-89.256127,0.007988,
1110,420,0.226138,-13.038840,0.999998,0.000184,-0.002014,0.005586,-0.000422,0.005609,-0.002037,-86.831117,0.005679,
1070,1440,0.376719,-3.319323,0.999996,0.000215,-0.003278,0.006262,0.001717,0.006562,-0.003578,80.101316,0.006571,
910,1120,1.980919,-6.761775,0.999996,0.000264,-0.003647,0.008949,-0.001082,0.009041,-0.003740,-85.126695,0.009086,
990,100,0.103318,-14.725562,0.999998,0.000181,-0.000528,0.005097,0.000596,0.005160,-0.000590,84.020275,0.005648,
1040,1010,1.689927,-7.843568,0.999973,0.000693,-0.006765,0.016598,-0.001158,0.016655,-0.006822,-87.170403,0.016746,
620,930,2.965885,-8.214834,0.999997,0.000183,-0.003287,0.006856,0.000431,0.006874,-0.003305,87.569996,0.006876,
1090,1310,0.355037,-4.045804,0.999996,0.000242,-0.004190,0.006515,0.002877,0.007239,-0.004914,75.872262,0.007392,
870,1570,0.975126,-3.000014,0.999997,0.000187,-0.003687,0.007421,0.000454,0.007440,-0.003705,87.663569,0.007440,
920,60,0.074318,-14.917987,0.999998,0.000162,-0.000294,0.005087,0.000881,0.005228,-0.000435,80.930699,0.005802,
1700,1340,-1.901048,-5.093149,0.999996,0.000241,-0.004350,0.008167,0.000426,0.008182,-0.004365,88.054965,0.008188,
1230,1200,0.020315,-3.614661,0.999993,0.000000,-0.008246,0.002378,-0.000094,0.002379,-0.008247,-89.491108,0.008489,
960,1820,0.349995,-1.157932,0.999997,0.000205,-0.001896,0.005972,-0.000316,0.005985,-0.001909,-87.707395,0.006114,
1490,1350,-0.863630,-4.396876,0.999997,0.000215,-0.005030,0.008495,-0.001295,0.008618,-0.005153,-84.579859,0.008673,
1300,660,-0.125690,-11.868893,0.999998,0.000174,-0.002132,0.004460,0.001402,0.004746,-0.002418,78.478172,0.004746,
1210,1480,0.040587,-2.795525,0.999998,0.000187,-0.001891,0.004721,0.000350,0.004739,-0.001909,86.974393,0.004769,
1620,1100,-2.262856,-6.986785,0.999997,0.000220,-0.003249,0.007994,0.000786,0.008048,-0.003303,86.018545,0.008091,
1830,1030,-3.005648,-7.542880,0.999997,0.000208,-0.003219,0.006834,0.000038,0.006835,-0.003219,89.785240,0.006838,
1360,520,-0.264608,-12.461998,0.999997,0.000186,-0.002487,0.005759,0.000976,0.005873,-0.002601,83.344097,0.005886,
990,1240,1.063863,-5.318027,0.999996,0.000254,-0.005855,0.009756,0.000807,0.009797,-0.005897,87.048061,0.009865,
1450,90,-0.081262,-14.778941,0.999998,0.000169,-0.000450,0.004957,-0.000521,0.005006,-0.000500,-84.547715,0.005515,
1880,150,-1.052798,-13.921076,0.999998,0.000169,-0.003641,0.007701,-0.000729,0.007747,-0.003687,-86.338118,0.007750,
1050,1450,0.440250,-3.329266,0.999997,0.000220,-0.003367,0.006535,0.001584,0.006782,-0.003614,81.129564,0.006787,
700,1370,2.083261,-4.975441,0.999996,0.000219,-0.004018,0.007846,-0.000322,0.007855,-0.004026,-88.448435,0.007856,
990,660,0.716971,-11.162911,0.999996,0.000249,-0.004514,0.007789,-0.001463,0.007960,-0.004685,-83.308809,0.008002,
980,2010,0.031918,-0.121011,0.999998,0.000135,-0.000231,0.004853,-0.000596,0.004922,-0.000300,-83.401973,0.005518,
1180,50,0.008960,-14.982559,0.999999,0.000152,-0.000070,0.004514,0.000067,0.004515,-0.000071,89.158848,0.005173,
1260,140,-0.015905,-14.562100,0.999998,0.000179,-0.000585,0.004815,-0.000008,0.004815,-0.000585,-89.918964,0.005255,
970,780,1.059681,-10.036829,0.999996,0.000234,-0.005629,0.009365,-0.000783,0.009406,-0.005670,-87.019799,0.009472,
1340,570,-0.221532,-12.224322,0.999998,0.000183,-0.002417,0.005466,0.001126,0.005624,-0.002574,82.031275,0.005631,
1600,1960,-0.189926,-0.400753,0.999998,0.000183,-0.000949,0.005565,0.001108,0.005749,-0.001132,80.602397,0.006091,
1540,220,-0.389884,-14.017688,0.999997,0.000189,-0.001648,0.006034,-0.000553,0.006074,-0.001687,-85.902864,0.006271,
710,1710,1.272275,-2.320955,0.999997,0.000192,-0.003647,0.007554,-0.000008,0.007554,-0.003647,-89.958156,0.007556,
760,200,0.696609,-13.968346,0.999997,0.000205,-0.002570,0.007125,0.001110,0.007250,-0.002695,83.550113,0.007329,
1320,1690,-0.143351,-1.740447,0.999998,0.000181,-0.001764,0.005469,-0.000228,0.005476,-0.001771,-88.196517,0.005588,
800,580,1.418222,-11.207233,0.999996,0.000225,-0.004172,0.007914,-0.000209,0.007918,-0.004176,-89.007669,0.007921,
1050,1440,0.444254,-3.394394,0.999997,0.000201,-0.003425,0.006541,0.001621,0.006798,-0.003682,80.988435,0.006806,
1150,420,0.145952,-13.084917,0.999998,0.000172,-0.001935,0.005448,-0.000369,0.005466,-0.001954,-87.143547,0.005540,
570,850,2.986252,-8.682988,0.999997,0.000189,-0.003331,0.006774,0.000148,0.006776,-0.003333,89.162025,0.006777,
1880,1530,-2.152027,-4.000094,0.999997,0.000185,-0.003766,0.007585,-0.000015,0.007585,-0.003766,-89.922206,0.007585,
1300,640,-0.127568,-11.960474,0.999998,0.000163,-0.002125,0.004602,0.001271,0.004834,-0.002357,79.650454,0.004835,
1740,1090,-2.674869,-7.103672,0.999996,0.000234,-0.003324,0.007335,0.000446,0.007354,-0.003342,87.605504,0.007364,
570,260,1.561111,-13.073398,0.999542,0.002471,-0.005490,0.007873,0.000420,0.007886,-0.005503,88.200755,0.008089,
1700,1320,-1.956361,-5.257911,0.999996,0.000231,-0.004327,0.008178,0.000512,0.008199,-0.004348,87.658660,0.008204,
1200,170,0.025422,-14.415157,0.999998,0.000180,-0.000760,0.004956,0.000038,0.004956,-0.000760,89.622373,0.005339,
1620,1060,-2.325067,-7.304443,0.999997,0.000235,-0.002954,0.007823,0.000364,0.007835,-0.002966,88.069051,0.007912,
830,620,1.370903,-10.960835,0.999996,0.000217,-0.004401,0.008021,-0.000233,0.008025,-0.004406,-88.923751,0.008038,
1000,820,1.024855,-9.808087,0.999995,0.000277,-0.005855,0.009755,-0.001004,0.009819,-0.005920,-86.333495,0.009888,
870,1550,1.005386,-3.149045,0.999997,0.000200,-0.003754,0.007491,0.000496,0.007513,-0.003776,87.477163,0.007513,
1490,1330,-0.901187,-4.569860,0.999996,0.000225,-0.005239,0.008689,-0.001200,0.008792,-0.005342,-85.110117,0.008859,
1030,100,0.082907,-14.733788,0.999998,0.000165,-0.000552,0.004959,0.000450,0.004995,-0.000589,85.357574,0.005460,
1050,1430,0.448952,-3.458728,0.999997,0.000220,-0.003515,0.006546,0.001678,0.006819,-0.003787,80.774368,0.006833,
1090,1290,0.382944,-4.182684,0.999997,0.000226,-0.004433,0.006743,0.003061,0.007526,-0.005217,75.644749,0.007711,
970,1240,1.180963,-5.421397,0.999994,0.000305,-0.005763,0.009797,0.000433,0.009809,-0.005775,88.407712,0.009860,
1230,850,0.013415,-11.511003,0.999989,0.000000,-0.007423,0.002613,-0.000110,0.002614,-0.007424,-89.374842,0.007531,
1100,1370,0.291137,-3.619933,0.999997,0.000203,-0.003345,0.005847,0.002317,0.006398,-0.003896,76.621822,0.006448,
960,1800,0.380336,-1.281779,0.999997,0.000219,-0.002035,0.006045,-0.000221,0.006051,-0.002041,-88.434638,0.006157,
1430,520,-0.456963,-12.293657,0.999997,0.000211,-0.003083,0.006428,0.001069,0.006547,-0.003202,83.665720,0.006547,
980,790,1.034067,-9.992098,0.999998,0.000200,-0.005718,0.009462,-0.000876,0.009513,-0.005768,-86.707810,0.009584,
1870,250,-1.427008,-13.207035,0.999997,0.000217,-0.003655,0.007361,-0.000118,0.007362,-0.003656,-89.386561,0.007362,
1450,70,-0.055701,-14.879180,0.999998,0.000143,-0.000308,0.004873,-0.000547,0.004930,-0.000365,-84.040573,0.005494,
1130,1190,0.617005,-4.336998,0.999997,0.000233,-0.002625,0.003562,0.002197,0.004262,-0.003326,72.310846,0.004480,
750,1170,2.430746,-6.484225,0.999997,0.000223,-0.003729,0.007804,-0.000884,0.007871,-0.003796,-85.643569,0.007873,
1260,380,-0.046919,-13.325801,0.999998,0.000161,-0.001671,0.005352,0.000146,0.005355,-0.001674,88.812757,0.005479,
800,560,1.376899,-11.364276,0.999996,0.000222,-0.004097,0.007902,-0.000259,0.007907,-0.004103,-88.762324,0.007909,
1660,1700,-0.976648,-2.191205,0.999998,0.000175,-0.003429,0.007262,-0.000021,0.007262,-0.003429,-89.889861,0.007266,
1600,1940,-0.245202,-0.517439,0.999997,0.000199,-0.001196,0.005818,0.001096,0.005985,-0.001363,81.324337,0.006274,
1080,470,0.309025,-12.705546,0.999998,0.000185,-0.002517,0.005924,-0.000800,0.006000,-0.002592,-84.634567,0.006018,
1190,740,0.065326,-11.650923,0.999999,0.000134,-0.001808,0.002922,-0.001509,0.003362,-0.002248,-73.731980,0.003425,
1360,500,-0.259659,-12.578305,0.999997,0.000167,-0.002392,0.005724,0.000848,0.005812,-0.002480,84.098451,0.005832,
710,1690,1.323569,-2.472662,0.999996,0.000236,-0.003676,0.007575,0.000031,0.007575,-0.003676,89.844144,0.007576,
580,850,2.953232,-8.703142,0.999998,0.000143,-0.003348,0.006854,0.000194,0.006858,-0.003351,88.911097,0.006858,
590,210,1.293071,-13.493490,0.999997,0.000238,-0.003547,0.007464,0.000221,0.007468,-0.003551,88.848601,0.007471,
1090,1270,0.409070,-4.315200,0.999996,0.000243,-0.004699,0.006945,0.003187,0.007760,-0.005514,75.653192,0.007986,
1050,1410,0.454665,-3.590083,0.999996,0.000247,-0.003727,0.006751,0.001850,0.007068,-0.004044,80.276265,0.007092,
920,1430,0.981713,-3.934733,0.999996,0.000217,-0.004425,0.007954,0.000816,0.008007,-0.004478,86.246343,0.008026,
1720,1090,-2.608639,-7.098672,0.999997,0.000218,-0.003304,0.007458,0.000497,0.007481,-0.003327,87.362718,0.007497,
570,1850,1.349326,-1.661048,0.999892,0.001153,-0.003734,0.007462,-0.000139,0.007463,-0.003736,-89.286808,0.007463,
1180,170,0.041057,-14.413356,0.999998,0.000166,-0.000664,0.004984,0.000100,0.004986,-0.000665,88.985145,0.005414,
1100,50,0.018710,-14.979620,0.999998,0.000160,-0.000141,0.004561,0.000266,0.004576,-0.000156,86.776469,0.005196,
1400,840,-0.740383,-10.109137,0.999996,0.000235,-0.005581,0.008690,0.002360,0.009070,-0.005961,80.850273,0.009219,
970,2010,0.034870,-0.123100,0.999999,0.000138,-0.000326,0.004850,-0.000608,0.004920,-0.000396,-83.392850,0.005467,
1440,1980,-0.062196,-0.266152,0.999999,0.000158,-0.000375,0.004911,0.000497,0.004957,-0.000422,84.678265,0.005497,
1740,980,-2.686127,-7.907833,0.999997,0.000185,-0.003266,0.007223,-0.000272,0.007230,-0.003273,-88.513181,0.007241,
1880,1850,-1.298808,-1.613700,0.999998,0.000197,-0.003632,0.007380,0.000260,0.007386,-0.003638,88.648666,0.007386,
1010,100,0.093975,-14.729218,0.999998,0.000167,-0.000478,0.005020,0.000528,0.005071,-0.000528,84.566357,0.005575,
1700,1300,-2.014951,-5.423397,0.999997,0.000197,-0.004294,0.008170,0.000608,0.008200,-0.004324,87.212215,0.008204,
1450,1280,-0.800650,-4.805028,0.999994,0.000254,-0.005655,0.009044,-0.001673,0.009232,-0.005843,-83.590020,0.009340,
630,590,2.120220,-10.731656,0.999998,0.000185,-0.003839,0.007679,0.000074,0.007679,-0.003839,89.633638,0.007679,
1490,1310,-0.948275,-4.747218,0.999995,0.000245,-0.005418,0.008948,-0.001069,0.009027,-0.005497,-85.769225,0.009099,
1660,1680,-1.016746,-2.339490,0.999998,0.000175,-0.003461,0.007349,-0.000080,0.007350,-0.003462,-89.577463,0.007354,
1350,1820,-0.129902,-1.054937,0.999998,0.000163,-0.001205,0.005306,0.000075,0.005307,-0.001206,89.344062,0.005564,
1200,1690,0.051793,-1.715223,0.999998,0.000173,-0.001641,0.005326,0.000127,0.005328,-0.001643,88.952622,0.005457,
870,1530,1.034835,-3.298765,0.999997,0.000188,-0.003845,0.007615,0.000519,0.007638,-0.003869,87.411480,0.007638,
1790,670,-2.151272,-10.205289,0.999997,0.000217,-0.003936,0.007749,-0.000289,0.007756,-0.003943,-88.582753,0.007756,
1330,870,-0.656178,-10.807908,0.999997,0.000221,-0.002392,0.003293,0.002042,0.003951,-0.003049,72.154706,0.004141,
1350,1760,-0.167444,-1.381391,0.999997,0.000195,-0.001515,0.005459,-0.000057,0.005459,-0.001515,-89.529834,0.005636,
1300,620,-0.128697,-12.052867,0.999998,0.000167,-0.002132,0.004711,0.001161,0.004902,-0.002323,80.629433,0.004904,
1620,1040,-2.341888,-7.461396,0.999997,0.000223,-0.002889,0.007900,0.000207,0.007904,-0.002893,88.903630,0.007998,
1870,1530,-2.114195,-3.976984,0.999998,0.000176,-0.003778,0.007601,-0.000027,0.007602,-0.003778,-89.862059,0.007602,
1360,480,-0.256611,-12.693898,0.999998,0.000163,-0.002294,0.005754,0.000704,0.005815,-0.002355,85.036186,0.005850,
680,930,2.767063,-8.253649,0.999997,0.000203,-0.003426,0.007210,0.000538,0.007237,-0.003453,87.110948,0.007240,
570,280,1.621331,-12.912383,0.999702,0.002021,-0.005226,0.007631,0.000023,0.007631,-0.005226,89.897903,0.007803,
1250,1350,-0.028447,-3.317489,0.999998,0.000149,-0.001523,0.003203,-0.000594,0.003277,-0.001597,-82.940965,0.003277,
1430,500,-0.445888,-12.423287,0.999996,0.000203,-0.002913,0.006390,0.000943,0.006485,-0.003007,84.269548,0.006491,
710,1670,1.366531,-2.625913,0.999997,0.000223,-0.003696,0.007594,0.000062,0.007594,-0.003696,89.683398,0.007595,
1230,30,0.001912,-15.071007,0.999999,0.000000,-0.000240,0.004423,0.000020,0.004423,-0.000240,89.759566,0.004975,
1760,1090,-2.741295,-7.108205,0.999997,0.000213,-0.003328,0.007215,0.000367,0.007228,-0.003341,88.009935,0.007235,
1000,790,0.919596,-10.098405,0.999997,0.000230,-0.005761,0.009310,-0.001275,0.009417,-0.005868,-85.198599,0.009512,
1080,450,0.300745,-12.825454,0.999998,0.000178,-0.002419,0.005891,-0.000698,0.005949,-0.002477,-85.233511,0.005976,
700,1910,0.642970,-0.841627,0.999997,0.000213,-0.003014,0.007251,-0.001392,0.007437,-0.003199,-82.410599,0.007461,
1090,1250,0.462094,-4.462424,0.999995,0.000274,-0.004932,0.007253,0.003267,0.008073,-0.005752,75.899179,0.008313,
1210,100,0.009182,-14.753277,0.999998,0.000171,-0.000394,0.004677,0.000024,0.004677,-0.000395,89.734340,0.005188,
1050,1390,0.464846,-3.727894,0.999996,0.000240,-0.003981,0.006923,0.002010,0.007281,-0.004340,79.879364,0.007326,
750,1130,2.517954,-6.793811,0.999997,0.000215,-0.003472,0.007557,-0.000663,0.007597,-0.003512,-86.570312,0.007604,
1000,800,0.950092,-10.003772,0.999996,0.000258,-0.005808,0.009447,-0.001194,0.009540,-0.005901,-85.552070,0.009629,
1440,1960,-0.081883,-0.362993,0.999998,0.000172,-0.000521,0.004960,0.000468,0.005000,-0.000561,85.154103,0.005479,
830,1950,0.247454,-0.469125,0.999997,0.000187,-0.000923,0.005845,-0.001318,0.006092,-0.001170,-79.361082,0.006466,
670,1180,2.697802,-6.474031,0.999995,0.000268,-0.003561,0.007347,-0.000658,0.007387,-0.003601,-86.560261,0.007387,
590,200,1.253088,-13.567602,0.999998,0.000182,-0.003499,0.007498,0.000204,0.007502,-0.003503,88.939749,0.007508,
820,430,1.063532,-12.411013,0.999998,0.000165,-0.003527,0.007405,-0.000234,0.007410,-0.003532,-88.773769,0.007413,
1170,740,0.102374,-11.579187,0.999997,0.000265,-0.002195,0.003524,-0.002119,0.004223,-0.002894,-71.731501,0.004319,
1400,820,-0.652103,-10.285611,0.999996,0.000267,-0.005606,0.008676,0.002590,0.009131,-0.006062,80.032375,0.009293,
1620,1020,-2.342357,-7.620495,0.999998,0.000211,-0.002882,0.007898,-0.000148,0.007900,-0.002884,-89.211652,0.007995,
720,1570,1.542427,-3.364486,0.999996,0.000244,-0.003833,0.007711,0.000157,0.007713,-0.003835,89.219254,0.007713,
960,2010,0.039948,-0.125066,0.999999,0.000141,-0.000366,0.004859,-0.000630,0.004933,-0.000441,-83.225099,0.005460,
1330,860,-0.559194,-10.838968,0.999997,0.000230,-0.002802,0.003571,0.002042,0.004169,-0.003400,73.673422,0.004437,
1700,1280,-2.071212,-5.584696,0.999997,0.000196,-0.004240,0.008217,0.000683,0.008254,-0.004277,86.869311,0.008256,
1870,1850,-1.261951,-1.577770,0.999998,0.000194,-0.003654,0.007448,0.000282,0.007456,-0.003661,88.545726,0.007456,
1560,1270,-1.442121,-5.384026,0.999996,0.000238,-0.005258,0.009221,0.000184,0.009223,-0.005260,89.270856,0.009254,
1360,460,-0.251587,-12.804850,0.999998,0.000166,-0.002190,0.005701,0.000574,0.005742,-0.002232,85.859733,0.005790,
1660,1660,-1.056983,-2.487834,0.999998,0.000185,-0.003473,0.007403,-0.000121,0.007405,-0.003475,-89.362869,0.007409,
1490,1290,-0.998133,-4.931334,0.999995,0.000246,-0.005548,0.009204,-0.000944,0.009264,-0.005608,-86.355216,0.009333,
570,140,1.047351,-13.950854,0.999995,0.000277,-0.003626,0.007804,0.000926,0.007878,-0.003701,85.398412,0.007883,
1740,960,-2.668983,-8.052257,0.999997,0.000193,-0.003332,0.007360,-0.000505,0.007384,-0.003356,-87.301096,0.007394,
690,1740,1.272639,-2.141446,0.999998,0.000204,-0.003630,0.007536,-0.000095,0.007536,-0.003631,-89.513415,0.007538,
1300,600,-0.132046,-12.150737,0.999998,0.000174,-0.002138,0.004862,0.001023,0.005009,-0.002285,81.856692,0.005015,
1250,1310,-0.027642,-3.427655,0.999998,0.000158,-0.001541,0.002466,-0.000724,0.002593,-0.001668,-80.069887,0.002628,
1090,50,0.020483,-14.979397,0.999998,0.000149,-0.000155,0.004579,0.000298,0.004598,-0.000174,86.416930,0.005212,
630,570,2.074107,-10.885431,0.999997,0.000184,-0.003825,0.007620,-0.000001,0.007620,-0.003825,-89.994454,0.007620,
700,1890,0.730844,-0.992188,0.999997,0.000237,-0.003193,0.007378,-0.001196,0.007512,-0.003326,-83.623445,0.007528,
1430,640,-0.519327,-11.492903,0.999995,0.000260,-0.003945,0.006975,0.001743,0.007247,-0.004217,81.147427,0.007279,
1180,710,0.084451,-11.718294,0.999998,0.000192,-0.001957,0.003615,-0.001552,0.004018,-0.002360,-75.442095,0.004038,
1190,100,0.016063,-14.751923,0.999999,0.000139,-0.000339,0.004711,0.000078,0.004713,-0.000340,89.116869,0.005257,
1860,1880,-1.099302,-1.316661,0.999997,0.000196,-0.003639,0.007702,0.000506,0.007724,-0.003661,87.448254,0.007728,
660,930,2.833666,-8.242855,0.999997,0.000208,-0.003375,0.007099,0.000509,0.007124,-0.003400,87.223255,0.007126,
710,1650,1.410330,-2.777781,0.999996,0.000226,-0.003711,0.007582,0.000109,0.007583,-0.003712,89.448149,0.007584,
1090,1820,0.157391,-1.066659,0.999997,0.000190,-0.001141,0.005349,-0.000151,0.005352,-0.001145,-88.671985,0.005637,
870,1510,1.064763,-3.453958,0.999997,0.000190,-0.003990,0.007716,0.000542,0.007741,-0.004015,87.353223,0.007743,
1050,1370,0.480355,-3.867820,0.999996,0.000226,-0.004199,0.007045,0.002126,0.007433,-0.004587,79.643242,0.007501,
1650,1660,-1.022365,-2.465404,0.999998,0.000167,-0.003462,0.007373,-0.000152,0.007375,-0.003464,-89.194720,0.007380,
1440,1940,-0.107157,-0.464821,0.999998,0.000194,-0.000677,0.005117,0.000486,0.005157,-0.000717,85.242411,0.005587,
1820,550,-1.979159,-11.068821,0.999997,0.000195,-0.003835,0.007657,0.000053,0.007658,-0.003835,89.736397,0.007658,
750,590,1.646578,-11.008888,0.999996,0.000240,-0.004113,0.007925,-0.000051,0.007926,-0.004113,-89.757821,0.007927,
1580,1090,-2.156578,-7.045701,0.999997,0.000214,-0.003173,0.008331,0.000827,0.008390,-0.003232,85.909188,0.008463,
1540,200,-0.351707,-14.136742,0.999997,0.000191,-0.001493,0.005994,-0.000643,0.006049,-0.001548,-85.125106,0.006285,
1000,780,0.891226,-10.190318,0.999996,0.000247,-0.005705,0.009191,-0.001351,0.009312,-0.005826,-84.859230,0.009410,
830,1410,1.427014,-4.363075,0.999995,0.000266,-0.004530,0.008260,0.000169,0.008262,-0.004532,89.243477,0.008275,
1610,230,-0.554341,-13.882964,0.999997,0.000213,-0.002273,0.006573,-0.000617,0.006616,-0.002315,-86.027971,0.006714,
1870,240,-1.394364,-13.278944,0.999997,0.000200,-0.003662,0.007354,-0.000133,0.007356,-0.003663,-89.308729,0.007356,
860,1370,1.379541,-4.619814,0.999996,0.000262,-0.004761,0.008542,0.000147,0.008544,-0.004762,89.365774,0.008563,
650,800,2.588257,-9.173698,0.999997,0.000220,-0.003693,0.007470,0.000574,0.007499,-0.003722,87.061946,0.007499,
800,430,1.133051,-12.366330,0.999998,0.000162,-0.003590,0.007425,-0.000224,0.007429,-0.003594,-88.836045,0.007431,
1090,420,0.266034,-13.015592,0.999998,0.000188,-0.002087,0.005724,-0.000426,0.005747,-0.002110,-86.889670,0.005814,
1790,650,-2.100700,-10.363719,0.999997,0.000210,-0.003948,0.007784,-0.000221,0.007788,-0.003952,-88.922511,0.007789,
590,310,1.622040,-12.754625,0.999997,0.000198,-0.003739,0.007443,-0.000063,0.007444,-0.003740,-89.674891,0.007444,
1110,2010,0.015889,-0.117101,0.999998,0.000155,-0.000132,0.004519,-0.000203,0.004528,-0.000141,-87.506208,0.005149,
1700,1150,-2.431061,-6.632293,0.999997,0.000243,-0.003630,0.007819,0.000881,0.007887,-0.003698,85.627867,0.007892,
1320,870,-0.630571,-10.935032,0.999996,0.000249,-0.002761,0.002721,0.001490,0.003100,-0.003139,75.737646,0.003602,
1400,800,-0.589708,-10.457693,0.999995,0.000277,-0.005526,0.008308,0.002717,0.008822,-0.006041,79.277385,0.009021,
1620,1000,-2.329380,-7.775472,0.999997,0.000218,-0.002932,0.007799,-0.000306,0.007807,-0.002941,-88.369610,0.007886,
1090,1230,0.523441,-4.608746,0.999994,0.000289,-0.005066,0.007390,0.003209,0.008169,-0.005844,76.369810,0.008418,
1490,1270,-1.059781,-5.118784,0.999997,0.000217,-0.005670,0.009415,-0.000814,0.009459,-0.005714,-86.918613,0.009527,
1300,580,-0.131951,-12.249593,0.999998,0.000176,-0.002168,0.005013,0.000910,0.005127,-0.002281,82.884924,0.005137,
1250,390,-0.031611,-13.275815,0.999998,0.000152,-0.001721,0.005316,0.000151,0.005319,-0.001724,88.768227,0.005428,
630,550,2.030401,-11.037566,0.999997,0.000183,-0.003801,0.007602,-0.000055,0.007602,-0.003802,-89.721201,0.007602,
1870,1920,-0.935520,-1.044134,0.999997,0.000210,-0.003596,0.007916,0.000952,0.007994,-0.003674,85.302693,0.008003,
1860,1850,-1.226694,-1.543637,0.999997,0.000209,-0.003650,0.007535,0.000294,0.007543,-0.003657,88.496699,0.007544,
1700,1260,-2.130342,-5.751855,0.999998,0.000185,-0.004162,0.008138,0.000756,0.008185,-0.004208,86.494210,0.008186,
1590,1840,-0.475249,-1.119365,0.999997,0.000207,-0.002222,0.006312,0.000616,0.006356,-0.002266,85.891647,0.006443,
1740,940,-2.634612,-8.202820,0.999997,0.000197,-0.003403,0.007404,-0.000628,0.007440,-0.003439,-86.687475,0.007447,
1430,620,-0.506000,-11.631305,0.999996,0.000241,-0.003727,0.006837,0.001619,0.007080,-0.003970,81.478189,0.007097,
930,1300,1.206391,-5.018341,0.999996,0.000222,-0.005381,0.009124,0.000385,0.009134,-0.005391,88.480463,0.009183,
1050,100,0.071359,-14.736752,0.999998,0.000199,-0.000615,0.004912,0.000377,0.004938,-0.000641,86.113884,0.005370,
1810,280,-1.306401,-13.153705,0.999997,0.000206,-0.003562,0.007614,-0.000267,0.007621,-0.003569,-88.631956,0.007626,
750,570,1.603393,-11.165433,0.999996,0.000240,-0.004079,0.007848,-0.000106,0.007849,-0.004080,-89.492730,0.007851,
1360,660,-0.279026,-11.661817,0.999997,0.000206,-0.003072,0.005729,0.002014,0.006168,-0.003511,77.703295,0.006188,
1660,1640,-1.096166,-2.635408,0.999997,0.000207,-0.003519,0.007438,-0.000172,0.007441,-0.003522,-89.103194,0.007444,
1600,1920,-0.293145,-0.632905,0.999997,0.000209,-0.001416,0.005868,0.000997,0.006002,-0.001550,82.349051,0.006232,
1860,1860,-1.187193,-1.470127,0.999997,0.000208,-0.003646,0.007533,0.000359,0.007545,-0.003658,88.164737,0.007546,
1840,530,-2.012307,-11.174689,0.999996,0.000215,-0.003802,0.007632,0.000062,0.007633,-0.003802,89.687692,0.007633,
800,1750,0.875870,-1.835314,0.999998,0.000165,-0.003168,0.007167,-0.000223,0.007171,-0.003172,-88.764163,0.007187,
1070,1820,0.181013,-1.075495,0.999998,0.000161,-0.001257,0.005429,-0.000159,0.005432,-0.001261,-88.639963,0.005686,
1560,1090,-2.093748,-7.031736,0.999996,0.000217,-0.003164,0.008555,0.000812,0.008611,-0.003220,86.053627,0.008702,
1540,180,-0.312214,-14.256499,0.999998,0.000192,-0.001311,0.005848,-0.000681,0.005912,-0.001375,-84.613246,0.006188,
1620,50,-0.085931,-14.960238,0.999998,0.000164,-0.000292,0.005199,-0.001278,0.005482,-0.000575,-77.516697,0.006026,
1050,410,0.353840,-13.010320,0.999997,0.000211,-0.002421,0.005997,-0.000531,0.006031,-0.002455,-86.404649,0.006065,
1370,1320,-0.335448,-3.960888,0.999996,0.000243,-0.004022,0.006294,-0.002822,0.007016,-0.004744,-75.659662,0.007159,
630,400,1.698573,-12.183216,0.999996,0.000231,-0.003715,0.007551,-0.000100,0.007552,-0.003716,-89.492947,0.007552,
830,1390,1.472299,-4.531381,0.999996,0.000267,-0.004601,0.008306,0.000080,0.008306,-0.004602,89.646691,0.008322,
1220,2020,-0.000714,-0.067382,0.999999,0.000000,-0.000191,0.004502,-0.000021,0.004502,-0.000192,-89.749158,0.005091,
1300,170,-0.050047,-14.412052,0.999998,0.000140,-0.000686,0.004941,-0.000126,0.004944,-0.000689,-88.722434,0.005356,
870,1490,1.099193,-3.609668,0.999997,0.000213,-0.004128,0.007851,0.000561,0.007877,-0.004154,87.322146,0.007881,
1000,760,0.833768,-10.374277,0.999996,0.000232,-0.005560,0.008956,-0.001498,0.009109,-0.005713,-84.169180,0.009206,
1630,1660,-0.954032,-2.419698,0.999998,0.000197,-0.003336,0.007271,-0.000169,0.007274,-0.003339,-89.087539,0.007282,
1160,710,0.123748,-11.650467,0.999996,0.000235,-0.002270,0.004129,-0.001971,0.004687,-0.002828,-74.181519,0.004720,
1100,2010,0.016946,-0.118242,0.999998,0.000148,-0.000106,0.004539,-0.000241,0.004551,-0.000119,-87.032098,0.005188,
900,910,1.930806,-8.566339,0.999997,0.000235,-0.003998,0.008986,0.001076,0.009075,-0.004087,85.294090,0.009090,
1400,780,-0.537070,-10.618884,0.999995,0.000274,-0.005242,0.007955,0.002732,0.008498,-0.005786,78.753989,0.008682,
1070,420,0.309502,-12.987316,0.999998,0.000172,-0.002358,0.005901,-0.000569,0.005940,-0.002397,-86.076366,0.005977,
710,1630,1.455501,-2.929650,0.999996,0.000229,-0.003741,0.007596,0.000154,0.007598,-0.003743,89.221635,0.007599,
1750,1020,-2.743676,-7.615541,0.999997,0.000208,-0.003238,0.007266,-0.000139,0.007267,-0.003240,-89.240531,0.007282,
1440,1920,-0.128951,-0.567568,0.999998,0.000164,-0.000795,0.005165,0.000436,0.005197,-0.000827,85.835766,0.005585,
590,300,1.594545,-12.828602,0.999998,0.000197,-0.003780,0.007350,-0.000029,0.007350,-0.003780,-89.850218,0.007351,
1300,560,-0.133555,-12.352266,0.999998,0.000170,-0.002172,0.005088,0.000829,0.005181,-0.002266,83.569083,0.005195,
1620,980,-2.310754,-7.933287,0.999996,0.000228,-0.003083,0.007891,-0.000559,0.007920,-0.003111,-87.093852,0.007980,
1680,1150,-2.355426,-6.618650,0.999997,0.000240,-0.003643,0.007960,0.000950,0.008038,-0.003720,85.350587,0.008045,
1090,1210,0.626898,-4.760685,0.999995,0.000266,-0.004906,0.007422,0.003298,0.008249,-0.005733,75.925220,0.008455,
650,780,2.535174,-9.324860,0.999997,0.000208,-0.003745,0.007481,0.000550,0.007508,-0.003772,87.201188,0.007508,
630,530,1.985743,-11.190731,0.999997,0.000209,-0.003793,0.007668,-0.000082,0.007669,-0.003793,-89.592350,0.007669,
1490,1250,-1.125527,-5.309932,0.999996,0.000235,-0.005791,0.009708,-0.000626,0.009733,-0.005816,-87.690921,0.009794,
740,1990,0.196186,-0.267363,0.999998,0.000173,-0.000750,0.005969,-0.001948,0.006493,-0.001274,-74.942401,0.006881,
1430,420,-0.401122,-12.920807,0.999998,0.000171,-0.002431,0.006088,0.000496,0.006117,-0.002460,86.680791,0.006156,
1030,1880,0.171041,-0.776949,0.999999,0.000169,-0.001059,0.005324,-0.000354,0.005344,-0.001079,-86.835635,0.005651,
1790,630,-2.050085,-10.518951,0.999998,0.000165,-0.003950,0.007744,-0.000167,0.007746,-0.003952,-89.179886,0.007747,
590,1920,0.947545,-1.054243,0.999998,0.000183,-0.003596,0.007935,-0.000943,0.008012,-0.003672,-85.353866,0.008021,
580,1300,2.723922,-5.746695,0.999997,0.000229,-0.003896,0.007145,0.000016,0.007145,-0.003896,89.917577,0.007155,
1660,1620,-1.132935,-2.786400,0.999998,0.000177,-0.003578,0.007441,-0.000228,0.007445,-0.003583,-88.814057,0.007447,
1360,1200,-0.607876,-4.667977,0.999993,0.000343,-0.003908,0.006203,-0.003424,0.007253,-0.004958,-72.946067,0.007414,
1090,100,0.054663,-14.742090,0.999998,0.000150,-0.000347,0.004818,0.000319,0.004837,-0.000366,86.482145,0.005386,
1810,260,-1.243720,-13.306562,0.999997,0.000189,-0.003517,0.007608,-0.000386,0.007621,-0.003530,-88.015406,0.007628,
1740,920,-2.602809,-8.348638,0.999997,0.000208,-0.003460,0.007410,-0.000611,0.007445,-0.003495,-86.793020,0.007449,
1250,370,-0.029967,-13.382891,0.999998,0.000160,-0.001632,0.005300,0.000140,0.005303,-0.001635,88.845604,0.005431,
1600,1880,-0.397663,-0.877895,0.999998,0.000195,-0.001847,0.006157,0.000853,0.006247,-0.001936,83.987203,0.006396,
1700,1240,-2.188522,-5.913775,0.999998,0.000181,-0.004081,0.008068,0.000832,0.008124,-0.004137,86.101957,0.008125,
1610,50,-0.082072,-14.961278,0.999999,0.000152,-0.000323,0.005165,-0.001208,0.005419,-0.000577,-78.124565,0.005953,
830,800,1.851734,-9.431277,0.999996,0.000222,-0.004619,0.008667,0.000731,0.008707,-0.004659,86.861385,0.008714,
1220,1750,0.015286,-1.390251,0.999998,0.000174,-0.001428,0.005265,0.000060,0.005266,-0.001428,89.482642,0.005446,
1860,1840,-1.265726,-1.619309,0.999998,0.000205,-0.003670,0.007558,0.000273,0.007565,-0.003676,88.607086,0.007566,
1050,1350,0.494634,-4.013435,0.999996,0.000219,-0.004430,0.007254,0.002232,0.007666,-0.004841,79.545873,0.007754,
1860,1090,-3.063790,-7.151814,0.999997,0.000205,-0.003165,0.006433,0.000050,0.006434,-0.003165,89.699983,0.006434,
1310,1820,-0.082225,-1.039208,0.999998,0.000184,-0.001085,0.005150,0.000061,0.005150,-0.001085,89.439762,0.005430,
870,1470,1.131673,-3.769387,0.999997,0.000213,-0.004238,0.007893,0.000521,0.007915,-0.004260,87.543119,0.007923,
1100,170,0.101574,-14.394135,0.999998,0.000140,-0.000772,0.005044,0.000207,0.005052,-0.000780,87.961207,0.005439,
1790,180,-0.882289,-13.963841,0.999998,0.000165,-0.003117,0.007558,-0.001167,0.007684,-0.003243,-83.834850,0.007715,
1400,760,-0.500285,-10.776594,0.999996,0.000248,-0.004978,0.007617,0.002677,0.008162,-0.005524,78.484687,0.008331,
1090,2010,0.018473,-0.118523,0.999999,0.000130,-0.000086,0.004560,-0.000290,0.004578,-0.000104,-86.439770,0.005227,
830,1370,1.518531,-4.696838,0.999995,0.000301,-0.004665,0.008425,-0.000028,0.008425,-0.004665,-89.879472,0.008441,
620,1690,1.653185,-2.696225,0.999995,0.000246,-0.003675,0.007523,0.000052,0.007523,-0.003676,89.734744,0.007524,
1000,740,0.792963,-10.549313,0.999995,0.000252,-0.005355,0.008683,-0.001594,0.008861,-0.005534,-83.602495,0.008952,
1300,540,-0.133118,-12.456363,0.999998,0.000179,-0.002154,0.005186,0.000723,0.005256,-0.002225,84.424407,0.005277,
1540,160,-0.272124,-14.372492,0.999998,0.000171,-0.001160,0.005767,-0.000777,0.005853,-0.001246,-83.675593,0.006166,
1840,830,-2.759306,-8.914720,0.999997,0.000202,-0.003516,0.007056,-0.000465,0.007077,-0.003536,-87.486331,0.007077,
710,1610,1.494572,-3.081677,0.999996,0.000234,-0.003768,0.007599,0.000151,0.007601,-0.003770,89.237802,0.007602,
1090,1190,0.728388,-4.915122,0.999994,0.000283,-0.004237,0.006993,0.003378,0.007931,-0.005175,74.482554,0.008053,
890,1180,1.840044,-6.250210,0.999997,0.000202,-0.004489,0.009055,-0.001007,0.009130,-0.004563,-85.770669,0.009130,
630,510,1.942169,-11.345514,0.999997,0.000218,-0.003790,0.007664,-0.000087,0.007665,-0.003790,-89.564580,0.007665,
610,420,1.817716,-11.982038,0.999997,0.000202,-0.003722,0.007518,-0.000112,0.007519,-0.003723,-89.431663,0.007519,
630,780,2.608051,-9.290619,0.999997,0.000197,-0.003672,0.007410,0.000459,0.007429,-0.003691,87.632017,0.007429,
1620,960,-2.272196,-8.093205,0.999997,0.000197,-0.003220,0.007985,-0.000771,0.008037,-0.003272,-86.083452,0.008083,
1060,530,0.382154,-12.298482,0.999997,0.000199,-0.002778,0.006179,-0.001027,0.006295,-0.002895,-83.543823,0.006302,
1290,1300,-0.098915,-3.576846,0.999997,0.000207,-0.002177,0.003261,-0.002182,0.004029,-0.002945,-70.627012,0.004169,
1490,1230,-1.202370,-5.505433,0.999995,0.000273,-0.005803,0.009916,-0.000370,0.009925,-0.005812,-88.651704,0.009973,
1830,1020,-3.003805,-7.612555,0.999997,0.000211,-0.003241,0.006837,-0.000104,0.006838,-0.003242,-89.409379,0.006841,
1430,400,-0.386541,-13.043848,0.999996,0.000213,-0.002371,0.006089,0.000415,0.006109,-0.002391,87.197707,0.006157,
1140,450,0.172001,-12.908105,0.999998,0.000181,-0.002067,0.005496,-0.000525,0.005532,-0.002104,-86.047483,0.005585,
570,1300,2.757619,-5.769974,0.999915,0.001144,-0.004044,0.006958,0.000155,0.006960,-0.004046,89.190881,0.006991,
910,1990,0.085417,-0.230083,0.999998,0.000155,-0.000350,0.005172,-0.000938,0.005327,-0.000505,-80.618865,0.005881,
1220,1200,0.099101,-3.623237,0.999990,0.000000,-0.007745,0.002310,-0.000313,0.002320,-0.007755,-88.216742,0.007960,
1490,820,-1.184150,-9.664530,0.999996,0.000269,-0.005796,0.009869,0.000411,0.009879,-0.005807,88.497661,0.009930,
670,1350,2.256210,-5.189055,0.999997,0.000227,-0.003953,0.007664,-0.000405,0.007678,-0.003967,-88.004415,0.007680,
1150,390,0.137691,-13.249398,0.999998,0.000172,-0.001836,0.005439,-0.000272,0.005449,-0.001846,-87.860805,0.005542,
1070,100,0.061663,-14.741960,0.999998,0.000170,-0.000435,0.004859,0.000362,0.004883,-0.000460,86.100978,0.005393,
1790,610,-2.001699,-10.674745,0.999998,0.000155,-0.003910,0.007759,-0.000079,0.007760,-0.003911,-89.612282,0.007760,
1050,1310,0.540690,-4.315850,0.999997,0.000224,-0.004935,0.007785,0.002467,0.008247,-0.005397,79.400507,0.008377,
1600,1860,-0.449458,-1.001823,0.999997,0.000209,-0.002063,0.006342,0.000772,0.006412,-0.002133,84.794533,0.006531,
580,1920,0.983524,-1.091514,0.999998,0.000183,-0.003548,0.007985,-0.000930,0.008059,-0.003623,-85.419198,0.008073,
1110,1880,0.096326,-0.746762,0.999998,0.000164,-0.000850,0.005096,-0.000155,0.005100,-0.000854,-88.510611,0.005463,
1660,1600,-1.166754,-2.934128,0.999998,0.000150,-0.003675,0.007517,-0.000264,0.007523,-0.003681,-88.651550,0.007524,
830,780,1.789457,-9.605174,0.999996,0.000230,-0.004685,0.008669,0.000603,0.008696,-0.004712,87.418772,0.008706,
920,1110,1.979700,-6.838411,0.999997,0.000206,-0.003510,0.008993,-0.001030,0.009077,-0.003594,-85.323919,0.009142,
1740,900,-2.565977,-8.500383,0.999997,0.000221,-0.003583,0.007608,-0.000759,0.007659,-0.003634,-86.138151,0.007662,
1200,1750,0.044369,-1.394354,0.999999,0.000142,-0.001398,0.005279,0.000087,0.005280,-0.001400,89.250292,0.005471,
1830,1010,-2.997184,-7.682056,0.999998,0.000201,-0.003258,0.006806,-0.000209,0.006811,-0.003263,-88.811008,0.006813,
870,1450,1.166915,-3.927023,0.999997,0.000211,-0.004355,0.007907,0.000476,0.007925,-0.004374,87.782568,0.007940,
1350,1870,-0.098255,-0.794457,0.999998,0.000174,-0.000943,0.005094,0.000140,0.005097,-0.000947,88.675376,0.005422,
1700,1220,-2.245330,-6.074711,0.999997,0.000214,-0.004013,0.008057,0.000915,0.008126,-0.004082,85.687591,0.008126,
720,1990,0.218511,-0.276668,0.999997,0.000212,-0.001325,0.006281,-0.002094,0.006819,-0.001863,-75.582691,0.007049,
830,1350,1.574392,-4.868371,0.999996,0.000288,-0.004708,0.008514,-0.000149,0.008516,-0.004709,-89.353850,0.008532,
1190,1670,0.070429,-1.825682,0.999998,0.000176,-0.001659,0.005322,0.000134,0.005325,-0.001662,88.898463,0.005449,
1080,170,0.116256,-14.389854,0.999997,0.000177,-0.000800,0.005106,0.000261,0.005118,-0.000811,87.476472,0.005501,
1780,1470,-1.905154,-4.228863,0.999998,0.000186,-0.003918,0.007761,0.000037,0.007761,-0.003918,89.820536,0.007761,
1440,1630,-0.427764,-2.245443,0.999998,0.000222,-0.002436,0.006185,-0.000484,0.006212,-0.002463,-86.795700,0.006256,
1090,1170,0.884188,-5.033960,0.999995,0.000261,-0.003216,0.006552,0.003718,0.007806,-0.004470,71.359279,0.007834,
1240,2010,-0.001280,-0.114559,0.999998,0.000137,-0.000129,0.004526,-0.000037,0.004526,-0.000129,-89.550432,0.005153,
1300,520,-0.130825,-12.562344,0.999997,0.000180,-0.002125,0.005224,0.000621,0.005277,-0.002177,85.207704,0.005303,
940,750,1.138615,-10.184920,0.999997,0.000188,-0.005380,0.009093,-0.000589,0.009117,-0.005404,-87.674147,0.009169,
1440,1900,-0.153610,-0.674032,0.999998,0.000171,-0.000952,0.005319,0.000452,0.005351,-0.000985,85.895419,0.005696,
1780,50,-0.183940,-14.925796,0.999999,0.000173,-0.000665,0.006395,-0.002665,0.007288,-0.001558,-71.475305,0.007676,
1430,540,-0.468286,-12.162188,0.999996,0.000239,-0.003188,0.006512,0.001173,0.006652,-0.003328,83.200750,0.006652,
1400,740,-0.468706,-10.929992,0.999996,0.000226,-0.004660,0.007323,0.002610,0.007867,-0.005204,78.231965,0.008002,
1620,940,-2.233264,-8.252966,0.999997,0.000214,-0.003413,0.008137,-0.000875,0.008203,-0.003479,-85.692483,0.008234,
1030,1300,0.660545,-4.523128,0.999996,0.000251,-0.005326,0.008392,0.002120,0.008712,-0.005646,81.410759,0.008839,
1770,820,-2.479879,-9.081850,0.999996,0.000255,-0.003778,0.007627,-0.000724,0.007673,-0.003824,-86.382376,0.007673,
710,1590,1.539875,-3.236262,0.999996,0.000237,-0.003794,0.007649,0.000157,0.007651,-0.003796,89.213245,0.007651,
1130,100,0.037007,-14.748716,0.999998,0.000172,-0.000467,0.004769,0.000174,0.004775,-0.000473,88.094819,0.005262,
1860,1820,-1.341232,-1.772771,0.999997,0.000221,-0.003691,0.007446,0.000196,0.007449,-0.003695,88.993544,0.007449,
1290,1820,-0.061548,-1.035598,0.999998,0.000148,-0.000985,0.005138,0.000067,0.005139,-0.000986,89.373710,0.005454,
1660,1150,-2.281981,-6.604541,0.999997,0.000238,-0.003674,0.008086,0.000985,0.008168,-0.003756,85.243827,0.008177,
1600,50,-0.077191,-14.961532,0.999999,0.000149,-0.000396,0.005140,-0.001140,0.005366,-0.000621,-78.807079,0.005870,
630,710,2.421139,-9.813948,0.999996,0.000229,-0.003788,0.007550,0.000289,0.007558,-0.003795,88.538731,0.007558,
600,1690,1.725577,-2.749144,0.999997,0.000218,-0.003692,0.007443,0.000084,0.007443,-0.003693,89.569013,0.007444,
1540,140,-0.231190,-14.488567,0.999998,0.000174,-0.000962,0.005624,-0.000792,0.005718,-0.001056,-83.236463,0.006085,
1340,630,-0.222658,-11.897391,0.999997,0.000214,-0.002664,0.005299,0.001657,0.005630,-0.002995,78.703886,0.005634,
1360,290,-0.178968,-13.759666,0.999998,0.000143,-0.001475,0.005511,0.000030,0.005511,-0.001475,89.752313,0.005706,
1740,450,-1.457048,-12.030920,0.999996,0.000219,-0.003803,0.007604,0.000160,0.007607,-0.003805,89.195711,0.007607,
1000,720,0.751133,-10.724823,0.999996,0.000263,-0.005111,0.008341,-0.001636,0.008537,-0.005308,-83.164652,0.008621,
810,620,1.458711,-10.911232,0.999997,0.000216,-0.004373,0.008049,-0.000129,0.008050,-0.004375,-89.407283,0.008060,
1810,760,-2.469701,-9.479432,0.999996,0.000234,-0.003791,0.007497,-0.000493,0.007518,-0.003812,-87.502352,0.007519,
1270,1190,-0.356580,-3.729463,0.999991,0.000000,-0.006484,0.001830,0.000186,0.001834,-0.006489,88.716294,0.006690,
1530,1840,-0.364532,-1.066238,0.999998,0.000171,-0.001666,0.005956,0.000527,0.005993,-0.001702,86.066671,0.006176,
910,1970,0.129797,-0.334639,0.999998,0.000175,-0.000526,0.005253,-0.000928,0.005398,-0.000671,-81.098840,0.005884,
1660,1580,-1.205633,-3.086764,0.999997,0.000180,-0.003786,0.007552,-0.000301,0.007560,-0.003794,-88.480395,0.007560,
1490,1210,-1.291367,-5.706573,0.999996,0.000255,-0.005706,0.010050,-0.000086,0.010051,-0.005706,-89.688867,0.010081,
1830,1000,-2.990438,-7.748833,0.999998,0.000195,-0.003251,0.006763,-0.000228,0.006768,-0.003256,-88.697305,0.006770,
1830,990,-2.983513,-7.816767,0.999998,0.000200,-0.003231,0.006742,-0.000181,0.006746,-0.003234,-88.958803,0.006748,
670,370,1.479080,-12.511706,0.999997,0.000211,-0.003716,0.007565,-0.000003,0.007565,-0.003716,-89.983915,0.007565,
1790,590,-1.955494,-10.830904,0.999998,0.000174,-0.003876,0.007746,-0.000018,0.007746,-0.003876,-89.911936,0.007746,
1050,1290,0.573336,-4.472165,0.999996,0.000231,-0.005213,0.008148,0.002477,0.008592,-0.005657,79.828858,0.008735,
1350,1830,-0.123326,-1.002162,0.999998,0.000167,-0.001145,0.005217,0.000078,0.005218,-0.001146,89.301776,0.005484,
1260,1750,-0.040974,-1.395377,0.999998,0.000170,-0.001410,0.005263,-0.000085,0.005264,-0.001411,-89.274464,0.005449,
1270,420,-0.068050,-13.109103,0.999999,0.000162,-0.001756,0.005296,0.000186,0.005301,-0.001761,88.490260,0.005400,
1870,1090,-3.095016,-7.158356,0.999997,0.000208,-0.003150,0.006311,0.000023,0.006311,-0.003150,89.857930,0.006311,
1240,170,-0.007787,-14.418034,0.999998,0.000158,-0.000765,0.004920,0.000017,0.004920,-0.000766,89.829369,0.005295,
760,1990,0.181838,-0.262364,0.999997,0.000180,-0.000700,0.005828,-0.001793,0.006288,-0.001160,-75.611539,0.006692,
570,1900,1.124048,-1.287808,0.999986,0.000449,-0.003507,0.007724,-0.000607,0.007757,-0.003540,-86.916186,0.007767,
1700,1200,-2.305339,-6.238090,0.999997,0.000223,-0.003912,0.007970,0.000905,0.008039,-0.003980,85.670748,0.008039,
1600,1840,-0.497237,-1.130808,0.999997,0.000214,-0.002211,0.006377,0.000670,0.006429,-0.002263,85.566500,0.006523,
810,800,1.943953,-9.398090,0.999997,0.000239,-0.004442,0.008511,0.000752,0.008555,-0.004486,86.687260,0.008558,
1090,1360,0.329430,-3.732153,0.999996,0.000203,-0.003592,0.006183,0.002402,0.006742,-0.004151,76.913244,0.006802,
1780,40,-0.133717,-14.986129,0.999998,0.000183,-0.000360,0.006178,-0.002632,0.007106,-0.001288,-70.582774,0.007572,
1000,2010,0.031078,-0.120688,0.999998,0.000156,-0.000058,0.004809,-0.000565,0.004873,-0.000123,-83.464232,0.005558,
1090,870,0.763150,-10.172534,0.999993,0.000296,-0.004057,0.006806,-0.003383,0.007773,-0.005024,-74.040921,0.007883,
1400,720,-0.451130,-11.072845,0.999996,0.000236,-0.004392,0.007115,0.002471,0.007623,-0.004900,78.380268,0.007726,
1300,500,-0.128998,-12.666566,0.999998,0.000162,-0.002073,0.005288,0.000533,0.005326,-0.002111,85.880459,0.005364,
1070,1500,0.361199,-2.948425,0.999998,0.000195,-0.002831,0.006053,0.001171,0.006205,-0.002982,82.617848,0.006207,
830,1330,1.624786,-5.038226,0.999997,0.000240,-0.004723,0.008531,-0.000261,0.008536,-0.004728,-88.872708,0.008553,
870,1240,1.714469,-5.745145,0.999995,0.000263,-0.004827,0.009009,-0.000686,0.009043,-0.004861,-87.168882,0.009052,
1750,820,-2.401810,-9.105987,0.999995,0.000258,-0.003890,0.007753,-0.000774,0.007805,-0.003941,-86.213690,0.007805,
990,400,0.490553,-12.975536,0.999996,0.000247,-0.002680,0.006380,-0.000435,0.006401,-0.002701,-87.256579,0.006427,
1620,550,-1.183860,-11.555301,0.999997,0.000203,-0.004037,0.007810,0.000417,0.007825,-0.004052,87.988140,0.007826,
1110,100,0.045513,-14.746110,0.999998,0.000151,-0.000415,0.004797,0.000238,0.004808,-0.000426,87.395635,0.005323,
710,1570,1.580967,-3.387873,0.999996,0.000234,-0.003813,0.007699,0.000146,0.007701,-0.003815,89.271725,0.007701,
800,540,1.337593,-11.524688,0.999996,0.000246,-0.004024,0.007809,-0.000292,0.007816,-0.004032,-88.587493,0.007817,
1010,1300,0.768348,-4.645180,0.999996,0.000256,-0.005469,0.008741,0.001731,0.008949,-0.005677,83.152412,0.009056,
1860,1800,-1.407193,-1.918982,0.999997,0.000224,-0.003693,0.007444,0.000128,0.007445,-0.003695,89.339711,0.007445,
1620,920,-2.178058,-8.419707,0.999997,0.000234,-0.003609,0.008362,-0.001024,0.008449,-0.003697,-85.143829,0.008471,
870,460,0.935300,-12.306974,0.999999,0.000187,-0.003532,0.007338,-0.000426,0.007355,-0.003549,-87.756825,0.007357,
870,1430,1.203930,-4.086005,0.999997,0.000217,-0.004469,0.008102,0.000448,0.008118,-0.004485,87.962176,0.008133,
970,70,0.070933,-14.873328,0.999999,0.000169,-0.000475,0.004999,0.000661,0.005077,-0.000553,83.211989,0.005571,
1050,1270,0.615711,-4.642638,0.999996,0.000266,-0.005472,0.008399,0.002435,0.008814,-0.005887,80.327888,0.008978,
1640,1150,-2.209279,-6.590111,0.999997,0.000218,-0.003731,0.008225,0.001023,0.008312,-0.003818,85.143718,0.008321,
1470,1640,-0.497225,-2.235870,0.999997,0.000206,-0.002747,0.006439,-0.000508,0.006467,-0.002775,-86.843241,0.006489,
1740,880,-2.514777,-8.654902,0.999997,0.000224,-0.003682,0.007666,-0.000821,0.007725,-0.003741,-85.882027,0.007726,
1040,1000,1.681137,-8.010426,0.999987,0.000441,-0.006585,0.016111,-0.001661,0.016232,-0.006706,-85.837223,0.016314,
1490,1190,-1.382803,-5.907408,0.999996,0.000271,-0.005491,0.010130,0.000198,0.010133,-0.005493,89.272825,0.010145,
1050,1420,0.452606,-3.523993,0.999996,0.000245,-0.003615,0.006622,0.001759,0.006916,-0.003909,80.515773,0.006936,
1630,960,-2.303813,-8.090350,0.999997,0.000197,-0.003226,0.007923,-0.000764,0.007976,-0.003278,-86.098147,0.008018,
630,580,2.096735,-10.808320,0.999998,0.000190,-0.003830,0.007669,0.000039,0.007669,-0.003831,89.804540,0.007669,
1820,1090,-2.938421,-7.131273,0.999998,0.000173,-0.003252,0.006812,0.000195,0.006816,-0.003256,88.889975,0.006818,
1250,740,-0.026754,-11.703640,0.999998,0.000149,-0.001539,0.002568,0.000711,0.002688,-0.001658,80.452640,0.002712,
1190,1650,0.073577,-1.933441,0.999998,0.000169,-0.001719,0.005335,0.000160,0.005339,-0.001723,88.698728,0.005449,
1730,1020,-2.678302,-7.615276,0.999998,0.000180,-0.003197,0.007359,-0.000134,0.007361,-0.003199,-89.272617,0.007382,
1530,1820,-0.398951,-1.184631,0.999998,0.000184,-0.001845,0.006112,0.000466,0.006140,-0.001872,86.659679,0.006293,
1170,1820,0.064280,-1.036157,0.999999,0.000138,-0.001011,0.005113,-0.000090,0.005114,-0.001012,-89.162124,0.005416,
1340,290,-0.148531,-13.772911,0.999998,0.000154,-0.001530,0.005426,0.000114,0.005428,-0.001532,89.058858,0.005597,
910,1950,0.169754,-0.439718,0.999998,0.000190,-0.000680,0.005480,-0.000931,0.005618,-0.000818,-81.589323,0.006071,
1350,620,-0.249727,-11.918046,0.999997,0.000216,-0.002727,0.005499,0.001605,0.005801,-0.003030,79.339840,0.005803,
630,950,2.967730,-8.082890,0.999997,0.000216,-0.003278,0.006804,0.000311,0.006814,-0.003287,88.233330,0.006815,
590,640,2.393846,-10.254837,0.999995,0.000286,-0.003933,0.007562,0.000157,0.007564,-0.003935,89.217713,0.007566,
1800,550,-1.903535,-11.115990,0.999997,0.000213,-0.003861,0.007664,0.000041,0.007664,-0.003861,89.794675,0.007664,
1000,700,0.721502,-10.890422,0.999997,0.000229,-0.004875,0.008122,-0.001634,0.008324,-0.005078,-82.944511,0.008391,
570,1890,1.170347,-1.360856,0.999970,0.000613,-0.003488,0.007740,-0.000433,0.007757,-0.003505,-87.796353,0.007768,
1440,1610,-0.440796,-2.368711,0.999997,0.000208,-0.002609,0.006279,-0.000603,0.006320,-0.002650,-86.134326,0.006347,
1240,1750,-0.012075,-1.390548,0.999998,0.000171,-0.001428,0.005267,-0.000054,0.005268,-0.001428,-89.537191,0.005449,
1490,2010,-0.034483,-0.122739,0.999998,0.000152,-0.000234,0.004827,0.000605,0.004899,-0.000306,83.276055,0.005489,
1820,610,-2.118088,-10.607404,0.999996,0.000220,-0.003882,0.007681,-0.000101,0.007682,-0.003883,-89.499252,0.007682,
1400,700,-0.436559,-11.211802,0.999995,0.000245,-0.004160,0.006912,0.002335,0.007384,-0.004632,78.566827,0.007463,
1540,120,-0.192062,-14.599210,0.999998,0.000177,-0.000840,0.005526,-0.000866,0.005642,-0.000956,-82.390346,0.006039,
1270,1200,-0.279195,-3.714757,0.999993,0.000000,-0.005694,0.002049,0.000188,0.002053,-0.005699,88.608941,0.005772,
890,900,1.935010,-8.643213,0.999998,0.000215,-0.004073,0.008937,0.001092,0.009028,-0.004164,85.236455,0.009037,
560,140,1.083254,-13.912805,0.999995,0.000000,-0.003630,0.007761,0.000936,0.007837,-0.003706,85.334566,0.007841,
1480,50,-0.039650,-14.972741,0.999999,0.000125,-0.000253,0.004791,-0.000606,0.004863,-0.000324,-83.245896,0.005438,
870,1360,1.356182,-4.678294,0.999996,0.000219,-0.004845,0.008599,0.000193,0.008602,-0.004847,89.177278,0.008625,
870,440,0.904979,-12.452849,0.999998,0.000213,-0.003392,0.007228,-0.000352,0.007240,-0.003403,-88.104962,0.007244,
1790,570,-1.910601,-10.985849,0.999997,0.000190,-0.003894,0.007706,-0.000001,0.007706,-0.003894,-89.994644,0.007706,
1500,1270,-1.115440,-5.163698,0.999996,0.000226,-0.005632,0.009437,-0.000611,0.009461,-0.005657,-87.682887,0.009522,
1150,370,0.132445,-13.359698,0.999998,0.000159,-0.001747,0.005466,-0.000210,0.005472,-0.001753,-88.335008,0.005588,
870,580,1.124028,-11.392260,0.999996,0.000212,-0.004167,0.007896,-0.000549,0.007921,-0.004192,-87.399405,0.007926,
690,60,0.227476,-14.864082,0.999996,0.000243,-0.001103,0.006738,0.002638,0.007543,-0.001908,73.031645,0.007844,
1520,1210,-1.456354,-5.828805,0.999995,0.000261,-0.005372,0.009741,0.000407,0.009752,-0.005383,88.459834,0.009770,
800,520,1.301835,-11.680601,0.999996,0.000214,-0.003937,0.007753,-0.000301,0.007761,-0.003944,-88.525214,0.007761,
1720,2010,-0.115293,-0.152067,0.999998,0.000163,-0.000247,0.005792,0.001984,0.006385,-0.000841,73.349871,0.006939,
1620,370,-0.877554,-12.896763,0.999998,0.000158,-0.003024,0.007063,0.000012,0.007063,-0.003024,89.930926,0.007088,
1660,1560,-1.242658,-3.238970,0.999997,0.000176,-0.003863,0.007637,-0.000311,0.007646,-0.003871,-88.453587,0.007646,
1350,1290,-0.284451,-4.002823,0.999997,0.000233,-0.003871,0.005764,-0.003171,0.006714,-0.004821,-73.324059,0.006924,
1050,1250,0.677644,-4.812421,0.999996,0.000261,-0.005729,0.008729,0.002309,0.009089,-0.006089,81.144030,0.009262,
970,310,0.435865,-13.515153,0.999997,0.000199,-0.002286,0.006214,-0.000023,0.006214,-0.002286,-89.843353,0.006286,
1370,1160,-0.959223,-5.043887,0.999994,0.000284,-0.002678,0.006550,-0.004189,0.008168,-0.004296,-68.880078,0.008172,
1550,1660,-0.699799,-2.255477,0.999997,0.000201,-0.002983,0.006871,-0.000278,0.006879,-0.002990,-88.386459,0.006898,
950,1180,1.554058,-6.102923,0.999994,0.000295,-0.005080,0.009849,-0.000630,0.009876,-0.005106,-87.589257,0.009878,
870,1410,1.243086,-4.252370,0.999997,0.000211,-0.004574,0.008299,0.000422,0.008313,-0.004588,88.124396,0.008328,
700,990,2.767106,-7.831283,0.999997,0.000190,-0.003251,0.007109,0.000203,0.007113,-0.003255,88.879650,0.007121,
1190,1630,0.072642,-2.039467,0.999998,0.000169,-0.001778,0.005275,0.000180,0.005280,-0.001783,88.541685,0.005372,
710,1120,2.670412,-6.887187,0.999997,0.000190,-0.003436,0.007341,-0.000603,0.007375,-0.003470,-86.808312,0.007379,
1090,1440,0.313804,-3.245542,0.999998,0.000166,-0.002976,0.005937,0.001616,0.006222,-0.003260,80.032702,0.006224,
1490,1170,-1.482501,-6.113630,0.999995,0.000277,-0.005224,0.010177,0.000422,0.010188,-0.005235,88.431112,0.010189,
910,1930,0.212905,-0.554821,0.999997,0.000185,-0.000887,0.005622,-0.000918,0.005749,-0.001014,-82.126769,0.006138,
1740,860,-2.467901,-8.808578,0.999997,0.000228,-0.003730,0.007611,-0.000781,0.007665,-0.003783,-86.078225,0.007665,
1200,290,0.042737,-13.803122,0.999998,0.000175,-0.001323,0.005237,-0.000022,0.005238,-0.001323,-89.807204,0.005447,
1210,420,0.038130,-13.115857,0.999999,0.000159,-0.001775,0.005274,-0.000196,0.005279,-0.001780,-88.408895,0.005372,
670,330,1.382343,-12.815382,0.999997,0.000216,-0.003645,0.007538,0.000028,0.007538,-0.003645,89.858966,0.007540,
1880,1840,-1.338971,-1.687392,0.999998,0.000211,-0.003641,0.007374,0.000250,0.007380,-0.003647,88.702969,0.007380,
1030,1720,0.342204,-1.688511,0.999997,0.000211,-0.002114,0.005950,0.000194,0.005955,-0.002119,88.622902,0.006036,
1000,710,0.736296,-10.807721,0.999996,0.000247,-0.004991,0.008230,-0.001636,0.008429,-0.005191,-83.048530,0.008504,
570,1670,1.886289,-2.975751,0.999994,0.000347,-0.003923,0.007354,0.000129,0.007355,-0.003924,89.345779,0.007361,
620,1900,0.942930,-1.098827,0.999998,0.000182,-0.003660,0.007780,-0.000669,0.007819,-0.003699,-86.666265,0.007822,
580,640,2.431837,-10.231683,0.999997,0.000217,-0.004564,0.007535,0.000367,0.007546,-0.004575,88.265699,0.007602,
1170,480,0.115640,-12.779724,0.999998,0.000170,-0.001950,0.005300,-0.000374,0.005319,-0.001969,-87.053798,0.005379,
1470,50,-0.037940,-14.973397,0.999999,0.000125,-0.000164,0.004754,-0.000586,0.004823,-0.000233,-83.299087,0.005440,
1510,2010,-0.040727,-0.125572,0.999999,0.000177,-0.000300,0.004834,0.000658,0.004917,-0.000383,82.809930,0.005469,
1400,680,-0.421517,-11.351223,0.999995,0.000251,-0.003915,0.006716,0.002170,0.007142,-0.004341,78.896130,0.007197,
1780,550,-1.824917,-11.162251,0.999997,0.000188,-0.003905,0.007713,0.000061,0.007713,-0.003906,89.700908,0.007714,
1090,850,0.650071,-10.320568,0.999994,0.000297,-0.004832,0.007393,-0.003320,0.008237,-0.005676,-75.745255,0.008431,
560,150,1.136791,-13.838436,0.999994,0.000000,-0.003514,0.007535,0.000759,0.007587,-0.003566,86.089527,0.007592,
830,860,2.044893,-8.914323,0.999997,0.000208,-0.004213,0.008481,0.001004,0.008560,-0.004292,85.506787,0.008560,
870,920,2.078134,-8.446361,0.999997,0.000208,-0.003711,0.008533,0.001074,0.008626,-0.003805,85.024900,0.008646,
1790,770,-2.419173,-9.435552,0.999997,0.000218,-0.003838,0.007601,-0.000563,0.007629,-0.003866,-87.189659,0.007629,
1480,1270,-1.001493,-5.064936,0.999998,0.000196,-0.005700,0.009365,-0.001002,0.009431,-0.005766,-86.210931,0.009509,
1860,1330,-2.563692,-5.476445,0.999996,0.000216,-0.003708,0.007386,0.000224,0.007390,-0.003713,88.845746,0.007390,
1150,350,0.126271,-13.469033,0.999998,0.000181,-0.001675,0.005420,-0.000160,0.005424,-0.001679,-88.705666,0.005553,
690,50,0.176819,-14.927450,0.999998,0.000181,-0.000799,0.006397,0.002573,0.007222,-0.001625,72.212749,0.007578,
1330,240,-0.109032,-14.046080,0.999998,0.000189,-0.001250,0.005231,-0.000014,0.005231,-0.001250,-89.880609,0.005464,
1050,1140,1.260124,-5.880876,0.999995,0.000247,-0.004803,0.010525,0.002846,0.011036,-0.005314,79.815177,0.011039,
1830,970,-2.972825,-7.951642,0.999998,0.000175,-0.003218,0.006687,-0.000135,0.006689,-0.003220,-89.220058,0.006691,
1730,180,-0.692314,-14.083610,0.999995,0.000266,-0.002576,0.007166,-0.001250,0.007324,-0.002734,-82.803537,0.007401,
800,500,1.262808,-11.834579,0.999996,0.000200,-0.003852,0.007664,-0.000293,0.007671,-0.003860,-88.545042,0.007672,
1740,840,-2.418771,-8.961120,0.999996,0.000229,-0.003823,0.007722,-0.000813,0.007779,-0.003880,-85.993105,0.007779,
1420,980,-1.609621,-8.339673,0.999985,0.000486,-0.006230,0.015140,0.002746,0.015488,-0.006577,82.793109,0.015546,
1300,480,-0.128822,-12.774035,0.999998,0.000166,-0.002035,0.005359,0.000454,0.005386,-0.002063,86.502653,0.005435,
710,1550,1.622190,-3.543041,0.999996,0.000233,-0.003878,0.007703,0.000126,0.007704,-0.003879,89.376920,0.007704,
1220,1690,0.018810,-1.708062,0.999998,0.000165,-0.001622,0.005305,0.000085,0.005306,-0.001623,89.293720,0.005438,
960,1260,1.165625,-5.273171,0.999995,0.000258,-0.005678,0.009584,0.000460,0.009597,-0.005692,88.275551,0.009653,
850,1120,2.194837,-6.820177,0.999998,0.000191,-0.003480,0.008243,-0.000969,0.008322,-0.003560,-85.306525,0.008351,
870,1830,0.503832,-1.185089,0.999997,0.000215,-0.002300,0.006425,-0.000564,0.006461,-0.002336,-86.315348,0.006543,
570,990,3.175789,-7.792192,0.999983,0.000504,-0.002511,0.006094,-0.000087,0.006094,-0.002511,-89.417832,0.006126,
1280,1410,-0.085834,-3.134761,0.999997,0.000218,-0.001955,0.004305,-0.000971,0.004452,-0.002102,-81.378685,0.004455,
910,1910,0.254058,-0.666442,0.999998,0.000180,-0.001052,0.005716,-0.000855,0.005823,-0.001158,-82.912646,0.006164,
580,40,0.272156,-14.875172,0.999996,0.000250,-0.000228,0.009929,0.005606,0.012415,-0.002714,66.088359,0.013054,
1370,480,-0.280582,-12.673328,0.999998,0.000156,-0.002422,0.005849,0.000800,0.005926,-0.002499,84.528668,0.005950,
870,2000,0.085514,-0.181504,0.999998,0.000171,-0.000519,0.005260,-0.001074,0.005453,-0.000712,-79.806757,0.005928,
560,160,1.184531,-13.766985,0.999984,0.000000,-0.003348,0.007894,0.000373,0.007906,-0.003361,88.102493,0.007936,
1490,1150,-1.589018,-6.322698,0.999996,0.000243,-0.004844,0.010184,0.000571,0.010206,-0.004866,87.826418,0.010210,
1150,480,0.155788,-12.756450,0.999998,0.000181,-0.002121,0.005437,-0.000606,0.005485,-0.002169,-85.445814,0.005525,
1190,1610,0.078029,-2.144788,0.999998,0.000161,-0.001828,0.005288,0.000176,0.005293,-0.001832,88.584735,0.005376,
1400,660,-0.412435,-11.484403,0.999996,0.000215,-0.003689,0.006604,0.002009,0.006982,-0.004068,79.336896,0.007014,
1630,680,-1.493499,-10.474313,0.999995,0.000261,-0.004658,0.008422,0.000013,0.008422,-0.004658,89.942920,0.008438,
1460,50,-0.037143,-14.974178,0.999999,0.000124,-0.000131,0.004730,-0.000541,0.004789,-0.000191,-83.720888,0.005423,
1010,1720,0.383442,-1.712616,0.999996,0.000214,-0.002055,0.006073,0.000093,0.006074,-0.002056,89.347384,0.006179,
1880,1830,-1.378388,-1.762963,0.999997,0.000228,-0.003654,0.007375,0.000211,0.007380,-0.003658,88.902793,0.007380,
1790,1010,-2.866983,-7.685908,0.999998,0.000158,-0.003259,0.007048,-0.000210,0.007052,-0.003263,-88.830933,0.007059,
620,1860,1.125865,-1.409622,0.999997,0.000195,-0.003638,0.007659,-0.000377,0.007672,-0.003650,-88.089831,0.007675,
640,650,2.228653,-10.291382,0.999997,0.000211,-0.003854,0.007692,0.000188,0.007695,-0.003857,89.068862,0.007695,
1150,330,0.121398,-13.576234,0.999998,0.000177,-0.001577,0.005436,-0.000108,0.005437,-0.001578,-89.118498,0.005594,
660,1720,1.429164,-2.368143,0.999997,0.000215,-0.003696,0.007584,0.000000,0.007584,-0.003696,89.998930,0.007584,
850,920,2.151104,-8.426968,0.999996,0.000226,-0.003619,0.008381,0.001047,0.008471,-0.003710,85.051772,0.008493,
1660,1270,-1.927651,-5.606479,0.999996,0.000243,-0.004450,0.008451,0.000708,0.008490,-0.004489,86.870433,0.008494,
690,40,0.126937,-14.990707,0.999998,0.000170,-0.000564,0.006197,0.002522,0.007034,-0.001401,71.634746,0.007446,
1260,290,-0.040254,-13.804067,0.999998,0.000175,-0.001349,0.005246,0.000064,0.005246,-0.001349,89.441244,0.005449,
810,860,2.130633,-8.890299,0.999998,0.000230,-0.004076,0.008327,0.000993,0.008406,-0.004155,85.452303,0.008406,
1720,2000,-0.158279,-0.210662,0.999998,0.000171,-0.000497,0.005838,0.001947,0.006388,-0.001048,74.212712,0.006852,
1660,1540,-1.279828,-3.393640,0.999996,0.000204,-0.003908,0.007759,-0.000308,0.007768,-0.003916,-88.490852,0.007768,
1830,1170,-2.849045,-6.585891,0.999996,0.000231,-0.003420,0.006994,0.000438,0.007013,-0.003439,87.598024,0.007013,
870,540,1.058390,-11.705185,0.999997,0.000211,-0.003932,0.007707,-0.000531,0.007731,-0.003956,-87.394183,0.007732,
710,790,2.330334,-9.336108,0.999996,0.000237,-0.003978,0.007762,0.000675,0.007801,-0.004016,86.722180,0.007802,
1300,460,-0.126382,-12.882557,0.999998,0.000152,-0.001978,0.005376,0.000355,0.005394,-0.001995,87.244149,0.005454,
1350,1270,-0.309713,-4.122381,0.999996,0.000236,-0.004155,0.005864,-0.003381,0.006898,-0.005189,-72.991920,0.007185,
870,1850,0.460896,-1.061281,0.999996,0.000228,-0.002110,0.006316,-0.000675,0.006370,-0.002163,-85.447049,0.006478,
690,580,1.866913,-10.946521,0.999998,0.000168,-0.003954,0.007750,0.000013,0.007750,-0.003954,89.935068,0.007751,
960,1220,1.319384,-5.666056,0.999995,0.000283,-0.005637,0.009902,-0.000015,0.009902,-0.005637,-89.943071,0.009933,
630,160,0.927909,-14.017880,0.999997,0.000214,-0.003560,0.007795,0.000788,0.007850,-0.003615,86.048360,0.007858,
990,1360,0.762024,-4.236521,0.999995,0.000280,-0.004859,0.008188,0.001526,0.008364,-0.005035,83.417951,0.008422,
560,170,1.223151,-13.690679,0.999967,0.000000,-0.003183,0.008107,0.000167,0.008110,-0.003185,89.155155,0.008172,
910,1890,0.298593,-0.784687,0.999998,0.000181,-0.001281,0.005851,-0.000814,0.005943,-0.001373,-83.573673,0.006223,
1890,40,-0.272564,-14.876050,0.999996,0.000257,-0.000497,0.010942,-0.005761,0.013340,-0.002896,-67.397281,0.014034,
1740,820,-2.362169,-9.118421,0.999996,0.000228,-0.003919,0.007823,-0.000790,0.007876,-0.003972,-86.169796,0.007876,
580,1670,1.848256,-2.949791,0.999998,0.000183,-0.003850,0.007367,0.000099,0.007368,-0.003851,89.496577,0.007370,
830,1120,2.264850,-6.831456,0.999998,0.000202,-0.003449,0.008041,-0.000890,0.008110,-0.003518,-85.597091,0.008133,
730,1440,1.786836,-4.357642,0.999997,0.000183,-0.004114,0.007918,-0.000068,0.007919,-0.004114,-89.676336,0.007921,
800,480,1.226679,-11.988000,0.999997,0.000192,-0.003788,0.007571,-0.000286,0.007578,-0.003795,-88.557477,0.007578,
1090,1500,0.307480,-2.897852,0.999997,0.000191,-0.002710,0.005819,0.001223,0.005991,-0.002882,82.001866,0.005993,
1620,350,-0.839610,-13.040630,0.999998,0.000146,-0.002893,0.007102,-0.000089,0.007103,-0.002894,-89.492138,0.007143,
1780,1210,-2.579044,-6.237043,0.999996,0.000247,-0.003676,0.007433,0.000671,0.007473,-0.003716,86.554554,0.007473,
1450,2000,-0.039883,-0.168530,0.999998,0.000159,-0.000161,0.004759,0.000489,0.004807,-0.000209,84.381050,0.005435,
1450,1720,-0.377473,-1.709236,0.999997,0.000212,-0.002051,0.006064,-0.000122,0.006066,-0.002053,-89.138847,0.006171,
940,50,0.051610,-14.968443,0.999999,0.000161,-0.000266,0.004929,0.000729,0.005029,-0.000366,82.162758,0.005607,
1400,640,-0.406846,-11.612878,0.999997,0.000197,-0.003515,0.006477,0.001865,0.006814,-0.003852,79.764433,0.006834,
620,1320,2.527095,-5.514522,0.999997,0.000208,-0.003726,0.007436,-0.000331,0.007446,-0.003736,-88.301427,0.007446,
1860,1150,-2.981272,-6.751075,0.999998,0.000171,-0.003257,0.006692,0.000257,0.006698,-0.003264,88.520577,0.006699,
1780,1960,-0.441199,-0.505841,0.999995,0.000241,-0.002007,0.006915,0.002169,0.007415,-0.002506,77.037116,0.007543,
1090,830,0.546745,-10.476320,0.999995,0.000281,-0.005129,0.007392,-0.003213,0.008168,-0.005906,-76.415835,0.008435,
1170,520,0.117187,-12.570296,0.999997,0.000214,-0.002021,0.005223,-0.000543,0.005263,-0.002062,-85.733920,0.005304,
1870,720,-2.587385,-9.659632,0.999997,0.000221,-0.003653,0.007373,-0.000170,0.007375,-0.003656,-89.115709,0.007375,
660,650,2.152202,-10.334894,0.999997,0.000224,-0.003926,0.007751,0.000186,0.007754,-0.003929,89.089964,0.007754,
1760,550,-1.747391,-11.209993,0.999997,0.000221,-0.003939,0.007763,0.000070,0.007764,-0.003940,89.657710,0.007764,
1150,310,0.112995,-13.686394,0.999998,0.000146,-0.001479,0.005395,-0.000072,0.005396,-0.001480,-89.397555,0.005576,
1490,1130,-1.687282,-6.527120,0.999997,0.000216,-0.004430,0.010193,0.000642,0.010221,-0.004459,87.491785,0.010249,
570,170,1.194859,-13.725173,0.999967,0.000668,-0.003356,0.007872,0.000317,0.007881,-0.003365,88.381893,0.007909,
1880,1820,-1.415947,-1.836631,0.999997,0.000245,-0.003660,0.007312,0.000161,0.007314,-0.003662,89.159765,0.007314,
1720,1270,-2.183083,-5.699074,0.999997,0.000271,-0.004127,0.008020,0.000706,0.008061,-0.004168,86.682846,0.008062,
1320,290,-0.116992,-13.788477,0.999998,0.000157,-0.001437,0.005347,0.000069,0.005347,-0.001438,89.413510,0.005534,
1190,1590,0.076227,-2.252299,0.999998,0.000148,-0.001838,0.005270,0.000232,0.005278,-0.001845,88.134734,0.005357,
1280,1690,-0.079047,-1.722385,0.999998,0.000166,-0.001597,0.005341,-0.000112,0.005342,-0.001598,-89.078287,0.005484,
870,520,1.026776,-11.858507,0.999997,0.000232,-0.003797,0.007552,-0.000494,0.007574,-0.003818,-87.510707,0.007574,
1830,1410,-2.243886,-4.803580,0.999997,0.000215,-0.003829,0.007664,0.000148,0.007666,-0.003831,89.263623,0.007666,
870,1870,0.408611,-0.931673,0.999997,0.000220,-0.001962,0.006166,-0.000772,0.006238,-0.002035,-84.619662,0.006363,
580,990,3.150584,-7.799438,0.999998,0.000168,-0.002687,0.006218,-0.000013,0.006218,-0.002687,-89.919350,0.006237,
1660,810,-2.005155,-9.300694,0.999997,0.000233,-0.004343,0.008441,-0.000806,0.008492,-0.004394,-86.408482,0.008493,
1620,900,-2.119172,-8.589214,0.999997,0.000223,-0.003862,0.008370,-0.001003,0.008451,-0.003944,-85.342720,0.008458,
910,1870,0.339963,-0.900085,0.999997,0.000208,-0.001437,0.005926,-0.000725,0.005997,-0.001507,-84.433503,0.006239,
960,680,0.884205,-10.879522,0.999997,0.000214,-0.004835,0.008273,-0.001166,0.008376,-0.004938,-84.957659,0.008420,
1530,640,-0.946669,-11.107707,0.999998,0.000189,-0.004494,0.008002,0.000915,0.008068,-0.004560,85.834855,0.008091,
590,1670,1.812220,-2.925006,0.999997,0.000204,-0.003715,0.007403,0.000073,0.007403,-0.003716,89.624132,0.007403,
1740,310,-1.138703,-13.094848,0.999997,0.000212,-0.003473,0.007471,-0.000189,0.007475,-0.003477,-89.009012,0.007481,
1290,1280,-0.110035,-3.640385,0.999995,0.000314,-0.002320,0.003024,-0.002348,0.003909,-0.003205,-69.344650,0.004167,
1740,800,-2.307465,-9.274317,0.999996,0.000255,-0.003980,0.007825,-0.000751,0.007872,-0.004028,-86.374269,0.007873,
670,1240,2.552875,-6.031109,0.999996,0.000229,-0.003715,0.007475,-0.000648,0.007512,-0.003752,-86.696877,0.007512,
1780,1920,-0.645578,-0.798295,0.999996,0.000223,-0.002761,0.007326,0.001668,0.007595,-0.003030,80.850886,0.007646,
620,1300,2.577268,-5.663899,0.999996,0.000228,-0.003707,0.007378,-0.000375,0.007391,-0.003719,-88.065516,0.007391,
690,1120,2.739233,-6.896039,0.999998,0.000184,-0.003403,0.007260,-0.000591,0.007292,-0.003436,-86.838555,0.007296,
560,390,1.940877,-12.086650,0.999994,0.000000,-0.004063,0.007239,-0.000145,0.007241,-0.004065,-89.263513,0.007259,
1440,1880,-0.179244,-0.780806,0.999998,0.000178,-0.001059,0.005356,0.000363,0.005377,-0.001079,86.770211,0.005689,
830,1310,1.683901,-5.211523,0.999996,0.000238,-0.004732,0.008593,-0.000371,0.008604,-0.004742,-88.405603,0.008619,
710,1530,1.666510,-3.699708,0.999997,0.000219,-0.003929,0.007737,0.000106,0.007738,-0.003930,89.478085,0.007738,
660,1700,1.478103,-2.518408,0.999997,0.000209,-0.003743,0.007589,0.000014,0.007589,-0.003743,89.930141,0.007589,
800,460,1.189436,-12.139635,0.999998,0.000164,-0.003702,0.007574,-0.000243,0.007579,-0.003708,-88.764316,0.007580,
1300,440,-0.123913,-12.988719,0.999999,0.000143,-0.001900,0.005365,0.000283,0.005377,-0.001911,87.771421,0.005451,
930,50,0.055776,-14.968011,0.999999,0.000142,-0.000232,0.004958,0.000793,0.005077,-0.000350,81.500182,0.005671,
630,1740,1.490239,-2.292207,0.999997,0.000222,-0.003627,0.007533,-0.000009,0.007533,-0.003627,-89.954294,0.007534,
1860,2000,-0.369823,-0.342691,0.999996,0.000209,-0.002712,0.008055,0.002673,0.008682,-0.003339,76.795843,0.008759,
1720,1990,-0.195631,-0.267073,0.999998,0.000166,-0.000696,0.005901,0.001923,0.006421,-0.001216,74.879784,0.006821,
1400,620,-0.402699,-11.739793,0.999997,0.000214,-0.003382,0.006406,0.001756,0.006712,-0.003687,80.132073,0.006723,
1150,290,0.106278,-13.792936,0.999998,0.000156,-0.001383,0.005308,-0.000033,0.005308,-0.001383,-89.721377,0.005507,
1600,1820,-0.546024,-1.260494,0.999997,0.000229,-0.002386,0.006551,0.000549,0.006585,-0.002420,86.496883,0.006661,
1150,540,0.160766,-12.432243,0.999998,0.000184,-0.002218,0.005288,-0.000820,0.005376,-0.002306,-83.840389,0.005395,
1800,1150,-2.781737,-6.697626,0.999996,0.000237,-0.003435,0.007068,0.000467,0.007089,-0.003456,87.460868,0.007090,
1440,2000,-0.037167,-0.167621,0.999999,0.000141,-0.000211,0.004734,0.000446,0.004774,-0.000251,84.887753,0.005374,
1870,710,-2.562782,-9.734594,0.999998,0.000206,-0.003667,0.007429,-0.000173,0.007432,-0.003670,-89.105257,0.007432,
1740,550,-1.668735,-11.256692,0.999997,0.000221,-0.003981,0.007789,0.000099,0.007790,-0.003982,89.518704,0.007791,
1880,410,-1.896358,-11.991551,0.999997,0.000208,-0.003703,0.007394,0.000077,0.007395,-0.003704,89.600641,0.007395,
570,160,1.148684,-13.799752,0.999984,0.000484,-0.003463,0.007760,0.000471,0.007780,-0.003483,87.599708,0.007794,
1350,1250,-0.350773,-4.242028,0.999995,0.000275,-0.004267,0.005926,-0.003430,0.006973,-0.005313,-73.028749,0.007285,
1460,1270,-0.888034,-4.959160,0.999996,0.000248,-0.005740,0.009232,-0.001385,0.009359,-0.005867,-84.759955,0.009459,
1660,1520,-1.315519,-3.550084,0.999996,0.000222,-0.003989,0.007802,-0.000299,0.007810,-0.003997,-88.548953,0.007811,
710,1440,1.867967,-4.401981,0.999998,0.000165,-0.004021,0.007865,-0.000073,0.007865,-0.004022,-89.647423,0.007866,
1090,810,0.477625,-10.620859,0.999995,0.000275,-0.004999,0.007292,-0.003276,0.008110,-0.005818,-75.968166,0.008362,
1600,370,-0.817286,-12.937631,0.999997,0.000187,-0.003095,0.006997,0.000105,0.006998,-0.003096,89.402331,0.007014,
1190,1880,0.032137,-0.730030,0.999998,0.000153,-0.000725,0.004926,-0.000057,0.004927,-0.000726,-89.424129,0.005320,
1240,290,-0.011609,-13.809224,0.999998,0.000159,-0.001369,0.005225,0.000034,0.005225,-0.001369,89.702476,0.005419,
1600,1650,-0.873972,-2.430871,0.999997,0.000221,-0.003206,0.007132,-0.000195,0.007136,-0.003210,-88.920882,0.007148,
870,1890,0.363443,-0.813143,0.999997,0.000200,-0.001753,0.006089,-0.000873,0.006185,-0.001849,-83.727212,0.006350,
890,820,1.633789,-9.374801,0.999996,0.000268,-0.004964,0.009202,0.000614,0.009229,-0.004990,87.521895,0.009239,
820,990,2.390030,-7.849695,0.999997,0.000188,-0.003050,0.007718,0.000376,0.007731,-0.003063,88.002601,0.007786,
960,660,0.852651,-11.042551,0.999997,0.000215,-0.004644,0.008066,-0.001178,0.008175,-0.004752,-84.750666,0.008211,
1190,1570,0.078726,-2.355955,0.999998,0.000139,-0.001865,0.005206,0.000256,0.005215,-0.001874,87.928841,0.005283,
1800,1470,-1.983333,-4.273707,0.999997,0.000200,-0.003883,0.007739,0.000031,0.007739,-0.003883,89.849526,0.007739,
1740,780,-2.252845,-9.432134,0.999997,0.000243,-0.004047,0.007899,-0.000688,0.007938,-0.004087,-86.714960,0.007939,
1510,640,-0.858112,-11.176626,0.999997,0.000214,-0.004461,0.007842,0.001073,0.007934,-0.004554,85.053847,0.007963,
1160,1670,0.119726,-1.837178,0.999998,0.000165,-0.001733,0.005416,0.000161,0.005419,-0.001737,88.707296,0.005534,
1830,430,-1.755055,-11.963481,0.999997,0.000194,-0.003733,0.007566,0.000101,0.007567,-0.003733,89.486274,0.007567,
910,1850,0.381781,-1.021352,0.999997,0.000207,-0.001627,0.006075,-0.000676,0.006134,-0.001686,-85.022897,0.006338,
560,380,1.919098,-12.157037,0.999992,0.000000,-0.004280,0.007167,-0.000182,0.007170,-0.004283,-89.087590,0.007215,
800,440,1.149999,-12.292540,0.999998,0.000164,-0.003619,0.007482,-0.000225,0.007487,-0.003624,-88.841225,0.007488,
1870,1330,-2.600622,-5.498045,0.999996,0.000224,-0.003670,0.007350,0.000185,0.007353,-0.003673,89.038384,0.007353,
1090,240,0.161509,-14.025681,0.999997,0.000199,-0.001181,0.005382,0.000149,0.005386,-0.001185,88.703259,0.005660,
1400,600,-0.396506,-11.872516,0.999996,0.000224,-0.003259,0.006338,0.001598,0.006598,-0.003518,80.789398,0.006602,
1150,520,0.160528,-12.539629,0.999997,0.000194,-0.002187,0.005341,-0.000750,0.005415,-0.002261,-84.366668,0.005440,
630,1720,1.540348,-2.443016,0.999998,0.000207,-0.003632,0.007549,0.000046,0.007549,-0.003632,89.763084,0.007551,
1890,410,-1.932519,-11.967521,0.999998,0.000200,-0.003681,0.007339,0.000074,0.007340,-0.003681,89.613160,0.007340,
1850,2000,-0.337044,-0.314659,0.999997,0.000185,-0.003091,0.007627,0.002276,0.008091,-0.003554,78.495835,0.008110,
1750,620,-1.867655,-10.686205,0.999997,0.000176,-0.004035,0.007891,-0.000076,0.007891,-0.004036,-89.635855,0.007892,
1570,2000,-0.074118,-0.179634,0.999998,0.000161,-0.000434,0.005131,0.000963,0.005293,-0.000596,80.453225,0.005799,
1150,270,0.098453,-13.897658,0.999998,0.000160,-0.001280,0.005269,0.000001,0.005269,-0.001280,89.994410,0.005496,
1870,700,-2.536507,-9.809611,0.999998,0.000199,-0.003687,0.007484,-0.000166,0.007487,-0.003690,-89.148955,0.007487,
920,50,0.058705,-14.967154,0.999999,0.000157,-0.000214,0.004985,0.000851,0.005121,-0.000350,80.941655,0.005722,
1690,1140,-2.419383,-6.705358,0.999997,0.000223,-0.003572,0.007800,0.000847,0.007863,-0.003634,85.762810,0.007870,
1660,760,-1.851630,-9.726645,0.999996,0.000243,-0.004520,0.008485,-0.000542,0.008507,-0.004543,-87.617273,0.008514,
1720,1970,-0.278987,-0.387979,0.999997,0.000189,-0.001053,0.006083,0.001835,0.006527,-0.001497,76.392950,0.006838,
1350,1230,-0.417028,-4.357937,0.999995,0.000259,-0.004421,0.005850,-0.003302,0.006820,-0.005391,-73.628764,0.007193,
1170,1420,0.112520,-3.119945,0.999997,0.000189,-0.002084,0.004544,0.001170,0.004745,-0.002285,80.277175,0.004746,
710,1490,1.751561,-4.010330,0.999996,0.000225,-0.003996,0.007761,0.000049,0.007761,-0.003996,89.760522,0.007762,
660,1680,1.528798,-2.672377,0.999997,0.000227,-0.003727,0.007562,0.000030,0.007562,-0.003727,89.847193,0.007562,
850,1240,1.809345,-5.785073,0.999996,0.000220,-0.004687,0.008830,-0.000778,0.008875,-0.004731,-86.717096,0.008881,
1300,420,-0.119965,-13.096200,0.999998,0.000152,-0.001813,0.005387,0.000241,0.005395,-0.001821,88.082146,0.005489,
670,1120,2.806960,-6.906309,0.999998,0.000159,-0.003399,0.007132,-0.000557,0.007161,-0.003428,-86.981378,0.007163,
1440,1270,-0.771901,-4.832288,0.999997,0.000199,-0.005726,0.009012,-0.001854,0.009242,-0.005956,-82.937250,0.009369,
1780,1380,-2.123752,-4.932060,0.999998,0.000196,-0.004008,0.007793,0.000297,0.007801,-0.004015,88.560182,0.007802,
620,1280,2.632148,-5.810332,0.999996,0.000239,-0.003673,0.007379,-0.000409,0.007394,-0.003688,-87.884898,0.007394,
560,370,1.903284,-12.231096,0.999988,0.000000,-0.004398,0.007167,-0.000183,0.007170,-0.004401,-89.094922,0.007232,
1890,1640,-1.942490,-3.189627,0.999997,0.000222,-0.003635,0.007402,-0.000064,0.007403,-0.003636,-89.665919,0.007403,
1050,1500,0.421862,-3.002210,0.999997,0.000207,-0.003111,0.006337,0.001250,0.006499,-0.003274,82.586620,0.006499,
1740,290,-1.084863,-13.244861,0.999996,0.000212,-0.003407,0.007497,-0.000301,0.007506,-0.003416,-88.417672,0.007516,
1070,1360,0.401844,-3.834647,0.999996,0.000228,-0.003964,0.006685,0.002316,0.007167,-0.004446,78.244243,0.007236,
1090,790,0.423244,-10.768782,0.999995,0.000265,-0.004826,0.007044,-0.003204,0.007854,-0.005635,-75.817280,0.008098,
1010,1880,0.190991,-0.785226,0.999998,0.000193,-0.001022,0.005404,-0.000457,0.005437,-0.001055,-85.956197,0.005766,
1190,240,0.046252,-14.061992,0.999998,0.000189,-0.001077,0.005105,0.000028,0.005106,-0.001077,89.737288,0.005382,
910,1830,0.423416,-1.144186,0.999998,0.000182,-0.001765,0.006150,-0.000548,0.006187,-0.001803,-86.060299,0.006364,
880,380,0.779248,-12.899267,0.999997,0.000197,-0.003126,0.006965,-0.000187,0.006968,-0.003129,-88.941175,0.006980,
1830,390,-1.664611,-12.266333,0.999997,0.000216,-0.003725,0.007551,0.000073,0.007551,-0.003726,89.630735,0.007552,
800,350,0.975812,-12.957819,0.999998,0.000173,-0.003417,0.007233,-0.000036,0.007233,-0.003417,-89.805937,0.007236,
800,990,2.450791,-7.845318,0.999997,0.000202,-0.003098,0.007620,0.000342,0.007631,-0.003109,88.171980,0.007675,
980,710,0.838429,-10.710634,0.999998,0.000183,-0.005032,0.008464,-0.001360,0.008600,-0.005168,-84.301387,0.008658,
1220,290,0.016147,-13.807986,0.999999,0.000120,-0.001348,0.005238,-0.000053,0.005238,-0.001348,-89.538288,0.005440,
1230,520,0.003314,-12.604858,0.999998,0.000162,-0.001899,0.005003,-0.000039,0.005003,-0.001899,-89.679640,0.005052,
570,650,2.503060,-10.130971,0.999476,0.002610,-0.005429,0.007735,0.000475,0.007752,-0.005446,87.937585,0.007961,
1400,580,-0.388068,-11.999630,0.999997,0.000204,-0.003138,0.006201,0.001437,0.006417,-0.003354,81.447667,0.006420,
570,1880,1.218415,-1.437354,0.999968,0.000651,-0.003498,0.007662,-0.000345,0.007672,-0.003508,-88.230333,0.007682,
1000,680,0.695990,-11.048836,0.999996,0.000218,-0.004644,0.007862,-0.001607,0.008065,-0.004847,-82.793750,0.008120,
1150,250,0.090756,-14.003636,0.999998,0.000143,-0.001169,0.005192,0.000024,0.005192,-0.001169,89.780590,0.005448,
1840,2000,-0.304001,-0.287551,0.999997,0.000200,-0.003190,0.007330,0.002113,0.007738,-0.003598,79.058454,0.007745,
1480,1710,-0.449209,-1.805655,0.999997,0.000184,-0.002341,0.006204,-0.000171,0.006207,-0.002344,-88.851955,0.006269,
890,800,1.562854,-9.558516,0.999996,0.000247,-0.005059,0.009189,0.000426,0.009202,-0.005072,88.288178,0.009218,
1560,2000,-0.069878,-0.178723,0.999998,0.000158,-0.000326,0.005094,0.000937,0.005252,-0.000484,80.463211,0.005805,
1270,2020,-0.006261,-0.068603,0.999999,0.000000,-0.000079,0.004519,0.000036,0.004519,-0.000079,89.553751,0.005173,
1540,100,-0.149739,-14.709444,0.999998,0.000176,-0.000638,0.005339,-0.000853,0.005458,-0.000757,-82.035663,0.005914,
1750,600,-1.821617,-10.844746,0.999998,0.000183,-0.004038,0.007845,-0.000030,0.007845,-0.004038,-89.854953,0.007846,
1350,1210,-0.511423,-4.476989,0.999993,0.000330,-0.003922,0.005728,-0.003241,0.006715,-0.004909,-73.055269,0.006950,
660,1660,1.575885,-2.823051,0.999996,0.000229,-0.003726,0.007576,0.000062,0.007577,-0.003726,89.688151,0.007577,
1300,400,-0.117332,-13.202947,0.999998,0.000162,-0.001738,0.005394,0.000192,0.005400,-0.001743,88.457293,0.005511,
710,1470,1.797872,-4.165132,0.999997,0.000204,-0.004021,0.007794,-0.000001,0.007794,-0.004021,-89.996610,0.007795,
1310,50,-0.009944,-14.981916,0.999999,0.000131,-0.000138,0.004478,-0.000150,0.004483,-0.000143,-88.143677,0.005096,
630,50,0.246522,-14.883716,0.999998,0.000205,-0.002851,0.006917,0.002166,0.007375,-0.003309,78.042770,0.007388,
560,360,1.882184,-12.300960,0.999981,0.000000,-0.004500,0.007098,-0.000151,0.007100,-0.004502,-89.254551,0.007185,
1310,240,-0.083569,-14.054621,0.999999,0.000139,-0.001105,0.005170,-0.000064,0.005171,-0.001105,-89.419209,0.005446,
1150,670,0.150817,-11.791474,0.999998,0.000194,-0.002313,0.004661,-0.001705,0.005055,-0.002707,-76.973348,0.005059,
1820,1780,-1.327224,-1.953252,0.999997,0.000200,-0.003553,0.007546,0.000212,0.007550,-0.003557,88.904954,0.007554,
1470,1140,-1.543065,-6.331166,0.999995,0.000271,-0.004889,0.010608,0.000213,0.010611,-0.004892,89.214317,0.010622,
1830,2000,-0.269873,-0.260816,0.999997,0.000234,-0.002764,0.007144,0.002221,0.007619,-0.003239,77.924954,0.007647,
1230,1420,0.002389,-3.047998,0.999998,0.000141,-0.001691,0.004103,0.000023,0.004103,-0.001691,89.769900,0.004124,
630,1680,1.640942,-2.746332,0.999997,0.000218,-0.003712,0.007528,0.000053,0.007529,-0.003712,89.730509,0.007529,
1720,290,-1.020411,-13.284518,0.999998,0.000132,-0.003162,0.007429,-0.000417,0.007446,-0.003179,-87.749041,0.007472,
1700,1620,-1.278001,-2.878140,0.999997,0.000197,-0.003700,0.007578,-0.000175,0.007580,-0.003703,-89.111349,0.007581,
1740,760,-2.194975,-9.592404,0.999997,0.000218,-0.004088,0.007952,-0.000612,0.007983,-0.004119,-87.097837,0.007985,
1120,50,0.015652,-14.980152,0.999998,0.000164,-0.000144,0.004541,0.000208,0.004550,-0.000154,87.458284,0.005168,
880,360,0.746586,-13.040572,0.999997,0.000196,-0.003099,0.006881,-0.000148,0.006883,-0.003102,-89.151401,0.006894,
830,1290,1.743090,-5.382721,0.999996,0.000261,-0.004680,0.008661,-0.000497,0.008679,-0.004699,-87.869149,0.008689,
1500,1690,-0.525078,-1.968236,0.999997,0.000187,-0.002709,0.006425,-0.000303,0.006435,-0.002719,-88.099612,0.006461,
650,1120,2.874983,-6.918014,0.999997,0.000226,-0.003363,0.007009,-0.000499,0.007033,-0.003387,-87.253391,0.007035,
820,1670,0.979054,-2.376500,0.999998,0.000163,-0.003341,0.007306,0.000127,0.007307,-0.003342,89.315304,0.007316,
1860,1530,-2.075838,-3.954019,0.999997,0.000201,-0.003762,0.007613,-0.000045,0.007613,-0.003762,-89.770855,0.007614,
1190,1550,0.077969,-2.460509,0.999999,0.000142,-0.001894,0.005156,0.000268,0.005167,-0.001904,87.829702,0.005226,
600,650,2.382536,-10.202305,0.999996,0.000255,-0.003771,0.007544,0.000128,0.007546,-0.003772,89.351002,0.007546,
1660,1500,-1.355598,-3.706695,0.999996,0.000216,-0.004070,0.007858,-0.000274,0.007864,-0.004076,-88.686740,0.007866,
1720,1470,-1.664269,-4.089246,0.999996,0.000253,-0.004093,0.007875,-0.000046,0.007875,-0.004094,-89.778685,0.007877,
920,170,0.298070,-14.312632,0.999997,0.000211,-0.001268,0.005816,0.000750,0.005895,-0.001347,84.021335,0.006177,
960,710,0.937114,-10.625130,0.999997,0.000229,-0.005109,0.008618,-0.001085,0.008704,-0.005194,-85.506985,0.008758,
1270,640,-0.065620,-12.020832,0.999998,0.000179,-0.001872,0.004246,0.000712,0.004328,-0.001954,83.449707,0.004335,
1620,880,-2.060463,-8.757266,0.999997,0.000233,-0.004080,0.008531,-0.001058,0.008619,-0.004168,-85.239097,0.008620,
910,1810,0.460518,-1.269116,0.999997,0.000197,-0.001916,0.006331,-0.000485,0.006360,-0.001945,-86.644237,0.006518,
750,550,1.559768,-11.322719,0.999996,0.000244,-0.004024,0.007803,-0.000128,0.007805,-0.004025,-89.379306,0.007806,
570,150,1.101302,-13.874340,0.999994,0.000319,-0.003566,0.007613,0.000748,0.007663,-0.003616,86.186525,0.007667,
1050,1360,0.487614,-3.941551,0.999996,0.000214,-0.004301,0.007132,0.002177,0.007532,-0.004702,79.575869,0.007609,
920,1170,1.744417,-6.282968,0.999997,0.000241,-0.004617,0.009416,-0.000976,0.009483,-0.004685,-86.041549,0.009483,
770,2010,0.106555,-0.147015,0.999998,0.000157,-0.000507,0.005523,-0.001597,0.005920,-0.000904,-76.042478,0.006378,
620,1260,2.685923,-5.960042,0.999996,0.000222,-0.003606,0.007260,-0.000416,0.007275,-0.003622,-87.810774,0.007275,
1590,1820,-0.521246,-1.247950,0.999997,0.000224,-0.002417,0.006486,0.000503,0.006514,-0.002445,86.776092,0.006581,
1780,1360,-2.177631,-5.087541,0.999997,0.000197,-0.004014,0.007750,0.000379,0.007762,-0.004026,88.157606,0.007764,
1350,1190,-0.654985,-4.581485,0.999993,0.000312,-0.002948,0.004840,-0.003003,0.005864,-0.003971,-71.181605,0.005985,
1400,560,-0.381027,-12.125031,0.999997,0.000213,-0.002982,0.006180,0.001248,0.006347,-0.003149,82.380842,0.006347,
740,290,1.030868,-13.278967,0.999998,0.000184,-0.003184,0.007462,0.000409,0.007477,-0.003199,87.801366,0.007503,
1280,30,-0.004500,-15.069896,0.999999,0.000000,0.000047,0.004432,-0.000048,0.004433,0.000046,-89.377360,0.005145,
840,990,2.330756,-7.854450,0.999997,0.000226,-0.002997,0.007824,0.000428,0.007841,-0.003014,87.738152,0.007911,
1820,1760,-1.384913,-2.105169,0.999998,0.000197,-0.003594,0.007558,0.000136,0.007559,-0.003596,89.301227,0.007562,
1050,1230,0.750965,-4.995598,0.999995,0.000259,-0.005795,0.009014,0.002204,0.009335,-0.006116,81.712606,0.009483,
1440,1860,-0.201147,-0.889629,0.999998,0.000176,-0.001208,0.005461,0.000349,0.005479,-0.001226,87.009620,0.005751,
1150,690,0.147161,-11.699835,0.999997,0.000209,-0.002391,0.004499,-0.001937,0.005007,-0.002899,-75.323633,0.005027,
790,180,0.556294,-14.146125,0.999998,0.000181,-0.002482,0.006701,0.001024,0.006814,-0.002595,83.711753,0.006879,
1130,50,0.013505,-14.980465,0.999999,0.000158,-0.000182,0.004532,0.000177,0.004539,-0.000189,87.848868,0.005135,
710,1450,1.844320,-4.322717,0.999997,0.000178,-0.004019,0.007859,-0.000043,0.007859,-0.004019,-89.792184,0.007860,
590,1120,3.073401,-6.966878,0.999999,0.000151,-0.003154,0.006574,-0.000262,0.006581,-0.003161,-88.457658,0.006583,
1460,710,-0.721163,-10.823092,0.999997,0.000249,-0.004978,0.008184,0.001685,0.008396,-0.005191,82.819720,0.008474,
1740,740,-2.139523,-9.750888,0.999998,0.000196,-0.004126,0.007960,-0.000549,0.007985,-0.004151,-87.404537,0.007987,
1710,1640,-1.273264,-2.750003,0.999998,0.000185,-0.003654,0.007569,-0.000141,0.007571,-0.003656,-89.278646,0.007572,
1370,460,-0.273358,-12.791292,0.999998,0.000181,-0.002310,0.005804,0.000655,0.005857,-0.002363,85.411463,0.005893,
880,340,0.712592,-13.174982,0.999997,0.000192,-0.003018,0.006890,-0.000060,0.006890,-0.003019,-89.650396,0.006908,
1050,1740,0.281978,-1.543374,0.999998,0.000201,-0.001975,0.005822,0.000144,0.005825,-0.001978,88.944511,0.005924,
670,1560,1.755483,-3.563279,0.999997,0.000219,-0.003874,0.007673,0.000128,0.007674,-0.003875,89.364334,0.007674,
940,170,0.272474,-14.323218,0.999997,0.000195,-0.001337,0.005705,0.000646,0.005764,-0.001396,84.800533,0.006014,
1760,1270,-2.345635,-5.754292,0.999997,0.000213,-0.003924,0.007697,0.000673,0.007736,-0.003963,86.694606,0.007737,
1190,1530,0.079100,-2.562056,0.999998,0.000148,-0.001901,0.005062,0.000300,0.005075,-0.001914,87.537813,0.005126,
830,1270,1.805072,-5.558646,0.999997,0.000234,-0.004642,0.008691,-0.000633,0.008721,-0.004672,-87.289291,0.008728,
1250,640,-0.031779,-12.038746,0.999999,0.000141,-0.001704,0.004067,0.000420,0.004097,-0.001734,85.859636,0.004113,
1540,80,-0.113623,-14.813352,0.999998,0.000150,-0.000476,0.005206,-0.000882,0.005340,-0.000610,-81.371537,0.005846,
1810,180,-0.944143,-13.924410,0.999998,0.000202,-0.003225,0.007719,-0.001083,0.007825,-0.003332,-84.405008,0.007854,
750,530,1.516946,-11.479883,0.999996,0.000223,-0.003957,0.007781,-0.000156,0.007783,-0.003960,-89.236838,0.007783,
1660,1460,-1.435020,-4.021794,0.999995,0.000234,-0.004228,0.007952,-0.000185,0.007955,-0.004231,-89.130216,0.007960,
1710,1020,-2.616087,-7.617161,0.999997,0.000198,-0.003164,0.007449,-0.000103,0.007450,-0.003165,-89.445023,0.007478,
1620,1080,-2.303063,-7.147081,0.999996,0.000230,-0.003069,0.007927,0.000650,0.007965,-0.003108,86.630431,0.008029,
1350,870,-0.696227,-10.518307,0.999995,0.000279,-0.002675,0.004735,0.003047,0.005827,-0.003767,70.282979,0.005910,
1700,1470,-1.583076,-4.042496,0.999996,0.000237,-0.004164,0.007899,-0.000078,0.007900,-0.004165,-89.630470,0.007903,
1400,540,-0.377665,-12.246679,0.999996,0.000218,-0.002808,0.006136,0.001085,0.006266,-0.002938,83.182040,0.006270,
990,560,0.625390,-11.902856,0.999997,0.000223,-0.003665,0.007015,-0.001157,0.007139,-0.003789,-83.889634,0.007143,
910,1360,1.159780,-4.552391,0.999997,0.000226,-0.004970,0.008616,0.000567,0.008639,-0.004994,87.613300,0.008674,
1780,1340,-2.231418,-5.241671,0.999997,0.000199,-0.003991,0.007714,0.000461,0.007732,-0.004009,87.750018,0.007734,
920,280,0.504606,-13.639484,0.999997,0.000212,-0.002108,0.006422,0.000296,0.006432,-0.002119,88.014647,0.006556,
1590,1800,-0.565231,-1.378128,0.999996,0.000229,-0.002553,0.006549,0.000378,0.006565,-0.002568,87.627973,0.006616,
620,1240,2.733006,-6.100334,0.999997,0.000191,-0.003532,0.007059,-0.000414,0.007075,-0.003548,-87.763546,0.007075,
1820,1740,-1.441576,-2.256642,0.999997,0.000215,-0.003634,0.007553,0.000074,0.007553,-0.003634,89.620384,0.007555,
1530,1140,-1.814397,-6.537944,0.999998,0.000199,-0.004202,0.009456,0.001052,0.009536,-0.004283,85.622433,0.009553,
860,990,2.271413,-7.859037,0.999998,0.000195,-0.002963,0.007961,0.000456,0.007980,-0.002982,87.613290,0.008065,
630,500,1.919246,-11.422362,0.999997,0.000213,-0.003791,0.007669,-0.000080,0.007670,-0.003791,-89.602416,0.007670,
770,200,0.673074,-13.980445,0.999997,0.000201,-0.002601,0.007048,0.001031,0.007157,-0.002710,83.967863,0.007227,
1740,720,-2.082981,-9.911531,0.999997,0.000197,-0.004153,0.007902,-0.000470,0.007920,-0.004171,-87.772762,0.007924,
1440,1840,-0.228528,-0.998930,0.999998,0.000179,-0.001334,0.005476,0.000270,0.005487,-0.001345,87.730567,0.005719,
1150,710,0.147915,-11.609516,0.999997,0.000206,-0.002468,0.004375,-0.002169,0.005004,-0.003097,-73.816049,0.005051,
960,640,0.826585,-11.201344,0.999997,0.000217,-0.004434,0.007827,-0.001168,0.007937,-0.004545,-84.607105,0.007965,
710,1430,1.891482,-4.482691,0.999997,0.000185,-0.004027,0.007880,-0.000112,0.007881,-0.004028,-89.461079,0.007882,
1000,1100,1.719418,-6.739485,0.999995,0.000266,-0.004243,0.011169,-0.000028,0.011170,-0.004243,-89.897065,0.011276,
1090,1490,0.308588,-2.954844,0.999997,0.000197,-0.002736,0.005787,0.001259,0.005969,-0.002918,81.772012,0.005969,
1140,50,0.011365,-14.981194,0.999999,0.000159,-0.000199,0.004532,0.000158,0.004537,-0.000204,88.089328,0.005126,
830,1240,1.900843,-5.817832,0.999997,0.000182,-0.004519,0.008668,-0.000831,0.008720,-0.004571,-86.407786,0.008723,
620,50,0.279292,-14.855990,0.999997,0.000204,-0.003007,0.007227,0.002271,0.007708,-0.003489,78.033676,0.007720,
880,320,0.676468,-13.314844,0.999997,0.000190,-0.002881,0.006873,0.000055,0.006873,-0.002881,89.678444,0.006903,
1740,1710,-1.226254,-2.290110,0.999997,0.000199,-0.003593,0.007515,0.000046,0.007515,-0.003593,89.763202,0.007518,
650,1560,1.831960,-3.611558,0.999997,0.000211,-0.003798,0.007668,0.000118,0.007669,-0.003800,89.410730,0.007669,
800,420,1.116408,-12.439409,0.999997,0.000199,-0.003554,0.007414,-0.000205,0.007417,-0.003558,-88.929880,0.007419,
1190,420,0.073381,-13.105957,0.999999,0.000173,-0.001759,0.005298,-0.000160,0.005302,-0.001762,-88.702980,0.005400,
1740,1270,-2.265908,-5.727933,0.999998,0.000220,-0.004052,0.007841,0.000706,0.007883,-0.004094,86.613424,0.007885,
830,1250,1.867788,-5.731132,0.999997,0.000213,-0.004558,0.008671,-0.000781,0.008716,-0.004604,-86.633015,0.008721,
1710,1620,-1.315400,-2.902545,0.999996,0.000225,-0.003707,0.007585,-0.000167,0.007588,-0.003710,-89.154660,0.007588,
1190,1510,0.078101,-2.661659,0.999998,0.000183,-0.001911,0.004977,0.000362,0.004996,-0.001930,86.996091,0.005039,
580,1120,3.105019,-6.977765,0.999999,0.000138,-0.003037,0.006449,-0.000215,0.006454,-0.003042,-88.702160,0.006458,
1460,690,-0.694753,-10.984727,0.999997,0.000243,-0.004746,0.007927,0.001669,0.008144,-0.004962,82.621069,0.008208,
1310,100,-0.028383,-14.750906,0.999998,0.000196,-0.000360,0.004711,-0.000156,0.004716,-0.000365,-88.236453,0.005247,
1320,1180,-0.675608,-4.196927,0.999997,0.000000,-0.002766,0.002697,-0.001666,0.003165,-0.003234,-74.308407,0.003695,
1540,280,-0.498485,-13.642808,0.999997,0.000203,-0.002102,0.006407,-0.000296,0.006417,-0.002112,-88.008081,0.006541,
800,290,0.839642,-13.390851,0.999998,0.000177,-0.003116,0.007155,0.000300,0.007163,-0.003125,88.328265,0.007183,
1820,1720,-1.493865,-2.409506,0.999996,0.000229,-0.003711,0.007552,0.000003,0.007552,-0.003711,89.985041,0.007552,
1150,580,0.159990,-12.224598,0.999998,0.000205,-0.002198,0.005122,-0.001004,0.005257,-0.002333,-82.328896,0.005268,
1660,1440,-1.477780,-4.184728,0.999996,0.000235,-0.004321,0.008066,-0.000129,0.008067,-0.004323,-89.403802,0.008074,
1350,850,-0.538980,-10.612338,0.999992,0.000352,-0.003701,0.005547,0.003217,0.006556,-0.004710,72.584215,0.006761,
1550,2000,-0.068524,-0.178864,0.999998,0.000155,-0.000244,0.005041,0.000903,0.005192,-0.000394,80.564712,0.005781,
1810,160,-0.850458,-14.081734,0.999998,0.000214,-0.003095,0.007786,-0.001339,0.007948,-0.003257,-83.083911,0.007991,
620,1220,2.780926,-6.243174,0.999997,0.000188,-0.003501,0.007060,-0.000454,0.007080,-0.003521,-87.545216,0.007080,
1780,1320,-2.287250,-5.397411,0.999996,0.000215,-0.003942,0.007751,0.000508,0.007773,-0.003964,87.518780,0.007773,
1390,240,-0.180271,-14.016691,0.999998,0.000160,-0.001246,0.005434,-0.000157,0.005437,-0.001250,-88.655232,0.005696,
1300,380,-0.113952,-13.309721,0.999998,0.000150,-0.001670,0.005426,0.000126,0.005428,-0.001672,88.979987,0.005560,
1690,1900,-0.511302,-0.823893,0.999997,0.000194,-0.002178,0.006712,0.001369,0.006918,-0.002384,81.440604,0.007029,
1250,350,-0.030421,-13.489565,0.999998,0.000152,-0.001576,0.005293,0.000122,0.005295,-0.001578,88.982498,0.005437,
1700,1450,-1.626179,-4.201344,0.999997,0.000214,-0.004201,0.007959,-0.000054,0.007959,-0.004201,-89.745050,0.007963,
1150,50,0.009203,-14.982211,0.999999,0.000150,-0.000150,0.004519,0.000153,0.004524,-0.000155,88.120808,0.005137,
770,2000,0.139117,-0.202337,0.999998,0.000151,-0.000641,0.005623,-0.001646,0.006030,-0.001047,-76.137491,0.006443,
1210,1820,0.023531,-1.028772,0.999998,0.000164,-0.001087,0.005082,0.000018,0.005082,-0.001087,89.836611,0.005352,
710,1410,1.940099,-4.640450,0.999997,0.000190,-0.004070,0.007893,-0.000189,0.007896,-0.004072,-89.094820,0.007897,
1740,700,-2.029777,-10.069255,0.999997,0.000210,-0.004150,0.007931,-0.000369,0.007943,-0.004161,-88.252769,0.007946,
1770,1140,-2.696876,-6.748001,0.999997,0.000226,-0.003442,0.007237,0.000559,0.007266,-0.003471,87.009267,0.007269,
670,580,1.944237,-10.900148,0.999998,0.000200,-0.003875,0.007720,0.000022,0.007720,-0.003875,89.893318,0.007720,
980,970,1.859453,-8.154626,0.999997,0.000187,-0.003569,0.010217,0.000520,0.010237,-0.003588,87.842327,0.010388,
770,180,0.604957,-14.122005,0.999997,0.000188,-0.002408,0.006823,0.001156,0.006966,-0.002550,82.969015,0.007049,
750,510,1.477296,-11.635170,0.999997,0.000216,-0.003910,0.007735,-0.000190,0.007738,-0.003913,-89.065534,0.007739,
890,1360,1.256330,-4.616683,0.999997,0.000228,-0.004902,0.008618,0.000363,0.008627,-0.004912,88.463978,0.008655,
1440,1820,-0.249575,-1.109466,0.999998,0.000179,-0.001481,0.005679,0.000217,0.005686,-0.001488,88.268120,0.005897,
1890,1710,-1.775250,-2.674898,0.999997,0.000184,-0.003748,0.007319,-0.000005,0.007319,-0.003748,-89.976554,0.007320,
1150,730,0.150948,-11.518998,0.999997,0.000217,-0.002565,0.004271,-0.002455,0.005062,-0.003356,-72.154224,0.005150,
880,300,0.637506,-13.452903,0.999998,0.000184,-0.002775,0.006701,0.000152,0.006703,-0.002778,89.079592,0.006736,
1170,420,0.109426,-13.098596,0.999998,0.000180,-0.001780,0.005354,-0.000166,0.005358,-0.001784,-88.665925,0.005457,
830,1230,1.934461,-5.906609,0.999996,0.000208,-0.004439,0.008638,-0.000875,0.008696,-0.004498,-86.189635,0.008698,
920,300,0.542050,-13.507710,0.999997,0.000211,-0.002256,0.006470,0.000189,0.006474,-0.002260,88.761083,0.006572,
960,1050,2.010598,-7.346968,0.999996,0.000239,-0.002930,0.009709,-0.000317,0.009717,-0.002938,-88.562456,0.009967,
1540,1530,-0.831884,-3.155168,0.999997,0.000230,-0.003690,0.007325,-0.000716,0.007371,-0.003736,-86.295945,0.007371,
1860,1270,-2.720176,-5.917465,0.999997,0.000199,-0.003586,0.007231,0.000332,0.007242,-0.003596,88.245948,0.007242,
990,540,0.608095,-12.043537,0.999997,0.000226,-0.003487,0.006885,-0.001019,0.006984,-0.003586,-84.439941,0.006985,
570,1120,3.131884,-6.990971,0.999994,0.000310,-0.002969,0.006314,-0.000197,0.006318,-0.002973,-88.785190,0.006322,
1400,520,-0.372577,-12.368012,0.999997,0.000202,-0.002675,0.006082,0.000966,0.006187,-0.002780,83.776657,0.006198,
1690,1640,-1.201396,-2.703254,0.999998,0.000189,-0.003580,0.007521,-0.000129,0.007523,-0.003582,-89.336052,0.007526,
680,650,2.073292,-10.378160,0.999998,0.000191,-0.003949,0.007793,0.000200,0.007796,-0.003952,89.025578,0.007796,
1620,1320,-1.591567,-5.095339,0.999995,0.000275,-0.004786,0.008657,0.000234,0.008661,-0.004790,89.003572,0.008677,
1150,560,0.161120,-12.327319,0.999998,0.000175,-0.002206,0.005177,-0.000906,0.005287,-0.002316,-83.108936,0.005300,
1190,1490,0.077983,-2.759900,0.999998,0.000188,-0.001918,0.004877,0.000408,0.004902,-0.001943,86.578674,0.004937,
1320,1170,-0.774763,-4.220876,0.999993,0.000000,-0.002481,0.002433,-0.002013,0.003153,-0.003200,-70.337128,0.003668,
1690,1880,-0.582217,-0.960298,0.999996,0.000216,-0.002364,0.006765,0.001169,0.006912,-0.002511,82.816931,0.006998,
1350,830,-0.441938,-10.735598,0.999995,0.000285,-0.004339,0.005873,0.003308,0.006851,-0.005317,73.532259,0.007191,
1540,520,-0.827688,-11.999698,0.999997,0.000218,-0.003657,0.007287,0.000706,0.007333,-0.003703,86.325547,0.007333,
1560,410,-0.754000,-12.737406,0.999996,0.000209,-0.003177,0.007029,0.000348,0.007040,-0.003189,88.049828,0.007051,
1780,1300,-2.340812,-5.554709,0.999996,0.000230,-0.003902,0.007722,0.000553,0.007749,-0.003928,87.281441,0.007749,
1210,50,0.003242,-14.982587,0.999999,0.000131,-0.000153,0.004507,0.000029,0.004508,-0.000153,89.647173,0.005119,
710,1390,1.990368,-4.797593,0.999997,0.000211,-0.004082,0.007865,-0.000264,0.007871,-0.004088,-88.732620,0.007873,
1660,1420,-1.523825,-4.348058,0.999996,0.000230,-0.004395,0.008149,-0.000069,0.008149,-0.004395,-89.686240,0.008157,
1440,1800,-0.274308,-1.226768,0.999998,0.000157,-0.001620,0.005705,0.000139,0.005708,-0.001623,88.910683,0.005882,
650,580,2.021202,-10.854732,0.999998,0.000192,-0.003822,0.007695,0.000037,0.007695,-0.003822,89.818080,0.007695,
1730,280,-1.023940,-13.340564,0.999997,0.000175,-0.003209,0.007458,-0.000435,0.007476,-0.003226,-87.669864,0.007499,
970,1500,0.693367,-3.244141,0.999997,0.000190,-0.003701,0.007171,0.001036,0.007269,-0.003799,84.605591,0.007271,
1880,1710,-1.737789,-2.648108,0.999998,0.000154,-0.003730,0.007362,-0.000056,0.007363,-0.003730,-89.710292,0.007363,
920,320,0.570626,-13.379687,0.999997,0.000215,-0.002377,0.006570,0.000071,0.006570,-0.002378,89.547708,0.006653,
1290,100,-0.021666,-14.751859,0.999998,0.000182,-0.000294,0.004684,-0.000119,0.004687,-0.000297,-88.634218,0.005249,
750,490,1.437415,-11.790548,0.999997,0.000213,-0.003875,0.007678,-0.000197,0.007681,-0.003879,-89.025252,0.007681,
1810,140,-0.752253,-14.237460,0.999998,0.000226,-0.002917,0.007712,-0.001638,0.007959,-0.003164,-81.437803,0.008014,
1820,1700,-1.543165,-2.563802,0.999996,0.000233,-0.003736,0.007553,-0.000021,0.007553,-0.003736,-89.893668,0.007553,
880,280,0.599572,-13.584553,0.999997,0.000202,-0.002652,0.006628,0.000270,0.006636,-0.002660,88.334298,0.006679,
980,1050,1.949569,-7.329931,0.999995,0.000292,-0.003177,0.010595,-0.000195,0.010598,-0.003179,-89.187660,0.010876,
1290,740,-0.096943,-11.590047,0.999998,0.000200,-0.002115,0.003445,0.002020,0.004102,-0.002772,71.999927,0.004185,
650,1360,2.308096,-5.151441,0.999997,0.000219,-0.003868,0.007604,-0.000347,0.007614,-0.003879,-88.269787,0.007615,
830,1210,1.998144,-6.079527,0.999996,0.000221,-0.004302,0.008490,-0.000944,0.008559,-0.004371,-85.804014,0.008560,
800,1170,2.241469,-6.444731,0.999996,0.000248,-0.003811,0.008089,-0.000945,0.008163,-0.003886,-85.487498,0.008166,
620,1200,2.828700,-6.385735,0.999996,0.000235,-0.003482,0.007156,-0.000494,0.007179,-0.003505,-87.348929,0.007180,
1840,1090,-3.000052,-7.140093,0.999997,0.000203,-0.003172,0.006630,0.000125,0.006631,-0.003174,89.271684,0.006633,
660,1640,1.620379,-2.975937,0.999996,0.000232,-0.003742,0.007585,0.000098,0.007586,-0.003743,89.504829,0.007586,
780,1670,1.116701,-2.464437,0.999997,0.000196,-0.003480,0.007427,0.000073,0.007427,-0.003481,89.614417,0.007432,
1670,960,-2.433969,-8.076256,0.999996,0.000212,-0.003278,0.007708,-0.000695,0.007752,-0.003321,-86.392713,0.007778,
1150,1530,0.160383,-2.607430,0.999997,0.000185,-0.002175,0.005337,0.000777,0.005417,-0.002254,84.155931,0.005442,
1540,410,-0.690311,-12.780977,0.999995,0.000251,-0.003033,0.006872,0.000363,0.006885,-0.003047,87.902004,0.006901,
1350,810,-0.362624,-10.847029,0.999995,0.000283,-0.004297,0.005922,0.003374,0.006935,-0.005311,73.281343,0.007254,
1190,1910,0.024324,-0.582551,0.999998,0.000159,-0.000571,0.004846,-0.000073,0.004847,-0.000572,-89.224687,0.005297,
1520,1530,-0.762235,-3.105084,0.999998,0.000186,-0.003561,0.007157,-0.000793,0.007215,-0.003619,-85.793465,0.007215,
620,650,2.306161,-10.247138,0.999996,0.000225,-0.003817,0.007611,0.000168,0.007613,-0.003819,89.156817,0.007613,
1870,1710,-1.700978,-2.620382,0.999997,0.000191,-0.003694,0.007405,-0.000110,0.007406,-0.003695,-89.434533,0.007406,
1210,520,0.040682,-12.594538,0.999998,0.000143,-0.001903,0.005044,-0.000277,0.005055,-0.001914,-87.718740,0.005104,
1290,50,-0.007755,-14.982070,0.999999,0.000139,-0.000086,0.004482,-0.000109,0.004484,-0.000088,-88.637796,0.005128,
710,1370,2.043288,-4.954671,0.999997,0.000214,-0.004069,0.007888,-0.000336,0.007898,-0.004078,-88.392672,0.007899,
1000,1120,1.617999,-6.513017,0.999994,0.000281,-0.004550,0.010857,-0.000046,0.010858,-0.004550,-89.828021,0.010905,
1620,340,-0.819672,-13.112106,0.999998,0.000166,-0.002857,0.007129,-0.000118,0.007130,-0.002859,-89.322688,0.007176,
1270,360,-0.061998,-13.429523,0.999999,0.000136,-0.001596,0.005326,0.000112,0.005328,-0.001598,89.071433,0.005468,
1530,1490,-0.844474,-3.428983,0.999997,0.000223,-0.003993,0.007565,-0.000902,0.007635,-0.004063,-85.566208,0.007640,
1840,1270,-2.647100,-5.880060,0.999997,0.000220,-0.003644,0.007368,0.000417,0.007384,-0.003660,87.835762,0.007384,
1490,2000,-0.047056,-0.171066,0.999998,0.000168,-0.000326,0.004889,0.000618,0.004961,-0.000399,83.331239,0.005513,
1320,880,-0.726228,-10.906099,0.999996,0.000000,-0.002268,0.002580,0.001782,0.003165,-0.002853,71.840269,0.003488,
1710,280,-0.961592,-13.377358,0.999998,0.000146,-0.003084,0.007370,-0.000464,0.007391,-0.003105,-87.464845,0.007422,
1110,1500,0.254074,-2.843898,0.999998,0.000169,-0.002566,0.005587,0.001149,0.005746,-0.002725,82.132002,0.005749,
630,1940,0.686019,-0.747197,0.999998,0.000160,-0.003430,0.007945,-0.001327,0.008098,-0.003583,-83.431943,0.008116,
1660,1400,-1.569167,-4.511963,0.999996,0.000229,-0.004459,0.008241,0.000012,0.008241,-0.004459,89.945868,0.008250,
1790,140,-0.696695,-14.268026,0.999997,0.000231,-0.002738,0.007462,-0.001712,0.007742,-0.003018,-80.723418,0.007804,
630,520,1.963699,-11.267488,0.999998,0.000218,-0.003786,0.007669,-0.000090,0.007670,-0.003787,-89.549213,0.007670,
1250,330,-0.029026,-13.595008,0.999998,0.000171,-0.001498,0.005323,0.000080,0.005324,-0.001499,89.326936,0.005490,
1370,240,-0.157849,-14.026422,0.999998,0.000162,-0.001180,0.005369,-0.000140,0.005372,-0.001183,-88.774231,0.005645,
1300,360,-0.109202,-13.419941,0.999998,0.000162,-0.001584,0.005425,0.000091,0.005426,-0.001585,89.253035,0.005580,
1190,1820,0.044433,-1.031809,0.999999,0.000100,-0.001026,0.005102,-0.000025,0.005102,-0.001027,-89.770103,0.005397,
880,260,0.557082,-13.718232,0.999998,0.000186,-0.002533,0.006522,0.000345,0.006535,-0.002546,87.818240,0.006588,
1440,1780,-0.293314,-1.337915,0.999998,0.000183,-0.001753,0.005812,0.000088,0.005813,-0.001754,89.335360,0.005963,
1780,1280,-2.395108,-5.706754,0.999997,0.000222,-0.003848,0.007634,0.000612,0.007666,-0.003880,86.959293,0.007667,
1770,1940,-0.517936,-0.636852,0.999995,0.000232,-0.002585,0.007258,0.001855,0.007596,-0.002923,79.672617,0.007663,
1400,500,-0.365240,-12.486604,0.999997,0.000188,-0.002614,0.006052,0.000872,0.006139,-0.002701,84.314017,0.006154,
830,1190,2.062430,-6.246323,0.999996,0.000245,-0.004138,0.008489,-0.001016,0.008570,-0.004219,-85.427704,0.008570,
1820,1680,-1.591643,-2.712489,0.999997,0.000209,-0.003733,0.007585,-0.000056,0.007585,-0.003733,-89.718289,0.007586,
620,1180,2.875516,-6.529761,0.999997,0.000231,-0.003406,0.006988,-0.000396,0.007003,-0.003421,-87.823041,0.007004,
1630,1140,-2.200436,-6.665744,0.999996,0.000226,-0.003659,0.008262,0.001034,0.008351,-0.003748,85.077334,0.008365,
1270,740,-0.059543,-11.661287,0.999998,0.000161,-0.001736,0.002866,0.001419,0.003268,-0.002138,74.170374,0.003320,
630,1360,2.383931,-5.191824,0.999997,0.000235,-0.003784,0.007592,-0.000270,0.007599,-0.003791,-88.641077,0.007599,
1640,1710,-0.887062,-2.078104,0.999996,0.000216,-0.003118,0.007141,0.000073,0.007142,-0.003119,89.593839,0.007161,
1350,790,-0.321095,-10.969069,0.999996,0.000249,-0.004187,0.005908,0.003383,0.006937,-0.005216,73.082944,0.007224,
910,1560,0.843643,-2.971537,0.999997,0.000203,-0.003549,0.007223,0.000580,0.007254,-0.003580,86.927285,0.007254,
1590,220,-0.487100,-13.969938,0.999997,0.000186,-0.002273,0.006332,-0.000572,0.006370,-0.002311,-86.214481,0.006449,
1110,50,0.016602,-14.980454,0.999998,0.000183,-0.000129,0.004554,0.000240,0.004567,-0.000141,87.072845,0.005193,
1150,1510,0.161827,-2.712758,0.999998,0.000178,-0.002185,0.005253,0.000855,0.005350,-0.002282,83.529776,0.005369,
710,1350,2.096036,-5.113766,0.999997,0.000208,-0.004069,0.007866,-0.000405,0.007879,-0.004083,-88.060095,0.007881,
1530,1450,-0.896292,-3.736926,0.999997,0.000211,-0.004208,0.007750,-0.000897,0.007817,-0.004275,-85.734603,0.007829,
1890,1270,-2.826864,-5.979967,0.999997,0.000226,-0.003493,0.007023,0.000148,0.007025,-0.003495,89.193457,0.007025,
1190,520,0.079381,-12.584116,0.999999,0.000125,-0.001892,0.005106,-0.000317,0.005121,-0.001906,-87.407601,0.005176,
810,1120,2.331345,-6.842283,0.999997,0.000232,-0.003436,0.007876,-0.000784,0.007930,-0.003490,-86.053838,0.007949,
1190,1930,0.022037,-0.488063,0.999998,0.000170,-0.000454,0.004790,-0.000067,0.004791,-0.000455,-89.267315,0.005288,
760,1670,1.186720,-2.509919,0.999998,0.000134,-0.003520,0.007499,0.000020,0.007499,-0.003520,89.896960,0.007504,
750,470,1.396005,-11.944037,0.999997,0.000219,-0.003828,0.007622,-0.000194,0.007625,-0.003831,-89.031558,0.007625,
1270,100,-0.013749,-14.752913,0.999999,0.000151,-0.000352,0.004666,-0.000082,0.004667,-0.000354,-89.066388,0.005197,
1530,960,-1.986662,-8.163203,0.999997,0.000213,-0.003337,0.009091,-0.000888,0.009154,-0.003400,-85.932556,0.009254,
1320,30,-0.004101,-15.070904,0.999998,0.000000,-0.000100,0.004423,-0.000157,0.004428,-0.000105,-88.011342,0.005054,
780,1050,2.521034,-7.389983,0.999997,0.000209,-0.003107,0.007527,-0.000264,0.007534,-0.003113,-88.581305,0.007572,
920,340,0.601488,-13.244264,0.999997,0.000219,-0.002442,0.006700,0.000047,0.006701,-0.002442,89.707771,0.006782,
630,280,1.389502,-13.092351,0.999997,0.000183,-0.003647,0.007525,0.000101,0.007526,-0.003648,89.481640,0.007527,
1250,800,-0.041627,-11.586548,0.999997,0.000227,-0.002391,0.001659,0.000799,0.001811,-0.002543,79.237973,0.002618,
1660,1380,-1.620278,-4.678891,0.999996,0.000237,-0.004518,0.008285,0.000099,0.008286,-0.004519,89.557460,0.008298,
880,240,0.515869,-13.846782,0.999998,0.000183,-0.002381,0.006484,0.000474,0.006510,-0.002406,86.949603,0.006583,
1360,1160,-0.934228,-4.881448,0.999993,0.000304,-0.002165,0.005773,-0.004129,0.007531,-0.003923,-66.933600,0.007533,
1440,1760,-0.318721,-1.458820,0.999997,0.000210,-0.001866,0.005845,0.000006,0.005845,-0.001866,89.958750,0.005971,
630,1660,1.686745,-2.897182,0.999997,0.000185,-0.003744,0.007539,0.000100,0.007540,-0.003745,89.492803,0.007540,
1700,1640,-1.238244,-2.726758,0.999998,0.000189,-0.003623,0.007548,-0.000139,0.007550,-0.003625,-89.286856,0.007552,
1250,310,-0.025430,-13.701651,0.999998,0.000187,-0.001453,0.005261,0.000073,0.005262,-0.001454,89.373463,0.005434,
1400,480,-0.357134,-12.609405,0.999997,0.000215,-0.002583,0.006100,0.000800,0.006173,-0.002656,84.780563,0.006193,
1620,300,-0.742378,-13.388966,0.999997,0.000190,-0.002733,0.006912,-0.000283,0.006920,-0.002741,-88.319433,0.006970,
1820,390,-1.626175,-12.291363,0.999997,0.000230,-0.003731,0.007563,0.000065,0.007563,-0.003731,89.669008,0.007563,
1780,1260,-2.450218,-5.859847,0.999997,0.000226,-0.003812,0.007603,0.000652,0.007640,-0.003849,86.743207,0.007640,
610,1940,0.759476,-0.819714,0.999996,0.000224,-0.003588,0.008014,-0.001218,0.008141,-0.003715,-84.073430,0.008151,
1020,1450,0.545993,-3.432420,0.999997,0.000216,-0.003762,0.006969,0.001491,0.007173,-0.003966,82.233166,0.007186,
1870,310,-1.611915,-12.761486,0.999997,0.000210,-0.003664,0.007439,0.000034,0.007439,-0.003664,89.822500,0.007440,
1820,1660,-1.636848,-2.865251,0.999997,0.000209,-0.003731,0.007566,-0.000082,0.007567,-0.003731,-89.582934,0.007567,
980,690,0.804085,-10.880196,0.999996,0.000221,-0.004824,0.008184,-0.001375,0.008328,-0.004967,-84.029682,0.008379,
1000,1140,1.509043,-6.293753,0.999994,0.000285,-0.004945,0.010705,-0.000053,0.010705,-0.004945,-89.807586,0.010715,
710,1740,1.198523,-2.094157,0.999997,0.000194,-0.003633,0.007519,-0.000098,0.007520,-0.003634,-89.495404,0.007521,
670,1600,1.669910,-3.255693,0.999995,0.000252,-0.003824,0.007634,0.000133,0.007635,-0.003826,89.334877,0.007635,
830,1170,2.125933,-6.421110,0.999997,0.000212,-0.003956,0.008370,-0.001013,0.008453,-0.004038,-85.334252,0.008456,
960,620,0.801002,-11.356417,0.999997,0.000218,-0.004287,0.007698,-0.001143,0.007806,-0.004395,-84.598657,0.007827,
1590,200,-0.441532,-14.093674,0.999996,0.000224,-0.002115,0.006287,-0.000721,0.006348,-0.002176,-85.133001,0.006452,
1090,1510,0.305502,-2.840335,0.999997,0.000195,-0.002675,0.005867,0.001180,0.006027,-0.002836,82.276154,0.006031,
650,1240,2.626318,-6.057934,0.999996,0.000226,-0.003658,0.007306,-0.000558,0.007334,-0.003686,-87.096486,0.007334,
890,1560,0.916088,-3.022222,0.999997,0.000231,-0.003674,0.007358,0.000551,0.007385,-0.003701,87.147315,0.007385,
1250,240,-0.021183,-14.064850,0.999998,0.000155,-0.001130,0.005104,0.000024,0.005104,-0.001130,89.779911,0.005362,
1480,2000,-0.044862,-0.170401,0.999998,0.000159,-0.000258,0.004861,0.000600,0.004930,-0.000328,83.405874,0.005513,
620,1160,2.908658,-6.665002,0.999998,0.000180,-0.003309,0.006780,-0.000313,0.006790,-0.003319,-88.222188,0.006790,
1150,1490,0.161845,-2.818306,0.999998,0.000172,-0.002203,0.005160,0.000927,0.005274,-0.002318,82.933760,0.005287,
1350,770,-0.287190,-11.089122,0.999997,0.000235,-0.003926,0.005729,0.003227,0.006708,-0.004905,73.120050,0.006943,
1300,780,-0.139003,-11.404230,0.999997,0.000210,-0.002633,0.003403,0.002654,0.004404,-0.003634,69.337247,0.004704,
970,1360,0.861276,-4.324109,0.999998,0.000196,-0.004940,0.008397,0.001241,0.008511,-0.005055,84.728008,0.008561,
710,1330,2.149438,-5.270777,0.999997,0.000215,-0.004102,0.007867,-0.000489,0.007887,-0.004121,-87.663559,0.007889,
1530,1780,-0.468443,-1.433164,0.999997,0.000208,-0.002140,0.006327,0.000257,0.006334,-0.002148,88.265621,0.006443,
790,1610,1.198185,-2.889211,0.999997,0.000199,-0.003674,0.007504,0.000210,0.007508,-0.003678,88.924670,0.007508,
620,40,0.214180,-14.923506,0.999996,0.000251,-0.002746,0.006927,0.002429,0.007503,-0.003322,76.668401,0.007519,
1190,1950,0.016957,-0.390319,0.999998,0.000177,-0.000347,0.004719,-0.000084,0.004720,-0.000349,-89.051465,0.005260,
900,1110,2.051212,-6.863494,0.999996,0.000229,-0.003429,0.008722,-0.001006,0.008805,-0.003512,-85.297001,0.008865,
750,450,1.356713,-12.095603,0.999997,0.000212,-0.003759,0.007571,-0.000208,0.007575,-0.003763,-88.948518,0.007575,
1280,50,-0.006635,-14.982456,0.999999,0.000131,-0.000078,0.004494,-0.000078,0.004495,-0.000079,-89.022821,0.005145,
860,1170,2.003491,-6.384353,0.999997,0.000240,-0.004099,0.008703,-0.001086,0.008794,-0.004191,-85.183425,0.008798,
630,260,1.325257,-13.243836,0.999998,0.000209,-0.003631,0.007627,0.000186,0.007630,-0.003634,89.054265,0.007633,
1230,740,0.001830,-11.719010,0.999997,0.000181,-0.001491,0.002464,-0.000072,0.002466,-0.001492,-88.957142,0.002484,
1100,1670,0.232395,-1.895491,0.999998,0.000181,-0.001843,0.005639,0.000238,0.005646,-0.001851,88.178891,0.005757,
1880,1270,-2.791035,-5.958581,0.999997,0.000220,-0.003513,0.007105,0.000193,0.007109,-0.003517,88.956543,0.007109,
1450,100,-0.091037,-14.730263,0.999998,0.000175,-0.000518,0.005025,-0.000522,0.005073,-0.000566,-84.670471,0.005560,
1490,1020,-1.987316,-7.634145,0.999997,0.000230,-0.002999,0.009901,-0.000075,0.009901,-0.002999,-89.665950,0.010154,
1820,890,-2.824098,-8.512787,0.999997,0.000209,-0.003432,0.007027,-0.000442,0.007046,-0.003451,-87.585003,0.007046,
920,780,1.335963,-9.832880,0.999996,0.000231,-0.005377,0.009289,-0.000027,0.009289,-0.005377,-89.893206,0.009327,
1530,910,-1.792911,-8.630848,0.999996,0.000248,-0.004276,0.009476,-0.001052,0.009556,-0.004356,-85.649377,0.009569,
1870,300,-1.582475,-12.836768,0.999997,0.000228,-0.003651,0.007402,-0.000002,0.007402,-0.003651,-89.987696,0.007402,
880,220,0.469993,-13.978234,0.999997,0.000195,-0.002227,0.006292,0.000548,0.006327,-0.002262,86.334522,0.006412,
1440,1740,-0.335446,-1.572682,0.999997,0.000198,-0.001962,0.005954,-0.000068,0.005954,-0.001962,-89.505227,0.006068,
1660,1360,-1.668962,-4.844752,0.999997,0.000238,-0.004549,0.008330,0.000203,0.008333,-0.004552,89.097906,0.008345,
1220,1950,0.005095,-0.390018,0.999998,0.000154,-0.000475,0.004703,-0.000011,0.004703,-0.000475,-89.875561,0.005179,
1310,2020,-0.004420,-0.069340,0.999998,0.000000,-0.000024,0.004544,0.000192,0.004552,-0.000032,87.599727,0.005237,
990,440,0.528753,-12.712375,0.999996,0.000243,-0.002904,0.006566,-0.000631,0.006608,-0.002946,-86.206842,0.006621,
830,420,1.009611,-12.508552,0.999997,0.000191,-0.003479,0.007384,-0.000232,0.007389,-0.003484,-88.776214,0.007393,
1150,1470,0.159855,-2.922316,0.999998,0.000174,-0.002197,0.005080,0.001008,0.005217,-0.002333,82.259978,0.005227,
1820,1640,-1.684987,-3.016448,0.999997,0.000194,-0.003784,0.007583,-0.000090,0.007583,-0.003785,-89.548821,0.007583,
980,1650,0.525170,-2.197834,0.999997,0.000200,-0.002797,0.006495,0.000487,0.006520,-0.002822,87.005638,0.006540,
1890,1330,-2.673094,-5.543267,0.999996,0.000233,-0.003650,0.007281,0.000142,0.007283,-0.003652,89.255082,0.007283,
950,760,1.111043,-10.135622,0.999996,0.000207,-0.005469,0.009150,-0.000659,0.009180,-0.005498,-87.424812,0.009240,
1270,620,-0.069026,-12.106774,0.999998,0.000169,-0.001907,0.004419,0.000612,0.004478,-0.001966,84.523198,0.004489,
1560,1530,-0.909520,-3.212964,0.999997,0.000232,-0.003827,0.007476,-0.000666,0.007515,-0.003867,-86.642182,0.007516,
1820,370,-1.579948,-12.444817,0.999996,0.000242,-0.003762,0.007611,0.000043,0.007611,-0.003762,89.780967,0.007611,
1740,680,-1.977649,-10.229145,0.999998,0.000173,-0.004154,0.007957,-0.000308,0.007964,-0.004162,-88.542415,0.007967,
750,430,1.318783,-12.245969,0.999998,0.000191,-0.003710,0.007564,-0.000165,0.007567,-0.003713,-89.162102,0.007567,
1250,290,-0.025814,-13.806552,0.999998,0.000177,-0.001373,0.005234,0.000068,0.005234,-0.001374,89.409280,0.005428,
1300,1200,-0.427382,-3.933087,0.999996,0.000244,-0.003889,0.002438,-0.000621,0.002499,-0.003949,-84.444318,0.003995,
830,1150,2.182481,-6.584008,0.999997,0.000204,-0.003754,0.008261,-0.001012,0.008346,-0.003839,-85.218833,0.008355,
1430,100,-0.080796,-14.733848,0.999998,0.000191,-0.000553,0.004972,-0.000428,0.005005,-0.000586,-85.591227,0.005472,
810,1380,1.586771,-4.660987,0.999995,0.000243,-0.004545,0.008305,-0.000067,0.008305,-0.004546,-89.703246,0.008317,
710,1310,2.206580,-5.430498,0.999996,0.000240,-0.004071,0.007906,-0.000558,0.007932,-0.004097,-87.339429,0.007933,
1050,1210,0.839896,-5.173987,0.999995,0.000276,-0.005645,0.009235,0.002114,0.009530,-0.005940,82.067837,0.009626,
610,1680,1.713763,-2.797652,0.999998,0.000171,-0.003690,0.007486,0.000082,0.007487,-0.003691,89.582123,0.007487,
1610,1710,-0.800702,-2.027112,0.999998,0.000170,-0.002903,0.007003,0.000083,0.007003,-0.002903,89.518439,0.007037,
590,1060,3.121835,-7.351227,0.999997,0.000192,-0.003037,0.006381,-0.000151,0.006383,-0.003039,-89.083313,0.006386,
1400,900,-1.093707,-9.547645,0.999992,0.000308,-0.004460,0.009330,0.003404,0.010125,-0.005255,76.861875,0.010127,
1270,50,-0.005865,-14.982480,0.999999,0.000128,-0.000086,0.004500,-0.000052,0.004501,-0.000087,-89.355384,0.005147,
1780,1240,-2.504288,-6.012918,0.999997,0.000208,-0.003772,0.007571,0.000687,0.007612,-0.003813,86.546941,0.007612,
920,760,1.273332,-10.019695,0.999996,0.000215,-0.005340,0.009168,-0.000226,0.009171,-0.005344,-89.109109,0.009213,
1190,1970,0.015316,-0.297944,0.999998,0.000154,-0.000259,0.004603,-0.000088,0.004605,-0.000261,-88.963619,0.005173,
1720,1210,-2.353519,-6.177304,0.999997,0.000224,-0.003871,0.007876,0.000871,0.007940,-0.003935,85.782946,0.007940,
620,1140,2.942062,-6.804109,0.999998,0.000177,-0.003309,0.006819,-0.000385,0.006834,-0.003323,-87.825821,0.006835,
880,200,0.427157,-14.100972,0.999997,0.000202,-0.002061,0.006230,0.000667,0.006283,-0.002114,85.427415,0.006394,
1410,1880,-0.145010,-0.765019,0.999998,0.000142,-0.001086,0.005231,0.000244,0.005240,-0.001095,87.789525,0.005528,
780,1170,2.316295,-6.461683,0.999997,0.000212,-0.003775,0.007956,-0.000916,0.008027,-0.003846,-85.563345,0.008029,
1270,600,-0.070209,-12.195137,0.999998,0.000155,-0.001931,0.004591,0.000519,0.004632,-0.001972,85.478557,0.004649,
930,760,1.220289,-10.055393,0.999997,0.000179,-0.005397,0.009174,-0.000374,0.009184,-0.005406,-88.530799,0.009232,
1530,1640,-0.667225,-2.354120,0.999997,0.000217,-0.002938,0.006797,-0.000376,0.006811,-0.002953,-87.790001,0.006831,
1470,2000,-0.043657,-0.169652,0.999998,0.000167,-0.000167,0.004830,0.000581,0.004897,-0.000233,83.457318,0.005524,
1750,220,-0.902042,-13.749166,0.999997,0.000197,-0.003337,0.007394,-0.000691,0.007439,-0.003381,-86.330501,0.007449,
1660,690,-1.657267,-10.317468,0.999996,0.000225,-0.004519,0.008335,-0.000168,0.008337,-0.004522,-89.252527,0.008347,
760,990,2.573713,-7.840406,0.999996,0.000233,-0.003189,0.007410,0.000260,0.007417,-0.003195,88.594504,0.007440,
1170,240,0.066311,-14.057758,0.999998,0.000153,-0.001023,0.005123,0.000062,0.005123,-0.001023,89.421849,0.005422,
1300,290,-0.090092,-13.795174,0.999998,0.000146,-0.001286,0.005310,-0.000029,0.005311,-0.001286,-89.745280,0.005541,
1890,2000,-0.451723,-0.412413,0.999974,0.000614,-0.001664,0.010042,0.004312,0.011458,-0.003080,71.810918,0.011860,
1210,740,0.031309,-11.699767,0.999998,0.000152,-0.001548,0.002598,-0.000826,0.002756,-0.001706,-79.140973,0.002782,
1210,1420,0.037018,-3.061006,0.999999,0.000136,-0.001754,0.004163,0.000459,0.004198,-0.001790,85.594152,0.004213,
1050,1190,0.952424,-5.362946,0.999996,0.000232,-0.005398,0.009711,0.002140,0.010008,-0.005695,82.092273,0.010040,
630,40,0.179982,-14.948840,0.999998,0.000180,-0.002740,0.006619,0.002219,0.007119,-0.003240,77.313575,0.007128,
1090,1530,0.301560,-2.720781,0.999997,0.000191,-0.002625,0.005864,0.001077,0.005999,-0.002759,82.880061,0.006005,
1330,1680,-0.166754,-1.805307,0.999997,0.000192,-0.001897,0.005550,-0.000322,0.005564,-0.001911,-87.530323,0.005654,
1070,1560,0.345223,-2.585699,0.999997,0.000180,-0.002613,0.006024,0.000910,0.006119,-0.002708,84.047692,0.006132,
780,690,1.758956,-10.265199,0.999996,0.000237,-0.004396,0.008234,0.000252,0.008239,-0.004401,88.855382,0.008246,
1820,1620,-1.727691,-3.170063,0.999997,0.000196,-0.003820,0.007570,-0.000073,0.007570,-0.003820,-89.632035,0.007571,
1600,1800,-0.591571,-1.392570,0.999997,0.000224,-0.002509,0.006622,0.000420,0.006642,-0.002528,87.371843,0.006705,
1000,1160,1.396358,-6.080949,0.999995,0.000269,-0.005334,0.010603,0.000095,0.010604,-0.005335,89.656983,0.010604,
700,1950,0.447962,-0.555235,0.999996,0.000223,-0.002481,0.006891,-0.001810,0.007229,-0.002818,-79.441189,0.007287,
1350,750,-0.269667,-11.199477,0.999997,0.000222,-0.003733,0.005645,0.003029,0.006538,-0.004626,73.568119,0.006723,
1390,100,-0.061007,-14.741140,0.999998,0.000159,-0.000411,0.004863,-0.000352,0.004887,-0.000434,-86.196409,0.005410,
580,1060,3.152594,-7.352858,0.999998,0.000157,-0.002913,0.006230,-0.000123,0.006232,-0.002914,-89.232233,0.006236,
1250,270,-0.022951,-13.910712,0.999998,0.000170,-0.001302,0.005172,0.000055,0.005173,-0.001303,89.517459,0.005381,
830,1130,2.240982,-6.749771,0.999997,0.000211,-0.003549,0.008139,-0.000972,0.008219,-0.003629,-85.276217,0.008238,
710,1510,1.708364,-3.854666,0.999997,0.000212,-0.003977,0.007764,0.000090,0.007764,-0.003978,89.558607,0.007765,
1660,1340,-1.724007,-5.013670,0.999997,0.000213,-0.004573,0.008376,0.000312,0.008384,-0.004581,88.621433,0.008396,
1260,50,-0.004429,-14.982258,0.999998,0.000147,-0.000118,0.004489,-0.000021,0.004489,-0.000118,-89.735590,0.005117,
1740,660,-1.925993,-10.388007,0.999997,0.000185,-0.004151,0.007950,-0.000226,0.007954,-0.004155,-88.929168,0.007957,
750,410,1.274184,-12.400155,0.999998,0.000188,-0.003672,0.007599,-0.000111,0.007600,-0.003673,-89.436415,0.007602,
1200,460,0.058070,-12.899716,0.999998,0.000167,-0.001850,0.005228,-0.000224,0.005235,-0.001858,-88.188878,0.005308,
1240,1950,-0.003909,-0.388498,0.999998,0.000162,-0.000426,0.004705,0.000001,0.004705,-0.000426,89.983497,0.005204,
620,1120,2.977557,-6.939298,0.999998,0.000159,-0.003288,0.006832,-0.000396,0.006848,-0.003303,-87.764401,0.006849,
960,600,0.776246,-11.512043,0.999996,0.000240,-0.004136,0.007580,-0.001098,0.007682,-0.004238,-84.689865,0.007696,
980,1630,0.543469,-2.327596,0.999997,0.000195,-0.002879,0.006571,0.000536,0.006601,-0.002909,86.762271,0.006617,
1540,1210,-1.562129,-5.895817,0.999996,0.000237,-0.005137,0.009518,0.000623,0.009545,-0.005163,87.571301,0.009555,
1390,1880,-0.125367,-0.756504,0.999998,0.000141,-0.000880,0.005154,0.000252,0.005165,-0.000891,87.616588,0.005522,
1310,1180,-0.644135,-4.082887,0.999994,0.000000,-0.003365,0.002123,-0.001088,0.002331,-0.003573,-79.189796,0.003628,
1610,1690,-0.840647,-2.167930,0.999998,0.000187,-0.003015,0.006996,-0.000013,0.006996,-0.003015,-89.927187,0.007018,
800,400,1.077319,-12.588827,0.999997,0.000192,-0.003482,0.007425,-0.000140,0.007427,-0.003484,-89.267294,0.007432,
1200,2000,0.005095,-0.159759,0.999999,0.000125,-0.000169,0.004537,-0.000058,0.004537,-0.000170,-89.288822,0.005144,
1260,530,-0.054300,-12.540260,0.999998,0.000186,-0.001887,0.004985,0.000309,0.004999,-0.001901,87.426504,0.005046,
1660,190,-0.553953,-14.094603,0.999997,0.000192,-0.002378,0.006716,-0.000946,0.006813,-0.002476,-84.126418,0.006898,
1800,890,-2.755434,-8.528882,0.999998,0.000187,-0.003469,0.007182,-0.000563,0.007212,-0.003499,-86.982353,0.007213,
1510,1640,-0.610915,-2.315369,0.999997,0.000208,-0.002837,0.006651,-0.000427,0.006671,-0.002856,-87.428469,0.006694,
1380,1160,-0.989804,-5.206818,0.999993,0.000324,-0.003336,0.007454,-0.004106,0.008839,-0.004721,-71.362036,0.008846,
1150,240,0.087960,-14.054287,0.999999,0.000145,-0.001115,0.005170,0.000049,0.005170,-0.001116,89.557530,0.005442,
760,1170,2.392020,-6.476410,0.999996,0.000226,-0.003764,0.007852,-0.000905,0.007922,-0.003834,-85.573071,0.007924,
1880,1330,-2.636902,-5.520346,0.999996,0.000239,-0.003659,0.007314,0.000157,0.007316,-0.003662,89.178802,0.007316,
1190,1420,0.072549,-3.080893,0.999998,0.000154,-0.001897,0.004329,0.000765,0.004422,-0.001990,83.097660,0.004429,
1250,420,-0.032887,-13.116631,0.999998,0.000196,-0.001788,0.005276,0.000176,0.005281,-0.001792,88.577226,0.005370,
820,1810,0.669292,-1.378996,0.999997,0.000205,-0.002481,0.006894,-0.000670,0.006942,-0.002529,-85.933758,0.007026,
990,420,0.511361,-12.845726,0.999997,0.000212,-0.002829,0.006478,-0.000545,0.006510,-0.002860,-86.658596,0.006526,
980,890,1.474137,-8.986048,0.999994,0.000287,-0.005211,0.010286,0.000322,0.010292,-0.005217,88.808652,0.010293,
1720,1650,-1.288709,-2.698193,0.999997,0.000211,-0.003654,0.007586,-0.000105,0.007587,-0.003655,-89.465845,0.007589,
780,670,1.708749,-10.431375,0.999997,0.000212,-0.004366,0.008219,0.000141,0.008221,-0.004368,89.357768,0.008226,
1250,250,-0.022929,-14.013425,0.999998,0.000156,-0.001181,0.005123,0.000037,0.005123,-0.001181,89.665679,0.005365,
1050,1560,0.396432,-2.629898,0.999997,0.000190,-0.002651,0.006172,0.000829,0.006249,-0.002728,84.677996,0.006266,
1400,1160,-1.059532,-5.525469,0.999992,0.000353,-0.004586,0.009207,-0.003201,0.009913,-0.005293,-77.550294,0.009921,
750,390,1.231183,-12.553255,0.999997,0.000211,-0.003609,0.007576,-0.000055,0.007577,-0.003609,-89.716633,0.007579,
830,1110,2.284320,-6.910346,0.999997,0.000204,-0.003354,0.007972,-0.000807,0.008029,-0.003411,-85.946369,0.008059,
880,420,0.842431,-12.616469,0.999997,0.000215,-0.003250,0.007108,-0.000278,0.007116,-0.003258,-88.462800,0.007124,
1090,1550,0.295542,-2.601572,0.999998,0.000171,-0.002566,0.005861,0.000963,0.005969,-0.002675,83.560965,0.005980,
1820,1600,-1.771082,-3.321175,0.999997,0.000204,-0.003800,0.007578,-0.000102,0.007579,-0.003801,-89.488783,0.007579,
1630,740,-1.654484,-9.958453,0.999996,0.000235,-0.004787,0.008575,-0.000330,0.008583,-0.004795,-88.585591,0.008602,
1050,1170,1.066939,-5.562420,0.999996,0.000214,-0.005176,0.010000,0.002189,0.010309,-0.005485,81.955009,0.010316,
1000,1600,0.513068,-2.483871,0.999997,0.000221,-0.002955,0.006559,0.000720,0.006614,-0.003009,85.697659,0.006623,
1370,100,-0.052941,-14.743364,0.999998,0.000174,-0.000360,0.004841,-0.000293,0.004857,-0.000377,-86.785173,0.005404,
1660,1390,-1.593904,-4.596017,0.999996,0.000234,-0.004494,0.008269,0.000056,0.008270,-0.004495,89.750453,0.008280,
570,1060,3.180967,-7.356719,0.999972,0.000638,-0.002849,0.006086,-0.000097,0.006087,-0.002850,-89.377120,0.006091,
1470,1880,-0.210468,-0.792259,0.999998,0.000155,-0.001043,0.005458,0.000468,0.005491,-0.001077,85.901437,0.005820,
1350,730,-0.260412,-11.310571,0.999997,0.000244,-0.003512,0.005594,0.002835,0.006404,-0.004323,74.046503,0.006534,
1600,1780,-0.632949,-1.525132,0.999997,0.000205,-0.002672,0.006735,0.000317,0.006745,-0.002683,88.072962,0.006792,
710,1240,2.398133,-5.978302,0.999996,0.000247,-0.003890,0.007757,-0.000763,0.007807,-0.003940,-86.267867,0.007807,
620,1100,3.003780,-7.076369,0.999998,0.000189,-0.003241,0.006672,-0.000181,0.006675,-0.003244,-88.953740,0.006676,
970,50,0.041751,-14.972703,0.999998,0.000167,-0.000332,0.004833,0.000606,0.004903,-0.000402,83.395422,0.005444,
1160,630,0.134080,-11.999123,0.999998,0.000191,-0.002153,0.004675,-0.001228,0.004889,-0.002367,-80.110744,0.004890,
1740,640,-1.875113,-10.548579,0.999997,0.000202,-0.004119,0.007925,-0.000140,0.007927,-0.004121,-89.335779,0.007929,
1200,440,0.059060,-13.005433,0.999998,0.000169,-0.001830,0.005281,-0.000200,0.005287,-0.001835,-88.392213,0.005368,
1190,2000,0.005940,-0.160210,0.999998,0.000150,-0.000136,0.004527,-0.000082,0.004528,-0.000137,-88.993420,0.005151,
710,1750,1.173316,-2.019086,0.999997,0.000220,-0.003621,0.007485,-0.000153,0.007487,-0.003624,-89.211890,0.007488,
1130,240,0.111843,-14.045042,0.999998,0.000152,-0.001262,0.005243,0.000006,0.005243,-0.001262,89.949285,0.005473,
1260,1410,-0.048073,-3.109340,0.999998,0.000163,-0.001777,0.004082,-0.000534,0.004130,-0.001826,-84.833404,0.004140,
1660,170,-0.491877,-14.227716,0.999997,0.000202,-0.002188,0.006545,-0.001073,0.006675,-0.002318,-83.096585,0.006778,
1060,970,1.474334,-8.691711,0.999940,0.000896,-0.006008,0.015975,-0.004863,0.017003,-0.007035,-78.066087,0.017087,
1510,800,-1.222617,-9.771253,0.999995,0.000266,-0.005638,0.009615,0.000268,0.009619,-0.005643,88.994614,0.009667,
1260,1670,-0.048209,-1.820615,0.999998,0.000179,-0.001693,0.005293,-0.000159,0.005296,-0.001697,-88.698185,0.005409,
1750,200,-0.829363,-13.896157,0.999997,0.000178,-0.003261,0.007432,-0.000840,0.007498,-0.003327,-85.535952,0.007513,
1550,1140,-1.898998,-6.577448,0.999997,0.000204,-0.004034,0.009122,0.001075,0.009210,-0.004121,85.357951,0.009227,
960,890,1.574303,-8.905591,0.999996,0.000243,-0.004937,0.009996,0.000679,0.010027,-0.004968,87.401670,0.010027,
1050,540,0.414744,-12.212755,0.999997,0.000200,-0.003006,0.006318,-0.001146,0.006457,-0.003145,-83.095142,0.006458,
1750,700,-2.070813,-10.050264,0.999997,0.000216,-0.004092,0.007877,-0.000382,0.007890,-0.004105,-88.173518,0.007892,
1720,1630,-1.331924,-2.851356,0.999998,0.000178,-0.003694,0.007588,-0.000135,0.007590,-0.003696,-89.315644,0.007591,
1310,880,-0.699314,-11.027848,0.999996,0.000000,-0.003175,0.002080,0.001162,0.002325,-0.003420,78.070394,0.003493,
1090,1990,0.028978,-0.208942,0.999999,0.000144,-0.000181,0.004687,-0.000315,0.004708,-0.000202,-86.309354,0.005323,
590,650,2.419871,-10.179560,0.999996,0.000258,-0.003990,0.007561,0.000167,0.007563,-0.003992,89.170631,0.007567,
1540,1710,-0.601769,-1.904879,0.999996,0.000259,-0.002443,0.006674,0.000026,0.006674,-0.002443,89.835110,0.006753,
1250,230,-0.018875,-14.115623,0.999998,0.000173,-0.001088,0.005082,0.000031,0.005082,-0.001088,89.714170,0.005352,
800,360,0.997019,-12.885714,0.999997,0.000189,-0.003430,0.007273,-0.000063,0.007273,-0.003430,-89.663443,0.007277,
750,370,1.187513,-12.705079,0.999997,0.000198,-0.003514,0.007472,0.000042,0.007472,-0.003514,89.779567,0.007477,
830,1090,2.324464,-7.070473,0.999997,0.000196,-0.003184,0.007906,-0.000748,0.007956,-0.003234,-86.160229,0.008002,
1250,100,-0.006668,-14.753485,0.999998,0.000153,-0.000433,0.004644,-0.000035,0.004644,-0.000433,-89.609561,0.005131,
1640,1390,-1.503268,-4.547618,0.999996,0.000247,-0.004565,0.008301,-0.000027,0.008301,-0.004565,-89.879925,0.008315,
1050,1150,1.195456,-5.776185,0.999994,0.000260,-0.004921,0.010226,0.002521,0.010634,-0.005329,80.795557,0.010634,
1510,1860,-0.295681,-0.931172,0.999998,0.000195,-0.001603,0.005833,0.000488,0.005865,-0.001635,86.263618,0.006053,
1260,550,-0.053530,-12.441486,0.999998,0.000194,-0.001871,0.004910,0.000337,0.004927,-0.001888,87.161283,0.004972,
1050,1540,0.404459,-2.750503,0.999997,0.000201,-0.002800,0.006216,0.000965,0.006318,-0.002902,83.958164,0.006325,
1560,1030,-2.178771,-7.539567,0.999997,0.000209,-0.002664,0.008325,0.000063,0.008325,-0.002664,89.673729,0.008503,
1740,620,-1.828175,-10.708253,0.999997,0.000190,-0.004088,0.007909,-0.000076,0.007910,-0.004088,-89.635138,0.007911,
1200,420,0.055384,-13.110449,0.999998,0.000174,-0.001768,0.005283,-0.000192,0.005288,-0.001773,-88.442737,0.005383,
690,1240,2.477330,-6.003993,0.999996,0.000232,-0.003823,0.007629,-0.000721,0.007674,-0.003868,-86.412907,0.007674,
620,1080,3.016137,-7.207687,0.999998,0.000193,-0.003207,0.006579,-0.000085,0.006580,-0.003208,-89.503866,0.006580,
960,50,0.046186,-14.971425,0.999999,0.000169,-0.000337,0.004856,0.000623,0.004930,-0.000411,83.256162,0.005470,
1530,2000,-0.062660,-0.176028,0.999998,0.000158,-0.000290,0.004972,0.000804,0.005092,-0.000410,81.506228,0.005658,
1240,1410,-0.013312,-3.091113,0.999998,0.000149,-0.001667,0.003999,-0.000238,0.004009,-0.001677,-87.595654,0.004026,
1680,550,-1.426574,-11.402136,0.999996,0.000267,-0.004045,0.007838,0.000203,0.007841,-0.004049,89.022571,0.007843,
710,770,2.276424,-9.489919,0.999997,0.000223,-0.004024,0.007872,0.000637,0.007906,-0.004058,86.945200,0.007907,
1660,1320,-1.779945,-5.181006,0.999997,0.000199,-0.004584,0.008403,0.000417,0.008416,-0.004597,88.161560,0.008428,
1850,1640,-1.794371,-3.092174,0.999997,0.000210,-0.003734,0.007492,-0.000114,0.007494,-0.003735,-89.419104,0.007494,
1110,240,0.137667,-14.035114,0.999998,0.000146,-0.001254,0.005326,0.000067,0.005327,-0.001255,89.414782,0.005570,
1600,1760,-0.676528,-1.662935,0.999998,0.000171,-0.002785,0.006745,0.000207,0.006749,-0.002790,88.757341,0.006783,
1780,890,-2.685091,-8.546308,0.999997,0.000209,-0.003522,0.007352,-0.000651,0.007391,-0.003561,-86.586732,0.007393,
1330,1200,-0.515763,-4.268002,0.999995,0.000268,-0.003071,0.003738,-0.002175,0.004373,-0.003706,-73.715425,0.004712,
1060,510,0.376260,-12.422056,0.999996,0.000232,-0.002675,0.006109,-0.000926,0.006205,-0.002772,-84.048845,0.006217,
660,1170,2.756545,-6.557780,0.999996,0.000239,-0.003505,0.007208,-0.000544,0.007236,-0.003533,-87.102527,0.007236,
1730,700,-1.988224,-10.088622,0.999996,0.000227,-0.004196,0.007989,-0.000367,0.008000,-0.004207,-88.276862,0.008004,
1030,860,1.028950,-9.617238,0.999994,0.000276,-0.005666,0.010141,-0.001390,0.010262,-0.005787,-85.013273,0.010290,
1540,1330,-1.161968,-4.771948,0.999997,0.000188,-0.005159,0.008864,-0.000528,0.008883,-0.005179,-87.848335,0.008924,
1530,1760,-0.503228,-1.564125,0.999998,0.000183,-0.002271,0.006395,0.000178,0.006398,-0.002275,88.823078,0.006487,
1400,1180,-0.937659,-5.324731,0.999992,0.000321,-0.005208,0.009102,-0.002610,0.009563,-0.005669,-79.978806,0.009618,
1070,360,0.274888,-13.338297,0.999998,0.000200,-0.001968,0.005811,-0.000228,0.005818,-0.001974,-88.325382,0.005917,
720,650,1.911489,-10.463209,0.999996,0.000230,-0.004103,0.007943,0.000202,0.007946,-0.004106,89.041854,0.007948,
690,380,1.429850,-12.484948,0.999997,0.000207,-0.003677,0.007573,-0.000046,0.007573,-0.003678,-89.768039,0.007574,
1070,1680,0.284114,-1.868839,0.999997,0.000187,-0.002095,0.005807,0.000319,0.005820,-0.002108,87.691150,0.005893,
1160,530,0.138027,-12.501701,0.999998,0.000151,-0.002153,0.005275,-0.000721,0.005344,-0.002222,-84.504307,0.005369,
1090,1970,0.045187,-0.306694,0.999998,0.000157,-0.000273,0.004772,-0.000312,0.004791,-0.000292,-86.470489,0.005371,
1000,1950,0.105216,-0.418561,0.999998,0.000147,-0.000514,0.005117,-0.000571,0.005174,-0.000571,-84.271854,0.005674,
1230,100,0.000982,-14.754093,0.999999,0.000143,-0.000438,0.004652,-0.000001,0.004652,-0.000438,-89.993163,0.005138,
960,580,0.754171,-11.663132,0.999997,0.000213,-0.003932,0.007435,-0.001070,0.007535,-0.004031,-84.669951,0.007541,
1740,600,-1.780474,-10.865559,0.999997,0.000202,-0.004083,0.007871,-0.000045,0.007871,-0.004083,-89.782770,0.007873,
1200,400,0.055324,-13.217389,0.999998,0.000188,-0.001698,0.005334,-0.000158,0.005338,-0.001701,-88.716877,0.005454,
1050,1130,1.321971,-5.997406,0.999993,0.000291,-0.004806,0.010908,0.003177,0.011526,-0.005424,78.992820,0.011533,
830,1070,2.356100,-7.228738,0.999996,0.000206,-0.003062,0.007798,-0.000459,0.007817,-0.003081,-87.583543,0.007876,
1250,210,-0.019339,-14.217006,0.999998,0.000187,-0.000977,0.005010,0.000025,0.005011,-0.000977,89.760756,0.005312,
1490,1880,-0.231674,-0.802451,0.999997,0.000187,-0.001325,0.005548,0.000465,0.005579,-0.001356,86.147832,0.005819,
880,180,0.377756,-14.226638,0.999997,0.000213,-0.001922,0.006089,0.000747,0.006158,-0.001991,84.716662,0.006285,
750,350,1.140628,-12.852423,0.999997,0.000185,-0.003406,0.007446,0.000126,0.007447,-0.003407,89.335014,0.007456,
1610,1670,-0.871802,-2.308082,0.999998,0.000205,-0.003145,0.007093,-0.000117,0.007094,-0.003147,-89.347186,0.007109,
610,1560,1.983147,-3.707407,0.999997,0.000181,-0.003781,0.007600,0.000085,0.007601,-0.003782,89.569921,0.007601,
1350,710,-0.254476,-11.426163,0.999996,0.000242,-0.003317,0.005528,0.002561,0.006216,-0.004005,74.963114,0.006302,
1000,1580,0.529141,-2.616515,0.999996,0.000211,-0.003029,0.006564,0.000799,0.006630,-0.003095,85.271132,0.006635,
1810,1940,-0.613393,-0.685483,0.999996,0.000220,-0.002531,0.007776,0.002007,0.008153,-0.002908,79.359839,0.008264,
1540,1030,-2.124510,-7.539972,0.999998,0.000183,-0.002692,0.008527,0.000069,0.008528,-0.002692,89.648646,0.008719,
1520,2000,-0.059135,-0.174749,0.999999,0.000159,-0.000338,0.004942,0.000750,0.005047,-0.000443,82.070959,0.005590,
1380,50,-0.021627,-14.978388,0.999998,0.000150,-0.000107,0.004609,-0.000302,0.004628,-0.000127,-86.352842,0.005272,
1890,480,-2.088460,-11.440733,0.999997,0.000209,-0.003671,0.007565,0.000036,0.007565,-0.003671,89.816973,0.007566,
1310,870,-0.603656,-11.056782,0.999996,0.000000,-0.003320,0.002340,0.000973,0.002503,-0.003483,80.513937,0.003592,
620,1060,3.031413,-7.340584,0.999998,0.000204,-0.003200,0.006642,-0.000189,0.006646,-0.003203,-88.900100,0.006647,
1440,1210,-0.998086,-5.398500,0.999996,0.000221,-0.005866,0.010009,-0.001341,0.010121,-0.005979,-85.205228,0.010177,
1290,240,-0.062882,-14.058960,0.999999,0.000131,-0.001028,0.005136,-0.000070,0.005137,-0.001029,-89.353280,0.005436,
1110,1440,0.258682,-3.183071,0.999998,0.000178,-0.002768,0.005568,0.001584,0.005858,-0.003059,79.596485,0.005860,
710,730,2.163816,-9.810675,0.999997,0.000206,-0.004088,0.007836,0.000526,0.007859,-0.004111,87.478099,0.007862,
1830,1640,-1.721813,-3.040573,0.999997,0.000185,-0.003764,0.007542,-0.000098,0.007543,-0.003764,-89.501954,0.007543,
1660,1300,-1.837415,-5.351064,0.999997,0.000207,-0.004542,0.008484,0.000518,0.008505,-0.004562,87.726374,0.008512,
1890,660,-2.507819,-10.062744,0.999996,0.000249,-0.003777,0.007563,-0.000087,0.007564,-0.003778,-89.559931,0.007564,
1430,990,-1.708633,-8.120514,0.999988,0.000422,-0.005742,0.014524,0.001508,0.014636,-0.005854,85.767024,0.014733,
740,1170,2.464841,-6.490668,0.999997,0.000212,-0.003681,0.007748,-0.000863,0.007813,-0.003746,-85.704095,0.007815,
740,990,2.638582,-7.837202,0.999998,0.000186,-0.003226,0.007293,0.000252,0.007299,-0.003232,88.625983,0.007315,
1600,1740,-0.713893,-1.796347,0.999998,0.000172,-0.002864,0.006925,0.000142,0.006927,-0.002866,89.171475,0.006961,
1520,1330,-1.060038,-4.697749,0.999997,0.000215,-0.005213,0.008826,-0.000795,0.008871,-0.005258,-86.769218,0.008922,
1160,1750,0.100011,-1.406734,0.999998,0.000154,-0.001353,0.005380,0.000018,0.005380,-0.001353,89.842718,0.005597,
1020,1950,0.094112,-0.413866,0.999998,0.000179,-0.000554,0.005058,-0.000504,0.005103,-0.000599,-84.910759,0.005579,
960,560,0.737194,-11.810213,0.999997,0.000219,-0.003740,0.007283,-0.000996,0.007372,-0.003830,-84.879525,0.007374,
1400,1200,-0.821411,-5.131533,0.999995,0.000263,-0.005513,0.008830,-0.002356,0.009207,-0.005890,-80.905531,0.009326,
1360,550,-0.270790,-12.286230,0.999997,0.000186,-0.002633,0.005700,0.001177,0.005863,-0.002796,82.111856,0.005865,
1240,530,-0.016386,-12.553859,0.999998,0.000182,-0.001900,0.004982,0.000138,0.004985,-0.001902,88.848761,0.005031,
800,340,0.953754,-13.029620,0.999998,0.000187,-0.003375,0.007235,0.000005,0.007235,-0.003375,89.970506,0.007241,
1070,1660,0.295970,-1.984074,0.999998,0.000147,-0.002228,0.005841,0.000431,0.005864,-0.002251,86.952563,0.005917,
880,140,0.280734,-14.467179,0.999998,0.000191,-0.001499,0.005839,0.000915,0.005952,-0.001611,83.000553,0.006157,
640,1810,1.239752,-1.730762,0.999997,0.000205,-0.003584,0.007630,-0.000341,0.007640,-0.003595,-88.260035,0.007644,
1870,410,-1.858455,-12.015644,0.999997,0.000195,-0.003739,0.007449,0.000099,0.007450,-0.003740,89.493738,0.007450,
830,1050,2.370622,-7.382727,0.999997,0.000216,-0.002962,0.007770,-0.000292,0.007778,-0.002970,-88.441501,0.007850,
1250,190,-0.015813,-14.317341,0.999998,0.000177,-0.000879,0.004954,0.000015,0.004954,-0.000879,89.851421,0.005286,
750,330,1.096339,-13.000256,0.999998,0.000175,-0.003331,0.007401,0.000150,0.007403,-0.003333,89.197378,0.007415,
1530,1740,-0.531363,-1.690745,0.999997,0.000197,-0.002386,0.006452,0.000045,0.006453,-0.002386,89.706391,0.006525,
1350,690,-0.249449,-11.539082,0.999997,0.000214,-0.003098,0.005498,0.002293,0.006071,-0.003672,75.957841,0.006115,
1390,360,-0.269042,-13.341930,0.999997,0.000191,-0.001915,0.005750,0.000235,0.005757,-0.001923,88.242885,0.005862,
1050,1330,0.514361,-4.160700,0.999996,0.000230,-0.004674,0.007531,0.002374,0.007977,-0.005119,79.370796,0.008083,
670,400,1.548618,-12.284085,0.999996,0.000228,-0.003753,0.007617,-0.000094,0.007617,-0.003754,-89.524312,0.007618,
780,230,0.739268,-13.786618,0.999997,0.000183,-0.002897,0.007045,0.000722,0.007098,-0.002949,85.866305,0.007131,
1000,1560,0.544514,-2.747811,0.999997,0.000198,-0.003064,0.006637,0.000838,0.006709,-0.003136,85.097312,0.006713,
1740,580,-1.733878,-11.022782,0.999996,0.000217,-0.004057,0.007773,0.000023,0.007773,-0.004057,89.889834,0.007775,
1200,380,0.051709,-13.324662,0.999998,0.000184,-0.001637,0.005357,-0.000127,0.005359,-0.001639,-88.958644,0.005492,
1370,50,-0.020753,-14.978468,0.999998,0.000155,-0.000098,0.004593,-0.000265,0.004608,-0.000113,-86.775944,0.005256,
1790,1940,-0.567369,-0.661826,0.999996,0.000222,-0.002412,0.007523,0.002066,0.007936,-0.002824,78.706737,0.008045,
1840,970,-3.003501,-7.946409,0.999998,0.000170,-0.003208,0.006600,-0.000103,0.006602,-0.003209,-89.395664,0.006602,
1090,1950,0.057123,-0.399883,0.999998,0.000154,-0.000378,0.004860,-0.000309,0.004878,-0.000396,-86.630395,0.005419,
850,1560,1.064667,-3.122752,0.999998,0.000208,-0.003712,0.007512,0.000428,0.007529,-0.003728,87.817449,0.007529,
1510,2000,-0.054953,-0.173727,0.999999,0.000171,-0.000378,0.004919,0.000692,0.005008,-0.000467,82.676165,0.005533,
620,1040,3.041687,-7.475996,0.999998,0.000191,-0.003189,0.006752,-0.000162,0.006755,-0.003192,-89.069236,0.006758,
1880,480,-2.051949,-11.463553,0.999997,0.000196,-0.003688,0.007582,0.000042,0.007583,-0.003688,89.788684,0.007584,
1420,1210,-0.880191,-5.240261,0.999995,0.000268,-0.005700,0.009494,-0.001914,0.009731,-0.005937,-82.930793,0.009810,
1420,960,-1.537230,-8.618008,0.999987,0.000535,-0.005554,0.013508,0.003079,0.013993,-0.006039,81.048006,0.014037,
1270,240,-0.043089,-14.062156,0.999999,0.000128,-0.001076,0.005109,-0.000036,0.005109,-0.001077,-89.668281,0.005386,
790,1380,1.677389,-4.709180,0.999996,0.000234,-0.004436,0.008278,-0.000138,0.008280,-0.004437,-89.378907,0.008287,
1220,530,0.021634,-12.550738,0.999998,0.000134,-0.001898,0.004983,-0.000200,0.004988,-0.001904,-88.332845,0.005035,
1240,730,-0.012405,-11.742476,0.999998,0.000149,-0.001491,0.002674,0.000309,0.002697,-0.001513,85.773377,0.002703,
710,190,0.801471,-13.966092,0.999997,0.000184,-0.003249,0.007376,0.000899,0.007452,-0.003325,85.198420,0.007466,
600,1670,1.775332,-2.899464,0.999997,0.000185,-0.003704,0.007440,0.000092,0.007440,-0.003705,89.526893,0.007440,
1420,730,-0.555187,-10.878636,0.999995,0.000255,-0.004830,0.007732,0.002295,0.008138,-0.005237,79.962545,0.008249,
1610,1650,-0.905719,-2.450128,0.999997,0.000217,-0.003269,0.007187,-0.000182,0.007190,-0.003273,-89.000544,0.007200,
1310,30,-0.004381,-15.071405,0.999999,0.000000,-0.000030,0.004429,-0.000148,0.004434,-0.000035,-88.097433,0.005100,
720,990,2.702662,-7.834587,0.999997,0.000194,-0.003240,0.007205,0.000221,0.007210,-0.003245,88.786054,0.007221,
1510,1140,-1.728676,-6.487652,0.999997,0.000216,-0.004400,0.009846,0.000887,0.009901,-0.004455,86.452701,0.009918,
1180,1750,0.073042,-1.401601,0.999998,0.000147,-0.001366,0.005315,0.000032,0.005315,-0.001366,89.721473,0.005520,
1600,1720,-0.753127,-1.940326,0.999997,0.000173,-0.002921,0.007001,0.000077,0.007001,-0.002921,89.555308,0.007033,
830,1030,2.384095,-7.539550,0.999996,0.000244,-0.002931,0.007801,-0.000048,0.007801,-0.002931,-89.742672,0.007881,
1250,170,-0.015438,-14.415421,0.999998,0.000160,-0.000739,0.004923,0.000006,0.004923,-0.000739,89.935492,0.005310,
1270,1680,-0.064621,-1.772349,0.999997,0.000212,-0.001623,0.005329,-0.000132,0.005332,-0.001626,-88.910255,0.005465,
800,320,0.910965,-13.176640,0.999997,0.000213,-0.003270,0.007221,0.000123,0.007222,-0.003272,89.329682,0.007233,
750,310,1.050260,-13.149300,0.999998,0.000189,-0.003226,0.007346,0.000266,0.007353,-0.003232,88.560832,0.007371,
1660,1280,-1.896816,-5.523168,0.999996,0.000222,-0.004475,0.008477,0.000657,0.008510,-0.004508,87.102172,0.008515,
880,120,0.235968,-14.580640,0.999998,0.000181,-0.001268,0.005741,0.000988,0.005878,-0.001405,82.127735,0.006139,
760,650,1.745385,-10.548684,0.999996,0.000245,-0.004273,0.008064,0.000121,0.008066,-0.004274,89.435979,0.008070,
1740,1000,-2.698649,-7.762835,0.999998,0.000182,-0.003236,0.007274,-0.000273,0.007281,-0.003244,-88.511765,0.007296,
1200,360,0.050958,-13.432136,0.999998,0.000171,-0.001582,0.005324,-0.000130,0.005326,-0.001584,-88.921226,0.005470,
1050,1570,0.393643,-2.566768,0.999997,0.000201,-0.002597,0.006176,0.000782,0.006246,-0.002666,84.944843,0.006268,
690,1580,1.635315,-3.360413,0.999997,0.000228,-0.003823,0.007661,0.000142,0.007663,-0.003825,89.292544,0.007663,
920,110,0.171625,-14.653705,0.999998,0.000177,-0.000689,0.005498,0.000892,0.005624,-0.000815,81.959930,0.006078,
1530,890,-1.705454,-8.819547,0.999996,0.000247,-0.004655,0.009568,-0.000954,0.009632,-0.004719,-86.179549,0.009632,
1150,1450,0.158570,-3.022282,0.999998,0.000172,-0.002214,0.004971,0.001082,0.005130,-0.002373,81.619741,0.005135,
560,350,1.853318,-12.374123,0.999964,0.000000,-0.004619,0.006780,-0.000188,0.006783,-0.004622,-89.055696,0.006930,
1480,890,-1.456329,-8.997476,0.999994,0.000282,-0.005243,0.010285,-0.000257,0.010289,-0.005247,-89.052986,0.010290,
1490,1110,-1.783849,-6.733010,0.999996,0.000225,-0.003980,0.010220,0.000734,0.010258,-0.004018,87.048322,0.010337,
710,720,2.136090,-9.889383,0.999997,0.000172,-0.004087,0.007826,0.000480,0.007845,-0.004106,87.695685,0.007848,
1090,1930,0.074431,-0.500067,0.999998,0.000174,-0.000509,0.004926,-0.000309,0.004944,-0.000527,-86.751791,0.005430,
830,1560,1.138024,-3.172326,0.999997,0.000216,-0.003780,0.007597,0.000368,0.007609,-0.003792,88.147997,0.007609,
1420,710,-0.529932,-11.032434,0.999996,0.000221,-0.004522,0.007463,0.002187,0.007850,-0.004909,79.973833,0.007932,
1030,1240,0.831734,-5.057516,0.999995,0.000252,-0.005827,0.009257,0.001747,0.009456,-0.006027,83.480982,0.009575,
620,1020,3.045468,-7.611658,0.999998,0.000185,-0.003177,0.006747,0.000105,0.006748,-0.003178,89.396159,0.006752,
1870,1270,-2.754713,-5.938242,0.999997,0.000214,-0.003565,0.007169,0.000264,0.007176,-0.003572,88.593354,0.007176,
1750,1400,-1.953333,-4.711993,0.999998,0.000208,-0.004083,0.007913,0.000207,0.007917,-0.004086,89.012553,0.007918,
1430,2000,-0.034541,-0.165793,0.999999,0.000134,-0.000285,0.004718,0.000409,0.004751,-0.000319,85.354283,0.005311,
1640,50,-0.090751,-14.958281,0.999999,0.000146,-0.000348,0.005296,-0.001385,0.005618,-0.000670,-76.927189,0.006137,
1120,1670,0.195202,-1.876396,0.999998,0.000180,-0.001905,0.005575,0.000328,0.005589,-0.001919,87.493361,0.005680,
1780,1990,-0.265196,-0.292998,0.999997,0.000201,-0.001101,0.006916,0.002748,0.007767,-0.001952,72.784738,0.008081,
1230,240,0.001398,-14.068844,0.999998,0.000142,-0.001111,0.005085,0.000001,0.005085,-0.001111,89.994634,0.005347,
1200,430,0.056846,-13.058312,0.999998,0.000175,-0.001805,0.005281,-0.000192,0.005286,-0.001810,-88.450202,0.005373,
1180,630,0.091819,-12.045126,0.999998,0.000195,-0.002006,0.004449,-0.000953,0.004587,-0.002144,-81.770575,0.004590,
1600,1700,-0.791301,-2.079736,0.999997,0.000180,-0.003025,0.006920,-0.000026,0.006920,-0.003025,-89.848249,0.006938,
1490,1140,-1.639567,-6.421965,0.999997,0.000205,-0.004658,0.010202,0.000605,0.010227,-0.004682,87.670523,0.010239,
950,1360,0.960540,-4.406865,0.999998,0.000183,-0.004967,0.008534,0.000994,0.008607,-0.005040,85.810010,0.008649,
1000,1540,0.558055,-2.881256,0.999996,0.000217,-0.003125,0.006679,0.000910,0.006763,-0.003209,84.741615,0.006766,
1200,340,0.049793,-13.537363,0.999998,0.000178,-0.001516,0.005281,-0.000101,0.005282,-0.001517,-89.146763,0.005439,
990,600,0.658566,-11.613499,0.999997,0.000226,-0.003887,0.007299,-0.001266,0.007441,-0.004028,-83.623707,0.007449,
850,840,1.894292,-9.113395,0.999997,0.000204,-0.004483,0.008759,0.000902,0.008820,-0.004544,86.121763,0.008821,
1570,1080,-2.147265,-7.123876,0.999997,0.000183,-0.003037,0.008386,0.000752,0.008435,-0.003086,86.247893,0.008536,
750,290,1.000082,-13.296754,0.999998,0.000193,-0.003140,0.007409,0.000424,0.007426,-0.003157,87.702554,0.007454,
1410,100,-0.069760,-14.738385,0.999999,0.000133,-0.000569,0.004912,-0.000371,0.004937,-0.000594,-86.146382,0.005391,
700,1690,1.358543,-2.496694,0.999996,0.000236,-0.003638,0.007576,0.000017,0.007576,-0.003638,89.915231,0.007578,
760,630,1.696676,-10.711067,0.999997,0.000241,-0.004247,0.008017,0.000037,0.008017,-0.004247,89.826690,0.008022,
1880,1650,-1.884316,-3.091364,0.999998,0.000171,-0.003642,0.007434,-0.000089,0.007435,-0.003642,-89.537188,0.007435,
1360,50,-0.019796,-14.979475,0.999998,0.000173,-0.000127,0.004572,-0.000231,0.004583,-0.000139,-87.188507,0.005214,
830,1010,2.374317,-7.697104,0.999997,0.000220,-0.002961,0.007762,0.000259,0.007768,-0.002967,88.619825,0.007840,
1050,390,0.340800,-13.130189,0.999997,0.000204,-0.002343,0.005983,-0.000442,0.006006,-0.002366,-86.970426,0.006051,
1550,960,-2.051250,-8.139041,0.999998,0.000189,-0.003250,0.008751,-0.000890,0.008817,-0.003316,-85.779582,0.008906,
630,560,2.051840,-10.963038,0.999997,0.000181,-0.003811,0.007598,-0.000034,0.007598,-0.003811,-89.827151,0.007598,
710,170,0.720204,-14.112448,0.999997,0.000195,-0.003134,0.007306,0.001096,0.007420,-0.003248,84.070545,0.007439,
1440,1720,-0.358030,-1.696238,0.999997,0.000203,-0.002065,0.006007,-0.000164,0.006010,-0.002068,-88.836996,0.006106,
1700,1660,-1.196654,-2.576182,0.999998,0.000196,-0.003532,0.007494,-0.000092,0.007495,-0.003533,-89.523144,0.007499,
1020,1430,0.560821,-3.576478,0.999995,0.000252,-0.003925,0.007050,0.001618,0.007284,-0.004158,81.786843,0.007308,
1400,1640,-0.325263,-2.116361,0.999998,0.000187,-0.002399,0.005963,-0.000572,0.006002,-0.002438,-86.103982,0.006037,
1610,1630,-0.937705,-2.594892,0.999998,0.000219,-0.003402,0.007294,-0.000272,0.007301,-0.003409,-88.542013,0.007306,
1780,1220,-2.556519,-6.162249,0.999997,0.000224,-0.003703,0.007460,0.000674,0.007501,-0.003743,86.557604,0.007501,
660,1620,1.663297,-3.127188,0.999997,0.000233,-0.003768,0.007584,0.000103,0.007585,-0.003769,89.482219,0.007585,
670,380,1.503857,-12.435521,0.999997,0.000201,-0.003729,0.007548,-0.000032,0.007548,-0.003730,-89.835956,0.007548,
1750,640,-1.915503,-10.526437,0.999997,0.000206,-0.004067,0.007897,-0.000168,0.007899,-0.004070,-89.194255,0.007900,
960,540,0.716283,-11.953949,0.999997,0.000195,-0.003622,0.007130,-0.000922,0.007208,-0.003700,-85.135435,0.007209,
1050,1220,0.791712,-5.083964,0.999995,0.000283,-0.005752,0.009101,0.002145,0.009405,-0.006055,81.943042,0.009534,
1500,1790,-0.388838,-1.337437,0.999997,0.000212,-0.002111,0.006068,0.000172,0.006072,-0.002115,88.797378,0.006164,
920,740,1.217349,-10.205879,0.999996,0.000247,-0.005249,0.008997,-0.000379,0.009007,-0.005259,-88.476666,0.009049,
1280,1950,-0.018557,-0.390862,0.999998,0.000169,-0.000384,0.004735,0.000104,0.004737,-0.000386,88.840058,0.005261,
1420,2000,-0.031589,-0.165325,0.999999,0.000153,-0.000327,0.004710,0.000385,0.004739,-0.000357,85.649013,0.005278,
1530,870,-1.615203,-9.016567,0.999996,0.000255,-0.004954,0.009631,-0.000784,0.009673,-0.004996,-86.932190,0.009674,
1350,670,-0.247391,-11.644109,0.999998,0.000196,-0.002960,0.005519,0.002075,0.006000,-0.003441,76.960164,0.006021,
1860,810,-2.781288,-9.024707,0.999997,0.000207,-0.003501,0.007008,-0.000310,0.007017,-0.003510,-88.313940,0.007017,
1280,290,-0.065188,-13.797829,0.999999,0.000117,-0.001280,0.005279,0.000008,0.005279,-0.001280,89.930133,0.005508,
1660,1480,-1.395045,-3.866753,0.999996,0.000217,-0.004138,0.007902,-0.000239,0.007907,-0.004143,-88.864266,0.007910,
1300,2020,-0.003536,-0.069314,0.999998,0.000000,0.000034,0.004532,0.000144,0.004536,0.000030,88.170675,0.005255,
1090,1910,0.088597,-0.597724,0.999998,0.000161,-0.000619,0.005008,-0.000282,0.005023,-0.000633,-87.139157,0.005471,
560,340,1.826804,-12.440292,0.999934,0.000000,-0.004523,0.006889,-0.000155,0.006891,-0.004525,-89.223392,0.007003,
930,1360,1.059772,-4.481582,0.999997,0.000257,-0.004971,0.008601,0.000764,0.008644,-0.005014,86.790089,0.008681,
1000,1520,0.571001,-3.013263,0.999997,0.000213,-0.003268,0.006761,0.001006,0.006861,-0.003368,84.326755,0.006861,
870,480,0.967405,-12.156838,0.999997,0.000219,-0.003654,0.007417,-0.000477,0.007437,-0.003674,-87.537885,0.007437,
1590,960,-2.175731,-8.109491,0.999998,0.000184,-0.003197,0.008225,-0.000800,0.008280,-0.003252,-86.011965,0.008344,
990,580,0.640139,-11.758434,0.999996,0.000252,-0.003780,0.007183,-0.001252,0.007324,-0.003921,-83.568533,0.007330,
1390,1380,-0.383975,-3.688365,0.999996,0.000217,-0.003700,0.006455,-0.002157,0.006895,-0.004140,-78.491106,0.006941,
830,1430,1.381729,-4.198316,0.999996,0.000254,-0.004416,0.008140,0.000229,0.008145,-0.004420,88.955666,0.008154,
670,1300,2.391767,-5.575152,0.999998,0.000187,-0.003846,0.007615,-0.000512,0.007637,-0.003869,-87.447741,0.007638,
1490,1530,-0.655977,-3.021014,0.999997,0.000222,-0.003504,0.006985,-0.000942,0.007069,-0.003588,-84.911275,0.007070,
630,540,2.007553,-11.113188,0.999997,0.000204,-0.003802,0.007626,-0.000067,0.007627,-0.003802,-89.664556,0.007627,
1260,630,-0.048132,-12.072184,0.999998,0.000149,-0.001790,0.004245,0.000512,0.004289,-0.001834,85.185225,0.004304,
1200,320,0.045802,-13.644598,0.999998,0.000163,-0.001456,0.005329,-0.000057,0.005330,-0.001456,-89.522611,0.005510,
1330,100,-0.034617,-14.748846,0.999998,0.000159,-0.000456,0.004755,-0.000181,0.004761,-0.000463,-88.012723,0.005251,
1400,1620,-0.336408,-2.238074,0.999997,0.000189,-0.002476,0.006008,-0.000646,0.006057,-0.002525,-85.673041,0.006085,
1870,1080,-3.100221,-7.223255,0.999997,0.000198,-0.003131,0.006291,0.000046,0.006291,-0.003132,89.720836,0.006291,
1600,1900,-0.346711,-0.755438,0.999997,0.000209,-0.001659,0.006102,0.000975,0.006222,-0.001779,82.948835,0.006410,
880,100,0.183602,-14.697346,0.999998,0.000192,-0.001097,0.005528,0.001011,0.005679,-0.001248,81.511848,0.005969,
1780,1200,-2.604172,-6.311931,0.999996,0.000244,-0.003659,0.007416,0.000681,0.007458,-0.003701,86.495190,0.007458,
1240,1670,-0.013713,-1.813567,0.999998,0.000168,-0.001710,0.005300,-0.000092,0.005301,-0.001711,-89.245539,0.005411,
580,140,1.011971,-13.987854,0.999996,0.000266,-0.003614,0.007807,0.000910,0.007879,-0.003686,85.472879,0.007885,
1440,1700,-0.371116,-1.815598,0.999997,0.000196,-0.002148,0.006004,-0.000234,0.006011,-0.002154,-88.355036,0.006091,
740,650,1.829119,-10.505686,0.999997,0.000214,-0.004184,0.008019,0.000188,0.008022,-0.004186,89.117477,0.008024,
1700,1680,-1.153457,-2.426103,0.999998,0.000189,-0.003436,0.007398,-0.000014,0.007398,-0.003436,-89.927901,0.007404,
750,270,0.944309,-13.447191,0.999998,0.000187,-0.003008,0.007354,0.000558,0.007384,-0.003038,86.924295,0.007423,
1840,510,-1.967773,-11.329360,0.999997,0.000208,-0.003798,0.007656,0.000082,0.007656,-0.003799,89.587995,0.007656,
1350,650,-0.249492,-11.754468,0.999997,0.000219,-0.002846,0.005505,0.001866,0.005903,-0.003244,77.962525,0.005912,
1480,1790,-0.349261,-1.315805,0.999996,0.000211,-0.001783,0.005968,0.000211,0.005974,-0.001788,88.440094,0.006132,
720,1170,2.539388,-6.506135,0.999997,0.000227,-0.003628,0.007641,-0.000811,0.007700,-0.003686,-85.906354,0.007702,
1050,1240,0.713219,-4.902381,0.999996,0.000245,-0.005788,0.008899,0.002266,0.009240,-0.006129,81.425230,0.009403,
710,150,0.636788,-14.258260,0.999997,0.000208,-0.003000,0.007226,0.001322,0.007394,-0.003169,82.749405,0.007419,
910,1500,0.923735,-3.420971,0.999997,0.000230,-0.003962,0.007634,0.000741,0.007681,-0.004009,86.357371,0.007683,
1330,30,-0.004797,-15.069688,0.999999,0.000000,-0.000122,0.004452,-0.000190,0.004460,-0.000130,-87.619890,0.005076,
1030,840,0.932429,-9.823333,0.999996,0.000219,-0.005849,0.009780,-0.001563,0.009935,-0.006003,-84.342945,0.010007,
1180,290,0.068911,-13.798905,0.999998,0.000147,-0.001281,0.005249,0.000022,0.005249,-0.001282,89.807318,0.005473,
760,1750,1.006358,-1.915192,0.999998,0.000198,-0.003207,0.007286,-0.000264,0.007293,-0.003214,-88.560530,0.007310,
800,300,0.862612,-13.321195,0.999998,0.000195,-0.003160,0.007137,0.000242,0.007143,-0.003166,88.653401,0.007158,
1530,850,-1.530502,-9.208015,0.999995,0.000271,-0.005218,0.009674,-0.000577,0.009696,-0.005240,-87.782965,0.009707,
1410,2000,-0.027978,-0.165054,0.999998,0.000180,-0.000295,0.004702,0.000372,0.004730,-0.000322,85.768224,0.005285,
1660,1720,-0.933411,-2.047080,0.999998,0.000167,-0.003316,0.007243,0.000042,0.007243,-0.003317,89.771056,0.007252,
560,330,1.804743,-12.497543,0.999889,0.000000,-0.004536,0.007502,-0.000224,0.007506,-0.004540,-88.932335,0.007561,
1150,1430,0.157860,-3.118891,0.999998,0.000165,-0.002245,0.004888,0.001240,0.005097,-0.002455,80.411385,0.005098,
1610,1610,-0.970907,-2.744963,0.999998,0.000209,-0.003528,0.007367,-0.000332,0.007377,-0.003539,-88.256002,0.007379,
1000,1500,0.583929,-3.150004,0.999996,0.000226,-0.003455,0.006888,0.001133,0.007011,-0.003578,83.820911,0.007012,
1150,1340,0.148270,-3.535462,0.999997,0.000189,-0.002505,0.004334,0.002278,0.005024,-0.003195,73.164690,0.005085,
1430,380,-0.372223,-13.166080,0.999997,0.000202,-0.002303,0.006108,0.000335,0.006121,-0.002316,87.721749,0.006182,
870,500,0.997491,-12.008093,0.999998,0.000227,-0.003724,0.007455,-0.000493,0.007476,-0.003745,-87.481093,0.007476,
1490,1550,-0.635102,-2.879157,0.999997,0.000220,-0.003321,0.006877,-0.000842,0.006946,-0.003391,-85.309895,0.006947,
660,1600,1.707750,-3.280665,0.999996,0.000240,-0.003805,0.007636,0.000123,0.007637,-0.003806,89.384009,0.007637,
830,160,0.413275,-14.312511,0.999998,0.000181,-0.001558,0.006350,0.001153,0.006515,-0.001722,81.869081,0.006751,
1570,960,-2.112200,-8.123952,0.999997,0.000220,-0.003211,0.008457,-0.000858,0.008520,-0.003274,-85.815288,0.008596,
1090,1890,0.105851,-0.701849,0.999998,0.000169,-0.000750,0.005125,-0.000273,0.005137,-0.000762,-87.348649,0.005544,
1350,630,-0.251637,-11.862091,0.999997,0.000213,-0.002763,0.005495,0.001672,0.005821,-0.003089,78.980379,0.005824,
1850,1080,-3.038498,-7.210736,0.999997,0.000183,-0.003143,0.006510,0.000084,0.006511,-0.003144,89.498534,0.006512,
1200,300,0.044547,-13.750785,0.999998,0.000166,-0.001365,0.005259,-0.000044,0.005259,-0.001365,-89.622256,0.005458,
1390,1360,-0.390805,-3.817543,0.999995,0.000265,-0.003934,0.006622,-0.002333,0.007114,-0.004427,-78.075614,0.007185,
1140,1670,0.156760,-1.853237,0.999998,0.000158,-0.001908,0.005494,0.000333,0.005509,-0.001923,87.426314,0.005592,
590,420,1.893220,-11.932993,0.999998,0.000194,-0.003696,0.007472,-0.000082,0.007472,-0.003696,-89.579798,0.007472,
1570,870,-1.808519,-8.918323,0.999997,0.000199,-0.004561,0.009087,-0.000971,0.009155,-0.004630,-85.949016,0.009156,
1780,1180,-2.651903,-6.463034,0.999996,0.000231,-0.003614,0.007440,0.000721,0.007487,-0.003661,86.282360,0.007488,
1700,1270,-2.100686,-5.668528,0.999998,0.000171,-0.004204,0.008192,0.000719,0.008233,-0.004246,86.690777,0.008235,
1410,1820,-0.203892,-1.087163,0.999998,0.000162,-0.001463,0.005505,0.000119,0.005507,-0.001465,89.021266,0.005705,
890,1500,1.002162,-3.475409,0.999997,0.000204,-0.003968,0.007688,0.000635,0.007723,-0.004002,86.891545,0.007724,
880,80,0.139734,-14.800962,0.999998,0.000174,-0.000826,0.005355,0.001044,0.005527,-0.000997,80.663260,0.005891,
1400,1600,-0.347731,-2.358351,0.999997,0.000187,-0.002539,0.006007,-0.000707,0.006065,-0.002597,-85.305080,0.006086,
1840,490,-1.924240,-11.481769,0.999998,0.000196,-0.003806,0.007618,0.000086,0.007618,-0.003807,89.570885,0.007618,
960,520,0.696455,-12.095636,0.999997,0.000209,-0.003550,0.007079,-0.000878,0.007151,-0.003622,-85.311738,0.007151,
1050,1200,0.896742,-5.266513,0.999996,0.000232,-0.005508,0.009435,0.002117,0.009729,-0.005803,82.089491,0.009789,
1490,380,-0.514585,-13.072461,0.999998,0.000188,-0.002710,0.006446,0.000344,0.006459,-0.002723,87.849214,0.006485,
1440,1680,-0.391761,-1.937382,0.999998,0.000197,-0.002220,0.006137,-0.000266,0.006145,-0.002229,-88.175662,0.006222,
1200,110,0.014140,-14.705271,0.999998,0.000160,-0.000417,0.004742,0.000053,0.004742,-0.000418,89.409382,0.005251,
1260,610,-0.050860,-12.159619,0.999999,0.000141,-0.001855,0.004432,0.000458,0.004465,-0.001889,85.852927,0.004483,
590,140,0.975593,-14.025140,0.999996,0.000268,-0.003621,0.007821,0.000896,0.007891,-0.003691,85.548664,0.007897,
840,1170,2.086696,-6.409098,0.999997,0.000210,-0.003991,0.008488,-0.001043,0.008575,-0.004078,-85.254215,0.008578,
1710,190,-0.681029,-14.032013,0.999996,0.000206,-0.002418,0.007062,-0.001206,0.007213,-0.002569,-82.863040,0.007312,
750,250,0.887688,-13.592292,0.999998,0.000156,-0.002912,0.007358,0.000709,0.007407,-0.002961,86.069699,0.007456,
1860,410,-1.821192,-12.039683,0.999998,0.000176,-0.003743,0.007491,0.000115,0.007492,-0.003744,89.412572,0.007492,
1660,740,-1.793297,-9.896400,0.999996,0.000256,-0.004536,0.008396,-0.000463,0.008412,-0.004553,-87.952904,0.008422,
1650,880,-2.177809,-8.725609,0.999996,0.000238,-0.003919,0.008236,-0.000972,0.008313,-0.003996,-85.455419,0.008315,
710,130,0.543665,-14.402359,0.999996,0.000222,-0.002783,0.007039,0.001564,0.007282,-0.003026,81.168491,0.007316,
1610,1590,-1.007348,-2.891699,0.999998,0.000188,-0.003605,0.007422,-0.000380,0.007435,-0.003618,-88.028430,0.007436,
1000,1480,0.599762,-3.291053,0.999997,0.000218,-0.003653,0.007035,0.001249,0.007179,-0.003797,83.424810,0.007183,
920,720,1.164935,-10.383444,0.999996,0.000230,-0.005116,0.008812,-0.000513,0.008831,-0.005135,-87.894105,0.008870,
780,1750,0.941596,-1.875685,0.999998,0.000172,-0.003261,0.007216,-0.000222,0.007221,-0.003266,-88.788800,0.007232,
1260,1950,-0.011475,-0.390483,0.999998,0.000162,-0.000408,0.004709,0.000040,0.004710,-0.000409,89.556174,0.005218,
990,240,0.303403,-13.958394,0.999997,0.000193,-0.001545,0.005829,0.000307,0.005842,-0.001558,87.616895,0.006050,
1090,1870,0.118922,-0.803834,0.999998,0.000160,-0.000850,0.005171,-0.000234,0.005180,-0.000859,-87.779705,0.005552,
1530,830,-1.448016,-9.403115,0.999994,0.000271,-0.005364,0.009668,-0.000362,0.009676,-0.005373,-88.619434,0.009696,
1150,1410,0.153182,-3.213638,0.999997,0.000214,-0.002268,0.004819,0.001433,0.005098,-0.002546,78.990089,0.005098,
1350,610,-0.249342,-11.973415,0.999997,0.000195,-0.002710,0.005499,0.001534,0.005776,-0.002987,79.752695,0.005777,
1130,1340,0.202760,-3.631478,0.999998,0.000187,-0.002918,0.005027,0.002496,0.005746,-0.003637,73.928685,0.005814,
810,1400,1.538747,-4.494380,0.999996,0.000244,-0.004462,0.008255,0.000015,0.008255,-0.004462,89.932684,0.008264,
1730,1080,-2.651257,-7.174388,0.999997,0.000197,-0.003253,0.007329,0.000336,0.007339,-0.003264,88.185485,0.007354,
1680,1270,-2.015812,-5.639079,0.999997,0.000191,-0.004342,0.008330,0.000740,0.008373,-0.004385,86.667508,0.008377,
1730,960,-2.634427,-8.055879,0.999997,0.000195,-0.003319,0.007405,-0.000536,0.007432,-0.003346,-87.146526,0.007444,
830,1450,1.340845,-4.037163,0.999996,0.000242,-0.004308,0.007993,0.000296,0.008000,-0.004315,88.624398,0.008009,
1200,280,0.041263,-13.856184,0.999998,0.000164,-0.001285,0.005240,-0.000013,0.005240,-0.001285,-89.885380,0.005462,
660,1580,1.752413,-3.434015,0.999996,0.000234,-0.003831,0.007641,0.000138,0.007643,-0.003832,89.313321,0.007643,
1380,1650,-0.274440,-2.025817,0.999998,0.000182,-0.002089,0.005748,-0.000411,0.005769,-0.002110,-87.004658,0.005838,
1870,260,-1.460237,-13.132185,0.999996,0.000232,-0.003653,0.007383,-0.000109,0.007384,-0.003654,-89.431942,0.007384,
1490,1570,-0.619079,-2.744947,0.999997,0.000209,-0.003132,0.006809,-0.000731,0.006863,-0.003186,-85.816330,0.006869,
800,280,0.816579,-13.462928,0.999997,0.000202,-0.003070,0.007141,0.000353,0.007154,-0.003082,88.020801,0.007176,
750,800,2.198999,-9.309481,0.999998,0.000214,-0.004099,0.008005,0.000761,0.008053,-0.004147,86.415689,0.008054,
960,500,0.674747,-12.240523,0.999998,0.000206,-0.003420,0.006993,-0.000838,0.007060,-0.003487,-85.429731,0.007060,
1590,1070,-2.230011,-7.216619,0.999997,0.000234,-0.002986,0.008124,0.000563,0.008152,-0.003014,87.103905,0.008244,
1430,360,-0.355870,-13.288712,0.999998,0.000200,-0.002229,0.006007,0.000276,0.006017,-0.002239,88.085400,0.006082,
830,840,1.983003,-9.082637,0.999997,0.000182,-0.004355,0.008541,0.000931,0.008608,-0.004422,85.890120,0.008609,
1710,170,-0.612133,-14.169783,0.999996,0.000214,-0.002202,0.006983,-0.001395,0.007190,-0.002410,-81.549126,0.007319,
570,180,1.239074,-13.639648,0.999957,0.000739,-0.003286,0.007736,0.000277,0.007743,-0.003293,88.560232,0.007772,
820,1170,2.164875,-6.428568,0.999997,0.000217,-0.003920,0.008268,-0.000990,0.008348,-0.004000,-85.386181,0.008350,
1840,410,-1.746830,-12.091330,0.999997,0.000221,-0.003715,0.007530,0.000110,0.007531,-0.003716,89.441811,0.007531,
1680,350,-1.033116,-12.920248,0.999997,0.000176,-0.003356,0.007279,-0.000035,0.007279,-0.003356,-89.809467,0.007286,
1660,700,-1.681514,-10.233006,0.999996,0.000251,-0.004527,0.008369,-0.000216,0.008373,-0.004531,-89.042775,0.008382,
990,1560,0.574125,-2.771129,0.999996,0.000218,-0.003091,0.006690,0.000800,0.006755,-0.003156,85.354393,0.006759,
1210,640,0.036676,-12.036789,0.999999,0.000154,-0.001740,0.004075,-0.000430,0.004107,-0.001772,-85.798976,0.004120,
1160,290,0.093635,-13.794187,0.999999,0.000155,-0.001291,0.005272,0.000012,0.005272,-0.001291,89.891037,0.005496,
1440,1660,-0.406909,-2.062086,0.999998,0.000210,-0.002279,0.006116,-0.000360,0.006131,-0.002295,-87.547301,0.006196,
750,230,0.824572,-13.741740,0.999998,0.000173,-0.002770,0.007249,0.000885,0.007326,-0.002847,84.990834,0.007387,
1300,1190,-0.513767,-3.955496,0.999996,0.000000,-0.004145,0.002325,-0.000530,0.002368,-0.004189,-85.350087,0.004200,
800,1730,0.922049,-1.981524,0.999998,0.000185,-0.003272,0.007216,-0.000094,0.007217,-0.003273,-89.488987,0.007227,
830,140,0.354937,-14.438628,0.999997,0.000202,-0.001323,0.006134,0.001220,0.006328,-0.001517,80.943091,0.006608,
920,700,1.118955,-10.559593,0.999997,0.000200,-0.005007,0.008691,-0.000639,0.008721,-0.005037,-87.332857,0.008756,
1610,1570,-1.035674,-3.040833,0.999998,0.000189,-0.003674,0.007475,-0.000435,0.007492,-0.003691,-87.768940,0.007493,
1190,1500,0.078119,-2.711560,0.999998,0.000203,-0.001916,0.004926,0.000387,0.004947,-0.001938,86.771949,0.004986,
1420,1950,-0.080603,-0.409042,0.999998,0.000200,-0.000652,0.004985,0.000410,0.005014,-0.000682,85.861818,0.005439,
880,60,0.089162,-14.912015,0.999998,0.000163,-0.000611,0.005280,0.001045,0.005460,-0.000791,80.234111,0.005901,
1880,660,-2.472099,-10.087008,0.999996,0.000246,-0.003783,0.007552,-0.000103,0.007553,-0.003784,-89.479039,0.007553,
1670,1220,-2.122299,-6.040196,0.999997,0.000211,-0.004164,0.008224,0.000914,0.008291,-0.004231,85.802609,0.008292,
1000,1460,0.615933,-3.434825,0.999997,0.000210,-0.003815,0.007162,0.001340,0.007323,-0.003976,83.139184,0.007332,
1010,240,0.273800,-13.971389,0.999998,0.000164,-0.001480,0.005738,0.000271,0.005748,-0.001491,87.850545,0.005966,
710,110,0.448808,-14.543243,0.999996,0.000218,-0.002540,0.006905,0.001715,0.007207,-0.002841,80.019525,0.007260,
1870,1650,-1.847720,-3.067168,0.999998,0.000193,-0.003679,0.007459,-0.000100,0.007460,-0.003680,-89.484377,0.007460,
1530,810,-1.368896,-9.596318,0.999995,0.000252,-0.005464,0.009584,-0.000109,0.009584,-0.005465,-89.586248,0.009616,
1780,1160,-2.696953,-6.611728,0.999997,0.000213,-0.003521,0.007298,0.000614,0.007333,-0.003556,86.761866,0.007334,
1350,590,-0.247512,-12.085321,0.999997,0.000201,-0.002652,0.005584,0.001405,0.005817,-0.002885,80.579064,0.005817,
1200,500,0.060238,-12.691601,0.999998,0.000166,-0.001875,0.005135,-0.000253,0.005144,-0.001884,-87.933878,0.005205,
830,1470,1.300875,-3.876435,0.999996,0.000227,-0.004224,0.007934,0.000340,0.007944,-0.004233,88.397362,0.007950,
1710,960,-2.566819,-8.062242,0.999997,0.000192,-0.003300,0.007509,-0.000589,0.007541,-0.003332,-86.888247,0.007558,
1300,1290,-0.128125,-3.666818,0.999998,0.000186,-0.002464,0.003493,-0.002561,0.004443,-0.003414,-69.658461,0.004651,
620,1000,3.032290,-7.745052,0.999998,0.000181,-0.003173,0.006670,0.000192,0.006673,-0.003176,88.881713,0.006676,
1150,2000,0.011885,-0.160146,0.999998,0.000151,-0.000162,0.004535,-0.000143,0.004539,-0.000166,-88.253397,0.005148,
1250,1820,-0.020613,-1.029410,0.999998,0.000177,-0.001108,0.005077,-0.000022,0.005077,-0.001108,-89.795969,0.005339,
1400,1580,-0.356608,-2.478130,0.999996,0.000223,-0.002536,0.006042,-0.000797,0.006115,-0.002610,-84.738207,0.006137,
1410,1640,-0.349404,-2.135495,0.999997,0.000198,-0.002426,0.006026,-0.000550,0.006061,-0.002462,-86.295355,0.006097,
1880,1920,-0.971778,-1.080905,0.999997,0.000236,-0.003619,0.007958,0.000966,0.008038,-0.003700,85.261502,0.008046,
960,480,0.654644,-12.379825,0.999997,0.000214,-0.003245,0.006897,-0.000713,0.006947,-0.003295,-85.996782,0.006950,
710,1300,2.233149,-5.510518,0.999997,0.000226,-0.004035,0.007896,-0.000588,0.007925,-0.004063,-87.186979,0.007926,
1840,550,-2.057589,-11.022493,0.999997,0.000184,-0.003793,0.007636,0.000037,0.007636,-0.003793,89.815278,0.007636,
1590,1030,-2.261512,-7.539159,0.999997,0.000230,-0.002801,0.008141,0.000061,0.008141,-0.002802,89.680433,0.008272,
1150,1390,0.150072,-3.308022,0.999997,0.000207,-0.002328,0.004662,0.001643,0.005029,-0.002695,77.408955,0.005033,
1870,120,-0.848630,-14.196834,0.999996,0.000219,-0.003552,0.008080,-0.001181,0.008198,-0.003670,-84.262982,0.008213,
1090,1850,0.135701,-0.909134,0.999998,0.000159,-0.000980,0.005231,-0.000218,0.005239,-0.000988,-87.992606,0.005567,
800,260,0.762555,-13.606534,0.999997,0.000216,-0.002993,0.007021,0.000475,0.007043,-0.003015,87.291793,0.007068,
690,460,1.604680,-11.873692,0.999995,0.000251,-0.003793,0.007606,-0.000140,0.007607,-0.003795,-89.296481,0.007607,
1440,1640,-0.422206,-2.183705,0.999997,0.000223,-0.002381,0.006160,-0.000441,0.006183,-0.002403,-87.052022,0.006233,
1490,300,-0.417509,-13.580997,0.999997,0.000230,-0.002200,0.006176,-0.000028,0.006177,-0.002200,-89.807648,0.006261,
1150,850,0.424036,-11.064815,0.999997,0.000210,-0.003296,0.002916,-0.001464,0.003244,-0.003624,-77.382372,0.003983,
1710,150,-0.529254,-14.313992,0.999996,0.000232,-0.001922,0.006839,-0.001527,0.007097,-0.002181,-80.389990,0.007271,
1540,710,-1.126445,-10.482269,0.999997,0.000226,-0.005092,0.008766,0.000621,0.008794,-0.005119,87.440765,0.008833,
1660,160,-0.459920,-14.292302,0.999997,0.000219,-0.002080,0.006521,-0.001159,0.006674,-0.002233,-82.458726,0.006795,
1080,110,0.065237,-14.694041,0.999998,0.000179,-0.000408,0.004921,0.000357,0.004945,-0.000431,86.185515,0.005478,
1230,640,0.003171,-12.048745,0.999998,0.000161,-0.001696,0.004041,-0.000030,0.004041,-0.001696,-89.705396,0.004059,
1000,1440,0.631660,-3.581834,0.999997,0.000210,-0.003961,0.007282,0.001407,0.007456,-0.004134,82.972551,0.007471,
710,1500,1.730693,-3.933163,0.999997,0.000220,-0.003983,0.007760,0.000078,0.007760,-0.003983,89.621187,0.007761,
1870,660,-2.434434,-10.111624,0.999996,0.000241,-0.003779,0.007537,-0.000129,0.007539,-0.003780,-89.345065,0.007539,
1850,1220,-2.805534,-6.254100,0.999998,0.000178,-0.003488,0.007062,0.000421,0.007079,-0.003505,87.717695,0.007079,
750,210,0.760762,-13.884064,0.999997,0.000200,-0.002656,0.007211,0.001091,0.007330,-0.002775,83.765366,0.007402,
710,90,0.353092,-14.676514,0.999997,0.000195,-0.002174,0.006385,0.001792,0.006745,-0.002534,78.639500,0.006814,
660,1560,1.793975,-3.586700,0.999997,0.000204,-0.003841,0.007671,0.000131,0.007672,-0.003843,89.346914,0.007672,
1610,1550,-1.068909,-3.191689,0.999998,0.000205,-0.003777,0.007506,-0.000447,0.007524,-0.003795,-87.733597,0.007524,
870,280,0.625310,-13.570998,0.999997,0.000219,-0.002729,0.006708,0.000278,0.006716,-0.002737,88.311068,0.006754,
1490,1590,-0.601239,-2.609218,0.999997,0.000220,-0.002986,0.006730,-0.000633,0.006771,-0.003027,-86.290375,0.006784,
1530,790,-1.300584,-9.785715,0.999995,0.000254,-0.005477,0.009450,0.000117,0.009451,-0.005478,89.550831,0.009491,
920,680,1.078647,-10.730668,0.999997,0.000204,-0.004861,0.008468,-0.000721,0.008507,-0.004900,-86.912716,0.008540,
1410,360,-0.311290,-13.317368,0.999997,0.000203,-0.002189,0.005921,0.000315,0.005933,-0.002201,87.778802,0.005999,
1820,1330,-2.413075,-5.393573,0.999996,0.000209,-0.003795,0.007607,0.000390,0.007620,-0.003809,88.042977,0.007620,
1300,870,-0.555411,-11.155358,0.999990,0.000000,-0.004057,0.001823,0.000598,0.001883,-0.004117,84.248694,0.004122,
1350,1310,-0.265757,-3.892170,0.999997,0.000225,-0.003625,0.005637,-0.002949,0.006496,-0.004484,-73.753408,0.006651,
1750,1940,-0.465125,-0.608188,0.999996,0.000226,-0.002524,0.006962,0.001717,0.007263,-0.002825,80.050261,0.007322,
920,990,2.097807,-7.884895,0.999998,0.000198,-0.002838,0.008743,0.000585,0.008772,-0.002868,87.114802,0.008946,
1860,1990,-0.439919,-0.423739,0.999995,0.000244,-0.003147,0.008397,0.002314,0.008844,-0.003594,79.077382,0.008895,
590,1300,2.688272,-5.724069,0.999997,0.000236,-0.003607,0.007297,-0.000184,0.007300,-0.003611,-89.032061,0.007300,
830,1490,1.262995,-3.715371,0.999997,0.000203,-0.004115,0.007891,0.000353,0.007902,-0.004125,88.317596,0.007904,
1440,1620,-0.434250,-2.306221,0.999997,0.000213,-0.002519,0.006230,-0.000533,0.006263,-0.002552,-86.529680,0.006298,
1690,780,-2.043271,-9.508371,0.999997,0.000216,-0.004265,0.008269,-0.000702,0.008308,-0.004304,-86.803822,0.008310,
1150,600,0.159958,-12.122425,0.999998,0.000222,-0.002200,0.005019,-0.001083,0.005177,-0.002359,-81.649380,0.005184,
1630,720,-1.597376,-10.131498,0.999995,0.000296,-0.004778,0.008531,-0.000202,0.008534,-0.004781,-89.129804,0.008555,
1580,380,-0.769634,-12.906520,0.999997,0.000219,-0.003154,0.006993,0.000210,0.006997,-0.003159,88.812324,0.007008,
620,980,3.020799,-7.878056,0.999998,0.000183,-0.003185,0.006552,0.000107,0.006553,-0.003186,89.368965,0.006554,
1050,350,0.308314,-13.373605,0.999998,0.000227,-0.002171,0.005884,-0.000304,0.005895,-0.002183,-87.838294,0.005961,
1320,1670,-0.150487,-1.848998,0.999998,0.000171,-0.001877,0.005474,-0.000320,0.005488,-0.001891,-87.510729,0.005576,
990,50,0.038505,-14.973364,0.999998,0.000167,-0.000174,0.004790,0.000581,0.004857,-0.000241,83.411989,0.005474,
960,460,0.635626,-12.517205,0.999997,0.000201,-0.003057,0.006810,-0.000590,0.006845,-0.003092,-86.591348,0.006856,
1150,1370,0.147076,-3.396537,0.999997,0.000189,-0.002414,0.004534,0.001875,0.005008,-0.002888,75.821062,0.005028,
1520,710,-1.026010,-10.553654,0.999998,0.000157,-0.005122,0.008717,0.000865,0.008771,-0.005176,86.438297,0.008818,
1450,620,-0.586088,-11.551143,0.999997,0.000210,-0.003933,0.007125,0.001523,0.007331,-0.004139,82.302089,0.007351,
870,1990,0.109296,-0.235352,0.999998,0.000170,-0.000642,0.005376,-0.001124,0.005579,-0.000845,-79.755820,0.006014,
710,520,1.654536,-11.460615,0.999996,0.000224,-0.003929,0.007753,-0.000125,0.007754,-0.003930,-89.386721,0.007754,
1870,130,-0.907148,-14.116301,0.999998,0.000192,-0.003583,0.007987,-0.001041,0.008080,-0.003676,-84.901759,0.008091,
750,50,0.135130,-14.939463,0.999997,0.000184,-0.000382,0.005741,0.001888,0.006277,-0.000918,74.169807,0.006780,
1140,2000,0.013597,-0.160137,0.999999,0.000128,-0.000212,0.004551,-0.000159,0.004557,-0.000218,-88.095778,0.005140,
1090,1830,0.149880,-1.012734,0.999998,0.000171,-0.001078,0.005278,-0.000161,0.005282,-0.001082,-88.546374,0.005581,
630,920,2.916372,-8.290920,0.999998,0.000171,-0.003304,0.006908,0.000436,0.006926,-0.003323,87.559522,0.006928,
1440,110,-0.098647,-14.680969,0.999999,0.000154,-0.000606,0.005080,-0.000499,0.005123,-0.000649,-85.021575,0.005579,
1780,1140,-2.729599,-6.753063,0.999997,0.000214,-0.003421,0.007176,0.000522,0.007202,-0.003447,87.184688,0.007204,
1830,1140,-2.899442,-6.790655,0.999998,0.000182,-0.003318,0.006880,0.000423,0.006897,-0.003336,87.630703,0.006898,
1400,1560,-0.362639,-2.602645,0.999996,0.000217,-0.002588,0.006101,-0.000858,0.006184,-0.002672,-84.416113,0.006203,
1600,1470,-1.161211,-3.788282,0.999998,0.000180,-0.004218,0.007916,-0.000490,0.007935,-0.004238,-87.690708,0.007941,
1830,1220,-2.734757,-6.225637,0.999998,0.000169,-0.003552,0.007169,0.000508,0.007193,-0.003576,87.293921,0.007193,
870,620,1.193996,-11.072269,0.999997,0.000190,-0.004402,0.008052,-0.000471,0.008069,-0.004420,-87.836004,0.008082,
750,190,0.687588,-14.031406,0.999997,0.000190,-0.002440,0.007078,0.001227,0.007234,-0.002595,82.770015,0.007330,
710,70,0.263399,-14.800851,0.999996,0.000245,-0.001609,0.006493,0.002177,0.007041,-0.002156,75.875779,0.007215,
1660,140,-0.394185,-14.422984,0.999997,0.000212,-0.001886,0.006324,-0.001223,0.006502,-0.002064,-81.701561,0.006645,
1270,1820,-0.042272,-1.031542,0.999998,0.000189,-0.001056,0.005114,0.000030,0.005114,-0.001056,89.718331,0.005400,
1710,130,-0.458242,-14.444839,0.999996,0.000226,-0.001632,0.006647,-0.001714,0.006988,-0.001973,-78.751310,0.007205,
1300,30,-0.003099,-15.070949,0.999998,0.000000,0.000004,0.004429,-0.000135,0.004433,0.000000,-88.249066,0.005119,
1610,1530,-1.098822,-3.341483,0.999997,0.000225,-0.003913,0.007656,-0.000455,0.007674,-0.003931,-87.751126,0.007675,
1470,1440,-0.659672,-3.605359,0.999996,0.000231,-0.004016,0.007332,-0.001338,0.007487,-0.004171,-83.366339,0.007504,
1500,80,-0.092676,-14.820483,0.999998,0.000141,-0.000571,0.005068,-0.000662,0.005144,-0.000647,-83.394897,0.005604,
1000,1420,0.646167,-3.724679,0.999996,0.000221,-0.004146,0.007354,0.001487,0.007543,-0.004335,82.752582,0.007571,
1430,480,-0.434999,-12.552164,0.999997,0.000205,-0.002738,0.006334,0.000788,0.006402,-0.002806,85.072336,0.006418,
1840,1330,-2.488519,-5.434331,0.999996,0.000231,-0.003763,0.007496,0.000328,0.007506,-0.003773,88.332397,0.007506,
1350,1330,-0.256944,-3.782849,0.999997,0.000213,-0.003407,0.005541,-0.002756,0.006322,-0.004188,-74.184088,0.006432,
630,1300,2.541115,-5.645029,0.999997,0.000205,-0.003731,0.007403,-0.000405,0.007418,-0.003745,-87.920646,0.007418,
1770,900,-2.671310,-8.480688,0.999997,0.000198,-0.003496,0.007354,-0.000623,0.007390,-0.003532,-86.724637,0.007392,
980,50,0.038508,-14.973354,0.999998,0.000170,-0.000245,0.004809,0.000599,0.004879,-0.000315,83.336907,0.005461,
1670,780,-1.956584,-9.539748,0.999997,0.000221,-0.004402,0.008397,-0.000709,0.008437,-0.004441,-86.836991,0.008441,
1040,1740,0.301438,-1.554582,0.999998,0.000209,-0.002034,0.005884,0.000137,0.005886,-0.002036,89.006274,0.005979,
1450,110,-0.103646,-14.679508,0.999998,0.000165,-0.000591,0.005109,-0.000543,0.005160,-0.000642,-84.608789,0.005624,
1500,710,-0.923498,-10.637874,0.999997,0.000239,-0.005077,0.008621,0.001138,0.008714,-0.005171,85.284043,0.008765,
1860,1650,-1.809652,-3.042539,0.999997,0.000211,-0.003720,0.007480,-0.000103,0.007481,-0.003721,-89.471297,0.007481,
1840,1930,-0.768983,-0.853536,0.999997,0.000199,-0.003628,0.007977,0.001071,0.008075,-0.003726,84.770351,0.008083,
830,1930,0.311133,-0.592540,0.999998,0.000188,-0.001181,0.006033,-0.001288,0.006256,-0.001404,-80.171482,0.006566,
620,960,3.008224,-8.010157,0.999997,0.000186,-0.003231,0.006619,0.000151,0.006622,-0.003234,89.120714,0.006622,
1550,640,-1.037797,-11.039675,0.999996,0.000234,-0.004536,0.008133,0.000755,0.008178,-0.004581,86.601618,0.008198,
1100,1160,0.942084,-4.930811,0.999993,0.000327,-0.002229,0.005847,0.004193,0.007630,-0.004012,66.960114,0.007633,
670,720,2.295941,-9.814451,0.999996,0.000216,-0.003897,0.007679,0.000433,0.007695,-0.003913,87.861092,0.007696,
1150,620,0.157818,-12.024136,0.999998,0.000197,-0.002224,0.004885,-0.001235,0.005093,-0.002433,-80.418457,0.005095,
1490,560,-0.687924,-11.847273,0.999997,0.000194,-0.003689,0.007191,0.001052,0.007292,-0.003790,84.527241,0.007293,
1060,1750,0.254141,-1.474621,0.999998,0.000176,-0.001785,0.005721,0.000090,0.005722,-0.001786,89.312649,0.005855,
1670,1140,-2.346091,-6.693427,0.999997,0.000227,-0.003566,0.007953,0.000923,0.008026,-0.003639,85.447997,0.008038,
1810,1220,-2.663808,-6.199854,0.999996,0.000238,-0.003592,0.007263,0.000567,0.007292,-0.003622,87.018216,0.007292,
1090,1810,0.165506,-1.121698,0.999998,0.000160,-0.001202,0.005381,-0.000133,0.005384,-0.001205,-88.843012,0.005651,
880,1890,0.343293,-0.804005,0.999998,0.000209,-0.001718,0.006016,-0.000819,0.006102,-0.001804,-84.019797,0.006270,
660,1540,1.838117,-3.741943,0.999998,0.000178,-0.003849,0.007660,0.000098,0.007661,-0.003850,89.511029,0.007661,
650,920,2.851740,-8.306997,0.999998,0.000190,-0.003349,0.007009,0.000470,0.007030,-0.003370,87.407759,0.007032,
1610,1640,-0.922039,-2.522716,0.999997,0.000217,-0.003331,0.007235,-0.000220,0.007240,-0.003336,-88.810254,0.007247,
870,600,1.157479,-11.232647,0.999996,0.000240,-0.004270,0.007957,-0.000512,0.007978,-0.004292,-87.608057,0.007986,
1660,120,-0.329501,-14.546359,0.999998,0.000207,-0.001583,0.006158,-0.001346,0.006386,-0.001810,-80.415189,0.006582,
1860,1470,-2.212912,-4.411016,0.999997,0.000186,-0.003838,0.007669,0.000032,0.007669,-0.003838,89.842380,0.007669,
1300,800,-0.160895,-11.338565,0.999996,0.000230,-0.002927,0.003218,0.002635,0.004193,-0.003902,69.689759,0.004683,
1610,1510,-1.135147,-3.501726,0.999997,0.000210,-0.004038,0.007793,-0.000445,0.007809,-0.004055,-87.848849,0.007811,
1580,360,-0.737888,-13.047011,0.999997,0.000212,-0.003116,0.006864,0.000150,0.006866,-0.003118,89.138930,0.006876,
1420,110,-0.087387,-14.686089,0.999998,0.000161,-0.000656,0.005015,-0.000408,0.005044,-0.000686,-85.902566,0.005472,
750,610,1.692261,-10.846778,0.999996,0.000232,-0.004171,0.007943,-0.000003,0.007943,-0.004171,-89.985589,0.007947,
690,520,1.732330,-11.412485,0.999997,0.000196,-0.003887,0.007728,-0.000112,0.007730,-0.003888,-89.448976,0.007730,
1740,1020,-2.711258,-7.615688,0.999997,0.000199,-0.003243,0.007314,-0.000149,0.007316,-0.003245,-89.189995,0.007331,
800,240,0.709933,-13.746494,0.999997,0.000208,-0.002847,0.007009,0.000604,0.007046,-0.002884,86.508322,0.007085,
700,1980,0.309004,-0.362578,0.999996,0.000229,-0.001706,0.006708,-0.002297,0.007295,-0.002292,-75.684897,0.007460,
870,1970,0.161884,-0.346429,0.999998,0.000180,-0.000881,0.005439,-0.001076,0.005617,-0.001059,-80.599029,0.005970,
1710,110,-0.366770,-14.581982,0.999997,0.000201,-0.001317,0.006507,-0.001842,0.006919,-0.001729,-77.392055,0.007202,
1500,60,-0.059263,-14.923514,0.999998,0.000151,-0.000424,0.004936,-0.000671,0.005018,-0.000507,-82.967586,0.005525,
1130,2000,0.015490,-0.161466,0.999998,0.000153,-0.000220,0.004555,-0.000174,0.004562,-0.000227,-87.910215,0.005142,
1400,1540,-0.369985,-2.724119,0.999997,0.000186,-0.002667,0.006109,-0.000915,0.006203,-0.002761,-84.108371,0.006216,
960,440,0.616591,-12.650815,0.999997,0.000216,-0.002927,0.006711,-0.000528,0.006740,-0.002956,-86.874625,0.006757,
1150,1350,0.147945,-3.488180,0.999997,0.000193,-0.002473,0.004410,0.002139,0.005020,-0.003084,74.069327,0.005064,
1820,1580,-1.814818,-3.474314,0.999998,0.000186,-0.003794,0.007645,-0.000119,0.007646,-0.003795,-89.403308,0.007646,
1000,1640,0.475553,-2.219721,0.999997,0.000205,-0.002657,0.006357,0.000502,0.006385,-0.002685,86.819039,0.006412,
590,990,3.120700,-7.802213,0.999998,0.000162,-0.002996,0.006339,0.000090,0.006340,-0.002997,89.446134,0.006343,
1350,1350,-0.252989,-3.667073,0.999996,0.000234,-0.003230,0.005520,-0.002494,0.006181,-0.003891,-75.158547,0.006249,
1780,1120,-2.763099,-6.900304,0.999997,0.000211,-0.003391,0.007230,0.000566,0.007260,-0.003421,86.957526,0.007264,
750,40,0.093812,-14.998101,0.999999,0.000150,-0.000137,0.005734,0.001938,0.006316,-0.000719,73.284774,0.006915,
1040,1750,0.292579,-1.496418,0.999998,0.000198,-0.001965,0.005807,0.000107,0.005808,-0.001966,89.214334,0.005908,
1110,1820,0.133381,-1.056878,0.999998,0.000148,-0.001210,0.005282,-0.000092,0.005284,-0.001211,-89.191564,0.005536,
650,1300,2.466557,-5.608384,0.999997,0.000219,-0.003758,0.007484,-0.000454,0.007503,-0.003776,-87.690684,0.007503,
870,560,1.090761,-11.548412,0.999997,0.000191,-0.004067,0.007781,-0.000547,0.007807,-0.004092,-87.362474,0.007810,
1750,1140,-2.627129,-6.737679,0.999997,0.000225,-0.003493,0.007361,0.000614,0.007396,-0.003528,86.771232,0.007398,
830,1910,0.368090,-0.712053,0.999997,0.000200,-0.001371,0.006188,-0.001200,0.006374,-0.001557,-81.190509,0.006647,
640,1250,2.637451,-5.999759,0.999997,0.000245,-0.003639,0.007300,-0.000521,0.007325,-0.003663,-87.280546,0.007325,
1140,630,0.177332,-11.951464,0.999997,0.000200,-0.002381,0.005010,-0.001429,0.005276,-0.002647,-79.429741,0.005276,
1250,150,-0.012334,-14.514858,0.999998,0.000175,-0.000651,0.004871,-0.000005,0.004871,-0.000651,-89.950656,0.005289,
1040,1720,0.320787,-1.675255,0.999997,0.000216,-0.002128,0.005884,0.000224,0.005891,-0.002134,88.398080,0.005965,
1420,530,-0.430666,-12.256670,0.999997,0.000236,-0.003025,0.006362,0.001117,0.006494,-0.003156,83.304437,0.006494,
620,940,2.983730,-8.145507,0.999997,0.000187,-0.003266,0.006830,0.000373,0.006843,-0.003280,87.887553,0.006845,
880,1870,0.390612,-0.923467,0.999996,0.000225,-0.001926,0.006111,-0.000730,0.006177,-0.001992,-84.850218,0.006305,
1010,1360,0.668848,-4.142274,0.999997,0.000243,-0.004755,0.007898,0.001760,0.008138,-0.004995,82.227380,0.008208,
1640,690,-1.565374,-10.363802,0.999996,0.000269,-0.004625,0.008442,-0.000091,0.008442,-0.004625,-89.601826,0.008455,
1460,1650,-0.460436,-2.152536,0.999997,0.000209,-0.002514,0.006304,-0.000416,0.006324,-0.002534,-87.305297,0.006365,
1400,1520,-0.375340,-2.844207,0.999997,0.000198,-0.002809,0.006103,-0.001049,0.006224,-0.002931,-83.376116,0.006228,
1290,2020,-0.005222,-0.070071,0.999999,0.000000,0.000068,0.004537,0.000111,0.004540,0.000065,88.575988,0.005280,
660,1520,1.881155,-3.895362,0.999997,0.000183,-0.003866,0.007679,0.000059,0.007679,-0.003866,89.706308,0.007679,
1200,260,0.037547,-13.961207,0.999998,0.000171,-0.001195,0.005182,-0.000024,0.005183,-0.001195,-89.782658,0.005428,
1490,1440,-0.739921,-3.675925,0.999997,0.000223,-0.004180,0.007532,-0.001247,0.007663,-0.004311,-83.990363,0.007683,
1710,90,-0.292171,-14.704097,0.999997,0.000187,-0.001031,0.006070,-0.001773,0.006488,-0.001449,-76.728356,0.006811,
1490,1990,-0.061089,-0.219177,0.999998,0.000170,-0.000411,0.004972,0.000644,0.005048,-0.000487,83.273848,0.005569,
1050,2000,0.029781,-0.166071,0.999999,0.000137,-0.000294,0.004676,-0.000353,0.004701,-0.000319,-85.961189,0.005254,
1020,1890,0.171488,-0.728920,0.999998,0.000231,-0.000975,0.005330,-0.000446,0.005361,-0.001007,-85.973286,0.005699,
1150,230,0.084080,-14.106870,0.999998,0.000158,-0.001069,0.005157,0.000061,0.005158,-0.001070,89.441731,0.005444,
960,420,0.597052,-12.785277,0.999997,0.000230,-0.002841,0.006608,-0.000471,0.006631,-0.002864,-87.154220,0.006652,
1610,1490,-1.170236,-3.657446,0.999997,0.000202,-0.004134,0.007852,-0.000456,0.007869,-0.004151,-87.825912,0.007873,
1560,890,-1.839060,-8.758122,0.999997,0.000215,-0.004375,0.009147,-0.001058,0.009230,-0.004457,-85.552675,0.009232,
950,1500,0.767369,-3.303528,0.999997,0.000195,-0.003776,0.007357,0.000918,0.007432,-0.003852,85.315968,0.007434,
1380,110,-0.064394,-14.693133,0.999999,0.000137,-0.000406,0.004922,-0.000333,0.004943,-0.000426,-86.437139,0.005478,
1040,1730,0.312159,-1.615847,0.999997,0.000210,-0.002076,0.005911,0.000172,0.005915,-0.002080,88.767049,0.006001,
1820,1560,-1.859520,-3.628448,0.999998,0.000190,-0.003804,0.007678,-0.000106,0.007679,-0.003805,-89.469814,0.007679,
1090,1150,1.045322,-5.157499,0.999990,0.000364,-0.002593,0.007096,0.004900,0.009142,-0.004639,67.336690,0.009142,
560,320,1.766817,-12.582078,0.999865,0.000000,-0.004703,0.008029,-0.000317,0.008037,-0.004711,-88.576093,0.008077,
1000,1400,0.665912,-3.876043,0.999996,0.000224,-0.004392,0.007575,0.001548,0.007772,-0.004589,82.747619,0.007814,
1300,820,-0.216280,-11.281038,0.999996,0.000222,-0.003202,0.002968,0.002344,0.003758,-0.003992,71.382710,0.004480,
1280,530,-0.092047,-12.529014,0.999998,0.000154,-0.001954,0.005067,0.000370,0.005086,-0.001973,86.991689,0.005129,
700,1960,0.399308,-0.486167,0.999997,0.000210,-0.002268,0.006649,-0.001866,0.007024,-0.002643,-78.647466,0.007095,
1730,1140,-2.558599,-6.726532,0.999996,0.000229,-0.003499,0.007489,0.000670,0.007530,-0.003539,86.525890,0.007535,
1180,1950,0.020880,-0.391556,0.999998,0.000190,-0.000313,0.004721,-0.000109,0.004724,-0.000316,-88.755932,0.005282,
1820,1270,-2.572801,-5.844337,0.999997,0.000196,-0.003725,0.007468,0.000508,0.007491,-0.003748,87.407736,0.007491,
1250,130,-0.011022,-14.611991,0.999998,0.000163,-0.000567,0.004774,0.000004,0.004774,-0.000567,89.952184,0.005216,
1780,1100,-2.796801,-7.044527,0.999997,0.000200,-0.003343,0.007137,0.000431,0.007155,-0.003361,87.647134,0.007159,
1650,500,-1.213579,-11.866585,0.999996,0.000212,-0.003882,0.007666,0.000307,0.007674,-0.003890,88.478245,0.007674,
1350,1370,-0.247089,-3.554763,0.999997,0.000234,-0.003043,0.005507,-0.002230,0.006054,-0.003590,-76.223567,0.006089,
1690,960,-2.501368,-8.068187,0.999997,0.000216,-0.003312,0.007596,-0.000640,0.007633,-0.003349,-86.655047,0.007652,
940,1750,0.502261,-1.616707,0.999998,0.000188,-0.002317,0.006326,-0.000043,0.006326,-0.002318,-89.716961,0.006401,
620,920,2.949507,-8.282801,0.999997,0.000186,-0.003300,0.006839,0.000402,0.006855,-0.003316,87.733088,0.006856,
930,340,0.576690,-13.259054,0.999996,0.000225,-0.002427,0.006664,0.000015,0.006664,-0.002427,89.908410,0.006745,
1400,1500,-0.379277,-2.964530,0.999997,0.000210,-0.002957,0.006154,-0.001227,0.006316,-0.003119,-82.461830,0.006317,
1040,1700,0.334905,-1.790839,0.999997,0.000209,-0.002213,0.005940,0.000294,0.005951,-0.002224,87.939837,0.006014,
660,1500,1.928345,-4.049688,0.999997,0.000197,-0.003872,0.007673,0.000027,0.007673,-0.003872,89.866589,0.007673,
830,1890,0.428370,-0.839565,0.999997,0.000206,-0.001620,0.006358,-0.001143,0.006519,-0.001780,-82.002811,0.006739,
1460,1630,-0.477539,-2.279361,0.999997,0.000210,-0.002691,0.006387,-0.000547,0.006420,-0.002724,-86.561310,0.006445,
1040,2000,0.032608,-0.166786,0.999998,0.000138,-0.000297,0.004696,-0.000394,0.004727,-0.000328,-85.513738,0.005279,
620,1250,2.709692,-6.031359,0.999997,0.000195,-0.003572,0.007142,-0.000412,0.007158,-0.003588,-87.800236,0.007158,
1520,770,-1.179059,-10.014778,0.999994,0.000268,-0.005502,0.009265,0.000461,0.009279,-0.005516,88.213943,0.009334,
870,1950,0.208202,-0.454672,0.999998,0.000184,-0.001148,0.005643,-0.001039,0.005798,-0.001303,-81.493429,0.006084,
1710,70,-0.206531,-14.828454,0.999998,0.000168,-0.000735,0.005922,-0.001844,0.006399,-0.001212,-75.507831,0.006798,
1200,220,0.030122,-14.164812,0.999998,0.000191,-0.001003,0.005048,-0.000024,0.005048,-0.001003,-89.776419,0.005345,
990,480,0.563946,-12.447577,0.999997,0.000209,-0.003038,0.006655,-0.000762,0.006715,-0.003098,-85.529790,0.006721,
1490,1970,-0.089591,-0.321885,0.999998,0.000197,-0.000575,0.005070,0.000657,0.005145,-0.000650,83.447411,0.005603,
560,310,1.754281,-12.680156,0.999864,0.000000,-0.004994,0.007661,-0.000526,0.007683,-0.005015,-87.625945,0.007802,
1460,1450,-0.613068,-3.496648,0.999997,0.000234,-0.003886,0.007182,-0.001418,0.007360,-0.004065,-82.815314,0.007374,
930,1500,0.843618,-3.361610,0.999997,0.000213,-0.003905,0.007530,0.000854,0.007593,-0.003968,85.752183,0.007596,
1580,890,-1.927778,-8.722976,0.999997,0.000201,-0.004188,0.008915,-0.001101,0.009007,-0.004280,-85.229812,0.009010,
920,660,1.038452,-10.899176,0.999997,0.000203,-0.004684,0.008294,-0.000772,0.008340,-0.004730,-86.608305,0.008365,
1360,110,-0.056330,-14.695810,0.999998,0.000164,-0.000460,0.004887,-0.000282,0.004902,-0.000475,-86.991227,0.005407,
1820,1540,-1.900841,-3.782382,0.999997,0.000212,-0.003844,0.007660,-0.000068,0.007660,-0.003844,-89.659537,0.007660,
1000,1360,0.715705,-4.187745,0.999996,0.000265,-0.004832,0.008065,0.001643,0.008271,-0.005038,82.851866,0.008336,
1610,1470,-1.202212,-3.815491,0.999997,0.000195,-0.004230,0.007938,-0.000434,0.007953,-0.004246,-87.958457,0.007959,
1150,1330,0.148347,-3.579430,0.999997,0.000207,-0.002545,0.004258,0.002401,0.005020,-0.003307,72.389558,0.005104,
1080,1150,1.071979,-5.328279,0.999994,0.000273,-0.003240,0.008037,0.004713,0.009747,-0.004951,70.054037,0.009748,
960,400,0.575614,-12.916963,0.999997,0.000224,-0.002799,0.006551,-0.000383,0.006566,-0.002815,-87.655273,0.006589,
1540,1270,-1.336962,-5.320696,0.999996,0.000201,-0.005404,0.009311,-0.000014,0.009311,-0.005404,-89.944581,0.009351,
1280,510,-0.091242,-12.629846,0.999998,0.000164,-0.001910,0.005152,0.000317,0.005166,-0.001924,87.432696,0.005222,
1780,1080,-2.813867,-7.185299,0.999998,0.000175,-0.003297,0.007051,0.000203,0.007055,-0.003300,88.877622,0.007060,
850,1880,0.424042,-0.889260,0.999997,0.000218,-0.001754,0.006196,-0.000951,0.006308,-0.001866,-83.274713,0.006481,
1300,840,-0.302604,-11.225631,0.999994,0.000268,-0.003522,0.002773,0.001367,0.003057,-0.003806,78.262255,0.004033,
940,1170,1.649407,-6.232950,0.999996,0.000236,-0.004785,0.009696,-0.000857,0.009747,-0.004836,-86.624817,0.009747,
1250,110,-0.007838,-14.705915,0.999998,0.000152,-0.000482,0.004700,-0.000038,0.004701,-0.000483,-89.581432,0.005172,
700,1940,0.501542,-0.629205,0.999997,0.000222,-0.002618,0.007105,-0.001787,0.007423,-0.002936,-79.911118,0.007476,
740,1430,1.769156,-4.414977,0.999996,0.000228,-0.004168,0.007944,-0.000075,0.007945,-0.004168,-89.647166,0.007948,
1530,770,-1.233820,-9.974623,0.999995,0.000245,-0.005444,0.009244,0.000310,0.009251,-0.005451,88.790652,0.009300,
1590,1640,-0.857578,-2.481297,0.999997,0.000208,-0.003223,0.007126,-0.000256,0.007132,-0.003230,-88.581131,0.007143,
1080,850,0.704512,-10.201774,0.999993,0.000304,-0.005211,0.007998,-0.002984,0.008640,-0.005854,-77.843431,0.008820,
870,1930,0.261018,-0.572625,0.999997,0.000195,-0.001343,0.005794,-0.001022,0.005937,-0.001487,-82.006396,0.006179,
640,1730,1.479787,-2.341110,0.999996,0.000256,-0.003677,0.007541,-0.000005,0.007541,-0.003677,-89.974119,0.007542,
1040,1680,0.352963,-1.914219,0.999997,0.000195,-0.002276,0.006076,0.000340,0.006089,-0.002290,87.671967,0.006151,
620,1340,2.474595,-5.366089,0.999996,0.000231,-0.003736,0.007520,-0.000287,0.007527,-0.003743,-88.541085,0.007527,
1350,1810,-0.137432,-1.110382,0.999998,0.000156,-0.001262,0.005345,0.000049,0.005345,-0.001262,89.577165,0.005588,
1490,920,-1.664006,-8.646862,0.999996,0.000254,-0.004556,0.010195,-0.000640,0.010223,-0.004584,-87.522042,0.010241,
1580,340,-0.703435,-13.182097,0.999997,0.000204,-0.003002,0.006844,0.000048,0.006844,-0.003003,89.719670,0.006861,
1160,1950,0.027079,-0.391701,0.999998,0.000189,-0.000348,0.004732,-0.000147,0.004737,-0.000352,-88.346150,0.005278,
1440,1650,-0.415414,-2.122630,0.999998,0.000235,-0.002335,0.006136,-0.000402,0.006155,-0.002355,-87.288580,0.006212,
830,1870,0.485678,-0.966061,0.999996,0.000224,-0.001801,0.006418,-0.001001,0.006538,-0.001921,-83.157830,0.006721,
690,500,1.689479,-11.566930,0.999998,0.000201,-0.003878,0.007717,-0.000128,0.007719,-0.003879,-89.367533,0.007719,
1250,360,-0.030433,-13.437257,0.999998,0.000147,-0.001602,0.005282,0.000137,0.005285,-0.001605,88.862405,0.005419,
1400,1480,-0.385844,-3.088221,0.999997,0.000225,-0.003117,0.006250,-0.001401,0.006455,-0.003322,-81.673993,0.006456,
930,320,0.546265,-13.393561,0.999997,0.000189,-0.002390,0.006535,0.000043,0.006535,-0.002390,89.725944,0.006613,
570,1250,2.885225,-6.123517,0.999991,0.000362,-0.003756,0.006772,0.000027,0.006772,-0.003756,89.854076,0.006785,
660,1480,1.970714,-4.203552,0.999997,0.000193,-0.003859,0.007721,0.000005,0.007721,-0.003859,89.972791,0.007721,
1490,1950,-0.123940,-0.423586,0.999998,0.000218,-0.000753,0.005218,0.000636,0.005285,-0.000820,83.990845,0.005688,
1690,1340,-1.857581,-5.073740,0.999997,0.000216,-0.004395,0.008221,0.000411,0.008234,-0.004408,88.136142,0.008241,
1660,100,-0.262108,-14.669875,0.999998,0.000179,-0.001323,0.005985,-0.001419,0.006250,-0.001588,-79.389891,0.006497,
920,640,1.007110,-11.062856,0.999997,0.000208,-0.004529,0.008098,-0.000807,0.008149,-0.004580,-86.357493,0.008170,
560,300,1.738007,-12.754676,0.999837,0.000000,-0.005446,0.006613,-0.000820,0.006669,-0.005501,-86.126111,0.007123,
1700,1980,-0.222454,-0.321338,0.999998,0.000179,-0.000902,0.005892,0.001764,0.006323,-0.001332,76.277454,0.006667,
1100,80,0.038768,-14.839333,0.999998,0.000149,-0.000293,0.004729,0.000297,0.004747,-0.000310,86.622973,0.005311,
920,1730,0.578584,-1.774504,0.999997,0.000216,-0.002388,0.006605,-0.000056,0.006605,-0.002388,-89.642018,0.006689,
1160,2000,0.010762,-0.160295,0.999998,0.000152,-0.000118,0.004523,-0.000135,0.004526,-0.000122,-88.333315,0.005158,
1610,1450,-1.241141,-3.973059,0.999997,0.000198,-0.004367,0.007942,-0.000406,0.007955,-0.004380,-88.114283,0.007969,
960,380,0.552541,-13.046860,0.999997,0.000201,-0.002760,0.006523,-0.000334,0.006535,-0.002772,-87.944956,0.006560,
1150,1290,0.158693,-3.743618,0.999997,0.000226,-0.002873,0.004084,0.002830,0.005090,-0.003879,70.435629,0.005318,
1870,470,-1.992359,-11.563164,0.999997,0.000207,-0.003720,0.007602,0.000069,0.007603,-0.003721,89.650017,0.007603,
1300,110,-0.027558,-14.704608,0.999998,0.000175,-0.000361,0.004745,-0.000158,0.004750,-0.000366,-88.225881,0.005286,
600,1490,2.177366,-4.266477,0.999997,0.000216,-0.003781,0.007650,0.000001,0.007650,-0.003781,89.994837,0.007650,
1200,200,0.033146,-14.265773,0.999998,0.000181,-0.000911,0.005005,0.000022,0.005005,-0.000911,89.782755,0.005332,
1730,840,-2.379273,-8.971732,0.999996,0.000221,-0.003870,0.007804,-0.000842,0.007865,-0.003930,-85.894184,0.007865,
1120,1190,0.638004,-4.478730,0.999995,0.000286,-0.002717,0.004358,0.002686,0.005262,-0.003622,71.392971,0.005385,
1880,1540,-2.129317,-3.923859,0.999998,0.000186,-0.003749,0.007599,-0.000021,0.007599,-0.003749,-89.891590,0.007599,
1260,510,-0.053486,-12.641509,0.999998,0.000182,-0.001885,0.005074,0.000285,0.005085,-0.001897,87.661273,0.005140,
850,1860,0.473909,-1.013205,0.999996,0.000220,-0.001964,0.006414,-0.000865,0.006503,-0.002052,-84.164981,0.006648,
1820,1520,-1.947867,-3.935987,0.999997,0.000205,-0.003846,0.007646,-0.000048,0.007646,-0.003847,-89.762372,0.007646,
1000,1340,0.742222,-4.352003,0.999996,0.000247,-0.005067,0.008331,0.001651,0.008531,-0.005268,83.075600,0.008610,
1350,1790,-0.148417,-1.215701,0.999998,0.000171,-0.001359,0.005357,-0.000003,0.005357,-0.001359,-89.971474,0.005569,
1710,1140,-2.489979,-6.715318,0.999996,0.000236,-0.003542,0.007630,0.000750,0.007680,-0.003592,86.176723,0.007686,
1300,1640,-0.118569,-1.997480,0.999997,0.000202,-0.001805,0.005384,-0.000216,0.005391,-0.001812,-88.276900,0.005486,
870,1910,0.309741,-0.688861,0.999997,0.000190,-0.001589,0.005982,-0.000941,0.006097,-0.001704,-83.017294,0.006292,
930,300,0.517867,-13.521319,0.999997,0.000210,-0.002290,0.006395,0.000148,0.006397,-0.002292,89.023341,0.006482,
700,1920,0.595935,-0.770156,0.999997,0.000211,-0.002888,0.007143,-0.001530,0.007371,-0.003116,-81.519091,0.007400,
1250,90,-0.006632,-14.800057,0.999998,0.000151,-0.000373,0.004596,-0.000017,0.004596,-0.000373,-89.800566,0.005105,
1390,780,-0.486403,-10.699471,0.999994,0.000286,-0.005056,0.007585,0.002899,0.008218,-0.005689,77.681632,0.008418,
1290,1190,-0.467195,-3.870035,0.999995,0.000000,-0.004977,0.002275,-0.000124,0.002277,-0.004979,-89.022774,0.004985,
640,1710,1.529940,-2.493252,0.999996,0.000246,-0.003713,0.007588,0.000018,0.007588,-0.003713,89.909127,0.007589,
620,1360,2.421496,-5.213048,0.999996,0.000237,-0.003753,0.007587,-0.000235,0.007592,-0.003758,-88.814661,0.007592,
1400,1460,-0.392660,-3.217584,0.999997,0.000219,-0.003255,0.006314,-0.001571,0.006565,-0.003507,-80.909054,0.006570,
1210,360,0.035331,-13.435979,0.999998,0.000176,-0.001610,0.005315,-0.000126,0.005318,-0.001612,-88.961596,0.005453,
1520,1270,-1.227248,-5.247576,0.999995,0.000245,-0.005556,0.009431,-0.000301,0.009437,-0.005562,-88.849330,0.009487,
920,1710,0.607262,-1.908059,0.999998,0.000184,-0.002468,0.006656,-0.000033,0.006656,-0.002468,-89.793853,0.006730,
1880,1640,-1.906214,-3.165652,0.999997,0.000192,-0.003648,0.007437,-0.000069,0.007437,-0.003648,-89.644546,0.007438,
830,1850,0.541099,-1.097995,0.999997,0.000203,-0.002025,0.006601,-0.000906,0.006695,-0.002119,-84.067395,0.006844,
1780,1060,-2.825716,-7.328941,0.999997,0.000182,-0.003255,0.007093,0.000216,0.007097,-0.003260,88.807208,0.007105,
1700,1960,-0.297112,-0.439648,0.999997,0.000203,-0.001119,0.006112,0.001717,0.006499,-0.001506,77.299351,0.006804,
1490,1930,-0.150053,-0.531451,0.999998,0.000200,-0.000916,0.005330,0.000607,0.005389,-0.000975,84.498934,0.005743,
1320,1950,-0.034105,-0.393718,0.999998,0.000174,-0.000430,0.004757,0.000166,0.004762,-0.000435,88.173513,0.005266,
1040,1660,0.367409,-2.034941,0.999997,0.000209,-0.002343,0.006029,0.000438,0.006052,-0.002366,87.015811,0.006100,
1860,470,-1.955480,-11.586973,0.999998,0.000186,-0.003742,0.007609,0.000074,0.007609,-0.003743,89.627335,0.007610,
1610,1430,-1.280017,-4.134001,0.999997,0.000207,-0.004478,0.008128,-0.000386,0.008139,-0.004489,-88.249139,0.008154,
960,360,0.526925,-13.177537,0.999997,0.000199,-0.002697,0.006416,-0.000262,0.006423,-0.002704,-88.356039,0.006450,
1180,1670,0.086445,-1.829167,0.999998,0.000169,-0.001637,0.005352,0.000114,0.005354,-0.001639,89.063913,0.005486,
1720,850,-2.367745,-8.903093,0.999996,0.000241,-0.003886,0.007822,-0.000850,0.007884,-0.003948,-85.868616,0.007884,
1200,180,0.023796,-14.365515,0.999998,0.000167,-0.000806,0.004951,0.000028,0.004952,-0.000806,89.719273,0.005314,
1650,1220,-2.039995,-6.015202,0.999997,0.000213,-0.004251,0.008371,0.000912,0.008436,-0.004316,85.889774,0.008437,
1120,1180,0.730053,-4.517341,0.999994,0.000296,-0.002232,0.004113,0.002849,0.005205,-0.003324,69.039266,0.005271,
1220,510,0.022302,-12.651535,0.999999,0.000133,-0.001910,0.005058,-0.000173,0.005062,-0.001914,-88.576450,0.005112,
1150,1270,0.180226,-3.820848,0.999997,0.000213,-0.003085,0.003973,0.003023,0.005091,-0.004203,69.706764,0.005439,
560,410,1.980171,-11.939601,0.999998,0.000000,-0.003759,0.007403,-0.000105,0.007404,-0.003760,-89.460272,0.007404,
1580,320,-0.667305,-13.321216,0.999996,0.000238,-0.002862,0.006824,-0.000046,0.006824,-0.002862,-89.727340,0.006854,
570,210,1.358092,-13.418259,0.999918,0.001093,-0.003217,0.007420,0.000136,0.007422,-0.003219,89.266060,0.007443,
1170,2000,0.009905,-0.160528,0.999998,0.000152,-0.000117,0.004529,-0.000119,0.004532,-0.000120,-88.536040,0.005165,
1870,1540,-2.092575,-3.900758,0.999997,0.000199,-0.003767,0.007616,-0.000037,0.007616,-0.003767,-89.814551,0.007617,
1300,1620,-0.124281,-2.103811,0.999998,0.000172,-0.001856,0.005366,-0.000291,0.005378,-0.001868,-87.692626,0.005461,
1660,80,-0.197117,-14.785034,0.999997,0.000193,-0.000998,0.005793,-0.001463,0.006094,-0.001299,-78.343703,0.006420,
830,1880,0.457939,-0.903500,0.999996,0.000223,-0.001713,0.006355,-0.001064,0.006493,-0.001851,-82.612044,0.006690,
1400,1680,-0.298984,-1.876953,0.999997,0.000190,-0.002172,0.005885,-0.000342,0.005899,-0.002187,-87.570717,0.005965,
880,160,0.332291,-14.346591,0.999997,0.000206,-0.001691,0.006034,0.000856,0.006128,-0.001785,83.749661,0.006304,
1300,1750,-0.094595,-1.403392,0.999998,0.000151,-0.001346,0.005322,-0.000007,0.005322,-0.001346,-89.937162,0.005534,
1250,70,-0.005903,-14.891837,0.999998,0.000161,-0.000276,0.004576,-0.000035,0.004576,-0.000277,-89.585077,0.005132,
1780,1150,-2.713619,-6.682671,0.999997,0.000223,-0.003466,0.007205,0.000546,0.007232,-0.003494,87.080791,0.007234,
920,620,0.973596,-11.225163,0.999997,0.000204,-0.004373,0.007942,-0.000824,0.007997,-0.004427,-86.189910,0.008012,
1090,1790,0.180080,-1.228345,0.999998,0.000162,-0.001301,0.005452,-0.000075,0.005453,-0.001301,-89.366239,0.005695,
1180,430,0.092617,-13.049061,0.999998,0.000157,-0.001781,0.005313,-0.000155,0.005316,-0.001784,-88.746790,0.005411,
1870,1450,-2.299795,-4.590896,0.999997,0.000241,-0.003794,0.007681,0.000037,0.007682,-0.003794,89.817489,0.007682,
1450,130,-0.133799,-14.575046,0.999998,0.000183,-0.000718,0.005171,-0.000492,0.005212,-0.000759,-85.257728,0.005632,
1670,1340,-1.769056,-5.033976,0.999997,0.000203,-0.004516,0.008327,0.000349,0.008337,-0.004525,88.445026,0.008347,
620,1380,2.369853,-5.059525,0.999996,0.000222,-0.003791,0.007541,-0.000208,0.007544,-0.003795,-88.948883,0.007545,
700,1900,0.688074,-0.917027,0.999997,0.000222,-0.003123,0.007355,-0.001292,0.007512,-0.003280,-83.073552,0.007532,
1290,870,-0.518446,-11.251220,0.999990,0.000000,-0.005209,0.001684,0.000265,0.001694,-0.005219,87.805749,0.005325,
810,420,1.079060,-12.463079,0.999997,0.000189,-0.003520,0.007399,-0.000213,0.007403,-0.003524,-88.880483,0.007406,
690,1500,1.809704,-3.978287,0.999997,0.000185,-0.003931,0.007719,0.000060,0.007720,-0.003932,89.705484,0.007720,
790,860,2.209133,-8.869751,0.999997,0.000203,-0.003991,0.008162,0.000960,0.008237,-0.004066,85.509596,0.008238,
1500,50,-0.045098,-14.970880,0.999998,0.000152,-0.000342,0.004857,-0.000644,0.004935,-0.000420,-83.039380,0.005472,
1820,1500,-1.990332,-4.088937,0.999997,0.000194,-0.003830,0.007635,-0.000043,0.007635,-0.003830,-89.782723,0.007635,
1300,1950,-0.026680,-0.391560,0.999998,0.000197,-0.000329,0.004746,0.000148,0.004750,-0.000334,88.335042,0.005303,
1280,110,-0.020654,-14.705511,0.999999,0.000166,-0.000358,0.004738,-0.000118,0.004741,-0.000361,-88.676216,0.005278,
1530,860,-1.573373,-9.111901,0.999996,0.000255,-0.005092,0.009661,-0.000684,0.009693,-0.005124,-87.349363,0.009698,
1700,1940,-0.377181,-0.568335,0.999997,0.000209,-0.001456,0.006511,0.001773,0.006888,-0.001833,78.000323,0.007135,
1490,1910,-0.183552,-0.635492,0.999998,0.000173,-0.001087,0.005415,0.000594,0.005469,-0.001141,84.818906,0.005770,
1420,470,-0.404173,-12.632287,0.999997,0.000194,-0.002558,0.006203,0.000695,0.006258,-0.002613,85.491910,0.006287,
830,1830,0.596020,-1.228636,0.999997,0.000207,-0.002185,0.006686,-0.000778,0.006753,-0.002253,-85.026701,0.006877,
1700,1650,-1.216756,-2.650755,0.999997,0.000196,-0.003584,0.007544,-0.000113,0.007546,-0.003585,-89.419832,0.007549,
1610,1410,-1.319890,-4.300286,0.999996,0.000218,-0.004565,0.008343,-0.000310,0.008350,-0.004573,-88.623550,0.008363,
1700,850,-2.289122,-8.922622,0.999997,0.000209,-0.003945,0.007985,-0.000912,0.008054,-0.004015,-85.653296,0.008054,
1200,160,0.025306,-14.464517,0.999998,0.000169,-0.000712,0.004932,0.000059,0.004932,-0.000713,89.398109,0.005332,
960,340,0.502339,-13.303812,0.999996,0.000220,-0.002576,0.006453,-0.000171,0.006456,-0.002579,-88.918548,0.006500,
1150,1250,0.211457,-3.900978,0.999997,0.000219,-0.003312,0.003780,0.002926,0.004831,-0.004364,70.237594,0.005329,
1500,2000,-0.051775,-0.172086,0.999998,0.000181,-0.000390,0.004909,0.000648,0.004987,-0.000468,83.131364,0.005508,
570,200,1.323911,-13.494645,0.999922,0.000994,-0.002852,0.007605,-0.000212,0.007609,-0.002856,-88.838495,0.007687,
1830,500,-1.908065,-11.429594,0.999997,0.000200,-0.003806,0.007649,0.000074,0.007650,-0.003806,89.632222,0.007650,
1580,300,-0.629501,-13.457324,0.999996,0.000227,-0.002732,0.006719,-0.000144,0.006721,-0.002734,-89.124744,0.006760,
1660,60,-0.129551,-14.901961,0.999998,0.000185,-0.000747,0.005547,-0.001471,0.005874,-0.001074,-77.469843,0.006255,
1120,1170,0.821900,-4.557509,0.999882,0.001306,-0.001810,0.004138,0.003234,0.005558,-0.003230,66.300465,0.005582,
1280,610,-0.090280,-12.139814,0.999998,0.000201,-0.002000,0.004580,0.000761,0.004666,-0.002086,83.488557,0.004675,
570,1180,3.035230,-6.603629,0.999995,0.000253,-0.003038,0.006430,-0.000004,0.006430,-0.003038,-89.978006,0.006434,
1040,1640,0.381402,-2.156696,0.999997,0.000181,-0.002395,0.006069,0.000518,0.006101,-0.002426,86.514118,0.006143,
1630,1220,-1.953836,-5.989494,0.999997,0.000190,-0.004404,0.008593,0.000904,0.008656,-0.004466,86.040847,0.008657,
1810,1640,-1.645002,-2.994257,0.999996,0.000217,-0.003774,0.007614,-0.000096,0.007615,-0.003775,-89.519247,0.007615,
1780,1040,-2.838933,-7.469851,0.999997,0.000191,-0.003237,0.007138,0.000185,0.007141,-0.003240,88.977152,0.007151,
560,290,1.720575,-12.796232,0.999748,0.000000,-0.005901,0.006759,-0.000487,0.006778,-0.005920,-87.800312,0.007381,
1490,460,-0.596816,-12.542911,0.999997,0.000183,-0.002984,0.006701,0.000620,0.006741,-0.003023,86.353857,0.006753,
890,1550,0.931334,-3.098259,0.999997,0.000204,-0.003730,0.007433,0.000579,0.007463,-0.003760,87.038652,0.007463,
920,600,0.944364,-11.382768,0.999997,0.000220,-0.004202,0.007790,-0.000827,0.007847,-0.004258,-86.075428,0.007857,
700,1880,0.773073,-1.065141,0.999997,0.000208,-0.003257,0.007363,-0.001088,0.007473,-0.003367,-84.209180,0.007485,
1350,1770,-0.162405,-1.326261,0.999998,0.000184,-0.001475,0.005472,-0.000020,0.005472,-0.001475,-89.839015,0.005662,
1300,1600,-0.125635,-2.210286,0.999998,0.000183,-0.001946,0.005386,-0.000368,0.005404,-0.001965,-87.135691,0.005471,
620,1400,2.318462,-4.910589,0.999996,0.000214,-0.003817,0.007538,-0.000172,0.007541,-0.003820,-89.132916,0.007541,
1050,1300,0.555157,-4.392017,0.999997,0.000204,-0.005067,0.007970,0.002476,0.008425,-0.005521,79.599009,0.008559,
1400,1440,-0.402008,-3.348263,0.999997,0.000216,-0.003379,0.006331,-0.001706,0.006622,-0.003670,-80.318290,0.006635,
670,1500,1.888628,-4.026476,0.999996,0.000242,-0.003893,0.007696,0.000035,0.007696,-0.003894,89.825812,0.007696,
1090,1750,0.208349,-1.451618,0.999998,0.000178,-0.001537,0.005561,0.000032,0.005561,-0.001537,89.745270,0.005744,
1120,1750,0.159606,-1.429915,0.999998,0.000167,-0.001596,0.005445,0.000140,0.005447,-0.001599,88.859181,0.005600,
1280,1550,-0.090856,-2.464960,0.999998,0.000173,-0.001925,0.005168,-0.000301,0.005180,-0.001938,-87.576082,0.005235,
1870,1790,-1.479002,-2.026037,0.999997,0.000224,-0.003675,0.007371,0.000081,0.007372,-0.003676,89.579335,0.007372,
1820,1480,-2.036924,-4.243523,0.999998,0.000185,-0.003821,0.007700,0.000012,0.007700,-0.003821,89.938654,0.007700,
1260,1250,-0.069989,-3.570551,0.999996,0.000227,-0.002580,0.001772,-0.001169,0.002067,-0.002874,-75.872237,0.002965,
1040,1950,0.082952,-0.410180,0.999998,0.000170,-0.000627,0.005006,-0.000427,0.005038,-0.000659,-85.690634,0.005477,
1000,590,0.610868,-11.721222,0.999997,0.000232,-0.003781,0.007132,-0.001326,0.007290,-0.003940,-83.171526,0.007298,
1700,1180,-2.355256,-6.395200,0.999996,0.000232,-0.003812,0.007857,0.000863,0.007920,-0.003875,85.793224,0.007921,
690,980,2.793629,-7.898469,0.999997,0.000190,-0.003271,0.007052,0.000209,0.007056,-0.003276,88.840959,0.007062,
1290,860,-0.426207,-11.261877,0.999995,0.000000,-0.004798,0.002097,0.000227,0.002104,-0.004805,88.116754,0.004818,
1240,1980,-0.003465,-0.250637,0.999998,0.000164,-0.000270,0.004562,0.000009,0.004562,-0.000271,89.891544,0.005119,
1610,1390,-1.364643,-4.469197,0.999997,0.000206,-0.004652,0.008393,-0.000225,0.008397,-0.004656,-89.013463,0.008414,
1490,1890,-0.216029,-0.748728,0.999998,0.000179,-0.001229,0.005486,0.000513,0.005525,-0.001268,85.652997,0.005788,
750,630,1.738190,-10.687504,0.999997,0.000220,-0.004211,0.007981,0.000071,0.007981,-0.004211,89.666005,0.007985,
750,440,1.337245,-12.171884,0.999997,0.000221,-0.003731,0.007568,-0.000191,0.007571,-0.003735,-89.031201,0.007572,
960,320,0.474840,-13.438072,0.999997,0.000202,-0.002441,0.006389,-0.000072,0.006390,-0.002442,-89.534968,0.006449,
1740,1040,-2.709471,-7.468801,0.999997,0.000203,-0.003237,0.007316,0.000168,0.007319,-0.003240,89.086357,0.007335,
1830,480,-1.862841,-11.581835,0.999997,0.000207,-0.003800,0.007642,0.000101,0.007643,-0.003801,89.496372,0.007643,
1150,1230,0.278457,-3.970059,0.999996,0.000228,-0.003393,0.003604,0.002634,0.004485,-0.004274,71.512949,0.005061,
1080,1430,0.346315,-3.343110,0.999997,0.000194,-0.003220,0.006078,0.001773,0.006405,-0.003547,79.563983,0.006417,
570,190,1.281007,-13.564076,0.999943,0.000846,-0.003121,0.007597,0.000123,0.007598,-0.003122,89.343600,0.007638,
1030,1820,0.239476,-1.104693,0.999997,0.000231,-0.001490,0.005631,-0.000188,0.005636,-0.001495,-88.492619,0.005840,
830,1810,0.644950,-1.366889,0.999997,0.000204,-0.002350,0.006837,-0.000678,0.006887,-0.002400,-85.799229,0.006992,
1680,1650,-1.147182,-2.606277,0.999998,0.000181,-0.003515,0.007484,-0.000093,0.007485,-0.003516,-89.515247,0.007489,
730,920,2.576825,-8.355381,0.999996,0.000215,-0.003473,0.007450,0.000639,0.007488,-0.003510,86.662570,0.007492,
1200,140,0.017926,-14.564134,0.999998,0.000148,-0.000587,0.004796,0.000042,0.004796,-0.000588,89.551522,0.005232,
1650,1990,-0.137322,-0.243327,0.999998,0.000195,-0.000670,0.005586,0.001433,0.005899,-0.000983,77.690976,0.006321,
1780,1020,-2.840566,-7.614404,0.999998,0.000180,-0.003235,0.007139,-0.000104,0.007140,-0.003236,-89.427726,0.007150,
1080,830,0.602086,-10.365075,0.999995,0.000258,-0.005272,0.007907,-0.002963,0.008543,-0.005908,-77.893002,0.008749,
1110,1170,0.839224,-4.717269,0.999996,0.000256,-0.002016,0.004880,0.003535,0.006370,-0.003506,67.143290,0.006380,
1100,2000,0.021750,-0.163182,0.999999,0.000137,-0.000150,0.004599,-0.000265,0.004614,-0.000165,-86.811073,0.005235,
920,820,1.478700,-9.456566,0.999996,0.000250,-0.005303,0.009511,0.000395,0.009522,-0.005313,88.474376,0.009543,
580,1650,1.895546,-3.097049,0.999998,0.000192,-0.003751,0.007392,0.000092,0.007393,-0.003752,89.528761,0.007393,
1260,650,-0.048356,-11.989940,0.999999,0.000144,-0.001737,0.004024,0.000578,0.004082,-0.001795,84.332185,0.004092,
590,1180,2.973237,-6.569125,0.999998,0.000173,-0.003205,0.006663,-0.000177,0.006666,-0.003208,-88.972303,0.006668,
560,270,1.667614,-12.968891,0.999622,0.000000,-0.006263,0.008903,0.000355,0.008912,-0.006271,88.658742,0.009155,
600,1250,2.779477,-6.065392,0.999996,0.000231,-0.003504,0.007015,-0.000283,0.007022,-0.003512,-88.457884,0.007022,
1700,1920,-0.457607,-0.701216,0.999997,0.000204,-0.001777,0.006572,0.001556,0.006853,-0.002058,79.779415,0.007032,
1490,500,-0.630495,-12.272562,0.999996,0.000219,-0.003278,0.006878,0.000816,0.006944,-0.003343,85.434930,0.006945,
1870,1780,-1.508591,-2.100113,0.999998,0.000202,-0.003665,0.007335,0.000040,0.007335,-0.003665,89.792634,0.007335,
1640,1270,-1.836888,-5.571818,0.999996,0.000228,-0.004611,0.008606,0.000642,0.008637,-0.004642,87.225751,0.008645,
1180,1270,0.101392,-3.630720,0.999997,0.000227,-0.002307,0.002644,0.002155,0.003451,-0.003113,69.478542,0.003805,
1290,30,-0.003566,-15.071063,0.999999,0.000000,0.000031,0.004422,-0.000104,0.004425,0.000029,-88.646514,0.005126,
1090,1730,0.218776,-1.564275,0.999998,0.000188,-0.001645,0.005659,0.000060,0.005659,-0.001646,89.530235,0.005822,
1350,1750,-0.170685,-1.434755,0.999998,0.000176,-0.001570,0.005467,-0.000101,0.005468,-0.001571,-89.176471,0.005631,
1400,1400,-0.412212,-3.600616,0.999997,0.000204,-0.003636,0.006586,-0.001966,0.006951,-0.004001,-79.482708,0.006978,
1670,1900,-0.466123,-0.806983,0.999996,0.000226,-0.002178,0.006518,0.001211,0.006683,-0.002343,82.219030,0.006782,
960,300,0.446889,-13.561981,0.999997,0.000197,-0.002326,0.006198,0.000021,0.006198,-0.002326,89.859538,0.006262,
940,1730,0.529342,-1.746094,0.999998,0.000180,-0.002386,0.006564,-0.000019,0.006564,-0.002386,-89.877534,0.006645,
1530,1720,-0.561299,-1.822797,0.999996,0.000231,-0.002429,0.006647,0.000015,0.006647,-0.002429,89.903225,0.006727,
1000,570,0.596206,-11.864444,0.999997,0.000242,-0.003623,0.006976,-0.001236,0.007118,-0.003766,-83.435996,0.007122,
1150,1210,0.374292,-4.039674,0.999994,0.000294,-0.003379,0.003148,0.001701,0.003564,-0.003795,76.234628,0.004255,
620,1840,1.203397,-1.564689,0.999997,0.000203,-0.003667,0.007674,-0.000280,0.007681,-0.003674,-88.587106,0.007684,
1550,320,-0.586160,-13.368678,0.999998,0.000190,-0.002429,0.006607,-0.000073,0.006607,-0.002430,-89.534290,0.006684,
1830,540,-1.996038,-11.121885,0.999997,0.000185,-0.003818,0.007630,0.000053,0.007630,-0.003818,89.733090,0.007630,
880,1440,1.140939,-3.979302,0.999997,0.000220,-0.004403,0.007949,0.000538,0.007973,-0.004426,87.511123,0.007989,
1240,1960,-0.003957,-0.342267,0.999998,0.000166,-0.000378,0.004620,-0.000001,0.004620,-0.000378,-89.989885,0.005130,
1590,1540,-1.010102,-3.216357,0.999997,0.000237,-0.003766,0.007545,-0.000508,0.007568,-0.003788,-87.433789,0.007568,
1490,1870,-0.246469,-0.857557,0.999997,0.000191,-0.001402,0.005634,0.000449,0.005662,-0.001431,86.359670,0.005888,
630,180,1.023094,-13.859158,0.999997,0.000207,-0.003570,0.007765,0.000632,0.007800,-0.003605,86.819767,0.007807,
1650,1970,-0.200822,-0.357947,0.999998,0.000193,-0.000916,0.005766,0.001417,0.006054,-0.001204,78.509694,0.006410,
1200,120,0.017447,-14.656368,0.999998,0.000163,-0.000468,0.004742,0.000038,0.004743,-0.000468,89.577799,0.005227,
1300,1580,-0.128180,-2.319235,0.999998,0.000185,-0.002013,0.005370,-0.000442,0.005396,-0.002039,-86.588478,0.005449,
700,1860,0.855785,-1.213464,0.999997,0.000206,-0.003372,0.007481,-0.000864,0.007550,-0.003440,-85.475579,0.007560,
1520,930,-1.838080,-8.460233,0.999995,0.000267,-0.003974,0.009521,-0.000993,0.009594,-0.004047,-85.812442,0.009633,
1000,1320,0.782234,-4.526815,0.999997,0.000243,-0.005304,0.008602,0.001618,0.008788,-0.005490,83.449138,0.008879,
1510,1720,-0.513141,-1.794391,0.999997,0.000209,-0.002506,0.006520,-0.000100,0.006521,-0.002507,-89.365040,0.006579,
1180,2000,0.008027,-0.159616,0.999998,0.000170,-0.000119,0.004525,-0.000099,0.004527,-0.000121,-88.777819,0.005159,
1580,280,-0.591129,-13.592780,0.999997,0.000206,-0.002587,0.006664,-0.000260,0.006671,-0.002595,-88.392052,0.006725,
660,1460,2.017149,-4.357590,0.999998,0.000171,-0.003883,0.007726,-0.000051,0.007727,-0.003883,-89.747533,0.007727,
1170,1680,0.101186,-1.779552,0.999999,0.000133,-0.001628,0.005375,0.000097,0.005376,-0.001629,89.204477,0.005514,
1540,1470,-0.910908,-3.613152,0.999998,0.000184,-0.004103,0.007686,-0.000832,0.007745,-0.004162,-85.982719,0.007752,
1400,1380,-0.418797,-3.733118,0.999996,0.000220,-0.003858,0.006645,-0.002134,0.007062,-0.004275,-78.941316,0.007114,
810,400,1.042918,-12.611845,0.999997,0.000201,-0.003476,0.007399,-0.000152,0.007401,-0.003478,-89.200270,0.007405,
1450,960,-1.688119,-8.391216,0.999988,0.000407,-0.004376,0.011870,0.000586,0.011891,-0.004397,87.935997,0.012024,
1780,1000,-2.828735,-7.756203,0.999998,0.000177,-0.003247,0.007069,-0.000234,0.007075,-0.003252,-88.700572,0.007082,
800,220,0.650771,-13.886953,0.999997,0.000209,-0.002729,0.006823,0.000737,0.006880,-0.002785,85.613198,0.006921,
960,280,0.419333,-13.685244,0.999997,0.000210,-0.002216,0.006207,0.000137,0.006209,-0.002219,89.066535,0.006293,
1820,1460,-2.084256,-4.399109,0.999998,0.000181,-0.003844,0.007703,0.000056,0.007703,-0.003844,89.720976,0.007703,
1490,480,-0.615364,-12.409514,0.999996,0.000215,-0.003095,0.006779,0.000702,0.006828,-0.003145,85.952934,0.006835,
1860,350,-1.677715,-12.490073,0.999997,0.000208,-0.003659,0.007465,0.000103,0.007466,-0.003660,89.470169,0.007467,
1710,1080,-2.587306,-7.169407,0.999997,0.000211,-0.003254,0.007438,0.000376,0.007451,-0.003267,87.989168,0.007470,
830,1790,0.697252,-1.504255,0.999997,0.000184,-0.002492,0.006847,-0.000523,0.006876,-0.002521,-86.805652,0.006957,
1530,750,-1.175973,-10.158118,0.999996,0.000227,-0.005350,0.009069,0.000460,0.009083,-0.005364,88.175735,0.009133,
920,580,0.917896,-11.537533,0.999997,0.000206,-0.004073,0.007681,-0.000813,0.007737,-0.004129,-86.060486,0.007743,
1490,50,-0.041923,-14.972498,0.999999,0.000134,-0.000320,0.004831,-0.000627,0.004906,-0.000395,-83.158042,0.005451,
1620,1270,-1.743746,-5.532563,0.999995,0.000263,-0.004737,0.008779,0.000602,0.008806,-0.004764,87.454884,0.008816,
580,1180,3.005064,-6.585286,0.999998,0.000179,-0.003092,0.006557,-0.000079,0.006558,-0.003093,-89.531077,0.006561,
750,650,1.786963,-10.526780,0.999997,0.000229,-0.004231,0.008044,0.000155,0.008046,-0.004233,89.275659,0.008050,
1700,1880,-0.607734,-0.970982,0.999997,0.000201,-0.002310,0.006854,0.001245,0.007020,-0.002476,82.401106,0.007121,
770,860,2.291251,-8.848639,0.999998,0.000186,-0.003917,0.007985,0.000903,0.008053,-0.003985,85.687280,0.008053,
1240,650,-0.013973,-12.008351,0.999998,0.000147,-0.001667,0.003918,0.000241,0.003928,-0.001678,87.529898,0.003942,
1760,1210,-2.506040,-6.218012,0.999995,0.000249,-0.003775,0.007565,0.000731,0.007612,-0.003822,86.324835,0.007612,
1350,1730,-0.183495,-1.547079,0.999998,0.000173,-0.001675,0.005564,-0.000142,0.005566,-0.001678,-88.879816,0.005711,
1740,1060,-2.695195,-7.322420,0.999997,0.000201,-0.003209,0.007283,0.000252,0.007289,-0.003215,88.624225,0.007306,
1300,1560,-0.130777,-2.425281,0.999998,0.000174,-0.002067,0.005313,-0.000523,0.005350,-0.002104,-85.969569,0.005391,
1770,140,-0.638906,-14.301574,0.999998,0.000202,-0.002894,0.007240,-0.001509,0.007460,-0.003114,-81.708688,0.007494,
700,1840,0.926843,-1.363614,0.999997,0.000208,-0.003411,0.007484,-0.000692,0.007528,-0.003455,-86.379720,0.007536,
1700,1790,-0.891216,-1.616046,0.999998,0.000149,-0.003044,0.007254,0.000545,0.007282,-0.003073,86.979810,0.007312,
1150,830,0.295597,-11.130006,0.999994,0.000276,-0.003344,0.003556,-0.002461,0.004344,-0.004132,-72.248924,0.004898,
1240,1940,-0.003795,-0.434054,0.999998,0.000145,-0.000467,0.004755,0.000004,0.004755,-0.000467,89.952025,0.005242,
1490,1850,-0.279362,-0.973266,0.999998,0.000185,-0.001545,0.005739,0.000409,0.005762,-0.001568,86.797626,0.005958,
1630,220,-0.575838,-13.925336,0.999996,0.000241,-0.002118,0.006599,-0.000795,0.006670,-0.002190,-84.832831,0.006800,
1240,2000,-0.001220,-0.159952,0.999998,0.000146,-0.000180,0.004536,-0.000014,0.004536,-0.000180,-89.828574,0.005136,
1160,430,0.128324,-13.039869,0.999998,0.000179,-0.001874,0.005394,-0.000297,0.005406,-0.001886,-87.666611,0.005488,
1580,260,-0.549703,-13.722445,0.999997,0.000201,-0.002464,0.006467,-0.000360,0.006482,-0.002479,-87.694435,0.006541,
1870,1770,-1.538049,-2.172168,0.999998,0.000189,-0.003663,0.007320,0.000012,0.007320,-0.003663,89.939896,0.007320,
1180,1250,0.129813,-3.677183,0.999997,0.000220,-0.002695,0.002419,0.002042,0.003134,-0.003410,70.692751,0.003789,
800,200,0.592648,-14.020772,0.999997,0.000214,-0.002560,0.006778,0.000886,0.006862,-0.002643,84.626488,0.006921,
1620,1650,-0.937530,-2.470864,0.999997,0.000228,-0.003343,0.007252,-0.000194,0.007256,-0.003347,-88.950125,0.007263,
1000,1300,0.822277,-4.701139,0.999996,0.000248,-0.005520,0.008854,0.001544,0.009018,-0.005684,83.939082,0.009119,
620,1820,1.279133,-1.716650,0.999996,0.000229,-0.003653,0.007533,-0.000202,0.007537,-0.003657,-88.968134,0.007538,
1570,1540,-0.933209,-3.165194,0.999998,0.000188,-0.003792,0.007480,-0.000604,0.007512,-0.003825,-86.943648,0.007513,
1520,1470,-0.830056,-3.549842,0.999997,0.000213,-0.004082,0.007607,-0.000963,0.007686,-0.004160,-85.323796,0.007695,
660,1440,2.064989,-4.514052,0.999998,0.000183,-0.003914,0.007720,-0.000117,0.007721,-0.003916,-89.423936,0.007721,
830,1770,0.741813,-1.642692,0.999997,0.000179,-0.002624,0.007016,-0.000429,0.007035,-0.002644,-87.456659,0.007107,
1780,980,-2.817307,-7.899127,0.999998,0.000177,-0.003281,0.006996,-0.000190,0.006999,-0.003285,-88.943918,0.007003,
930,400,0.658083,-12.861087,0.999997,0.000193,-0.002813,0.006727,-0.000283,0.006735,-0.002821,-88.304902,0.006765,
940,1050,2.064643,-7.359458,0.999998,0.000196,-0.002756,0.009092,-0.000351,0.009102,-0.002767,-88.304307,0.009333,
800,510,1.281806,-11.757863,0.999996,0.000211,-0.003889,0.007714,-0.000294,0.007722,-0.003896,-88.549430,0.007722,
1790,880,-2.698355,-8.611719,0.999997,0.000211,-0.003534,0.007344,-0.000667,0.007385,-0.003574,-86.501738,0.007386,
960,700,0.918285,-10.710996,0.999997,0.000210,-0.005018,0.008524,-0.001119,0.008616,-0.005110,-85.307547,0.008665,
1400,1360,-0.432783,-3.871407,0.999995,0.000264,-0.004087,0.006854,-0.002298,0.007317,-0.004550,-78.608431,0.007389,
1530,730,-1.122893,-10.339942,0.999997,0.000227,-0.005217,0.008889,0.000599,0.008914,-0.005243,87.572318,0.008960,
1040,1620,0.393362,-2.278670,0.999997,0.000202,-0.002460,0.006102,0.000572,0.006140,-0.002498,86.195902,0.006176,
1600,1270,-1.647797,-5.489124,0.999996,0.000282,-0.004926,0.008936,0.000518,0.008955,-0.004945,87.861123,0.008972,
1610,1370,-1.411718,-4.639045,0.999997,0.000216,-0.004748,0.008474,-0.000109,0.008475,-0.004749,-89.527332,0.008496,
750,320,1.073587,-13.074911,0.999998,0.000178,-0.003278,0.007354,0.000198,0.007358,-0.003282,88.933534,0.007372,
1750,760,-2.236809,-9.574042,0.999996,0.000243,-0.004035,0.007879,-0.000613,0.007911,-0.004066,-87.064124,0.007912,
590,1250,2.814548,-6.082871,0.999998,0.000195,-0.003527,0.006944,-0.000200,0.006948,-0.003531,-88.904805,0.006948,
1560,50,-0.061166,-14.966855,0.999999,0.000159,-0.000257,0.005059,-0.000939,0.005221,-0.000418,-80.267210,0.005802,
1300,1540,-0.131870,-2.532043,0.999998,0.000181,-0.002079,0.005264,-0.000605,0.005314,-0.002129,-85.319435,0.005349,
1700,1860,-0.672038,-1.110619,0.999997,0.000194,-0.002507,0.007070,0.001108,0.007196,-0.002634,83.488615,0.007282,
920,540,0.864241,-11.844131,0.999997,0.000207,-0.003839,0.007472,-0.000747,0.007521,-0.003888,-86.236648,0.007523,
750,670,1.838407,-10.364575,0.999997,0.000256,-0.004263,0.008061,0.000215,0.008065,-0.004267,89.001263,0.008070,
1280,590,-0.090679,-12.233330,0.999998,0.000217,-0.001988,0.004771,0.000626,0.004829,-0.002045,84.752719,0.004847,
1490,1090,-1.868596,-6.933556,0.999997,0.000198,-0.003569,0.010017,0.000643,0.010047,-0.003600,87.297987,0.010181,
1740,1500,-1.679701,-3.900360,0.999996,0.000207,-0.003992,0.007805,-0.000085,0.007806,-0.003993,-89.585087,0.007806,
830,580,1.291210,-11.285496,0.999997,0.000196,-0.004236,0.007961,-0.000340,0.007970,-0.004246,-88.404904,0.007976,
1240,1920,-0.004686,-0.532974,0.999998,0.000145,-0.000590,0.004781,0.000006,0.004781,-0.000590,89.939567,0.005213,
1150,810,0.224750,-11.200666,0.999997,0.000235,-0.003347,0.003740,-0.002901,0.004776,-0.004382,-70.349502,0.005302,
700,1820,0.997801,-1.512457,0.999998,0.000179,-0.003484,0.007528,-0.000515,0.007552,-0.003508,-87.329397,0.007559,
1680,1790,-0.829599,-1.579670,0.999997,0.000193,-0.003093,0.007136,0.000451,0.007155,-0.003112,87.482844,0.007175,
1820,1440,-2.130558,-4.550940,0.999998,0.000178,-0.003860,0.007670,0.000101,0.007671,-0.003861,89.498124,0.007671,
1790,1080,-2.846645,-7.188619,0.999998,0.000165,-0.003280,0.007000,0.000187,0.007003,-0.003284,88.960781,0.007007,
1840,350,-1.604659,-12.545954,0.999998,0.000223,-0.003658,0.007534,0.000064,0.007535,-0.003659,89.674046,0.007536,
710,1560,1.601957,-3.466731,0.999996,0.000248,-0.003838,0.007699,0.000134,0.007701,-0.003840,89.336554,0.007701,
1750,140,-0.579549,-14.337533,0.999997,0.000206,-0.002813,0.007064,-0.001425,0.007266,-0.003014,-81.953256,0.007301,
1400,2000,-0.025963,-0.164749,0.999998,0.000165,-0.000225,0.004688,0.000348,0.004712,-0.000250,85.963601,0.005303,
1450,150,-0.154575,-14.471211,0.999998,0.000194,-0.000877,0.005344,-0.000476,0.005380,-0.000914,-85.649377,0.005758,
1820,1650,-1.661420,-2.941199,0.999997,0.000204,-0.003760,0.007568,-0.000087,0.007569,-0.003761,-89.558752,0.007569,
1490,320,-0.442538,-13.454471,0.999996,0.000252,-0.002324,0.006335,0.000081,0.006335,-0.002325,89.462772,0.006410,
560,260,1.626184,-13.072912,0.999542,0.000000,-0.006534,0.008519,0.000579,0.008541,-0.006556,87.800994,0.008940,
1090,1710,0.232120,-1.678918,0.999998,0.000178,-0.001730,0.005636,0.000150,0.005639,-0.001733,88.834072,0.005777,
660,1420,2.114757,-4.669424,0.999997,0.000216,-0.003907,0.007740,-0.000167,0.007742,-0.003909,-89.180091,0.007742,
1470,1020,-1.924788,-7.640374,0.999993,0.000317,-0.003491,0.011004,-0.000004,0.011004,-0.003491,-89.985580,0.011247,
1580,1270,-1.545902,-5.441218,0.999994,0.000267,-0.005077,0.009084,0.000362,0.009094,-0.005087,88.536021,0.009115,
610,1500,2.116414,-4.166121,0.999997,0.000209,-0.003774,0.007626,0.000019,0.007626,-0.003774,89.902030,0.007627,
1760,890,-2.614496,-8.561991,0.999996,0.000235,-0.003592,0.007511,-0.000749,0.007561,-0.003642,-86.160402,0.007563,
1400,1340,-0.448368,-4.011172,0.999996,0.000226,-0.004328,0.007068,-0.002446,0.007571,-0.004831,-78.382655,0.007667,
960,720,0.957315,-10.538735,0.999996,0.000224,-0.005199,0.008710,-0.001052,0.008789,-0.005278,-85.700648,0.008848,
1220,1570,0.020997,-2.340148,0.999998,0.000185,-0.001895,0.005174,0.000170,0.005178,-0.001899,88.621813,0.005239,
1780,1400,-2.074761,-4.774991,0.999997,0.000224,-0.003989,0.007785,0.000228,0.007789,-0.003993,88.889002,0.007790,
800,490,1.244900,-11.910110,0.999996,0.000201,-0.003825,0.007609,-0.000294,0.007617,-0.003832,-88.526687,0.007617,
1040,1600,0.405110,-2.400347,0.999997,0.000203,-0.002510,0.006173,0.000633,0.006218,-0.002556,85.850070,0.006251,
1890,1220,-2.940962,-6.326436,0.999998,0.000176,-0.003390,0.006950,0.000201,0.006954,-0.003394,88.886548,0.006955,
830,1750,0.789614,-1.785871,0.999998,0.000177,-0.002777,0.006991,-0.000274,0.006998,-0.002785,-88.393044,0.007047,
1550,50,-0.059720,-14.966343,0.999998,0.000176,-0.000181,0.005018,-0.000892,0.005167,-0.000330,-80.531210,0.005786,
1550,120,-0.199474,-14.595625,0.999998,0.000195,-0.000854,0.005577,-0.000901,0.005701,-0.000977,-82.177589,0.006098,
1610,1350,-1.461865,-4.808449,0.999996,0.000236,-0.004830,0.008563,0.000016,0.008563,-0.004830,89.931878,0.008586,
1660,790,-1.941413,-9.471957,0.999998,0.000228,-0.004445,0.008472,-0.000751,0.008515,-0.004489,-86.682487,0.008519,
1700,1840,-0.743130,-1.254570,0.999998,0.000176,-0.002663,0.007090,0.000941,0.007180,-0.002753,84.538173,0.007245,
1350,1710,-0.191198,-1.657916,0.999998,0.000194,-0.001781,0.005522,-0.000222,0.005529,-0.001788,-88.263261,0.005642,
1530,710,-1.077135,-10.516907,0.999997,0.000197,-0.005090,0.008744,0.000735,0.008783,-0.005129,86.965192,0.008824,
1360,830,-0.487666,-10.623146,0.999996,0.000239,-0.004686,0.006611,0.003336,0.007523,-0.005598,74.718115,0.007816,
1060,1430,0.415116,-3.420569,0.999998,0.000177,-0.003433,0.006396,0.001734,0.006693,-0.003730,80.282239,0.006707,
1300,1520,-0.132007,-2.637574,0.999998,0.000162,-0.002116,0.005181,-0.000698,0.005247,-0.002182,-84.584865,0.005272,
750,1110,2.550042,-6.946607,0.999997,0.000219,-0.003373,0.007519,-0.000670,0.007560,-0.003414,-86.494202,0.007572,
700,1800,1.064194,-1.665693,0.999998,0.000200,-0.003531,0.007540,-0.000419,0.007556,-0.003547,-87.837648,0.007560,
1250,410,-0.033109,-13.169870,0.999998,0.000169,-0.001762,0.005286,0.000168,0.005290,-0.001766,88.632177,0.005386,
1280,570,-0.090277,-12.329922,0.999998,0.000184,-0.001980,0.004911,0.000537,0.004952,-0.002022,85.574045,0.004980,
1740,1480,-1.722601,-4.058847,0.999996,0.000228,-0.004031,0.007801,-0.000046,0.007801,-0.004032,-89.777226,0.007803,
920,520,0.837682,-11.991844,0.999997,0.000210,-0.003651,0.007292,-0.000688,0.007335,-0.003694,-86.414419,0.007335,
710,1820,0.964245,-1.490456,0.999998,0.000191,-0.003432,0.007512,-0.000534,0.007538,-0.003458,-87.211965,0.007546,
850,580,1.206698,-11.338156,0.999997,0.000190,-0.004194,0.007923,-0.000435,0.007939,-0.004209,-87.945649,0.007943,
1490,1830,-0.308523,-1.086173,0.999998,0.000180,-0.001687,0.005805,0.000306,0.005817,-0.001699,87.661317,0.005983,
570,240,1.483898,-13.198074,0.999477,0.002581,-0.004640,0.006130,0.000849,0.006197,-0.004706,85.519445,0.006469,
1580,240,-0.508114,-13.852036,0.999997,0.000200,-0.002335,0.006444,-0.000472,0.006470,-0.002360,-86.931957,0.006548,
710,580,1.785861,-10.991796,0.999997,0.000216,-0.004014,0.007802,-0.000011,0.007802,-0.004014,-89.945459,0.007803,
1820,1420,-2.182586,-4.704649,0.999997,0.000194,-0.003859,0.007688,0.000141,0.007690,-0.003861,89.300221,0.007690,
1220,730,0.016792,-11.736979,0.999999,0.000133,-0.001473,0.002684,-0.000428,0.002728,-0.001517,-84.184537,0.002733,
1770,1080,-2.781259,-7.183485,0.999997,0.000190,-0.003304,0.007111,0.000228,0.007116,-0.003309,88.745898,0.007122,
800,180,0.530522,-14.158488,0.999997,0.000195,-0.002373,0.006627,0.000996,0.006736,-0.002482,83.758169,0.006813,
1020,2000,0.037540,-0.167530,0.999998,0.000143,-0.000194,0.004753,-0.000494,0.004802,-0.000243,-84.349517,0.005410,
1840,1650,-1.735095,-2.992181,0.999997,0.000192,-0.003747,0.007504,-0.000115,0.007506,-0.003748,-89.413226,0.007506,
1380,290,-0.206688,-13.746872,0.999998,0.000181,-0.001442,0.005591,-0.000034,0.005592,-0.001442,-89.726659,0.005806,
1450,980,-1.763957,-8.156011,0.999997,0.000258,-0.004320,0.011983,0.000518,0.012000,-0.004336,88.181509,0.012153,
1400,1320,-0.464675,-4.154675,0.999995,0.000241,-0.004581,0.007309,-0.002556,0.007835,-0.005107,-78.368666,0.007955,
610,1300,2.615371,-5.682993,0.999996,0.000229,-0.003670,0.007369,-0.000331,0.007379,-0.003680,-88.282946,0.007379,
560,250,1.596476,-13.141093,0.999444,0.000000,-0.006225,0.006650,0.000817,0.006702,-0.006277,86.382831,0.007505,
830,1970,0.192411,-0.357571,0.999997,0.000178,-0.000734,0.005684,-0.001388,0.005971,-0.001021,-78.307054,0.006387,
1450,170,-0.184835,-14.361581,0.999998,0.000201,-0.001019,0.005366,-0.000423,0.005394,-0.001047,-86.221524,0.005720,
1040,1580,0.413818,-2.523644,0.999997,0.000215,-0.002607,0.006257,0.000729,0.006316,-0.002666,85.330075,0.006342,
960,740,1.004763,-10.360337,0.999996,0.000216,-0.005355,0.008946,-0.000949,0.009008,-0.005418,-86.220506,0.009070,
690,1560,1.678380,-3.514049,0.999996,0.000223,-0.003860,0.007684,0.000129,0.007686,-0.003862,89.359424,0.007686,
1810,880,-2.769716,-8.593138,0.999997,0.000200,-0.003486,0.007201,-0.000573,0.007232,-0.003517,-86.939589,0.007233,
1540,170,-0.292994,-14.313780,0.999998,0.000191,-0.001238,0.005795,-0.000729,0.005870,-0.001313,-84.146537,0.006162,
1040,50,0.028264,-14.976400,0.999999,0.000161,-0.000251,0.004685,0.000376,0.004714,-0.000279,85.666901,0.005289,
1090,1690,0.239243,-1.791789,0.999998,0.000166,-0.001808,0.005675,0.000207,0.005681,-0.001814,88.413291,0.005803,
1530,690,-1.034844,-10.690988,0.999997,0.000214,-0.004932,0.008544,0.000820,0.008594,-0.004981,86.528727,0.008630,
1790,760,-2.392615,-9.511138,0.999997,0.000200,-0.003857,0.007625,-0.000539,0.007650,-0.003882,-87.316640,0.007650,
1880,1220,-2.907408,-6.306940,0.999999,0.000142,-0.003398,0.006961,0.000222,0.006966,-0.003402,88.770058,0.006966,
750,1090,2.585118,-7.095514,0.999996,0.000221,-0.003286,0.007462,-0.000529,0.007488,-0.003312,-87.187345,0.007504,
1700,1820,-0.803114,-1.393438,0.999998,0.000156,-0.002853,0.007232,0.000775,0.007292,-0.002912,85.630185,0.007341,
1300,1500,-0.133497,-2.741155,0.999998,0.000143,-0.002154,0.005141,-0.000795,0.005226,-0.002239,-83.855196,0.005244,
1780,1420,-2.024340,-4.618884,0.999996,0.000235,-0.003981,0.007792,0.000173,0.007794,-0.003983,89.158493,0.007795,
1200,1570,0.059060,-2.350366,0.999999,0.000136,-0.001873,0.005186,0.000264,0.005196,-0.001883,87.858555,0.005261,
660,1400,2.165010,-4.824700,0.999997,0.000215,-0.003889,0.007704,-0.000218,0.007708,-0.003893,-88.923580,0.007708,
1620,1470,-1.245253,-3.842028,0.999997,0.000210,-0.004245,0.007957,-0.000389,0.007969,-0.004257,-88.174481,0.007975,
700,1780,1.124897,-1.816735,0.999996,0.000217,-0.003608,0.007525,-0.000323,0.007535,-0.003618,-88.342003,0.007537,
920,500,0.816423,-12.134781,0.999998,0.000195,-0.003486,0.007197,-0.000622,0.007233,-0.003522,-86.677699,0.007234,
1240,630,-0.015767,-12.089285,0.999998,0.000161,-0.001714,0.004209,0.000220,0.004218,-0.001722,87.875766,0.004241,
1490,1790,-0.367454,-1.325866,0.999997,0.000205,-0.001956,0.006023,0.000175,0.006026,-0.001960,88.747117,0.006148,
1250,430,-0.034816,-13.063756,0.999998,0.000193,-0.001799,0.005282,0.000183,0.005286,-0.001804,88.521062,0.005374,
740,110,0.384771,-14.574948,0.999998,0.000185,-0.001456,0.006621,0.001867,0.007032,-0.001867,77.593224,0.007285,
690,1820,1.032647,-1.536557,0.999998,0.000174,-0.003476,0.007547,-0.000541,0.007574,-0.003502,-87.198546,0.007581,
1670,380,-1.061853,-12.722314,0.999997,0.000198,-0.003464,0.007403,0.000100,0.007404,-0.003465,89.471904,0.007409,
570,230,1.454571,-13.278032,0.999658,0.002220,-0.004172,0.006379,0.000816,0.006441,-0.004235,85.604876,0.006547,
1610,1330,-1.516307,-4.982852,0.999995,0.000261,-0.004860,0.008673,0.000117,0.008674,-0.004861,89.504766,0.008695,
1740,1460,-1.768985,-4.215510,0.999997,0.000214,-0.004047,0.007862,0.000020,0.007862,-0.004047,89.904331,0.007863,
800,380,1.036906,-12.737496,0.999998,0.000164,-0.003442,0.007397,-0.000101,0.007397,-0.003443,-89.465301,0.007403,
1420,1650,-0.367585,-2.090246,0.999996,0.000233,-0.002392,0.006050,-0.000477,0.006077,-0.002419,-86.773446,0.006119,
980,2000,0.045527,-0.170393,0.999998,0.000151,-0.000313,0.004887,-0.000618,0.004959,-0.000386,-83.313539,0.005517,
1200,730,0.045816,-11.708496,0.999998,0.000184,-0.001657,0.002914,-0.001122,0.003175,-0.001917,-76.928051,0.003197,
1750,500,-1.600234,-11.621618,0.999996,0.000253,-0.003901,0.007717,0.000144,0.007719,-0.003903,89.290794,0.007719,
1350,1690,-0.201303,-1.768257,0.999998,0.000191,-0.001860,0.005634,-0.000258,0.005643,-0.001868,-88.032865,0.005749,
1580,220,-0.464611,-13.981176,0.999997,0.000189,-0.002214,0.006271,-0.000558,0.006307,-0.002250,-86.253567,0.006393,
1010,1000,1.831996,-7.904167,0.999991,0.000357,-0.004231,0.012526,-0.000263,0.012530,-0.004235,-89.101066,0.012748,
1890,1070,-3.169375,-7.292273,0.999998,0.000163,-0.003043,0.006093,0.000083,0.006093,-0.003044,89.479088,0.006093,
1820,1400,-2.230009,-4.860260,0.999997,0.000213,-0.003837,0.007679,0.000185,0.007682,-0.003840,89.079096,0.007682,
1490,360,-0.492013,-13.202788,0.999998,0.000191,-0.002607,0.006328,0.000294,0.006338,-0.002616,88.117325,0.006370,
830,1730,0.827279,-1.923183,0.999998,0.000177,-0.002905,0.007033,-0.000139,0.007035,-0.002907,-89.197310,0.007070,
1060,1410,0.419247,-3.549040,0.999996,0.000222,-0.003584,0.006567,0.001880,0.006904,-0.003921,79.839478,0.006925,
1040,1560,0.422795,-2.648521,0.999997,0.000195,-0.002766,0.006285,0.000851,0.006364,-0.002845,84.675540,0.006376,
1400,1300,-0.491761,-4.303209,0.999995,0.000252,-0.004875,0.007570,-0.002695,0.008128,-0.005433,-78.289362,0.008281,
1050,900,1.164002,-9.399732,0.999995,0.000286,-0.005000,0.010145,-0.002439,0.010528,-0.005383,-81.073754,0.010529,
1030,50,0.032461,-14.974942,0.999999,0.000137,-0.000193,0.004704,0.000417,0.004740,-0.000228,85.166634,0.005346,
960,760,1.055465,-10.178725,0.999996,0.000232,-0.005477,0.009136,-0.000793,0.009178,-0.005520,-86.902919,0.009241,
800,470,1.208626,-12.063274,0.999998,0.000178,-0.003745,0.007585,-0.000261,0.007591,-0.003751,-88.678802,0.007591,
1830,880,-2.839925,-8.571264,0.999997,0.000215,-0.003450,0.007036,-0.000449,0.007056,-0.003469,-87.554380,0.007056,
1870,1220,-2.874206,-6.287145,0.999998,0.000194,-0.003406,0.006982,0.000281,0.006990,-0.003414,88.452801,0.006991,
1350,1240,-0.378583,-4.301892,0.999994,0.000281,-0.004368,0.005872,-0.003348,0.006869,-0.005366,-73.408182,0.007222,
1300,1480,-0.131086,-2.845903,0.999998,0.000172,-0.002173,0.005019,-0.000906,0.005132,-0.002286,-82.930742,0.005142,
1090,1670,0.251648,-1.903851,0.999998,0.000173,-0.001883,0.005693,0.000237,0.005700,-0.001891,88.210422,0.005807,
890,780,1.494182,-9.743039,0.999996,0.000223,-0.005113,0.009102,0.000263,0.009107,-0.005118,88.940572,0.009130,
560,240,1.587133,-13.204762,0.999477,0.000000,-0.005202,0.005107,0.001432,0.005302,-0.005398,82.234866,0.006178,
1180,1570,0.096715,-2.361320,0.999998,0.000160,-0.001912,0.005234,0.000275,0.005245,-0.001922,87.800123,0.005307,
660,1380,2.215879,-4.977745,0.999997,0.000205,-0.003902,0.007666,-0.000286,0.007673,-0.003909,-88.582382,0.007673,
750,1070,2.602382,-7.244856,0.999997,0.000215,-0.003235,0.007386,-0.000281,0.007393,-0.003243,-88.486929,0.007412,
1220,650,0.019832,-12.004591,0.999999,0.000147,-0.001678,0.003910,-0.000295,0.003926,-0.001693,-86.990393,0.003938,
1780,1440,-1.976138,-4.462193,0.999997,0.000218,-0.003961,0.007773,0.000100,0.007773,-0.003962,89.510523,0.007774,
1700,1800,-0.864642,-1.547087,0.999998,0.000155,-0.002984,0.007266,0.000630,0.007304,-0.003022,86.497314,0.007340,
1530,670,-0.996071,-10.862641,0.999996,0.000233,-0.004759,0.008357,0.000873,0.008415,-0.004817,86.208174,0.008444,
690,1800,1.097529,-1.689421,0.999998,0.000191,-0.003524,0.007554,-0.000438,0.007571,-0.003541,-87.739314,0.007577,
920,480,0.790415,-12.278523,0.999998,0.000209,-0.003394,0.007155,-0.000567,0.007186,-0.003424,-86.930975,0.007188,
1880,1430,-2.383499,-4.766255,0.999996,0.000263,-0.003806,0.007582,0.000073,0.007582,-0.003807,89.632054,0.007583,
740,90,0.302380,-14.701071,0.999997,0.000193,-0.001209,0.006124,0.001795,0.006540,-0.001625,76.959318,0.006810,
1490,1770,-0.395599,-1.448045,0.999997,0.000189,-0.002081,0.006088,0.000091,0.006089,-0.002082,89.360290,0.006190,
570,250,1.523081,-13.143548,0.999444,0.002567,-0.005313,0.006919,0.000565,0.006945,-0.005340,87.359259,0.007272,
1740,1440,-1.815778,-4.373231,0.999998,0.000179,-0.004052,0.007875,0.000070,0.007875,-0.004053,89.663544,0.007876,
700,1760,1.181784,-1.967617,0.999997,0.000229,-0.003639,0.007513,-0.000211,0.007516,-0.003643,-88.918400,0.007518,
640,1970,0.457983,-0.476045,0.999994,0.000301,-0.002648,0.007834,-0.002274,0.008306,-0.003120,-78.272085,0.008391,
1450,610,-0.577211,-11.624525,0.999997,0.000215,-0.003849,0.007089,0.001483,0.007287,-0.004046,82.414111,0.007302,
1060,1670,0.313419,-1.942160,0.999998,0.000179,-0.002286,0.005891,0.000434,0.005914,-0.002309,86.973286,0.005962,
1280,2000,-0.008469,-0.159426,0.999998,0.000172,-0.000130,0.004550,0.000086,0.004551,-0.000131,88.949932,0.005181,
1330,1240,-0.301846,-4.096392,0.999995,0.000298,-0.003771,0.004656,-0.003229,0.005751,-0.004866,-71.267859,0.006193,
1350,1670,-0.208855,-1.884037,0.999998,0.000183,-0.001914,0.005617,-0.000309,0.005630,-0.001927,-87.654960,0.005722,
1020,50,0.033292,-14.975614,0.999999,0.000132,-0.000162,0.004720,0.000455,0.004762,-0.000204,84.725718,0.005384,
1580,200,-0.420486,-14.103697,0.999997,0.000203,-0.002026,0.006218,-0.000681,0.006273,-0.002082,-85.311814,0.006391,
1030,900,1.265832,-9.197234,0.999996,0.000238,-0.005139,0.010799,-0.001292,0.010903,-0.005243,-85.395726,0.010906,
1200,510,0.060795,-12.640399,0.999998,0.000159,-0.001891,0.005111,-0.000272,0.005122,-0.001902,-87.776603,0.005178,
1300,430,-0.121894,-13.042082,0.999999,0.000132,-0.001851,0.005369,0.000261,0.005379,-0.001860,87.933529,0.005463,
1810,660,-2.204728,-10.242146,0.999997,0.000218,-0.003875,0.007707,-0.000231,0.007712,-0.003879,-88.856778,0.007712,
1470,900,-1.459963,-8.947550,0.999994,0.000279,-0.005171,0.010483,-0.000135,0.010484,-0.005172,-89.504275,0.010484,
800,620,1.501831,-10.885724,0.999996,0.000229,-0.004337,0.008057,-0.000099,0.008058,-0.004338,-89.543627,0.008066,
1090,1650,0.260859,-2.018101,0.999997,0.000193,-0.002001,0.005716,0.000341,0.005731,-0.002016,87.473225,0.005814,
660,1360,2.270898,-5.131668,0.999997,0.000233,-0.003922,0.007623,-0.000361,0.007634,-0.003934,-88.209794,0.007636,
1300,1460,-0.132669,-2.945707,0.999998,0.000193,-0.002149,0.004873,-0.001002,0.005013,-0.002289,-82.037504,0.005020,
1780,1460,-1.927243,-4.307033,0.999997,0.000199,-0.003934,0.007765,0.000048,0.007765,-0.003934,89.764446,0.007766,
860,170,0.394022,-14.269426,0.999997,0.000213,-0.001733,0.006151,0.000896,0.006252,-0.001834,83.598225,0.006427,
960,1200,1.410477,-5.866943,0.999995,0.000292,-0.005459,0.010002,-0.000271,0.010007,-0.005464,-88.997004,0.010021,
1820,1380,-2.281479,-5.014430,0.999997,0.000207,-0.003846,0.007596,0.000256,0.007602,-0.003851,88.718967,0.007602,
1400,1280,-0.529862,-4.463054,0.999995,0.000250,-0.005139,0.007882,-0.002732,0.008432,-0.005689,-78.618330,0.008602,
670,980,2.859238,-7.895523,0.999998,0.000198,-0.003256,0.006945,0.000180,0.006948,-0.003259,88.989193,0.006952,
1030,300,0.308475,-13.641284,0.999997,0.000204,-0.001928,0.005828,-0.000052,0.005828,-0.001928,-89.617320,0.005939,
750,1050,2.615108,-7.391538,0.999997,0.000206,-0.003179,0.007408,-0.000266,0.007415,-0.003186,-88.559725,0.007440,
1010,120,0.121489,-14.626733,0.999998,0.000188,-0.000644,0.005181,0.000540,0.005231,-0.000693,84.743581,0.005682,
1040,1040,1.693913,-7.364339,0.999977,0.000623,-0.006993,0.016514,0.000753,0.016538,-0.007017,88.167731,0.016601,
1220,1410,0.019328,-3.093393,0.999998,0.000139,-0.001692,0.004028,0.000303,0.004044,-0.001708,86.974562,0.004060,
640,1110,2.925754,-6.995015,0.999998,0.000178,-0.003305,0.006910,-0.000394,0.006925,-0.003320,-87.795046,0.006927,
1040,1540,0.432190,-2.774210,0.999997,0.000207,-0.002962,0.006324,0.001000,0.006431,-0.003068,83.920689,0.006433,
1750,480,-1.559444,-11.777319,0.999997,0.000216,-0.003850,0.007680,0.000129,0.007682,-0.003852,89.359928,0.007682,
830,1690,0.906720,-2.208086,0.999997,0.000173,-0.003107,0.007188,-0.000030,0.007188,-0.003108,-89.831814,0.007210,
560,230,1.513749,-13.235585,0.999658,0.000000,-0.004496,0.005464,0.001445,0.005669,-0.004701,81.911227,0.006065,
1700,1780,-0.917995,-1.686247,0.999998,0.000175,-0.003089,0.007296,0.000478,0.007317,-0.003111,87.372240,0.007345,
1870,1440,-2.321822,-4.666324,0.999996,0.000243,-0.003793,0.007646,0.000057,0.007646,-0.003794,89.716098,0.007646,
920,460,0.766065,-12.422668,0.999998,0.000206,-0.003346,0.007079,-0.000534,0.007106,-0.003374,-87.076900,0.007109,
1480,1530,-0.620950,-2.992363,0.999996,0.000252,-0.003409,0.006903,-0.000946,0.006989,-0.003495,-84.800763,0.006989,
1530,650,-0.964632,-11.027103,0.999997,0.000213,-0.004586,0.008103,0.000916,0.008168,-0.004652,85.890451,0.008195,
1500,1770,-0.418630,-1.460923,0.999997,0.000211,-0.002235,0.006173,0.000083,0.006174,-0.002236,89.433727,0.006252,
570,220,1.386294,-13.333924,0.999917,0.001135,-0.003792,0.006984,0.000596,0.007017,-0.003825,86.842493,0.007027,
700,1740,1.235563,-2.118750,0.999997,0.000197,-0.003667,0.007534,-0.000089,0.007535,-0.003668,-89.543296,0.007536,
1180,510,0.097402,-12.629268,0.999998,0.000140,-0.001911,0.005189,-0.000362,0.005207,-0.001929,-87.090438,0.005265,
1740,1420,-1.862440,-4.532130,0.999997,0.000190,-0.004083,0.007900,0.000121,0.007902,-0.004084,89.421043,0.007903,
950,1300,1.098146,-4.938176,0.999997,0.000192,-0.005415,0.009132,0.000667,0.009162,-0.005446,87.380171,0.009216,
1610,1310,-1.572087,-5.158776,0.999996,0.000264,-0.004858,0.008733,0.000247,0.008738,-0.004862,88.958528,0.008756,
1120,1690,0.186840,-1.762601,0.999998,0.000166,-0.001850,0.005600,0.000282,0.005611,-0.001861,87.833071,0.005716,
1160,50,0.007853,-14.982723,0.999998,0.000161,-0.000076,0.004507,0.000138,0.004511,-0.000081,88.282465,0.005164,
660,1750,1.353184,-2.139494,0.999996,0.000262,-0.003596,0.007566,-0.000160,0.007568,-0.003599,-89.178393,0.007571,
1330,2000,-0.014965,-0.161034,0.999999,0.000157,-0.000222,0.004587,0.000198,0.004595,-0.000230,87.646854,0.005179,
1450,590,-0.561698,-11.768851,0.999997,0.000212,-0.003670,0.006954,0.001391,0.007133,-0.003849,82.663752,0.007141,
1490,1750,-0.420506,-1.567888,0.999997,0.000194,-0.002214,0.006175,0.000011,0.006175,-0.002214,89.921460,0.006257,
610,780,2.681548,-9.253266,0.999997,0.000202,-0.003618,0.007334,0.000354,0.007345,-0.003629,88.152321,0.007345,
1540,950,-1.986857,-8.242269,0.999997,0.000204,-0.003447,0.009010,-0.000987,0.009088,-0.003525,-85.496704,0.009164,
1400,1260,-0.572046,-4.620791,0.999994,0.000290,-0.005421,0.008184,-0.002695,0.008699,-0.005936,-79.195062,0.008889,
1000,1050,1.884302,-7.301216,0.999993,0.000310,-0.003771,0.011896,0.000065,0.011897,-0.003771,89.760573,0.012159,
1600,550,-1.102958,-11.607805,0.999997,0.000230,-0.004032,0.007766,0.000507,0.007788,-0.004054,87.543010,0.007790,
750,1030,2.628627,-7.541303,0.999997,0.000200,-0.003166,0.007447,-0.000041,0.007447,-0.003166,-89.779459,0.007475,
660,1340,2.322043,-5.283947,0.999997,0.000218,-0.003896,0.007663,-0.000400,0.007677,-0.003909,-88.020834,0.007677,
1300,1680,-0.112896,-1.782245,0.999998,0.000161,-0.001670,0.005378,-0.000120,0.005380,-0.001672,-89.021719,0.005507,
1780,1900,-0.738771,-0.945993,0.999997,0.000218,-0.002994,0.007511,0.001426,0.007701,-0.003184,82.402973,0.007740,
1700,1760,-0.973695,-1.837428,0.999998,0.000174,-0.003176,0.007317,0.000341,0.007328,-0.003187,88.140166,0.007348,
1090,1630,0.268226,-2.130351,0.999997,0.000192,-0.002128,0.005754,0.000459,0.005780,-0.002155,86.675096,0.005842,
740,50,0.136379,-14.937883,0.999998,0.000172,-0.000456,0.005852,0.002000,0.006433,-0.001037,73.813874,0.006907,
830,1670,0.945447,-2.352414,0.999998,0.000160,-0.003254,0.007229,0.000131,0.007230,-0.003256,89.286523,0.007242,
1530,630,-0.930668,-11.188653,0.999997,0.000203,-0.004396,0.007929,0.000908,0.007995,-0.004463,85.810483,0.008013,
700,1720,1.285015,-2.269433,0.999997,0.000182,-0.003650,0.007568,-0.000010,0.007568,-0.003650,-89.951187,0.007570,
1740,1400,-1.911798,-4.689855,0.999997,0.000197,-0.004111,0.007962,0.000187,0.007965,-0.004114,89.113514,0.007966,
960,1180,1.502303,-6.066670,0.999995,0.000274,-0.005228,0.009993,-0.000512,0.010010,-0.005245,-88.076099,0.010014,
570,300,1.674655,-12.776422,0.999837,0.001610,-0.004775,0.006969,-0.000440,0.006985,-0.004791,-87.855190,0.007145,
1100,1690,0.222122,-1.782419,0.999998,0.000150,-0.001800,0.005646,0.000224,0.005653,-0.001807,88.280159,0.005774,
1390,1820,-0.177173,-1.074394,0.999998,0.000170,-0.001210,0.005408,0.000156,0.005412,-0.001214,88.649734,0.005679,
1580,180,-0.370486,-14.230214,0.999998,0.000203,-0.001874,0.006078,-0.000728,0.006144,-0.001940,-84.814058,0.006282,
920,440,0.741076,-12.562363,0.999997,0.000212,-0.003269,0.007033,-0.000479,0.007055,-0.003291,-87.343307,0.007061,
620,1110,2.992089,-7.008849,0.999998,0.000165,-0.003271,0.006768,-0.000302,0.006777,-0.003280,-88.280654,0.006778,
1590,180,-0.391194,-14.221118,0.999997,0.000203,-0.001938,0.006123,-0.000762,0.006195,-0.002009,-84.648260,0.006321,
1390,1200,-0.767590,-5.034617,0.999995,0.000248,-0.005316,0.008330,-0.002710,0.008848,-0.005834,-79.167650,0.008997,
1270,520,-0.072777,-12.583908,0.999998,0.000160,-0.001888,0.005055,0.000290,0.005067,-0.001901,87.612215,0.005119,
1220,1390,0.018353,-3.171513,0.999998,0.000148,-0.001636,0.003761,0.000337,0.003782,-0.001656,86.443048,0.003792,
570,1650,1.932492,-3.122718,0.999998,0.000227,-0.003793,0.007342,0.000116,0.007343,-0.003794,89.404273,0.007344,
1320,2000,-0.012799,-0.160854,0.999999,0.000157,-0.000182,0.004578,0.000192,0.004586,-0.000190,87.690544,0.005189,
1000,50,0.038543,-14.973364,0.999998,0.000165,-0.000125,0.004763,0.000550,0.004824,-0.000186,83.661591,0.005466,
1000,1030,1.902346,-7.532586,0.999995,0.000279,-0.003720,0.011393,0.000005,0.011393,-0.003720,89.982785,0.011620,
1030,1440,0.513487,-3.465870,0.999995,0.000279,-0.003725,0.006864,0.001572,0.007093,-0.003954,81.729615,0.007108,
1150,790,0.187335,-11.281473,0.999996,0.000242,-0.003073,0.003931,-0.002998,0.005039,-0.004181,-69.719950,0.005392,
1450,920,-1.473179,-8.847244,0.999993,0.000316,-0.004926,0.010920,0.000383,0.010929,-0.004935,88.615189,0.010946,
750,1010,2.619424,-7.690477,0.999997,0.000204,-0.003170,0.007427,0.000251,0.007433,-0.003176,88.643656,0.007459,
1830,520,-1.951352,-11.275447,0.999997,0.000212,-0.003815,0.007656,0.000069,0.007657,-0.003816,89.654022,0.007657,
1280,2020,-0.006953,-0.069120,0.999999,0.000000,0.000013,0.004522,0.000084,0.004524,0.000012,88.927323,0.005231,
830,1650,0.982111,-2.500403,0.999998,0.000169,-0.003409,0.007331,0.000215,0.007335,-0.003413,88.853484,0.007341,
690,1720,1.321740,-2.294420,0.999997,0.000187,-0.003620,0.007564,-0.000015,0.007564,-0.003620,-89.923601,0.007566,
1480,710,-0.823128,-10.725337,0.999997,0.000257,-0.005042,0.008451,0.001404,0.008595,-0.005187,84.121957,0.008656,
960,1160,1.602119,-6.264998,0.999995,0.000275,-0.004884,0.010026,-0.000727,0.010061,-0.004919,-87.213677,0.010062,
1400,1240,-0.636326,-4.792175,0.999995,0.000274,-0.005576,0.008603,-0.002607,0.009067,-0.006040,-79.904999,0.009233,
1740,1380,-1.964245,-4.852870,0.999997,0.000216,-0.004111,0.007939,0.000274,0.007945,-0.004117,88.699063,0.007947,
650,820,2.639534,-9.024798,0.999997,0.000197,-0.003610,0.007296,0.000557,0.007324,-0.003638,87.083851,0.007324,
1490,1730,-0.449534,-1.697042,0.999997,0.000211,-0.002353,0.006354,-0.000084,0.006355,-0.002354,-89.446609,0.006426,
1250,450,-0.033423,-12.959099,0.999998,0.000188,-0.001841,0.005251,0.000203,0.005256,-0.001847,88.363989,0.005333,
1140,1950,0.034925,-0.393971,0.999999,0.000131,-0.000462,0.004751,-0.000170,0.004757,-0.000468,-88.135510,0.005244,
1700,1740,-1.020157,-1.981536,0.999998,0.000181,-0.003247,0.007298,0.000175,0.007301,-0.003250,89.051219,0.007316,
1650,1950,-0.264509,-0.475151,0.999998,0.000205,-0.001166,0.006010,0.001383,0.006267,-0.001424,79.457353,0.006571,
1200,100,0.011774,-14.752496,0.999999,0.000160,-0.000360,0.004696,0.000055,0.004696,-0.000360,89.379475,0.005227,
1820,1800,-1.262868,-1.800305,0.999997,0.000218,-0.003555,0.007649,0.000335,0.007659,-0.003565,88.289973,0.007665,
560,220,1.395942,-13.274354,0.999917,0.000000,-0.003902,0.006521,0.001061,0.006628,-0.004009,84.247322,0.006677,
1550,360,-0.649077,-13.099295,0.999998,0.000183,-0.002646,0.006681,0.000018,0.006682,-0.002646,89.892285,0.006729,
980,650,0.750643,-11.202580,0.999996,0.000233,-0.004486,0.007803,-0.001366,0.007953,-0.004636,-83.734466,0.007989,
570,290,1.645078,-12.841211,0.999748,0.001948,-0.005074,0.007002,-0.000247,0.007007,-0.005079,-88.829062,0.007239,
1040,1520,0.441374,-2.903765,0.999997,0.000219,-0.003114,0.006393,0.001155,0.006531,-0.003253,83.169794,0.006531,
1330,1220,-0.383531,-4.188808,0.999995,0.000267,-0.003563,0.004455,-0.002898,0.005393,-0.004501,-72.069217,0.005781,
620,1800,1.346826,-1.867766,0.999997,0.000221,-0.003633,0.007557,-0.000153,0.007559,-0.003636,-89.217308,0.007561,
1100,1170,0.858657,-4.877303,0.999994,0.000306,-0.002558,0.005634,0.003677,0.007043,-0.003967,69.042508,0.007061,
1590,140,-0.292217,-14.463795,0.999997,0.000188,-0.001510,0.005896,-0.000940,0.006014,-0.001628,-82.877650,0.006221,
1390,1180,-0.882206,-5.205144,0.999988,0.000404,-0.004845,0.008314,-0.003017,0.008972,-0.005504,-77.684786,0.009049,
740,40,0.093127,-14.997687,0.999999,0.000135,-0.000202,0.005820,0.002048,0.006451,-0.000832,72.890031,0.007018,
1700,950,-2.517421,-8.142511,0.999997,0.000212,-0.003352,0.007588,-0.000684,0.007630,-0.003395,-86.433862,0.007646,
1450,570,-0.548897,-11.906129,0.999997,0.000194,-0.003474,0.006809,0.001233,0.006955,-0.003620,83.255156,0.006957,
660,1320,2.376942,-5.438227,0.999997,0.000206,-0.003836,0.007670,-0.000461,0.007688,-0.003854,-87.709981,0.007688,
1000,1280,0.875148,-4.883187,0.999996,0.000248,-0.005708,0.009124,0.001391,0.009253,-0.005838,84.688666,0.009358,
1780,1880,-0.831676,-1.099898,0.999997,0.000198,-0.003152,0.007500,0.001173,0.007628,-0.003280,83.789118,0.007653,
790,1590,1.237288,-3.043245,0.999997,0.000211,-0.003760,0.007585,0.000253,0.007591,-0.003766,88.725046,0.007591,
1200,1410,0.053933,-3.112294,0.999999,0.000141,-0.001775,0.004145,0.000615,0.004209,-0.001838,84.127723,0.004220,
1250,520,-0.035199,-12.597433,0.999997,0.000211,-0.001901,0.005005,0.000262,0.005015,-0.001910,87.827766,0.005062,
1270,2000,-0.007411,-0.159931,0.999998,0.000179,-0.000171,0.004541,0.000064,0.004542,-0.000172,89.224574,0.005148,
670,260,1.184447,-13.346456,0.999998,0.000198,-0.003504,0.007616,0.000443,0.007634,-0.003522,87.720125,0.007641,
1530,610,-0.902725,-11.345009,0.999997,0.000214,-0.004224,0.007810,0.000898,0.007876,-0.004291,85.757168,0.007887,
1140,1690,0.149212,-1.742515,0.999998,0.000140,-0.001810,0.005506,0.000267,0.005516,-0.001819,87.916314,0.005622,
750,1620,1.326655,-2.910503,0.999996,0.000244,-0.003713,0.007576,0.000147,0.007578,-0.003715,89.253208,0.007579,
1090,1610,0.275896,-2.245966,0.999998,0.000191,-0.002256,0.005793,0.000586,0.005836,-0.002299,85.855859,0.005879,
1580,830,-1.704090,-9.268721,0.999996,0.000206,-0.004886,0.009105,-0.000747,0.009144,-0.004926,-86.954394,0.009154,
1490,1710,-0.473026,-1.820960,0.999997,0.000194,-0.002503,0.006286,-0.000210,0.006291,-0.002508,-88.629786,0.006334,
830,1630,1.019367,-2.649826,0.999997,0.000180,-0.003522,0.007412,0.000258,0.007418,-0.003528,88.646985,0.007421,
1740,1360,-2.017548,-5.008743,0.999997,0.000212,-0.004092,0.007930,0.000363,0.007941,-0.004103,88.274359,0.007942,
1510,1700,-0.540311,-1.923099,0.999997,0.000227,-0.002644,0.006427,-0.000210,0.006432,-0.002649,-88.674187,0.006465,
700,650,1.994720,-10.420351,0.999997,0.000214,-0.004033,0.007860,0.000204,0.007864,-0.004037,89.016757,0.007865,
1400,1220,-0.714041,-4.966028,0.999996,0.000236,-0.005590,0.008690,-0.002381,0.009077,-0.005977,-80.777670,0.009228,
1300,1440,-0.129361,-3.042641,0.999998,0.000180,-0.002158,0.004744,-0.001120,0.004922,-0.002335,-81.010306,0.004924,
1150,770,0.160222,-11.355031,0.999996,0.000224,-0.002890,0.004023,-0.002883,0.005068,-0.003934,-70.082823,0.005319,
920,1490,0.896846,-3.468658,0.999997,0.000225,-0.004004,0.007641,0.000797,0.007695,-0.004058,86.103438,0.007699,
960,1140,1.697567,-6.465210,0.999996,0.000268,-0.004504,0.009971,-0.000852,0.010021,-0.004554,-86.643680,0.010035,
1250,470,-0.034605,-12.853742,0.999998,0.000186,-0.001866,0.005204,0.000207,0.005210,-0.001872,88.327350,0.005278,
820,1050,2.400221,-7.384891,0.999997,0.000194,-0.002975,0.007720,-0.000278,0.007728,-0.002982,-88.513040,0.007794,
1450,900,-1.353435,-9.064543,0.999993,0.000291,-0.005286,0.010685,0.000444,0.010697,-0.005299,88.409243,0.010697,
1700,1720,-1.064835,-2.129235,0.999998,0.000174,-0.003282,0.007422,0.000129,0.007424,-0.003283,89.310075,0.007440,
590,360,1.749580,-12.380060,0.999997,0.000199,-0.003796,0.007393,-0.000085,0.007394,-0.003797,-89.562397,0.007395,
990,1300,0.878181,-4.752896,0.999997,0.000237,-0.005525,0.008949,0.001335,0.009071,-0.005647,84.775171,0.009161,
1650,1930,-0.327201,-0.598575,0.999997,0.000211,-0.001440,0.006136,0.001313,0.006358,-0.001661,80.438536,0.006595,
1200,80,0.011560,-14.845766,0.999999,0.000164,-0.000258,0.004608,0.000082,0.004610,-0.000259,89.029825,0.005180,
1060,1950,0.071464,-0.405633,0.999998,0.000158,-0.000561,0.004939,-0.000361,0.004963,-0.000584,-86.262334,0.005425,
1820,1820,-1.195822,-1.644119,0.999997,0.000217,-0.003525,0.007657,0.000430,0.007673,-0.003542,87.801675,0.007681,
1890,1990,-0.539604,-0.501212,0.999994,0.000307,-0.002499,0.009596,0.003326,0.010450,-0.003353,75.594042,0.010671,
1870,1760,-1.567477,-2.244767,0.999998,0.000193,-0.003658,0.007384,0.000008,0.007384,-0.003658,89.956895,0.007384,
980,1370,0.794852,-4.198545,0.999996,0.000245,-0.004784,0.008156,0.001389,0.008304,-0.004932,83.941487,0.008353,
620,1780,1.410992,-2.020131,0.999996,0.000236,-0.003640,0.007483,-0.000101,0.007484,-0.003641,-89.477255,0.007485,
1590,120,-0.244987,-14.578108,0.999998,0.000181,-0.001277,0.005780,-0.001019,0.005924,-0.001421,-81.944664,0.006186,
810,140,0.380404,-14.426700,0.999997,0.000225,-0.001707,0.006277,0.001224,0.006460,-0.001890,81.479527,0.006643,
1180,1410,0.091153,-3.140956,0.999998,0.000180,-0.001987,0.004344,0.001062,0.004518,-0.002160,80.725460,0.004519,
1810,540,-1.919746,-11.169524,0.999997,0.000210,-0.003843,0.007657,0.000052,0.007657,-0.003844,89.738873,0.007657,
1780,1860,-0.908783,-1.247351,0.999998,0.000183,-0.003301,0.007541,0.000918,0.007619,-0.003378,85.192122,0.007635,
710,210,0.875632,-13.816092,0.999997,0.000189,-0.003320,0.007407,0.000725,0.007456,-0.003368,86.150560,0.007468,
560,210,1.378478,-13.371436,0.999918,0.000000,-0.002989,0.007428,0.000157,0.007431,-0.002991,89.134781,0.007477,
1270,540,-0.072333,-12.485217,0.999998,0.000165,-0.001900,0.004986,0.000337,0.005003,-0.001916,87.205743,0.005048,
660,1740,1.379997,-2.214005,0.999996,0.000248,-0.003628,0.007569,-0.000102,0.007570,-0.003629,-89.478296,0.007572,
1200,40,0.005189,-15.028419,0.999999,0.000121,-0.000112,0.004502,0.000018,0.004502,-0.000112,89.771410,0.005135,
1450,550,-0.537205,-12.039390,0.999996,0.000215,-0.003302,0.006712,0.001093,0.006830,-0.003420,83.842328,0.006830,
1550,340,-0.617182,-13.234713,0.999997,0.000226,-0.002558,0.006714,-0.000057,0.006715,-0.002558,-89.650879,0.006778,
1480,550,-0.641846,-11.950702,0.999997,0.000235,-0.003614,0.007053,0.001088,0.007162,-0.003724,84.236851,0.007164,
1260,2000,-0.004504,-0.160544,0.999998,0.000158,-0.000184,0.004538,0.000042,0.004538,-0.000185,89.491464,0.005137,
1580,810,-1.633015,-9.449923,0.999996,0.000246,-0.005001,0.009159,-0.000595,0.009184,-0.005026,-87.598349,0.009197,
1390,1160,-1.019714,-5.371561,0.999988,0.000433,-0.003927,0.008352,-0.003793,0.009429,-0.005004,-74.145020,0.009435,
830,1610,1.055786,-2.797371,0.999997,0.000203,-0.003603,0.007417,0.000294,0.007425,-0.003611,88.470490,0.007426,
1040,1500,0.453171,-3.034935,0.999997,0.000219,-0.003230,0.006459,0.001250,0.006618,-0.003389,82.765258,0.006618,
1100,1750,0.191435,-1.444121,0.999998,0.000187,-0.001550,0.005508,0.000074,0.005509,-0.001550,89.399524,0.005681,
1180,1690,0.084102,-1.723151,0.999998,0.000173,-0.001591,0.005342,0.000093,0.005343,-0.001592,89.229509,0.005487,
1150,750,0.152663,-11.435338,0.999997,0.000202,-0.002696,0.004149,-0.002715,0.005095,-0.003642,-70.784488,0.005249,
640,1490,2.025669,-4.171245,0.999998,0.000173,-0.003831,0.007673,0.000027,0.007673,-0.003831,89.868009,0.007673,
1400,1420,-0.406492,-3.474543,0.999996,0.000217,-0.003488,0.006435,-0.001832,0.006763,-0.003815,-79.868323,0.006781,
1740,1340,-2.069141,-5.169211,0.999997,0.000196,-0.004083,0.007936,0.000457,0.007953,-0.004100,87.826670,0.007954,
1490,1690,-0.497359,-1.949239,0.999997,0.000192,-0.002630,0.006374,-0.000311,0.006385,-0.002641,-88.021692,0.006417,
1430,660,-0.533529,-11.348152,0.999997,0.000243,-0.004131,0.007195,0.001863,0.007494,-0.004429,80.893635,0.007535,
790,1550,1.311164,-3.348659,0.999996,0.000212,-0.003897,0.007696,0.000255,0.007701,-0.003902,88.738328,0.007702,
1700,1700,-1.110204,-2.278876,0.999998,0.000180,-0.003319,0.007403,0.000098,0.007404,-0.003320,89.475529,0.007418,
740,1490,1.633121,-3.939288,0.999996,0.000244,-0.004033,0.007806,0.000092,0.007807,-0.004034,89.555578,0.007808,
800,1050,2.460140,-7.387963,0.999997,0.000196,-0.003029,0.007633,-0.000262,0.007639,-0.003035,-88.592357,0.007693,
1250,1290,-0.025647,-3.469571,0.999998,0.000160,-0.001694,0.002150,-0.000783,0.002303,-0.001847,-78.909614,0.002439,
1090,1590,0.281711,-2.362127,0.999997,0.000198,-0.002372,0.005853,0.000714,0.005915,-0.002434,85.077740,0.005945,
580,980,3.144170,-7.862083,0.999997,0.000190,-0.002745,0.006210,-0.000057,0.006210,-0.002746,-89.634231,0.006224,
960,1120,1.792328,-6.667432,0.999996,0.000242,-0.004065,0.009856,-0.000893,0.009913,-0.004122,-86.345354,0.009960,
580,360,1.787591,-12.353546,0.999998,0.000174,-0.004076,0.007306,-0.000084,0.007307,-0.004077,-89.578744,0.007323,
620,1760,1.469587,-2.168227,0.999997,0.000224,-0.003643,0.007494,-0.000035,0.007495,-0.003643,-89.818884,0.007495,
1160,850,0.394551,-11.169216,0.999998,0.000191,-0.003607,0.002466,-0.000991,0.002623,-0.003765,-80.963447,0.003861,
1780,1840,-0.986894,-1.401481,0.999997,0.000195,-0.003376,0.007588,0.000735,0.007637,-0.003425,86.182272,0.007650,
1880,1990,-0.506600,-0.475856,0.999997,0.000216,-0.002646,0.009152,0.002982,0.009863,-0.003357,76.591853,0.010030,
1570,120,-0.217994,-14.588348,0.999998,0.000181,-0.001096,0.005676,-0.000956,0.005809,-0.001228,-82.113468,0.006122,
1740,650,-1.899747,-10.468184,0.999997,0.000192,-0.004140,0.007944,-0.000185,0.007947,-0.004142,-89.122875,0.007949,
1530,590,-0.877896,-11.499723,0.999997,0.000207,-0.004096,0.007682,0.000884,0.007748,-0.004162,85.731599,0.007755,
1160,1410,0.132799,-3.190714,0.999997,0.000213,-0.002151,0.004632,0.001332,0.004885,-0.002403,79.276210,0.004885,
1300,1400,-0.123421,-3.228550,0.999998,0.000191,-0.002079,0.004519,-0.001376,0.004794,-0.002354,-78.682949,0.004794,
1490,40,-0.028603,-15.020153,0.999998,0.000148,-0.000253,0.004783,-0.000628,0.004860,-0.000330,-83.001523,0.005431,
1510,1880,-0.259797,-0.815744,0.999998,0.000164,-0.001444,0.005653,0.000527,0.005692,-0.001483,85.777748,0.005906,
1450,530,-0.527148,-12.172380,0.999997,0.000206,-0.003193,0.006643,0.001022,0.006748,-0.003298,84.130403,0.006748,
1360,1950,-0.051667,-0.400075,0.999998,0.000140,-0.000424,0.004814,0.000266,0.004828,-0.000437,87.098876,0.005340,
960,1370,0.893517,-4.281199,0.999998,0.000194,-0.004873,0.008363,0.001145,0.008462,-0.004971,85.092010,0.008505,
560,200,1.352160,-13.456894,0.999922,0.000000,-0.002449,0.007746,-0.000507,0.007771,-0.002474,-87.161388,0.007940,
1200,60,0.004817,-14.937478,0.999999,0.000145,-0.000186,0.004538,0.000072,0.004539,-0.000187,89.126966,0.005137,
1650,1910,-0.392302,-0.721650,0.999996,0.000225,-0.001686,0.006262,0.001210,0.006442,-0.001866,81.533339,0.006629,
1500,2010,-0.037683,-0.124103,0.999999,0.000155,-0.000311,0.004839,0.000623,0.004913,-0.000385,83.200894,0.005464,
1170,640,0.112210,-11.977867,0.999998,0.000165,-0.002086,0.004480,-0.001189,0.004688,-0.002295,-80.047493,0.004689,
660,1760,1.324614,-2.063432,0.999996,0.000239,-0.003578,0.007572,-0.000210,0.007576,-0.003582,-88.920812,0.007580,
1820,1840,-1.119164,-1.489610,0.999997,0.000222,-0.003467,0.007742,0.000558,0.007770,-0.003495,87.156438,0.007783,
880,750,1.451334,-9.989160,0.999997,0.000218,-0.005080,0.008912,0.000099,0.008913,-0.005081,89.594973,0.008942,
1160,1690,0.115601,-1.728813,0.999998,0.000152,-0.001623,0.005394,0.000118,0.005396,-0.001625,89.035143,0.005536,
830,1590,1.086800,-2.948114,0.999997,0.000201,-0.003649,0.007457,0.000323,0.007466,-0.003659,88.337215,0.007467,
1080,1750,0.222220,-1.459118,0.999998,0.000185,-0.001564,0.005614,0.000018,0.005614,-0.001564,89.854448,0.005794,
1740,1320,-2.124853,-5.327681,0.999997,0.000208,-0.004095,0.007915,0.000524,0.007938,-0.004118,87.504770,0.007939,
1010,1240,0.947031,-5.197892,0.999993,0.000312,-0.005857,0.009551,0.001308,0.009661,-0.005967,85.181925,0.009750,
1560,270,-0.522816,-13.684187,0.999997,0.000193,-0.002194,0.006417,-0.000366,0.006433,-0.002210,-87.572912,0.006537,
1490,1670,-0.521929,-2.081276,0.999997,0.000217,-0.002753,0.006466,-0.000362,0.006480,-0.002767,-87.756012,0.006503,
790,1010,2.494444,-7.692898,0.999997,0.000208,-0.003045,0.007557,0.000251,0.007562,-0.003051,88.644503,0.007609,
710,230,0.946902,-13.669425,0.999998,0.000183,-0.003408,0.007478,0.000563,0.007507,-0.003437,87.045147,0.007516,
1830,420,-1.731837,-12.040091,0.999997,0.000223,-0.003720,0.007565,0.000097,0.007566,-0.003721,89.509220,0.007566,
1480,410,-0.520935,-12.896370,0.999997,0.000201,-0.002817,0.006502,0.000497,0.006528,-0.002844,86.955104,0.006546,
1550,480,-0.816712,-12.262035,0.999997,0.000205,-0.003417,0.007164,0.000561,0.007194,-0.003447,86.972004,0.007196,
1420,1240,-0.753899,-4.960423,0.999995,0.000271,-0.005874,0.009028,-0.002096,0.009317,-0.006163,-82.144310,0.009478,
1530,820,-1.408379,-9.500183,0.999994,0.000256,-0.005428,0.009630,-0.000233,0.009634,-0.005431,-89.112331,0.009660,
1700,1900,-0.532634,-0.831497,0.999997,0.000203,-0.002112,0.006816,0.001448,0.007045,-0.002341,81.013354,0.007176,
1150,1310,0.153398,-3.664916,0.999997,0.000198,-0.002676,0.004162,0.002639,0.005061,-0.003576,71.170631,0.005203,
620,1490,2.102745,-4.219513,0.999997,0.000196,-0.003797,0.007646,0.000015,0.007646,-0.003797,89.927058,0.007646,
1040,1480,0.461832,-3.167084,0.999996,0.000226,-0.003308,0.006550,0.001373,0.006738,-0.003496,82.220014,0.006740,
570,360,1.831549,-12.326216,0.999981,0.000534,-0.004256,0.007227,-0.000099,0.007228,-0.004257,-89.504129,0.007266,
1780,1820,-1.057528,-1.552385,0.999997,0.000218,-0.003438,0.007593,0.000561,0.007621,-0.003466,87.094801,0.007632,
960,1100,1.874791,-6.860769,0.999997,0.000231,-0.003599,0.009707,-0.000833,0.009759,-0.003651,-86.431359,0.009861,
790,240,0.739763,-13.728980,0.999997,0.000189,-0.002946,0.007071,0.000607,0.007107,-0.002982,86.543627,0.007138,
1750,1920,-0.558873,-0.748150,0.999997,0.000207,-0.002776,0.007038,0.001506,0.007264,-0.003002,81.466845,0.007300,
1750,540,-1.685779,-11.310844,0.999997,0.000223,-0.003956,0.007781,0.000100,0.007781,-0.003957,89.513151,0.007782,
1090,1570,0.290559,-2.482497,0.999997,0.000186,-0.002486,0.005877,0.000835,0.005959,-0.002568,84.355407,0.005978,
1250,1270,-0.033328,-3.506571,0.999998,0.000188,-0.002021,0.001800,-0.000875,0.001990,-0.002211,-77.698220,0.002436,
1250,2000,-0.002285,-0.160657,0.999998,0.000149,-0.000191,0.004533,0.000015,0.004533,-0.000191,89.816051,0.005128,
1230,1400,0.002268,-3.126967,0.999998,0.000138,-0.001641,0.003888,0.000039,0.003888,-0.001641,89.594702,0.003904,
1640,170,-0.454127,-14.243809,0.999997,0.000180,-0.001755,0.006425,-0.001136,0.006579,-0.001910,-82.241140,0.006770,
1840,1150,-2.915424,-6.732136,0.999997,0.000209,-0.003316,0.006796,0.000365,0.006810,-0.003329,87.934813,0.006810,
1340,1950,-0.042753,-0.396463,0.999998,0.000166,-0.000498,0.004785,0.000196,0.004793,-0.000506,87.875986,0.005267,
1450,510,-0.513971,-12.304153,0.999996,0.000213,-0.003133,0.006570,0.000959,0.006664,-0.003227,84.411046,0.006665,
1820,1860,-1.042072,-1.333352,0.999997,0.000205,-0.003384,0.007717,0.000702,0.007762,-0.003428,86.395823,0.007779,
620,1740,1.527022,-2.320453,0.999997,0.000212,-0.003603,0.007515,0.000028,0.007515,-0.003603,89.854422,0.007517,
1070,780,0.502573,-10.674530,0.999996,0.000226,-0.005078,0.007710,-0.002865,0.008323,-0.005691,-77.932420,0.008508,
1150,640,0.154589,-11.928482,0.999998,0.000176,-0.002245,0.004791,-0.001369,0.005048,-0.002502,-79.364992,0.005048,
830,1570,1.121223,-3.096504,0.999997,0.000190,-0.003728,0.007522,0.000355,0.007534,-0.003739,88.195268,0.007534,
660,1780,1.266823,-1.911725,0.999997,0.000213,-0.003535,0.007549,-0.000341,0.007559,-0.003546,-88.241178,0.007564,
1870,1990,-0.473199,-0.450841,0.999995,0.000236,-0.002924,0.008738,0.002607,0.009295,-0.003480,77.955451,0.009392,
1190,1990,0.008166,-0.206908,0.999998,0.000141,-0.000174,0.004572,-0.000104,0.004574,-0.000177,-88.743152,0.005183,
1530,570,-0.851898,-11.652612,0.999997,0.000212,-0.003989,0.007560,0.000868,0.007625,-0.004054,85.723394,0.007630,
1650,1890,-0.453641,-0.850170,0.999997,0.000201,-0.001942,0.006431,0.001135,0.006582,-0.002093,82.413163,0.006725,
1580,1650,-0.811009,-2.390637,0.999997,0.000186,-0.003195,0.007069,-0.000266,0.007076,-0.003202,-88.514881,0.007087,
570,980,3.171118,-7.852086,0.999978,0.000542,-0.002600,0.006147,-0.000143,0.006149,-0.002603,-89.065502,0.006173,
770,640,1.677810,-10.653034,0.999995,0.000255,-0.004294,0.008064,0.000052,0.008064,-0.004294,89.757701,0.008070,
1050,1120,1.380100,-6.105855,0.999989,0.000368,-0.004903,0.011463,0.003475,0.012170,-0.005610,78.496052,0.012183,
1780,1800,-1.122076,-1.705602,0.999997,0.000209,-0.003506,0.007582,0.000452,0.007601,-0.003524,87.668957,0.007608,
1740,1540,-1.592138,-3.589518,0.999996,0.000216,-0.003904,0.007713,-0.000161,0.007716,-0.003906,-89.204362,0.007716,
1490,1650,-0.543524,-2.209899,0.999997,0.000224,-0.002830,0.006546,-0.000439,0.006567,-0.002850,-87.322024,0.006586,
1300,1380,-0.122666,-3.315647,0.999998,0.000205,-0.002105,0.004336,-0.001530,0.004681,-0.002450,-77.290524,0.004683,
560,190,1.304851,-13.519171,0.999943,0.000000,-0.002840,0.007684,-0.000015,0.007684,-0.002840,-89.918361,0.007770,
1760,1850,-0.882228,-1.280615,0.999997,0.000185,-0.003345,0.007479,0.000774,0.007534,-0.003400,85.929593,0.007546,
790,990,2.481616,-7.844120,0.999997,0.000218,-0.003115,0.007570,0.000328,0.007580,-0.003125,88.243095,0.007619,
1750,1340,-2.110283,-5.186810,0.999998,0.000161,-0.004053,0.007865,0.000456,0.007883,-0.004070,87.810252,0.007884,
710,250,1.011174,-13.516257,0.999998,0.000191,-0.003461,0.007537,0.000434,0.007554,-0.003478,87.741855,0.007562,
570,350,1.805120,-12.401087,0.999964,0.000686,-0.004324,0.007081,-0.000134,0.007083,-0.004325,-89.324874,0.007141,
1710,210,-0.751972,-13.887676,0.999997,0.000199,-0.002647,0.007150,-0.001038,0.007258,-0.002755,-84.019122,0.007328,
1200,790,0.061382,-11.566687,0.999997,0.000228,-0.002086,0.001982,-0.001333,0.002380,-0.002484,-73.384904,0.002810,
1530,120,-0.184462,-14.601876,0.999998,0.000164,-0.000863,0.005480,-0.000825,0.005586,-0.000969,-82.708290,0.005970,
1270,1400,-0.065277,-3.159027,0.999998,0.000174,-0.001859,0.004083,-0.000786,0.004185,-0.001961,-82.594014,0.004188,
1760,1790,-1.083948,-1.733397,0.999998,0.000232,-0.003521,0.007531,0.000361,0.007543,-0.003533,88.130644,0.007548,
1650,1940,-0.298249,-0.537072,0.999997,0.000223,-0.001287,0.006104,0.001361,0.006347,-0.001530,79.889006,0.006625,
1570,1020,-2.203301,-7.623532,0.999996,0.000240,-0.002702,0.008256,-0.000152,0.008258,-0.002704,-89.206787,0.008420,
1050,780,0.606663,-10.522293,0.999995,0.000263,-0.005405,0.008331,-0.002464,0.008760,-0.005834,-80.132102,0.008919,
1410,770,-0.569726,-10.628762,0.999995,0.000255,-0.005285,0.008090,0.002529,0.008552,-0.005748,79.642981,0.008720,
1150,1550,0.160463,-2.498377,0.999998,0.000180,-0.002144,0.005394,0.000702,0.005459,-0.002209,84.725911,0.005491,
1270,580,-0.072222,-12.289419,0.999999,0.000182,-0.001911,0.004777,0.000438,0.004806,-0.001940,86.271745,0.004835,
1460,1530,-0.554088,-2.940958,0.999997,0.000208,-0.003233,0.006704,-0.000973,0.006798,-0.003328,-84.462599,0.006799,
1350,1650,-0.216824,-1.995926,0.999998,0.000172,-0.001971,0.005545,-0.000389,0.005566,-0.001991,-87.042564,0.005640,
1730,540,-1.606914,-11.359211,0.999996,0.000232,-0.003991,0.007792,0.000130,0.007794,-0.003992,89.368151,0.007794,
1790,1460,-1.966991,-4.328504,0.999997,0.000208,-0.003906,0.007748,0.000053,0.007748,-0.003906,89.737734,0.007748,
880,1480,1.073462,-3.662755,0.999997,0.000208,-0.004171,0.007875,0.000606,0.007905,-0.004202,87.125457,0.007910,
960,1080,1.943288,-7.054456,0.999997,0.000223,-0.003246,0.009569,-0.000677,0.009604,-0.003281,-86.986128,0.009763,
1620,170,-0.422492,-14.256158,0.999996,0.000227,-0.001657,0.006273,-0.001037,0.006406,-0.001790,-82.673964,0.006610,
830,1550,1.155078,-3.249134,0.999997,0.000203,-0.003842,0.007660,0.000386,0.007673,-0.003855,88.080799,0.007673,
1580,550,-1.022029,-11.665119,0.999997,0.000173,-0.003974,0.007672,0.000600,0.007703,-0.004005,87.060291,0.007705,
1400,1950,-0.068765,-0.404727,0.999998,0.000176,-0.000523,0.004921,0.000361,0.004945,-0.000547,86.217530,0.005422,
1250,1250,-0.044753,-3.539440,0.999997,0.000207,-0.002602,0.001603,-0.000798,0.001749,-0.002748,-79.608447,0.002782,
1840,1990,-0.371303,-0.366482,0.999995,0.000246,-0.003325,0.007844,0.002051,0.008208,-0.003689,79.915964,0.008222,
620,1720,1.577204,-2.469215,0.999997,0.000216,-0.003605,0.007509,0.000079,0.007509,-0.003606,89.592437,0.007511,
1550,460,-0.790412,-12.404509,0.999996,0.000231,-0.003363,0.007112,0.000504,0.007136,-0.003388,87.253666,0.007139,
660,1800,1.202924,-1.760876,0.999997,0.000204,-0.003494,0.007624,-0.000470,0.007643,-0.003514,-87.586020,0.007652,
590,1780,1.521231,-2.109047,0.999996,0.000224,-0.003898,0.007411,-0.000050,0.007412,-0.003898,-89.748511,0.007415,
1480,570,-0.660967,-11.808083,0.999996,0.000237,-0.003737,0.007160,0.001161,0.007282,-0.003860,83.985101,0.007287,
1090,1770,0.191984,-1.341021,0.999998,0.000167,-0.001428,0.005586,-0.000050,0.005586,-0.001428,-89.588178,0.005804,
1580,390,-0.786084,-12.835763,0.999997,0.000213,-0.003169,0.007022,0.000225,0.007027,-0.003174,88.734989,0.007038,
1520,1650,-0.628277,-2.268700,0.999997,0.000208,-0.002798,0.006672,-0.000349,0.006685,-0.002811,-87.890669,0.006713,
1040,1460,0.469605,-3.296937,0.999997,0.000221,-0.003416,0.006637,0.001467,0.006847,-0.003626,81.864710,0.006851,
1200,240,0.037213,-14.062911,0.999998,0.000183,-0.001116,0.005084,0.000013,0.005084,-0.001116,89.878447,0.005344,
920,420,0.711895,-12.706073,0.999997,0.000192,-0.003128,0.006902,-0.000387,0.006917,-0.003143,-87.791891,0.006927,
1030,1100,1.586224,-6.544077,0.999994,0.000353,-0.004969,0.012430,0.001702,0.012595,-0.005134,84.463644,0.012666,
1580,160,-0.327512,-14.349286,0.999997,0.000196,-0.001663,0.005976,-0.000846,0.006069,-0.001756,-83.752817,0.006246,
1790,440,-1.625037,-11.986183,0.999998,0.000202,-0.003775,0.007597,0.000126,0.007598,-0.003777,89.367439,0.007598,
1890,1010,-3.183325,-7.671480,0.999998,0.000183,-0.003038,0.006265,-0.000183,0.006269,-0.003041,-88.871625,0.006270,
1700,1160,-2.404108,-6.551722,0.999996,0.000245,-0.003701,0.007862,0.000918,0.007935,-0.003773,85.487226,0.007938,
1270,560,-0.072270,-12.386036,0.999998,0.000202,-0.001902,0.004894,0.000381,0.004915,-0.001924,86.800386,0.004954,
1530,550,-0.825151,-11.806461,0.999996,0.000224,-0.003848,0.007447,0.000845,0.007510,-0.003911,85.743430,0.007512,
1300,1360,-0.117303,-3.397655,0.999998,0.000190,-0.002158,0.004202,-0.001741,0.004647,-0.002604,-75.649106,0.004659,
1490,1630,-0.563281,-2.342830,0.999997,0.000214,-0.002866,0.006610,-0.000507,0.006637,-0.002893,-86.946169,0.006655,
1610,1620,-0.954746,-2.669561,0.999998,0.000217,-0.003470,0.007335,-0.000308,0.007343,-0.003479,-88.369956,0.007347,
1030,120,0.108125,-14.631007,0.999998,0.000188,-0.000699,0.005111,0.000449,0.005145,-0.000734,85.608444,0.005566,
1410,810,-0.677523,-10.286585,0.999996,0.000272,-0.005758,0.008808,0.002416,0.009198,-0.006148,80.822911,0.009370,
910,980,2.107928,-7.964638,0.999997,0.000217,-0.002951,0.008598,0.000696,0.008640,-0.002992,86.565006,0.008775,
1740,1300,-2.179884,-5.486830,0.999997,0.000226,-0.004094,0.007995,0.000603,0.008025,-0.004124,87.149961,0.008027,
1650,1870,-0.514515,-0.980446,0.999997,0.000213,-0.002149,0.006595,0.001002,0.006708,-0.002263,83.549331,0.006826,
570,340,1.779579,-12.473534,0.999934,0.000929,-0.004244,0.007135,-0.000133,0.007137,-0.004246,-89.332432,0.007179,
1450,490,-0.500505,-12.437338,0.999996,0.000203,-0.003060,0.006543,0.000906,0.006628,-0.003144,84.654989,0.006631,
1780,1780,-1.185601,-1.855880,0.999998,0.000188,-0.003555,0.007552,0.000314,0.007561,-0.003564,88.382200,0.007565,
1550,1460,-0.965413,-3.719428,0.999997,0.000212,-0.004211,0.007788,-0.000775,0.007838,-0.004261,-86.319893,0.007848,
1400,910,-1.166738,-9.465933,0.999987,0.000414,-0.004187,0.009630,0.003873,0.010642,-0.005199,75.361508,0.010643,
1250,1400,-0.029513,-3.140062,0.999999,0.000134,-0.001675,0.003905,-0.000437,0.003939,-0.001709,-85.553826,0.003950,
1150,210,0.074816,-14.210149,0.999998,0.000155,-0.000970,0.005096,0.000095,0.005098,-0.000972,89.105616,0.005413,
1730,520,-1.564304,-11.515914,0.999997,0.000226,-0.003926,0.007776,0.000156,0.007778,-0.003928,89.237820,0.007778,
1470,820,-1.067437,-9.770097,0.999997,0.000213,-0.005841,0.009786,0.000788,0.009825,-0.005881,87.121596,0.009889,
920,2000,0.066492,-0.178160,0.999999,0.000147,-0.000225,0.005048,-0.000848,0.005182,-0.000358,-81.084737,0.005788,
1830,370,-1.616405,-12.419852,0.999996,0.000241,-0.003736,0.007585,0.000060,0.007585,-0.003736,89.694757,0.007586,
1660,150,-0.427265,-14.357934,0.999997,0.000231,-0.001984,0.006444,-0.001201,0.006611,-0.002152,-82.048424,0.006744,
960,1060,1.997628,-7.248825,0.999996,0.000257,-0.002993,0.009750,-0.000437,0.009765,-0.003008,-88.037557,0.010002,
620,1700,1.627685,-2.621243,0.999996,0.000233,-0.003642,0.007517,0.000048,0.007518,-0.003642,89.752234,0.007519,
1740,1850,-0.814199,-1.237326,0.999997,0.000187,-0.003087,0.007367,0.000895,0.007443,-0.003163,85.141915,0.007471,
710,270,1.074376,-13.366094,0.999998,0.000202,-0.003516,0.007531,0.000340,0.007542,-0.003526,88.238686,0.007547,
1550,280,-0.519464,-13.631386,0.999998,0.000182,-0.002130,0.006461,-0.000333,0.006474,-0.002142,-87.781401,0.006597,
560,180,1.259654,-13.589574,0.999957,0.000000,-0.003083,0.007883,0.000166,0.007886,-0.003085,89.135438,0.007948,
1450,240,-0.270418,-13.973568,0.999997,0.000216,-0.001495,0.005731,-0.000252,0.005740,-0.001504,-88.002630,0.005953,
670,310,1.330027,-12.964978,0.999997,0.000208,-0.003620,0.007526,0.000147,0.007528,-0.003622,89.246716,0.007529,
1480,470,-0.576886,-12.498865,0.999997,0.000209,-0.003006,0.006667,0.000681,0.006714,-0.003054,85.994184,0.006724,
830,1530,1.191660,-3.406112,0.999997,0.000198,-0.003937,0.007725,0.000379,0.007737,-0.003950,88.138992,0.007738,
790,970,2.462849,-7.997400,0.999996,0.000245,-0.003226,0.007672,0.000573,0.007702,-0.003256,86.999659,0.007733,
1500,1650,-0.572257,-2.229489,0.999997,0.000221,-0.002823,0.006578,-0.000413,0.006596,-0.002841,-87.492072,0.006617,
1650,1020,-2.431054,-7.618111,0.999996,0.000225,-0.002995,0.007719,-0.000159,0.007722,-0.002997,-89.150917,0.007786,
1250,1230,-0.067058,-3.566023,0.999996,0.000230,-0.003857,0.001930,-0.000395,0.001956,-0.003884,-86.112421,0.003884,
1380,1950,-0.059525,-0.401836,0.999998,0.000202,-0.000361,0.004861,0.000317,0.004881,-0.000380,86.536643,0.005429,
1040,1440,0.478532,-3.427745,0.999996,0.000244,-0.003559,0.006693,0.001575,0.006929,-0.003796,81.461209,0.006940,
1790,420,-1.582671,-12.138993,0.999997,0.000179,-0.003754,0.007583,0.000121,0.007584,-0.003755,89.389654,0.007584,
1700,1120,-2.490147,-6.862123,0.999996,0.000226,-0.003424,0.007569,0.000667,0.007609,-0.003465,86.540458,0.007619,
1190,640,0.071408,-12.018465,0.999997,0.000217,-0.001890,0.004249,-0.000775,0.004345,-0.001987,-82.917814,0.004351,
1780,1760,-1.242287,-2.010014,0.999998,0.000170,-0.003575,0.007546,0.000209,0.007549,-0.003579,88.924945,0.007553,
1490,1610,-0.584483,-2.475225,0.999996,0.000235,-0.002899,0.006638,-0.000558,0.006670,-0.002931,-86.663560,0.006686,
1450,470,-0.486225,-12.569325,0.999997,0.000208,-0.002950,0.006501,0.000817,0.006571,-0.003020,85.097991,0.006579,
960,1490,0.740860,-3.345909,0.999997,0.000188,-0.003796,0.007335,0.001009,0.007426,-0.003886,84.863852,0.007429,
1820,1990,-0.307984,-0.316529,0.999992,0.000326,-0.002113,0.007410,0.002505,0.008029,-0.002732,76.122971,0.008164,
1740,1260,-2.294670,-5.805073,0.999997,0.000218,-0.004033,0.007802,0.000727,0.007846,-0.004077,86.499438,0.007848,
960,1040,2.022980,-7.444289,0.999997,0.000225,-0.002885,0.009540,-0.000167,0.009543,-0.002887,-89.228619,0.009787,
1420,520,-0.424530,-12.321256,0.999997,0.000222,-0.002933,0.006306,0.001036,0.006421,-0.003048,83.680173,0.006424,
1020,990,1.764882,-8.069120,0.999994,0.000294,-0.004761,0.012966,-0.000741,0.012997,-0.004792,-87.610320,0.013145,
1220,460,0.021957,-12.908977,0.999999,0.000149,-0.001868,0.005219,-0.000150,0.005222,-0.001871,-88.791593,0.005291,
1100,1400,0.282862,-3.442439,0.999997,0.000204,-0.003110,0.005795,0.001978,0.006215,-0.003530,78.022453,0.006234,
580,1780,1.556388,-2.139317,0.999996,0.000228,-0.004721,0.007563,0.000028,0.007563,-0.004721,89.871075,0.007641,
1530,530,-0.802634,-11.953541,0.999997,0.000209,-0.003674,0.007275,0.000761,0.007327,-0.003727,86.044490,0.007328,
1830,350,-1.569997,-12.572266,0.999997,0.000231,-0.003711,0.007563,0.000026,0.007563,-0.003711,89.869213,0.007563,
790,950,2.425764,-8.153489,0.999996,0.000232,-0.003313,0.007715,0.000715,0.007761,-0.003360,86.308130,0.007784,
580,1250,2.848589,-6.102961,0.999998,0.000193,-0.003669,0.006861,-0.000079,0.006862,-0.003669,-89.571026,0.006867,
1810,220,-1.105454,-13.614466,0.999998,0.000175,-0.003438,0.007687,-0.000673,0.007728,-0.003479,-86.552483,0.007740,
1460,1390,-0.664591,-3.941437,0.999996,0.000230,-0.004477,0.007652,-0.001637,0.007869,-0.004694,-82.445364,0.007918,
750,860,2.366882,-8.831018,0.999996,0.000237,-0.003810,0.007813,0.000852,0.007875,-0.003872,85.830339,0.007876,
1150,170,0.056508,-14.411192,0.999998,0.000177,-0.000736,0.004993,0.000116,0.004995,-0.000738,88.835958,0.005393,
710,920,2.646148,-8.344361,0.999996,0.000236,-0.003460,0.007342,0.000572,0.007372,-0.003490,86.976277,0.007376,
1760,930,-2.686828,-8.268189,0.999997,0.000180,-0.003421,0.007292,-0.000571,0.007322,-0.003452,-86.959391,0.007326,
1340,430,-0.203467,-12.997862,0.999999,0.000147,-0.002058,0.005572,0.000451,0.005599,-0.002085,86.629350,0.005659,
670,420,1.592606,-12.129019,0.999995,0.000245,-0.003760,0.007631,-0.000115,0.007632,-0.003761,-89.419842,0.007633,
1100,1950,0.054086,-0.399684,0.999998,0.000166,-0.000405,0.004837,-0.000274,0.004851,-0.000419,-87.015121,0.005376,
830,1510,1.227291,-3.559423,0.999997,0.000206,-0.004009,0.007792,0.000366,0.007803,-0.004020,88.225149,0.007804,
910,2000,0.068067,-0.178119,0.999999,0.000143,-0.000264,0.005085,-0.000892,0.005230,-0.000409,-80.781843,0.005817,
1450,1000,-1.822876,-7.914021,0.999992,0.000357,-0.004340,0.012750,0.000350,0.012757,-0.004347,88.825656,0.012971,
1660,130,-0.362767,-14.484161,0.999997,0.000219,-0.001743,0.006213,-0.001273,0.006412,-0.001942,-81.127378,0.006576,
1740,690,-2.003933,-10.149785,0.999997,0.000193,-0.004148,0.007955,-0.000333,0.007964,-0.004157,-88.425161,0.007967,
560,280,1.710563,-12.849552,0.999702,0.000000,-0.006127,0.007978,-0.000026,0.007978,-0.006127,-89.893533,0.008351,
610,2010,0.278627,-0.254970,0.999996,0.000250,-0.002513,0.007474,-0.002680,0.008148,-0.003187,-75.887514,0.008213,
1760,1830,-0.953473,-1.430842,0.999998,0.000190,-0.003421,0.007513,0.000606,0.007546,-0.003455,86.836825,0.007555,
1440,710,-0.624119,-10.924059,0.999995,0.000274,-0.004803,0.007881,0.001949,0.008174,-0.005096,81.457297,0.008256,
620,1680,1.678254,-2.770723,0.999997,0.000202,-0.003702,0.007523,0.000066,0.007523,-0.003702,89.662598,0.007523,
1280,1190,-0.407112,-3.797210,0.999991,0.000000,-0.005649,0.001938,0.000012,0.001938,-0.005649,89.907231,0.005741,
1020,970,1.698189,-8.308904,0.999989,0.000428,-0.004642,0.012359,-0.000958,0.012412,-0.004696,-86.784357,0.012534,
1180,790,0.104006,-11.477451,0.999995,0.000325,-0.002428,0.002612,-0.002131,0.003392,-0.003208,-69.885703,0.003815,
1200,1920,0.018656,-0.534108,0.999998,0.000179,-0.000535,0.004794,-0.000032,0.004794,-0.000535,-89.658880,0.005254,
1400,1750,-0.247606,-1.471766,0.999998,0.000196,-0.001746,0.005701,-0.000077,0.005701,-0.001747,-89.407995,0.005842,
750,990,2.605378,-7.838645,0.999997,0.000211,-0.003207,0.007352,0.000250,0.007357,-0.003213,88.644554,0.007377,
1700,580,-1.570536,-11.117060,0.999996,0.000245,-0.004127,0.007931,0.000119,0.007932,-0.004128,89.433898,0.007935,
1890,1020,-3.189104,-7.608396,0.999998,0.000163,-0.003048,0.006327,-0.000095,0.006328,-0.003049,-89.417891,0.006330,
1480,310,-0.407924,-13.531689,0.999996,0.000228,-0.002092,0.006189,0.000001,0.006189,-0.002092,89.992823,0.006296,
1830,330,-1.517874,-12.724373,0.999996,0.000243,-0.003701,0.007505,0.000039,0.007505,-0.003701,89.798727,0.007506,
1040,1420,0.487520,-3.562645,0.999996,0.000259,-0.003770,0.006785,0.001739,0.007064,-0.004049,80.884034,0.007090,
1740,1240,-2.348743,-5.963274,0.999997,0.000235,-0.003982,0.007841,0.000777,0.007892,-0.004033,86.256791,0.007892,
1650,1850,-0.572944,-1.113971,0.999997,0.000233,-0.002325,0.006722,0.000896,0.006810,-0.002413,84.395933,0.006906,
1300,1340,-0.117018,-3.477291,0.999997,0.000223,-0.002227,0.004001,-0.001971,0.004573,-0.002798,-73.832750,0.004611,
1870,760,-2.691144,-9.365491,0.999997,0.000207,-0.003601,0.007341,-0.000243,0.007347,-0.003607,-88.726270,0.007347,
1740,1790,-1.014470,-1.686775,0.999997,0.000206,-0.003310,0.007502,0.000426,0.007519,-0.003327,87.747255,0.007535,
790,930,2.390477,-8.306428,0.999997,0.000219,-0.003443,0.007789,0.000752,0.007839,-0.003493,86.187420,0.007854,
1450,450,-0.472442,-12.700822,0.999997,0.000197,-0.002786,0.006407,0.000682,0.006458,-0.002837,85.779635,0.006473,
570,1780,1.603995,-2.166939,0.999728,0.001890,-0.005188,0.007756,0.000104,0.007757,-0.005189,89.537726,0.007903,
920,400,0.684861,-12.844614,0.999997,0.000187,-0.002942,0.006821,-0.000296,0.006830,-0.002951,-88.267122,0.006851,
1600,1530,-1.061801,-3.318033,0.999997,0.000237,-0.003851,0.007632,-0.000496,0.007653,-0.003872,-87.532008,0.007653,
1760,910,-2.653338,-8.413307,0.999997,0.000191,-0.003469,0.007363,-0.000591,0.007395,-0.003502,-86.887702,0.007398,
1490,1810,-0.337268,-1.205328,0.999998,0.000193,-0.001814,0.005945,0.000256,0.005954,-0.001822,88.112432,0.006101,
1320,430,-0.161417,-13.021194,0.999998,0.000153,-0.002016,0.005479,0.000456,0.005506,-0.002044,86.531880,0.005567,
1080,1950,0.060563,-0.401729,0.999998,0.000146,-0.000398,0.004880,-0.000337,0.004902,-0.000420,-86.364674,0.005434,
600,2010,0.301001,-0.275125,0.999976,0.000625,-0.001834,0.008073,-0.003301,0.009072,-0.002833,-73.159560,0.009283,
580,80,0.627453,-14.495219,0.999996,0.000233,-0.004293,0.009486,0.002237,0.009840,-0.004647,81.004798,0.009845,
830,1710,0.866840,-2.066423,0.999998,0.000175,-0.003009,0.007121,-0.000134,0.007123,-0.003010,-89.244819,0.007151,
1310,2000,-0.012504,-0.160713,0.999998,0.000158,-0.000126,0.004559,0.000170,0.004566,-0.000132,87.921646,0.005197,
770,500,1.379216,-11.761662,0.999997,0.000204,-0.003898,0.007706,-0.000230,0.007710,-0.003903,-88.865407,0.007710,
1200,650,0.052350,-11.988106,0.999998,0.000165,-0.001772,0.004048,-0.000606,0.004110,-0.001835,-84.117042,0.004118,
1440,690,-0.600385,-11.079825,0.999995,0.000294,-0.004551,0.007613,0.001900,0.007903,-0.004841,81.326076,0.007970,
1350,1630,-0.218852,-2.104352,0.999998,0.000201,-0.002000,0.005588,-0.000418,0.005611,-0.002022,-86.859584,0.005683,
1280,860,-0.369703,-11.335058,0.999994,0.000000,-0.005648,0.002079,-0.000015,0.002079,-0.005648,-89.887178,0.005713,
1580,140,-0.277604,-14.469629,0.999997,0.000185,-0.001480,0.005838,-0.000903,0.005947,-0.001590,-83.066883,0.006158,
1040,170,0.154933,-14.374220,0.999998,0.000184,-0.001088,0.005239,0.000304,0.005253,-0.001103,87.254598,0.005540,
980,1170,1.446222,-6.084402,0.999995,0.000257,-0.005300,0.010262,-0.000297,0.010267,-0.005306,-88.908416,0.010269,
1810,200,-1.027746,-13.769701,0.999997,0.000196,-0.003341,0.007702,-0.000832,0.007765,-0.003403,-85.717109,0.007784,
1100,1420,0.286053,-3.328388,0.999997,0.000188,-0.002940,0.005775,0.001773,0.006122,-0.003287,78.927990,0.006128,
560,1940,0.943065,-1.001568,0.999990,0.000000,-0.003765,0.008619,-0.001255,0.008745,-0.003891,-84.273075,0.008763,
1640,150,-0.392001,-14.373055,0.999997,0.000221,-0.001526,0.006305,-0.001207,0.006487,-0.001707,-81.433558,0.006725,
1700,560,-1.527323,-11.275593,0.999996,0.000244,-0.004071,0.007823,0.000168,0.007825,-0.004073,89.192485,0.007827,
1420,500,-0.417102,-12.447566,0.999997,0.000203,-0.002768,0.006272,0.000881,0.006357,-0.002853,84.482465,0.006369,
630,1880,0.998824,-1.220454,0.999998,0.000180,-0.003565,0.007794,-0.000670,0.007833,-0.003604,-86.635868,0.007842,
1200,1960,0.012219,-0.343373,0.999998,0.000170,-0.000360,0.004651,-0.000057,0.004651,-0.000361,-89.353471,0.005175,
1380,1750,-0.218355,-1.455609,0.999997,0.000195,-0.001518,0.005596,-0.000028,0.005596,-0.001518,-89.776476,0.005788,
1460,310,-0.369384,-13.552764,0.999997,0.000198,-0.001906,0.006039,-0.000030,0.006040,-0.001906,-89.783684,0.006175,
1830,310,-1.465202,-12.873834,0.999997,0.000223,-0.003661,0.007511,-0.000044,0.007511,-0.003661,-89.776835,0.007512,
1530,510,-0.781341,-12.097145,0.999997,0.000197,-0.003540,0.007174,0.000706,0.007221,-0.003586,86.243748,0.007221,
1040,1400,0.501622,-3.704212,0.999996,0.000263,-0.003987,0.007010,0.001894,0.007327,-0.004304,80.496585,0.007364,
1740,1220,-2.404301,-6.119093,0.999996,0.000245,-0.003870,0.007782,0.000806,0.007838,-0.003925,86.061194,0.007838,
1300,1320,-0.115905,-3.553385,0.999997,0.000217,-0.002328,0.003739,-0.002224,0.004468,-0.003056,-71.873840,0.004567,
1870,750,-2.664932,-9.439868,0.999997,0.000208,-0.003614,0.007338,-0.000238,0.007343,-0.003619,-88.758146,0.007343,
610,980,3.052026,-7.875787,0.999997,0.000179,-0.003144,0.006473,0.000100,0.006474,-0.003145,89.406676,0.006475,
1500,100,-0.120948,-14.721142,0.999998,0.000170,-0.000776,0.005217,-0.000652,0.005287,-0.000846,-83.864118,0.005680,
790,910,2.344301,-8.465625,0.999997,0.000245,-0.003613,0.007993,0.000946,0.008070,-0.003690,85.373051,0.008080,
1350,720,-0.258057,-11.367793,0.999996,0.000258,-0.003421,0.005565,0.002706,0.006317,-0.004172,74.472332,0.006425,
1420,590,-0.458859,-11.865959,0.999996,0.000230,-0.003360,0.006556,0.001455,0.006765,-0.003569,81.821778,0.006769,
620,1660,1.723297,-2.922751,0.999997,0.000188,-0.003744,0.007525,0.000108,0.007526,-0.003745,89.450981,0.007526,
1460,1510,-0.567726,-3.075203,0.999996,0.000225,-0.003360,0.006780,-0.001065,0.006890,-0.003470,-84.069233,0.006890,
1510,1080,-1.964384,-7.064060,0.999998,0.000136,-0.003234,0.009440,0.000675,0.009476,-0.003270,86.959060,0.009627,
1740,670,-1.951204,-10.309345,0.999998,0.000174,-0.004153,0.007943,-0.000274,0.007950,-0.004159,-88.702240,0.007952,
1840,990,-3.017343,-7.812897,0.999999,0.000198,-0.003212,0.006653,-0.000169,0.006656,-0.003215,-89.017433,0.006657,
850,1150,2.108355,-6.567902,0.999997,0.000205,-0.003815,0.008421,-0.001027,0.008506,-0.003901,-85.234115,0.008516,
1300,2000,-0.011622,-0.160747,0.999998,0.000169,-0.000094,0.004551,0.000129,0.004554,-0.000097,88.411046,0.005204,
920,380,0.660052,-12.978192,0.999997,0.000212,-0.002732,0.006707,-0.000154,0.006710,-0.002735,-89.063864,0.006748,
580,70,0.552411,-14.591823,0.999996,0.000228,-0.003834,0.009369,0.002905,0.009980,-0.004445,78.123155,0.010000,
590,2010,0.324605,-0.290514,0.999981,0.000561,-0.001161,0.008838,-0.004014,0.010250,-0.002573,-70.621437,0.010665,
1300,1180,-0.606916,-3.973821,0.999994,0.000000,-0.004292,0.002018,-0.000596,0.002074,-0.004348,-84.648606,0.004349,
980,1950,0.116546,-0.422713,0.999998,0.000171,-0.000665,0.005194,-0.000619,0.005258,-0.000729,-84.033885,0.005697,
1560,730,-1.279653,-10.234431,0.999996,0.000265,-0.005183,0.008890,0.000290,0.008896,-0.005189,88.819520,0.008937,
1590,1600,-0.917482,-2.769980,0.999999,0.000164,-0.003483,0.007257,-0.000398,0.007272,-0.003498,-87.880267,0.007273,
890,990,2.186092,-7.868800,0.999997,0.000227,-0.002891,0.008268,0.000524,0.008292,-0.002916,87.317974,0.008413,
1450,1140,-1.442141,-6.217630,0.999993,0.000285,-0.004980,0.010878,-0.000391,0.010887,-0.004990,-88.589332,0.010900,
960,1020,2.023566,-7.629476,0.999998,0.000180,-0.002877,0.009433,0.000072,0.009434,-0.002877,89.664931,0.009670,
1450,430,-0.454573,-12.829038,0.999997,0.000192,-0.002595,0.006296,0.000536,0.006328,-0.002627,86.560093,0.006358,
1800,1790,-1.226604,-1.829425,0.999997,0.000248,-0.003524,0.007584,0.000412,0.007599,-0.003539,87.876891,0.007605,
750,970,2.592514,-7.986324,0.999997,0.000218,-0.003296,0.007457,0.000450,0.007476,-0.003315,87.608737,0.007491,
1700,540,-1.486282,-11.431562,0.999995,0.000277,-0.004013,0.007786,0.000187,0.007789,-0.004016,89.092065,0.007790,
1740,1200,-2.454347,-6.274703,0.999997,0.000227,-0.003744,0.007619,0.000775,0.007671,-0.003797,86.115764,0.007671,
790,1560,1.292377,-3.270454,0.999995,0.000244,-0.003858,0.007649,0.000251,0.007655,-0.003863,88.752040,0.007655,
1730,1720,-1.165237,-2.190913,0.999998,0.000171,-0.003500,0.007487,0.000095,0.007488,-0.003500,89.504499,0.007493,
1210,1850,0.021517,-0.879024,0.999998,0.000164,-0.000924,0.005002,-0.000003,0.005002,-0.000924,-89.970082,0.005323,
1480,450,-0.557897,-12.632302,0.999997,0.000224,-0.002953,0.006648,0.000633,0.006689,-0.002994,86.241717,0.006701,
1420,480,-0.409934,-12.572284,0.999997,0.000201,-0.002616,0.006249,0.000742,0.006311,-0.002678,85.247424,0.006335,
560,920,3.138672,-8.214092,0.999990,0.000000,-0.002943,0.006450,0.000127,0.006451,-0.002945,89.223904,0.006460,
1020,170,0.176762,-14.364654,0.999998,0.000175,-0.001029,0.005339,0.000388,0.005363,-0.001052,86.528663,0.005683,
1490,1070,-1.929181,-7.132293,0.999997,0.000190,-0.003260,0.010074,0.000462,0.010090,-0.003276,88.018279,0.010295,
590,980,3.113700,-7.865479,0.999997,0.000205,-0.003009,0.006283,0.000042,0.006283,-0.003010,89.738793,0.006285,
1140,650,0.175767,-11.853759,0.999998,0.000184,-0.002453,0.004929,-0.001637,0.005276,-0.002799,-78.040690,0.005279,
790,890,2.291816,-8.627684,0.999997,0.000253,-0.003778,0.008011,0.000952,0.008087,-0.003855,85.412295,0.008090,
1040,1380,0.513829,-3.847433,0.999996,0.000243,-0.004180,0.007184,0.001984,0.007520,-0.004517,80.376074,0.007571,
1650,1830,-0.631705,-1.247388,0.999997,0.000226,-0.002481,0.006801,0.000756,0.006862,-0.002542,85.375162,0.006938,
1870,740,-2.638430,-9.513518,0.999996,0.000230,-0.003621,0.007337,-0.000216,0.007341,-0.003625,-88.871439,0.007341,
1350,1850,-0.113533,-0.901141,0.999998,0.000171,-0.001042,0.005182,0.000143,0.005185,-0.001045,88.681194,0.005484,
750,500,1.457030,-11.712826,0.999996,0.000243,-0.003899,0.007707,-0.000201,0.007711,-0.003902,-89.007415,0.007711,
700,290,1.167143,-13.190184,0.999998,0.000212,-0.003580,0.007559,0.000210,0.007563,-0.003584,88.922317,0.007566,
630,1860,1.088375,-1.374759,0.999997,0.000193,-0.003570,0.007709,-0.000476,0.007729,-0.003590,-87.586120,0.007735,
1830,290,-1.408172,-13.024906,0.999997,0.000213,-0.003640,0.007544,-0.000110,0.007545,-0.003641,-89.437371,0.007547,
1720,690,-1.918812,-10.190133,0.999996,0.000230,-0.004246,0.008057,-0.000320,0.008066,-0.004254,-88.512469,0.008070,
1070,720,0.421612,-11.113742,0.999997,0.000199,-0.004283,0.006925,-0.002540,0.007474,-0.004832,-77.807428,0.007580,
1490,1080,-1.900754,-7.032675,0.999997,0.000188,-0.003407,0.009950,0.000556,0.009973,-0.003430,87.620232,0.010134,
690,480,1.647220,-11.721478,0.999998,0.000171,-0.003841,0.007664,-0.000146,0.007666,-0.003842,-89.273048,0.007666,
840,1040,2.349761,-7.462213,0.999996,0.000234,-0.002909,0.007856,-0.000209,0.007860,-0.002913,-88.888893,0.007947,
1300,1300,-0.122159,-3.628434,0.999997,0.000212,-0.002405,0.003583,-0.002462,0.004466,-0.003287,-70.284675,0.004629,
1870,2020,-0.230832,-0.200242,0.999971,0.000000,-0.000192,0.008594,0.004527,0.010509,-0.002107,67.067833,0.011120,
1770,2010,-0.150490,-0.162359,0.999997,0.000208,-0.000758,0.006223,0.002489,0.007020,-0.001554,72.251057,0.007374,
960,1950,0.132351,-0.428198,0.999998,0.000162,-0.000851,0.005279,-0.000698,0.005358,-0.000930,-83.582589,0.005726,
1530,930,-1.876897,-8.440375,0.999996,0.000228,-0.003899,0.009327,-0.001036,0.009408,-0.003980,-85.546363,0.009445,
580,60,0.479181,-14.679040,0.999992,0.000326,-0.003057,0.009386,0.003943,0.010530,-0.004201,73.816562,0.010602,
920,1050,2.118979,-7.368323,0.999998,0.000186,-0.002740,0.008662,-0.000377,0.008674,-0.002753,-88.109651,0.008865,
1290,2000,-0.010327,-0.160368,0.999998,0.000176,-0.000087,0.004555,0.000103,0.004557,-0.000090,88.725697,0.005211,
620,1880,1.035884,-1.255400,0.999998,0.000183,-0.003635,0.007778,-0.000541,0.007804,-0.003661,-87.290261,0.007809,
1540,730,-1.173023,-10.304862,0.999998,0.000263,-0.005225,0.008904,0.000492,0.008921,-0.005242,88.009425,0.008966,
1430,1020,-1.748845,-7.672431,0.999987,0.000431,-0.006248,0.015341,0.000362,0.015347,-0.006254,89.040090,0.015434,
1480,430,-0.541097,-12.765053,0.999997,0.000197,-0.002915,0.006570,0.000587,0.006606,-0.002951,86.473985,0.006619,
920,360,0.629701,-13.110284,0.999997,0.000222,-0.002554,0.006647,-0.000022,0.006647,-0.002554,-89.862395,0.006706,
1580,120,-0.231254,-14.582992,0.999998,0.000177,-0.001229,0.005722,-0.000981,0.005858,-0.001365,-82.118572,0.006130,
1420,570,-0.451725,-11.997017,0.999998,0.000184,-0.003289,0.006450,0.001368,0.006638,-0.003477,82.152880,0.006641,
1100,1440,0.286114,-3.212956,0.999998,0.000170,-0.002848,0.005767,0.001582,0.006048,-0.003129,79.918119,0.006049,
750,950,2.559871,-8.138712,0.999996,0.000233,-0.003382,0.007535,0.000691,0.007578,-0.003425,86.393976,0.007590,
1210,1830,0.022428,-0.977721,0.999998,0.000164,-0.001038,0.005037,0.000027,0.005037,-0.001038,89.743114,0.005319,
560,940,3.172103,-8.084335,0.999985,0.000000,-0.002834,0.006148,0.000053,0.006148,-0.002835,89.660776,0.006154,
1710,1720,-1.097032,-2.149859,0.999998,0.000162,-0.003327,0.007440,0.000141,0.007442,-0.003329,89.251197,0.007456,
1700,520,-1.446802,-11.587423,0.999995,0.000272,-0.003972,0.007803,0.000212,0.007806,-0.003976,88.969765,0.007807,
1450,650,-0.606664,-11.337144,0.999996,0.000243,-0.004185,0.007401,0.001639,0.007628,-0.004412,82.100613,0.007659,
1780,1790,-1.154162,-1.780305,0.999998,0.000167,-0.003533,0.007558,0.000395,0.007572,-0.003547,87.965009,0.007577,
1250,830,-0.073930,-11.542258,0.999994,0.000281,-0.004304,0.002096,0.000239,0.002105,-0.004313,87.862145,0.004313,
1200,530,0.059456,-12.538796,0.999999,0.000141,-0.001893,0.005031,-0.000305,0.005045,-0.001906,-87.481385,0.005094,
1740,1180,-2.502905,-6.426473,0.999997,0.000227,-0.003666,0.007654,0.000819,0.007713,-0.003724,85.885496,0.007714,
1460,1430,-0.627327,-3.642660,0.999996,0.000212,-0.004024,0.007260,-0.001460,0.007446,-0.004210,-82.744708,0.007467,
1040,1360,0.530029,-3.990446,0.999996,0.000235,-0.004406,0.007358,0.002082,0.007715,-0.004763,80.253911,0.007786,
1830,270,-1.347372,-13.176646,0.999996,0.000229,-0.003620,0.007573,-0.000178,0.007575,-0.003623,-89.089853,0.007578,
610,880,2.916465,-8.544599,0.999997,0.000207,-0.003328,0.006829,0.000312,0.006839,-0.003338,88.242154,0.006840,
1490,1030,-1.993006,-7.535711,0.999997,0.000223,-0.002975,0.009826,0.000027,0.009826,-0.002975,89.877760,0.010078,
1350,1610,-0.228373,-2.217866,0.999998,0.000194,-0.002029,0.005607,-0.000452,0.005634,-0.002055,-86.625393,0.005702,
1780,1850,-0.949247,-1.324635,0.999997,0.000191,-0.003345,0.007596,0.000827,0.007659,-0.003407,85.702086,0.007674,
890,970,2.144438,-8.037337,0.999997,0.000196,-0.003079,0.008387,0.000776,0.008439,-0.003131,86.146067,0.008532,
1340,1610,-0.207431,-2.206095,0.999998,0.000185,-0.002046,0.005564,-0.000463,0.005592,-0.002074,-86.527374,0.005654,
570,310,1.701605,-12.700448,0.999864,0.001374,-0.004492,0.007537,-0.000305,0.007545,-0.004500,-88.549098,0.007591,
820,230,0.629733,-13.845563,0.999997,0.000225,-0.002354,0.006781,0.000753,0.006843,-0.002416,85.319465,0.006941,
700,190,0.833198,-13.944457,0.999998,0.000165,-0.003297,0.007435,0.000912,0.007512,-0.003374,85.174790,0.007525,
1650,1810,-0.686392,-1.386458,0.999997,0.000211,-0.002619,0.006929,0.000652,0.006974,-0.002663,86.114481,0.007038,
1400,1010,-1.534949,-7.943069,0.999879,0.000000,-0.007570,0.021566,0.001781,0.021674,-0.007678,86.515351,0.021979,
790,870,2.238917,-8.786892,0.999997,0.000227,-0.003916,0.008076,0.000937,0.008149,-0.003989,85.561210,0.008149,
1890,1030,-3.191104,-7.544144,0.999998,0.000159,-0.003047,0.006342,0.000049,0.006342,-0.003047,89.700059,0.006344,
1840,470,-1.880180,-11.633539,0.999997,0.000186,-0.003800,0.007632,0.000102,0.007633,-0.003801,89.489854,0.007633,
1530,950,-1.953919,-8.254009,0.999996,0.000232,-0.003509,0.009182,-0.000967,0.009255,-0.003582,-85.669143,0.009333,
1610,1730,-0.762942,-1.885512,0.999998,0.000175,-0.002867,0.007030,0.000134,0.007032,-0.002869,89.223050,0.007071,
710,710,2.109109,-9.965817,0.999997,0.000193,-0.004088,0.007842,0.000428,0.007858,-0.004104,87.949663,0.007860,
1850,880,-2.907408,-8.547311,0.999997,0.000199,-0.003343,0.006860,-0.000326,0.006871,-0.003353,-88.171403,0.006871,
1060,2000,0.027234,-0.164903,0.999999,0.000142,-0.000242,0.004663,-0.000326,0.004685,-0.000263,-86.217020,0.005264,
1770,2000,-0.198633,-0.222356,0.999998,0.000193,-0.000965,0.006496,0.002551,0.007285,-0.001754,72.816713,0.007604,
1070,700,0.405445,-11.252568,0.999995,0.000265,-0.004027,0.006730,-0.002385,0.007235,-0.004532,-78.041554,0.007312,
1690,1220,-2.205076,-6.064128,0.999997,0.000205,-0.004079,0.008105,0.000914,0.008173,-0.004147,85.733626,0.008173,
870,120,0.249491,-14.575737,0.999998,0.000184,-0.001291,0.005810,0.001043,0.005960,-0.001441,81.811153,0.006220,
970,1300,0.990077,-4.851457,0.999995,0.000270,-0.005465,0.009080,0.000956,0.009142,-0.005527,86.254654,0.009209,
940,590,0.848299,-11.522102,0.999996,0.000251,-0.004149,0.007645,-0.000957,0.007722,-0.004226,-85.391000,0.007733,
1730,1340,-2.028042,-5.151601,0.999996,0.000247,-0.004147,0.008001,0.000454,0.008018,-0.004164,87.861164,0.008020,
1530,1020,-2.097064,-7.625511,0.999997,0.000201,-0.002704,0.008695,-0.000101,0.008696,-0.002705,-89.493223,0.008900,
1200,1950,0.014052,-0.390500,0.999998,0.000184,-0.000402,0.004722,-0.000062,0.004723,-0.000402,-89.302713,0.005236,
840,1080,2.312508,-7.147234,0.999996,0.000221,-0.003111,0.007923,-0.000649,0.007961,-0.003149,-86.645894,0.008018,
670,290,1.275616,-13.117461,0.999997,0.000200,-0.003591,0.007594,0.000242,0.007599,-0.003597,88.761105,0.007602,
1780,390,-1.478728,-12.390438,0.999997,0.000224,-0.003686,0.007589,0.000067,0.007589,-0.003686,89.659700,0.007590,
1300,1280,-0.132284,-3.699718,0.999997,0.000244,-0.002558,0.003429,-0.002642,0.004428,-0.003558,-69.283035,0.004692,
950,260,0.408980,-13.799007,0.999996,0.000232,-0.002077,0.006088,0.000237,0.006095,-0.002084,88.337775,0.006196,
1140,1750,0.127481,-1.415013,0.999998,0.000177,-0.001547,0.005413,0.000117,0.005415,-0.001549,89.037579,0.005578,
560,1660,1.953449,-3.075238,0.999996,0.000000,-0.003918,0.007312,0.000164,0.007314,-0.003920,89.165854,0.007321,
720,670,1.963148,-10.303244,0.999997,0.000190,-0.004127,0.007949,0.000282,0.007955,-0.004134,88.662144,0.007957,
1160,610,0.137340,-12.094489,0.999998,0.000187,-0.002161,0.004840,-0.001128,0.005017,-0.002338,-81.070631,0.005021,
1430,1010,-1.740243,-7.823484,0.999986,0.000460,-0.006121,0.015402,0.000797,0.015431,-0.006151,87.881887,0.015537,
940,1490,0.817080,-3.407015,0.999997,0.000178,-0.003923,0.007525,0.000910,0.007597,-0.003995,85.481436,0.007600,
1000,1260,0.934348,-5.068088,0.999995,0.000255,-0.005807,0.009399,0.001251,0.009501,-0.005909,85.328614,0.009595,
1780,1740,-1.298973,-2.157861,0.999997,0.000186,-0.003607,0.007530,0.000092,0.007531,-0.003608,89.525007,0.007533,
620,1640,1.769948,-3.074623,0.999997,0.000208,-0.003767,0.007545,0.000111,0.007546,-0.003768,89.440125,0.007546,
1420,460,-0.398292,-12.693673,0.999997,0.000211,-0.002524,0.006139,0.000645,0.006186,-0.002572,85.763998,0.006216,
920,560,0.890756,-11.688813,0.999997,0.000191,-0.003977,0.007584,-0.000809,0.007641,-0.004034,-86.014463,0.007645,
1210,1810,0.026588,-1.079957,0.999998,0.000146,-0.001133,0.005114,0.000025,0.005114,-0.001134,89.769281,0.005372,
590,780,2.753034,-9.212524,0.999996,0.000234,-0.003629,0.007211,0.000205,0.007215,-0.003633,88.916127,0.007215,
650,1420,2.154059,-4.690989,0.999997,0.000210,-0.003874,0.007719,-0.000158,0.007721,-0.003876,-89.216839,0.007721,
1420,410,-0.369253,-12.999308,0.999997,0.000199,-0.002412,0.006031,0.000499,0.006060,-0.002442,86.629956,0.006098,
750,930,2.526040,-8.287979,0.999996,0.000237,-0.003437,0.007512,0.000668,0.007553,-0.003477,86.519921,0.007561,
1400,1030,-1.512683,-7.494659,0.999940,0.000000,-0.007765,0.021742,-0.000022,0.021742,-0.007765,-89.958163,0.022036,
1650,480,-1.176617,-12.019983,0.999997,0.000194,-0.003808,0.007576,0.000317,0.007585,-0.003817,88.406464,0.007585,
1700,500,-1.405808,-11.743774,0.999996,0.000229,-0.003898,0.007711,0.000204,0.007715,-0.003902,88.994401,0.007715,
580,90,0.701439,-14.399221,0.999996,0.000236,-0.004283,0.009165,0.001842,0.009412,-0.004530,82.341583,0.009415,
1650,1790,-0.738176,-1.525576,0.999997,0.000217,-0.002738,0.006975,0.000505,0.007001,-0.002764,87.031511,0.007053,
800,230,0.681624,-13.817553,0.999997,0.000219,-0.002789,0.006929,0.000669,0.006975,-0.002835,86.080731,0.007015,
1250,810,-0.053097,-11.575280,0.999996,0.000240,-0.002775,0.001660,0.000710,0.001771,-0.002886,81.118339,0.002911,
1680,950,-2.448561,-8.148770,0.999997,0.000215,-0.003352,0.007689,-0.000701,0.007733,-0.003396,-86.379119,0.007752,
1040,1340,0.547276,-4.141471,0.999996,0.000237,-0.004664,0.007610,0.002192,0.007989,-0.005044,80.170418,0.008081,
790,850,2.180211,-8.952600,0.999997,0.000201,-0.004065,0.008198,0.000960,0.008272,-0.004139,85.552080,0.008272,
1830,250,-1.282276,-13.329449,0.999997,0.000223,-0.003611,0.007613,-0.000213,0.007617,-0.003615,-88.914579,0.007620,
1870,690,-2.510122,-9.884352,0.999997,0.000212,-0.003713,0.007512,-0.000150,0.007514,-0.003715,-89.236000,0.007515,
1890,1060,-3.175498,-7.353170,0.999998,0.000179,-0.003048,0.006140,0.000158,0.006143,-0.003051,89.017797,0.006143,
1420,970,-1.576851,-8.484770,0.999987,0.000525,-0.005899,0.014412,0.002974,0.014839,-0.006325,81.838102,0.014893,
1740,1160,-2.552882,-6.581369,0.999997,0.000220,-0.003595,0.007626,0.000799,0.007682,-0.003651,85.949599,0.007685,
1490,490,-0.622686,-12.342589,0.999996,0.000213,-0.003173,0.006839,0.000762,0.006897,-0.003231,85.674043,0.006901,
1090,720,0.341350,-11.235397,0.999996,0.000262,-0.003872,0.006343,-0.002653,0.006991,-0.004520,-76.275726,0.007090,
1580,100,-0.180155,-14.699508,0.999998,0.000173,-0.001041,0.005511,-0.000998,0.005660,-0.001190,-81.525759,0.005968,
1110,1270,0.324800,-4.146695,0.999996,0.000249,-0.004234,0.005984,0.003373,0.006997,-0.005246,73.284055,0.007282,
1280,1290,-0.083522,-3.565509,0.999998,0.000192,-0.002034,0.002855,-0.001937,0.003530,-0.002709,-70.801303,0.003694,
850,590,1.224463,-11.258528,0.999997,0.000206,-0.004259,0.008005,-0.000431,0.008020,-0.004274,-87.988829,0.008026,
1140,1630,0.166926,-2.075498,0.999998,0.000152,-0.002034,0.005496,0.000443,0.005522,-0.002060,86.642749,0.005582,
890,950,2.101225,-8.204383,0.999997,0.000208,-0.003353,0.008519,0.000929,0.008591,-0.003425,85.552713,0.008650,
1880,160,-1.100371,-13.845770,0.999998,0.000172,-0.003655,0.007625,-0.000610,0.007658,-0.003688,-86.912730,0.007659,
1350,1570,-0.236035,-2.443158,0.999998,0.000175,-0.002166,0.005683,-0.000673,0.005740,-0.002223,-85.131147,0.005788,
1700,690,-1.833585,-10.230701,0.999995,0.000242,-0.004299,0.008157,-0.000311,0.008165,-0.004307,-88.571463,0.008169,
870,420,0.875784,-12.597811,0.999997,0.000228,-0.003260,0.007175,-0.000252,0.007181,-0.003266,-88.616863,0.007191,
680,190,0.898336,-13.903649,0.999998,0.000188,-0.003263,0.007533,0.000998,0.007625,-0.003354,84.763834,0.007643,
1430,1000,-1.724683,-7.979674,0.999991,0.000377,-0.005923,0.015136,0.001174,0.015201,-0.005988,86.817878,0.015315,
940,570,0.823050,-11.675440,0.999997,0.000203,-0.003987,0.007528,-0.000949,0.007606,-0.004064,-85.321727,0.007611,
1780,1830,-1.022034,-1.476728,0.999998,0.000191,-0.003401,0.007584,0.000634,0.007620,-0.003438,86.708692,0.007632,
1120,1950,0.044950,-0.396895,0.999998,0.000169,-0.000495,0.004796,-0.000210,0.004805,-0.000504,-87.736316,0.005281,
820,750,1.746057,-9.844927,0.999996,0.000267,-0.004676,0.008562,0.000445,0.008577,-0.004691,88.077804,0.008590,
670,270,1.215398,-13.270326,0.999998,0.000208,-0.003531,0.007601,0.000364,0.007613,-0.003543,88.130086,0.007619,
1520,790,-1.244198,-9.826707,0.999995,0.000245,-0.005553,0.009499,0.000249,0.009503,-0.005557,89.053607,0.009548,
970,2000,0.048389,-0.171620,0.999999,0.000138,-0.000389,0.004896,-0.000639,0.004972,-0.000466,-83.203084,0.005493,
560,1650,1.972086,-3.149221,0.999998,0.000000,-0.003869,0.007283,0.000169,0.007286,-0.003871,89.132788,0.007291,
1730,2020,-0.070042,-0.092517,0.999997,0.000000,-0.000252,0.005878,0.002165,0.006565,-0.000940,72.383628,0.007101,
1210,1790,0.025785,-1.183068,0.999998,0.000168,-0.001242,0.005183,0.000061,0.005184,-0.001243,89.455289,0.005413,
1450,410,-0.441327,-12.951201,0.999997,0.000211,-0.002438,0.006229,0.000412,0.006249,-0.002458,87.286169,0.006296,
1010,1820,0.267932,-1.119110,0.999998,0.000165,-0.001433,0.005717,-0.000281,0.005728,-0.001444,-87.749365,0.005958,
750,1150,2.479899,-6.640313,0.999996,0.000240,-0.003605,0.007711,-0.000818,0.007769,-0.003664,-85.886702,0.007774,
1240,590,-0.014040,-12.264891,0.999998,0.000152,-0.001837,0.004562,0.000204,0.004569,-0.001843,88.175368,0.004597,
860,1850,0.481741,-1.070644,0.999995,0.000250,-0.002084,0.006399,-0.000746,0.006464,-0.002149,-85.009938,0.006584,
1530,970,-2.013631,-8.072911,0.999998,0.000183,-0.003182,0.009030,-0.000799,0.009082,-0.003235,-86.270535,0.009206,
1300,1260,-0.156790,-3.767007,0.999996,0.000236,-0.002773,0.003213,-0.002669,0.004231,-0.003790,-69.135358,0.004652,
590,90,0.665989,-14.431277,0.999996,0.000232,-0.003667,0.008780,0.001923,0.009070,-0.003958,81.416107,0.009095,
1490,470,-0.606914,-12.476177,0.999997,0.000207,-0.003038,0.006727,0.000649,0.006770,-0.003081,86.213448,0.006779,
800,210,0.622627,-13.953759,0.999997,0.000214,-0.002643,0.006778,0.000816,0.006848,-0.002713,85.087205,0.006897,
790,830,2.120571,-9.114737,0.999998,0.000176,-0.004151,0.008240,0.000908,0.008306,-0.004217,85.832402,0.008306,
1700,480,-1.365736,-11.898967,0.999997,0.000193,-0.003813,0.007629,0.000203,0.007633,-0.003817,88.984971,0.007633,
1420,440,-0.387937,-12.816520,0.999996,0.000229,-0.002465,0.006102,0.000606,0.006145,-0.002508,85.973582,0.006180,
1890,1050,-3.180230,-7.417560,0.999998,0.000168,-0.003051,0.006251,0.000194,0.006255,-0.003055,88.803102,0.006256,
1740,1140,-2.593635,-6.732282,0.999996,0.000218,-0.003498,0.007415,0.000639,0.007452,-0.003535,86.661931,0.007455,
1430,970,-1.639395,-8.396610,0.999995,0.000364,-0.005393,0.013414,0.001916,0.013607,-0.005586,84.241653,0.013679,
1070,680,0.397511,-11.386027,0.999996,0.000236,-0.003796,0.006586,-0.002195,0.007032,-0.004241,-78.539041,0.007081,
620,1600,1.858389,-3.376736,0.999998,0.000171,-0.003756,0.007610,0.000115,0.007611,-0.003757,89.421497,0.007611,
750,480,1.417355,-11.866677,0.999997,0.000203,-0.003849,0.007638,-0.000193,0.007642,-0.003853,-89.037472,0.007642,
1750,840,-2.455904,-8.950416,0.999996,0.000250,-0.003803,0.007645,-0.000774,0.007697,-0.003856,-86.149711,0.007697,
1340,1750,-0.154810,-1.427770,0.999998,0.000159,-0.001615,0.005430,-0.000137,0.005432,-0.001618,-88.883049,0.005578,
1660,950,-2.382920,-8.157540,0.999996,0.000234,-0.003328,0.007786,-0.000755,0.007837,-0.003379,-86.132477,0.007861,
1650,1770,-0.788481,-1.667078,0.999998,0.000210,-0.002861,0.007085,0.000374,0.007099,-0.002875,87.847894,0.007142,
1680,690,-1.746335,-10.271674,0.999996,0.000242,-0.004436,0.008248,-0.000246,0.008253,-0.004441,-88.891017,0.008261,
1780,370,-1.431017,-12.543999,0.999997,0.000240,-0.003622,0.007606,0.000005,0.007606,-0.003622,89.976130,0.007609,
1040,1760,0.284726,-1.439673,0.999998,0.000191,-0.001892,0.005785,0.000071,0.005785,-0.001893,89.467427,0.005900,
1350,1550,-0.240448,-2.555249,0.999997,0.000181,-0.002268,0.005643,-0.000764,0.005716,-0.002341,-84.536191,0.005748,
1830,230,-1.212993,-13.483957,0.999997,0.000216,-0.003595,0.007638,-0.000324,0.007647,-0.003605,-88.349542,0.007652,
870,300,0.665917,-13.436561,0.999998,0.000184,-0.002825,0.006735,0.000152,0.006738,-0.002827,89.091468,0.006766,
680,210,0.977945,-13.749446,0.999997,0.000195,-0.003361,0.007580,0.000817,0.007641,-0.003422,85.752488,0.007655,
1580,80,-0.137747,-14.802941,0.999998,0.000160,-0.000794,0.005363,-0.001030,0.005531,-0.000961,-80.753863,0.005910,
850,120,0.273489,-14.567298,0.999998,0.000184,-0.001175,0.005907,0.001176,0.006097,-0.001365,80.814354,0.006400,
850,570,1.189944,-11.416199,0.999997,0.000192,-0.004131,0.007848,-0.000442,0.007864,-0.004147,-87.891827,0.007868,
1110,1250,0.363551,-4.270023,0.999995,0.000292,-0.004344,0.006136,0.003432,0.007160,-0.005368,73.390259,0.007451,
1000,1240,1.005247,-5.262058,0.999994,0.000289,-0.005862,0.009662,0.001056,0.009733,-0.005933,86.127623,0.009811,
1440,1130,-1.453074,-6.257041,0.999993,0.000310,-0.004850,0.011118,-0.000925,0.011171,-0.004903,-86.696900,0.011199,
1210,1770,0.030563,-1.288332,0.999998,0.000164,-0.001348,0.005234,0.000060,0.005234,-0.001348,89.478202,0.005436,
940,1950,0.148124,-0.432753,0.999998,0.000184,-0.000764,0.005360,-0.000787,0.005459,-0.000864,-82.795852,0.005869,
980,310,0.414315,-13.527860,0.999997,0.000203,-0.002124,0.006149,0.000005,0.006149,-0.002124,89.965146,0.006246,
560,1640,1.992503,-3.221527,0.999998,0.000000,-0.003830,0.007296,0.000151,0.007298,-0.003832,89.223175,0.007301,
1780,1720,-1.346029,-2.310831,0.999997,0.000195,-0.003642,0.007556,0.000015,0.007557,-0.003642,89.922174,0.007558,
1090,840,0.600241,-10.399740,0.999995,0.000265,-0.005064,0.007457,-0.003250,0.008250,-0.005858,-76.281718,0.008489,
1140,1560,0.180362,-2.459939,0.999998,0.000173,-0.002154,0.005468,0.000688,0.005529,-0.002215,84.879583,0.005566,
1730,30,-0.048783,-15.057149,0.999998,0.000000,-0.000335,0.005865,-0.002190,0.006561,-0.001031,-72.377937,0.007056,
920,1840,0.388378,-1.076043,0.999997,0.000196,-0.001653,0.006034,-0.000569,0.006076,-0.001695,-85.787291,0.006271,
1420,390,-0.355433,-13.120275,0.999997,0.000219,-0.002364,0.006046,0.000422,0.006067,-0.002385,87.132208,0.006113,
660,670,2.203486,-10.179826,0.999998,0.000171,-0.003925,0.007674,0.000271,0.007681,-0.003932,88.661299,0.007681,
1610,1750,-0.723294,-1.745174,0.999998,0.000175,-0.002804,0.006837,0.000197,0.006841,-0.002808,88.831997,0.006877,
710,690,2.057196,-10.124195,0.999998,0.000194,-0.004068,0.007885,0.000349,0.007895,-0.004078,88.329202,0.007897,
1740,1120,-2.626494,-6.880799,0.999996,0.000224,-0.003437,0.007394,0.000628,0.007430,-0.003474,86.693932,0.007435,
1700,460,-1.327659,-12.051241,0.999997,0.000200,-0.003751,0.007590,0.000183,0.007593,-0.003754,89.073591,0.007593,
1530,990,-2.066408,-7.889046,0.999998,0.000181,-0.002876,0.009029,-0.000582,0.009058,-0.002905,-87.207240,0.009250,
1830,1460,-2.121768,-4.421008,0.999998,0.000185,-0.003820,0.007688,0.000062,0.007688,-0.003820,89.691922,0.007688,
1490,450,-0.588168,-12.609534,0.999997,0.000197,-0.002954,0.006677,0.000599,0.006714,-0.002991,86.453350,0.006727,
1740,950,-2.651487,-8.128653,0.999997,0.000206,-0.003369,0.007418,-0.000602,0.007451,-0.003402,-86.814093,0.007460,
1170,1200,0.396883,-3.870956,0.999995,0.000236,-0.004176,0.002353,0.000329,0.002369,-0.004192,87.119074,0.004204,
1820,430,-1.716894,-11.988248,0.999998,0.000197,-0.003771,0.007579,0.000115,0.007580,-0.003772,89.420074,0.007580,
1830,210,-1.136809,-13.638486,0.999997,0.000209,-0.003568,0.007697,-0.000437,0.007714,-0.003585,-87.780494,0.007720,
990,1820,0.296644,-1.132647,0.999998,0.000181,-0.001501,0.005788,-0.000331,0.005803,-0.001516,-87.405833,0.006020,
1450,370,-0.408516,-13.199861,0.999997,0.000215,-0.002212,0.006162,0.000245,0.006170,-0.002219,88.326538,0.006250,
1300,1240,-0.199531,-3.823706,0.999996,0.000222,-0.003114,0.003057,-0.002503,0.003945,-0.004002,-70.474782,0.004588,
580,780,2.789208,-9.189882,0.999997,0.000216,-0.003853,0.007110,0.000066,0.007110,-0.003853,89.653749,0.007118,
1350,1340,-0.253880,-3.725228,0.999997,0.000229,-0.003320,0.005519,-0.002632,0.006244,-0.004045,-74.612226,0.006334,
1100,110,0.056786,-14.695722,0.999998,0.000174,-0.000443,0.004886,0.000292,0.004902,-0.000459,86.871672,0.005414,
1120,1630,0.207601,-2.097312,0.999998,0.000161,-0.002023,0.005560,0.000444,0.005586,-0.002049,86.664047,0.005652,
1520,170,-0.268307,-14.325690,0.999998,0.000187,-0.001341,0.005686,-0.000604,0.005738,-0.001392,-85.121084,0.005986,
630,1420,2.228977,-4.735857,0.999996,0.000236,-0.003823,0.007674,-0.000128,0.007676,-0.003824,-89.363786,0.007676,
1780,1940,-0.543162,-0.649107,0.999996,0.000240,-0.002518,0.007398,0.001949,0.007767,-0.002887,79.271301,0.007852,
1490,240,-0.331748,-13.943670,0.999998,0.000185,-0.001809,0.005909,-0.000301,0.005921,-0.001821,-87.770740,0.006065,
1620,570,-1.217827,-11.397956,0.999996,0.000226,-0.004138,0.007891,0.000408,0.007905,-0.004151,88.058759,0.007908,
1720,2020,-0.069969,-0.092308,0.999998,0.000000,0.000057,0.005808,0.002054,0.006466,-0.000601,72.230935,0.007145,
790,810,2.060225,-9.282438,0.999998,0.000184,-0.004234,0.008338,0.000829,0.008393,-0.004289,86.242578,0.008394,
600,90,0.630328,-14.464262,0.999997,0.000202,-0.003460,0.008480,0.001878,0.008768,-0.003748,81.270420,0.008799,
620,1580,1.901357,-3.530924,0.999998,0.000182,-0.003764,0.007630,0.000101,0.007631,-0.003764,89.490095,0.007631,
1740,1210,-2.430819,-6.197324,0.999996,0.000246,-0.003803,0.007698,0.000791,0.007752,-0.003858,86.081914,0.007753,
870,50,0.074021,-14.963188,0.999998,0.000150,-0.000464,0.005174,0.001049,0.005363,-0.000653,79.790806,0.005852,
1240,570,-0.016232,-12.358033,0.999998,0.000159,-0.001876,0.004724,0.000183,0.004729,-0.001881,88.410945,0.004762,
1110,720,0.266155,-11.349098,0.999997,0.000227,-0.003477,0.005663,-0.002700,0.006401,-0.004215,-74.714361,0.006507,
1140,1540,0.180614,-2.570446,0.999997,0.000180,-0.002172,0.005436,0.000766,0.005513,-0.002248,84.309116,0.005544,
1740,1100,-2.660958,-7.028184,0.999996,0.000227,-0.003371,0.007409,0.000570,0.007439,-0.003401,86.979290,0.007448,
710,670,2.002473,-10.282753,0.999997,0.000213,-0.004089,0.007913,0.000285,0.007920,-0.004096,88.640988,0.007921,
1420,370,-0.341927,-13.240592,0.999997,0.000201,-0.002288,0.006042,0.000335,0.006055,-0.002301,87.703883,0.006113,
1610,1770,-0.683688,-1.611012,0.999998,0.000185,-0.002703,0.006823,0.000309,0.006833,-0.002713,88.146220,0.006881,
670,250,1.152430,-13.422762,0.999998,0.000199,-0.003481,0.007632,0.000512,0.007656,-0.003504,87.367268,0.007665,
1000,1220,1.087597,-5.462477,0.999994,0.000318,-0.005864,0.010007,0.000893,0.010057,-0.005915,86.789898,0.010109,
1210,1750,0.028595,-1.391976,0.999998,0.000160,-0.001419,0.005270,0.000093,0.005271,-0.001421,89.200717,0.005455,
960,1240,1.239516,-5.470602,0.999995,0.000275,-0.005696,0.009753,0.000233,0.009757,-0.005700,89.136878,0.009803,
1040,1780,0.264729,-1.321645,0.999998,0.000193,-0.001787,0.005742,-0.000015,0.005742,-0.001787,-89.883894,0.005877,
1530,1430,-0.924399,-3.891365,0.999997,0.000211,-0.004365,0.007899,-0.000907,0.007966,-0.004432,-85.794528,0.007983,
1480,330,-0.431687,-13.406549,0.999996,0.000214,-0.002220,0.006243,0.000100,0.006245,-0.002221,89.320986,0.006331,
1700,440,-1.288920,-12.202704,0.999998,0.000183,-0.003701,0.007562,0.000168,0.007564,-0.003704,89.143579,0.007565,
1350,1530,-0.241836,-2.666760,0.999997,0.000193,-0.002355,0.005592,-0.000904,0.005694,-0.002456,-83.590313,0.005712,
1490,430,-0.569232,-12.744280,0.999997,0.000189,-0.002918,0.006611,0.000542,0.006642,-0.002948,86.753110,0.006656,
1810,1460,-2.045206,-4.375478,0.999998,0.000180,-0.003869,0.007713,0.000051,0.007713,-0.003870,89.750066,0.007713,
1250,790,-0.036094,-11.605192,0.999997,0.000223,-0.002082,0.001712,0.000846,0.001892,-0.002262,77.983350,0.002427,
560,1630,2.015286,-3.294887,0.999998,0.000000,-0.003733,0.007299,0.000097,0.007300,-0.003734,89.495398,0.007301,
570,780,2.829296,-9.165072,0.999974,0.000578,-0.003976,0.006981,-0.000026,0.006981,-0.003976,-89.866582,0.007004,
1580,60,-0.088878,-14.913248,0.999998,0.000165,-0.000575,0.005254,-0.001044,0.005435,-0.000756,-80.149424,0.005888,
750,1820,0.838719,-1.415784,0.999998,0.000178,-0.002795,0.007326,-0.000814,0.007391,-0.002860,-85.432572,0.007454,
1650,1900,-0.424659,-0.785715,0.999996,0.000226,-0.001811,0.006358,0.001186,0.006527,-0.001980,81.902761,0.006693,
1820,1850,-1.080086,-1.412322,0.999997,0.000226,-0.003431,0.007749,0.000617,0.007783,-0.003465,86.849390,0.007799,
1720,950,-2.584044,-8.135124,0.999997,0.000186,-0.003359,0.007498,-0.000642,0.007536,-0.003397,-86.629770,0.007548,
1720,30,-0.047789,-15.056789,0.999998,0.000000,0.000030,0.005763,-0.002186,0.006501,-0.000708,-71.336129,0.007133,
1450,350,-0.391233,-13.321099,0.999997,0.000197,-0.002120,0.005990,0.000183,0.005994,-0.002124,88.704869,0.006078,
860,50,0.079149,-14.960871,0.999998,0.000139,-0.000380,0.005206,0.001125,0.005423,-0.000598,79.032796,0.005948,
1890,1040,-3.186669,-7.480592,0.999998,0.000153,-0.003051,0.006346,0.000154,0.006348,-0.003053,89.058825,0.006350,
890,930,2.034973,-8.378956,0.999997,0.000196,-0.003623,0.008696,0.001094,0.008792,-0.003719,84.964890,0.008827,
1300,1630,-0.121203,-2.051230,0.999998,0.000198,-0.001829,0.005374,-0.000249,0.005383,-0.001838,-88.018856,0.005473,
1600,590,-1.170797,-11.292616,0.999996,0.000231,-0.004233,0.007947,0.000482,0.007966,-0.004252,87.737124,0.007972,
1680,1390,-1.682608,-4.641123,0.999996,0.000257,-0.004384,0.008197,0.000130,0.008198,-0.004386,89.408633,0.008205,
620,1560,1.945094,-3.684389,0.999997,0.000184,-0.003786,0.007619,0.000092,0.007620,-0.003787,89.537724,0.007620,
1060,110,0.075206,-14.691133,0.999998,0.000157,-0.000598,0.004973,0.000366,0.004997,-0.000622,86.256727,0.005446,
790,790,2.001079,-9.449281,0.999997,0.000192,-0.004338,0.008356,0.000747,0.008400,-0.004382,86.644638,0.008402,
1610,1790,-0.638430,-1.472699,0.999997,0.000217,-0.002552,0.006728,0.000420,0.006747,-0.002571,87.416748,0.006810,
710,650,1.952579,-10.441480,0.999997,0.000218,-0.004076,0.007904,0.000202,0.007907,-0.004080,89.034119,0.007909,
820,290,0.781488,-13.427434,0.999997,0.000214,-0.002759,0.007061,0.000394,0.007077,-0.002775,87.706339,0.007131,
1080,370,0.261994,-13.290869,0.999997,0.000209,-0.001893,0.005784,-0.000233,0.005791,-0.001900,-88.263616,0.005904,
1740,1080,-2.684623,-7.177001,0.999997,0.000212,-0.003272,0.007266,0.000322,0.007276,-0.003282,88.252515,0.007287,
1800,430,-1.640516,-12.037259,0.999998,0.000209,-0.003787,0.007595,0.000131,0.007596,-0.003788,89.339513,0.007596,
1790,120,-0.593475,-14.417190,0.999996,0.000240,-0.002512,0.007563,-0.002020,0.007953,-0.002902,-79.072456,0.008049,
1300,1220,-0.269488,-3.884252,0.999994,0.000299,-0.003381,0.002852,-0.001640,0.003257,-0.003786,-76.123975,0.004101,
1170,1210,0.317085,-3.850800,0.999996,0.000215,-0.003748,0.002495,0.000738,0.002581,-0.003834,83.348624,0.003910,
960,2000,0.052786,-0.172352,0.999998,0.000171,-0.000414,0.004921,-0.000665,0.005002,-0.000495,-83.003432,0.005513,
1140,1520,0.182987,-2.677843,0.999998,0.000171,-0.002199,0.005362,0.000808,0.005448,-0.002285,83.968406,0.005471,
1000,310,0.376027,-13.549979,0.999997,0.000188,-0.001898,0.006037,0.000018,0.006037,-0.001898,89.873559,0.006174,
1260,1290,-0.045168,-3.492586,0.999998,0.000183,-0.001800,0.002311,-0.001188,0.002630,-0.002119,-74.983336,0.002789,
1780,1700,-1.395141,-2.463310,0.999996,0.000211,-0.003641,0.007554,0.000015,0.007554,-0.003641,89.924052,0.007556,
1530,1410,-0.953982,-4.054607,0.999997,0.000214,-0.004545,0.008079,-0.000912,0.008144,-0.004610,-85.890113,0.008168,
1000,1200,1.179349,-5.664126,0.999994,0.000294,-0.005813,0.010302,0.000639,0.010328,-0.005838,87.733432,0.010357,
960,1000,2.005135,-7.823064,0.999997,0.000190,-0.002965,0.009683,0.000369,0.009693,-0.002976,88.329644,0.009931,
1210,1730,0.033636,-1.500856,0.999998,0.000157,-0.001477,0.005299,0.000082,0.005300,-0.001479,89.302621,0.005469,
1470,240,-0.298937,-13.959531,0.999997,0.000203,-0.001495,0.005811,-0.000319,0.005825,-0.001509,-87.504797,0.006046,
1700,420,-1.247813,-12.354954,0.999997,0.000201,-0.003658,0.007578,0.000145,0.007580,-0.003660,89.261918,0.007582,
1490,410,-0.549839,-12.875213,0.999997,0.000207,-0.002844,0.006576,0.000450,0.006598,-0.002865,87.269549,0.006617,
1350,1510,-0.243968,-2.778218,0.999997,0.000197,-0.002437,0.005607,-0.001043,0.005740,-0.002570,-82.733352,0.005751,
1770,760,-2.316101,-9.544960,0.999998,0.000213,-0.003915,0.007743,-0.000596,0.007773,-0.003945,-87.083168,0.007774,
610,1480,2.162144,-4.319536,0.999997,0.000190,-0.003786,0.007652,-0.000011,0.007652,-0.003786,-89.946618,0.007652,
1040,1800,0.244637,-1.210445,0.999998,0.000190,-0.001644,0.005575,-0.000077,0.005576,-0.001645,-89.389307,0.005730,
850,550,1.155480,-11.572890,0.999997,0.000205,-0.004039,0.007816,-0.000439,0.007832,-0.004056,-87.882501,0.007834,
1710,2020,-0.072454,-0.092368,0.999998,0.000000,0.000067,0.005720,0.001956,0.006331,-0.000544,72.659715,0.007017,
800,790,1.956254,-9.466419,0.999996,0.000229,-0.004408,0.008420,0.000740,0.008463,-0.004451,86.708335,0.008466,
1760,950,-2.719440,-8.119478,0.999998,0.000178,-0.003389,0.007305,-0.000541,0.007332,-0.003417,-87.109320,0.007338,
1510,1940,-0.156911,-0.485051,0.999998,0.000172,-0.000936,0.005381,0.000711,0.005459,-0.001015,83.660057,0.005807,
1570,1990,-0.095191,-0.230510,0.999998,0.000157,-0.000530,0.005207,0.000982,0.005371,-0.000694,80.555808,0.005842,
1450,330,-0.372519,-13.440509,0.999997,0.000208,-0.002032,0.006064,0.000079,0.006065,-0.002033,89.441284,0.006174,
730,1820,0.896603,-1.445402,0.999997,0.000194,-0.003040,0.007430,-0.000714,0.007478,-0.003089,-86.117626,0.007516,
560,1620,2.037882,-3.368066,0.999997,0.000000,-0.003659,0.007379,0.000094,0.007380,-0.003660,89.511746,0.007380,
1600,1370,-1.364690,-4.611468,0.999996,0.000222,-0.004787,0.008503,-0.000203,0.008506,-0.004790,-89.123129,0.008529,
1280,1630,-0.086733,-2.041859,0.999998,0.000163,-0.001749,0.005324,-0.000143,0.005327,-0.001752,-88.841273,0.005430,
1000,430,0.491184,-12.801540,0.999997,0.000206,-0.002780,0.006443,-0.000591,0.006481,-0.002818,-86.346781,0.006499,
570,130,0.988700,-14.032150,0.999997,0.000225,-0.003691,0.007980,0.000998,0.008064,-0.003776,85.146334,0.008070,
800,310,0.888043,-13.249492,0.999998,0.000219,-0.003204,0.007164,0.000187,0.007168,-0.003207,88.965014,0.007181,
1620,280,-0.696960,-13.531712,0.999997,0.000212,-0.002638,0.006906,-0.000400,0.006923,-0.002655,-87.606516,0.006985,
710,630,1.903168,-10.599552,0.999997,0.000187,-0.004059,0.007849,0.000127,0.007851,-0.004061,89.390323,0.007852,
1250,770,-0.030451,-11.638491,0.999998,0.000180,-0.001735,0.002031,0.000837,0.002208,-0.001913,78.019716,0.002398,
790,770,1.940505,-9.618451,0.999997,0.000180,-0.004409,0.008340,0.000654,0.008374,-0.004443,87.070610,0.008379,
620,1540,1.989591,-3.836091,0.999997,0.000184,-0.003787,0.007614,0.000059,0.007615,-0.003787,89.703261,0.007615,
1430,980,-1.674568,-8.260029,0.999987,0.000461,-0.005582,0.013868,0.001751,0.014025,-0.005738,84.897661,0.014102,
1800,1850,-1.015159,-1.367460,0.999997,0.000194,-0.003322,0.007693,0.000866,0.007761,-0.003389,85.533820,0.007781,
1140,1500,0.183711,-2.784821,0.999998,0.000170,-0.002216,0.005293,0.000894,0.005398,-0.002321,83.304262,0.005415,
1570,580,-1.026857,-11.457547,0.999997,0.000219,-0.004172,0.007825,0.000681,0.007864,-0.004211,86.763667,0.007870,
1300,1420,-0.127133,-3.137264,0.999998,0.000187,-0.002118,0.004632,-0.001252,0.004857,-0.002343,-79.823380,0.004858,
1480,610,-0.693795,-11.518255,0.999997,0.000185,-0.004055,0.007412,0.001288,0.007555,-0.004198,83.671247,0.007570,
1660,110,-0.296513,-14.607993,0.999998,0.000197,-0.001449,0.006098,-0.001402,0.006350,-0.001701,-79.809470,0.006574,
1210,1710,0.032667,-1.604682,0.999998,0.000150,-0.001552,0.005285,0.000128,0.005288,-0.001555,88.924338,0.005435,
1050,1160,1.131020,-5.666533,0.999996,0.000207,-0.005054,0.010075,0.002300,0.010417,-0.005396,81.544126,0.010419,
890,910,1.970418,-8.551641,0.999997,0.000207,-0.003931,0.008832,0.001075,0.008922,-0.004021,85.220887,0.008937,
920,1860,0.344437,-0.953745,0.999997,0.000211,-0.001475,0.005960,-0.000678,0.006021,-0.001536,-84.831868,0.006257,
1110,2000,0.019158,-0.161880,0.999998,0.000154,-0.000173,0.004582,-0.000236,0.004593,-0.000185,-87.165595,0.005200,
1530,1390,-0.987448,-4.216159,0.999997,0.000199,-0.004722,0.008313,-0.000885,0.008373,-0.004782,-86.135527,0.008401,
1420,810,-0.737541,-10.206582,0.999996,0.000275,-0.005838,0.008982,0.002126,0.009281,-0.006136,81.996830,0.009440,
1060,890,1.046030,-9.613965,0.999993,0.000322,-0.004911,0.009406,-0.002837,0.009948,-0.005452,-79.190056,0.009963,
1700,400,-1.206115,-12.507230,0.999997,0.000190,-0.003579,0.007531,0.000120,0.007532,-0.003581,89.381918,0.007535,
590,1480,2.237794,-4.365951,0.999996,0.000237,-0.003722,0.007680,-0.000035,0.007680,-0.003722,-89.823823,0.007681,
1490,390,-0.525685,-13.007086,0.999997,0.000207,-0.002761,0.006486,0.000375,0.006501,-0.002776,87.683886,0.006524,
570,770,2.802700,-9.238305,0.999951,0.000735,-0.004068,0.007146,-0.000008,0.007146,-0.004068,-89.960055,0.007169,
1800,410,-1.597490,-12.189633,0.999996,0.000228,-0.003751,0.007573,0.000104,0.007574,-0.003752,89.474063,0.007574,
1350,1490,-0.245235,-2.890009,0.999998,0.000184,-0.002535,0.005574,-0.001174,0.005741,-0.002701,-81.926797,0.005744,
1710,30,-0.049247,-15.055263,0.999998,0.000000,0.000150,0.005640,-0.002061,0.006328,-0.000537,-71.549703,0.007017,
850,530,1.120468,-11.730146,0.999997,0.000207,-0.003961,0.007712,-0.000429,0.007728,-0.003976,-87.895689,0.007729,
1740,1280,-2.238885,-5.650012,0.999997,0.000241,-0.004077,0.007918,0.000684,0.007956,-0.004116,86.748746,0.007958,
1460,110,-0.110199,-14.676656,0.999998,0.000168,-0.000571,0.005137,-0.000577,0.005195,-0.000629,-84.281965,0.005670,
960,960,1.893761,-8.209556,0.999996,0.000207,-0.003524,0.009696,0.000824,0.009747,-0.003576,86.448849,0.009862,
1000,1180,1.284246,-5.871799,0.999995,0.000274,-0.005636,0.010460,0.000328,0.010467,-0.005642,88.832906,0.010477,
720,710,2.068390,-9.985294,0.999997,0.000197,-0.004133,0.007904,0.000432,0.007920,-0.004149,87.947980,0.007923,
1570,1920,-0.250690,-0.616415,0.999997,0.000191,-0.001228,0.005724,0.000881,0.005834,-0.001338,82.888581,0.006112,
1770,880,-2.626413,-8.630313,0.999996,0.000228,-0.003599,0.007480,-0.000744,0.007529,-0.003648,-86.176823,0.007530,
560,1610,2.057804,-3.441781,0.999996,0.000000,-0.003591,0.007439,0.000090,0.007440,-0.003592,89.530217,0.007441,
1750,1320,-2.165581,-5.344877,0.999997,0.000217,-0.004075,0.007864,0.000530,0.007888,-0.004099,87.464834,0.007890,
1780,1660,-1.489284,-2.766942,0.999997,0.000210,-0.003719,0.007613,-0.000098,0.007614,-0.003720,-89.502708,0.007615,
1070,240,0.184570,-14.015548,0.999998,0.000171,-0.001284,0.005431,0.000160,0.005435,-0.001288,88.635604,0.005681,
1140,1480,0.183687,-2.888652,0.999998,0.000178,-0.002246,0.005208,0.000985,0.005337,-0.002374,82.595951,0.005347,
1150,1820,0.085389,-1.038947,0.999998,0.000183,-0.001100,0.005136,-0.000053,0.005137,-0.001101,-89.509258,0.005409,
1600,1350,-1.414060,-4.783415,0.999995,0.000256,-0.004888,0.008611,-0.000060,0.008612,-0.004888,-89.743836,0.008638,
680,1970,0.397660,-0.444182,0.999996,0.000238,-0.001680,0.007047,-0.002501,0.007713,-0.002346,-75.086885,0.007908,
840,170,0.427045,-14.254523,0.999997,0.000231,-0.001654,0.006294,0.001036,0.006427,-0.001787,82.691116,0.006635,
620,1520,2.034195,-3.990469,0.999998,0.000177,-0.003777,0.007626,0.000051,0.007626,-0.003777,89.741383,0.007627,
790,750,1.880654,-9.785329,0.999997,0.000191,-0.004452,0.008372,0.000543,0.008395,-0.004475,87.581293,0.008401,
1010,1600,0.483051,-2.459549,0.999997,0.000211,-0.002870,0.006460,0.000728,0.006517,-0.002926,85.566750,0.006528,
850,660,1.367049,-10.684462,0.999997,0.000180,-0.004617,0.008359,-0.000215,0.008363,-0.004620,-89.050932,0.008378,
1040,1820,0.225169,-1.097626,0.999997,0.000206,-0.001531,0.005585,-0.000151,0.005588,-0.001535,-88.783085,0.005774,
1870,680,-2.484497,-9.959663,0.999996,0.000234,-0.003736,0.007522,-0.000124,0.007523,-0.003738,-89.367484,0.007523,
710,610,1.854866,-10.757077,0.999997,0.000195,-0.004037,0.007824,0.000062,0.007824,-0.004037,89.698139,0.007825,
890,890,1.899362,-8.735938,0.999997,0.000223,-0.004223,0.009008,0.001091,0.009097,-0.004313,85.316047,0.009101,
1100,790,0.377792,-10.856458,0.999995,0.000278,-0.004584,0.006580,-0.003310,0.007487,-0.005491,-74.667322,0.007754,
1620,260,-0.653059,-13.665997,0.999997,0.000204,-0.002484,0.006723,-0.000512,0.006752,-0.002513,-86.825313,0.006825,
1010,920,1.487392,-8.825858,0.999993,0.000279,-0.004899,0.010833,-0.000258,0.010838,-0.004904,-89.061234,0.010854,
1420,420,-0.376219,-12.938086,0.999997,0.000199,-0.002441,0.006044,0.000541,0.006078,-0.002475,86.366233,0.006113,
1570,1970,-0.137051,-0.337108,0.999998,0.000155,-0.000761,0.005331,0.000972,0.005483,-0.000913,81.156000,0.005875,
1700,380,-1.165991,-12.659132,0.999998,0.000154,-0.003460,0.007426,0.000035,0.007426,-0.003460,89.817652,0.007431,
1650,1960,-0.234240,-0.416541,0.999998,0.000219,-0.001050,0.005865,0.001394,0.006135,-0.001321,79.019328,0.006459,
1610,260,-0.627350,-13.680224,0.999997,0.000191,-0.002520,0.006646,-0.000441,0.006668,-0.002541,-87.252385,0.006730,
1840,1850,-1.152275,-1.476262,0.999998,0.000206,-0.003639,0.007681,0.000340,0.007691,-0.003650,88.283221,0.007694,
1310,770,-0.154091,-11.375728,0.999997,0.000222,-0.002781,0.003887,0.002810,0.004913,-0.003808,69.934462,0.005155,
1210,1690,0.035983,-1.713016,0.999998,0.000167,-0.001638,0.005317,0.000134,0.005320,-0.001641,88.894436,0.005449,
1250,750,-0.028527,-11.681940,0.999998,0.000167,-0.001582,0.002379,0.000752,0.002517,-0.001720,79.609179,0.002573,
1530,1370,-1.022830,-4.385708,0.999997,0.000204,-0.004888,0.008461,-0.000828,0.008512,-0.004939,-86.463740,0.008548,
1700,2020,-0.075879,-0.091498,0.999999,0.000000,-0.000056,0.005608,0.001780,0.006121,-0.000569,73.926007,0.006763,
1350,1470,-0.248836,-3.005118,0.999997,0.000216,-0.002631,0.005551,-0.001341,0.005765,-0.002845,-80.926552,0.005765,
1030,1010,1.758545,-7.820280,0.999993,0.000348,-0.005847,0.014954,-0.000704,0.014978,-0.005871,-88.065009,0.015094,
920,1880,0.307634,-0.837709,0.999997,0.000195,-0.001299,0.005802,-0.000713,0.005873,-0.001370,-84.323203,0.006146,
1640,1210,-2.028208,-6.087370,0.999998,0.000181,-0.004259,0.008436,0.000946,0.008506,-0.004329,85.762171,0.008506,
1480,590,-0.676541,-11.661923,0.999996,0.000241,-0.003872,0.007266,0.001222,0.007398,-0.004004,83.813491,0.007407,
1660,90,-0.228803,-14.727471,0.999998,0.000177,-0.001161,0.005866,-0.001426,0.006145,-0.001440,-78.954671,0.006428,
1840,430,-1.792293,-11.939815,0.999998,0.000184,-0.003721,0.007541,0.000097,0.007541,-0.003722,89.505173,0.007542,
1490,370,-0.503785,-13.138751,0.999998,0.000196,-0.002664,0.006397,0.000327,0.006409,-0.002676,87.935790,0.006438,
590,1470,2.262117,-4.442477,0.999996,0.000225,-0.003684,0.007699,0.000004,0.007699,-0.003684,89.978338,0.007702,
1320,1750,-0.122740,-1.413656,0.999998,0.000133,-0.001531,0.005376,-0.000121,0.005378,-0.001533,-88.998165,0.005541,
1040,890,1.150790,-9.402286,0.999996,0.000248,-0.005227,0.010462,-0.001784,0.010662,-0.005427,-83.595187,0.010663,
560,1600,2.076770,-3.517998,0.999996,0.000000,-0.003565,0.007517,0.000018,0.007517,-0.003565,89.908511,0.007520,
1870,610,-2.310629,-10.492488,0.999997,0.000220,-0.003800,0.007638,-0.000038,0.007638,-0.003800,-89.807318,0.007638,
850,510,1.086715,-11.884019,0.999997,0.000204,-0.003822,0.007552,-0.000435,0.007568,-0.003839,-87.814515,0.007569,
700,710,2.149495,-9.946700,0.999996,0.000224,-0.004034,0.007787,0.000426,0.007803,-0.004050,87.939288,0.007804,
1140,1460,0.181228,-2.991921,0.999997,0.000198,-0.002290,0.005153,0.001094,0.005310,-0.002447,81.809878,0.005316,
1850,1340,-2.500837,-5.379971,0.999996,0.000231,-0.003760,0.007503,0.000255,0.007508,-0.003765,88.701133,0.007508,
1130,1820,0.109615,-1.048382,0.999998,0.000161,-0.001232,0.005195,-0.000018,0.005195,-0.001232,-89.841136,0.005429,
960,940,1.811618,-8.402583,0.999996,0.000227,-0.003945,0.009848,0.000887,0.009905,-0.004002,86.337413,0.009966,
1760,720,-2.164647,-9.875210,0.999997,0.000215,-0.004045,0.007805,-0.000475,0.007824,-0.004064,-87.709600,0.007826,
1000,1380,0.690081,-4.030742,0.999996,0.000257,-0.004613,0.007815,0.001618,0.008022,-0.004820,82.704065,0.008076,
1400,110,-0.072982,-14.691145,0.999998,0.000177,-0.000562,0.004956,-0.000365,0.004980,-0.000586,-86.234369,0.005443,
620,1500,2.079708,-4.142854,0.999997,0.000205,-0.003778,0.007633,0.000033,0.007633,-0.003778,89.835408,0.007634,
1050,330,0.295902,-13.489189,0.999998,0.000202,-0.002063,0.005840,-0.000203,0.005845,-0.002068,-88.529435,0.005928,
1600,310,-0.705075,-13.355946,0.999997,0.000201,-0.002828,0.006830,-0.000142,0.006832,-0.002830,-89.159402,0.006865,
830,980,2.348914,-7.930634,0.999996,0.000250,-0.003074,0.007832,0.000539,0.007858,-0.003101,87.177614,0.007916,
1720,170,-0.631557,-14.161937,0.999997,0.000198,-0.002253,0.007064,-0.001428,0.007278,-0.002467,-81.478246,0.007403,
1780,1640,-1.533485,-2.919277,0.999996,0.000239,-0.003730,0.007596,-0.000140,0.007598,-0.003732,-89.292885,0.007598,
1800,1330,-2.337022,-5.356467,0.999996,0.000210,-0.003883,0.007705,0.000426,0.007721,-0.003898,87.899023,0.007721,
1370,1940,-0.064735,-0.448160,0.999998,0.000168,-0.000436,0.004898,0.000310,0.004916,-0.000454,86.681346,0.005433,
970,240,0.338270,-13.940022,0.999997,0.000209,-0.001838,0.005942,0.000270,0.005951,-0.001847,88.013367,0.006092,
1350,1450,-0.251756,-3.115712,0.999998,0.000192,-0.002693,0.005538,-0.001507,0.005805,-0.002960,-79.946000,0.005805,
1750,1520,-1.674521,-3.768774,0.999996,0.000225,-0.003950,0.007739,-0.000104,0.007740,-0.003951,-89.490007,0.007741,
1620,240,-0.602603,-13.801437,0.999997,0.000218,-0.002328,0.006736,-0.000649,0.006782,-0.002375,-85.926257,0.006883,
890,870,1.822283,-8.912134,0.999997,0.000221,-0.004520,0.009059,0.001006,0.009133,-0.004594,85.787747,0.009133,
1100,370,0.226561,-13.309712,0.999997,0.000209,-0.001792,0.005693,-0.000236,0.005700,-0.001800,-88.197854,0.005828,
1700,360,-1.122311,-12.803370,0.999998,0.000137,-0.003343,0.007371,-0.000093,0.007372,-0.003344,-89.502724,0.007382,
1640,2010,-0.076397,-0.134253,0.999998,0.000193,-0.000238,0.005306,0.001401,0.005640,-0.000572,76.593269,0.006209,
1210,1670,0.035658,-1.817605,0.999998,0.000169,-0.001700,0.005311,0.000147,0.005314,-0.001703,88.800403,0.005427,
1530,1350,-1.066741,-4.558662,0.999997,0.000192,-0.005049,0.008681,-0.000735,0.008720,-0.005089,-86.943216,0.008760,
1590,260,-0.575449,-13.709652,0.999997,0.000187,-0.002533,0.006522,-0.000364,0.006537,-0.002547,-87.699919,0.006590,
1310,790,-0.175929,-11.302343,0.999996,0.000233,-0.002981,0.003826,0.002950,0.004926,-0.004082,69.541763,0.005269,
710,590,1.809778,-10.914720,0.999997,0.000195,-0.004034,0.007826,0.000020,0.007826,-0.004034,89.903613,0.007827,
1490,350,-0.479265,-13.266535,0.999997,0.000213,-0.002539,0.006268,0.000246,0.006275,-0.002546,88.400807,0.006312,
1700,30,-0.054836,-15.051938,0.999998,0.000000,0.000079,0.005527,-0.001883,0.006114,-0.000509,-72.667576,0.006786,
1460,610,-0.616057,-11.587346,0.999997,0.000207,-0.003901,0.007203,0.001414,0.007380,-0.004078,82.855445,0.007394,
1530,1860,-0.325572,-0.945092,0.999997,0.000196,-0.001529,0.005939,0.000593,0.005986,-0.001576,85.485366,0.006205,
1570,1950,-0.182539,-0.446050,0.999998,0.000180,-0.000972,0.005561,0.000962,0.005700,-0.001110,81.792621,0.006043,
1250,730,-0.027149,-11.729734,0.999998,0.000153,-0.001523,0.002759,0.000679,0.002864,-0.001628,81.200587,0.002873,
690,860,2.589382,-8.777560,0.999996,0.000263,-0.003662,0.007468,0.000718,0.007514,-0.003708,86.324871,0.007515,
810,1040,2.436326,-7.463892,0.999996,0.000207,-0.002989,0.007694,-0.000196,0.007697,-0.002992,-88.949718,0.007760,
1420,870,-1.014953,-9.636765,0.999996,0.000212,-0.005359,0.010098,0.001926,0.010335,-0.005596,83.003745,0.010347,
1630,1460,-1.308695,-3.949149,0.999995,0.000243,-0.004293,0.007986,-0.000323,0.007994,-0.004302,-88.495828,0.008002,
1140,1440,0.181389,-3.090178,0.999997,0.000188,-0.002355,0.005077,0.001254,0.005283,-0.002561,80.678082,0.005284,
1350,1430,-0.250316,-3.231719,0.999998,0.000189,-0.002744,0.005536,-0.001669,0.005860,-0.003068,-79.018322,0.005862,
1850,1380,-2.396489,-5.076937,0.999997,0.000203,-0.003803,0.007530,0.000225,0.007534,-0.003807,88.862082,0.007535,
560,1590,2.098096,-3.592739,0.999996,0.000000,-0.003538,0.007599,-0.000039,0.007599,-0.003538,-89.797536,0.007605,
620,1480,2.124161,-4.296075,0.999997,0.000194,-0.003809,0.007664,-0.000003,0.007664,-0.003809,-89.984230,0.007664,
1720,1790,-0.952029,-1.648665,0.999998,0.000179,-0.003035,0.007403,0.000596,0.007437,-0.003069,86.743202,0.007474,
1020,820,0.907318,-9.946250,0.999996,0.000226,-0.005865,0.009513,-0.001518,0.009661,-0.006013,-84.415727,0.009757,
960,920,1.719850,-8.605849,0.999996,0.000240,-0.004350,0.009959,0.000852,0.010010,-0.004401,86.603663,0.010034,
850,980,2.287998,-7.934969,0.999997,0.000215,-0.003031,0.007961,0.000588,0.007992,-0.003062,86.945333,0.008065,
1620,220,-0.555276,-13.935250,0.999996,0.000226,-0.002133,0.006529,-0.000737,0.006591,-0.002196,-85.171800,0.006712,
930,1410,0.970228,-4.062367,0.999997,0.000203,-0.004561,0.008087,0.000902,0.008151,-0.004625,85.942295,0.008176,
1620,1210,-1.942514,-6.060753,0.999997,0.000195,-0.004399,0.008612,0.000922,0.008677,-0.004464,85.967929,0.008678,
850,490,1.055566,-12.034062,0.999998,0.000178,-0.003704,0.007481,-0.000422,0.007496,-0.003719,-87.841615,0.007497,
680,230,1.049501,-13.599594,0.999998,0.000184,-0.003424,0.007554,0.000620,0.007589,-0.003459,86.775407,0.007599,
1480,1590,-0.572426,-2.587771,0.999997,0.000228,-0.002985,0.006660,-0.000681,0.006708,-0.003033,-85.983605,0.006718,
1640,1330,-1.657741,-5.053930,0.999995,0.000271,-0.004684,0.008490,0.000278,0.008496,-0.004690,88.792699,0.008512,
1690,2020,-0.069846,-0.092612,0.999998,0.000000,-0.000305,0.005497,0.001598,0.005908,-0.000716,75.573634,0.006449,
1210,1650,0.038381,-1.923971,0.999998,0.000163,-0.001729,0.005289,0.000174,0.005294,-0.001733,88.581593,0.005398,
1350,1940,-0.055017,-0.446953,0.999998,0.000151,-0.000522,0.004845,0.000245,0.004857,-0.000533,87.390660,0.005327,
1430,1080,-1.652995,-6.791606,0.999989,0.000392,-0.005406,0.013563,-0.001856,0.013742,-0.005586,-84.463576,0.013822,
740,430,1.353656,-12.223214,0.999998,0.000182,-0.003714,0.007570,-0.000145,0.007572,-0.003716,-89.264562,0.007573,
1200,370,0.051871,-13.378259,0.999998,0.000189,-0.001608,0.005345,-0.000123,0.005347,-0.001610,-88.987343,0.005486,
1700,340,-1.075863,-12.952800,0.999997,0.000171,-0.003288,0.007403,-0.000127,0.007405,-0.003289,-89.318929,0.007420,
710,570,1.763611,-11.069697,0.999997,0.000211,-0.003993,0.007776,-0.000037,0.007777,-0.003993,-89.817677,0.007778,
890,850,1.743945,-9.098215,0.999997,0.000238,-0.004737,0.009172,0.000885,0.009228,-0.004793,86.374630,0.009231,
1750,630,-1.890286,-10.607263,0.999997,0.000199,-0.004048,0.007888,-0.000114,0.007889,-0.004049,-89.450908,0.007890,
1860,430,-1.866065,-11.889498,0.999998,0.000176,-0.003732,0.007505,0.000094,0.007506,-0.003733,89.518868,0.007506,
1780,1620,-1.576878,-3.070274,0.999996,0.000230,-0.003760,0.007588,-0.000140,0.007590,-0.003762,-89.290918,0.007590,
780,790,2.043855,-9.435893,0.999998,0.000171,-0.004295,0.008294,0.000741,0.008338,-0.004338,86.643611,0.008340,
1430,240,-0.241135,-13.987659,0.999997,0.000212,-0.001553,0.005633,-0.000152,0.005636,-0.001556,-88.788910,0.005822,
1530,1330,-1.110657,-4.736345,0.999997,0.000198,-0.005175,0.008845,-0.000649,0.008875,-0.005205,-87.354993,0.008919,
750,910,2.490556,-8.439524,0.999996,0.000234,-0.003562,0.007684,0.000760,0.007736,-0.003613,86.151477,0.007741,
1050,310,0.276951,-13.607184,0.999997,0.000205,-0.001958,0.005777,-0.000129,0.005779,-0.001960,-89.041227,0.005878,
1630,1440,-1.348001,-4.109276,0.999996,0.000219,-0.004370,0.008026,-0.000299,0.008034,-0.004377,-88.620544,0.008044,
1030,2010,0.027879,-0.121328,0.999998,0.000160,-0.000203,0.004647,-0.000420,0.004683,-0.000239,-85.085805,0.005275,
750,100,0.330855,-14.644378,0.999998,0.000169,-0.001167,0.006279,0.001819,0.006700,-0.001588,76.982203,0.007002,
1310,810,-0.215146,-11.226862,0.999995,0.000246,-0.003285,0.003609,0.002814,0.004611,-0.004287,70.386311,0.005148,
620,1460,2.172842,-4.450309,0.999997,0.000202,-0.003814,0.007659,-0.000048,0.007659,-0.003814,-89.761874,0.007659,
1880,1810,-1.448211,-1.909319,0.999997,0.000213,-0.003667,0.007300,0.000127,0.007301,-0.003668,89.335374,0.007302,
1490,330,-0.453578,-13.390802,0.999996,0.000230,-0.002402,0.006338,0.000132,0.006340,-0.002404,89.133810,0.006401,
1850,1360,-2.448098,-5.227509,0.999996,0.000230,-0.003785,0.007560,0.000237,0.007565,-0.003790,88.802259,0.007565,
1140,1420,0.178643,-3.190770,0.999997,0.000202,-0.002419,0.005036,0.001481,0.005319,-0.002703,79.164164,0.005319,
1570,1930,-0.227504,-0.558853,0.999998,0.000187,-0.001139,0.005687,0.000915,0.005807,-0.001260,82.498521,0.006109,
1780,1270,-2.422733,-5.783861,0.999997,0.000212,-0.003827,0.007614,0.000632,0.007648,-0.003862,86.848412,0.007648,
670,860,2.662742,-8.756476,0.999996,0.000230,-0.003616,0.007363,0.000683,0.007405,-0.003658,86.453263,0.007405,
1510,860,-1.470168,-9.176266,0.999993,0.000350,-0.005297,0.009921,-0.000429,0.009933,-0.005309,-88.386770,0.009941,
560,1580,2.124416,-3.669244,0.999995,0.000000,-0.003515,0.007744,-0.000019,0.007744,-0.003515,-89.905057,0.007755,
1330,720,-0.193298,-11.478033,0.999997,0.000207,-0.002935,0.004903,0.002527,0.005647,-0.003679,73.591549,0.005733,
1240,550,-0.015994,-12.454112,0.999998,0.000155,-0.001895,0.004883,0.000151,0.004887,-0.001898,88.726020,0.004927,
1250,1330,-0.025829,-3.376697,0.999998,0.000164,-0.001497,0.002827,-0.000666,0.002927,-0.001597,-81.443148,0.002931,
1620,200,-0.502692,-14.067116,0.999997,0.000208,-0.001965,0.006489,-0.000883,0.006580,-0.002057,-84.102053,0.006732,
1690,30,-0.052177,-15.054963,0.999997,0.000000,-0.000137,0.005403,-0.001705,0.005886,-0.000619,-74.198036,0.006468,
840,50,0.086704,-14.959776,0.999997,0.000206,-0.000249,0.005262,0.001293,0.005551,-0.000537,77.430726,0.006123,
1000,410,0.473289,-12.930121,0.999997,0.000212,-0.002638,0.006321,-0.000459,0.006344,-0.002662,-87.074359,0.006372,
940,430,0.663346,-12.678567,0.999998,0.000209,-0.002989,0.006820,-0.000458,0.006842,-0.003010,-87.331584,0.006858,
1110,1230,0.433791,-4.388808,0.999995,0.000287,-0.004509,0.006079,0.003366,0.007059,-0.005488,73.774812,0.007412,
1700,320,-1.031750,-13.101304,0.999997,0.000205,-0.003265,0.007357,-0.000162,0.007360,-0.003267,-89.125358,0.007375,
710,550,1.719539,-11.225746,0.999997,0.000203,-0.003961,0.007767,-0.000086,0.007767,-0.003961,-89.582204,0.007768,
830,1040,2.377992,-7.461427,0.999996,0.000236,-0.002937,0.007792,-0.000210,0.007796,-0.002941,-88.880131,0.007874,
1010,1100,1.676810,-6.685923,0.999992,0.000339,-0.004384,0.011642,0.000395,0.011652,-0.004394,88.590181,0.011768,
1530,1310,-1.161430,-4.916536,0.999997,0.000206,-0.005308,0.009041,-0.000517,0.009060,-0.005326,-87.940273,0.009106,
1040,1110,1.491670,-6.336857,0.999989,0.000432,-0.005069,0.012055,0.002547,0.012426,-0.005440,81.715918,0.012458,
890,830,1.669399,-9.281580,0.999996,0.000255,-0.004909,0.009193,0.000697,0.009227,-0.004943,87.176784,0.009235,
1010,730,0.719047,-10.691543,0.999995,0.000256,-0.005177,0.008365,-0.001795,0.008599,-0.005411,-82.577232,0.008694,
1110,1360,0.259643,-3.626118,0.999997,0.000219,-0.003213,0.005594,0.002396,0.006204,-0.003823,75.724523,0.006259,
1190,1940,0.020441,-0.439002,0.999998,0.000177,-0.000404,0.004771,-0.000085,0.004772,-0.000405,-89.056713,0.005292,
1240,1210,-0.056626,-3.597708,0.999989,0.000401,-0.006526,0.002306,0.000051,0.002306,-0.006526,89.669154,0.006619,
620,1440,2.218329,-4.604465,0.999997,0.000219,-0.003815,0.007679,-0.000066,0.007679,-0.003815,-89.671931,0.007679,
960,900,1.626289,-8.803044,0.999996,0.000250,-0.004751,0.009991,0.000755,0.010030,-0.004789,87.077552,0.010033,
1750,280,-1.092178,-13.296458,0.999997,0.000189,-0.003518,0.007543,-0.000278,0.007550,-0.003525,-88.560627,0.007556,
930,1390,1.001493,-4.226381,0.999997,0.000208,-0.004743,0.008325,0.000868,0.008382,-0.004800,86.216554,0.008412,
1540,2010,-0.049582,-0.128263,0.999998,0.000160,-0.000149,0.004920,0.000845,0.005057,-0.000286,80.783747,0.005681,
1490,310,-0.431026,-13.519447,0.999996,0.000241,-0.002259,0.006261,0.000031,0.006261,-0.002259,89.791346,0.006341,
1350,1410,-0.250286,-3.338022,0.999997,0.000185,-0.002812,0.005503,-0.001821,0.005884,-0.003193,-78.170439,0.005891,
1580,610,-1.120012,-11.189797,0.999997,0.000202,-0.004337,0.007948,0.000606,0.007978,-0.004367,87.183760,0.007990,
560,1570,2.145638,-3.747129,0.999992,0.000000,-0.003524,0.007808,0.000040,0.007808,-0.003524,89.799926,0.007821,
1210,1630,0.036915,-2.030579,0.999998,0.000176,-0.001792,0.005271,0.000205,0.005277,-0.001798,88.335535,0.005365,
1320,680,-0.165899,-11.718079,0.999997,0.000200,-0.002493,0.004735,0.001955,0.005230,-0.002989,75.791479,0.005247,
1620,180,-0.448261,-14.193881,0.999997,0.000207,-0.001752,0.006289,-0.000971,0.006404,-0.001868,-83.213652,0.006587,
740,410,1.311663,-12.374783,0.999998,0.000208,-0.003700,0.007621,-0.000103,0.007622,-0.003701,-89.477652,0.007623,
1870,430,-1.903189,-11.864881,0.999998,0.000180,-0.003734,0.007488,0.000073,0.007488,-0.003735,89.626796,0.007488,
1410,780,-0.591283,-10.545322,0.999995,0.000267,-0.005410,0.008241,0.002553,0.008703,-0.005872,79.744578,0.008878,
1870,230,-1.360077,-13.351859,0.999997,0.000193,-0.003660,0.007405,-0.000185,0.007409,-0.003663,-89.042820,0.007409,
1780,1600,-1.619524,-3.224800,0.999996,0.000228,-0.003821,0.007606,-0.000132,0.007607,-0.003823,-89.336288,0.007607,
1750,670,-1.991643,-10.288616,0.999998,0.000178,-0.004091,0.007901,-0.000286,0.007908,-0.004098,-88.632953,0.007910,
1580,400,-0.803144,-12.766102,0.999997,0.000218,-0.003182,0.007047,0.000250,0.007053,-0.003188,88.601711,0.007064,
1830,1380,-2.319624,-5.035416,0.999997,0.000199,-0.003833,0.007562,0.000250,0.007568,-0.003838,88.745890,0.007568,
670,230,1.084954,-13.576732,0.999998,0.000195,-0.003398,0.007597,0.000654,0.007635,-0.003437,86.608800,0.007648,
1250,710,-0.028088,-11.786176,0.999998,0.000153,-0.001521,0.003111,0.000597,0.003186,-0.001597,82.776028,0.003186,
1050,290,0.260336,-13.720397,0.999997,0.000210,-0.001814,0.005711,-0.000049,0.005711,-0.001815,-89.624884,0.005837,
1500,1630,-0.592842,-2.363484,0.999997,0.000215,-0.002862,0.006633,-0.000487,0.006658,-0.002887,-87.068647,0.006678,
1010,770,0.804438,-10.339671,0.999995,0.000253,-0.005624,0.008973,-0.001640,0.009155,-0.005806,-83.667508,0.009264,
1450,310,-0.349020,-13.563531,0.999997,0.000212,-0.001911,0.005978,0.000013,0.005978,-0.001912,89.908916,0.006106,
1440,1110,-1.566116,-6.474941,0.999994,0.000273,-0.004690,0.011716,-0.001082,0.011787,-0.004761,-86.241327,0.011859,
1380,1170,-0.910648,-5.140279,0.999993,0.000338,-0.003791,0.007280,-0.003650,0.008375,-0.004886,-73.300446,0.008414,
1680,2020,-0.068985,-0.090435,0.999998,0.000000,-0.000574,0.005414,0.001472,0.005756,-0.000916,76.912708,0.006186,
730,860,2.441057,-8.814346,0.999997,0.000224,-0.003768,0.007676,0.000809,0.007733,-0.003825,85.975250,0.007733,
1700,300,-0.983914,-13.247599,0.999997,0.000210,-0.003193,0.007318,-0.000300,0.007326,-0.003201,-88.367057,0.007346,
1490,290,-0.402726,-13.642858,0.999997,0.000212,-0.002131,0.006135,-0.000085,0.006136,-0.002132,-89.411039,0.006231,
560,1560,2.166530,-3.830238,0.999988,0.000000,-0.003571,0.007683,0.000082,0.007684,-0.003571,89.584271,0.007690,
1880,470,-2.029893,-11.539788,0.999996,0.000237,-0.003686,0.007588,0.000051,0.007588,-0.003687,89.742093,0.007589,
1280,1750,-0.068951,-1.400303,0.999999,0.000127,-0.001351,0.005291,-0.000023,0.005291,-0.001351,-89.804422,0.005498,
1350,1390,-0.248886,-3.450169,0.999997,0.000210,-0.002907,0.005531,-0.002011,0.005985,-0.003362,-77.258346,0.006000,
1650,1750,-0.834500,-1.810362,0.999998,0.000183,-0.002992,0.007080,0.000256,0.007086,-0.002998,88.542661,0.007114,
830,50,0.089928,-14.958491,0.999997,0.000191,-0.000254,0.005302,0.001362,0.005618,-0.000570,76.938991,0.006184,
1560,610,-1.033339,-11.250585,0.999998,0.000218,-0.004366,0.007926,0.000754,0.007972,-0.004413,86.505357,0.007987,
1880,1080,-3.132419,-7.226921,0.999998,0.000190,-0.003079,0.006182,0.000020,0.006182,-0.003080,89.876478,0.006182,
960,880,1.527025,-9.004156,0.999996,0.000254,-0.005123,0.009983,0.000578,0.010005,-0.005145,87.812452,0.010006,
1890,1480,-2.303586,-4.405276,0.999997,0.000209,-0.003812,0.007663,-0.000010,0.007663,-0.003812,-89.950672,0.007663,
1320,660,-0.168430,-11.815165,0.999998,0.000191,-0.002431,0.004827,0.001711,0.005210,-0.002814,77.378276,0.005216,
1510,880,-1.562191,-8.978491,0.999995,0.000286,-0.005048,0.009910,-0.000657,0.009938,-0.005077,-87.488927,0.009939,
1620,160,-0.393695,-14.319763,0.999997,0.000209,-0.001560,0.006284,-0.001107,0.006437,-0.001713,-82.121727,0.006668,
980,110,0.124078,-14.672042,0.999998,0.000213,-0.000723,0.005220,0.000620,0.005284,-0.000787,84.105141,0.005702,
790,730,1.825243,-9.952996,0.999997,0.000186,-0.004478,0.008335,0.000439,0.008350,-0.004493,88.039411,0.008358,
1140,1400,0.173329,-3.291391,0.999997,0.000225,-0.002502,0.004945,0.001698,0.005314,-0.002871,77.742508,0.005319,
1220,550,0.022059,-12.451521,0.999998,0.000163,-0.001888,0.004879,-0.000214,0.004886,-0.001894,-88.192078,0.004927,
620,1420,2.267841,-4.758172,0.999997,0.000227,-0.003831,0.007652,-0.000120,0.007653,-0.003832,-89.400480,0.007653,
1500,1590,-0.630799,-2.631023,0.999997,0.000215,-0.003054,0.006826,-0.000608,0.006864,-0.003091,-86.489670,0.006875,
1830,360,-1.594386,-12.496472,0.999996,0.000253,-0.003727,0.007580,0.000044,0.007580,-0.003727,89.775749,0.007580,
1420,400,-0.362727,-13.060454,0.999997,0.000203,-0.002387,0.006040,0.000457,0.006065,-0.002412,86.903012,0.006107,
580,1830,1.388192,-1.771775,0.999996,0.000241,-0.004532,0.007586,-0.000194,0.007589,-0.004535,-89.082423,0.007637,
1780,1580,-1.662629,-3.376934,0.999997,0.000190,-0.003866,0.007659,-0.000126,0.007660,-0.003867,-89.373128,0.007661,
660,1970,0.423288,-0.453539,0.999997,0.000212,-0.001634,0.007492,-0.002789,0.008277,-0.002419,-74.280506,0.008512,
1760,160,-0.701974,-14.170679,0.999998,0.000206,-0.003150,0.007340,-0.001233,0.007483,-0.003293,-83.386720,0.007501,
1890,430,-1.977992,-11.818495,0.999998,0.000189,-0.003684,0.007472,0.000018,0.007472,-0.003684,89.906464,0.007473,
1250,670,-0.028055,-11.922095,0.999998,0.000140,-0.001633,0.003700,0.000479,0.003742,-0.001676,84.904949,0.003749,
1090,1300,0.367941,-4.113453,0.999997,0.000236,-0.004310,0.006647,0.002959,0.007395,-0.005058,75.811731,0.007560,
1300,1690,-0.110456,-1.728227,0.999998,0.000153,-0.001621,0.005375,-0.000095,0.005376,-0.001623,-89.220252,0.005515,
1020,260,0.283204,-13.863432,0.999998,0.000168,-0.001640,0.005688,0.000138,0.005690,-0.001642,88.920275,0.005857,
1450,290,-0.330495,-13.680856,0.999997,0.000196,-0.001802,0.005930,-0.000077,0.005931,-0.001803,-89.426681,0.006081,
750,870,2.391145,-8.752724,0.999997,0.000225,-0.003764,0.007747,0.000849,0.007810,-0.003826,85.802567,0.007810,
1210,1610,0.039116,-2.135150,0.999998,0.000179,-0.001827,0.005263,0.000195,0.005268,-0.001833,88.424746,0.005349,
1680,30,-0.050288,-15.056104,0.999997,0.000000,-0.000426,0.005297,-0.001529,0.005680,-0.000809,-75.941095,0.006146,
690,920,2.714847,-8.333604,0.999998,0.000211,-0.003438,0.007238,0.000540,0.007265,-0.003465,87.110688,0.007268,
1110,1210,0.521516,-4.512814,0.999993,0.000324,-0.004019,0.005973,0.003336,0.006985,-0.005031,73.132117,0.007207,
670,210,1.011757,-13.727012,0.999998,0.000191,-0.003337,0.007641,0.000847,0.007706,-0.003402,85.614450,0.007724,
1550,1400,-1.063698,-4.203252,0.999997,0.000192,-0.004665,0.008267,-0.000707,0.008306,-0.004704,-86.879886,0.008330,
1890,470,-2.066537,-11.516417,0.999997,0.000214,-0.003676,0.007578,0.000040,0.007578,-0.003676,89.798308,0.007579,
850,470,1.025330,-12.183457,0.999997,0.000194,-0.003633,0.007440,-0.000378,0.007453,-0.003646,-88.047432,0.007453,
1650,1730,-0.878609,-1.952962,0.999998,0.000170,-0.003133,0.007149,0.000113,0.007150,-0.003134,89.370667,0.007168,
1370,1170,-0.875667,-4.983708,0.999995,0.000290,-0.003045,0.006267,-0.003742,0.007584,-0.004362,-70.604266,0.007613,
1350,1590,-0.233217,-2.330758,0.999998,0.000172,-0.002088,0.005633,-0.000569,0.005675,-0.002130,-85.810916,0.005733,
710,860,2.516504,-8.796350,0.999995,0.000258,-0.003711,0.007570,0.000770,0.007622,-0.003763,86.114445,0.007622,
1700,280,-0.931379,-13.395605,0.999997,0.000183,-0.003100,0.007313,-0.000425,0.007330,-0.003117,-87.668988,0.007357,
1170,1940,0.026583,-0.439211,0.999998,0.000194,-0.000383,0.004791,-0.000134,0.004794,-0.000386,-88.514877,0.005327,
1310,720,-0.140083,-11.577672,0.999997,0.000193,-0.002422,0.004209,0.002265,0.004908,-0.003122,72.828969,0.004969,
890,810,1.597786,-9.465831,0.999996,0.000258,-0.005018,0.009205,0.000532,0.009225,-0.005038,87.859179,0.009238,
1490,270,-0.374546,-13.764987,0.999997,0.000195,-0.002017,0.006040,-0.000161,0.006043,-0.002021,-88.858886,0.006153,
1580,420,-0.832654,-12.623314,0.999997,0.000212,-0.003228,0.007097,0.000302,0.007105,-0.003237,88.323884,0.007115,
820,50,0.091194,-14.958624,0.999997,0.000211,-0.000372,0.005335,0.001409,0.005664,-0.000701,76.863102,0.006175,
960,110,0.142745,-14.665419,0.999998,0.000204,-0.000895,0.005318,0.000670,0.005389,-0.000966,83.914066,0.005747,
560,1550,2.188718,-3.905413,0.999989,0.000000,-0.003557,0.007470,0.000069,0.007470,-0.003557,89.641705,0.007473,
1890,1080,-3.162332,-7.232357,0.999998,0.000155,-0.003048,0.006061,0.000016,0.006061,-0.003048,89.897430,0.006061,
1830,340,-1.543333,-12.647950,0.999998,0.000231,-0.003708,0.007535,0.000035,0.007535,-0.003708,89.822610,0.007535,
1140,1380,0.175354,-3.388602,0.999997,0.000198,-0.002571,0.004790,0.001932,0.005266,-0.003047,76.151159,0.005288,
1200,550,0.059806,-12.439439,0.999998,0.000167,-0.001895,0.004906,-0.000327,0.004922,-0.001910,-87.253316,0.004963,
960,1170,1.551044,-6.163770,0.999996,0.000241,-0.005049,0.010025,-0.000637,0.010052,-0.005076,-87.584548,0.010052,
1760,140,-0.608668,-14.321043,0.999998,0.000201,-0.002966,0.007154,-0.001431,0.007352,-0.003165,-82.102039,0.007376,
580,1820,1.423966,-1.847767,0.999996,0.000241,-0.004775,0.007099,-0.000137,0.007100,-0.004777,-89.340985,0.007240,
790,710,1.768648,-10.120755,0.999996,0.000243,-0.004492,0.008288,0.000340,0.008297,-0.004501,88.476712,0.008307,
1320,640,-0.168980,-11.912941,0.999998,0.000192,-0.002358,0.004932,0.001489,0.005224,-0.002651,78.892373,0.005224,
930,1560,0.774716,-2.923843,0.999997,0.000193,-0.003459,0.007092,0.000661,0.007133,-0.003500,86.429701,0.007134,
1780,1560,-1.706083,-3.532315,0.999997,0.000199,-0.003861,0.007723,-0.000114,0.007724,-0.003862,-89.434704,0.007724,
1110,1190,0.660032,-4.623470,0.999993,0.000311,-0.003091,0.005145,0.003105,0.006185,-0.004130,71.491367,0.006300,
1290,850,-0.346347,-11.283325,0.999995,0.000237,-0.004297,0.002259,0.000390,0.002282,-0.004320,86.611857,0.004323,
1010,1480,0.563491,-3.257919,0.999997,0.000214,-0.003549,0.006910,0.001271,0.007062,-0.003701,83.171684,0.007064,
1660,1650,-1.076661,-2.561758,0.999997,0.000219,-0.003491,0.007432,-0.000142,0.007434,-0.003493,-89.255383,0.007439,
1830,300,-1.438098,-12.947502,0.999997,0.000207,-0.003654,0.007546,-0.000086,0.007546,-0.003655,-89.557734,0.007547,
1210,1590,0.041735,-2.240887,0.999998,0.000184,-0.001892,0.005214,0.000226,0.005221,-0.001900,88.181833,0.005285,
1620,140,-0.334962,-14.445956,0.999997,0.000210,-0.001323,0.006075,-0.001135,0.006245,-0.001493,-81.471475,0.006522,
1410,240,-0.209772,-14.004813,0.999998,0.000176,-0.001492,0.005522,-0.000113,0.005524,-0.001494,-89.077869,0.005714,
1670,2020,-0.061751,-0.087627,0.999998,0.000000,-0.000647,0.005369,0.001406,0.005681,-0.000959,77.475760,0.006083,
960,860,1.431840,-9.203697,0.999995,0.000285,-0.005393,0.010012,0.000334,0.010019,-0.005400,88.758101,0.010030,
800,450,1.170283,-12.216702,0.999998,0.000164,-0.003653,0.007541,-0.000231,0.007546,-0.003658,-88.817927,0.007547,
1880,430,-1.940877,-11.841333,0.999998,0.000191,-0.003698,0.007480,0.000035,0.007480,-0.003698,89.819538,0.007480,
620,1620,1.816051,-3.226261,0.999998,0.000174,-0.003766,0.007548,0.000115,0.007549,-0.003767,89.418771,0.007549,
1360,1750,-0.186909,-1.442602,0.999997,0.000192,-0.001536,0.005513,-0.000070,0.005513,-0.001536,-89.427342,0.005690,
1830,190,-1.056225,-13.792222,0.999997,0.000217,-0.003536,0.007722,-0.000596,0.007754,-0.003567,-86.978287,0.007762,
1150,1940,0.035045,-0.440863,0.999998,0.000166,-0.000454,0.004787,-0.000163,0.004793,-0.000459,-88.220549,0.005289,
890,790,1.527760,-9.650431,0.999996,0.000247,-0.005095,0.009154,0.000337,0.009162,-0.005103,88.647102,0.009182,
580,2010,0.334855,-0.298647,0.999980,0.000547,-0.000502,0.009559,-0.004867,0.011528,-0.002471,-67.972308,0.012139,
750,850,2.341719,-8.908501,0.999996,0.000235,-0.003862,0.007911,0.000872,0.007975,-0.003926,85.784431,0.007975,
1740,610,-1.804549,-10.787854,0.999997,0.000197,-0.004086,0.007904,-0.000068,0.007905,-0.004086,-89.677383,0.007906,
1250,650,-0.031187,-11.998145,0.999998,0.000141,-0.001680,0.003944,0.000440,0.003978,-0.001714,85.557909,0.003990,
1490,250,-0.345671,-13.884914,0.999998,0.000185,-0.001881,0.005937,-0.000255,0.005945,-0.001889,-88.133847,0.006076,
1000,390,0.454957,-13.057338,0.999997,0.000217,-0.002466,0.006276,-0.000328,0.006289,-0.002478,-87.853358,0.006335,
1650,1710,-0.920774,-2.097084,0.999997,0.000193,-0.003297,0.007185,0.000024,0.007186,-0.003297,89.870143,0.007194,
1700,260,-0.877340,-13.541095,0.999997,0.000202,-0.002994,0.007242,-0.000562,0.007273,-0.003024,-86.865852,0.007307,
1180,610,0.094607,-12.135707,0.999998,0.000171,-0.002020,0.004635,-0.000829,0.004737,-0.002122,-83.006530,0.004746,
1860,610,-2.271223,-10.516119,0.999997,0.000255,-0.003796,0.007642,-0.000048,0.007643,-0.003796,-89.759905,0.007643,
900,50,0.061247,-14.965794,0.999998,0.000155,-0.000297,0.005067,0.000930,0.005223,-0.000454,80.440998,0.005787,
950,1620,0.640246,-2.456123,0.999996,0.000229,-0.002955,0.006744,0.000470,0.006767,-0.002977,87.233120,0.006783,
1070,1300,0.458959,-4.255451,0.999996,0.000230,-0.004737,0.007372,0.002760,0.007971,-0.005337,77.745447,0.008122,
1020,240,0.259944,-13.979093,0.999998,0.000169,-0.001510,0.005691,0.000217,0.005698,-0.001517,88.276669,0.005901,
1020,1110,1.581327,-6.497862,0.999995,0.000257,-0.004573,0.011637,0.000880,0.011685,-0.004621,86.900959,0.011770,
1370,1630,-0.261498,-2.128580,0.999998,0.000190,-0.002106,0.005730,-0.000464,0.005757,-0.002134,-86.626203,0.005821,
1420,380,-0.349264,-13.178916,0.999997,0.000205,-0.002333,0.006058,0.000380,0.006075,-0.002350,87.414446,0.006127,
1350,640,-0.249134,-11.808268,0.999997,0.000220,-0.002809,0.005504,0.001761,0.005862,-0.003167,78.520325,0.005868,
670,920,2.782291,-8.321503,0.999998,0.000204,-0.003406,0.007133,0.000503,0.007157,-0.003430,87.270760,0.007159,
1450,270,-0.305819,-13.802017,0.999997,0.000198,-0.001674,0.005801,-0.000153,0.005804,-0.001677,-88.824713,0.005974,
1280,850,-0.301576,-11.358162,0.999994,0.000281,-0.004862,0.002226,0.000133,0.002229,-0.004864,88.922752,0.004870,
560,1540,2.212605,-3.976375,0.999973,0.000000,-0.003539,0.007181,0.000013,0.007181,-0.003539,89.930485,0.007181,
1320,620,-0.172700,-12.009755,0.999998,0.000172,-0.002299,0.005017,0.001306,0.005243,-0.002526,80.174405,0.005244,
1360,1530,-0.266506,-2.687593,0.999997,0.000204,-0.002489,0.005703,-0.001025,0.005829,-0.002615,-82.978473,0.005839,
710,530,1.676676,-11.383112,0.999996,0.000210,-0.003947,0.007772,-0.000109,0.007773,-0.003948,-89.468183,0.007774,
1220,110,0.006321,-14.707184,0.999998,0.000157,-0.000472,0.004704,0.000001,0.004704,-0.000472,89.988633,0.005182,
620,1970,0.526665,-0.544047,0.999997,0.000210,-0.003455,0.008182,-0.001850,0.008469,-0.003742,-81.180089,0.008488,
960,1750,0.453519,-1.588370,0.999997,0.000204,-0.002370,0.006246,0.000010,0.006246,-0.002370,89.935278,0.006307,
1460,1570,-0.527504,-2.674021,0.999996,0.000250,-0.003057,0.006594,-0.000837,0.006666,-0.003129,-85.080662,0.006670,
670,190,0.931868,-13.883532,0.999998,0.000194,-0.003212,0.007590,0.001054,0.007692,-0.003314,84.479411,0.007716,
1780,1540,-1.748130,-3.685486,0.999997,0.000214,-0.003866,0.007692,-0.000103,0.007693,-0.003867,-89.487610,0.007693,
1140,1360,0.174244,-3.490067,0.999998,0.000176,-0.002646,0.004747,0.002178,0.005341,-0.003240,74.744764,0.005382,
1210,1570,0.040108,-2.344861,0.999998,0.000170,-0.001892,0.005177,0.000251,0.005186,-0.001901,87.970681,0.005247,
1760,120,-0.518325,-14.457667,0.999997,0.000215,-0.002699,0.007115,-0.001692,0.007399,-0.002982,-80.489406,0.007445,
1360,170,-0.099518,-14.395968,0.999998,0.000171,-0.000799,0.005114,-0.000192,0.005121,-0.000805,-88.146538,0.005507,
1520,730,-1.070397,-10.379236,0.999997,0.000184,-0.005240,0.008872,0.000746,0.008912,-0.005280,86.984193,0.008962,
890,240,0.491336,-13.861519,0.999998,0.000181,-0.002215,0.006414,0.000473,0.006440,-0.002241,86.874479,0.006539,
1670,30,-0.045078,-15.056208,0.999998,0.000000,-0.000518,0.005263,-0.001446,0.005605,-0.000859,-76.714689,0.006037,
1580,440,-0.861951,-12.480840,0.999997,0.000210,-0.003315,0.007150,0.000344,0.007162,-0.003326,88.116890,0.007168,
1530,1080,-2.025859,-7.091345,0.999997,0.000211,-0.003092,0.008993,0.000737,0.009038,-0.003137,86.521629,0.009178,
1110,870,0.705375,-10.472306,0.999994,0.000302,-0.002769,0.004950,-0.003123,0.006056,-0.003874,-70.508040,0.006134,
990,1720,0.423645,-1.734876,0.999997,0.000197,-0.002136,0.006181,0.000079,0.006182,-0.002136,89.456720,0.006280,
1050,1940,0.087354,-0.458825,0.999998,0.000163,-0.000666,0.005007,-0.000386,0.005034,-0.000693,-86.123396,0.005457,
890,770,1.462682,-9.833557,0.999995,0.000232,-0.005121,0.009064,0.000183,0.009066,-0.005123,89.261964,0.009092,
640,1060,2.963490,-7.334977,0.999997,0.000221,-0.003226,0.006817,-0.000218,0.006822,-0.003231,-88.758663,0.006825,
1390,910,-1.127900,-9.626918,0.999993,0.000296,-0.003486,0.008921,0.004609,0.010446,-0.005011,71.693281,0.010448,
790,690,1.714862,-10.287228,0.999997,0.000231,-0.004465,0.008287,0.000215,0.008290,-0.004469,89.032152,0.008299,
1740,630,-1.850985,-10.627635,0.999997,0.000202,-0.004099,0.007913,-0.000099,0.007914,-0.004100,-89.526058,0.007916,
1660,180,-0.522873,-14.163226,0.999997,0.000200,-0.002293,0.006607,-0.000998,0.006718,-0.002404,-83.678813,0.006808,
1250,630,-0.031790,-12.080766,0.999998,0.000151,-0.001726,0.004209,0.000408,0.004237,-0.001754,86.086060,0.004258,
1080,1140,1.142147,-5.414864,0.999992,0.000301,-0.003152,0.008785,0.005340,0.010825,-0.005192,69.090205,0.010828,
580,1810,1.458235,-1.920028,0.999996,0.000218,-0.004979,0.006851,-0.000003,0.006851,-0.004979,-89.986406,0.007082,
790,540,1.378868,-11.498428,0.999995,0.000269,-0.004038,0.007813,-0.000253,0.007818,-0.004044,-88.778828,0.007820,
890,50,0.063424,-14.965581,0.999999,0.000137,-0.000412,0.005103,0.000953,0.005263,-0.000572,80.463629,0.005776,
1830,280,-1.377125,-13.101446,0.999996,0.000217,-0.003626,0.007551,-0.000144,0.007553,-0.003628,-89.262370,0.007555,
1840,610,-2.196683,-10.561595,0.999997,0.000220,-0.003833,0.007659,-0.000075,0.007659,-0.003834,-89.623907,0.007659,
1700,240,-0.818698,-13.687330,0.999997,0.000203,-0.002905,0.007271,-0.000744,0.007325,-0.002959,-85.841797,0.007370,
1490,230,-0.317827,-14.002919,0.999997,0.000193,-0.001747,0.005847,-0.000336,0.005862,-0.001762,-87.474622,0.006015,
1020,220,0.235403,-14.091313,0.999998,0.000178,-0.001357,0.005564,0.000249,0.005573,-0.001366,87.944976,0.005810,
1070,620,0.379031,-11.768519,0.999996,0.000229,-0.003339,0.006235,-0.001768,0.006551,-0.003655,-79.862854,0.006566,
960,840,1.341462,-9.402801,0.999995,0.000269,-0.005610,0.009939,0.000055,0.009939,-0.005610,89.795748,0.009966,
1620,120,-0.281850,-14.564891,0.999998,0.000190,-0.001136,0.005936,-0.001239,0.006146,-0.001346,-80.345280,0.006462,
1270,850,-0.252978,-11.417210,0.999994,0.000260,-0.005435,0.002308,-0.000071,0.002309,-0.005435,-89.472749,0.005456,
1180,590,0.095752,-12.231675,0.999998,0.000178,-0.002047,0.004785,-0.000691,0.004854,-0.002116,-84.282366,0.004868,
1420,360,-0.333371,-13.302317,0.999997,0.000202,-0.002247,0.005972,0.000305,0.005983,-0.002258,87.879825,0.006043,
930,1620,0.700769,-2.498070,0.999996,0.000216,-0.003166,0.006942,0.000474,0.006965,-0.003188,87.321444,0.006973,
800,370,1.016723,-12.811748,0.999998,0.000183,-0.003432,0.007341,-0.000085,0.007342,-0.003433,-89.546468,0.007347,
590,860,2.942344,-8.653138,0.999997,0.000198,-0.003334,0.006837,0.000254,0.006843,-0.003341,88.571559,0.006844,
750,830,2.282697,-9.070743,0.999997,0.000223,-0.003989,0.008006,0.000867,0.008068,-0.004051,85.886839,0.008068,
1780,1520,-1.792635,-3.840250,0.999997,0.000201,-0.003891,0.007696,-0.000075,0.007697,-0.003891,-89.629343,0.007697,
1760,100,-0.413970,-14.604948,0.999996,0.000221,-0.002428,0.006735,-0.001779,0.007068,-0.002761,-79.389442,0.007124,
1820,1530,-1.924659,-3.859355,0.999998,0.000187,-0.003849,0.007658,-0.000055,0.007658,-0.003850,-89.727979,0.007658,
600,1970,0.594219,-0.613654,0.999996,0.000238,-0.003397,0.008604,-0.001958,0.008916,-0.003708,-80.964045,0.008957,
1320,600,-0.175938,-12.107505,0.999998,0.000172,-0.002248,0.005119,0.001134,0.005290,-0.002418,81.446715,0.005296,
1800,1270,-2.498843,-5.813365,0.999996,0.000219,-0.003779,0.007556,0.000587,0.007587,-0.003810,87.043902,0.007587,
1660,2020,-0.051962,-0.084786,0.999998,0.000000,-0.000618,0.005345,0.001388,0.005652,-0.000925,77.518340,0.006064,
560,1530,2.233168,-4.048465,0.999962,0.000000,-0.003560,0.007045,-0.000119,0.007047,-0.003561,-89.358434,0.007047,
1210,1550,0.039842,-2.448846,0.999998,0.000169,-0.001889,0.005122,0.000259,0.005131,-0.001898,87.890054,0.005189,
870,260,0.582807,-13.703794,0.999997,0.000197,-0.002571,0.006580,0.000378,0.006595,-0.002587,87.638663,0.006646,
1500,730,-0.964750,-10.462502,0.999997,0.000205,-0.005250,0.008799,0.001044,0.008877,-0.005327,85.772003,0.008936,
1440,1570,-0.467790,-2.623755,0.999997,0.000206,-0.002950,0.006418,-0.000871,0.006498,-0.003030,-84.731064,0.006503,
670,170,0.848406,-14.031204,0.999997,0.000206,-0.003057,0.007643,0.001324,0.007804,-0.003219,83.051218,0.007844,
1360,1220,-0.514142,-4.525021,0.999995,0.000294,-0.004644,0.006612,-0.003359,0.007538,-0.005570,-74.584377,0.007820,
1450,250,-0.284139,-13.913996,0.999997,0.000197,-0.001551,0.005728,-0.000226,0.005735,-0.001558,-88.224883,0.005931,
1660,200,-0.583400,-14.026055,0.999997,0.000222,-0.002451,0.006764,-0.000889,0.006849,-0.002536,-84.539212,0.006925,
1250,610,-0.032872,-12.167303,0.999998,0.000152,-0.001791,0.004408,0.000378,0.004431,-0.001814,86.526250,0.004455,
1490,210,-0.284522,-14.119734,0.999997,0.000204,-0.001591,0.005726,-0.000398,0.005747,-0.001613,-86.898657,0.005929,
1550,1080,-2.086017,-7.109153,0.999997,0.000232,-0.003025,0.008653,0.000761,0.008703,-0.003074,86.289224,0.008827,
1580,460,-0.890615,-12.337841,0.999997,0.000227,-0.003451,0.007264,0.000444,0.007283,-0.003470,87.629543,0.007285,
1620,1730,-0.792206,-1.902130,0.999998,0.000194,-0.002853,0.007029,0.000145,0.007032,-0.002855,89.158838,0.007073,
1110,850,0.544498,-10.573887,0.999993,0.000347,-0.003776,0.005805,-0.003243,0.006799,-0.004770,-72.952669,0.006981,
570,2000,0.455084,-0.421774,0.999475,0.002620,-0.001971,0.009988,-0.004907,0.011743,-0.003726,-70.313748,0.012002,
880,50,0.068025,-14.964494,0.999998,0.000145,-0.000485,0.005134,0.000996,0.005306,-0.000656,80.237745,0.005785,
1520,1170,-1.635895,-6.222518,0.999996,0.000228,-0.004830,0.009752,0.000834,0.009800,-0.004877,86.737223,0.009800,
890,750,1.401002,-10.016495,0.999995,0.000250,-0.005121,0.008974,0.000013,0.008974,-0.005121,89.945262,0.009004,
1700,220,-0.756296,-13.832814,0.999997,0.000209,-0.002741,0.007098,-0.000885,0.007176,-0.002820,-84.903557,0.007231,
630,970,2.982295,-7.948934,0.999997,0.000195,-0.003237,0.006650,0.000127,0.006652,-0.003239,89.262348,0.006652,
1140,1340,0.174145,-3.585944,0.999997,0.000188,-0.002699,0.004676,0.002424,0.005402,-0.003425,73.340245,0.005466,
1500,770,-1.068627,-10.099533,0.999996,0.000247,-0.005581,0.009260,0.000741,0.009297,-0.005617,87.149348,0.009364,
890,840,1.705981,-9.190214,0.999996,0.000258,-0.004838,0.009192,0.000789,0.009236,-0.004882,86.790531,0.009241,
780,370,1.085622,-12.766883,0.999998,0.000181,-0.003406,0.007356,-0.000029,0.007356,-0.003406,-89.848224,0.007363,
1520,950,-1.915266,-8.270970,0.999996,0.000266,-0.003570,0.009379,-0.000939,0.009446,-0.003637,-85.872785,0.009529,
790,670,1.664150,-10.452056,0.999996,0.000239,-0.004424,0.008266,0.000116,0.008267,-0.004426,89.474187,0.008274,
1800,350,-1.453803,-12.648271,0.999997,0.000203,-0.003698,0.007577,-0.000017,0.007577,-0.003698,-89.911832,0.007578,
1620,100,-0.220862,-14.684126,0.999998,0.000183,-0.000872,0.005703,-0.001239,0.005928,-0.001098,-79.675015,0.006308,
1020,200,0.213538,-14.202053,0.999997,0.000192,-0.001255,0.005524,0.000335,0.005540,-0.001272,87.174738,0.005804,
790,520,1.340270,-11.655461,0.999996,0.000216,-0.003955,0.007761,-0.000270,0.007767,-0.003961,-88.680095,0.007768,
1890,1730,-1.723416,-2.526789,0.999996,0.000233,-0.003661,0.007360,-0.000064,0.007360,-0.003661,-89.665412,0.007360,
1830,410,-1.709727,-12.115357,0.999997,0.000216,-0.003722,0.007549,0.000096,0.007550,-0.003723,89.509689,0.007550,
1320,580,-0.177022,-12.212385,0.999998,0.000168,-0.002220,0.005191,0.001004,0.005325,-0.002354,82.417628,0.005337,
1780,1500,-1.837047,-3.994690,0.999997,0.000189,-0.003913,0.007721,-0.000042,0.007721,-0.003913,-89.795473,0.007721,
560,1520,2.255491,-4.117160,0.999962,0.000000,-0.003537,0.007142,-0.000201,0.007146,-0.003541,-88.920103,0.007146,
1030,1940,0.102754,-0.463629,0.999998,0.000174,-0.000671,0.005092,-0.000470,0.005131,-0.000709,-85.370218,0.005560,
1240,790,-0.017182,-11.618681,0.999997,0.000235,-0.002112,0.001614,0.000382,0.001652,-0.002151,84.205111,0.002252,
870,240,0.540349,-13.834293,0.999998,0.000176,-0.002424,0.006556,0.000512,0.006585,-0.002453,86.749557,0.006656,
1210,1530,0.041801,-2.551200,0.999998,0.000176,-0.001886,0.005017,0.000273,0.005028,-0.001897,87.739523,0.005078,
960,820,1.258960,-9.600827,0.999996,0.000232,-0.005673,0.009800,-0.000176,0.009802,-0.005675,-89.348596,0.009843,
1660,30,-0.037620,-15.059911,0.999999,0.000000,-0.000493,0.005232,-0.001398,0.005555,-0.000817,-76.981882,0.005999,
1760,80,-0.329640,-14.727570,0.999996,0.000228,-0.001876,0.006611,-0.002138,0.007119,-0.002385,-76.629993,0.007247,
1450,230,-0.256379,-14.031353,0.999998,0.000194,-0.001410,0.005661,-0.000273,0.005672,-0.001420,-87.791243,0.005902,
1360,1260,-0.374050,-4.267734,0.999995,0.000261,-0.004517,0.006491,-0.003395,0.007454,-0.005479,-74.167429,0.007724,
1220,610,0.020158,-12.172711,0.999998,0.000143,-0.001793,0.004415,-0.000285,0.004428,-0.001806,-87.378383,0.004453,
1420,340,-0.316971,-13.420419,0.999997,0.000208,-0.002157,0.005858,0.000255,0.005866,-0.002165,88.180217,0.005933,
1470,1580,-0.550502,-2.631240,0.999995,0.000250,-0.003012,0.006637,-0.000751,0.006695,-0.003071,-85.575973,0.006703,
750,810,2.227641,-9.230247,0.999997,0.000214,-0.004061,0.007954,0.000785,0.008005,-0.004112,86.276855,0.008006,
590,850,2.919660,-8.723217,0.999998,0.000168,-0.003373,0.006942,0.000275,0.006950,-0.003380,88.472287,0.006950,
1660,220,-0.643641,-13.892507,0.999997,0.000207,-0.002646,0.006795,-0.000743,0.006853,-0.002704,-85.529140,0.006903,
1250,590,-0.032879,-12.257177,0.999998,0.000163,-0.001860,0.004584,0.000365,0.004605,-0.001881,86.773106,0.004631,
730,1680,1.268648,-2.500348,0.999997,0.000233,-0.003643,0.007584,0.000032,0.007584,-0.003643,89.838566,0.007586,
740,1610,1.384295,-3.010772,0.999997,0.000203,-0.003735,0.007577,0.000152,0.007579,-0.003737,89.230493,0.007579,
670,150,0.753106,-14.190185,0.999997,0.000210,-0.002837,0.007592,0.001564,0.007821,-0.003066,81.649647,0.007882,
810,80,0.188790,-14.790104,0.999998,0.000173,-0.000927,0.005777,0.001469,0.006085,-0.001235,78.167739,0.006433,
1490,190,-0.255664,-14.233056,0.999998,0.000162,-0.001446,0.005660,-0.000451,0.005688,-0.001475,-86.379030,0.005904,
1040,970,1.599947,-8.455057,0.999991,0.000351,-0.005694,0.014135,-0.002627,0.014477,-0.006036,-82.578601,0.014543,
930,1370,1.038704,-4.397093,0.999997,0.000235,-0.004896,0.008499,0.000795,0.008546,-0.004943,86.617190,0.008581,
940,850,1.493580,-9.231065,0.999994,0.000287,-0.005286,0.009738,0.000485,0.009754,-0.005301,88.154542,0.009766,
1290,1210,-0.307715,-3.822834,0.999995,0.000276,-0.003964,0.002433,-0.000601,0.002489,-0.004020,-84.677501,0.004057,
1580,900,-1.965532,-8.631370,0.999998,0.000185,-0.004036,0.008833,-0.001095,0.008925,-0.004128,-85.171126,0.008934,
710,750,2.219092,-9.652027,0.999997,0.000203,-0.004073,0.007903,0.000587,0.007932,-0.004102,87.199540,0.007933,
870,840,1.801315,-9.150219,0.999996,0.000237,-0.004682,0.008980,0.000877,0.009036,-0.004739,86.343686,0.009040,
1700,200,-0.690833,-13.971741,0.999997,0.000204,-0.002596,0.007048,-0.001058,0.007163,-0.002711,-83.814657,0.007233,
790,650,1.614295,-10.619333,0.999995,0.000254,-0.004382,0.008160,0.000040,0.008160,-0.004383,89.816091,0.008168,
1880,1730,-1.686870,-2.499221,0.999995,0.000240,-0.003653,0.007407,-0.000081,0.007408,-0.003653,-89.582872,0.007408,
790,1760,0.883984,-1.783486,0.999997,0.000193,-0.003219,0.007196,-0.000273,0.007203,-0.003226,-88.501456,0.007216,
630,1010,3.006525,-7.680414,0.999998,0.000177,-0.003201,0.006778,0.000210,0.006783,-0.003205,88.792199,0.006786,
1620,320,-0.780915,-13.254348,0.999998,0.000183,-0.002820,0.006963,-0.000153,0.006966,-0.002823,-89.106740,0.007007,
1020,180,0.186809,-14.312965,0.999998,0.000184,-0.001088,0.005370,0.000360,0.005390,-0.001108,86.819655,0.005693,
560,1510,2.279558,-4.186338,0.999955,0.000000,-0.003433,0.007438,-0.000215,0.007443,-0.003437,-88.867278,0.007450,
1830,170,-0.964790,-13.950820,0.999997,0.000206,-0.003535,0.007818,-0.000759,0.007868,-0.003586,-86.193682,0.007878,
1500,110,-0.139777,-14.665711,0.999998,0.000157,-0.000850,0.005322,-0.000671,0.005394,-0.000923,-83.862519,0.005770,
1320,560,-0.177199,-12.315085,0.999998,0.000164,-0.002204,0.005254,0.000914,0.005364,-0.002314,83.115536,0.005381,
770,540,1.459992,-11.449391,0.999995,0.000261,-0.004003,0.007797,-0.000189,0.007800,-0.004006,-89.083967,0.007801,
840,1110,2.251282,-6.906750,0.999998,0.000186,-0.003379,0.008047,-0.000839,0.008108,-0.003440,-85.821929,0.008139,
1070,600,0.372454,-11.896360,0.999997,0.000193,-0.003197,0.006204,-0.001594,0.006467,-0.003460,-80.634970,0.006472,
1800,330,-1.406744,-12.798931,0.999996,0.000208,-0.003650,0.007497,-0.000026,0.007497,-0.003650,-89.866405,0.007498,
1780,1480,-1.882802,-4.151696,0.999998,0.000184,-0.003914,0.007742,0.000009,0.007742,-0.003914,89.953658,0.007742,
960,800,1.181294,-9.800326,0.999996,0.000243,-0.005659,0.009641,-0.000398,0.009651,-0.005669,-88.512321,0.009700,
1890,50,-0.400013,-14.763831,0.999981,0.000551,-0.001483,0.010468,-0.004875,0.012204,-0.003220,-70.396291,0.012649,
1650,2020,-0.045996,-0.081234,0.999998,0.000000,-0.000364,0.005306,0.001430,0.005647,-0.000704,76.618678,0.006154,
1210,1510,0.040965,-2.651006,0.999998,0.000182,-0.001890,0.004907,0.000313,0.004921,-0.001904,87.367978,0.004963,
1200,610,0.056469,-12.157858,0.999998,0.000150,-0.001842,0.004478,-0.000464,0.004512,-0.001876,-85.820188,0.004533,
1490,170,-0.221554,-14.346177,0.999998,0.000162,-0.001281,0.005551,-0.000501,0.005588,-0.001317,-85.824351,0.005842,
1450,210,-0.235961,-14.141523,0.999998,0.000181,-0.001265,0.005572,-0.000338,0.005589,-0.001281,-87.173346,0.005856,
810,540,1.296829,-11.549577,0.999996,0.000224,-0.004022,0.007811,-0.000331,0.007821,-0.004032,-88.397979,0.007822,
1080,1130,1.205873,-5.509206,0.999987,0.000386,-0.003231,0.009737,0.005901,0.012021,-0.005514,68.848157,0.012034,
830,1300,1.713490,-5.297202,0.999996,0.000253,-0.004711,0.008623,-0.000430,0.008637,-0.004725,-88.156188,0.008650,
750,790,2.171550,-9.390092,0.999997,0.000241,-0.004121,0.008082,0.000744,0.008127,-0.004166,86.524027,0.008128,
1400,370,-0.295260,-13.271449,0.999997,0.000195,-0.002122,0.005879,0.000343,0.005894,-0.002136,87.550463,0.005968,
1500,1750,-0.444652,-1.582816,0.999997,0.000190,-0.002349,0.006220,-0.000011,0.006220,-0.002349,-89.927425,0.006281,
1760,60,-0.211409,-14.869947,0.999996,0.000232,-0.001305,0.006499,-0.002382,0.007169,-0.001975,-74.301000,0.007406,
1660,240,-0.701121,-13.752074,0.999997,0.000200,-0.002782,0.006994,-0.000619,0.007033,-0.002821,-86.388515,0.007079,
570,760,2.775962,-9.309319,0.999910,0.000985,-0.004160,0.007320,-0.000055,0.007320,-0.004160,-89.724331,0.007343,
850,50,0.083154,-14.960105,0.999998,0.000166,-0.000309,0.005236,0.001208,0.005487,-0.000561,78.228505,0.006039,
1700,180,-0.623643,-14.114023,0.999997,0.000202,-0.002364,0.006908,-0.001202,0.007061,-0.002517,-82.734900,0.007157,
990,940,1.688024,-8.509628,0.999996,0.000227,-0.004309,0.010752,0.000384,0.010761,-0.004319,88.539325,0.010831,
1250,570,-0.035596,-12.350288,0.999998,0.000176,-0.001889,0.004752,0.000323,0.004768,-0.001905,87.222517,0.004799,
1320,540,-0.177933,-12.420487,0.999998,0.000169,-0.002195,0.005329,0.000833,0.005420,-0.002286,83.760213,0.005442,
850,1620,0.964988,-2.676762,0.999997,0.000181,-0.003505,0.007349,0.000327,0.007359,-0.003515,88.277924,0.007361,
1580,880,-1.889639,-8.812289,0.999997,0.000202,-0.004339,0.008951,-0.001057,0.009034,-0.004423,-85.480831,0.009035,
1420,320,-0.301653,-13.539362,0.999997,0.000219,-0.002047,0.005881,0.000164,0.005884,-0.002051,88.818291,0.005974,
1610,1460,-1.220845,-3.894086,0.999997,0.000190,-0.004305,0.007954,-0.000417,0.007968,-0.004319,-88.054349,0.007978,
930,900,1.762359,-8.719950,0.999997,0.000195,-0.004489,0.009471,0.001007,0.009543,-0.004561,85.896258,0.009547,
1870,1730,-1.650636,-2.471253,0.999996,0.000201,-0.003657,0.007448,-0.000097,0.007449,-0.003658,-89.498412,0.007449,
800,750,1.836974,-9.805002,0.999997,0.000194,-0.004521,0.008442,0.000511,0.008462,-0.004541,87.748049,0.008470,
1250,1940,-0.009133,-0.437006,0.999998,0.000173,-0.000460,0.004758,0.000017,0.004758,-0.000460,89.813362,0.005249,
720,1610,1.458031,-3.057095,0.999996,0.000237,-0.003759,0.007601,0.000149,0.007603,-0.003761,89.247780,0.007603,
730,1660,1.317385,-2.652712,0.999997,0.000216,-0.003642,0.007581,0.000079,0.007581,-0.003643,89.596573,0.007583,
1110,830,0.454683,-10.700081,0.999995,0.000279,-0.004454,0.006102,-0.003343,0.007071,-0.005423,-73.826522,0.007400,
1370,770,-0.373550,-10.928048,0.999996,0.000235,-0.004447,0.006643,0.003113,0.007457,-0.005262,75.344980,0.007664,
820,790,1.866763,-9.500711,0.999997,0.000218,-0.004568,0.008569,0.000695,0.008605,-0.004605,86.981577,0.008612,
890,730,1.344863,-10.194640,0.999996,0.000233,-0.005070,0.008830,-0.000138,0.008831,-0.005072,-89.430873,0.008864,
1040,960,1.558880,-8.594216,0.999989,0.000387,-0.005424,0.013411,-0.002713,0.013795,-0.005808,-81.964217,0.013852,
560,1500,2.297670,-4.264401,0.999932,0.000000,-0.003396,0.007864,-0.000244,0.007869,-0.003401,-88.759539,0.007893,
1650,30,-0.033031,-15.063093,0.999999,0.000000,-0.000341,0.005201,-0.001406,0.005537,-0.000678,-76.549245,0.006041,
1490,150,-0.191604,-14.456476,0.999998,0.000174,-0.001127,0.005456,-0.000546,0.005501,-0.001172,-85.291163,0.005795,
850,1360,1.450393,-4.731796,0.999996,0.000245,-0.004758,0.008551,0.000022,0.008551,-0.004758,89.904413,0.008569,
1250,550,-0.034918,-12.447813,0.999998,0.000179,-0.001881,0.004887,0.000290,0.004900,-0.001893,87.549106,0.004941,
990,920,1.585113,-8.719272,0.999996,0.000249,-0.004743,0.010541,0.000317,0.010548,-0.004750,88.812778,0.010565,
1080,920,1.173500,-9.663149,0.999991,0.000375,-0.002840,0.009249,-0.005452,0.011344,-0.004935,-68.975792,0.011376,
930,1350,1.080637,-4.568660,0.999997,0.000230,-0.005036,0.008700,0.000733,0.008739,-0.005074,86.955903,0.008777,
1780,350,-1.383192,-12.695875,0.999996,0.000227,-0.003601,0.007567,-0.000031,0.007567,-0.003601,-89.839592,0.007570,
1770,1720,-1.309110,-2.286692,0.999997,0.000187,-0.003653,0.007560,0.000018,0.007560,-0.003653,89.907302,0.007561,
1620,80,-0.170143,-14.792770,0.999998,0.000159,-0.000658,0.005628,-0.001303,0.005888,-0.000917,-78.743236,0.006336,
1870,220,-1.321634,-13.428670,0.999997,0.000187,-0.003661,0.007463,-0.000249,0.007468,-0.003667,-88.718245,0.007469,
1830,130,-0.758717,-14.267320,0.999997,0.000204,-0.003449,0.007920,-0.001179,0.008041,-0.003570,-84.141236,0.008058,
570,1560,2.133302,-3.802174,0.999988,0.000401,-0.003643,0.007619,0.000059,0.007619,-0.003643,89.697448,0.007622,
850,450,0.989242,-12.330891,0.999998,0.000215,-0.003568,0.007393,-0.000346,0.007404,-0.003579,-88.194072,0.007405,
1290,1200,-0.386174,-3.846190,0.999995,0.000271,-0.004448,0.002341,-0.000250,0.002350,-0.004457,-87.897711,0.004459,
930,880,1.675261,-8.909969,0.999996,0.000248,-0.004819,0.009532,0.000888,0.009586,-0.004873,86.473220,0.009587,
760,1810,0.841796,-1.474757,0.999997,0.000201,-0.002901,0.007297,-0.000706,0.007345,-0.002950,-86.056709,0.007393,
1580,860,-1.817122,-8.991048,0.999997,0.000209,-0.004564,0.009046,-0.000939,0.009110,-0.004629,-86.073661,0.009111,
1750,1990,-0.231144,-0.280229,0.999996,0.000236,-0.001456,0.006379,0.002177,0.006943,-0.002020,75.467272,0.007143,
1570,1400,-1.157056,-4.266037,0.999998,0.000184,-0.004670,0.008322,-0.000529,0.008344,-0.004691,-87.673683,0.008365,
1020,160,0.165290,-14.417535,0.999998,0.000178,-0.000961,0.005326,0.000428,0.005355,-0.000990,86.126104,0.005698,
1350,700,-0.251394,-11.481380,0.999996,0.000243,-0.003196,0.005501,0.002426,0.006132,-0.003827,75.422494,0.006195,
1420,300,-0.284163,-13.656547,0.999998,0.000195,-0.001925,0.005770,0.000104,0.005772,-0.001927,89.226284,0.005877,
1320,520,-0.176337,-12.527950,0.999998,0.000175,-0.002205,0.005389,0.000745,0.005462,-0.002277,84.450767,0.005487,
1800,1630,-1.628381,-3.047042,0.999997,0.000181,-0.003771,0.007595,-0.000122,0.007596,-0.003773,-89.387230,0.007596,
1710,420,-1.283350,-12.330477,0.999996,0.000230,-0.003683,0.007597,0.000147,0.007599,-0.003685,89.252000,0.007601,
1050,270,0.241050,-13.836484,0.999998,0.000174,-0.001703,0.005630,0.000008,0.005630,-0.001703,89.936652,0.005775,
1140,1320,0.176481,-3.675869,0.999997,0.000209,-0.002824,0.004598,0.002650,0.005447,-0.003674,72.233228,0.005557,
1750,1080,-2.714802,-7.178440,0.999997,0.000218,-0.003298,0.007219,0.000289,0.007227,-0.003306,88.426644,0.007236,
1130,1940,0.046284,-0.444398,0.999998,0.000148,-0.000539,0.004823,-0.000181,0.004829,-0.000545,-88.068774,0.005289,
1880,1440,-2.358854,-4.689704,0.999996,0.000278,-0.003799,0.007630,0.000048,0.007631,-0.003799,89.759840,0.007631,
890,710,1.292811,-10.372980,0.999996,0.000214,-0.004989,0.008743,-0.000279,0.008748,-0.004995,-88.835028,0.008778,
1190,560,0.079047,-12.384559,0.999998,0.000171,-0.001920,0.004902,-0.000419,0.004928,-0.001946,-86.494484,0.004964,
1110,1280,0.312232,-4.087947,0.999996,0.000239,-0.004061,0.005877,0.003257,0.006850,-0.005033,73.379063,0.007097,
960,780,1.114516,-9.992351,0.999995,0.000242,-0.005601,0.009394,-0.000601,0.009418,-0.005625,-87.709479,0.009477,
710,510,1.632568,-11.538593,0.999997,0.000210,-0.003902,0.007711,-0.000138,0.007712,-0.003903,-89.317420,0.007712,
780,750,1.924720,-9.767469,0.999996,0.000217,-0.004391,0.008287,0.000573,0.008313,-0.004417,87.417568,0.008319,
760,230,0.795587,-13.755377,0.999998,0.000170,-0.002806,0.007165,0.000835,0.007234,-0.002875,85.244684,0.007285,
1590,1460,-1.136884,-3.840026,0.999997,0.000190,-0.004266,0.007924,-0.000523,0.007946,-0.004289,-87.547033,0.007955,
1370,750,-0.347899,-11.060377,0.999996,0.000243,-0.004190,0.006389,0.002986,0.007174,-0.004975,75.275371,0.007350,
1040,1170,1.120231,-5.666122,0.999997,0.000191,-0.005225,0.010387,0.001770,0.010586,-0.005423,83.612533,0.010587,
670,130,0.657453,-14.336568,0.999996,0.000239,-0.002615,0.007555,0.001896,0.007897,-0.002957,79.776418,0.007980,
1500,890,-1.559335,-8.916664,0.999996,0.000256,-0.005021,0.010029,-0.000644,0.010056,-0.005049,-87.552331,0.010056,
560,1490,2.314325,-4.347490,0.999932,0.000000,-0.003362,0.008024,-0.000258,0.008030,-0.003368,-88.703140,0.008065,
1530,1290,-1.218734,-5.100375,0.999996,0.000209,-0.005410,0.009219,-0.000360,0.009228,-0.005418,-88.589608,0.009274,
1720,1610,-1.373348,-3.003280,0.999997,0.000220,-0.003747,0.007585,-0.000165,0.007587,-0.003749,-89.166317,0.007587,
1250,530,-0.035969,-12.548683,0.999998,0.000192,-0.001898,0.004979,0.000273,0.004990,-0.001909,87.729212,0.005036,
670,480,1.723209,-11.673367,0.999996,0.000222,-0.003808,0.007677,-0.000115,0.007678,-0.003809,-89.424299,0.007678,
1490,130,-0.161686,-14.562516,0.999998,0.000165,-0.000978,0.005320,-0.000567,0.005370,-0.001028,-84.893221,0.005701,
1870,1170,-2.980635,-6.631415,0.999998,0.000187,-0.003244,0.006592,0.000172,0.006595,-0.003247,88.996341,0.006595,
1640,2020,-0.045023,-0.080942,0.999998,0.000000,-0.000074,0.005256,0.001444,0.005622,-0.000440,75.771980,0.006253,
820,770,1.803663,-9.671649,0.999996,0.000226,-0.004633,0.008587,0.000554,0.008611,-0.004656,87.602904,0.008620,
1760,1690,-1.346883,-2.489842,0.999997,0.000204,-0.003657,0.007561,-0.000020,0.007561,-0.003657,-89.900154,0.007562,
1020,140,0.137267,-14.526787,0.999998,0.000159,-0.000806,0.005224,0.000453,0.005258,-0.000840,85.723635,0.005649,
1750,1970,-0.326269,-0.410140,0.999997,0.000201,-0.001992,0.006355,0.001854,0.006748,-0.002385,78.024954,0.006844,
1730,400,-1.316759,-12.435844,0.999997,0.000214,-0.003685,0.007596,0.000087,0.007596,-0.003686,89.557682,0.007597,
1270,1280,-0.069065,-3.550292,0.999998,0.000175,-0.002002,0.002401,-0.001626,0.002936,-0.002538,-71.776368,0.003185,
1800,1530,-1.847310,-3.812396,0.999997,0.000235,-0.003848,0.007683,-0.000077,0.007683,-0.003848,-89.617739,0.007683,
580,2000,0.437033,-0.397176,0.999972,0.000637,-0.002023,0.009396,-0.004145,0.010742,-0.003369,-72.009841,0.010988,
1420,280,-0.265154,-13.770987,0.999998,0.000189,-0.001804,0.005722,0.000013,0.005722,-0.001804,89.904463,0.005851,
910,900,1.851675,-8.675685,0.999997,0.000192,-0.004276,0.009197,0.001062,0.009280,-0.004359,85.520788,0.009286,
1570,1460,-1.051479,-3.780749,0.999998,0.000192,-0.004278,0.007879,-0.000680,0.007917,-0.004316,-86.810687,0.007928,
640,1830,1.167547,-1.577905,0.999996,0.000256,-0.003523,0.007679,-0.000467,0.007698,-0.003543,-87.615158,0.007706,
1800,390,-1.551546,-12.342225,0.999996,0.000248,-0.003721,0.007578,0.000059,0.007578,-0.003721,89.701180,0.007578,
930,1700,0.598042,-1.960065,0.999997,0.000199,-0.002445,0.006551,0.000035,0.006552,-0.002445,89.775678,0.006621,
790,630,1.568554,-10.780941,0.999996,0.000239,-0.004326,0.008074,-0.000034,0.008074,-0.004326,-89.841740,0.008081,
850,430,0.958632,-12.480348,0.999997,0.000240,-0.003434,0.007344,-0.000296,0.007352,-0.003442,-88.429965,0.007357,
640,500,1.881645,-11.446391,0.999997,0.000224,-0.003803,0.007681,-0.000078,0.007682,-0.003804,-89.608525,0.007682,
1290,1400,-0.103576,-3.202091,0.999998,0.000216,-0.001998,0.004346,-0.001266,0.004589,-0.002241,-79.117656,0.004590,
890,690,1.244750,-10.546093,0.999997,0.000206,-0.004895,0.008603,-0.000401,0.008615,-0.004907,-88.299568,0.008643,
1320,500,-0.174248,-12.636386,0.999998,0.000168,-0.002178,0.005418,0.000655,0.005475,-0.002234,85.105220,0.005505,
1050,250,0.223515,-13.947249,0.999998,0.000167,-0.001562,0.005525,0.000072,0.005525,-0.001563,89.416955,0.005696,
1490,110,-0.130294,-14.669161,0.999998,0.000170,-0.000784,0.005279,-0.000632,0.005344,-0.000849,-84.111874,0.005743,
1210,1490,0.040240,-2.747472,0.999998,0.000177,-0.001892,0.004779,0.000327,0.004795,-0.001908,87.200632,0.004829,
940,410,0.642312,-12.811721,0.999997,0.000201,-0.002814,0.006677,-0.000353,0.006690,-0.002827,-87.875840,0.006717,
1640,30,-0.031668,-15.063059,0.999998,0.000000,-0.000126,0.005179,-0.001444,0.005546,-0.000493,-75.721424,0.006139,
930,1330,1.124410,-4.746518,0.999997,0.000220,-0.005183,0.008833,0.000624,0.008861,-0.005211,87.456473,0.008907,
1610,1740,-0.742140,-1.813664,0.999998,0.000179,-0.002843,0.006930,0.000157,0.006933,-0.002846,89.079188,0.006970,
1110,810,0.374206,-10.819334,0.999995,0.000269,-0.004411,0.006121,-0.003403,0.007125,-0.005415,-73.565215,0.007439,
870,320,0.704845,-13.298050,0.999997,0.000197,-0.002885,0.006927,0.000091,0.006928,-0.002886,89.469110,0.006960,
560,1480,2.343310,-4.431599,0.999954,0.000000,-0.003157,0.008075,-0.000092,0.008075,-0.003158,-89.528881,0.008139,
1610,1990,-0.117089,-0.238655,0.999998,0.000180,-0.000546,0.005419,0.001277,0.005681,-0.000808,78.408633,0.006146,
610,380,1.725811,-12.283958,0.999997,0.000227,-0.003693,0.007516,-0.000091,0.007517,-0.003694,-89.536841,0.007517,
650,320,1.429662,-12.841686,0.999998,0.000208,-0.003655,0.007545,0.000078,0.007546,-0.003656,89.600920,0.007547,
1890,1740,-1.698057,-2.452550,0.999996,0.000234,-0.003643,0.007370,-0.000067,0.007370,-0.003644,-89.649961,0.007370,
1250,510,-0.034184,-12.648060,0.999998,0.000180,-0.001897,0.005054,0.000254,0.005063,-0.001907,87.906835,0.005114,
1560,1650,-0.746235,-2.347700,0.999997,0.000197,-0.003167,0.006995,-0.000331,0.007006,-0.003178,-88.133953,0.007016,
1110,1940,0.056739,-0.447972,0.999998,0.000172,-0.000519,0.004875,-0.000248,0.004887,-0.000530,-87.376532,0.005363,
1370,730,-0.333413,-11.190084,0.999997,0.000235,-0.003908,0.006290,0.002795,0.007005,-0.004624,75.636855,0.007124,
1400,1150,-1.129521,-5.612703,0.999989,0.000388,-0.004256,0.009404,-0.003648,0.010317,-0.005169,-75.946019,0.010317,
1890,1170,-3.044553,-6.661438,0.999998,0.000162,-0.003231,0.006423,0.000079,0.006424,-0.003231,89.534020,0.006424,
1830,110,-0.647802,-14.428282,0.999996,0.000230,-0.003274,0.007902,-0.001491,0.008098,-0.003470,-82.531435,0.008125,
1870,210,-1.282315,-13.504203,0.999997,0.000195,-0.003664,0.007460,-0.000285,0.007468,-0.003671,-88.535351,0.007468,
1260,730,-0.043054,-11.714890,0.999998,0.000172,-0.001614,0.002877,0.001017,0.003097,-0.001834,77.821124,0.003114,
1700,600,-1.614961,-10.957031,0.999996,0.000243,-0.004190,0.007910,0.000057,0.007911,-0.004191,89.731147,0.007915,
1580,840,-1.741180,-9.176463,0.999996,0.000206,-0.004791,0.009109,-0.000828,0.009158,-0.004841,-86.602655,0.009163,
680,710,2.229778,-9.910828,0.999997,0.000209,-0.003960,0.007720,0.000415,0.007735,-0.003974,87.967194,0.007736,
1610,1080,-2.270603,-7.143130,0.999997,0.000215,-0.003063,0.008009,0.000664,0.008048,-0.003103,86.579447,0.008118,
660,1770,1.296331,-1.987657,0.999996,0.000233,-0.003556,0.007566,-0.000268,0.007572,-0.003563,-88.621694,0.007577,
1780,1530,-1.770774,-3.763750,0.999997,0.000209,-0.003876,0.007695,-0.000096,0.007696,-0.003877,-89.522536,0.007696,
570,840,2.962900,-8.752215,0.999998,0.000174,-0.003400,0.006869,0.000121,0.006870,-0.003401,89.325621,0.006870,
1240,1810,-0.010328,-1.077919,0.999998,0.000158,-0.001160,0.005092,-0.000024,0.005092,-0.001160,-89.780649,0.005337,
1380,370,-0.257056,-13.295096,0.999997,0.000181,-0.001871,0.005720,0.000223,0.005726,-0.001877,88.320789,0.005838,
1750,1950,-0.414986,-0.535571,0.999996,0.000220,-0.002420,0.006737,0.001710,0.007046,-0.002729,79.760590,0.007106,
810,520,1.261566,-11.704126,0.999997,0.000186,-0.003940,0.007738,-0.000331,0.007747,-0.003949,-88.378772,0.007748,
1450,190,-0.205767,-14.255625,0.999998,0.000206,-0.001135,0.005489,-0.000383,0.005511,-0.001157,-86.700723,0.005812,
1020,120,0.115641,-14.628851,0.999998,0.000180,-0.000672,0.005155,0.000495,0.005197,-0.000714,85.182291,0.005634,
1770,500,-1.678893,-11.573663,0.999997,0.000225,-0.003848,0.007716,0.000125,0.007718,-0.003849,89.381650,0.007718,
1730,420,-1.358760,-12.283810,0.999996,0.000227,-0.003750,0.007606,0.000141,0.007608,-0.003752,89.289821,0.007608,
1310,1400,-0.144546,-3.253521,0.999999,0.000153,-0.002241,0.004703,-0.001481,0.005006,-0.002543,-78.450204,0.005006,
1160,1200,0.436682,-3.961935,0.999997,0.000204,-0.003717,0.002478,0.000746,0.002567,-0.003806,83.226793,0.003882,
1270,1260,-0.082220,-3.593708,0.999998,0.000188,-0.002348,0.002088,-0.001615,0.002613,-0.002874,-71.971392,0.003179,
650,1880,0.931295,-1.161150,0.999998,0.000201,-0.003199,0.007746,-0.001101,0.007856,-0.003308,-84.310947,0.007888,
790,610,1.523862,-10.943736,0.999995,0.000253,-0.004284,0.008023,-0.000094,0.008024,-0.004285,-89.564111,0.008030,
640,480,1.836330,-11.601051,0.999997,0.000209,-0.003784,0.007645,-0.000102,0.007646,-0.003785,-89.488033,0.007646,
890,670,1.202649,-10.719778,0.999997,0.000208,-0.004786,0.008449,-0.000456,0.008464,-0.004802,-88.028275,0.008490,
850,410,0.922078,-12.628005,0.999997,0.000235,-0.003318,0.007224,-0.000203,0.007228,-0.003322,-88.896537,0.007236,
1320,480,-0.171128,-12.747312,0.999998,0.000199,-0.002123,0.005478,0.000615,0.005527,-0.002172,85.405806,0.005569,
1210,1470,0.040281,-2.842845,0.999998,0.000173,-0.001883,0.004652,0.000385,0.004675,-0.001905,86.642290,0.004701,
1490,90,-0.098331,-14.774033,0.999998,0.000154,-0.000622,0.005083,-0.000628,0.005151,-0.000690,-83.791157,0.005593,
1420,260,-0.244643,-13.884442,0.999998,0.000192,-0.001674,0.005595,-0.000030,0.005596,-0.001674,-89.763939,0.005744,
1630,2020,-0.045894,-0.083538,0.999998,0.000000,0.000071,0.005220,0.001374,0.005563,-0.000273,75.959319,0.006272,
960,310,0.460255,-13.500205,0.999997,0.000206,-0.002383,0.006270,-0.000029,0.006270,-0.002384,-89.811277,0.006330,
560,1470,2.366339,-4.506813,0.999961,0.000000,-0.002793,0.008206,0.000280,0.008214,-0.002800,88.543294,0.008351,
1250,490,-0.034698,-12.749993,0.999998,0.000161,-0.001890,0.005151,0.000232,0.005159,-0.001898,88.113188,0.005218,
1370,1460,-0.303864,-3.121182,0.999997,0.000205,-0.002774,0.005834,-0.001449,0.006071,-0.003012,-80.693826,0.006071,
1370,710,-0.322752,-11.313226,0.999997,0.000207,-0.003684,0.006212,0.002560,0.006835,-0.004307,76.321860,0.006912,
610,360,1.676650,-12.435484,0.999995,0.000258,-0.003660,0.007484,-0.000101,0.007485,-0.003661,-89.483291,0.007485,
1140,1300,0.181846,-3.761129,0.999997,0.000230,-0.003007,0.004538,0.002895,0.005521,-0.003990,71.249519,0.005701,
1880,1170,-3.012679,-6.645679,0.999997,0.000209,-0.003232,0.006513,0.000112,0.006514,-0.003234,89.341940,0.006514,
1230,1940,0.000787,-0.435363,0.999999,0.000121,-0.000490,0.004754,-0.000001,0.004754,-0.000490,-89.983988,0.005230,
590,840,2.895950,-8.792259,0.999998,0.000157,-0.003406,0.006957,0.000262,0.006964,-0.003413,88.551370,0.006964,
1040,1150,1.246742,-5.878201,0.999996,0.000217,-0.005048,0.010659,0.001862,0.010877,-0.005266,83.332384,0.010879,
1660,1530,-1.297352,-3.471722,0.999996,0.000228,-0.003948,0.007770,-0.000310,0.007778,-0.003956,-88.486145,0.007778,
1050,230,0.203924,-14.057690,0.999998,0.000172,-0.001468,0.005496,0.000151,0.005499,-0.001471,88.761920,0.005694,
1540,1650,-0.683538,-2.305852,0.999997,0.000196,-0.002951,0.006825,-0.000325,0.006836,-0.002961,-88.100638,0.006856,
930,820,1.425658,-9.489338,0.999996,0.000236,-0.005408,0.009610,0.000273,0.009615,-0.005413,88.960717,0.009640,
1110,790,0.333211,-10.941902,0.999996,0.000247,-0.004306,0.006042,-0.003381,0.007049,-0.005312,-73.417760,0.007345,
890,650,1.160108,-10.884919,0.999996,0.000227,-0.004659,0.008267,-0.000541,0.008290,-0.004682,-87.606562,0.008313,
1890,1750,-1.670350,-2.378431,0.999996,0.000229,-0.003645,0.007340,-0.000052,0.007340,-0.003646,-89.731329,0.007340,
1790,480,-1.711421,-11.679522,0.999996,0.000244,-0.003830,0.007704,0.000121,0.007705,-0.003831,89.399573,0.007705,
1230,600,0.003157,-12.222789,0.999998,0.000156,-0.001790,0.004493,-0.000052,0.004493,-0.001790,-89.524537,0.004524,
930,1310,1.177176,-4.926655,0.999997,0.000217,-0.005326,0.009026,0.000467,0.009041,-0.005341,88.139851,0.009090,
1750,1740,-1.188421,-2.086400,0.999998,0.000198,-0.003608,0.007514,0.000097,0.007515,-0.003609,89.501000,0.007517,
1610,1970,-0.178768,-0.350994,0.999998,0.000182,-0.000767,0.005523,0.001216,0.005750,-0.000994,79.427817,0.006146,
1110,1260,0.345698,-4.206776,0.999996,0.000250,-0.004315,0.006095,0.003443,0.007131,-0.005351,73.257056,0.007423,
1750,1780,-1.078019,-1.785478,0.999998,0.000200,-0.003504,0.007527,0.000317,0.007536,-0.003513,88.355065,0.007542,
670,100,0.494962,-14.565904,0.999996,0.000228,-0.001962,0.007250,0.002309,0.007796,-0.002509,76.686359,0.007960,
1830,90,-0.512455,-14.584724,0.999996,0.000234,-0.003097,0.007878,-0.001949,0.008214,-0.003433,-80.221848,0.008251,
1020,100,0.088482,-14.731727,0.999998,0.000164,-0.000512,0.004989,0.000489,0.005032,-0.000556,84.959809,0.005518,
1670,80,-0.209667,-14.780693,0.999998,0.000180,-0.001083,0.005815,-0.001518,0.006134,-0.001402,-78.121351,0.006429,
1260,370,-0.047181,-13.379071,0.999998,0.000145,-0.001628,0.005326,0.000142,0.005329,-0.001631,88.833203,0.005461,
1500,1330,-0.953664,-4.612449,0.999997,0.000196,-0.005247,0.008736,-0.001058,0.008815,-0.005327,-85.698708,0.008879,
1500,1530,-0.691341,-3.049629,0.999997,0.000213,-0.003558,0.007068,-0.000896,0.007143,-0.003633,-85.214798,0.007143,
720,1430,1.851559,-4.458998,0.999998,0.000152,-0.004075,0.007910,-0.000102,0.007911,-0.004076,-89.511724,0.007912,
1150,1200,0.467660,-4.064226,0.999996,0.000243,-0.003297,0.002734,0.001240,0.002979,-0.003542,78.821532,0.003807,
1750,1930,-0.512566,-0.679792,0.999997,0.000219,-0.002645,0.007035,0.001641,0.007306,-0.002916,80.633144,0.007356,
850,1040,2.320041,-7.460730,0.999997,0.000227,-0.002879,0.007909,-0.000222,0.007913,-0.002883,-88.820308,0.008010,
1830,160,-0.917346,-14.028542,0.999998,0.000199,-0.003536,0.007813,-0.000831,0.007873,-0.003597,-85.833186,0.007883,
850,390,0.890337,-12.771762,0.999998,0.000220,-0.003178,0.007101,-0.000132,0.007103,-0.003180,-89.266323,0.007115,
1320,460,-0.170656,-12.856698,0.999998,0.000159,-0.002074,0.005462,0.000548,0.005502,-0.002113,85.865234,0.005551,
1780,1680,-1.443957,-2.613746,0.999997,0.000194,-0.003672,0.007577,-0.000017,0.007577,-0.003673,-89.913088,0.007579,
560,1460,2.375562,-4.592084,0.999926,0.000000,-0.002787,0.008022,0.000223,0.008027,-0.002791,88.818100,0.008150,
1660,680,-1.632211,-10.400725,0.999996,0.000231,-0.004512,0.008309,-0.000128,0.008310,-0.004513,-89.428161,0.008320,
1370,690,-0.316575,-11.432099,0.999997,0.000206,-0.003506,0.006049,0.002360,0.006600,-0.004057,76.854780,0.006658,
1040,1130,1.371011,-6.101382,0.999995,0.000277,-0.004924,0.011056,0.002152,0.011341,-0.005209,82.461810,0.011353,
1250,690,-0.028061,-11.851346,0.999998,0.000138,-0.001563,0.003410,0.000515,0.003462,-0.001616,84.154759,0.003465,
1210,1940,0.011783,-0.437442,0.999998,0.000154,-0.000489,0.004759,-0.000023,0.004759,-0.000489,-89.751181,0.005236,
1050,210,0.183502,-14.165987,0.999998,0.000180,-0.001342,0.005386,0.000217,0.005393,-0.001349,88.158221,0.005612,
1440,1150,-1.329745,-6.036453,0.999995,0.000268,-0.005099,0.010858,-0.000891,0.010907,-0.005149,-86.812753,0.010913,
960,980,1.956626,-8.016879,0.999998,0.000165,-0.003205,0.009612,0.000610,0.009641,-0.003234,87.282182,0.009814,
710,470,1.549401,-11.847429,0.999997,0.000208,-0.003820,0.007641,-0.000163,0.007644,-0.003822,-89.183016,0.007644,
1880,610,-2.348305,-10.469034,0.999997,0.000204,-0.003794,0.007648,-0.000035,0.007648,-0.003794,-89.822730,0.007648,
1710,2000,-0.151504,-0.207447,0.999998,0.000179,-0.000481,0.005749,0.001853,0.006258,-0.000990,74.629052,0.006728,
1730,1780,-1.011045,-1.741549,0.999998,0.000193,-0.003188,0.007467,0.000464,0.007488,-0.003208,87.510471,0.007513,
1590,420,-0.866042,-12.603063,0.999997,0.000194,-0.003261,0.007148,0.000281,0.007156,-0.003269,88.456825,0.007165,
1390,1680,-0.278744,-1.865084,0.999998,0.000177,-0.002014,0.005813,-0.000290,0.005823,-0.002025,-87.883880,0.005913,
740,230,0.852045,-13.725551,0.999998,0.000168,-0.002823,0.007331,0.000856,0.007402,-0.002894,85.216426,0.007461,
750,770,2.111430,-9.554438,0.999997,0.000246,-0.004169,0.008116,0.000679,0.008154,-0.004206,86.848076,0.008155,
1450,390,-0.425910,-13.076073,0.999997,0.000214,-0.002310,0.006207,0.000315,0.006219,-0.002322,87.887449,0.006285,
580,840,2.929557,-8.772318,0.999998,0.000156,-0.003399,0.006903,0.000174,0.006906,-0.003402,89.031446,0.006906,
1730,1900,-0.591178,-0.859984,0.999996,0.000210,-0.002306,0.007056,0.001450,0.007276,-0.002526,81.396527,0.007388,
1740,30,-0.054280,-15.057254,0.999998,0.000000,-0.000629,0.005904,-0.002163,0.006556,-0.001280,-73.244326,0.006950,
1790,500,-1.754697,-11.525218,0.999997,0.000193,-0.003842,0.007683,0.000125,0.007684,-0.003844,89.379306,0.007684,
1020,80,0.068440,-14.828824,0.999998,0.000168,-0.000388,0.004911,0.000521,0.004962,-0.000439,84.437907,0.005494,
1280,430,-0.086678,-13.049542,0.999998,0.000157,-0.001780,0.005299,0.000164,0.005303,-0.001784,88.674972,0.005397,
1420,240,-0.225665,-13.995895,0.999998,0.000194,-0.001551,0.005575,-0.000112,0.005577,-0.001553,-89.103553,0.005756,
1490,510,-0.638950,-12.203581,0.999997,0.000220,-0.003380,0.006913,0.000869,0.006986,-0.003453,85.205694,0.006986,
1510,1400,-0.879227,-4.061654,0.999997,0.000225,-0.004572,0.008047,-0.001111,0.008144,-0.004669,-85.006952,0.008173,
1360,1170,-0.850108,-4.825239,0.999994,0.000274,-0.002413,0.005417,-0.003699,0.006888,-0.003884,-68.314048,0.006907,
1500,1310,-1.001904,-4.791396,0.999995,0.000233,-0.005400,0.008990,-0.000931,0.009050,-0.005460,-86.312080,0.009114,
1750,1910,-0.604706,-0.819019,0.999996,0.000217,-0.002897,0.007127,0.001394,0.007317,-0.003087,82.230040,0.007347,
1350,1460,-0.249755,-3.061391,0.999998,0.000196,-0.002667,0.005547,-0.001422,0.005786,-0.002906,-80.452575,0.005786,
880,1110,2.119553,-6.881706,0.999996,0.000246,-0.003388,0.008461,-0.000945,0.008536,-0.003463,-85.469525,0.008587,
670,240,1.118443,-13.499718,0.999998,0.000188,-0.003443,0.007614,0.000576,0.007644,-0.003473,87.025786,0.007655,
810,1300,1.804279,-5.337829,0.999997,0.000256,-0.004578,0.008525,-0.000497,0.008544,-0.004597,-87.832835,0.008552,
1110,770,0.300555,-11.064437,0.999997,0.000226,-0.004031,0.005868,-0.003200,0.006812,-0.004975,-73.559334,0.007049,
1830,140,-0.817053,-14.185018,0.999998,0.000197,-0.003492,0.007858,-0.001069,0.007957,-0.003592,-84.665398,0.007970,
560,1670,1.926614,-3.002883,0.999994,0.000000,-0.004069,0.007405,0.000188,0.007408,-0.004072,89.061558,0.007420,
1320,440,-0.163002,-12.967004,0.999998,0.000146,-0.002036,0.005453,0.000475,0.005483,-0.002066,86.387270,0.005538,
1370,670,-0.311246,-11.558529,0.999997,0.000200,-0.003349,0.005974,0.002190,0.006463,-0.003838,77.416754,0.006501,
850,370,0.855658,-12.909928,0.999998,0.000189,-0.003036,0.007019,-0.000025,0.007020,-0.003036,-89.857455,0.007041,
1140,210,0.085795,-14.206507,0.999998,0.000148,-0.001038,0.005118,0.000073,0.005119,-0.001038,89.321584,0.005412,
1210,600,0.038706,-12.209389,0.999999,0.000138,-0.001809,0.004493,-0.000395,0.004518,-0.001833,-86.424981,0.004544,
1530,1270,-1.282559,-5.287622,0.999996,0.000221,-0.005481,0.009378,-0.000162,0.009380,-0.005483,-89.374420,0.009425,
630,320,1.502751,-12.790313,0.999996,0.000235,-0.003663,0.007522,-0.000010,0.007522,-0.003663,-89.949792,0.007523,
950,1560,0.705198,-2.870223,0.999997,0.000203,-0.003435,0.007015,0.000771,0.007071,-0.003492,85.801866,0.007071,
910,820,1.529901,-9.428839,0.999995,0.000266,-0.005199,0.009412,0.000486,0.009428,-0.005215,88.097071,0.009446,
670,350,1.429662,-12.663799,0.999996,0.000223,-0.003675,0.007580,0.000016,0.007580,-0.003675,89.918974,0.007581,
1050,190,0.163994,-14.273989,0.999998,0.000191,-0.001208,0.005340,0.000253,0.005350,-0.001218,87.794137,0.005608,
1700,620,-1.660783,-10.799695,0.999996,0.000229,-0.004242,0.007997,-0.000011,0.007997,-0.004242,-89.946290,0.008002,
1040,1230,0.812221,-5.075376,0.999995,0.000253,-0.005852,0.009224,0.001922,0.009465,-0.006093,82.849289,0.009595,
1810,1780,-1.291843,-1.928234,0.999997,0.000218,-0.003523,0.007561,0.000285,0.007569,-0.003530,88.525983,0.007575,
1570,1800,-0.513171,-1.351186,0.999997,0.000199,-0.002286,0.006435,0.000399,0.006454,-0.002304,87.388505,0.006541,
1270,1290,-0.065841,-3.525973,0.999998,0.000185,-0.001899,0.002547,-0.001555,0.003037,-0.002388,-72.516828,0.003198,
1660,660,-1.582124,-10.565802,0.999996,0.000229,-0.004458,0.008245,-0.000026,0.008245,-0.004458,-89.880953,0.008255,
1120,1770,0.150889,-1.321764,0.999998,0.000147,-0.001497,0.005466,0.000067,0.005466,-0.001497,89.446268,0.005649,
1480,1010,-1.946471,-7.737891,0.999995,0.000256,-0.003224,0.010605,-0.000153,0.010607,-0.003226,-89.367795,0.010875,
1800,1690,-1.491760,-2.586900,0.999996,0.000232,-0.003700,0.007558,-0.000013,0.007558,-0.003700,-89.934852,0.007559,
1020,930,1.497293,-8.784523,0.999994,0.000272,-0.004787,0.011159,-0.000790,0.011199,-0.004826,-87.170308,0.011234,
1460,1610,-0.495729,-2.410248,0.999998,0.000203,-0.002854,0.006469,-0.000668,0.006517,-0.002902,-85.922026,0.006530,
1800,1120,-2.831159,-6.910331,0.999997,0.000210,-0.003394,0.007121,0.000519,0.007146,-0.003419,87.179556,0.007149,
1740,2020,-0.075590,-0.094587,0.999997,0.000000,-0.000592,0.005931,0.002206,0.006607,-0.001268,72.963272,0.007013,
710,450,1.508018,-12.000685,0.999996,0.000236,-0.003797,0.007610,-0.000146,0.007612,-0.003799,-89.266956,0.007612,
650,100,0.533910,-14.546213,0.999995,0.000257,-0.002313,0.007647,0.002235,0.008126,-0.002792,77.915311,0.008257,
1730,1880,-0.672254,-1.002273,0.999997,0.000218,-0.002566,0.007116,0.001275,0.007281,-0.002731,82.620796,0.007357,
1610,1950,-0.224516,-0.460721,0.999998,0.000193,-0.001003,0.005773,0.001166,0.005968,-0.001198,80.507520,0.006314,
930,1290,1.235347,-5.111195,0.999995,0.000251,-0.005413,0.009219,0.000299,0.009225,-0.005419,88.831723,0.009272,
1020,60,0.040197,-14.928635,0.999998,0.000159,-0.000246,0.004792,0.000498,0.004840,-0.000295,84.408787,0.005427,
1600,830,-1.799393,-9.226921,0.999996,0.000219,-0.004680,0.008920,-0.000819,0.008969,-0.004729,-86.567547,0.008974,
1490,530,-0.659670,-12.063353,0.999997,0.000232,-0.003546,0.007009,0.000961,0.007096,-0.003632,84.838104,0.007096,
800,650,1.571433,-10.642939,0.999995,0.000253,-0.004420,0.008211,-0.000005,0.008211,-0.004420,-89.979567,0.008219,
1830,70,-0.371721,-14.744007,0.999995,0.000270,-0.002885,0.007784,-0.002157,0.008204,-0.003305,-78.993266,0.008255,
1680,370,-1.076903,-12.773751,0.999998,0.000170,-0.003428,0.007335,0.000038,0.007335,-0.003429,89.798786,0.007341,
1290,1460,-0.109724,-2.924591,0.999998,0.000200,-0.002070,0.004796,-0.000868,0.004904,-0.002178,-82.906184,0.004914,
1420,220,-0.202634,-14.107328,0.999998,0.000195,-0.001437,0.005445,-0.000167,0.005449,-0.001441,-88.612940,0.005647,
630,1560,1.907793,-3.660310,0.999998,0.000184,-0.003772,0.007640,0.000099,0.007641,-0.003773,89.505403,0.007642,
1320,420,-0.158864,-13.077388,0.999998,0.000154,-0.002003,0.005487,0.000438,0.005512,-0.002029,86.662776,0.005576,
870,700,1.367643,-10.399975,0.999996,0.000217,-0.004896,0.008627,-0.000175,0.008630,-0.004899,-89.259708,0.008656,
560,1680,1.905325,-2.928204,0.999990,0.000000,-0.004216,0.007248,0.000222,0.007253,-0.004220,88.891758,0.007285,
1750,1890,-0.691067,-0.965045,0.999997,0.000200,-0.003063,0.007260,0.001204,0.007398,-0.003201,83.431926,0.007421,
750,750,2.054144,-9.716194,0.999997,0.000231,-0.004203,0.008067,0.000594,0.008096,-0.004231,87.234326,0.008098,
1350,1170,-0.832603,-4.666416,0.999996,0.000252,-0.001952,0.004665,-0.003531,0.006195,-0.003483,-66.565673,0.006211,
850,350,0.818900,-13.051722,0.999997,0.000182,-0.002909,0.007044,0.000079,0.007044,-0.002909,89.547650,0.007080,
660,1430,2.089804,-4.591423,0.999997,0.000202,-0.003918,0.007735,-0.000142,0.007737,-0.003920,-89.302603,0.007737,
1810,1760,-1.349424,-2.080609,0.999998,0.000202,-0.003569,0.007563,0.000191,0.007566,-0.003573,89.016732,0.007570,
1370,650,-0.309012,-11.677587,0.999997,0.000204,-0.003184,0.005921,0.001967,0.006328,-0.003591,78.317267,0.006347,
1030,1360,0.573579,-4.041375,0.999997,0.000248,-0.004534,0.007568,0.001985,0.007885,-0.004852,80.918066,0.007955,
670,220,1.048676,-13.651311,0.999998,0.000187,-0.003363,0.007603,0.000752,0.007655,-0.003414,86.097688,0.007669,
910,800,1.457216,-9.617507,0.999996,0.000242,-0.005280,0.009309,0.000287,0.009315,-0.005286,88.872941,0.009343,
860,1110,2.185864,-6.896178,0.999997,0.000233,-0.003369,0.008225,-0.000891,0.008293,-0.003437,-85.628717,0.008334,
670,110,0.544514,-14.494567,0.999996,0.000231,-0.002247,0.007452,0.002146,0.007905,-0.002701,78.063571,0.008036,
1020,1230,0.928736,-5.221000,0.999993,0.000305,-0.005866,0.009637,0.001450,0.009772,-0.006000,84.702676,0.009856,
640,1930,0.708109,-0.791908,0.999996,0.000231,-0.003146,0.007898,-0.001474,0.008091,-0.003340,-82.529762,0.008132,
1530,1250,-1.350871,-5.474727,0.999996,0.000240,-0.005471,0.009568,0.000069,0.009568,-0.005472,89.735412,0.009601,
1140,1280,0.200181,-3.855931,0.999996,0.000232,-0.003253,0.004446,0.003086,0.005531,-0.004337,70.640094,0.005821,
1260,400,-0.050970,-13.217749,0.999998,0.000160,-0.001740,0.005317,0.000169,0.005321,-0.001744,88.625444,0.005426,
1110,750,0.278524,-11.179527,0.999996,0.000256,-0.003799,0.005808,-0.002998,0.006667,-0.004658,-74.014756,0.006840,
1590,1740,-0.686507,-1.780908,0.999998,0.000172,-0.002875,0.006890,0.000114,0.006891,-0.002876,89.331425,0.006923,
1050,170,0.142457,-14.378611,0.999998,0.000173,-0.001055,0.005207,0.000269,0.005219,-0.001066,87.544254,0.005514,
1420,490,-0.413569,-12.509808,0.999997,0.000200,-0.002693,0.006265,0.000809,0.006338,-0.002766,84.883090,0.006355,
1800,1670,-1.540979,-2.740143,0.999996,0.000217,-0.003707,0.007584,-0.000049,0.007584,-0.003707,-89.753603,0.007585,
1460,1590,-0.512183,-2.541691,0.999996,0.000241,-0.002974,0.006550,-0.000761,0.006611,-0.003034,-85.462273,0.006618,
980,420,0.539869,-12.824656,0.999997,0.000226,-0.002875,0.006559,-0.000524,0.006588,-0.002904,-86.833293,0.006604,
1610,1930,-0.284962,-0.582246,0.999997,0.000207,-0.001257,0.005907,0.001111,0.006076,-0.001425,81.383011,0.006355,
1430,1060,-1.714488,-7.068526,0.999990,0.000348,-0.005924,0.014827,-0.001401,0.014921,-0.006018,-86.155004,0.015013,
880,1810,0.527967,-1.305843,0.999998,0.000171,-0.002404,0.006501,-0.000454,0.006524,-0.002427,-87.090250,0.006595,
760,750,2.012313,-9.733100,0.999997,0.000221,-0.004262,0.008136,0.000594,0.008165,-0.004290,87.263955,0.008168,
850,700,1.463696,-10.344816,0.999996,0.000236,-0.004776,0.008547,-0.000024,0.008547,-0.004776,-89.895147,0.008567,
560,1690,1.890997,-2.851806,0.999984,0.000000,-0.004393,0.006806,0.000424,0.006822,-0.004410,87.832846,0.006918,
1320,400,-0.154947,-13.188470,0.999998,0.000154,-0.001935,0.005438,0.000380,0.005458,-0.001954,87.059930,0.005531,
850,330,0.780558,-13.195483,0.999997,0.000199,-0.002860,0.007041,0.000123,0.007042,-0.002861,89.286918,0.007083,
1490,550,-0.678849,-11.918875,0.999997,0.000214,-0.003647,0.007137,0.001027,0.007234,-0.003744,84.606649,0.007235,
1280,1470,-0.090198,-2.862037,0.999998,0.000171,-0.001980,0.004776,-0.000621,0.004833,-0.002036,-84.793433,0.004853,
1750,30,-0.063302,-15.053033,0.999998,0.000000,-0.000731,0.005940,-0.002174,0.006586,-0.001377,-73.449711,0.006947,
1420,200,-0.184573,-14.214482,0.999998,0.000210,-0.001293,0.005420,-0.000242,0.005428,-0.001302,-87.938941,0.005668,
1760,370,-1.360037,-12.591927,0.999997,0.000230,-0.003663,0.007581,0.000050,0.007581,-0.003663,89.743684,0.007583,
930,1270,1.298988,-5.297872,0.999995,0.000262,-0.005471,0.009382,0.000120,0.009383,-0.005471,89.537567,0.009426,
1370,630,-0.304317,-11.797855,0.999997,0.000207,-0.003036,0.005885,0.001738,0.006211,-0.003362,79.358229,0.006218,
1000,1230,1.046597,-5.359289,0.999994,0.000321,-0.005863,0.009843,0.000955,0.009901,-0.005921,86.531997,0.009964,
1210,1450,0.038475,-2.934029,0.999998,0.000146,-0.001836,0.004417,0.000414,0.004444,-0.001864,86.231365,0.004464,
1750,1870,-0.772966,-1.109463,0.999997,0.000198,-0.003213,0.007310,0.000983,0.007401,-0.003304,84.707264,0.007415,
940,230,0.377403,-13.973037,0.999998,0.000187,-0.001834,0.006022,0.000407,0.006043,-0.001855,87.045567,0.006191,
900,1790,0.519807,-1.408951,0.999997,0.000187,-0.002213,0.006438,-0.000358,0.006452,-0.002228,-87.635244,0.006555,
1140,430,0.167986,-13.017875,0.999997,0.000203,-0.002017,0.005498,-0.000479,0.005529,-0.002048,-86.366902,0.005590,
1340,1190,-0.634876,-4.433595,0.999997,0.000210,-0.002656,0.004045,-0.002574,0.004920,-0.003531,-71.234459,0.005073,
1820,1980,-0.372998,-0.388753,0.999995,0.000248,-0.002266,0.007680,0.002520,0.008282,-0.002868,76.565256,0.008411,
1730,1500,-1.638967,-3.878182,0.999996,0.000241,-0.004012,0.007818,-0.000097,0.007819,-0.004013,-89.528310,0.007820,
1040,1890,0.149259,-0.719343,0.999998,0.000207,-0.001049,0.005248,-0.000325,0.005264,-0.001066,-87.052068,0.005567,
620,1930,0.780913,-0.864180,0.999998,0.000177,-0.003641,0.007963,-0.001067,0.008060,-0.003738,-84.791797,0.008067,
640,460,1.794066,-11.752851,0.999997,0.000205,-0.003777,0.007599,-0.000125,0.007600,-0.003778,-89.369699,0.007600,
1050,180,0.152555,-14.327405,0.999997,0.000182,-0.001138,0.005269,0.000251,0.005279,-0.001148,87.758143,0.005553,
1660,640,-1.535001,-10.731094,0.999996,0.000226,-0.004394,0.008175,0.000053,0.008175,-0.004394,89.757978,0.008182,
1050,150,0.122534,-14.482896,0.999998,0.000164,-0.000919,0.005168,0.000335,0.005187,-0.000938,86.863286,0.005528,
1510,1460,-0.800619,-3.594156,0.999996,0.000234,-0.004106,0.007601,-0.001057,0.007696,-0.004201,-84.880307,0.007707,
970,960,1.857293,-8.229922,0.999997,0.000193,-0.003608,0.009999,0.000734,0.010039,-0.003648,86.921125,0.010163,
1810,640,-2.154736,-10.397383,0.999997,0.000208,-0.003886,0.007713,-0.000168,0.007715,-0.003888,-89.169824,0.007715,
1790,1030,-2.875534,-7.541949,0.999998,0.000181,-0.003257,0.007079,0.000039,0.007080,-0.003257,89.782610,0.007087,
710,180,0.761359,-14.039577,0.999997,0.000189,-0.003195,0.007318,0.000987,0.007410,-0.003287,84.684689,0.007426,
1260,440,-0.052797,-13.006190,0.999998,0.000193,-0.001797,0.005280,0.000214,0.005286,-0.001804,88.271896,0.005374,
890,920,2.003298,-8.465709,0.999997,0.000195,-0.003783,0.008743,0.001085,0.008836,-0.003876,85.085986,0.008858,
890,630,1.124030,-11.051275,0.999997,0.000195,-0.004499,0.008124,-0.000610,0.008154,-0.004529,-87.237902,0.008170,
600,470,1.965439,-11.579643,0.999998,0.000190,-0.003750,0.007592,-0.000067,0.007592,-0.003750,-89.663581,0.007592,
640,110,0.622038,-14.449031,0.999996,0.000272,-0.002952,0.007883,0.001715,0.008148,-0.003217,81.218152,0.008208,
1640,670,-1.516180,-10.530883,0.999997,0.000250,-0.004569,0.008319,0.000024,0.008319,-0.004569,89.891259,0.008332,
1750,2020,-0.083755,-0.097072,0.999997,0.000000,-0.000813,0.005941,0.002211,0.006601,-0.001472,73.395370,0.006930,
1430,1050,-1.732695,-7.219280,0.999987,0.000464,-0.006121,0.015355,-0.001032,0.015404,-0.006170,-87.256224,0.015505,
850,680,1.414117,-10.516961,0.999996,0.000225,-0.004692,0.008474,-0.000134,0.008476,-0.004694,-89.415249,0.008492,
1370,610,-0.303956,-11.913071,0.999997,0.000201,-0.002916,0.005837,0.001532,0.006097,-0.003176,80.356029,0.006099,
940,330,0.537464,-13.340964,0.999997,0.000208,-0.002446,0.006605,-0.000004,0.006605,-0.002446,-89.974104,0.006679,
790,1030,2.502583,-7.540614,0.999996,0.000235,-0.003058,0.007590,-0.000048,0.007591,-0.003058,-89.741516,0.007638,
560,1700,1.866429,-2.787365,0.999967,0.000000,-0.004532,0.006606,0.000421,0.006621,-0.004548,87.838007,0.006774,
1190,600,0.075367,-12.194629,0.999998,0.000156,-0.001933,0.004610,-0.000552,0.004656,-0.001979,-85.214405,0.004674,
850,310,0.742716,-13.334140,0.999997,0.000207,-0.002814,0.006867,0.000169,0.006870,-0.002817,88.997448,0.006907,
1570,1740,-0.628113,-1.746888,0.999997,0.000211,-0.002678,0.006747,0.000094,0.006748,-0.002679,89.427309,0.006796,
960,230,0.341476,-13.989792,0.999998,0.000184,-0.001875,0.005925,0.000312,0.005938,-0.001887,87.713458,0.006068,
670,70,0.308708,-14.787461,0.999997,0.000214,-0.001075,0.007249,0.002994,0.008213,-0.002040,72.136417,0.008553,
1360,490,-0.258974,-12.634349,0.999997,0.000177,-0.002340,0.005726,0.000775,0.005800,-0.002413,84.560629,0.005827,
1660,1930,-0.344603,-0.605937,0.999998,0.000207,-0.001654,0.006209,0.001317,0.006424,-0.001869,80.738733,0.006609,
1750,1850,-0.846846,-1.258988,0.999997,0.000195,-0.003272,0.007417,0.000799,0.007476,-0.003331,85.749154,0.007491,
1430,1200,-0.985379,-5.427023,0.999997,0.000218,-0.005672,0.010014,-0.001559,0.010168,-0.005825,-84.376973,0.010204,
1140,1260,0.227540,-3.943377,0.999996,0.000231,-0.003420,0.004427,0.003202,0.005568,-0.004561,70.390503,0.005934,
930,1250,1.368988,-5.486395,0.999994,0.000270,-0.005459,0.009534,-0.000091,0.009534,-0.005460,-89.654150,0.009568,
1730,1480,-1.682467,-4.034762,0.999995,0.000254,-0.004050,0.007819,-0.000060,0.007819,-0.004050,-89.711881,0.007821,
1720,1850,-0.758502,-1.206817,0.999998,0.000168,-0.002642,0.007257,0.001090,0.007375,-0.002760,83.789812,0.007452,
590,1910,1.002256,-1.133711,0.999997,0.000195,-0.003620,0.007780,-0.000761,0.007830,-0.003671,-86.198219,0.007835,
1640,1650,-1.006606,-2.516564,0.999998,0.000184,-0.003453,0.007364,-0.000201,0.007368,-0.003456,-88.935830,0.007372,
1340,1180,-0.725922,-4.470334,0.999996,0.000258,-0.002169,0.003842,-0.002750,0.004910,-0.003237,-68.769274,0.004993,
1210,1870,0.017925,-0.777861,0.999998,0.000154,-0.000831,0.004959,-0.000015,0.004959,-0.000831,-89.848118,0.005311,
1820,1960,-0.517291,-0.540438,0.999995,0.000267,-0.002611,0.007744,0.002156,0.008175,-0.003042,78.698541,0.008264,
640,440,1.750503,-11.905219,0.999998,0.000186,-0.003800,0.007575,-0.000100,0.007576,-0.003801,-89.496800,0.007576,
1050,370,0.325517,-13.251411,0.999998,0.000206,-0.002241,0.006038,-0.000340,0.006052,-0.002255,-87.651491,0.006117,
1730,760,-2.154915,-9.610223,0.999998,0.000197,-0.004137,0.008023,-0.000628,0.008056,-0.004169,-87.052879,0.008057,
1660,620,-1.489039,-10.893227,0.999996,0.000225,-0.004318,0.008070,0.000126,0.008071,-0.004320,89.416524,0.008077,
1530,1470,-0.870477,-3.582488,0.999998,0.000205,-0.004105,0.007648,-0.000896,0.007716,-0.004173,-85.665133,0.007724,
1320,380,-0.147941,-13.297736,0.999998,0.000150,-0.001863,0.005511,0.000288,0.005522,-0.001874,87.766355,0.005617,
750,730,1.998724,-9.878701,0.999997,0.000226,-0.004229,0.008090,0.000488,0.008109,-0.004248,87.735771,0.008112,
1030,180,0.175169,-14.317595,0.999998,0.000182,-0.001134,0.005329,0.000321,0.005345,-0.001150,87.164656,0.005626,
1860,2020,-0.222640,-0.202926,0.999983,0.000000,-0.001347,0.007679,0.003508,0.008882,-0.002550,71.071271,0.009146,
1890,670,-2.533949,-9.987531,0.999996,0.000249,-0.003745,0.007555,-0.000080,0.007556,-0.003746,-89.593958,0.007556,
1890,1530,-2.189454,-4.022514,0.999997,0.000191,-0.003760,0.007580,-0.000008,0.007580,-0.003760,-89.960138,0.007581,
1580,820,-1.668362,-9.356376,0.999995,0.000239,-0.004943,0.009108,-0.000672,0.009140,-0.004975,-87.266568,0.009152,
770,980,2.536256,-7.917275,0.999996,0.000224,-0.003179,0.007496,0.000359,0.007508,-0.003191,88.073867,0.007536,
1530,1460,-0.884047,-3.659222,0.999997,0.000198,-0.004154,0.007698,-0.000898,0.007765,-0.004222,-85.693190,0.007775,
1640,650,-1.468405,-10.698900,0.999995,0.000278,-0.004499,0.008272,0.000099,0.008272,-0.004500,89.557285,0.008283,
690,180,0.826854,-13.998697,0.999997,0.000202,-0.003203,0.007417,0.001058,0.007522,-0.003308,84.367414,0.007540,
1610,1910,-0.334269,-0.697483,0.999997,0.000205,-0.001489,0.006019,0.001047,0.006162,-0.001632,82.208593,0.006386,
710,430,1.465341,-12.152220,0.999997,0.000231,-0.003736,0.007599,-0.000120,0.007601,-0.003738,-89.395108,0.007601,
1260,1270,-0.055391,-3.534639,0.999997,0.000228,-0.002072,0.001961,-0.001267,0.002326,-0.002437,-73.928315,0.002752,
1110,1300,0.286352,-3.968434,0.999995,0.000272,-0.003827,0.005843,0.003040,0.006720,-0.004703,73.917889,0.006896,
1370,590,-0.303204,-12.025564,0.999997,0.000185,-0.002828,0.005837,0.001387,0.006054,-0.003045,81.122456,0.006054,
1420,180,-0.160996,-14.324289,0.999998,0.000196,-0.001166,0.005295,-0.000293,0.005308,-0.001180,-87.410415,0.005574,
1720,150,-0.549928,-14.304434,0.999996,0.000226,-0.001966,0.006916,-0.001559,0.007181,-0.002232,-80.329744,0.007351,
1790,1780,-1.221537,-1.880964,0.999998,0.000182,-0.003559,0.007567,0.000327,0.007576,-0.003569,88.320386,0.007581,
640,1430,2.167508,-4.635056,0.999996,0.000252,-0.003842,0.007710,-0.000117,0.007711,-0.003843,-89.422151,0.007711,
1270,350,-0.060009,-13.481974,0.999998,0.000156,-0.001548,0.005334,0.000106,0.005335,-0.001550,89.117513,0.005489,
1460,1010,-1.878149,-7.764058,0.999990,0.000356,-0.003846,0.012027,0.000103,0.012028,-0.003847,89.629655,0.012285,
560,1920,1.051750,-1.163921,0.999996,0.000000,-0.003479,0.008133,-0.000855,0.008195,-0.003541,-85.812272,0.008220,
890,610,1.089839,-11.210375,0.999997,0.000183,-0.004356,0.007942,-0.000645,0.007975,-0.004390,-87.004006,0.007989,
850,290,0.704289,-13.467555,0.999997,0.000207,-0.002733,0.006878,0.000309,0.006888,-0.002743,88.158828,0.006935,
1570,1720,-0.664520,-1.883888,0.999997,0.000188,-0.002882,0.006795,-0.000041,0.006795,-0.002883,-89.757413,0.006821,
1640,1930,-0.317984,-0.594698,0.999998,0.000194,-0.001248,0.006086,0.001309,0.006312,-0.001475,80.180813,0.006604,
930,1230,1.445957,-5.680164,0.999995,0.000250,-0.005375,0.009650,-0.000327,0.009657,-0.005382,-88.754644,0.009678,
1750,1830,-0.919892,-1.406883,0.999997,0.000192,-0.003332,0.007467,0.000633,0.007504,-0.003369,86.656633,0.007517,
1770,360,-1.371848,-12.643703,0.999997,0.000210,-0.003610,0.007560,-0.000012,0.007560,-0.003610,-89.938183,0.007563,
1820,1940,-0.640080,-0.701407,0.999996,0.000244,-0.002901,0.007866,0.001712,0.008132,-0.003167,81.181141,0.008198,
1060,570,0.395100,-12.051693,0.999997,0.000206,-0.003086,0.006234,-0.001369,0.006431,-0.003283,-81.812940,0.006431,
1540,250,-0.447282,-13.829412,0.999997,0.000222,-0.001898,0.006251,-0.000427,0.006273,-0.001920,-87.006789,0.006428,
1210,1890,0.017383,-0.680740,0.999998,0.000165,-0.000717,0.004908,-0.000007,0.004908,-0.000717,-89.933533,0.005302,
710,1980,0.287559,-0.352741,0.999995,0.000236,-0.001739,0.006491,-0.002099,0.006996,-0.002243,-76.488926,0.007144,
1810,1980,-0.362162,-0.378247,0.999997,0.000174,-0.001588,0.007513,0.002835,0.008324,-0.002399,74.039708,0.008569,
580,1910,1.038616,-1.171278,0.999997,0.000213,-0.003535,0.007828,-0.000763,0.007879,-0.003586,-86.173121,0.007889,
950,1860,0.300845,-0.933273,0.999998,0.000174,-0.001580,0.005814,-0.000518,0.005850,-0.001616,-86.011633,0.006042,
660,1980,0.354302,-0.374400,0.999997,0.000219,-0.001321,0.007464,-0.002951,0.008363,-0.002220,-73.054553,0.008664,
640,420,1.706778,-12.058517,0.999997,0.000194,-0.003777,0.007581,-0.000099,0.007582,-0.003778,-89.501811,0.007582,
1860,30,-0.162253,-14.986454,0.999978,0.000000,-0.000025,0.008673,-0.004478,0.010566,-0.001919,-67.079983,0.011258,
1050,130,0.101548,-14.587064,0.999998,0.000168,-0.000784,0.005099,0.000341,0.005119,-0.000804,86.695217,0.005506,
860,830,1.813396,-9.221032,0.999996,0.000225,-0.004682,0.008900,0.000843,0.008952,-0.004734,86.462778,0.008957,
920,150,0.253894,-14.430185,0.999998,0.000176,-0.001085,0.005709,0.000804,0.005803,-0.001179,83.342455,0.006134,
1110,730,0.270243,-11.290705,0.999997,0.000246,-0.003577,0.005715,-0.002804,0.006496,-0.004358,-74.443245,0.006621,
1540,190,-0.330157,-14.198023,0.999997,0.000202,-0.001407,0.005931,-0.000660,0.005990,-0.001465,-84.902560,0.006245,
1400,1190,-0.879874,-5.225189,0.999993,0.000313,-0.005394,0.008986,-0.002456,0.009394,-0.005802,-80.569354,0.009480,
980,1490,0.665365,-3.283902,0.999996,0.000219,-0.003713,0.007165,0.001127,0.007280,-0.003828,84.146534,0.007283,
790,100,0.280022,-14.664272,0.999997,0.000195,-0.001411,0.006079,0.001496,0.006367,-0.001699,79.112144,0.006594,
950,980,1.987480,-8.003776,0.999998,0.000159,-0.003121,0.009345,0.000648,0.009379,-0.003155,87.030958,0.009545,
560,1910,1.105615,-1.243869,0.999992,0.000000,-0.003407,0.007972,-0.000752,0.008021,-0.003456,-86.237193,0.008047,
1370,570,-0.302281,-12.145940,0.999997,0.000181,-0.002751,0.005815,0.001293,0.006006,-0.002942,81.603584,0.006006,
1860,830,-2.827436,-8.884590,0.999997,0.000199,-0.003457,0.006997,-0.000351,0.007008,-0.003469,-88.079719,0.007008,
1790,1070,-2.852037,-7.258790,0.999998,0.000179,-0.003262,0.007017,0.000171,0.007020,-0.003265,89.047299,0.007025,
1280,1310,-0.077608,-3.507765,0.999998,0.000155,-0.001950,0.003041,-0.001789,0.003617,-0.002525,-72.181534,0.003710,
850,270,0.657299,-13.610435,0.999997,0.000216,-0.002585,0.006774,0.000417,0.006792,-0.002604,87.452665,0.006854,
660,710,2.308834,-9.873390,0.999996,0.000230,-0.003871,0.007653,0.000377,0.007665,-0.003883,88.128092,0.007665,
830,1960,0.220944,-0.413798,0.999997,0.000190,-0.000827,0.005738,-0.001329,0.005997,-0.001086,-78.979837,0.006390,
1690,1740,-0.987437,-1.960583,0.999998,0.000190,-0.003267,0.007271,0.000154,0.007274,-0.003269,89.163087,0.007286,
1750,360,-1.299287,-12.692750,0.999996,0.000223,-0.003638,0.007538,0.000022,0.007538,-0.003638,89.888401,0.007539,
1710,1960,-0.308043,-0.444526,0.999997,0.000204,-0.001057,0.006167,0.001790,0.006586,-0.001476,76.819110,0.006912,
1270,330,-0.060193,-13.590124,0.999998,0.000187,-0.001480,0.005342,0.000052,0.005342,-0.001481,89.560898,0.005516,
1810,1840,-1.086357,-1.467094,0.999997,0.000215,-0.003389,0.007722,0.000704,0.007766,-0.003433,86.389962,0.007783,
1050,90,0.061458,-14.786479,0.999998,0.000162,-0.000542,0.004833,0.000376,0.004859,-0.000568,86.021569,0.005313,
890,590,1.056505,-11.369507,0.999997,0.000200,-0.004233,0.007884,-0.000673,0.007921,-0.004271,-86.832962,0.007929,
1540,230,-0.408167,-13.956981,0.999997,0.000203,-0.001730,0.006141,-0.000521,0.006175,-0.001764,-86.229511,0.006362,
1750,1810,-0.986252,-1.559857,0.999997,0.000224,-0.003384,0.007518,0.000493,0.007540,-0.003406,87.418024,0.007552,
930,1210,1.525225,-5.874342,0.999995,0.000269,-0.005227,0.009617,-0.000549,0.009637,-0.005247,-87.884711,0.009649,
1860,1390,-2.409301,-5.022386,0.999996,0.000228,-0.003769,0.007528,0.000170,0.007531,-0.003771,89.139799,0.007531,
790,1040,2.497390,-7.464087,0.999996,0.000233,-0.003065,0.007596,-0.000197,0.007600,-0.003069,-88.939229,0.007647,
640,400,1.661334,-12.207620,0.999996,0.000217,-0.003735,0.007579,-0.000099,0.007580,-0.003736,-89.497704,0.007580,
1300,790,-0.150124,-11.370661,0.999997,0.000194,-0.002763,0.003352,0.002689,0.004366,-0.003778,69.333892,0.004738,
1140,1240,0.275918,-4.028026,0.999996,0.000236,-0.003626,0.004243,0.003082,0.005307,-0.004689,70.962037,0.005804,
1480,490,-0.592000,-12.364585,0.999997,0.000193,-0.003087,0.006732,0.000775,0.006793,-0.003148,85.516974,0.006799,
1430,1040,-1.741219,-7.375064,0.999987,0.000554,-0.006242,0.015416,-0.000589,0.015432,-0.006258,-88.444053,0.015524,
1360,1710,-0.208425,-1.666451,0.999997,0.000208,-0.001738,0.005560,-0.000189,0.005565,-0.001743,-88.517546,0.005693,
1210,1910,0.012689,-0.581291,0.999998,0.000179,-0.000626,0.004823,-0.000015,0.004823,-0.000626,-89.837624,0.005245,
1060,550,0.388337,-12.176768,0.999998,0.000195,-0.002920,0.006212,-0.001176,0.006361,-0.003069,-82.777287,0.006362,
660,1960,0.488448,-0.528401,0.999996,0.000243,-0.001897,0.007421,-0.002526,0.008061,-0.002537,-75.767618,0.008244,
1850,2020,-0.199677,-0.182999,0.999996,0.000000,-0.002392,0.006988,0.002673,0.007696,-0.003100,75.159106,0.007744,
800,1810,0.724787,-1.407768,0.999997,0.000190,-0.002858,0.006985,-0.000598,0.007021,-0.002894,-86.533970,0.007057,
720,590,1.769228,-10.936782,0.999997,0.000207,-0.004049,0.007848,0.000004,0.007848,-0.004049,89.979790,0.007850,
1790,1980,-0.340512,-0.372111,0.999997,0.000203,-0.001248,0.007234,0.002876,0.008117,-0.002131,72.927096,0.008417,
1820,1920,-0.752740,-0.862232,0.999996,0.000232,-0.003141,0.007805,0.001425,0.007987,-0.003324,82.705166,0.008025,
1880,600,-2.324006,-10.545659,0.999995,0.000258,-0.003796,0.007658,-0.000017,0.007658,-0.003796,-89.914033,0.007658,
1530,1230,-1.427987,-5.670271,0.999997,0.000211,-0.005406,0.009677,0.000289,0.009682,-0.005411,88.901056,0.009705,
690,1900,0.719422,-0.934666,0.999997,0.000222,-0.003094,0.007451,-0.001365,0.007624,-0.003268,-82.744292,0.007650,
1320,360,-0.141477,-13.409467,0.999998,0.000166,-0.001765,0.005531,0.000225,0.005538,-0.001772,88.232850,0.005657,
1400,1170,-0.998508,-5.421187,0.999994,0.000309,-0.004927,0.009145,-0.002851,0.009701,-0.005483,-78.971910,0.009728,
790,80,0.212981,-14.779055,0.999998,0.000176,-0.001105,0.005834,0.001518,0.006152,-0.001423,78.182633,0.006441,
1660,600,-1.446147,-11.055798,0.999997,0.000209,-0.004231,0.007983,0.000157,0.007985,-0.004233,89.264572,0.007990,
750,710,1.944105,-10.040957,0.999997,0.000244,-0.004259,0.008074,0.000406,0.008087,-0.004272,88.117419,0.008092,
1000,1490,0.592320,-3.220082,0.999996,0.000225,-0.003564,0.006963,0.001197,0.007097,-0.003698,83.595578,0.007099,
950,960,1.928587,-8.190738,0.999995,0.000246,-0.003469,0.009460,0.000874,0.009519,-0.003528,86.149519,0.009625,
560,1900,1.155229,-1.329802,0.999986,0.000000,-0.003422,0.007792,-0.000594,0.007823,-0.003453,-86.976044,0.007841,
1370,550,-0.297381,-12.258725,0.999997,0.000188,-0.002707,0.005800,0.001214,0.005970,-0.002877,82.035942,0.005971,
1280,1330,-0.076932,-3.445824,0.999998,0.000170,-0.001896,0.003301,-0.001643,0.003776,-0.002372,-73.846553,0.003817,
940,1790,0.438021,-1.363704,0.999997,0.000218,-0.002070,0.006190,-0.000267,0.006199,-0.002079,-88.151957,0.006310,
1800,560,-1.925431,-11.038422,0.999997,0.000200,-0.003865,0.007678,0.000022,0.007678,-0.003865,89.890271,0.007678,
1110,180,0.099150,-14.348752,0.999998,0.000160,-0.000860,0.005062,0.000145,0.005066,-0.000864,88.595566,0.005420,
1810,120,-0.642548,-14.394396,0.999996,0.000230,-0.002665,0.007791,-0.001926,0.008134,-0.003008,-79.889079,0.008226,
1790,1840,-1.019714,-1.423178,0.999997,0.000203,-0.003365,0.007644,0.000777,0.007698,-0.003420,85.984883,0.007714,
1520,230,-0.372162,-13.975348,0.999998,0.000184,-0.001835,0.006015,-0.000392,0.006035,-0.001855,-87.144874,0.006182,
640,380,1.613660,-12.363162,0.999996,0.000213,-0.003715,0.007580,-0.000069,0.007580,-0.003716,-89.651542,0.007581,
1880,750,-2.700444,-9.416963,0.999997,0.000226,-0.003625,0.007351,-0.000186,0.007354,-0.003628,-89.027870,0.007355,
1050,70,0.044843,-14.881958,0.999998,0.000168,-0.000395,0.004777,0.000388,0.004806,-0.000424,85.736210,0.005322,
930,1190,1.608028,-6.063255,0.999996,0.000262,-0.004990,0.009600,-0.000767,0.009640,-0.005030,-87.000529,0.009643,
1660,1510,-1.335814,-3.627335,0.999997,0.000227,-0.004031,0.007828,-0.000290,0.007835,-0.004038,-88.599133,0.007836,
890,1010,2.202037,-7.706125,0.999997,0.000219,-0.002761,0.008192,0.000292,0.008200,-0.002769,88.474732,0.008342,
1180,1200,0.353590,-3.795153,0.999994,0.000287,-0.004782,0.002109,0.000110,0.002111,-0.004784,89.086465,0.004795,
580,450,1.996300,-11.684192,0.999997,0.000200,-0.003646,0.007517,-0.000040,0.007517,-0.003646,-89.795242,0.007519,
1820,1900,-0.857003,-1.017718,0.999997,0.000223,-0.003229,0.007772,0.001150,0.007891,-0.003348,84.093784,0.007921,
1270,310,-0.054664,-13.696992,0.999998,0.000174,-0.001402,0.005268,0.000055,0.005269,-0.001402,89.531374,0.005457,
1440,930,-1.482892,-8.807899,0.999993,0.000319,-0.004810,0.011207,0.000926,0.011260,-0.004863,86.701576,0.011295,
1140,1220,0.354166,-4.111084,0.999994,0.000304,-0.003416,0.004016,0.002678,0.004881,-0.004281,72.110874,0.005323,
690,1880,0.806708,-1.084957,0.999997,0.000230,-0.003222,0.007427,-0.001146,0.007549,-0.003344,-83.925776,0.007565,
1540,770,-1.288315,-9.939179,0.999994,0.000271,-0.005372,0.009218,0.000163,0.009220,-0.005374,89.359129,0.009262,
740,850,2.378770,-8.899264,0.999996,0.000245,-0.003851,0.007819,0.000846,0.007880,-0.003912,85.873381,0.007880,
660,1940,0.597873,-0.675516,0.999997,0.000230,-0.002421,0.007681,-0.002137,0.008114,-0.002854,-78.535549,0.008232,
1850,30,-0.155290,-14.986855,0.999981,0.000000,-0.001160,0.007788,-0.003581,0.009045,-0.002416,-70.662159,0.009366,
880,110,0.210182,-14.640428,0.999998,0.000196,-0.001188,0.005680,0.001016,0.005827,-0.001335,81.756032,0.006106,
820,1770,0.768351,-1.656962,0.999998,0.000169,-0.002749,0.007059,-0.000413,0.007076,-0.002766,-87.590499,0.007132,
1750,1790,-1.049826,-1.709225,0.999997,0.000221,-0.003456,0.007526,0.000372,0.007538,-0.003469,88.063450,0.007546,
1320,340,-0.136178,-13.518882,0.999998,0.000173,-0.001702,0.005418,0.000180,0.005423,-0.001707,88.555021,0.005545,
1530,1190,-1.594123,-6.055236,0.999996,0.000243,-0.005045,0.009639,0.000732,0.009675,-0.005082,87.151390,0.009679,
1110,710,0.262665,-11.408108,0.999997,0.000228,-0.003387,0.005618,-0.002569,0.006299,-0.004068,-75.146585,0.006388,
750,690,1.887770,-10.204152,0.999997,0.000253,-0.004282,0.008086,0.000316,0.008094,-0.004290,88.537349,0.008099,
850,250,0.612789,-13.741875,0.999997,0.000225,-0.002442,0.006690,0.000557,0.006724,-0.002476,86.523047,0.006801,
1300,730,-0.117868,-11.583704,0.999996,0.000231,-0.002253,0.003823,0.002157,0.004511,-0.002941,72.315016,0.004580,
1210,1930,0.013757,-0.485220,0.999998,0.000167,-0.000526,0.004768,-0.000002,0.004768,-0.000526,-89.979051,0.005228,
1040,1210,0.898380,-5.267943,0.999994,0.000311,-0.005689,0.009593,0.001840,0.009812,-0.005908,83.231524,0.009880,
820,130,0.336528,-14.493819,0.999997,0.000220,-0.001364,0.006125,0.001280,0.006338,-0.001577,80.564753,0.006599,
580,1470,2.299654,-4.467897,0.999996,0.000221,-0.003338,0.007815,0.000063,0.007816,-0.003339,89.677835,0.007843,
930,980,2.048053,-7.980333,0.999997,0.000223,-0.002982,0.008955,0.000704,0.008997,-0.003023,86.636342,0.009157,
1660,580,-1.404719,-11.213846,0.999997,0.000214,-0.004169,0.007916,0.000221,0.007920,-0.004174,88.953843,0.007924,
560,1890,1.205076,-1.402145,0.999970,0.000000,-0.003379,0.007847,-0.000366,0.007859,-0.003391,-88.136669,0.007883,
1370,530,-0.295427,-12.378284,0.999997,0.000193,-0.002656,0.005874,0.001111,0.006017,-0.002798,82.702560,0.006021,
1320,790,-0.210114,-11.222688,0.999996,0.000237,-0.003264,0.004320,0.003139,0.005451,-0.004395,70.190959,0.005782,
1210,840,0.118771,-11.509197,0.999990,0.000372,-0.005150,0.002187,0.000016,0.002187,-0.005150,89.876152,0.005169,
920,1790,0.479720,-1.386549,0.999997,0.000236,-0.002004,0.006322,-0.000341,0.006336,-0.002018,-87.658344,0.006474,
1190,1300,0.065570,-3.510395,0.999998,0.000177,-0.001838,0.002721,0.001609,0.003231,-0.002349,72.391867,0.003340,
910,1040,2.153938,-7.455240,0.999997,0.000195,-0.002685,0.008460,-0.000246,0.008466,-0.002691,-88.734804,0.008651,
1090,180,0.115210,-14.342029,0.999998,0.000153,-0.000818,0.005118,0.000214,0.005125,-0.000825,87.937195,0.005504,
1860,1370,-2.459103,-5.174050,0.999997,0.000204,-0.003755,0.007551,0.000183,0.007554,-0.003758,89.071173,0.007554,
660,1870,0.945676,-1.220200,0.999996,0.000247,-0.003145,0.007668,-0.001096,0.007778,-0.003255,-84.267551,0.007812,
670,460,1.679954,-11.826179,0.999997,0.000203,-0.003774,0.007592,-0.000123,0.007593,-0.003776,-89.381385,0.007593,
780,1930,0.391319,-0.624113,0.999997,0.000229,-0.001752,0.006414,-0.001510,0.006685,-0.002023,-79.849859,0.006856,
930,1170,1.699004,-6.260728,0.999996,0.000246,-0.004698,0.009556,-0.000937,0.009617,-0.004759,-86.255520,0.009618,
890,1030,2.216410,-7.539512,0.999997,0.000236,-0.002737,0.008255,-0.000047,0.008255,-0.002737,-89.756099,0.008410,
970,220,0.306217,-14.058390,0.999998,0.000178,-0.001717,0.005774,0.000336,0.005789,-0.001732,87.439664,0.005942,
1890,740,-2.710075,-9.467818,0.999997,0.000232,-0.003653,0.007362,-0.000151,0.007364,-0.003655,-89.214478,0.007364,
1040,1980,0.054642,-0.262517,0.999998,0.000146,-0.000415,0.004837,-0.000426,0.004871,-0.000449,-85.392444,0.005384,
1280,1200,-0.336803,-3.771501,0.999991,0.000363,-0.005010,0.002116,-0.000037,0.002116,-0.005011,-89.702624,0.005031,
1010,1990,0.049948,-0.217080,0.999999,0.000130,-0.000242,0.004880,-0.000565,0.004942,-0.000304,-83.781533,0.005540,
640,360,1.568136,-12.511954,0.999997,0.000214,-0.003708,0.007544,-0.000013,0.007544,-0.003708,-89.934926,0.007544,
1820,1880,-0.953530,-1.177374,0.999997,0.000209,-0.003330,0.007792,0.000966,0.007875,-0.003413,85.070529,0.007899,
910,780,1.389654,-9.803226,0.999994,0.000275,-0.005306,0.009238,0.000097,0.009239,-0.005307,89.615970,0.009273,
1620,690,-1.471863,-10.412675,0.999994,0.000274,-0.004744,0.008511,0.000024,0.008511,-0.004744,89.897040,0.008529,
1680,770,-1.970166,-9.606510,0.999997,0.000183,-0.004372,0.008307,-0.000645,0.008339,-0.004404,-87.096860,0.008344,
1460,1760,-0.353366,-1.477593,0.999997,0.000198,-0.001798,0.005959,0.000092,0.005960,-0.001799,89.317977,0.006114,
660,1920,0.711347,-0.835296,0.999997,0.000241,-0.002705,0.007685,-0.001836,0.008000,-0.003020,-80.268171,0.008079,
1840,2020,-0.170998,-0.155445,0.999998,0.000000,-0.002862,0.006622,0.002240,0.007124,-0.003364,77.358660,0.007128,
780,1810,0.783625,-1.443413,0.999997,0.000194,-0.002960,0.007132,-0.000623,0.007170,-0.002998,-86.483057,0.007202,
1270,290,-0.053857,-13.801157,0.999998,0.000144,-0.001316,0.005261,0.000034,0.005261,-0.001316,89.700907,0.005475,
800,1770,0.827270,-1.692448,0.999998,0.000189,-0.003076,0.007177,-0.000344,0.007189,-0.003087,-88.081047,0.007213,
1420,930,-1.385391,-8.991496,0.999993,0.000303,-0.004938,0.011146,0.002567,0.011545,-0.005338,81.148932,0.011556,
1800,540,-1.881833,-11.192983,0.999997,0.000208,-0.003860,0.007669,0.000059,0.007669,-0.003860,89.706500,0.007669,
560,1880,1.251262,-1.476177,0.999968,0.000000,-0.003388,0.007699,-0.000246,0.007705,-0.003394,-88.729716,0.007723,
1770,1900,-0.708958,-0.927226,0.999996,0.000213,-0.003025,0.007428,0.001367,0.007604,-0.003201,82.671912,0.007636,
800,130,0.368713,-14.482480,0.999997,0.000223,-0.001800,0.006252,0.001283,0.006451,-0.001999,81.164782,0.006605,
1750,1770,-1.105424,-1.860429,0.999998,0.000204,-0.003544,0.007518,0.000265,0.007524,-0.003551,88.626875,0.007528,
1280,730,-0.076861,-11.658060,0.999999,0.000147,-0.001895,0.003269,0.001641,0.003746,-0.002373,73.781034,0.003790,
1370,510,-0.288556,-12.497629,0.999997,0.000181,-0.002575,0.005829,0.000984,0.005943,-0.002688,83.407117,0.005952,
1220,420,0.021007,-13.120261,0.999998,0.000168,-0.001793,0.005266,-0.000146,0.005269,-0.001796,-88.815337,0.005357,
570,1420,2.475301,-4.869799,0.999355,0.003025,-0.005002,0.007618,-0.000719,0.007659,-0.005043,-86.749691,0.007786,
710,980,2.729003,-7.905944,0.999997,0.000208,-0.003272,0.007168,0.000223,0.007173,-0.003277,88.774298,0.007182,
750,890,2.441837,-8.597884,0.999996,0.000222,-0.003674,0.007818,0.000885,0.007886,-0.003742,85.622316,0.007890,
1320,320,-0.127485,-13.625792,0.999998,0.000172,-0.001612,0.005422,0.000104,0.005424,-0.001614,89.151542,0.005570,
850,230,0.561564,-13.878986,0.999997,0.000236,-0.002259,0.006586,0.000658,0.006634,-0.002307,85.769908,0.006736,
830,1900,0.397323,-0.775273,0.999997,0.000205,-0.001496,0.006311,-0.001181,0.006486,-0.001671,-81.582570,0.006735,
740,270,0.974529,-13.428752,0.999997,0.000222,-0.003063,0.007417,0.000544,0.007445,-0.003091,87.033894,0.007481,
1110,690,0.255730,-11.524085,0.999996,0.000244,-0.003195,0.005595,-0.002334,0.006176,-0.003776,-76.015275,0.006227,
640,1870,1.009260,-1.266134,0.999997,0.000195,-0.003422,0.007741,-0.000788,0.007797,-0.003478,-85.982545,0.007812,
910,180,0.330641,-14.248591,0.999997,0.000204,-0.001373,0.005912,0.000721,0.005983,-0.001444,84.399763,0.006244,
780,1910,0.459093,-0.750436,0.999998,0.000186,-0.002084,0.006560,-0.001312,0.006755,-0.002278,-81.556525,0.006873,
1200,1330,0.046592,-3.395832,0.999998,0.000170,-0.001659,0.003005,0.001090,0.003247,-0.001901,77.470638,0.003263,
990,220,0.277524,-14.072723,0.999998,0.000152,-0.001420,0.005687,0.000364,0.005706,-0.001438,87.071796,0.005935,
1040,1960,0.071640,-0.361248,0.999998,0.000174,-0.000554,0.004921,-0.000411,0.004952,-0.000585,-85.732877,0.005412,
1530,1170,-1.685770,-6.251181,0.999997,0.000219,-0.004744,0.009611,0.000911,0.009668,-0.004802,86.383438,0.009668,
1290,300,-0.081020,-13.743595,0.999999,0.000143,-0.001309,0.005296,-0.000004,0.005296,-0.001309,-89.966549,0.005517,
1700,1010,-2.577723,-7.692009,0.999997,0.000210,-0.003142,0.007462,-0.000222,0.007466,-0.003146,-88.801492,0.007497,
640,340,1.517900,-12.665978,0.999997,0.000227,-0.003703,0.007547,0.000003,0.007547,-0.003703,89.984508,0.007548,
1220,790,0.024141,-11.614698,0.999998,0.000168,-0.002095,0.001665,-0.000508,0.001733,-0.002162,-82.441173,0.002289,
870,940,2.140030,-8.272886,0.999998,0.000194,-0.003429,0.008407,0.000987,0.008488,-0.003511,85.264383,0.008531,
660,1900,0.808760,-0.986674,0.999998,0.000215,-0.002888,0.007687,-0.001506,0.007897,-0.003099,-82.050141,0.007958,
1840,1390,-2.332421,-4.980554,0.999997,0.000212,-0.003829,0.007576,0.000214,0.007580,-0.003833,88.926150,0.007580,
1660,770,-1.881452,-9.640719,0.999997,0.000227,-0.004512,0.008485,-0.000615,0.008514,-0.004541,-87.298539,0.008520,
1440,1810,-0.262565,-1.168711,0.999998,0.000160,-0.001551,0.005719,0.000187,0.005724,-0.001556,88.526088,0.005919,
1840,30,-0.138496,-15.001338,0.999995,0.000000,-0.002219,0.007130,-0.002838,0.007924,-0.003013,-74.369235,0.008000,
890,1050,2.199554,-7.372439,0.999997,0.000211,-0.002785,0.008211,-0.000349,0.008222,-0.002796,-88.182873,0.008361,
1040,990,1.660241,-8.163559,0.999981,0.000511,-0.006247,0.015365,-0.002098,0.015567,-0.006449,-84.506222,0.015643,
1140,840,0.376782,-10.985940,0.999993,0.000318,-0.003306,0.003869,-0.002464,0.004634,-0.004070,-72.761949,0.005057,
750,980,2.599459,-7.912189,0.999997,0.000206,-0.003254,0.007381,0.000309,0.007389,-0.003263,88.337414,0.007406,
1620,710,-1.523457,-10.242697,0.999996,0.000262,-0.004801,0.008563,-0.000074,0.008563,-0.004801,-89.682598,0.008584,
630,360,1.604243,-12.488904,0.999996,0.000238,-0.003678,0.007540,-0.000044,0.007540,-0.003678,-89.775391,0.007541,
930,1150,1.783617,-6.447305,0.999996,0.000250,-0.004334,0.009483,-0.001056,0.009563,-0.004415,-85.653764,0.009573,
1270,270,-0.049217,-13.908417,0.999998,0.000147,-0.001212,0.005218,0.000011,0.005218,-0.001212,89.903424,0.005461,
1370,490,-0.283343,-12.614447,0.999997,0.000184,-0.002473,0.005824,0.000870,0.005914,-0.002563,84.078734,0.005932,
1730,1740,-1.117788,-2.041071,0.999998,0.000175,-0.003372,0.007436,0.000194,0.007439,-0.003376,88.972083,0.007450,
570,1410,2.502045,-4.947277,0.999326,0.003131,-0.005747,0.007653,-0.000706,0.007690,-0.005784,-86.993781,0.008009,
910,760,1.327055,-9.986808,0.999995,0.000241,-0.005276,0.009160,-0.000099,0.009161,-0.005276,-89.605637,0.009196,
1830,150,-0.869947,-14.108171,0.999998,0.000197,-0.003523,0.007816,-0.000942,0.007894,-0.003601,-85.285363,0.007904,
840,40,0.060722,-15.011268,0.999998,0.000163,-0.000080,0.005186,0.001291,0.005485,-0.000380,76.943149,0.006127,
1590,1900,-0.329921,-0.747605,0.999998,0.000209,-0.001669,0.006028,0.000915,0.006136,-0.001776,83.315945,0.006314,
850,210,0.515734,-14.005434,0.999997,0.000209,-0.002073,0.006466,0.000768,0.006534,-0.002142,84.900856,0.006662,
1660,560,-1.365901,-11.372880,0.999996,0.000229,-0.004101,0.007876,0.000264,0.007882,-0.004107,88.736338,0.007884,
1600,2000,-0.086519,-0.185780,0.999998,0.000163,-0.000482,0.005254,0.001139,0.005472,-0.000700,79.166225,0.005955,
740,250,0.915174,-13.577426,0.999998,0.000167,-0.002968,0.007415,0.000688,0.007460,-0.003013,86.225709,0.007506,
1750,1750,-1.162708,-2.010303,0.999997,0.000211,-0.003595,0.007508,0.000158,0.007510,-0.003598,89.183400,0.007512,
1140,730,0.176901,-11.467075,0.999997,0.000222,-0.002764,0.004656,-0.002589,0.005470,-0.003578,-72.542497,0.005556,
1110,670,0.256743,-11.633132,0.999996,0.000227,-0.003019,0.005568,-0.002085,0.006047,-0.003498,-77.046040,0.006072,
760,220,0.766864,-13.826061,0.999997,0.000201,-0.002716,0.007109,0.000932,0.007197,-0.002803,84.626754,0.007255,
1200,1310,0.047625,-3.452172,0.999998,0.000175,-0.001666,0.002680,0.001210,0.002994,-0.001980,75.448715,0.003046,
1420,1100,-1.520607,-6.428198,0.999986,0.000435,-0.005349,0.013038,-0.003067,0.013536,-0.005847,-80.774336,0.013578,
1220,400,0.021367,-13.224984,0.999998,0.000172,-0.001728,0.005295,-0.000129,0.005297,-0.001730,-88.950303,0.005402,
850,940,2.206861,-8.259527,0.999997,0.000187,-0.003418,0.008208,0.000903,0.008277,-0.003488,85.582574,0.008311,
950,220,0.343331,-14.039961,0.999998,0.000172,-0.001779,0.005871,0.000379,0.005890,-0.001797,87.172484,0.006037,
890,180,0.358846,-14.234159,0.999997,0.000201,-0.001757,0.006026,0.000734,0.006095,-0.001825,84.657129,0.006256,
1320,300,-0.119476,-13.735809,0.999998,0.000160,-0.001506,0.005373,0.000089,0.005375,-0.001507,89.261763,0.005545,
640,1850,1.091129,-1.420885,0.999997,0.000209,-0.003484,0.007748,-0.000580,0.007778,-0.003514,-87.053346,0.007790,
1040,1940,0.096419,-0.460926,0.999998,0.000162,-0.000691,0.005054,-0.000420,0.005085,-0.000722,-85.840295,0.005502,
1190,580,0.076198,-12.286021,0.999998,0.000160,-0.001943,0.004778,-0.000480,0.004812,-0.001977,-85.933667,0.004837,
640,320,1.465695,-12.817413,0.999997,0.000219,-0.003660,0.007542,0.000033,0.007542,-0.003661,89.832749,0.007543,
1530,1150,-1.769178,-6.441180,0.999997,0.000205,-0.004402,0.009516,0.001023,0.009591,-0.004477,85.818922,0.009598,
640,770,2.544168,-9.382677,0.999997,0.000192,-0.003717,0.007453,0.000484,0.007474,-0.003738,87.522111,0.007474,
930,1130,1.870317,-6.641933,0.999996,0.000233,-0.003971,0.009325,-0.001047,0.009407,-0.004052,-85.526160,0.009437,
890,1070,2.178694,-7.210318,0.999998,0.000207,-0.002932,0.008303,-0.000601,0.008335,-0.002964,-86.946366,0.008450,
1420,990,-1.646114,-8.182733,0.999985,0.000474,-0.006430,0.015973,0.002303,0.016207,-0.006665,84.191694,0.016292,
800,110,0.300192,-14.605816,0.999997,0.000229,-0.001506,0.006146,0.001430,0.006404,-0.001764,79.752142,0.006616,
730,980,2.664409,-7.908842,0.999997,0.000194,-0.003264,0.007277,0.000279,0.007284,-0.003271,88.484816,0.007297,
1310,300,-0.106644,-13.739692,0.999998,0.000146,-0.001413,0.005349,0.000036,0.005349,-0.001413,89.698784,0.005544,
560,1870,1.292319,-1.565242,0.999948,0.000000,-0.003499,0.007507,-0.000292,0.007515,-0.003507,-88.482104,0.007520,
1140,820,0.295085,-11.073388,0.999996,0.000246,-0.003569,0.004231,-0.003056,0.005286,-0.004623,-70.959887,0.005759,
1370,470,-0.275580,-12.733496,0.999998,0.000164,-0.002373,0.005846,0.000725,0.005910,-0.002437,84.997629,0.005940,
1030,640,0.531086,-11.480797,0.999995,0.000265,-0.003935,0.007020,-0.001750,0.007293,-0.004208,-81.141576,0.007322,
660,1880,0.903292,-1.143809,0.999997,0.000223,-0.003085,0.007679,-0.001230,0.007818,-0.003224,-83.561013,0.007858,
1800,520,-1.836724,-11.346825,0.999997,0.000190,-0.003845,0.007682,0.000091,0.007683,-0.003846,89.549101,0.007683,
1660,540,-1.325665,-11.531380,0.999997,0.000206,-0.004027,0.007806,0.000279,0.007812,-0.004034,88.650468,0.007814,
1480,110,-0.122475,-14.673100,0.999998,0.000183,-0.000688,0.005232,-0.000612,0.005294,-0.000751,-84.157380,0.005729,
1270,250,-0.046231,-14.008855,0.999998,0.000139,-0.001118,0.005134,-0.000028,0.005134,-0.001118,-89.744130,0.005399,
860,1570,1.011669,-3.024107,0.999997,0.000225,-0.003687,0.007442,0.000421,0.007458,-0.003703,87.835167,0.007458,
1610,1890,-0.393494,-0.825790,0.999998,0.000191,-0.001707,0.006209,0.001004,0.006335,-0.001832,82.880109,0.006520,
1260,430,-0.051369,-13.059243,0.999998,0.000196,-0.001788,0.005284,0.000208,0.005290,-0.001794,88.317545,0.005380,
710,410,1.422488,-12.304097,0.999997,0.000215,-0.003683,0.007591,-0.000093,0.007592,-0.003684,-89.525239,0.007593,
1890,1420,-2.446207,-4.865276,0.999997,0.000212,-0.003827,0.007558,0.000083,0.007559,-0.003827,89.582496,0.007559,
1830,2020,-0.137627,-0.130245,0.999998,0.000000,-0.002517,0.006527,0.002284,0.007071,-0.003061,76.603536,0.007093,
960,1430,0.809158,-3.802975,0.999997,0.000197,-0.004312,0.007723,0.001147,0.007832,-0.004420,84.605415,0.007853,
590,80,0.593572,-14.521894,0.999996,0.000227,-0.003652,0.009072,0.002168,0.009432,-0.004011,80.591628,0.009467,
810,300,0.830921,-13.339083,0.999998,0.000191,-0.003007,0.007088,0.000278,0.007096,-0.003015,88.422040,0.007122,
1490,570,-0.697029,-11.775065,0.999997,0.000213,-0.003753,0.007251,0.001087,0.007357,-0.003859,84.414213,0.007360,
1830,1430,-2.194848,-4.652187,0.999998,0.000188,-0.003830,0.007662,0.000109,0.007663,-0.003831,89.455612,0.007663,
750,1980,0.230868,-0.325005,0.999997,0.000192,-0.000822,0.005961,-0.001861,0.006438,-0.001299,-75.621132,0.006809,
1440,1790,-0.282806,-1.281159,0.999998,0.000163,-0.001683,0.005727,0.000105,0.005728,-0.001684,89.188062,0.005888,
1000,730,0.772304,-10.637761,0.999994,0.000292,-0.005235,0.008496,-0.001621,0.008685,-0.005424,-83.355955,0.008774,
1590,1920,-0.279330,-0.627579,0.999998,0.000192,-0.001461,0.005830,0.000930,0.005947,-0.001577,82.846801,0.006161,
850,190,0.458428,-14.138474,0.999997,0.000205,-0.001873,0.006378,0.000866,0.006468,-0.001962,84.074396,0.006633,
850,300,0.723166,-13.401317,0.999997,0.000208,-0.002772,0.006842,0.000234,0.006848,-0.002778,88.607807,0.006888,
790,1050,2.491870,-7.389039,0.999997,0.000209,-0.003070,0.007580,-0.000260,0.007586,-0.003077,-88.604134,0.007631,
1060,1690,0.300096,-1.822800,0.999997,0.000203,-0.002131,0.005898,0.000324,0.005911,-0.002144,87.689649,0.005985,
1710,1740,-1.052677,-2.001369,0.999997,0.000210,-0.003229,0.007335,0.000203,0.007339,-0.003233,88.901971,0.007357,
1110,650,0.257438,-11.743696,0.999997,0.000207,-0.002870,0.005568,-0.001869,0.005963,-0.003265,-78.052598,0.005972,
760,730,1.955023,-9.898297,0.999997,0.000219,-0.004296,0.008162,0.000479,0.008180,-0.004314,87.802484,0.008184,
970,330,0.463157,-13.386962,0.999997,0.000209,-0.002415,0.006372,-0.000129,0.006374,-0.002417,-89.158351,0.006436,
910,1620,0.767513,-2.543447,0.999998,0.000172,-0.003291,0.007101,0.000426,0.007118,-0.003308,87.657857,0.007124,
1710,1300,-2.056629,-5.438734,0.999997,0.000205,-0.004220,0.008119,0.000619,0.008150,-0.004251,87.134985,0.008152,
860,40,0.057484,-15.012497,0.999998,0.000145,-0.000250,0.005109,0.001087,0.005321,-0.000462,78.955596,0.005896,
620,770,2.618341,-9.345752,0.999997,0.000207,-0.003665,0.007384,0.000395,0.007398,-0.003679,87.953522,0.007398,
1010,1970,0.078225,-0.316918,0.999999,0.000145,-0.000401,0.004957,-0.000538,0.005010,-0.000454,-84.324245,0.005542,
1450,1670,-0.422548,-2.014084,0.999997,0.000206,-0.002256,0.006200,-0.000293,0.006210,-0.002266,-88.017205,0.006286,
760,240,0.827684,-13.684110,0.999998,0.000164,-0.002879,0.007259,0.000758,0.007315,-0.002935,85.747966,0.007363,
1040,1920,0.115590,-0.562323,0.999998,0.000160,-0.000839,0.005108,-0.000345,0.005128,-0.000859,-86.688769,0.005493,
1320,280,-0.113407,-13.842014,0.999998,0.000160,-0.001386,0.005317,0.000050,0.005317,-0.001387,89.570984,0.005516,
1530,1130,-1.859048,-6.634852,0.999997,0.000228,-0.004029,0.009361,0.001038,0.009441,-0.004109,85.592963,0.009467,
1040,1190,0.999501,-5.462328,0.999995,0.000262,-0.005426,0.010028,0.001834,0.010242,-0.005640,83.325532,0.010260,
1420,1090,-1.562937,-6.567752,0.999990,0.000363,-0.005650,0.013893,-0.003061,0.014362,-0.006118,-81.303432,0.014414,
1370,450,-0.270421,-12.849508,0.999997,0.000194,-0.002247,0.005771,0.000597,0.005815,-0.002291,85.763997,0.005858,
660,1860,0.985150,-1.297333,0.999996,0.000214,-0.003218,0.007709,-0.000967,0.007794,-0.003303,-84.980445,0.007824,
1610,1820,-0.568829,-1.271154,0.999997,0.000239,-0.002325,0.006612,0.000606,0.006653,-0.002365,86.140301,0.006745,
1220,380,0.019904,-13.331589,0.999998,0.000162,-0.001690,0.005323,-0.000100,0.005324,-0.001691,-89.185545,0.005441,
560,1860,1.339436,-1.635327,0.999942,0.000000,-0.003595,0.007387,-0.000263,0.007393,-0.003601,-88.627872,0.007394,
1420,1000,-1.655969,-8.019797,0.999984,0.000538,-0.006687,0.016739,0.001796,0.016876,-0.006824,85.641696,0.016978,
890,1510,0.988914,-3.398409,0.999997,0.000189,-0.003906,0.007609,0.000616,0.007642,-0.003938,86.946943,0.007643,
930,1110,1.944921,-6.824599,0.999997,0.000220,-0.003579,0.009156,-0.001005,0.009235,-0.003658,-85.516347,0.009301,
1610,1870,-0.443118,-0.946057,0.999997,0.000201,-0.001896,0.006302,0.000872,0.006394,-0.001988,83.996961,0.006545,
930,420,0.681469,-12.726213,0.999997,0.000191,-0.003002,0.006827,-0.000391,0.006842,-0.003017,-87.726979,0.006858,
1660,520,-1.288557,-11.688164,0.999997,0.000183,-0.003925,0.007738,0.000299,0.007746,-0.003933,88.531655,0.007746,
1010,720,0.701781,-10.775303,0.999996,0.000259,-0.005051,0.008212,-0.001789,0.008449,-0.005288,-82.451762,0.008538,
810,980,2.409605,-7.925169,0.999997,0.000224,-0.003149,0.007731,0.000479,0.007752,-0.003170,87.482736,0.007795,
1800,500,-1.793879,-11.500245,0.999997,0.000184,-0.003842,0.007675,0.000110,0.007676,-0.003843,89.454642,0.007676,
1270,230,-0.039471,-14.114996,0.999998,0.000144,-0.001027,0.005088,-0.000021,0.005088,-0.001027,-89.807591,0.005381,
1680,50,-0.112010,-14.949574,0.999998,0.000153,-0.000689,0.005454,-0.001539,0.005818,-0.001053,-76.696623,0.006200,
940,1430,0.893657,-3.868856,0.999997,0.000212,-0.004350,0.007838,0.000950,0.007912,-0.004423,85.570097,0.007930,
1600,1510,-1.092805,-3.473772,0.999997,0.000231,-0.004009,0.007748,-0.000505,0.007769,-0.004031,-87.543273,0.007771,
1110,630,0.259129,-11.852039,0.999996,0.000224,-0.002798,0.005592,-0.001704,0.005925,-0.003131,-78.949553,0.005928,
850,280,0.680294,-13.539393,0.999997,0.000218,-0.002676,0.006854,0.000362,0.006868,-0.002690,87.826576,0.006921,
820,1310,1.730096,-5.231581,0.999996,0.000248,-0.004665,0.008545,-0.000417,0.008558,-0.004678,-88.192047,0.008571,
1140,800,0.235299,-11.151166,0.999997,0.000243,-0.003429,0.004392,-0.003178,0.005521,-0.004558,-70.448975,0.005898,
1020,1510,0.513262,-3.026402,0.999997,0.000202,-0.003264,0.006612,0.001114,0.006736,-0.003388,83.642013,0.006736,
1560,910,-1.919408,-8.572445,0.999997,0.000190,-0.004047,0.009008,-0.001093,0.009099,-0.004138,-85.246006,0.009112,
760,260,0.887282,-13.535188,0.999998,0.000155,-0.002985,0.007275,0.000587,0.007309,-0.003018,86.735275,0.007346,
710,390,1.377771,-12.456932,0.999997,0.000226,-0.003672,0.007612,-0.000080,0.007613,-0.003673,-89.592854,0.007615,
1630,1740,-0.800966,-1.848272,0.999998,0.000192,-0.002817,0.006975,0.000212,0.006980,-0.002821,88.759619,0.007022,
1830,30,-0.104933,-15.022241,0.999998,0.000000,-0.002316,0.006694,-0.002546,0.007364,-0.002985,-75.263477,0.007408,
1040,1900,0.137191,-0.666776,0.999998,0.000208,-0.000980,0.005234,-0.000348,0.005253,-0.001000,-86.807738,0.005579,
1530,1110,-1.933209,-6.819389,0.999997,0.000218,-0.003612,0.009203,0.000999,0.009280,-0.003690,85.569979,0.009345,
920,1230,1.498043,-5.711599,0.999995,0.000247,-0.005260,0.009536,-0.000430,0.009548,-0.005273,-88.336571,0.009565,
700,850,2.528525,-8.862980,0.999996,0.000245,-0.003712,0.007497,0.000719,0.007542,-0.003758,86.345639,0.007542,
1320,700,-0.164706,-11.620817,0.999997,0.000199,-0.002605,0.004633,0.002191,0.005245,-0.003217,74.405846,0.005289,
640,1690,1.578793,-2.645909,0.999997,0.000215,-0.003735,0.007567,0.000030,0.007567,-0.003735,89.850230,0.007567,
1180,730,0.082609,-11.647515,0.999998,0.000167,-0.001975,0.003342,-0.001738,0.003860,-0.002493,-73.410478,0.003914,
660,1840,1.064380,-1.452503,0.999997,0.000201,-0.003338,0.007700,-0.000787,0.007755,-0.003394,-85.944025,0.007776,
1370,430,-0.263438,-12.962939,0.999998,0.000188,-0.002125,0.005726,0.000479,0.005755,-0.002154,86.521812,0.005815,
1240,110,-0.003092,-14.707242,0.999999,0.000131,-0.000491,0.004691,-0.000020,0.004691,-0.000491,-89.777079,0.005157,
1000,1190,1.231342,-5.766646,0.999995,0.000280,-0.005734,0.010371,0.000498,0.010386,-0.005749,88.231918,0.010406,
1610,1850,-0.495030,-1.078700,0.999997,0.000218,-0.002090,0.006459,0.000788,0.006531,-0.002162,84.777495,0.006654,
1270,1940,-0.017382,-0.439080,0.999998,0.000163,-0.000461,0.004773,0.000084,0.004774,-0.000462,89.080797,0.005266,
850,610,1.262745,-11.095995,0.999996,0.000218,-0.004405,0.008019,-0.000394,0.008032,-0.004418,-88.184673,0.008045,
790,1070,2.476564,-7.236922,0.999997,0.000215,-0.003152,0.007584,-0.000346,0.007595,-0.003163,-88.155861,0.007630,
560,1850,1.389587,-1.699277,0.999892,0.000000,-0.003744,0.007578,-0.000115,0.007579,-0.003745,-89.416485,0.007579,
1010,1950,0.098882,-0.415599,0.999998,0.000158,-0.000521,0.005086,-0.000541,0.005138,-0.000572,-84.542524,0.005631,
1450,1710,-0.387566,-1.769185,0.999997,0.000200,-0.002089,0.006012,-0.000172,0.006016,-0.002092,-88.783287,0.006108,
1220,360,0.019438,-13.438963,0.999998,0.000167,-0.001641,0.005300,-0.000084,0.005301,-0.001642,-89.308059,0.005427,
1410,300,-0.263199,-13.666804,0.999998,0.000180,-0.001882,0.005729,0.000089,0.005730,-0.001883,89.329013,0.005841,
1610,1800,-0.616758,-1.407422,0.999997,0.000207,-0.002472,0.006685,0.000482,0.006711,-0.002497,86.996221,0.006783,
1680,40,-0.081502,-15.003248,0.999997,0.000189,-0.000582,0.005341,-0.001502,0.005701,-0.000941,-76.551089,0.006112,
1660,500,-1.253128,-11.841130,0.999996,0.000227,-0.003865,0.007676,0.000285,0.007683,-0.003872,88.584148,0.007683,
1800,480,-1.750566,-11.654835,0.999997,0.000218,-0.003820,0.007701,0.000106,0.007702,-0.003821,89.474411,0.007702,
1530,1400,-0.970370,-4.134455,0.999997,0.000195,-0.004629,0.008198,-0.000901,0.008261,-0.004692,-86.000658,0.008287,
1270,210,-0.039534,-14.214305,0.999998,0.000166,-0.000925,0.005046,-0.000026,0.005046,-0.000925,-89.752303,0.005373,
1570,500,-0.911908,-12.067220,0.999997,0.000227,-0.003680,0.007378,0.000577,0.007408,-0.003710,87.019931,0.007408,
1110,610,0.258625,-11.965852,0.999997,0.000205,-0.002744,0.005553,-0.001552,0.005834,-0.003024,-79.741863,0.005835,
810,1540,1.251498,-3.376654,0.999997,0.000175,-0.003917,0.007722,0.000318,0.007731,-0.003925,88.437817,0.007731,
1010,700,0.675290,-10.937053,0.999996,0.000252,-0.004808,0.007962,-0.001759,0.008199,-0.005046,-82.300251,0.008272,
860,1490,1.141220,-3.638748,0.999997,0.000233,-0.004128,0.007855,0.000491,0.007875,-0.004148,87.655448,0.007879,
1860,1930,-0.842843,-0.927249,0.999996,0.000222,-0.003592,0.008005,0.001077,0.008104,-0.003691,84.737258,0.008115,
600,100,0.700684,-14.383702,0.999997,0.000198,-0.003501,0.008186,0.001609,0.008403,-0.003719,82.303368,0.008422,
890,1490,1.015639,-3.553047,0.999997,0.000206,-0.004047,0.007781,0.000646,0.007816,-0.004082,86.881088,0.007819,
710,370,1.333096,-12.610472,0.999996,0.000235,-0.003660,0.007576,-0.000040,0.007576,-0.003660,-89.794222,0.007578,
1040,1880,0.160279,-0.771168,0.999998,0.000186,-0.001114,0.005280,-0.000303,0.005295,-0.001128,-87.294101,0.005578,
930,1090,2.011831,-7.007407,0.999997,0.000217,-0.003256,0.008963,-0.000833,0.009019,-0.003313,-86.118449,0.009124,
1890,250,-1.500140,-13.141674,0.999995,0.000251,-0.003641,0.007259,-0.000083,0.007260,-0.003641,-89.561584,0.007260,
1140,1810,0.101946,-1.095653,0.999998,0.000172,-0.001229,0.005193,-0.000005,0.005193,-0.001229,-89.955661,0.005427,
1060,1770,0.238743,-1.360671,0.999997,0.000181,-0.001672,0.005698,0.000004,0.005698,-0.001672,89.968218,0.005858,
1830,1450,-2.146856,-4.498278,0.999998,0.000182,-0.003827,0.007669,0.000077,0.007669,-0.003828,89.618066,0.007669,
1370,410,-0.257098,-13.075512,0.999997,0.000187,-0.001994,0.005676,0.000375,0.005694,-0.002012,87.205058,0.005775,
1100,1310,0.315679,-3.978035,0.999995,0.000277,-0.003949,0.006148,0.002909,0.006926,-0.004727,75.024278,0.007078,
790,1620,1.179132,-2.814713,0.999997,0.000197,-0.003625,0.007498,0.000189,0.007501,-0.003628,89.029070,0.007503,
1140,1580,0.177313,-2.349416,0.999998,0.000194,-0.002138,0.005475,0.000616,0.005525,-0.002187,85.403432,0.005564,
1500,930,-1.755935,-8.512988,0.999996,0.000254,-0.004187,0.009964,-0.000825,0.010012,-0.004235,-86.674942,0.010051,
660,1820,1.137008,-1.605148,0.999997,0.000208,-0.003420,0.007638,-0.000601,0.007671,-0.003452,-86.897949,0.007684,
980,1230,1.161697,-5.468342,0.999996,0.000261,-0.005822,0.009922,0.000465,0.009936,-0.005836,88.308677,0.009986,
1280,1710,-0.075691,-1.614715,0.999998,0.000148,-0.001527,0.005358,-0.000068,0.005358,-0.001527,-89.431387,0.005521,
1290,1940,-0.026604,-0.440085,0.999998,0.000180,-0.000407,0.004791,0.000143,0.004795,-0.000411,88.429160,0.005315,
680,850,2.601526,-8.841805,0.999996,0.000223,-0.003687,0.007372,0.000681,0.007414,-0.003729,86.488707,0.007414,
1610,1830,-0.545178,-1.205078,0.999997,0.000229,-0.002241,0.006511,0.000665,0.006561,-0.002291,85.678365,0.006660,
1530,1090,-2.001281,-7.002681,0.999997,0.000199,-0.003255,0.009009,0.000819,0.009064,-0.003309,86.195507,0.009173,
1000,1170,1.338838,-5.974035,0.999995,0.000284,-0.005500,0.010506,0.000214,0.010509,-0.005503,89.233031,0.010513,
850,630,1.303514,-10.936540,0.999996,0.000221,-0.004496,0.008140,-0.000333,0.008149,-0.004505,-88.492175,0.008164,
560,1840,1.429969,-1.779644,0.999863,0.000000,-0.004575,0.008401,-0.000345,0.008410,-0.004584,-88.475997,0.008422,
790,1090,2.454364,-7.083513,0.999997,0.000205,-0.003259,0.007670,-0.000624,0.007706,-0.003295,-86.741794,0.007733,
1320,720,-0.165273,-11.525534,0.999997,0.000201,-0.002660,0.004544,0.002424,0.005284,-0.003400,73.026993,0.005356,
1650,1840,-0.604990,-1.181798,0.999997,0.000238,-0.002406,0.006735,0.000824,0.006809,-0.002480,84.889259,0.006892,
870,40,0.054128,-15.013563,0.999998,0.000158,-0.000370,0.005079,0.001009,0.005259,-0.000551,79.842728,0.005781,
1460,1200,-1.160879,-5.643269,0.999996,0.000259,-0.005821,0.010335,-0.000710,0.010366,-0.005852,-87.490120,0.010395,
1660,720,-1.735441,-10.063759,0.999996,0.000265,-0.004519,0.008377,-0.000357,0.008387,-0.004529,-88.414278,0.008396,
1220,340,0.018174,-13.546203,0.999998,0.000165,-0.001591,0.005269,-0.000079,0.005270,-0.001592,-89.339706,0.005406,
1010,1930,0.128446,-0.521045,0.999998,0.000177,-0.000666,0.005185,-0.000518,0.005230,-0.000712,-84.982700,0.005673,
930,540,0.825700,-11.871942,0.999997,0.000205,-0.003769,0.007381,-0.000784,0.007436,-0.003824,-85.998460,0.007437,
1140,110,0.036924,-14.702048,0.999998,0.000166,-0.000469,0.004793,0.000165,0.004798,-0.000474,88.201814,0.005288,
1160,730,0.126433,-11.568797,0.999996,0.000250,-0.002362,0.003937,-0.002242,0.004654,-0.003079,-72.276240,0.004734,
1270,190,-0.031892,-14.316960,0.999998,0.000160,-0.000812,0.004962,-0.000060,0.004962,-0.000813,-89.404904,0.005323,
1800,460,-1.706446,-11.809036,0.999997,0.000218,-0.003798,0.007632,0.000129,0.007633,-0.003800,89.354636,0.007633,
1110,590,0.257791,-12.076669,0.999997,0.000204,-0.002669,0.005605,-0.001369,0.005825,-0.002890,-80.845209,0.005825,
1570,480,-0.882525,-12.215882,0.999997,0.000199,-0.003529,0.007288,0.000523,0.007313,-0.003554,87.238186,0.007314,
1730,1400,-1.870629,-4.668957,0.999997,0.000191,-0.004170,0.008010,0.000183,0.008013,-0.004173,89.137704,0.008015,
1370,390,-0.248609,-13.189748,0.999998,0.000180,-0.001887,0.005712,0.000272,0.005722,-0.001897,87.949109,0.005829,
1040,1770,0.275096,-1.381180,0.999997,0.000199,-0.001838,0.005789,0.000019,0.005789,-0.001838,89.854272,0.005917,
1040,1860,0.180618,-0.879463,0.999998,0.000194,-0.001252,0.005385,-0.000270,0.005396,-0.001263,-87.671796,0.005644,
1140,1600,0.173959,-2.240224,0.999998,0.000178,-0.002118,0.005497,0.000540,0.005535,-0.002156,85.962421,0.005580,
1410,540,-0.405039,-12.221860,0.999997,0.000207,-0.002953,0.006263,0.001135,0.006400,-0.003090,83.080586,0.006402,
1470,1460,-0.643001,-3.460062,0.999997,0.000242,-0.003862,0.007224,-0.001284,0.007371,-0.004009,-83.479832,0.007381,
710,350,1.285391,-12.760936,0.999997,0.000212,-0.003620,0.007549,0.000001,0.007549,-0.003620,89.994356,0.007551,
1130,1240,0.313502,-4.126494,0.999996,0.000267,-0.003856,0.004831,0.003249,0.005912,-0.004936,71.602494,0.006339,
790,1600,1.218163,-2.966632,0.999997,0.000203,-0.003722,0.007554,0.000234,0.007559,-0.003726,88.811356,0.007559,
1610,1810,-0.594582,-1.340322,0.999997,0.000221,-0.002401,0.006677,0.000548,0.006710,-0.002434,86.555096,0.006794,
670,90,0.447933,-14.631395,0.999996,0.000222,-0.001665,0.007233,0.002586,0.007930,-0.002362,74.914644,0.008143,
890,1470,1.048409,-3.712766,0.999997,0.000212,-0.004195,0.007872,0.000662,0.007908,-0.004231,86.867111,0.007914,
570,750,2.752162,-9.381208,0.999910,0.001054,-0.004284,0.007756,0.000003,0.007756,-0.004284,89.985398,0.007770,
910,940,1.998049,-8.313775,0.999997,0.000236,-0.003541,0.008891,0.001051,0.008979,-0.003630,85.203254,0.009034,
1000,1150,1.450934,-6.185925,0.999995,0.000259,-0.005140,0.010671,-0.000004,0.010671,-0.005140,-89.984997,0.010674,
850,650,1.344364,-10.768005,0.999996,0.000208,-0.004579,0.008321,-0.000251,0.008326,-0.004584,-88.886369,0.008340,
600,80,0.558452,-14.546975,0.999997,0.000209,-0.003419,0.008753,0.002061,0.009093,-0.003758,80.644237,0.009138,
930,1070,2.060115,-7.185302,0.999998,0.000189,-0.002921,0.008950,-0.000633,0.008983,-0.002955,-86.958160,0.009157,
1490,1940,-0.137761,-0.477615,0.999997,0.000245,-0.000825,0.005293,0.000628,0.005357,-0.000889,84.195431,0.005742,
1500,910,-1.660596,-8.713319,0.999996,0.000257,-0.004646,0.010006,-0.000780,0.010047,-0.004687,-86.961537,0.010054,
960,1230,1.278286,-5.566447,0.999996,0.000272,-0.005670,0.009844,0.000096,0.009845,-0.005671,89.647260,0.009883,
560,1830,1.472277,-1.874285,0.999794,0.000000,-0.005547,0.008071,-0.000588,0.008096,-0.005572,-87.530593,0.008285,
890,40,0.043237,-15.016320,0.999999,0.000128,-0.000338,0.005028,0.000950,0.005191,-0.000501,80.248774,0.005727,
1010,1910,0.149447,-0.622381,0.999998,0.000181,-0.000798,0.005266,-0.000494,0.005306,-0.000838,-85.376850,0.005705,
1220,1710,0.018190,-1.601493,0.999998,0.000162,-0.001565,0.005284,0.000097,0.005285,-0.001567,89.185268,0.005429,
1820,2020,-0.110969,-0.110941,0.999994,0.000000,-0.001698,0.006516,0.002570,0.007254,-0.002436,73.978775,0.007384,
930,520,0.802491,-12.017330,0.999998,0.000198,-0.003595,0.007209,-0.000716,0.007256,-0.003643,-86.225309,0.007256,
1460,1180,-1.268591,-5.851431,0.999995,0.000271,-0.005691,0.010493,-0.000402,0.010503,-0.005701,-88.577275,0.010516,
1500,1870,-0.261909,-0.865757,0.999997,0.000207,-0.001528,0.005690,0.000469,0.005720,-0.001558,86.296198,0.005914,
790,1530,1.348696,-3.502903,0.999997,0.000185,-0.004005,0.007786,0.000270,0.007792,-0.004011,88.690858,0.007793,
1660,480,-1.214399,-11.995627,0.999997,0.000221,-0.003805,0.007590,0.000308,0.007598,-0.003813,88.452788,0.007598,
730,1980,0.248918,-0.333206,0.999998,0.000185,-0.001255,0.006156,-0.001921,0.006624,-0.001723,-76.298834,0.006873,
1370,370,-0.238832,-13.304855,0.999998,0.000170,-0.001824,0.005680,0.000202,0.005685,-0.001829,88.462579,0.005805,
1550,500,-0.839309,-12.119443,0.999997,0.000210,-0.003552,0.007246,0.000618,0.007282,-0.003587,86.735027,0.007282,
1040,1490,0.457932,-3.099508,0.999996,0.000232,-0.003268,0.006508,0.001308,0.006680,-0.003440,82.507270,0.006681,
1320,740,-0.167683,-11.439960,0.999997,0.000204,-0.002776,0.004476,0.002665,0.005350,-0.003650,71.842806,0.005467,
1890,240,-1.466873,-13.213772,0.999996,0.000228,-0.003647,0.007264,-0.000109,0.007265,-0.003648,-89.427584,0.007265,
1220,320,0.016961,-13.648320,0.999998,0.000140,-0.001496,0.005273,-0.000080,0.005274,-0.001497,-89.319759,0.005436,
1110,570,0.254293,-12.193023,0.999997,0.000204,-0.002604,0.005608,-0.001250,0.005794,-0.002790,-81.530487,0.005795,
1350,1400,-0.249917,-3.393113,0.999997,0.000187,-0.002851,0.005510,-0.001908,0.005925,-0.003266,-77.733353,0.005935,
1270,170,-0.030900,-14.413721,0.999998,0.000155,-0.000693,0.004930,-0.000056,0.004930,-0.000694,-89.432277,0.005337,
1800,440,-1.662967,-11.962223,0.999997,0.000220,-0.003787,0.007583,0.000131,0.007585,-0.003788,89.340697,0.007585,
1120,110,0.048546,-14.699249,0.999998,0.000142,-0.000516,0.004847,0.000212,0.004856,-0.000524,87.742340,0.005330,
1530,1070,-2.052930,-7.182581,0.999997,0.000200,-0.002941,0.009060,0.000652,0.009095,-0.002976,86.900674,0.009274,
1160,1810,0.079123,-1.087926,0.999998,0.000166,-0.001082,0.005172,-0.000090,0.005173,-0.001083,-89.172603,0.005457,
1830,1470,-2.097384,-4.343603,0.999998,0.000184,-0.003811,0.007707,0.000047,0.007708,-0.003811,89.764085,0.007708,
1110,1240,0.394015,-4.330816,0.999992,0.000345,-0.004451,0.006073,0.003395,0.007074,-0.005451,73.585327,0.007411,
910,920,1.928952,-8.493071,0.999996,0.000226,-0.003922,0.009036,0.001061,0.009123,-0.004008,85.351704,0.009145,
680,1460,1.940120,-4.315516,0.999998,0.000169,-0.003909,0.007772,-0.000041,0.007772,-0.003909,-89.797871,0.007772,
710,330,1.235704,-12.911628,0.999997,0.000203,-0.003607,0.007529,0.000033,0.007529,-0.003607,89.829016,0.007532,
1340,1770,-0.147013,-1.319968,0.999998,0.000171,-0.001522,0.005443,-0.000061,0.005444,-0.001522,-89.500500,0.005617,
1890,590,-2.338019,-10.599127,0.999996,0.000218,-0.003779,0.007663,-0.000007,0.007663,-0.003779,-89.965221,0.007664,
1600,1590,-0.970289,-2.867847,0.999998,0.000188,-0.003593,0.007371,-0.000414,0.007386,-0.003608,-87.839724,0.007387,
1140,1620,0.170696,-2.130754,0.999998,0.000156,-0.002052,0.005493,0.000465,0.005522,-0.002081,86.484256,0.005577,
1620,60,-0.107969,-14.909615,0.999998,0.000152,-0.000409,0.005397,-0.001301,0.005675,-0.000687,-77.931266,0.006195,
1420,1130,-1.355517,-6.073048,0.999996,0.000224,-0.004922,0.011009,-0.002419,0.011369,-0.005281,-81.555728,0.011378,
1040,1840,0.204049,-0.987120,0.999998,0.000194,-0.001384,0.005419,-0.000180,0.005424,-0.001389,-88.483018,0.005635,
1570,1940,-0.206427,-0.502161,0.999998,0.000179,-0.001048,0.005640,0.000952,0.005773,-0.001181,82.055384,0.006100,
880,40,0.048567,-15.014687,0.999998,0.000150,-0.000402,0.005044,0.000968,0.005211,-0.000569,80.219708,0.005717,
1370,790,-0.407533,-10.794982,0.999995,0.000267,-0.004729,0.006893,0.003223,0.007727,-0.005563,75.494710,0.007972,
560,1450,2.378575,-4.679922,0.999900,0.000000,-0.003012,0.007904,-0.000198,0.007907,-0.003015,-88.959843,0.007981,
1410,1520,-0.404391,-2.868896,0.999996,0.000239,-0.002926,0.006249,-0.001080,0.006374,-0.003051,-83.376314,0.006376,
1840,1210,-2.793914,-6.311165,0.999997,0.000180,-0.003515,0.007133,0.000496,0.007156,-0.003538,87.338573,0.007156,
850,670,1.388777,-10.601538,0.999997,0.000204,-0.004653,0.008411,-0.000174,0.008413,-0.004656,-89.236964,0.008429,
930,440,0.708164,-12.586696,0.999997,0.000238,-0.003199,0.006961,-0.000503,0.006986,-0.003224,-87.173992,0.006993,
790,1510,1.386313,-3.661612,0.999997,0.000206,-0.004081,0.007849,0.000237,0.007854,-0.004086,88.863806,0.007856,
890,1450,1.080598,-3.872730,0.999996,0.000227,-0.004323,0.007871,0.000645,0.007905,-0.004357,86.979498,0.007918,
1460,1160,-1.377842,-6.062980,0.999994,0.000290,-0.005393,0.010577,-0.000161,0.010579,-0.005395,-89.423199,0.010580,
1570,360,-0.706904,-13.066951,0.999997,0.000220,-0.003032,0.006814,0.000126,0.006816,-0.003033,89.269491,0.006829,
1200,1710,0.048906,-1.608487,0.999998,0.000159,-0.001556,0.005303,0.000109,0.005305,-0.001557,89.088051,0.005453,
1870,1840,-1.300954,-1.653387,0.999998,0.000202,-0.003670,0.007465,0.000260,0.007471,-0.003676,88.663701,0.007472,
790,980,2.474651,-7.920360,0.999996,0.000252,-0.003168,0.007619,0.000438,0.007637,-0.003186,87.680360,0.007672,
1800,420,-1.619758,-12.113533,0.999997,0.000202,-0.003769,0.007589,0.000123,0.007591,-0.003770,89.379246,0.007591,
1320,760,-0.173530,-11.353621,0.999996,0.000235,-0.002944,0.004360,0.002891,0.005366,-0.003949,70.819473,0.005561,
1000,490,0.540753,-12.405050,0.999997,0.000216,-0.003071,0.006639,-0.000845,0.006711,-0.003143,-85.065711,0.006716,
1660,440,-1.142102,-12.298147,0.999997,0.000220,-0.003599,0.007467,0.000209,0.007471,-0.003603,88.917747,0.007472,
640,300,1.411578,-12.970010,0.999997,0.000208,-0.003622,0.007533,0.000128,0.007534,-0.003623,89.344400,0.007536,
650,400,1.623615,-12.235062,0.999996,0.000228,-0.003746,0.007605,-0.000090,0.007606,-0.003747,-89.546923,0.007606,
1270,150,-0.022644,-14.513807,0.999998,0.000166,-0.000609,0.004897,-0.000062,0.004898,-0.000610,-89.355214,0.005338,
1110,1290,0.295851,-4.025778,0.999996,0.000240,-0.003924,0.005855,0.003160,0.006787,-0.004856,73.565100,0.006994,
580,390,1.860595,-12.132799,0.999997,0.000188,-0.003866,0.007367,-0.000083,0.007368,-0.003867,-89.574861,0.007371,
810,500,1.224708,-11.862090,0.999998,0.000160,-0.003870,0.007643,-0.000311,0.007651,-0.003879,-88.453847,0.007652,
1490,1010,-1.979468,-7.732188,0.999996,0.000248,-0.003057,0.010116,-0.000220,0.010120,-0.003060,-89.043860,0.010380,
1100,1430,0.285757,-3.271353,0.999998,0.000175,-0.002881,0.005755,0.001678,0.006070,-0.003196,79.381721,0.006073,
1010,1890,0.179121,-0.731594,0.999998,0.000176,-0.000964,0.005366,-0.000489,0.005404,-0.001002,-85.608600,0.005749,
1100,1770,0.179004,-1.334861,0.999998,0.000156,-0.001441,0.005551,-0.000010,0.005552,-0.001441,-89.914461,0.005761,
1230,580,0.004560,-12.314206,0.999997,0.000200,-0.001839,0.004642,-0.000028,0.004642,-0.001839,-89.754110,0.004675,
670,1370,2.202707,-5.035768,0.999997,0.000215,-0.003955,0.007688,-0.000341,0.007698,-0.003965,-88.322419,0.007700,
1630,820,-1.903089,-9.263647,0.999998,0.000175,-0.004525,0.008656,-0.000822,0.008708,-0.004576,-86.445803,0.008711,
590,1810,1.421998,-1.888006,0.999997,0.000193,-0.003973,0.007231,-0.000122,0.007233,-0.003974,-89.375576,0.007244,
1220,300,0.015869,-13.755552,0.999999,0.000137,-0.001399,0.005252,-0.000073,0.005253,-0.001400,-89.369950,0.005440,
890,940,2.070090,-8.291492,0.999998,0.000191,-0.003477,0.008631,0.001034,0.008719,-0.003564,85.151350,0.008767,
1820,30,-0.079217,-15.042982,0.999993,0.000000,-0.001707,0.006512,-0.002655,0.007295,-0.002490,-73.565958,0.007416,
1480,1290,-0.944217,-4.881081,0.999995,0.000263,-0.005580,0.009161,-0.001123,0.009246,-0.005666,-85.668147,0.009324,
1370,810,-0.457933,-10.652588,0.999993,0.000318,-0.004897,0.007130,0.003299,0.007976,-0.005742,75.627117,0.008229,
1280,1810,-0.055341,-1.086315,0.999998,0.000165,-0.001065,0.005160,0.000046,0.005161,-0.001065,89.576180,0.005449,
1630,1450,-1.329609,-4.029488,0.999996,0.000210,-0.004334,0.007979,-0.000312,0.007987,-0.004342,-88.547401,0.007997,
900,40,0.040956,-15.016411,0.999999,0.000125,-0.000209,0.004999,0.000937,0.005163,-0.000373,80.104605,0.005758,
1420,1110,-1.469223,-6.305690,0.999985,0.000474,-0.005114,0.012154,-0.002914,0.012633,-0.005592,-80.675053,0.012660,
930,1050,2.092799,-7.363964,0.999998,0.000183,-0.002733,0.008853,-0.000360,0.008864,-0.002744,-88.220575,0.009076,
600,60,0.414250,-14.735372,0.999995,0.000243,-0.002848,0.008410,0.002625,0.008993,-0.003430,77.497424,0.009077,
710,310,1.187042,-13.063328,0.999997,0.000212,-0.003582,0.007504,0.000132,0.007506,-0.003583,89.319022,0.007508,
560,1820,1.571034,-1.975104,0.999634,0.000000,-0.006071,0.006435,-0.000416,0.006449,-0.006085,-88.095407,0.007245,
1860,1210,-2.863555,-6.340907,0.999997,0.000188,-0.003427,0.007039,0.000377,0.007052,-0.003440,87.940914,0.007053,
910,1940,0.190684,-0.496679,0.999998,0.000175,-0.000773,0.005584,-0.000941,0.005720,-0.000909,-81.757317,0.006148,
890,1620,0.833534,-2.587139,0.999997,0.000223,-0.003255,0.007138,0.000369,0.007152,-0.003268,87.968337,0.007160,
1140,1640,0.163431,-2.019238,0.999998,0.000156,-0.002010,0.005502,0.000427,0.005526,-0.002034,86.756889,0.005590,
1570,340,-0.671697,-13.202574,0.999998,0.000210,-0.002916,0.006780,0.000038,0.006780,-0.002916,89.774914,0.006802,
1530,1050,-2.084956,-7.365337,0.999997,0.000191,-0.002791,0.008949,0.000357,0.008960,-0.002802,88.258539,0.009167,
790,1490,1.428088,-3.820022,0.999996,0.000241,-0.004140,0.007873,0.000174,0.007875,-0.004142,89.169712,0.007879,
1440,1690,-0.381367,-1.875224,0.999997,0.000195,-0.002195,0.006086,-0.000243,0.006093,-0.002202,-88.318801,0.006171,
1110,1310,0.277434,-3.912193,0.999996,0.000257,-0.003708,0.005775,0.002921,0.006603,-0.004535,74.181764,0.006755,
1800,400,-1.574826,-12.266264,0.999996,0.000240,-0.003732,0.007562,0.000075,0.007563,-0.003733,89.618413,0.007563,
1040,1470,0.466650,-3.231681,0.999997,0.000218,-0.003359,0.006594,0.001418,0.006792,-0.003557,82.047262,0.006794,
860,1550,1.043117,-3.173774,0.999997,0.000214,-0.003762,0.007518,0.000473,0.007538,-0.003782,87.604413,0.007538,
850,1110,2.219426,-6.902737,0.999997,0.000204,-0.003385,0.008124,-0.000866,0.008189,-0.003450,-85.719096,0.008223,
1880,1910,-1.025570,-1.160001,0.999998,0.000225,-0.003657,0.007799,0.000790,0.007853,-0.003711,86.071403,0.007857,
1660,420,-1.104600,-12.446567,0.999997,0.000203,-0.003522,0.007428,0.000164,0.007431,-0.003524,89.140490,0.007434,
1270,130,-0.023385,-14.608859,0.999998,0.000167,-0.000502,0.004790,-0.000044,0.004790,-0.000503,-89.519924,0.005265,
1390,300,-0.228657,-13.684398,0.999998,0.000175,-0.001582,0.005648,0.000018,0.005648,-0.001582,89.860068,0.005827,
810,940,2.341447,-8.237908,0.999996,0.000249,-0.003381,0.007858,0.000760,0.007909,-0.003432,86.146655,0.007932,
1880,100,-0.760095,-14.323329,0.999997,0.000200,-0.003439,0.008485,-0.001713,0.008726,-0.003680,-81.986961,0.008761,
1370,830,-0.534242,-10.509855,0.999994,0.000289,-0.004981,0.007304,0.003238,0.008105,-0.005782,76.101978,0.008348,
890,1430,1.113751,-4.028314,0.999997,0.000201,-0.004464,0.008043,0.000601,0.008072,-0.004493,87.255010,0.008089,
1260,110,-0.013695,-14.705920,0.999998,0.000172,-0.000448,0.004715,-0.000067,0.004715,-0.000449,-89.261588,0.005205,
1590,1400,-1.250362,-4.326986,0.999997,0.000195,-0.004644,0.008355,-0.000398,0.008367,-0.004657,-88.246052,0.008385,
1610,820,-1.812427,-9.297400,0.999995,0.000242,-0.004668,0.008835,-0.000793,0.008881,-0.004714,-86.651025,0.008887,
1840,980,-3.009365,-7.879452,0.999998,0.000182,-0.003210,0.006615,-0.000121,0.006617,-0.003211,-89.292774,0.006618,
1080,1770,0.207551,-1.346426,0.999998,0.000161,-0.001459,0.005617,-0.000058,0.005617,-0.001460,-89.527443,0.005829,
1320,1560,-0.173106,-2.456381,0.999997,0.000183,-0.002181,0.005466,-0.000680,0.005526,-0.002241,-84.958098,0.005559,
1620,1340,-1.537446,-4.920680,0.999995,0.000253,-0.004765,0.008571,0.000124,0.008572,-0.004766,89.465522,0.008590,
1460,1140,-1.494054,-6.277930,0.999994,0.000281,-0.004983,0.010726,-0.000019,0.010726,-0.004983,-89.930789,0.010735,
1630,30,-0.030358,-15.062947,0.999998,0.000000,-0.000021,0.005136,-0.001443,0.005512,-0.000397,-75.384156,0.006148,
1870,1830,-1.339397,-1.730581,0.999998,0.000213,-0.003682,0.007453,0.000216,0.007457,-0.003687,88.888765,0.007457,
1000,470,0.524558,-12.538726,0.999996,0.000240,-0.003009,0.006586,-0.000780,0.006649,-0.003072,-85.380722,0.006655,
1010,1870,0.204170,-0.839082,0.999998,0.000204,-0.001083,0.005463,-0.000421,0.005490,-0.001110,-86.339239,0.005806,
1700,290,-0.958399,-13.321588,0.999997,0.000204,-0.003148,0.007331,-0.000369,0.007344,-0.003161,-87.985983,0.007368,
1460,1290,-0.831142,-4.773370,0.999994,0.000278,-0.005602,0.009001,-0.001528,0.009159,-0.005760,-84.090761,0.009260,
1530,1030,-2.099698,-7.539970,0.999998,0.000189,-0.002695,0.008659,0.000063,0.008659,-0.002695,89.679583,0.008862,
1220,280,0.015819,-13.859518,0.999998,0.000141,-0.001297,0.005222,-0.000038,0.005222,-0.001297,-89.664646,0.005438,
1420,1690,-0.338439,-1.848204,0.999997,0.000220,-0.002261,0.006009,-0.000311,0.006021,-0.002272,-87.847680,0.006081,
760,1720,1.074578,-2.135797,0.999998,0.000157,-0.003303,0.007394,-0.000135,0.007395,-0.003304,-89.275379,0.007409,
1750,1730,-1.212260,-2.161817,0.999998,0.000193,-0.003610,0.007519,0.000047,0.007519,-0.003610,89.757255,0.007521,
560,1800,1.622891,-2.032194,0.999374,0.000000,-0.006950,0.005708,0.000619,0.005738,-0.006980,87.205085,0.007447,
1470,1160,-1.431303,-6.121273,0.999995,0.000293,-0.005294,0.010490,0.000070,0.010491,-0.005294,89.744478,0.010491,
710,290,1.131324,-13.214692,0.999997,0.000220,-0.003543,0.007537,0.000235,0.007541,-0.003548,88.787946,0.007546,
850,420,0.940802,-12.554583,0.999996,0.000261,-0.003377,0.007292,-0.000246,0.007298,-0.003382,-88.678617,0.007304,
1370,300,-0.199967,-13.697871,0.999998,0.000167,-0.001508,0.005544,0.000030,0.005544,-0.001508,89.753424,0.005733,
630,300,1.446297,-12.942141,0.999998,0.000198,-0.003657,0.007510,0.000077,0.007510,-0.003657,89.602477,0.007511,
670,1410,2.100634,-4.724861,0.999997,0.000215,-0.003930,0.007763,-0.000194,0.007766,-0.003933,-89.051132,0.007766,
1060,470,0.361226,-12.665955,0.999997,0.000226,-0.002561,0.006077,-0.000766,0.006145,-0.002629,-84.968894,0.006166,
940,1010,2.070627,-7.714838,0.999998,0.000170,-0.002753,0.009011,0.000294,0.009018,-0.002761,88.569163,0.009241,
740,670,1.880460,-10.343957,0.999996,0.000253,-0.004221,0.008018,0.000252,0.008023,-0.004226,88.819185,0.008027,
640,280,1.352610,-13.119755,0.999997,0.000207,-0.003592,0.007564,0.000162,0.007566,-0.003594,89.166287,0.007570,
930,1030,2.108610,-7.539847,0.999997,0.000199,-0.002646,0.008662,-0.000029,0.008662,-0.002646,-89.855154,0.008878,
970,370,0.512218,-13.132330,0.999997,0.000196,-0.002687,0.006420,-0.000319,0.006431,-0.002698,-87.994532,0.006458,
1410,1030,-1.594760,-7.508858,0.999940,0.000907,-0.007614,0.019222,-0.000121,0.019223,-0.007614,-89.742585,0.019361,
1590,1380,-1.294416,-4.496126,0.999997,0.000208,-0.004762,0.008491,-0.000343,0.008500,-0.004771,-88.518861,0.008521,
1120,1810,0.128343,-1.106288,0.999998,0.000153,-0.001291,0.005259,-0.000035,0.005259,-0.001292,-89.696279,0.005481,
820,1110,2.317764,-6.915112,0.999996,0.000232,-0.003338,0.007895,-0.000764,0.007947,-0.003389,-86.124763,0.007975,
1800,380,-1.529600,-12.417859,0.999996,0.000245,-0.003710,0.007596,0.000050,0.007597,-0.003711,89.748581,0.007597,
890,1940,0.209182,-0.504327,0.999998,0.000191,-0.001094,0.005654,-0.000969,0.005790,-0.001230,-81.990773,0.006101,
580,760,2.738224,-9.336359,0.999996,0.000217,-0.004009,0.007319,0.000031,0.007319,-0.004009,89.844162,0.007330,
1330,1260,-0.252677,-4.002439,0.999997,0.000237,-0.003614,0.004806,-0.003327,0.005962,-0.004770,-70.839195,0.006310,
660,50,0.200189,-14.922562,0.999997,0.000214,-0.000722,0.006580,0.002877,0.007578,-0.001719,70.882184,0.007946,
850,1090,2.260096,-7.062638,0.999997,0.000218,-0.003156,0.008037,-0.000782,0.008091,-0.003210,-86.024382,0.008149,
1490,1660,-0.532699,-2.145008,0.999996,0.000240,-0.002796,0.006497,-0.000398,0.006514,-0.002813,-87.552477,0.006534,
1220,260,0.013446,-13.964964,0.999998,0.000145,-0.001222,0.005149,-0.000042,0.005149,-0.001222,-89.619659,0.005380,
1530,1010,-2.089309,-7.714155,0.999998,0.000191,-0.002740,0.008830,-0.000266,0.008836,-0.002746,-88.683606,0.009045,
600,1810,1.384646,-1.854799,0.999997,0.000213,-0.003634,0.007390,-0.000136,0.007391,-0.003636,-89.292474,0.007392,
890,1040,2.206653,-7.455640,0.999997,0.000218,-0.002743,0.008233,-0.000229,0.008238,-0.002748,-88.802764,0.008388,
1810,2020,-0.103030,-0.100560,0.999997,0.000000,-0.000728,0.006479,0.002818,0.007450,-0.001699,70.987716,0.007809,
560,1790,1.651924,-2.122637,0.999525,0.000000,-0.006632,0.007060,0.000482,0.007077,-0.006649,87.986841,0.007936,
1180,110,0.021326,-14.704925,0.999998,0.000165,-0.000387,0.004760,0.000115,0.004763,-0.000390,88.725925,0.005289,
1050,110,0.084709,-14.687883,0.999998,0.000194,-0.000665,0.004998,0.000384,0.005024,-0.000691,86.138293,0.005446,
1420,510,-0.421087,-12.384263,0.999997,0.000212,-0.002847,0.006262,0.000953,0.006361,-0.002946,84.088350,0.006367,
1200,1290,0.050647,-3.503001,0.999996,0.000231,-0.001772,0.002307,0.001294,0.002683,-0.002148,73.800150,0.002840,
750,360,1.163987,-12.778605,0.999998,0.000168,-0.003459,0.007458,0.000089,0.007459,-0.003459,89.532194,0.007466,
1460,1120,-1.602417,-6.499973,0.999995,0.000244,-0.004615,0.010916,-0.000055,0.010916,-0.004615,-89.797563,0.010959,
1110,1330,0.268045,-3.800405,0.999997,0.000239,-0.003493,0.005650,0.002762,0.006419,-0.004262,74.430976,0.006533,
1750,1710,-1.261596,-2.314483,0.999997,0.000215,-0.003606,0.007533,0.000023,0.007533,-0.003606,89.884063,0.007536,
1700,640,-1.708382,-10.636632,0.999997,0.000219,-0.004271,0.008057,-0.000080,0.008057,-0.004272,-89.627115,0.008062,
760,1700,1.119398,-2.282932,0.999998,0.000149,-0.003349,0.007391,-0.000112,0.007392,-0.003350,-89.401312,0.007403,
710,490,1.590640,-11.692159,0.999997,0.000205,-0.003856,0.007685,-0.000150,0.007687,-0.003858,-89.253433,0.007687,
1230,560,0.003119,-12.407200,0.999998,0.000166,-0.001880,0.004798,-0.000032,0.004798,-0.001880,-89.729246,0.004835,
1870,1820,-1.378487,-1.804540,0.999998,0.000243,-0.003690,0.007384,0.000168,0.007386,-0.003692,89.131879,0.007386,
1840,960,-2.997558,-8.012333,0.999998,0.000170,-0.003211,0.006627,-0.000165,0.006629,-0.003213,-89.040563,0.006630,
1350,300,-0.167920,-13.710775,0.999998,0.000157,-0.001546,0.005451,0.000105,0.005453,-0.001548,89.140847,0.005620,
1660,400,-1.066783,-12.595350,0.999997,0.000206,-0.003478,0.007441,0.000138,0.007443,-0.003479,89.277078,0.007448,
810,480,1.188307,-12.012415,0.999997,0.000195,-0.003784,0.007545,-0.000319,0.007554,-0.003793,-88.387690,0.007554,
1490,940,-1.762187,-8.440013,0.999996,0.000233,-0.004089,0.010249,-0.000714,0.010285,-0.004124,-87.156124,0.010351,
1490,1160,-1.535371,-6.216715,0.999996,0.000239,-0.005042,0.010170,0.000510,0.010187,-0.005059,88.082783,0.010187,
1150,150,0.048104,-14.511306,0.999998,0.000142,-0.000624,0.004913,0.000135,0.004917,-0.000628,88.607007,0.005352,
1460,730,-0.756153,-10.653682,0.999997,0.000241,-0.005205,0.008504,0.001663,0.008703,-0.005404,83.180698,0.008787,
680,900,2.717159,-8.471105,0.999997,0.000214,-0.003480,0.007232,0.000558,0.007261,-0.003509,87.028142,0.007262,
1710,1460,-1.645895,-4.143871,0.999997,0.000200,-0.004155,0.007922,-0.000054,0.007922,-0.004156,-89.745480,0.007925,
1240,430,-0.016800,-13.068460,0.999997,0.000196,-0.001796,0.005273,0.000091,0.005274,-0.001797,89.261707,0.005363,
640,260,1.289801,-13.274665,0.999997,0.000210,-0.003582,0.007649,0.000275,0.007655,-0.003589,88.597962,0.007660,
1800,360,-1.479047,-12.571465,0.999996,0.000231,-0.003707,0.007612,-0.000005,0.007612,-0.003707,-89.972953,0.007613,
1420,1810,-0.230543,-1.152120,0.999998,0.000156,-0.001603,0.005592,0.000089,0.005593,-0.001604,89.295252,0.005760,
580,750,2.713147,-9.410518,0.999996,0.000218,-0.004100,0.007548,0.000081,0.007549,-0.004101,89.599848,0.007558,
1490,990,-1.942634,-7.937206,0.999996,0.000266,-0.003212,0.010161,-0.000408,0.010173,-0.003225,-88.252388,0.010398,
1620,590,-1.254814,-11.237881,0.999997,0.000212,-0.004275,0.007991,0.000379,0.008002,-0.004286,88.231613,0.008009,
930,220,0.377288,-14.021923,0.999999,0.000172,-0.001690,0.005990,0.000488,0.006021,-0.001721,86.380457,0.006202,
930,1010,2.097702,-7.710881,0.999997,0.000193,-0.002700,0.008770,0.000322,0.008779,-0.002709,88.390820,0.008990,
900,1430,1.070263,-3.997955,0.999997,0.000214,-0.004444,0.008026,0.000681,0.008063,-0.004481,86.883560,0.008080,
800,1110,2.383811,-6.924608,0.999997,0.000204,-0.003349,0.007765,-0.000718,0.007811,-0.003395,-86.318240,0.007834,
870,1620,0.897911,-2.631111,0.999997,0.000200,-0.003333,0.007220,0.000347,0.007231,-0.003344,88.116529,0.007238,
1410,1020,-1.598895,-7.696304,0.999863,0.001472,-0.007569,0.019345,0.000729,0.019365,-0.007589,88.448699,0.019515,
1000,610,0.628871,-11.576510,0.999996,0.000257,-0.003928,0.007258,-0.001381,0.007426,-0.004096,-83.066870,0.007439,
1160,110,0.029370,-14.704162,0.999998,0.000185,-0.000357,0.004766,0.000148,0.004770,-0.000361,88.342865,0.005312,
560,1780,1.680221,-2.198839,0.999728,0.000000,-0.006038,0.008156,0.000242,0.008160,-0.006042,89.024565,0.008469,
1220,240,0.012361,-14.067019,0.999998,0.000152,-0.001110,0.005084,-0.000021,0.005084,-0.001110,-89.801855,0.005346,
1530,1210,-1.510490,-5.864260,0.999996,0.000241,-0.005254,0.009642,0.000528,0.009660,-0.005273,87.971064,0.009674,
1470,1660,-0.476921,-2.106302,0.999997,0.000225,-0.002590,0.006353,-0.000401,0.006371,-0.002607,-87.437761,0.006406,
660,40,0.136254,-14.985468,0.999999,0.000160,-0.000460,0.006355,0.002908,0.007428,-0.001532,69.762391,0.007843,
850,1070,2.296211,-7.225548,0.999997,0.000225,-0.003014,0.007935,-0.000519,0.007960,-0.003039,-87.292869,0.008034,
850,2010,0.072001,-0.133851,0.999998,0.000175,-0.000235,0.005193,-0.001124,0.005417,-0.000459,-78.748350,0.006008,
1690,440,-1.250545,-12.226110,0.999998,0.000173,-0.003689,0.007553,0.000184,0.007556,-0.003692,89.063595,0.007557,
1800,2020,-0.101212,-0.100236,0.999997,0.000000,-0.000107,0.006409,0.002934,0.007535,-0.001234,68.994483,0.008083,
1460,1100,-1.707357,-6.726940,0.999994,0.000273,-0.004325,0.011366,-0.000081,0.011366,-0.004326,-89.705171,0.011474,
1060,1920,0.099100,-0.554000,0.999998,0.000168,-0.000752,0.005039,-0.000312,0.005056,-0.000768,-86.922058,0.005449,
1200,1270,0.059081,-3.543899,0.999997,0.000212,-0.002057,0.002002,0.001331,0.002400,-0.002454,73.371745,0.002803,
720,1860,0.786428,-1.169050,0.999997,0.000207,-0.003065,0.007340,-0.000932,0.007422,-0.003148,-84.921306,0.007451,
1700,660,-1.757221,-10.475328,0.999996,0.000232,-0.004280,0.008083,-0.000162,0.008085,-0.004282,-89.247715,0.008090,
1760,180,-0.784699,-14.026223,0.999997,0.000195,-0.003292,0.007362,-0.000999,0.007454,-0.003385,-84.689221,0.007465,
760,1680,1.164376,-2.431787,0.999998,0.000158,-0.003452,0.007477,-0.000041,0.007478,-0.003452,-89.786524,0.007485,
1210,560,0.041108,-12.396905,0.999998,0.000158,-0.001877,0.004828,-0.000335,0.004845,-0.001894,-87.148930,0.004883,
1660,650,-1.557433,-10.648674,0.999995,0.000239,-0.004426,0.008218,0.000014,0.008218,-0.004426,89.935228,0.008226,
640,240,1.223638,-13.428525,0.999997,0.000202,-0.003549,0.007612,0.000361,0.007624,-0.003561,88.147718,0.007629,
1330,300,-0.135970,-13.727864,0.999998,0.000156,-0.001555,0.005396,0.000137,0.005399,-0.001558,88.874748,0.005558,
1750,1840,-0.883655,-1.333115,0.999997,0.000201,-0.003302,0.007430,0.000715,0.007477,-0.003350,86.202859,0.007491,
1800,340,-1.429890,-12.724607,0.999997,0.000207,-0.003670,0.007534,-0.000016,0.007535,-0.003670,-89.920138,0.007535,
1360,570,-0.274451,-12.171387,0.999997,0.000176,-0.002702,0.005706,0.001294,0.005901,-0.002897,81.446822,0.005901,
1870,1910,-0.989714,-1.122708,0.999996,0.000241,-0.003624,0.007761,0.000785,0.007815,-0.003678,86.075238,0.007819,
980,1190,1.344554,-5.876745,0.999995,0.000269,-0.005586,0.010177,-0.000044,0.010178,-0.005586,-89.839574,0.010194,
1370,850,-0.634690,-10.360692,0.999993,0.000297,-0.004644,0.007157,0.003386,0.008059,-0.005547,75.076579,0.008248,
910,220,0.412801,-14.005801,0.999998,0.000195,-0.001724,0.006110,0.000575,0.006152,-0.001766,85.822722,0.006335,
890,1410,1.151867,-4.194084,0.999997,0.000199,-0.004611,0.008269,0.000558,0.008293,-0.004635,87.522398,0.008312,
1150,130,0.041118,-14.608536,0.999998,0.000150,-0.000532,0.004804,0.000143,0.004807,-0.000536,88.466539,0.005269,
1400,1810,-0.197499,-1.135482,0.999998,0.000167,-0.001391,0.005474,0.000110,0.005476,-0.001393,89.083124,0.005692,
1750,80,-0.304128,-14.740118,0.999997,0.000204,-0.001848,0.006420,-0.001977,0.006868,-0.002296,-77.222215,0.006993,
970,1810,0.345268,-1.208439,0.999997,0.000200,-0.001867,0.005973,-0.000265,0.005982,-0.001876,-88.063601,0.006119,
560,1770,1.701983,-2.280087,0.999748,0.000000,-0.005815,0.007640,0.000378,0.007650,-0.005826,88.390356,0.007992,
930,1430,0.937234,-3.903431,0.999997,0.000217,-0.004389,0.007897,0.000887,0.007961,-0.004453,85.889994,0.007980,
850,1050,2.311594,-7.381304,0.999997,0.000221,-0.002895,0.007858,-0.000303,0.007866,-0.002903,-88.385698,0.007955,
900,110,0.187179,-14.647974,0.999998,0.000172,-0.000877,0.005583,0.000949,0.005719,-0.001014,81.815826,0.006104,
1420,550,-0.441851,-12.127077,0.999997,0.000207,-0.003177,0.006426,0.001242,0.006584,-0.003335,82.748224,0.006584,
890,1920,0.254872,-0.617596,0.999998,0.000179,-0.001310,0.005761,-0.000907,0.005876,-0.001424,-82.804026,0.006130,
1700,430,-1.269012,-12.278515,0.999997,0.000180,-0.003681,0.007574,0.000153,0.007576,-0.003683,89.218894,0.007577,
1800,30,-0.069690,-15.051471,0.999997,0.000000,-0.000052,0.006358,-0.003067,0.007589,-0.001283,-68.130867,0.008125,
880,1430,1.159025,-4.057869,0.999997,0.000199,-0.004473,0.008068,0.000516,0.008089,-0.004494,87.646658,0.008106,
1580,800,-1.598066,-9.543152,0.999995,0.000258,-0.005057,0.009162,-0.000512,0.009180,-0.005076,-87.939690,0.009197,
840,2010,0.075257,-0.133516,0.999998,0.000177,-0.000145,0.005252,-0.001228,0.005518,-0.000411,-77.768410,0.006148,
1240,1270,-0.016205,-3.493665,0.999998,0.000180,-0.001941,0.001704,-0.000375,0.001742,-0.001979,-84.191130,0.002161,
960,1110,1.832842,-6.762854,0.999996,0.000249,-0.003838,0.009818,-0.000885,0.009875,-0.003895,-86.309007,0.009948,
1550,650,-1.052724,-10.957642,0.999997,0.000225,-0.004599,0.008200,0.000737,0.008243,-0.004642,86.717371,0.008264,
880,810,1.645978,-9.441544,0.999997,0.000224,-0.004923,0.009099,0.000605,0.009125,-0.004949,87.532147,0.009136,
1210,1430,0.037087,-3.017644,0.999998,0.000143,-0.001783,0.004238,0.000434,0.004269,-0.001814,85.901809,0.004285,
1540,1670,-0.658839,-2.169484,0.999998,0.000185,-0.002752,0.006716,-0.000194,0.006720,-0.002756,-88.826322,0.006756,
1010,1460,0.577824,-3.398692,0.999997,0.000209,-0.003749,0.007045,0.001401,0.007224,-0.003928,82.724881,0.007233,
1050,1590,0.384740,-2.444949,0.999997,0.000210,-0.002529,0.006141,0.000690,0.006196,-0.002583,85.477461,0.006224,
710,1770,1.116932,-1.868795,0.999996,0.000225,-0.003571,0.007516,-0.000256,0.007522,-0.003577,-88.677620,0.007525,
1220,590,0.021094,-12.263276,0.999998,0.000162,-0.001798,0.004558,-0.000260,0.004569,-0.001809,-87.658645,0.004601,
1420,160,-0.140584,-14.427464,0.999998,0.000229,-0.001011,0.005261,-0.000333,0.005279,-0.001029,-86.971617,0.005596,
1840,940,-2.973883,-8.146929,0.999998,0.000185,-0.003252,0.006816,-0.000374,0.006830,-0.003266,-87.878117,0.006832,
810,460,1.152509,-12.163306,0.999999,0.000146,-0.003671,0.007549,-0.000261,0.007555,-0.003677,-88.668039,0.007556,
1460,1080,-1.794185,-6.950179,0.999995,0.000257,-0.004096,0.011204,-0.000134,0.011205,-0.004097,-89.499119,0.011339,
1660,380,-1.026161,-12.745016,0.999997,0.000191,-0.003464,0.007396,0.000091,0.007396,-0.003464,89.520085,0.007401,
640,220,1.149327,-13.581382,0.999997,0.000213,-0.003510,0.007703,0.000495,0.007725,-0.003531,87.477300,0.007735,
1700,1100,-2.524994,-7.014604,0.999997,0.000219,-0.003336,0.007607,0.000663,0.007647,-0.003376,86.545643,0.007664,
1800,320,-1.383107,-12.871690,0.999997,0.000212,-0.003633,0.007506,-0.000070,0.007507,-0.003633,-89.638419,0.007508,
1740,590,-1.756193,-10.944316,0.999996,0.000219,-0.004077,0.007812,-0.000014,0.007812,-0.004077,-89.930914,0.007814,
570,2010,0.331800,-0.311151,0.999933,0.001002,-0.000188,0.010357,-0.005781,0.012909,-0.002739,-66.183787,0.013603,
930,480,0.756946,-12.302860,0.999997,0.000208,-0.003399,0.007130,-0.000621,0.007167,-0.003436,-86.636168,0.007169,
1860,1910,-0.952709,-1.085169,0.999997,0.000206,-0.003627,0.007748,0.000778,0.007801,-0.003680,86.105418,0.007805,
1490,970,-1.888246,-8.136050,0.999997,0.000233,-0.003478,0.009971,-0.000617,0.009999,-0.003506,-87.378918,0.010147,
680,880,2.673366,-8.617449,0.999996,0.000222,-0.003577,0.007411,0.000698,0.007455,-0.003621,86.379407,0.007456,
1650,960,-2.368610,-8.080973,0.999995,0.000242,-0.003230,0.007827,-0.000759,0.007879,-0.003282,-86.093419,0.007916,
1760,200,-0.863240,-13.874808,0.999998,0.000172,-0.003347,0.007475,-0.000816,0.007537,-0.003408,-85.711025,0.007548,
1010,1850,0.231395,-0.951309,0.999998,0.000191,-0.001232,0.005553,-0.000360,0.005572,-0.001251,-86.970056,0.005847,
960,1190,1.455640,-5.965662,0.999995,0.000310,-0.005357,0.009982,-0.000377,0.009991,-0.005366,-88.591674,0.010000,
1610,1600,-0.989313,-2.818373,0.999998,0.000189,-0.003566,0.007390,-0.000354,0.007401,-0.003577,-88.151605,0.007403,
850,520,1.103435,-11.807446,0.999997,0.000209,-0.003894,0.007625,-0.000432,0.007641,-0.003910,-87.855074,0.007642,
1720,490,-1.464449,-11.772982,0.999996,0.000227,-0.003882,0.007682,0.000200,0.007686,-0.003886,89.010615,0.007686,
760,1660,1.207909,-2.583042,0.999998,0.000179,-0.003584,0.007503,0.000080,0.007503,-0.003585,89.586692,0.007506,
930,1450,0.907086,-3.745717,0.999997,0.000222,-0.004223,0.007737,0.000869,0.007800,-0.004286,85.864337,0.007812,
1810,1400,-2.192190,-4.838897,0.999997,0.000203,-0.003880,0.007708,0.000192,0.007711,-0.003883,89.051583,0.007711,
1100,1810,0.154535,-1.115842,0.999998,0.000167,-0.001232,0.005343,-0.000107,0.005345,-0.001234,-89.070087,0.005597,
1360,470,-0.254351,-12.748370,0.999998,0.000141,-0.002252,0.005744,0.000632,0.005793,-0.002302,85.507850,0.005834,
850,1030,2.326426,-7.540055,0.999997,0.000236,-0.002873,0.007938,-0.000054,0.007938,-0.002873,-89.714326,0.008039,
1680,250,-0.789501,-13.646614,0.999997,0.000185,-0.003007,0.007125,-0.000574,0.007157,-0.003040,-86.768190,0.007184,
1420,430,-0.382184,-12.878011,0.999997,0.000218,-0.002454,0.006065,0.000572,0.006104,-0.002493,86.172989,0.006138,
850,40,0.059930,-15.011256,0.999998,0.000155,-0.000157,0.005154,0.001188,0.005408,-0.000411,77.946724,0.006021,
580,1240,2.871159,-6.172842,0.999998,0.000182,-0.003535,0.006906,-0.000129,0.006907,-0.003537,-89.291939,0.006908,
1220,1770,0.015956,-1.285495,0.999998,0.000185,-0.001351,0.005221,0.000045,0.005222,-0.001351,89.608962,0.005420,
940,1110,1.907724,-6.807396,0.999996,0.000249,-0.003655,0.009348,-0.000960,0.009419,-0.003726,-85.799779,0.009487,
1320,1540,-0.175323,-2.565499,0.999997,0.000195,-0.002198,0.005381,-0.000750,0.005454,-0.002271,-84.400944,0.005480,
870,1820,0.527667,-1.250907,0.999997,0.000220,-0.002381,0.006521,-0.000529,0.006552,-0.002413,-86.607928,0.006628,
880,790,1.577769,-9.626733,0.999995,0.000244,-0.005008,0.009089,0.000426,0.009102,-0.005021,88.270529,0.009118,
710,1810,0.994905,-1.564928,0.999997,0.000207,-0.003464,0.007532,-0.000474,0.007553,-0.003484,-87.535851,0.007560,
1150,110,0.031937,-14.703223,0.999998,0.000167,-0.000404,0.004777,0.000159,0.004782,-0.000408,88.240084,0.005301,
790,940,2.407801,-8.230062,0.999997,0.000215,-0.003365,0.007730,0.000710,0.007776,-0.003410,86.351036,0.007795,
560,1760,1.721566,-2.364100,0.999833,0.000000,-0.005731,0.006680,0.000115,0.006681,-0.005732,89.470341,0.007229,
1590,700,-1.353444,-10.408038,0.999996,0.000242,-0.004871,0.008623,0.000184,0.008625,-0.004873,89.217759,0.008650,
1220,570,0.021264,-12.355802,0.999999,0.000146,-0.001842,0.004737,-0.000242,0.004746,-0.001851,-87.900285,0.004784,
1800,300,-1.329008,-13.024496,0.999997,0.000217,-0.003593,0.007595,-0.000206,0.007599,-0.003597,-88.943713,0.007602,
1750,1820,-0.953550,-1.483974,0.999997,0.000189,-0.003353,0.007497,0.000554,0.007526,-0.003381,87.083397,0.007539,
1660,360,-0.987091,-12.894661,0.999998,0.000149,-0.003428,0.007245,0.000029,0.007245,-0.003428,89.845326,0.007248,
810,440,1.115362,-12.314798,0.999998,0.000160,-0.003568,0.007455,-0.000233,0.007460,-0.003573,-88.791535,0.007463,
1840,920,-2.939482,-8.284409,0.999997,0.000203,-0.003299,0.006873,-0.000377,0.006887,-0.003313,-87.879429,0.006889,
1540,540,-0.852392,-11.852588,0.999996,0.000235,-0.003845,0.007446,0.000784,0.007500,-0.003899,86.045924,0.007502,
730,1640,1.358656,-2.804796,0.999996,0.000232,-0.003678,0.007581,0.000132,0.007582,-0.003680,89.329598,0.007583,
1220,220,0.011390,-14.167369,0.999998,0.000174,-0.001044,0.005039,-0.000053,0.005039,-0.001044,-89.504536,0.005319,
1460,1060,-1.853722,-7.177962,0.999995,0.000266,-0.003908,0.011838,-0.000097,0.011838,-0.003909,-89.646554,0.012064,
1700,1080,-2.555684,-7.167390,0.999996,0.000227,-0.003261,0.007506,0.000400,0.007521,-0.003276,87.875822,0.007542,
1050,1630,0.363441,-2.200440,0.999997,0.000196,-0.002452,0.006063,0.000579,0.006103,-0.002492,86.130108,0.006137,
1270,1320,-0.058011,-3.443667,0.999997,0.000183,-0.001757,0.002897,-0.001394,0.003283,-0.002143,-74.534892,0.003334,
1720,470,-1.422450,-11.926745,0.999996,0.000222,-0.003825,0.007644,0.000200,0.007648,-0.003828,89.003533,0.007648,
680,860,2.626420,-8.766517,0.999996,0.000234,-0.003657,0.007412,0.000712,0.007458,-0.003703,86.335163,0.007458,
1400,960,-1.425618,-8.893673,0.999967,0.000734,-0.005189,0.014782,0.005560,0.016225,-0.006632,75.445663,0.016315,
1510,820,-1.298288,-9.573783,0.999994,0.000297,-0.005595,0.009769,0.000022,0.009769,-0.005595,89.918400,0.009804,
640,200,1.071093,-13.738588,0.999997,0.000206,-0.003439,0.007706,0.000602,0.007738,-0.003471,86.918988,0.007752,
1760,220,-0.937046,-13.727132,0.999998,0.000179,-0.003397,0.007436,-0.000666,0.007477,-0.003438,-86.493689,0.007485,
1420,140,-0.117474,-14.534887,0.999998,0.000180,-0.000900,0.005135,-0.000333,0.005153,-0.000918,-86.848669,0.005497,
1050,300,0.268186,-13.663709,0.999997,0.000232,-0.001888,0.005721,-0.000099,0.005722,-0.001890,-89.255551,0.005831,
1080,1810,0.176970,-1.125959,0.999999,0.000138,-0.001218,0.005415,-0.000145,0.005418,-0.001221,-88.748921,0.005684,
630,1200,2.792648,-6.371824,0.999996,0.000231,-0.003521,0.007209,-0.000550,0.007237,-0.003549,-87.071033,0.007238,
590,1240,2.837546,-6.152396,0.999998,0.000170,-0.003479,0.006931,-0.000220,0.006936,-0.003484,-88.791079,0.006936,
1580,780,-1.528488,-9.726117,0.999995,0.000265,-0.005084,0.009035,-0.000342,0.009043,-0.005092,-88.611593,0.009067,
1010,1830,0.255244,-1.062091,0.999998,0.000174,-0.001351,0.005634,-0.000296,0.005646,-0.001363,-87.577950,0.005893,
1370,1590,-0.275940,-2.357994,0.999997,0.000214,-0.002338,0.005811,-0.000675,0.005867,-0.002393,-85.293740,0.005900,
760,1640,1.247169,-2.735032,0.999996,0.000225,-0.003661,0.007558,0.000138,0.007559,-0.003662,89.295863,0.007561,
1720,590,-1.674379,-10.990168,0.999996,0.000227,-0.004126,0.007870,0.000015,0.007870,-0.004126,89.928200,0.007873,
890,1390,1.190901,-4.359089,0.999997,0.000207,-0.004722,0.008424,0.000477,0.008441,-0.004740,87.923958,0.008462,
1320,1520,-0.175509,-2.672408,0.999998,0.000179,-0.002203,0.005314,-0.000804,0.005399,-0.002288,-83.965342,0.005419,
850,1010,2.316504,-7.698873,0.999997,0.000225,-0.002875,0.007899,0.000253,0.007905,-0.002881,88.657571,0.008001,
820,850,2.057229,-8.986970,0.999997,0.000217,-0.004226,0.008402,0.000977,0.008478,-0.004301,85.603169,0.008478,
1010,1440,0.593128,-3.543431,0.999997,0.000207,-0.003921,0.007158,0.001494,0.007356,-0.004119,82.453532,0.007373,
970,1790,0.372574,-1.327836,0.999997,0.000213,-0.002031,0.006043,-0.000181,0.006047,-0.002035,-88.715348,0.006153,
1360,650,-0.279126,-11.716861,0.999997,0.000226,-0.003001,0.005719,0.001897,0.006114,-0.003396,78.242012,0.006127,
950,1940,0.160598,-0.485032,0.999998,0.000165,-0.000920,0.005389,-0.000733,0.005473,-0.001004,-83.463473,0.005827,
560,1750,1.752898,-2.423143,0.999862,0.000000,-0.005462,0.006538,0.000156,0.006540,-0.005464,89.253327,0.007013,
720,1300,2.192725,-5.493289,0.999997,0.000224,-0.004073,0.007958,-0.000595,0.007987,-0.004102,-87.173489,0.007988,
850,500,1.070840,-11.959168,0.999998,0.000173,-0.003757,0.007502,-0.000431,0.007519,-0.003773,-87.810470,0.007519,
1200,590,0.056739,-12.246456,0.999998,0.000146,-0.001871,0.004622,-0.000410,0.004647,-0.001896,-86.404334,0.004674,
1230,360,0.001582,-13.439888,0.999998,0.000160,-0.001646,0.005296,0.000003,0.005296,-0.001646,89.974702,0.005420,
820,2010,0.076060,-0.134116,0.999999,0.000145,-0.000254,0.005342,-0.001375,0.005662,-0.000573,-76.910457,0.006233,
1150,90,0.025314,-14.798441,0.999998,0.000159,-0.000313,0.004664,0.000146,0.004669,-0.000317,88.326007,0.005217,
1140,1430,0.180445,-3.141774,0.999998,0.000181,-0.002392,0.005043,0.001365,0.005286,-0.002634,79.917697,0.005286,
930,1470,0.883357,-3.592024,0.999997,0.000194,-0.004102,0.007672,0.000886,0.007738,-0.004168,85.719919,0.007746,
1350,100,-0.042781,-14.746490,0.999998,0.000173,-0.000442,0.004813,-0.000244,0.004824,-0.000454,-87.348260,0.005328,
590,1110,3.087951,-7.032175,0.999998,0.000186,-0.003114,0.006456,-0.000175,0.006459,-0.003117,-88.954192,0.006460,
1330,40,-0.009119,-15.026862,0.999999,0.000135,-0.000157,0.004479,-0.000179,0.004486,-0.000164,-87.788839,0.005089,
1460,1040,-1.888818,-7.417679,0.999995,0.000294,-0.003857,0.011942,-0.000092,0.011942,-0.003858,-89.668114,0.012189,
1540,580,-0.904498,-11.547439,0.999997,0.000216,-0.004063,0.007653,0.000816,0.007709,-0.004119,86.037027,0.007715,
1550,600,-0.973340,-11.361776,0.999997,0.000206,-0.004264,0.007826,0.000781,0.007877,-0.004314,86.317663,0.007889,
1490,950,-1.807124,-8.336292,0.999996,0.000233,-0.003868,0.010210,-0.000721,0.010246,-0.003904,-87.077471,0.010343,
710,1660,1.388098,-2.702360,0.999997,0.000199,-0.003712,0.007588,0.000081,0.007589,-0.003712,89.588800,0.007589,
1220,180,0.008481,-14.368521,0.999998,0.000165,-0.000874,0.004939,-0.000006,0.004939,-0.000874,-89.945683,0.005272,
1060,1360,0.443704,-3.890416,0.999996,0.000222,-0.004157,0.006917,0.002265,0.007363,-0.004602,78.875349,0.007439,
1260,1310,-0.041768,-3.441571,0.999998,0.000167,-0.001664,0.002591,-0.001108,0.002862,-0.001935,-76.248386,0.002921,
1710,1780,-0.948860,-1.705467,0.999997,0.000219,-0.003048,0.007350,0.000514,0.007376,-0.003073,87.175782,0.007410,
1870,100,-0.725177,-14.359511,0.999996,0.000235,-0.003465,0.008301,-0.001647,0.008527,-0.003692,-82.177943,0.008553,
1700,1060,-2.568233,-7.316905,0.999996,0.000218,-0.003179,0.007438,0.000262,0.007445,-0.003186,88.588736,0.007471,
1880,1520,-2.173628,-4.075131,0.999997,0.000212,-0.003785,0.007596,-0.000008,0.007596,-0.003785,-89.960353,0.007596,
1800,280,-1.270798,-13.178183,0.999997,0.000193,-0.003546,0.007600,-0.000308,0.007609,-0.003554,-88.419473,0.007614,
1760,240,-1.005969,-13.575455,0.999997,0.000200,-0.003473,0.007539,-0.000480,0.007560,-0.003494,-87.506906,0.007567,
640,180,0.987239,-13.894798,0.999997,0.000194,-0.003414,0.007760,0.000836,0.007822,-0.003477,85.743951,0.007838,
850,990,2.300668,-7.856110,0.999997,0.000213,-0.002966,0.007887,0.000442,0.007905,-0.002984,87.670747,0.007984,
650,1200,2.721623,-6.347368,0.999997,0.000211,-0.003568,0.007283,-0.000619,0.007318,-0.003603,-86.746440,0.007318,
930,460,0.731764,-12.446169,0.999998,0.000203,-0.003335,0.007035,-0.000581,0.007068,-0.003367,-86.801302,0.007070,
1200,570,0.058248,-12.341336,0.999998,0.000165,-0.001889,0.004787,-0.000386,0.004810,-0.001911,-86.699785,0.004843,
560,1740,1.790917,-2.461202,0.999892,0.000000,-0.005229,0.007198,0.000315,0.007206,-0.005237,88.549627,0.007449,
800,850,2.138939,-8.963756,0.999997,0.000216,-0.004085,0.008254,0.000956,0.008328,-0.004159,85.596279,0.008328,
820,2000,0.104621,-0.188457,0.999998,0.000175,-0.000415,0.005435,-0.001384,0.005746,-0.000726,-77.339078,0.006257,
720,1280,2.251484,-5.653145,0.999998,0.000215,-0.003990,0.007897,-0.000680,0.007936,-0.004029,-86.736487,0.007936,
760,1620,1.291185,-2.886452,0.999996,0.000233,-0.003704,0.007569,0.000165,0.007572,-0.003707,89.159527,0.007572,
1220,430,0.019947,-13.067196,0.999998,0.000174,-0.001809,0.005274,-0.000144,0.005277,-0.001812,-88.834824,0.005362,
860,410,0.891242,-12.648528,0.999997,0.000233,-0.003258,0.007177,-0.000200,0.007181,-0.003262,-88.903245,0.007191,
1790,460,-1.668596,-11.833799,0.999997,0.000223,-0.003808,0.007634,0.000130,0.007635,-0.003809,89.348534,0.007635,
1570,100,-0.171654,-14.701489,0.999998,0.000183,-0.000904,0.005458,-0.000967,0.005602,-0.001048,-81.547105,0.005956,
630,380,1.651087,-12.336705,0.999996,0.000221,-0.003702,0.007569,-0.000068,0.007570,-0.003702,-89.656736,0.007570,
1150,70,0.016917,-14.891031,0.999998,0.000160,-0.000225,0.004599,0.000184,0.004606,-0.000232,87.818948,0.005189,
1420,650,-0.486261,-11.464363,0.999996,0.000241,-0.003944,0.006922,0.001852,0.007229,-0.004251,80.588394,0.007266,
1120,1430,0.231650,-3.205544,0.999998,0.000205,-0.002671,0.005389,0.001640,0.005710,-0.002992,78.931294,0.005712,
930,1490,0.856846,-3.438978,0.999997,0.000203,-0.003983,0.007591,0.000863,0.007655,-0.004047,85.759639,0.007659,
1460,1020,-1.890636,-7.644332,0.999993,0.000313,-0.003830,0.011768,0.000058,0.011768,-0.003830,89.785653,0.012005,
710,1640,1.433498,-2.853004,0.999996,0.000230,-0.003717,0.007586,0.000137,0.007588,-0.003719,89.304190,0.007588,
1550,90,-0.139080,-14.758848,0.999998,0.000168,-0.000574,0.005284,-0.000899,0.005419,-0.000709,-81.464852,0.005891,
1220,160,0.008892,-14.465357,0.999998,0.000159,-0.000734,0.004911,-0.000010,0.004911,-0.000734,-89.903096,0.005298,
890,1370,1.233335,-4.531877,0.999997,0.000201,-0.004847,0.008558,0.000412,0.008571,-0.004860,88.239399,0.008597,
1520,1810,-0.399828,-1.239390,0.999997,0.000208,-0.001971,0.006106,0.000366,0.006122,-0.001988,87.413570,0.006247,
1250,180,-0.015069,-14.366845,0.999998,0.000161,-0.000813,0.004935,0.000017,0.004935,-0.000813,89.826641,0.005292,
1160,1770,0.092008,-1.298703,0.999998,0.000154,-0.001259,0.005322,-0.000034,0.005322,-0.001260,-89.708122,0.005562,
800,90,0.232838,-14.726321,0.999998,0.000170,-0.001220,0.005897,0.001441,0.006178,-0.001500,78.976990,0.006445,
1660,340,-0.944465,-13.036559,0.999998,0.000176,-0.003350,0.007243,-0.000037,0.007243,-0.003350,-89.797789,0.007250,
1840,900,-2.908333,-8.422571,0.999997,0.000193,-0.003330,0.006816,-0.000310,0.006825,-0.003339,-88.252416,0.006826,
1490,840,-1.268686,-9.465402,0.999994,0.000301,-0.005747,0.010043,0.000162,0.010044,-0.005749,89.411206,0.010079,
680,840,2.579047,-8.916688,0.999997,0.000214,-0.003716,0.007380,0.000657,0.007419,-0.003755,86.622378,0.007419,
1590,1080,-2.209696,-7.133634,0.999997,0.000238,-0.003051,0.008190,0.000719,0.008236,-0.003097,86.355559,0.008320,
1410,1050,-1.586432,-7.125854,0.999928,0.000989,-0.007496,0.018773,-0.002175,0.018951,-0.007675,-85.299192,0.019065,
1690,1780,-0.887239,-1.668654,0.999998,0.000171,-0.003122,0.007241,0.000433,0.007259,-0.003140,87.609150,0.007281,
1240,1630,-0.015231,-2.025386,0.999998,0.000151,-0.001801,0.005293,-0.000094,0.005295,-0.001802,-89.238460,0.005384,
970,1770,0.404311,-1.453028,0.999997,0.000219,-0.002160,0.006138,-0.000106,0.006139,-0.002161,-89.268812,0.006228,
1090,300,0.204955,-13.697317,0.999998,0.000161,-0.001483,0.005552,-0.000015,0.005552,-0.001483,-89.874330,0.005750,
1700,1040,-2.581362,-7.465440,0.999997,0.000211,-0.003160,0.007477,0.000197,0.007481,-0.003163,88.940479,0.007510,
850,970,2.270602,-8.015791,0.999996,0.000221,-0.003108,0.008026,0.000728,0.008074,-0.003155,86.273980,0.008138,
640,160,0.891194,-14.052782,0.999997,0.000223,-0.003342,0.007802,0.001031,0.007896,-0.003437,84.755942,0.007918,
720,1260,2.306313,-5.808498,0.999997,0.000224,-0.003939,0.007778,-0.000731,0.007824,-0.003984,-86.441941,0.007824,
1060,1340,0.459957,-4.026007,0.999996,0.000213,-0.004412,0.007139,0.002410,0.007621,-0.004894,78.673563,0.007723,
1550,1940,-0.188447,-0.496741,0.999998,0.000180,-0.000748,0.005555,0.000933,0.005690,-0.000883,81.756394,0.006125,
1240,1310,-0.012376,-3.415702,0.999998,0.000163,-0.001476,0.002380,-0.000315,0.002405,-0.001501,-85.365105,0.002430,
1760,1170,-2.601488,-6.519674,0.999997,0.000227,-0.003645,0.007523,0.000755,0.007574,-0.003696,86.149511,0.007575,
1370,1570,-0.281366,-2.475608,0.999997,0.000191,-0.002451,0.005841,-0.000811,0.005919,-0.002529,-84.467946,0.005940,
1270,110,-0.017681,-14.706594,0.999998,0.000164,-0.000405,0.004729,-0.000095,0.004730,-0.000407,-88.938445,0.005243,
1790,1400,-2.113471,-4.795489,0.999997,0.000211,-0.003953,0.007751,0.000219,0.007756,-0.003958,88.927127,0.007756,
1620,1380,-1.435185,-4.579690,0.999997,0.000220,-0.004661,0.008395,-0.000095,0.008395,-0.004662,-89.581061,0.008412,
1800,260,-1.209773,-13.330028,0.999997,0.000191,-0.003490,0.007599,-0.000450,0.007618,-0.003508,-87.682629,0.007626,
760,1600,1.328756,-3.038101,0.999997,0.000214,-0.003752,0.007586,0.000201,0.007589,-0.003756,88.985458,0.007589,
1330,220,-0.098050,-14.150796,0.999998,0.000197,-0.001146,0.005182,-0.000021,0.005182,-0.001146,-89.807036,0.005445,
560,1730,1.796637,-2.558914,0.999898,0.000000,-0.005167,0.008100,0.000365,0.008110,-0.005177,88.424969,0.008213,
870,1040,2.263463,-7.458181,0.999996,0.000226,-0.002811,0.008059,-0.000223,0.008064,-0.002815,-88.826191,0.008185,
790,1470,1.468996,-3.976749,0.999996,0.000226,-0.004197,0.007876,0.000124,0.007877,-0.004198,89.410845,0.007883,
1080,430,0.292896,-12.943661,0.999998,0.000164,-0.002272,0.005857,-0.000555,0.005895,-0.002310,-86.112794,0.005941,
1670,1920,-0.398347,-0.675713,0.999997,0.000214,-0.001962,0.006353,0.001282,0.006546,-0.002155,81.431631,0.006672,
1240,610,-0.015431,-12.175302,0.999998,0.000154,-0.001763,0.004406,0.000194,0.004412,-0.001769,88.197840,0.004441,
1460,1000,-1.867504,-7.885901,0.999994,0.000296,-0.003875,0.011961,0.000105,0.011962,-0.003876,89.620661,0.012207,
1800,750,-2.403793,-9.570383,0.999997,0.000208,-0.003848,0.007597,-0.000497,0.007618,-0.003869,-87.516885,0.007619,
1030,1460,0.503708,-3.329772,0.999997,0.000205,-0.003526,0.006757,0.001423,0.006950,-0.003719,82.264521,0.006956,
1140,1980,0.022072,-0.251529,0.999998,0.000146,-0.000311,0.004649,-0.000172,0.004655,-0.000317,-88.016653,0.005201,
580,1110,3.120287,-7.041757,0.999998,0.000174,-0.002997,0.006309,-0.000130,0.006311,-0.002999,-89.199222,0.006314,
1550,70,-0.095368,-14.864878,0.999998,0.000154,-0.000359,0.005193,-0.000928,0.005344,-0.000510,-80.755421,0.005898,
1780,1170,-2.675054,-6.538396,0.999996,0.000224,-0.003571,0.007384,0.000679,0.007426,-0.003613,86.466729,0.007427,
930,1930,0.199803,-0.550071,0.999997,0.000189,-0.000879,0.005540,-0.000798,0.005638,-0.000976,-83.021115,0.006026,
1260,1630,-0.051387,-2.033329,0.999998,0.000200,-0.001804,0.005317,-0.000169,0.005321,-0.001808,-88.643421,0.005411,
1830,240,-1.248884,-13.405871,0.999997,0.000224,-0.003604,0.007610,-0.000255,0.007616,-0.003610,-88.699103,0.007620,
1480,1870,-0.232785,-0.850997,0.999998,0.000166,-0.001243,0.005581,0.000454,0.005611,-0.001273,86.210239,0.005884,
1480,730,-0.859962,-10.554634,0.999996,0.000240,-0.005260,0.008720,0.001326,0.008844,-0.005384,84.630536,0.008914,
1890,840,-2.953535,-8.759110,0.999998,0.000182,-0.003357,0.006928,-0.000230,0.006933,-0.003362,-88.722179,0.006934,
760,110,0.358551,-14.585025,0.999997,0.000202,-0.001346,0.006491,0.001793,0.006882,-0.001737,77.704468,0.007157,
890,1350,1.280434,-4.702540,0.999997,0.000233,-0.004965,0.008692,0.000307,0.008699,-0.004972,88.713023,0.008728,
1490,1520,-0.664883,-3.092233,0.999997,0.000210,-0.003582,0.007037,-0.000980,0.007126,-0.003671,-84.770134,0.007128,
1010,1810,0.281145,-1.177956,0.999998,0.000172,-0.001502,0.005755,-0.000255,0.005764,-0.001511,-87.987135,0.005977,
1480,910,-1.565055,-8.791667,0.999994,0.000286,-0.004860,0.010359,-0.000420,0.010371,-0.004872,-88.419311,0.010377,
1270,90,-0.014481,-14.798954,0.999999,0.000144,-0.000301,0.004612,-0.000068,0.004613,-0.000302,-89.207403,0.005161,
1790,2020,-0.103446,-0.099494,0.999997,0.000000,-0.000004,0.006298,0.002877,0.007414,-0.001120,68.803679,0.007993,
1530,180,-0.298442,-14.263009,0.999998,0.000190,-0.001370,0.005792,-0.000625,0.005846,-0.001424,-85.052591,0.006097,
1840,880,-2.874863,-8.558993,0.999997,0.000205,-0.003404,0.006952,-0.000379,0.006966,-0.003418,-87.904638,0.006966,
640,140,0.790517,-14.208222,0.999996,0.000243,-0.003248,0.007797,0.001259,0.007939,-0.003389,83.579212,0.007967,
1110,1350,0.262961,-3.682601,0.999996,0.000236,-0.003312,0.005605,0.002532,0.006274,-0.003981,75.202722,0.006349,
680,250,1.117145,-13.445711,0.999998,0.000184,-0.003506,0.007605,0.000477,0.007626,-0.003527,87.548777,0.007633,
1320,1500,-0.177860,-2.778521,0.999998,0.000176,-0.002226,0.005303,-0.000880,0.005405,-0.002327,-83.421843,0.005422,
1410,1200,-0.879566,-5.234462,0.999994,0.000285,-0.005518,0.009305,-0.002164,0.009614,-0.005828,-81.863032,0.009686,
680,820,2.528464,-9.064349,0.999997,0.000216,-0.003785,0.007517,0.000684,0.007559,-0.003826,86.550182,0.007559,
1070,300,0.234015,-13.683100,0.999998,0.000171,-0.001621,0.005636,-0.000023,0.005636,-0.001622,-89.819787,0.005803,
1460,980,-1.812548,-8.113680,0.999996,0.000249,-0.004002,0.011275,0.000134,0.011276,-0.004003,89.496773,0.011433,
1090,220,0.147042,-14.130487,0.999998,0.000179,-0.001058,0.005274,0.000168,0.005279,-0.001062,88.481450,0.005584,
970,1750,0.430208,-1.573547,0.999997,0.000209,-0.002293,0.006188,0.000009,0.006188,-0.002293,89.938294,0.006257,
760,1580,1.368589,-3.190999,0.999997,0.000207,-0.003810,0.007632,0.000225,0.007637,-0.003815,88.875972,0.007637,
1240,1290,-0.012807,-3.457761,0.999998,0.000156,-0.001631,0.002019,-0.000326,0.002048,-0.001660,-84.940516,0.002175,
1800,730,-2.350484,-9.725193,0.999998,0.000186,-0.003866,0.007673,-0.000437,0.007690,-0.003883,-87.833298,0.007690,
640,710,2.384805,-9.834713,0.999997,0.000219,-0.003809,0.007585,0.000323,0.007594,-0.003818,88.376256,0.007594,
1710,1980,-0.229175,-0.323434,0.999998,0.000153,-0.000831,0.005931,0.001836,0.006397,-0.001298,75.748137,0.006763,
1700,1020,-2.584620,-7.617856,0.999997,0.000206,-0.003138,0.007481,-0.000106,0.007482,-0.003139,-89.426370,0.007514,
1080,1490,0.337768,-2.983316,0.999998,0.000174,-0.002804,0.005892,0.001240,0.006065,-0.002978,82.042799,0.006065,
1420,120,-0.099380,-14.633861,0.999999,0.000150,-0.000725,0.005047,-0.000394,0.005074,-0.000752,-86.115437,0.005477,
790,1450,1.512788,-4.134627,0.999996,0.000208,-0.004268,0.007987,0.000114,0.007988,-0.004269,89.467300,0.007995,
1140,1960,0.029800,-0.347220,0.999998,0.000156,-0.000424,0.004704,-0.000162,0.004709,-0.000430,-88.197636,0.005208,
600,1110,3.055421,-7.023729,0.999998,0.000184,-0.003182,0.006573,-0.000214,0.006578,-0.003186,-88.743801,0.006579,
990,1040,1.928049,-7.429901,0.999996,0.000247,-0.003393,0.010972,-0.000040,0.010972,-0.003394,-89.841649,0.011235,
930,1910,0.232523,-0.656207,0.999998,0.000184,-0.001046,0.005628,-0.000744,0.005710,-0.001128,-83.713888,0.006048,
930,1720,0.568294,-1.828117,0.999998,0.000197,-0.002374,0.006647,-0.000030,0.006647,-0.002375,-89.811113,0.006737,
1360,1610,-0.248596,-2.229828,0.999998,0.000195,-0.002081,0.005689,-0.000478,0.005718,-0.002110,-86.493520,0.005783,
1660,320,-0.900421,-13.183767,0.999998,0.000173,-0.003227,0.007233,-0.000121,0.007235,-0.003229,-89.337734,0.007248,
1830,220,-1.174466,-13.560830,0.999997,0.000210,-0.003586,0.007681,-0.000390,0.007694,-0.003600,-88.020462,0.007700,
1320,1770,-0.114746,-1.305249,0.999998,0.000159,-0.001437,0.005357,-0.000071,0.005357,-0.001438,-89.400243,0.005546,
1650,1920,-0.360297,-0.660397,0.999997,0.000219,-0.001579,0.006180,0.001247,0.006376,-0.001774,81.093618,0.006581,
1060,1320,0.477927,-4.172197,0.999996,0.000221,-0.004641,0.007383,0.002542,0.007898,-0.005156,78.538980,0.008020,
1540,1980,-0.102406,-0.280793,0.999998,0.000166,-0.000411,0.005186,0.000895,0.005326,-0.000551,81.137140,0.005857,
1890,830,-2.930206,-8.828615,0.999997,0.000181,-0.003362,0.006901,-0.000213,0.006906,-0.003366,-88.813281,0.006906,
760,710,1.901614,-10.060979,0.999997,0.000225,-0.004312,0.008120,0.000404,0.008134,-0.004326,88.141792,0.008139,
1470,1520,-0.594017,-3.033163,0.999997,0.000238,-0.003404,0.006833,-0.001011,0.006932,-0.003503,-84.416012,0.006932,
890,1330,1.333441,-4.881595,0.999997,0.000248,-0.005052,0.008800,0.000177,0.008803,-0.005054,89.269591,0.008835,
1480,950,-1.765576,-8.369347,0.999995,0.000240,-0.004033,0.010562,-0.000570,0.010584,-0.004055,-87.767384,0.010680,
1270,70,-0.009875,-14.889901,0.999998,0.000146,-0.000194,0.004582,-0.000097,0.004584,-0.000196,-88.840623,0.005184,
1630,890,-2.130330,-8.662092,0.999997,0.000217,-0.003910,0.008323,-0.000996,0.008404,-0.003990,-85.376653,0.008407,
1460,960,-1.732364,-8.334382,0.999993,0.000309,-0.004205,0.011335,0.000119,0.011336,-0.004206,89.562150,0.011461,
1190,300,0.057948,-13.749192,0.999998,0.000165,-0.001341,0.005258,-0.000021,0.005258,-0.001341,-89.817341,0.005465,
1020,280,0.305192,-13.750475,0.999998,0.000180,-0.001772,0.005856,0.000096,0.005857,-0.001773,89.276410,0.006007,
910,1200,1.667354,-6.022033,0.999996,0.000244,-0.004920,0.009359,-0.000809,0.009405,-0.004965,-86.768694,0.009410,
1630,500,-1.134499,-11.915929,0.999997,0.000215,-0.003812,0.007591,0.000374,0.007604,-0.003825,88.124651,0.007604,
1790,30,-0.069766,-15.051290,0.999998,0.000000,0.000206,0.006256,-0.002972,0.007472,-0.001010,-67.751569,0.008108,
1430,220,-0.217404,-14.100236,0.999998,0.000185,-0.001419,0.005489,-0.000202,0.005495,-0.001425,-88.322421,0.005703,
1350,40,-0.013442,-15.025629,0.999999,0.000126,-0.000125,0.004531,-0.000221,0.004542,-0.000135,-87.292159,0.005168,
1290,1360,-0.097267,-3.369151,0.999999,0.000156,-0.001991,0.003951,-0.001582,0.004345,-0.002386,-75.984237,0.004352,
640,120,0.677526,-14.370802,0.999996,0.000252,-0.003080,0.007921,0.001538,0.008132,-0.003291,82.187798,0.008181,
1110,1790,0.151894,-1.216788,0.999998,0.000155,-0.001363,0.005394,-0.000001,0.005394,-0.001363,-89.990350,0.005610,
970,1730,0.455749,-1.702740,0.999997,0.000207,-0.002425,0.006348,0.000084,0.006349,-0.002426,89.453112,0.006408,
990,1020,1.934739,-7.638273,0.999995,0.000275,-0.003373,0.010801,0.000046,0.010801,-0.003373,89.815577,0.011051,
850,950,2.229899,-8.177586,0.999997,0.000210,-0.003298,0.008106,0.000826,0.008166,-0.003357,85.878668,0.008209,
1730,1840,-0.820495,-1.293518,0.999998,0.000147,-0.002910,0.007325,0.000928,0.007408,-0.002993,84.861303,0.007453,
1410,1040,-1.587489,-7.322031,0.999920,0.001033,-0.007629,0.019087,-0.001207,0.019141,-0.007683,-87.417976,0.019265,
790,1430,1.556083,-4.296586,0.999996,0.000220,-0.004311,0.008111,0.000061,0.008111,-0.004312,89.718324,0.008117,
1700,1000,-2.572621,-7.767028,0.999997,0.000227,-0.003147,0.007437,-0.000253,0.007443,-0.003153,-88.629322,0.007471,
1730,360,-1.226200,-12.741492,0.999997,0.000218,-0.003618,0.007519,-0.000041,0.007519,-0.003618,-89.791321,0.007521,
880,830,1.718703,-9.260389,0.999996,0.000260,-0.004825,0.009072,0.000748,0.009112,-0.004865,86.928400,0.009119,
640,670,2.280509,-10.137375,0.999996,0.000217,-0.003834,0.007593,0.000255,0.007598,-0.003839,88.724071,0.007599,
1750,1580,-1.548285,-3.303977,0.999998,0.000198,-0.003774,0.007682,-0.000153,0.007684,-0.003776,-89.236874,0.007684,
1890,290,-1.627313,-12.851814,0.999996,0.000250,-0.003643,0.007227,-0.000001,0.007227,-0.003643,-89.997249,0.007227,
1410,1460,-0.427516,-3.253708,0.999996,0.000218,-0.003336,0.006455,-0.001524,0.006687,-0.003567,-81.353906,0.006692,
1660,300,-0.852916,-13.327328,0.999998,0.000167,-0.003129,0.007120,-0.000252,0.007126,-0.003136,-88.593036,0.007143,
1140,1940,0.040718,-0.442434,0.999998,0.000145,-0.000505,0.004804,-0.000169,0.004809,-0.000511,-88.176979,0.005283,
950,1720,0.522204,-1.798825,0.999998,0.000206,-0.002490,0.006539,0.000063,0.006540,-0.002490,89.601279,0.006601,
930,1890,0.277050,-0.775033,0.999998,0.000183,-0.001234,0.005746,-0.000707,0.005817,-0.001305,-84.272326,0.006104,
1640,1990,-0.132555,-0.242401,0.999998,0.000193,-0.000510,0.005543,0.001421,0.005860,-0.000827,77.426829,0.006343,
1650,1080,-2.394980,-7.154633,0.999996,0.000230,-0.003135,0.007739,0.000561,0.007768,-0.003164,87.054964,0.007812,
1840,860,-2.829107,-8.702672,0.999997,0.000208,-0.003474,0.007134,-0.000487,0.007156,-0.003496,-87.378074,0.007157,
950,180,0.274222,-14.273816,0.999997,0.000206,-0.001488,0.005718,0.000547,0.005760,-0.001529,85.685662,0.005967,
890,570,1.025473,-11.528265,0.999997,0.000197,-0.004090,0.007771,-0.000666,0.007808,-0.004127,-86.798296,0.007812,
1540,1960,-0.144025,-0.384552,0.999998,0.000161,-0.000563,0.005298,0.000871,0.005425,-0.000690,81.721149,0.005906,
1480,930,-1.668466,-8.584117,0.999996,0.000222,-0.004462,0.010513,-0.000508,0.010530,-0.004479,-88.060703,0.010569,
760,1560,1.408618,-3.343885,0.999996,0.000228,-0.003885,0.007674,0.000222,0.007679,-0.003889,88.899026,0.007679,
1770,1740,-1.262071,-2.135707,0.999998,0.000177,-0.003620,0.007529,0.000081,0.007530,-0.003620,89.584668,0.007532,
1810,1520,-1.908722,-3.912533,0.999997,0.000207,-0.003841,0.007655,-0.000042,0.007655,-0.003841,-89.790605,0.007655,
1260,1980,-0.008264,-0.251672,0.999998,0.000184,-0.000261,0.004581,0.000064,0.004581,-0.000262,89.240820,0.005146,
1420,540,-0.434880,-12.192579,0.999997,0.000222,-0.003106,0.006398,0.001187,0.006545,-0.003253,82.986015,0.006545,
1490,220,-0.300808,-14.061017,0.999997,0.000213,-0.001676,0.005767,-0.000363,0.005785,-0.001694,-87.215333,0.005948,
1890,820,-2.907088,-8.898970,0.999997,0.000192,-0.003385,0.006866,-0.000189,0.006870,-0.003388,-88.945500,0.006870,
780,1970,0.242412,-0.374777,0.999998,0.000176,-0.001123,0.005866,-0.001581,0.006207,-0.001464,-77.830711,0.006489,
1270,1360,-0.060638,-3.310484,0.999998,0.000175,-0.001772,0.003582,-0.001101,0.003800,-0.001990,-78.819792,0.003802,
1170,300,0.084973,-13.744246,0.999999,0.000129,-0.001316,0.005283,0.000019,0.005284,-0.001316,89.831874,0.005501,
1630,870,-2.065627,-8.832313,0.999996,0.000234,-0.004114,0.008508,-0.001041,0.008593,-0.004199,-85.318943,0.008594,
1020,300,0.328865,-13.630462,0.999997,0.000205,-0.001892,0.005881,-0.000008,0.005881,-0.001892,-89.941915,0.006004,
1490,930,-1.714048,-8.541685,0.999996,0.000241,-0.004320,0.010222,-0.000680,0.010253,-0.004352,-87.326722,0.010292,
560,1720,1.816103,-2.657013,0.999935,0.000000,-0.004994,0.008211,0.000392,0.008223,-0.005006,88.299087,0.008288,
770,1040,2.558757,-7.465969,0.999997,0.000218,-0.003127,0.007511,-0.000203,0.007515,-0.003131,-88.905161,0.007549,
1800,240,-1.142011,-13.482098,0.999997,0.000207,-0.003437,0.007637,-0.000594,0.007669,-0.003469,-86.940457,0.007681,
910,50,0.060480,-14.966013,0.999998,0.000172,-0.000213,0.005031,0.000896,0.005180,-0.000362,80.570765,0.005783,
1780,2020,-0.103905,-0.101143,0.999997,0.000000,-0.000205,0.006201,0.002688,0.007180,-0.001184,69.998029,0.007699,
1110,1770,0.166250,-1.328542,0.999998,0.000159,-0.001469,0.005506,0.000028,0.005506,-0.001469,89.773486,0.005702,
640,100,0.558743,-14.531664,0.999995,0.000273,-0.002831,0.007796,0.001926,0.008135,-0.003169,80.039335,0.008201,
890,1200,1.764583,-6.066985,0.999996,0.000222,-0.004691,0.009148,-0.000901,0.009206,-0.004749,-86.292640,0.009208,
1180,570,0.097265,-12.327670,0.999998,0.000155,-0.002013,0.004905,-0.000592,0.004956,-0.002063,-85.145733,0.004979,
790,1410,1.603667,-4.460674,0.999997,0.000205,-0.004355,0.008148,-0.000020,0.008148,-0.004355,-89.908206,0.008154,
1630,240,-0.626095,-13.790910,0.999997,0.000218,-0.002301,0.006813,-0.000704,0.006867,-0.002355,-85.608667,0.006979,
970,1710,0.480831,-1.827562,0.999997,0.000211,-0.002574,0.006319,0.000234,0.006325,-0.002581,88.491774,0.006361,
1640,1290,-1.775205,-5.398074,0.999995,0.000247,-0.004688,0.008626,0.000530,0.008647,-0.004709,87.722071,0.008659,
1650,820,-1.993936,-9.230180,0.999996,0.000266,-0.004367,0.008469,-0.000828,0.008522,-0.004420,-86.326345,0.008524,
930,1870,0.309247,-0.887400,0.999998,0.000188,-0.001395,0.005825,-0.000637,0.005881,-0.001451,-84.994057,0.006127,
600,670,2.433126,-10.052892,0.999995,0.000256,-0.003765,0.007537,0.000151,0.007539,-0.003767,89.234949,0.007539,
1060,450,0.350923,-12.786008,0.999997,0.000200,-0.002502,0.006027,-0.000688,0.006083,-0.002557,-85.415621,0.006108,
1630,1080,-2.333413,-7.148678,0.999996,0.000254,-0.003096,0.007855,0.000624,0.007890,-0.003131,86.747449,0.007946,
1370,1550,-0.288145,-2.594574,0.999997,0.000183,-0.002551,0.005867,-0.000951,0.005973,-0.002657,-83.635272,0.005985,
1600,610,-1.206320,-11.133124,0.999997,0.000211,-0.004372,0.007970,0.000465,0.007988,-0.004390,87.844800,0.008001,
1580,1210,-1.758728,-5.991628,0.999996,0.000252,-0.004735,0.009064,0.000880,0.009120,-0.004791,86.365317,0.009124,
680,800,2.474427,-9.216024,0.999996,0.000248,-0.003831,0.007621,0.000670,0.007660,-0.003870,86.663401,0.007660,
1320,1480,-0.177748,-2.884091,0.999998,0.000180,-0.002246,0.005202,-0.000964,0.005325,-0.002369,-82.740045,0.005335,
1570,1600,-0.850044,-2.723708,0.999998,0.000191,-0.003355,0.007140,-0.000431,0.007158,-0.003372,-87.649708,0.007162,
820,1910,0.382161,-0.717491,0.999997,0.000194,-0.001514,0.006244,-0.001212,0.006429,-0.001699,-81.321501,0.006663,
860,1770,0.663852,-1.599583,0.999996,0.000227,-0.002716,0.006826,-0.000306,0.006836,-0.002726,-88.164580,0.006882,
1140,1920,0.049219,-0.537173,0.999999,0.000126,-0.000639,0.004847,-0.000149,0.004851,-0.000643,-88.440370,0.005270,
620,710,2.460434,-9.793182,0.999996,0.000231,-0.003781,0.007520,0.000261,0.007526,-0.003787,88.679697,0.007526,
1060,1300,0.506635,-4.324287,0.999996,0.000219,-0.004911,0.007661,0.002646,0.008195,-0.005445,78.584018,0.008341,
1410,1440,-0.435006,-3.383497,0.999997,0.000221,-0.003436,0.006492,-0.001620,0.006749,-0.003693,-80.964636,0.006759,
1260,1960,-0.009444,-0.343805,0.999998,0.000174,-0.000345,0.004632,0.000027,0.004632,-0.000346,89.690950,0.005161,
1660,970,-2.419192,-8.000728,0.999997,0.000190,-0.003180,0.007715,-0.000612,0.007749,-0.003215,-86.796725,0.007786,
890,1310,1.387499,-5.058178,0.999996,0.000245,-0.005103,0.008942,0.000022,0.008942,-0.005103,89.908632,0.008972,
1540,1940,-0.181447,-0.494300,0.999998,0.000189,-0.000753,0.005521,0.000886,0.005643,-0.000876,82.110666,0.006074,
1270,1340,-0.059278,-3.380567,0.999996,0.000233,-0.001750,0.003298,-0.001252,0.003592,-0.002043,-76.806635,0.003603,
1890,780,-2.814312,-9.174213,0.999996,0.000240,-0.003524,0.007085,-0.000131,0.007086,-0.003525,-89.294115,0.007086,
1700,980,-2.559353,-7.915517,0.999996,0.000250,-0.003204,0.007444,-0.000351,0.007456,-0.003215,-88.115685,0.007479,
780,1950,0.309900,-0.493066,0.999997,0.000215,-0.001463,0.006259,-0.001612,0.006582,-0.001786,-78.668072,0.006808,
560,1710,1.848666,-2.732792,0.999951,0.000000,-0.004705,0.007138,0.000325,0.007147,-0.004714,88.429946,0.007267,
1790,1520,-1.832101,-3.865520,0.999997,0.000213,-0.003867,0.007681,-0.000068,0.007682,-0.003868,-89.660195,0.007682,
960,1870,0.267666,-0.868075,0.999998,0.000150,-0.001529,0.005682,-0.000481,0.005714,-0.001561,-86.203626,0.005907,
1510,220,-0.338619,-14.043528,0.999998,0.000193,-0.001810,0.005858,-0.000365,0.005875,-0.001828,-87.278383,0.006013,
1270,300,-0.054302,-13.748645,0.999998,0.000147,-0.001355,0.005248,0.000052,0.005249,-0.001355,89.550179,0.005449,
750,1040,2.621782,-7.466705,0.999997,0.000194,-0.003179,0.007424,-0.000199,0.007428,-0.003182,-88.927434,0.007453,
1780,30,-0.073269,-15.049250,0.999998,0.000000,0.000104,0.006159,-0.002759,0.007228,-0.000964,-68.829332,0.007849,
910,40,0.040696,-15.016249,0.999999,0.000132,-0.000099,0.004980,0.000909,0.005138,-0.000256,80.157131,0.005790,
1110,1750,0.174867,-1.437082,0.999998,0.000177,-0.001566,0.005472,0.000104,0.005474,-0.001568,89.149678,0.005638,
580,770,2.763859,-9.262171,0.999996,0.000221,-0.003936,0.007222,0.000062,0.007223,-0.003936,89.682414,0.007232,
1840,840,-2.783020,-8.844601,0.999997,0.000203,-0.003517,0.007061,-0.000475,0.007082,-0.003538,-87.436381,0.007082,
930,1850,0.352820,-1.008973,0.999997,0.000203,-0.001592,0.005957,-0.000587,0.006003,-0.001638,-85.580769,0.006206,
750,1200,2.352944,-6.248786,0.999997,0.000213,-0.003880,0.007876,-0.000865,0.007939,-0.003944,-85.813147,0.007939,
590,670,2.470202,-10.029594,0.999996,0.000255,-0.003931,0.007517,0.000132,0.007518,-0.003932,89.340598,0.007521,
1560,1210,-1.661736,-5.945168,0.999996,0.000242,-0.004940,0.009274,0.000778,0.009316,-0.004983,86.876757,0.009324,
1550,580,-0.944811,-11.518063,0.999997,0.000230,-0.004088,0.007698,0.000762,0.007747,-0.004137,86.317101,0.007753,
1020,320,0.345844,-13.511734,0.999997,0.000197,-0.002004,0.006019,-0.000075,0.006020,-0.002005,-89.465883,0.006131,
970,1690,0.506072,-1.955109,0.999997,0.000221,-0.002688,0.006377,0.000324,0.006389,-0.002700,87.955929,0.006414,
860,570,1.149665,-11.443977,0.999997,0.000195,-0.004121,0.007841,-0.000499,0.007862,-0.004142,-87.613243,0.007866,
1320,1460,-0.174264,-2.985470,0.999998,0.000179,-0.002288,0.005110,-0.001081,0.005265,-0.002443,-81.854202,0.005269,
680,780,2.420752,-9.370452,0.999996,0.000233,-0.003849,0.007622,0.000626,0.007656,-0.003883,86.886911,0.007656,
760,1540,1.448230,-3.499491,0.999996,0.000242,-0.003930,0.007779,0.000213,0.007783,-0.003934,88.959273,0.007783,
740,1110,2.584222,-6.948595,0.999996,0.000220,-0.003398,0.007471,-0.000654,0.007510,-0.003437,-86.566370,0.007519,
1790,540,-1.842793,-11.215836,0.999997,0.000205,-0.003880,0.007692,0.000072,0.007692,-0.003880,89.644440,0.007692,
1140,1900,0.058844,-0.637745,0.999999,0.000120,-0.000751,0.004957,-0.000143,0.004960,-0.000754,-88.563506,0.005346,
930,180,0.303053,-14.260487,0.999998,0.000175,-0.001364,0.005806,0.000652,0.005865,-0.001423,84.849420,0.006119,
1390,1460,-0.360791,-3.182330,0.999997,0.000216,-0.003094,0.006166,-0.001543,0.006417,-0.003344,-80.786005,0.006419,
1890,810,-2.883592,-8.967474,0.999998,0.000195,-0.003397,0.006843,-0.000182,0.006847,-0.003400,-88.980114,0.006847,
640,520,1.926109,-11.292032,0.999997,0.000218,-0.003812,0.007681,-0.000087,0.007681,-0.003812,-89.565892,0.007682,
1260,1940,-0.014313,-0.438276,0.999998,0.000164,-0.000462,0.004763,0.000047,0.004763,-0.000462,89.489337,0.005254,
1540,1920,-0.223820,-0.605008,0.999998,0.000181,-0.000936,0.005575,0.000806,0.005673,-0.001034,83.045114,0.006043,
890,1270,1.510970,-5.422865,0.999995,0.000264,-0.005115,0.009121,-0.000298,0.009127,-0.005122,-88.801131,0.009150,
1850,1600,-1.885977,-3.393543,0.999997,0.000203,-0.003763,0.007579,-0.000108,0.007580,-0.003764,-89.454882,0.007580,
960,1850,0.303194,-0.985157,0.999997,0.000219,-0.001671,0.005779,-0.000422,0.005803,-0.001695,-86.771146,0.005968,
1670,1980,-0.191943,-0.311713,0.999998,0.000171,-0.001042,0.005764,0.001508,0.006083,-0.001361,78.049099,0.006385,
880,1750,0.647072,-1.700966,0.999996,0.000226,-0.002797,0.006719,-0.000119,0.006721,-0.002799,-89.282139,0.006752,
1000,1550,0.551619,-2.814276,0.999996,0.000211,-0.003085,0.006664,0.000870,0.006741,-0.003162,84.939192,0.006745,
850,930,2.181520,-8.341818,0.999997,0.000212,-0.003520,0.008320,0.000998,0.008404,-0.003603,85.215763,0.008432,
770,1000,2.548482,-7.768113,0.999997,0.000187,-0.003121,0.007464,0.000277,0.007472,-0.003129,88.502771,0.007505,
1870,1340,-2.575125,-5.424230,0.999997,0.000222,-0.003687,0.007426,0.000169,0.007429,-0.003690,89.129356,0.007429,
1770,2020,-0.101931,-0.102966,0.999997,0.000000,-0.000528,0.006090,0.002489,0.006922,-0.001360,71.523782,0.007335,
1700,960,-2.534918,-8.065858,0.999997,0.000223,-0.003303,0.007546,-0.000618,0.007582,-0.003338,-86.749821,0.007600,
1410,1010,-1.597276,-7.893807,0.999879,0.001437,-0.007412,0.019110,0.001485,0.019193,-0.007495,86.805072,0.019345,
780,2010,0.099100,-0.144411,0.999998,0.000149,-0.000659,0.005473,-0.001501,0.005821,-0.001006,-76.959294,0.006222,
1110,1730,0.186404,-1.548036,0.999998,0.000186,-0.001681,0.005593,0.000141,0.005595,-0.001684,88.893225,0.005741,
590,770,2.727497,-9.286249,0.999996,0.000241,-0.003682,0.007285,0.000192,0.007288,-0.003685,88.997620,0.007288,
1890,110,-0.859463,-14.205666,0.999997,0.000192,-0.003499,0.008334,-0.001467,0.008513,-0.003678,-83.039440,0.008539,
1440,50,-0.034489,-14.974013,0.999999,0.000127,-0.000197,0.004694,-0.000452,0.004735,-0.000238,-84.768155,0.005336,
580,670,2.506654,-10.004190,0.999995,0.000264,-0.004806,0.007504,0.000143,0.007506,-0.004807,89.332655,0.007604,
1680,1010,-2.516396,-7.693087,0.999998,0.000193,-0.003123,0.007550,-0.000236,0.007555,-0.003128,-88.733602,0.007593,
850,480,1.040070,-12.108479,0.999997,0.000198,-0.003667,0.007457,-0.000402,0.007472,-0.003681,-87.933323,0.007472,
930,1830,0.385755,-1.127557,0.999997,0.000191,-0.001748,0.006026,-0.000466,0.006054,-0.001776,-86.583420,0.006224,
1660,280,-0.805565,-13.470794,0.999997,0.000178,-0.003024,0.007095,-0.000367,0.007108,-0.003037,-87.924298,0.007133,
1250,300,-0.025530,-13.754378,0.999998,0.000212,-0.001409,0.005236,0.000076,0.005237,-0.001410,89.343007,0.005420,
1530,580,-0.864853,-11.576109,0.999997,0.000207,-0.004051,0.007609,0.000870,0.007673,-0.004116,85.756129,0.007680,
1840,820,-2.735247,-8.985773,0.999997,0.000201,-0.003540,0.007086,-0.000445,0.007104,-0.003559,-87.608214,0.007104,
1890,800,-2.860176,-9.035067,0.999998,0.000200,-0.003423,0.006876,-0.000150,0.006878,-0.003425,-89.164694,0.006878,
1700,1170,-2.379287,-6.473388,0.999996,0.000241,-0.003764,0.007850,0.000896,0.007919,-0.003833,85.614754,0.007921,
1020,340,0.370050,-13.389585,0.999997,0.000201,-0.002100,0.006000,-0.000182,0.006005,-0.002104,-88.711504,0.006094,
840,570,1.230001,-11.390610,0.999997,0.000194,-0.004157,0.007879,-0.000395,0.007892,-0.004170,-88.121582,0.007896,
1800,1210,-2.651793,-6.259922,0.999996,0.000245,-0.003582,0.007329,0.000606,0.007363,-0.003615,86.832771,0.007363,
970,1670,0.530834,-2.085224,0.999998,0.000194,-0.002757,0.006505,0.000365,0.006520,-0.002771,87.749517,0.006544,
1540,1900,-0.259917,-0.718392,0.999998,0.000188,-0.001130,0.005749,0.000790,0.005839,-0.001220,83.530355,0.006160,
1420,560,-0.448527,-12.061868,0.999997,0.000204,-0.003239,0.006432,0.001307,0.006605,-0.003413,82.438689,0.006606,
1260,1920,-0.016089,-0.533384,0.999998,0.000146,-0.000568,0.004784,0.000033,0.004784,-0.000568,89.650540,0.005227,
1150,190,0.066505,-14.310636,0.999998,0.000174,-0.000843,0.005059,0.000119,0.005061,-0.000845,88.846079,0.005422,
660,1490,1.949002,-4.127222,0.999997,0.000189,-0.003862,0.007692,0.000025,0.007692,-0.003862,89.878350,0.007692,
720,1110,2.653060,-6.954776,0.999997,0.000214,-0.003420,0.007396,-0.000620,0.007431,-0.003455,-86.731670,0.007438,
1490,910,-1.615375,-8.746128,0.999995,0.000264,-0.004763,0.010174,-0.000610,0.010199,-0.004788,-87.665266,0.010205,
890,1000,2.194645,-7.787659,0.999998,0.000217,-0.002819,0.008205,0.000392,0.008219,-0.002833,87.966176,0.008350,
1630,850,-2.000481,-9.004330,0.999997,0.000211,-0.004300,0.008547,-0.000956,0.008617,-0.004371,-85.767710,0.008618,
830,2010,0.076846,-0.134553,0.999998,0.000162,-0.000158,0.005305,-0.001332,0.005612,-0.000466,-76.998920,0.006229,
890,1250,1.580672,-5.607063,0.999995,0.000249,-0.005069,0.009214,-0.000483,0.009231,-0.005085,-88.067181,0.009247,
880,1770,0.608750,-1.568173,0.999997,0.000190,-0.002684,0.006666,-0.000238,0.006672,-0.002690,-88.541670,0.006713,
1380,1810,-0.173768,-1.124047,0.999997,0.000197,-0.001207,0.005418,0.000149,0.005421,-0.001210,88.708086,0.005691,
1710,760,-2.069985,-9.639497,0.999997,0.000205,-0.004247,0.008130,-0.000637,0.008163,-0.004280,-87.062520,0.008166,
930,1810,0.424137,-1.249984,0.999997,0.000196,-0.001932,0.006220,-0.000419,0.006241,-0.001953,-87.068113,0.006385,
640,540,1.969409,-11.138398,0.999997,0.000193,-0.003821,0.007643,-0.000065,0.007643,-0.003822,-89.673603,0.007643,
780,2000,0.131014,-0.199674,0.999998,0.000143,-0.000756,0.005578,-0.001556,0.005940,-0.001117,-76.916335,0.006313,
1830,1600,-1.809930,-3.346077,0.999997,0.000218,-0.003806,0.007590,-0.000112,0.007591,-0.003807,-89.436093,0.007591,
1700,940,-2.499783,-8.218718,0.999997,0.000213,-0.003393,0.007600,-0.000678,0.007641,-0.003434,-86.484056,0.007654,
1800,220,-1.072413,-13.635533,0.999997,0.000190,-0.003393,0.007656,-0.000744,0.007706,-0.003443,-86.164359,0.007720,
1580,230,-0.486416,-13.917209,0.999997,0.000203,-0.002277,0.006375,-0.000511,0.006405,-0.002307,-86.630461,0.006488,
760,1520,1.490084,-3.657573,0.999997,0.000241,-0.003976,0.007801,0.000188,0.007805,-0.003979,89.084900,0.007805,
1180,550,0.097219,-12.424899,0.999998,0.000155,-0.001974,0.004989,-0.000497,0.005025,-0.002010,-85.937416,0.005058,
1770,30,-0.076124,-15.049195,0.999997,0.000000,-0.000176,0.006060,-0.002517,0.006949,-0.001065,-70.542847,0.007485,
1260,210,-0.028119,-14.216049,0.999998,0.000173,-0.000950,0.005024,0.000005,0.005024,-0.000950,89.947766,0.005338,
1320,1440,-0.173775,-3.084994,0.999998,0.000177,-0.002318,0.005044,-0.001243,0.005248,-0.002522,-80.669494,0.005250,
1640,1350,-1.605281,-4.883961,0.999996,0.000255,-0.004636,0.008451,0.000178,0.008453,-0.004639,89.222799,0.008467,
1850,1840,-1.229040,-1.587000,0.999997,0.000193,-0.003661,0.007635,0.000283,0.007642,-0.003668,88.566229,0.007644,
1500,1010,-2.006898,-7.725567,0.999997,0.000213,-0.002922,0.009710,-0.000246,0.009715,-0.002927,-88.886861,0.009967,
680,760,2.364788,-9.524088,0.999996,0.000237,-0.003871,0.007679,0.000565,0.007707,-0.003899,87.206117,0.007707,
780,650,1.658523,-10.595981,0.999995,0.000252,-0.004346,0.008120,0.000075,0.008120,-0.004346,89.653577,0.008127,
1770,540,-1.765282,-11.264241,0.999997,0.000210,-0.003902,0.007740,0.000087,0.007740,-0.003902,89.572106,0.007740,
1410,1060,-1.576432,-6.938319,0.999979,0.000540,-0.007203,0.018340,-0.003003,0.018688,-0.007551,-83.383648,0.018803,
850,170,0.410893,-14.262092,0.999997,0.000214,-0.001684,0.006221,0.000967,0.006337,-0.001800,83.128811,0.006531,
1150,300,0.110617,-13.738822,0.999998,0.000152,-0.001435,0.005334,-0.000045,0.005334,-0.001435,-89.619326,0.005520,
1110,1710,0.197332,-1.661089,0.999998,0.000181,-0.001752,0.005556,0.000219,0.005563,-0.001758,88.282739,0.005687,
1370,1530,-0.292014,-2.712006,0.999997,0.000188,-0.002616,0.005817,-0.001093,0.005956,-0.002755,-82.735484,0.005962,
1060,430,0.341337,-12.907635,0.999998,0.000186,-0.002473,0.006010,-0.000618,0.006055,-0.002518,-85.855123,0.006084,
1880,110,-0.823959,-14.242218,0.999996,0.000223,-0.003499,0.008222,-0.001428,0.008394,-0.003671,-83.152539,0.008416,
1440,40,-0.025369,-15.020294,0.999999,0.000136,-0.000135,0.004652,-0.000437,0.004692,-0.000175,-84.823252,0.005320,
1620,1290,-1.680321,-5.354942,0.999995,0.000243,-0.004792,0.008750,0.000478,0.008767,-0.004809,87.980516,0.008781,
1890,790,-2.837728,-9.104173,0.999998,0.000219,-0.003467,0.006969,-0.000132,0.006970,-0.003468,-89.273214,0.006970,
1530,560,-0.837989,-11.730112,0.999996,0.000217,-0.003924,0.007528,0.000866,0.007593,-0.003989,85.698265,0.007596,
1060,1280,0.541670,-4.487084,0.999995,0.000251,-0.005186,0.007992,0.002672,0.008513,-0.005707,78.964212,0.008676,
1840,800,-2.686080,-9.129840,0.999997,0.000215,-0.003620,0.007247,-0.000434,0.007265,-0.003637,-87.719220,0.007265,
1320,830,-0.326639,-11.059395,0.999995,0.000274,-0.003432,0.003879,0.002742,0.004793,-0.004346,71.561010,0.005295,
1660,260,-0.753007,-13.611031,0.999997,0.000191,-0.002928,0.007014,-0.000487,0.007038,-0.002951,-87.203969,0.007069,
930,1790,0.458882,-1.374360,0.999997,0.000215,-0.002029,0.006252,-0.000298,0.006263,-0.002040,-87.939343,0.006389,
1810,740,-2.416120,-9.629604,0.999998,0.000198,-0.003812,0.007593,-0.000446,0.007611,-0.003830,-87.762433,0.007611,
780,1990,0.166091,-0.256197,0.999998,0.000154,-0.000892,0.005733,-0.001622,0.006109,-0.001268,-76.957489,0.006447,
970,1650,0.551792,-2.217638,0.999997,0.000195,-0.002819,0.006555,0.000451,0.006576,-0.002841,87.250717,0.006596,
1260,1900,-0.020698,-0.630049,0.999998,0.000164,-0.000669,0.004892,0.000040,0.004893,-0.000669,89.583087,0.005305,
1020,780,0.773203,-10.314464,0.999995,0.000243,-0.005695,0.008977,-0.001827,0.009201,-0.005920,-83.008537,0.009326,
820,1990,0.134594,-0.243017,0.999997,0.000199,-0.000534,0.005589,-0.001416,0.005900,-0.000846,-77.592682,0.006381,
1540,1880,-0.304359,-0.836530,0.999998,0.000183,-0.001311,0.005793,0.000695,0.005860,-0.001379,84.466888,0.006128,
820,570,1.314124,-11.338605,0.999997,0.000187,-0.004186,0.007919,-0.000327,0.007928,-0.004195,-88.452966,0.007932,
1570,1700,-0.697341,-2.018451,0.999996,0.000229,-0.003022,0.006774,-0.000113,0.006775,-0.003024,-89.337392,0.006788,
700,1110,2.721592,-6.964869,0.999998,0.000180,-0.003390,0.007288,-0.000591,0.007321,-0.003423,-86.840302,0.007326,
890,1230,1.651674,-5.792867,0.999995,0.000231,-0.004974,0.009184,-0.000661,0.009215,-0.005004,-87.334212,0.009226,
1420,580,-0.454907,-11.931188,0.999997,0.000209,-0.003324,0.006485,0.001417,0.006685,-0.003524,81.943306,0.006688,
560,1810,1.623101,-2.013956,0.999540,0.000000,-0.006544,0.005639,0.000064,0.005639,-0.006545,89.698214,0.007093,
1140,1880,0.068129,-0.736157,0.999998,0.000151,-0.000864,0.005005,-0.000107,0.005007,-0.000866,-88.957095,0.005352,
1120,1490,0.228429,-2.875618,0.999997,0.000202,-0.002461,0.005473,0.001114,0.005627,-0.002615,82.155682,0.005631,
730,1200,2.430359,-6.268268,0.999997,0.000208,-0.003797,0.007700,-0.000809,0.007757,-0.003854,-85.995403,0.007757,
640,560,2.013148,-10.986773,0.999997,0.000183,-0.003809,0.007611,-0.000030,0.007611,-0.003809,-89.848588,0.007611,
1300,210,-0.066118,-14.210915,0.999998,0.000175,-0.000891,0.005089,-0.000108,0.005091,-0.000893,-88.970069,0.005437,
1760,2020,-0.093584,-0.099370,0.999998,0.000000,-0.000760,0.005988,0.002313,0.006705,-0.001477,72.781719,0.007046,
1580,1010,-2.222247,-7.704102,0.999997,0.000234,-0.002788,0.008167,-0.000295,0.008175,-0.002796,-88.456261,0.008310,
820,1630,1.054315,-2.672817,0.999997,0.000201,-0.003515,0.007420,0.000224,0.007425,-0.003520,88.824637,0.007428,
1700,920,-2.464543,-8.370721,0.999997,0.000222,-0.003507,0.007702,-0.000740,0.007751,-0.003556,-86.238434,0.007760,
1490,890,-1.506939,-8.953693,0.999995,0.000267,-0.005145,0.010138,-0.000475,0.010153,-0.005160,-88.222544,0.010153,
1800,200,-0.993929,-13.791362,0.999997,0.000185,-0.003294,0.007675,-0.000925,0.007752,-0.003371,-85.215315,0.007774,
1830,1340,-2.423786,-5.338294,0.999995,0.000250,-0.003788,0.007577,0.000327,0.007587,-0.003797,88.352929,0.007587,
1250,580,-0.034444,-12.303331,0.999999,0.000158,-0.001879,0.004681,0.000347,0.004700,-0.001897,86.980138,0.004729,
1890,2010,-0.338815,-0.303976,0.999995,0.000260,-0.000570,0.010330,0.005131,0.012365,-0.002605,68.364055,0.013037,
1370,1510,-0.296166,-2.829806,0.999997,0.000206,-0.002685,0.005796,-0.001197,0.005962,-0.002851,-82.119830,0.005963,
1360,450,-0.249404,-12.861219,0.999997,0.000182,-0.002133,0.005677,0.000533,0.005713,-0.002169,86.112376,0.005768,
1630,40,-0.061075,-15.011475,0.999998,0.000159,-0.000143,0.005160,-0.001366,0.005491,-0.000474,-76.373685,0.006085,
1890,1290,-2.775932,-5.836463,0.999996,0.000210,-0.003565,0.007261,0.000136,0.007263,-0.003567,89.277946,0.007263,
1110,1690,0.205292,-1.772015,0.999998,0.000162,-0.001821,0.005627,0.000254,0.005636,-0.001830,88.051132,0.005750,
1320,810,-0.251468,-11.137475,0.999996,0.000230,-0.003497,0.004152,0.003036,0.005210,-0.004556,70.776511,0.005676,
1220,140,0.006055,-14.564876,0.999998,0.000148,-0.000633,0.004793,-0.000012,0.004793,-0.000633,-89.875764,0.005208,
730,1240,2.320987,-5.952922,0.999995,0.000250,-0.003955,0.007849,-0.000794,0.007902,-0.004008,-86.170333,0.007903,
710,540,1.697988,-11.304316,0.999996,0.000205,-0.003955,0.007780,-0.000096,0.007781,-0.003956,-89.531469,0.007781,
1060,1550,0.374649,-2.669480,0.999998,0.000170,-0.002643,0.006083,0.000905,0.006176,-0.002736,84.141127,0.006190,
1760,30,-0.072202,-15.050538,0.999997,0.000000,-0.000537,0.005993,-0.002289,0.006715,-0.001259,-72.485811,0.007139,
1840,1670,-1.689805,-2.841407,0.999996,0.000226,-0.003732,0.007569,-0.000080,0.007570,-0.003733,-89.596259,0.007570,
1660,460,-1.179154,-12.146677,0.999997,0.000227,-0.003707,0.007524,0.000281,0.007531,-0.003714,88.570150,0.007531,
1130,300,0.141871,-13.724656,0.999998,0.000167,-0.001609,0.005397,-0.000141,0.005399,-0.001612,-88.850486,0.005544,
1300,90,-0.022023,-14.797349,0.999998,0.000180,-0.000274,0.004660,-0.000145,0.004664,-0.000278,-88.319348,0.005233,
1000,550,0.580917,-12.002894,0.999997,0.000202,-0.003449,0.006844,-0.001084,0.006957,-0.003562,-84.053007,0.006958,
930,1770,0.492483,-1.504006,0.999997,0.000206,-0.002159,0.006428,-0.000211,0.006433,-0.002164,-88.596518,0.006547,
1460,940,-1.631468,-8.564524,0.999993,0.000307,-0.004483,0.011071,0.000044,0.011071,-0.004483,89.838647,0.011138,
760,670,1.794193,-10.387365,0.999997,0.000247,-0.004296,0.008114,0.000184,0.008117,-0.004299,89.150847,0.008121,
1020,760,0.724682,-10.491377,0.999996,0.000223,-0.005468,0.008687,-0.001917,0.008942,-0.005723,-82.423245,0.009058,
1260,1810,-0.034341,-1.082443,0.999998,0.000170,-0.001128,0.005129,-0.000011,0.005129,-0.001128,-89.898145,0.005390,
760,1910,0.498717,-0.767758,0.999996,0.000223,-0.001881,0.006706,-0.001508,0.006963,-0.002138,-80.325594,0.007134,
790,1390,1.651747,-4.626841,0.999997,0.000213,-0.004409,0.008234,-0.000101,0.008235,-0.004410,-89.544364,0.008242,
890,1210,1.727311,-5.975097,0.999996,0.000218,-0.004801,0.009171,-0.000828,0.009220,-0.004850,-86.621462,0.009224,
1810,720,-2.362329,-9.782870,0.999997,0.000200,-0.003838,0.007658,-0.000384,0.007671,-0.003851,-88.088338,0.007671,
610,940,3.016320,-8.137043,0.999998,0.000158,-0.003239,0.006742,0.000322,0.006752,-0.003249,88.153734,0.006754,
670,1720,1.392628,-2.343111,0.999997,0.000186,-0.003637,0.007586,-0.000010,0.007586,-0.003637,-89.947173,0.007588,
1420,600,-0.462708,-11.799774,0.999996,0.000233,-0.003408,0.006641,0.001504,0.006861,-0.003628,81.670333,0.006865,
850,910,2.122701,-8.510586,0.999997,0.000208,-0.003737,0.008388,0.001054,0.008478,-0.003828,85.068942,0.008492,
1140,1840,0.087259,-0.940715,0.999998,0.000178,-0.001075,0.005129,-0.000049,0.005129,-0.001075,-89.543919,0.005410,
1580,760,-1.467539,-9.906004,0.999995,0.000272,-0.005098,0.008980,-0.000159,0.008982,-0.005100,-89.352920,0.009009,
1770,1460,-1.889043,-4.284720,0.999998,0.000181,-0.003981,0.007773,0.000032,0.007773,-0.003981,89.845681,0.007774,
760,1500,1.528939,-3.812751,0.999997,0.000242,-0.004042,0.007802,0.000157,0.007804,-0.004044,89.239986,0.007805,
560,930,3.154599,-8.150731,0.999990,0.000000,-0.002894,0.006313,0.000147,0.006316,-0.002896,89.088022,0.006323,
1260,1880,-0.022210,-0.729495,0.999998,0.000159,-0.000754,0.004947,0.000005,0.004947,-0.000754,89.950601,0.005331,
720,1240,2.360320,-5.966162,0.999996,0.000247,-0.003915,0.007806,-0.000780,0.007858,-0.003967,-86.208054,0.007858,
1800,180,-0.914301,-13.944216,0.999998,0.000187,-0.003134,0.007641,-0.001188,0.007770,-0.003263,-83.782180,0.007803,
1320,1420,-0.171700,-3.181963,0.999998,0.000176,-0.002386,0.004966,-0.001459,0.005245,-0.002665,-79.176972,0.005245,
1840,780,-2.634463,-9.276635,0.999997,0.000200,-0.003683,0.007395,-0.000406,0.007410,-0.003698,-87.901466,0.007410,
1540,1860,-0.339474,-0.951051,0.999998,0.000196,-0.001472,0.005981,0.000654,0.006038,-0.001529,85.021402,0.006279,
1760,680,-2.057496,-10.190282,0.999997,0.000198,-0.004044,0.007861,-0.000319,0.007870,-0.004052,-88.464315,0.007871,
1880,1290,-2.740164,-5.813029,0.999996,0.000235,-0.003585,0.007284,0.000175,0.007287,-0.003587,89.077413,0.007287,
1490,660,-0.793904,-11.094837,0.999995,0.000242,-0.004597,0.007935,0.001310,0.008071,-0.004733,84.094016,0.008111,
740,790,2.211046,-9.376504,0.999997,0.000269,-0.004053,0.007999,0.000732,0.008043,-0.004097,86.538318,0.008043,
1060,1260,0.590590,-4.647340,0.999995,0.000280,-0.005498,0.008267,0.002643,0.008757,-0.005988,79.495277,0.008952,
770,1240,2.158920,-5.905502,0.999997,0.000225,-0.004151,0.008070,-0.000830,0.008126,-0.004208,-86.133583,0.008127,
1820,1670,-1.613998,-2.789366,0.999997,0.000213,-0.003724,0.007582,-0.000073,0.007582,-0.003724,-89.632343,0.007583,
1580,210,-0.442905,-14.042791,0.999998,0.000184,-0.002121,0.006223,-0.000620,0.006269,-0.002166,-85.773231,0.006368,
710,1200,2.504130,-6.285816,0.999997,0.000217,-0.003717,0.007556,-0.000749,0.007605,-0.003767,-86.217091,0.007605,
1370,1490,-0.300794,-2.946608,0.999998,0.000190,-0.002706,0.005791,-0.001258,0.005974,-0.002889,-81.754656,0.005975,
640,580,2.058259,-10.832970,0.999998,0.000191,-0.003825,0.007685,0.000037,0.007685,-0.003825,89.815249,0.007685,
1230,300,0.002581,-13.756608,0.999999,0.000139,-0.001407,0.005243,-0.000028,0.005243,-0.001407,-89.754571,0.005427,
1700,1140,-2.455554,-6.711426,0.999996,0.000237,-0.003562,0.007711,0.000799,0.007767,-0.003618,85.965337,0.007773,
1020,740,0.683117,-10.665905,0.999996,0.000220,-0.005209,0.008387,-0.001954,0.008662,-0.005484,-81.981814,0.008764,
840,150,0.367915,-14.382060,0.999997,0.000183,-0.001449,0.006201,0.001148,0.006370,-0.001618,81.643926,0.006622,
890,1190,1.802235,-6.160331,0.999996,0.000221,-0.004594,0.009093,-0.000947,0.009158,-0.004659,-86.059724,0.009159,
1460,920,-1.522564,-8.786524,0.999994,0.000294,-0.004884,0.010747,0.000001,0.010747,-0.004884,89.995555,0.010762,
680,740,2.312131,-9.677400,0.999996,0.000226,-0.003897,0.007730,0.000502,0.007752,-0.003918,87.531354,0.007752,
1160,550,0.138736,-12.397165,0.999998,0.000168,-0.002182,0.005140,-0.000795,0.005226,-0.002267,-83.872666,0.005241,
1830,1840,-1.155475,-1.521627,0.999997,0.000216,-0.003569,0.007732,0.000407,0.007746,-0.003584,87.941891,0.007753,
1460,90,-0.086297,-14.777847,0.999998,0.000165,-0.000447,0.004989,-0.000563,0.005046,-0.000505,-84.144508,0.005559,
1490,870,-1.409039,-9.158354,0.999995,0.000283,-0.005469,0.010146,-0.000238,0.010149,-0.005472,-89.128088,0.010160,
1660,1740,-0.889815,-1.900001,0.999998,0.000185,-0.003199,0.007160,0.000158,0.007163,-0.003201,89.127072,0.007176,
1580,730,-1.380589,-10.173935,0.999997,0.000227,-0.005007,0.008818,0.000061,0.008818,-0.005007,89.748655,0.008845,
700,1810,1.030013,-1.588857,0.999998,0.000181,-0.003499,0.007547,-0.000462,0.007566,-0.003519,-87.607122,0.007572,
1360,430,-0.244342,-12.974866,0.999997,0.000195,-0.002060,0.005643,0.000440,0.005668,-0.002085,86.739763,0.005733,
850,870,1.995757,-8.851569,0.999997,0.000194,-0.004173,0.008631,0.001027,0.008713,-0.004255,85.443499,0.008714,
590,940,3.081687,-8.119380,0.999998,0.000168,-0.003151,0.006549,0.000208,0.006554,-0.003155,88.773424,0.006555,
1420,1200,-0.931693,-5.338901,0.999996,0.000244,-0.005552,0.009735,-0.001908,0.009970,-0.005787,-82.990343,0.010013,
900,1490,0.975988,-3.525105,0.999997,0.000213,-0.004033,0.007736,0.000690,0.007777,-0.004073,86.654026,0.007779,
1320,1400,-0.166292,-3.280823,0.999998,0.000183,-0.002457,0.004878,-0.001648,0.005232,-0.002811,-77.900553,0.005237,
760,1480,1.573175,-3.970249,0.999995,0.000263,-0.004101,0.007861,0.000115,0.007862,-0.004102,89.447278,0.007864,
750,1380,1.849481,-4.794778,0.999997,0.000226,-0.004245,0.008065,-0.000261,0.008070,-0.004250,-88.785602,0.008074,
1490,640,-0.769479,-11.250737,0.999996,0.000232,-0.004425,0.007704,0.001312,0.007845,-0.004565,83.896633,0.007880,
560,1440,2.431510,-4.747386,0.999854,0.000000,-0.003562,0.006982,-0.001013,0.007078,-0.003658,-84.560383,0.007079,
1800,160,-0.820165,-14.100397,0.999998,0.000197,-0.002952,0.007724,-0.001481,0.007925,-0.003154,-82.245397,0.007980,
1500,40,-0.031748,-15.018916,0.999998,0.000151,-0.000292,0.004807,-0.000630,0.004884,-0.000369,-83.063240,0.005439,
930,1750,0.526467,-1.631933,0.999997,0.000205,-0.002284,0.006378,-0.000089,0.006379,-0.002284,-89.414403,0.006464,
1840,760,-2.580661,-9.426142,0.999997,0.000200,-0.003698,0.007386,-0.000411,0.007402,-0.003713,-87.878520,0.007402,
1400,1290,-0.509958,-4.382387,0.999994,0.000276,-0.005014,0.007733,-0.002728,0.008292,-0.005573,-78.415651,0.008454,
1420,630,-0.474983,-11.602423,0.999997,0.000214,-0.003682,0.006719,0.001686,0.006986,-0.003949,81.016637,0.007006,
820,1970,0.197166,-0.357873,0.999998,0.000171,-0.000820,0.005737,-0.001411,0.006028,-0.001111,-78.358778,0.006416,
1460,1670,-0.444235,-2.027267,0.999997,0.000214,-0.002353,0.006273,-0.000299,0.006284,-0.002364,-88.017290,0.006347,
1050,1050,1.611378,-7.147841,0.999980,0.000655,-0.007321,0.018115,0.001670,0.018224,-0.007430,86.259544,0.018327,
790,1370,1.703051,-4.792192,0.999996,0.000224,-0.004450,0.008274,-0.000184,0.008277,-0.004453,-89.170815,0.008285,
750,1240,2.240733,-5.930679,0.999997,0.000216,-0.004057,0.007933,-0.000814,0.007988,-0.004112,-86.135606,0.007989,
670,1760,1.289269,-2.039268,0.999996,0.000230,-0.003559,0.007559,-0.000223,0.007564,-0.003563,-88.853502,0.007568,
1640,830,-1.980465,-9.160781,0.999998,0.000176,-0.004380,0.008519,-0.000865,0.008576,-0.004437,-86.182095,0.008578,
1270,370,-0.064041,-13.375822,0.999998,0.000151,-0.001632,0.005341,0.000113,0.005343,-0.001634,89.075485,0.005476,
1210,300,0.030264,-13.752926,0.999998,0.000149,-0.001379,0.005262,-0.000076,0.005263,-0.001380,-89.342690,0.005457,
720,790,2.290817,-9.349324,0.999997,0.000213,-0.004005,0.007831,0.000691,0.007872,-0.004045,86.667895,0.007873,
1580,740,-1.406521,-10.086903,0.999996,0.000245,-0.005043,0.008856,-0.000008,0.008856,-0.005043,-89.966101,0.008885,
1760,660,-2.007326,-10.347421,0.999997,0.000189,-0.004045,0.007872,-0.000255,0.007877,-0.004050,-88.773437,0.007878,
640,1020,2.981179,-7.612406,0.999998,0.000176,-0.003234,0.006876,0.000114,0.006877,-0.003235,89.352774,0.006881,
720,1850,0.822912,-1.243760,0.999996,0.000241,-0.003133,0.007373,-0.000842,0.007441,-0.003200,-85.446468,0.007465,
1700,900,-2.417593,-8.527642,0.999997,0.000225,-0.003638,0.007860,-0.000915,0.007932,-0.003711,-85.479690,0.007937,
680,720,2.256254,-9.833758,0.999996,0.000210,-0.003944,0.007702,0.000451,0.007719,-0.003961,87.787700,0.007720,
590,930,3.065165,-8.186197,0.999998,0.000170,-0.003185,0.006645,0.000270,0.006652,-0.003192,88.428473,0.006654,
1370,1470,-0.303684,-3.062467,0.999997,0.000201,-0.002747,0.005828,-0.001381,0.006045,-0.002964,-81.071222,0.006045,
720,1220,2.416464,-6.122817,0.999996,0.000241,-0.003848,0.007764,-0.000813,0.007821,-0.003905,-86.013555,0.007821,
1160,590,0.138923,-12.193517,0.999998,0.000181,-0.002162,0.004986,-0.001021,0.005129,-0.002305,-82.028725,0.005138,
1020,720,0.652683,-10.828677,0.999996,0.000242,-0.004968,0.008069,-0.001931,0.008349,-0.005248,-81.748153,0.008441,
900,1470,1.006029,-3.681800,0.999996,0.000220,-0.004171,0.007824,0.000726,0.007868,-0.004215,86.549558,0.007874,
1660,1760,-0.841654,-1.756994,0.999998,0.000187,-0.003080,0.007122,0.000276,0.007129,-0.003088,88.451619,0.007151,
1610,340,-0.790890,-13.128466,0.999998,0.000158,-0.002879,0.007069,-0.000089,0.007069,-0.002880,-89.487269,0.007110,
890,1170,1.876782,-6.339735,0.999997,0.000208,-0.004341,0.009030,-0.001078,0.009116,-0.004427,-85.418265,0.009118,
1420,1180,-1.042530,-5.535381,0.999996,0.000241,-0.005312,0.010212,-0.001919,0.010445,-0.005546,-83.057502,0.010452,
760,1460,1.616502,-4.129646,0.999995,0.000248,-0.004135,0.007941,0.000082,0.007941,-0.004136,89.609524,0.007944,
1060,1240,0.654363,-4.819160,0.999996,0.000255,-0.005680,0.008675,0.002547,0.009113,-0.006118,80.229686,0.009290,
850,560,1.172537,-11.494107,0.999997,0.000190,-0.004074,0.007808,-0.000446,0.007825,-0.004091,-87.851790,0.007828,
1120,430,0.207734,-12.994157,0.999998,0.000206,-0.002045,0.005572,-0.000467,0.005601,-0.002073,-86.506910,0.005663,
1540,1840,-0.381554,-1.074749,0.999998,0.000201,-0.001640,0.006013,0.000589,0.006058,-0.001686,85.624240,0.006254,
990,1380,0.737037,-4.075145,0.999996,0.000239,-0.004633,0.007932,0.001502,0.008109,-0.004810,83.279096,0.008155,
560,1420,2.541126,-4.864996,0.999355,0.000000,-0.005605,0.007662,-0.001251,0.007779,-0.005722,-84.659533,0.008062,
1460,900,-1.408128,-9.003490,0.999994,0.000289,-0.005275,0.010598,0.000096,0.010598,-0.005275,89.653329,0.010598,
1440,90,-0.075745,-14.780733,0.999998,0.000183,-0.000454,0.004928,-0.000465,0.004968,-0.000494,-85.095288,0.005474,
680,1110,2.790159,-6.973771,0.999998,0.000189,-0.003370,0.007190,-0.000552,0.007219,-0.003399,-87.018210,0.007223,
820,1930,0.319352,-0.594453,0.999998,0.000183,-0.001314,0.006097,-0.001311,0.006323,-0.001539,-80.255084,0.006594,
570,1200,2.996804,-6.470337,0.999997,0.000183,-0.003193,0.006764,-0.000114,0.006765,-0.003194,-89.343365,0.006768,
1890,280,-1.597374,-12.923268,0.999996,0.000229,-0.003657,0.007206,-0.000020,0.007206,-0.003657,-89.897130,0.007207,
1800,580,-1.972178,-10.883927,0.999997,0.000201,-0.003853,0.007710,0.000007,0.007710,-0.003853,89.963332,0.007710,
1420,610,-0.466771,-11.734279,0.999996,0.000243,-0.003475,0.006683,0.001567,0.006919,-0.003711,81.424414,0.006925,
850,850,1.928372,-9.025850,0.999997,0.000194,-0.004392,0.008691,0.000924,0.008756,-0.004457,85.980967,0.008756,
790,1350,1.755541,-4.956593,0.999997,0.000220,-0.004464,0.008266,-0.000292,0.008272,-0.004471,-88.688794,0.008281,
1320,1380,-0.166182,-3.378020,0.999997,0.000208,-0.002526,0.004740,-0.001866,0.005192,-0.002977,-76.404940,0.005210,
1840,740,-2.528707,-9.573623,0.999997,0.000202,-0.003721,0.007439,-0.000367,0.007451,-0.003733,-88.119263,0.007451,
1400,1270,-0.548523,-4.540411,0.999995,0.000260,-0.005273,0.007997,-0.002722,0.008534,-0.005809,-78.848594,0.008718,
1490,850,-1.313820,-9.364251,0.999995,0.000293,-0.005684,0.010129,0.000023,0.010129,-0.005684,89.917990,0.010155,
1410,1000,-1.585871,-8.090350,0.999938,0.000977,-0.007084,0.018554,0.002222,0.018745,-0.007275,85.083381,0.018901,
1260,40,-0.004627,-15.028052,0.999999,0.000153,-0.000064,0.004452,-0.000006,0.004452,-0.000064,-89.925756,0.005105,
700,1790,1.094899,-1.740852,0.999997,0.000207,-0.003573,0.007534,-0.000380,0.007547,-0.003586,-88.043976,0.007550,
1580,710,-1.329036,-10.351916,0.999997,0.000223,-0.004937,0.008734,0.000203,0.008737,-0.004940,89.150812,0.008762,
1110,300,0.174913,-13.710538,0.999998,0.000185,-0.001537,0.005471,-0.000077,0.005472,-0.001538,-89.367683,0.005644,
1370,1450,-0.304065,-3.178230,0.999997,0.000200,-0.002828,0.005857,-0.001512,0.006113,-0.003083,-80.401577,0.006113,
720,770,2.235245,-9.507248,0.999997,0.000224,-0.004078,0.007939,0.000646,0.007974,-0.004113,86.932629,0.007975,
1620,830,-1.892360,-9.190837,0.999997,0.000194,-0.004510,0.008732,-0.000876,0.008790,-0.004568,-86.231780,0.008792,
1580,720,-1.355132,-10.261620,0.999997,0.000230,-0.004974,0.008788,0.000130,0.008789,-0.004976,89.460311,0.008815,
670,1740,1.344308,-2.190317,0.999996,0.000222,-0.003588,0.007563,-0.000102,0.007564,-0.003588,-89.473751,0.007567,
1630,830,-1.937491,-9.175458,0.999998,0.000177,-0.004450,0.008630,-0.000873,0.008688,-0.004508,-86.197425,0.008691,
720,1200,2.467288,-6.276827,0.999997,0.000216,-0.003753,0.007612,-0.000778,0.007666,-0.003806,-86.099907,0.007666,
890,1150,1.954570,-6.523591,0.999998,0.000180,-0.004026,0.008897,-0.001088,0.008988,-0.004117,-85.219055,0.008998,
1020,700,0.626483,-10.984544,0.999996,0.000248,-0.004721,0.007793,-0.001902,0.008076,-0.005004,-81.546807,0.008153,
810,1240,1.990207,-5.851293,0.999997,0.000231,-0.004357,0.008482,-0.000833,0.008536,-0.004411,-86.301308,0.008538,
1660,1780,-0.793101,-1.614193,0.999997,0.000204,-0.002983,0.007111,0.000392,0.007126,-0.002998,87.777065,0.007156,
1050,1700,0.313148,-1.777549,0.999997,0.000200,-0.002170,0.005900,0.000307,0.005912,-0.002182,87.822797,0.005979,
880,1490,1.058076,-3.581824,0.999997,0.000205,-0.004103,0.007825,0.000610,0.007856,-0.004134,87.078207,0.007859,
760,1440,1.662252,-4.287859,0.999996,0.000241,-0.004203,0.007986,0.000017,0.007986,-0.004203,89.920653,0.007989,
1420,1160,-1.170263,-5.742324,0.999995,0.000263,-0.005157,0.010391,-0.001967,0.010636,-0.005402,-82.900198,0.010636,
970,1630,0.572135,-2.348879,0.999997,0.000198,-0.002876,0.006602,0.000505,0.006629,-0.002903,86.958196,0.006646,
1540,1820,-0.417256,-1.191900,0.999998,0.000192,-0.001785,0.006172,0.000514,0.006205,-0.001818,86.317411,0.006380,
660,1110,2.857215,-6.983445,0.999997,0.000185,-0.003349,0.007049,-0.000493,0.007073,-0.003372,-87.291266,0.007075,
590,920,3.048608,-8.252189,0.999998,0.000173,-0.003201,0.006658,0.000270,0.006665,-0.003209,88.434603,0.006667,
560,1150,3.111310,-6.808666,0.999992,0.000000,-0.002759,0.006409,-0.000075,0.006409,-0.002760,-89.530469,0.006430,
610,1380,2.406281,-5.083342,0.999997,0.000206,-0.003789,0.007529,-0.000176,0.007532,-0.003792,-89.109637,0.007532,
1700,860,-2.315642,-8.843294,0.999996,0.000234,-0.003874,0.007915,-0.000885,0.007981,-0.003940,-85.730582,0.007981,
1060,1220,0.731891,-4.992685,0.999995,0.000270,-0.005662,0.008803,0.002335,0.009170,-0.006030,81.054321,0.009321,
680,700,2.203917,-9.989172,0.999996,0.000224,-0.003981,0.007734,0.000382,0.007747,-0.003994,88.135165,0.007748,
1420,450,-0.393616,-12.755646,0.999996,0.000230,-0.002493,0.006130,0.000622,0.006174,-0.002538,85.894702,0.006207,
820,1870,0.504285,-0.974879,0.999996,0.000249,-0.001943,0.006500,-0.001009,0.006619,-0.002062,-83.278002,0.006774,
1160,570,0.140658,-12.297008,0.999999,0.000137,-0.002164,0.005053,-0.000918,0.005168,-0.002279,-82.863399,0.005180,
790,1570,1.273900,-3.194744,0.999996,0.000229,-0.003818,0.007619,0.000260,0.007625,-0.003824,88.696711,0.007625,
1270,390,-0.065361,-13.268347,0.999998,0.000168,-0.001704,0.005356,0.000131,0.005358,-0.001707,88.937701,0.005475,
1410,990,-1.566001,-8.268027,0.999980,0.000519,-0.006787,0.017878,0.003015,0.018241,-0.007150,83.131522,0.018382,
1090,40,0.014568,-15.025378,0.999998,0.000178,-0.000104,0.004536,0.000321,0.004558,-0.000126,86.063104,0.005192,
1800,600,-2.017101,-10.729877,0.999997,0.000187,-0.003864,0.007728,-0.000040,0.007729,-0.003864,-89.801225,0.007729,
1370,1430,-0.305129,-3.293566,0.999997,0.000201,-0.002972,0.005889,-0.001699,0.006204,-0.003286,-79.507392,0.006208,
640,1000,2.968171,-7.751969,0.999998,0.000176,-0.003239,0.006808,0.000216,0.006812,-0.003244,88.769592,0.006815,
1570,1910,-0.273352,-0.673701,0.999998,0.000180,-0.001309,0.005799,0.000879,0.005906,-0.001416,83.056672,0.006167,
910,280,0.526125,-13.627290,0.999997,0.000203,-0.002144,0.006462,0.000316,0.006473,-0.002156,87.899175,0.006592,
1320,260,-0.104445,-13.948325,0.999998,0.000170,-0.001301,0.005226,0.000013,0.005226,-0.001301,89.885359,0.005441,
1020,680,0.603120,-11.143658,0.999995,0.000244,-0.004444,0.007552,-0.001817,0.007821,-0.004713,-81.574194,0.007875,
1380,90,-0.050050,-14.789858,0.999999,0.000156,-0.000321,0.004795,-0.000330,0.004816,-0.000343,-86.321896,0.005374,
830,1320,1.654252,-5.124804,0.999997,0.000221,-0.004724,0.008555,-0.000319,0.008562,-0.004732,-88.625096,0.008578,
1840,720,-2.475971,-9.724776,0.999997,0.000214,-0.003761,0.007512,-0.000292,0.007519,-0.003768,-88.517344,0.007519,
1460,880,-1.293979,-9.216541,0.999994,0.000280,-0.005589,0.010526,0.000324,0.010532,-0.005596,88.849696,0.010539,
1700,650,-1.733346,-10.555555,0.999996,0.000228,-0.004270,0.008050,-0.000122,0.008051,-0.004271,-89.434417,0.008056,
1100,430,0.249665,-12.971119,0.999998,0.000178,-0.002077,0.005678,-0.000444,0.005703,-0.002102,-86.732190,0.005769,
720,1180,2.515254,-6.429234,0.999997,0.000227,-0.003672,0.007641,-0.000802,0.007698,-0.003729,-85.963976,0.007699,
790,1240,2.076020,-5.880124,0.999996,0.000246,-0.004242,0.008269,-0.000834,0.008325,-0.004297,-86.201381,0.008326,
890,1840,0.438273,-1.099760,0.999997,0.000214,-0.002024,0.006224,-0.000584,0.006265,-0.002065,-85.971476,0.006385,
650,1660,1.612453,-2.847461,0.999997,0.000235,-0.003729,0.007557,0.000066,0.007557,-0.003729,89.662842,0.007558,
890,1130,2.020352,-6.695757,0.999998,0.000187,-0.003706,0.008739,-0.001080,0.008832,-0.003799,-85.075621,0.008861,
1670,1310,-1.854675,-5.287016,0.999998,0.000181,-0.004482,0.008370,0.000499,0.008389,-0.004501,87.782060,0.008397,
560,1140,3.129449,-6.873553,0.999990,0.000000,-0.002719,0.006525,-0.000089,0.006525,-0.002720,-89.445368,0.006556,
1850,1460,-2.197835,-4.466010,0.999997,0.000200,-0.003824,0.007688,0.000054,0.007688,-0.003825,89.730420,0.007688,
760,1420,1.708805,-4.447859,0.999996,0.000240,-0.004248,0.008033,-0.000066,0.008033,-0.004249,-89.693898,0.008037,
1830,1080,-2.975544,-7.203253,0.999998,0.000218,-0.003191,0.006690,0.000129,0.006692,-0.003193,89.254790,0.006694,
1420,1140,-1.293362,-5.963265,0.999994,0.000289,-0.004963,0.010724,-0.002206,0.011029,-0.005268,-82.144472,0.011032,
1890,770,-2.789267,-9.246909,0.999997,0.000223,-0.003562,0.007195,-0.000137,0.007197,-0.003564,-89.269965,0.007197,
680,680,2.150310,-10.143244,0.999997,0.000203,-0.003972,0.007760,0.000335,0.007770,-0.003981,88.367660,0.007771,
1220,630,0.018956,-12.086081,0.999998,0.000156,-0.001753,0.004197,-0.000276,0.004210,-0.001766,-87.347584,0.004228,
1890,270,-1.566496,-12.996134,0.999996,0.000234,-0.003657,0.007240,-0.000050,0.007240,-0.003657,-89.734499,0.007240,
1700,840,-2.259895,-9.003988,0.999996,0.000219,-0.004012,0.008036,-0.000922,0.008106,-0.004082,-85.648569,0.008106,
850,830,1.861079,-9.201639,0.999996,0.000212,-0.004588,0.008815,0.000866,0.008871,-0.004644,86.317320,0.008874,
840,1850,0.520941,-1.089826,0.999996,0.000208,-0.002024,0.006536,-0.000867,0.006623,-0.002111,-84.276301,0.006767,
790,1330,1.811332,-5.124610,0.999996,0.000234,-0.004467,0.008321,-0.000401,0.008333,-0.004480,-88.203742,0.008341,
1540,1800,-0.458345,-1.321513,0.999997,0.000212,-0.001922,0.006247,0.000400,0.006267,-0.001942,87.202120,0.006416,
1160,790,0.157292,-11.349075,0.999996,0.000245,-0.002842,0.003463,-0.002768,0.004506,-0.003885,-69.357967,0.004884,
1060,1200,0.840849,-5.162429,0.999996,0.000243,-0.005511,0.008988,0.002317,0.009349,-0.005872,81.136300,0.009451,
1800,620,-2.066304,-10.574001,0.999998,0.000181,-0.003896,0.007722,-0.000129,0.007724,-0.003897,-89.361975,0.007724,
640,980,2.955710,-7.887469,0.999998,0.000195,-0.003238,0.006737,0.000134,0.006739,-0.003240,89.229389,0.006741,
1320,1360,-0.166423,-3.474013,0.999997,0.000194,-0.002585,0.004679,-0.002125,0.005255,-0.003161,-74.832686,0.005291,
1430,50,-0.030889,-14.975651,0.999998,0.000143,-0.000242,0.004678,-0.000403,0.004711,-0.000274,-85.352449,0.005288,
1020,660,0.585160,-11.292901,0.999996,0.000239,-0.004196,0.007393,-0.001754,0.007653,-0.004456,-81.579835,0.007687,
1320,90,-0.026450,-14.797168,0.999998,0.000175,-0.000356,0.004697,-0.000161,0.004702,-0.000361,-88.179698,0.005234,
920,450,0.754512,-12.491880,0.999997,0.000216,-0.003317,0.007064,-0.000512,0.007089,-0.003342,-87.182557,0.007093,
1460,860,-1.186452,-9.424928,0.999995,0.000265,-0.005802,0.010379,0.000644,0.010405,-0.005828,87.723012,0.010430,
1580,700,-1.303729,-10.438711,0.999996,0.000232,-0.004894,0.008650,0.000262,0.008655,-0.004899,88.890562,0.008680,
1370,1410,-0.305883,-3.411917,0.999996,0.000216,-0.003155,0.005921,-0.001896,0.006301,-0.003535,-78.663569,0.006316,
1700,630,-1.684299,-10.717861,0.999996,0.000218,-0.004265,0.008052,-0.000050,0.008053,-0.004265,-89.767258,0.008057,
1270,410,-0.067924,-13.161362,0.999998,0.000161,-0.001740,0.005321,0.000167,0.005325,-0.001744,88.644131,0.005430,
1860,1290,-2.667426,-5.770145,0.999996,0.000222,-0.003639,0.007348,0.000298,0.007356,-0.003647,88.445728,0.007356,
1840,700,-2.423934,-9.874251,0.999997,0.000221,-0.003796,0.007521,-0.000278,0.007528,-0.003803,-88.596025,0.007528,
730,1380,1.934288,-4.836716,0.999997,0.000185,-0.004173,0.007941,-0.000299,0.007948,-0.004180,-88.586799,0.007952,
890,1110,2.086708,-6.874076,0.999997,0.000221,-0.003393,0.008586,-0.000984,0.008666,-0.003474,-85.336147,0.008723,
1670,1290,-1.910509,-5.454487,0.999997,0.000185,-0.004437,0.008407,0.000618,0.008437,-0.004467,87.250551,0.008442,
890,1820,0.481255,-1.227418,0.999997,0.000182,-0.002176,0.006389,-0.000494,0.006417,-0.002204,-86.709848,0.006521,
560,1130,3.142241,-6.939751,0.999991,0.000000,-0.002805,0.006344,-0.000165,0.006347,-0.002808,-88.968207,0.006361,
1820,1210,-2.723039,-6.285292,0.999997,0.000186,-0.003562,0.007205,0.000559,0.007234,-0.003591,87.035808,0.007234,
720,1160,2.563681,-6.582394,0.999997,0.000207,-0.003577,0.007584,-0.000778,0.007637,-0.003631,-86.032218,0.007641,
760,1400,1.758355,-4.612293,0.999997,0.000233,-0.004277,0.008084,-0.000139,0.008086,-0.004278,-89.357177,0.008090,
790,1200,2.195423,-6.209394,0.999998,0.000210,-0.004013,0.008207,-0.000964,0.008283,-0.004088,-85.518520,0.008283,
1810,1080,-2.910831,-7.195764,0.999998,0.000208,-0.003257,0.006850,0.000159,0.006852,-0.003260,89.099986,0.006855,
1060,1490,0.393684,-3.036438,0.999997,0.000203,-0.003035,0.006217,0.001311,0.006399,-0.003217,82.089127,0.006399,
650,1700,1.517544,-2.546365,0.999996,0.000207,-0.003759,0.007588,0.000009,0.007588,-0.003759,89.956472,0.007588,
1700,910,-2.443810,-8.448185,0.999997,0.000239,-0.003570,0.007798,-0.000843,0.007860,-0.003633,-85.780826,0.007867,
1420,1120,-1.416952,-6.196698,0.999991,0.000345,-0.004970,0.011448,-0.002663,0.011869,-0.005391,-81.013883,0.011886,
1490,830,-1.224640,-9.566538,0.999995,0.000289,-0.005789,0.009970,0.000285,0.009975,-0.005794,88.964894,0.010019,
1700,820,-2.201372,-9.165952,0.999997,0.000229,-0.004106,0.008055,-0.000858,0.008116,-0.004166,-85.983261,0.008117,
1610,360,-0.830136,-12.987041,0.999998,0.000132,-0.002970,0.007019,-0.000006,0.007019,-0.002970,-89.963737,0.007047,
1320,1320,-0.168779,-3.658982,0.999997,0.000209,-0.002757,0.004479,-0.002580,0.005304,-0.003583,-72.255051,0.005412,
1540,1780,-0.487786,-1.444721,0.999997,0.000212,-0.002069,0.006375,0.000302,0.006385,-0.002080,87.950869,0.006513,
680,430,1.577634,-12.078717,0.999996,0.000237,-0.003741,0.007602,-0.000120,0.007603,-0.003742,-89.395299,0.007603,
790,1290,1.925353,-5.461089,0.999997,0.000193,-0.004439,0.008367,-0.000606,0.008396,-0.004468,-87.298160,0.008401,
1060,1180,0.953570,-5.354197,0.999996,0.000232,-0.005219,0.009309,0.002488,0.009723,-0.005633,80.544715,0.009764,
1430,40,-0.022937,-15.022481,0.999998,0.000139,-0.000193,0.004641,-0.000386,0.004671,-0.000223,-85.462878,0.005270,
1360,510,-0.263020,-12.519709,0.999997,0.000173,-0.002441,0.005727,0.000901,0.005826,-0.002539,83.780984,0.005842,
1020,640,0.571367,-11.438195,0.999996,0.000248,-0.004004,0.007181,-0.001693,0.007432,-0.004255,-81.577040,0.007458,
680,660,2.096747,-10.300234,0.999998,0.000191,-0.003953,0.007787,0.000244,0.007792,-0.003958,88.811398,0.007793,
1200,630,0.055680,-12.069541,0.999998,0.000177,-0.001808,0.004278,-0.000531,0.004324,-0.001854,-85.052695,0.004338,
840,1870,0.466492,-0.957614,0.999997,0.000217,-0.001806,0.006349,-0.000952,0.006458,-0.001916,-83.426837,0.006634,
850,810,1.792472,-9.380207,0.999996,0.000226,-0.004740,0.008846,0.000753,0.008888,-0.004782,86.837916,0.008897,
1890,260,-1.534498,-13.069037,0.999995,0.000255,-0.003641,0.007269,-0.000072,0.007269,-0.003642,-89.620556,0.007269,
1580,660,-1.213615,-10.780237,0.999996,0.000230,-0.004708,0.008384,0.000458,0.008400,-0.004724,87.997267,0.008422,
1460,1790,-0.317411,-1.299723,0.999998,0.000174,-0.001612,0.005829,0.000203,0.005835,-0.001617,88.437908,0.006025,
710,1380,2.016681,-4.875983,0.999996,0.000213,-0.004073,0.007865,-0.000304,0.007873,-0.004081,-88.540495,0.007875,
1800,640,-2.115366,-10.418925,0.999997,0.000192,-0.003927,0.007740,-0.000180,0.007743,-0.003930,-89.117523,0.007743,
1060,370,0.302393,-13.267401,0.999997,0.000191,-0.002159,0.005945,-0.000317,0.005957,-0.002171,-87.759890,0.006030,
1370,350,-0.227732,-13.415781,0.999998,0.000197,-0.001740,0.005602,0.000184,0.005607,-0.001745,88.567378,0.005739,
1840,680,-2.372102,-10.025660,0.999997,0.000215,-0.003815,0.007555,-0.000244,0.007561,-0.003820,-88.770600,0.007561,
1080,290,0.211173,-13.745737,0.999998,0.000176,-0.001488,0.005585,0.000046,0.005585,-0.001488,89.628697,0.005784,
1690,760,-1.984670,-9.673275,0.999998,0.000168,-0.004319,0.008236,-0.000603,0.008265,-0.004348,-87.255050,0.008269,
1670,1270,-1.971186,-5.623289,0.999997,0.000210,-0.004392,0.008388,0.000730,0.008429,-0.004433,86.743279,0.008433,
1840,1290,-2.595216,-5.732445,0.999997,0.000203,-0.003688,0.007368,0.000388,0.007382,-0.003702,87.995054,0.007382,
1670,1960,-0.256910,-0.426108,0.999998,0.000175,-0.001352,0.005964,0.001473,0.006249,-0.001637,79.033332,0.006481,
770,1200,2.276110,-6.230966,0.999996,0.000233,-0.003936,0.008052,-0.000923,0.008123,-0.004007,-85.623648,0.008123,
1620,730,-1.576519,-10.069710,0.999997,0.000217,-0.004829,0.008620,-0.000218,0.008624,-0.004833,-89.073086,0.008645,
720,1140,2.604183,-6.734812,0.999997,0.000194,-0.003458,0.007423,-0.000627,0.007459,-0.003494,-86.711921,0.007464,
890,1090,2.133274,-7.040966,0.999997,0.000216,-0.003144,0.008380,-0.000810,0.008436,-0.003200,-85.996269,0.008518,
570,1110,3.150839,-7.051808,0.999989,0.000415,-0.002926,0.006149,-0.000103,0.006150,-0.002927,-89.352161,0.006153,
560,1120,3.157509,-7.005470,0.999994,0.000000,-0.002841,0.006155,-0.000182,0.006158,-0.002844,-88.844303,0.006164,
780,1770,0.891324,-1.730864,0.999997,0.000186,-0.003192,0.007286,-0.000351,0.007297,-0.003204,-88.084727,0.007316,
1050,1180,1.007338,-5.460748,0.999996,0.000224,-0.005287,0.009936,0.002153,0.010234,-0.005586,82.102081,0.010249,
1860,1490,-2.165794,-4.260179,0.999997,0.000180,-0.003814,0.007621,0.000004,0.007621,-0.003814,89.982190,0.007621,
760,1380,1.807162,-4.773397,0.999996,0.000231,-0.004287,0.008134,-0.000240,0.008139,-0.004291,-88.894160,0.008143,
650,1680,1.565047,-2.696759,0.999997,0.000210,-0.003748,0.007551,0.000037,0.007551,-0.003748,89.813740,0.007551,
640,960,2.942834,-8.020772,0.999997,0.000212,-0.003280,0.006801,0.000233,0.006806,-0.003285,88.678232,0.006807,
1420,940,-1.445049,-8.866835,0.999991,0.000366,-0.005094,0.011709,0.002809,0.012166,-0.005552,80.756518,0.012181,
1320,1300,-0.174852,-3.744255,0.999997,0.000229,-0.002936,0.004421,-0.002848,0.005394,-0.003909,-71.127981,0.005573,
1700,390,-1.186202,-12.582081,0.999998,0.000168,-0.003525,0.007475,0.000094,0.007476,-0.003526,89.510259,0.007480,
1020,620,0.555914,-11.577766,0.999996,0.000228,-0.003878,0.007027,-0.001600,0.007257,-0.004108,-81.822902,0.007278,
1460,840,-1.092465,-9.626826,0.999994,0.000281,-0.005883,0.010080,0.000937,0.010135,-0.005938,86.650597,0.010185,
1270,430,-0.069849,-13.055310,0.999998,0.000178,-0.001783,0.005281,0.000187,0.005286,-0.001788,88.483754,0.005377,
1680,650,-1.645227,-10.601643,0.999996,0.000227,-0.004371,0.008117,-0.000073,0.008117,-0.004371,-89.663190,0.008125,
1540,1760,-0.526627,-1.576500,0.999997,0.000195,-0.002235,0.006474,0.000228,0.006480,-0.002241,88.502431,0.006582,
1580,640,-1.175097,-10.947865,0.999996,0.000219,-0.004568,0.008223,0.000520,0.008244,-0.004589,87.675656,0.008261,
1490,1050,-1.973088,-7.337257,0.999997,0.000212,-0.003045,0.010247,0.000283,0.010253,-0.003051,88.779726,0.010529,
790,1270,1.986220,-5.629363,0.999997,0.000210,-0.004375,0.008385,-0.000723,0.008426,-0.004415,-86.768972,0.008429,
1800,1080,-2.879232,-7.192278,0.999998,0.000205,-0.003280,0.006926,0.000171,0.006928,-0.003282,89.037924,0.006932,
1340,40,-0.011834,-15.026237,0.999999,0.000132,-0.000156,0.004505,-0.000206,0.004514,-0.000165,-87.473524,0.005119,
1070,180,0.131957,-14.336540,0.999998,0.000147,-0.000932,0.005189,0.000241,0.005199,-0.000941,87.748846,0.005540,
1670,1250,-2.033121,-5.791967,0.999997,0.000198,-0.004297,0.008359,0.000798,0.008409,-0.004347,86.407694,0.008411,
1710,2010,-0.114475,-0.150653,0.999998,0.000175,-0.000265,0.005683,0.001862,0.006218,-0.000799,73.975929,0.006766,
1840,660,-2.318433,-10.177958,0.999997,0.000216,-0.003821,0.007579,-0.000197,0.007582,-0.003824,-89.010713,0.007582,
1820,1350,-2.360472,-5.241412,0.999997,0.000210,-0.003825,0.007594,0.000331,0.007603,-0.003835,88.338651,0.007603,
1820,1290,-2.520337,-5.694517,0.999997,0.000201,-0.003745,0.007427,0.000474,0.007447,-0.003765,87.573992,0.007448,
1720,890,-2.466127,-8.593159,0.999997,0.000197,-0.003686,0.007785,-0.000877,0.007852,-0.003753,-85.652366,0.007854,
1700,800,-2.142374,-9.326989,0.999997,0.000225,-0.004170,0.008135,-0.000773,0.008183,-0.004218,-86.419840,0.008185,
910,560,0.930955,-11.660916,0.999997,0.000193,-0.003980,0.007632,-0.000743,0.007680,-0.004028,-86.353248,0.007683,
1500,1210,-1.345484,-5.752257,0.999996,0.000264,-0.005603,0.009970,0.000084,0.009971,-0.005603,89.690833,0.009996,
890,1290,1.447177,-5.240945,0.999995,0.000260,-0.005136,0.009042,-0.000132,0.009043,-0.005137,-89.466554,0.009071,
1060,1160,1.075531,-5.563667,0.999993,0.000280,-0.004757,0.009417,0.002933,0.010000,-0.005340,78.758730,0.010007,
1370,1390,-0.310652,-3.531548,0.999996,0.000238,-0.003329,0.005967,-0.002133,0.006433,-0.003795,-77.676802,0.006467,
560,1110,3.181522,-7.060375,0.999989,0.000000,-0.002804,0.005977,-0.000079,0.005978,-0.002805,-89.483305,0.005982,
1230,1880,0.001076,-0.726795,0.999999,0.000150,-0.000828,0.004922,0.000013,0.004922,-0.000828,89.868313,0.005271,
1640,250,-0.674464,-13.711014,0.999998,0.000188,-0.002463,0.006902,-0.000641,0.006945,-0.002506,-86.103948,0.007034,
1890,1430,-2.421652,-4.790242,0.999996,0.000251,-0.003819,0.007569,0.000074,0.007570,-0.003820,89.626233,0.007570,
1760,640,-1.956961,-10.503754,0.999997,0.000209,-0.004017,0.007873,-0.000188,0.007876,-0.004020,-89.094334,0.007877,
1520,970,-1.982344,-8.084939,0.999998,0.000189,-0.003246,0.009254,-0.000785,0.009303,-0.003295,-86.421972,0.009433,
1050,1010,1.611702,-7.884647,0.999982,0.000518,-0.007298,0.018383,-0.001465,0.018467,-0.007381,-86.744481,0.018590,
1770,1400,-2.034784,-4.754218,0.999997,0.000235,-0.004023,0.007820,0.000230,0.007825,-0.004027,88.885566,0.007826,
630,1700,1.591295,-2.595295,0.999996,0.000232,-0.003664,0.007550,0.000022,0.007550,-0.003664,89.887035,0.007551,
620,670,2.356389,-10.095970,0.999997,0.000205,-0.003817,0.007547,0.000233,0.007552,-0.003822,88.827679,0.007552,
1580,620,-1.136244,-11.110156,0.999997,0.000217,-0.004404,0.008021,0.000588,0.008049,-0.004432,87.297738,0.008062,
1110,1670,0.214373,-1.886056,0.999998,0.000176,-0.001865,0.005604,0.000276,0.005614,-0.001875,87.888817,0.005716,
1320,1280,-0.184795,-3.832668,0.999996,0.000239,-0.003132,0.004321,-0.003029,0.005397,-0.004208,-70.447536,0.005672,
1810,700,-2.310318,-9.935731,0.999997,0.000224,-0.003858,0.007600,-0.000361,0.007611,-0.003869,-88.198122,0.007611,
1880,280,-1.560852,-12.953762,0.999996,0.000224,-0.003659,0.007269,-0.000026,0.007269,-0.003659,-89.865778,0.007269,
680,640,2.047806,-10.455953,0.999997,0.000209,-0.003948,0.007783,0.000171,0.007785,-0.003951,89.163084,0.007786,
1800,1060,-2.890956,-7.331684,0.999998,0.000193,-0.003260,0.006965,0.000203,0.006969,-0.003264,88.860595,0.006974,
1020,600,0.542142,-11.724326,0.999997,0.000219,-0.003693,0.006939,-0.001441,0.007131,-0.003885,-82.417982,0.007140,
760,1360,1.860252,-4.937484,0.999996,0.000235,-0.004307,0.008109,-0.000348,0.008119,-0.004317,-88.396526,0.008124,
1360,670,-0.277432,-11.602806,0.999997,0.000201,-0.003156,0.005744,0.002141,0.006233,-0.003644,77.150733,0.006262,
1530,1940,-0.174397,-0.491190,0.999997,0.000201,-0.000830,0.005479,0.000826,0.005586,-0.000937,82.666505,0.005983,
1260,590,-0.052879,-12.249075,0.999998,0.000179,-0.001876,0.004633,0.000411,0.004659,-0.001902,86.404402,0.004685,
760,1770,0.954513,-1.767723,0.999997,0.000197,-0.003123,0.007391,-0.000434,0.007409,-0.003141,-87.642499,0.007437,
1460,820,-1.009811,-9.825714,0.999995,0.000254,-0.005859,0.009696,0.001066,0.009769,-0.005932,86.099316,0.009844,
1540,1090,-2.030394,-7.012457,0.999997,0.000209,-0.003209,0.008840,0.000836,0.008898,-0.003267,86.052089,0.009002,
640,940,2.917303,-8.159421,0.999997,0.000229,-0.003299,0.006947,0.000439,0.006966,-0.003317,87.553317,0.006968,
1220,120,0.006898,-14.659440,0.999998,0.000157,-0.000504,0.004724,-0.000011,0.004724,-0.000504,-89.881737,0.005188,
1540,1740,-0.556885,-1.703749,0.999997,0.000204,-0.002354,0.006492,0.000082,0.006493,-0.002355,89.471353,0.006574,
1060,1530,0.380432,-2.790478,0.999997,0.000217,-0.002732,0.006120,0.001015,0.006235,-0.002847,83.540513,0.006243,
1700,780,-2.086652,-9.492965,0.999997,0.000202,-0.004223,0.008207,-0.000707,0.008247,-0.004263,-86.756950,0.008248,
1440,1770,-0.306538,-1.398015,0.999997,0.000199,-0.001819,0.005860,0.000060,0.005860,-0.001819,89.551168,0.005999,
1720,910,-2.514934,-8.436150,0.999997,0.000210,-0.003571,0.007663,-0.000749,0.007713,-0.003621,-86.202209,0.007718,
1640,1170,-2.153083,-6.425745,0.999997,0.000206,-0.003923,0.008300,0.000990,0.008379,-0.004002,85.397876,0.008382,
1700,370,-1.144652,-12.732404,0.999999,0.000127,-0.003398,0.007385,-0.000029,0.007385,-0.003398,-89.846752,0.007393,
1140,1820,0.096787,-1.042947,0.999998,0.000180,-0.001175,0.005162,-0.000017,0.005162,-0.001175,-89.844240,0.005412,
1640,230,-0.623674,-13.850078,0.999997,0.000200,-0.002292,0.006765,-0.000753,0.006827,-0.002354,-85.281777,0.006936,
1810,30,-0.068960,-15.050563,0.999997,0.000000,-0.000749,0.006422,-0.002912,0.007456,-0.001783,-70.458312,0.007787,
1840,640,-2.268581,-10.329543,0.999996,0.000236,-0.003814,0.007657,-0.000132,0.007658,-0.003816,-89.338932,0.007658,
1270,1250,-0.094262,-3.609301,0.999997,0.000223,-0.002606,0.002020,-0.001569,0.002502,-0.003088,-72.920495,0.003280,
1610,40,-0.058168,-15.011248,0.999998,0.000173,-0.000197,0.005053,-0.001200,0.005314,-0.000459,-77.718154,0.005889,
1060,900,1.106253,-9.506861,0.999992,0.000346,-0.004645,0.009516,-0.003182,0.010199,-0.005327,-77.901470,0.010202,
880,1460,1.106936,-3.821514,0.999997,0.000210,-0.004278,0.007885,0.000570,0.007911,-0.004304,87.322381,0.007922,
970,180,0.243092,-14.286357,0.999997,0.000186,-0.001422,0.005628,0.000480,0.005660,-0.001454,86.119098,0.005879,
1020,1470,0.534158,-3.294823,0.999996,0.000215,-0.003547,0.006836,0.001343,0.007007,-0.003718,82.745261,0.007011,
1670,1940,-0.331579,-0.552071,0.999996,0.000235,-0.001668,0.006254,0.001457,0.006514,-0.001928,79.900213,0.006692,
620,350,1.614896,-12.537950,0.999995,0.000272,-0.003649,0.007506,-0.000069,0.007507,-0.003650,-89.645039,0.007507,
1210,1880,0.016841,-0.728912,0.999998,0.000148,-0.000774,0.004925,-0.000002,0.004925,-0.000774,-89.975589,0.005297,
1050,1000,1.608197,-8.071201,0.999974,0.000611,-0.007131,0.018077,-0.002257,0.018278,-0.007332,-84.924641,0.018396,
1800,1290,-2.445067,-5.662229,0.999995,0.000241,-0.003812,0.007512,0.000538,0.007537,-0.003837,87.285965,0.007538,
1500,970,-1.917509,-8.116985,0.999997,0.000233,-0.003367,0.009685,-0.000704,0.009723,-0.003405,-86.923278,0.009868,
1810,680,-2.255806,-10.089416,0.999997,0.000229,-0.003862,0.007622,-0.000308,0.007630,-0.003870,-88.465410,0.007630,
1580,600,-1.103691,-11.268508,0.999997,0.000204,-0.004289,0.007918,0.000601,0.007947,-0.004319,87.188943,0.007957,
1670,1230,-2.091721,-5.958397,0.999997,0.000197,-0.004209,0.008255,0.000873,0.008316,-0.004269,86.011934,0.008317,
1430,1680,-0.370408,-1.923981,0.999999,0.000189,-0.002265,0.006093,-0.000307,0.006105,-0.002277,-87.902001,0.006170,
1760,620,-1.906404,-10.661844,0.999997,0.000185,-0.003992,0.007860,-0.000082,0.007861,-0.003993,-89.605728,0.007861,
770,620,1.630882,-10.815615,0.999996,0.000263,-0.004248,0.008027,-0.000032,0.008027,-0.004248,-89.849410,0.008032,
1490,810,-1.143067,-9.762110,0.999995,0.000278,-0.005790,0.009750,0.000543,0.009769,-0.005809,88.002598,0.009827,
990,1940,0.124878,-0.472008,0.999998,0.000189,-0.000639,0.005194,-0.000594,0.005254,-0.000699,-84.244612,0.005706,
850,790,1.725521,-9.557290,0.999996,0.000243,-0.004831,0.008837,0.000606,0.008864,-0.004857,87.467721,0.008877,
1330,1400,-0.194554,-3.318231,0.999997,0.000198,-0.002655,0.005082,-0.001814,0.005486,-0.003059,-77.438610,0.005498,
1460,800,-0.931962,-10.020082,0.999996,0.000245,-0.005808,0.009438,0.001250,0.009540,-0.005910,85.342584,0.009630,
1010,1790,0.305543,-1.291151,0.999998,0.000184,-0.001613,0.005815,-0.000149,0.005818,-0.001616,-88.854472,0.006006,
1400,1770,-0.232201,-1.358354,0.999997,0.000197,-0.001614,0.005660,-0.000009,0.005660,-0.001614,-89.927086,0.005832,
640,920,2.884559,-8.300245,0.999998,0.000194,-0.003321,0.006954,0.000454,0.006974,-0.003341,87.476250,0.006976,
1050,560,0.422940,-12.083640,0.999997,0.000215,-0.003135,0.006369,-0.001306,0.006545,-0.003312,-82.317699,0.006545,
1260,570,-0.053458,-12.344303,0.999998,0.000207,-0.001878,0.004794,0.000362,0.004813,-0.001898,86.901625,0.004849,
1800,1040,-2.901930,-7.472036,0.999997,0.000195,-0.003256,0.007003,0.000160,0.007005,-0.003259,89.104806,0.007011,
1700,1090,-2.542901,-7.091804,0.999997,0.000225,-0.003292,0.007571,0.000551,0.007599,-0.003320,87.106042,0.007619,
1220,100,0.005522,-14.753856,0.999998,0.000154,-0.000427,0.004662,0.000007,0.004662,-0.000427,89.926565,0.005155,
1700,1210,-2.274780,-6.155663,0.999996,0.000232,-0.003967,0.008028,0.000923,0.008099,-0.004038,85.625112,0.008099,
1320,1260,-0.215604,-3.918528,0.999996,0.000261,-0.003301,0.004232,-0.003147,0.005374,-0.004442,-70.061749,0.005743,
1680,390,-1.116287,-12.625982,0.999997,0.000189,-0.003486,0.007440,0.000093,0.007441,-0.003486,89.513760,0.007446,
800,1530,1.309073,-3.478888,0.999998,0.000168,-0.003965,0.007767,0.000296,0.007775,-0.003972,88.554693,0.007775,
1110,1650,0.221797,-1.998285,0.999998,0.000173,-0.001950,0.005567,0.000363,0.005585,-0.001968,87.240370,0.005665,
680,620,1.999937,-10.612737,0.999997,0.000216,-0.003956,0.007767,0.000109,0.007768,-0.003957,89.466227,0.007769,
1700,760,-2.026593,-9.655757,0.999997,0.000193,-0.004273,0.008182,-0.000624,0.008213,-0.004304,-87.136869,0.008216,
1870,280,-1.524183,-12.984008,0.999996,0.000228,-0.003655,0.007321,-0.000044,0.007322,-0.003655,-89.771768,0.007322,
670,940,2.816265,-8.178005,0.999997,0.000204,-0.003386,0.007145,0.000517,0.007171,-0.003412,87.194665,0.007173,
760,1340,1.913835,-5.099735,0.999998,0.000201,-0.004303,0.008141,-0.000412,0.008154,-0.004316,-88.106650,0.008159,
1840,620,-2.222489,-10.485440,0.999996,0.000229,-0.003822,0.007675,-0.000087,0.007675,-0.003823,-89.565470,0.007676,
1400,1020,-1.529296,-7.722357,0.999863,0.000000,-0.007731,0.021991,0.000978,0.022023,-0.007764,88.117195,0.022340,
940,1190,1.557809,-6.034054,0.999995,0.000254,-0.005093,0.009712,-0.000660,0.009741,-0.005123,-87.451340,0.009746,
1700,110,-0.354195,-14.585480,0.999996,0.000209,-0.001399,0.006455,-0.001767,0.006834,-0.001778,-77.887255,0.007091,
1140,1800,0.106027,-1.146315,0.999998,0.000168,-0.001283,0.005240,0.000012,0.005240,-0.001283,89.894031,0.005463,
1060,880,0.983042,-9.711857,0.999994,0.000299,-0.005148,0.009317,-0.002575,0.009761,-0.005593,-80.200211,0.009796,
1630,1480,-1.269235,-3.786961,0.999996,0.000223,-0.004190,0.007922,-0.000354,0.007933,-0.004200,-88.326012,0.007937,
1130,1880,0.078121,-0.740331,0.999998,0.000158,-0.000906,0.005034,-0.000107,0.005036,-0.000908,-88.972803,0.005368,
1540,1720,-0.586699,-1.837578,0.999996,0.000232,-0.002420,0.006677,0.000040,0.006678,-0.002421,89.746573,0.006761,
1270,1230,-0.130733,-3.646863,0.999996,0.000243,-0.003448,0.002107,-0.000985,0.002276,-0.003617,-80.240426,0.003657,
890,550,0.994477,-11.682585,0.999998,0.000186,-0.003944,0.007653,-0.000622,0.007686,-0.003978,-86.938629,0.007687,
1340,170,-0.082171,-14.403789,0.999998,0.000139,-0.000858,0.005057,-0.000136,0.005060,-0.000861,-88.679739,0.005414,
1600,40,-0.055042,-15.010836,0.999998,0.000152,-0.000293,0.005017,-0.001103,0.005237,-0.000513,-78.715084,0.005774,
670,840,2.614823,-8.905377,0.999996,0.000236,-0.003659,0.007319,0.000626,0.007355,-0.003694,86.747515,0.007355,
1410,980,-1.549440,-8.439326,0.999981,0.000517,-0.006546,0.016783,0.003706,0.017358,-0.007120,81.186547,0.017451,
1030,1320,0.625740,-4.357778,0.999996,0.000243,-0.005060,0.008115,0.002126,0.008449,-0.005395,81.058156,0.008557,
1500,950,-1.842655,-8.315247,0.999996,0.000233,-0.003739,0.009868,-0.000826,0.009918,-0.003789,-86.539801,0.010010,
1490,770,-1.011232,-10.143379,0.999996,0.000258,-0.005615,0.009234,0.000918,0.009291,-0.005672,86.477466,0.009366,
760,690,1.845589,-10.223539,0.999998,0.000207,-0.004318,0.008140,0.000302,0.008148,-0.004325,88.611740,0.008153,
1020,580,0.530013,-11.859134,0.999997,0.000214,-0.003482,0.006776,-0.001299,0.006938,-0.003644,-82.892179,0.006941,
1800,1020,-2.906473,-7.613049,0.999998,0.000166,-0.003241,0.007037,-0.000112,0.007038,-0.003242,-89.376619,0.007045,
1460,1220,-1.069677,-5.442890,0.999996,0.000248,-0.005847,0.009974,-0.000976,0.010034,-0.005907,-86.483272,0.010087,
1810,1740,-1.405507,-2.232403,0.999997,0.000230,-0.003634,0.007549,0.000102,0.007550,-0.003635,89.477491,0.007551,
1600,2010,-0.066450,-0.133444,0.999998,0.000153,-0.000387,0.005173,0.001077,0.005374,-0.000589,79.411782,0.005895,
990,1680,0.464064,-1.984726,0.999998,0.000192,-0.002456,0.006316,0.000275,0.006325,-0.002464,88.205411,0.006376,
640,900,2.850313,-8.439742,0.999997,0.000210,-0.003352,0.006948,0.000410,0.006965,-0.003368,87.725857,0.006966,
1830,1520,-1.985862,-3.959263,0.999997,0.000222,-0.003823,0.007640,-0.000056,0.007640,-0.003823,-89.718345,0.007640,
1530,1420,-0.939233,-3.972378,0.999996,0.000211,-0.004461,0.007977,-0.000911,0.008044,-0.004528,-85.834110,0.008065,
680,600,1.951719,-10.768136,0.999998,0.000192,-0.003922,0.007753,0.000058,0.007753,-0.003922,89.713336,0.007753,
730,600,1.751171,-10.881076,0.999996,0.000236,-0.004074,0.007890,0.000023,0.007890,-0.004074,89.891322,0.007892,
1620,2020,-0.047592,-0.084456,0.999998,0.000000,0.000040,0.005183,0.001240,0.005466,-0.000243,77.130876,0.006176,
760,1320,1.968471,-5.265095,0.999998,0.000189,-0.004285,0.008165,-0.000518,0.008187,-0.004307,-87.622648,0.008191,
1700,740,-1.970824,-9.820424,0.999997,0.000204,-0.004300,0.008191,-0.000546,0.008215,-0.004323,-87.502141,0.008219,
710,940,2.680029,-8.196865,0.999997,0.000198,-0.003413,0.007358,0.000592,0.007391,-0.003445,86.862691,0.007396,
700,150,0.666319,-14.240792,0.999997,0.000189,-0.003041,0.007329,0.001347,0.007501,-0.003213,82.720543,0.007526,
1840,1170,-2.883148,-6.594843,0.999996,0.000249,-0.003384,0.006892,0.000383,0.006906,-0.003399,87.866815,0.006906,
1670,1210,-2.153698,-6.121873,0.999997,0.000216,-0.004103,0.008243,0.000944,0.008315,-0.004175,85.654215,0.008315,
1170,620,0.114142,-12.069389,0.999998,0.000183,-0.002116,0.004645,-0.001095,0.004818,-0.002288,-81.028871,0.004820,
1000,370,0.437251,-13.180150,0.999998,0.000190,-0.002298,0.006231,-0.000247,0.006238,-0.002305,-88.342325,0.006309,
1680,970,-2.484687,-7.995577,0.999996,0.000218,-0.003263,0.007596,-0.000537,0.007623,-0.003290,-87.175349,0.007647,
1420,920,-1.325273,-9.099581,0.999994,0.000285,-0.004905,0.010833,0.002339,0.011173,-0.005246,81.724127,0.011180,
1270,830,-0.145885,-11.465994,0.999995,0.000261,-0.003729,0.002172,0.000761,0.002269,-0.003825,82.771243,0.003847,
1560,570,-0.971561,-11.565121,0.999996,0.000242,-0.004054,0.007707,0.000720,0.007750,-0.004098,86.511018,0.007755,
1350,1480,-0.248529,-2.947176,0.999997,0.000207,-0.002584,0.005568,-0.001254,0.005756,-0.002773,-81.449486,0.005757,
1320,1240,-0.262627,-3.998732,0.999995,0.000269,-0.003512,0.004085,-0.003038,0.005151,-0.004577,-70.671038,0.005646,
790,1700,1.020676,-2.220658,0.999997,0.000205,-0.003386,0.007305,0.000009,0.007305,-0.003386,89.949132,0.007312,
800,1630,1.125192,-2.717361,0.999997,0.000206,-0.003553,0.007455,0.000169,0.007458,-0.003555,89.121436,0.007461,
1730,720,-2.041309,-9.929585,0.999998,0.000197,-0.004175,0.007964,-0.000477,0.007982,-0.004194,-87.754226,0.007986,
1680,1210,-2.195576,-6.134686,0.999997,0.000198,-0.004082,0.008180,0.000936,0.008251,-0.004153,85.661412,0.008251,
1050,1880,0.148585,-0.766513,0.999998,0.000182,-0.001087,0.005242,-0.000273,0.005254,-0.001099,-87.532854,0.005542,
670,820,2.566777,-9.051212,0.999997,0.000213,-0.003730,0.007435,0.000644,0.007472,-0.003767,86.709093,0.007472,
1280,210,-0.047691,-14.213197,0.999998,0.000167,-0.000901,0.005060,-0.000056,0.005061,-0.000902,-89.465848,0.005399,
850,770,1.662361,-9.734779,0.999995,0.000257,-0.004875,0.008821,0.000461,0.008837,-0.004891,88.075194,0.008854,
1580,580,-1.069302,-11.427439,0.999997,0.000209,-0.004199,0.007873,0.000619,0.007904,-0.004231,87.072804,0.007911,
1110,1630,0.226740,-2.108707,0.999998,0.000166,-0.002014,0.005592,0.000425,0.005616,-0.002038,86.813578,0.005686,
1020,540,0.508767,-12.126108,0.999997,0.000210,-0.003214,0.006627,-0.001108,0.006750,-0.003337,-83.657266,0.006750,
870,1120,2.125020,-6.805208,0.999997,0.000231,-0.003487,0.008464,-0.001014,0.008550,-0.003573,-85.183145,0.008588,
970,1940,0.141486,-0.479978,0.999998,0.000137,-0.000861,0.005278,-0.000647,0.005346,-0.000928,-84.044967,0.005713,
1490,750,-0.961343,-10.326075,0.999996,0.000265,-0.005454,0.008992,0.001072,0.009071,-0.005533,85.777419,0.009144,
1630,2010,-0.075442,-0.134203,0.999998,0.000179,-0.000151,0.005265,0.001331,0.005575,-0.000460,76.916578,0.006188,
1140,1780,0.114332,-1.252226,0.999998,0.000164,-0.001399,0.005359,0.000047,0.005360,-0.001399,89.600206,0.005560,
1220,80,0.004380,-14.845464,0.999998,0.000155,-0.000309,0.004592,0.000024,0.004592,-0.000309,89.714804,0.005133,
1060,860,0.867878,-9.912455,0.999994,0.000286,-0.005434,0.009090,-0.002367,0.009466,-0.005810,-80.972709,0.009547,
1560,90,-0.143543,-14.756526,0.999998,0.000154,-0.000671,0.005309,-0.000930,0.005450,-0.000812,-81.358049,0.005881,
1370,440,-0.267753,-12.904915,0.999998,0.000194,-0.002190,0.005752,0.000539,0.005789,-0.002226,86.138682,0.005840,
1020,1770,0.311054,-1.402271,0.999997,0.000185,-0.001780,0.005900,-0.000053,0.005900,-0.001780,-89.602517,0.006053,
1460,1240,-0.986393,-5.244373,0.999995,0.000260,-0.005819,0.009617,-0.001125,0.009699,-0.005901,-85.852763,0.009775,
640,880,2.815536,-8.576305,0.999997,0.000214,-0.003451,0.007116,0.000491,0.007139,-0.003474,87.347693,0.007140,
680,670,2.122747,-10.221240,0.999998,0.000182,-0.003957,0.007777,0.000284,0.007784,-0.003964,88.612325,0.007785,
840,1550,1.116738,-3.223715,0.999998,0.000213,-0.003808,0.007627,0.000424,0.007643,-0.003824,87.881479,0.007643,
1540,1700,-0.616134,-1.971376,0.999997,0.000217,-0.002492,0.006618,-0.000007,0.006618,-0.002492,-89.957806,0.006684,
1800,1000,-2.893588,-7.755493,0.999998,0.000157,-0.003222,0.006967,-0.000220,0.006972,-0.003227,-88.763140,0.006978,
1590,50,-0.071723,-14.963152,0.999999,0.000146,-0.000452,0.005124,-0.001071,0.005322,-0.000651,-79.493676,0.005806,
1320,170,-0.063778,-14.409120,0.999998,0.000157,-0.000830,0.004987,-0.000127,0.004990,-0.000832,-88.751295,0.005347,
1840,600,-2.172937,-10.638351,0.999997,0.000219,-0.003838,0.007647,-0.000068,0.007647,-0.003838,-89.662530,0.007647,
1640,910,-2.221940,-8.489491,0.999996,0.000231,-0.003682,0.008220,-0.001008,0.008305,-0.003767,-85.192650,0.008317,
1270,810,-0.102884,-11.501188,0.999997,0.000228,-0.002741,0.001983,0.001494,0.002416,-0.003174,73.845274,0.003315,
890,510,0.937649,-11.984189,0.999997,0.000203,-0.003769,0.007424,-0.000590,0.007455,-0.003800,-86.989098,0.007456,
1540,570,-0.891692,-11.622453,0.999997,0.000218,-0.004009,0.007603,0.000817,0.007660,-0.004066,85.993690,0.007665,
1660,1170,-2.229605,-6.443030,0.999996,0.000287,-0.003820,0.008114,0.000950,0.008189,-0.003895,85.478844,0.008192,
840,1510,1.186534,-3.533538,0.999997,0.000202,-0.004016,0.007784,0.000397,0.007797,-0.004029,88.075592,0.007799,
1430,1030,-1.751911,-7.525575,0.999987,0.000438,-0.006291,0.015292,-0.000108,0.015293,-0.006291,-89.713612,0.015373,
1170,1880,0.046799,-0.732297,0.999998,0.000157,-0.000688,0.004946,-0.000100,0.004948,-0.000689,-88.979015,0.005360,
980,1810,0.326798,-1.198617,0.999997,0.000195,-0.001713,0.005917,-0.000277,0.005927,-0.001723,-87.925015,0.006098,
710,1000,2.741633,-7.760785,0.999998,0.000163,-0.003232,0.007203,0.000225,0.007208,-0.003237,88.764971,0.007220,
1700,720,-1.915744,-9.985297,0.999997,0.000212,-0.004310,0.008150,-0.000446,0.008166,-0.004326,-87.953691,0.008170,
1010,1320,0.729055,-4.472332,0.999997,0.000250,-0.005219,0.008477,0.001791,0.008707,-0.005449,82.672731,0.008798,
1810,620,-2.104597,-10.552241,0.999997,0.000189,-0.003886,0.007705,-0.000128,0.007707,-0.003887,-89.365676,0.007707,
1580,560,-1.037426,-11.588006,0.999997,0.000195,-0.004059,0.007749,0.000615,0.007781,-0.004091,87.026435,0.007785,
1170,600,0.116909,-12.165395,0.999998,0.000170,-0.002111,0.004804,-0.000946,0.004931,-0.002238,-82.346038,0.004938,
1670,1190,-2.213484,-6.289202,0.999997,0.000235,-0.003960,0.008188,0.000944,0.008261,-0.004033,85.584061,0.008262,
720,530,1.636609,-11.407335,0.999996,0.000212,-0.003953,0.007780,-0.000121,0.007781,-0.003955,-89.407136,0.007781,
1610,2020,-0.048403,-0.082108,0.999998,0.000000,-0.000112,0.005133,0.001120,0.005362,-0.000341,78.439469,0.006004,
1690,1100,-2.491500,-7.011181,0.999997,0.000209,-0.003338,0.007637,0.000691,0.007681,-0.003381,86.412975,0.007699,
930,1940,0.175400,-0.492284,0.999997,0.000184,-0.000795,0.005509,-0.000835,0.005617,-0.000903,-82.581919,0.006033,
790,1400,1.626768,-4.542663,0.999997,0.000197,-0.004377,0.008177,-0.000064,0.008178,-0.004377,-89.708269,0.008185,
760,1740,1.030695,-1.987466,0.999998,0.000183,-0.003248,0.007307,-0.000190,0.007311,-0.003252,-88.971033,0.007326,
1890,1210,-2.964616,-6.395127,0.999998,0.000180,-0.003371,0.006911,0.000207,0.006915,-0.003375,88.849058,0.006916,
1540,1680,-0.645847,-2.103194,0.999997,0.000195,-0.002645,0.006635,-0.000126,0.006637,-0.002646,-89.219836,0.006682,
1020,520,0.498281,-12.257358,0.999997,0.000223,-0.003154,0.006564,-0.001057,0.006678,-0.003268,-83.861700,0.006678,
1300,1710,-0.106466,-1.621478,0.999998,0.000145,-0.001527,0.005417,-0.000055,0.005417,-0.001528,-89.543089,0.005586,
850,750,1.600254,-9.911288,0.999996,0.000248,-0.004854,0.008704,0.000317,0.008711,-0.004862,88.661760,0.008731,
650,120,0.650823,-14.389633,0.999996,0.000242,-0.002728,0.007842,0.001843,0.008154,-0.003040,80.389687,0.008241,
680,580,1.905478,-10.922926,0.999998,0.000178,-0.003907,0.007732,0.000014,0.007732,-0.003907,89.933495,0.007732,
1320,1220,-0.340442,-4.079948,0.999993,0.000318,-0.003381,0.003823,-0.002530,0.004622,-0.004180,-72.459703,0.005101,
1060,840,0.756833,-10.083802,0.999995,0.000258,-0.005604,0.008832,-0.002311,0.009193,-0.005965,-81.122606,0.009328,
730,580,1.705561,-11.039660,0.999996,0.000224,-0.004043,0.007841,-0.000055,0.007842,-0.004043,-89.735014,0.007843,
640,860,2.768661,-8.723044,0.999997,0.000186,-0.003528,0.007202,0.000573,0.007232,-0.003559,86.951183,0.007233,
1140,1760,0.124262,-1.361677,0.999998,0.000177,-0.001493,0.005397,0.000086,0.005398,-0.001494,89.288976,0.005575,
1620,2010,-0.073267,-0.134928,0.999998,0.000178,-0.000191,0.005232,0.001239,0.005502,-0.000461,77.723461,0.006104,
970,1680,0.518055,-2.020661,0.999998,0.000205,-0.002722,0.006443,0.000337,0.006455,-0.002734,87.896317,0.006480,
1110,1610,0.233306,-2.222089,0.999998,0.000162,-0.002054,0.005643,0.000463,0.005671,-0.002081,86.569767,0.005737,
1460,1260,-0.917726,-5.053695,0.999996,0.000239,-0.005788,0.009355,-0.001306,0.009466,-0.005900,-85.106754,0.009562,
1890,700,-2.609180,-9.761905,0.999997,0.000226,-0.003698,0.007424,-0.000103,0.007425,-0.003699,-89.469298,0.007425,
1590,40,-0.052149,-15.013396,0.999998,0.000148,-0.000350,0.005011,-0.001030,0.005202,-0.000541,-79.489878,0.005721,
1630,810,-1.870364,-9.351043,0.999997,0.000199,-0.004585,0.008659,-0.000775,0.008705,-0.004630,-86.662435,0.008710,
820,1550,1.195183,-3.274210,0.999997,0.000199,-0.003874,0.007685,0.000350,0.007695,-0.003885,88.269030,0.007695,
560,1100,3.189283,-7.121669,0.999978,0.000000,-0.002825,0.005961,0.000066,0.005962,-0.002825,89.568541,0.005964,
1800,980,-2.881450,-7.892429,0.999998,0.000164,-0.003236,0.006902,-0.000157,0.006905,-0.003238,-89.111068,0.006909,
910,540,0.903881,-11.813461,0.999996,0.000225,-0.003876,0.007541,-0.000701,0.007584,-0.003919,-86.499901,0.007585,
1840,580,-2.123568,-10.791593,0.999997,0.000192,-0.003828,0.007651,-0.000026,0.007651,-0.003828,-89.871339,0.007651,
1270,790,-0.075529,-11.538567,0.999997,0.000223,-0.002185,0.002173,0.001653,0.002729,-0.002742,71.408068,0.003159,
1280,170,-0.036537,-14.413038,0.999998,0.000170,-0.000681,0.004931,-0.000086,0.004932,-0.000682,-89.121524,0.005345,
880,1900,0.319547,-0.742936,0.999998,0.000186,-0.001647,0.006005,-0.000867,0.006102,-0.001744,-83.616378,0.006286,
1540,550,-0.865625,-11.775884,0.999996,0.000253,-0.003912,0.007523,0.000804,0.007579,-0.003968,85.997277,0.007582,
1430,1460,-0.494368,-3.319720,0.999997,0.000198,-0.003453,0.006698,-0.001414,0.006891,-0.003647,-82.214406,0.006895,
1150,1880,0.060317,-0.734167,0.999998,0.000158,-0.000792,0.004977,-0.000109,0.004979,-0.000794,-88.913549,0.005349,
610,1200,2.863616,-6.399953,0.999996,0.000218,-0.003437,0.007083,-0.000431,0.007101,-0.003454,-87.657118,0.007102,
1420,1030,-1.676681,-7.521914,0.999991,0.000345,-0.007187,0.017189,-0.000126,0.017189,-0.007188,-89.704889,0.017266,
790,1000,2.488120,-7.768009,0.999997,0.000185,-0.003068,0.007548,0.000288,0.007556,-0.003076,88.449495,0.007599,
1450,820,-0.949360,-9.893225,0.999995,0.000257,-0.005873,0.009579,0.001339,0.009695,-0.005988,85.083111,0.009784,
1700,700,-1.861120,-10.148285,0.999997,0.000223,-0.004316,0.008140,-0.000355,0.008150,-0.004326,-88.368915,0.008155,
930,990,2.071552,-7.891212,0.999997,0.000216,-0.002858,0.008959,0.000590,0.008989,-0.002888,87.148668,0.009178,
1540,1660,-0.670077,-2.236088,0.999997,0.000191,-0.002847,0.006785,-0.000264,0.006793,-0.002855,-88.428693,0.006821,
720,1120,2.636820,-6.883124,0.999997,0.000202,-0.003434,0.007387,-0.000611,0.007422,-0.003469,-86.780752,0.007427,
990,1320,0.834249,-4.575696,0.999996,0.000249,-0.005330,0.008708,0.001427,0.008852,-0.005474,84.255012,0.008934,
1020,500,0.485823,-12.390591,0.999996,0.000240,-0.003064,0.006536,-0.000952,0.006629,-0.003157,-84.390544,0.006632,
980,1790,0.354847,-1.318277,0.999997,0.000204,-0.001865,0.005995,-0.000188,0.005999,-0.001869,-88.627115,0.006140,
1220,60,0.002551,-14.938003,0.999999,0.000142,-0.000224,0.004529,0.000042,0.004529,-0.000224,89.499585,0.005106,
1580,540,-1.007151,-11.739789,0.999997,0.000177,-0.003897,0.007607,0.000596,0.007638,-0.003928,87.044135,0.007639,
1430,1940,-0.099702,-0.463234,0.999998,0.000206,-0.000697,0.005081,0.000446,0.005115,-0.000731,85.611371,0.005533,
1890,690,-2.582888,-9.836842,0.999997,0.000235,-0.003712,0.007477,-0.000084,0.007478,-0.003712,-89.571419,0.007478,
1320,840,-0.363422,-11.022380,0.999993,0.000317,-0.003295,0.003630,0.002333,0.004342,-0.004008,73.014886,0.004832,
1650,1680,-0.983631,-2.316607,0.999997,0.000218,-0.003415,0.007328,-0.000067,0.007328,-0.003416,-89.643824,0.007334,
850,730,1.544456,-10.085614,0.999996,0.000244,-0.004841,0.008669,0.000180,0.008671,-0.004844,89.237937,0.008691,
1670,1170,-2.267731,-6.451102,0.999996,0.000265,-0.003797,0.008027,0.000922,0.008098,-0.003869,85.566780,0.008101,
1320,850,-0.443103,-10.988703,0.999993,0.000301,-0.003175,0.003270,0.001819,0.003748,-0.003653,75.282281,0.004274,
1670,1740,-0.921605,-1.920848,0.999998,0.000205,-0.003263,0.007216,0.000148,0.007218,-0.003265,89.192083,0.007229,
640,840,2.720674,-8.867730,0.999997,0.000192,-0.003534,0.007163,0.000533,0.007190,-0.003560,87.156492,0.007190,
810,640,1.504053,-10.751383,0.999996,0.000214,-0.004431,0.008154,-0.000069,0.008154,-0.004431,-89.683692,0.008164,
820,1530,1.230541,-3.430626,0.999997,0.000173,-0.003943,0.007728,0.000349,0.007738,-0.003953,88.290966,0.007739,
1460,1280,-0.858693,-4.867011,0.999995,0.000256,-0.005675,0.009123,-0.001455,0.009265,-0.005817,-84.437359,0.009365,
1140,1740,0.129977,-1.468822,0.999998,0.000168,-0.001591,0.005425,0.000133,0.005427,-0.001594,88.916349,0.005579,
1800,960,-2.870459,-8.030700,0.999998,0.000175,-0.003303,0.006966,-0.000316,0.006976,-0.003313,-88.237993,0.006979,
1760,1410,-1.968568,-4.654658,0.999997,0.000218,-0.004060,0.007859,0.000191,0.007862,-0.004063,89.084561,0.007864,
1060,820,0.669215,-10.258236,0.999995,0.000267,-0.005644,0.008747,-0.002494,0.009167,-0.006063,-80.443360,0.009325,
1170,50,0.008557,-14.982557,0.999998,0.000154,-0.000049,0.004503,0.000106,0.004505,-0.000052,88.670485,0.005173,
1430,1440,-0.502903,-3.453130,0.999995,0.000242,-0.003660,0.006825,-0.001569,0.007055,-0.003889,-81.669791,0.007067,
1840,1000,-3.024590,-7.746569,0.999998,0.000198,-0.003219,0.006681,-0.000223,0.006686,-0.003224,-88.712671,0.006687,
1700,210,-0.724714,-13.901431,0.999997,0.000222,-0.002678,0.007062,-0.000978,0.007159,-0.002775,-84.319802,0.007219,
1270,770,-0.065636,-11.583328,0.999998,0.000187,-0.001910,0.002439,0.001601,0.002965,-0.002436,71.819936,0.003162,
1700,680,-1.807339,-10.312163,0.999996,0.000222,-0.004285,0.008160,-0.000257,0.008166,-0.004290,-88.816922,0.008169,
1540,1640,-0.695938,-2.374098,0.999997,0.000197,-0.003051,0.006874,-0.000373,0.006888,-0.003065,-87.851114,0.006902,
690,1000,2.805877,-7.757824,0.999997,0.000176,-0.003245,0.007120,0.000229,0.007125,-0.003250,88.734698,0.007134,
1560,1170,-1.820096,-6.317984,0.999996,0.000235,-0.004472,0.009174,0.001054,0.009255,-0.004553,85.609076,0.009256,
1480,30,-0.013279,-15.068578,0.999999,0.000000,-0.000144,0.004777,-0.000643,0.004859,-0.000226,-82.678436,0.005485,
840,830,1.905302,-9.184772,0.999997,0.000175,-0.004504,0.008724,0.000878,0.008782,-0.004562,86.217477,0.008784,
970,1610,0.592575,-2.481001,0.999997,0.000208,-0.002936,0.006674,0.000539,0.006704,-0.002966,86.796912,0.006719,
880,1880,0.366953,-0.864367,0.999997,0.000204,-0.001827,0.006024,-0.000767,0.006098,-0.001901,-84.469771,0.006240,
1260,170,-0.022402,-14.413787,0.999998,0.000156,-0.000709,0.004930,-0.000020,0.004930,-0.000709,-89.797632,0.005331,
1000,450,0.508836,-12.669884,0.999996,0.000243,-0.002902,0.006518,-0.000698,0.006570,-0.002953,-85.786360,0.006581,
1540,90,-0.133213,-14.761213,0.999998,0.000166,-0.000562,0.005256,-0.000853,0.005379,-0.000684,-81.833039,0.005856,
1370,560,-0.299961,-12.202858,0.999998,0.000163,-0.002727,0.005786,0.001246,0.005964,-0.002905,81.841093,0.005965,
1210,540,0.040248,-12.495418,0.999998,0.000163,-0.001904,0.004947,-0.000285,0.004959,-0.001916,-87.623750,0.005002,
1420,1020,-1.675886,-7.679613,0.999979,0.000589,-0.007157,0.017265,0.000550,0.017277,-0.007169,88.710158,0.017361,
1670,1100,-2.424263,-7.004474,0.999997,0.000206,-0.003297,0.007717,0.000728,0.007765,-0.003345,86.232793,0.007789,
760,1760,0.981499,-1.841896,0.999997,0.000196,-0.003170,0.007362,-0.000367,0.007375,-0.003183,-88.008474,0.007398,
1720,1290,-2.126239,-5.535855,0.999996,0.000272,-0.004149,0.008102,0.000652,0.008137,-0.004184,86.961159,0.008138,
1890,680,-2.559277,-9.912474,0.999996,0.000255,-0.003721,0.007531,-0.000086,0.007531,-0.003721,-89.563303,0.007532,
590,450,1.958310,-11.707780,0.999997,0.000204,-0.003706,0.007535,-0.000050,0.007535,-0.003706,-89.745301,0.007536,
680,560,1.860396,-11.078185,0.999998,0.000174,-0.003904,0.007694,-0.000038,0.007694,-0.003904,-89.812703,0.007694,
1740,110,-0.414075,-14.560173,0.999997,0.000225,-0.002086,0.006722,-0.001750,0.007057,-0.002421,-79.166113,0.007172,
1610,2010,-0.070800,-0.133130,0.999998,0.000154,-0.000293,0.005191,0.001148,0.005421,-0.000524,78.644031,0.005981,
1580,690,-1.279384,-10.524064,0.999997,0.000209,-0.004862,0.008571,0.000325,0.008578,-0.004870,88.613432,0.008605,
1880,1210,-2.931042,-6.375734,0.999998,0.000149,-0.003377,0.006953,0.000231,0.006958,-0.003382,88.721823,0.006959,
1020,480,0.472092,-12.522297,0.999997,0.000218,-0.002949,0.006457,-0.000833,0.006531,-0.003022,-84.976990,0.006537,
1140,1370,0.174642,-3.440587,0.999998,0.000167,-0.002616,0.004768,0.002049,0.005298,-0.003146,75.485194,0.005329,
1110,550,0.252568,-12.307383,0.999997,0.000206,-0.002527,0.005629,-0.001132,0.005783,-0.002681,-82.241951,0.005788,
1580,520,-0.978372,-11.890361,0.999997,0.000184,-0.003802,0.007516,0.000573,0.007545,-0.003831,87.110900,0.007545,
1800,940,-2.839532,-8.174792,0.999998,0.000178,-0.003369,0.007106,-0.000543,0.007134,-0.003398,-87.042631,0.007137,
1750,1420,-1.903370,-4.555153,0.999998,0.000190,-0.004056,0.007882,0.000142,0.007884,-0.004058,89.316972,0.007885,
1320,860,-0.535337,-10.962125,0.999998,0.000196,-0.002957,0.002945,0.001469,0.003290,-0.003302,76.763273,0.003806,
690,720,2.217571,-9.851471,0.999996,0.000220,-0.003998,0.007739,0.000455,0.007756,-0.004015,87.785385,0.007758,
950,1680,0.572687,-2.056471,0.999997,0.000211,-0.002711,0.006520,0.000275,0.006528,-0.002719,88.298030,0.006558,
640,80,0.419205,-14.687078,0.999995,0.000259,-0.002522,0.007869,0.002367,0.008383,-0.003036,77.753964,0.008488,
1380,210,-0.146683,-14.181753,0.999998,0.000167,-0.001016,0.005266,-0.000221,0.005274,-0.001024,-87.987441,0.005593,
1460,1720,-0.397561,-1.722941,0.999997,0.000198,-0.002050,0.006112,-0.000077,0.006113,-0.002051,-89.456873,0.006222,
1450,1940,-0.112858,-0.466852,0.999998,0.000201,-0.000629,0.005153,0.000520,0.005199,-0.000675,84.902893,0.005654,
1320,820,-0.287248,-11.100525,0.999996,0.000247,-0.003538,0.004015,0.002961,0.005037,-0.004561,70.949989,0.005562,
1700,880,-2.367318,-8.686100,0.999997,0.000217,-0.003764,0.007846,-0.000889,0.007913,-0.003832,-85.645482,0.007915,
1060,800,0.604616,-10.431094,0.999994,0.000291,-0.005548,0.008379,-0.002617,0.008854,-0.006023,-79.701959,0.009044,
940,1550,0.750971,-2.967152,0.999997,0.000198,-0.003493,0.007104,0.000730,0.007154,-0.003544,86.076411,0.007154,
1540,1620,-0.724381,-2.514225,0.999998,0.000192,-0.003239,0.006983,-0.000477,0.007005,-0.003261,-87.333881,0.007011,
1420,900,-1.199912,-9.324063,0.999995,0.000244,-0.005054,0.010473,0.002025,0.010733,-0.005314,82.691745,0.010733,
1710,100,-0.328022,-14.645691,0.999998,0.000174,-0.001172,0.006259,-0.001784,0.006665,-0.001578,-77.178822,0.006966,
1640,770,-1.789528,-9.678726,0.999997,0.000255,-0.004644,0.008655,-0.000557,0.008678,-0.004667,-87.604098,0.008686,
1270,750,-0.059784,-11.635037,0.999998,0.000178,-0.001761,0.002704,0.001483,0.003152,-0.002209,73.207231,0.003235,
1140,1720,0.139948,-1.576585,0.999998,0.000172,-0.001684,0.005432,0.000165,0.005436,-0.001688,88.668653,0.005564,
1210,1990,0.005977,-0.205528,0.999999,0.000135,-0.000235,0.004560,-0.000044,0.004560,-0.000236,-89.476072,0.005135,
1670,1150,-2.318961,-6.611308,0.999997,0.000240,-0.003652,0.008021,0.000972,0.008101,-0.003733,85.271261,0.008110,
740,1810,0.899046,-1.505935,0.999998,0.000166,-0.002935,0.007427,-0.000729,0.007478,-0.002986,-85.996184,0.007529,
680,540,1.814417,-11.233234,0.999998,0.000177,-0.003889,0.007730,-0.000066,0.007730,-0.003889,-89.675603,0.007730,
1170,40,0.007012,-15.026605,0.999999,0.000123,0.000024,0.004479,0.000096,0.004481,0.000022,88.765115,0.005187,
850,710,1.490536,-10.259851,0.999996,0.000241,-0.004803,0.008583,0.000040,0.008583,-0.004803,89.828920,0.008603,
600,1510,2.131259,-4.112876,0.999997,0.000191,-0.003769,0.007619,0.000024,0.007619,-0.003769,89.877451,0.007619,
1670,1680,-1.053117,-2.362365,0.999998,0.000160,-0.003430,0.007347,-0.000078,0.007347,-0.003431,-89.586942,0.007353,
880,1860,0.415014,-0.985685,0.999996,0.000222,-0.002002,0.006202,-0.000695,0.006260,-0.002060,-85.189469,0.006381,
760,1780,0.927018,-1.692819,0.999997,0.000175,-0.003069,0.007331,-0.000476,0.007353,-0.003091,-87.384717,0.007384,
660,1390,2.190104,-4.901267,0.999997,0.000206,-0.003889,0.007684,-0.000248,0.007689,-0.003895,-88.774507,0.007690,
970,1590,0.610616,-2.618398,0.999997,0.000205,-0.003039,0.006714,0.000620,0.006754,-0.003079,86.375701,0.006762,
790,1250,2.045485,-5.796588,0.999997,0.000223,-0.004297,0.008336,-0.000801,0.008387,-0.004347,-86.387137,0.008389,
1840,1020,-3.037832,-7.611648,0.999998,0.000202,-0.003201,0.006776,-0.000104,0.006777,-0.003202,-89.400850,0.006781,
1320,750,-0.172289,-11.396703,0.999997,0.000224,-0.002854,0.004415,0.002785,0.005360,-0.003798,71.266320,0.005513,
1490,730,-0.911745,-10.506468,0.999996,0.000239,-0.005259,0.008763,0.001184,0.008862,-0.005358,85.207713,0.008927,
1060,90,0.056482,-14.788329,0.999998,0.000169,-0.000495,0.004808,0.000362,0.004833,-0.000520,86.113913,0.005306,
1590,2010,-0.061538,-0.133248,0.999998,0.000151,-0.000453,0.005147,0.001028,0.005330,-0.000636,79.923096,0.005822,
1730,1420,-1.823353,-4.508015,0.999997,0.000187,-0.004149,0.007935,0.000110,0.007936,-0.004150,89.479245,0.007938,
1470,2020,-0.020308,-0.073978,0.999998,0.000000,0.000018,0.004755,0.000593,0.004828,-0.000055,82.972422,0.005543,
600,120,0.824517,-14.221380,0.999997,0.000195,-0.003591,0.008033,0.001157,0.008147,-0.003705,84.369146,0.008158,
810,1320,1.748329,-5.166320,0.999997,0.000246,-0.004612,0.008457,-0.000401,0.008470,-0.004624,-88.244356,0.008482,
1800,920,-2.806522,-8.316543,0.999998,0.000173,-0.003389,0.007110,-0.000521,0.007136,-0.003415,-87.167835,0.007138,
1020,460,0.457341,-12.652572,0.999997,0.000218,-0.002788,0.006369,-0.000735,0.006427,-0.002846,-85.437747,0.006441,
1580,500,-0.950446,-12.040624,0.999997,0.000204,-0.003729,0.007425,0.000536,0.007451,-0.003755,87.257327,0.007451,
940,1130,1.829782,-6.619958,0.999995,0.000250,-0.004050,0.009510,-0.000991,0.009582,-0.004123,-85.840738,0.009613,
1590,820,-1.716649,-9.336240,0.999996,0.000251,-0.004849,0.009018,-0.000720,0.009056,-0.004887,-87.036329,0.009065,
920,1510,0.869742,-3.315395,0.999996,0.000252,-0.003877,0.007527,0.000799,0.007583,-0.003932,86.009520,0.007584,
560,1090,3.188395,-7.180991,0.999973,0.000000,-0.002833,0.006156,0.000224,0.006162,-0.002838,88.575959,0.006168,
640,820,2.674562,-9.012599,0.999997,0.000203,-0.003579,0.007223,0.000510,0.007247,-0.003603,87.303919,0.007247,
1550,110,-0.177408,-14.651780,0.999998,0.000186,-0.000744,0.005484,-0.000905,0.005613,-0.000873,-81.895583,0.006041,
1120,1550,0.224868,-2.545582,0.999998,0.000150,-0.002235,0.005573,0.000708,0.005637,-0.002298,84.858831,0.005669,
720,1100,2.671748,-7.029772,0.999997,0.000213,-0.003375,0.007367,-0.000544,0.007395,-0.003403,-87.110744,0.007403,
1670,1130,-2.371231,-6.773528,0.999997,0.000215,-0.003484,0.007850,0.000833,0.007911,-0.003545,85.819987,0.007926,
1630,1600,-1.060228,-2.864974,0.999998,0.000175,-0.003608,0.007433,-0.000310,0.007442,-0.003617,-88.392072,0.007443,
1270,730,-0.058637,-11.692346,0.999998,0.000169,-0.001732,0.003021,0.001337,0.003371,-0.002082,75.318775,0.003402,
1720,320,-1.097599,-13.061324,0.999997,0.000192,-0.003324,0.007413,-0.000200,0.007416,-0.003327,-88.934692,0.007429,
660,310,1.366932,-12.941890,0.999997,0.000223,-0.003616,0.007530,0.000156,0.007532,-0.003618,89.197696,0.007534,
1420,880,-1.074371,-9.533151,0.999995,0.000242,-0.005265,0.010287,0.001916,0.010520,-0.005498,83.078733,0.010523,
1260,1710,-0.044599,-1.607890,0.999998,0.000178,-0.001558,0.005330,-0.000121,0.005332,-0.001560,-88.995792,0.005483,
1450,280,-0.316648,-13.741207,0.999997,0.000209,-0.001745,0.005894,-0.000126,0.005897,-0.001747,-89.057979,0.006057,
970,1570,0.628889,-2.749445,0.999997,0.000213,-0.003196,0.006804,0.000739,0.006859,-0.003251,85.799218,0.006862,
760,1800,0.873262,-1.549654,0.999997,0.000203,-0.002958,0.007266,-0.000629,0.007304,-0.002997,-86.495171,0.007343,
1210,1970,0.008101,-0.296799,0.999998,0.000162,-0.000342,0.004586,-0.000022,0.004586,-0.000342,-89.744021,0.005110,
880,1840,0.459784,-1.110442,0.999997,0.000211,-0.002170,0.006282,-0.000577,0.006322,-0.002210,-86.110075,0.006416,
790,1230,2.106002,-5.962714,0.999997,0.000212,-0.004194,0.008215,-0.000876,0.008277,-0.004256,-85.980691,0.008278,
1360,210,-0.125971,-14.188547,0.999998,0.000154,-0.001039,0.005207,-0.000134,0.005210,-0.001042,-88.768075,0.005514,
1540,1170,-1.731538,-6.276421,0.999997,0.000202,-0.004653,0.009467,0.000950,0.009530,-0.004717,86.169787,0.009530,
1490,710,-0.873849,-10.679867,0.999997,0.000244,-0.005058,0.008543,0.001274,0.008661,-0.005177,84.693741,0.008716,
1840,1040,-3.031520,-7.475553,0.999998,0.000201,-0.003174,0.006774,0.000170,0.006777,-0.003177,89.021380,0.006782,
1180,530,0.097447,-12.527077,0.999998,0.000171,-0.001939,0.005152,-0.000441,0.005179,-0.001966,-86.458035,0.005229,
1010,1940,0.113831,-0.468262,0.999998,0.000154,-0.000598,0.005156,-0.000545,0.005207,-0.000649,-84.639255,0.005675,
1870,1210,-2.897849,-6.357264,0.999997,0.000198,-0.003387,0.007000,0.000300,0.007009,-0.003395,88.349035,0.007010,
720,1810,0.960484,-1.542526,0.999997,0.000231,-0.003308,0.007508,-0.000546,0.007535,-0.003336,-87.118584,0.007552,
1120,90,0.036883,-14.794050,0.999998,0.000162,-0.000372,0.004704,0.000200,0.004712,-0.000380,87.750331,0.005235,
680,1390,2.112342,-4.859794,0.999996,0.000233,-0.003968,0.007771,-0.000248,0.007776,-0.003973,-88.790471,0.007776,
1890,1910,-1.063475,-1.197765,0.999997,0.000216,-0.003684,0.007831,0.000802,0.007887,-0.003740,86.036956,0.007890,
680,520,1.770907,-11.388032,0.999998,0.000201,-0.003874,0.007714,-0.000103,0.007715,-0.003875,-89.489334,0.007715,
1060,780,0.552264,-10.595123,0.999995,0.000254,-0.005269,0.008056,-0.002675,0.008573,-0.005786,-79.060637,0.008746,
650,720,2.372980,-9.777151,0.999996,0.000209,-0.003809,0.007611,0.000384,0.007623,-0.003822,88.075014,0.007623,
1810,320,-1.418268,-12.849100,0.999997,0.000198,-0.003660,0.007492,-0.000060,0.007492,-0.003660,-89.690314,0.007493,
600,140,0.939685,-14.062278,0.999996,0.000228,-0.003649,0.007824,0.000872,0.007890,-0.003715,85.678030,0.007895,
1460,170,-0.194241,-14.357368,0.999998,0.000163,-0.000979,0.005417,-0.000470,0.005452,-0.001013,-85.817604,0.005799,
1800,900,-2.773234,-8.456988,0.999997,0.000179,-0.003439,0.007118,-0.000506,0.007142,-0.003464,-87.264357,0.007143,
1380,410,-0.275958,-13.063472,0.999997,0.000189,-0.002094,0.005762,0.000419,0.005784,-0.002116,86.955836,0.005853,
800,1410,1.559600,-4.437227,0.999995,0.000232,-0.004391,0.008183,0.000012,0.008183,-0.004391,89.946035,0.008191,
820,1950,0.258409,-0.472618,0.999998,0.000190,-0.001044,0.005914,-0.001353,0.006168,-0.001298,-79.370469,0.006503,
1110,1590,0.238882,-2.335160,0.999998,0.000165,-0.002131,0.005685,0.000558,0.005725,-0.002171,85.935190,0.005780,
1470,30,-0.012216,-15.068491,0.999999,0.000000,-0.000008,0.004746,-0.000643,0.004832,-0.000093,-82.433669,0.005526,
1720,870,-2.417959,-8.747966,0.999996,0.000250,-0.003771,0.007718,-0.000826,0.007777,-0.003830,-85.906257,0.007777,
1130,1260,0.263715,-4.027605,0.999996,0.000264,-0.003701,0.004980,0.003358,0.006127,-0.004848,71.133946,0.006465,
1550,130,-0.221897,-14.538861,0.999997,0.000184,-0.000940,0.005621,-0.000858,0.005731,-0.001050,-82.672640,0.006103,
1890,600,-2.361468,-10.522324,0.999996,0.000237,-0.003775,0.007671,-0.000018,0.007671,-0.003775,-89.908009,0.007672,
1020,440,0.446575,-12.777261,0.999998,0.000202,-0.002609,0.006275,-0.000585,0.006314,-0.002647,-86.246843,0.006341,
1580,480,-0.918460,-12.191084,0.999997,0.000211,-0.003617,0.007360,0.000519,0.007384,-0.003641,87.300855,0.007384,
1670,1110,-2.406417,-6.927749,0.999997,0.000215,-0.003339,0.007708,0.000723,0.007755,-0.003386,86.273397,0.007776,
940,1510,0.794189,-3.256227,0.999997,0.000184,-0.003732,0.007379,0.000851,0.007444,-0.003797,85.646627,0.007445,
560,1080,3.195644,-7.244777,0.999975,0.000000,-0.002798,0.006025,0.000132,0.006027,-0.002800,89.145848,0.006032,
720,1080,2.694164,-7.176670,0.999997,0.000199,-0.003313,0.007248,-0.000291,0.007256,-0.003321,-88.420213,0.007265,
1080,210,0.149230,-14.180770,0.999999,0.000142,-0.001020,0.005309,0.000226,0.005317,-0.001028,87.956374,0.005641,
680,1550,1.738236,-3.616228,0.999996,0.000240,-0.003879,0.007681,0.000101,0.007682,-0.003880,89.497371,0.007682,
1210,1950,0.010024,-0.390748,0.999998,0.000167,-0.000451,0.004716,-0.000027,0.004716,-0.000451,-89.695231,0.005205,
1140,1700,0.145445,-1.688287,0.999998,0.000161,-0.001772,0.005466,0.000239,0.005474,-0.001780,88.114386,0.005585,
880,1820,0.504895,-1.238860,0.999997,0.000193,-0.002331,0.006449,-0.000493,0.006476,-0.002359,-86.797758,0.006555,
1430,820,-0.833292,-10.037412,0.999995,0.000272,-0.005898,0.009258,0.001807,0.009471,-0.006111,83.292971,0.009603,
640,310,1.439871,-12.893569,0.999997,0.000206,-0.003637,0.007532,0.000087,0.007533,-0.003638,89.554104,0.007535,
790,1210,2.165017,-6.126791,0.999997,0.000214,-0.004081,0.008231,-0.000961,0.008306,-0.004155,-85.562510,0.008306,
970,1550,0.644462,-2.887865,0.999997,0.000207,-0.003386,0.006937,0.000840,0.007005,-0.003454,85.376456,0.007005,
1100,1710,0.214278,-1.669488,0.999998,0.000183,-0.001738,0.005596,0.000189,0.005601,-0.001743,88.524188,0.005732,
1270,710,-0.058704,-11.759066,0.999998,0.000172,-0.001735,0.003362,0.001192,0.003627,-0.002000,77.460833,0.003633,
640,780,2.572448,-9.308959,0.999997,0.000199,-0.003703,0.007440,0.000505,0.007463,-0.003726,87.410745,0.007463,
1490,690,-0.835985,-10.850602,0.999998,0.000212,-0.004885,0.008284,0.001296,0.008410,-0.005012,84.432158,0.008462,
1770,1780,-1.149441,-1.832935,0.999997,0.000224,-0.003557,0.007546,0.000303,0.007555,-0.003565,88.437286,0.007559,
1090,1940,0.065752,-0.450306,0.999998,0.000150,-0.000446,0.004913,-0.000326,0.004933,-0.000466,-86.528373,0.005447,
1840,1060,-3.020028,-7.340922,0.999998,0.000192,-0.003144,0.006671,0.000191,0.006674,-0.003148,88.882703,0.006678,
1430,280,-0.282533,-13.760121,0.999998,0.000174,-0.001788,0.005778,-0.000019,0.005778,-0.001788,-89.859116,0.005916,
1710,230,-0.816316,-13.745867,0.999997,0.000194,-0.002787,0.007255,-0.000863,0.007328,-0.002861,-85.123031,0.007387,
1750,1360,-2.055975,-5.029820,0.999998,0.000188,-0.004060,0.007885,0.000361,0.007896,-0.004070,88.272098,0.007898,
1120,40,0.012073,-15.025165,0.999998,0.000163,-0.000104,0.004504,0.000191,0.004512,-0.000112,87.630878,0.005146,
1020,90,0.079346,-14.779889,0.999998,0.000158,-0.000437,0.004933,0.000490,0.004977,-0.000481,84.825677,0.005491,
1860,1170,-2.948498,-6.617946,0.999998,0.000162,-0.003276,0.006700,0.000242,0.006706,-0.003282,88.608879,0.006707,
770,310,0.984392,-13.189288,0.999997,0.000211,-0.003239,0.007277,0.000208,0.007282,-0.003244,88.866925,0.007296,
1450,720,-0.687191,-10.791686,0.999994,0.000295,-0.005017,0.008203,0.001804,0.008444,-0.005259,82.368493,0.008529,
600,450,1.922291,-11.731448,0.999997,0.000212,-0.003719,0.007555,-0.000080,0.007556,-0.003719,-89.591468,0.007556,
1250,540,-0.035557,-12.497250,0.999998,0.000187,-0.001892,0.004938,0.000283,0.004950,-0.001903,87.632333,0.004993,
1800,140,-0.727617,-14.252079,0.999998,0.000224,-0.002727,0.007603,-0.001771,0.007898,-0.003023,-80.537068,0.007970,
600,160,1.038530,-13.909714,0.999997,0.000200,-0.003678,0.007687,0.000613,0.007720,-0.003711,86.921928,0.007722,
800,1390,1.607882,-4.601597,0.999996,0.000231,-0.004464,0.008260,-0.000065,0.008260,-0.004464,-89.706786,0.008269,
1660,1210,-2.111128,-6.110494,0.999997,0.000238,-0.004134,0.008295,0.000946,0.008367,-0.004205,85.673287,0.008367,
610,80,0.523974,-14.581956,0.999997,0.000200,-0.003447,0.008502,0.001967,0.008818,-0.003762,80.889065,0.008849,
820,810,1.931429,-9.328309,0.999996,0.000259,-0.004486,0.008610,0.000797,0.008659,-0.004535,86.532370,0.008662,
1760,1950,-0.440895,-0.548513,0.999996,0.000228,-0.002505,0.006884,0.001777,0.007209,-0.002830,79.633058,0.007264,
1540,2000,-0.066279,-0.177725,0.999998,0.000160,-0.000235,0.004997,0.000852,0.005133,-0.000370,80.982145,0.005725,
880,770,1.512885,-9.807424,0.999997,0.000192,-0.005052,0.009007,0.000261,0.009011,-0.005057,88.936125,0.009034,
1550,150,-0.260702,-14.426961,0.999998,0.000171,-0.001087,0.005762,-0.000813,0.005857,-0.001182,-83.320955,0.006194,
1160,750,0.129261,-11.491102,0.999997,0.000182,-0.002448,0.003727,-0.002495,0.004609,-0.003330,-70.529922,0.004759,
1420,860,-0.957446,-9.732687,0.999995,0.000261,-0.005487,0.009848,0.001903,0.010081,-0.005720,83.031183,0.010111,
1460,2020,-0.020571,-0.074507,0.999998,0.000000,0.000083,0.004690,0.000551,0.004755,0.000018,83.271126,0.005501,
850,1320,1.559419,-5.078031,0.999996,0.000237,-0.004865,0.008665,-0.000201,0.008668,-0.004868,-89.147601,0.008690,
1550,1600,-0.784120,-2.679942,0.999998,0.000189,-0.003345,0.007083,-0.000495,0.007107,-0.003368,-87.288606,0.007110,
1670,1090,-2.443441,-7.082102,0.999996,0.000237,-0.003241,0.007708,0.000656,0.007747,-0.003280,86.586155,0.007778,
620,1510,2.056350,-4.066747,0.999997,0.000215,-0.003775,0.007625,0.000042,0.007625,-0.003775,89.789850,0.007625,
1020,420,0.431262,-12.902486,0.999998,0.000209,-0.002438,0.006198,-0.000452,0.006221,-0.002462,-87.009626,0.006266,
970,1530,0.665758,-3.029258,0.999997,0.000204,-0.003542,0.007027,0.000928,0.007108,-0.003623,85.020050,0.007108,
1310,1880,-0.057781,-0.733796,0.999998,0.000187,-0.000728,0.004988,0.000117,0.004990,-0.000731,88.828960,0.005390,
880,1800,0.547540,-1.369087,0.999997,0.000191,-0.002491,0.006509,-0.000392,0.006526,-0.002508,-87.508970,0.006584,
1110,1550,0.245996,-2.559790,0.999998,0.000166,-0.002331,0.005670,0.000785,0.005746,-0.002407,84.447336,0.005771,
1140,1680,0.152599,-1.797300,0.999998,0.000153,-0.001855,0.005507,0.000297,0.005519,-0.001867,87.696419,0.005614,
1460,1700,-0.416279,-1.840150,0.999997,0.000192,-0.002157,0.006093,-0.000179,0.006097,-0.002161,-88.755036,0.006183,
790,1190,2.225970,-6.292033,0.999997,0.000223,-0.003931,0.008142,-0.000939,0.008215,-0.004003,-85.580928,0.008215,
1220,200,0.012489,-14.268910,0.999998,0.000181,-0.000938,0.004990,-0.000011,0.004990,-0.000938,-89.892335,0.005305,
1850,840,-2.817383,-8.830252,0.999997,0.000189,-0.003481,0.007034,-0.000426,0.007052,-0.003498,-87.681912,0.007052,
1090,860,0.703465,-10.246503,0.999994,0.000302,-0.004494,0.007156,-0.003356,0.008053,-0.005392,-75.025050,0.008206,
850,690,1.438897,-10.430663,0.999996,0.000228,-0.004736,0.008524,-0.000087,0.008524,-0.004736,-89.624946,0.008542,
1270,690,-0.059749,-11.828350,0.999998,0.000170,-0.001786,0.003637,0.001042,0.003830,-0.001979,79.489313,0.003831,
640,760,2.517058,-9.457874,0.999997,0.000199,-0.003732,0.007447,0.000459,0.007466,-0.003751,87.651474,0.007466,
720,1060,2.705706,-7.323462,0.999997,0.000196,-0.003245,0.007251,-0.000233,0.007256,-0.003250,-88.727569,0.007269,
640,290,1.380471,-13.043280,0.999997,0.000215,-0.003608,0.007536,0.000139,0.007538,-0.003610,89.286636,0.007540,
1580,680,-1.255769,-10.609724,0.999997,0.000214,-0.004827,0.008523,0.000376,0.008534,-0.004838,88.386982,0.008559,
1060,760,0.515877,-10.754211,0.999995,0.000244,-0.005022,0.007722,-0.002661,0.008256,-0.005555,-78.666864,0.008419,
1080,1710,0.249771,-1.685650,0.999998,0.000171,-0.001779,0.005685,0.000142,0.005688,-0.001782,88.914211,0.005819,
1100,1390,0.286316,-3.501440,0.999997,0.000222,-0.003194,0.005809,0.002086,0.006269,-0.003654,77.571062,0.006298,
910,520,0.875080,-11.965232,0.999997,0.000218,-0.003737,0.007367,-0.000670,0.007407,-0.003777,-86.558989,0.007408,
770,290,0.937727,-13.333553,0.999998,0.000175,-0.003170,0.007308,0.000353,0.007320,-0.003182,88.072729,0.007341,
990,1760,0.375380,-1.490565,0.999998,0.000181,-0.001920,0.006038,-0.000102,0.006040,-0.001921,-89.268246,0.006172,
590,1200,2.931886,-6.432031,0.999998,0.000167,-0.003302,0.006938,-0.000269,0.006945,-0.003309,-88.496137,0.006948,
1060,210,0.169799,-14.171591,0.999998,0.000167,-0.001232,0.005357,0.000215,0.005364,-0.001239,88.135525,0.005617,
680,500,1.729094,-11.541881,0.999997,0.000206,-0.003861,0.007711,-0.000126,0.007712,-0.003863,-89.376037,0.007712,
940,110,0.158413,-14.658688,0.999998,0.000169,-0.000790,0.005418,0.000773,0.005513,-0.000885,83.008574,0.005921,
1840,1500,-2.067279,-4.136262,0.999997,0.000191,-0.003796,0.007627,-0.000041,0.007627,-0.003796,-89.792506,0.007627,
1490,670,-0.806212,-11.015462,0.999996,0.000223,-0.004683,0.008053,0.001314,0.008187,-0.004817,84.169601,0.008230,
1060,1450,0.406535,-3.294654,0.999996,0.000219,-0.003305,0.006413,0.001643,0.006684,-0.003575,80.657519,0.006689,
1710,270,-0.934643,-13.449478,0.999997,0.000187,-0.003018,0.007332,-0.000528,0.007359,-0.003045,-87.087735,0.007395,
1140,750,0.181206,-11.378757,0.999997,0.000250,-0.002949,0.004569,-0.002834,0.005518,-0.003897,-71.496321,0.005672,
600,180,1.132336,-13.753462,0.999997,0.000214,-0.003657,0.007655,0.000483,0.007676,-0.003678,87.561112,0.007678,
1550,170,-0.306087,-14.307541,0.999998,0.000179,-0.001284,0.005849,-0.000767,0.005931,-0.001366,-83.931243,0.006212,
560,1070,3.200025,-7.309416,0.999972,0.000000,-0.002759,0.005922,-0.000008,0.005922,-0.002759,-89.946738,0.005926,
1070,1940,0.075195,-0.453634,0.999998,0.000159,-0.000526,0.004952,-0.000353,0.004975,-0.000548,-86.326872,0.005455,
1460,30,-0.013027,-15.068246,0.999999,0.000000,0.000049,0.004722,-0.000603,0.004798,-0.000028,-82.763236,0.005525,
1250,620,-0.032353,-12.124005,0.999998,0.000151,-0.001748,0.004329,0.000391,0.004354,-0.001774,86.330159,0.004379,
1890,1920,-1.009389,-1.117540,0.999997,0.000231,-0.003646,0.007995,0.000991,0.008079,-0.003730,85.166824,0.008087,
1800,880,-2.734805,-8.603117,0.999997,0.000204,-0.003508,0.007270,-0.000633,0.007307,-0.003545,-86.652464,0.007308,
720,850,2.454603,-8.881878,0.999996,0.000232,-0.003785,0.007629,0.000786,0.007683,-0.003839,86.079083,0.007683,
970,1510,0.684080,-3.173523,0.999997,0.000194,-0.003660,0.007114,0.001004,0.007206,-0.003753,84.721549,0.007208,
1600,1210,-1.852473,-6.027497,0.999996,0.000235,-0.004567,0.008848,0.000930,0.008912,-0.004631,86.054348,0.008914,
840,1490,1.222221,-3.690224,0.999997,0.000180,-0.004101,0.007869,0.000386,0.007881,-0.004113,88.157069,0.007883,
1530,540,-0.814343,-11.879947,0.999996,0.000215,-0.003756,0.007359,0.000811,0.007418,-0.003815,85.850733,0.007419,
1420,100,-0.075185,-14.736959,0.999998,0.000157,-0.000586,0.004941,-0.000392,0.004969,-0.000614,-85.965960,0.005418,
1670,1070,-2.469435,-7.237844,0.999996,0.000234,-0.003146,0.007608,0.000349,0.007620,-0.003157,88.141161,0.007657,
1830,980,-2.978440,-7.884366,0.999998,0.000205,-0.003219,0.006704,-0.000141,0.006706,-0.003221,-89.188142,0.006708,
1110,1530,0.250290,-2.670417,0.999997,0.000200,-0.002423,0.005670,0.000922,0.005774,-0.002527,83.580301,0.005789,
880,1780,0.589407,-1.500514,0.999997,0.000196,-0.002636,0.006639,-0.000284,0.006648,-0.002644,-88.250231,0.006694,
1760,570,-1.791620,-11.053641,0.999996,0.000216,-0.003968,0.007727,0.000007,0.007727,-0.003968,89.963813,0.007728,
820,1710,0.896727,-2.083642,0.999998,0.000171,-0.003172,0.007147,-0.000085,0.007147,-0.003173,-89.529038,0.007162,
790,1170,2.279078,-6.453203,0.999997,0.000233,-0.003786,0.008014,-0.000929,0.008086,-0.003859,-85.524440,0.008089,
1200,1940,0.016968,-0.438116,0.999998,0.000176,-0.000449,0.004761,-0.000054,0.004762,-0.000450,-89.404743,0.005258,
1580,920,-2.030777,-8.458825,0.999998,0.000189,-0.003734,0.008661,-0.001067,0.008752,-0.003825,-85.117132,0.008775,
720,1040,2.718335,-7.468489,0.999997,0.000207,-0.003239,0.007297,-0.000178,0.007300,-0.003242,-89.034248,0.007315,
1020,400,0.417239,-13.022171,0.999998,0.000195,-0.002321,0.006115,-0.000357,0.006130,-0.002336,-87.582103,0.006188,
1060,740,0.484402,-10.909880,0.999995,0.000241,-0.004728,0.007425,-0.002580,0.007950,-0.005253,-78.496645,0.008086,
770,270,0.882362,-13.480991,0.999998,0.000158,-0.003080,0.007230,0.000478,0.007252,-0.003102,87.349097,0.007277,
1080,1390,0.357538,-3.593240,0.999997,0.000189,-0.003507,0.006298,0.002105,0.006730,-0.003939,78.379260,0.006763,
1220,1630,0.020323,-2.025720,0.999998,0.000164,-0.001785,0.005275,0.000143,0.005278,-0.001788,88.840548,0.005368,
640,740,2.464864,-9.604775,0.999997,0.000204,-0.003772,0.007497,0.000417,0.007512,-0.003788,87.884002,0.007513,
1140,1660,0.160320,-1.907342,0.999998,0.000165,-0.001947,0.005473,0.000374,0.005492,-0.001965,87.124093,0.005565,
760,1890,0.576892,-0.907460,0.999996,0.000220,-0.002179,0.006893,-0.001400,0.007104,-0.002390,-81.423386,0.007230,
1490,650,-0.781171,-11.172870,0.999996,0.000230,-0.004510,0.007820,0.001310,0.007957,-0.004648,84.001548,0.007995,
680,920,2.748279,-8.327537,0.999998,0.000211,-0.003427,0.007178,0.000512,0.007203,-0.003451,87.243544,0.007205,
1840,1480,-2.111702,-4.288631,0.999998,0.000183,-0.003818,0.007668,0.000027,0.007668,-0.003818,89.867464,0.007668,
1670,1780,-0.824309,-1.634638,0.999998,0.000180,-0.003118,0.007164,0.000370,0.007177,-0.003131,87.942986,0.007197,
940,210,0.346079,-14.088226,0.999997,0.000197,-0.001655,0.005915,0.000486,0.005946,-0.001686,86.339746,0.006129,
1070,280,0.217106,-13.795608,0.999998,0.000190,-0.001512,0.005584,0.000043,0.005584,-0.001512,89.656761,0.005777,
1620,910,-2.147658,-8.505935,0.999997,0.000205,-0.003743,0.008361,-0.001016,0.008445,-0.003827,-85.236375,0.008458,
1260,1860,-0.025397,-0.829385,0.999998,0.000170,-0.000871,0.004989,0.000021,0.004989,-0.000871,89.796268,0.005330,
1690,480,-1.328374,-11.921902,0.999998,0.000163,-0.003778,0.007622,0.000227,0.007626,-0.003782,88.858547,0.007626,
940,90,0.123621,-14.764211,0.999998,0.000170,-0.000599,0.005185,0.000784,0.005289,-0.000703,82.418376,0.005745,
560,1060,3.210404,-7.359936,0.999972,0.000000,-0.002741,0.005848,-0.000034,0.005848,-0.002742,-89.772921,0.005852,
1710,1710,-1.119768,-2.223686,0.999998,0.000166,-0.003365,0.007461,0.000137,0.007463,-0.003367,89.274117,0.007474,
1450,2020,-0.022626,-0.076503,0.999999,0.000000,0.000031,0.004630,0.000458,0.004675,-0.000014,84.370279,0.005391,
600,620,2.308884,-10.431229,0.999996,0.000245,-0.003761,0.007656,0.000040,0.007657,-0.003761,89.799504,0.007657,
1380,670,-0.346284,-11.509777,0.999997,0.000190,-0.003490,0.006231,0.002174,0.006695,-0.003954,77.949634,0.006731,
1040,1450,0.474180,-3.362850,0.999996,0.000242,-0.003477,0.006661,0.001522,0.006884,-0.003700,81.645234,0.006890,
970,1490,0.702579,-3.315684,0.999997,0.000200,-0.003747,0.007254,0.001067,0.007356,-0.003850,84.512456,0.007359,
1800,840,-2.639840,-8.895880,0.999996,0.000222,-0.003617,0.007278,-0.000620,0.007313,-0.003652,-86.753885,0.007313,
630,1240,2.697857,-6.086062,0.999997,0.000189,-0.003565,0.007134,-0.000467,0.007154,-0.003585,-87.507543,0.007154,
840,1470,1.258973,-3.849029,0.999997,0.000194,-0.004219,0.007924,0.000382,0.007936,-0.004231,88.200061,0.007942,
1330,1940,-0.044884,-0.443973,0.999998,0.000171,-0.000523,0.004806,0.000171,0.004811,-0.000528,88.168600,0.005277,
1550,610,-0.986901,-11.281772,0.999997,0.000213,-0.004345,0.007893,0.000797,0.007944,-0.004396,86.288612,0.007959,
1420,840,-0.853839,-9.926536,0.999995,0.000278,-0.005773,0.009372,0.001928,0.009613,-0.006014,82.857738,0.009714,
1370,1350,-0.320873,-3.776265,0.999996,0.000231,-0.003648,0.006168,-0.002490,0.006763,-0.004244,-76.547141,0.006836,
660,810,2.577473,-9.112855,0.999996,0.000213,-0.003699,0.007453,0.000624,0.007488,-0.003734,86.807554,0.007488,
1110,1510,0.252017,-2.785418,0.999998,0.000171,-0.002529,0.005633,0.001074,0.005772,-0.002668,82.626028,0.005778,
880,1760,0.628111,-1.634963,0.999997,0.000204,-0.002740,0.006674,-0.000174,0.006678,-0.002743,-88.943124,0.006713,
580,1200,2.964648,-6.450691,0.999997,0.000176,-0.003229,0.006844,-0.000180,0.006847,-0.003232,-88.975480,0.006851,
1830,960,-2.965588,-8.017651,0.999999,0.000149,-0.003222,0.006720,-0.000201,0.006724,-0.003226,-88.844649,0.006726,
1210,1410,0.036736,-3.103151,0.999998,0.000144,-0.001723,0.004068,0.000482,0.004107,-0.001763,85.276213,0.004121,
800,1710,0.965635,-2.126477,0.999997,0.000172,-0.003380,0.007228,-0.000017,0.007228,-0.003380,-89.908835,0.007233,
770,250,0.829065,-13.623766,0.999998,0.000165,-0.002967,0.007221,0.000630,0.007260,-0.003006,86.473727,0.007296,
790,1150,2.332096,-6.614366,0.999996,0.000255,-0.003657,0.008018,-0.000934,0.008092,-0.003731,-85.453628,0.008100,
1170,580,0.116695,-12.262388,0.999998,0.000144,-0.002101,0.004939,-0.000840,0.005038,-0.002200,-83.289318,0.005051,
1670,1050,-2.482445,-7.388166,0.999997,0.000192,-0.003052,0.007580,0.000262,0.007586,-0.003059,88.591720,0.007634,
1740,570,-1.712485,-11.100296,0.999997,0.000203,-0.004029,0.007770,0.000061,0.007770,-0.004029,89.703454,0.007772,
770,1920,0.444038,-0.694838,0.999997,0.000209,-0.001822,0.006513,-0.001480,0.006768,-0.002077,-80.224729,0.006934,
720,1020,2.722317,-7.615381,0.999998,0.000187,-0.003239,0.007349,0.000120,0.007350,-0.003241,89.348477,0.007367,
1020,380,0.400910,-13.146240,0.999998,0.000195,-0.002254,0.006161,-0.000279,0.006170,-0.002263,-88.100854,0.006243,
570,120,0.931156,-14.113222,0.999994,0.000316,-0.003773,0.008107,0.001080,0.008205,-0.003870,84.846986,0.008209,
1570,1890,-0.319370,-0.792184,0.999998,0.000197,-0.001483,0.005920,0.000820,0.006009,-0.001572,83.751608,0.006233,
740,1390,1.866803,-4.735657,0.999997,0.000211,-0.004202,0.008005,-0.000226,0.008009,-0.004206,-88.940835,0.008013,
1840,1460,-2.159346,-4.443233,0.999997,0.000195,-0.003823,0.007686,0.000061,0.007686,-0.003823,89.694981,0.007686,
1140,1860,0.077945,-0.838142,0.999998,0.000164,-0.000953,0.005082,-0.000090,0.005083,-0.000954,-89.141900,0.005404,
910,500,0.849335,-12.111264,0.999998,0.000175,-0.003556,0.007264,-0.000603,0.007297,-0.003590,-86.818358,0.007298,
1450,30,-0.014665,-15.067373,0.999999,0.000000,0.000032,0.004707,-0.000535,0.004767,-0.000028,-83.551764,0.005488,
1040,1430,0.482268,-3.495397,0.999996,0.000255,-0.003664,0.006722,0.001651,0.006978,-0.003920,81.182614,0.006996,
1250,50,-0.003507,-14.983022,0.999999,0.000141,-0.000185,0.004486,-0.000015,0.004486,-0.000185,-89.815731,0.005076,
1380,650,-0.342429,-11.634791,0.999998,0.000176,-0.003335,0.006119,0.002007,0.006528,-0.003743,78.497013,0.006551,
920,90,0.134915,-14.760666,0.999999,0.000136,-0.000521,0.005267,0.000896,0.005402,-0.000657,81.395949,0.005895,
620,610,2.209297,-10.554683,0.999997,0.000198,-0.003835,0.007671,0.000079,0.007672,-0.003835,89.606615,0.007672,
1690,640,-1.664408,-10.658866,0.999997,0.000203,-0.004332,0.008097,-0.000062,0.008097,-0.004332,-89.716327,0.008104,
1250,1880,-0.015171,-0.728764,0.999999,0.000135,-0.000785,0.004940,-0.000015,0.004940,-0.000785,-89.847637,0.005309,
1270,670,-0.062135,-11.903051,0.999998,0.000183,-0.001824,0.003904,0.000916,0.004047,-0.001967,81.132653,0.004047,
640,720,2.411408,-9.759137,0.999996,0.000227,-0.003794,0.007577,0.000349,0.007587,-0.003805,88.241933,0.007587,
1710,1690,-1.165966,-2.373989,0.999998,0.000182,-0.003454,0.007442,0.000050,0.007442,-0.003455,89.736592,0.007449,
950,1740,0.491370,-1.665710,0.999998,0.000183,-0.002403,0.006415,0.000015,0.006415,-0.002403,89.902320,0.006482,
1040,1510,0.446733,-2.970297,0.999996,0.000219,-0.003179,0.006419,0.001202,0.006567,-0.003327,82.967380,0.006567,
600,600,2.259496,-10.585949,0.999997,0.000222,-0.003793,0.007659,0.000038,0.007659,-0.003793,89.811450,0.007659,
1800,820,-2.591889,-9.042223,0.999996,0.000225,-0.003680,0.007399,-0.000607,0.007432,-0.003713,-86.874142,0.007432,
920,210,0.377535,-14.073569,0.999998,0.000195,-0.001608,0.006043,0.000599,0.006089,-0.001655,85.547110,0.006297,
670,1000,2.870030,-7.755603,0.999997,0.000200,-0.003256,0.007009,0.000235,0.007014,-0.003261,88.690643,0.007020,
850,890,2.062311,-8.678993,0.999997,0.000203,-0.003946,0.008524,0.001057,0.008613,-0.004035,85.189766,0.008619,
1200,1630,0.054813,-2.035589,0.999998,0.000183,-0.001796,0.005271,0.000200,0.005277,-0.001802,88.380078,0.005365,
950,1660,0.597345,-2.189367,0.999996,0.000228,-0.002777,0.006595,0.000330,0.006606,-0.002789,87.985202,0.006633,
660,790,2.524058,-9.264850,0.999997,0.000206,-0.003777,0.007552,0.000601,0.007584,-0.003809,86.972854,0.007584,
1460,1680,-0.434465,-1.964810,0.999997,0.000206,-0.002298,0.006249,-0.000241,0.006256,-0.002304,-88.385802,0.006328,
880,1740,0.666226,-1.767924,0.999997,0.000223,-0.002854,0.006809,-0.000070,0.006809,-0.002855,-89.587912,0.006839,
970,1470,0.721975,-3.461145,0.999997,0.000213,-0.003910,0.007393,0.001116,0.007502,-0.004019,84.416160,0.007509,
1420,800,-0.699142,-10.295626,0.999995,0.000288,-0.005739,0.008847,0.002196,0.009170,-0.006063,81.620767,0.009328,
560,1050,3.214982,-7.419868,0.999970,0.000000,-0.002738,0.005823,-0.000160,0.005826,-0.002741,-88.932782,0.005829,
770,230,0.766414,-13.770675,0.999997,0.000184,-0.002860,0.007107,0.000780,0.007168,-0.002921,85.550198,0.007208,
790,1130,2.382243,-6.774941,0.999996,0.000259,-0.003511,0.007826,-0.000804,0.007882,-0.003568,-85.963686,0.007894,
1060,720,0.465372,-11.055497,0.999997,0.000208,-0.004462,0.007234,-0.002423,0.007716,-0.004944,-78.747103,0.007817,
1670,1030,-2.493543,-7.541284,0.999997,0.000208,-0.003050,0.007628,0.000034,0.007628,-0.003050,89.819555,0.007679,
950,920,1.764388,-8.574933,0.999997,0.000224,-0.004253,0.009776,0.000948,0.009840,-0.004317,86.149848,0.009864,
610,1240,2.767955,-6.118656,0.999997,0.000206,-0.003506,0.007009,-0.000357,0.007021,-0.003518,-88.055225,0.007021,
720,1000,2.709077,-7.763792,0.999997,0.000174,-0.003234,0.007257,0.000253,0.007263,-0.003240,88.622024,0.007277,
720,1390,1.949599,-4.777064,0.999997,0.000201,-0.004126,0.007906,-0.000264,0.007911,-0.004132,-88.743508,0.007914,
1210,1370,0.033944,-3.255150,0.999998,0.000144,-0.001627,0.003532,0.000601,0.003601,-0.001696,83.437900,0.003603,
1760,710,-2.137108,-9.953315,0.999997,0.000221,-0.004055,0.007799,-0.000436,0.007815,-0.004071,-87.894574,0.007817,
910,480,0.825333,-12.255519,0.999997,0.000207,-0.003426,0.007198,-0.000534,0.007224,-0.003453,-87.128982,0.007227,
1320,1710,-0.136848,-1.629832,0.999997,0.000206,-0.001674,0.005454,-0.000202,0.005460,-0.001680,-88.381754,0.005592,
890,1900,0.301736,-0.734601,0.999998,0.000174,-0.001498,0.005938,-0.000857,0.006035,-0.001595,-83.508433,0.006255,
1000,530,0.568190,-12.137787,0.999997,0.000232,-0.003276,0.006745,-0.000972,0.006839,-0.003370,-84.511597,0.006839,
1110,1490,0.255047,-2.899171,0.999997,0.000197,-0.002604,0.005567,0.001221,0.005746,-0.002782,81.682907,0.005747,
1840,1440,-2.209015,-4.597600,0.999997,0.000197,-0.003803,0.007653,0.000082,0.007654,-0.003803,89.587909,0.007654,
1670,480,-1.253376,-11.970942,0.999996,0.000229,-0.003789,0.007600,0.000287,0.007607,-0.003796,88.556096,0.007607,
1370,1330,-0.329472,-3.897211,0.999996,0.000236,-0.003889,0.006257,-0.002725,0.006943,-0.004575,-75.878803,0.007059,
660,1950,0.543774,-0.599399,0.999997,0.000242,-0.002173,0.007514,-0.002293,0.008029,-0.002689,-77.332042,0.008174,
1320,800,-0.222445,-11.178927,0.999995,0.000255,-0.003358,0.004255,0.003115,0.005368,-0.004470,70.352273,0.005750,
1360,90,-0.043296,-14.793057,0.999998,0.000182,-0.000340,0.004761,-0.000262,0.004775,-0.000354,-87.072300,0.005321,
1380,530,-0.321425,-12.353901,0.999998,0.000175,-0.002694,0.005958,0.001085,0.006092,-0.002828,82.961967,0.006097,
570,1620,2.000754,-3.345445,0.999997,0.000198,-0.003671,0.007444,0.000070,0.007445,-0.003672,89.638119,0.007445,
640,700,2.357918,-9.910482,0.999997,0.000217,-0.003803,0.007582,0.000302,0.007590,-0.003811,88.482784,0.007590,
1430,1420,-0.515450,-3.591786,0.999995,0.000253,-0.003865,0.006919,-0.001716,0.007185,-0.004132,-81.171655,0.007212,
1880,1390,-2.483382,-5.069068,0.999996,0.000244,-0.003736,0.007560,0.000074,0.007560,-0.003737,89.624200,0.007560,
1270,630,-0.066711,-12.064223,0.999998,0.000168,-0.001888,0.004341,0.000661,0.004411,-0.001957,84.006766,0.004420,
570,110,0.872819,-14.192876,0.999989,0.000430,-0.003835,0.008345,0.001316,0.008486,-0.003975,83.903579,0.008491,
570,1500,2.265545,-4.252482,0.999932,0.000945,-0.003531,0.007759,-0.000167,0.007761,-0.003534,-89.150677,0.007771,
1440,2020,-0.022607,-0.076576,0.999999,0.000000,-0.000071,0.004591,0.000378,0.004622,-0.000101,85.399668,0.005279,
1550,590,-0.958690,-11.441752,0.999997,0.000218,-0.004171,0.007769,0.000771,0.007819,-0.004220,86.321849,0.007827,
1250,40,-0.003891,-15.027816,0.999999,0.000151,-0.000151,0.004449,-0.000008,0.004449,-0.000151,-89.895119,0.005053,
880,1720,0.703896,-1.910196,0.999997,0.000229,-0.002976,0.006899,0.000019,0.006899,-0.002976,89.887446,0.006921,
660,770,2.469931,-9.415744,0.999996,0.000214,-0.003800,0.007522,0.000567,0.007551,-0.003828,87.139709,0.007551,
970,1450,0.740466,-3.610366,0.999997,0.000201,-0.004115,0.007518,0.001186,0.007637,-0.004234,84.238234,0.007652,
1020,360,0.383395,-13.270921,0.999997,0.000199,-0.002192,0.006071,-0.000274,0.006080,-0.002201,-88.105461,0.006156,
1670,1010,-2.485138,-7.695547,0.999997,0.000200,-0.003072,0.007594,-0.000255,0.007600,-0.003078,-88.629719,0.007646,
1800,800,-2.538764,-9.193369,0.999997,0.000220,-0.003755,0.007525,-0.000616,0.007558,-0.003788,-86.885547,0.007558,
600,580,2.213387,-10.737985,0.999997,0.000193,-0.003825,0.007648,0.000026,0.007648,-0.003825,89.870661,0.007648,
1670,640,-1.577620,-10.706772,0.999997,0.000191,-0.004366,0.008143,0.000014,0.008143,-0.004366,89.934130,0.008150,
1580,1170,-1.908956,-6.352074,0.999997,0.000229,-0.004258,0.008960,0.001104,0.009051,-0.004350,85.256528,0.009054,
1190,620,0.074249,-12.104429,0.999998,0.000160,-0.001897,0.004457,-0.000663,0.004525,-0.001966,-84.106060,0.004538,
1420,780,-0.646980,-10.471781,0.999995,0.000265,-0.005508,0.008519,0.002326,0.008895,-0.005883,80.825227,0.009048,
790,1110,2.417620,-6.929452,0.999997,0.000219,-0.003365,0.007701,-0.000728,0.007749,-0.003413,-86.253430,0.007767,
1690,1360,-1.803810,-4.910363,0.999997,0.000228,-0.004383,0.008159,0.000308,0.008166,-0.004391,88.594775,0.008174,
1170,90,0.022121,-14.798107,0.999998,0.000170,-0.000275,0.004661,0.000130,0.004664,-0.000279,88.492302,0.005232,
1570,1850,-0.407777,-1.034866,0.999997,0.000198,-0.001865,0.006169,0.000638,0.006219,-0.001915,85.486352,0.006370,
640,1050,2.971284,-7.404517,0.999997,0.000240,-0.003238,0.006854,-0.000237,0.006860,-0.003243,-88.655317,0.006863,
720,980,2.696539,-7.906844,0.999997,0.000201,-0.003254,0.007223,0.000246,0.007229,-0.003260,88.655027,0.007241,
930,1730,0.553594,-1.759996,0.999998,0.000203,-0.002352,0.006580,-0.000043,0.006580,-0.002353,-89.725470,0.006668,
640,610,2.130785,-10.600880,0.999997,0.000184,-0.003869,0.007675,0.000105,0.007676,-0.003870,89.478935,0.007676,
680,940,2.782075,-8.182443,0.999997,0.000207,-0.003408,0.007212,0.000549,0.007240,-0.003436,87.048918,0.007243,
1460,1660,-0.451977,-2.088763,0.999997,0.000214,-0.002425,0.006280,-0.000358,0.006295,-0.002439,-87.651033,0.006348,
1440,170,-0.172644,-14.365729,0.999998,0.000240,-0.001033,0.005326,-0.000388,0.005349,-0.001056,-86.524055,0.005666,
770,210,0.708025,-13.907400,0.999997,0.000208,-0.002674,0.007036,0.000949,0.007128,-0.002766,84.469686,0.007187,
560,1040,3.217564,-7.481444,0.999964,0.000000,-0.002730,0.006064,-0.000176,0.006067,-0.002734,-88.852764,0.006077,
570,1490,2.287929,-4.332327,0.999932,0.000976,-0.003506,0.007860,-0.000173,0.007862,-0.003508,-89.128139,0.007877,
570,1240,2.906983,-6.193200,0.999995,0.000247,-0.003577,0.006870,-0.000060,0.006870,-0.003578,-89.671859,0.006872,
950,1640,0.619874,-2.322069,0.999998,0.000212,-0.002846,0.006662,0.000404,0.006679,-0.002863,87.570158,0.006702,
1760,600,-1.861872,-10.821406,0.999997,0.000196,-0.003989,0.007821,-0.000031,0.007821,-0.003989,-89.850477,0.007821,
640,680,2.306068,-10.062413,0.999997,0.000212,-0.003827,0.007560,0.000277,0.007567,-0.003833,88.608627,0.007567,
1270,610,-0.069173,-12.150501,0.999998,0.000167,-0.001927,0.004493,0.000569,0.004543,-0.001977,84.976406,0.004555,
990,980,1.857401,-8.078228,0.999996,0.000237,-0.003680,0.010598,0.000225,0.010601,-0.003683,89.096546,0.010765,
1350,2000,-0.018680,-0.162686,0.999998,0.000167,-0.000201,0.004607,0.000233,0.004619,-0.000212,87.236221,0.005215,
1740,710,-2.055513,-9.989530,0.999997,0.000203,-0.004159,0.007903,-0.000413,0.007917,-0.004173,-88.040511,0.007921,
950,900,1.672140,-8.771412,0.999995,0.000254,-0.004652,0.009805,0.000843,0.009854,-0.004701,86.672667,0.009858,
1210,450,0.039058,-12.956618,0.999998,0.000158,-0.001854,0.005261,-0.000201,0.005267,-0.001859,-88.386761,0.005342,
600,1710,1.675541,-2.600257,0.999997,0.000219,-0.003686,0.007454,0.000107,0.007455,-0.003687,89.447838,0.007455,
1550,380,-0.678842,-12.967352,0.999997,0.000212,-0.002837,0.006729,0.000159,0.006731,-0.002840,89.049292,0.006759,
1710,1670,-1.210784,-2.523402,0.999998,0.000201,-0.003552,0.007483,-0.000056,0.007483,-0.003552,-89.711575,0.007487,
1440,30,-0.014209,-15.068224,0.999999,0.000000,-0.000040,0.004681,-0.000482,0.004729,-0.000089,-84.224841,0.005410,
1130,280,0.132279,-13.832677,0.999999,0.000153,-0.001517,0.005365,-0.000069,0.005366,-0.001517,-89.426854,0.005532,
570,100,0.811840,-14.276861,0.999966,0.000740,-0.004067,0.008908,0.001581,0.009098,-0.004257,83.150598,0.009104,
1590,1780,-0.607072,-1.511464,0.999997,0.000200,-0.002684,0.006680,0.000290,0.006689,-0.002693,88.225930,0.006731,
1110,1470,0.257532,-3.016070,0.999997,0.000206,-0.002693,0.005606,0.001363,0.005824,-0.002911,80.909325,0.005824,
720,370,1.295620,-12.633769,0.999996,0.000243,-0.003660,0.007568,-0.000043,0.007568,-0.003660,-89.779954,0.007569,
840,1060,2.333494,-7.304115,0.999996,0.000221,-0.002977,0.007816,-0.000356,0.007828,-0.002989,-88.113146,0.007900,
880,1700,0.738260,-2.045005,0.999996,0.000236,-0.003108,0.006837,0.000119,0.006839,-0.003109,89.313043,0.006848,
1370,1310,-0.342615,-4.025491,0.999996,0.000258,-0.004138,0.006373,-0.002903,0.007121,-0.004887,-75.542994,0.007284,
1510,1520,-0.737642,-3.148878,0.999997,0.000210,-0.003589,0.007160,-0.000861,0.007229,-0.003658,-85.447445,0.007229,
1020,560,0.522597,-11.991042,0.999997,0.000216,-0.003326,0.006678,-0.001183,0.006816,-0.003464,-83.345078,0.006816,
1490,630,-0.756791,-11.327876,0.999996,0.000241,-0.004345,0.007646,0.001308,0.007787,-0.004486,83.846859,0.007817,
1430,1400,-0.528167,-3.734396,0.999997,0.000211,-0.004065,0.007112,-0.001833,0.007405,-0.004358,-80.921768,0.007444,
1420,760,-0.601264,-10.639028,0.999995,0.000262,-0.005267,0.008208,0.002317,0.008595,-0.005654,80.508997,0.008737,
1620,1170,-2.074539,-6.404971,0.999997,0.000212,-0.004002,0.008533,0.001045,0.008619,-0.004089,85.266330,0.008623,
1090,1880,0.113532,-0.753238,0.999998,0.000175,-0.000803,0.005140,-0.000246,0.005151,-0.000813,-87.636714,0.005538,
790,1310,1.868459,-5.291962,0.999997,0.000223,-0.004449,0.008373,-0.000506,0.008393,-0.004469,-87.745425,0.008399,
750,660,1.812674,-10.445717,0.999996,0.000262,-0.004245,0.008056,0.000184,0.008058,-0.004248,89.143262,0.008062,
1000,510,0.554673,-12.271606,0.999996,0.000226,-0.003134,0.006686,-0.000902,0.006768,-0.003216,-84.793631,0.006771,
1530,1600,-0.714775,-2.630789,0.999998,0.000179,-0.003334,0.007004,-0.000576,0.007036,-0.003366,-86.821452,0.007038,
1460,1640,-0.466598,-2.214205,0.999997,0.000208,-0.002602,0.006340,-0.000478,0.006365,-0.002627,-86.946630,0.006397,
970,1430,0.765464,-3.767232,0.999997,0.000202,-0.004316,0.007648,0.001258,0.007779,-0.004447,84.061465,0.007806,
570,1480,2.312010,-4.412593,0.999954,0.000749,-0.003371,0.007881,-0.000077,0.007882,-0.003372,-89.607536,0.007909,
1320,780,-0.194884,-11.268738,0.999996,0.000227,-0.003183,0.004321,0.003085,0.005427,-0.004288,70.284357,0.005724,
1150,1570,0.157888,-2.390468,0.999998,0.000178,-0.002146,0.005398,0.000609,0.005447,-0.002195,85.417767,0.005481,
890,1880,0.348585,-0.854783,0.999998,0.000180,-0.001693,0.005968,-0.000760,0.006043,-0.001768,-84.390144,0.006214,
1540,670,-1.044598,-10.826370,0.999996,0.000239,-0.004775,0.008393,0.000768,0.008438,-0.004820,86.672473,0.008466,
720,960,2.678526,-8.053158,0.999996,0.000227,-0.003313,0.007338,0.000480,0.007360,-0.003335,87.422614,0.007371,
930,1690,0.614208,-2.026712,0.999997,0.000214,-0.002518,0.006562,0.000084,0.006563,-0.002519,89.467526,0.006622,
1870,1390,-2.447583,-5.045428,0.999996,0.000225,-0.003741,0.007531,0.000122,0.007532,-0.003743,89.380856,0.007532,
1570,1310,-1.371911,-5.050771,0.999995,0.000263,-0.005138,0.008938,-0.000040,0.008938,-0.005138,-89.836442,0.008972,
620,1050,3.035790,-7.407658,0.999998,0.000194,-0.003197,0.006703,-0.000211,0.006707,-0.003201,-88.776721,0.006709,
1480,1210,-1.232058,-5.656144,0.999996,0.000247,-0.005767,0.010092,-0.000279,0.010097,-0.005772,-88.992312,0.010131,
640,660,2.255075,-10.211687,0.999997,0.000214,-0.003832,0.007643,0.000224,0.007647,-0.003837,88.884155,0.007647,
990,960,1.782971,-8.285133,0.999996,0.000225,-0.003945,0.010726,0.000361,0.010735,-0.003954,88.591376,0.010858,
560,1030,3.225269,-7.538592,0.999971,0.000000,-0.002542,0.006118,0.000018,0.006118,-0.002542,89.882379,0.006147,
590,1710,1.711149,-2.627734,0.999998,0.000194,-0.003845,0.007400,0.000135,0.007402,-0.003847,89.312240,0.007404,
1890,760,-2.763488,-9.320052,0.999998,0.000212,-0.003604,0.007310,-0.000164,0.007313,-0.003607,-89.137946,0.007313,
1270,590,-0.072472,-12.241730,0.999998,0.000183,-0.001917,0.004693,0.000473,0.004727,-0.001951,85.927792,0.004751,
1580,2010,-0.057219,-0.131301,0.999998,0.000151,-0.000414,0.005112,0.000980,0.005280,-0.000582,80.234578,0.005791,
640,1770,1.367826,-2.037211,0.999997,0.000218,-0.003622,0.007532,-0.000157,0.007534,-0.003624,-89.195805,0.007536,
1670,1360,-1.714733,-4.867592,0.999997,0.000244,-0.004495,0.008275,0.000230,0.008279,-0.004499,88.970485,0.008290,
1010,800,0.893758,-10.063959,0.999996,0.000253,-0.005809,0.009354,-0.001427,0.009487,-0.005942,-84.671558,0.009587,
680,960,2.812957,-8.037492,0.999997,0.000217,-0.003342,0.007104,0.000374,0.007118,-0.003356,87.953059,0.007121,
920,1130,1.908994,-6.656387,0.999997,0.000225,-0.003899,0.009165,-0.001078,0.009253,-0.003987,-85.314201,0.009283,
1760,580,-1.815381,-10.976350,0.999997,0.000211,-0.003986,0.007727,-0.000025,0.007727,-0.003986,-89.878454,0.007729,
770,190,0.636378,-14.053047,0.999997,0.000193,-0.002513,0.006953,0.001086,0.007076,-0.002636,83.539089,0.007153,
1820,290,-1.371727,-13.052663,0.999997,0.000206,-0.003609,0.007587,-0.000178,0.007590,-0.003612,-89.091095,0.007592,
1710,1650,-1.252014,-2.673198,0.999997,0.000199,-0.003620,0.007569,-0.000115,0.007571,-0.003622,-89.412016,0.007573,
1110,220,0.124640,-14.140819,0.999998,0.000165,-0.001120,0.005219,0.000079,0.005220,-0.001121,89.282740,0.005496,
880,1680,0.770946,-2.183891,0.999996,0.000238,-0.003158,0.006961,0.000172,0.006964,-0.003161,89.024622,0.006974,
1060,1380,0.431140,-3.749134,0.999996,0.000233,-0.003930,0.006764,0.002127,0.007171,-0.004338,79.155469,0.007224,
810,750,1.792844,-9.824895,0.999996,0.000228,-0.004597,0.008504,0.000475,0.008522,-0.004614,87.925396,0.008531,
800,1510,1.346016,-3.636385,0.999998,0.000186,-0.004051,0.007854,0.000267,0.007860,-0.004057,88.713466,0.007862,
1430,2020,-0.021224,-0.074481,0.999999,0.000000,-0.000204,0.004581,0.000305,0.004600,-0.000224,86.365959,0.005187,
1490,610,-0.734582,-11.483322,0.999997,0.000206,-0.004164,0.007510,0.001242,0.007640,-0.004295,83.996029,0.007660,
1020,1810,0.266130,-1.170539,0.999998,0.000189,-0.001538,0.005696,-0.000208,0.005702,-0.001544,-88.354163,0.005898,
1370,1290,-0.368483,-4.159199,0.999996,0.000258,-0.004392,0.006634,-0.003079,0.007435,-0.005194,-75.406586,0.007628,
1420,740,-0.567740,-10.798879,0.999995,0.000270,-0.004974,0.007894,0.002323,0.008301,-0.005380,80.073737,0.008421,
1500,170,-0.238319,-14.338597,0.999998,0.000185,-0.001412,0.005593,-0.000505,0.005629,-0.001448,-85.897867,0.005846,
1110,1450,0.257834,-3.126127,0.999998,0.000178,-0.002742,0.005577,0.001507,0.005842,-0.003007,80.044832,0.005843,
730,660,1.895880,-10.403885,0.999996,0.000210,-0.004140,0.007995,0.000240,0.007999,-0.004145,88.866227,0.008001,
1330,280,-0.128501,-13.835025,0.999998,0.000160,-0.001455,0.005368,0.000086,0.005369,-0.001456,89.274187,0.005553,
1010,750,0.757534,-10.518160,0.999996,0.000222,-0.005410,0.008704,-0.001750,0.008918,-0.005624,-83.036118,0.009019,
1840,1420,-2.256534,-4.751340,0.999997,0.000214,-0.003806,0.007640,0.000115,0.007641,-0.003808,89.426325,0.007641,
1670,990,-2.470028,-7.846096,0.999997,0.000210,-0.003139,0.007556,-0.000314,0.007566,-0.003148,-88.317314,0.007601,
1800,780,-2.486090,-9.343924,0.999997,0.000224,-0.003816,0.007531,-0.000558,0.007558,-0.003843,-87.190388,0.007559,
640,1750,1.426148,-2.189833,0.999997,0.000208,-0.003649,0.007548,-0.000091,0.007548,-0.003650,-89.532322,0.007550,
720,940,2.645618,-8.200811,0.999997,0.000209,-0.003405,0.007403,0.000617,0.007439,-0.003440,86.741933,0.007446,
1460,1620,-0.487879,-2.344744,0.999997,0.000215,-0.002776,0.006429,-0.000613,0.006470,-0.002817,-86.207400,0.006488,
1270,570,-0.070819,-12.337765,0.999998,0.000194,-0.001909,0.004842,0.000401,0.004866,-0.001933,86.616441,0.004900,
1000,40,0.025840,-15.021235,0.999999,0.000145,-0.000031,0.004735,0.000551,0.004798,-0.000094,83.484982,0.005486,
740,190,0.713726,-14.018783,0.999998,0.000168,-0.002536,0.007143,0.001198,0.007289,-0.002682,83.047757,0.007373,
1380,510,-0.316102,-12.473518,0.999997,0.000186,-0.002649,0.005914,0.001001,0.006030,-0.002764,83.419240,0.006037,
640,640,2.203625,-10.369970,0.999997,0.000195,-0.003868,0.007718,0.000148,0.007720,-0.003870,89.265862,0.007720,
1150,1610,0.151078,-2.172101,0.999998,0.000165,-0.002054,0.005443,0.000451,0.005470,-0.002081,86.568482,0.005522,
1580,2000,-0.078805,-0.181259,0.999998,0.000159,-0.000522,0.005177,0.001003,0.005349,-0.000693,80.302855,0.005817,
1010,780,0.833564,-10.249597,0.999994,0.000307,-0.005702,0.009098,-0.001576,0.009264,-0.005868,-83.988727,0.009374,
1420,1290,-0.610236,-4.523179,0.999995,0.000276,-0.005298,0.008324,-0.002338,0.008714,-0.005688,-80.527161,0.008849,
640,1630,1.716494,-3.100727,0.999997,0.000231,-0.003768,0.007577,0.000093,0.007577,-0.003768,89.527913,0.007577,
600,560,2.165391,-10.891596,0.999997,0.000207,-0.003814,0.007624,0.000020,0.007624,-0.003814,89.899240,0.007624,
1550,570,-0.932347,-11.594063,0.999997,0.000228,-0.004029,0.007653,0.000764,0.007702,-0.004078,86.273633,0.007707,
1440,1390,-0.576855,-3.850949,0.999995,0.000239,-0.004266,0.007352,-0.001791,0.007622,-0.004536,-81.434775,0.007668,
1340,90,-0.035348,-14.794489,0.999998,0.000188,-0.000397,0.004727,-0.000199,0.004735,-0.000404,-87.778003,0.005250,
1190,540,0.079120,-12.481948,0.999998,0.000161,-0.001898,0.005016,-0.000353,0.005034,-0.001916,-87.084548,0.005082,
580,1710,1.749001,-2.655887,0.999998,0.000184,-0.004196,0.007336,0.000194,0.007339,-0.004199,89.034701,0.007364,
1780,910,-2.722113,-8.400829,0.999997,0.000189,-0.003432,0.007220,-0.000524,0.007246,-0.003458,-87.190960,0.007248,
980,1510,0.647923,-3.142455,0.999997,0.000226,-0.003592,0.007032,0.001052,0.007135,-0.003695,84.400909,0.007136,
1480,1230,-1.143868,-5.453184,0.999994,0.000311,-0.005844,0.009917,-0.000555,0.009936,-0.005863,-87.985265,0.009990,
1600,1170,-1.992087,-6.381137,0.999997,0.000215,-0.004084,0.008747,0.001090,0.008839,-0.004176,85.180661,0.008844,
850,150,0.352858,-14.388156,0.999997,0.000202,-0.001511,0.006158,0.001085,0.006309,-0.001661,82.104089,0.006540,
1060,1400,0.421374,-3.614052,0.999996,0.000232,-0.003679,0.006654,0.001959,0.007013,-0.004038,79.615028,0.007040,
970,1410,0.789426,-3.920674,0.999997,0.000218,-0.004478,0.007763,0.001273,0.007894,-0.004609,84.125054,0.007931,
1530,520,-0.791479,-12.025683,0.999997,0.000201,-0.003600,0.007209,0.000728,0.007258,-0.003649,86.164099,0.007258,
800,570,1.397578,-11.285003,0.999996,0.000229,-0.004129,0.007922,-0.000243,0.007927,-0.004133,-88.845053,0.007929,
1790,1360,-2.217723,-5.106056,0.999996,0.000218,-0.003974,0.007702,0.000373,0.007714,-0.003986,88.172990,0.007715,
680,980,2.826699,-7.897337,0.999997,0.000199,-0.003268,0.006999,0.000190,0.007003,-0.003271,88.937811,0.007008,
770,170,0.573329,-14.188331,0.999997,0.000205,-0.002309,0.006788,0.001263,0.006960,-0.002481,82.240567,0.007055,
1320,1340,-0.165612,-3.571552,0.999997,0.000199,-0.002654,0.004569,-0.002358,0.005270,-0.003356,-73.432225,0.005336,
570,450,2.034079,-11.660115,0.999995,0.000267,-0.003618,0.007509,-0.000030,0.007509,-0.003618,-89.843044,0.007511,
880,1660,0.804063,-2.325221,0.999997,0.000218,-0.003185,0.007060,0.000226,0.007065,-0.003190,88.739040,0.007076,
930,1670,0.639624,-2.158400,0.999996,0.000220,-0.002704,0.006666,0.000195,0.006670,-0.002708,88.806699,0.006709,
800,640,1.548047,-10.723483,0.999996,0.000234,-0.004386,0.008130,-0.000037,0.008130,-0.004386,-89.830905,0.008138,
1340,790,-0.281386,-11.058375,0.999996,0.000246,-0.003885,0.005401,0.003358,0.006488,-0.004972,72.061808,0.006788,
1760,560,-1.768604,-11.130842,0.999997,0.000209,-0.003953,0.007752,0.000042,0.007752,-0.003953,89.795486,0.007752,
650,940,2.883187,-8.164928,0.999996,0.000221,-0.003333,0.007020,0.000457,0.007041,-0.003354,87.477491,0.007043,
620,1770,1.440799,-2.093993,0.999996,0.000256,-0.003645,0.007454,-0.000059,0.007454,-0.003645,-89.694292,0.007455,
1490,590,-0.714930,-11.631913,0.999996,0.000228,-0.003925,0.007362,0.001159,0.007480,-0.004043,84.199201,0.007488,
1000,1810,0.296633,-1.184897,0.999998,0.000168,-0.001510,0.005799,-0.000292,0.005811,-0.001522,-87.719504,0.006027,
1370,1270,-0.395731,-4.292956,0.999996,0.000235,-0.004661,0.006848,-0.003219,0.007687,-0.005501,-75.388720,0.007921,
1360,2010,-0.016281,-0.117004,0.999998,0.000161,-0.000131,0.004575,0.000214,0.004584,-0.000141,87.399513,0.005214,
790,660,1.639123,-10.537138,0.999995,0.000271,-0.004403,0.008218,0.000080,0.008218,-0.004403,89.636804,0.008225,
1710,1630,-1.295057,-2.827311,0.999997,0.000193,-0.003678,0.007581,-0.000151,0.007583,-0.003680,-89.232185,0.007584,
1410,1940,-0.085634,-0.457223,0.999998,0.000171,-0.000679,0.005016,0.000388,0.005042,-0.000705,86.124289,0.005460,
1860,1950,-0.722160,-0.764761,0.999997,0.000202,-0.003533,0.008091,0.001451,0.008269,-0.003711,82.990070,0.008283,
560,1020,3.221321,-7.603803,0.999965,0.000000,-0.002372,0.006125,0.000172,0.006128,-0.002376,88.843923,0.006180,
1270,550,-0.072108,-12.435380,0.999998,0.000186,-0.001894,0.004953,0.000365,0.004972,-0.001913,86.957599,0.005016,
720,920,2.611941,-8.349737,0.999997,0.000218,-0.003463,0.007385,0.000605,0.007419,-0.003496,86.819021,0.007423,
1430,30,-0.013249,-15.069956,0.999998,0.000000,-0.000110,0.004665,-0.000424,0.004703,-0.000147,-84.962820,0.005348,
1420,720,-0.540929,-10.956632,0.999996,0.000240,-0.004678,0.007574,0.002243,0.007971,-0.005075,79.944746,0.008070,
600,1050,3.097944,-7.411443,0.999998,0.000178,-0.003087,0.006531,-0.000196,0.006535,-0.003091,-88.834911,0.006538,
1570,1290,-1.433649,-5.231912,0.999994,0.000258,-0.005175,0.009063,0.000100,0.009064,-0.005176,89.599309,0.009094,
1630,1680,-0.917044,-2.275114,0.999997,0.000251,-0.003152,0.007190,-0.000016,0.007190,-0.003152,-89.911765,0.007209,
640,620,2.155229,-10.524330,0.999998,0.000186,-0.003868,0.007679,0.000105,0.007680,-0.003869,89.476861,0.007680,
820,1250,1.914114,-5.749390,0.999997,0.000218,-0.004487,0.008594,-0.000784,0.008641,-0.004534,-86.581368,0.008645,
1460,1600,-0.504326,-2.475242,0.999997,0.000223,-0.002922,0.006514,-0.000717,0.006568,-0.002976,-85.677162,0.006578,
1190,280,0.053554,-13.853316,0.999998,0.000150,-0.001261,0.005251,0.000007,0.005251,-0.001261,89.939562,0.005482,
1510,840,-1.381300,-9.376111,0.999996,0.000268,-0.005479,0.009861,-0.000200,0.009863,-0.005481,-89.252053,0.009884,
1480,170,-0.210748,-14.350194,0.999998,0.000152,-0.001127,0.005512,-0.000513,0.005552,-0.001166,-85.607078,0.005854,
1160,1460,0.137273,-2.951735,0.999998,0.000171,-0.002157,0.004914,0.001016,0.005057,-0.002300,81.981608,0.005064,
960,1510,0.721121,-3.201935,0.999998,0.000156,-0.003693,0.007190,0.000945,0.007272,-0.003775,85.075976,0.007273,
920,1550,0.820814,-3.019444,0.999997,0.000233,-0.003548,0.007208,0.000650,0.007248,-0.003587,86.554078,0.007248,
1110,1430,0.258851,-3.240229,0.999998,0.000191,-0.002776,0.005575,0.001673,0.005898,-0.003098,79.083240,0.005900,
780,190,0.613706,-14.065155,0.999997,0.000187,-0.002554,0.006896,0.001018,0.007004,-0.002663,83.920340,0.007071,
1660,710,-1.708879,-10.148289,0.999996,0.000255,-0.004526,0.008390,-0.000281,0.008396,-0.004532,-88.755284,0.008405,
970,1830,0.314910,-1.090707,0.999997,0.000201,-0.001770,0.005808,-0.000323,0.005822,-0.001784,-87.560389,0.005966,
1680,1170,-2.305132,-6.459026,0.999996,0.000260,-0.003782,0.007957,0.000905,0.008026,-0.003852,85.619419,0.008029,
1890,100,-0.795038,-14.289963,0.999997,0.000202,-0.003440,0.008700,-0.001755,0.008948,-0.003688,-81.936006,0.008994,
620,1630,1.792550,-3.150005,0.999998,0.000182,-0.003768,0.007542,0.000108,0.007543,-0.003769,89.454237,0.007543,
800,550,1.357957,-11.444465,0.999996,0.000250,-0.004067,0.007861,-0.000281,0.007868,-0.004074,-88.649412,0.007869,
1010,1770,0.327034,-1.412342,0.999997,0.000195,-0.001731,0.005939,-0.000087,0.005940,-0.001732,-89.346535,0.006110,
1320,240,-0.095059,-14.051530,0.999998,0.000170,-0.001183,0.005199,-0.000032,0.005199,-0.001183,-89.712274,0.005450,
770,150,0.495969,-14.327615,0.999997,0.000196,-0.002071,0.006720,0.001380,0.006931,-0.002283,81.282777,0.007065,
1840,1400,-2.307667,-4.904026,0.999997,0.000220,-0.003820,0.007602,0.000182,0.007605,-0.003823,89.087026,0.007605,
880,1640,0.834817,-2.466693,0.999997,0.000201,-0.003199,0.007085,0.000289,0.007093,-0.003207,88.393699,0.007104,
930,1650,0.663301,-2.291453,0.999997,0.000211,-0.002877,0.006754,0.000296,0.006763,-0.002886,88.241040,0.006787,
800,680,1.646525,-10.393625,0.999997,0.000232,-0.004505,0.008312,0.000134,0.008313,-0.004506,89.399977,0.008323,
1570,320,-0.638305,-13.337967,0.999996,0.000233,-0.002745,0.006753,-0.000056,0.006753,-0.002746,-89.659680,0.006793,
1680,910,-2.371813,-8.460783,0.999996,0.000262,-0.003605,0.007930,-0.000911,0.008001,-0.003677,-85.510943,0.008010,
1370,1250,-0.446243,-4.433285,0.999994,0.000294,-0.004917,0.007082,-0.003290,0.007925,-0.005760,-75.629367,0.008192,
1570,1780,-0.554975,-1.481101,0.999997,0.000219,-0.002392,0.006546,0.000307,0.006556,-0.002403,88.035378,0.006634,
1020,1750,0.332187,-1.518258,0.999996,0.000232,-0.001897,0.005893,0.000027,0.005893,-0.001898,89.799778,0.006017,
1710,1610,-1.335967,-2.978888,0.999997,0.000210,-0.003731,0.007585,-0.000181,0.007588,-0.003734,-89.083206,0.007588,
1420,2020,-0.017895,-0.073569,0.999999,0.000000,-0.000259,0.004595,0.000275,0.004611,-0.000275,86.770022,0.005173,
680,1420,2.035494,-4.624748,0.999996,0.000218,-0.003964,0.007790,-0.000179,0.007792,-0.003967,-89.127185,0.007793,
1490,790,-1.074849,-9.954527,0.999996,0.000250,-0.005720,0.009504,0.000747,0.009540,-0.005756,87.199299,0.009608,
1200,1350,0.048277,-3.334127,0.999998,0.000156,-0.001678,0.003341,0.000959,0.003518,-0.001855,79.548588,0.003520,
1360,2000,-0.020231,-0.161862,0.999998,0.000170,-0.000166,0.004617,0.000253,0.004631,-0.000179,86.985381,0.005247,
770,680,1.776530,-10.327111,0.999996,0.000254,-0.004344,0.008189,0.000213,0.008193,-0.004348,89.026715,0.008198,
780,210,0.679758,-13.922918,0.999997,0.000196,-0.002715,0.006945,0.000870,0.007023,-0.002792,84.895002,0.007072,
1160,1440,0.136307,-3.050268,0.999998,0.000148,-0.002166,0.004786,0.001124,0.004963,-0.002343,81.036310,0.004966,
990,340,0.428545,-13.353035,0.999997,0.000184,-0.002168,0.006205,-0.000119,0.006206,-0.002170,-89.185157,0.006299,
1460,1580,-0.519749,-2.608177,0.999996,0.000235,-0.003014,0.006580,-0.000796,0.006645,-0.003079,-85.287073,0.006651,
970,1850,0.283770,-0.974805,0.999997,0.000193,-0.001596,0.005731,-0.000392,0.005752,-0.001617,-86.949969,0.005933,
720,900,2.575633,-8.499225,0.999997,0.000221,-0.003578,0.007537,0.000736,0.007586,-0.003626,86.228966,0.007588,
800,1250,2.001231,-5.780801,0.999997,0.000229,-0.004362,0.008427,-0.000796,0.008476,-0.004411,-86.451780,0.008478,
1800,760,-2.432028,-9.495905,0.999997,0.000217,-0.003843,0.007559,-0.000515,0.007583,-0.003866,-87.420529,0.007583,
1270,530,-0.073093,-12.532953,0.999998,0.000166,-0.001899,0.005018,0.000308,0.005032,-0.001912,87.454796,0.005080,
1610,1680,-0.855873,-2.238031,0.999998,0.000201,-0.003085,0.007047,-0.000074,0.007047,-0.003086,-89.580959,0.007065,
1690,1460,-1.562563,-4.097781,0.999996,0.000235,-0.004200,0.007914,-0.000091,0.007915,-0.004201,-89.567619,0.007920,
1530,840,-1.488059,-9.306288,0.999995,0.000261,-0.005302,0.009678,-0.000472,0.009693,-0.005317,-88.196088,0.009708,
640,600,2.107110,-10.676736,0.999998,0.000185,-0.003852,0.007680,0.000097,0.007681,-0.003853,89.520126,0.007681,
1670,970,-2.452853,-7.998564,0.999996,0.000211,-0.003226,0.007649,-0.000572,0.007679,-0.003256,-86.998739,0.007709,
1850,520,-2.027909,-11.227836,0.999997,0.000186,-0.003773,0.007637,0.000064,0.007637,-0.003774,89.680305,0.007637,
1890,1490,-2.281393,-4.328484,0.999997,0.000220,-0.003817,0.007667,-0.000003,0.007667,-0.003817,-89.986882,0.007667,
1170,560,0.117323,-12.363655,0.999998,0.000144,-0.002082,0.005007,-0.000714,0.005078,-0.002153,-84.308418,0.005098,
1070,920,1.205089,-9.485723,0.999989,0.000384,-0.003562,0.009856,-0.004979,0.011502,-0.005208,-71.710352,0.011519,
600,770,2.691195,-9.308099,0.999996,0.000233,-0.003626,0.007333,0.000281,0.007340,-0.003633,88.530119,0.007340,
840,250,0.635262,-13.729813,0.999996,0.000226,-0.002379,0.006766,0.000616,0.006807,-0.002420,86.166163,0.006901,
880,1620,0.865152,-2.609196,0.999997,0.000219,-0.003275,0.007162,0.000357,0.007175,-0.003288,88.044220,0.007183,
1410,1400,-0.449086,-3.646539,0.999996,0.000237,-0.003785,0.006768,-0.001935,0.007112,-0.004128,-79.931335,0.007143,
810,190,0.535695,-14.102204,0.999997,0.000211,-0.002239,0.006646,0.000957,0.006748,-0.002341,83.922938,0.006852,
1420,700,-0.520418,-11.106392,0.999995,0.000249,-0.004399,0.007357,0.002146,0.007737,-0.004778,79.973220,0.007808,
1320,220,-0.086645,-14.156451,0.999998,0.000181,-0.001080,0.005162,-0.000032,0.005162,-0.001080,-89.706087,0.005445,
1890,90,-0.723091,-14.377564,0.999997,0.000212,-0.003389,0.009153,-0.002028,0.009473,-0.003709,-81.038762,0.009547,
770,130,0.430777,-14.459308,0.999997,0.000189,-0.001724,0.006500,0.001527,0.006774,-0.001998,79.815088,0.006961,
930,1630,0.687489,-2.427619,0.999997,0.000209,-0.003073,0.006886,0.000422,0.006904,-0.003090,87.578641,0.006916,
1020,1730,0.352861,-1.638976,0.999997,0.000209,-0.002044,0.006036,0.000091,0.006037,-0.002045,89.355790,0.006141,
1340,1630,-0.200569,-2.094366,0.999997,0.000208,-0.002015,0.005551,-0.000437,0.005576,-0.002040,-86.704793,0.005643,
1250,2010,-0.002021,-0.115022,0.999999,0.000125,-0.000153,0.004521,0.000000,0.004521,-0.000153,89.997368,0.005135,
1570,300,-0.602463,-13.472858,0.999996,0.000238,-0.002588,0.006670,-0.000166,0.006673,-0.002591,-88.972463,0.006728,
1550,1780,-0.510384,-1.456675,0.999997,0.000222,-0.002079,0.006429,0.000332,0.006442,-0.002092,87.768007,0.006572,
1460,1560,-0.536020,-2.740743,0.999996,0.000240,-0.003090,0.006618,-0.000878,0.006697,-0.003168,-84.870707,0.006700,
1370,1230,-0.511280,-4.574655,0.999994,0.000313,-0.004992,0.007209,-0.003252,0.008022,-0.005804,-75.970333,0.008285,
1500,120,-0.157875,-14.610388,0.999998,0.000164,-0.000930,0.005350,-0.000641,0.005414,-0.000995,-84.233907,0.005764,
680,1400,2.087064,-4.781155,0.999997,0.000214,-0.003964,0.007775,-0.000225,0.007779,-0.003968,-88.901588,0.007780,
1330,1360,-0.193894,-3.520987,0.999997,0.000199,-0.002765,0.004977,-0.002237,0.005577,-0.003365,-74.989551,0.005616,
560,1010,3.202196,-7.664408,0.999975,0.000000,-0.002258,0.006015,0.000212,0.006020,-0.002264,88.535134,0.006081,
1270,510,-0.072886,-12.635186,0.999998,0.000167,-0.001880,0.005106,0.000278,0.005117,-0.001891,87.727154,0.005174,
1110,1410,0.258250,-3.348118,0.999997,0.000204,-0.002847,0.005595,0.001842,0.005980,-0.003232,78.210898,0.005987,
1310,1940,-0.033874,-0.440724,0.999998,0.000168,-0.000411,0.004793,0.000164,0.004798,-0.000417,88.198474,0.005316,
970,1870,0.251505,-0.861010,0.999998,0.000162,-0.001457,0.005634,-0.000458,0.005664,-0.001487,-86.319634,0.005873,
1760,540,-1.726267,-11.287801,0.999997,0.000221,-0.003926,0.007763,0.000088,0.007764,-0.003926,89.567036,0.007764,
770,660,1.727100,-10.491537,0.999997,0.000220,-0.004324,0.008132,0.000130,0.008134,-0.004326,89.401559,0.008139,
720,1320,2.137273,-5.334404,0.999997,0.000227,-0.004128,0.007928,-0.000523,0.007950,-0.004151,-87.520432,0.007953,
1800,740,-2.377476,-9.647115,0.999997,0.000200,-0.003856,0.007642,-0.000469,0.007661,-0.003875,-87.667885,0.007661,
1440,1290,-0.720348,-4.653179,0.999995,0.000225,-0.005520,0.008752,-0.001945,0.009012,-0.005780,-82.377609,0.009132,
1160,1420,0.132947,-3.144863,0.999998,0.000182,-0.002159,0.004692,0.001259,0.004916,-0.002383,79.907917,0.004917,
640,800,2.625358,-9.157860,0.999997,0.000204,-0.003646,0.007395,0.000523,0.007420,-0.003671,87.294648,0.007420,
800,190,0.561873,-14.089766,0.999997,0.000216,-0.002480,0.006732,0.000948,0.006828,-0.002576,84.186575,0.006897,
1570,1270,-1.494893,-5.414614,0.999995,0.000264,-0.005168,0.009152,0.000277,0.009157,-0.005173,88.893510,0.009183,
1770,1020,-2.807710,-7.615260,0.999997,0.000202,-0.003237,0.007176,-0.000112,0.007178,-0.003238,-89.385737,0.007189,
1010,940,1.599957,-8.604699,0.999993,0.000301,-0.004577,0.011225,-0.000338,0.011232,-0.004584,-88.773990,0.011295,
990,820,1.083786,-9.753269,0.999995,0.000278,-0.005858,0.009824,-0.000751,0.009860,-0.005894,-87.264737,0.009923,
1840,1380,-2.358420,-5.056508,0.999997,0.000207,-0.003823,0.007542,0.000246,0.007548,-0.003828,88.761484,0.007548,
1680,1230,-2.133961,-5.970732,0.999997,0.000186,-0.004179,0.008179,0.000876,0.008240,-0.004240,85.966654,0.008242,
1870,1480,-2.227462,-4.359361,0.999997,0.000197,-0.003821,0.007636,0.000014,0.007636,-0.003821,89.929179,0.007636,
600,540,2.119768,-11.044021,0.999997,0.000192,-0.003774,0.007617,-0.000013,0.007617,-0.003774,-89.932539,0.007617,
1730,560,-1.649877,-11.202370,0.999996,0.000245,-0.004035,0.007793,0.000094,0.007794,-0.004036,89.546509,0.007795,
1660,910,-2.297084,-8.474904,0.999996,0.000227,-0.003677,0.008065,-0.000973,0.008145,-0.003757,-85.293015,0.008153,
1420,30,-0.011915,-15.068819,0.999999,0.000000,-0.000133,0.004656,-0.000372,0.004685,-0.000162,-85.585056,0.005319,
1710,180,-0.647016,-14.100846,0.999996,0.000211,-0.002312,0.006995,-0.001287,0.007170,-0.002486,-82.267455,0.007282,
1590,540,-1.046127,-11.713365,0.999998,0.000159,-0.003940,0.007655,0.000553,0.007681,-0.003967,87.273878,0.007683,
1710,1590,-1.375984,-3.131355,0.999997,0.000206,-0.003780,0.007605,-0.000202,0.007608,-0.003783,-88.985701,0.007608,
1890,1500,-2.257860,-4.252037,0.999997,0.000196,-0.003814,0.007671,0.000018,0.007671,-0.003814,89.908721,0.007672,
1010,1730,0.371736,-1.650798,0.999997,0.000205,-0.001995,0.006084,0.000036,0.006084,-0.001995,89.743171,0.006203,
1420,680,-0.505349,-11.252588,0.999995,0.000250,-0.004217,0.007155,0.002043,0.007511,-0.004573,80.118546,0.007570,
1310,280,-0.099823,-13.846233,0.999998,0.000148,-0.001299,0.005289,0.000000,0.005289,-0.001299,-89.999192,0.005512,
790,1680,1.062326,-2.367784,0.999997,0.000202,-0.003450,0.007397,0.000068,0.007397,-0.003451,89.639083,0.007403,
810,170,0.475024,-14.235142,0.999997,0.000191,-0.002020,0.006503,0.001078,0.006637,-0.002154,82.899472,0.006772,
1880,90,-0.689086,-14.407858,0.999996,0.000234,-0.003394,0.008896,-0.001982,0.009208,-0.003706,-81.062171,0.009266,
760,1300,2.026407,-5.427238,0.999998,0.000183,-0.004266,0.008153,-0.000606,0.008183,-0.004296,-87.214582,0.008186,
1410,1380,-0.460151,-3.782234,0.999996,0.000221,-0.004013,0.006870,-0.002089,0.007257,-0.004401,-79.498788,0.007312,
1140,1770,0.119398,-1.306309,0.999998,0.000170,-0.001446,0.005387,0.000057,0.005387,-0.001447,89.523154,0.005576,
570,50,0.402697,-14.762689,0.999836,0.001443,-0.002130,0.010292,0.005957,0.012687,-0.004525,68.098640,0.012860,
1320,200,-0.077955,-14.258108,0.999998,0.000187,-0.000965,0.005092,-0.000088,0.005094,-0.000966,-89.165872,0.005411,
880,1600,0.890934,-2.752057,0.999997,0.000218,-0.003400,0.007262,0.000414,0.007278,-0.003416,87.781210,0.007283,
1670,1600,-1.205767,-2.959045,0.999999,0.000148,-0.003721,0.007553,-0.000229,0.007558,-0.003725,-88.835435,0.007558,
1550,300,-0.556303,-13.498567,0.999997,0.000207,-0.002287,0.006533,-0.000185,0.006537,-0.002291,-88.801255,0.006634,
1500,140,-0.187643,-14.505926,0.999998,0.000170,-0.001154,0.005417,-0.000571,0.005467,-0.001204,-85.073294,0.005745,
1370,1210,-0.610801,-4.720046,0.999995,0.000310,-0.004762,0.007266,-0.003372,0.008146,-0.005642,-75.361315,0.008345,
1290,2010,-0.008243,-0.115384,0.999999,0.000141,-0.000026,0.004527,0.000094,0.004529,-0.000028,88.823383,0.005214,
560,1000,3.195916,-7.724865,0.999983,0.000000,-0.002215,0.005844,-0.000004,0.005844,-0.002215,-89.968237,0.005901,
990,500,0.578100,-12.315061,0.999997,0.000204,-0.003123,0.006721,-0.000820,0.006789,-0.003191,-85.272712,0.006793,
1630,1780,-0.712699,-1.568113,0.999996,0.000231,-0.002560,0.006911,0.000485,0.006936,-0.002585,87.077287,0.007011,
1460,1540,-0.549271,-2.874502,0.999997,0.000215,-0.003181,0.006675,-0.000943,0.006765,-0.003270,-84.580965,0.006766,
1270,490,-0.072692,-12.739247,0.999998,0.000145,-0.001874,0.005174,0.000265,0.005184,-0.001884,87.853289,0.005248,
630,940,2.950412,-8.153245,0.999996,0.000227,-0.003287,0.006888,0.000412,0.006904,-0.003304,87.685241,0.006906,
1310,1360,-0.141170,-3.431865,0.999997,0.000192,-0.002381,0.004428,-0.001939,0.004942,-0.002894,-75.167499,0.004966,
680,1380,2.137966,-4.938080,0.999997,0.000216,-0.003985,0.007764,-0.000284,0.007771,-0.003992,-88.616666,0.007772,
970,1890,0.222164,-0.748848,0.999998,0.000189,-0.001275,0.005555,-0.000532,0.005596,-0.001316,-85.570895,0.005851,
1410,2020,-0.014633,-0.072075,0.999999,0.000000,-0.000225,0.004613,0.000282,0.004630,-0.000241,86.670622,0.005212,
630,990,2.994171,-7.815638,0.999998,0.000180,-0.003204,0.006696,0.000161,0.006699,-0.003207,89.070925,0.006701,
1570,1250,-1.564212,-5.599671,0.999996,0.000254,-0.005112,0.009241,0.000458,0.009256,-0.005127,88.175389,0.009274,
1760,520,-1.682731,-11.442242,0.999996,0.000230,-0.003920,0.007725,0.000103,0.007726,-0.003921,89.491943,0.007726,
1110,1390,0.255362,-3.459476,0.999997,0.000207,-0.002962,0.005585,0.002019,0.006038,-0.003415,77.355528,0.006056,
640,370,1.591132,-12.437428,0.999997,0.000201,-0.003706,0.007565,-0.000042,0.007566,-0.003706,-89.788743,0.007566,
1070,1880,0.128207,-0.757713,0.999998,0.000148,-0.000911,0.005184,-0.000273,0.005196,-0.000924,-87.441769,0.005544,
850,260,0.635823,-13.675810,0.999997,0.000223,-0.002506,0.006701,0.000484,0.006727,-0.002532,87.000309,0.006795,
1140,1710,0.142316,-1.632422,0.999998,0.000177,-0.001731,0.005431,0.000200,0.005437,-0.001737,88.400764,0.005553,
1420,660,-0.491378,-11.392204,0.999996,0.000237,-0.004050,0.007006,0.001934,0.007335,-0.004378,80.360696,0.007381,
1010,960,1.699776,-8.372688,0.999991,0.000342,-0.004362,0.011714,-0.000409,0.011724,-0.004372,-88.542707,0.011850,
750,1260,2.184852,-5.770491,0.999996,0.000227,-0.004136,0.008028,-0.000758,0.008075,-0.004183,-86.445778,0.008077,
600,1330,2.574029,-5.481879,0.999997,0.000212,-0.003689,0.007358,-0.000235,0.007363,-0.003694,-88.779639,0.007363,
1310,1610,-0.143689,-2.166863,0.999998,0.000166,-0.002012,0.005423,-0.000436,0.005448,-0.002038,-86.656870,0.005505,
1190,800,0.093944,-11.504054,0.999997,0.000218,-0.002477,0.002160,-0.001690,0.002711,-0.003028,-71.955740,0.003328,
1710,1570,-1.413777,-3.284080,0.999997,0.000228,-0.003858,0.007661,-0.000221,0.007665,-0.003862,-88.902524,0.007665,
1870,90,-0.656066,-14.441551,0.999995,0.000279,-0.003424,0.008653,-0.001920,0.008951,-0.003722,-81.182278,0.008993,
640,1450,2.119385,-4.481215,0.999997,0.000206,-0.003866,0.007683,-0.000081,0.007683,-0.003867,-89.599959,0.007683,
1010,1190,1.172161,-5.698526,0.999996,0.000250,-0.005821,0.010394,0.000744,0.010428,-0.005856,87.378248,0.010454,
950,840,1.396807,-9.366071,0.999995,0.000277,-0.005491,0.009844,0.000228,0.009848,-0.005494,89.147826,0.009870,
1160,1400,0.132938,-3.237782,0.999998,0.000192,-0.002147,0.004557,0.001405,0.004839,-0.002429,78.631559,0.004839,
1870,1470,-2.250326,-4.434787,0.999996,0.000221,-0.003816,0.007665,0.000025,0.007665,-0.003816,89.875087,0.007665,
1890,1510,-2.234706,-4.174411,0.999997,0.000210,-0.003803,0.007649,0.000022,0.007649,-0.003803,89.889933,0.007649,
1360,850,-0.588587,-10.489074,0.999994,0.000305,-0.004183,0.006392,0.003434,0.007409,-0.005200,73.496888,0.007608,
1000,90,0.088431,-14.777461,0.999998,0.000165,-0.000392,0.005012,0.000578,0.005073,-0.000453,83.962032,0.005614,
560,990,3.190882,-7.779432,0.999983,0.000000,-0.002224,0.005940,-0.000266,0.005948,-0.002233,-88.133180,0.006010,
1800,720,-2.322688,-9.801279,0.999997,0.000205,-0.003886,0.007681,-0.000406,0.007695,-0.003900,-87.991684,0.007696,
810,1460,1.406085,-4.007756,0.999996,0.000242,-0.004260,0.007945,0.000206,0.007949,-0.004263,89.033521,0.007956,
1170,540,0.116989,-12.464927,0.999998,0.000166,-0.002050,0.005144,-0.000627,0.005198,-0.002104,-85.053823,0.005229,
1460,780,-0.874112,-10.206791,0.999996,0.000244,-0.005678,0.009199,0.001396,0.009329,-0.005808,84.686419,0.009422,
890,220,0.448374,-13.988029,0.999997,0.000206,-0.002067,0.006240,0.000552,0.006276,-0.002104,86.212033,0.006389,
850,110,0.241901,-14.629757,0.999998,0.000187,-0.001051,0.005812,0.001187,0.006012,-0.001250,80.461376,0.006344,
1760,500,-1.639951,-11.598293,0.999996,0.000238,-0.003878,0.007713,0.000128,0.007715,-0.003879,89.366183,0.007715,
640,350,1.543054,-12.588566,0.999997,0.000210,-0.003708,0.007552,0.000009,0.007552,-0.003708,89.952703,0.007553,
1380,1770,-0.202668,-1.343968,0.999998,0.000194,-0.001416,0.005570,0.000068,0.005571,-0.001416,89.443517,0.005791,
1690,1680,-1.119510,-2.403877,0.999998,0.000184,-0.003397,0.007359,-0.000033,0.007359,-0.003397,-89.825251,0.007366,
640,60,0.281485,-14.843500,0.999996,0.000253,-0.002252,0.007243,0.002392,0.007812,-0.002820,76.627006,0.007912,
1380,40,-0.015220,-15.023496,0.999999,0.000128,-0.000050,0.004590,-0.000304,0.004610,-0.000070,-86.271282,0.005284,
1110,1370,0.255719,-3.570100,0.999997,0.000209,-0.003130,0.005586,0.002253,0.006134,-0.003678,76.331388,0.006175,
1380,1350,-0.357973,-3.829155,0.999996,0.000242,-0.003863,0.006431,-0.002460,0.006989,-0.004420,-77.227656,0.007070,
950,1880,0.265622,-0.818014,0.999998,0.000168,-0.001401,0.005658,-0.000534,0.005698,-0.001442,-85.695863,0.005925,
1860,910,-2.989661,-8.334300,0.999998,0.000162,-0.003250,0.006718,-0.000288,0.006726,-0.003258,-88.345151,0.006727,
680,1360,2.187758,-5.093396,0.999997,0.000230,-0.003979,0.007725,-0.000384,0.007738,-0.003992,-88.122622,0.007739,
730,1260,2.266428,-5.796605,0.999998,0.000195,-0.004005,0.007858,-0.000748,0.007905,-0.004052,-86.404932,0.007906,
720,1330,2.109751,-5.253620,0.999997,0.000190,-0.004141,0.007922,-0.000492,0.007942,-0.004161,-87.667447,0.007945,
1420,640,-0.479126,-11.536340,0.999996,0.000232,-0.003810,0.006812,0.001761,0.007096,-0.004095,80.828227,0.007124,
980,380,0.495791,-13.085362,0.999997,0.000213,-0.002659,0.006386,-0.000347,0.006400,-0.002672,-87.808575,0.006429,
1870,1460,-2.274682,-4.512321,0.999996,0.000253,-0.003801,0.007684,0.000025,0.007684,-0.003801,89.873786,0.007684,
1410,30,-0.010849,-15.069881,0.999999,0.000000,-0.000154,0.004637,-0.000349,0.004662,-0.000179,-85.854008,0.005283,
1160,1380,0.126770,-3.324296,0.999998,0.000188,-0.002165,0.004381,0.001579,0.004742,-0.002526,77.121180,0.004745,
1720,110,-0.381005,-14.576331,0.999997,0.000217,-0.001376,0.006549,-0.001868,0.006967,-0.001794,-77.380386,0.007235,
1120,2010,0.014220,-0.116455,0.999998,0.000159,-0.000161,0.004508,-0.000177,0.004515,-0.000168,-87.838116,0.005119,
1310,1590,-0.148712,-2.277206,0.999998,0.000183,-0.002086,0.005426,-0.000491,0.005458,-0.002118,-86.273033,0.005503,
1670,950,-2.414810,-8.153921,0.999997,0.000215,-0.003340,0.007741,-0.000729,0.007788,-0.003388,-86.253338,0.007810,
1830,840,-2.746380,-8.859026,0.999997,0.000213,-0.003543,0.007104,-0.000510,0.007128,-0.003568,-87.266412,0.007128,
680,1450,1.962389,-4.391875,0.999998,0.000143,-0.003926,0.007767,-0.000063,0.007767,-0.003927,-89.693751,0.007767,
950,820,1.314457,-9.562110,0.999997,0.000220,-0.005590,0.009737,0.000003,0.009737,-0.005590,89.988193,0.009772,
1610,1780,-0.659255,-1.540444,0.999997,0.000219,-0.002633,0.006796,0.000366,0.006810,-0.002647,87.782405,0.006866,
770,110,0.343665,-14.588969,0.999997,0.000215,-0.001427,0.006418,0.001698,0.006770,-0.001779,78.297456,0.007019,
1010,1170,1.281718,-5.910710,0.999995,0.000268,-0.005567,0.010550,0.000448,0.010562,-0.005579,88.407837,0.010568,
1730,1160,-2.516629,-6.574594,0.999996,0.000218,-0.003609,0.007683,0.000821,0.007743,-0.003668,85.862500,0.007746,
790,1540,1.329292,-3.427511,0.999998,0.000158,-0.003940,0.007747,0.000263,0.007753,-0.003946,88.711670,0.007753,
1060,1420,0.417895,-3.484604,0.999997,0.000203,-0.003510,0.006466,0.001800,0.006781,-0.003825,80.078404,0.006800,
600,550,2.142479,-10.968535,0.999996,0.000207,-0.003798,0.007612,0.000007,0.007612,-0.003798,89.966737,0.007612,
560,980,3.194668,-7.839393,0.999978,0.000000,-0.002364,0.006094,-0.000318,0.006106,-0.002376,-87.848768,0.006156,
1160,810,0.196687,-11.284143,0.999997,0.000229,-0.003156,0.003243,-0.002644,0.004194,-0.004108,-70.212910,0.004794,
980,90,0.093903,-14.774696,0.999998,0.000202,-0.000573,0.005074,0.000633,0.005144,-0.000643,83.683605,0.005606,
870,220,0.492733,-13.966009,0.999997,0.000205,-0.002259,0.006354,0.000579,0.006393,-0.002298,86.173673,0.006477,
880,1580,0.921842,-2.900755,0.999997,0.000182,-0.003582,0.007328,0.000467,0.007348,-0.003602,87.554216,0.007349,
600,520,2.075952,-11.197976,0.999998,0.000179,-0.003753,0.007623,-0.000046,0.007623,-0.003753,-89.767199,0.007623,
1840,1360,-2.411943,-5.206217,0.999997,0.000216,-0.003809,0.007555,0.000265,0.007561,-0.003815,88.663424,0.007561,
890,740,1.371864,-10.106958,0.999996,0.000245,-0.005094,0.008889,-0.000069,0.008890,-0.005094,-89.717695,0.008921,
1370,1190,-0.716595,-4.871714,0.999993,0.000322,-0.004037,0.006622,-0.003414,0.007622,-0.005037,-73.678520,0.007752,
860,1710,0.780880,-2.014647,0.999997,0.000189,-0.002946,0.006976,-0.000054,0.006976,-0.002946,-89.689615,0.007004,
1460,1520,-0.559755,-3.007047,0.999997,0.000222,-0.003290,0.006728,-0.001010,0.006828,-0.003390,-84.298900,0.006828,
840,1500,1.205594,-3.610910,0.999997,0.000192,-0.004055,0.007837,0.000386,0.007849,-0.004068,88.142443,0.007851,
1110,1570,0.241968,-2.446799,0.999998,0.000166,-0.002213,0.005679,0.000663,0.005735,-0.002268,85.233427,0.005776,
1750,1690,-1.310783,-2.463631,0.999997,0.000228,-0.003657,0.007564,-0.000017,0.007564,-0.003657,-89.914958,0.007566,
900,1390,1.143974,-4.328977,0.999995,0.000262,-0.004726,0.008401,0.000568,0.008426,-0.004750,87.525695,0.008449,
990,1880,0.212334,-0.794085,0.999998,0.000145,-0.001126,0.005492,-0.000488,0.005527,-0.001162,-85.806167,0.005829,
1500,160,-0.221932,-14.394273,0.999998,0.000172,-0.001328,0.005560,-0.000546,0.005603,-0.001371,-85.494875,0.005842,
630,1970,0.490437,-0.507617,0.999996,0.000244,-0.003211,0.008009,-0.001973,0.008346,-0.003548,-80.312869,0.008377,
680,1340,2.242120,-5.246297,0.999997,0.000218,-0.003974,0.007704,-0.000458,0.007722,-0.003992,-87.759029,0.007724,
1710,1550,-1.456655,-3.439272,0.999997,0.000216,-0.003933,0.007744,-0.000199,0.007747,-0.003937,-89.025058,0.007748,
760,530,1.478448,-11.503734,0.999996,0.000236,-0.003972,0.007785,-0.000173,0.007787,-0.003975,-89.157106,0.007788,
1250,560,-0.034868,-12.399380,0.999998,0.000180,-0.001882,0.004819,0.000299,0.004833,-0.001895,87.452918,0.004870,
1420,620,-0.470681,-11.669401,0.999997,0.000227,-0.003571,0.006692,0.001628,0.006944,-0.003823,81.198352,0.006956,
1160,1360,0.124275,-3.404898,0.999998,0.000191,-0.002227,0.004256,0.001793,0.004719,-0.002690,75.527440,0.004734,
1630,50,-0.088903,-14.959536,0.999998,0.000167,-0.000278,0.005249,-0.001342,0.005557,-0.000587,-77.049102,0.006107,
790,1460,1.490815,-4.055839,0.999997,0.000210,-0.004240,0.007932,0.000122,0.007934,-0.004241,89.425397,0.007940,
920,1330,1.176489,-4.782181,0.999998,0.000225,-0.005195,0.008860,0.000498,0.008878,-0.005213,87.972205,0.008923,
1360,1770,-0.175811,-1.332834,0.999998,0.000179,-0.001436,0.005497,0.000015,0.005497,-0.001436,89.873113,0.005702,
980,360,0.472831,-13.215309,0.999998,0.000177,-0.002492,0.006301,-0.000249,0.006308,-0.002499,-88.377498,0.006353,
1800,700,-2.272401,-9.957136,0.999997,0.000205,-0.003893,0.007638,-0.000379,0.007650,-0.003905,-88.119735,0.007651,
1310,1570,-0.150085,-2.387578,0.999998,0.000179,-0.002145,0.005401,-0.000590,0.005447,-0.002191,-85.554621,0.005481,
1400,2020,-0.013276,-0.071242,0.999998,0.000000,-0.000130,0.004616,0.000295,0.004634,-0.000148,86.460906,0.005267,
560,970,3.191186,-7.905756,0.999977,0.000000,-0.002540,0.006201,-0.000328,0.006213,-0.002553,-87.856522,0.006246,
1660,1230,-2.050229,-5.945264,0.999997,0.000200,-0.004241,0.008341,0.000876,0.008402,-0.004301,86.038355,0.008402,
1720,90,-0.300144,-14.700943,0.999997,0.000192,-0.001124,0.006138,-0.001822,0.006569,-0.001555,-76.678532,0.006866,
1550,980,-2.097809,-7.967338,0.999997,0.000205,-0.002919,0.008667,-0.000744,0.008714,-0.002966,-86.340688,0.008861,
1520,670,-0.949909,-10.897541,0.999996,0.000222,-0.004762,0.008299,0.000984,0.008373,-0.004836,85.713997,0.008406,
1790,1160,-2.730322,-6.618246,0.999996,0.000209,-0.003494,0.007216,0.000561,0.007245,-0.003523,87.007841,0.007246,
1100,90,0.044994,-14.791298,0.999998,0.000151,-0.000328,0.004744,0.000279,0.004759,-0.000343,86.861859,0.005308,
930,840,1.504189,-9.294782,0.999995,0.000258,-0.005272,0.009659,0.000491,0.009675,-0.005288,88.117179,0.009689,
1140,810,0.260599,-11.111528,0.999996,0.000257,-0.003541,0.004312,-0.003124,0.005403,-0.004632,-70.746136,0.005845,
900,1510,0.949539,-3.372600,0.999997,0.000194,-0.003917,0.007586,0.000676,0.007625,-0.003956,86.648574,0.007627,
1060,1810,0.203244,-1.137333,0.999998,0.000164,-0.001448,0.005491,-0.000098,0.005493,-0.001449,-89.188178,0.005693,
680,1430,2.010939,-4.547401,0.999996,0.000221,-0.003947,0.007777,-0.000142,0.007779,-0.003949,-89.304535,0.007779,
1120,2000,0.017358,-0.161577,0.999998,0.000171,-0.000207,0.004563,-0.000201,0.004572,-0.000215,-87.585429,0.005160,
850,240,0.586362,-13.810216,0.999997,0.000234,-0.002359,0.006675,0.000619,0.006718,-0.002401,86.100958,0.006808,
1150,1560,0.159676,-2.444647,0.999998,0.000175,-0.002143,0.005408,0.000646,0.005463,-0.002198,85.142141,0.005497,
1390,1940,-0.071497,-0.453216,0.999998,0.000157,-0.000494,0.004945,0.000342,0.004966,-0.000515,86.418231,0.005461,
840,1710,0.838735,-2.049687,0.999998,0.000173,-0.002901,0.007082,-0.000135,0.007084,-0.002903,-89.223853,0.007122,
840,1480,1.239199,-3.769022,0.999997,0.000204,-0.004156,0.007901,0.000383,0.007913,-0.004169,88.184410,0.007917,
960,850,1.386150,-9.304061,0.999995,0.000301,-0.005524,0.009990,0.000192,0.009993,-0.005526,89.292486,0.010011,
1760,480,-1.597939,-11.753932,0.999996,0.000237,-0.003838,0.007689,0.000127,0.007691,-0.003840,89.367672,0.007691,
1110,530,0.249020,-12.421123,0.999997,0.000212,-0.002440,0.005645,-0.000956,0.005756,-0.002551,-83.344456,0.005769,
630,1430,2.205565,-4.658609,0.999996,0.000239,-0.003820,0.007697,-0.000101,0.007698,-0.003821,-89.496383,0.007698,
1290,1880,-0.045876,-0.732609,0.999998,0.000183,-0.000686,0.004961,0.000104,0.004963,-0.000688,88.943544,0.005378,
1710,1530,-1.497041,-3.595506,0.999996,0.000220,-0.003964,0.007770,-0.000180,0.007772,-0.003967,-89.123251,0.007773,
1460,1480,-0.587981,-3.280702,0.999997,0.000234,-0.003639,0.006984,-0.001278,0.007136,-0.003790,-83.235189,0.007140,
680,1320,2.298494,-5.403391,0.999997,0.000212,-0.003939,0.007766,-0.000508,0.007788,-0.003961,-87.521179,0.007789,
840,1770,0.716180,-1.628350,0.999997,0.000196,-0.002616,0.006963,-0.000400,0.006980,-0.002633,-87.615350,0.007050,
1140,1390,0.173420,-3.340529,0.999997,0.000221,-0.002537,0.004858,0.001819,0.005281,-0.002960,76.903450,0.005294,
980,340,0.448892,-13.341027,0.999997,0.000197,-0.002336,0.006294,-0.000158,0.006297,-0.002338,-88.950595,0.006366,
1310,1550,-0.152377,-2.493111,0.999997,0.000189,-0.002149,0.005374,-0.000674,0.005434,-0.002209,-84.919954,0.005466,
900,1330,1.283457,-4.850444,0.999997,0.000262,-0.005134,0.008838,0.000272,0.008844,-0.005140,88.886260,0.008883,
720,1340,2.081683,-5.174278,0.999998,0.000187,-0.004130,0.007919,-0.000445,0.007935,-0.004146,-87.885625,0.007938,
1570,540,-0.968990,-11.767420,0.999997,0.000193,-0.003866,0.007571,0.000635,0.007606,-0.003901,86.834028,0.007607,
650,660,2.216236,-10.235302,0.999997,0.000216,-0.003885,0.007676,0.000231,0.007681,-0.003890,88.854112,0.007681,
1420,820,-0.773933,-10.112327,0.999995,0.000282,-0.005875,0.009105,0.002049,0.009381,-0.006151,82.351952,0.009531,
1670,40,-0.074881,-15.004854,0.999998,0.000160,-0.000601,0.005319,-0.001442,0.005652,-0.000934,-77.012521,0.006060,
1630,790,-1.805813,-9.521340,0.999997,0.000222,-0.004678,0.008697,-0.000655,0.008729,-0.004710,-87.203459,0.008738,
1060,1440,0.409854,-3.359054,0.999997,0.000203,-0.003358,0.006413,0.001688,0.006696,-0.003641,80.472055,0.006705,
1400,1080,-1.468996,-6.474410,0.999987,0.000000,-0.006426,0.016913,-0.004999,0.017939,-0.007451,-78.405602,0.018024,
1670,930,-2.381511,-8.308532,0.999997,0.000219,-0.003471,0.007826,-0.000755,0.007876,-0.003521,-86.195313,0.007891,
1230,620,0.001076,-12.134114,0.999998,0.000177,-0.001758,0.004327,-0.000051,0.004327,-0.001758,-89.516627,0.004352,
770,70,0.194128,-14.833225,0.999998,0.000177,-0.000876,0.005832,0.001690,0.006233,-0.001278,76.624598,0.006585,
1210,430,0.038245,-13.062990,0.999998,0.000168,-0.001805,0.005273,-0.000198,0.005279,-0.001811,-88.395883,0.005365,
1640,1230,-1.965510,-5.916736,0.999996,0.000230,-0.004384,0.008557,0.000884,0.008617,-0.004445,86.109252,0.008619,
1530,980,-2.039520,-7.982405,0.999998,0.000159,-0.003014,0.009017,-0.000701,0.009058,-0.003055,-86.677184,0.009216,
1890,1930,-0.948959,-1.036196,0.999997,0.000240,-0.003591,0.008128,0.001169,0.008243,-0.003706,84.359974,0.008257,
1800,680,-2.217966,-10.108478,0.999997,0.000211,-0.003901,0.007661,-0.000323,0.007670,-0.003910,-88.402007,0.007671,
660,1450,2.040745,-4.435403,0.999998,0.000160,-0.003897,0.007710,-0.000087,0.007711,-0.003897,-89.570472,0.007711,
1770,1160,-2.660611,-6.603457,0.999998,0.000197,-0.003551,0.007368,0.000661,0.007408,-0.003591,86.547002,0.007409,
1160,1340,0.122591,-3.486919,0.999997,0.000214,-0.002297,0.004070,0.002049,0.004672,-0.002899,73.614964,0.004717,
1500,670,-0.854816,-10.975169,0.999997,0.000205,-0.004739,0.008146,0.001205,0.008258,-0.004851,84.702784,0.008300,
880,1560,0.953567,-3.048863,0.999997,0.000194,-0.003708,0.007411,0.000508,0.007434,-0.003731,87.391334,0.007434,
1810,840,-2.676360,-8.883477,0.999996,0.000230,-0.003589,0.007210,-0.000596,0.007243,-0.003621,-86.850083,0.007243,
1840,1340,-2.463002,-5.359057,0.999996,0.000230,-0.003780,0.007542,0.000297,0.007549,-0.003788,88.499710,0.007549,
740,530,1.556908,-11.455639,0.999996,0.000226,-0.003949,0.007779,-0.000140,0.007781,-0.003950,-89.317993,0.007781,
890,2010,0.054696,-0.129300,0.999998,0.000151,-0.000391,0.005119,-0.000943,0.005276,-0.000548,-80.556008,0.005801,
630,240,1.258913,-13.397182,0.999998,0.000196,-0.003622,0.007577,0.000251,0.007582,-0.003628,88.717807,0.007585,
600,500,2.032787,-11.350623,0.999998,0.000183,-0.003752,0.007613,-0.000050,0.007613,-0.003752,-89.746210,0.007613,
560,960,3.184937,-7.968382,0.999981,0.000000,-0.002725,0.006091,-0.000220,0.006096,-0.002730,-88.569962,0.006107,
1500,1620,-0.602003,-2.429613,0.999997,0.000231,-0.002883,0.006658,-0.000506,0.006685,-0.002910,-86.973238,0.006704,
1370,870,-0.751882,-10.216725,0.999994,0.000266,-0.003840,0.006490,0.003426,0.007523,-0.004873,73.221554,0.007631,
700,1050,2.777801,-7.396163,0.999998,0.000180,-0.003215,0.007165,-0.000242,0.007171,-0.003221,-88.666319,0.007183,
780,1710,1.031820,-2.169004,0.999997,0.000183,-0.003298,0.007314,-0.000076,0.007314,-0.003298,-89.589932,0.007326,
1040,90,0.068589,-14.783235,0.999999,0.000131,-0.000534,0.004862,0.000403,0.004892,-0.000564,85.753207,0.005353,
1460,1460,-0.604261,-3.424698,0.999997,0.000234,-0.003815,0.007110,-0.001379,0.007282,-0.003987,-82.918388,0.007292,
1120,1390,0.230166,-3.422497,0.999998,0.000177,-0.002784,0.005349,0.001992,0.005811,-0.003245,76.949383,0.005824,
1410,790,-0.614217,-10.459343,0.999995,0.000278,-0.005550,0.008403,0.002534,0.008849,-0.005996,80.019830,0.009033,
1700,770,-2.056411,-9.574366,0.999998,0.000186,-0.004257,0.008190,-0.000666,0.008225,-0.004292,-86.947355,0.008228,
1640,1730,-0.847612,-1.935106,0.999998,0.000172,-0.002982,0.007087,0.000147,0.007089,-0.002984,89.164996,0.007119,
850,220,0.538747,-13.943378,0.999997,0.000222,-0.002164,0.006487,0.000698,0.006543,-0.002220,85.415268,0.006655,
980,320,0.426527,-13.465703,0.999997,0.000208,-0.002183,0.006236,-0.000044,0.006236,-0.002183,-89.703852,0.006329,
1750,560,-1.729861,-11.154918,0.999997,0.000213,-0.003978,0.007774,0.000063,0.007775,-0.003978,89.694431,0.007775,
680,1300,2.353572,-5.559609,0.999997,0.000209,-0.003927,0.007687,-0.000534,0.007711,-0.003952,-87.375313,0.007712,
1440,630,-0.551679,-11.521138,0.999996,0.000269,-0.003946,0.007024,0.001647,0.007266,-0.004187,81.644441,0.007294,
1760,440,-1.512765,-12.059322,0.999996,0.000219,-0.003761,0.007596,0.000143,0.007597,-0.003763,89.280448,0.007597,
1040,1810,0.235564,-1.154826,0.999997,0.000200,-0.001588,0.005591,-0.000119,0.005593,-0.001589,-89.054152,0.005764,
790,1520,1.368379,-3.581734,0.999998,0.000186,-0.004054,0.007812,0.000253,0.007817,-0.004059,88.777498,0.007819,
1710,1510,-1.536357,-3.750661,0.999996,0.000240,-0.004024,0.007800,-0.000163,0.007803,-0.004027,-89.210686,0.007804,
630,1410,2.254798,-4.812241,0.999997,0.000215,-0.003823,0.007628,-0.000158,0.007630,-0.003825,-89.210703,0.007630,
1310,1530,-0.154313,-2.603758,0.999998,0.000180,-0.002172,0.005275,-0.000750,0.005350,-0.002247,-84.305483,0.005373,
1750,1160,-2.589535,-6.589120,0.999997,0.000221,-0.003598,0.007548,0.000762,0.007599,-0.003650,86.108733,0.007601,
1730,1100,-2.625656,-7.026052,0.999996,0.000229,-0.003358,0.007462,0.000594,0.007495,-0.003390,86.868873,0.007506,
1670,1580,-1.244412,-3.111765,0.999997,0.000206,-0.003808,0.007570,-0.000276,0.007577,-0.003814,-88.611438,0.007577,
1270,1880,-0.030283,-0.730179,0.999998,0.000167,-0.000741,0.004952,0.000034,0.004952,-0.000741,89.661210,0.005342,
1110,510,0.246505,-12.531496,0.999997,0.000192,-0.002334,0.005647,-0.000807,0.005727,-0.002414,-84.283744,0.005751,
900,1310,1.336082,-5.028400,0.999997,0.000221,-0.005198,0.008973,0.000124,0.008974,-0.005199,89.497267,0.009011,
1470,1940,-0.123125,-0.471681,0.999998,0.000196,-0.000592,0.005215,0.000580,0.005273,-0.000650,84.349938,0.005750,
1800,1230,-2.603652,-6.114053,0.999998,0.000203,-0.003639,0.007347,0.000594,0.007379,-0.003671,86.912152,0.007379,
1400,1070,-1.488784,-6.648277,0.999976,0.000000,-0.006969,0.019031,-0.004286,0.019719,-0.007658,-80.876634,0.019883,
840,1460,1.278969,-3.929587,0.999996,0.000228,-0.004272,0.007949,0.000377,0.007961,-0.004284,88.236617,0.007969,
1610,980,-2.278083,-7.936648,0.999998,0.000211,-0.003047,0.007972,-0.000596,0.008005,-0.003079,-86.910528,0.008075,
1670,910,-2.333721,-8.468013,0.999996,0.000237,-0.003634,0.008000,-0.000946,0.008077,-0.003710,-85.380672,0.008086,
1060,1880,0.136252,-0.761456,0.999998,0.000176,-0.000993,0.005212,-0.000270,0.005224,-0.001005,-87.517388,0.005544,
930,920,1.848658,-8.528818,0.999996,0.000259,-0.004102,0.009386,0.001055,0.009468,-0.004184,85.552424,0.009489,
740,510,1.516743,-11.610554,0.999997,0.000223,-0.003901,0.007719,-0.000186,0.007722,-0.003904,-89.085081,0.007722,
1840,1320,-2.515219,-5.508082,0.999996,0.000224,-0.003746,0.007452,0.000349,0.007462,-0.003757,88.214392,0.007463,
880,1540,0.982384,-3.197926,0.999997,0.000188,-0.003774,0.007536,0.000550,0.007562,-0.003801,87.221777,0.007563,
760,1980,0.223421,-0.321694,0.999997,0.000186,-0.000866,0.005896,-0.001787,0.006339,-0.001309,-76.069060,0.006693,
600,480,1.986907,-11.503391,0.999997,0.000206,-0.003756,0.007609,-0.000054,0.007609,-0.003756,-89.728365,0.007609,
630,220,1.185414,-13.549675,0.999997,0.000211,-0.003606,0.007688,0.000364,0.007700,-0.003618,88.154014,0.007705,
1860,370,-1.727900,-12.341656,0.999997,0.000209,-0.003690,0.007464,0.000087,0.007465,-0.003691,89.555691,0.007465,
1500,1600,-0.623107,-2.563927,0.999997,0.000216,-0.002979,0.006762,-0.000565,0.006794,-0.003012,-86.693567,0.006809,
560,950,3.182202,-8.027093,0.999982,0.000000,-0.002792,0.006049,-0.000071,0.006049,-0.002792,-89.539320,0.006055,
1370,1370,-0.315017,-3.655008,0.999997,0.000233,-0.003466,0.005996,-0.002308,0.006529,-0.003999,-76.997366,0.006584,
760,1710,1.097034,-2.209939,0.999998,0.000142,-0.003317,0.007393,-0.000133,0.007395,-0.003318,-89.288067,0.007408,
1460,1440,-0.620190,-3.570797,0.999996,0.000229,-0.003948,0.007234,-0.001444,0.007418,-0.004132,-82.761772,0.007434,
1520,90,-0.120783,-14.765340,0.999998,0.000169,-0.000618,0.005175,-0.000740,0.005268,-0.000711,-82.832601,0.005717,
1350,1420,-0.250168,-3.285585,0.999998,0.000181,-0.002774,0.005503,-0.001740,0.005854,-0.003125,-78.599186,0.005859,
1160,1320,0.123942,-3.565513,0.999997,0.000210,-0.002379,0.003833,0.002299,0.004592,-0.003137,71.745169,0.004693,
890,2000,0.075129,-0.180360,0.999999,0.000135,-0.000498,0.005184,-0.000966,0.005343,-0.000658,-80.610260,0.005827,
1800,660,-2.165526,-10.264807,0.999996,0.000227,-0.003909,0.007749,-0.000243,0.007754,-0.003914,-88.805985,0.007754,
1400,1410,-0.410124,-3.536813,0.999997,0.000200,-0.003554,0.006520,-0.001898,0.006865,-0.003900,-79.677003,0.006887,
1650,1740,-0.858115,-1.882558,0.999998,0.000170,-0.003063,0.007101,0.000189,0.007104,-0.003066,88.933411,0.007127,
1250,280,-0.024776,-13.858175,0.999998,0.000164,-0.001343,0.005218,0.000056,0.005218,-0.001343,89.512854,0.005419,
980,300,0.400650,-13.589396,0.999997,0.000182,-0.002070,0.006092,0.000054,0.006092,-0.002070,89.622609,0.006196,
1200,1250,0.078310,-3.581058,0.999998,0.000204,-0.002591,0.001815,0.001220,0.002131,-0.002906,75.508622,0.003009,
850,320,0.760882,-13.265598,0.999997,0.000212,-0.002848,0.006961,0.000134,0.006963,-0.002850,89.215295,0.007001,
1830,720,-2.438477,-9.745147,0.999998,0.000189,-0.003771,0.007560,-0.000331,0.007570,-0.003780,-88.326897,0.007570,
1420,80,-0.058668,-14.833859,0.999998,0.000148,-0.000425,0.004838,-0.000408,0.004869,-0.000456,-85.589114,0.005379,
1300,750,-0.121883,-11.508724,0.999996,0.000247,-0.002355,0.003603,0.002398,0.004449,-0.003201,70.582982,0.004589,
630,1390,2.306350,-4.963243,0.999997,0.000209,-0.003822,0.007545,-0.000220,0.007550,-0.003826,-88.889529,0.007550,
1030,760,0.671468,-10.554570,0.999995,0.000238,-0.005386,0.008499,-0.002111,0.008813,-0.005700,-81.544395,0.008938,
1650,1780,-0.764531,-1.596736,0.999997,0.000238,-0.002801,0.007043,0.000438,0.007062,-0.002820,87.456726,0.007110,
1710,1490,-1.580071,-3.908033,0.999995,0.000254,-0.004082,0.007839,-0.000120,0.007840,-0.004084,-89.421865,0.007843,
570,1190,3.017195,-6.538534,0.999997,0.000230,-0.003108,0.006612,-0.000073,0.006613,-0.003108,-89.567584,0.006617,
1310,1510,-0.155596,-2.706647,0.999998,0.000156,-0.002204,0.005239,-0.000827,0.005329,-0.002295,-83.734908,0.005347,
1780,1230,-2.532168,-6.087133,0.999998,0.000188,-0.003738,0.007507,0.000687,0.007549,-0.003780,86.516448,0.007549,
1010,640,0.611332,-11.396222,0.999996,0.000241,-0.004091,0.007301,-0.001595,0.007521,-0.004310,-82.179251,0.007547,
1760,420,-1.470845,-12.211351,0.999996,0.000242,-0.003708,0.007593,0.000118,0.007594,-0.003709,89.400833,0.007595,
680,1280,2.404607,-5.710448,0.999997,0.000224,-0.003895,0.007616,-0.000602,0.007647,-0.003926,-87.013243,0.007648,
830,120,0.294011,-14.559876,0.999997,0.000194,-0.001115,0.006009,0.001293,0.006236,-0.001342,80.026806,0.006565,
1140,1970,0.026680,-0.299838,0.999998,0.000164,-0.000367,0.004667,-0.000165,0.004672,-0.000373,-88.123263,0.005193,
840,1440,1.318396,-4.090777,0.999996,0.000250,-0.004393,0.008054,0.000331,0.008062,-0.004402,88.478010,0.008074,
760,1330,1.941400,-5.182220,0.999997,0.000218,-0.004295,0.008169,-0.000465,0.008186,-0.004312,-87.868525,0.008190,
1590,980,-2.219005,-7.944483,0.999998,0.000171,-0.002995,0.008151,-0.000639,0.008188,-0.003031,-86.727806,0.008279,
870,1800,0.573998,-1.383057,0.999997,0.000198,-0.002538,0.006557,-0.000414,0.006576,-0.002557,-87.401448,0.006629,
1110,490,0.242888,-12.645056,0.999998,0.000176,-0.002237,0.005695,-0.000694,0.005755,-0.002297,-85.038996,0.005794,
1670,1330,-1.797369,-5.118946,0.999997,0.000183,-0.004508,0.008339,0.000404,0.008351,-0.004521,88.199727,0.008361,
1360,1240,-0.421568,-4.404923,0.999994,0.000299,-0.004686,0.006517,-0.003358,0.007447,-0.005616,-74.530740,0.007761,
760,1960,0.300071,-0.439996,0.999997,0.000204,-0.001128,0.006126,-0.001731,0.006518,-0.001520,-77.241187,0.006821,
790,1500,1.407097,-3.740784,0.999997,0.000240,-0.004114,0.007864,0.000213,0.007868,-0.004117,88.979548,0.007871,
1890,730,-2.685108,-9.541310,0.999997,0.000218,-0.003652,0.007329,-0.000136,0.007331,-0.003654,-89.292803,0.007331,
1060,1860,0.158299,-0.867642,0.999998,0.000181,-0.001129,0.005307,-0.000228,0.005315,-0.001137,-87.976593,0.005597,
1400,1060,-1.507250,-6.848803,0.999979,0.000000,-0.007501,0.020445,-0.003689,0.020924,-0.007979,-82.604947,0.021119,
1460,1420,-0.634856,-3.714765,0.999997,0.000221,-0.004129,0.007319,-0.001494,0.007510,-0.004321,-82.686146,0.007539,
1890,360,-1.814196,-12.335078,0.999998,0.000193,-0.003750,0.007380,0.000019,0.007380,-0.003750,89.900386,0.007381,
1840,560,-2.079441,-10.945192,0.999997,0.000192,-0.003801,0.007641,0.000015,0.007641,-0.003802,89.925800,0.007641,
880,1520,1.011217,-3.352079,0.999997,0.000178,-0.003868,0.007618,0.000567,0.007646,-0.003896,87.181704,0.007646,
560,1160,3.090931,-6.743919,0.999993,0.000000,-0.002817,0.006285,-0.000034,0.006285,-0.002817,-89.786257,0.006297,
1570,600,-1.061040,-11.299229,0.999997,0.000206,-0.004314,0.007899,0.000679,0.007937,-0.004351,86.829615,0.007949,
1890,1680,-1.852346,-2.893876,0.999997,0.000200,-0.003740,0.007324,-0.000061,0.007324,-0.003740,-89.686330,0.007325,
980,280,0.373386,-13.711672,0.999997,0.000184,-0.001954,0.006060,0.000149,0.006063,-0.001957,88.933376,0.006188,
1550,1360,-1.144087,-4.542306,0.999997,0.000212,-0.004965,0.008611,-0.000587,0.008636,-0.004991,-87.529466,0.008671,
1500,1580,-0.639735,-2.698230,0.999997,0.000216,-0.003151,0.006861,-0.000664,0.006905,-0.003195,-86.223027,0.006911,
1550,1420,-1.028778,-4.038714,0.999997,0.000216,-0.004507,0.008090,-0.000759,0.008136,-0.004552,-86.563867,0.008155,
1570,460,-0.857504,-12.360502,0.999997,0.000216,-0.003374,0.007202,0.000442,0.007220,-0.003392,87.610695,0.007225,
720,290,1.094699,-13.238164,0.999997,0.000237,-0.003439,0.007514,0.000286,0.007521,-0.003447,88.503727,0.007530,
600,460,1.944191,-11.655475,0.999997,0.000208,-0.003742,0.007574,-0.000073,0.007574,-0.003743,-89.630287,0.007575,
750,180,0.654980,-14.099298,0.999997,0.000200,-0.002340,0.006998,0.001296,0.007175,-0.002516,82.243560,0.007280,
850,860,1.961791,-8.939106,0.999997,0.000190,-0.004296,0.008640,0.000967,0.008711,-0.004368,85.746991,0.008712,
1030,740,0.633092,-10.722355,0.999997,0.000205,-0.005105,0.008187,-0.002109,0.008514,-0.005431,-81.198311,0.008621,
1410,1990,-0.038440,-0.212558,0.999998,0.000171,-0.000344,0.004775,0.000401,0.004806,-0.000376,85.543818,0.005346,
1260,810,-0.077966,-11.541905,0.999997,0.000214,-0.002699,0.001765,0.001087,0.002016,-0.002950,77.020366,0.003015,
1760,400,-1.426663,-12.363328,0.999996,0.000244,-0.003710,0.007588,0.000091,0.007589,-0.003711,89.536012,0.007589,
740,1330,2.025549,-5.219095,0.999998,0.000196,-0.004191,0.008043,-0.000485,0.008062,-0.004210,-87.734323,0.008065,
1370,1840,-0.140899,-0.960680,0.999998,0.000161,-0.001049,0.005244,0.000170,0.005249,-0.001054,88.455190,0.005553,
630,1370,2.358240,-5.114926,0.999997,0.000227,-0.003794,0.007577,-0.000265,0.007584,-0.003800,-88.667025,0.007584,
600,1190,2.921208,-6.486798,0.999997,0.000188,-0.003330,0.006910,-0.000324,0.006921,-0.003340,-88.191366,0.006922,
1310,1490,-0.154922,-2.812988,0.999998,0.000161,-0.002231,0.005185,-0.000923,0.005298,-0.002344,-83.011427,0.005310,
1710,1470,-1.624036,-4.065757,0.999996,0.000230,-0.004137,0.007891,-0.000064,0.007892,-0.004137,-89.693825,0.007895,
1390,1220,-0.663044,-4.869484,0.999995,0.000250,-0.005389,0.008263,-0.002660,0.008763,-0.005889,-79.355070,0.008934,
1790,980,-2.848817,-7.895636,0.999998,0.000169,-0.003276,0.006951,-0.000177,0.006954,-0.003279,-89.006479,0.006958,
680,1260,2.460685,-5.863727,0.999997,0.000226,-0.003865,0.007608,-0.000677,0.007648,-0.003905,-86.635410,0.007648,
1100,1880,0.104910,-0.749673,0.999998,0.000169,-0.000834,0.005126,-0.000196,0.005132,-0.000841,-88.123263,0.005505,
840,1420,1.359032,-4.253175,0.999996,0.000247,-0.004508,0.008223,0.000270,0.008229,-0.004513,88.784368,0.008242,
1670,1350,-1.741516,-4.950802,0.999997,0.000231,-0.004509,0.008301,0.000290,0.008308,-0.004516,88.702403,0.008319,
1370,330,-0.218697,-13.528690,0.999997,0.000209,-0.001667,0.005649,0.000100,0.005650,-0.001669,89.218533,0.005806,
810,120,0.317618,-14.550296,0.999998,0.000194,-0.001460,0.006130,0.001349,0.006363,-0.001693,80.214871,0.006591,
1890,720,-2.660020,-9.614192,0.999997,0.000211,-0.003665,0.007308,-0.000127,0.007310,-0.003666,-89.338834,0.007310,
1500,1950,-0.130845,-0.427068,0.999998,0.000198,-0.000849,0.005260,0.000675,0.005334,-0.000923,83.772122,0.005701,
1460,1400,-0.653157,-3.862790,0.999996,0.000241,-0.004349,0.007575,-0.001601,0.007786,-0.004560,-82.485333,0.007824,
880,1500,1.042457,-3.501589,0.999997,0.000197,-0.004023,0.007737,0.000600,0.007768,-0.004054,87.085489,0.007770,
1840,1300,-2.568859,-5.656571,0.999996,0.000209,-0.003695,0.007382,0.000382,0.007396,-0.003709,88.026381,0.007396,
1860,1770,-1.501487,-2.142219,0.999997,0.000232,-0.003671,0.007368,0.000029,0.007368,-0.003671,89.847391,0.007368,
560,1170,3.078567,-6.682722,0.999994,0.000000,-0.002868,0.006226,0.000058,0.006226,-0.002869,89.634200,0.006233,
1880,1680,-1.814560,-2.868947,0.999998,0.000174,-0.003734,0.007367,-0.000050,0.007367,-0.003734,-89.740625,0.007367,
1120,1450,0.230186,-3.095107,0.999998,0.000185,-0.002625,0.005408,0.001459,0.005664,-0.002882,80.020561,0.005665,
660,610,2.054299,-10.644504,0.999998,0.000194,-0.003885,0.007709,0.000095,0.007709,-0.003885,89.532400,0.007710,
760,1940,0.381275,-0.569672,0.999996,0.000222,-0.001444,0.006571,-0.001801,0.006957,-0.001830,-77.901080,0.007213,
600,440,1.899850,-11.807163,0.999997,0.000201,-0.003707,0.007524,-0.000088,0.007524,-0.003708,-89.549156,0.007525,
980,1770,0.381284,-1.440067,0.999997,0.000240,-0.002003,0.006081,-0.000127,0.006083,-0.002005,-89.097667,0.006199,
1690,1300,-1.970438,-5.405276,0.999997,0.000185,-0.004362,0.008226,0.000597,0.008254,-0.004391,87.290200,0.008260,
1700,490,-1.385349,-11.821030,0.999998,0.000186,-0.003856,0.007652,0.000199,0.007655,-0.003859,89.010897,0.007655,
1530,1360,-1.043913,-4.471869,0.999997,0.000196,-0.004972,0.008562,-0.000780,0.008607,-0.005017,-86.713824,0.008647,
1410,1450,-0.431051,-3.318443,0.999997,0.000212,-0.003382,0.006480,-0.001570,0.006724,-0.003626,-81.171964,0.006731,
590,1190,2.953756,-6.501707,0.999997,0.000189,-0.003247,0.006815,-0.000234,0.006820,-0.003253,-88.671012,0.006822,
1710,1450,-1.668350,-4.225395,0.999997,0.000217,-0.004182,0.007947,-0.000038,0.007947,-0.004182,-89.821784,0.007951,
1060,1840,0.173627,-0.972983,0.999998,0.000180,-0.001278,0.005347,-0.000163,0.005351,-0.001282,-88.588687,0.005588,
800,810,2.016988,-9.296973,0.999998,0.000188,-0.004295,0.008434,0.000810,0.008485,-0.004347,86.373131,0.008486,
1210,410,0.037995,-13.168004,0.999998,0.000174,-0.001741,0.005292,-0.000190,0.005297,-0.001746,-88.449909,0.005399,
1270,470,-0.073516,-12.843180,0.999998,0.000150,-0.001861,0.005235,0.000223,0.005242,-0.001868,88.201166,0.005314,
850,540,1.138192,-11.651967,0.999996,0.000227,-0.004009,0.007800,-0.000434,0.007816,-0.004025,-87.897285,0.007817,
1380,170,-0.114030,-14.391621,0.999998,0.000185,-0.000758,0.005158,-0.000284,0.005171,-0.000772,-87.256848,0.005579,
980,260,0.346200,-13.831472,0.999997,0.000194,-0.001837,0.005950,0.000201,0.005956,-0.001842,88.518921,0.006098,
1890,710,-2.634871,-9.687763,0.999997,0.000222,-0.003678,0.007353,-0.000125,0.007355,-0.003679,-89.350993,0.007355,
1460,2010,-0.031377,-0.121936,0.999998,0.000170,-0.000048,0.004725,0.000530,0.004783,-0.000106,83.739696,0.005463,
1210,620,0.037641,-12.120348,0.999998,0.000145,-0.001795,0.004355,-0.000407,0.004382,-0.001822,-86.231582,0.004403,
1710,780,-2.128740,-9.476257,0.999997,0.000204,-0.004208,0.008141,-0.000701,0.008181,-0.004248,-86.759607,0.008183,
720,1360,2.029339,-5.015006,0.999997,0.000202,-0.004131,0.007931,-0.000374,0.007943,-0.004142,-88.226343,0.007945,
630,1350,2.410360,-5.267336,0.999996,0.000229,-0.003777,0.007592,-0.000285,0.007599,-0.003784,-88.567384,0.007599,
1370,290,-0.192319,-13.753524,0.999998,0.000164,-0.001447,0.005557,-0.000013,0.005557,-0.001447,-89.895219,0.005766,
880,1920,0.269059,-0.623035,0.999997,0.000187,-0.001441,0.005811,-0.000926,0.005927,-0.001558,-82.839997,0.006146,
1630,770,-1.742621,-9.700995,0.999996,0.000265,-0.004729,0.008732,-0.000522,0.008752,-0.004750,-87.780825,0.008762,
930,1610,0.713023,-2.566837,0.999997,0.000213,-0.003244,0.006974,0.000531,0.007001,-0.003271,87.033166,0.007006,
1260,1770,-0.038443,-1.289389,0.999998,0.000160,-0.001319,0.005242,-0.000046,0.005242,-0.001319,-89.602653,0.005454,
1870,1680,-1.777023,-2.842082,0.999998,0.000180,-0.003713,0.007420,-0.000053,0.007420,-0.003713,-89.729494,0.007420,
1680,490,-1.310077,-11.870291,0.999997,0.000204,-0.003807,0.007639,0.000247,0.007644,-0.003812,88.761837,0.007644,
1310,1470,-0.153643,-2.916487,0.999998,0.000191,-0.002213,0.005030,-0.000998,0.005165,-0.002348,-82.296803,0.005172,
1240,810,-0.026148,-11.589621,0.999996,0.000230,-0.002884,0.001594,0.000325,0.001618,-0.002907,85.868406,0.002913,
1240,1250,-0.020177,-3.522679,0.999997,0.000202,-0.002621,0.001516,-0.000350,0.001545,-0.002651,-85.192981,0.002663,
720,310,1.149726,-13.087136,0.999997,0.000215,-0.003515,0.007479,0.000155,0.007481,-0.003517,89.191337,0.007486,
1500,1560,-0.659121,-2.836760,0.999997,0.000215,-0.003344,0.006931,-0.000796,0.006992,-0.003405,-85.598172,0.006993,
880,1910,0.294022,-0.681692,0.999998,0.000172,-0.001554,0.005914,-0.000894,0.006020,-0.001660,-83.266709,0.006219,
1760,380,-1.382118,-12.517893,0.999996,0.000229,-0.003677,0.007605,0.000068,0.007605,-0.003677,89.652223,0.007607,
1100,1860,0.117847,-0.853709,0.999998,0.000158,-0.000964,0.005181,-0.000190,0.005187,-0.000969,-88.234928,0.005515,
1400,1050,-1.504573,-7.064823,0.999928,0.000000,-0.007780,0.020902,-0.002710,0.021156,-0.008034,-84.649157,0.021359,
1380,450,-0.293535,-12.832241,0.999997,0.000218,-0.002380,0.005859,0.000666,0.005913,-0.002434,85.410010,0.005944,
1350,1540,-0.242030,-2.611206,0.999997,0.000182,-0.002314,0.005605,-0.000830,0.005691,-0.002400,-84.081037,0.005714,
1570,1230,-1.636564,-5.786520,0.999995,0.000261,-0.004993,0.009248,0.000632,0.009276,-0.005021,87.465505,0.009286,
1370,280,-0.185427,-13.809107,0.999998,0.000164,-0.001391,0.005536,-0.000043,0.005536,-0.001391,-89.646403,0.005760,
1870,1810,-1.412461,-1.877040,0.999997,0.000229,-0.003689,0.007361,0.000136,0.007363,-0.003691,89.296263,0.007363,
1670,1370,-1.688940,-4.784504,0.999997,0.000239,-0.004483,0.008260,0.000178,0.008262,-0.004485,89.198641,0.008273,
630,660,2.293969,-10.191858,0.999997,0.000211,-0.003821,0.007612,0.000218,0.007616,-0.003825,88.908888,0.007616,
560,1180,3.064043,-6.620897,0.999995,0.000000,-0.002945,0.006323,0.000091,0.006324,-0.002946,89.439679,0.006329,
1890,370,-1.840145,-12.261397,0.999998,0.000197,-0.003750,0.007375,0.000051,0.007375,-0.003750,89.739802,0.007375,
1270,450,-0.069748,-12.948409,0.999998,0.000169,-0.001813,0.005272,0.000201,0.005278,-0.001819,88.372977,0.005362,
1410,1430,-0.437836,-3.449721,0.999996,0.000226,-0.003490,0.006521,-0.001678,0.006795,-0.003763,-80.735674,0.006808,
760,1920,0.464918,-0.703752,0.999997,0.000222,-0.001719,0.006592,-0.001589,0.006885,-0.002013,-79.534540,0.007080,
810,150,0.412155,-14.363900,0.999997,0.000208,-0.001787,0.006388,0.001192,0.006558,-0.001957,81.869721,0.006733,
870,180,0.398156,-14.217717,0.999997,0.000217,-0.001914,0.006152,0.000787,0.006228,-0.001990,84.478311,0.006362,
1770,980,-2.783723,-7.900576,0.999998,0.000170,-0.003290,0.007059,-0.000203,0.007063,-0.003294,-88.877463,0.007068,
1810,560,-1.964492,-11.016044,0.999997,0.000186,-0.003839,0.007672,0.000029,0.007672,-0.003839,89.855466,0.007672,
980,240,0.318256,-13.950304,0.999997,0.000203,-0.001677,0.005885,0.000288,0.005896,-0.001688,87.821887,0.006073,
630,1330,2.464085,-5.419829,0.999997,0.000217,-0.003754,0.007533,-0.000329,0.007543,-0.003764,-88.331313,0.007543,
1710,1430,-1.713397,-4.384106,0.999996,0.000236,-0.004233,0.007969,0.000048,0.007969,-0.004233,89.774003,0.007974,
670,1260,2.498362,-5.878694,0.999997,0.000228,-0.003814,0.007572,-0.000649,0.007609,-0.003850,-86.748720,0.007609,
690,940,2.746790,-8.186731,0.999997,0.000204,-0.003403,0.007272,0.000572,0.007302,-0.003434,86.941503,0.007307,
720,1380,1.976565,-4.857286,0.999997,0.000201,-0.004120,0.007904,-0.000312,0.007912,-0.004128,-88.515893,0.007914,
1680,810,-2.091112,-9.271398,0.999998,0.000191,-0.004184,0.008273,-0.000813,0.008326,-0.004237,-86.281532,0.008327,
1630,750,-1.683099,-9.872227,0.999995,0.000259,-0.004783,0.008613,-0.000384,0.008624,-0.004794,-88.358246,0.008642,
1650,1600,-1.132325,-2.911289,0.999998,0.000149,-0.003637,0.007487,-0.000284,0.007494,-0.003644,-88.540496,0.007495,
1180,1370,0.086660,-3.308317,0.999998,0.000185,-0.001925,0.003894,0.001345,0.004190,-0.002221,77.597163,0.004192,
680,1240,2.515736,-6.019173,0.999996,0.000228,-0.003770,0.007549,-0.000692,0.007591,-0.003812,-86.515302,0.007591,
880,1940,0.223762,-0.509063,0.999998,0.000184,-0.001240,0.005695,-0.000998,0.005836,-0.001381,-81.970853,0.006099,
840,1400,1.402856,-4.419423,0.999996,0.000254,-0.004624,0.008317,0.000188,0.008320,-0.004627,89.167543,0.008337,
1180,1710,0.081350,-1.615481,0.999998,0.000145,-0.001524,0.005333,0.000068,0.005333,-0.001524,89.430819,0.005494,
1500,1540,-0.680351,-2.978304,0.999997,0.000220,-0.003499,0.007021,-0.000866,0.007092,-0.003570,-85.325837,0.007092,
930,1590,0.739985,-2.710349,0.999997,0.000216,-0.003348,0.007069,0.000620,0.007106,-0.003384,86.608081,0.007109,
720,410,1.386098,-12.328327,0.999997,0.000225,-0.003692,0.007601,-0.000097,0.007602,-0.003693,-89.509308,0.007603,
1730,200,-0.766208,-13.936466,0.999996,0.000232,-0.002760,0.007291,-0.001066,0.007403,-0.002872,-84.014511,0.007464,
610,1760,1.505859,-2.196498,0.999996,0.000246,-0.003661,0.007445,-0.000021,0.007445,-0.003661,-89.892519,0.007445,
560,1190,3.048133,-6.557248,0.999997,0.000000,-0.003050,0.006546,-0.000007,0.006546,-0.003050,-89.955750,0.006551,
1670,1300,-1.882249,-5.369732,0.999998,0.000173,-0.004464,0.008397,0.000553,0.008421,-0.004488,87.542302,0.008427,
1870,1800,-1.445726,-1.950060,0.999996,0.000231,-0.003690,0.007381,0.000108,0.007382,-0.003691,89.440340,0.007382,
1710,1100,-2.559013,-7.018646,0.999997,0.000223,-0.003337,0.007568,0.000633,0.007604,-0.003373,86.687944,0.007621,
1360,1680,-0.223558,-1.836793,0.999998,0.000183,-0.001838,0.005687,-0.000249,0.005695,-0.001846,-88.108018,0.005811,
1100,1840,0.134353,-0.957512,0.999998,0.000159,-0.001064,0.005207,-0.000142,0.005210,-0.001068,-88.703479,0.005504,
1810,1420,-2.142443,-4.683835,0.999998,0.000181,-0.003891,0.007709,0.000157,0.007711,-0.003893,89.222236,0.007711,
680,1050,2.840343,-7.400112,0.999998,0.000155,-0.003249,0.007068,-0.000235,0.007073,-0.003254,-88.694418,0.007081,
1250,600,-0.033440,-12.212162,0.999998,0.000161,-0.001840,0.004501,0.000365,0.004522,-0.001861,86.716989,0.004545,
660,350,1.466197,-12.638709,0.999996,0.000234,-0.003714,0.007579,0.000016,0.007579,-0.003714,89.918679,0.007580,
1380,430,-0.284982,-12.948184,0.999998,0.000177,-0.002241,0.005809,0.000538,0.005845,-0.002277,86.193039,0.005892,
1880,370,-1.802013,-12.287140,0.999998,0.000196,-0.003730,0.007398,0.000053,0.007398,-0.003730,89.725829,0.007398,
1010,1150,1.398553,-6.128687,0.999995,0.000267,-0.005190,0.010751,0.000282,0.010756,-0.005195,88.986823,0.010758,
1210,390,0.037188,-13.274411,0.999998,0.000182,-0.001683,0.005326,-0.000149,0.005329,-0.001686,-88.783864,0.005448,
1570,1210,-1.710648,-5.969889,0.999996,0.000246,-0.004831,0.009176,0.000836,0.009225,-0.004881,86.596969,0.009231,
810,130,0.348178,-14.489525,0.999997,0.000216,-0.001601,0.006185,0.001279,0.006389,-0.001806,80.903956,0.006588,
980,450,0.567409,-12.625768,0.999996,0.000250,-0.002950,0.006631,-0.000620,0.006671,-0.002990,-86.315216,0.006683,
1310,1450,-0.151780,-3.015289,0.999998,0.000173,-0.002209,0.004925,-0.001103,0.005091,-0.002376,-81.407933,0.005095,
980,220,0.291001,-14.067376,0.999998,0.000172,-0.001564,0.005734,0.000354,0.005751,-0.001581,87.232358,0.005942,
1520,1750,-0.494066,-1.613523,0.999997,0.000229,-0.002369,0.006319,0.000042,0.006320,-0.002369,89.721001,0.006385,
1760,360,-1.336699,-12.668336,0.999997,0.000220,-0.003628,0.007549,0.000016,0.007549,-0.003628,89.916188,0.007551,
1510,520,-0.721813,-12.076897,0.999996,0.000214,-0.003571,0.007102,0.000816,0.007164,-0.003633,85.654225,0.007164,
1460,1380,-0.677397,-4.016670,0.999996,0.000225,-0.004596,0.007762,-0.001655,0.007979,-0.004813,-82.504474,0.008036,
1270,650,-0.064648,-11.982121,0.999998,0.000183,-0.001858,0.004131,0.000768,0.004228,-0.001955,82.810489,0.004232,
1400,1040,-1.498904,-7.271231,0.999920,0.000000,-0.007844,0.021453,-0.001437,0.021523,-0.007914,-87.198149,0.021773,
1160,1300,0.130160,-3.644228,0.999997,0.000206,-0.002521,0.003710,0.002527,0.004606,-0.003417,70.477346,0.004782,
1880,1930,-0.913787,-1.000001,0.999997,0.000216,-0.003578,0.008080,0.001133,0.008189,-0.003687,84.501326,0.008203,
720,1490,1.712303,-3.987233,0.999995,0.000264,-0.004011,0.007770,0.000060,0.007771,-0.004011,89.709593,0.007772,
760,1900,0.536130,-0.836324,0.999997,0.000204,-0.002047,0.006837,-0.001467,0.007073,-0.002283,-80.861478,0.007219,
1060,1820,0.192910,-1.082145,0.999998,0.000172,-0.001394,0.005472,-0.000134,0.005475,-0.001397,-88.883848,0.005689,
1110,40,0.012284,-15.024077,0.999998,0.000185,-0.000080,0.004517,0.000233,0.004529,-0.000092,87.110314,0.005178,
930,1570,0.762665,-2.854528,0.999997,0.000201,-0.003422,0.007070,0.000659,0.007111,-0.003463,86.421933,0.007112,
1670,1390,-1.638892,-4.619900,0.999996,0.000240,-0.004448,0.008234,0.000098,0.008235,-0.004449,89.557478,0.008244,
770,740,1.940319,-9.832567,0.999996,0.000236,-0.004347,0.008224,0.000537,0.008247,-0.004370,87.558186,0.008252,
1410,1410,-0.444621,-3.577205,0.999996,0.000226,-0.003678,0.006693,-0.001846,0.007012,-0.003997,-80.200019,0.007035,
1630,730,-1.624312,-10.045153,0.999996,0.000252,-0.004784,0.008554,-0.000272,0.008560,-0.004790,-88.830660,0.008580,
810,220,0.625864,-13.900587,0.999998,0.000197,-0.002516,0.006762,0.000781,0.006827,-0.002581,85.219396,0.006895,
1180,1350,0.084340,-3.385003,0.999998,0.000189,-0.001916,0.003663,0.001494,0.004038,-0.002291,75.914742,0.004050,
720,1820,0.930618,-1.466661,0.999997,0.000210,-0.003259,0.007477,-0.000615,0.007512,-0.003294,-86.731175,0.007531,
880,1960,0.171760,-0.395902,0.999998,0.000162,-0.001031,0.005464,-0.000976,0.005607,-0.001174,-81.638463,0.005915,
1830,660,-2.281284,-10.200145,0.999997,0.000209,-0.003827,0.007608,-0.000202,0.007612,-0.003830,-88.990727,0.007612,
1100,1630,0.247602,-2.120942,0.999998,0.000175,-0.002036,0.005662,0.000416,0.005685,-0.002059,86.914989,0.005756,
590,910,3.031954,-8.318551,0.999998,0.000162,-0.003210,0.006610,0.000233,0.006615,-0.003215,88.643892,0.006616,
1350,280,-0.157464,-13.821880,0.999998,0.000153,-0.001459,0.005463,0.000040,0.005463,-0.001459,89.669581,0.005657,
1330,1540,-0.196994,-2.580004,0.999997,0.000189,-0.002211,0.005432,-0.000732,0.005502,-0.002280,-84.579830,0.005529,
720,810,2.344398,-9.192498,0.999997,0.000232,-0.003952,0.007812,0.000758,0.007861,-0.004001,86.326798,0.007861,
630,1310,2.514880,-5.571949,0.999997,0.000207,-0.003739,0.007437,-0.000384,0.007450,-0.003752,-88.036178,0.007450,
1710,200,-0.716500,-13.961134,0.999997,0.000193,-0.002546,0.007130,-0.001123,0.007258,-0.002675,-83.463969,0.007342,
1100,1820,0.145859,-1.061495,0.999998,0.000165,-0.001175,0.005321,-0.000122,0.005323,-0.001177,-88.926034,0.005593,
1360,1660,-0.232881,-1.949423,0.999998,0.000175,-0.001921,0.005590,-0.000312,0.005603,-0.001934,-87.624935,0.005692,
1630,1840,-0.562352,-1.163034,0.999997,0.000226,-0.002063,0.006596,0.000860,0.006680,-0.002147,84.383697,0.006821,
1240,1710,-0.013108,-1.601885,0.999998,0.000167,-0.001587,0.005290,-0.000069,0.005290,-0.001587,-89.424639,0.005429,
560,1410,2.581792,-4.955384,0.999326,0.000000,-0.006749,0.007734,-0.001210,0.007834,-0.006849,-85.255883,0.008535,
1450,1740,-0.355066,-1.585455,0.999997,0.000199,-0.001921,0.006016,-0.000033,0.006016,-0.001922,-89.764038,0.006145,
1710,1410,-1.761014,-4.546018,0.999997,0.000226,-0.004239,0.008049,0.000129,0.008050,-0.004240,89.400825,0.008054,
680,480,1.684324,-11.698859,0.999997,0.000202,-0.003830,0.007668,-0.000133,0.007670,-0.003832,-89.339610,0.007670,
1240,410,-0.014427,-13.175041,0.999998,0.000170,-0.001774,0.005280,0.000091,0.005281,-0.001775,89.262725,0.005375,
1870,370,-1.764455,-12.314282,0.999998,0.000190,-0.003703,0.007419,0.000068,0.007420,-0.003703,89.648469,0.007420,
1210,370,0.035859,-13.381425,0.999998,0.000170,-0.001632,0.005322,-0.000128,0.005324,-0.001635,-88.946731,0.005455,
1230,540,0.003071,-12.505113,0.999998,0.000157,-0.001900,0.004937,-0.000037,0.004937,-0.001900,-89.689183,0.004980,
1010,1130,1.516771,-6.353112,0.999993,0.000300,-0.004797,0.010902,0.000288,0.010908,-0.004802,88.949807,0.010934,
980,200,0.259560,-14.180360,0.999998,0.000177,-0.001393,0.005661,0.000444,0.005689,-0.001421,86.409945,0.005922,
650,1260,2.573989,-5.909496,0.999997,0.000216,-0.003717,0.007459,-0.000566,0.007488,-0.003746,-87.110286,0.007488,
920,1010,2.122937,-7.709369,0.999998,0.000198,-0.002664,0.008581,0.000321,0.008590,-0.002673,88.365519,0.008792,
700,1330,2.190452,-5.289255,0.999997,0.000214,-0.004027,0.007826,-0.000497,0.007847,-0.004048,-87.603274,0.007848,
1410,970,-1.516890,-8.600405,0.999985,0.000479,-0.006048,0.015608,0.004201,0.016395,-0.006835,79.398070,0.016470,
1800,860,-2.688321,-8.750108,0.999997,0.000218,-0.003586,0.007316,-0.000657,0.007355,-0.003625,-86.561195,0.007356,
580,1190,2.985957,-6.519324,0.999997,0.000212,-0.003155,0.006709,-0.000143,0.006711,-0.003157,-89.170335,0.006715,
720,1130,2.619599,-6.808837,0.999997,0.000194,-0.003431,0.007386,-0.000593,0.007418,-0.003463,-86.869007,0.007424,
1840,1260,-2.674194,-5.953812,0.999997,0.000202,-0.003614,0.007299,0.000424,0.007316,-0.003630,87.776971,0.007316,
1260,420,-0.048449,-13.112589,0.999998,0.000179,-0.001768,0.005286,0.000204,0.005291,-0.001774,88.345168,0.005386,
1630,710,-1.572171,-10.216325,0.999996,0.000282,-0.004749,0.008524,-0.000136,0.008525,-0.004751,-89.412964,0.008544,
810,200,0.566455,-14.034441,0.999997,0.000211,-0.002335,0.006703,0.000912,0.006794,-0.002426,84.293605,0.006886,
1480,2020,-0.019176,-0.073054,0.999998,0.000000,-0.000091,0.004783,0.000587,0.004853,-0.000161,83.225634,0.005513,
1830,640,-2.230390,-10.353344,0.999997,0.000217,-0.003822,0.007682,-0.000138,0.007684,-0.003824,-89.314460,0.007684,
840,1380,1.449193,-4.586450,0.999995,0.000274,-0.004671,0.008405,0.000083,0.008405,-0.004672,89.634322,0.008423,
1410,1390,-0.453444,-3.714229,0.999996,0.000221,-0.003893,0.006810,-0.002019,0.007178,-0.004261,-79.663800,0.007220,
720,1800,0.988740,-1.617671,0.999997,0.000216,-0.003351,0.007505,-0.000491,0.007527,-0.003373,-87.415226,0.007541,
660,1050,2.906149,-7.402497,0.999998,0.000171,-0.003257,0.006979,-0.000235,0.006985,-0.003262,-88.686403,0.006990,
1880,740,-2.673532,-9.490611,0.999997,0.000236,-0.003635,0.007346,-0.000171,0.007349,-0.003638,-89.105884,0.007349,
880,1980,0.128723,-0.290515,0.999998,0.000165,-0.000785,0.005373,-0.001046,0.005546,-0.000958,-80.620327,0.005928,
1500,1520,-0.700914,-3.120432,0.999997,0.000217,-0.003605,0.007105,-0.000926,0.007185,-0.003684,-85.092056,0.007185,
1620,90,-0.197424,-14.737242,0.999998,0.000185,-0.000765,0.005629,-0.001251,0.005865,-0.001001,-79.315960,0.006275,
750,80,0.252908,-14.765106,0.999997,0.000190,-0.000939,0.005960,0.001827,0.006414,-0.001393,76.050047,0.006747,
1870,1930,-0.878420,-0.963537,0.999997,0.000212,-0.003566,0.008038,0.001101,0.008142,-0.003669,84.626976,0.008155,
1790,1420,-2.063295,-4.640199,0.999996,0.000244,-0.003936,0.007764,0.000170,0.007767,-0.003939,89.166820,0.007767,
1460,1360,-0.699199,-4.176184,0.999996,0.000236,-0.004796,0.008036,-0.001679,0.008252,-0.005013,-82.666991,0.008315,
1460,2000,-0.041261,-0.168566,0.999998,0.000174,-0.000128,0.004794,0.000546,0.004853,-0.000188,83.744908,0.005499,
1310,1430,-0.150710,-3.113334,0.999998,0.000187,-0.002216,0.004836,-0.001238,0.005047,-0.002427,-80.323448,0.005049,
630,1290,2.568841,-5.717529,0.999996,0.000240,-0.003718,0.007401,-0.000427,0.007417,-0.003734,-87.803572,0.007417,
1570,1190,-1.789276,-6.153411,0.999997,0.000227,-0.004621,0.009136,0.000963,0.009203,-0.004688,86.014155,0.009204,
1160,1370,0.125726,-3.365030,0.999998,0.000168,-0.002199,0.004317,0.001674,0.004722,-0.002604,76.403270,0.004730,
1510,50,-0.048491,-14.969486,0.999998,0.000162,-0.000339,0.004889,-0.000671,0.004973,-0.000424,-82.804621,0.005514,
980,570,0.670554,-11.798593,0.999997,0.000208,-0.003765,0.007200,-0.001162,0.007322,-0.003887,-84.018772,0.007326,
720,1510,1.668547,-3.830249,0.999998,0.000205,-0.003995,0.007780,0.000105,0.007781,-0.003996,89.490785,0.007782,
1120,1710,0.178884,-1.651265,0.999998,0.000182,-0.001775,0.005521,0.000248,0.005530,-0.001784,88.056868,0.005645,
1760,340,-1.285238,-12.819588,0.999997,0.000203,-0.003619,0.007552,-0.000034,0.007552,-0.003619,-89.828049,0.007554,
1100,1800,0.161211,-1.170270,0.999998,0.000154,-0.001277,0.005361,-0.000066,0.005362,-0.001277,-89.431716,0.005601,
1730,140,-0.529977,-14.365299,0.999997,0.000201,-0.002113,0.006889,-0.001585,0.007160,-0.002383,-80.300856,0.007292,
940,250,0.414888,-13.847008,0.999997,0.000204,-0.001984,0.006123,0.000339,0.006137,-0.001998,87.610763,0.006261,
1860,1790,-1.441363,-1.995671,0.999997,0.000209,-0.003669,0.007428,0.000104,0.007429,-0.003670,89.465425,0.007429,
760,1880,0.614320,-0.975634,0.999996,0.000215,-0.002283,0.006884,-0.001293,0.007062,-0.002462,-82.125352,0.007169,
930,1550,0.785643,-2.994003,0.999997,0.000211,-0.003505,0.007150,0.000682,0.007194,-0.003548,86.351993,0.007194,
1090,1560,0.293373,-2.541259,0.999998,0.000167,-0.002533,0.005867,0.000902,0.005962,-0.002629,83.937840,0.005976,
1110,280,0.162804,-13.819747,0.999998,0.000186,-0.001432,0.005428,0.000013,0.005428,-0.001432,89.890467,0.005626,
560,1400,2.618856,-5.069120,0.999550,0.000000,-0.006902,0.008161,-0.000299,0.008167,-0.006908,-88.861871,0.008794,
1360,1640,-0.237708,-2.059718,0.999998,0.000178,-0.001991,0.005613,-0.000395,0.005634,-0.002011,-87.035142,0.005710,
780,810,2.101464,-9.270064,0.999998,0.000182,-0.004207,0.008230,0.000830,0.008285,-0.004262,86.200561,0.008286,
1710,1390,-1.811110,-4.709282,0.999997,0.000249,-0.004246,0.008069,0.000213,0.008073,-0.004249,89.010129,0.008077,
720,610,1.815283,-10.779128,0.999997,0.000204,-0.004058,0.007856,0.000059,0.007856,-0.004058,89.714156,0.007858,
970,1390,0.813859,-4.076436,0.999997,0.000224,-0.004637,0.008021,0.001276,0.008148,-0.004765,84.298814,0.008187,
1080,410,0.281068,-13.061780,0.999998,0.000187,-0.002159,0.005765,-0.000445,0.005790,-0.002184,-86.796971,0.005848,
770,720,1.884434,-9.999740,0.999996,0.000237,-0.004364,0.008208,0.000445,0.008224,-0.004380,87.977631,0.008230,
1670,1830,-0.687463,-1.278172,0.999997,0.000198,-0.002837,0.006920,0.000684,0.006967,-0.002884,86.008347,0.007002,
1630,690,-1.519029,-10.388381,0.999995,0.000273,-0.004697,0.008481,-0.000039,0.008482,-0.004698,-89.829211,0.008498,
1260,1840,-0.028967,-0.929964,0.999998,0.000177,-0.000980,0.005025,-0.000002,0.005025,-0.000980,-89.982259,0.005327,
980,1670,0.501959,-2.065775,0.999997,0.000191,-0.002679,0.006430,0.000375,0.006445,-0.002695,87.648229,0.006474,
1580,250,-0.529678,-13.786962,0.999997,0.000202,-0.002395,0.006454,-0.000418,0.006474,-0.002415,-87.301061,0.006543,
1790,1050,-2.864549,-7.399699,0.999998,0.000190,-0.003253,0.007051,0.000222,0.007056,-0.003258,88.764932,0.007063,
890,490,0.907551,-12.135046,0.999997,0.000200,-0.003647,0.007360,-0.000558,0.007388,-0.003676,-87.107932,0.007388,
680,1220,2.565689,-6.166196,0.999996,0.000232,-0.003682,0.007420,-0.000663,0.007460,-0.003722,-86.592260,0.007460,
1180,1630,0.091623,-2.043603,0.999998,0.000150,-0.001759,0.005296,0.000162,0.005299,-0.001763,88.688967,0.005397,
720,1780,1.053607,-1.769198,0.999997,0.000201,-0.003410,0.007493,-0.000369,0.007505,-0.003422,-88.065781,0.007515,
1890,750,-2.736316,-9.393235,0.999997,0.000226,-0.003635,0.007370,-0.000163,0.007372,-0.003637,-89.154055,0.007372,
600,420,1.856820,-11.956293,0.999997,0.000204,-0.003708,0.007495,-0.000106,0.007496,-0.003709,-89.455704,0.007496,
630,1270,2.620383,-5.867332,0.999996,0.000244,-0.003682,0.007402,-0.000462,0.007421,-0.003702,-87.619832,0.007421,
1290,680,-0.100543,-11.810976,0.999998,0.000187,-0.002042,0.004084,0.001460,0.004414,-0.002373,77.256282,0.004418,
650,1820,1.169860,-1.628370,0.999998,0.000200,-0.003469,0.007647,-0.000523,0.007672,-0.003493,-87.312752,0.007682,
1490,30,-0.015466,-15.069183,0.999998,0.000000,-0.000232,0.004814,-0.000645,0.004895,-0.000313,-82.827278,0.005481,
1630,260,-0.678426,-13.652947,0.999997,0.000195,-0.002460,0.006791,-0.000569,0.006826,-0.002495,-86.494333,0.006908,
1100,1780,0.171467,-1.277674,0.999998,0.000164,-0.001380,0.005511,-0.000027,0.005511,-0.001380,-89.772345,0.005735,
980,390,0.507851,-13.020204,0.999997,0.000219,-0.002728,0.006421,-0.000389,0.006437,-0.002744,-87.567582,0.006461,
1310,1630,-0.139639,-2.058798,0.999998,0.000185,-0.001929,0.005419,-0.000347,0.005436,-0.001945,-87.299872,0.005509,
1760,320,-1.237413,-12.971025,0.999997,0.000199,-0.003624,0.007526,-0.000062,0.007526,-0.003624,-89.680686,0.007528,
1410,1370,-0.468019,-3.851782,0.999995,0.000257,-0.004121,0.006973,-0.002158,0.007378,-0.004526,-79.371944,0.007441,
1770,1360,-2.136900,-5.068543,0.999998,0.000183,-0.004041,0.007783,0.000389,0.007795,-0.004054,88.116784,0.007797,
1460,1340,-0.728206,-4.338308,0.999996,0.000251,-0.005012,0.008232,-0.001690,0.008444,-0.005224,-82.843286,0.008523,
760,1860,0.680791,-1.113749,0.999996,0.000222,-0.002507,0.007056,-0.001114,0.007184,-0.002635,-83.441108,0.007269,
1610,1660,-0.889348,-2.379144,0.999998,0.000201,-0.003209,0.007140,-0.000156,0.007142,-0.003212,-89.135799,0.007155,
930,1530,0.808973,-3.136713,0.999997,0.000208,-0.003629,0.007291,0.000752,0.007342,-0.003681,86.080624,0.007342,
1090,280,0.188266,-13.808661,0.999998,0.000171,-0.001390,0.005496,0.000070,0.005496,-0.001391,89.421058,0.005715,
840,1360,1.498216,-4.757044,0.999995,0.000290,-0.004727,0.008514,-0.000032,0.008514,-0.004727,-89.860059,0.008531,
560,1390,2.670323,-5.112296,0.999601,0.000000,-0.006591,0.007902,0.000594,0.007926,-0.006615,87.655611,0.008497,
980,180,0.228515,-14.293661,0.999997,0.000180,-0.001260,0.005581,0.000472,0.005613,-0.001292,86.073802,0.005879,
900,1010,2.174183,-7.706926,0.999999,0.000173,-0.002722,0.008300,0.000312,0.008309,-0.002731,88.381850,0.008470,
1400,1530,-0.373198,-2.784287,0.999998,0.000179,-0.002735,0.006101,-0.000970,0.006206,-0.002840,-83.808902,0.006213,
1010,1110,1.626930,-6.572155,0.999994,0.000285,-0.004492,0.011370,0.000383,0.011379,-0.004501,88.618717,0.011462,
1210,350,0.034605,-13.488834,0.999998,0.000180,-0.001590,0.005292,-0.000122,0.005294,-0.001592,-88.988759,0.005432,
700,610,1.896320,-10.734508,0.999997,0.000203,-0.004012,0.007802,0.000070,0.007803,-0.004013,89.659637,0.007804,
1060,1800,0.211760,-1.191727,0.999998,0.000168,-0.001514,0.005497,-0.000061,0.005498,-0.001515,-89.497771,0.005679,
1060,410,0.329025,-13.027558,0.999997,0.000211,-0.002405,0.005943,-0.000557,0.005980,-0.002442,-86.202732,0.006014,
990,2010,0.031282,-0.120640,0.999998,0.000139,-0.000102,0.004845,-0.000589,0.004915,-0.000171,-83.304866,0.005579,
810,110,0.284074,-14.611990,0.999998,0.000193,-0.001330,0.006035,0.001401,0.006293,-0.001587,79.587564,0.006545,
720,1450,1.803670,-4.300013,0.999997,0.000176,-0.004063,0.007892,-0.000054,0.007892,-0.004063,-89.742438,0.007893,
720,1760,1.108127,-1.918210,0.999997,0.000230,-0.003464,0.007485,-0.000247,0.007490,-0.003470,-88.709365,0.007497,
1260,1800,-0.035637,-1.134607,0.999998,0.000173,-0.001162,0.005151,-0.000049,0.005151,-0.001162,-89.554016,0.005403,
1740,1970,-0.303524,-0.397857,0.999997,0.000189,-0.001737,0.006233,0.001818,0.006628,-0.002133,77.737531,0.006767,
1630,670,-1.470307,-10.556473,0.999995,0.000262,-0.004615,0.008352,0.000072,0.008352,-0.004615,89.680455,0.008367,
790,1260,2.015082,-5.712668,0.999998,0.000198,-0.004348,0.008381,-0.000770,0.008427,-0.004394,-86.551466,0.008430,
1670,1800,-0.772259,-1.490800,0.999997,0.000211,-0.002997,0.007064,0.000496,0.007089,-0.003022,87.182818,0.007114,
890,470,0.879274,-12.281967,0.999997,0.000208,-0.003501,0.007268,-0.000481,0.007290,-0.003522,-87.446184,0.007291,
960,1670,0.557476,-2.105983,0.999998,0.000193,-0.002762,0.006552,0.000337,0.006564,-0.002774,87.929225,0.006590,
1660,1290,-1.866708,-5.436807,0.999997,0.000212,-0.004507,0.008490,0.000585,0.008517,-0.004533,87.426694,0.008523,
880,370,0.762868,-12.970214,0.999997,0.000197,-0.003119,0.006916,-0.000171,0.006919,-0.003122,-89.024512,0.006930,
1610,320,-0.752900,-13.271034,0.999998,0.000206,-0.002838,0.006939,-0.000132,0.006941,-0.002839,-89.224809,0.006979,
700,790,2.370405,-9.322039,0.999996,0.000225,-0.003931,0.007708,0.000665,0.007746,-0.003969,86.740862,0.007747,
1710,1370,-1.863645,-4.869593,0.999998,0.000222,-0.004263,0.008065,0.000322,0.008073,-0.004271,88.505812,0.008078,
1360,1620,-0.244023,-2.173098,0.999998,0.000200,-0.002059,0.005681,-0.000445,0.005707,-0.002085,-86.718256,0.005776,
1870,840,-2.885798,-8.797265,0.999998,0.000159,-0.003413,0.006981,-0.000298,0.006990,-0.003422,-88.360139,0.006990,
1620,110,-0.249451,-14.625153,0.999998,0.000166,-0.001009,0.005839,-0.001250,0.006060,-0.001230,-79.969980,0.006407,
1500,1500,-0.720737,-3.264653,0.999997,0.000217,-0.003708,0.007245,-0.001001,0.007335,-0.003799,-84.820951,0.007337,
1550,1800,-0.475132,-1.330552,0.999997,0.000222,-0.001934,0.006319,0.000428,0.006341,-0.001957,87.038279,0.006494,
630,1250,2.674639,-6.015200,0.999997,0.000219,-0.003600,0.007221,-0.000465,0.007241,-0.003620,-87.542530,0.007241,
1490,2020,-0.022147,-0.073519,0.999998,0.000000,-0.000166,0.004797,0.000590,0.004866,-0.000235,83.316131,0.005488,
560,1380,2.624850,-5.201217,0.999685,0.000000,-0.006548,0.007920,0.000746,0.007959,-0.006587,87.058099,0.008509,
880,1390,1.238440,-4.390166,0.999997,0.000187,-0.004709,0.008423,0.000413,0.008436,-0.004722,88.198994,0.008456,
1680,1670,-1.105195,-2.455228,0.999998,0.000157,-0.003437,0.007390,-0.000070,0.007391,-0.003437,-89.630599,0.007397,
750,60,0.172565,-14.882081,0.999997,0.000187,-0.000563,0.005822,0.001861,0.006325,-0.001066,74.879586,0.006773,
1100,1760,0.187086,-1.391512,0.999998,0.000171,-0.001492,0.005521,0.000029,0.005521,-0.001492,89.765180,0.005712,
1410,1350,-0.483444,-3.997923,0.999995,0.000246,-0.004325,0.007194,-0.002278,0.007628,-0.004759,-79.209365,0.007705,
570,1010,3.187533,-7.670889,0.999975,0.000642,-0.002542,0.006175,0.000193,0.006179,-0.002546,88.735270,0.006211,
760,1840,0.749806,-1.258782,0.999997,0.000202,-0.002668,0.007113,-0.000940,0.007203,-0.002757,-84.558900,0.007268,
1810,380,-1.564259,-12.393086,0.999997,0.000227,-0.003742,0.007595,0.000063,0.007596,-0.003742,89.681903,0.007596,
1670,1810,-0.744469,-1.421672,0.999997,0.000198,-0.002945,0.007061,0.000566,0.007093,-0.002977,86.770166,0.007124,
980,140,0.168772,-14.513465,0.999998,0.000167,-0.000949,0.005352,0.000554,0.005401,-0.000998,85.012402,0.005748,
930,1510,0.830276,-3.284378,0.999997,0.000220,-0.003813,0.007457,0.000833,0.007518,-0.003875,85.793387,0.007519,
1310,1410,-0.145695,-3.206996,0.999998,0.000169,-0.002238,0.004765,-0.001399,0.005034,-0.002507,-79.106982,0.005034,
1460,1320,-0.765403,-4.507638,0.999995,0.000252,-0.005256,0.008560,-0.001679,0.008762,-0.005457,-83.167997,0.008849,
1160,650,0.133583,-11.907634,0.999998,0.000175,-0.002142,0.004563,-0.001337,0.004819,-0.002399,-79.130563,0.004819,
980,550,0.653412,-11.942782,0.999997,0.000203,-0.003662,0.007053,-0.001063,0.007157,-0.003766,-84.389723,0.007160,
1760,300,-1.184044,-13.122209,0.999997,0.000205,-0.003613,0.007501,-0.000164,0.007504,-0.003615,-89.153672,0.007505,
720,1740,1.163008,-2.067961,0.999997,0.000208,-0.003530,0.007484,-0.000136,0.007486,-0.003532,-89.291781,0.007490,
970,1760,0.418065,-1.513852,0.999998,0.000204,-0.002231,0.006142,-0.000041,0.006142,-0.002231,-89.716147,0.006218,
1570,1170,-1.864814,-6.334075,0.999996,0.000238,-0.004360,0.009064,0.001094,0.009153,-0.004449,85.371321,0.009154,
600,490,2.009919,-11.426623,0.999997,0.000193,-0.003758,0.007614,-0.000049,0.007615,-0.003758,-89.751148,0.007615,
770,1260,2.100735,-5.742090,0.999996,0.000239,-0.004230,0.008213,-0.000771,0.008261,-0.004277,-86.469071,0.008262,
1890,950,-3.146073,-8.038818,0.999998,0.000182,-0.003106,0.006236,-0.000043,0.006236,-0.003107,-89.736655,0.006236,
1380,570,-0.329125,-12.117351,0.999997,0.000193,-0.002785,0.005926,0.001269,0.006107,-0.002966,81.878590,0.006107,
1380,1530,-0.320312,-2.738459,0.999998,0.000175,-0.002669,0.005910,-0.001082,0.006044,-0.002803,-82.919285,0.006049,
1010,1090,1.722485,-6.809390,0.999993,0.000337,-0.004321,0.011667,0.000405,0.011678,-0.004331,88.548959,0.011807,
1060,1780,0.229682,-1.302859,0.999998,0.000173,-0.001614,0.005639,-0.000027,0.005639,-0.001614,-89.789013,0.005809,
1210,330,0.033454,-13.593150,0.999998,0.000157,-0.001515,0.005281,-0.000090,0.005282,-0.001517,-89.244085,0.005439,
1590,320,-0.695597,-13.304201,0.999996,0.000249,-0.002883,0.006884,-0.000075,0.006885,-0.002883,-89.561391,0.006915,
1170,280,0.077098,-13.849250,0.999999,0.000157,-0.001212,0.005266,0.000039,0.005266,-0.001212,89.656315,0.005516,
1260,1260,-0.058394,-3.551416,0.999997,0.000207,-0.002283,0.001823,-0.001219,0.002158,-0.002618,-74.655147,0.002795,
860,370,0.825043,-12.929479,0.999998,0.000180,-0.003069,0.006966,-0.000086,0.006967,-0.003070,-89.510061,0.006983,
700,1450,1.884811,-4.345864,0.999998,0.000166,-0.003982,0.007828,-0.000037,0.007829,-0.003982,-89.818176,0.007829,
1630,650,-1.424819,-10.723857,0.999995,0.000260,-0.004553,0.008296,0.000150,0.008297,-0.004555,89.330045,0.008311,
960,1650,0.579437,-2.236340,0.999998,0.000200,-0.002816,0.006588,0.000412,0.006606,-0.002834,87.494030,0.006628,
1840,1950,-0.650318,-0.691945,0.999996,0.000245,-0.003554,0.007963,0.001405,0.008132,-0.003722,83.143735,0.008142,
890,450,0.852937,-12.425590,0.999998,0.000203,-0.003362,0.007157,-0.000411,0.007173,-0.003378,-87.766946,0.007178,
1160,1630,0.127764,-2.052878,0.999998,0.000159,-0.001876,0.005389,0.000291,0.005400,-0.001887,87.711769,0.005481,
760,930,2.491412,-8.293462,0.999996,0.000241,-0.003439,0.007581,0.000675,0.007622,-0.003480,86.505615,0.007632,
680,1180,2.662132,-6.464803,0.999996,0.000235,-0.003604,0.007412,-0.000702,0.007456,-0.003649,-86.366737,0.007457,
560,1370,2.635753,-5.287893,0.999657,0.000000,-0.006218,0.008181,0.000537,0.008201,-0.006238,87.865211,0.008564,
640,730,2.437898,-9.682094,0.999996,0.000221,-0.003781,0.007530,0.000380,0.007543,-0.003793,88.079295,0.007543,
1500,1480,-0.738602,-3.411020,0.999997,0.000217,-0.003847,0.007375,-0.001043,0.007471,-0.003943,-84.734663,0.007474,
1750,240,-0.971398,-13.599867,0.999997,0.000203,-0.003407,0.007497,-0.000514,0.007521,-0.003431,-87.308870,0.007531,
630,1230,2.722544,-6.157029,0.999997,0.000194,-0.003533,0.007100,-0.000482,0.007122,-0.003555,-87.407284,0.007122,
1560,1670,-0.715342,-2.206775,0.999997,0.000205,-0.003034,0.006897,-0.000208,0.006902,-0.003039,-88.802967,0.006918,
1380,1330,-0.369595,-3.960443,0.999995,0.000266,-0.004120,0.006565,-0.002690,0.007203,-0.004759,-76.638668,0.007326,
680,1330,2.270045,-5.324410,0.999997,0.000225,-0.003953,0.007743,-0.000486,0.007763,-0.003973,-87.623784,0.007763,
1640,970,-2.356089,-8.005075,0.999997,0.000204,-0.003151,0.007832,-0.000664,0.007872,-0.003191,-86.555013,0.007919,
720,1720,1.211842,-2.221115,0.999998,0.000177,-0.003593,0.007523,-0.000040,0.007523,-0.003593,-89.793843,0.007526,
980,120,0.138812,-14.620174,0.999998,0.000191,-0.000799,0.005277,0.000610,0.005338,-0.000860,84.326952,0.005732,
970,1880,0.237128,-0.805967,0.999998,0.000179,-0.001363,0.005564,-0.000482,0.005597,-0.001396,-86.037638,0.005827,
810,90,0.220248,-14.732146,0.999998,0.000173,-0.001072,0.005846,0.001428,0.006129,-0.001355,78.785579,0.006439,
1380,550,-0.324895,-12.233649,0.999997,0.000198,-0.002719,0.005895,0.001178,0.006054,-0.002877,82.350809,0.006056,
880,90,0.161347,-14.749641,0.999998,0.000192,-0.000966,0.005388,0.001016,0.005547,-0.001125,81.131663,0.005864,
1260,1240,-0.084325,-3.583978,0.999997,0.000210,-0.002979,0.001845,-0.000974,0.002034,-0.003168,-79.009086,0.003210,
1630,630,-1.379035,-10.888794,0.999996,0.000243,-0.004468,0.008130,0.000228,0.008134,-0.004472,88.963594,0.008148,
1710,1350,-1.917423,-5.031228,0.999997,0.000247,-0.004279,0.008102,0.000395,0.008114,-0.004291,88.172405,0.008119,
1100,1740,0.195971,-1.498773,0.999998,0.000187,-0.001613,0.005576,0.000093,0.005577,-0.001614,89.258438,0.005739,
1870,1160,-2.997505,-6.697960,0.999997,0.000193,-0.003219,0.006584,0.000177,0.006587,-0.003222,88.967482,0.006588,
1410,1330,-0.498161,-4.139064,0.999996,0.000223,-0.004589,0.007466,-0.002383,0.007920,-0.005044,-79.212607,0.008018,
630,1210,2.769314,-6.299999,0.999997,0.000214,-0.003532,0.007163,-0.000531,0.007189,-0.003559,-87.162977,0.007189,
1840,1240,-2.723601,-6.096523,0.999997,0.000189,-0.003554,0.007096,0.000431,0.007113,-0.003571,87.688352,0.007113,
1450,700,-0.659473,-10.951826,0.999997,0.000256,-0.004777,0.007897,0.001805,0.008149,-0.005029,82.052334,0.008223,
890,430,0.825130,-12.566243,0.999997,0.000202,-0.003283,0.007086,-0.000341,0.007097,-0.003294,-88.116526,0.007103,
1310,1370,-0.141031,-3.385793,0.999997,0.000198,-0.002343,0.004477,-0.001808,0.004927,-0.002792,-76.036280,0.004941,
930,1680,0.627303,-2.092249,0.999996,0.000236,-0.002618,0.006605,0.000142,0.006607,-0.002620,89.118631,0.006654,
600,530,2.097837,-11.120571,0.999997,0.000186,-0.003760,0.007626,-0.000028,0.007627,-0.003760,-89.859170,0.007627,
840,1340,1.551711,-4.929131,0.999996,0.000262,-0.004777,0.008564,-0.000154,0.008565,-0.004779,-89.338739,0.008584,
1570,2010,-0.052138,-0.129444,0.999998,0.000152,-0.000324,0.005065,0.000959,0.005230,-0.000490,80.203386,0.005778,
1160,1280,0.141324,-3.718394,0.999997,0.000203,-0.002724,0.003561,0.002713,0.004571,-0.003733,69.595897,0.004867,
930,1710,0.581881,-1.894708,0.999998,0.000191,-0.002397,0.006603,-0.000002,0.006603,-0.002397,-89.986904,0.006686,
1360,1600,-0.250434,-2.285372,0.999997,0.000199,-0.002111,0.005700,-0.000534,0.005737,-0.002147,-86.106488,0.005797,
1360,1350,-0.286992,-3.722544,0.999997,0.000234,-0.003455,0.005846,-0.002517,0.006484,-0.004092,-75.789753,0.006558,
1670,1790,-0.799602,-1.561411,0.999997,0.000199,-0.003060,0.007093,0.000431,0.007111,-0.003078,87.571015,0.007132,
1570,1150,-1.944040,-6.518526,0.999997,0.000208,-0.004040,0.008928,0.001102,0.009021,-0.004133,85.178944,0.009031,
1440,1670,-0.399105,-1.999641,0.999998,0.000195,-0.002246,0.006135,-0.000313,0.006146,-0.002257,-87.865504,0.006218,
1240,1890,-0.006764,-0.677829,0.999999,0.000121,-0.000749,0.004919,0.000005,0.004919,-0.000749,89.947934,0.005301,
590,1560,2.058652,-3.755637,0.999998,0.000171,-0.003743,0.007573,0.000053,0.007573,-0.003743,89.732360,0.007573,
760,1820,0.810798,-1.399329,0.999998,0.000184,-0.002830,0.007257,-0.000777,0.007316,-0.002889,-85.620593,0.007370,
840,410,0.956643,-12.605842,0.999997,0.000212,-0.003388,0.007294,-0.000209,0.007298,-0.003392,-88.880555,0.007304,
1820,830,-2.687002,-8.943481,0.999997,0.000189,-0.003583,0.007179,-0.000539,0.007206,-0.003610,-87.142562,0.007206,
940,1330,1.075078,-4.708563,0.999997,0.000192,-0.005172,0.008814,0.000765,0.008855,-0.005214,86.877196,0.008902,
1500,1460,-0.757995,-3.558805,0.999996,0.000232,-0.004057,0.007510,-0.001109,0.007615,-0.004162,-84.572833,0.007626,
1150,280,0.102212,-13.845146,0.999998,0.000170,-0.001332,0.005307,-0.000011,0.005307,-0.001332,-89.907981,0.005522,
1510,40,-0.034921,-15.018321,0.999998,0.000141,-0.000284,0.004838,-0.000651,0.004920,-0.000366,-82.870816,0.005482,
1410,1480,-0.418861,-3.123257,0.999997,0.000195,-0.003254,0.006391,-0.001417,0.006595,-0.003458,-81.811065,0.006598,
1550,1020,-2.151004,-7.622586,0.999998,0.000174,-0.002671,0.008419,-0.000131,0.008420,-0.002673,-89.323832,0.008605,
1800,120,-0.617341,-14.405406,0.999997,0.000234,-0.002478,0.007683,-0.002070,0.008089,-0.002883,-78.916396,0.008199,
880,710,1.342078,-10.342542,0.999996,0.000213,-0.004963,0.008723,-0.000180,0.008726,-0.004966,-89.245611,0.008754,
600,380,1.764229,-12.258993,0.999997,0.000190,-0.003695,0.007464,-0.000089,0.007465,-0.003695,-89.542664,0.007465,
1060,1760,0.246172,-1.416516,0.999998,0.000176,-0.001734,0.005709,0.000051,0.005709,-0.001734,89.605211,0.005854,
1210,310,0.031497,-13.700284,0.999998,0.000151,-0.001431,0.005285,-0.000085,0.005287,-0.001433,-89.273474,0.005468,
1280,630,-0.086982,-12.050863,0.999998,0.000174,-0.001991,0.004431,0.000887,0.004552,-0.002111,82.280814,0.004556,
1710,1330,-1.972534,-5.194367,0.999996,0.000264,-0.004277,0.008112,0.000468,0.008130,-0.004294,87.840192,0.008134,
560,1360,2.704368,-5.381463,0.999677,0.000000,-0.005484,0.007421,0.000083,0.007421,-0.005485,89.629834,0.007699,
1320,1630,-0.161201,-2.070536,0.999998,0.000189,-0.002016,0.005474,-0.000427,0.005498,-0.002040,-86.747969,0.005558,
640,1010,2.974282,-7.682358,0.999998,0.000172,-0.003237,0.006843,0.000212,0.006847,-0.003242,88.797083,0.006850,
890,410,0.794980,-12.707819,0.999997,0.000210,-0.003229,0.007065,-0.000297,0.007073,-0.003237,-88.350061,0.007082,
1630,610,-1.339560,-11.048457,0.999996,0.000225,-0.004377,0.008011,0.000299,0.008018,-0.004384,88.616088,0.008029,
710,1260,2.344348,-5.822268,0.999997,0.000237,-0.003887,0.007725,-0.000709,0.007768,-0.003930,-86.517137,0.007768,
1560,2010,-0.050700,-0.128768,0.999999,0.000140,-0.000209,0.005022,0.000947,0.005188,-0.000375,80.044935,0.005786,
1360,1580,-0.256282,-2.401599,0.999998,0.000181,-0.002242,0.005735,-0.000672,0.005792,-0.002299,-85.220265,0.005833,
680,1160,2.706798,-6.612104,0.999997,0.000186,-0.003517,0.007289,-0.000572,0.007320,-0.003547,-86.977786,0.007321,
1720,70,-0.214908,-14.823213,0.999998,0.000181,-0.000767,0.006005,-0.001918,0.006511,-0.001273,-75.236915,0.006902,
590,1760,1.579452,-2.254089,0.999996,0.000237,-0.003886,0.007304,-0.000005,0.007304,-0.003886,-89.976486,0.007309,
1310,1350,-0.138836,-3.475548,0.999997,0.000210,-0.002415,0.004349,-0.002058,0.004925,-0.002992,-74.339620,0.004963,
1590,1100,-2.166109,-6.969163,0.999997,0.000225,-0.003279,0.008270,0.000861,0.008334,-0.003343,85.762154,0.008388,
1670,1770,-0.849929,-1.707677,0.999998,0.000180,-0.003167,0.007184,0.000316,0.007194,-0.003176,88.253885,0.007210,
1640,850,-2.045092,-8.990653,0.999997,0.000208,-0.004251,0.008462,-0.000954,0.008533,-0.004322,-85.733931,0.008533,
1850,1160,-2.932725,-6.672754,0.999997,0.000200,-0.003301,0.006740,0.000299,0.006749,-0.003310,88.296118,0.006750,
1840,1220,-2.769729,-6.241601,0.999998,0.000176,-0.003517,0.007113,0.000476,0.007134,-0.003538,87.443739,0.007134,
1570,1130,-2.008158,-6.692508,0.999998,0.000185,-0.003704,0.008755,0.001070,0.008846,-0.003796,85.126776,0.008876,
720,1700,1.261912,-2.372396,0.999997,0.000214,-0.003662,0.007546,-0.000004,0.007546,-0.003662,-89.979614,0.007547,
750,2000,0.151829,-0.207866,0.999998,0.000158,-0.000452,0.005759,-0.001862,0.006274,-0.000968,-74.529523,0.006756,
1170,1700,0.097990,-1.672252,0.999998,0.000178,-0.001534,0.005346,0.000057,0.005346,-0.001534,89.526346,0.005505,
1580,1530,-0.986872,-3.266927,0.999998,0.000186,-0.003832,0.007561,-0.000577,0.007590,-0.003862,-87.108913,0.007590,
1160,1260,0.159040,-3.785243,0.999997,0.000197,-0.002927,0.003385,0.002783,0.004437,-0.003979,69.297551,0.004880,
1260,1890,-0.022597,-0.679903,0.999998,0.000170,-0.000707,0.004939,0.000026,0.004939,-0.000707,89.740917,0.005342,
1530,260,-0.445968,-13.777932,0.999997,0.000219,-0.001996,0.006171,-0.000296,0.006181,-0.002006,-87.928954,0.006307,
1530,40,-0.040868,-15.016461,0.999998,0.000179,-0.000146,0.004911,-0.000761,0.005023,-0.000259,-81.621685,0.005656,
1880,950,-3.115583,-8.049449,0.999998,0.000173,-0.003126,0.006338,-0.000089,0.006338,-0.003127,-89.458699,0.006339,
1450,680,-0.635108,-11.109533,0.999995,0.000283,-0.004537,0.007665,0.001762,0.007915,-0.004786,81.945517,0.007972,
1230,280,0.002548,-13.862059,0.999999,0.000130,-0.001311,0.005209,-0.000007,0.005209,-0.001311,-89.940971,0.005418,
1010,1070,1.801449,-7.032310,0.999994,0.000306,-0.004269,0.011910,0.000337,0.011917,-0.004277,88.805595,0.012074,
1550,900,-1.837722,-8.682400,0.999996,0.000261,-0.004292,0.009231,-0.001094,0.009319,-0.004380,-85.406560,0.009325,
1500,30,-0.019289,-15.068067,0.999998,0.000000,-0.000265,0.004847,-0.000644,0.004927,-0.000345,-82.925217,0.005500,
930,970,2.022965,-8.068966,0.999997,0.000223,-0.003156,0.008965,0.000799,0.009017,-0.003208,86.242364,0.009142,
1310,1260,-0.185546,-3.838807,0.999995,0.000273,-0.003019,0.003703,-0.002919,0.004793,-0.004110,-69.514575,0.005185,
1360,750,-0.309084,-11.131989,0.999996,0.000252,-0.003960,0.006029,0.003018,0.006870,-0.004801,74.429643,0.007049,
1530,1960,-0.135422,-0.382885,0.999998,0.000144,-0.000630,0.005257,0.000815,0.005368,-0.000741,82.266687,0.005818,
1720,1350,-1.959136,-5.050631,0.999996,0.000283,-0.004211,0.008056,0.000404,0.008070,-0.004224,88.115159,0.008073,
1100,1720,0.208249,-1.615355,0.999998,0.000192,-0.001704,0.005612,0.000135,0.005614,-0.001707,88.943512,0.005756,
1800,80,-0.388197,-14.706433,0.999997,0.000224,-0.001393,0.007453,-0.002913,0.008326,-0.002266,-73.312294,0.008609,
1120,550,0.227377,-12.327445,0.999997,0.000190,-0.002371,0.005528,-0.000992,0.005651,-0.002494,-82.948241,0.005663,
1500,1440,-0.782419,-3.714659,0.999996,0.000234,-0.004238,0.007633,-0.001173,0.007747,-0.004353,-84.412390,0.007767,
600,360,1.713529,-12.407381,0.999997,0.000211,-0.003677,0.007447,-0.000087,0.007448,-0.003678,-89.549573,0.007448,
1710,1310,-2.028184,-5.357452,0.999997,0.000228,-0.004243,0.008098,0.000568,0.008124,-0.004269,87.369346,0.008127,
890,390,0.765973,-12.851746,0.999997,0.000205,-0.003159,0.006987,-0.000232,0.006993,-0.003164,-88.689000,0.007003,
880,690,1.293930,-10.515991,0.999996,0.000219,-0.004872,0.008605,-0.000317,0.008613,-0.004880,-88.652570,0.008638,
1550,550,-0.905819,-11.745313,0.999996,0.000234,-0.003935,0.007574,0.000749,0.007623,-0.003984,86.291152,0.007625,
1460,1300,-0.806757,-4.685447,0.999995,0.000249,-0.005501,0.008870,-0.001595,0.009045,-0.005676,-83.740587,0.009142,
850,1520,1.129997,-3.428905,0.999997,0.000192,-0.003982,0.007731,0.000454,0.007748,-0.003999,87.785628,0.007750,
1570,1110,-2.075964,-6.869442,0.999997,0.000210,-0.003415,0.008609,0.001003,0.008692,-0.003499,85.263956,0.008747,
1310,1700,-0.124488,-1.678493,0.999998,0.000159,-0.001621,0.005433,-0.000137,0.005436,-0.001624,-88.891224,0.005581,
1310,1330,-0.140591,-3.563537,0.999997,0.000216,-0.002499,0.004163,-0.002305,0.004883,-0.003219,-72.662204,0.004965,
580,1560,2.096394,-3.778650,0.999997,0.000190,-0.003671,0.007596,0.000054,0.007596,-0.003671,89.725545,0.007598,
1210,290,0.029999,-13.804612,0.999998,0.000151,-0.001330,0.005245,-0.000057,0.005245,-0.001331,-89.502744,0.005453,
1570,1160,-1.902954,-6.425557,0.999996,0.000256,-0.004196,0.009015,0.001125,0.009110,-0.004291,85.168335,0.009115,
1490,720,-0.893419,-10.594404,0.999997,0.000252,-0.005153,0.008654,0.001233,0.008763,-0.005262,84.938707,0.008822,
1670,1750,-0.898780,-1.848808,0.999998,0.000193,-0.003236,0.007167,0.000200,0.007171,-0.003240,88.900916,0.007182,
590,1050,3.128546,-7.415174,0.999998,0.000163,-0.003036,0.006428,-0.000196,0.006432,-0.003040,-88.814498,0.006435,
1840,1200,-2.818362,-6.381792,0.999997,0.000172,-0.003502,0.007131,0.000504,0.007155,-0.003526,87.291224,0.007155,
1880,730,-2.648256,-9.564318,0.999997,0.000221,-0.003640,0.007331,-0.000149,0.007333,-0.003642,-89.219706,0.007334,
760,40,0.094411,-15.000257,0.999998,0.000199,-0.000213,0.005647,0.001810,0.006160,-0.000726,74.148924,0.006733,
1310,1240,-0.233575,-3.910773,0.999996,0.000233,-0.003288,0.003541,-0.002778,0.004528,-0.004275,-70.431659,0.005089,
680,1140,2.740079,-6.757642,0.999998,0.000168,-0.003428,0.007173,-0.000509,0.007198,-0.003452,-87.257398,0.007200,
1210,280,0.028376,-13.857292,0.999998,0.000160,-0.001289,0.005235,-0.000039,0.005235,-0.001289,-89.660129,0.005455,
1520,40,-0.038772,-15.016686,0.999998,0.000148,-0.000220,0.004879,-0.000701,0.004974,-0.000315,-82.309801,0.005570,
1010,1050,1.844397,-7.284547,0.999993,0.000329,-0.004247,0.012712,0.000254,0.012715,-0.004251,89.143612,0.012946,
690,1260,2.421948,-5.850284,0.999997,0.000215,-0.003873,0.007652,-0.000688,0.007693,-0.003914,-86.593668,0.007694,
630,1190,2.816433,-6.443858,0.999997,0.000233,-0.003484,0.007184,-0.000531,0.007210,-0.003511,-87.159962,0.007211,
1530,240,-0.409880,-13.902513,0.999998,0.000187,-0.001846,0.006183,-0.000428,0.006205,-0.001869,-86.957159,0.006367,
1550,2010,-0.050261,-0.128634,0.999998,0.000159,-0.000143,0.004962,0.000911,0.005120,-0.000301,80.182690,0.005746,
1220,1890,0.008556,-0.677840,0.999998,0.000177,-0.000749,0.004915,0.000015,0.004916,-0.000749,89.852679,0.005297,
580,1760,1.615613,-2.283428,0.999997,0.000219,-0.004584,0.007142,0.000037,0.007142,-0.004584,89.820806,0.007237,
1360,1560,-0.258984,-2.514343,0.999997,0.000185,-0.002349,0.005764,-0.000792,0.005841,-0.002426,-84.478015,0.005869,
1060,1740,0.261489,-1.531741,0.999998,0.000192,-0.001833,0.005753,0.000113,0.005755,-0.001835,89.149649,0.005880,
600,340,1.662327,-12.557141,0.999997,0.000185,-0.003663,0.007441,-0.000114,0.007442,-0.003664,-89.413229,0.007442,
910,1680,0.678715,-2.123422,0.999998,0.000183,-0.002838,0.006772,0.000123,0.006774,-0.002840,89.266112,0.006803,
1290,1420,-0.105557,-3.111686,0.999997,0.000186,-0.002044,0.004493,-0.001135,0.004684,-0.002235,-80.420357,0.004686,
1340,750,-0.235460,-11.265860,0.999998,0.000192,-0.003477,0.005194,0.002991,0.006126,-0.004409,72.699377,0.006320,
1570,1100,-2.101803,-6.955174,0.999996,0.000224,-0.003298,0.008503,0.000906,0.008572,-0.003367,85.634378,0.008638,
600,510,2.054207,-11.274264,0.999998,0.000176,-0.003751,0.007615,-0.000054,0.007615,-0.003751,-89.725386,0.007615,
840,1320,1.607153,-5.102353,0.999997,0.000225,-0.004806,0.008614,-0.000266,0.008619,-0.004811,-88.864037,0.008639,
1500,1420,-0.809258,-3.869102,0.999997,0.000215,-0.004378,0.007731,-0.001204,0.007850,-0.004496,-84.378042,0.007878,
1180,490,0.096299,-12.734147,0.999998,0.000178,-0.001884,0.005212,-0.000280,0.005223,-0.001895,-87.742402,0.005288,
1160,1240,0.210270,-3.850231,0.999997,0.000200,-0.003188,0.003187,0.002585,0.004104,-0.004105,70.479826,0.004739,
1100,1700,0.218751,-1.724468,0.999998,0.000168,-0.001768,0.005602,0.000217,0.005608,-0.001774,88.313802,0.005733,
1790,1490,-1.898146,-4.096294,0.999997,0.000185,-0.003889,0.007714,-0.000016,0.007714,-0.003889,-89.921096,0.007714,
890,370,0.731760,-12.990167,0.999997,0.000212,-0.003106,0.006874,-0.000168,0.006877,-0.003109,-89.035864,0.006887,
1560,1490,-0.965449,-3.516631,0.999997,0.000203,-0.004000,0.007702,-0.000705,0.007744,-0.004043,-86.565671,0.007747,
1620,850,-1.957084,-9.017018,0.999997,0.000237,-0.004360,0.008644,-0.000950,0.008713,-0.004429,-85.845140,0.008713,
1290,1700,-0.093237,-1.671893,0.999998,0.000144,-0.001551,0.005376,-0.000058,0.005377,-0.001552,-89.523451,0.005535,
630,340,1.553915,-12.639590,0.999997,0.000230,-0.003678,0.007526,-0.000026,0.007526,-0.003678,-89.865837,0.007526,
930,950,1.964941,-8.249664,0.999997,0.000214,-0.003494,0.009110,0.000983,0.009186,-0.003570,85.568315,0.009262,
1710,1730,-1.074789,-2.076264,0.999998,0.000178,-0.003279,0.007393,0.000157,0.007395,-0.003282,89.155099,0.007411,
1510,1600,-0.651367,-2.584156,0.999998,0.000184,-0.003074,0.006849,-0.000566,0.006882,-0.003106,-86.748335,0.006892,
1570,1090,-2.124734,-7.039083,0.999997,0.000210,-0.003169,0.008430,0.000824,0.008489,-0.003227,85.956278,0.008569,
1210,270,0.026418,-13.910709,0.999998,0.000162,-0.001249,0.005212,-0.000048,0.005212,-0.001249,-89.576322,0.005443,
1540,1350,-1.116304,-4.593247,0.999998,0.000170,-0.005041,0.008710,-0.000630,0.008739,-0.005070,-87.382052,0.008776,
1500,1290,-1.053734,-4.973730,0.999996,0.000222,-0.005510,0.009234,-0.000793,0.009276,-0.005553,-86.930358,0.009336,
1570,900,-1.922054,-8.648268,0.999997,0.000188,-0.004126,0.008967,-0.001100,0.009059,-0.004218,-85.229834,0.009066,
1550,1160,-1.816739,-6.391859,0.999997,0.000185,-0.004394,0.009275,0.001053,0.009356,-0.004474,85.621910,0.009359,
1010,1030,1.866052,-7.531923,0.999994,0.000308,-0.004251,0.012308,0.000010,0.012308,-0.004251,89.965967,0.012502,
990,40,0.025336,-15.021241,0.999999,0.000142,-0.000108,0.004762,0.000586,0.004831,-0.000178,83.235307,0.005479,
1840,1180,-2.865169,-6.525496,0.999997,0.000218,-0.003426,0.006994,0.000439,0.007013,-0.003445,87.589431,0.007013,
630,1170,2.860470,-6.587928,0.999997,0.000203,-0.003392,0.006929,-0.000406,0.006945,-0.003408,-87.753324,0.006946,
1310,1310,-0.145395,-3.648570,0.999997,0.000220,-0.002609,0.004036,-0.002565,0.004911,-0.003484,-71.165993,0.005052,
680,1120,2.773234,-6.901066,0.999998,0.000172,-0.003393,0.007200,-0.000572,0.007231,-0.003423,-86.918428,0.007234,
600,1010,3.100311,-7.675642,0.999998,0.000180,-0.003119,0.006534,0.000186,0.006538,-0.003123,88.898291,0.006540,
1130,1560,0.201697,-2.474491,0.999998,0.000163,-0.002148,0.005518,0.000671,0.005576,-0.002206,85.036154,0.005617,
720,1680,1.306470,-2.524925,0.999997,0.000239,-0.003674,0.007594,0.000055,0.007594,-0.003675,89.719353,0.007595,
740,2000,0.155608,-0.208744,0.999997,0.000190,-0.000546,0.005849,-0.001973,0.006409,-0.001105,-74.163093,0.006852,
1300,2010,-0.008296,-0.115536,0.999998,0.000157,-0.000034,0.004525,0.000125,0.004529,-0.000038,88.429241,0.005208,
750,1760,1.012246,-1.860914,0.999997,0.000205,-0.003140,0.007404,-0.000400,0.007419,-0.003155,-87.830473,0.007447,
1720,50,-0.136150,-14.940239,0.999998,0.000181,-0.000400,0.005766,-0.001979,0.006346,-0.000981,-73.653885,0.006832,
1790,1470,-1.943940,-4.250997,0.999997,0.000196,-0.003896,0.007753,0.000038,0.007754,-0.003896,89.814042,0.007754,
1870,1100,-3.089129,-7.094380,0.999996,0.000226,-0.003168,0.006397,0.000078,0.006398,-0.003168,89.534174,0.006398,
910,380,0.687348,-12.960515,0.999996,0.000236,-0.002887,0.006781,-0.000161,0.006784,-0.002889,-89.043282,0.006808,
600,590,2.236638,-10.661926,0.999997,0.000200,-0.003818,0.007655,0.000036,0.007655,-0.003818,89.818182,0.007655,
780,1830,0.724080,-1.298431,0.999997,0.000215,-0.002825,0.007021,-0.000751,0.007077,-0.002882,-85.664452,0.007118,
860,650,1.299014,-10.796048,0.999996,0.000215,-0.004581,0.008309,-0.000317,0.008317,-0.004589,-88.591187,0.008331,
580,1050,3.159140,-7.416897,0.999998,0.000156,-0.002911,0.006252,-0.000192,0.006256,-0.002915,-88.798213,0.006261,
600,320,1.613507,-12.706693,0.999997,0.000189,-0.003661,0.007466,-0.000069,0.007467,-0.003661,-89.643962,0.007467,
1160,490,0.135661,-12.715875,0.999998,0.000157,-0.002074,0.005345,-0.000546,0.005385,-0.002114,-85.813885,0.005426,
1670,1730,-0.944917,-1.995448,0.999998,0.000181,-0.003285,0.007293,0.000099,0.007294,-0.003286,89.463195,0.007306,
1110,1700,0.200651,-1.715224,0.999998,0.000169,-0.001786,0.005575,0.000247,0.005583,-0.001795,88.081295,0.005700,
900,90,0.143928,-14.756839,0.999998,0.000168,-0.000705,0.005319,0.000941,0.005463,-0.000849,81.322159,0.005879,
890,350,0.697751,-13.128643,0.999997,0.000200,-0.003033,0.006806,-0.000111,0.006807,-0.003035,-89.352753,0.006821,
1440,610,-0.537932,-11.662930,0.999996,0.000240,-0.003752,0.006961,0.001522,0.007173,-0.003964,82.068170,0.007186,
1540,1490,-0.885621,-3.458890,0.999996,0.000241,-0.004020,0.007622,-0.000832,0.007681,-0.004080,-85.932691,0.007686,
1500,1400,-0.833151,-4.023451,0.999997,0.000227,-0.004573,0.008004,-0.001218,0.008121,-0.004690,-84.517916,0.008153,
1360,1540,-0.265032,-2.629336,0.999997,0.000185,-0.002449,0.005722,-0.000940,0.005828,-0.002556,-83.522287,0.005843,
1460,1230,-1.028410,-5.340196,0.999996,0.000250,-0.005837,0.009806,-0.001045,0.009875,-0.005907,-86.194173,0.009939,
1750,780,-2.292133,-9.418897,0.999997,0.000232,-0.003987,0.007828,-0.000667,0.007866,-0.004025,-86.778700,0.007867,
1100,1900,0.088673,-0.647325,0.999998,0.000157,-0.000722,0.005057,-0.000248,0.005068,-0.000732,-87.545447,0.005478,
1760,280,-1.129070,-13.272200,0.999997,0.000203,-0.003596,0.007549,-0.000252,0.007555,-0.003601,-88.704042,0.007558,
1060,1720,0.277290,-1.647108,0.999997,0.000192,-0.001931,0.005769,0.000198,0.005774,-0.001936,88.530381,0.005878,
1160,1220,0.278799,-3.910410,0.999994,0.000258,-0.003356,0.002982,0.001797,0.003456,-0.003830,75.224549,0.004223,
1470,720,-0.787901,-10.690462,0.999997,0.000230,-0.005151,0.008483,0.001521,0.008651,-0.005318,83.710736,0.008727,
840,1300,1.664066,-5.273621,0.999996,0.000250,-0.004795,0.008689,-0.000399,0.008701,-0.004807,-88.306456,0.008717,
1710,1750,-1.030164,-1.928004,0.999998,0.000189,-0.003183,0.007326,0.000279,0.007333,-0.003190,88.479658,0.007354,
1570,1070,-2.168790,-7.210026,0.999997,0.000209,-0.002932,0.008355,0.000618,0.008388,-0.002966,86.873671,0.008507,
1210,250,0.025824,-14.013150,0.999998,0.000160,-0.001159,0.005120,-0.000031,0.005120,-0.001159,-89.716177,0.005370,
1470,1900,-0.180376,-0.684254,0.999998,0.000155,-0.000882,0.005382,0.000541,0.005428,-0.000928,85.102506,0.005807,
1360,410,-0.237494,-13.087033,0.999998,0.000178,-0.001974,0.005601,0.000372,0.005619,-0.001992,87.195185,0.005698,
610,50,0.312971,-14.830206,0.999997,0.000213,-0.002630,0.007683,0.002684,0.008340,-0.003287,76.250279,0.008402,
1520,1290,-1.164284,-5.060213,0.999996,0.000217,-0.005463,0.009243,-0.000511,0.009261,-0.005481,-88.012409,0.009313,
1610,30,-0.031005,-15.061246,0.999998,0.000000,0.000008,0.005037,-0.001253,0.005332,-0.000287,-76.760869,0.005998,
980,100,0.107832,-14.723798,0.999998,0.000203,-0.000652,0.005142,0.000619,0.005207,-0.000717,83.970859,0.005645,
810,70,0.155320,-14.848318,0.999998,0.000171,-0.000790,0.005683,0.001478,0.006004,-0.001112,77.724813,0.006389,
660,730,2.361048,-9.719986,0.999996,0.000227,-0.003847,0.007639,0.000449,0.007657,-0.003864,87.765006,0.007657,
930,930,1.889181,-8.434517,0.999997,0.000234,-0.003926,0.009298,0.001056,0.009381,-0.004009,85.464687,0.009414,
1520,1350,-1.015983,-4.521427,0.999997,0.000213,-0.005063,0.008652,-0.000874,0.008708,-0.005119,-86.367267,0.008752,
1840,1160,-2.898790,-6.663961,0.999996,0.000225,-0.003340,0.006805,0.000354,0.006817,-0.003352,88.005511,0.006817,
1890,1160,-3.061180,-6.724605,0.999998,0.000156,-0.003190,0.006446,0.000112,0.006448,-0.003192,89.333960,0.006448,
1110,1560,0.244350,-2.504767,0.999998,0.000159,-0.002275,0.005676,0.000728,0.005742,-0.002341,84.814616,0.005775,
1360,40,-0.014336,-15.025549,0.999998,0.000143,-0.000081,0.004548,-0.000227,0.004559,-0.000092,-87.198387,0.005212,
630,1150,2.892861,-6.724310,0.999997,0.000193,-0.003324,0.006859,-0.000379,0.006873,-0.003338,-87.871231,0.006874,
1010,1010,1.853724,-7.769734,0.999993,0.000314,-0.004240,0.012610,-0.000193,0.012612,-0.004242,-89.344271,0.012835,
1720,40,-0.092767,-14.997386,0.999998,0.000185,-0.000165,0.005716,-0.002049,0.006359,-0.000809,-72.567551,0.006924,
910,400,0.715657,-12.823274,0.999997,0.000194,-0.003080,0.006909,-0.000318,0.006919,-0.003090,-88.177871,0.006932,
1520,570,-0.811384,-11.684689,0.999996,0.000207,-0.003947,0.007505,0.000914,0.007577,-0.004020,85.463704,0.007582,
1790,1450,-1.991724,-4.407507,0.999997,0.000215,-0.003920,0.007738,0.000078,0.007738,-0.003920,89.616849,0.007739,
680,1100,2.807142,-7.046365,0.999997,0.000198,-0.003346,0.007133,-0.000451,0.007152,-0.003365,-87.542620,0.007156,
1460,1500,-0.573779,-3.140993,0.999996,0.000223,-0.003444,0.006856,-0.001140,0.006980,-0.003569,-83.758606,0.006981,
570,1050,3.188330,-7.418255,0.999970,0.000631,-0.002847,0.006089,-0.000186,0.006093,-0.002851,-88.810699,0.006098,
860,630,1.258243,-10.963138,0.999997,0.000209,-0.004489,0.008157,-0.000384,0.008168,-0.004500,-88.261115,0.008183,
890,330,0.664065,-13.265061,0.999997,0.000194,-0.002884,0.006822,-0.000023,0.006822,-0.002884,-89.865461,0.006849,
1090,1700,0.236871,-1.733443,0.999998,0.000169,-0.001770,0.005643,0.000189,0.005647,-0.001775,88.536798,0.005776,
680,1750,1.282016,-2.090668,0.999997,0.000192,-0.003590,0.007534,-0.000171,0.007537,-0.003593,-89.121640,0.007540,
1750,1600,-1.507395,-3.152244,0.999996,0.000232,-0.003753,0.007620,-0.000144,0.007621,-0.003755,-89.272383,0.007622,
1520,1490,-0.803990,-3.398303,0.999997,0.000204,-0.003905,0.007493,-0.000942,0.007570,-0.003983,-85.306989,0.007574,
600,300,1.558918,-12.856151,0.999997,0.000217,-0.003669,0.007397,-0.000003,0.007397,-0.003669,-89.986670,0.007397,
1500,1380,-0.861846,-4.187220,0.999996,0.000219,-0.004772,0.008215,-0.001224,0.008329,-0.004886,-84.660920,0.008371,
1100,1680,0.227236,-1.838589,0.999998,0.000163,-0.001818,0.005660,0.000222,0.005667,-0.001824,88.299103,0.005785,
1310,1290,-0.151663,-3.727131,0.999997,0.000219,-0.002756,0.003933,-0.002797,0.004949,-0.003772,-70.045578,0.005170,
1160,840,0.311413,-11.196201,0.999994,0.000276,-0.003458,0.002858,-0.001500,0.003196,-0.003796,-77.294157,0.004081,
1300,530,-0.131876,-12.508234,0.999997,0.000192,-0.002143,0.005211,0.000670,0.005272,-0.002204,84.835913,0.005295,
1730,780,-2.211050,-9.446296,0.999997,0.000248,-0.004101,0.007982,-0.000712,0.008024,-0.004143,-86.639093,0.008025,
1550,1100,-2.037093,-6.937584,0.999997,0.000215,-0.003327,0.008782,0.000927,0.008853,-0.003398,85.645736,0.008932,
1550,720,-1.201182,-10.358480,0.999997,0.000238,-0.005150,0.008860,0.000459,0.008875,-0.005165,88.125759,0.008914,
610,40,0.245062,-14.897893,0.999992,0.000326,-0.002038,0.007498,0.003043,0.008386,-0.002927,73.724817,0.008513,
1570,1050,-2.190333,-7.373250,0.999997,0.000224,-0.002764,0.008241,0.000363,0.008253,-0.002776,88.112113,0.008399,
1710,1770,-0.977130,-1.781171,0.999998,0.000199,-0.003084,0.007386,0.000440,0.007404,-0.003102,87.597558,0.007437,
1450,1900,-0.163428,-0.676587,0.999998,0.000169,-0.000925,0.005337,0.000486,0.005374,-0.000963,85.585376,0.005731,
1280,750,-0.079302,-11.597197,0.999998,0.000176,-0.001945,0.002979,0.001830,0.003585,-0.002551,71.689077,0.003690,
1870,1290,-2.704077,-5.790423,0.999996,0.000242,-0.003621,0.007312,0.000241,0.007318,-0.003626,88.736031,0.007318,
930,1380,1.018901,-4.311663,0.999997,0.000224,-0.004823,0.008417,0.000830,0.008469,-0.004875,86.428135,0.008501,
590,1010,3.131744,-7.672612,0.999998,0.000166,-0.003018,0.006438,0.000183,0.006441,-0.003022,88.892721,0.006445,
720,1830,0.895515,-1.393059,0.999996,0.000222,-0.003223,0.007415,-0.000695,0.007461,-0.003268,-86.277298,0.007480,
720,1660,1.352434,-2.677680,0.999997,0.000217,-0.003672,0.007583,0.000089,0.007583,-0.003673,89.547990,0.007585,
600,570,2.189207,-10.815560,0.999997,0.000203,-0.003821,0.007631,0.000022,0.007631,-0.003821,89.887979,0.007631,
730,2000,0.161148,-0.210753,0.999996,0.000230,-0.000818,0.005996,-0.002051,0.006566,-0.001388,-74.477819,0.006921,
1170,1560,0.116645,-2.419834,0.999997,0.000184,-0.002018,0.005279,0.000417,0.005302,-0.002041,86.741043,0.005349,
930,390,0.645437,-12.928265,0.999997,0.000198,-0.002736,0.006691,-0.000232,0.006697,-0.002742,-88.593511,0.006733,
560,1350,2.714460,-5.437111,0.999734,0.000000,-0.005455,0.007068,0.000246,0.007073,-0.005460,88.877320,0.007413,
1880,1160,-3.029254,-6.711110,0.999998,0.000183,-0.003198,0.006515,0.000132,0.006517,-0.003200,89.222804,0.006517,
1260,820,-0.091224,-11.527306,0.999996,0.000254,-0.003210,0.001917,0.000826,0.002047,-0.003340,81.066760,0.003368,
980,40,0.025978,-15.020912,0.999999,0.000148,-0.000195,0.004769,0.000598,0.004840,-0.000266,83.229664,0.005442,
1840,1140,-2.932091,-6.800469,0.999998,0.000188,-0.003308,0.006820,0.000393,0.006835,-0.003324,87.779897,0.006836,
770,90,0.271367,-14.712531,0.999997,0.000195,-0.001110,0.006007,0.001638,0.006366,-0.001469,77.643521,0.006666,
890,310,0.627684,-13.403146,0.999998,0.000188,-0.002703,0.006728,0.000107,0.006729,-0.002704,89.351408,0.006772,
1790,1430,-2.038849,-4.562480,0.999997,0.000221,-0.003929,0.007749,0.000144,0.007751,-0.003931,89.294037,0.007751,
630,1130,2.925176,-6.862543,0.999998,0.000188,-0.003331,0.006904,-0.000449,0.006923,-0.003351,-87.495321,0.006925,
1010,990,1.810261,-8.030642,0.999993,0.000308,-0.004223,0.012109,-0.000334,0.012116,-0.004230,-88.828967,0.012298,
680,1080,2.823542,-7.185841,0.999998,0.000176,-0.003287,0.007026,-0.000204,0.007030,-0.003291,-88.869921,0.007034,
1580,370,-0.753822,-12.976941,0.999997,0.000219,-0.003138,0.006936,0.000189,0.006940,-0.003141,88.927881,0.006950,
1670,1710,-0.988148,-2.142403,0.999998,0.000167,-0.003360,0.007300,0.000023,0.007300,-0.003360,89.875534,0.007308,
1460,230,-0.271493,-14.024620,0.999998,0.000173,-0.001375,0.005707,-0.000321,0.005721,-0.001389,-87.408940,0.005968,
1190,1520,0.078940,-2.612162,0.999998,0.000141,-0.001908,0.005022,0.000337,0.005038,-0.001924,87.223769,0.005085,
1490,280,-0.389658,-13.703305,0.999997,0.000196,-0.002071,0.006106,-0.000124,0.006108,-0.002073,-89.128844,0.006212,
1500,1360,-0.894778,-4.353433,0.999997,0.000211,-0.004973,0.008428,-0.001179,0.008531,-0.005076,-85.008355,0.008582,
840,1280,1.726287,-5.449141,0.999996,0.000253,-0.004753,0.008771,-0.000534,0.008792,-0.004774,-87.744418,0.008803,
600,280,1.501134,-13.003329,0.999997,0.000221,-0.003659,0.007368,0.000056,0.007368,-0.003659,89.707543,0.007368,
1360,1520,-0.267167,-2.745282,0.999997,0.000213,-0.002534,0.005711,-0.001098,0.005855,-0.002677,-82.542863,0.005862,
1440,1230,-0.911198,-5.200264,0.999997,0.000214,-0.005881,0.009557,-0.001521,0.009706,-0.006029,-84.427459,0.009800,
1230,1700,0.001866,-1.652765,0.999998,0.000176,-0.001605,0.005297,0.000009,0.005297,-0.001605,89.921153,0.005432,
1100,1640,0.245547,-2.065108,0.999998,0.000182,-0.001980,0.005651,0.000373,0.005669,-0.001998,87.207788,0.005751,
680,1730,1.334571,-2.242472,0.999997,0.000200,-0.003600,0.007561,-0.000044,0.007562,-0.003600,-89.775664,0.007564,
1160,820,0.225681,-11.256749,0.999997,0.000223,-0.003212,0.003152,-0.002462,0.003993,-0.004053,-71.135931,0.004646,
1800,1590,-1.718496,-3.349469,0.999998,0.000184,-0.003797,0.007610,-0.000113,0.007611,-0.003798,-89.430783,0.007611,
1300,570,-0.131625,-12.300661,0.999998,0.000176,-0.002167,0.005056,0.000869,0.005159,-0.002270,83.237986,0.005171,
1850,1100,-3.025382,-7.082130,0.999998,0.000179,-0.003199,0.006626,0.000154,0.006629,-0.003201,89.099908,0.006630,
990,840,1.168637,-9.551445,0.999997,0.000232,-0.005813,0.010061,-0.000528,0.010078,-0.005830,-88.098324,0.010120,
670,120,0.601172,-14.415380,0.999996,0.000234,-0.002480,0.007584,0.002037,0.007981,-0.002876,78.980963,0.008084,
1560,1290,-1.379710,-5.201356,0.999994,0.000267,-0.005260,0.009117,-0.000005,0.009117,-0.005260,-89.981189,0.009153,
580,1010,3.163203,-7.672617,0.999999,0.000147,-0.002712,0.006311,0.000168,0.006314,-0.002715,88.935744,0.006334,
1380,490,-0.309802,-12.590441,0.999996,0.000226,-0.002581,0.005922,0.000924,0.006022,-0.002680,83.867238,0.006034,
1310,1270,-0.168517,-3.799875,0.999996,0.000254,-0.002916,0.003813,-0.002924,0.004906,-0.004009,-69.502211,0.005225,
930,370,0.622053,-13.059339,0.999997,0.000208,-0.002594,0.006577,-0.000124,0.006579,-0.002596,-89.223391,0.006627,
1570,1030,-2.207536,-7.538993,0.999997,0.000235,-0.002695,0.008256,0.000052,0.008256,-0.002695,89.727804,0.008421,
1290,1540,-0.111044,-2.521650,0.999997,0.000182,-0.001997,0.005203,-0.000453,0.005231,-0.002026,-86.416904,0.005275,
1710,1790,-0.921574,-1.634366,0.999998,0.000173,-0.003010,0.007328,0.000591,0.007362,-0.003043,86.738989,0.007399,
930,1880,0.293747,-0.831638,0.999998,0.000194,-0.001315,0.005751,-0.000649,0.005810,-0.001374,-84.793910,0.006074,
1840,1120,-2.964893,-6.936993,0.999997,0.000198,-0.003281,0.006870,0.000407,0.006886,-0.003298,87.709384,0.006888,
680,270,1.180624,-13.294066,0.999997,0.000204,-0.003572,0.007574,0.000353,0.007586,-0.003583,88.186244,0.007589,
890,530,0.966946,-11.834696,0.999998,0.000187,-0.003843,0.007563,-0.000595,0.007594,-0.003874,-87.023571,0.007594,
1790,1410,-2.088923,-4.717630,0.999997,0.000223,-0.003948,0.007766,0.000191,0.007769,-0.003951,89.063762,0.007770,
1190,1280,0.074500,-3.561012,0.999998,0.000169,-0.002028,0.002443,0.001737,0.003039,-0.002623,71.072976,0.003296,
1170,1520,0.117773,-2.628536,0.999998,0.000172,-0.002068,0.005149,0.000601,0.005199,-0.002118,85.274494,0.005229,
1610,1160,-2.065720,-6.479893,0.999997,0.000195,-0.003945,0.008548,0.001049,0.008635,-0.004032,85.233945,0.008642,
1890,1670,-1.874826,-2.967697,0.999997,0.000188,-0.003708,0.007369,-0.000090,0.007369,-0.003708,-89.536575,0.007369,
950,1760,0.464129,-1.540887,0.999998,0.000202,-0.002301,0.006263,-0.000074,0.006263,-0.002302,-89.502972,0.006336,
680,610,1.975282,-10.690163,0.999998,0.000217,-0.003941,0.007756,0.000085,0.007756,-0.003941,89.585713,0.007757,
1730,2010,-0.115758,-0.151560,0.999997,0.000193,-0.000450,0.005889,0.002113,0.006529,-0.001090,73.154007,0.006995,
720,1640,1.395894,-2.828962,0.999996,0.000231,-0.003692,0.007582,0.000142,0.007584,-0.003693,89.276327,0.007585,
1540,1290,-1.272716,-5.135055,0.999996,0.000207,-0.005362,0.009181,-0.000206,0.009184,-0.005365,-89.187955,0.009227,
1010,970,1.744150,-8.253427,0.999993,0.000321,-0.004299,0.011654,-0.000434,0.011665,-0.004311,-88.443648,0.011797,
1510,280,-0.433879,-13.678043,0.999997,0.000200,-0.002246,0.006247,-0.000137,0.006249,-0.002249,-89.079030,0.006330,
600,260,1.435648,-13.152995,0.999997,0.000222,-0.003641,0.007435,0.000110,0.007436,-0.003642,89.429276,0.007437,
980,230,0.305525,-14.009173,0.999997,0.000206,-0.001611,0.005805,0.000320,0.005818,-0.001625,87.532721,0.006004,
1500,1340,-0.932056,-4.524852,0.999997,0.000211,-0.005154,0.008650,-0.001115,0.008740,-0.005244,-85.409794,0.008798,
630,1110,2.959349,-7.002856,0.999998,0.000173,-0.003289,0.006835,-0.000349,0.006847,-0.003301,-88.029346,0.006849,
1760,410,-1.448681,-12.287757,0.999994,0.000268,-0.003707,0.007583,0.000104,0.007584,-0.003708,89.470147,0.007585,
820,410,1.025735,-12.560469,0.999998,0.000186,-0.003466,0.007371,-0.000205,0.007375,-0.003470,-88.916683,0.007380,
1250,1560,-0.034570,-2.396035,0.999998,0.000172,-0.001874,0.005151,-0.000256,0.005160,-0.001883,-87.916276,0.005222,
1410,1760,-0.257896,-1.424744,0.999997,0.000249,-0.001824,0.005715,-0.000067,0.005716,-0.001824,-89.489341,0.005839,
1620,1230,-1.874922,-5.885311,0.999997,0.000187,-0.004570,0.008763,0.000854,0.008818,-0.004625,86.348874,0.008821,
1100,1620,0.251774,-2.177484,0.999998,0.000177,-0.002085,0.005687,0.000454,0.005713,-0.002111,86.664488,0.005778,
1630,590,-1.298552,-11.211216,0.999996,0.000214,-0.004280,0.007990,0.000319,0.007999,-0.004288,88.512615,0.008006,
1660,1590,-1.186928,-3.011370,0.999998,0.000155,-0.003736,0.007544,-0.000282,0.007551,-0.003743,-88.566291,0.007551,
1310,1250,-0.202345,-3.874084,0.999996,0.000245,-0.003176,0.003613,-0.002869,0.004663,-0.004226,-69.898930,0.005151,
1180,2010,0.006939,-0.114753,0.999998,0.000150,-0.000097,0.004496,-0.000079,0.004498,-0.000098,-89.013101,0.005138,
1840,1490,-2.088956,-4.211839,0.999997,0.000193,-0.003814,0.007634,-0.000007,0.007634,-0.003814,-89.964229,0.007634,
1300,550,-0.133395,-12.403788,0.999998,0.000173,-0.002168,0.005138,0.000780,0.005220,-0.002250,83.976921,0.005237,
1790,1100,-2.829328,-7.049216,0.999997,0.000209,-0.003335,0.007064,0.000403,0.007080,-0.003350,87.783490,0.007083,
910,1960,0.149432,-0.387789,0.999998,0.000204,-0.000610,0.005340,-0.000909,0.005475,-0.000746,-81.508427,0.005939,
1760,260,-1.068192,-13.425244,0.999997,0.000217,-0.003538,0.007560,-0.000352,0.007571,-0.003550,-88.183665,0.007576,
1790,380,-1.491831,-12.443441,0.999996,0.000257,-0.003673,0.007601,0.000029,0.007602,-0.003673,89.854171,0.007603,
930,1760,0.510151,-1.569309,0.999997,0.000218,-0.002218,0.006404,-0.000157,0.006407,-0.002221,-88.955293,0.006507,
1160,800,0.170179,-11.315366,0.999996,0.000242,-0.002989,0.003349,-0.002726,0.004361,-0.004000,-69.647312,0.004841,
890,290,0.590102,-13.535209,0.999998,0.000197,-0.002538,0.006622,0.000241,0.006629,-0.002544,88.492673,0.006688,
1720,280,-0.992316,-13.359832,0.999998,0.000160,-0.003107,0.007415,-0.000476,0.007436,-0.003128,-87.416076,0.007467,
1030,680,0.559990,-11.188697,0.999994,0.000266,-0.004332,0.007411,-0.001920,0.007717,-0.004638,-80.944820,0.007769,
1600,2020,-0.046449,-0.081602,0.999998,0.000000,-0.000305,0.005106,0.001042,0.005300,-0.000499,79.472139,0.005853,
1370,40,-0.014964,-15.024704,0.999999,0.000138,-0.000042,0.004574,-0.000264,0.004589,-0.000057,-86.735800,0.005266,
960,90,0.109053,-14.770455,0.999998,0.000165,-0.000707,0.005119,0.000685,0.005198,-0.000786,83.385417,0.005604,
1880,770,-2.753049,-9.269986,0.999997,0.000225,-0.003567,0.007262,-0.000173,0.007264,-0.003570,-89.087342,0.007265,
1210,230,0.022103,-14.116352,0.999998,0.000181,-0.001075,0.005058,-0.000027,0.005058,-0.001075,-89.744179,0.005330,
720,880,2.527378,-8.651395,0.999996,0.000243,-0.003675,0.007644,0.000827,0.007704,-0.003735,85.844869,0.007705,
1880,1670,-1.839341,-2.941547,0.999998,0.000150,-0.003715,0.007410,-0.000073,0.007410,-0.003716,-89.624007,0.007410,
1440,590,-0.525604,-11.801659,0.999996,0.000231,-0.003534,0.006827,0.001383,0.007009,-0.003716,82.524589,0.007013,
930,350,0.591915,-13.191992,0.999997,0.000221,-0.002472,0.006615,-0.000013,0.006615,-0.002472,-89.914903,0.006685,
1410,1310,-0.526096,-4.294271,0.999995,0.000243,-0.004894,0.007725,-0.002490,0.008199,-0.005367,-79.231433,0.008328,
820,390,0.989083,-12.708075,0.999996,0.000238,-0.003396,0.007344,-0.000113,0.007345,-0.003397,-89.397320,0.007352,
1540,510,-0.816295,-12.071570,0.999997,0.000223,-0.003580,0.007231,0.000674,0.007273,-0.003622,86.444331,0.007273,
910,460,0.799119,-12.398476,0.999998,0.000173,-0.003344,0.007104,-0.000492,0.007127,-0.003367,-87.307373,0.007131,
1040,430,0.389539,-12.871840,0.999998,0.000187,-0.002451,0.006082,-0.000539,0.006116,-0.002485,-86.403209,0.006152,
840,790,1.773354,-9.537531,0.999996,0.000224,-0.004736,0.008737,0.000648,0.008768,-0.004767,87.254414,0.008779,
740,1450,1.721891,-4.255438,0.999997,0.000187,-0.004124,0.007921,-0.000028,0.007921,-0.004124,-89.868113,0.007924,
1810,1020,-2.937407,-7.612471,0.999998,0.000167,-0.003248,0.006981,-0.000113,0.006982,-0.003249,-89.364700,0.006988,
580,130,0.953823,-14.068475,0.999996,0.000261,-0.003652,0.007971,0.001023,0.008060,-0.003742,85.008201,0.008067,
770,700,1.829401,-10.161448,0.999998,0.000187,-0.004359,0.008171,0.000353,0.008181,-0.004369,88.388932,0.008188,
800,1980,0.184313,-0.307383,0.999997,0.000202,-0.000959,0.005723,-0.001490,0.006041,-0.001276,-77.981180,0.006367,
1100,1600,0.257100,-2.289513,0.999998,0.000184,-0.002170,0.005738,0.000559,0.005778,-0.002209,85.977503,0.005831,
1260,800,-0.062535,-11.562056,0.999997,0.000224,-0.002350,0.001798,0.001185,0.002113,-0.002665,75.128211,0.002813,
690,1380,2.098055,-4.917092,0.999996,0.000242,-0.004006,0.007801,-0.000279,0.007808,-0.004013,-88.648414,0.007809,
560,1340,2.724902,-5.496973,0.999804,0.000000,-0.005606,0.007311,0.000616,0.007341,-0.005635,87.276636,0.007683,
1670,1690,-1.033658,-2.287736,0.999998,0.000174,-0.003411,0.007304,-0.000052,0.007304,-0.003411,-89.723190,0.007309,
1600,1230,-1.782059,-5.849108,0.999996,0.000241,-0.004741,0.008938,0.000800,0.008984,-0.004788,86.662973,0.008991,
1340,1290,-0.247987,-3.932153,0.999997,0.000202,-0.003608,0.005304,-0.003144,0.006301,-0.004606,-72.395957,0.006521,
1790,960,-2.835850,-8.035365,0.999998,0.000183,-0.003329,0.007042,-0.000355,0.007054,-0.003341,-88.039441,0.007057,
1310,1230,-0.265132,-3.942853,0.999994,0.000280,-0.003291,0.003451,-0.002539,0.004301,-0.004140,-71.507630,0.004876,
1090,1620,0.272496,-2.189237,0.999998,0.000194,-0.002197,0.005778,0.000522,0.005812,-0.002231,86.269580,0.005864,
1500,1320,-0.976221,-4.701589,0.999996,0.000217,-0.005332,0.008855,-0.000997,0.008925,-0.005402,-85.998053,0.008991,
1630,570,-1.258909,-11.372494,0.999996,0.000213,-0.004163,0.007910,0.000366,0.007921,-0.004174,88.264280,0.007925,
1820,1490,-2.013573,-4.165729,0.999998,0.000171,-0.003821,0.007662,-0.000016,0.007662,-0.003822,-89.918511,0.007662,
1360,1500,-0.270882,-2.862227,0.999997,0.000196,-0.002634,0.005689,-0.001205,0.005860,-0.002805,-81.923691,0.005862,
1170,2010,0.008082,-0.115077,0.999998,0.000156,-0.000094,0.004502,-0.000103,0.004504,-0.000096,-88.712791,0.005146,
1300,670,-0.123473,-11.825732,0.999998,0.000186,-0.002140,0.004369,0.001491,0.004694,-0.002465,77.690726,0.004696,
890,250,0.511529,-13.796924,0.999998,0.000185,-0.002287,0.006437,0.000415,0.006457,-0.002307,87.283527,0.006544,
1890,350,-1.786898,-12.409187,0.999997,0.000203,-0.003741,0.007376,0.000005,0.007376,-0.003741,89.972968,0.007376,
1870,1670,-1.801818,-2.916258,0.999998,0.000168,-0.003720,0.007458,-0.000069,0.007459,-0.003720,-89.645971,0.007459,
1830,1800,-1.298494,-1.829101,0.999998,0.000211,-0.003595,0.007624,0.000234,0.007629,-0.003600,88.805130,0.007633,
1760,460,-1.555085,-11.905889,0.999996,0.000242,-0.003797,0.007638,0.000141,0.007640,-0.003799,89.295666,0.007640,
1720,260,-0.938923,-13.506863,0.999997,0.000192,-0.003002,0.007405,-0.000622,0.007442,-0.003039,-86.592584,0.007484,
600,890,2.966496,-8.464767,0.999998,0.000167,-0.003261,0.006659,0.000215,0.006663,-0.003265,88.760922,0.006664,
1600,30,-0.031962,-15.061378,0.999998,0.000000,-0.000130,0.004993,-0.001130,0.005231,-0.000368,-78.093148,0.005840,
1100,40,0.013495,-15.024266,0.999998,0.000183,-0.000081,0.004518,0.000273,0.004534,-0.000098,86.615483,0.005180,
970,1960,0.107498,-0.373812,0.999998,0.000175,-0.000698,0.005167,-0.000645,0.005238,-0.000768,-83.799961,0.005657,
1000,690,0.708469,-10.971795,0.999996,0.000223,-0.004750,0.007996,-0.001622,0.008199,-0.004953,-82.861306,0.008258,
840,810,1.837966,-9.362684,0.999997,0.000189,-0.004646,0.008767,0.000776,0.008812,-0.004691,86.699729,0.008818,
1410,1290,-0.559257,-4.453986,0.999995,0.000257,-0.005173,0.008047,-0.002544,0.008520,-0.005645,-79.474919,0.008669,
760,1280,2.084363,-5.592196,0.999997,0.000207,-0.004248,0.008209,-0.000693,0.008247,-0.004286,-86.827485,0.008249,
1770,1100,-2.762208,-7.040227,0.999997,0.000207,-0.003347,0.007201,0.000460,0.007221,-0.003367,87.508514,0.007226,
1730,2000,-0.160802,-0.211355,0.999998,0.000183,-0.000721,0.005943,0.002049,0.006523,-0.001301,74.203822,0.006905,
930,330,0.561358,-13.326551,0.999997,0.000209,-0.002410,0.006635,0.000027,0.006635,-0.002410,89.830969,0.006717,
930,1860,0.330455,-0.947588,0.999997,0.000194,-0.001495,0.005914,-0.000633,0.005968,-0.001548,-85.150688,0.006194,
900,770,1.410588,-9.864128,0.999994,0.000255,-0.005209,0.009133,0.000100,0.009134,-0.005210,89.600592,0.009164,
1100,1580,0.262380,-2.404811,0.999998,0.000178,-0.002283,0.005772,0.000673,0.005828,-0.002339,85.255569,0.005866,
1520,510,-0.745969,-12.122456,0.999997,0.000189,-0.003531,0.007130,0.000761,0.007184,-0.003585,85.939943,0.007184,
1440,490,-0.468945,-12.462151,0.999996,0.000205,-0.002970,0.006456,0.000916,0.006544,-0.003058,84.503081,0.006548,
1370,1400,-0.308982,-3.471968,0.999995,0.000255,-0.003243,0.005959,-0.002002,0.006375,-0.003660,-78.243010,0.006399,
570,660,2.530304,-10.063599,0.999492,0.002610,-0.005472,0.007634,0.000201,0.007637,-0.005475,89.123263,0.007873,
1340,1270,-0.273660,-4.036496,0.999996,0.000250,-0.003883,0.005355,-0.003337,0.006434,-0.004962,-72.075695,0.006742,
1260,780,-0.051179,-11.597729,0.999997,0.000200,-0.001886,0.002029,0.001275,0.002408,-0.002265,73.457081,0.002702,
800,1960,0.247765,-0.421484,0.999998,0.000182,-0.001258,0.005933,-0.001429,0.006206,-0.001532,-79.162570,0.006466,
720,1620,1.437647,-2.981260,0.999996,0.000237,-0.003747,0.007602,0.000154,0.007604,-0.003749,89.224843,0.007604,
830,560,1.253657,-11.443462,0.999997,0.000194,-0.004124,0.007863,-0.000366,0.007874,-0.004135,-88.253475,0.007877,
560,1330,2.749318,-5.581646,0.999882,0.000000,-0.005206,0.007714,0.000412,0.007727,-0.005219,88.176428,0.007884,
1070,1620,0.318459,-2.224585,0.999998,0.000177,-0.002427,0.005956,0.000658,0.006008,-0.002478,85.541368,0.006038,
1630,550,-1.224628,-11.529450,0.999997,0.000202,-0.004043,0.007822,0.000391,0.007835,-0.004056,88.116597,0.007836,
670,1380,2.176571,-4.958304,0.999998,0.000183,-0.003940,0.007712,-0.000287,0.007719,-0.003947,-88.591081,0.007720,
1500,1300,-1.027945,-4.881954,0.999995,0.000240,-0.005452,0.009128,-0.000868,0.009179,-0.005503,-86.605727,0.009239,
910,440,0.773838,-12.540642,0.999997,0.000202,-0.003294,0.007069,-0.000446,0.007088,-0.003313,-87.541894,0.007093,
1860,1230,-2.816045,-6.198723,0.999998,0.000166,-0.003465,0.006990,0.000327,0.007000,-0.003475,88.208605,0.007000,
1160,780,0.146106,-11.385376,0.999996,0.000232,-0.002741,0.003542,-0.002752,0.004577,-0.003776,-69.391398,0.004889,
1360,1480,-0.275856,-2.975832,0.999997,0.000201,-0.002690,0.005695,-0.001316,0.005897,-0.002892,-81.288122,0.005897,
1160,2010,0.008208,-0.115421,0.999999,0.000139,-0.000080,0.004492,-0.000121,0.004495,-0.000083,-88.484695,0.005143,
740,450,1.395188,-12.072283,0.999997,0.000211,-0.003751,0.007567,-0.000179,0.007570,-0.003754,-89.092018,0.007570,
1150,1520,0.161488,-2.660145,0.999998,0.000179,-0.002178,0.005302,0.000804,0.005387,-0.002264,83.933980,0.005410,
1310,1210,-0.370169,-4.005819,0.999994,0.000300,-0.003359,0.003016,-0.001520,0.003360,-0.003703,-77.249486,0.004092,
890,230,0.468850,-13.926765,0.999997,0.000195,-0.002145,0.006335,0.000514,0.006366,-0.002176,86.545719,0.006471,
1790,940,-2.805150,-8.178089,0.999998,0.000174,-0.003388,0.007168,-0.000565,0.007198,-0.003418,-86.943195,0.007201,
1890,230,-1.433269,-13.286904,0.999997,0.000203,-0.003637,0.007277,-0.000164,0.007279,-0.003639,-89.138976,0.007279,
1720,240,-0.874293,-13.655917,0.999998,0.000180,-0.002885,0.007379,-0.000791,0.007440,-0.002946,-85.620869,0.007493,
1370,1700,-0.231279,-1.731068,0.999998,0.000176,-0.001752,0.005640,-0.000189,0.005644,-0.001757,-88.532939,0.005777,
1790,1020,-2.873147,-7.613172,0.999998,0.000157,-0.003256,0.007085,-0.000109,0.007086,-0.003257,-89.393834,0.007094,
1670,1670,-1.071672,-2.435407,0.999998,0.000167,-0.003444,0.007391,-0.000084,0.007392,-0.003445,-89.556975,0.007398,
1280,670,-0.081944,-11.880586,0.999998,0.000191,-0.001947,0.004026,0.001185,0.004252,-0.002174,79.174871,0.004253,
950,1960,0.123596,-0.377424,0.999998,0.000202,-0.000713,0.005205,-0.000715,0.005290,-0.000798,-83.212544,0.005704,
1810,1800,-1.228297,-1.775787,0.999998,0.000231,-0.003524,0.007660,0.000427,0.007676,-0.003541,87.819220,0.007684,
1590,2020,-0.041661,-0.082207,0.999998,0.000000,-0.000439,0.005096,0.001006,0.005274,-0.000616,80.009640,0.005767,
1580,50,-0.067113,-14.965455,0.999999,0.000146,-0.000453,0.005107,-0.001012,0.005285,-0.000632,-80.000918,0.005773,
1410,1270,-0.600401,-4.615658,0.999995,0.000258,-0.005431,0.008300,-0.002539,0.008755,-0.005886,-79.851345,0.008926,
600,930,3.032728,-8.197230,0.999998,0.000178,-0.003255,0.006714,0.000322,0.006725,-0.003265,88.150020,0.006726,
1750,650,-1.941366,-10.446797,0.999997,0.000196,-0.004088,0.007903,-0.000209,0.007907,-0.004091,-89.001106,0.007909,
580,660,2.482218,-10.080379,0.999996,0.000239,-0.004927,0.007571,0.000179,0.007574,-0.004930,89.181144,0.007688,
1890,500,-2.133069,-11.288285,0.999997,0.000195,-0.003708,0.007600,-0.000002,0.007600,-0.003708,-89.991098,0.007601,
1790,1390,-2.138396,-4.872597,0.999997,0.000201,-0.003955,0.007758,0.000251,0.007763,-0.003960,88.773131,0.007764,
800,1940,0.318934,-0.546612,0.999997,0.000219,-0.001558,0.006209,-0.001414,0.006458,-0.001807,-79.997849,0.006664,
1000,670,0.683242,-11.125276,0.999997,0.000220,-0.004537,0.007745,-0.001594,0.007948,-0.004741,-82.722955,0.007997,
1100,1560,0.267032,-2.519389,0.999998,0.000167,-0.002399,0.005771,0.000814,0.005851,-0.002479,84.363502,0.005874,
1370,1420,-0.305699,-3.353788,0.999997,0.000198,-0.003062,0.005894,-0.001799,0.006242,-0.003410,-79.053489,0.006250,
1440,470,-0.456226,-12.594475,0.999997,0.000208,-0.002821,0.006393,0.000786,0.006460,-0.002888,85.158333,0.006472,
930,310,0.530872,-13.458585,0.999997,0.000213,-0.002336,0.006419,0.000078,0.006420,-0.002337,89.489691,0.006499,
720,1580,1.522435,-3.287859,0.999996,0.000232,-0.003819,0.007697,0.000170,0.007700,-0.003821,89.156338,0.007700,
1270,1620,-0.071227,-2.092225,0.999998,0.000186,-0.001825,0.005327,-0.000161,0.005330,-0.001828,-88.709334,0.005417,
1260,760,-0.044350,-11.642520,0.999998,0.000184,-0.001710,0.002357,0.001176,0.002672,-0.002025,74.977118,0.002788,
810,560,1.336530,-11.391000,0.999997,0.000201,-0.004109,0.007892,-0.000308,0.007900,-0.004117,-88.532452,0.007902,
1360,1460,-0.276446,-3.093152,0.999997,0.000203,-0.002719,0.005685,-0.001453,0.005929,-0.002963,-80.465498,0.005929,
1500,1280,-1.082204,-5.068538,0.999996,0.000226,-0.005578,0.009321,-0.000712,0.009354,-0.005612,-87.270787,0.009417,
560,1320,2.778358,-5.672706,0.999871,0.000000,-0.004907,0.007527,0.000342,0.007536,-0.004916,88.423676,0.007652,
1630,530,-1.189067,-11.686989,0.999998,0.000170,-0.003959,0.007728,0.000405,0.007742,-0.003973,88.017806,0.007743,
860,270,0.629311,-13.624137,0.999997,0.000229,-0.002630,0.006715,0.000366,0.006729,-0.002644,87.758597,0.006780,
1340,1350,-0.222084,-3.616625,0.999996,0.000216,-0.002997,0.005260,-0.002430,0.005922,-0.003659,-74.761788,0.005977,
760,1130,2.483227,-6.789118,0.999998,0.000175,-0.003494,0.007631,-0.000692,0.007674,-0.003537,-86.452361,0.007681,
1210,210,0.022110,-14.216558,0.999998,0.000194,-0.000979,0.005008,-0.000047,0.005009,-0.000979,-89.546203,0.005309,
760,1260,2.143755,-5.756625,0.999996,0.000233,-0.004178,0.008125,-0.000760,0.008172,-0.004225,-86.478371,0.008173,
570,1260,2.863293,-6.057589,0.999987,0.000460,-0.003831,0.006836,-0.000022,0.006836,-0.003831,-89.883141,0.006852,
960,1330,0.970639,-4.625166,0.999998,0.000179,-0.005198,0.008735,0.001029,0.008811,-0.005274,85.798370,0.008868,
970,1520,0.674855,-3.100722,0.999997,0.000204,-0.003602,0.007081,0.000974,0.007169,-0.003691,84.831697,0.007170,
1310,830,-0.284148,-11.159287,0.999994,0.000270,-0.003309,0.003339,0.002355,0.004089,-0.004059,72.340834,0.004704,
980,850,1.272455,-9.397450,0.999996,0.000264,-0.005703,0.010139,-0.000139,0.010140,-0.005704,-89.497621,0.010166,
890,210,0.426247,-14.050131,0.999998,0.000180,-0.001980,0.006203,0.000596,0.006246,-0.002023,85.855220,0.006374,
1550,660,-1.072454,-10.875587,0.999997,0.000220,-0.004687,0.008303,0.000711,0.008342,-0.004725,86.878254,0.008366,
910,420,0.744776,-12.683255,0.999997,0.000204,-0.003211,0.006991,-0.000386,0.007005,-0.003225,-87.836548,0.007012,
1720,220,-0.812768,-13.802771,0.999997,0.000190,-0.002764,0.007247,-0.000956,0.007338,-0.002854,-84.592521,0.007398,
1300,590,-0.132033,-12.199225,0.999998,0.000166,-0.002160,0.004948,0.000951,0.005073,-0.002286,82.509019,0.005081,
1410,1250,-0.659144,-4.787125,0.999994,0.000292,-0.005694,0.008683,-0.002435,0.009084,-0.006095,-80.643290,0.009259,
1890,910,-3.086741,-8.298476,0.999998,0.000171,-0.003232,0.006483,-0.000218,0.006488,-0.003237,-88.714788,0.006488,
1750,1670,-1.355663,-2.617481,0.999997,0.000234,-0.003695,0.007604,-0.000075,0.007605,-0.003695,-89.620701,0.007606,
1160,760,0.130814,-11.455102,0.999997,0.000187,-0.002505,0.003644,-0.002583,0.004585,-0.003446,-69.984514,0.004775,
1590,30,-0.030929,-15.063194,0.999998,0.000000,-0.000221,0.004972,-0.001021,0.005166,-0.000414,-79.268104,0.005741,
720,450,1.469826,-12.024077,0.999997,0.000212,-0.003788,0.007598,-0.000152,0.007600,-0.003790,-89.236220,0.007600,
680,1790,1.165162,-1.788354,0.999997,0.000184,-0.003526,0.007541,-0.000393,0.007555,-0.003540,-87.968557,0.007560,
1370,1900,-0.094357,-0.648942,0.999998,0.000156,-0.000674,0.005090,0.000280,0.005103,-0.000688,87.228296,0.005538,
880,350,0.729521,-13.107495,0.999997,0.000203,-0.003069,0.006870,-0.000110,0.006871,-0.003070,-89.366111,0.006884,
1730,1980,-0.245182,-0.330062,0.999997,0.000183,-0.001152,0.006075,0.001904,0.006546,-0.001623,76.105463,0.006818,
720,1560,1.563242,-3.443278,0.999996,0.000241,-0.003849,0.007706,0.000144,0.007708,-0.003850,89.285308,0.007708,
1350,2010,-0.015243,-0.116554,0.999998,0.000156,-0.000179,0.004569,0.000197,0.004577,-0.000187,87.630314,0.005181,
1410,720,-0.496209,-11.014516,0.999995,0.000239,-0.004545,0.007369,0.002372,0.007824,-0.005000,79.145489,0.007924,
1880,500,-2.096318,-11.312038,0.999998,0.000150,-0.003720,0.007608,0.000016,0.007608,-0.003720,89.920499,0.007608,
1100,1540,0.271866,-2.636498,0.999997,0.000182,-0.002496,0.005767,0.000946,0.005874,-0.002603,83.551248,0.005886,
1350,1700,-0.196226,-1.712449,0.999998,0.000186,-0.001822,0.005562,-0.000241,0.005570,-0.001830,-88.129921,0.005678,
1610,1400,-1.342556,-4.385718,0.999997,0.000201,-0.004611,0.008372,-0.000266,0.008377,-0.004617,-88.828041,0.008392,
1440,530,-0.494937,-12.200240,0.999997,0.000211,-0.003193,0.006572,0.001079,0.006690,-0.003311,83.771384,0.006690,
1290,1960,-0.021090,-0.343938,0.999998,0.000151,-0.000305,0.004669,0.000118,0.004672,-0.000308,88.639487,0.005226,
1860,950,-3.051870,-8.064804,0.999997,0.000213,-0.003198,0.006517,-0.000196,0.006521,-0.003202,-88.844132,0.006521,
1670,1650,-1.112662,-2.584552,0.999997,0.000202,-0.003491,0.007458,-0.000104,0.007459,-0.003492,-89.454289,0.007464,
930,290,0.503070,-13.584262,0.999997,0.000210,-0.002240,0.006429,0.000216,0.006434,-0.002245,88.575616,0.006532,
590,1260,2.791473,-6.013834,0.999998,0.000192,-0.003574,0.007016,-0.000206,0.007020,-0.003578,-88.887305,0.007021,
1260,740,-0.042558,-11.690365,0.999998,0.000170,-0.001618,0.002701,0.001086,0.002959,-0.001876,76.657496,0.002994,
740,1130,2.551351,-6.797344,0.999997,0.000235,-0.003452,0.007501,-0.000632,0.007538,-0.003488,-86.709422,0.007545,
1210,190,0.018788,-14.317556,0.999998,0.000173,-0.000898,0.004968,0.000013,0.004968,-0.000898,89.870004,0.005294,
1250,1620,-0.034512,-2.083311,0.999998,0.000155,-0.001807,0.005318,-0.000174,0.005322,-0.001811,-88.598288,0.005412,
1660,570,-1.384763,-11.293246,0.999996,0.000225,-0.004134,0.007883,0.000246,0.007888,-0.004139,88.828304,0.007892,
760,1240,2.200917,-5.918504,0.999997,0.000219,-0.004103,0.007990,-0.000815,0.008045,-0.004158,-86.162149,0.008046,
700,1510,1.748822,-3.877343,0.999997,0.000199,-0.003934,0.007746,0.000083,0.007746,-0.003935,89.594352,0.007747,
850,180,0.434257,-14.200837,0.999998,0.000198,-0.001766,0.006265,0.000898,0.006365,-0.001865,83.695922,0.006544,
800,1920,0.384962,-0.669696,0.999997,0.000216,-0.001895,0.006290,-0.001257,0.006479,-0.002084,-81.462893,0.006615,
1720,200,-0.740857,-13.949896,0.999997,0.000210,-0.002581,0.007204,-0.001136,0.007334,-0.002711,-83.462442,0.007417,
560,1430,2.483687,-4.825724,0.999638,0.000000,-0.004419,0.006732,-0.001471,0.006923,-0.004609,-82.608834,0.007048,
1580,2020,-0.036265,-0.080304,0.999998,0.000000,-0.000391,0.005067,0.000969,0.005234,-0.000557,80.228728,0.005749,
600,910,2.998544,-8.331800,0.999997,0.000202,-0.003267,0.006679,0.000277,0.006686,-0.003275,88.408745,0.006687,
890,190,0.381130,-14.174262,0.999997,0.000198,-0.001828,0.006101,0.000699,0.006162,-0.001890,85.001174,0.006314,
1310,1390,-0.142237,-3.300216,0.999998,0.000201,-0.002262,0.004626,-0.001569,0.004966,-0.002602,-77.755641,0.004968,
1530,660,-0.980137,-10.945698,0.999996,0.000247,-0.004667,0.008226,0.000902,0.008289,-0.004730,86.015777,0.008316,
1320,1350,-0.166213,-3.522547,0.999997,0.000188,-0.002608,0.004633,-0.002244,0.005272,-0.003247,-74.101948,0.005319,
1120,630,0.230676,-11.887855,0.999996,0.000233,-0.002722,0.005380,-0.001683,0.005716,-0.003058,-78.718469,0.005720,
1350,1900,-0.080418,-0.645021,0.999998,0.000145,-0.000765,0.005045,0.000209,0.005053,-0.000772,87.944151,0.005444,
1160,740,0.124375,-11.532864,0.999997,0.000224,-0.002407,0.003816,-0.002366,0.004614,-0.003204,-71.377679,0.004728,
1050,280,0.251529,-13.777834,0.999997,0.000198,-0.001756,0.005697,-0.000012,0.005697,-0.001756,-89.909527,0.005835,
1630,510,-1.152030,-11.838046,0.999997,0.000212,-0.003870,0.007635,0.000393,0.007648,-0.003884,88.044542,0.007648,
1570,800,-1.547245,-9.567818,0.999996,0.000238,-0.005140,0.009243,-0.000436,0.009256,-0.005153,-88.265035,0.009276,
1880,910,-3.054473,-8.311646,0.999998,0.000172,-0.003234,0.006558,-0.000226,0.006563,-0.003239,-88.676294,0.006563,
1500,1260,-1.147827,-5.260897,0.999997,0.000226,-0.005675,0.009574,-0.000511,0.009591,-0.005692,-88.083188,0.009647,
860,530,1.080349,-11.756921,0.999997,0.000201,-0.003905,0.007674,-0.000466,0.007693,-0.003923,-87.697386,0.007694,
1360,1440,-0.278956,-3.203976,0.999998,0.000195,-0.002777,0.005716,-0.001573,0.005998,-0.003059,-79.834202,0.005999,
1670,890,-2.281273,-8.629173,0.999997,0.000216,-0.003769,0.008011,-0.000951,0.008087,-0.003845,-85.414975,0.008091,
1560,490,-0.861657,-12.167373,0.999998,0.000201,-0.003523,0.007264,0.000565,0.007294,-0.003552,87.011813,0.007294,
1080,1310,0.400967,-4.115410,0.999997,0.000211,-0.004426,0.006913,0.002787,0.007561,-0.005074,76.910945,0.007707,
1870,500,-2.059348,-11.334837,0.999997,0.000200,-0.003746,0.007616,0.000040,0.007617,-0.003746,89.800067,0.007617,
1410,1230,-0.730259,-4.967741,0.999995,0.000259,-0.005766,0.008976,-0.002278,0.009320,-0.006110,-81.414035,0.009469,
1460,1830,-0.265377,-1.066197,0.999998,0.000174,-0.001346,0.005659,0.000320,0.005673,-0.001361,87.387355,0.005924,
1260,720,-0.041062,-11.745667,0.999998,0.000165,-0.001605,0.003052,0.000958,0.003241,-0.001795,78.821693,0.003247,
720,430,1.428143,-12.175836,0.999997,0.000228,-0.003732,0.007575,-0.000122,0.007576,-0.003734,-89.383234,0.007576,
1030,1260,0.760702,-4.874528,0.999996,0.000257,-0.005743,0.008985,0.001919,0.009231,-0.005989,82.695045,0.009366,
1750,1630,-1.442923,-2.923101,0.999997,0.000204,-0.003728,0.007571,-0.000122,0.007572,-0.003729,-89.381835,0.007572,
980,80,0.079922,-14.825619,0.999998,0.000161,-0.000463,0.005028,0.000650,0.005104,-0.000539,83.344181,0.005609,
720,1540,1.604727,-3.595817,0.999997,0.000225,-0.003922,0.007709,0.000143,0.007711,-0.003924,89.297583,0.007711,
1450,1690,-0.402998,-1.888723,0.999997,0.000193,-0.002190,0.006116,-0.000222,0.006122,-0.002196,-88.467912,0.006202,
1280,2010,-0.008304,-0.115012,0.999999,0.000146,-0.000075,0.004527,0.000076,0.004528,-0.000076,89.052802,0.005186,
1370,800,-0.434083,-10.724327,0.999994,0.000283,-0.004830,0.007018,0.003276,0.007863,-0.005676,75.528046,0.008117,
770,1700,1.086879,-2.263412,0.999998,0.000140,-0.003315,0.007348,-0.000084,0.007348,-0.003316,-89.547471,0.007360,
630,1090,2.977473,-7.136973,0.999998,0.000192,-0.003229,0.006688,-0.000126,0.006689,-0.003231,-89.269623,0.006691,
930,270,0.465086,-13.715425,0.999997,0.000218,-0.002082,0.006285,0.000281,0.006294,-0.002091,88.077360,0.006411,
1210,1620,0.037518,-2.082962,0.999998,0.000179,-0.001812,0.005272,0.000197,0.005277,-0.001817,88.410177,0.005362,
1440,510,-0.482651,-12.331652,0.999997,0.000203,-0.003113,0.006507,0.001004,0.006611,-0.003217,84.104026,0.006611,
1590,1160,-1.988875,-6.456629,0.999997,0.000205,-0.004024,0.008777,0.001089,0.008869,-0.004116,85.170621,0.008876,
1580,30,-0.025788,-15.064377,0.999999,0.000000,-0.000284,0.004960,-0.000971,0.005134,-0.000458,-79.845328,0.005683,
1510,1420,-0.850911,-3.904101,0.999997,0.000193,-0.004378,0.007812,-0.001094,0.007910,-0.004475,-84.910165,0.007932,
760,2010,0.112190,-0.150444,0.999998,0.000176,-0.000326,0.005600,-0.001729,0.006067,-0.000794,-74.863102,0.006596,
1620,310,-0.761696,-13.322801,0.999998,0.000165,-0.002779,0.006903,-0.000204,0.006907,-0.002783,-88.795542,0.006950,
950,1520,0.747869,-3.157269,0.999997,0.000180,-0.003637,0.007220,0.000856,0.007287,-0.003704,85.517980,0.007288,
1170,1960,0.022024,-0.344886,0.999998,0.000185,-0.000260,0.004666,-0.000128,0.004669,-0.000263,-88.509213,0.005246,
940,910,1.761477,-8.647196,0.999997,0.000216,-0.004377,0.009610,0.000983,0.009679,-0.004446,85.998116,0.009689,
1150,1360,0.148305,-3.444827,0.999997,0.000201,-0.002458,0.004478,0.002007,0.005016,-0.002997,74.971804,0.005048,
1720,180,-0.670827,-14.091226,0.999996,0.000226,-0.002349,0.007090,-0.001322,0.007271,-0.002531,-82.178340,0.007382,
1890,170,-1.183332,-13.734206,0.999997,0.000180,-0.003677,0.007574,-0.000547,0.007601,-0.003704,-87.224820,0.007602,
890,170,0.334368,-14.294082,0.999997,0.000197,-0.001651,0.005976,0.000777,0.006054,-0.001729,84.239414,0.006237,
1160,720,0.124643,-11.612050,0.999997,0.000217,-0.002307,0.004041,-0.002114,0.004681,-0.002947,-73.169266,0.004733,
1230,1560,0.003161,-2.388571,0.999998,0.000178,-0.001883,0.005148,0.000007,0.005148,-0.001883,89.944204,0.005210,
1440,1540,-0.484821,-2.821428,0.999997,0.000216,-0.003125,0.006540,-0.001058,0.006654,-0.003239,-83.825293,0.006655,
1390,1760,-0.225380,-1.406283,0.999997,0.000187,-0.001542,0.005641,0.000003,0.005641,-0.001542,89.972777,0.005831,
1560,470,-0.836337,-12.310799,0.999997,0.000208,-0.003391,0.007174,0.000498,0.007197,-0.003415,87.305043,0.007200,
1570,1010,-2.195319,-7.707049,0.999997,0.000233,-0.002743,0.008264,-0.000312,0.008272,-0.002752,-88.376251,0.008425,
1630,490,-1.118576,-11.993108,0.999997,0.000197,-0.003755,0.007552,0.000366,0.007564,-0.003767,88.149779,0.007564,
1550,530,-0.878069,-11.898729,0.999996,0.000231,-0.003817,0.007427,0.000721,0.007473,-0.003864,86.344160,0.007474,
970,680,0.836098,-10.920338,0.999996,0.000222,-0.004793,0.008175,-0.001276,0.008300,-0.004917,-84.434425,0.008347,
1120,610,0.230573,-11.996882,0.999998,0.000205,-0.002671,0.005400,-0.001501,0.005670,-0.002941,-79.800728,0.005671,
1870,910,-3.021664,-8.322709,0.999998,0.000165,-0.003235,0.006645,-0.000254,0.006652,-0.003242,-88.529699,0.006652,
920,230,0.413686,-13.953342,0.999998,0.000202,-0.001738,0.006125,0.000516,0.006159,-0.001772,86.263872,0.006342,
1410,1210,-0.821761,-5.145376,0.999996,0.000244,-0.005641,0.009129,-0.002151,0.009436,-0.005948,-81.879748,0.009542,
790,1320,1.838340,-5.207863,0.999996,0.000248,-0.004466,0.008362,-0.000452,0.008378,-0.004482,-87.984650,0.008385,
1650,740,-1.749910,-9.917047,0.999996,0.000279,-0.004619,0.008452,-0.000428,0.008466,-0.004633,-88.125691,0.008479,
800,1900,0.448198,-0.798158,0.999997,0.000222,-0.002100,0.006508,-0.001157,0.006661,-0.002253,-82.477427,0.006777,
700,1830,0.963313,-1.437674,0.999998,0.000169,-0.003450,0.007485,-0.000599,0.007518,-0.003483,-86.872646,0.007525,
900,750,1.350371,-10.045569,0.999994,0.000279,-0.005176,0.009046,-0.000083,0.009047,-0.005177,-89.666391,0.009078,
1840,950,-2.988069,-8.079178,0.999998,0.000192,-0.003226,0.006702,-0.000277,0.006710,-0.003234,-88.403070,0.006712,
720,1520,1.647921,-3.752480,0.999998,0.000208,-0.003975,0.007771,0.000115,0.007772,-0.003976,89.437237,0.007773,
1110,1620,0.230694,-2.166327,0.999998,0.000157,-0.002045,0.005612,0.000440,0.005637,-0.002070,86.718843,0.005703,
1570,2020,-0.031997,-0.078545,0.999998,0.000000,-0.000280,0.005029,0.000965,0.005199,-0.000449,80.014380,0.005761,
1050,1260,0.647277,-4.726230,0.999996,0.000274,-0.005609,0.008539,0.002376,0.008927,-0.005997,80.716910,0.009101,
600,370,1.738917,-12.333617,0.999997,0.000195,-0.003688,0.007452,-0.000081,0.007452,-0.003688,-89.585124,0.007453,
930,250,0.436129,-13.836522,0.999997,0.000200,-0.001943,0.006184,0.000382,0.006202,-0.001961,87.317950,0.006340,
1750,1090,-2.709924,-7.106553,0.999996,0.000222,-0.003339,0.007275,0.000407,0.007291,-0.003354,87.809977,0.007299,
680,1060,2.833703,-7.329301,0.999998,0.000163,-0.003253,0.007059,-0.000218,0.007064,-0.003257,-88.790300,0.007071,
1210,170,0.017846,-14.415451,0.999998,0.000168,-0.000780,0.004943,0.000005,0.004943,-0.000780,89.949449,0.005315,
1720,160,-0.590576,-14.234547,0.999997,0.000216,-0.002120,0.007020,-0.001512,0.007263,-0.002364,-80.843503,0.007410,
760,700,1.872857,-10.141693,0.999997,0.000221,-0.004314,0.008127,0.000365,0.008138,-0.004325,88.320842,0.008143,
1290,1900,-0.038415,-0.633192,0.999998,0.000163,-0.000578,0.004908,0.000123,0.004911,-0.000580,88.714498,0.005367,
1230,1520,0.003209,-2.590239,0.999998,0.000161,-0.001900,0.004954,0.000043,0.004954,-0.001900,89.642246,0.004999,
1490,1100,-1.825782,-6.831679,0.999997,0.000198,-0.003774,0.010143,0.000715,0.010180,-0.003810,87.066463,0.010287,
1580,410,-0.818797,-12.695220,0.999997,0.000237,-0.003198,0.007064,0.000277,0.007072,-0.003205,88.454839,0.007082,
1270,2010,-0.006879,-0.114698,0.999999,0.000135,-0.000136,0.004525,0.000047,0.004525,-0.000137,89.422466,0.005148,
1620,150,-0.362574,-14.385020,0.999997,0.000205,-0.001442,0.006211,-0.001131,0.006375,-0.001605,-81.769545,0.006632,
1360,1420,-0.276470,-3.319850,0.999997,0.000196,-0.002886,0.005715,-0.001737,0.006053,-0.003224,-79.000494,0.006057,
560,1310,2.791807,-5.737560,0.999897,0.000000,-0.004569,0.006944,0.000529,0.006969,-0.004594,87.373110,0.007085,
890,150,0.291065,-14.415195,0.999998,0.000188,-0.001443,0.005896,0.000869,0.005997,-0.001544,83.339898,0.006228,
610,440,1.861632,-11.831690,0.999997,0.000231,-0.003718,0.007544,-0.000120,0.007545,-0.003720,-89.388753,0.007545,
750,1700,1.152892,-2.304113,0.999997,0.000169,-0.003422,0.007437,-0.000094,0.007438,-0.003423,-89.501737,0.007446,
1510,1960,-0.120800,-0.377027,0.999998,0.000187,-0.000728,0.005193,0.000716,0.005279,-0.000814,83.202168,0.005684,
1130,1360,0.201754,-3.535135,0.999998,0.000157,-0.002795,0.005055,0.002254,0.005656,-0.003396,75.069192,0.005694,
840,1260,1.788382,-5.628423,0.999996,0.000217,-0.004671,0.008741,-0.000682,0.008776,-0.004705,-87.097866,0.008783,
1310,1650,-0.135115,-1.948936,0.999997,0.000194,-0.001878,0.005443,-0.000288,0.005455,-0.001889,-87.751960,0.005540,
740,570,1.643726,-11.142093,0.999996,0.000220,-0.004054,0.007832,-0.000101,0.007832,-0.004055,-89.513712,0.007834,
1490,1420,-0.765289,-3.830265,0.999997,0.000207,-0.004377,0.007653,-0.001296,0.007791,-0.004515,-83.921087,0.007823,
980,610,0.705058,-11.506417,0.999998,0.000206,-0.004037,0.007445,-0.001251,0.007580,-0.004172,-83.853561,0.007593,
1500,1240,-1.222630,-5.457436,0.999996,0.000237,-0.005729,0.009780,-0.000300,0.009786,-0.005734,-88.891502,0.009834,
1670,1630,-1.149999,-2.734541,0.999997,0.000193,-0.003564,0.007460,-0.000180,0.007463,-0.003567,-89.065954,0.007465,
1060,1700,0.291322,-1.763123,0.999997,0.000193,-0.002058,0.005840,0.000289,0.005851,-0.002068,87.906641,0.005934,
1010,950,1.652344,-8.487137,0.999993,0.000294,-0.004445,0.011540,-0.000368,0.011549,-0.004454,-88.683401,0.011649,
1570,30,-0.023661,-15.066177,0.999998,0.000000,-0.000217,0.004955,-0.000962,0.005128,-0.000390,-79.796281,0.005709,
710,2000,0.179343,-0.216945,0.999997,0.000203,-0.001165,0.006284,-0.002267,0.006920,-0.001801,-74.338033,0.007180,
860,310,0.713165,-13.351916,0.999997,0.000198,-0.002840,0.006842,0.000142,0.006844,-0.002843,89.160713,0.006876,
1300,650,-0.126334,-11.913951,0.999998,0.000158,-0.002132,0.004528,0.001329,0.004783,-0.002388,79.121333,0.004783,
1410,1190,-0.937897,-5.329102,0.999995,0.000266,-0.005421,0.009563,-0.002217,0.009884,-0.005742,-81.756705,0.009927,
1110,820,0.410190,-10.757194,0.999994,0.000300,-0.004478,0.006094,-0.003346,0.007064,-0.005448,-73.833185,0.007402,
720,1500,1.690946,-3.909011,0.999996,0.000235,-0.004000,0.007774,0.000088,0.007775,-0.004001,89.572137,0.007776,
680,1830,1.031622,-1.484021,0.999997,0.000186,-0.003432,0.007552,-0.000651,0.007591,-0.003470,-86.621929,0.007600,
610,1260,2.720117,-5.978012,0.999997,0.000214,-0.003575,0.007173,-0.000356,0.007184,-0.003586,-88.102985,0.007184,
1130,1280,0.233749,-3.931003,0.999997,0.000201,-0.003536,0.004936,0.003175,0.005994,-0.004594,71.572971,0.006271,
1630,910,-2.183624,-8.497622,0.999997,0.000220,-0.003710,0.008292,-0.001014,0.008377,-0.003795,-85.205072,0.008389,
1650,720,-1.691337,-10.085201,0.999998,0.000270,-0.004577,0.008431,-0.000312,0.008438,-0.004585,-88.627192,0.008449,
870,400,0.843189,-12.739206,0.999998,0.000193,-0.003162,0.007076,-0.000188,0.007080,-0.003165,-88.950609,0.007093,
1550,510,-0.851490,-12.047214,0.999997,0.000221,-0.003645,0.007303,0.000655,0.007342,-0.003684,86.587748,0.007342,
630,1070,2.990250,-7.271592,0.999998,0.000211,-0.003219,0.006701,-0.000166,0.006704,-0.003222,-89.038794,0.006706,
890,130,0.242018,-14.530108,0.999998,0.000169,-0.001255,0.005713,0.000923,0.005833,-0.001375,82.582759,0.006099,
680,870,2.649755,-8.691915,0.999996,0.000220,-0.003624,0.007438,0.000723,0.007485,-0.003671,86.277269,0.007485,
1200,850,0.215235,-11.450745,0.999990,0.000368,-0.005737,0.002312,0.000130,0.002314,-0.005739,89.074102,0.005775,
930,230,0.394117,-13.964052,0.999998,0.000188,-0.001777,0.006071,0.000460,0.006097,-0.001804,86.660020,0.006265,
1790,1370,-2.190685,-5.030245,0.999997,0.000206,-0.003982,0.007723,0.000343,0.007733,-0.003992,88.325152,0.007734,
1270,1700,-0.061292,-1.664366,0.999998,0.000171,-0.001578,0.005329,-0.000110,0.005331,-0.001580,-89.086084,0.005476,
1260,700,-0.042992,-11.808351,0.999998,0.000149,-0.001625,0.003365,0.000826,0.003498,-0.001758,80.845428,0.003498,
1310,1690,-0.126827,-1.731903,0.999998,0.000169,-0.001678,0.005415,-0.000156,0.005418,-0.001681,-88.738018,0.005547,
980,60,0.051498,-14.926617,0.999999,0.000155,-0.000302,0.004877,0.000619,0.004950,-0.000375,83.273105,0.005512,
970,660,0.807230,-11.082752,0.999997,0.000221,-0.004614,0.007998,-0.001282,0.008127,-0.004743,-84.252584,0.008165,
1720,140,-0.511849,-14.373081,0.999997,0.000223,-0.001828,0.006791,-0.001635,0.007091,-0.002127,-79.610304,0.007278,
1210,150,0.012954,-14.514976,0.999998,0.000159,-0.000673,0.004857,0.000033,0.004858,-0.000673,89.663194,0.005264,
800,1880,0.514669,-0.929421,0.999996,0.000222,-0.002313,0.006577,-0.001038,0.006696,-0.002432,-83.429430,0.006779,
830,1760,0.765674,-1.714964,0.999998,0.000177,-0.002705,0.007022,-0.000368,0.007036,-0.002719,-87.836003,0.007096,
1270,1540,-0.073300,-2.508870,0.999998,0.000154,-0.001916,0.005084,-0.000275,0.005095,-0.001927,-87.752010,0.005145,
1570,990,-2.176434,-7.871411,0.999997,0.000211,-0.002891,0.008331,-0.000552,0.008358,-0.002918,-87.190963,0.008484,
1840,1100,-2.995472,-7.075070,0.999997,0.000201,-0.003209,0.006711,0.000212,0.006715,-0.003213,88.776011,0.006717,
760,680,1.818950,-10.305296,0.999997,0.000243,-0.004310,0.008135,0.000234,0.008140,-0.004314,88.922884,0.008145,
1750,1070,-2.720944,-7.250366,0.999997,0.000200,-0.003257,0.007216,0.000234,0.007221,-0.003262,88.722972,0.007233,
560,1290,2.818625,-5.866707,0.999935,0.000000,-0.004226,0.006978,-0.000013,0.006978,-0.004226,-89.933024,0.007030,
1600,410,-0.882186,-12.654170,0.999998,0.000150,-0.003249,0.007136,0.000214,0.007140,-0.003254,88.817929,0.007150,
1760,390,-1.404059,-12.440492,0.999996,0.000214,-0.003694,0.007593,0.000079,0.007594,-0.003694,89.598944,0.007594,
1490,1400,-0.788006,-3.984520,0.999997,0.000219,-0.004557,0.007928,-0.001308,0.008064,-0.004693,-84.081338,0.008100,
980,590,0.687263,-11.653552,0.999997,0.000227,-0.003863,0.007325,-0.001195,0.007451,-0.003989,-83.971811,0.007457,
1630,930,-2.243354,-8.328080,0.999997,0.000220,-0.003490,0.008188,-0.000942,0.008264,-0.003566,-85.417734,0.008290,
840,1240,1.855492,-5.800385,0.999997,0.000209,-0.004612,0.008756,-0.000810,0.008805,-0.004661,-86.544674,0.008810,
1120,670,0.229192,-11.673013,0.999997,0.000184,-0.002831,0.005342,-0.002045,0.005825,-0.003314,-76.708929,0.005844,
1100,1520,0.277481,-2.753360,0.999997,0.000189,-0.002586,0.005783,0.001100,0.005925,-0.002728,82.637957,0.005931,
1470,1100,-1.748364,-6.766817,0.999995,0.000259,-0.004125,0.010889,0.000295,0.010895,-0.004131,88.875923,0.011001,
1160,700,0.122944,-11.692431,0.999997,0.000199,-0.002225,0.004192,-0.001853,0.004689,-0.002721,-74.996340,0.004709,
1490,860,-1.359425,-9.263689,0.999995,0.000293,-0.005592,0.010149,-0.000101,0.010149,-0.005592,-89.632084,0.010167,
680,1040,2.847631,-7.470556,0.999998,0.000161,-0.003256,0.007088,-0.000172,0.007091,-0.003259,-89.049796,0.007099,
1260,2010,-0.003945,-0.115187,0.999999,0.000126,-0.000159,0.004524,0.000024,0.004524,-0.000160,89.703282,0.005135,
1730,160,-0.612310,-14.224913,0.999997,0.000211,-0.002364,0.007089,-0.001450,0.007306,-0.002581,-81.472729,0.007410,
720,2000,0.169676,-0.213543,0.999997,0.000221,-0.001074,0.006150,-0.002144,0.006739,-0.001663,-74.656116,0.007021,
870,380,0.810865,-12.880661,0.999998,0.000169,-0.003108,0.006967,-0.000162,0.006969,-0.003111,-89.078569,0.006983,
1790,1350,-2.244254,-5.182487,0.999997,0.000209,-0.003965,0.007668,0.000401,0.007682,-0.003979,88.025914,0.007683,
930,210,0.362458,-14.079872,0.999998,0.000189,-0.001618,0.005984,0.000546,0.006023,-0.001657,85.914693,0.006222,
1200,840,0.166924,-11.474528,0.999996,0.000225,-0.004770,0.002274,-0.000145,0.002277,-0.004773,-88.821809,0.004775,
630,1050,3.003703,-7.404910,0.999997,0.000224,-0.003220,0.006792,-0.000231,0.006797,-0.003225,-88.676217,0.006800,
860,290,0.675300,-13.485844,0.999998,0.000184,-0.002761,0.006806,0.000261,0.006813,-0.002768,88.439278,0.006853,
1550,490,-0.827483,-12.191185,0.999997,0.000206,-0.003469,0.007196,0.000589,0.007228,-0.003502,86.851005,0.007230,
790,820,2.090155,-9.198570,0.999998,0.000160,-0.004189,0.008281,0.000870,0.008342,-0.004250,86.030617,0.008342,
940,890,1.673073,-8.839640,0.999995,0.000241,-0.004727,0.009646,0.000886,0.009701,-0.004782,86.485648,0.009701,
680,1810,1.100513,-1.636675,0.999997,0.000235,-0.003483,0.007609,-0.000507,0.007632,-0.003506,-87.389892,0.007640,
660,870,2.722334,-8.674823,0.999997,0.000195,-0.003543,0.007322,0.000646,0.007360,-0.003581,86.610500,0.007361,
1390,1280,-0.477739,-4.383595,0.999996,0.000223,-0.004956,0.007529,-0.002897,0.008169,-0.005595,-77.550518,0.008353,
1060,700,0.448316,-11.196243,0.999995,0.000250,-0.004199,0.006984,-0.002329,0.007449,-0.004665,-78.691986,0.007528,
890,110,0.197523,-14.644592,0.999998,0.000180,-0.001053,0.005623,0.000976,0.005762,-0.001193,81.854401,0.006083,
950,680,0.933814,-10.839455,0.999997,0.000211,-0.004848,0.008332,-0.001042,0.008414,-0.004930,-85.505385,0.008455,
630,1260,2.647971,-5.942521,0.999996,0.000247,-0.003642,0.007332,-0.000468,0.007352,-0.003662,-87.562868,0.007352,
1270,1900,-0.026733,-0.631229,0.999998,0.000161,-0.000657,0.004902,0.000067,0.004903,-0.000658,89.312013,0.005322,
1090,820,0.507400,-10.550330,0.999994,0.000305,-0.005060,0.007334,-0.003241,0.008131,-0.005856,-76.196108,0.008390,
1490,1960,-0.105610,-0.372449,0.999998,0.000224,-0.000668,0.005131,0.000643,0.005202,-0.000739,83.749234,0.005628,
1740,1730,-1.176417,-2.138067,0.999998,0.000184,-0.003536,0.007499,0.000078,0.007500,-0.003537,89.593358,0.007504,
1250,1700,-0.029276,-1.657782,0.999998,0.000157,-0.001610,0.005301,-0.000130,0.005304,-0.001613,-88.925479,0.005438,
1080,90,0.050692,-14.790421,0.999998,0.000168,-0.000307,0.004777,0.000354,0.004801,-0.000332,86.040997,0.005363,
560,1280,2.856304,-5.939463,0.999971,0.000000,-0.004079,0.007122,-0.000156,0.007124,-0.004082,-89.200229,0.007149,
1750,1050,-2.734795,-7.397480,0.999997,0.000189,-0.003244,0.007278,0.000246,0.007284,-0.003250,88.662194,0.007298,
1720,120,-0.427087,-14.508868,0.999997,0.000218,-0.001541,0.006702,-0.001849,0.007098,-0.001937,-77.917667,0.007338,
1210,1560,0.040190,-2.397651,0.999998,0.000170,-0.001897,0.005164,0.000253,0.005173,-0.001907,87.952430,0.005232,
1110,1380,0.255909,-3.516225,0.999997,0.000218,-0.003047,0.005578,0.002122,0.006072,-0.003541,76.898468,0.006100,
970,1990,0.063898,-0.221188,0.999998,0.000137,-0.000449,0.004974,-0.000664,0.005054,-0.000529,-83.118624,0.005556,
720,1480,1.733927,-4.064566,0.999996,0.000233,-0.004027,0.007780,0.000034,0.007780,-0.004027,89.833616,0.007781,
1210,130,0.012517,-14.610601,0.999998,0.000153,-0.000546,0.004746,0.000000,0.004746,-0.000546,89.998563,0.005193,
800,1860,0.578025,-1.063742,0.999996,0.000222,-0.002489,0.006732,-0.000926,0.006824,-0.002581,-84.318933,0.006891,
1520,810,-1.315416,-9.634411,0.999997,0.000209,-0.005542,0.009651,0.000010,0.009651,-0.005542,89.962863,0.009686,
1410,840,-0.797839,-10.018337,0.999996,0.000236,-0.005691,0.009038,0.002164,0.009349,-0.006002,81.813244,0.009474,
680,1020,2.851873,-7.613778,0.999998,0.000163,-0.003265,0.007127,0.000120,0.007129,-0.003267,89.338756,0.007137,
760,660,1.770421,-10.467678,0.999996,0.000244,-0.004286,0.008090,0.000153,0.008092,-0.004287,89.292529,0.008097,
840,1220,1.922797,-5.979762,0.999996,0.000209,-0.004468,0.008667,-0.000892,0.008727,-0.004529,-86.132888,0.008729,
1360,1400,-0.277295,-3.428701,0.999996,0.000220,-0.003031,0.005734,-0.001937,0.006143,-0.003440,-78.079046,0.006158,
930,410,0.668697,-12.793901,0.999997,0.000192,-0.002898,0.006766,-0.000328,0.006777,-0.002909,-88.057686,0.006799,
1030,1000,1.740794,-7.968051,0.999991,0.000351,-0.005703,0.014699,-0.001035,0.014751,-0.005755,-87.102561,0.014869,
650,2000,0.234019,-0.232068,0.999997,0.000223,-0.001387,0.006881,-0.002693,0.007680,-0.002187,-73.458003,0.007914,
1840,1080,-3.006117,-7.206780,0.999997,0.000199,-0.003151,0.006590,0.000112,0.006592,-0.003152,89.339467,0.006594,
1120,650,0.230382,-11.778506,0.999998,0.000161,-0.002765,0.005335,-0.001855,0.005740,-0.003170,-77.695246,0.005750,
1260,680,-0.044949,-11.877527,0.999998,0.000151,-0.001680,0.003666,0.000716,0.003761,-0.001774,82.499384,0.003763,
900,350,0.667218,-13.148086,0.999996,0.000207,-0.002856,0.006767,-0.000063,0.006768,-0.002857,-89.625953,0.006795,
630,1030,3.015735,-7.542732,0.999998,0.000190,-0.003201,0.006834,-0.000044,0.006834,-0.003201,-89.749558,0.006838,
1550,470,-0.804279,-12.332331,0.999997,0.000209,-0.003388,0.007134,0.000533,0.007161,-0.003415,87.105986,0.007164,
590,1440,2.332792,-4.672532,0.999997,0.000228,-0.003769,0.007620,-0.000100,0.007621,-0.003770,-89.497534,0.007621,
980,530,0.634978,-12.084196,0.999997,0.000198,-0.003482,0.006955,-0.000962,0.007043,-0.003570,-84.777318,0.007043,
1320,180,-0.068559,-14.359280,0.999998,0.000178,-0.000886,0.005021,-0.000110,0.005023,-0.000888,-88.935891,0.005361,
1790,1330,-2.297058,-5.336204,0.999996,0.000209,-0.003931,0.007718,0.000453,0.007736,-0.003949,87.777886,0.007736,
570,690,2.599823,-9.836023,0.999453,0.002635,-0.004894,0.007293,-0.000064,0.007293,-0.004894,-89.699131,0.007434,
1410,1170,-1.050944,-5.533666,0.999995,0.000270,-0.005189,0.009851,-0.002370,0.010216,-0.005554,-81.255131,0.010229,
770,820,2.172370,-9.175331,0.999998,0.000180,-0.004132,0.008102,0.000864,0.008163,-0.004193,85.979210,0.008164,
830,180,0.472079,-14.184821,0.999996,0.000233,-0.001767,0.006421,0.001010,0.006544,-0.001889,83.072305,0.006736,
1340,1250,-0.310191,-4.146840,0.999996,0.000246,-0.003977,0.005326,-0.003399,0.006435,-0.005086,-71.921999,0.006787,
1780,410,-1.523199,-12.239412,0.999996,0.000218,-0.003713,0.007576,0.000110,0.007577,-0.003714,89.444089,0.007577,
1510,420,-0.617098,-12.770207,0.999997,0.000215,-0.002834,0.006676,0.000407,0.006693,-0.002851,87.552747,0.006718,
920,910,1.847941,-8.605504,0.999997,0.000204,-0.004207,0.009278,0.001070,0.009363,-0.004291,85.489427,0.009373,
760,1830,0.779950,-1.328116,0.999998,0.000184,-0.002746,0.007161,-0.000846,0.007233,-0.002818,-85.156368,0.007291,
1820,770,-2.534622,-9.387103,0.999997,0.000199,-0.003730,0.007456,-0.000479,0.007477,-0.003751,-87.552745,0.007477,
1570,970,-2.135506,-8.040584,0.999997,0.000211,-0.003091,0.008390,-0.000787,0.008443,-0.003144,-86.096695,0.008534,
560,1270,2.895578,-6.015518,0.999983,0.000000,-0.003968,0.006957,-0.000155,0.006960,-0.003970,-89.187895,0.006983,
1750,1030,-2.747649,-7.542731,0.999997,0.000200,-0.003237,0.007271,0.000023,0.007271,-0.003237,89.874902,0.007286,
1100,1500,0.279750,-2.870837,0.999997,0.000184,-0.002675,0.005709,0.001227,0.005885,-0.002851,81.840130,0.005886,
780,450,1.243387,-12.168266,0.999997,0.000214,-0.003739,0.007574,-0.000228,0.007579,-0.003743,-88.845038,0.007579,
1130,1760,0.140378,-1.369220,0.999998,0.000183,-0.001556,0.005419,0.000121,0.005421,-0.001559,89.008292,0.005582,
1010,930,1.546699,-8.712841,0.999994,0.000281,-0.004731,0.010972,-0.000292,0.010978,-0.004736,-88.935194,0.011012,
1060,1680,0.306688,-1.882105,0.999997,0.000191,-0.002215,0.005893,0.000374,0.005910,-0.002232,87.363383,0.005969,
1250,1300,-0.026767,-3.450397,0.999999,0.000141,-0.001601,0.002313,-0.000758,0.002455,-0.001743,-79.408020,0.002526,
890,90,0.150646,-14.754695,0.999998,0.000179,-0.000863,0.005352,0.000970,0.005500,-0.001010,81.332369,0.005855,
1150,1700,0.128848,-1.679582,0.999998,0.000179,-0.001667,0.005419,0.000157,0.005422,-0.001671,88.728698,0.005554,
1190,1560,0.078158,-2.407881,0.999999,0.000121,-0.001882,0.005200,0.000270,0.005211,-0.001892,87.816870,0.005275,
970,1970,0.093565,-0.322212,0.999998,0.000150,-0.000599,0.005096,-0.000649,0.005169,-0.000672,-83.582159,0.005621,
760,640,1.720393,-10.630219,0.999997,0.000234,-0.004259,0.008046,0.000079,0.008046,-0.004259,89.631182,0.008051,
1500,1220,-1.301817,-5.654196,0.999996,0.000262,-0.005664,0.009904,-0.000048,0.009905,-0.005664,-89.822609,0.009939,
840,1200,1.987524,-6.149123,0.999996,0.000247,-0.004317,0.008542,-0.000974,0.008615,-0.004390,-85.691126,0.008616,
1210,110,0.011361,-14.706254,0.999998,0.000164,-0.000450,0.004722,0.000017,0.004722,-0.000450,89.812615,0.005212,
680,1000,2.838338,-7.756710,0.999998,0.000183,-0.003261,0.007064,0.000232,0.007069,-0.003266,88.713288,0.007076,
590,1430,2.356682,-4.750239,0.999996,0.000234,-0.003874,0.007580,-0.000154,0.007582,-0.003876,-89.229923,0.007583,
1010,220,0.250874,-14.083952,0.999998,0.000176,-0.001333,0.005603,0.000302,0.005616,-0.001346,87.508039,0.005864,
1360,1380,-0.277249,-3.547210,0.999996,0.000238,-0.003197,0.005731,-0.002188,0.006238,-0.003705,-76.944119,0.006275,
660,2000,0.228927,-0.229628,0.999997,0.000218,-0.000798,0.006777,-0.002907,0.007764,-0.001785,-71.246779,0.008133,
1840,1280,-2.620709,-5.807081,0.999997,0.000212,-0.003676,0.007373,0.000402,0.007388,-0.003690,87.917862,0.007388,
980,470,0.585499,-12.492337,0.999997,0.000226,-0.003015,0.006693,-0.000678,0.006741,-0.003062,-86.023419,0.006750,
1410,1150,-1.174145,-5.747688,0.999992,0.000327,-0.004849,0.010024,-0.002805,0.010536,-0.005360,-79.666254,0.010536,
930,190,0.319828,-14.203258,0.999998,0.000189,-0.001454,0.005906,0.000635,0.005960,-0.001508,85.107012,0.006198,
1320,160,-0.058634,-14.459075,0.999998,0.000140,-0.000760,0.004951,-0.000159,0.004955,-0.000765,-88.411008,0.005336,
860,930,2.145159,-8.350933,0.999997,0.000214,-0.003525,0.008407,0.001025,0.008495,-0.003612,85.124746,0.008527,
1550,450,-0.776637,-12.476473,0.999997,0.000208,-0.003345,0.007091,0.000488,0.007114,-0.003368,87.328663,0.007117,
1180,670,0.088874,-11.872347,0.999998,0.000186,-0.001984,0.004073,-0.001242,0.004318,-0.002228,-78.854730,0.004319,
1260,660,-0.046385,-11.951031,0.999998,0.000155,-0.001721,0.003911,0.000623,0.003980,-0.001789,83.758883,0.003986,
1720,100,-0.338945,-14.641537,0.999997,0.000204,-0.001239,0.006305,-0.001826,0.006724,-0.001657,-77.085031,0.007006,
630,1450,2.157937,-4.502913,0.999997,0.000213,-0.003844,0.007665,-0.000075,0.007665,-0.003845,-89.627927,0.007665,
1560,330,-0.627123,-13.287234,0.999997,0.000222,-0.002685,0.006717,-0.000034,0.006717,-0.002685,-89.790324,0.006762,
740,1830,0.835915,-1.357056,0.999997,0.000197,-0.002817,0.007310,-0.000888,0.007388,-0.002894,-85.028143,0.007445,
1750,1010,-2.737542,-7.688546,0.999997,0.000194,-0.003238,0.007257,-0.000242,0.007263,-0.003243,-88.678691,0.007277,
1670,1590,-1.223658,-3.034310,0.999998,0.000176,-0.003773,0.007572,-0.000252,0.007577,-0.003778,-88.726914,0.007577,
560,1260,2.904994,-6.080275,0.999987,0.000000,-0.004026,0.006739,0.000063,0.006739,-0.004027,89.665103,0.006782,
1130,1700,0.164142,-1.696997,0.999998,0.000150,-0.001825,0.005515,0.000286,0.005526,-0.001837,87.771575,0.005629,
1320,1250,-0.236659,-3.961232,0.999996,0.000265,-0.003407,0.004158,-0.003102,0.005267,-0.004516,-70.322334,0.005698,
1030,990,1.719690,-8.109495,0.999983,0.000479,-0.005518,0.014056,-0.001342,0.014148,-0.005609,-86.096288,0.014248,
1690,720,-1.870770,-10.005086,0.999997,0.000215,-0.004408,0.008216,-0.000426,0.008230,-0.004422,-88.067831,0.008238,
1790,1310,-2.352819,-5.494726,0.999996,0.000225,-0.003883,0.007694,0.000510,0.007716,-0.003905,87.479932,0.007716,
810,180,0.506413,-14.167055,0.999997,0.000202,-0.002135,0.006560,0.001006,0.006675,-0.002250,83.488169,0.006792,
1660,1970,-0.212273,-0.361810,0.999998,0.000170,-0.001072,0.005807,0.001428,0.006092,-0.001356,78.729432,0.006396,
900,850,1.696145,-9.121837,0.999997,0.000207,-0.004837,0.009281,0.000835,0.009330,-0.004886,86.625253,0.009334,
770,1760,0.949870,-1.823256,0.999997,0.000185,-0.003210,0.007302,-0.000326,0.007312,-0.003220,-88.225716,0.007330,
1100,1480,0.282422,-2.985135,0.999996,0.000213,-0.002739,0.005682,0.001323,0.005884,-0.002942,81.280320,0.005884,
1480,1450,-0.688790,-3.566578,0.999997,0.000218,-0.003980,0.007377,-0.001248,0.007513,-0.004115,-83.800888,0.007524,
1060,1640,0.332924,-2.120888,0.999997,0.000206,-0.002429,0.006002,0.000573,0.006041,-0.002467,86.126971,0.006075,
1200,830,0.125420,-11.494104,0.999994,0.000296,-0.003923,0.002118,-0.000571,0.002172,-0.003976,-84.643608,0.003982,
760,620,1.673413,-10.791129,0.999996,0.000250,-0.004231,0.007988,-0.000009,0.007988,-0.004231,-89.957319,0.007993,
890,70,0.106618,-14.860180,0.999998,0.000162,-0.000608,0.005297,0.000998,0.005462,-0.000773,80.660475,0.005911,
970,1950,0.123809,-0.425854,0.999998,0.000161,-0.000783,0.005238,-0.000659,0.005310,-0.000855,-83.830966,0.005702,
840,1180,2.053941,-6.323594,0.999996,0.000235,-0.004099,0.008559,-0.001048,0.008645,-0.004186,-85.297145,0.008646,
680,1200,2.615322,-6.314908,0.999996,0.000236,-0.003637,0.007411,-0.000703,0.007455,-0.003682,-86.373755,0.007456,
1350,220,-0.120679,-14.142044,0.999998,0.000163,-0.001118,0.005213,-0.000070,0.005214,-0.001119,-89.367272,0.005490,
720,1460,1.779893,-4.220251,0.999997,0.000197,-0.004059,0.007862,-0.000033,0.007862,-0.004059,-89.843468,0.007863,
1570,950,-2.091309,-8.205812,0.999997,0.000199,-0.003329,0.008566,-0.000938,0.008640,-0.003402,-85.520092,0.008705,
930,150,0.242042,-14.435582,0.999998,0.000181,-0.001129,0.005658,0.000760,0.005742,-0.001213,83.686554,0.006053,
900,930,2.000947,-8.391656,0.999998,0.000193,-0.003674,0.008817,0.001078,0.008909,-0.003767,85.101535,0.008944,
1320,140,-0.048044,-14.556208,0.999999,0.000132,-0.000659,0.004873,-0.000159,0.004877,-0.000663,-88.359154,0.005291,
1390,860,-0.793406,-10.044902,0.999995,0.000259,-0.005257,0.008318,0.002756,0.008856,-0.005795,78.951318,0.008996,
1590,600,-1.145529,-11.240996,0.999997,0.000206,-0.004276,0.007935,0.000530,0.007958,-0.004299,87.518422,0.007966,
910,1440,1.010543,-3.886785,0.999997,0.000242,-0.004371,0.007899,0.000768,0.007947,-0.004419,86.432662,0.007964,
1840,540,-2.034754,-11.098077,0.999997,0.000190,-0.003794,0.007625,0.000051,0.007625,-0.003794,89.743245,0.007625,
1440,450,-0.444074,-12.720367,0.999997,0.000189,-0.002660,0.006313,0.000639,0.006359,-0.002706,85.947940,0.006382,
560,1250,2.924316,-6.145446,0.999991,0.000000,-0.003942,0.006650,0.000156,0.006652,-0.003944,89.154452,0.006690,
1210,90,0.008433,-14.800181,0.999999,0.000161,-0.000328,0.004629,0.000034,0.004629,-0.000328,89.611949,0.005167,
1640,1430,-1.412149,-4.215872,0.999996,0.000235,-0.004392,0.008122,-0.000198,0.008125,-0.004395,-89.093352,0.008134,
1260,640,-0.048644,-12.029668,0.999998,0.000154,-0.001763,0.004136,0.000542,0.004185,-0.001813,84.790128,0.004198,
1200,490,0.060381,-12.743827,0.999998,0.000172,-0.001866,0.005148,-0.000245,0.005156,-0.001874,-88.005633,0.005220,
720,1650,1.374856,-2.752820,0.999997,0.000216,-0.003675,0.007577,0.000115,0.007578,-0.003676,89.416394,0.007579,
800,1840,0.638298,-1.198249,0.999997,0.000195,-0.002669,0.006823,-0.000774,0.006886,-0.002732,-85.367590,0.006935,
1790,1290,-2.406153,-5.644728,0.999996,0.000239,-0.003839,0.007598,0.000559,0.007625,-0.003866,87.210237,0.007625,
1500,1640,-0.582942,-2.296492,0.999997,0.000209,-0.002848,0.006613,-0.000457,0.006635,-0.002870,-87.241893,0.006656,
1200,150,0.020560,-14.514619,0.999998,0.000165,-0.000652,0.004866,0.000068,0.004867,-0.000653,89.297893,0.005284,
1030,980,1.687370,-8.242091,0.999988,0.000414,-0.005300,0.013488,-0.001541,0.013614,-0.005425,-85.342741,0.013707,
1010,910,1.427613,-8.931909,0.999993,0.000312,-0.005091,0.010787,-0.000254,0.010791,-0.005095,-89.082748,0.010797,
1670,720,-1.781268,-10.043783,0.999996,0.000252,-0.004497,0.008326,-0.000390,0.008338,-0.004509,-88.259155,0.008347,
1320,1230,-0.302149,-4.040052,0.999995,0.000282,-0.003496,0.003994,-0.002879,0.004973,-0.004475,-71.223644,0.005478,
900,830,1.621087,-9.306413,0.999996,0.000232,-0.005014,0.009312,0.000646,0.009341,-0.005043,87.422069,0.009351,
1830,1780,-1.363138,-1.982150,0.999997,0.000187,-0.003616,0.007520,0.000145,0.007522,-0.003617,89.255082,0.007524,
630,1470,2.109588,-4.349674,0.999997,0.000198,-0.003842,0.007683,-0.000025,0.007683,-0.003842,-89.875607,0.007683,
1550,430,-0.751263,-12.617332,0.999998,0.000170,-0.003264,0.007020,0.000444,0.007039,-0.003283,87.533145,0.007044,
1760,1350,-2.122934,-5.128229,0.999998,0.000166,-0.004043,0.007805,0.000419,0.007820,-0.004058,87.976315,0.007822,
1750,260,-1.032535,-13.449070,0.999998,0.000211,-0.003473,0.007546,-0.000383,0.007560,-0.003486,-88.013271,0.007567,
1100,1460,0.284732,-3.102376,0.999997,0.000183,-0.002784,0.005749,0.001426,0.005981,-0.003016,80.759413,0.005981,
820,730,1.686113,-10.015854,0.999996,0.000248,-0.004677,0.008476,0.000340,0.008485,-0.004686,88.521696,0.008500,
1070,1760,0.230031,-1.409154,0.999998,0.000185,-0.001609,0.005663,0.000008,0.005663,-0.001609,89.937869,0.005836,
890,270,0.551399,-13.667678,0.999997,0.000195,-0.002431,0.006504,0.000310,0.006514,-0.002441,88.013184,0.006582,
930,130,0.207837,-14.543920,0.999998,0.000189,-0.000933,0.005508,0.000771,0.005599,-0.001024,83.269950,0.005963,
1310,1540,-0.153624,-2.549025,0.999997,0.000198,-0.002156,0.005327,-0.000720,0.005396,-0.002224,-84.554914,0.005424,
1360,1360,-0.283352,-3.663286,0.999997,0.000242,-0.003364,0.005796,-0.002410,0.006391,-0.003959,-76.124775,0.006452,
1510,400,-0.594774,-12.904917,0.999997,0.000206,-0.002788,0.006617,0.000331,0.006629,-0.002800,87.984395,0.006656,
670,1390,2.151160,-4.880133,0.999997,0.000207,-0.003919,0.007732,-0.000247,0.007738,-0.003924,-88.787927,0.007738,
1560,310,-0.594149,-13.420951,0.999997,0.000213,-0.002497,0.006623,-0.000127,0.006625,-0.002499,-89.199275,0.006691,
1710,1290,-2.085840,-5.521231,0.999997,0.000231,-0.004192,0.008146,0.000650,0.008180,-0.004227,86.990868,0.008182,
1250,220,-0.018310,-14.166609,0.999998,0.000207,-0.001033,0.005037,0.000035,0.005038,-0.001033,89.668191,0.005322,
1410,910,-1.211810,-9.317583,0.999992,0.000305,-0.004740,0.010182,0.002968,0.010751,-0.005308,79.154812,0.010751,
880,930,2.073002,-8.367800,0.999997,0.000204,-0.003581,0.008592,0.001091,0.008689,-0.003678,84.917515,0.008723,
840,1160,2.116426,-6.492842,0.999997,0.000201,-0.003888,0.008402,-0.001014,0.008485,-0.003971,-85.315165,0.008491,
760,600,1.628130,-10.951299,0.999996,0.000233,-0.004172,0.007948,-0.000050,0.007948,-0.004173,-89.762085,0.007951,
720,1440,1.828545,-4.379984,0.999998,0.000169,-0.004062,0.007901,-0.000074,0.007901,-0.004063,-89.645175,0.007902,
1320,120,-0.041085,-14.655175,0.999998,0.000159,-0.000518,0.004810,-0.000160,0.004815,-0.000523,-88.282639,0.005283,
1060,1620,0.343258,-2.241917,0.999997,0.000195,-0.002490,0.006021,0.000648,0.006070,-0.002539,85.671372,0.006097,
560,1240,2.945422,-6.212516,0.999995,0.000000,-0.003670,0.006826,0.000018,0.006826,-0.003670,89.903498,0.006832,
1160,1480,0.138681,-2.852017,0.999998,0.000174,-0.002166,0.005038,0.000947,0.005160,-0.002288,82.632459,0.005171,
620,1010,3.038202,-7.678339,0.999998,0.000178,-0.003173,0.006714,0.000201,0.006718,-0.003177,88.835890,0.006721,
970,1930,0.156343,-0.531669,0.999998,0.000157,-0.000945,0.005299,-0.000605,0.005357,-0.001003,-84.516888,0.005696,
1790,320,-1.346882,-12.897272,0.999996,0.000217,-0.003630,0.007502,-0.000067,0.007502,-0.003630,-89.654694,0.007503,
1070,1220,0.678961,-4.898295,0.999995,0.000262,-0.005509,0.008407,0.002560,0.008863,-0.005965,79.900916,0.009038,
1680,1470,-1.498745,-3.995052,0.999995,0.000238,-0.004185,0.007893,-0.000140,0.007895,-0.004187,-89.337047,0.007899,
1160,670,0.129724,-11.818215,0.999999,0.000153,-0.002142,0.004452,-0.001524,0.004787,-0.002477,-77.592132,0.004788,
1260,620,-0.049233,-12.115693,0.999998,0.000153,-0.001815,0.004345,0.000487,0.004384,-0.001853,85.505864,0.004401,
800,1820,0.696285,-1.337372,0.999997,0.000191,-0.002802,0.006967,-0.000656,0.007011,-0.002846,-86.175964,0.007052,
1670,1160,-2.293791,-6.531655,0.999997,0.000253,-0.003734,0.008029,0.000954,0.008106,-0.003811,85.395766,0.008111,
860,1310,1.537808,-5.139205,0.999996,0.000233,-0.004938,0.008779,-0.000213,0.008783,-0.004942,-89.109908,0.008806,
1790,1270,-2.460530,-5.798631,0.999996,0.000225,-0.003798,0.007582,0.000606,0.007614,-0.003830,86.961153,0.007614,
1540,530,-0.838866,-11.926012,0.999997,0.000216,-0.003753,0.007362,0.000745,0.007412,-0.003803,86.184968,0.007413,
930,110,0.163601,-14.654860,0.999998,0.000168,-0.000733,0.005459,0.000833,0.005569,-0.000843,82.471728,0.006003,
630,1490,2.064575,-4.195393,0.999997,0.000192,-0.003814,0.007665,0.000023,0.007665,-0.003814,89.883941,0.007665,
800,1690,1.006678,-2.271093,0.999997,0.000195,-0.003430,0.007354,0.000054,0.007354,-0.003430,89.713548,0.007360,
1540,1600,-0.750817,-2.656386,0.999998,0.000192,-0.003364,0.007062,-0.000543,0.007091,-0.003392,-87.027735,0.007093,
1350,800,-0.342690,-10.908964,0.999997,0.000241,-0.004247,0.005948,0.003410,0.006983,-0.005282,73.108314,0.007283,
750,820,2.254643,-9.150808,0.999997,0.000232,-0.004028,0.007958,0.000827,0.008015,-0.004084,86.073526,0.008015,
1210,70,0.007833,-14.891868,0.999999,0.000156,-0.000236,0.004570,0.000072,0.004571,-0.000237,89.145668,0.005147,
1570,930,-2.025122,-8.384105,0.999997,0.000199,-0.003616,0.008744,-0.001077,0.008837,-0.003709,-85.059184,0.008875,
1180,150,0.031751,-14.512873,0.999998,0.000152,-0.000566,0.004871,0.000114,0.004873,-0.000569,88.802291,0.005329,
1830,740,-2.490642,-9.591783,0.999997,0.000199,-0.003746,0.007481,-0.000399,0.007495,-0.003760,-87.968568,0.007495,
1830,1420,-2.219089,-4.727879,0.999997,0.000209,-0.003834,0.007671,0.000124,0.007673,-0.003836,89.382467,0.007673,
1010,890,1.307788,-9.152007,0.999994,0.000300,-0.005469,0.010607,-0.000401,0.010617,-0.005479,-88.571860,0.010619,
1390,840,-0.688328,-10.208557,0.999996,0.000243,-0.005418,0.008287,0.002657,0.008784,-0.005915,79.404595,0.008958,
1840,520,-1.990343,-11.252525,0.999997,0.000205,-0.003799,0.007645,0.000075,0.007646,-0.003799,89.624083,0.007646,
1600,1730,-0.734021,-1.868162,0.999997,0.000173,-0.002887,0.007019,0.000116,0.007020,-0.002889,89.326673,0.007057,
1100,1660,0.237515,-1.952694,0.999998,0.000180,-0.001886,0.005630,0.000282,0.005640,-0.001897,87.850565,0.005740,
1880,680,-2.521858,-9.936301,0.999996,0.000230,-0.003729,0.007524,-0.000099,0.007525,-0.003730,-89.495201,0.007525,
910,1750,0.569850,-1.658370,0.999997,0.000211,-0.002338,0.006516,-0.000199,0.006520,-0.002342,-88.714923,0.006606,
860,550,1.114749,-11.599410,0.999997,0.000214,-0.004023,0.007786,-0.000497,0.007806,-0.004044,-87.596326,0.007808,
1510,560,-0.761359,-11.789944,0.999997,0.000193,-0.003785,0.007363,0.000932,0.007441,-0.003862,85.254928,0.007442,
1360,1340,-0.289184,-3.781523,0.999997,0.000224,-0.003547,0.005871,-0.002641,0.006561,-0.004237,-75.355439,0.006654,
1090,1580,0.286576,-2.423244,0.999997,0.000184,-0.002429,0.005863,0.000770,0.005934,-0.002500,84.737846,0.005958,
680,460,1.643064,-11.849892,0.999996,0.000231,-0.003784,0.007601,-0.000123,0.007603,-0.003785,-89.381049,0.007603,
1320,100,-0.031409,-14.750647,0.999998,0.000171,-0.000418,0.004733,-0.000164,0.004739,-0.000423,-88.175379,0.005245,
1740,1350,-2.042729,-5.089408,0.999997,0.000210,-0.004080,0.007949,0.000417,0.007963,-0.004095,88.018222,0.007964,
600,240,1.368985,-13.300658,0.999997,0.000240,-0.003643,0.007396,0.000140,0.007397,-0.003644,89.273980,0.007398,
1190,1620,0.074905,-2.092248,0.999998,0.000166,-0.001811,0.005276,0.000176,0.005280,-0.001815,88.576870,0.005365,
840,1140,2.173480,-6.661795,0.999997,0.000203,-0.003674,0.008300,-0.001046,0.008391,-0.003765,-85.045586,0.008406,
1140,670,0.175941,-11.754092,0.999997,0.000199,-0.002509,0.004850,-0.001894,0.005309,-0.002968,-76.382068,0.005321,
1230,220,0.001784,-14.168925,0.999998,0.000156,-0.001040,0.005040,-0.000015,0.005040,-0.001040,-89.856668,0.005321,
560,1230,2.965526,-6.282929,0.999996,0.000000,-0.003513,0.006895,0.000002,0.006895,-0.003513,89.989056,0.006895,
1060,1600,0.353690,-2.363989,0.999998,0.000189,-0.002538,0.006060,0.000696,0.006116,-0.002594,85.400640,0.006140,
1830,1760,-1.420682,-2.132774,0.999998,0.000189,-0.003636,0.007540,0.000082,0.007540,-0.003637,89.581909,0.007542,
1260,600,-0.051256,-12.203098,0.999998,0.000159,-0.001879,0.004535,0.000427,0.004564,-0.001907,86.212127,0.004584,
1210,1520,0.041628,-2.600687,0.999998,0.000187,-0.001886,0.004967,0.000295,0.004980,-0.001898,87.539874,0.005026,
1410,890,-1.084121,-9.533360,0.999995,0.000253,-0.005071,0.009883,0.002431,0.010268,-0.005457,80.995171,0.010275,
1690,1400,-1.701924,-4.581592,0.999996,0.000241,-0.004306,0.008125,0.000111,0.008126,-0.004307,89.486223,0.008131,
930,90,0.130928,-14.762201,0.999998,0.000154,-0.000548,0.005223,0.000841,0.005343,-0.000668,81.872245,0.005822,
1620,410,-0.947575,-12.613094,0.999998,0.000149,-0.003347,0.007248,0.000233,0.007254,-0.003352,88.741240,0.007260,
1550,410,-0.721579,-12.759966,0.999996,0.000217,-0.003134,0.006951,0.000368,0.006965,-0.003147,87.911267,0.006976,
600,50,0.345724,-14.805187,0.999994,0.000273,-0.002081,0.008292,0.003234,0.009218,-0.003007,74.028578,0.009402,
1720,80,-0.258582,-14.761557,0.999997,0.000184,-0.000962,0.006070,-0.001882,0.006542,-0.001434,-75.920670,0.006878,
800,1670,1.047173,-2.420173,0.999997,0.000213,-0.003465,0.007392,0.000102,0.007393,-0.003466,89.460943,0.007398,
630,1510,2.018377,-4.043805,0.999997,0.000196,-0.003793,0.007625,0.000048,0.007625,-0.003793,89.761507,0.007625,
760,580,1.584479,-11.111160,0.999996,0.000243,-0.004124,0.007900,-0.000088,0.007901,-0.004124,-89.579422,0.007903,
1610,1280,-1.663814,-5.423572,0.999995,0.000258,-0.004855,0.008846,0.000499,0.008865,-0.004873,87.917254,0.008879,
1040,1300,0.604064,-4.459373,0.999996,0.000243,-0.005193,0.008212,0.002287,0.008592,-0.005572,80.578437,0.008717,
1460,760,-0.816249,-10.391094,0.999995,0.000277,-0.005511,0.008899,0.001565,0.009067,-0.005679,83.870384,0.009163,
650,600,2.068770,-10.699342,0.999997,0.000188,-0.003854,0.007694,0.000091,0.007694,-0.003855,89.550456,0.007694,
700,770,2.315928,-9.476131,0.999997,0.000234,-0.003952,0.007794,0.000635,0.007829,-0.003986,86.916256,0.007829,
1040,450,0.400944,-12.751590,0.999998,0.000188,-0.002502,0.006113,-0.000621,0.006157,-0.002547,-85.895076,0.006188,
1010,870,1.200405,-9.368974,0.999995,0.000284,-0.005761,0.010454,-0.000646,0.010480,-0.005787,-87.723357,0.010499,
1790,1250,-2.515212,-5.950243,0.999997,0.000226,-0.003737,0.007520,0.000646,0.007557,-0.003773,86.725952,0.007557,
1320,80,-0.022599,-14.844191,0.999998,0.000151,-0.000301,0.004670,-0.000163,0.004675,-0.000306,-88.124847,0.005230,
930,70,0.088061,-14.867131,0.999998,0.000157,-0.000417,0.005139,0.000864,0.005271,-0.000548,81.358533,0.005796,
1690,1160,-2.367166,-6.545207,0.999997,0.000237,-0.003717,0.007919,0.000936,0.007994,-0.003791,85.428031,0.007997,
840,1120,2.230791,-6.826464,0.999998,0.000197,-0.003476,0.008142,-0.000935,0.008217,-0.003551,-85.429396,0.008242,
1110,1760,0.170982,-1.383872,0.999998,0.000173,-0.001515,0.005474,0.000067,0.005475,-0.001515,89.451572,0.005654,
560,1220,2.985537,-6.353773,0.999997,0.000000,-0.003394,0.006883,-0.000045,0.006883,-0.003395,-89.748478,0.006883,
1470,220,-0.273769,-14.074149,0.999997,0.000207,-0.001367,0.005681,-0.000382,0.005701,-0.001388,-86.903824,0.005946,
910,1770,0.534415,-1.526547,0.999997,0.000191,-0.002193,0.006517,-0.000305,0.006527,-0.002203,-87.997035,0.006641,
1690,900,-2.381354,-8.534469,0.999997,0.000240,-0.003657,0.007912,-0.000936,0.007988,-0.003732,-85.403884,0.007993,
1010,1900,0.163507,-0.676142,0.999998,0.000156,-0.000885,0.005334,-0.000497,0.005374,-0.000925,-85.457680,0.005746,
1470,1960,-0.097341,-0.369667,0.999998,0.000199,-0.000453,0.005059,0.000595,0.005122,-0.000517,83.905778,0.005640,
1510,940,-1.840548,-8.387586,0.999995,0.000266,-0.003872,0.009689,-0.000926,0.009752,-0.003935,-86.110662,0.009812,
1620,130,-0.310172,-14.504601,0.999997,0.000214,-0.001232,0.005979,-0.001180,0.006167,-0.001420,-80.939494,0.006459,
1160,1500,0.139783,-2.749520,0.999998,0.000183,-0.002170,0.005144,0.000841,0.005240,-0.002265,83.528166,0.005256,
1660,1950,-0.278745,-0.481084,0.999998,0.000208,-0.001376,0.006085,0.001410,0.006343,-0.001634,79.649432,0.006587,
1560,1230,-1.585293,-5.758791,0.999996,0.000229,-0.005087,0.009373,0.000571,0.009396,-0.005109,87.741358,0.009408,
1570,910,-1.960551,-8.557102,0.999998,0.000187,-0.003967,0.008861,-0.001080,0.008951,-0.004058,-85.218978,0.008964,
680,420,1.555264,-12.153941,0.999996,0.000228,-0.003737,0.007618,-0.000116,0.007619,-0.003738,-89.415354,0.007619,
830,880,2.109622,-8.742633,0.999998,0.000184,-0.004010,0.008391,0.001018,0.008474,-0.004094,85.336163,0.008475,
1770,120,-0.544372,-14.443634,0.999997,0.000210,-0.002648,0.007267,-0.001788,0.007580,-0.002960,-80.082972,0.007640,
1560,2020,-0.031873,-0.078664,0.999999,0.000000,-0.000110,0.004997,0.000969,0.005175,-0.000288,79.610692,0.005817,
1750,1100,-2.694973,-7.032271,0.999997,0.000223,-0.003376,0.007339,0.000535,0.007366,-0.003403,87.149861,0.007373,
1170,1620,0.110213,-2.100817,0.999998,0.000159,-0.001829,0.005344,0.000224,0.005351,-0.001836,88.216067,0.005438,
1410,870,-0.965843,-9.740637,0.999996,0.000225,-0.005355,0.009685,0.002235,0.010010,-0.005680,81.724859,0.010040,
600,220,1.296347,-13.451561,0.999997,0.000233,-0.003651,0.007546,0.000227,0.007550,-0.003655,88.837140,0.007552,
1060,1580,0.364896,-2.485783,0.999997,0.000212,-0.002573,0.006098,0.000786,0.006168,-0.002644,84.859048,0.006189,
880,1570,0.937505,-2.975136,0.999998,0.000170,-0.003652,0.007374,0.000492,0.007396,-0.003674,87.449244,0.007396,
1670,1570,-1.262349,-3.187822,0.999997,0.000193,-0.003830,0.007595,-0.000288,0.007602,-0.003837,-88.557576,0.007602,
970,1910,0.185829,-0.637157,0.999998,0.000170,-0.001125,0.005451,-0.000585,0.005503,-0.001177,-84.954825,0.005796,
1360,1320,-0.295827,-3.898607,0.999997,0.000233,-0.003775,0.005956,-0.002840,0.006725,-0.004544,-74.864649,0.006862,
720,1420,1.875074,-4.537941,0.999997,0.000180,-0.004089,0.007924,-0.000133,0.007925,-0.004090,-89.367472,0.007927,
1340,1490,-0.220594,-2.867307,0.999998,0.000171,-0.002390,0.005462,-0.001061,0.005603,-0.002530,-82.438914,0.005612,
1100,1920,0.076650,-0.547830,0.999998,0.000172,-0.000584,0.004910,-0.000249,0.004922,-0.000595,-87.412924,0.005373,
800,1800,0.750285,-1.476684,0.999998,0.000179,-0.002913,0.007006,-0.000521,0.007034,-0.002941,-86.999254,0.007065,
1790,1230,-2.569193,-6.101838,0.999997,0.000213,-0.003678,0.007427,0.000641,0.007464,-0.003715,86.706777,0.007464,
1460,720,-0.737604,-10.739897,0.999996,0.000254,-0.005095,0.008336,0.001670,0.008540,-0.005300,83.016798,0.008623,
1170,340,0.094424,-13.528716,0.999999,0.000127,-0.001500,0.005357,-0.000044,0.005357,-0.001500,-89.630360,0.005527,
1200,1980,0.010449,-0.252084,0.999999,0.000142,-0.000259,0.004576,-0.000075,0.004577,-0.000260,-89.112567,0.005142,
1760,250,-1.037387,-13.500091,0.999997,0.000223,-0.003509,0.007546,-0.000413,0.007562,-0.003524,-87.863055,0.007568,
1590,1280,-1.564220,-5.375539,0.999996,0.000226,-0.005006,0.008988,0.000366,0.008998,-0.005016,88.504099,0.009018,
1010,850,1.096961,-9.576778,0.999995,0.000258,-0.005890,0.010239,-0.000949,0.010295,-0.005946,-86.645270,0.010336,
1190,1960,0.015344,-0.343510,0.999998,0.000157,-0.000300,0.004651,-0.000076,0.004653,-0.000301,-89.115541,0.005207,
830,1940,0.277986,-0.530024,0.999998,0.000172,-0.001057,0.005978,-0.001326,0.006220,-0.001299,-79.670668,0.006562,
1620,390,-0.912890,-12.756582,0.999998,0.000132,-0.003185,0.007156,0.000133,0.007158,-0.003187,89.263441,0.007172,
1550,370,-0.664096,-13.032798,0.999997,0.000199,-0.002738,0.006691,0.000080,0.006692,-0.002738,89.514357,0.006729,
850,880,2.028339,-8.766471,0.999996,0.000225,-0.004049,0.008601,0.001058,0.008689,-0.004137,85.250774,0.008692,
860,390,0.857825,-12.790558,0.999998,0.000210,-0.003153,0.007037,-0.000149,0.007040,-0.003155,-89.161701,0.007052,
1570,1330,-1.316258,-4.872820,0.999996,0.000244,-0.005066,0.008823,-0.000208,0.008826,-0.005069,-89.142905,0.008859,
1530,1160,-1.728559,-6.346714,0.999997,0.000207,-0.004583,0.009563,0.000971,0.009630,-0.004650,86.092858,0.009631,
1480,90,-0.093816,-14.775546,0.999998,0.000160,-0.000537,0.005058,-0.000616,0.005126,-0.000604,-83.787057,0.005602,
1620,30,-0.031517,-15.062114,0.999998,0.000000,0.000018,0.005084,-0.001373,0.005432,-0.000330,-75.774864,0.006090,
1780,1590,-1.641602,-3.300721,0.999997,0.000228,-0.003852,0.007620,-0.000126,0.007621,-0.003853,-89.373005,0.007621,
670,1830,1.066492,-1.507027,0.999997,0.000202,-0.003389,0.007602,-0.000695,0.007646,-0.003433,-86.398095,0.007659,
730,820,2.334259,-9.127096,0.999997,0.000218,-0.003934,0.007858,0.000816,0.007914,-0.003990,86.062496,0.007914,
980,1830,0.297746,-1.082852,0.999997,0.000190,-0.001603,0.005756,-0.000343,0.005772,-0.001619,-87.341219,0.005955,
990,1900,0.182833,-0.684739,0.999998,0.000192,-0.000967,0.005422,-0.000538,0.005467,-0.001012,-85.224071,0.005817,
590,50,0.373134,-14.782418,0.999994,0.000315,-0.001816,0.008922,0.003994,0.010245,-0.003139,71.677616,0.010498,
630,600,2.145291,-10.654865,0.999998,0.000178,-0.003851,0.007676,0.000093,0.007677,-0.003851,89.536810,0.007677,
1750,120,-0.489224,-14.474997,0.999997,0.000238,-0.002549,0.006978,-0.001658,0.007258,-0.002829,-80.401460,0.007317,
1710,1990,-0.186734,-0.262391,0.999998,0.000174,-0.000660,0.005831,0.001854,0.006324,-0.001152,75.130596,0.006736,
780,1530,1.389312,-3.527760,0.999997,0.000228,-0.004014,0.007802,0.000236,0.007806,-0.004019,88.856754,0.007808,
1290,280,-0.074591,-13.850556,0.999998,0.000149,-0.001215,0.005282,-0.000028,0.005282,-0.001215,-89.756931,0.005533,
1060,1560,0.370930,-2.610378,0.999997,0.000188,-0.002606,0.006086,0.000860,0.006170,-0.002690,84.400986,0.006187,
1320,60,-0.015345,-14.937010,0.999999,0.000128,-0.000219,0.004555,-0.000173,0.004562,-0.000225,-87.926290,0.005142,
960,1130,1.745258,-6.565033,0.999997,0.000218,-0.004274,0.009894,-0.000871,0.009947,-0.004328,-86.494950,0.009975,
860,610,1.218961,-11.125006,0.999996,0.000218,-0.004383,0.008003,-0.000434,0.008018,-0.004399,-87.993738,0.008031,
1410,850,-0.850455,-9.930505,0.999996,0.000247,-0.005584,0.009182,0.002131,0.009483,-0.005885,81.950301,0.009574,
1670,1550,-1.300080,-3.340798,0.999997,0.000197,-0.003868,0.007720,-0.000278,0.007727,-0.003875,-88.624139,0.007727,
1090,1760,0.201249,-1.397013,0.999998,0.000170,-0.001485,0.005568,-0.000010,0.005568,-0.001485,-89.922071,0.005766,
1670,900,-2.306051,-8.548719,0.999997,0.000222,-0.003705,0.008016,-0.000970,0.008096,-0.003785,-85.299736,0.008102,
600,200,1.217982,-13.602421,0.999997,0.000210,-0.003674,0.007515,0.000317,0.007524,-0.003683,88.377154,0.007525,
980,160,0.199538,-14.405259,0.999998,0.000178,-0.001086,0.005507,0.000536,0.005551,-0.001130,85.382130,0.005867,
1320,1490,-0.177751,-2.831315,0.999998,0.000186,-0.002237,0.005269,-0.000927,0.005382,-0.002350,-83.060726,0.005396,
920,1980,0.103818,-0.280630,0.999998,0.000157,-0.000410,0.005200,-0.000929,0.005350,-0.000559,-80.835783,0.005882,
840,1100,2.271209,-6.987153,0.999997,0.000201,-0.003274,0.007988,-0.000800,0.008044,-0.003331,-85.959461,0.008084,
1100,1960,0.048126,-0.352073,0.999998,0.000159,-0.000338,0.004770,-0.000269,0.004784,-0.000352,-86.996357,0.005332,
1600,390,-0.849842,-12.795131,0.999997,0.000183,-0.003171,0.007031,0.000159,0.007034,-0.003173,89.108794,0.007045,
1210,470,0.039447,-12.851371,0.999998,0.000148,-0.001877,0.005182,-0.000219,0.005189,-0.001884,-88.222956,0.005253,
800,1780,0.803577,-1.621475,0.999997,0.000185,-0.003029,0.007134,-0.000385,0.007149,-0.003043,-87.835280,0.007175,
1550,350,-0.630900,-13.168599,0.999997,0.000205,-0.002591,0.006704,-0.000032,0.006704,-0.002591,-89.804368,0.006761,
1790,1210,-2.614678,-6.247307,0.999996,0.000238,-0.003619,0.007383,0.000635,0.007420,-0.003656,86.707261,0.007420,
1010,830,1.006943,-9.775737,0.999996,0.000251,-0.005880,0.009858,-0.001196,0.009949,-0.005970,-85.677376,0.010015,
1630,950,-2.284117,-8.169446,0.999997,0.000204,-0.003304,0.007956,-0.000787,0.008011,-0.003359,-86.018957,0.008045,
1460,180,-0.206475,-14.304028,0.999998,0.000187,-0.001030,0.005443,-0.000435,0.005472,-0.001059,-86.169575,0.005804,
720,1400,1.924453,-4.699139,0.999997,0.000186,-0.004119,0.007921,-0.000210,0.007924,-0.004122,-89.001362,0.007927,
1110,860,0.620004,-10.520160,0.999990,0.000417,-0.003307,0.005355,-0.003112,0.006357,-0.004309,-72.148469,0.006490,
830,1920,0.341109,-0.652048,0.999998,0.000202,-0.001278,0.006076,-0.001228,0.006275,-0.001477,-80.766203,0.006562,
580,50,0.391920,-14.767838,0.999990,0.000388,-0.001964,0.009642,0.004985,0.011489,-0.003811,69.666663,0.011704,
1010,1420,0.607186,-3.687594,0.999996,0.000245,-0.004068,0.007225,0.001578,0.007441,-0.004284,82.193853,0.007470,
670,1810,1.135567,-1.658905,0.999997,0.000218,-0.003466,0.007631,-0.000531,0.007656,-0.003491,-87.266884,0.007666,
1560,30,-0.021610,-15.065610,0.999999,0.000000,-0.000066,0.004947,-0.000952,0.005122,-0.000241,-79.605868,0.005780,
1760,1590,-1.564189,-3.251388,0.999998,0.000182,-0.003779,0.007639,-0.000143,0.007641,-0.003781,-89.280622,0.007641,
1570,1350,-1.266095,-4.693547,0.999997,0.000205,-0.004953,0.008710,-0.000345,0.008718,-0.004962,-88.553147,0.008746,
1790,1090,-2.841196,-7.119133,0.999997,0.000202,-0.003306,0.007013,0.000274,0.007020,-0.003313,88.479635,0.007024,
1330,1700,-0.157390,-1.693548,0.999998,0.000182,-0.001822,0.005491,-0.000261,0.005501,-0.001832,-87.957639,0.005602,
1450,220,-0.247442,-14.086552,0.999998,0.000173,-0.001327,0.005579,-0.000298,0.005592,-0.001340,-87.530301,0.005839,
690,540,1.776820,-11.256246,0.999998,0.000164,-0.003902,0.007748,-0.000073,0.007748,-0.003902,-89.640444,0.007749,
610,800,2.733047,-9.107203,0.999997,0.000229,-0.003550,0.007152,0.000344,0.007163,-0.003561,88.161653,0.007163,
800,1430,1.513908,-4.272804,0.999996,0.000201,-0.004346,0.008125,0.000081,0.008125,-0.004346,89.630052,0.008132,
1440,230,-0.243159,-14.038083,0.999997,0.000212,-0.001457,0.005618,-0.000227,0.005626,-0.001464,-88.166553,0.005837,
1510,540,-0.742219,-11.935278,0.999997,0.000191,-0.003636,0.007205,0.000872,0.007275,-0.003706,85.428197,0.007275,
1190,340,0.065236,-13.534316,0.999998,0.000180,-0.001497,0.005307,-0.000080,0.005308,-0.001498,-89.323379,0.005473,
1410,1280,-0.577741,-4.534279,0.999996,0.000242,-0.005304,0.008186,-0.002554,0.008653,-0.005772,-79.632008,0.008813,
1720,710,-1.971725,-10.028638,0.999998,0.000219,-0.004209,0.008034,-0.000409,0.008047,-0.004223,-88.087954,0.008051,
1060,1540,0.379021,-2.728632,0.999997,0.000195,-0.002681,0.006098,0.000957,0.006201,-0.002784,83.847190,0.006212,
1610,1100,-2.229521,-6.979750,0.999996,0.000231,-0.003260,0.008073,0.000812,0.008131,-0.003318,85.920276,0.008177,
1410,830,-0.748535,-10.105964,0.999995,0.000272,-0.005770,0.009014,0.002235,0.009344,-0.006100,81.588836,0.009489,
1880,760,-2.726342,-9.343514,0.999998,0.000214,-0.003604,0.007323,-0.000190,0.007326,-0.003608,-89.003818,0.007327,
1730,40,-0.093703,-14.997837,0.999998,0.000194,-0.000418,0.005836,-0.002112,0.006482,-0.001064,-72.983055,0.006953,
930,470,0.746315,-12.373641,0.999998,0.000206,-0.003366,0.007085,-0.000608,0.007120,-0.003401,-86.680974,0.007122,
1110,470,0.239212,-12.757260,0.999998,0.000178,-0.002144,0.005653,-0.000590,0.005697,-0.002188,-85.700364,0.005748,
1230,1500,0.002410,-2.688533,0.999998,0.000169,-0.001881,0.004811,0.000043,0.004811,-0.001882,89.632394,0.004849,
630,1950,0.627204,-0.664388,0.999996,0.000213,-0.003360,0.007902,-0.001518,0.008104,-0.003561,-82.455609,0.008123,
600,400,1.809156,-12.109055,0.999997,0.000212,-0.003712,0.007486,-0.000101,0.007487,-0.003713,-89.483088,0.007487,
830,1580,1.103636,-3.021670,0.999998,0.000171,-0.003688,0.007480,0.000341,0.007491,-0.003698,88.253052,0.007491,
1440,1830,-0.238627,-1.052480,0.999998,0.000191,-0.001409,0.005569,0.000229,0.005576,-0.001417,88.125448,0.005797,
1330,1960,-0.033379,-0.346915,0.999998,0.000183,-0.000435,0.004732,0.000176,0.004738,-0.000441,88.055120,0.005235,
1670,1530,-1.336524,-3.495781,0.999996,0.000228,-0.003964,0.007787,-0.000278,0.007794,-0.003970,-88.647547,0.007794,
1790,1190,-2.663496,-6.397213,0.999996,0.000218,-0.003603,0.007398,0.000694,0.007441,-0.003647,86.407063,0.007442,
1460,160,-0.179021,-14.412036,0.999998,0.000169,-0.000908,0.005419,-0.000503,0.005458,-0.000948,-85.479679,0.005833,
1380,610,-0.335421,-11.882477,0.999996,0.000242,-0.003076,0.006022,0.001602,0.006296,-0.003350,80.300673,0.006300,
720,250,0.976269,-13.540671,0.999998,0.000179,-0.003304,0.007504,0.000512,0.007528,-0.003328,87.292618,0.007545,
1010,810,0.927005,-9.968487,0.999996,0.000249,-0.005834,0.009475,-0.001349,0.009593,-0.005952,-85.003534,0.009685,
1790,1510,-1.854352,-3.943252,0.999997,0.000200,-0.003875,0.007675,-0.000061,0.007675,-0.003876,-89.695564,0.007675,
1360,1300,-0.310640,-4.017646,0.999996,0.000257,-0.004007,0.006109,-0.003023,0.006943,-0.004842,-74.566786,0.007121,
740,1190,2.418190,-6.335682,0.999996,0.000251,-0.003784,0.007738,-0.000831,0.007798,-0.003843,-85.895477,0.007798,
1640,1670,-0.969377,-2.368263,0.999997,0.000237,-0.003335,0.007300,-0.000109,0.007301,-0.003336,-89.414101,0.007310,
1640,1590,-1.114103,-2.962512,0.999998,0.000167,-0.003651,0.007484,-0.000301,0.007493,-0.003660,-88.453514,0.007493,
670,1790,1.201231,-1.812528,0.999997,0.000200,-0.003509,0.007556,-0.000414,0.007571,-0.003524,-87.859887,0.007577,
1550,30,-0.022236,-15.065605,0.999999,0.000000,0.000022,0.004938,-0.000924,0.005106,-0.000146,-79.693767,0.005813,
1010,1400,0.623453,-3.834453,0.999997,0.000211,-0.004277,0.007461,0.001634,0.007684,-0.004501,82.222137,0.007722,
1710,1970,-0.272319,-0.384606,0.999998,0.000182,-0.000954,0.006028,0.001798,0.006464,-0.001390,76.372378,0.006805,
1210,490,0.040719,-12.749365,0.999998,0.000159,-0.001893,0.005134,-0.000227,0.005141,-0.001900,-88.155655,0.005199,
1150,1900,0.051346,-0.634667,0.999998,0.000142,-0.000675,0.004934,-0.000142,0.004938,-0.000679,-88.551239,0.005353,
1650,1980,-0.170309,-0.301166,0.999997,0.000202,-0.000783,0.005685,0.001447,0.005994,-0.001092,77.950535,0.006385,
1870,950,-3.084435,-8.057485,0.999997,0.000204,-0.003169,0.006410,-0.000151,0.006412,-0.003171,-89.096704,0.006412,
1630,970,-2.325284,-8.009617,0.999997,0.000213,-0.003161,0.007890,-0.000684,0.007932,-0.003203,-86.473806,0.007980,
1660,830,-2.066054,-9.132638,0.999997,0.000244,-0.004225,0.008313,-0.000877,0.008374,-0.004286,-86.015900,0.008375,
1160,1520,0.139043,-2.642678,0.999998,0.000182,-0.002140,0.005221,0.000738,0.005294,-0.002213,84.332635,0.005318,
1570,1370,-1.219412,-4.521671,0.999997,0.000196,-0.004841,0.008542,-0.000443,0.008557,-0.004855,-88.105705,0.008582,
670,540,1.853713,-11.208808,0.999997,0.000197,-0.003866,0.007711,-0.000067,0.007711,-0.003866,-89.670671,0.007711,
940,1450,0.866665,-3.714306,0.999997,0.000234,-0.004185,0.007711,0.000947,0.007786,-0.004260,85.476285,0.007798,
1410,1470,-0.423855,-3.189103,0.999997,0.000219,-0.003300,0.006416,-0.001477,0.006636,-0.003519,-81.546751,0.006640,
1630,1100,-2.295394,-6.991331,0.999997,0.000218,-0.003248,0.007920,0.000768,0.007972,-0.003300,86.086319,0.008012,
1210,220,0.021248,-14.166489,0.999998,0.000190,-0.001031,0.005040,-0.000053,0.005040,-0.001031,-89.497327,0.005325,
1060,1520,0.382562,-2.851210,0.999996,0.000227,-0.002805,0.006166,0.001067,0.006291,-0.002930,83.306715,0.006296,
620,730,2.512957,-9.642696,0.999996,0.000212,-0.003744,0.007451,0.000309,0.007460,-0.003752,88.419811,0.007460,
730,480,1.494487,-11.816974,0.999997,0.000212,-0.003835,0.007657,-0.000173,0.007660,-0.003837,-89.136763,0.007660,
1110,450,0.234434,-12.869886,0.999998,0.000181,-0.002085,0.005643,-0.000502,0.005676,-0.002117,-86.296295,0.005736,
1290,340,-0.090403,-13.529767,0.999998,0.000158,-0.001468,0.005357,0.000052,0.005358,-0.001468,89.562702,0.005537,
1790,1170,-2.710786,-6.545330,0.999997,0.000215,-0.003530,0.007311,0.000636,0.007348,-0.003568,86.654424,0.007349,
1130,1520,0.205090,-2.695168,0.999998,0.000155,-0.002253,0.005445,0.000809,0.005529,-0.002337,84.064532,0.005551,
1410,960,-1.478305,-8.744892,0.999984,0.000514,-0.005537,0.014111,0.004437,0.015067,-0.006493,77.846418,0.015115,
1410,1260,-0.630169,-4.701557,0.999995,0.000293,-0.005564,0.008477,-0.002491,0.008906,-0.005993,-80.231203,0.009081,
920,1960,0.144515,-0.384945,0.999998,0.000188,-0.000566,0.005291,-0.000880,0.005421,-0.000695,-81.634737,0.005899,
1460,140,-0.151892,-14.520588,0.999998,0.000182,-0.000750,0.005279,-0.000517,0.005323,-0.000794,-85.134515,0.005743,
840,1520,1.168814,-3.455238,0.999997,0.000207,-0.003976,0.007742,0.000411,0.007756,-0.003991,87.994632,0.007757,
1670,1510,-1.375589,-3.653930,0.999996,0.000236,-0.004039,0.007823,-0.000255,0.007829,-0.004044,-88.767478,0.007830,
840,710,1.537236,-10.234445,0.999997,0.000233,-0.004739,0.008533,0.000091,0.008534,-0.004740,89.608100,0.008551,
910,1740,0.586703,-1.722703,0.999997,0.000193,-0.002417,0.006556,-0.000124,0.006558,-0.002419,-89.210490,0.006632,
1310,1960,-0.026536,-0.345111,0.999998,0.000186,-0.000315,0.004701,0.000160,0.004706,-0.000320,88.176773,0.005258,
720,230,0.912030,-13.691467,0.999998,0.000174,-0.003240,0.007441,0.000657,0.007481,-0.003280,86.492804,0.007500,
720,1600,1.479124,-3.133440,0.999996,0.000231,-0.003769,0.007613,0.000146,0.007614,-0.003771,89.266774,0.007615,
1500,490,-0.655703,-12.318277,0.999996,0.000224,-0.003296,0.006935,0.000754,0.006990,-0.003352,85.807796,0.006992,
1150,1580,0.156850,-2.335504,0.999998,0.000193,-0.002124,0.005418,0.000567,0.005460,-0.002166,85.725609,0.005499,
970,280,0.396639,-13.698312,0.999997,0.000213,-0.002118,0.006134,0.000128,0.006136,-0.002120,89.109180,0.006233,
670,1770,1.260402,-1.962444,0.999996,0.000218,-0.003540,0.007558,-0.000277,0.007565,-0.003547,-88.570900,0.007570,
900,1850,0.396730,-1.029370,0.999997,0.000213,-0.001760,0.006121,-0.000665,0.006177,-0.001815,-85.208990,0.006350,
800,1760,0.850909,-1.762863,0.999998,0.000180,-0.003116,0.007167,-0.000294,0.007176,-0.003124,-88.361111,0.007195,
1790,1530,-1.808662,-3.788542,0.999997,0.000220,-0.003858,0.007683,-0.000087,0.007684,-0.003858,-89.568219,0.007684,
1010,790,0.863391,-10.155312,0.999995,0.000254,-0.005762,0.009224,-0.001502,0.009373,-0.005911,-84.332713,0.009479,
1210,510,0.041506,-12.645737,0.999998,0.000147,-0.001905,0.005087,-0.000257,0.005097,-0.001915,-87.894999,0.005149,
1650,1040,-2.428786,-7.462555,0.999996,0.000218,-0.002995,0.007736,0.000192,0.007739,-0.002999,88.972920,0.007805,
920,1190,1.659874,-6.092116,0.999996,0.000256,-0.004889,0.009485,-0.000832,0.009533,-0.004937,-86.698548,0.009535,
1840,630,-2.244043,-10.407287,0.999996,0.000249,-0.003813,0.007685,-0.000105,0.007686,-0.003814,-89.475129,0.007686,
1620,1590,-1.041392,-2.916588,0.999998,0.000174,-0.003614,0.007438,-0.000345,0.007449,-0.003624,-88.214224,0.007450,
1890,160,-1.137476,-13.808312,0.999997,0.000191,-0.003667,0.007589,-0.000609,0.007622,-0.003700,-86.909958,0.007623,
1570,1390,-1.177343,-4.349071,0.999998,0.000186,-0.004728,0.008428,-0.000498,0.008447,-0.004747,-87.837108,0.008468,
670,520,1.810600,-11.363642,0.999997,0.000216,-0.003869,0.007695,-0.000104,0.007696,-0.003870,-89.485890,0.007696,
1630,1410,-1.412210,-4.356050,0.999996,0.000234,-0.004519,0.008313,-0.000176,0.008316,-0.004522,-89.212836,0.008326,
1410,1490,-0.414340,-3.057644,0.999997,0.000213,-0.003191,0.006336,-0.001359,0.006526,-0.003381,-82.038927,0.006527,
570,1140,3.103085,-6.858663,0.999990,0.000351,-0.002899,0.006553,-0.000161,0.006556,-0.002901,-89.022954,0.006570,
600,730,2.587521,-9.601326,0.999995,0.000243,-0.003700,0.007366,0.000231,0.007371,-0.003705,88.806723,0.007371,
1060,1500,0.389456,-2.972811,0.999997,0.000204,-0.002948,0.006211,0.001213,0.006369,-0.003106,82.582877,0.006369,
1190,220,0.042446,-14.163453,0.999998,0.000171,-0.000953,0.005054,-0.000001,0.005054,-0.000953,-89.990408,0.005371,
1110,1520,0.251083,-2.729342,0.999997,0.000201,-0.002476,0.005669,0.000998,0.005789,-0.002597,83.113921,0.005800,
1110,430,0.227264,-12.983217,0.999998,0.000192,-0.002040,0.005612,-0.000450,0.005638,-0.002066,-86.646501,0.005705,
920,1940,0.182332,-0.494536,0.999997,0.000190,-0.000744,0.005548,-0.000895,0.005672,-0.000868,-82.062265,0.006111,
840,1540,1.134268,-3.301930,0.999997,0.000200,-0.003873,0.007679,0.000434,0.007695,-0.003890,87.853289,0.007695,
1420,1040,-1.669348,-7.352043,0.999979,0.000556,-0.007180,0.017183,-0.000929,0.017218,-0.007215,-87.819427,0.017293,
1790,1150,-2.748035,-6.690016,0.999997,0.000214,-0.003453,0.007138,0.000497,0.007162,-0.003476,87.317485,0.007163,
970,350,0.487248,-13.260118,0.999997,0.000196,-0.002563,0.006336,-0.000235,0.006343,-0.002569,-88.485958,0.006380,
1120,1250,0.323246,-4.174505,0.999996,0.000269,-0.004051,0.005512,0.003396,0.006595,-0.005134,72.308832,0.006928,
1840,500,-1.946177,-11.405426,0.999997,0.000199,-0.003809,0.007641,0.000083,0.007641,-0.003810,89.583300,0.007641,
610,280,1.461959,-13.033232,0.999998,0.000223,-0.003699,0.007417,0.000056,0.007418,-0.003699,89.708901,0.007418,
970,340,0.475400,-13.323187,0.999997,0.000208,-0.002489,0.006368,-0.000187,0.006372,-0.002493,-88.793414,0.006422,
1830,1740,-1.477976,-2.284011,0.999997,0.000210,-0.003652,0.007539,0.000034,0.007539,-0.003652,89.823712,0.007540,
780,930,2.424023,-8.302577,0.999996,0.000233,-0.003439,0.007707,0.000712,0.007752,-0.003484,86.358975,0.007765,
1130,1900,0.067495,-0.639992,0.999999,0.000107,-0.000790,0.004983,-0.000154,0.004987,-0.000794,-88.468835,0.005359,
1300,630,-0.128262,-12.005923,0.999998,0.000153,-0.002125,0.004672,0.001221,0.004884,-0.002337,80.120207,0.004886,
1670,1490,-1.415180,-3.812532,0.999996,0.000235,-0.004105,0.007887,-0.000213,0.007891,-0.004109,-88.983256,0.007893,
590,1940,0.829807,-0.893500,0.999998,0.000176,-0.003560,0.008106,-0.001282,0.008246,-0.003700,-83.801197,0.008260,
1260,580,-0.052794,-12.296734,0.999998,0.000182,-0.001874,0.004724,0.000391,0.004747,-0.001897,86.618435,0.004778,
1630,2000,-0.101379,-0.187201,0.999997,0.000192,-0.000304,0.005364,0.001351,0.005670,-0.000609,77.257082,0.006225,
1460,120,-0.124646,-14.623767,0.999998,0.000160,-0.000639,0.005181,-0.000566,0.005236,-0.000693,-84.496697,0.005688,
1710,1950,-0.345057,-0.506009,0.999997,0.000212,-0.001180,0.006397,0.001837,0.006818,-0.001602,77.067841,0.007131,
1550,330,-0.602171,-13.301272,0.999997,0.000213,-0.002502,0.006674,-0.000060,0.006674,-0.002502,-89.622889,0.006744,
1580,1550,-0.957124,-3.115391,0.999997,0.000226,-0.003758,0.007463,-0.000545,0.007490,-0.003785,-87.227000,0.007490,
1600,90,-0.179134,-14.744682,0.999998,0.000169,-0.000887,0.005497,-0.001106,0.005683,-0.001073,-80.444482,0.006039,
670,1750,1.318114,-2.115945,0.999996,0.000226,-0.003571,0.007551,-0.000169,0.007553,-0.003573,-89.129854,0.007557,
1010,1210,1.075285,-5.494767,0.999995,0.000285,-0.005915,0.010168,0.001066,0.010238,-0.005985,86.223784,0.010287,
700,670,2.044307,-10.261751,0.999997,0.000222,-0.004033,0.007873,0.000288,0.007880,-0.004040,88.612687,0.007880,
1210,530,0.039820,-12.544467,0.999998,0.000145,-0.001903,0.005004,-0.000288,0.005016,-0.001915,-87.620501,0.005062,
1340,150,-0.069939,-14.505986,0.999998,0.000139,-0.000764,0.004967,-0.000180,0.004973,-0.000770,-88.200813,0.005353,
1210,850,0.152383,-11.482560,0.999984,0.000464,-0.006251,0.002247,0.000221,0.002253,-0.006257,88.511348,0.006338,
1360,1280,-0.339164,-4.144146,0.999997,0.000229,-0.004258,0.006276,-0.003251,0.007198,-0.005180,-74.157706,0.007426,
750,880,2.415434,-8.675805,0.999996,0.000228,-0.003724,0.007775,0.000873,0.007841,-0.003790,85.685214,0.007842,
710,1790,1.057924,-1.716712,0.999997,0.000213,-0.003529,0.007525,-0.000385,0.007539,-0.003542,-88.008791,0.007543,
670,500,1.766300,-11.517536,0.999997,0.000233,-0.003848,0.007707,-0.000117,0.007708,-0.003849,-89.421431,0.007708,
1510,340,-0.521224,-13.292645,0.999998,0.000204,-0.002566,0.006499,0.000107,0.006500,-0.002567,89.320997,0.006548,
800,1740,0.899361,-1.907673,0.999998,0.000173,-0.003228,0.007194,-0.000150,0.007196,-0.003230,-89.174559,0.007208,
1890,150,-1.089849,-13.884275,0.999998,0.000193,-0.003649,0.007687,-0.000737,0.007735,-0.003696,-86.297222,0.007737,
1350,1600,-0.230066,-2.273757,0.999998,0.000171,-0.002054,0.005610,-0.000501,0.005642,-0.002087,-86.272123,0.005706,
1570,1830,-0.453152,-1.158532,0.999998,0.000186,-0.002068,0.006258,0.000536,0.006292,-0.002102,86.330100,0.006406,
1790,1550,-1.766794,-3.633384,0.999997,0.000228,-0.003846,0.007708,-0.000108,0.007709,-0.003847,-89.466719,0.007709,
850,460,1.008265,-12.257275,0.999998,0.000180,-0.003604,0.007422,-0.000361,0.007433,-0.003616,-88.128667,0.007434,
1270,1500,-0.072357,-2.709903,0.999998,0.000183,-0.001916,0.004911,-0.000378,0.004932,-0.001937,-86.840875,0.004970,
1110,410,0.223460,-13.093656,0.999998,0.000187,-0.001981,0.005564,-0.000396,0.005585,-0.002002,-87.003779,0.005659,
1410,1510,-0.408133,-2.929459,0.999997,0.000216,-0.003019,0.006272,-0.001181,0.006419,-0.003166,-82.868105,0.006420,
1630,1390,-1.457987,-4.522325,0.999996,0.000228,-0.004595,0.008333,-0.000087,0.008334,-0.004596,-89.612675,0.008348,
840,1310,1.635693,-5.188079,0.999996,0.000231,-0.004812,0.008649,-0.000325,0.008657,-0.004819,-88.616939,0.008675,
600,710,2.536840,-9.749382,0.999997,0.000233,-0.003713,0.007467,0.000196,0.007471,-0.003717,88.994989,0.007471,
930,910,1.805319,-8.625173,0.999997,0.000219,-0.004288,0.009444,0.001045,0.009523,-0.004367,85.672352,0.009534,
1070,1110,1.338599,-5.907379,0.999962,0.000762,-0.004250,0.012577,0.006102,0.014557,-0.006229,72.024685,0.014607,
630,1930,0.742348,-0.827193,0.999997,0.000192,-0.003494,0.007942,-0.001193,0.008065,-0.003618,-84.105822,0.008079,
1590,560,-1.078380,-11.558171,0.999997,0.000203,-0.004087,0.007790,0.000569,0.007818,-0.004114,87.265178,0.007821,
970,1370,0.841920,-4.241037,0.999997,0.000223,-0.004837,0.008270,0.001265,0.008391,-0.004958,84.537524,0.008437,
770,1140,2.428910,-6.707295,0.999997,0.000229,-0.003559,0.007789,-0.000810,0.007846,-0.003617,-85.937135,0.007854,
1060,1480,0.397297,-3.097995,0.999997,0.000201,-0.003104,0.006227,0.001414,0.006437,-0.003314,81.568905,0.006438,
1670,1470,-1.456308,-3.969534,0.999995,0.000243,-0.004174,0.007902,-0.000174,0.007905,-0.004176,-89.175254,0.007909,
1710,1930,-0.437057,-0.642885,0.999997,0.000202,-0.001530,0.006635,0.001779,0.007005,-0.001901,78.226174,0.007245,
1880,780,-2.779714,-9.196772,0.999996,0.000234,-0.003530,0.007172,-0.000172,0.007175,-0.003532,-89.079748,0.007175,
610,260,1.399434,-13.183268,0.999997,0.000211,-0.003665,0.007503,0.000124,0.007504,-0.003666,89.363765,0.007505,
1630,1980,-0.158104,-0.298245,0.999998,0.000167,-0.000565,0.005607,0.001406,0.005912,-0.000870,77.749527,0.006384,
1450,580,-0.556579,-11.837207,0.999997,0.000204,-0.003570,0.006880,0.001318,0.007043,-0.003733,82.921417,0.007048,
960,1790,0.394944,-1.340342,0.999996,0.000233,-0.002121,0.006088,-0.000189,0.006093,-0.002125,-88.683777,0.006185,
1560,1550,-0.880389,-3.062664,0.999998,0.000193,-0.003673,0.007335,-0.000627,0.007371,-0.003709,-86.750625,0.007371,
860,770,1.613501,-9.757532,0.999994,0.000287,-0.004938,0.008886,0.000401,0.008897,-0.004950,88.341100,0.008916,
620,1990,0.383169,-0.376154,0.999994,0.000286,-0.003313,0.007910,-0.002084,0.008284,-0.003688,-79.810961,0.008301,
1380,630,-0.337445,-11.758758,0.999997,0.000205,-0.003211,0.006070,0.001818,0.006413,-0.003554,79.302984,0.006426,
580,1940,0.865384,-0.929443,0.999997,0.000202,-0.003638,0.008231,-0.001312,0.008374,-0.003781,-83.768786,0.008387,
1580,90,-0.157849,-14.751595,0.999998,0.000162,-0.000920,0.005392,-0.000998,0.005546,-0.001074,-81.226621,0.005883,
1010,1230,0.984320,-5.294927,0.999994,0.000306,-0.005877,0.009760,0.001227,0.009856,-0.005972,85.541500,0.009930,
1210,1350,0.033071,-3.321673,0.999998,0.000147,-0.001580,0.003219,0.000685,0.003315,-0.001676,82.034215,0.003315,
670,1730,1.368980,-2.265994,0.999997,0.000211,-0.003614,0.007571,-0.000048,0.007571,-0.003614,-89.753910,0.007573,
1460,100,-0.097302,-14.728007,0.999998,0.000173,-0.000499,0.005051,-0.000561,0.005107,-0.000555,-84.286362,0.005604,
1360,1700,-0.213829,-1.721093,0.999998,0.000192,-0.001781,0.005591,-0.000216,0.005597,-0.001788,-88.319786,0.005718,
1160,1540,0.138179,-2.537413,0.999997,0.000191,-0.002118,0.005294,0.000657,0.005352,-0.002176,84.975489,0.005383,
1250,1900,-0.013182,-0.629541,0.999998,0.000165,-0.000687,0.004883,0.000017,0.004883,-0.000687,89.820319,0.005286,
800,1720,0.944140,-2.052835,0.999997,0.000195,-0.003323,0.007221,-0.000050,0.007221,-0.003323,-89.727670,0.007229,
1490,340,-0.466468,-13.327828,0.999997,0.000225,-0.002473,0.006283,0.000183,0.006287,-0.002477,88.800477,0.006333,
1790,1570,-1.723117,-3.478173,0.999997,0.000202,-0.003851,0.007693,-0.000109,0.007694,-0.003852,-89.457311,0.007694,
840,1190,2.020092,-6.235458,0.999995,0.000266,-0.004214,0.008568,-0.001015,0.008648,-0.004294,-85.487810,0.008648,
920,1920,0.226429,-0.607147,0.999997,0.000182,-0.000921,0.005598,-0.000822,0.005700,-0.001023,-82.921786,0.006078,
1800,70,-0.318106,-14.784473,0.999998,0.000227,-0.001081,0.007308,-0.002988,0.008264,-0.002037,-72.267548,0.008610,
730,880,2.491133,-8.659493,0.999997,0.000232,-0.003700,0.007689,0.000849,0.007752,-0.003763,85.759824,0.007753,
1660,1670,-1.036878,-2.413580,0.999998,0.000154,-0.003468,0.007387,-0.000105,0.007388,-0.003469,-89.447379,0.007393,
1150,1620,0.149103,-2.117568,0.999998,0.000156,-0.002002,0.005435,0.000413,0.005458,-0.002025,86.829558,0.005518,
840,1560,1.100632,-3.146916,0.999997,0.000206,-0.003738,0.007560,0.000399,0.007574,-0.003752,87.978279,0.007575,
1110,390,0.216898,-13.204895,0.999998,0.000181,-0.001899,0.005607,-0.000341,0.005622,-0.001915,-87.405206,0.005717,
1540,2020,-0.031322,-0.079033,0.999998,0.000000,-0.000029,0.004885,0.000885,0.005039,-0.000183,80.098720,0.005716,
1310,1500,-0.155116,-2.759898,0.999998,0.000145,-0.002218,0.005229,-0.000872,0.005330,-0.002319,-83.408925,0.005345,
1410,1530,-0.399899,-2.805120,0.999997,0.000197,-0.002831,0.006236,-0.000990,0.006343,-0.002938,-83.840148,0.006349,
1570,1280,-1.463440,-5.322093,0.999994,0.000277,-0.005174,0.009107,0.000188,0.009110,-0.005177,89.246183,0.009138,
1570,1810,-0.492229,-1.286554,0.999997,0.000200,-0.002191,0.006407,0.000449,0.006430,-0.002214,87.018089,0.006533,
1040,1080,1.615966,-6.735806,0.999986,0.000485,-0.005911,0.014397,0.002548,0.014712,-0.006226,82.956986,0.014770,
630,1440,2.181926,-4.580235,0.999996,0.000237,-0.003829,0.007686,-0.000080,0.007686,-0.003830,-89.602297,0.007686,
1320,150,-0.053645,-14.507515,0.999999,0.000130,-0.000703,0.004917,-0.000167,0.004922,-0.000708,-88.300264,0.005322,
1630,1370,-1.505484,-4.690162,0.999997,0.000230,-0.004651,0.008402,0.000017,0.008402,-0.004651,89.923566,0.008418,
1550,310,-0.571449,-13.433887,0.999997,0.000209,-0.002356,0.006538,-0.000118,0.006540,-0.002357,-89.239094,0.006624,
1600,790,-1.663457,-9.587316,0.999996,0.000205,-0.004911,0.008942,-0.000543,0.008963,-0.004932,-87.760501,0.008978,
1890,140,-1.036670,-13.962213,0.999997,0.000205,-0.003636,0.007891,-0.000921,0.007964,-0.003709,-85.460369,0.007970,
1620,2000,-0.096473,-0.186536,0.999998,0.000165,-0.000324,0.005326,0.001283,0.005604,-0.000602,77.787584,0.006153,
1060,1460,0.403600,-3.228228,0.999997,0.000205,-0.003246,0.006373,0.001591,0.006629,-0.003502,80.849691,0.006632,
850,440,0.974020,-12.405980,0.999997,0.000225,-0.003512,0.007371,-0.000328,0.007381,-0.003521,-88.275707,0.007383,
720,860,2.479300,-8.805567,0.999996,0.000243,-0.003744,0.007614,0.000790,0.007669,-0.003799,86.041686,0.007669,
970,1330,0.916426,-4.583913,0.999997,0.000210,-0.005207,0.008689,0.001169,0.008787,-0.005305,85.224522,0.008850,
750,1140,2.499679,-6.717348,0.999996,0.000243,-0.003553,0.007624,-0.000731,0.007672,-0.003600,-86.276170,0.007677,
1570,560,-0.997332,-11.614642,0.999997,0.000201,-0.004004,0.007706,0.000658,0.007743,-0.004041,86.794652,0.007746,
1670,1450,-1.499935,-4.129507,0.999995,0.000248,-0.004272,0.007996,-0.000133,0.007997,-0.004273,-89.377759,0.008004,
1870,830,-2.862411,-8.867183,0.999998,0.000170,-0.003431,0.006968,-0.000282,0.006976,-0.003439,-88.447096,0.006976,
1740,90,-0.325107,-14.689247,0.999997,0.000214,-0.001833,0.006291,-0.001770,0.006659,-0.002201,-78.228317,0.006786,
1710,1910,-0.512895,-0.772383,0.999997,0.000203,-0.001821,0.006764,0.001572,0.007043,-0.002100,79.946399,0.007232,
1230,1900,0.000870,-0.627777,0.999998,0.000157,-0.000698,0.004877,0.000011,0.004877,-0.000698,89.886789,0.005275,
670,1710,1.415908,-2.417574,0.999997,0.000197,-0.003665,0.007582,0.000006,0.007582,-0.003665,89.971957,0.007584,
1460,80,-0.074139,-14.826925,0.999998,0.000148,-0.000381,0.004960,-0.000584,0.005023,-0.000445,-83.833875,0.005561,
1010,1250,0.908369,-5.102724,0.999995,0.000268,-0.005840,0.009405,0.001395,0.009532,-0.005967,84.812935,0.009632,
1780,70,-0.296492,-14.790294,0.999997,0.000211,-0.001316,0.007051,-0.002753,0.007876,-0.002140,-73.325064,0.008145,
1880,630,-2.396013,-10.315821,0.999996,0.000220,-0.003821,0.007621,-0.000065,0.007621,-0.003822,-89.673346,0.007621,
1450,560,-0.543038,-11.973029,0.999997,0.000198,-0.003385,0.006758,0.001153,0.006887,-0.003515,83.596383,0.006888,
820,1190,2.105035,-6.260102,0.999996,0.000246,-0.004097,0.008405,-0.001012,0.008486,-0.004178,-85.402404,0.008487,
1800,60,-0.255829,-14.858313,0.999997,0.000221,-0.000823,0.006929,-0.002935,0.007915,-0.001809,-71.433733,0.008295,
1570,1790,-0.534145,-1.414471,0.999997,0.000209,-0.002352,0.006491,0.000353,0.006505,-0.002366,87.717013,0.006586,
1290,1500,-0.111071,-2.727613,0.999998,0.000169,-0.002059,0.005061,-0.000651,0.005120,-0.002118,-84.818388,0.005145,
1410,1110,-1.416414,-6.182409,0.999991,0.000386,-0.005109,0.012394,-0.004216,0.013357,-0.006071,-77.139249,0.013375,
1390,1960,-0.055754,-0.354537,0.999998,0.000183,-0.000375,0.004824,0.000320,0.004844,-0.000395,86.489111,0.005380,
1110,370,0.210766,-13.319176,0.999998,0.000207,-0.001831,0.005666,-0.000258,0.005675,-0.001840,-88.028826,0.005791,
1060,1660,0.320872,-2.001478,0.999997,0.000186,-0.002348,0.005913,0.000488,0.005941,-0.002376,86.628835,0.005981,
1210,1330,0.030165,-3.379830,0.999998,0.000159,-0.001555,0.002878,0.000766,0.003006,-0.001684,80.465918,0.003014,
1790,1130,-2.780017,-6.831647,0.999997,0.000207,-0.003404,0.007158,0.000507,0.007183,-0.003428,87.256095,0.007185,
1500,1660,-0.560895,-2.163577,0.999997,0.000216,-0.002803,0.006544,-0.000369,0.006559,-0.002817,-87.740237,0.006581,
810,210,0.595945,-13.967886,0.999997,0.000207,-0.002431,0.006719,0.000858,0.006799,-0.002511,84.692229,0.006876,
930,890,1.720308,-8.812117,0.999996,0.000215,-0.004665,0.009490,0.000952,0.009553,-0.004729,86.169018,0.009554,
1130,1620,0.190944,-2.141351,0.999998,0.000157,-0.002043,0.005539,0.000464,0.005567,-0.002071,86.507463,0.005627,
790,640,1.592008,-10.699234,0.999996,0.000239,-0.004352,0.008103,0.000003,0.008103,-0.004352,89.988416,0.008110,
1330,400,-0.175066,-13.176151,0.999999,0.000144,-0.001978,0.005473,0.000419,0.005497,-0.002001,86.793628,0.005564,
1360,1720,-0.203851,-1.611569,0.999997,0.000196,-0.001698,0.005600,-0.000147,0.005603,-0.001701,-88.849670,0.005745,
1290,1580,-0.108608,-2.312246,0.999998,0.000179,-0.001918,0.005318,-0.000312,0.005331,-0.001932,-87.535092,0.005398,
1500,90,-0.106017,-14.771255,0.999998,0.000145,-0.000670,0.005120,-0.000646,0.005191,-0.000741,-83.711187,0.005616,
1590,300,-0.656985,-13.439584,0.999997,0.000210,-0.002785,0.006759,-0.000164,0.006762,-0.002787,-89.016628,0.006796,
590,440,1.936551,-11.783125,0.999998,0.000186,-0.003691,0.007510,-0.000052,0.007510,-0.003691,-89.733046,0.007511,
1720,970,-2.614106,-7.984721,0.999997,0.000181,-0.003267,0.007399,-0.000428,0.007416,-0.003284,-87.704260,0.007432,
1670,1430,-1.544479,-4.289897,0.999996,0.000235,-0.004337,0.008113,-0.000068,0.008114,-0.004337,-89.688409,0.008120,
1680,1450,-1.542077,-4.153049,0.999996,0.000243,-0.004254,0.007981,-0.000107,0.007982,-0.004255,-89.496802,0.007988,
1160,1980,0.015686,-0.252775,0.999998,0.000151,-0.000194,0.004620,-0.000161,0.004625,-0.000200,-88.087261,0.005229,
960,170,0.242321,-14.336173,0.999997,0.000195,-0.001415,0.005617,0.000525,0.005656,-0.001453,85.757052,0.005875,
1750,990,-2.725875,-7.834586,0.999997,0.000187,-0.003229,0.007179,-0.000225,0.007184,-0.003234,-88.762918,0.007196,
1550,290,-0.538640,-13.564660,0.999997,0.000192,-0.002209,0.006521,-0.000269,0.006530,-0.002218,-88.236613,0.006641,
1430,1960,-0.075966,-0.361304,0.999998,0.000174,-0.000562,0.004929,0.000432,0.004963,-0.000596,85.524105,0.005420,
1600,1670,-0.840808,-2.288219,0.999998,0.000190,-0.003155,0.007060,-0.000154,0.007062,-0.003157,-89.138396,0.007076,
1880,820,-2.873045,-8.918048,0.999997,0.000208,-0.003409,0.006895,-0.000207,0.006899,-0.003413,-88.847007,0.006900,
840,1580,1.068726,-2.998135,0.999997,0.000193,-0.003651,0.007441,0.000363,0.007453,-0.003663,88.126648,0.007453,
920,1900,0.263207,-0.720016,0.999998,0.000176,-0.001113,0.005770,-0.000802,0.005863,-0.001205,-83.440197,0.006192,
1110,350,0.199026,-13.433622,0.999997,0.000201,-0.001751,0.005571,-0.000204,0.005577,-0.001756,-88.407284,0.005703,
760,560,1.539334,-11.269654,0.999996,0.000241,-0.004067,0.007835,-0.000143,0.007837,-0.004069,-89.309497,0.007839,
1050,340,0.302276,-13.430905,0.999998,0.000251,-0.002120,0.005840,-0.000262,0.005849,-0.002129,-88.115893,0.005921,
1310,1990,-0.014145,-0.205000,0.999998,0.000165,-0.000165,0.004584,0.000166,0.004590,-0.000170,88.000687,0.005205,
1830,1910,-0.842705,-0.974093,0.999997,0.000221,-0.003486,0.007784,0.001003,0.007873,-0.003575,84.955405,0.007884,
630,1910,0.855758,-0.983471,0.999997,0.000215,-0.003563,0.007799,-0.000940,0.007876,-0.003640,-85.303793,0.007884,
670,60,0.249951,-14.859366,0.999997,0.000242,-0.000790,0.006908,0.002936,0.007900,-0.001782,71.335011,0.008287,
920,1310,1.230675,-4.960909,0.999997,0.000255,-0.005309,0.009024,0.000340,0.009032,-0.005317,88.639909,0.009079,
1840,1010,-3.030272,-7.679316,0.999997,0.000207,-0.003219,0.006730,-0.000208,0.006735,-0.003224,-88.804081,0.006737,
1010,1270,0.846903,-4.918232,0.999997,0.000231,-0.005753,0.009156,0.001544,0.009314,-0.005912,84.147634,0.009426,
1610,2000,-0.092302,-0.185086,0.999998,0.000176,-0.000409,0.005281,0.001212,0.005529,-0.000657,78.465481,0.006041,
800,1190,2.185581,-6.282740,0.999996,0.000222,-0.003973,0.008225,-0.000970,0.008302,-0.004050,-85.479469,0.008302,
1540,1870,-0.321405,-0.892676,0.999998,0.000188,-0.001379,0.005878,0.000657,0.005937,-0.001438,84.872420,0.006195,
1400,1120,-1.320469,-5.913143,0.999991,0.000355,-0.004176,0.011572,-0.005060,0.013058,-0.005662,-73.636588,0.013096,
930,870,1.630139,-9.006744,0.999996,0.000243,-0.004958,0.009584,0.000812,0.009629,-0.005003,86.815373,0.009632,
1740,70,-0.237683,-14.814172,0.999997,0.000223,-0.001346,0.006260,-0.002024,0.006765,-0.001851,-75.986118,0.006992,
1290,1620,-0.105847,-2.099750,0.999999,0.000153,-0.001788,0.005334,-0.000196,0.005339,-0.001793,-88.425832,0.005434,
1790,1110,-2.814232,-6.977121,0.999997,0.000204,-0.003368,0.007133,0.000510,0.007158,-0.003393,87.227611,0.007161,
810,1760,0.820744,-1.745072,0.999998,0.000171,-0.002966,0.007118,-0.000331,0.007129,-0.002977,-88.119450,0.007161,
630,1140,2.909147,-6.793936,0.999997,0.000215,-0.003333,0.006878,-0.000417,0.006894,-0.003350,-87.667418,0.006895,
1590,1420,-1.208327,-4.161747,0.999998,0.000176,-0.004535,0.008192,-0.000449,0.008208,-0.004551,-87.982831,0.008224,
1500,1680,-0.537987,-2.034147,0.999997,0.000202,-0.002749,0.006476,-0.000326,0.006488,-0.002760,-87.976830,0.006512,
810,230,0.653954,-13.834993,0.999997,0.000215,-0.002580,0.006862,0.000709,0.006915,-0.002633,85.726547,0.006980,
1080,750,0.405801,-10.970607,0.999997,0.000213,-0.004497,0.006934,-0.002863,0.007611,-0.005174,-76.697634,0.007773,
1250,1500,-0.035631,-2.696491,0.999998,0.000169,-0.001875,0.004831,-0.000303,0.004845,-0.001888,-87.422255,0.004884,
1210,1310,0.032249,-3.432508,0.999998,0.000167,-0.001569,0.002551,0.000854,0.002721,-0.001739,78.740409,0.002756,
1570,1770,-0.573973,-1.548257,0.999997,0.000206,-0.002442,0.006591,0.000265,0.006598,-0.002450,88.319627,0.006671,
1360,1740,-0.191358,-1.495634,0.999998,0.000184,-0.001606,0.005583,-0.000090,0.005584,-0.001607,-89.286416,0.005749,
790,620,1.545380,-10.862371,0.999996,0.000240,-0.004305,0.008062,-0.000066,0.008062,-0.004305,-89.695963,0.008069,
1680,1430,-1.586858,-4.315218,0.999996,0.000230,-0.004295,0.008099,-0.000033,0.008099,-0.004295,-89.848172,0.008104,
830,1000,2.366277,-7.774495,0.999997,0.000234,-0.002981,0.007747,0.000323,0.007756,-0.002991,88.278348,0.007824,
1260,560,-0.053451,-12.392192,0.999998,0.000196,-0.001873,0.004852,0.000342,0.004869,-0.001890,87.092782,0.004910,
580,440,1.973647,-11.759779,0.999997,0.000201,-0.003638,0.007512,-0.000031,0.007512,-0.003638,-89.839634,0.007513,
1160,1960,0.023682,-0.344892,0.999998,0.000181,-0.000293,0.004685,-0.000147,0.004690,-0.000298,-88.308201,0.005252,
1550,270,-0.501804,-13.695176,0.999997,0.000204,-0.002053,0.006357,-0.000373,0.006373,-0.002070,-87.466807,0.006502,
1670,1410,-1.589144,-4.453874,0.999996,0.000230,-0.004401,0.008162,0.000009,0.008162,-0.004401,89.959145,0.008170,
760,540,1.499884,-11.425235,0.999996,0.000239,-0.004003,0.007792,-0.000163,0.007794,-0.004005,-89.207031,0.007795,
1070,1700,0.271613,-1.752098,0.999997,0.000193,-0.001941,0.005771,0.000234,0.005778,-0.001948,88.262105,0.005879,
1460,60,-0.046226,-14.927869,0.999999,0.000129,-0.000201,0.004804,-0.000554,0.004865,-0.000261,-83.758299,0.005473,
970,790,1.092056,-9.940703,0.999997,0.000221,-0.005681,0.009509,-0.000690,0.009541,-0.005712,-87.403807,0.009603,
1870,630,-2.358325,-10.338923,0.999997,0.000222,-0.003802,0.007641,-0.000088,0.007641,-0.003803,-89.557327,0.007641,
580,880,3.013949,-8.502560,0.999997,0.000181,-0.003202,0.006488,0.000101,0.006489,-0.003203,89.402460,0.006489,
1410,1960,-0.064671,-0.358335,0.999998,0.000164,-0.000552,0.004884,0.000367,0.004908,-0.000576,86.153417,0.005366,
720,820,2.373327,-9.113677,0.999997,0.000227,-0.003917,0.007804,0.000796,0.007858,-0.003971,86.132601,0.007858,
1540,30,-0.022817,-15.066170,0.999998,0.000000,0.000059,0.004923,-0.000865,0.005073,-0.000090,-80.210259,0.005806,
1110,330,0.190750,-13.542954,0.999998,0.000186,-0.001673,0.005580,-0.000148,0.005583,-0.001676,-88.833737,0.005730,
1650,1280,-1.851980,-5.504337,0.999996,0.000232,-0.004558,0.008544,0.000620,0.008573,-0.004587,87.298071,0.008580,
1030,340,0.346970,-13.403255,0.999997,0.000215,-0.002138,0.005933,-0.000229,0.005939,-0.002144,-88.374654,0.006015,
1750,970,-2.712298,-7.976818,0.999997,0.000195,-0.003308,0.007209,-0.000331,0.007219,-0.003319,-88.200460,0.007227,
1610,440,-0.964320,-12.412807,0.999997,0.000186,-0.003479,0.007356,0.000331,0.007366,-0.003489,88.252098,0.007370,
850,90,0.193103,-14.740930,0.999998,0.000183,-0.000800,0.005542,0.001188,0.005758,-0.001015,79.732811,0.006146,
930,170,0.286474,-14.317303,0.999997,0.000192,-0.001298,0.005763,0.000706,0.005833,-0.001368,84.349341,0.006101,
630,1760,1.433828,-2.140501,0.999998,0.000196,-0.003631,0.007531,-0.000068,0.007531,-0.003631,-89.648847,0.007533,
1830,1890,-0.939915,-1.128622,0.999996,0.000225,-0.003502,0.007811,0.000821,0.007871,-0.003561,85.871540,0.007882,
610,320,1.576186,-12.734611,0.999997,0.000209,-0.003669,0.007483,-0.000063,0.007483,-0.003669,-89.674092,0.007484,
930,850,1.546627,-9.196721,0.999995,0.000261,-0.005196,0.009630,0.000587,0.009654,-0.005219,87.735944,0.009664,
1310,1970,-0.021395,-0.298900,0.999998,0.000169,-0.000268,0.004642,0.000164,0.004647,-0.000273,88.091641,0.005215,
1330,1620,-0.184330,-2.138532,0.999998,0.000177,-0.002058,0.005520,-0.000474,0.005549,-0.002087,-86.433939,0.005606,
1400,1110,-1.368029,-6.032052,0.999989,0.000395,-0.004674,0.012754,-0.005441,0.014313,-0.006233,-74.010600,0.014353,
670,50,0.195458,-14.923207,0.999996,0.000231,-0.000552,0.006526,0.002857,0.007535,-0.001561,70.544480,0.007954,
1690,1860,-0.647999,-1.097975,0.999997,0.000205,-0.002551,0.007014,0.001030,0.007124,-0.002660,83.922263,0.007200,
680,1950,0.493492,-0.577445,0.999996,0.000267,-0.002240,0.007185,-0.002085,0.007625,-0.002681,-78.067078,0.007737,
1210,1290,0.033136,-3.478210,0.999998,0.000186,-0.001700,0.002130,0.000931,0.002344,-0.001914,77.033714,0.002496,
810,250,0.706794,-13.693058,0.999997,0.000213,-0.002720,0.006958,0.000585,0.006993,-0.002755,86.552601,0.007045,
690,1060,2.802318,-7.328618,0.999998,0.000180,-0.003231,0.007104,-0.000225,0.007109,-0.003236,-88.753344,0.007118,
610,1440,2.257235,-4.627338,0.999997,0.000213,-0.003796,0.007671,-0.000060,0.007672,-0.003796,-89.702438,0.007672,
1500,1700,-0.512717,-1.904662,0.999997,0.000201,-0.002666,0.006371,-0.000264,0.006379,-0.002673,-88.328438,0.006406,
1380,750,-0.392623,-10.990949,0.999997,0.000249,-0.004414,0.006793,0.002889,0.007494,-0.005115,76.360920,0.007658,
1010,1710,0.392991,-1.774949,0.999997,0.000204,-0.002100,0.006041,0.000153,0.006044,-0.002103,88.923548,0.006137,
1790,1810,-1.123959,-1.652749,0.999997,0.000223,-0.003489,0.007620,0.000530,0.007645,-0.003514,87.273108,0.007654,
610,1140,2.974320,-6.812523,0.999998,0.000168,-0.003260,0.006753,-0.000350,0.006765,-0.003272,-88.002690,0.006767,
790,1480,1.448016,-3.897555,0.999996,0.000231,-0.004159,0.007876,0.000144,0.007878,-0.004160,89.316840,0.007882,
780,1190,2.263926,-6.302098,0.999997,0.000229,-0.003902,0.008053,-0.000913,0.008122,-0.003971,-85.656225,0.008123,
580,1000,3.156949,-7.735963,0.999998,0.000164,-0.002689,0.006235,0.000096,0.006236,-0.002690,89.386848,0.006256,
1780,490,-1.694654,-11.626021,0.999997,0.000210,-0.003829,0.007704,0.000127,0.007706,-0.003831,89.367911,0.007706,
630,1890,0.951989,-1.140021,0.999997,0.000199,-0.003552,0.007812,-0.000735,0.007859,-0.003599,-86.314169,0.007868,
570,440,2.009708,-11.736521,0.999995,0.000257,-0.003622,0.007526,-0.000011,0.007526,-0.003622,-89.945686,0.007528,
760,520,1.458185,-11.581330,0.999997,0.000211,-0.003943,0.007772,-0.000184,0.007775,-0.003946,-89.102579,0.007775,
570,880,3.044811,-8.486494,0.999994,0.000288,-0.003184,0.006355,0.000050,0.006355,-0.003185,89.700348,0.006355,
1160,1940,0.030654,-0.439179,0.999998,0.000178,-0.000402,0.004784,-0.000152,0.004788,-0.000406,-88.325393,0.005310,
1750,950,-2.685496,-8.124647,0.999997,0.000191,-0.003376,0.007376,-0.000573,0.007406,-0.003407,-86.959583,0.007414,
1410,1970,-0.055851,-0.310212,0.999998,0.000167,-0.000471,0.004846,0.000370,0.004872,-0.000497,86.041808,0.005361,
1230,1960,0.000120,-0.341295,0.999998,0.000155,-0.000405,0.004618,0.000000,0.004618,-0.000405,-89.999644,0.005115,
1110,310,0.177785,-13.656839,0.999998,0.000177,-0.001596,0.005518,-0.000112,0.005520,-0.001598,-89.102153,0.005681,
1670,1610,-1.186268,-2.882298,0.999998,0.000170,-0.003667,0.007504,-0.000218,0.007508,-0.003672,-88.880873,0.007509,
670,1690,1.465522,-2.571256,0.999996,0.000238,-0.003694,0.007577,0.000017,0.007577,-0.003694,89.915019,0.007578,
780,470,1.282743,-12.015609,0.999997,0.000208,-0.003776,0.007609,-0.000228,0.007613,-0.003781,-88.853026,0.007614,
1480,1650,-0.515261,-2.191090,0.999996,0.000240,-0.002796,0.006478,-0.000472,0.006502,-0.002820,-87.092610,0.006521,
1630,1280,-1.758591,-5.465006,0.999996,0.000209,-0.004720,0.008703,0.000572,0.008727,-0.004744,87.566067,0.008739,
1570,1750,-0.609288,-1.678910,0.999997,0.000209,-0.002594,0.006667,0.000153,0.006670,-0.002597,89.053035,0.006724,
1070,220,0.167583,-14.123686,0.999998,0.000155,-0.001170,0.005342,0.000199,0.005348,-0.001176,88.252389,0.005621,
990,620,0.675741,-11.467364,0.999996,0.000234,-0.004070,0.007391,-0.001347,0.007547,-0.004226,-83.388230,0.007565,
1040,1260,0.702881,-4.802470,0.999996,0.000267,-0.005684,0.008781,0.002110,0.009082,-0.005986,81.866875,0.009234,
1360,1760,-0.183779,-1.389470,0.999998,0.000191,-0.001485,0.005496,-0.000027,0.005496,-0.001485,-89.778049,0.005686,
1770,340,-1.322021,-12.794957,0.999997,0.000193,-0.003615,0.007539,-0.000025,0.007539,-0.003615,-89.872191,0.007541,
1390,1150,-1.092173,-5.452445,0.999994,0.000283,-0.003510,0.008636,-0.004310,0.010010,-0.004884,-72.319561,0.010011,
1550,250,-0.465281,-13.820351,0.999997,0.000217,-0.001923,0.006310,-0.000475,0.006338,-0.001950,-86.707736,0.006492,
930,830,1.464961,-9.392590,0.999996,0.000249,-0.005345,0.009659,0.000397,0.009670,-0.005356,88.485596,0.009688,
1330,1600,-0.188781,-2.248563,0.999998,0.000173,-0.002119,0.005512,-0.000518,0.005547,-0.002154,-86.137852,0.005593,
810,270,0.758069,-13.555011,0.999997,0.000227,-0.002832,0.007022,0.000451,0.007043,-0.002853,87.385626,0.007085,
1510,210,-0.323094,-14.100155,0.999997,0.000200,-0.001722,0.005819,-0.000415,0.005842,-0.001745,-86.856392,0.005998,
850,1760,0.713916,-1.684399,0.999996,0.000244,-0.002733,0.006874,-0.000280,0.006882,-0.002741,-88.329462,0.006929,
610,300,1.520829,-12.885078,0.999997,0.000231,-0.003700,0.007443,0.000004,0.007443,-0.003700,89.981303,0.007443,
1040,650,0.497384,-11.451907,0.999996,0.000233,-0.003940,0.006952,-0.001856,0.007259,-0.004247,-80.589228,0.007294,
1590,2000,-0.081777,-0.184042,0.999998,0.000155,-0.000541,0.005226,0.001071,0.005418,-0.000734,79.807646,0.005879,
1030,1040,1.764204,-7.380886,0.999993,0.000313,-0.005944,0.014912,0.000487,0.014923,-0.005956,88.662561,0.015024,
870,1500,1.082378,-3.531161,0.999998,0.000191,-0.004063,0.007785,0.000553,0.007811,-0.004089,87.332744,0.007814,
1310,1950,-0.030953,-0.392172,0.999998,0.000181,-0.000358,0.004754,0.000162,0.004759,-0.000363,88.187928,0.005299,
1260,540,-0.053897,-12.490558,0.999998,0.000183,-0.001879,0.004946,0.000326,0.004961,-0.001894,87.270392,0.005007,
1300,610,-0.130801,-12.102052,0.999998,0.000174,-0.002133,0.004783,0.001089,0.004950,-0.002301,81.257125,0.004954,
900,1070,2.148010,-7.204568,0.999997,0.000234,-0.002912,0.008438,-0.000621,0.008472,-0.002946,-86.877293,0.008602,
1780,970,-2.810684,-7.968708,0.999998,0.000185,-0.003311,0.007035,-0.000255,0.007041,-0.003318,-88.588729,0.007045,
570,870,3.028189,-8.549900,0.999997,0.000213,-0.003231,0.006434,0.000069,0.006434,-0.003232,89.592906,0.006434,
1530,2020,-0.030471,-0.080479,0.999999,0.000000,-0.000085,0.004839,0.000820,0.004972,-0.000218,80.793560,0.005619,
1830,1870,-1.036087,-1.287212,0.999997,0.000216,-0.003518,0.007738,0.000629,0.007773,-0.003553,86.809687,0.007782,
960,1450,0.783979,-3.646579,0.999998,0.000195,-0.004147,0.007605,0.001120,0.007710,-0.004253,84.604245,0.007724,
1810,1160,-2.798523,-6.635640,0.999996,0.000254,-0.003435,0.007069,0.000471,0.007090,-0.003456,87.440415,0.007091,
1160,1920,0.038613,-0.537079,0.999998,0.000157,-0.000513,0.004836,-0.000140,0.004840,-0.000517,-88.497523,0.005316,
1210,1960,0.008011,-0.343357,0.999998,0.000176,-0.000402,0.004637,-0.000024,0.004637,-0.000402,-89.731646,0.005138,
1480,1630,-0.535090,-2.321990,0.999998,0.000208,-0.002875,0.006569,-0.000536,0.006599,-0.002906,-86.761125,0.006615,
1140,170,0.065405,-14.408610,0.999998,0.000173,-0.000844,0.005002,0.000102,0.005004,-0.000846,89.000054,0.005357,
1450,1990,-0.049716,-0.216391,0.999998,0.000166,-0.000247,0.004864,0.000533,0.004919,-0.000302,84.114200,0.005513,
1210,1270,0.037698,-3.512386,0.999997,0.000215,-0.001964,0.001817,0.000964,0.002049,-0.002195,76.491899,0.002455,
1860,630,-2.320017,-10.362341,0.999996,0.000253,-0.003794,0.007655,-0.000095,0.007656,-0.003795,-89.525130,0.007656,
740,350,1.175888,-12.832076,0.999997,0.000206,-0.003514,0.007469,0.000089,0.007469,-0.003514,89.537478,0.007474,
1290,1560,-0.110251,-2.417915,0.999998,0.000162,-0.001969,0.005248,-0.000383,0.005268,-0.001989,-86.968125,0.005321,
970,770,1.028275,-10.130121,0.999996,0.000240,-0.005571,0.009237,-0.000872,0.009288,-0.005623,-86.640203,0.009357,
720,280,1.066591,-13.315178,0.999997,0.000221,-0.003397,0.007515,0.000351,0.007526,-0.003408,88.158046,0.007537,
1110,290,0.170768,-13.763670,0.999998,0.000183,-0.001484,0.005461,-0.000019,0.005461,-0.001484,-89.842829,0.005648,
1670,870,-2.227760,-8.789399,0.999997,0.000226,-0.003917,0.008120,-0.000933,0.008192,-0.003989,-85.592089,0.008193,
830,1440,1.360864,-4.117444,0.999996,0.000254,-0.004361,0.008051,0.000260,0.008057,-0.004367,88.799777,0.008066,
1790,1770,-1.251359,-1.956594,0.999998,0.000175,-0.003571,0.007578,0.000262,0.007584,-0.003578,88.655678,0.007588,
630,1870,1.046312,-1.297829,0.999998,0.000192,-0.003571,0.007747,-0.000589,0.007778,-0.003602,-87.026726,0.007785,
760,720,1.928642,-9.979892,0.999997,0.000226,-0.004307,0.008143,0.000439,0.008158,-0.004323,87.983620,0.008163,
1750,930,-2.652605,-8.271289,0.999997,0.000190,-0.003419,0.007323,-0.000591,0.007356,-0.003451,-86.861051,0.007360,
690,600,1.912979,-10.789614,0.999998,0.000184,-0.003969,0.007775,0.000052,0.007775,-0.003970,89.744336,0.007775,
1890,1820,-1.451585,-1.869336,0.999996,0.000249,-0.003642,0.007239,0.000159,0.007242,-0.003644,89.161823,0.007242,
1780,470,-1.651532,-11.781279,0.999996,0.000246,-0.003802,0.007666,0.000131,0.007668,-0.003803,89.345553,0.007668,
970,620,0.758369,-11.394674,0.999997,0.000222,-0.004234,0.007601,-0.001236,0.007729,-0.004362,-84.103187,0.007750,
1020,1310,0.694199,-4.498770,0.999997,0.000253,-0.005287,0.008432,0.001956,0.008706,-0.005560,82.044025,0.008817,
1510,190,-0.285757,-14.218600,0.999998,0.000168,-0.001597,0.005790,-0.000494,0.005823,-0.001630,-86.188850,0.006008,
930,810,1.386179,-9.584633,0.999996,0.000233,-0.005443,0.009543,0.000159,0.009544,-0.005445,89.392708,0.009576,
1740,50,-0.143590,-14.936950,0.999998,0.000170,-0.000888,0.006018,-0.002123,0.006618,-0.001489,-74.207916,0.006944,
1040,510,0.430397,-12.376873,0.999997,0.000220,-0.002918,0.006340,-0.000956,0.006438,-0.003016,-84.168528,0.006442,
810,710,1.677452,-10.163067,0.999996,0.000242,-0.004594,0.008407,0.000270,0.008412,-0.004599,88.809860,0.008424,
1310,1620,-0.142739,-2.113112,0.999998,0.000172,-0.001960,0.005407,-0.000396,0.005428,-0.001981,-86.933606,0.005493,
1550,230,-0.425981,-13.948929,0.999998,0.000189,-0.001762,0.006201,-0.000556,0.006240,-0.001800,-86.028613,0.006423,
1030,1030,1.766481,-7.525210,0.999990,0.000389,-0.006013,0.014758,0.000076,0.014758,-0.006013,89.789375,0.014843,
590,900,3.014965,-8.385758,0.999998,0.000169,-0.003214,0.006575,0.000189,0.006579,-0.003218,88.892429,0.006580,
1780,950,-2.788423,-8.110963,0.999998,0.000163,-0.003379,0.007184,-0.000509,0.007208,-0.003404,-87.250321,0.007212,
1500,1710,-0.500691,-1.842048,0.999997,0.000202,-0.002598,0.006374,-0.000211,0.006379,-0.002603,-88.653056,0.006415,
1390,1140,-1.163121,-5.537978,0.999994,0.000295,-0.003301,0.009275,-0.004889,0.010952,-0.004978,-71.066675,0.010967,
1830,1850,-1.114903,-1.442152,0.999997,0.000211,-0.003550,0.007730,0.000447,0.007747,-0.003567,87.734494,0.007755,
1390,1700,-0.265258,-1.749508,0.999998,0.000195,-0.001865,0.005757,-0.000211,0.005762,-0.001870,-88.418443,0.005879,
1390,1840,-0.161135,-0.968356,0.999999,0.000149,-0.001108,0.005316,0.000218,0.005323,-0.001115,88.057915,0.005615,
1590,1960,-0.180438,-0.398466,0.999998,0.000183,-0.001030,0.005512,0.001046,0.005675,-0.001194,81.132395,0.005984,
1160,1900,0.044778,-0.633177,0.999998,0.000153,-0.000600,0.004909,-0.000145,0.004912,-0.000604,-88.497938,0.005358,
680,1510,1.825531,-3.925399,0.999997,0.000200,-0.003897,0.007724,0.000063,0.007725,-0.003897,89.689696,0.007725,
1530,30,-0.023635,-15.065719,0.999998,0.000000,-0.000015,0.004914,-0.000793,0.005038,-0.000139,-81.084606,0.005739,
1310,1670,-0.132026,-1.839393,0.999998,0.000174,-0.001793,0.005427,-0.000225,0.005434,-0.001800,-88.213394,0.005537,
1670,850,-2.169222,-8.955467,0.999996,0.000247,-0.004057,0.008228,-0.000961,0.008302,-0.004132,-85.556047,0.008302,
880,1070,2.205647,-7.214597,0.999998,0.000182,-0.002959,0.008186,-0.000590,0.008217,-0.002990,-86.979731,0.008318,
1450,1970,-0.078220,-0.316472,0.999998,0.000163,-0.000401,0.004959,0.000524,0.005010,-0.000452,84.465497,0.005543,
1260,520,-0.053558,-12.590203,0.999998,0.000185,-0.001888,0.005018,0.000295,0.005030,-0.001901,87.559529,0.005080,
760,2000,0.147215,-0.205422,0.999998,0.000152,-0.000511,0.005689,-0.001754,0.006151,-0.000973,-75.250907,0.006613,
1100,1940,0.061989,-0.449991,0.999998,0.000169,-0.000472,0.004902,-0.000291,0.004918,-0.000488,-86.912816,0.005419,
670,880,2.709806,-8.609485,0.999997,0.000220,-0.003539,0.007344,0.000657,0.007383,-0.003578,86.558287,0.007385,
970,750,0.976835,-10.312944,0.999996,0.000227,-0.005435,0.009014,-0.001030,0.009087,-0.005508,-85.943733,0.009155,
1710,1160,-2.441092,-6.559331,0.999996,0.000260,-0.003665,0.007809,0.000896,0.007879,-0.003734,85.559651,0.007882,
1550,1280,-1.356351,-5.260865,0.999996,0.000219,-0.005335,0.009213,-0.000003,0.009213,-0.005335,-89.987355,0.009251,
970,600,0.735543,-11.546458,0.999996,0.000250,-0.004034,0.007488,-0.001143,0.007600,-0.004146,-84.389655,0.007611,
720,260,1.007141,-13.465897,0.999997,0.000202,-0.003338,0.007497,0.000460,0.007517,-0.003358,87.574866,0.007531,
670,600,1.991665,-10.745275,0.999997,0.000207,-0.003893,0.007729,0.000069,0.007730,-0.003894,89.660325,0.007730,
1510,170,-0.253678,-14.331299,0.999998,0.000176,-0.001415,0.005640,-0.000545,0.005682,-0.001457,-85.608338,0.005902,
630,1850,1.126414,-1.451160,0.999997,0.000201,-0.003597,0.007727,-0.000404,0.007742,-0.003611,-87.959253,0.007748,
620,1850,1.163702,-1.485491,0.999997,0.000171,-0.003657,0.007668,-0.000315,0.007676,-0.003666,-88.407278,0.007679,
1790,1750,-1.305310,-2.109795,0.999998,0.000184,-0.003585,0.007536,0.000171,0.007538,-0.003588,89.121617,0.007541,
1010,1690,0.411135,-1.892325,0.999997,0.000208,-0.002198,0.006138,0.000222,0.006144,-0.002204,88.474792,0.006225,
1740,40,-0.099287,-14.996809,0.999998,0.000190,-0.000681,0.005910,-0.002132,0.006540,-0.001310,-73.551892,0.006920,
930,790,1.317030,-9.772564,0.999996,0.000222,-0.005473,0.009415,-0.000086,0.009416,-0.005474,-89.667326,0.009457,
1750,910,-2.619934,-8.419217,0.999997,0.000203,-0.003505,0.007428,-0.000634,0.007465,-0.003542,-86.690510,0.007468,
760,500,1.418803,-11.736125,0.999997,0.000216,-0.003909,0.007709,-0.000212,0.007713,-0.003913,-88.956523,0.007713,
1040,490,0.420644,-12.502180,0.999997,0.000212,-0.002745,0.006279,-0.000814,0.006352,-0.002818,-84.884966,0.006366,
810,690,1.624103,-10.332857,0.999997,0.000230,-0.004560,0.008372,0.000155,0.008374,-0.004562,89.315130,0.008385,
1060,150,0.113235,-14.486471,0.999998,0.000156,-0.000842,0.005125,0.000327,0.005143,-0.000860,86.874245,0.005510,
1780,450,-1.609133,-11.933873,0.999997,0.000220,-0.003770,0.007606,0.000132,0.007607,-0.003771,89.333973,0.007607,
1550,210,-0.387022,-14.069963,0.999997,0.000189,-0.001620,0.006052,-0.000632,0.006104,-0.001672,-85.325306,0.006308,
1370,1760,-0.197489,-1.394293,0.999998,0.000196,-0.001477,0.005540,0.000005,0.005540,-0.001477,89.962436,0.005737,
770,1540,1.408990,-3.474119,0.999996,0.000235,-0.003952,0.007791,0.000227,0.007795,-0.003956,88.895198,0.007796,
590,890,2.997976,-8.452674,0.999997,0.000210,-0.003219,0.006552,0.000165,0.006555,-0.003222,89.034024,0.006555,
1030,1020,1.762079,-7.668992,0.999988,0.000458,-0.005964,0.014835,-0.000343,0.014841,-0.005969,-89.056204,0.014935,
1760,970,-2.744623,-7.973797,0.999997,0.000206,-0.003324,0.007149,-0.000302,0.007158,-0.003332,-88.347203,0.007163,
1290,1840,-0.057786,-0.933115,0.999998,0.000139,-0.000889,0.005057,0.000069,0.005057,-0.000890,89.335494,0.005400,
1720,1670,-1.245870,-2.546645,0.999997,0.000207,-0.003601,0.007529,-0.000049,0.007529,-0.003602,-89.749633,0.007532,
1370,270,-0.179135,-13.864427,0.999998,0.000149,-0.001326,0.005446,-0.000051,0.005446,-0.001326,-89.566547,0.005680,
1510,1480,-0.776603,-3.441593,0.999997,0.000204,-0.003913,0.007459,-0.001013,0.007548,-0.004003,-84.948245,0.007553,
1070,940,1.318643,-9.269268,0.999986,0.000453,-0.003942,0.012229,-0.005709,0.014042,-0.005754,-72.387848,0.014118,
1410,1950,-0.075534,-0.406639,0.999998,0.000178,-0.000619,0.004951,0.000385,0.004977,-0.000645,86.064234,0.005413,
1520,2020,-0.030065,-0.079569,0.999999,0.000000,-0.000183,0.004785,0.000730,0.004890,-0.000288,81.817306,0.005488,
1670,830,-2.108036,-9.119382,0.999996,0.000231,-0.004155,0.008234,-0.000894,0.008298,-0.004219,-85.895222,0.008299,
960,1810,0.366198,-1.221565,0.999997,0.000213,-0.001953,0.006031,-0.000274,0.006040,-0.001962,-88.036382,0.006162,
1830,1830,-1.194850,-1.599655,0.999997,0.000210,-0.003581,0.007680,0.000365,0.007692,-0.003592,88.145087,0.007698,
1160,1880,0.053551,-0.732842,0.999998,0.000157,-0.000710,0.004963,-0.000113,0.004965,-0.000713,-88.863203,0.005369,
1440,1370,-0.594776,-3.999673,0.999994,0.000273,-0.004501,0.007586,-0.001886,0.007874,-0.004789,-81.333080,0.007935,
1590,1940,-0.232106,-0.513976,0.999997,0.000205,-0.001240,0.005750,0.001026,0.005898,-0.001388,81.822835,0.006167,
1260,500,-0.053807,-12.692882,0.999998,0.000159,-0.001886,0.005124,0.000277,0.005135,-0.001896,87.743016,0.005193,
720,1070,2.699810,-7.249700,0.999997,0.000193,-0.003265,0.007226,-0.000227,0.007231,-0.003270,-88.763509,0.007242,
1630,1350,-1.560096,-4.860786,0.999996,0.000251,-0.004689,0.008491,0.000128,0.008493,-0.004690,89.444697,0.008508,
670,40,0.135437,-14.985751,0.999998,0.000184,-0.000274,0.006336,0.002846,0.007393,-0.001331,69.631689,0.007881,
650,880,2.780907,-8.588910,0.999997,0.000229,-0.003470,0.007198,0.000543,0.007226,-0.003498,87.093327,0.007227,
860,1190,1.935457,-6.208924,0.999997,0.000219,-0.004342,0.008745,-0.001004,0.008822,-0.004418,-85.637682,0.008822,
1110,270,0.154418,-13.875513,0.999998,0.000166,-0.001381,0.005365,0.000005,0.005365,-0.001381,89.955404,0.005571,
1300,1350,-0.116967,-3.439714,0.999997,0.000227,-0.002196,0.004122,-0.001848,0.004623,-0.002697,-74.837289,0.004644,
720,240,0.944793,-13.616535,0.999998,0.000178,-0.003269,0.007485,0.000580,0.007516,-0.003300,86.921480,0.007535,
970,730,0.927853,-10.493869,0.999996,0.000222,-0.005263,0.008771,-0.001140,0.008863,-0.005355,-85.386014,0.008927,
1410,280,-0.246116,-13.781759,0.999997,0.000188,-0.001758,0.005674,0.000000,0.005674,-0.001758,-89.998970,0.005809,
1050,220,0.194527,-14.112834,0.999998,0.000166,-0.001408,0.005429,0.000179,0.005434,-0.001412,88.503084,0.005639,
1770,1420,-1.984196,-4.596589,0.999997,0.000215,-0.004020,0.007830,0.000175,0.007833,-0.004022,89.156008,0.007834,
1580,790,-1.562295,-9.635768,0.999995,0.000269,-0.005078,0.009097,-0.000433,0.009110,-0.005091,-88.253336,0.009131,
930,430,0.693962,-12.658666,0.999997,0.000208,-0.003103,0.006902,-0.000451,0.006922,-0.003124,-87.421501,0.006933,
1450,1950,-0.098408,-0.414666,0.999998,0.000200,-0.000547,0.005087,0.000519,0.005135,-0.000594,84.779732,0.005617,
1450,360,-0.399728,-13.262187,0.999997,0.000221,-0.002174,0.006066,0.000221,0.006072,-0.002180,88.466141,0.006152,
1310,1930,-0.037419,-0.487720,0.999998,0.000157,-0.000476,0.004812,0.000153,0.004816,-0.000481,88.349251,0.005305,
1530,1280,-1.249051,-5.192117,0.999996,0.000211,-0.005453,0.009286,-0.000269,0.009291,-0.005458,-88.956143,0.009339,
1770,1860,-0.876589,-1.227759,0.999998,0.000163,-0.003319,0.007484,0.000884,0.007555,-0.003391,85.352670,0.007569,
1790,1730,-1.358612,-2.257582,0.999997,0.000206,-0.003626,0.007548,0.000045,0.007548,-0.003626,89.770919,0.007550,
1510,150,-0.217619,-14.444407,0.999998,0.000169,-0.001252,0.005553,-0.000616,0.005608,-0.001307,-84.869393,0.005868,
670,1670,1.515002,-2.722150,0.999997,0.000221,-0.003708,0.007569,0.000050,0.007569,-0.003709,89.747920,0.007570,
1870,110,-0.788990,-14.278262,0.999997,0.000220,-0.003512,0.008126,-0.001379,0.008287,-0.003673,-83.336152,0.008305,
760,460,1.339410,-12.043333,0.999997,0.000208,-0.003793,0.007590,-0.000209,0.007593,-0.003797,-88.946637,0.007593,
1710,120,-0.413140,-14.511920,0.999997,0.000205,-0.001488,0.006636,-0.001819,0.007025,-0.001877,-77.936626,0.007275,
810,670,1.573492,-10.499676,0.999996,0.000245,-0.004517,0.008332,0.000054,0.008332,-0.004517,89.761269,0.008342,
630,140,0.825959,-14.174242,0.999998,0.000189,-0.003535,0.007836,0.001004,0.007924,-0.003623,84.992464,0.007933,
1750,890,-2.579427,-8.569750,0.999997,0.000229,-0.003622,0.007603,-0.000785,0.007657,-0.003677,-86.020667,0.007659,
1040,630,0.486378,-11.590253,0.999995,0.000248,-0.003711,0.006758,-0.001695,0.007025,-0.003979,-81.030605,0.007046,
1010,1670,0.428773,-2.018507,0.999997,0.000215,-0.002289,0.006211,0.000284,0.006220,-0.002298,88.087835,0.006290,
1550,190,-0.344388,-14.192029,0.999997,0.000192,-0.001433,0.005976,-0.000695,0.006040,-0.001498,-84.689033,0.006291,
930,770,1.250092,-9.961206,0.999996,0.000205,-0.005432,0.009250,-0.000283,0.009256,-0.005437,-88.897740,0.009303,
1080,150,0.098513,-14.492990,0.999999,0.000108,-0.000672,0.005062,0.000313,0.005079,-0.000689,86.882499,0.005510,
1220,490,0.021395,-12.754058,0.999998,0.000164,-0.001905,0.005135,-0.000145,0.005138,-0.001908,-88.821187,0.005194,
1370,250,-0.166947,-13.972569,0.999998,0.000154,-0.001221,0.005375,-0.000108,0.005377,-0.001223,-89.062273,0.005637,
630,1830,1.205604,-1.609063,0.999996,0.000245,-0.003613,0.007653,-0.000333,0.007663,-0.003623,-88.309186,0.007666,
1020,1090,1.673674,-6.747963,0.999988,0.000439,-0.004567,0.012290,0.000949,0.012343,-0.004620,86.787342,0.012473,
1810,1480,-1.998582,-4.219758,0.999997,0.000210,-0.003845,0.007711,0.000006,0.007711,-0.003845,89.969517,0.007711,
1200,1770,0.042531,-1.291142,0.999998,0.000137,-0.001328,0.005250,0.000044,0.005250,-0.001328,89.612614,0.005459,
1700,1670,-1.175028,-2.500496,0.999998,0.000193,-0.003487,0.007436,-0.000057,0.007436,-0.003487,-89.699714,0.007441,
1260,480,-0.053038,-12.796988,0.999998,0.000165,-0.001871,0.005192,0.000254,0.005201,-0.001880,87.946589,0.005267,
1160,1860,0.060138,-0.832465,0.999998,0.000165,-0.000812,0.005045,-0.000110,0.005047,-0.000814,-88.921377,0.005419,
1890,900,-3.068964,-8.364361,0.999998,0.000163,-0.003223,0.006422,-0.000164,0.006425,-0.003226,-89.024163,0.006425,
1110,230,0.129349,-14.088736,0.999998,0.000162,-0.001198,0.005278,0.000070,0.005279,-0.001199,89.378353,0.005535,
1520,30,-0.023508,-15.066392,0.999998,0.000000,-0.000105,0.004894,-0.000726,0.004997,-0.000208,-81.899350,0.005654,
1700,350,-1.099051,-12.878103,0.999998,0.000139,-0.003305,0.007391,-0.000125,0.007393,-0.003306,-89.332219,0.007406,
1410,1930,-0.094972,-0.507037,0.999998,0.000159,-0.000742,0.005057,0.000364,0.005079,-0.000765,86.417789,0.005477,
1670,290,-0.863384,-13.377866,0.999998,0.000162,-0.003188,0.007163,-0.000295,0.007172,-0.003196,-88.370872,0.007186,
930,1960,0.137758,-0.383481,0.999998,0.000180,-0.000606,0.005251,-0.000819,0.005364,-0.000718,-82.183372,0.005824,
1060,1110,1.383425,-6.076297,0.999986,0.000445,-0.004810,0.012414,0.005094,0.013808,-0.006204,74.697509,0.013832,
700,1070,2.763978,-7.253259,0.999997,0.000214,-0.003231,0.007148,-0.000213,0.007153,-0.003235,-88.826653,0.007163,
720,1190,2.492085,-6.352854,0.999997,0.000219,-0.003713,0.007607,-0.000778,0.007660,-0.003766,-86.088705,0.007661,
1120,1290,0.258080,-3.954294,0.999997,0.000228,-0.003676,0.005426,0.003137,0.006402,-0.004652,72.710095,0.006618,
840,1370,1.473472,-4.671449,0.999994,0.000281,-0.004709,0.008462,0.000022,0.008462,-0.004709,89.902406,0.008480,
810,650,1.527646,-10.668390,0.999996,0.000237,-0.004462,0.008246,-0.000046,0.008246,-0.004462,-89.792763,0.008255,
1450,340,-0.381832,-13.378708,0.999997,0.000188,-0.002074,0.006011,0.000131,0.006014,-0.002076,89.072505,0.006109,
1890,1450,-2.373516,-4.636321,0.999995,0.000258,-0.003796,0.007672,0.000031,0.007672,-0.003796,89.847480,0.007672,
930,750,1.192118,-10.146486,0.999996,0.000208,-0.005340,0.009105,-0.000437,0.009119,-0.005353,-88.270593,0.009165,
1050,1610,0.373258,-2.321316,0.999997,0.000198,-0.002494,0.006072,0.000634,0.006118,-0.002541,85.789698,0.006148,
1790,1990,-0.271335,-0.294152,0.999997,0.000223,-0.000927,0.007036,0.002907,0.007984,-0.001876,71.931192,0.008350,
1270,1840,-0.038997,-0.930950,0.999998,0.000184,-0.000947,0.005027,0.000026,0.005027,-0.000947,89.753048,0.005342,
870,160,0.350686,-14.338086,0.999997,0.000216,-0.001712,0.006099,0.000913,0.006204,-0.001817,83.420469,0.006379,
1790,1710,-1.408214,-2.412985,0.999996,0.000231,-0.003659,0.007572,0.000012,0.007572,-0.003659,89.940729,0.007574,
1310,1890,-0.052392,-0.683802,0.999998,0.000170,-0.000676,0.004954,0.000130,0.004957,-0.000679,88.679852,0.005375,
930,610,0.916508,-11.335787,0.999997,0.000221,-0.004273,0.007821,-0.000891,0.007886,-0.004338,-85.810552,0.007900,
1710,1890,-0.593618,-0.913306,0.999997,0.000207,-0.002126,0.006942,0.001413,0.007157,-0.002341,81.347538,0.007298,
1510,130,-0.183391,-14.553939,0.999998,0.000179,-0.001020,0.005399,-0.000660,0.005466,-0.001087,-84.189844,0.005787,
1880,900,-3.036260,-8.376715,0.999998,0.000140,-0.003223,0.006507,-0.000186,0.006510,-0.003226,-88.907647,0.006511,
670,1650,1.560089,-2.876027,0.999996,0.000226,-0.003734,0.007606,0.000094,0.007607,-0.003735,89.524816,0.007608,
580,380,1.837108,-12.207207,0.999998,0.000176,-0.003967,0.007332,-0.000091,0.007333,-0.003968,-89.540128,0.007341,
950,1260,1.221755,-5.313190,0.999995,0.000256,-0.005612,0.009560,0.000286,0.009565,-0.005617,88.922261,0.009613,
1030,220,0.221838,-14.098713,0.999998,0.000164,-0.001389,0.005518,0.000210,0.005525,-0.001395,88.263322,0.005746,
1020,1070,1.753383,-6.989865,0.999995,0.000304,-0.004772,0.012751,0.000803,0.012788,-0.004809,87.381667,0.012918,
730,500,1.535085,-11.664216,0.999997,0.000217,-0.003864,0.007696,-0.000179,0.007699,-0.003867,-89.112569,0.007699,
1120,570,0.228146,-12.218594,0.999997,0.000192,-0.002468,0.005497,-0.001135,0.005656,-0.002627,-82.046844,0.005661,
1060,1100,1.428399,-6.205367,0.999986,0.000468,-0.005229,0.013741,0.005297,0.015120,-0.006607,75.410147,0.015160,
590,1700,1.737540,-2.703132,0.999998,0.000188,-0.003817,0.007351,0.000132,0.007353,-0.003818,89.322757,0.007355,
880,1450,1.123778,-3.899791,0.999996,0.000236,-0.004335,0.007889,0.000552,0.007914,-0.004360,87.421625,0.007928,
1440,390,-0.403191,-13.090281,0.999996,0.000209,-0.002308,0.006142,0.000341,0.006156,-0.002322,87.695531,0.006218,
1750,1860,-0.811312,-1.184195,0.999997,0.000207,-0.003245,0.007381,0.000892,0.007455,-0.003320,85.237273,0.007470,
1040,610,0.476455,-11.724060,0.999997,0.000211,-0.003498,0.006694,-0.001544,0.006922,-0.003727,-81.572867,0.006929,
1570,1730,-0.645906,-1.815247,0.999997,0.000196,-0.002773,0.006803,0.000025,0.006803,-0.002773,89.851216,0.006841,
1860,1550,-2.032336,-3.800395,0.999997,0.000193,-0.003768,0.007636,-0.000057,0.007636,-0.003768,-89.715713,0.007637,
810,630,1.481472,-10.830427,0.999996,0.000219,-0.004406,0.008078,-0.000097,0.008079,-0.004406,-89.554628,0.008090,
1630,1330,-1.611712,-5.030365,0.999995,0.000275,-0.004723,0.008561,0.000229,0.008565,-0.004727,89.010885,0.008581,
1750,870,-2.527741,-8.723301,0.999997,0.000231,-0.003706,0.007588,-0.000785,0.007642,-0.003760,-86.043382,0.007642,
1260,460,-0.053110,-12.900634,0.999998,0.000177,-0.001845,0.005244,0.000233,0.005251,-0.001853,88.119400,0.005327,
850,70,0.132620,-14.852711,0.999998,0.000178,-0.000588,0.005529,0.001288,0.005789,-0.000848,78.582948,0.006253,
1110,210,0.120445,-14.192595,0.999998,0.000145,-0.001050,0.005223,0.000118,0.005225,-0.001052,88.926913,0.005527,
1010,1650,0.444545,-2.140713,0.999997,0.000209,-0.002426,0.006224,0.000395,0.006241,-0.002444,87.393013,0.006290,
1630,1040,-2.369073,-7.462031,0.999997,0.000229,-0.002935,0.007832,0.000214,0.007836,-0.002940,88.863176,0.007917,
1710,1870,-0.663225,-1.049650,0.999997,0.000197,-0.002343,0.007022,0.001227,0.007180,-0.002501,82.660481,0.007289,
1310,1870,-0.062541,-0.783558,0.999998,0.000165,-0.000782,0.005018,0.000110,0.005020,-0.000785,88.918186,0.005401,
1790,1690,-1.454080,-2.562071,0.999996,0.000219,-0.003668,0.007566,0.000000,0.007566,-0.003668,89.997799,0.007567,
590,880,2.981837,-8.518497,0.999997,0.000211,-0.003249,0.006599,0.000176,0.006602,-0.003252,88.977814,0.006603,
1180,1770,0.068216,-1.294604,0.999999,0.000116,-0.001271,0.005281,-0.000022,0.005281,-0.001272,-89.808581,0.005513,
610,160,1.001407,-13.945050,0.999998,0.000181,-0.003686,0.007733,0.000630,0.007768,-0.003721,86.851344,0.007770,
850,160,0.383049,-14.324747,0.999997,0.000213,-0.001612,0.006238,0.001047,0.006375,-0.001749,82.532079,0.006588,
1120,1270,0.285453,-4.059520,0.999995,0.000297,-0.003932,0.005479,0.003354,0.006552,-0.005005,72.261945,0.006849,
1710,520,-1.486921,-11.563591,0.999995,0.000268,-0.003957,0.007795,0.000186,0.007798,-0.003960,89.095731,0.007798,
1050,1620,0.368116,-2.260073,0.999997,0.000218,-0.002475,0.006069,0.000605,0.006112,-0.002518,85.967809,0.006143,
570,40,0.269907,-14.876178,0.999936,0.000927,-0.000200,0.010711,0.006496,0.013739,-0.003228,65.010516,0.014368,
1060,1370,0.436761,-3.818843,0.999996,0.000241,-0.004046,0.006841,0.002201,0.007269,-0.004474,78.994505,0.007333,
1510,110,-0.148240,-14.662634,0.999998,0.000180,-0.000852,0.005366,-0.000733,0.005451,-0.000938,-83.365780,0.005829,
670,1630,1.604440,-3.026894,0.999997,0.000224,-0.003765,0.007576,0.000105,0.007577,-0.003766,89.469626,0.007577,
570,380,1.876703,-12.181893,0.999992,0.000337,-0.004093,0.007263,-0.000110,0.007264,-0.004094,-89.444665,0.007283,
720,1890,0.666920,-0.951287,0.999998,0.000188,-0.002847,0.007220,-0.001245,0.007372,-0.002999,-83.051825,0.007414,
1520,150,-0.229463,-14.439210,0.999998,0.000177,-0.001173,0.005620,-0.000690,0.005689,-0.001243,-84.256348,0.005983,
1550,390,-0.692871,-12.900742,0.999996,0.000223,-0.002938,0.006825,0.000237,0.006831,-0.002943,88.608522,0.006852,
1240,1490,-0.014906,-2.738030,0.999998,0.000162,-0.001868,0.004752,-0.000173,0.004756,-0.001872,-88.505650,0.004792,
930,730,1.137633,-10.329970,0.999996,0.000222,-0.005195,0.008898,-0.000553,0.008920,-0.005216,-87.755829,0.008963,
1870,900,-3.005241,-8.389615,0.999998,0.000158,-0.003231,0.006592,-0.000227,0.006597,-0.003236,-88.674053,0.006597,
1510,2020,-0.026227,-0.078303,0.999999,0.000000,-0.000222,0.004774,0.000631,0.004852,-0.000300,82.915309,0.005438,
1890,1100,-3.151897,-7.110737,0.999998,0.000170,-0.003068,0.006176,0.000012,0.006176,-0.003068,89.927386,0.006176,
1280,1350,-0.079367,-3.374436,0.999999,0.000140,-0.001894,0.003626,-0.001456,0.003987,-0.002255,-76.094142,0.003998,
1540,1810,-0.437235,-1.257162,0.999997,0.000196,-0.001869,0.006237,0.000468,0.006264,-0.001896,86.706555,0.006425,
1430,340,-0.339010,-13.407139,0.999997,0.000223,-0.002134,0.005907,0.000231,0.005913,-0.002141,88.358019,0.005988,
1120,150,0.071493,-14.502724,0.999998,0.000138,-0.000753,0.004986,0.000161,0.004990,-0.000758,88.393467,0.005378,
1840,1550,-1.956762,-3.752506,0.999997,0.000226,-0.003793,0.007654,-0.000073,0.007654,-0.003793,-89.633717,0.007654,
860,1450,1.210099,-3.954277,0.999997,0.000206,-0.004373,0.007937,0.000431,0.007952,-0.004388,87.999506,0.007967,
1120,750,0.246477,-11.245677,0.999997,0.000232,-0.003520,0.005368,-0.003007,0.006290,-0.004441,-72.958653,0.006466,
1120,490,0.221100,-12.658666,0.999998,0.000169,-0.002159,0.005611,-0.000652,0.005665,-0.002213,-85.234129,0.005710,
730,60,0.185060,-14.879054,0.999996,0.000246,-0.000892,0.006051,0.002053,0.006613,-0.001453,74.697920,0.006950,
1410,1910,-0.113857,-0.610409,0.999998,0.000154,-0.000866,0.005131,0.000345,0.005150,-0.000886,86.720219,0.005507,
1160,1840,0.069455,-0.934511,0.999998,0.000163,-0.000930,0.005088,-0.000079,0.005089,-0.000931,-89.248211,0.005420,
1630,1310,-1.666963,-5.204872,0.999996,0.000259,-0.004755,0.008631,0.000376,0.008642,-0.004766,88.392047,0.008657,
1060,1090,1.461084,-6.350057,0.999979,0.000566,-0.005725,0.015237,0.005193,0.016453,-0.006941,76.821253,0.016519,
1260,1280,-0.049684,-3.513402,0.999998,0.000187,-0.001911,0.002136,-0.001255,0.002493,-0.002268,-74.097198,0.002758,
1370,230,-0.149904,-14.080697,0.999998,0.000153,-0.001123,0.005333,-0.000155,0.005337,-0.001127,-88.628011,0.005626,
1750,850,-2.481272,-8.875429,0.999996,0.000239,-0.003753,0.007577,-0.000759,0.007628,-0.003804,-86.182502,0.007628,
1010,1630,0.458671,-2.263952,0.999997,0.000205,-0.002590,0.006324,0.000519,0.006354,-0.002620,86.679909,0.006386,
930,590,0.890231,-11.489511,0.999997,0.000227,-0.004140,0.007688,-0.000885,0.007754,-0.004205,-85.744250,0.007763,
1110,190,0.103678,-14.299306,0.999998,0.000164,-0.000925,0.005137,0.000151,0.005141,-0.000929,88.572110,0.005479,
930,1260,1.333968,-5.390991,0.999995,0.000270,-0.005463,0.009457,0.000013,0.009457,-0.005463,89.948599,0.009495,
1510,90,-0.112315,-14.768722,0.999998,0.000162,-0.000659,0.005153,-0.000680,0.005232,-0.000738,-83.417206,0.005663,
810,610,1.436451,-10.992204,0.999996,0.000217,-0.004323,0.008032,-0.000158,0.008034,-0.004325,-89.268222,0.008042,
1310,1850,-0.070294,-0.885884,0.999999,0.000138,-0.000917,0.005076,0.000095,0.005078,-0.000918,89.094573,0.005412,
1710,1850,-0.733683,-1.196004,0.999997,0.000183,-0.002567,0.007196,0.001095,0.007317,-0.002688,83.680602,0.007402,
1300,1770,-0.088744,-1.298031,0.999998,0.000177,-0.001234,0.005287,0.000043,0.005287,-0.001234,89.626145,0.005532,
610,140,0.901001,-14.099083,0.999996,0.000220,-0.003683,0.007817,0.000861,0.007881,-0.003747,85.742607,0.007884,
1790,1670,-1.505021,-2.715346,0.999997,0.000204,-0.003698,0.007587,-0.000048,0.007588,-0.003698,-89.754899,0.007588,
1640,750,-1.731645,-9.851876,0.999995,0.000275,-0.004703,0.008557,-0.000426,0.008571,-0.004716,-88.162215,0.008585,
1600,910,-2.073860,-8.523395,0.999997,0.000218,-0.003796,0.008511,-0.001037,0.008598,-0.003882,-85.215393,0.008611,
1740,1230,-2.376977,-6.041169,0.999996,0.000249,-0.003934,0.007829,0.000797,0.007883,-0.003988,86.141819,0.007883,
840,1980,0.153602,-0.297544,0.999998,0.000170,-0.000585,0.005619,-0.001360,0.005904,-0.000870,-78.159604,0.006375,
1570,1710,-0.680116,-1.951179,0.999997,0.000199,-0.002974,0.006763,-0.000084,0.006764,-0.002974,-89.504256,0.006780,
1540,560,-0.877846,-11.698131,0.999996,0.000228,-0.003961,0.007578,0.000818,0.007636,-0.004019,85.966886,0.007639,
650,860,2.733973,-8.735762,0.999997,0.000185,-0.003542,0.007263,0.000607,0.007297,-0.003576,86.795726,0.007297,
1510,1280,-1.138472,-5.110033,0.999996,0.000218,-0.005544,0.009343,-0.000551,0.009363,-0.005564,-87.885010,0.009419,
1880,1590,-2.019398,-3.542045,0.999997,0.000222,-0.003719,0.007568,-0.000067,0.007568,-0.003720,-89.657723,0.007569,
1610,1040,-2.311544,-7.458774,0.999998,0.000201,-0.002850,0.007958,0.000204,0.007962,-0.002854,88.916709,0.008068,
1220,1510,0.021871,-2.644049,0.999998,0.000157,-0.001894,0.004896,0.000220,0.004903,-0.001902,88.142125,0.004944,
760,440,1.300157,-12.195322,0.999997,0.000197,-0.003737,0.007565,-0.000209,0.007568,-0.003741,-88.940029,0.007569,
1280,150,-0.029808,-14.513163,0.999998,0.000152,-0.000591,0.004893,-0.000088,0.004894,-0.000592,-89.079587,0.005342,
720,220,0.876662,-13.767533,0.999998,0.000185,-0.003201,0.007398,0.000739,0.007449,-0.003253,86.029730,0.007469,
1830,1810,-1.266525,-1.751149,0.999998,0.000209,-0.003577,0.007627,0.000248,0.007633,-0.003583,88.730309,0.007638,
1210,1250,0.052102,-3.546204,0.999996,0.000237,-0.002556,0.001625,0.000861,0.001795,-0.002726,78.800894,0.002771,
670,1610,1.647854,-3.179426,0.999996,0.000240,-0.003800,0.007601,0.000122,0.007603,-0.003801,89.385296,0.007603,
1670,270,-0.811214,-13.523396,0.999998,0.000164,-0.003123,0.007110,-0.000410,0.007126,-0.003140,-87.710035,0.007143,
940,150,0.231190,-14.439180,0.999998,0.000187,-0.001171,0.005618,0.000708,0.005691,-0.001244,84.106614,0.005984,
1830,1510,-2.007923,-4.036263,0.999997,0.000207,-0.003813,0.007624,-0.000061,0.007625,-0.003814,-89.694838,0.007625,
1370,340,-0.224864,-13.472101,0.999997,0.000243,-0.001711,0.005634,0.000150,0.005637,-0.001714,88.827867,0.005780,
930,450,0.720038,-12.516565,0.999998,0.000216,-0.003281,0.006993,-0.000547,0.007022,-0.003310,-86.961855,0.007026,
970,160,0.211920,-14.398505,0.999997,0.000181,-0.001227,0.005548,0.000542,0.005591,-0.001270,85.457964,0.005862,
1120,510,0.224753,-12.546585,0.999997,0.000191,-0.002213,0.005542,-0.000725,0.005609,-0.002280,-84.706677,0.005642,
1750,180,-0.750508,-14.047982,0.999997,0.000199,-0.003187,0.007308,-0.001019,0.007406,-0.003285,-84.508042,0.007422,
1310,840,-0.337905,-11.127172,0.999990,0.000350,-0.003335,0.003122,0.001842,0.003611,-0.003824,75.147094,0.004297,
1010,1610,0.474910,-2.393480,0.999997,0.000221,-0.002785,0.006424,0.000657,0.006470,-0.002832,85.937395,0.006487,
1110,170,0.095327,-14.396379,0.999998,0.000161,-0.000804,0.005019,0.000168,0.005024,-0.000809,88.347938,0.005395,
1050,1020,1.617348,-7.692035,0.999977,0.000575,-0.007479,0.018559,-0.000720,0.018579,-0.007498,-88.416404,0.018693,
1750,830,-2.429757,-9.027085,0.999996,0.000250,-0.003854,0.007716,-0.000780,0.007768,-0.003906,-86.162393,0.007768,
1070,1160,1.032275,-5.421707,0.999992,0.000312,-0.004232,0.008619,0.003596,0.009557,-0.005170,75.383637,0.009568,
1710,1830,-0.799811,-1.339328,0.999998,0.000168,-0.002725,0.007184,0.000918,0.007268,-0.002809,84.753699,0.007330,
1260,1300,-0.042317,-3.463272,0.999998,0.000170,-0.001709,0.002449,-0.001161,0.002752,-0.002012,-75.407479,0.002848,
930,570,0.863882,-11.643634,0.999997,0.000205,-0.004024,0.007587,-0.000894,0.007655,-0.004092,-85.620375,0.007661,
1060,680,0.435598,-11.338237,0.999996,0.000233,-0.003981,0.006781,-0.002182,0.007207,-0.004407,-78.962562,0.007266,
1310,1830,-0.078593,-0.985633,0.999998,0.000155,-0.001041,0.005128,0.000066,0.005129,-0.001041,89.386828,0.005422,
1790,1970,-0.410541,-0.449079,0.999995,0.000240,-0.001562,0.007170,0.002665,0.007919,-0.002311,74.300784,0.008144,
1860,110,-0.753504,-14.314761,0.999996,0.000235,-0.003542,0.008066,-0.001332,0.008217,-0.003693,-83.539554,0.008231,
1790,1650,-1.549453,-2.867143,0.999996,0.000236,-0.003715,0.007622,-0.000132,0.007624,-0.003717,-89.334971,0.007624,
1510,70,-0.081107,-14.869373,0.999998,0.000145,-0.000510,0.005045,-0.000723,0.005137,-0.000602,-82.704556,0.005617,
1310,1900,-0.049678,-0.633945,0.999998,0.000160,-0.000615,0.004939,0.000146,0.004943,-0.000618,88.499410,0.005387,
1000,150,0.166922,-14.466557,0.999998,0.000136,-0.000828,0.005363,0.000527,0.005407,-0.000873,85.171870,0.005806,
1270,1580,-0.072196,-2.302232,0.999998,0.000158,-0.001873,0.005218,-0.000201,0.005223,-0.001879,-88.376386,0.005291,
970,1380,0.829533,-4.158234,0.999996,0.000255,-0.004742,0.008149,0.001282,0.008275,-0.004868,84.375934,0.008318,
840,1960,0.211692,-0.409867,0.999997,0.000187,-0.000809,0.005675,-0.001261,0.005912,-0.001046,-79.375534,0.006310,
1580,910,-1.998188,-8.544454,0.999998,0.000181,-0.003898,0.008728,-0.001063,0.008817,-0.003987,-85.223065,0.008830,
590,1070,3.115998,-7.286554,0.999998,0.000186,-0.003043,0.006344,-0.000095,0.006345,-0.003044,-89.421156,0.006347,
630,1810,1.276104,-1.759805,0.999996,0.000228,-0.003642,0.007582,-0.000226,0.007586,-0.003647,-88.845320,0.007588,
1540,1580,-0.775102,-2.797816,0.999998,0.000206,-0.003407,0.007110,-0.000583,0.007142,-0.003439,-86.836999,0.007144,
1090,1840,0.143438,-0.960686,0.999998,0.000164,-0.001032,0.005233,-0.000183,0.005238,-0.001038,-88.324105,0.005547,
780,1430,1.599300,-4.321934,0.999995,0.000258,-0.004287,0.008082,0.000036,0.008082,-0.004287,89.833456,0.008087,
1100,750,0.319975,-11.110272,0.999994,0.000293,-0.004033,0.006165,-0.002980,0.006971,-0.004840,-74.849836,0.007145,
1280,1770,-0.064653,-1.294896,0.999998,0.000143,-0.001269,0.005254,0.000030,0.005254,-0.001269,89.735535,0.005483,
810,590,1.395550,-11.152608,0.999996,0.000215,-0.004241,0.007971,-0.000228,0.007976,-0.004245,-88.929216,0.007981,
940,130,0.196569,-14.548600,0.999997,0.000218,-0.000963,0.005466,0.000706,0.005542,-0.001039,83.805938,0.005892,
1800,50,-0.198626,-14.922516,0.999998,0.000187,-0.000638,0.006561,-0.002898,0.007583,-0.001660,-70.580592,0.007972,
1770,220,-0.970012,-13.703546,0.999998,0.000174,-0.003380,0.007492,-0.000691,0.007535,-0.003424,-86.377832,0.007546,
1640,730,-1.673689,-10.022797,0.999998,0.000261,-0.004692,0.008493,-0.000322,0.008501,-0.004700,-88.601118,0.008517,
1700,1510,-1.497774,-3.726333,0.999996,0.000222,-0.004048,0.007799,-0.000181,0.007802,-0.004050,-89.124583,0.007804,
670,1590,1.690750,-3.331847,0.999996,0.000259,-0.003844,0.007641,0.000139,0.007643,-0.003846,89.304847,0.007643,
590,40,0.265113,-14.881736,0.999983,0.000529,-0.000521,0.009054,0.004681,0.010962,-0.002429,67.820160,0.011515,
720,1910,0.581582,-0.806589,0.999997,0.000236,-0.002668,0.007052,-0.001415,0.007254,-0.002870,-81.881162,0.007307,
1450,1930,-0.127140,-0.520986,0.999998,0.000173,-0.000698,0.005176,0.000489,0.005216,-0.000738,85.277115,0.005646,
930,710,1.092920,-10.506247,0.999997,0.000206,-0.005066,0.008746,-0.000666,0.008778,-0.005098,-87.247067,0.008816,
1570,1690,-0.714091,-2.086172,0.999996,0.000217,-0.003062,0.006819,-0.000141,0.006821,-0.003064,-89.181654,0.006833,
1390,280,-0.213403,-13.797727,0.999997,0.000181,-0.001475,0.005582,-0.000058,0.005583,-0.001476,-89.532126,0.005786,
1210,340,0.033918,-13.541509,0.999998,0.000178,-0.001555,0.005271,-0.000104,0.005272,-0.001556,-89.123068,0.005418,
1770,180,-0.817560,-14.004463,0.999997,0.000209,-0.003246,0.007407,-0.001043,0.007509,-0.003347,-84.459159,0.007523,
1210,1230,0.075775,-3.573894,0.999995,0.000259,-0.003767,0.001930,0.000463,0.001967,-0.003804,85.385637,0.003805,
1600,230,-0.532359,-13.893660,0.999998,0.000195,-0.002317,0.006515,-0.000560,0.006551,-0.002352,-86.388617,0.006637,
1830,1490,-2.051291,-4.187558,0.999997,0.000189,-0.003813,0.007648,-0.000011,0.007648,-0.003814,-89.943093,0.007648,
1200,1510,0.059472,-2.656459,0.999998,0.000219,-0.001883,0.004929,0.000317,0.004943,-0.001898,87.337971,0.004988,
1310,820,-0.251782,-11.191763,0.999997,0.000214,-0.003342,0.003448,0.002674,0.004375,-0.004268,70.887417,0.004991,
1010,1590,0.491071,-2.526285,0.999997,0.000220,-0.002937,0.006497,0.000790,0.006563,-0.003003,85.248084,0.006571,
1140,490,0.179037,-12.686899,0.999998,0.000153,-0.002153,0.005483,-0.000667,0.005541,-0.002211,-85.042109,0.005578,
1710,1810,-0.863013,-1.485225,0.999998,0.000157,-0.002894,0.007363,0.000763,0.007419,-0.002950,85.769399,0.007471,
1110,150,0.077366,-14.500539,0.999998,0.000141,-0.000705,0.005011,0.000203,0.005018,-0.000712,87.972010,0.005430,
1310,1810,-0.085527,-1.090996,0.999998,0.000152,-0.001131,0.005169,0.000048,0.005169,-0.001131,89.564638,0.005435,
930,550,0.838994,-11.797496,0.999997,0.000200,-0.003860,0.007471,-0.000837,0.007532,-0.003922,-85.800522,0.007535,
1040,1070,1.649834,-6.881690,0.999990,0.000403,-0.006240,0.015159,0.002266,0.015396,-0.006477,84.020659,0.015460,
1750,810,-2.374923,-9.183384,0.999996,0.000253,-0.003920,0.007759,-0.000758,0.007808,-0.003969,-86.303679,0.007808,
1790,1630,-1.592142,-3.021651,0.999996,0.000222,-0.003743,0.007583,-0.000146,0.007585,-0.003745,-89.263550,0.007585,
1830,1790,-1.330208,-1.906743,0.999997,0.000206,-0.003610,0.007569,0.000202,0.007573,-0.003613,88.964714,0.007576,
1260,1320,-0.040948,-3.417887,0.999998,0.000178,-0.001621,0.002751,-0.001059,0.002994,-0.001864,-77.081550,0.003024,
1560,650,-1.099771,-10.925955,0.999997,0.000265,-0.004622,0.008244,0.000646,0.008276,-0.004655,87.131327,0.008297,
1500,1980,-0.083888,-0.273606,0.999998,0.000179,-0.000564,0.005055,0.000684,0.005137,-0.000646,83.159709,0.005596,
810,1260,1.927358,-5.679836,0.999998,0.000238,-0.004477,0.008517,-0.000732,0.008558,-0.004518,-86.785653,0.008563,
570,860,3.009043,-8.615519,0.999997,0.000202,-0.003268,0.006598,0.000114,0.006600,-0.003270,89.335977,0.006600,
580,1070,3.146736,-7.288713,0.999998,0.000169,-0.002929,0.006224,-0.000071,0.006225,-0.002929,-89.558210,0.006229,
840,1940,0.268031,-0.525859,0.999998,0.000188,-0.001051,0.005920,-0.001274,0.006146,-0.001277,-79.961280,0.006486,
1540,1540,-0.821563,-3.084164,0.999997,0.000211,-0.003595,0.007255,-0.000690,0.007298,-0.003638,-86.375097,0.007298,
1710,1560,-1.435278,-3.361078,0.999996,0.000240,-0.003901,0.007710,-0.000212,0.007714,-0.003905,-88.952842,0.007714,
1770,200,-0.896501,-13.853694,0.999997,0.000180,-0.003331,0.007528,-0.000850,0.007594,-0.003397,-85.549067,0.007608,
1620,750,-1.635126,-9.895241,0.999995,0.000237,-0.004818,0.008672,-0.000345,0.008681,-0.004827,-88.535641,0.008699,
670,1570,1.734942,-3.486836,0.999996,0.000230,-0.003876,0.007667,0.000137,0.007669,-0.003878,89.321334,0.007669,
1570,1670,-0.747075,-2.226771,0.999997,0.000197,-0.003130,0.006978,-0.000215,0.006983,-0.003135,-88.784220,0.006995,
1600,150,-0.334245,-14.396119,0.999997,0.000200,-0.001565,0.006088,-0.000989,0.006214,-0.001691,-82.757777,0.006425,
630,1790,1.344410,-1.915522,0.999996,0.000231,-0.003633,0.007592,-0.000184,0.007595,-0.003637,-89.061492,0.007597,
810,570,1.357753,-11.311467,0.999996,0.000206,-0.004145,0.007922,-0.000293,0.007929,-0.004152,-88.608974,0.007932,
1210,1840,0.022494,-0.928067,0.999998,0.000172,-0.000977,0.005012,0.000025,0.005012,-0.000977,89.764955,0.005314,
1450,1910,-0.148926,-0.621482,0.999998,0.000154,-0.000841,0.005257,0.000478,0.005294,-0.000879,85.549314,0.005675,
930,670,1.010312,-10.850627,0.999997,0.000213,-0.004758,0.008352,-0.000840,0.008406,-0.004812,-86.346895,0.008436,
1830,1690,-1.604516,-2.662353,0.999996,0.000219,-0.003708,0.007563,-0.000045,0.007563,-0.003708,-89.772297,0.007564,
650,340,1.479093,-12.690350,0.999996,0.000239,-0.003713,0.007570,0.000018,0.007570,-0.003713,89.907224,0.007570,
1130,160,0.070165,-14.454396,0.999998,0.000143,-0.000835,0.005013,0.000131,0.005016,-0.000838,88.715233,0.005374,
1600,210,-0.487765,-14.019929,0.999997,0.000215,-0.002160,0.006364,-0.000700,0.006421,-0.002217,-85.335701,0.006522,
1160,1820,0.073997,-1.036217,0.999998,0.000162,-0.001033,0.005121,-0.000086,0.005123,-0.001034,-89.197326,0.005418,
1330,340,-0.154540,-13.509819,0.999998,0.000179,-0.001753,0.005455,0.000232,0.005463,-0.001760,88.160444,0.005577,
1370,210,-0.137019,-14.184359,0.999998,0.000154,-0.001022,0.005232,-0.000184,0.005237,-0.001028,-88.314655,0.005550,
1400,770,-0.519357,-10.698783,0.999995,0.000254,-0.005116,0.007788,0.002709,0.008333,-0.005661,78.611483,0.008510,
1410,1890,-0.136472,-0.712770,0.999998,0.000157,-0.000999,0.005187,0.000286,0.005200,-0.001012,87.357010,0.005514,
760,1430,1.684742,-4.368039,0.999996,0.000228,-0.004228,0.008007,-0.000021,0.008007,-0.004228,-89.903186,0.008011,
1110,130,0.067603,-14.596788,0.999998,0.000137,-0.000580,0.004917,0.000198,0.004924,-0.000588,87.943167,0.005379,
930,530,0.812155,-11.945192,0.999997,0.000205,-0.003679,0.007287,-0.000739,0.007337,-0.003729,-86.160131,0.007337,
1800,40,-0.135736,-14.986160,0.999997,0.000185,-0.000344,0.006354,-0.002928,0.007454,-0.001443,-69.419389,0.007906,
1420,1080,-1.595842,-6.713403,0.999990,0.000358,-0.005967,0.014650,-0.002895,0.015049,-0.006366,-82.156863,0.015109,
1220,1490,0.021813,-2.740240,0.999998,0.000163,-0.001876,0.004754,0.000233,0.004762,-0.001885,87.991465,0.004796,
1130,480,0.199230,-12.729258,0.999998,0.000167,-0.002119,0.005553,-0.000619,0.005603,-0.002169,-85.414997,0.005650,
1010,1570,0.506576,-2.656346,0.999997,0.000202,-0.003040,0.006539,0.000863,0.006616,-0.003117,84.895028,0.006619,
1380,470,-0.301898,-12.712518,0.999998,0.000178,-0.002494,0.005952,0.000804,0.006028,-0.002570,84.608840,0.006050,
1310,1790,-0.093730,-1.193527,0.999998,0.000162,-0.001221,0.005253,0.000016,0.005253,-0.001221,89.861806,0.005497,
1720,60,-0.174967,-14.883597,0.999998,0.000177,-0.000584,0.005889,-0.001938,0.006424,-0.001119,-74.544866,0.006864,
1830,1970,-0.476832,-0.494449,0.999996,0.000241,-0.003077,0.007929,0.002078,0.008308,-0.003456,79.658308,0.008348,
1450,1960,-0.086780,-0.365669,0.999998,0.000184,-0.000466,0.004990,0.000509,0.005037,-0.000513,84.713074,0.005544,
760,1550,1.428001,-3.421243,0.999995,0.000247,-0.003907,0.007731,0.000227,0.007736,-0.003911,88.885052,0.007736,
1500,1960,-0.113843,-0.374492,0.999998,0.000204,-0.000743,0.005161,0.000676,0.005237,-0.000819,83.550169,0.005634,
1830,50,-0.237270,-14.892487,0.999997,0.000229,-0.002628,0.007001,-0.002303,0.007523,-0.003151,-77.216404,0.007556,
1750,790,-2.319691,-9.341274,0.999997,0.000250,-0.003965,0.007792,-0.000705,0.007834,-0.004007,-86.581026,0.007835,
890,1260,1.545576,-5.514151,0.999996,0.000244,-0.005107,0.009187,-0.000388,0.009198,-0.005117,-88.446271,0.009217,
750,1320,2.012189,-5.282126,0.999998,0.000186,-0.004231,0.008083,-0.000525,0.008105,-0.004254,-87.561943,0.008109,
1890,1590,-2.056320,-3.566034,0.999998,0.000192,-0.003717,0.007563,-0.000063,0.007563,-0.003718,-89.677523,0.007564,
570,1070,3.177543,-7.295050,0.999972,0.000652,-0.002867,0.006100,-0.000053,0.006100,-0.002867,-89.660717,0.006104,
840,930,2.217132,-8.334559,0.999996,0.000221,-0.003535,0.008226,0.000958,0.008304,-0.003612,85.373304,0.008327,
1710,1540,-1.476534,-3.517328,0.999997,0.000206,-0.003950,0.007763,-0.000187,0.007766,-0.003953,-89.083653,0.007766,
1760,1230,-2.453754,-6.065600,0.999997,0.000197,-0.003837,0.007668,0.000767,0.007719,-0.003888,86.201747,0.007719,
1540,1000,-2.108017,-7.794323,0.999998,0.000185,-0.002757,0.008752,-0.000453,0.008770,-0.002774,-87.747489,0.008965,
730,50,0.138545,-14.938544,0.999997,0.000192,-0.000676,0.005954,0.002109,0.006568,-0.001290,73.770098,0.006959,
840,1920,0.328306,-0.647460,0.999998,0.000191,-0.001263,0.006017,-0.001174,0.006201,-0.001448,-81.060208,0.006488,
1260,1340,-0.041831,-3.357885,0.999998,0.000185,-0.001622,0.003155,-0.000943,0.003334,-0.001801,-79.230621,0.003338,
810,550,1.316687,-11.472184,0.999997,0.000214,-0.004067,0.007865,-0.000327,0.007874,-0.004076,-88.430571,0.007875,
1620,770,-1.696329,-9.721247,0.999996,0.000257,-0.004786,0.008790,-0.000483,0.008808,-0.004803,-87.966263,0.008820,
930,650,0.977342,-11.015690,0.999997,0.000201,-0.004589,0.008148,-0.000882,0.008209,-0.004650,-86.056971,0.008233,
1570,1650,-0.778833,-2.370086,0.999997,0.000197,-0.003202,0.007043,-0.000308,0.007052,-0.003211,-88.281456,0.007061,
670,1550,1.777509,-3.640313,0.999997,0.000205,-0.003864,0.007677,0.000109,0.007678,-0.003865,89.458588,0.007678,
1560,390,-0.724587,-12.878677,0.999997,0.000215,-0.003048,0.006907,0.000244,0.006913,-0.003054,88.596480,0.006929,
1150,100,0.028668,-14.751034,0.999999,0.000154,-0.000359,0.004735,0.000145,0.004739,-0.000363,88.373242,0.005275,
1440,150,-0.146676,-14.474879,0.999998,0.000187,-0.000917,0.005309,-0.000432,0.005339,-0.000947,-86.047168,0.005698,
1590,840,-1.787994,-9.157296,0.999996,0.000218,-0.004696,0.009003,-0.000861,0.009057,-0.004750,-86.416834,0.009061,
1190,1840,0.041730,-0.931147,0.999998,0.000157,-0.000929,0.005041,-0.000025,0.005041,-0.000929,-89.761474,0.005365,
1330,1900,-0.064567,-0.638851,0.999999,0.000123,-0.000787,0.004984,0.000135,0.004987,-0.000790,88.661146,0.005361,
1110,110,0.052244,-14.698188,0.999998,0.000157,-0.000484,0.004865,0.000247,0.004876,-0.000495,87.361042,0.005367,
1010,1550,0.520251,-2.791161,0.999996,0.000207,-0.003090,0.006599,0.000921,0.006686,-0.003177,84.616732,0.006689,
1230,340,0.001561,-13.546610,0.999998,0.000158,-0.001594,0.005266,-0.000016,0.005266,-0.001594,-89.863876,0.005401,
1110,600,0.259065,-12.021549,0.999998,0.000192,-0.002711,0.005567,-0.001459,0.005817,-0.002961,-80.291429,0.005817,
980,150,0.184519,-14.459956,0.999998,0.000173,-0.001013,0.005435,0.000546,0.005481,-0.001059,85.195453,0.005815,
1330,1480,-0.199022,-2.901814,0.999998,0.000174,-0.002321,0.005316,-0.001025,0.005451,-0.002456,-82.486820,0.005460,
1250,1580,-0.034302,-2.292663,0.999998,0.000165,-0.001836,0.005167,-0.000221,0.005174,-0.001843,-88.198158,0.005245,
720,200,0.806244,-13.913831,0.999997,0.000192,-0.003084,0.007354,0.000889,0.007429,-0.003159,85.164879,0.007457,
760,420,1.259781,-12.347577,0.999998,0.000185,-0.003660,0.007545,-0.000143,0.007546,-0.003662,-89.267242,0.007548,
1710,250,-0.879603,-13.597054,0.999997,0.000197,-0.002925,0.007332,-0.000706,0.007380,-0.002973,-86.079060,0.007427,
1710,1420,-1.737543,-4.464714,0.999997,0.000227,-0.004232,0.008010,0.000093,0.008011,-0.004233,89.566506,0.008015,
1410,1870,-0.153501,-0.817437,0.999998,0.000159,-0.001167,0.005289,0.000226,0.005297,-0.001174,87.997400,0.005563,
1160,1800,0.083647,-1.140093,0.999998,0.000159,-0.001126,0.005215,-0.000068,0.005216,-0.001126,-89.381974,0.005489,
1370,190,-0.119854,-14.291083,0.999998,0.000156,-0.000885,0.005212,-0.000222,0.005220,-0.000893,-87.921154,0.005584,
710,1680,1.345943,-2.548928,0.999996,0.000242,-0.003682,0.007589,0.000048,0.007589,-0.003682,89.757994,0.007590,
1500,830,-1.282473,-9.517658,0.999996,0.000282,-0.005678,0.009896,0.000096,0.009897,-0.005678,89.646099,0.009933,
1540,960,-2.021244,-8.149562,0.999997,0.000195,-0.003280,0.008909,-0.000901,0.008975,-0.003346,-85.795688,0.009072,
1840,280,-1.415750,-13.072176,0.999996,0.000231,-0.003641,0.007499,-0.000095,0.007500,-0.003642,-89.509383,0.007501,
830,280,0.731180,-13.512787,0.999998,0.000210,-0.002557,0.006991,0.000467,0.007014,-0.002580,87.207794,0.007095,
1100,810,0.425865,-10.721488,0.999995,0.000261,-0.004731,0.006718,-0.003372,0.007638,-0.005650,-74.751094,0.007925,
1670,250,-0.759747,-13.664602,0.999997,0.000191,-0.002990,0.007067,-0.000544,0.007097,-0.003019,-86.915060,0.007123,
940,1830,0.368191,-1.117330,0.999997,0.000195,-0.001776,0.005964,-0.000413,0.005986,-0.001798,-86.950779,0.006143,
1420,1410,-0.483070,-3.619436,0.999996,0.000241,-0.003827,0.006854,-0.001819,0.007156,-0.004129,-80.593665,0.007184,
1040,730,0.569958,-10.860846,0.999996,0.000240,-0.004851,0.007809,-0.002233,0.008191,-0.005234,-80.285677,0.008296,
1780,940,-2.771779,-8.182298,0.999998,0.000172,-0.003402,0.007229,-0.000577,0.007261,-0.003434,-86.902280,0.007264,
930,510,0.792127,-12.088882,0.999998,0.000211,-0.003522,0.007164,-0.000689,0.007209,-0.003566,-86.326415,0.007209,
1110,880,0.794717,-10.427140,0.999995,0.000253,-0.002240,0.004820,-0.003377,0.006175,-0.003596,-68.135040,0.006203,
1750,770,-2.264164,-9.496197,0.999997,0.000239,-0.004012,0.007857,-0.000638,0.007891,-0.004046,-86.930662,0.007892,
1880,840,-2.919817,-8.777962,0.999998,0.000166,-0.003381,0.006954,-0.000248,0.006960,-0.003387,-88.625619,0.006961,
1500,1200,-1.391137,-5.852316,0.999996,0.000281,-0.005503,0.010029,0.000225,0.010032,-0.005506,89.169753,0.010048,
1860,970,-3.067384,-7.936293,0.999999,0.000146,-0.003149,0.006422,-0.000066,0.006422,-0.003149,-89.607367,0.006423,
1060,640,0.418612,-11.602320,0.999996,0.000227,-0.003541,0.006533,-0.001849,0.006861,-0.003870,-79.919979,0.006880,
840,1250,1.821557,-5.713880,0.999997,0.000219,-0.004643,0.008740,-0.000750,0.008782,-0.004685,-86.800848,0.008789,
770,1320,1.926105,-5.245767,0.999997,0.000188,-0.004334,0.008241,-0.000504,0.008261,-0.004354,-87.709947,0.008265,
1230,1620,0.002581,-2.075884,0.999997,0.000190,-0.001798,0.005283,0.000004,0.005283,-0.001798,89.965230,0.005372,
730,40,0.093711,-14.996432,0.999998,0.000157,-0.000441,0.005885,0.002151,0.006547,-0.001103,72.893670,0.007010,
930,630,0.944589,-11.176606,0.999997,0.000197,-0.004443,0.007958,-0.000890,0.008021,-0.004506,-85.916975,0.008042,
630,720,2.449009,-9.738633,0.999995,0.000257,-0.003777,0.007545,0.000319,0.007554,-0.003786,88.388258,0.007554,
1070,1200,0.783139,-5.064822,0.999996,0.000249,-0.005410,0.008511,0.002601,0.008981,-0.005880,79.755137,0.009123,
1790,1950,-0.511023,-0.581880,0.999996,0.000240,-0.002136,0.007324,0.002182,0.007803,-0.002615,77.618292,0.007943,
840,1900,0.380749,-0.767773,0.999997,0.000207,-0.001491,0.006256,-0.001133,0.006419,-0.001654,-81.847736,0.006665,
810,530,1.278903,-11.626427,0.999997,0.000205,-0.003979,0.007751,-0.000324,0.007760,-0.003988,-88.416909,0.007761,
1260,1780,-0.035813,-1.236119,0.999998,0.000165,-0.001270,0.005207,-0.000050,0.005207,-0.001270,-89.557233,0.005430,
1570,1870,-0.364776,-0.911890,0.999997,0.000204,-0.001705,0.006070,0.000700,0.006132,-0.001767,84.898214,0.006313,
770,120,0.389252,-14.523034,0.999997,0.000204,-0.001573,0.006518,0.001646,0.006840,-0.001895,78.932424,0.007063,
1270,340,-0.060597,-13.536547,0.999998,0.000175,-0.001503,0.005334,0.000083,0.005335,-0.001504,89.304805,0.005501,
720,180,0.728453,-14.061627,0.999997,0.000187,-0.002979,0.007241,0.001062,0.007350,-0.003088,84.128542,0.007381,
1710,800,-2.185300,-9.313748,0.999997,0.000220,-0.004148,0.008036,-0.000761,0.008083,-0.004196,-86.437655,0.008085,
760,400,1.215798,-12.500534,0.999998,0.000184,-0.003583,0.007563,-0.000079,0.007563,-0.003583,-89.594161,0.007567,
1130,1580,0.198757,-2.364017,0.999998,0.000200,-0.002113,0.005530,0.000609,0.005578,-0.002162,85.474140,0.005625,
1160,90,0.024154,-14.797741,0.999998,0.000166,-0.000274,0.004660,0.000135,0.004663,-0.000278,88.434030,0.005232,
1110,90,0.042053,-14.793153,0.999998,0.000153,-0.000348,0.004725,0.000238,0.004736,-0.000359,87.325254,0.005274,
1540,980,-2.069320,-7.975257,0.999998,0.000177,-0.002943,0.008828,-0.000731,0.008874,-0.002989,-86.459902,0.009030,
970,710,0.886529,-10.667671,0.999997,0.000199,-0.005063,0.008542,-0.001224,0.008651,-0.005173,-84.899438,0.008706,
1540,940,-1.948782,-8.333937,0.999997,0.000210,-0.003630,0.009101,-0.001049,0.009187,-0.003716,-85.320179,0.009243,
1110,580,0.256437,-12.134191,0.999997,0.000217,-0.002633,0.005618,-0.001300,0.005818,-0.002833,-81.254347,0.005819,
1210,830,0.085776,-11.533410,0.999994,0.000284,-0.004187,0.002086,-0.000305,0.002101,-0.004202,-87.219069,0.004202,
1110,1900,0.082225,-0.644543,0.999999,0.000140,-0.000748,0.005035,-0.000215,0.005043,-0.000756,-87.876347,0.005440,
930,490,0.769042,-12.231428,0.999997,0.000207,-0.003435,0.007142,-0.000647,0.007182,-0.003474,-86.511530,0.007183,
950,1380,0.924957,-4.238086,0.999997,0.000199,-0.004792,0.008309,0.001053,0.008393,-0.004876,85.433968,0.008430,
1310,1480,-0.153823,-2.864972,0.999998,0.000193,-0.002225,0.005106,-0.000960,0.005229,-0.002349,-82.662426,0.005238,
1670,230,-0.701516,-13.807440,0.999997,0.000203,-0.002869,0.006981,-0.000671,0.007026,-0.002914,-86.120801,0.007060,
1300,150,-0.041396,-14.510590,0.999998,0.000167,-0.000552,0.004896,-0.000126,0.004899,-0.000555,-88.680366,0.005366,
1000,950,1.696229,-8.438822,0.999995,0.000244,-0.004290,0.011162,0.000063,0.011163,-0.004290,89.764753,0.011262,
1370,170,-0.109042,-14.393582,0.999998,0.000168,-0.000770,0.005135,-0.000246,0.005145,-0.000780,-87.619766,0.005546,
1000,1430,0.639535,-3.653114,0.999996,0.000228,-0.004047,0.007320,0.001448,0.007501,-0.004229,82.855255,0.007522,
930,1320,1.150197,-4.835615,0.999997,0.000240,-0.005250,0.008918,0.000547,0.008939,-0.005271,87.793323,0.008987,
1060,100,0.064485,-14.740544,0.999998,0.000174,-0.000555,0.004883,0.000363,0.004907,-0.000579,86.202108,0.005364,
1050,860,0.923109,-9.805455,0.999995,0.000252,-0.005479,0.009574,-0.002124,0.009868,-0.005773,-82.121525,0.009915,
1750,1800,-1.017247,-1.634095,0.999997,0.000244,-0.003412,0.007527,0.000433,0.007544,-0.003430,87.734593,0.007555,
1040,590,0.468866,-11.855815,0.999996,0.000233,-0.003354,0.006580,-0.001417,0.006778,-0.003552,-82.038053,0.006781,
630,1820,1.241954,-1.685672,0.999996,0.000260,-0.003628,0.007590,-0.000270,0.007597,-0.003635,-88.620655,0.007599,
730,360,1.236791,-12.734116,0.999997,0.000209,-0.003618,0.007503,0.000010,0.007503,-0.003618,89.947437,0.007505,
1840,240,-1.285691,-13.376042,0.999997,0.000212,-0.003636,0.007554,-0.000169,0.007556,-0.003639,-89.137317,0.007558,
1410,1100,-1.461145,-6.310735,0.999988,0.000420,-0.005471,0.013335,-0.004456,0.014338,-0.006473,-77.322866,0.014360,
1630,1290,-1.727896,-5.375737,0.999996,0.000235,-0.004750,0.008690,0.000516,0.008710,-0.004769,87.804797,0.008723,
1070,1180,0.896810,-5.245424,0.999995,0.000258,-0.004985,0.008552,0.002882,0.009140,-0.005573,78.469447,0.009213,
1700,710,-1.888370,-10.066373,0.999998,0.000191,-0.004318,0.008140,-0.000397,0.008152,-0.004331,-88.174618,0.008158,
1750,750,-2.207186,-9.653483,0.999997,0.000227,-0.004064,0.007909,-0.000582,0.007938,-0.004092,-87.225984,0.007939,
1530,900,-1.748446,-8.726562,0.999996,0.000253,-0.004474,0.009518,-0.001014,0.009591,-0.004547,-85.877751,0.009595,
1680,1510,-1.415832,-3.678609,0.999996,0.000246,-0.004049,0.007822,-0.000224,0.007827,-0.004053,-88.920986,0.007828,
760,380,1.174870,-12.650687,0.999997,0.000196,-0.003489,0.007473,0.000000,0.007473,-0.003489,89.999084,0.007479,
1240,90,-0.003230,-14.799885,0.999999,0.000142,-0.000385,0.004601,-0.000002,0.004601,-0.000385,-89.978764,0.005105,
1110,1580,0.240980,-2.390858,0.999998,0.000160,-0.002170,0.005680,0.000605,0.005726,-0.002217,85.616258,0.005775,
1660,1570,-1.223979,-3.163307,0.999997,0.000191,-0.003826,0.007591,-0.000308,0.007600,-0.003834,-88.457478,0.007600,
1410,1850,-0.175376,-0.924566,0.999998,0.000167,-0.001286,0.005346,0.000216,0.005353,-0.001293,88.134321,0.005586,
670,1530,1.820920,-3.793581,0.999997,0.000178,-0.003870,0.007678,0.000091,0.007679,-0.003871,89.548719,0.007679,
800,1700,0.987116,-2.197894,0.999997,0.000180,-0.003419,0.007281,0.000020,0.007281,-0.003419,89.891668,0.007285,
1250,340,-0.029977,-13.541051,0.999998,0.000146,-0.001535,0.005306,0.000098,0.005307,-0.001536,89.179229,0.005462,
1100,880,0.816249,-10.269761,0.999994,0.000303,-0.002815,0.005604,-0.003540,0.006894,-0.004106,-69.968087,0.006936,
1160,1620,0.128101,-2.105961,0.999998,0.000160,-0.001905,0.005385,0.000326,0.005400,-0.001919,87.445437,0.005474,
1570,1630,-0.806248,-2.511349,0.999997,0.000208,-0.003255,0.007095,-0.000349,0.007107,-0.003267,-88.070867,0.007115,
1110,70,0.026776,-14.887417,0.999999,0.000146,-0.000246,0.004671,0.000280,0.004687,-0.000262,86.756038,0.005267,
1710,1270,-2.143755,-5.684515,0.999997,0.000229,-0.004150,0.008113,0.000706,0.008153,-0.004190,86.713897,0.008154,
1000,930,1.592040,-8.662537,0.999995,0.000271,-0.004661,0.010802,0.000086,0.010802,-0.004662,89.680944,0.010836,
1400,150,-0.109450,-14.490036,0.999998,0.000193,-0.000794,0.005130,-0.000303,0.005145,-0.000810,-87.075534,0.005534,
1540,640,-0.993674,-11.071163,0.999997,0.000200,-0.004512,0.008076,0.000841,0.008132,-0.004568,86.192921,0.008153,
1670,210,-0.643163,-13.943610,0.999996,0.000225,-0.002695,0.006833,-0.000822,0.006903,-0.002765,-85.107783,0.006948,
1540,920,-1.877943,-8.515126,0.999997,0.000230,-0.004024,0.009243,-0.001078,0.009330,-0.004111,-85.386022,0.009352,
930,690,1.047763,-10.681963,0.999997,0.000205,-0.004914,0.008528,-0.000780,0.008573,-0.004959,-86.689749,0.008608,
1210,810,0.060996,-11.567553,0.999997,0.000218,-0.002754,0.001691,-0.000828,0.001840,-0.002904,-79.783149,0.002938,
1060,80,0.047722,-14.836799,0.999998,0.000160,-0.000405,0.004789,0.000362,0.004814,-0.000430,86.033169,0.005327,
1310,620,-0.151500,-12.031049,0.999997,0.000183,-0.002194,0.004856,0.001221,0.005061,-0.002400,80.449792,0.005064,
1170,1840,0.060176,-0.934054,0.999999,0.000164,-0.000897,0.005074,-0.000076,0.005075,-0.000898,-89.274999,0.005417,
970,690,0.851494,-10.838138,0.999997,0.000215,-0.004881,0.008289,-0.001260,0.008408,-0.005000,-84.585149,0.008458,
1170,1900,0.039643,-0.633599,0.999998,0.000165,-0.000583,0.004889,-0.000129,0.004892,-0.000586,-88.651748,0.005343,
1830,1950,-0.615036,-0.654219,0.999995,0.000251,-0.003251,0.007893,0.001596,0.008117,-0.003475,82.006403,0.008145,
1000,1410,0.655990,-3.799429,0.999996,0.000214,-0.004262,0.007450,0.001519,0.007643,-0.004456,82.728892,0.007678,
1500,1940,-0.149050,-0.481616,0.999998,0.000199,-0.000927,0.005340,0.000662,0.005409,-0.000996,84.031336,0.005757,
950,1320,1.044125,-4.755400,0.999998,0.000136,-0.005277,0.008900,0.000825,0.008947,-0.005325,86.678819,0.009001,
1830,1770,-1.391087,-2.057632,0.999998,0.000188,-0.003620,0.007512,0.000107,0.007513,-0.003621,89.451399,0.007515,
1190,1340,0.063756,-3.389399,0.999997,0.000195,-0.001784,0.003321,0.001325,0.003644,-0.002107,76.284880,0.003659,
1040,570,0.459614,-11.986491,0.999997,0.000210,-0.003284,0.006499,-0.001355,0.006683,-0.003468,-82.258265,0.006685,
1160,680,0.127422,-11.776853,0.999998,0.000185,-0.002153,0.004366,-0.001627,0.004749,-0.002536,-76.739646,0.004753,
1280,1490,-0.090778,-2.765742,0.999998,0.000144,-0.001974,0.004919,-0.000536,0.004960,-0.002016,-85.582453,0.004989,
580,1700,1.775264,-2.730438,0.999998,0.000190,-0.004110,0.007177,0.000215,0.007181,-0.004114,88.910076,0.007206,
1510,380,-0.571526,-13.035876,0.999998,0.000189,-0.002757,0.006488,0.000304,0.006498,-0.002767,88.118215,0.006522,
1420,1570,-0.410476,-2.579417,0.999997,0.000212,-0.002674,0.006228,-0.000805,0.006301,-0.002746,-84.873469,0.006318,
1010,1530,0.533532,-2.923135,0.999997,0.000208,-0.003175,0.006627,0.000993,0.006727,-0.003275,84.272426,0.006728,
1710,1900,-0.551864,-0.841309,0.999997,0.000208,-0.001991,0.006899,0.001502,0.007145,-0.002238,80.665748,0.007310,
1720,190,-0.706041,-14.021231,0.999996,0.000230,-0.002460,0.007147,-0.001225,0.007300,-0.002614,-82.849289,0.007398,
840,1880,0.442828,-0.897828,0.999997,0.000219,-0.001711,0.006276,-0.001015,0.006403,-0.001838,-82.867976,0.006594,
1720,1230,-2.296015,-6.017564,0.999997,0.000248,-0.003989,0.007942,0.000841,0.008001,-0.004048,85.985773,0.008001,
1510,960,-1.916228,-8.195457,0.999997,0.000224,-0.003430,0.009508,-0.000841,0.009563,-0.003485,-86.295345,0.009679,
1410,1090,-1.501714,-6.447564,0.999989,0.000364,-0.005873,0.014480,-0.004422,0.015399,-0.006792,-78.258055,0.015434,
1840,220,-1.212611,-13.526855,0.999997,0.000192,-0.003624,0.007649,-0.000283,0.007656,-0.003631,-88.562551,0.007659,
1090,340,0.227610,-13.470171,0.999998,0.000183,-0.001674,0.005657,-0.000128,0.005659,-0.001676,-88.996569,0.005814,
1260,1760,-0.039761,-1.342264,0.999998,0.000155,-0.001361,0.005252,-0.000070,0.005253,-0.001362,-89.390356,0.005452,
1170,1580,0.113776,-2.314751,0.999998,0.000165,-0.001962,0.005302,0.000340,0.005318,-0.001978,87.326198,0.005376,
1160,150,0.043179,-14.511872,0.999998,0.000142,-0.000547,0.004898,0.000148,0.004902,-0.000551,88.440236,0.005370,
800,410,1.097702,-12.513786,0.999996,0.000243,-0.003518,0.007414,-0.000171,0.007417,-0.003521,-89.104769,0.007420,
810,510,1.243283,-11.782683,0.999997,0.000184,-0.003905,0.007690,-0.000321,0.007699,-0.003914,-88.414393,0.007699,
1630,1270,-1.789531,-5.553266,0.999996,0.000233,-0.004675,0.008689,0.000623,0.008718,-0.004704,87.335136,0.008727,
1090,880,0.845502,-10.116328,0.999996,0.000243,-0.003512,0.006540,-0.003568,0.007677,-0.004650,-72.314135,0.007734,
760,360,1.131220,-12.797869,0.999997,0.000182,-0.003376,0.007412,0.000094,0.007413,-0.003377,89.500167,0.007423,
1490,100,-0.113678,-14.722393,0.999998,0.000187,-0.000708,0.005178,-0.000623,0.005243,-0.000773,-84.018771,0.005661,
1400,1590,-0.352933,-2.417719,0.999997,0.000188,-0.002533,0.006013,-0.000759,0.006080,-0.002600,-84.963304,0.006101,
1760,650,-1.981935,-10.425968,0.999997,0.000202,-0.004039,0.007874,-0.000224,0.007878,-0.004043,-88.923427,0.007879,
1840,1230,-2.746547,-6.168585,0.999997,0.000179,-0.003528,0.007082,0.000449,0.007101,-0.003547,87.581161,0.007101,
1560,630,-1.065601,-11.090945,0.999996,0.000257,-0.004510,0.008094,0.000692,0.008132,-0.004548,86.868939,0.008151,
1100,1980,0.035179,-0.257132,0.999998,0.000144,-0.000258,0.004724,-0.000294,0.004741,-0.000275,-86.630862,0.005323,
1680,1490,-1.455948,-3.835843,0.999995,0.000262,-0.004106,0.007880,-0.000178,0.007883,-0.004108,-89.147781,0.007885,
1410,1830,-0.194481,-1.030875,0.999998,0.000171,-0.001407,0.005437,0.000136,0.005440,-0.001409,88.864315,0.005646,
1750,730,-2.152601,-9.815558,0.999997,0.000210,-0.004082,0.007887,-0.000523,0.007909,-0.004105,-87.503842,0.007911,
1880,670,-2.497077,-10.011324,0.999996,0.000244,-0.003753,0.007541,-0.000092,0.007542,-0.003754,-89.531039,0.007542,
1060,60,0.030704,-14.931527,0.999999,0.000161,-0.000282,0.004705,0.000351,0.004729,-0.000307,85.996099,0.005293,
1670,190,-0.579175,-14.082235,0.999997,0.000209,-0.002557,0.006794,-0.000947,0.006889,-0.002652,-84.273675,0.006950,
670,1510,1.865470,-3.949835,0.999997,0.000203,-0.003888,0.007705,0.000048,0.007706,-0.003888,89.762089,0.007706,
1540,620,-0.958841,-11.236722,0.999997,0.000211,-0.004373,0.007920,0.000843,0.007978,-0.004430,86.093162,0.007994,
1540,900,-1.792722,-8.704297,0.999996,0.000261,-0.004373,0.009372,-0.001071,0.009455,-0.004456,-85.571343,0.009460,
770,160,0.536639,-14.257479,0.999997,0.000202,-0.002206,0.006794,0.001355,0.006994,-0.002406,81.618432,0.007106,
1570,1590,-0.862367,-2.793766,0.999998,0.000184,-0.003411,0.007197,-0.000464,0.007217,-0.003431,-87.501674,0.007220,
1490,900,-1.561679,-8.850963,0.999995,0.000260,-0.004949,0.010150,-0.000569,0.010172,-0.004970,-87.843152,0.010173,
1310,600,-0.154442,-12.129160,0.999998,0.000170,-0.002187,0.004981,0.001086,0.005142,-0.002348,81.568875,0.005148,
1310,1840,-0.074474,-0.936380,0.999999,0.000133,-0.000986,0.005097,0.000077,0.005098,-0.000987,89.278664,0.005408,
1610,1420,-1.300284,-4.216603,0.999996,0.000232,-0.004521,0.008248,-0.000353,0.008258,-0.004531,-88.416703,0.008271,
870,1390,1.285041,-4.420855,0.999996,0.000220,-0.004683,0.008411,0.000337,0.008419,-0.004691,88.526784,0.008438,
1560,190,-0.359657,-14.184911,0.999998,0.000182,-0.001580,0.006027,-0.000703,0.006092,-0.001644,-84.765563,0.006303,
1170,1340,0.103162,-3.452614,0.999998,0.000199,-0.002095,0.003814,0.001809,0.004323,-0.002605,74.264019,0.004354,
1830,1990,-0.336664,-0.334141,0.999995,0.000255,-0.002876,0.007609,0.002208,0.008055,-0.003322,78.579270,0.008096,
1450,1890,-0.178378,-0.731593,0.999998,0.000175,-0.000985,0.005368,0.000455,0.005400,-0.001018,85.925678,0.005739,
730,1320,2.094890,-5.316595,0.999998,0.000208,-0.004149,0.007974,-0.000535,0.007998,-0.004172,-87.478308,0.008000,
1710,1880,-0.629206,-0.983751,0.999997,0.000196,-0.002240,0.006958,0.001302,0.007139,-0.002420,82.098286,0.007261,
1160,1600,0.132469,-2.214343,0.999998,0.000162,-0.001987,0.005390,0.000397,0.005412,-0.002008,86.926475,0.005471,
970,670,0.820190,-11.002149,0.999997,0.000206,-0.004702,0.008095,-0.001286,0.008223,-0.004830,-84.316602,0.008265,
1070,340,0.262084,-13.453703,0.999998,0.000171,-0.001856,0.005755,-0.000151,0.005758,-0.001859,-88.864046,0.005877,
1710,1230,-2.257037,-6.007098,0.999997,0.000219,-0.004013,0.008009,0.000859,0.008070,-0.004074,85.933958,0.008070,
990,1840,0.268687,-1.018501,0.999998,0.000188,-0.001380,0.005671,-0.000378,0.005692,-0.001400,-86.937876,0.005931,
1840,200,-1.133442,-13.682166,0.999997,0.000203,-0.003621,0.007658,-0.000373,0.007670,-0.003633,-88.109860,0.007674,
650,1900,0.838239,-1.004899,0.999998,0.000240,-0.003042,0.007748,-0.001334,0.007910,-0.003204,-83.055677,0.007958,
1490,880,-1.457458,-9.056020,0.999995,0.000269,-0.005315,0.010154,-0.000370,0.010163,-0.005324,-88.632124,0.010167,
580,1260,2.826192,-6.034950,0.999998,0.000214,-0.003738,0.006922,-0.000106,0.006923,-0.003739,-89.431668,0.006930,
1380,730,-0.375175,-11.124737,0.999997,0.000218,-0.004131,0.006599,0.002735,0.007256,-0.004788,76.492378,0.007379,
1380,1550,-0.314087,-2.618381,0.999998,0.000172,-0.002619,0.005966,-0.000984,0.006077,-0.002730,-83.545744,0.006088,
810,470,1.170740,-12.087161,0.999998,0.000177,-0.003732,0.007560,-0.000290,0.007567,-0.003739,-88.529220,0.007567,
1830,1750,-1.450182,-2.207643,0.999997,0.000209,-0.003649,0.007551,0.000065,0.007552,-0.003650,89.665382,0.007553,
870,100,0.194151,-14.693212,0.999998,0.000187,-0.001088,0.005565,0.001070,0.005732,-0.001256,81.087273,0.006027,
1500,1900,-0.214728,-0.697895,0.999997,0.000181,-0.001282,0.005519,0.000580,0.005568,-0.001331,85.163297,0.005815,
1410,1080,-1.531406,-6.599329,0.999987,0.000406,-0.006289,0.015905,-0.004108,0.016641,-0.007025,-79.842163,0.016708,
760,340,1.085927,-12.948406,0.999998,0.000181,-0.003291,0.007403,0.000132,0.007404,-0.003292,89.294266,0.007420,
1160,1780,0.088763,-1.245873,0.999998,0.000153,-0.001211,0.005285,-0.000035,0.005286,-0.001212,-89.690984,0.005538,
1890,1230,-2.917403,-6.256957,0.999997,0.000193,-0.003392,0.006917,0.000173,0.006919,-0.003395,89.036015,0.006920,
1010,1750,0.352107,-1.529605,0.999997,0.000209,-0.001851,0.005936,-0.000022,0.005936,-0.001851,-89.836484,0.006074,
1880,270,-1.530952,-13.026697,0.999997,0.000211,-0.003655,0.007306,-0.000061,0.007307,-0.003656,-89.681620,0.007307,
1700,190,-0.656055,-14.043644,0.999997,0.000190,-0.002485,0.006987,-0.001124,0.007118,-0.002616,-83.324804,0.007201,
1670,170,-0.517042,-14.215474,0.999997,0.000206,-0.002340,0.006619,-0.001082,0.006748,-0.002469,-83.212061,0.006828,
1110,250,0.146457,-13.979307,0.999998,0.000147,-0.001297,0.005332,0.000042,0.005332,-0.001297,89.640037,0.005561,
1540,880,-1.709360,-8.890818,0.999996,0.000251,-0.004712,0.009463,-0.000930,0.009524,-0.004773,-86.260818,0.009524,
1430,900,-1.249346,-9.226907,0.999995,0.000250,-0.005115,0.010748,0.001445,0.010879,-0.005245,84.837637,0.010881,
610,720,2.524430,-9.696843,0.999996,0.000206,-0.003752,0.007455,0.000252,0.007460,-0.003758,88.712997,0.007460,
1630,1250,-1.854033,-5.726511,0.999996,0.000220,-0.004601,0.008684,0.000748,0.008726,-0.004643,86.787252,0.008732,
1760,330,-1.261317,-12.896367,0.999997,0.000214,-0.003621,0.007537,-0.000041,0.007537,-0.003621,-89.789113,0.007539,
1550,160,-0.283204,-14.367919,0.999998,0.000176,-0.001192,0.005812,-0.000806,0.005903,-0.001284,-83.519380,0.006210,
840,1860,0.492403,-1.020320,0.999997,0.000213,-0.001920,0.006481,-0.000915,0.006579,-0.002018,-83.857652,0.006741,
1540,600,-0.932808,-11.393202,0.999997,0.000203,-0.004189,0.007789,0.000829,0.007846,-0.004246,86.057905,0.007855,
970,1320,0.939800,-4.670948,0.999997,0.000203,-0.005301,0.008819,0.001101,0.008905,-0.005386,85.569849,0.008970,
1150,1870,0.063871,-0.783717,0.999998,0.000167,-0.000837,0.005008,-0.000098,0.005010,-0.000839,-89.035355,0.005367,
780,990,2.511212,-7.843739,0.999996,0.000232,-0.003123,0.007516,0.000310,0.007525,-0.003132,88.333775,0.007560,
1840,480,-1.901188,-11.557815,0.999997,0.000198,-0.003801,0.007624,0.000092,0.007625,-0.003802,89.537572,0.007625,
1270,1300,-0.062001,-3.498636,0.999998,0.000190,-0.001829,0.002658,-0.001504,0.003115,-0.002287,-73.076977,0.003227,
980,1450,0.701342,-3.575639,0.999997,0.000193,-0.004028,0.007440,0.001243,0.007573,-0.004161,83.885795,0.007585,
1050,1990,0.038559,-0.213688,0.999998,0.000143,-0.000352,0.004755,-0.000390,0.004785,-0.000382,-85.653861,0.005318,
1350,1840,-0.118195,-0.952522,0.999998,0.000184,-0.001090,0.005163,0.000105,0.005165,-0.001092,89.040411,0.005444,
850,100,0.215497,-14.687261,0.999998,0.000203,-0.000913,0.005645,0.001164,0.005846,-0.001114,80.226959,0.006208,
1820,1910,-0.805120,-0.944903,0.999996,0.000259,-0.003186,0.007759,0.001285,0.007908,-0.003335,83.391440,0.007940,
810,450,1.133330,-12.240883,0.999998,0.000160,-0.003606,0.007513,-0.000248,0.007519,-0.003612,-88.725355,0.007521,
1840,180,-1.048348,-13.834829,0.999997,0.000193,-0.003627,0.007754,-0.000540,0.007780,-0.003652,-87.291525,0.007785,
610,1580,1.940067,-3.555411,0.999998,0.000174,-0.003763,0.007626,0.000094,0.007627,-0.003764,89.526820,0.007627,
1150,340,0.124137,-13.521454,0.999997,0.000227,-0.001627,0.005415,-0.000137,0.005418,-0.001630,-88.887477,0.005559,
1520,850,-1.478600,-9.241186,0.999996,0.000267,-0.005286,0.009783,-0.000472,0.009798,-0.005301,-88.207246,0.009809,
1500,1230,-1.261445,-5.554428,0.999995,0.000260,-0.005700,0.009847,-0.000175,0.009849,-0.005702,-89.354555,0.009890,
970,650,0.794853,-11.162361,0.999996,0.000233,-0.004520,0.007893,-0.001279,0.008024,-0.004651,-84.176430,0.008058,
1270,680,-0.061018,-11.863314,0.999997,0.000196,-0.001807,0.003779,0.000982,0.003947,-0.001974,80.315465,0.003947,
1260,1490,-0.053050,-2.752023,0.999997,0.000196,-0.001882,0.004794,-0.000357,0.004813,-0.001901,-86.948127,0.004849,
1250,1840,-0.019220,-0.928993,0.999998,0.000155,-0.001006,0.005024,-0.000027,0.005024,-0.001006,-89.741521,0.005316,
1040,550,0.451953,-12.116878,0.999997,0.000199,-0.003193,0.006465,-0.001234,0.006620,-0.003348,-82.832158,0.006621,
1570,1570,-0.889875,-2.940702,0.999998,0.000189,-0.003576,0.007300,-0.000530,0.007325,-0.003602,-87.215772,0.007326,
1780,1870,-0.870106,-1.172280,0.999998,0.000182,-0.003230,0.007480,0.001035,0.007579,-0.003329,84.531520,0.007597,
1540,860,-1.625047,-9.081391,0.999995,0.000269,-0.004995,0.009537,-0.000759,0.009577,-0.005034,-87.018002,0.009581,
1630,1230,-1.919921,-5.902123,0.999997,0.000200,-0.004479,0.008675,0.000872,0.008732,-0.004536,86.222005,0.008735,
1670,150,-0.449255,-14.347938,0.999997,0.000223,-0.002147,0.006520,-0.001221,0.006689,-0.002316,-82.130704,0.006794,
760,320,1.041338,-13.095355,0.999997,0.000204,-0.003250,0.007325,0.000186,0.007329,-0.003254,88.990237,0.007344,
1400,1140,-1.197483,-5.705806,0.999992,0.000334,-0.004111,0.009939,-0.004145,0.011070,-0.005243,-74.730575,0.011076,
1830,1730,-1.504734,-2.359839,0.999997,0.000215,-0.003662,0.007526,-0.000008,0.007526,-0.003662,-89.960535,0.007527,
1500,1880,-0.245546,-0.808531,0.999998,0.000182,-0.001454,0.005599,0.000485,0.005632,-0.001488,86.086297,0.005837,
1750,710,-2.097146,-9.971065,0.999997,0.000208,-0.004102,0.007847,-0.000422,0.007862,-0.004117,-87.979031,0.007865,
1870,670,-2.459546,-10.035571,0.999996,0.000243,-0.003755,0.007521,-0.000115,0.007522,-0.003757,-89.416521,0.007522,
1410,1810,-0.213030,-1.143691,0.999998,0.000161,-0.001516,0.005526,0.000086,0.005527,-0.001517,89.302541,0.005711,
1560,170,-0.317465,-14.302750,0.999998,0.000164,-0.001420,0.005903,-0.000777,0.005985,-0.001502,-84.013894,0.006227,
1150,1850,0.072153,-0.885212,0.999998,0.000164,-0.000942,0.005102,-0.000090,0.005103,-0.000944,-89.143534,0.005430,
1260,1740,-0.041415,-1.448504,0.999998,0.000153,-0.001449,0.005303,-0.000087,0.005304,-0.001451,-89.259046,0.005483,
840,1840,0.549040,-1.156414,0.999996,0.000209,-0.002093,0.006552,-0.000795,0.006625,-0.002165,-84.789887,0.006756,
1730,120,-0.441729,-14.502529,0.999997,0.000221,-0.001835,0.006778,-0.001790,0.007135,-0.002192,-78.712414,0.007310,
1160,1580,0.133892,-2.321919,0.999998,0.000165,-0.002049,0.005359,0.000464,0.005388,-0.002078,86.427373,0.005435,
1020,750,0.703844,-10.579638,0.999997,0.000200,-0.005336,0.008537,-0.001952,0.008806,-0.005605,-82.143034,0.008915,
630,1670,1.663720,-2.822591,0.999997,0.000200,-0.003730,0.007535,0.000083,0.007536,-0.003730,89.579837,0.007536,
910,1320,1.256542,-4.905530,0.999998,0.000221,-0.005246,0.008918,0.000305,0.008925,-0.005252,88.766694,0.008971,
1540,1020,-2.124826,-7.623073,0.999998,0.000184,-0.002690,0.008537,-0.000107,0.008538,-0.002691,-89.453994,0.008730,
690,2000,0.199768,-0.221860,0.999998,0.000206,-0.000919,0.006566,-0.002620,0.007392,-0.001744,-72.503528,0.007728,
1870,1590,-1.982692,-3.518721,0.999997,0.000216,-0.003723,0.007576,-0.000081,0.007576,-0.003723,-89.587828,0.007577,
1740,1410,-1.887397,-4.611330,0.999997,0.000190,-0.004098,0.007930,0.000149,0.007932,-0.004100,89.292593,0.007933,
930,120,0.187363,-14.599720,0.999998,0.000187,-0.000837,0.005511,0.000814,0.005613,-0.000939,82.807343,0.006013,
1840,460,-1.858860,-11.709949,0.999997,0.000181,-0.003785,0.007626,0.000104,0.007627,-0.003786,89.480010,0.007627,
590,1000,3.126415,-7.738140,0.999998,0.000157,-0.003006,0.006390,0.000155,0.006392,-0.003009,89.057397,0.006396,
810,430,1.097001,-12.388811,0.999998,0.000169,-0.003549,0.007407,-0.000226,0.007411,-0.003554,-88.818526,0.007414,
670,1490,1.910459,-4.103972,0.999997,0.000208,-0.003890,0.007713,0.000028,0.007713,-0.003890,89.860879,0.007713,
1000,910,1.479341,-8.879844,0.999994,0.000301,-0.005080,0.010661,0.000075,0.010661,-0.005080,89.728080,0.010665,
1710,690,-1.876411,-10.210751,0.999996,0.000246,-0.004269,0.008111,-0.000310,0.008118,-0.004277,-88.564937,0.008122,
1840,160,-0.954583,-13.993114,0.999998,0.000171,-0.003657,0.007789,-0.000664,0.007828,-0.003695,-86.691628,0.007832,
1190,1320,0.064075,-3.453958,0.999998,0.000151,-0.001788,0.003017,0.001482,0.003437,-0.002209,74.163104,0.003483,
1050,1970,0.058488,-0.309632,0.999998,0.000163,-0.000473,0.004851,-0.000381,0.004878,-0.000500,-85.927124,0.005367,
1410,900,-1.147529,-9.431170,0.999994,0.000277,-0.004892,0.009982,0.002660,0.010444,-0.005354,80.158208,0.010445,
590,1580,2.014240,-3.603048,0.999998,0.000182,-0.003724,0.007619,0.000047,0.007619,-0.003724,89.764610,0.007620,
1800,1910,-0.751331,-0.904655,0.999998,0.000199,-0.002785,0.007601,0.001655,0.007858,-0.003043,81.160734,0.007925,
1310,340,-0.118712,-13.523230,0.999998,0.000157,-0.001604,0.005392,0.000111,0.005394,-0.001606,89.093739,0.005539,
1420,1230,-0.792962,-5.051636,0.999995,0.000265,-0.005876,0.009176,-0.002017,0.009441,-0.006141,-82.497931,0.009583,
970,630,0.770470,-11.316562,0.999997,0.000225,-0.004328,0.007642,-0.001263,0.007774,-0.004460,-84.043282,0.007802,
1230,1840,0.002132,-0.924818,0.999998,0.000160,-0.001030,0.005019,-0.000004,0.005019,-0.001030,-89.964564,0.005301,
1310,580,-0.153877,-12.230275,0.999998,0.000164,-0.002197,0.005094,0.000977,0.005223,-0.002326,82.498685,0.005233,
1670,130,-0.381561,-14.475971,0.999998,0.000206,-0.001867,0.006285,-0.001316,0.006492,-0.002074,-81.053252,0.006631,
1540,840,-1.541978,-9.272540,0.999994,0.000290,-0.005197,0.009564,-0.000559,0.009585,-0.005218,-87.836008,0.009598,
1630,470,-1.084585,-12.142440,0.999997,0.000202,-0.003657,0.007470,0.000330,0.007480,-0.003666,88.301322,0.007480,
1400,1130,-1.263694,-5.804613,0.999992,0.000340,-0.004050,0.010652,-0.004628,0.011987,-0.005385,-73.903965,0.012008,
1040,530,0.440289,-12.248526,0.999997,0.000213,-0.003060,0.006413,-0.001103,0.006540,-0.003186,-83.447983,0.006540,
1570,1550,-0.918511,-3.089858,0.999997,0.000201,-0.003734,0.007403,-0.000596,0.007435,-0.003765,-86.944350,0.007435,
1760,1870,-0.804697,-1.130889,0.999998,0.000176,-0.003291,0.007363,0.000955,0.007448,-0.003376,84.918912,0.007459,
710,1320,2.178494,-5.350469,0.999996,0.000254,-0.004098,0.007888,-0.000517,0.007910,-0.004120,-87.535760,0.007912,
760,300,0.994887,-13.239870,0.999998,0.000188,-0.003204,0.007328,0.000309,0.007337,-0.003213,88.320826,0.007356,
680,1070,2.828328,-7.257556,0.999998,0.000164,-0.003264,0.007039,-0.000185,0.007043,-0.003267,-88.972168,0.007049,
930,100,0.146039,-14.710350,0.999998,0.000141,-0.000629,0.005323,0.000828,0.005436,-0.000742,82.224832,0.005895,
1790,1930,-0.624305,-0.743157,0.999996,0.000231,-0.002584,0.007561,0.001940,0.007919,-0.002942,79.534147,0.008006,
1830,1930,-0.730597,-0.812296,0.999997,0.000213,-0.003409,0.007938,0.001244,0.008073,-0.003543,83.817593,0.008093,
1450,1870,-0.199472,-0.838112,0.999998,0.000179,-0.001096,0.005457,0.000409,0.005482,-0.001121,86.446340,0.005793,
630,1650,1.709330,-2.972471,0.999996,0.000223,-0.003756,0.007541,0.000107,0.007542,-0.003757,89.458896,0.007542,
1840,440,-1.814409,-11.864787,0.999997,0.000187,-0.003743,0.007545,0.000100,0.007546,-0.003743,89.491836,0.007546,
1870,1430,-2.345856,-4.742896,0.999995,0.000273,-0.003785,0.007609,0.000085,0.007610,-0.003786,89.572635,0.007610,
1150,1830,0.081212,-0.986725,0.999998,0.000181,-0.001050,0.005125,-0.000052,0.005125,-0.001051,-89.513458,0.005414,
1570,1420,-1.118372,-4.102119,0.999997,0.000201,-0.004535,0.008129,-0.000612,0.008159,-0.004564,-87.240868,0.008178,
1540,1040,-2.119902,-7.456211,0.999998,0.000185,-0.002718,0.008590,0.000225,0.008595,-0.002723,88.861284,0.008785,
810,410,1.062154,-12.536944,0.999997,0.000205,-0.003494,0.007396,-0.000185,0.007399,-0.003497,-89.029108,0.007403,
1260,1720,-0.044583,-1.556507,0.999998,0.000162,-0.001515,0.005323,-0.000104,0.005325,-0.001516,-89.132180,0.005487,
1810,900,-2.806779,-8.450623,0.999997,0.000189,-0.003412,0.007039,-0.000457,0.007059,-0.003432,-87.500716,0.007060,
950,1000,2.032544,-7.811107,0.999998,0.000164,-0.002898,0.009374,0.000406,0.009387,-0.002912,88.107582,0.009610,
1640,390,-0.978485,-12.714223,0.999998,0.000153,-0.003356,0.007328,0.000111,0.007329,-0.003357,89.402248,0.007338,
1500,1860,-0.280318,-0.924503,0.999998,0.000201,-0.001593,0.005776,0.000448,0.005803,-0.001620,86.532191,0.005988,
1690,700,-1.817249,-10.168337,0.999997,0.000207,-0.004392,0.008188,-0.000326,0.008196,-0.004401,-88.515033,0.008204,
700,1250,2.409958,-5.913085,0.999997,0.000214,-0.003879,0.007717,-0.000723,0.007762,-0.003924,-86.445658,0.007762,
1160,1740,0.102710,-1.460437,0.999998,0.000161,-0.001397,0.005374,0.000029,0.005374,-0.001397,89.758658,0.005576,
1870,270,-1.494195,-13.056980,0.999996,0.000240,-0.003653,0.007362,-0.000083,0.007363,-0.003653,-89.566174,0.007363,
1010,1510,0.544497,-3.054408,0.999997,0.000206,-0.003291,0.006708,0.001069,0.006821,-0.003404,83.966073,0.006821,
1840,140,-0.855164,-14.146850,0.999998,0.000166,-0.003661,0.007868,-0.000885,0.007936,-0.003728,-85.635384,0.007940,
1540,1550,-0.811035,-3.012721,0.999998,0.000186,-0.003524,0.007185,-0.000662,0.007226,-0.003564,-86.478395,0.007226,
1390,340,-0.256851,-13.456347,0.999998,0.000180,-0.001795,0.005719,0.000139,0.005722,-0.001798,88.940865,0.005852,
710,1880,0.740143,-1.044069,0.999998,0.000170,-0.003184,0.007314,-0.001074,0.007423,-0.003293,-84.219695,0.007439,
1160,1560,0.138082,-2.429230,0.999998,0.000178,-0.002092,0.005340,0.000550,0.005381,-0.002132,85.788120,0.005419,
850,130,0.302435,-14.507417,0.999997,0.000198,-0.001273,0.005949,0.001126,0.006121,-0.001445,81.338392,0.006399,
1710,670,-1.822683,-10.372406,0.999996,0.000240,-0.004254,0.008070,-0.000218,0.008074,-0.004258,-88.986388,0.008078,
1540,820,-1.463302,-9.465016,0.999994,0.000283,-0.005338,0.009524,-0.000339,0.009532,-0.005345,-88.693057,0.009555,
1710,860,-2.354502,-8.834083,0.999995,0.000261,-0.003858,0.007820,-0.000857,0.007883,-0.003921,-85.827178,0.007883,
1250,1280,-0.030918,-3.491216,0.999998,0.000160,-0.001828,0.001972,-0.000844,0.002151,-0.002007,-78.027747,0.002405,
1410,1790,-0.230710,-1.252784,0.999998,0.000168,-0.001659,0.005608,0.000023,0.005608,-0.001659,89.818537,0.005762,
1670,110,-0.313915,-14.601137,0.999998,0.000181,-0.001560,0.006205,-0.001477,0.006477,-0.001831,-79.585001,0.006678,
1750,690,-2.044351,-10.129850,0.999997,0.000195,-0.004089,0.007908,-0.000344,0.007918,-0.004099,-88.356818,0.007920,
590,1620,1.926913,-3.298849,0.999997,0.000207,-0.003693,0.007509,0.000064,0.007509,-0.003693,89.670838,0.007509,
960,1830,0.332663,-1.098039,0.999997,0.000203,-0.001834,0.005861,-0.000334,0.005876,-0.001848,-87.522458,0.006009,
670,1470,1.955948,-4.257499,0.999997,0.000194,-0.003880,0.007742,-0.000024,0.007742,-0.003880,-89.880237,0.007742,
760,280,0.939997,-13.391211,0.999998,0.000180,-0.003106,0.007339,0.000460,0.007359,-0.003126,87.481095,0.007387,
970,610,0.746765,-11.470814,0.999997,0.000231,-0.004131,0.007549,-0.001190,0.007669,-0.004251,-84.241094,0.007684,
690,1320,2.258713,-5.385421,0.999998,0.000187,-0.003983,0.007817,-0.000519,0.007840,-0.004005,-87.486909,0.007841,
1310,560,-0.155787,-12.333377,0.999998,0.000157,-0.002202,0.005165,0.000899,0.005273,-0.002310,83.142342,0.005287,
1050,1950,0.076406,-0.407548,0.999998,0.000167,-0.000612,0.004972,-0.000391,0.004999,-0.000639,-86.012660,0.005441,
1400,1230,-0.672366,-4.877438,0.999995,0.000272,-0.005599,0.008701,-0.002500,0.009125,-0.006024,-80.362889,0.009280,
1040,470,0.410680,-12.627372,0.999997,0.000207,-0.002602,0.006231,-0.000694,0.006285,-0.002656,-85.534219,0.006310,
680,2000,0.209863,-0.224921,0.999999,0.000190,-0.000768,0.006654,-0.002768,0.007572,-0.001687,-71.641664,0.007951,
1530,160,-0.261101,-14.376817,0.999998,0.000164,-0.001204,0.005722,-0.000729,0.005797,-0.001280,-84.055420,0.006091,
1500,1840,-0.310735,-1.038503,0.999998,0.000185,-0.001735,0.005801,0.000347,0.005817,-0.001751,87.369249,0.005969,
1150,1810,0.089841,-1.088617,0.999998,0.000174,-0.001152,0.005177,-0.000054,0.005177,-0.001152,-89.515447,0.005437,
1420,1070,-1.628564,-6.857360,0.999984,0.000460,-0.006327,0.015465,-0.002624,0.015777,-0.006638,-83.229990,0.015842,
1630,1210,-1.985725,-6.074079,0.999997,0.000180,-0.004326,0.008519,0.000934,0.008586,-0.004393,85.863362,0.008587,
970,1900,0.204447,-0.693847,0.999998,0.000189,-0.001199,0.005534,-0.000575,0.005583,-0.001248,-85.150123,0.005861,
1330,1840,-0.096176,-0.942761,0.999998,0.000159,-0.001093,0.005112,0.000058,0.005113,-0.001094,89.462084,0.005385,
1760,310,-1.210979,-13.046593,0.999997,0.000191,-0.003628,0.007498,-0.000111,0.007499,-0.003629,-89.429414,0.007500,
910,100,0.159052,-14.706235,0.999998,0.000178,-0.000653,0.005406,0.000924,0.005544,-0.000791,81.522129,0.005997,
1790,900,-2.738990,-8.466466,0.999997,0.000188,-0.003454,0.007204,-0.000540,0.007231,-0.003481,-87.106618,0.007233,
970,980,1.925337,-8.029174,0.999997,0.000171,-0.003313,0.009892,0.000546,0.009914,-0.003336,87.638175,0.010089,
1450,1850,-0.229231,-0.949876,0.999998,0.000165,-0.001230,0.005522,0.000386,0.005544,-0.001252,86.739991,0.005815,
1080,1450,0.343103,-3.219083,0.999997,0.000202,-0.003062,0.006101,0.001589,0.006369,-0.003329,80.437678,0.006371,
1520,1550,-0.740913,-2.961830,0.999998,0.000207,-0.003495,0.007094,-0.000756,0.007148,-0.003549,-85.938265,0.007148,
1840,120,-0.740362,-14.307512,0.999996,0.000203,-0.003598,0.007994,-0.001113,0.008100,-0.003704,-84.565066,0.008110,
630,1630,1.755234,-3.124616,0.999997,0.000204,-0.003773,0.007561,0.000105,0.007562,-0.003774,89.469650,0.007562,
810,390,1.023204,-12.685535,0.999997,0.000190,-0.003447,0.007398,-0.000114,0.007399,-0.003448,-89.396903,0.007405,
1840,420,-1.769426,-12.014576,0.999997,0.000202,-0.003712,0.007546,0.000102,0.007547,-0.003713,89.481279,0.007548,
1570,1530,-0.948256,-3.241455,0.999998,0.000203,-0.003828,0.007532,-0.000618,0.007565,-0.003862,-86.897210,0.007566,
1540,1060,-2.101623,-7.278873,0.999998,0.000197,-0.002822,0.008832,0.000525,0.008855,-0.002846,87.426654,0.009042,
1640,370,-0.938088,-12.860642,0.999998,0.000167,-0.003258,0.007211,-0.000023,0.007211,-0.003258,-89.872785,0.007223,
1670,310,-0.909095,-13.239016,0.999998,0.000159,-0.003268,0.007211,-0.000165,0.007213,-0.003271,-89.098937,0.007224,
1510,780,-1.154438,-9.962464,0.999994,0.000270,-0.005601,0.009387,0.000485,0.009403,-0.005617,88.146669,0.009462,
790,1300,1.896836,-5.376509,0.999997,0.000197,-0.004448,0.008374,-0.000549,0.008397,-0.004471,-87.554721,0.008403,
1420,1470,-0.457291,-3.222160,0.999997,0.000225,-0.003353,0.006527,-0.001407,0.006723,-0.003550,-82.048975,0.006727,
1260,1700,-0.045260,-1.659626,0.999998,0.000166,-0.001598,0.005318,-0.000129,0.005321,-0.001601,-88.934664,0.005459,
630,1770,1.404311,-2.065049,0.999997,0.000222,-0.003632,0.007504,-0.000092,0.007505,-0.003633,-89.528739,0.007506,
990,520,0.593202,-12.180630,0.999997,0.000206,-0.003280,0.006819,-0.000899,0.006899,-0.003359,-84.951790,0.006899,
1210,790,0.040832,-11.599493,0.999997,0.000211,-0.002056,0.001779,-0.000957,0.002005,-0.002281,-76.735052,0.002490,
1060,1150,1.147784,-5.649855,0.999989,0.000368,-0.004507,0.009692,0.003347,0.010441,-0.005257,77.378901,0.010441,
1830,1710,-1.556175,-2.510948,0.999996,0.000224,-0.003685,0.007537,-0.000027,0.007537,-0.003685,-89.863645,0.007538,
590,800,2.803634,-9.069256,0.999997,0.000198,-0.003532,0.006984,0.000194,0.006988,-0.003536,88.941672,0.006988,
1540,800,-1.387349,-9.655509,0.999995,0.000271,-0.005376,0.009442,-0.000109,0.009443,-0.005377,-89.579762,0.009474,
760,480,1.378698,-11.891556,0.999997,0.000210,-0.003842,0.007635,-0.000199,0.007639,-0.003846,-89.005646,0.007639,
670,1450,2.001141,-4.413835,0.999998,0.000170,-0.003902,0.007734,-0.000077,0.007734,-0.003902,-89.618708,0.007735,
840,1820,0.596113,-1.285792,0.999997,0.000215,-0.002263,0.006702,-0.000702,0.006757,-0.002318,-85.550044,0.006867,
710,1860,0.821466,-1.191893,0.999996,0.000231,-0.003290,0.007413,-0.000862,0.007482,-0.003359,-85.427498,0.007495,
1580,1230,-1.685440,-5.808777,0.999994,0.000295,-0.004905,0.009121,0.000695,0.009156,-0.004939,87.171071,0.009165,
1090,1320,0.347976,-3.980965,0.999996,0.000244,-0.004059,0.006388,0.002809,0.007096,-0.004766,75.862730,0.007234,
670,2000,0.221833,-0.228233,0.999998,0.000206,-0.000669,0.006723,-0.002889,0.007719,-0.001664,-70.993129,0.008124,
1010,1470,0.569469,-3.326638,0.999997,0.000217,-0.003649,0.006969,0.001339,0.007136,-0.003815,82.922738,0.007141,
1000,1710,0.414722,-1.785148,0.999997,0.000201,-0.002106,0.006109,0.000122,0.006111,-0.002108,89.147392,0.006208,
1390,820,-0.598956,-10.379144,0.999996,0.000247,-0.005402,0.008272,0.002857,0.008845,-0.005975,78.661084,0.009025,
580,1620,1.963378,-3.322546,0.999997,0.000203,-0.003679,0.007479,0.000059,0.007480,-0.003679,89.697878,0.007480,
1710,650,-1.776214,-10.533547,0.999997,0.000234,-0.004225,0.008027,-0.000136,0.008029,-0.004227,-89.366071,0.008032,
1630,1170,-2.115217,-6.416484,0.999997,0.000207,-0.003957,0.008410,0.001017,0.008493,-0.004040,85.330477,0.008496,
1420,1060,-1.650427,-7.013325,0.999976,0.000551,-0.006735,0.016314,-0.002253,0.016532,-0.006954,-84.470246,0.016601,
570,1700,1.817164,-2.758284,0.999967,0.000687,-0.004271,0.006966,0.000285,0.006973,-0.004278,88.550062,0.007033,
1160,1760,0.095897,-1.351853,0.999998,0.000158,-0.001308,0.005360,-0.000010,0.005360,-0.001308,-89.914294,0.005589,
1240,150,-0.006547,-14.516709,0.999998,0.000165,-0.000662,0.004870,-0.000001,0.004870,-0.000662,-89.992208,0.005282,
620,1430,2.243101,-4.681104,0.999997,0.000231,-0.003819,0.007683,-0.000092,0.007683,-0.003820,-89.541441,0.007683,
1040,410,0.377627,-12.994723,0.999997,0.000236,-0.002374,0.006032,-0.000476,0.006059,-0.002401,-86.766569,0.006103,
1190,680,0.067928,-11.856728,0.999998,0.000177,-0.001845,0.003828,-0.001054,0.004018,-0.002035,-79.810753,0.004018,
660,1070,2.894460,-7.262648,0.999998,0.000154,-0.003238,0.006932,-0.000165,0.006935,-0.003241,-89.071657,0.006940,
1790,400,-1.537910,-12.291218,0.999996,0.000236,-0.003712,0.007566,0.000081,0.007566,-0.003712,89.590521,0.007567,
1160,1720,0.106600,-1.568481,0.999998,0.000155,-0.001482,0.005375,0.000048,0.005375,-0.001482,89.601761,0.005552,
1750,1110,-2.678417,-6.957300,0.999997,0.000223,-0.003411,0.007359,0.000617,0.007394,-0.003447,86.733833,0.007400,
610,220,1.258817,-13.484452,0.999998,0.000206,-0.003657,0.007605,0.000252,0.007611,-0.003663,88.719963,0.007613,
1570,1510,-0.976988,-3.391578,0.999997,0.000197,-0.003899,0.007598,-0.000638,0.007634,-0.003934,-86.835926,0.007635,
970,1000,1.970594,-7.836030,0.999995,0.000267,-0.003058,0.010085,0.000325,0.010093,-0.003066,88.583822,0.010349,
590,1490,2.214685,-4.289402,0.999997,0.000219,-0.003750,0.007681,-0.000039,0.007681,-0.003750,-89.802762,0.007682,
810,370,0.981810,-12.835596,0.999997,0.000186,-0.003402,0.007317,-0.000062,0.007317,-0.003402,-89.667795,0.007323,
820,930,2.288033,-8.322438,0.999996,0.000263,-0.003516,0.008041,0.000884,0.008108,-0.003583,85.649650,0.008126,
1410,1840,-0.184764,-0.977406,0.999998,0.000166,-0.001345,0.005371,0.000175,0.005375,-0.001350,88.508204,0.005593,
1830,1670,-1.651148,-2.815562,0.999997,0.000211,-0.003732,0.007580,-0.000081,0.007580,-0.003733,-89.587813,0.007581,
580,800,2.837570,-9.049688,0.999996,0.000222,-0.003664,0.006875,0.000066,0.006875,-0.003664,89.639352,0.006880,
1260,1680,-0.048099,-1.767177,0.999998,0.000177,-0.001658,0.005310,-0.000147,0.005313,-0.001662,-88.792413,0.005436,
1670,90,-0.241376,-14.721598,0.999998,0.000169,-0.001229,0.005901,-0.001479,0.006196,-0.001523,-78.730750,0.006457,
840,1780,0.692483,-1.557617,0.999997,0.000199,-0.002543,0.006887,-0.000437,0.006907,-0.002563,-87.350695,0.006983,
720,160,0.647147,-14.207600,0.999997,0.000205,-0.002819,0.007201,0.001294,0.007366,-0.002983,82.761462,0.007410,
690,1860,0.887458,-1.234292,0.999998,0.000178,-0.003338,0.007544,-0.000905,0.007619,-0.003413,-85.280352,0.007632,
700,1680,1.382730,-2.573000,0.999996,0.000236,-0.003659,0.007588,0.000036,0.007588,-0.003660,89.818078,0.007590,
670,1430,2.049908,-4.568838,0.999997,0.000210,-0.003934,0.007751,-0.000145,0.007752,-0.003936,-89.289709,0.007753,
1060,1190,0.897387,-5.257989,0.999996,0.000212,-0.005388,0.009180,0.002387,0.009561,-0.005769,80.927029,0.009629,
1510,360,-0.546252,-13.164747,0.999997,0.000206,-0.002697,0.006420,0.000243,0.006427,-0.002703,88.476411,0.006454,
1010,1450,0.584924,-3.470229,0.999997,0.000207,-0.003844,0.007104,0.001450,0.007293,-0.004033,82.580877,0.007307,
1560,970,-2.104967,-8.045887,0.999998,0.000205,-0.003074,0.008521,-0.000798,0.008575,-0.003129,-86.080643,0.008679,
1540,780,-1.320667,-9.847279,0.999995,0.000263,-0.005394,0.009312,0.000082,0.009313,-0.005394,89.679086,0.009352,
630,1610,1.798983,-3.275574,0.999998,0.000169,-0.003763,0.007598,0.000104,0.007599,-0.003764,89.475460,0.007599,
1700,1230,-2.217243,-5.994186,0.999998,0.000185,-0.004047,0.008067,0.000876,0.008130,-0.004110,85.885496,0.008130,
1440,1350,-0.619101,-4.157335,0.999997,0.000209,-0.004763,0.007802,-0.001965,0.008102,-0.005063,-81.317661,0.008186,
1860,1590,-1.944770,-3.494784,0.999998,0.000191,-0.003732,0.007590,-0.000097,0.007591,-0.003733,-89.509726,0.007591,
1050,1930,0.097537,-0.509504,0.999998,0.000158,-0.000736,0.005030,-0.000347,0.005051,-0.000757,-86.568482,0.005448,
630,1320,2.489303,-5.496150,0.999997,0.000202,-0.003745,0.007487,-0.000351,0.007498,-0.003756,-88.210717,0.007498,
1130,1380,0.203460,-3.433302,0.999998,0.000186,-0.002712,0.005061,0.002034,0.005561,-0.003212,76.185575,0.005583,
950,1900,0.231224,-0.705538,0.999998,0.000170,-0.001270,0.005647,-0.000648,0.005707,-0.001331,-84.696341,0.005972,
840,1830,0.573404,-1.218642,0.999996,0.000211,-0.002174,0.006606,-0.000734,0.006667,-0.002235,-85.251969,0.006787,
1000,1130,1.564362,-6.403281,0.999993,0.000325,-0.004744,0.010759,-0.000059,0.010759,-0.004744,-89.783217,0.010784,
970,590,0.724095,-11.621886,0.999997,0.000226,-0.003938,0.007415,-0.001125,0.007525,-0.004048,-84.396482,0.007532,
1150,1790,0.097319,-1.194532,0.999998,0.000160,-0.001246,0.005264,-0.000006,0.005264,-0.001246,-89.949373,0.005502,
1150,1590,0.154510,-2.281222,0.999998,0.000179,-0.002105,0.005446,0.000531,0.005483,-0.002143,85.993959,0.005527,
1750,1130,-2.643475,-6.811670,0.999996,0.000226,-0.003461,0.007342,0.000603,0.007375,-0.003494,86.814824,0.007379,
1570,1490,-1.004163,-3.542604,0.999997,0.000208,-0.004022,0.007749,-0.000658,0.007785,-0.004058,-86.812429,0.007788,
1010,1840,0.244759,-1.007365,0.999998,0.000189,-0.001286,0.005563,-0.000319,0.005578,-0.001301,-87.334999,0.005836,
1370,150,-0.089477,-14.497395,0.999998,0.000155,-0.000647,0.005034,-0.000281,0.005048,-0.000661,-87.176894,0.005487,
1630,1150,-2.171343,-6.581111,0.999997,0.000216,-0.003764,0.008293,0.001024,0.008379,-0.003851,85.177619,0.008388,
1540,1080,-2.054890,-7.099128,0.999997,0.000213,-0.003044,0.008811,0.000763,0.008860,-0.003093,86.332536,0.008993,
1380,710,-0.360439,-11.256783,0.999996,0.000222,-0.003896,0.006474,0.002518,0.007053,-0.004475,77.047841,0.007138,
1420,1050,-1.661465,-7.180426,0.999984,0.000488,-0.007029,0.016982,-0.001679,0.017099,-0.007146,-86.018533,0.017176,
1840,400,-1.723814,-12.167626,0.999997,0.000205,-0.003723,0.007527,0.000105,0.007528,-0.003724,89.464679,0.007528,
1000,1690,0.432118,-1.906977,0.999997,0.000219,-0.002235,0.006192,0.000205,0.006197,-0.002240,88.605910,0.006276,
1790,1910,-0.720863,-0.887492,0.999997,0.000216,-0.002815,0.007477,0.001623,0.007727,-0.003064,81.248822,0.007781,
1160,1700,0.112517,-1.674948,0.999998,0.000163,-0.001571,0.005377,0.000087,0.005379,-0.001573,89.283339,0.005531,
1720,550,-1.588353,-11.304992,0.999995,0.000289,-0.004047,0.007793,0.000132,0.007795,-0.004048,89.359732,0.007797,
600,1430,2.320045,-4.727050,0.999997,0.000228,-0.003789,0.007644,-0.000095,0.007645,-0.003790,-89.524230,0.007645,
1540,760,-1.258815,-10.029453,0.999995,0.000259,-0.005355,0.009126,0.000250,0.009130,-0.005359,89.010935,0.009176,
1690,260,-0.846935,-13.558472,0.999998,0.000191,-0.003029,0.007187,-0.000515,0.007212,-0.003054,-87.122543,0.007240,
760,740,1.983412,-9.814973,0.999997,0.000229,-0.004279,0.008150,0.000539,0.008173,-0.004302,87.522210,0.008177,
1260,1660,-0.049742,-1.874477,0.999998,0.000183,-0.001725,0.005287,-0.000172,0.005291,-0.001729,-88.598086,0.005396,
720,1930,0.492893,-0.667600,0.999997,0.000204,-0.002448,0.006921,-0.001652,0.007204,-0.002731,-80.288676,0.007274,
1010,1430,0.601783,-3.617455,0.999996,0.000233,-0.003989,0.007186,0.001537,0.007394,-0.004196,82.310117,0.007416,
670,1850,0.992422,-1.354296,0.999997,0.000206,-0.003310,0.007685,-0.000878,0.007755,-0.003379,-85.464005,0.007776,
1660,1980,-0.180677,-0.304934,0.999998,0.000186,-0.000934,0.005717,0.001464,0.006025,-0.001242,78.120297,0.006362,
1060,1170,1.013176,-5.455356,0.999996,0.000233,-0.005010,0.009328,0.002660,0.009806,-0.005487,79.822306,0.009829,
1450,1830,-0.250688,-1.058554,0.999998,0.000180,-0.001372,0.005604,0.000285,0.005616,-0.001383,87.662761,0.005852,
1710,630,-1.726586,-10.696201,0.999997,0.000218,-0.004211,0.008005,-0.000069,0.008006,-0.004211,-89.678734,0.008009,
770,1900,0.515949,-0.827478,0.999998,0.000189,-0.002126,0.006759,-0.001379,0.006968,-0.002336,-81.374714,0.007093,
1030,280,0.287359,-13.758365,0.999998,0.000185,-0.001808,0.005804,0.000057,0.005805,-0.001809,89.569450,0.005940,
970,570,0.709950,-11.767404,0.999997,0.000211,-0.003780,0.007285,-0.001092,0.007392,-0.003887,-84.415160,0.007395,
830,1700,0.887119,-2.137907,0.999997,0.000186,-0.003045,0.007154,-0.000098,0.007155,-0.003046,-89.450724,0.007181,
1540,150,-0.250534,-14.431076,0.999998,0.000153,-0.001057,0.005717,-0.000787,0.005807,-0.001148,-83.459209,0.006151,
1370,310,-0.205839,-13.643277,0.999998,0.000185,-0.001558,0.005567,0.000053,0.005567,-0.001559,89.574506,0.005744,
870,1260,1.644201,-5.562420,0.999994,0.000271,-0.004938,0.009021,-0.000530,0.009041,-0.004958,-87.828837,0.009055,
1220,150,0.007211,-14.515325,0.999998,0.000155,-0.000691,0.004858,-0.000003,0.004858,-0.000691,-89.970744,0.005257,
1050,1910,0.116807,-0.609597,0.999998,0.000196,-0.000883,0.005145,-0.000314,0.005161,-0.000900,-87.028823,0.005514,
1490,780,-1.042858,-10.050351,0.999997,0.000236,-0.005674,0.009361,0.000832,0.009407,-0.005720,86.841206,0.009480,
1380,1290,-0.412700,-4.231627,0.999994,0.000280,-0.004642,0.007046,-0.002982,0.007763,-0.005359,-76.483248,0.007948,
630,1590,1.842777,-3.430672,0.999997,0.000187,-0.003748,0.007637,0.000110,0.007638,-0.003750,89.446606,0.007638,
630,1990,0.346232,-0.345061,0.999995,0.000259,-0.003041,0.007663,-0.002132,0.008072,-0.003450,-79.138937,0.008101,
830,1620,1.037456,-2.723235,0.999997,0.000195,-0.003572,0.007420,0.000277,0.007427,-0.003579,88.558525,0.007429,
1590,400,-0.833609,-12.744874,0.999997,0.000216,-0.003196,0.007054,0.000213,0.007059,-0.003201,88.810675,0.007069,
630,1900,0.904666,-1.062325,0.999998,0.000188,-0.003560,0.007795,-0.000823,0.007854,-0.003620,-85.877292,0.007862,
1400,350,-0.282053,-13.388942,0.999997,0.000193,-0.002004,0.005794,0.000241,0.005801,-0.002012,88.231301,0.005891,
1770,260,-1.103566,-13.400655,0.999997,0.000207,-0.003527,0.007552,-0.000377,0.007564,-0.003539,-88.052125,0.007570,
1500,1820,-0.343536,-1.156119,0.999998,0.000189,-0.001892,0.005948,0.000281,0.005958,-0.001902,87.949377,0.006087,
940,1070,2.029633,-7.174566,0.999998,0.000189,-0.002955,0.009161,-0.000620,0.009193,-0.002986,-87.079286,0.009379,
1210,1580,0.040861,-2.292634,0.999998,0.000190,-0.001885,0.005194,0.000232,0.005201,-0.001892,88.127475,0.005265,
1210,1390,0.034779,-3.181277,0.999998,0.000166,-0.001676,0.003796,0.000540,0.003849,-0.001729,84.417189,0.003855,
1470,1800,-0.320220,-1.248692,0.999997,0.000194,-0.001592,0.005879,0.000263,0.005888,-0.001601,87.987073,0.006089,
1700,970,-2.548971,-7.989644,0.999995,0.000271,-0.003255,0.007493,-0.000483,0.007514,-0.003276,-87.434427,0.007535,
1540,740,-1.199367,-10.216282,0.999997,0.000266,-0.005280,0.008977,0.000414,0.008989,-0.005292,88.337625,0.009036,
1570,1470,-1.033862,-3.700904,0.999997,0.000201,-0.004203,0.007848,-0.000678,0.007886,-0.004241,-86.790628,0.007893,
1670,260,-0.785128,-13.594386,0.999998,0.000169,-0.003062,0.007061,-0.000470,0.007082,-0.003084,-87.345427,0.007102,
1160,1680,0.116961,-1.782029,0.999998,0.000148,-0.001686,0.005402,0.000141,0.005404,-0.001689,88.861185,0.005530,
1750,580,-1.773980,-10.999086,0.999997,0.000210,-0.004026,0.007744,0.000004,0.007744,-0.004026,89.982779,0.007746,
1680,1350,-1.785350,-4.971773,0.999997,0.000244,-0.004453,0.008237,0.000325,0.008245,-0.004462,88.535144,0.008254,
1660,1960,-0.243391,-0.420054,0.999998,0.000193,-0.001236,0.005925,0.001418,0.006195,-0.001507,79.197322,0.006462,
1740,330,-1.189640,-12.944397,0.999997,0.000173,-0.003554,0.007495,-0.000082,0.007496,-0.003555,-89.577172,0.007499,
710,600,1.832226,-10.835642,0.999998,0.000184,-0.004041,0.007829,0.000045,0.007829,-0.004041,89.780882,0.007831,
1710,610,-1.679136,-10.855083,0.999996,0.000228,-0.004183,0.007928,-0.000015,0.007928,-0.004183,-89.928846,0.007932,
1160,660,0.131928,-11.862536,0.999998,0.000174,-0.002144,0.004516,-0.001423,0.004807,-0.002435,-78.429924,0.004807,
1750,1150,-2.609282,-6.663794,0.999997,0.000214,-0.003543,0.007439,0.000669,0.007480,-0.003584,86.526490,0.007482,
1380,690,-0.352272,-11.384395,0.999997,0.000192,-0.003689,0.006339,0.002325,0.006852,-0.004202,77.558824,0.006910,
1450,1810,-0.277179,-1.177555,0.999998,0.000162,-0.001527,0.005778,0.000239,0.005786,-0.001535,88.127149,0.005995,
980,1130,1.655856,-6.499464,0.999996,0.000245,-0.004532,0.010369,-0.000538,0.010389,-0.004551,-87.933836,0.010415,
1010,1410,0.613601,-3.759779,0.999996,0.000234,-0.004163,0.007341,0.001604,0.007560,-0.004382,82.211042,0.007592,
670,1870,0.913693,-1.198403,0.999996,0.000227,-0.003161,0.007599,-0.001111,0.007712,-0.003275,-84.166995,0.007742,
760,780,2.098881,-9.488102,0.999997,0.000211,-0.004203,0.008196,0.000712,0.008236,-0.004244,86.722389,0.008238,
1800,1410,-2.129019,-4.739166,0.999998,0.000183,-0.003923,0.007741,0.000186,0.007744,-0.003926,89.087261,0.007744,
1570,1220,-1.673797,-5.878277,0.999995,0.000268,-0.004930,0.009211,0.000737,0.009249,-0.004968,87.023672,0.009258,
850,1260,1.742028,-5.607946,0.999997,0.000190,-0.004764,0.008833,-0.000642,0.008863,-0.004795,-87.303165,0.008873,
1570,1960,-0.159638,-0.391124,0.999998,0.000174,-0.000886,0.005425,0.000961,0.005568,-0.001029,81.534286,0.005925,
1150,1770,0.104136,-1.300475,0.999998,0.000165,-0.001344,0.005346,0.000011,0.005346,-0.001344,89.904207,0.005561,
720,140,0.558502,-14.351114,0.999996,0.000219,-0.002635,0.007023,0.001502,0.007251,-0.002864,81.358887,0.007304,
1790,780,-2.445346,-9.359912,0.999997,0.000232,-0.003834,0.007580,-0.000591,0.007610,-0.003865,-87.045836,0.007610,
1830,1650,-1.698218,-2.965601,0.999997,0.000197,-0.003764,0.007535,-0.000102,0.007536,-0.003765,-89.480462,0.007536,
810,1620,1.106929,-2.770593,0.999998,0.000199,-0.003558,0.007434,0.000205,0.007438,-0.003562,88.929985,0.007440,
840,1760,0.739969,-1.700487,0.999997,0.000199,-0.002689,0.006955,-0.000333,0.006967,-0.002701,-88.023511,0.007025,
1370,130,-0.076857,-14.594228,0.999998,0.000161,-0.000530,0.004897,-0.000280,0.004911,-0.000544,-87.057378,0.005384,
1500,1800,-0.374284,-1.277162,0.999997,0.000209,-0.002036,0.006003,0.000215,0.006008,-0.002041,88.470009,0.006110,
810,350,0.941460,-12.981260,0.999997,0.000188,-0.003347,0.007179,-0.000009,0.007179,-0.003347,-89.948631,0.007185,
1270,160,-0.027634,-14.464041,0.999998,0.000163,-0.000656,0.004927,-0.000076,0.004928,-0.000657,-89.224221,0.005352,
1540,1520,-0.844153,-3.229833,0.999997,0.000213,-0.003788,0.007411,-0.000747,0.007460,-0.003837,-86.201536,0.007461,
760,1470,1.595809,-4.048851,0.999996,0.000243,-0.004121,0.007901,0.000099,0.007902,-0.004122,89.526924,0.007904,
1630,1130,-2.230130,-6.750079,0.999996,0.000229,-0.003553,0.008197,0.000978,0.008278,-0.003634,85.273585,0.008298,
610,1900,0.977728,-1.135966,0.999998,0.000167,-0.003645,0.007744,-0.000631,0.007779,-0.003680,-86.838628,0.007783,
1160,1660,0.121461,-1.890812,0.999998,0.000160,-0.001771,0.005423,0.000194,0.005428,-0.001776,88.453301,0.005535,
1690,300,-0.951427,-13.267204,0.999997,0.000188,-0.003220,0.007253,-0.000256,0.007259,-0.003226,-88.602703,0.007274,
1260,1640,-0.048693,-1.979373,0.999998,0.000190,-0.001775,0.005307,-0.000165,0.005311,-0.001779,-88.664920,0.005406,
1230,480,0.002289,-12.808017,0.999998,0.000169,-0.001877,0.005163,-0.000016,0.005163,-0.001877,-89.871652,0.005227,
930,1740,0.539312,-1.693899,0.999997,0.000218,-0.002339,0.006457,-0.000049,0.006458,-0.002339,-89.679746,0.006539,
1240,1770,-0.011959,-1.284442,0.999999,0.000121,-0.001320,0.005232,-0.000035,0.005232,-0.001320,-89.694572,0.005442,
1570,1450,-1.069654,-3.860628,0.999998,0.000185,-0.004348,0.007912,-0.000679,0.007949,-0.004386,-86.838384,0.007963,
1730,580,-1.693757,-11.046824,0.999996,0.000234,-0.004079,0.007817,0.000038,0.007817,-0.004079,89.819039,0.007820,
1780,1410,-2.050144,-4.697906,0.999996,0.000253,-0.003984,0.007790,0.000200,0.007793,-0.003987,89.025253,0.007794,
1540,720,-1.149043,-10.393390,0.999997,0.000234,-0.005159,0.008845,0.000560,0.008867,-0.005181,87.715180,0.008909,
1450,1790,-0.300243,-1.290343,0.999998,0.000167,-0.001651,0.005779,0.000162,0.005782,-0.001654,88.751787,0.005956,
1580,1670,-0.777637,-2.248327,0.999997,0.000203,-0.003145,0.007036,-0.000202,0.007040,-0.003149,-88.861697,0.007053,
810,1000,2.427378,-7.771515,0.999997,0.000193,-0.003033,0.007636,0.000284,0.007643,-0.003041,88.475670,0.007696,
1660,1940,-0.312821,-0.543369,0.999997,0.000218,-0.001501,0.006174,0.001382,0.006415,-0.001743,80.094410,0.006634,
700,1930,0.549790,-0.701444,0.999997,0.000199,-0.002736,0.007143,-0.001691,0.007424,-0.003017,-80.552224,0.007467,
1460,150,-0.164057,-14.467158,0.999998,0.000180,-0.000828,0.005369,-0.000513,0.005412,-0.000870,-85.302545,0.005812,
1890,120,-0.919208,-14.124698,0.999997,0.000191,-0.003557,0.008174,-0.001243,0.008304,-0.003687,-84.016897,0.008321,
1420,1010,-1.670511,-7.851911,0.999976,0.000685,-0.006958,0.017170,0.001195,0.017229,-0.007017,87.171695,0.017327,
630,1570,1.886047,-3.583231,0.999997,0.000194,-0.003755,0.007637,0.000109,0.007638,-0.003756,89.450097,0.007638,
1160,620,0.136229,-12.045916,0.999998,0.000190,-0.002164,0.004752,-0.001189,0.004951,-0.002363,-80.512044,0.004952,
630,200,1.107158,-13.706660,0.999997,0.000207,-0.003580,0.007679,0.000434,0.007696,-0.003597,87.796049,0.007701,
670,1890,0.827550,-1.049242,0.999998,0.000214,-0.003039,0.007636,-0.001381,0.007812,-0.003215,-82.745235,0.007852,
760,1220,2.258844,-6.076510,0.999997,0.000207,-0.004008,0.008032,-0.000895,0.008099,-0.004074,-85.771190,0.008099,
1540,1230,-1.481557,-5.702791,0.999997,0.000219,-0.005296,0.009583,0.000402,0.009593,-0.005307,88.453789,0.009611,
1750,1170,-2.566015,-6.512526,0.999997,0.000222,-0.003641,0.007603,0.000802,0.007659,-0.003698,85.940780,0.007661,
1700,1350,-1.875521,-5.011715,0.999997,0.000237,-0.004353,0.008135,0.000384,0.008147,-0.004365,88.241055,0.008154,
1540,970,-2.043269,-8.062565,0.999998,0.000173,-0.003102,0.008847,-0.000820,0.008903,-0.003158,-86.094000,0.009028,
1010,1390,0.632310,-3.907887,0.999996,0.000244,-0.004410,0.007566,0.001676,0.007796,-0.004640,82.180586,0.007843,
790,160,0.489426,-14.275125,0.999997,0.000208,-0.002257,0.006619,0.001188,0.006776,-0.002413,82.504126,0.006868,
920,1070,2.089156,-7.191935,0.999997,0.000212,-0.002904,0.008752,-0.000657,0.008789,-0.002940,-86.785713,0.008948,
650,1620,1.701585,-3.152465,0.999997,0.000225,-0.003772,0.007595,0.000103,0.007596,-0.003773,89.481734,0.007596,
860,1250,1.727490,-5.676416,0.999997,0.000208,-0.004806,0.008932,-0.000668,0.008965,-0.004838,-87.222547,0.008974,
1650,1100,-2.359214,-6.998734,0.999995,0.000264,-0.003257,0.007801,0.000742,0.007850,-0.003306,86.178765,0.007883,
1800,1650,-1.585686,-2.892455,0.999995,0.000245,-0.003729,0.007618,-0.000106,0.007619,-0.003730,-89.466179,0.007620,
1380,590,-0.331318,-11.999020,0.999997,0.000180,-0.002922,0.005975,0.001404,0.006191,-0.003139,81.242525,0.006192,
1710,590,-1.633261,-11.011687,0.999996,0.000241,-0.004150,0.007899,0.000043,0.007899,-0.004150,89.797265,0.007903,
1830,1630,-1.744657,-3.116616,0.999997,0.000201,-0.003766,0.007558,-0.000084,0.007558,-0.003766,-89.576212,0.007559,
1500,1780,-0.403338,-1.397837,0.999997,0.000200,-0.002178,0.006142,0.000127,0.006144,-0.002180,89.123189,0.006229,
1690,280,-0.900868,-13.413903,0.999997,0.000181,-0.003125,0.007261,-0.000393,0.007276,-0.003140,-87.836009,0.007299,
610,1880,1.071507,-1.291218,0.999998,0.000175,-0.003627,0.007742,-0.000512,0.007765,-0.003650,-87.428500,0.007770,
1570,1430,-1.100522,-4.020085,0.999997,0.000194,-0.004468,0.008061,-0.000650,0.008094,-0.004502,-87.037068,0.008111,
1540,700,-1.104577,-10.570137,0.999997,0.000233,-0.005033,0.008675,0.000658,0.008707,-0.005064,87.259132,0.008745,
1160,1640,0.125230,-1.998245,0.999998,0.000149,-0.001854,0.005413,0.000258,0.005423,-0.001863,87.968585,0.005510,
840,1740,0.779844,-1.836388,0.999998,0.000181,-0.002798,0.006934,-0.000162,0.006937,-0.002800,-89.047129,0.006980,
1380,1830,-0.158246,-1.017428,0.999998,0.000179,-0.001098,0.005312,0.000180,0.005317,-0.001103,88.395650,0.005613,
810,330,0.898383,-13.124136,0.999998,0.000190,-0.003229,0.007184,0.000066,0.007184,-0.003229,89.636840,0.007196,
1260,1620,-0.054425,-2.088355,0.999998,0.000180,-0.001819,0.005325,-0.000181,0.005329,-0.001823,-88.548762,0.005417,
1630,1110,-2.275430,-6.911344,0.999997,0.000225,-0.003353,0.007977,0.000792,0.008032,-0.003408,86.021867,0.008062,
1300,510,-0.131321,-12.613354,0.999998,0.000177,-0.002100,0.005253,0.000579,0.005299,-0.002145,85.523594,0.005331,
790,460,1.226561,-12.115611,0.999998,0.000169,-0.003729,0.007587,-0.000233,0.007592,-0.003734,-88.820579,0.007592,
1720,530,-1.546091,-11.461409,0.999996,0.000247,-0.003970,0.007800,0.000152,0.007802,-0.003972,89.258024,0.007802,
760,1200,2.314375,-6.241161,0.999997,0.000221,-0.003901,0.007967,-0.000897,0.008034,-0.003969,-85.700113,0.008034,
670,1910,0.731520,-0.892368,0.999998,0.000227,-0.002793,0.007549,-0.001651,0.007806,-0.003050,-81.146526,0.007868,
810,1700,0.952668,-2.174783,0.999998,0.000147,-0.003356,0.007238,-0.000003,0.007238,-0.003356,-89.983238,0.007244,
1720,1410,-1.804174,-4.566789,0.999997,0.000210,-0.004206,0.008021,0.000146,0.008023,-0.004208,89.317478,0.008026,
1500,150,-0.204906,-14.450953,0.999998,0.000162,-0.001244,0.005498,-0.000564,0.005545,-0.001291,-85.249183,0.005802,
1770,780,-2.370186,-9.388714,0.999996,0.000245,-0.003850,0.007671,-0.000633,0.007705,-0.003884,-86.863580,0.007705,
870,1760,0.656485,-1.651597,0.999998,0.000185,-0.002799,0.006740,-0.000183,0.006743,-0.002803,-88.904196,0.006775,
1160,80,0.020189,-14.844652,0.999998,0.000156,-0.000227,0.004626,0.000166,0.004632,-0.000232,88.046608,0.005220,
1780,930,-2.754969,-8.254687,0.999998,0.000165,-0.003417,0.007221,-0.000561,0.007250,-0.003447,-86.990935,0.007253,
1750,1610,-1.485607,-3.075473,0.999996,0.000232,-0.003738,0.007605,-0.000143,0.007606,-0.003740,-89.277793,0.007607,
1610,1920,-0.309387,-0.639499,0.999997,0.000202,-0.001368,0.005920,0.001060,0.006071,-0.001519,81.890191,0.006319,
1660,1920,-0.377234,-0.666446,0.999997,0.000216,-0.001802,0.006273,0.001234,0.006457,-0.001986,81.501352,0.006615,
730,1000,2.675334,-7.764001,0.999998,0.000176,-0.003238,0.007300,0.000271,0.007307,-0.003245,88.528337,0.007322,
1450,1770,-0.324362,-1.408348,0.999997,0.000194,-0.001775,0.005898,0.000104,0.005899,-0.001776,89.223909,0.006053,
1520,1230,-1.372831,-5.633486,0.999998,0.000180,-0.005511,0.009747,0.000173,0.009749,-0.005513,89.351536,0.009777,
1890,130,-0.978779,-14.043066,0.999997,0.000198,-0.003605,0.008038,-0.001087,0.008139,-0.003705,-84.712982,0.008150,
1010,1370,0.654385,-4.061994,0.999996,0.000265,-0.004657,0.007760,0.001741,0.008000,-0.004897,82.167981,0.008067,
630,1550,1.929331,-3.736990,0.999997,0.000190,-0.003790,0.007629,0.000076,0.007630,-0.003790,89.616395,0.007630,
1040,1060,1.668640,-7.031609,0.999984,0.000534,-0.006575,0.015979,0.001846,0.016130,-0.006725,85.351438,0.016204,
1470,160,-0.187998,-14.408286,0.999998,0.000150,-0.000922,0.005449,-0.000533,0.005493,-0.000967,-85.248867,0.005865,
1370,70,-0.030648,-14.886693,0.999999,0.000142,-0.000202,0.004697,-0.000305,0.004716,-0.000221,-86.453056,0.005322,
840,1810,0.623023,-1.356191,0.999997,0.000213,-0.002352,0.006776,-0.000648,0.006822,-0.002398,-85.962504,0.006921,
1030,1620,0.417444,-2.296183,0.999997,0.000216,-0.002463,0.006165,0.000536,0.006198,-0.002496,86.461251,0.006237,
610,200,1.181098,-13.637140,0.999997,0.000217,-0.003675,0.007566,0.000327,0.007576,-0.003685,88.334457,0.007577,
1610,780,-1.679463,-9.652852,0.999996,0.000223,-0.004836,0.008854,-0.000514,0.008873,-0.004855,-87.852444,0.008886,
630,1750,1.462392,-2.216701,0.999997,0.000206,-0.003629,0.007536,-0.000043,0.007536,-0.003629,-89.779657,0.007538,
1050,1890,0.139022,-0.714775,0.999998,0.000209,-0.001013,0.005210,-0.000296,0.005225,-0.001027,-87.282189,0.005536,
810,160,0.446202,-14.299831,0.999997,0.000196,-0.001894,0.006468,0.001150,0.006624,-0.002050,82.313615,0.006782,
840,1720,0.819666,-1.978514,0.999998,0.000168,-0.002882,0.007067,-0.000133,0.007069,-0.002884,-89.234538,0.007109,
1440,550,-0.506075,-12.066898,0.999996,0.000230,-0.003231,0.006609,0.001142,0.006740,-0.003362,83.466897,0.006740,
1570,1410,-1.136363,-4.184992,0.999998,0.000183,-0.004604,0.008229,-0.000565,0.008253,-0.004628,-87.482610,0.008274,
1450,1220,-1.011780,-5.370070,0.999997,0.000202,-0.005863,0.009908,-0.001232,0.010003,-0.005958,-85.560094,0.010064,
810,310,0.854296,-13.269103,0.999998,0.000204,-0.003066,0.007109,0.000206,0.007113,-0.003070,88.837921,0.007135,
1540,680,-1.063347,-10.740479,0.999997,0.000243,-0.004862,0.008488,0.000745,0.008529,-0.004903,86.817601,0.008561,
1800,1350,-2.283739,-5.202892,0.999996,0.000216,-0.003906,0.007630,0.000381,0.007643,-0.003918,88.108922,0.007644,
1040,710,0.543138,-11.017065,0.999996,0.000242,-0.004584,0.007525,-0.002173,0.007903,-0.004962,-80.128218,0.007989,
1260,1600,-0.050361,-2.194585,0.999998,0.000161,-0.001840,0.005220,-0.000223,0.005227,-0.001847,-88.195722,0.005301,
620,1070,3.023364,-7.274596,0.999998,0.000196,-0.003203,0.006599,-0.000136,0.006601,-0.003205,-89.206331,0.006602,
1500,1760,-0.432013,-1.521844,0.999997,0.000198,-0.002295,0.006175,0.000036,0.006175,-0.002295,89.755352,0.006243,
1710,570,-1.590377,-11.172254,0.999996,0.000255,-0.004093,0.007872,0.000121,0.007873,-0.004094,89.420719,0.007875,
700,1590,1.576968,-3.259489,0.999996,0.000247,-0.003813,0.007650,0.000149,0.007652,-0.003815,89.256829,0.007652,
1830,1610,-1.788161,-3.270345,0.999997,0.000212,-0.003812,0.007568,-0.000090,0.007569,-0.003813,-89.546585,0.007569,
970,100,0.117666,-14.721916,0.999998,0.000214,-0.000770,0.005177,0.000645,0.005247,-0.000839,83.877453,0.005637,
1550,1880,-0.317500,-0.841059,0.999998,0.000173,-0.001330,0.005851,0.000745,0.005927,-0.001407,84.136880,0.006194,
790,440,1.187939,-12.268001,0.999998,0.000168,-0.003672,0.007513,-0.000229,0.007518,-0.003676,-88.826121,0.007519,
1200,1830,0.032507,-0.979579,0.999998,0.000144,-0.000996,0.005041,-0.000002,0.005041,-0.000996,-89.980677,0.005340,
1720,510,-1.505115,-11.618187,0.999994,0.000280,-0.003918,0.007747,0.000166,0.007750,-0.003920,89.184708,0.007750,
1700,1410,-1.719662,-4.524338,0.999996,0.000232,-0.004263,0.008074,0.000104,0.008075,-0.004264,89.518353,0.008079,
1160,160,0.046602,-14.462868,0.999998,0.000162,-0.000592,0.004955,0.000154,0.004959,-0.000597,88.408713,0.005415,
680,400,1.511451,-12.309229,0.999997,0.000203,-0.003727,0.007617,-0.000106,0.007618,-0.003728,-89.465312,0.007619,
760,1180,2.367224,-6.398104,0.999997,0.000218,-0.003806,0.007852,-0.000881,0.007918,-0.003873,-85.700908,0.007919,
650,840,2.686294,-8.880365,0.999997,0.000215,-0.003548,0.007206,0.000567,0.007236,-0.003578,86.987854,0.007236,
1620,970,-2.290923,-8.013294,0.999997,0.000208,-0.003151,0.007955,-0.000706,0.008000,-0.003196,-86.378922,0.008054,
1010,1350,0.681400,-4.222732,0.999997,0.000241,-0.004860,0.008051,0.001780,0.008292,-0.005101,82.294644,0.008365,
1890,320,-1.710513,-12.630908,0.999997,0.000199,-0.003647,0.007355,0.000050,0.007355,-0.003647,89.740924,0.007355,
1660,1900,-0.444616,-0.796478,0.999997,0.000213,-0.002021,0.006433,0.001171,0.006592,-0.002180,82.259524,0.006717,
830,1260,1.835371,-5.644990,0.999996,0.000233,-0.004596,0.008673,-0.000715,0.008712,-0.004635,-86.923347,0.008718,
1480,150,-0.181483,-14.460695,0.999998,0.000174,-0.000971,0.005415,-0.000547,0.005461,-0.001017,-85.136820,0.005809,
1310,660,-0.146419,-11.843575,0.999999,0.000146,-0.002250,0.004643,0.001528,0.004966,-0.002574,78.042899,0.004968,
630,1530,1.973877,-3.889071,0.999998,0.000175,-0.003788,0.007623,0.000056,0.007624,-0.003788,89.721237,0.007624,
570,1760,1.663103,-2.321605,0.999833,0.001616,-0.005000,0.006962,0.000059,0.006963,-0.005000,89.719591,0.007180,
1570,1610,-0.837007,-2.653015,0.999998,0.000195,-0.003311,0.007120,-0.000396,0.007135,-0.003326,-87.828291,0.007140,
1630,1090,-2.314043,-7.069257,0.999996,0.000238,-0.003163,0.007893,0.000738,0.007942,-0.003212,86.197875,0.007990,
700,1640,1.471829,-2.877644,0.999996,0.000228,-0.003736,0.007587,0.000129,0.007589,-0.003738,89.345731,0.007589,
570,1940,0.902774,-0.964975,0.999990,0.000391,-0.003688,0.008381,-0.001301,0.008520,-0.003827,-83.916894,0.008534,
1860,1670,-1.764941,-2.890939,0.999997,0.000196,-0.003723,0.007504,-0.000065,0.007505,-0.003723,-89.667249,0.007505,
1540,660,-1.025814,-10.910940,0.999997,0.000222,-0.004682,0.008275,0.000806,0.008325,-0.004732,86.454948,0.008351,
840,1700,0.857350,-2.120077,0.999998,0.000170,-0.002944,0.007079,-0.000100,0.007080,-0.002945,-89.431135,0.007114,
770,520,1.418613,-11.605309,0.999996,0.000210,-0.003949,0.007761,-0.000203,0.007765,-0.003953,-89.004745,0.007765,
1780,1350,-2.204596,-5.164749,0.999997,0.000201,-0.004002,0.007713,0.000421,0.007728,-0.004017,87.946768,0.007730,
1160,60,0.010537,-14.937453,0.999998,0.000162,-0.000125,0.004544,0.000150,0.004549,-0.000130,88.165504,0.005179,
1750,1590,-1.526700,-3.226164,0.999997,0.000207,-0.003763,0.007645,-0.000149,0.007647,-0.003765,-89.249778,0.007647,
810,290,0.807266,-13.410230,0.999997,0.000202,-0.002945,0.007106,0.000345,0.007118,-0.002957,88.033891,0.007151,
1660,1550,-1.261155,-3.316098,0.999998,0.000162,-0.003878,0.007708,-0.000304,0.007716,-0.003886,-88.497640,0.007716,
1710,550,-1.546027,-11.328839,0.999995,0.000273,-0.004047,0.007789,0.000160,0.007791,-0.004049,89.225945,0.007793,
680,1590,1.652404,-3.308111,0.999995,0.000275,-0.003834,0.007647,0.000142,0.007649,-0.003836,89.293166,0.007649,
600,1070,3.084742,-7.282927,0.999998,0.000190,-0.003090,0.006443,-0.000111,0.006444,-0.003092,-89.333263,0.006446,
1430,1220,-0.892387,-5.224538,0.999996,0.000224,-0.005870,0.009573,-0.001677,0.009753,-0.006050,-83.874095,0.009847,
1260,1820,-0.031197,-1.029534,0.999998,0.000178,-0.001093,0.005095,0.000001,0.005095,-0.001093,89.986765,0.005365,
1870,1380,-2.472404,-5.120525,0.999997,0.000214,-0.003733,0.007540,0.000118,0.007541,-0.003734,89.399141,0.007542,
760,1160,2.416391,-6.554479,0.999997,0.000229,-0.003698,0.007836,-0.000912,0.007908,-0.003770,-85.508800,0.007911,
630,1730,1.516961,-2.366509,0.999997,0.000229,-0.003624,0.007520,0.000028,0.007520,-0.003624,89.853577,0.007522,
1010,1330,0.708184,-4.387071,0.999996,0.000243,-0.005098,0.008342,0.001795,0.008578,-0.005333,82.522236,0.008662,
680,380,1.466242,-12.459537,0.999997,0.000201,-0.003698,0.007562,-0.000030,0.007562,-0.003698,-89.849016,0.007562,
1840,380,-1.677587,-12.317931,0.999997,0.000214,-0.003714,0.007561,0.000087,0.007562,-0.003714,89.556676,0.007562,
1450,1750,-0.346170,-1.526606,0.999997,0.000207,-0.001867,0.005933,-0.000001,0.005933,-0.001867,-89.992319,0.006067,
1180,1830,0.051807,-0.982751,0.999999,0.000130,-0.000954,0.005076,-0.000049,0.005076,-0.000955,-89.539033,0.005395,
1830,1590,-1.830664,-3.422354,0.999997,0.000206,-0.003800,0.007614,-0.000126,0.007616,-0.003802,-89.370112,0.007616,
1660,1880,-0.510317,-0.920672,0.999997,0.000187,-0.002279,0.006549,0.001041,0.006670,-0.002400,83.364074,0.006757,
1040,1250,0.735002,-4.891694,0.999997,0.000242,-0.005780,0.008925,0.002031,0.009200,-0.006055,82.278713,0.009353,
1610,760,-1.616330,-9.831395,0.999996,0.000225,-0.004869,0.008801,-0.000363,0.008811,-0.004878,-88.481677,0.008828,
1380,150,-0.096708,-14.495185,0.999998,0.000148,-0.000627,0.005059,-0.000310,0.005075,-0.000644,-86.892774,0.005526,
1420,60,-0.035602,-14.930805,0.999998,0.000147,-0.000326,0.004729,-0.000397,0.004760,-0.000357,-85.533015,0.005302,
1160,410,0.125012,-13.148348,0.999998,0.000192,-0.001819,0.005398,-0.000231,0.005406,-0.001827,-88.172504,0.005500,
1380,350,-0.246048,-13.407881,0.999998,0.000174,-0.001753,0.005654,0.000166,0.005658,-0.001756,88.718687,0.005792,
820,1830,0.615728,-1.241071,0.999997,0.000198,-0.002339,0.006754,-0.000771,0.006819,-0.002404,-85.184727,0.006917,
1050,1030,1.620157,-7.514839,0.999974,0.000620,-0.007644,0.018400,0.000201,0.018401,-0.007645,89.557500,0.018489,
1590,1050,-2.247211,-7.377488,0.999997,0.000232,-0.002843,0.008022,0.000332,0.008032,-0.002853,88.249072,0.008144,
1550,1860,-0.355120,-0.958462,0.999998,0.000192,-0.001494,0.006018,0.000688,0.006081,-0.001556,84.812075,0.006317,
1780,1330,-2.258136,-5.318604,0.999996,0.000207,-0.003965,0.007739,0.000483,0.007759,-0.003985,87.641702,0.007760,
1790,1890,-0.816670,-1.043124,0.999997,0.000210,-0.003047,0.007645,0.001382,0.007821,-0.003223,82.751812,0.007861,
780,1510,1.428346,-3.686195,0.999998,0.000210,-0.004080,0.007831,0.000220,0.007835,-0.004084,88.944352,0.007837,
630,1710,1.565942,-2.518520,0.999997,0.000225,-0.003641,0.007567,0.000030,0.007567,-0.003641,89.847985,0.007569,
1210,160,0.016825,-14.465107,0.999998,0.000171,-0.000720,0.004920,0.000022,0.004920,-0.000721,89.781451,0.005314,
610,240,1.332111,-13.334136,0.999996,0.000253,-0.003652,0.007468,0.000162,0.007470,-0.003654,89.166581,0.007470,
1210,770,0.034669,-11.634881,0.999997,0.000193,-0.001702,0.002055,-0.000950,0.002281,-0.001929,-76.585395,0.002456,
1190,1580,0.078075,-2.303860,0.999998,0.000140,-0.001853,0.005232,0.000242,0.005241,-0.001861,88.043272,0.005313,
930,1580,0.750982,-2.781764,0.999997,0.000226,-0.003385,0.007075,0.000649,0.007115,-0.003425,86.465564,0.007116,
1250,680,-0.027942,-11.886328,0.999998,0.000136,-0.001596,0.003567,0.000496,0.003614,-0.001644,84.566997,0.003619,
1510,1220,-1.359113,-5.694667,0.999997,0.000251,-0.005551,0.009816,0.000138,0.009817,-0.005552,89.487018,0.009845,
770,1940,0.368164,-0.565819,0.999997,0.000196,-0.001535,0.006505,-0.001703,0.006851,-0.001881,-78.523870,0.007079,
1610,1900,-0.363337,-0.761233,0.999998,0.000190,-0.001614,0.006165,0.001044,0.006302,-0.001752,82.484928,0.006506,
1370,110,-0.060957,-14.694397,0.999998,0.000154,-0.000420,0.004908,-0.000305,0.004926,-0.000438,-86.737962,0.005453,
1310,160,-0.051410,-14.459787,0.999998,0.000157,-0.000686,0.004932,-0.000151,0.004936,-0.000690,-88.462466,0.005346,
810,490,1.206399,-11.936754,0.999997,0.000178,-0.003830,0.007590,-0.000320,0.007599,-0.003839,-88.398285,0.007599,
720,120,0.468856,-14.488560,0.999996,0.000214,-0.002368,0.006935,0.001725,0.007244,-0.002677,79.828749,0.007326,
1850,1000,-3.056241,-7.745106,0.999998,0.000192,-0.003149,0.006583,-0.000196,0.006587,-0.003153,-88.848327,0.006589,
1750,1570,-1.569710,-3.382732,0.999997,0.000209,-0.003801,0.007715,-0.000144,0.007716,-0.003803,-89.281909,0.007717,
1450,1730,-0.365510,-1.647530,0.999997,0.000190,-0.001992,0.006079,-0.000064,0.006080,-0.001993,-89.548320,0.006199,
1010,1310,0.748403,-4.559000,0.999997,0.000248,-0.005351,0.008606,0.001770,0.008827,-0.005572,82.884482,0.008927,
1520,1730,-0.522794,-1.741862,0.999997,0.000205,-0.002441,0.006558,-0.000008,0.006558,-0.002441,-89.950283,0.006629,
1830,1570,-1.874469,-3.575742,0.999998,0.000179,-0.003789,0.007651,-0.000096,0.007652,-0.003790,-89.519713,0.007652,
1630,1070,-2.349297,-7.226927,0.999997,0.000232,-0.003035,0.007813,0.000475,0.007833,-0.003056,87.495239,0.007896,
1840,360,-1.630564,-12.470632,0.999996,0.000242,-0.003687,0.007541,0.000073,0.007542,-0.003687,89.629633,0.007542,
650,1000,2.935373,-7.751535,0.999998,0.000180,-0.003252,0.006888,0.000227,0.006893,-0.003257,88.716172,0.006896,
1890,220,-1.395367,-13.360486,0.999997,0.000197,-0.003646,0.007299,-0.000228,0.007304,-0.003651,-88.807545,0.007304,
1420,770,-0.624442,-10.556205,0.999995,0.000246,-0.005393,0.008352,0.002321,0.008734,-0.005775,80.668711,0.008884,
1360,150,-0.082863,-14.498786,0.999998,0.000145,-0.000684,0.005011,-0.000233,0.005020,-0.000694,-87.656313,0.005441,
1470,100,-0.103157,-14.726116,0.999998,0.000183,-0.000528,0.005094,-0.000586,0.005154,-0.000588,-84.107345,0.005643,
1150,1750,0.112611,-1.409083,0.999998,0.000168,-0.001438,0.005403,0.000069,0.005404,-0.001439,89.424787,0.005597,
1050,990,1.590194,-8.241310,0.999978,0.000557,-0.006721,0.017176,-0.002916,0.017527,-0.007071,-83.142692,0.017635,
750,520,1.497307,-11.557424,0.999997,0.000205,-0.003927,0.007768,-0.000173,0.007771,-0.003929,-89.151928,0.007771,
1590,1220,-1.768174,-5.918503,0.999997,0.000250,-0.004746,0.008999,0.000847,0.009051,-0.004798,86.486145,0.009057,
1660,1860,-0.569049,-1.060709,0.999997,0.000226,-0.002482,0.006765,0.000926,0.006857,-0.002574,84.336491,0.006928,
1710,530,-1.507387,-11.484586,0.999995,0.000279,-0.003978,0.007803,0.000179,0.007805,-0.003981,89.131238,0.007806,
1590,780,-1.580448,-9.701303,0.999996,0.000219,-0.005005,0.008958,-0.000410,0.008970,-0.005017,-88.318252,0.008991,
1410,1770,-0.250184,-1.367052,0.999997,0.000213,-0.001762,0.005713,-0.000038,0.005713,-0.001762,-89.706501,0.005852,
680,360,1.416738,-12.612196,0.999996,0.000212,-0.003662,0.007566,0.000020,0.007566,-0.003662,89.898055,0.007567,
1580,940,-2.094977,-8.284034,0.999998,0.000193,-0.003428,0.008562,-0.000994,0.008643,-0.003510,-85.294618,0.008694,
1790,1870,-0.903704,-1.193166,0.999997,0.000200,-0.003190,0.007557,0.001095,0.007668,-0.003300,84.242035,0.007692,
1190,1260,0.086693,-3.606736,0.999998,0.000186,-0.002358,0.002187,0.001716,0.002762,-0.002933,71.471654,0.003292,
1360,350,-0.210405,-13.425576,0.999997,0.000197,-0.001763,0.005577,0.000223,0.005584,-0.001770,88.262896,0.005707,
1140,410,0.163245,-13.128988,0.999998,0.000192,-0.001967,0.005481,-0.000408,0.005503,-0.001989,-86.877139,0.005573,
1630,600,-1.318821,-11.130505,0.999996,0.000212,-0.004329,0.008001,0.000304,0.008009,-0.004337,88.587644,0.008018,
1060,1250,0.624067,-4.732311,0.999995,0.000282,-0.005624,0.008474,0.002599,0.008938,-0.006088,79.879328,0.009131,
1210,730,0.030944,-11.724681,0.999998,0.000153,-0.001536,0.002779,-0.000786,0.002917,-0.001675,-79.992445,0.002928,
1480,1810,-0.320925,-1.196804,0.999998,0.000187,-0.001656,0.005914,0.000285,0.005925,-0.001666,87.849476,0.006111,
1500,1740,-0.459386,-1.645814,0.999997,0.000209,-0.002407,0.006341,-0.000049,0.006341,-0.002407,-89.678709,0.006402,
1610,1880,-0.418121,-0.886665,0.999998,0.000187,-0.001791,0.006222,0.000929,0.006328,-0.001898,83.471267,0.006495,
1830,780,-2.596626,-9.295434,0.999997,0.000209,-0.003699,0.007422,-0.000451,0.007440,-0.003717,-87.680221,0.007440,
1670,1520,-1.356165,-3.575099,0.999995,0.000252,-0.004006,0.007803,-0.000269,0.007810,-0.004012,-88.696396,0.007811,
800,660,1.595549,-10.559900,0.999995,0.000254,-0.004452,0.008270,0.000043,0.008270,-0.004452,89.807316,0.008279,
1850,980,-3.041302,-7.876248,0.999999,0.000156,-0.003164,0.006524,-0.000101,0.006525,-0.003165,-89.405312,0.006526,
1360,1960,-0.046075,-0.351308,0.999998,0.000156,-0.000359,0.004768,0.000248,0.004780,-0.000371,87.232228,0.005319,
1370,90,-0.047185,-14.791662,0.999998,0.000164,-0.000320,0.004776,-0.000297,0.004793,-0.000338,-86.679836,0.005350,
1290,160,-0.039702,-14.461197,0.999998,0.000168,-0.000607,0.004922,-0.000120,0.004924,-0.000610,-88.756062,0.005369,
1400,1090,-1.438395,-6.305459,0.999850,0.001411,-0.005836,0.015194,-0.005501,0.016546,-0.007188,-76.191808,0.016594,
1540,1340,-1.138336,-4.682462,0.999997,0.000188,-0.005099,0.008789,-0.000580,0.008813,-0.005123,-87.610756,0.008852,
1010,1290,0.790487,-4.733355,0.999996,0.000244,-0.005578,0.008895,0.001658,0.009082,-0.005765,83.547322,0.009192,
1820,1790,-1.294089,-1.879013,0.999998,0.000209,-0.003561,0.007593,0.000281,0.007600,-0.003568,88.557468,0.007605,
1460,200,-0.230979,-14.192799,0.999998,0.000192,-0.001167,0.005594,-0.000429,0.005621,-0.001195,-86.382610,0.005923,
930,1000,2.085454,-7.801107,0.999997,0.000202,-0.002774,0.008894,0.000462,0.008912,-0.002792,87.736401,0.009117,
580,1490,2.252353,-4.313018,0.999997,0.000228,-0.003595,0.007761,-0.000127,0.007762,-0.003597,-89.358805,0.007769,
1610,1540,-1.084752,-3.267257,0.999997,0.000223,-0.003839,0.007570,-0.000453,0.007588,-0.003856,-87.727610,0.007589,
1840,50,-0.270503,-14.865398,0.999997,0.000231,-0.002939,0.007292,-0.002337,0.007801,-0.003447,-77.721983,0.007819,
1840,340,-1.578782,-12.622011,0.999998,0.000221,-0.003651,0.007516,0.000075,0.007517,-0.003652,89.615014,0.007518,
1360,1290,-0.326031,-4.080319,0.999997,0.000250,-0.004121,0.006200,-0.003141,0.007080,-0.005002,-74.333981,0.007279,
1150,1990,0.014859,-0.206043,0.999998,0.000139,-0.000214,0.004595,-0.000162,0.004600,-0.000219,-88.073399,0.005190,
1770,240,-1.039488,-13.552201,0.999997,0.000192,-0.003459,0.007571,-0.000510,0.007595,-0.003483,-87.356650,0.007604,
1830,1550,-1.919012,-3.729739,0.999998,0.000207,-0.003805,0.007661,-0.000082,0.007662,-0.003805,-89.587879,0.007662,
1660,1840,-0.629864,-1.194471,0.999997,0.000231,-0.002638,0.006797,0.000779,0.006861,-0.002702,85.309844,0.006912,
1490,1220,-1.245060,-5.603399,0.999995,0.000274,-0.005771,0.009968,-0.000238,0.009972,-0.005774,-89.132612,0.010013,
1140,150,0.056324,-14.508665,0.999998,0.000133,-0.000726,0.004941,0.000125,0.004944,-0.000729,88.737195,0.005338,
1540,1500,-0.871581,-3.382148,0.999997,0.000216,-0.003961,0.007554,-0.000815,0.007611,-0.004019,-85.970604,0.007615,
760,1140,2.464976,-6.713013,0.999997,0.000220,-0.003580,0.007699,-0.000770,0.007752,-0.003632,-86.111309,0.007757,
1030,1600,0.429196,-2.418077,0.999997,0.000191,-0.002587,0.006272,0.000642,0.006318,-0.002633,85.874973,0.006348,
680,120,0.578338,-14.426250,0.999995,0.000251,-0.002575,0.007453,0.001915,0.007806,-0.002928,79.549454,0.007887,
720,100,0.373049,-14.624759,0.999996,0.000213,-0.002130,0.006495,0.001726,0.006827,-0.002463,79.096013,0.006915,
940,830,1.411108,-9.426052,0.999997,0.000220,-0.005449,0.009746,0.000276,0.009751,-0.005454,88.961590,0.009774,
1120,410,0.203376,-13.105884,0.999998,0.000196,-0.001994,0.005537,-0.000425,0.005561,-0.002017,-86.781074,0.005630,
680,340,1.371070,-12.763574,0.999997,0.000212,-0.003636,0.007552,0.000006,0.007552,-0.003636,89.968368,0.007554,
1790,1850,-0.983091,-1.345935,0.999997,0.000196,-0.003339,0.007653,0.000866,0.007721,-0.003406,85.524653,0.007739,
660,1570,1.773399,-3.510072,0.999997,0.000203,-0.003842,0.007665,0.000139,0.007666,-0.003844,89.307469,0.007667,
740,70,0.218121,-14.821950,0.999998,0.000183,-0.000854,0.005979,0.001921,0.006482,-0.001358,75.323805,0.006837,
1210,710,0.032324,-11.783698,0.999998,0.000152,-0.001534,0.003144,-0.000705,0.003248,-0.001638,-81.612065,0.003248,
630,1690,1.616676,-2.670655,0.999996,0.000228,-0.003690,0.007545,0.000033,0.007545,-0.003690,89.833287,0.007546,
1030,1540,0.464148,-2.802037,0.999997,0.000211,-0.003091,0.006440,0.001031,0.006550,-0.003201,83.896163,0.006551,
1010,280,0.322378,-13.739695,0.999997,0.000186,-0.001724,0.005906,0.000136,0.005909,-0.001726,88.977347,0.006077,
1050,1080,1.546715,-6.632348,0.999984,0.000493,-0.006201,0.015732,0.003699,0.016339,-0.006808,80.681292,0.016414,
1070,820,0.615410,-10.348753,0.999996,0.000240,-0.005434,0.008363,-0.002771,0.008898,-0.005970,-79.057935,0.009070,
800,1680,1.025984,-2.346081,0.999997,0.000201,-0.003446,0.007395,0.000086,0.007396,-0.003447,89.548046,0.007401,
1500,1720,-0.488253,-1.778729,0.999997,0.000207,-0.002527,0.006426,-0.000157,0.006428,-0.002529,-88.996891,0.006477,
1850,900,-2.940430,-8.412342,0.999998,0.000176,-0.003285,0.006751,-0.000285,0.006759,-0.003293,-88.372577,0.006759,
1160,600,0.138798,-12.143188,0.999998,0.000190,-0.002157,0.004910,-0.001062,0.005066,-0.002313,-81.634314,0.005072,
970,550,0.690574,-11.911557,0.999997,0.000206,-0.003673,0.007141,-0.001014,0.007235,-0.003767,-84.689208,0.007237,
1340,1890,-0.079756,-0.692887,0.999998,0.000172,-0.000858,0.005016,0.000149,0.005020,-0.000861,88.551963,0.005369,
1060,1230,0.690896,-4.905202,0.999995,0.000257,-0.005686,0.008758,0.002447,0.009161,-0.006090,80.640268,0.009325,
910,1000,2.141986,-7.791276,0.999998,0.000185,-0.002756,0.008503,0.000435,0.008520,-0.002772,87.791589,0.008691,
1590,390,-0.817077,-12.813947,0.999997,0.000210,-0.003179,0.007029,0.000194,0.007032,-0.003183,88.913142,0.007043,
1010,1490,0.556454,-3.188654,0.999997,0.000211,-0.003454,0.006843,0.001201,0.006981,-0.003592,83.436765,0.006982,
1140,350,0.144529,-13.460471,0.999998,0.000196,-0.001763,0.005455,-0.000225,0.005462,-0.001770,-88.218395,0.005574,
570,1320,2.708839,-5.633237,0.999871,0.001436,-0.004398,0.007421,0.000163,0.007424,-0.004400,89.209135,0.007466,
1150,1970,0.022506,-0.298256,0.999998,0.000166,-0.000311,0.004657,-0.000162,0.004662,-0.000317,-88.128950,0.005210,
1460,220,-0.261164,-14.080114,0.999998,0.000183,-0.001297,0.005631,-0.000352,0.005649,-0.001315,-87.095508,0.005912,
970,1820,0.329809,-1.148620,0.999997,0.000202,-0.001815,0.005910,-0.000302,0.005922,-0.001827,-87.766256,0.006065,
1830,1530,-1.963491,-3.883294,0.999997,0.000213,-0.003820,0.007649,-0.000058,0.007649,-0.003820,-89.711119,0.007649,
1710,510,-1.466238,-11.642855,0.999995,0.000265,-0.003933,0.007756,0.000187,0.007759,-0.003936,89.082904,0.007759,
1660,1820,-0.686465,-1.332900,0.999997,0.000211,-0.002753,0.006945,0.000647,0.006988,-0.002796,86.200345,0.007034,
1650,1800,-0.712636,-1.457223,0.999997,0.000220,-0.002679,0.006953,0.000576,0.006987,-0.002714,86.587240,0.007045,
1750,1550,-1.610921,-3.535517,0.999997,0.000214,-0.003873,0.007703,-0.000150,0.007705,-0.003875,-89.257417,0.007705,
1470,1220,-1.128254,-5.501372,0.999995,0.000266,-0.005856,0.009993,-0.000675,0.010021,-0.005885,-87.565650,0.010072,
1630,1050,-2.360901,-7.382141,0.999997,0.000239,-0.002951,0.007786,0.000299,0.007794,-0.002959,88.406656,0.007869,
1670,1500,-1.395826,-3.731974,0.999996,0.000221,-0.004072,0.007856,-0.000233,0.007860,-0.004077,-88.882509,0.007862,
1580,980,-2.189707,-7.949642,0.999998,0.000191,-0.002988,0.008250,-0.000672,0.008290,-0.003028,-86.587777,0.008390,
1770,1340,-2.191222,-5.225043,0.999997,0.000185,-0.004020,0.007749,0.000472,0.007768,-0.004039,87.708554,0.007770,
1410,1730,-0.284735,-1.599271,0.999998,0.000179,-0.002005,0.005817,-0.000166,0.005820,-0.002008,-88.787936,0.005913,
1840,320,-1.530011,-12.770437,0.999997,0.000231,-0.003641,0.007476,0.000042,0.007477,-0.003641,89.784980,0.007477,
1890,210,-1.355190,-13.433742,0.999996,0.000205,-0.003660,0.007313,-0.000257,0.007319,-0.003666,-88.659322,0.007319,
1440,770,-0.732955,-10.422906,0.999996,0.000246,-0.005545,0.008778,0.001932,0.009034,-0.005801,82.452746,0.009155,
1170,100,0.023159,-14.751559,0.999998,0.000187,-0.000311,0.004719,0.000125,0.004722,-0.000314,88.577132,0.005280,
680,100,0.470291,-14.577740,0.999996,0.000242,-0.002124,0.007043,0.002100,0.007501,-0.002582,77.693149,0.007621,
1250,160,-0.014480,-14.465159,0.999998,0.000164,-0.000687,0.004907,-0.000011,0.004907,-0.000687,-89.891270,0.005314,
680,320,1.320211,-12.915139,0.999997,0.000197,-0.003627,0.007523,0.000078,0.007523,-0.003627,89.601284,0.007525,
1150,1730,0.116967,-1.517645,0.999998,0.000163,-0.001515,0.005401,0.000091,0.005402,-0.001517,89.246256,0.005573,
1110,160,0.086562,-14.449164,0.999998,0.000170,-0.000756,0.005039,0.000196,0.005046,-0.000763,88.065064,0.005440,
920,830,1.517291,-9.360513,0.999995,0.000281,-0.005238,0.009541,0.000502,0.009558,-0.005255,88.058610,0.009574,
1790,1830,-1.056270,-1.499088,0.999997,0.000211,-0.003389,0.007626,0.000671,0.007667,-0.003430,86.528963,0.007681,
850,1580,1.032573,-2.973217,0.999997,0.000208,-0.003637,0.007426,0.000384,0.007439,-0.003651,88.012474,0.007440,
720,80,0.288144,-14.747746,0.999996,0.000213,-0.001677,0.006227,0.001899,0.006660,-0.002109,77.166389,0.006807,
750,120,0.417073,-14.511053,0.999998,0.000178,-0.001466,0.006700,0.001840,0.007095,-0.001862,77.870597,0.007357,
990,900,1.474788,-8.928915,0.999996,0.000246,-0.005183,0.010519,0.000215,0.010522,-0.005186,89.215676,0.010523,
1050,1070,1.577663,-6.790133,0.999986,0.000452,-0.006660,0.016996,0.003164,0.017412,-0.007076,82.512086,0.017513,
1590,370,-0.786375,-12.955955,0.999997,0.000212,-0.003131,0.006971,0.000155,0.006974,-0.003133,89.122447,0.006986,
1210,690,0.034301,-11.847517,0.999999,0.000141,-0.001589,0.003452,-0.000611,0.003525,-0.001662,-83.187206,0.003527,
1260,150,-0.017841,-14.513617,0.999998,0.000171,-0.000625,0.004884,-0.000030,0.004885,-0.000625,-89.692698,0.005316,
790,1820,0.724817,-1.354385,0.999997,0.000198,-0.002904,0.007044,-0.000663,0.007088,-0.002948,-86.203665,0.007121,
1530,1880,-0.290654,-0.829823,0.999997,0.000193,-0.001355,0.005741,0.000627,0.005796,-0.001410,84.988051,0.006046,
960,240,0.358144,-13.929768,0.999997,0.000195,-0.001942,0.006000,0.000293,0.006011,-0.001953,87.887523,0.006132,
1460,240,-0.284232,-13.967190,0.999998,0.000191,-0.001462,0.005775,-0.000298,0.005787,-0.001474,-87.643399,0.006015,
800,1640,1.106181,-2.643416,0.999997,0.000226,-0.003525,0.007441,0.000149,0.007443,-0.003527,89.221571,0.007446,
1370,700,-0.320532,-11.373307,0.999997,0.000191,-0.003581,0.006122,0.002455,0.006708,-0.004166,76.581216,0.006773,
1040,1090,1.584625,-6.594181,0.999987,0.000559,-0.005579,0.013684,0.002728,0.014063,-0.005958,82.094159,0.014118,
740,1630,1.342936,-2.857229,0.999996,0.000228,-0.003701,0.007585,0.000131,0.007587,-0.003703,89.333883,0.007587,
1590,490,-0.971754,-12.089237,0.999997,0.000201,-0.003705,0.007432,0.000492,0.007454,-0.003727,87.474171,0.007454,
1710,490,-1.423652,-11.796977,0.999997,0.000220,-0.003880,0.007669,0.000194,0.007673,-0.003884,89.035524,0.007673,
1830,760,-2.544401,-9.443242,0.999997,0.000204,-0.003727,0.007421,-0.000438,0.007438,-0.003745,-87.751827,0.007438,
1760,630,-1.931501,-10.583504,0.999997,0.000212,-0.004000,0.007853,-0.000137,0.007855,-0.004002,-89.338083,0.007855,
840,1680,0.896946,-2.263175,0.999998,0.000161,-0.003095,0.007119,0.000044,0.007119,-0.003095,89.753087,0.007139,
800,1830,0.666773,-1.267919,0.999998,0.000176,-0.002741,0.006899,-0.000707,0.006950,-0.002792,-85.828193,0.006995,
1320,350,-0.138316,-13.463413,0.999998,0.000184,-0.001733,0.005458,0.000203,0.005464,-0.001739,88.381660,0.005583,
1770,1320,-2.246572,-5.379779,0.999996,0.000241,-0.003992,0.007813,0.000518,0.007835,-0.004015,87.490578,0.007836,
1730,1220,-2.363909,-6.108316,0.999996,0.000250,-0.003894,0.007848,0.000842,0.007908,-0.003954,85.917706,0.007908,
1660,1800,-0.741451,-1.471289,0.999997,0.000213,-0.002865,0.007010,0.000524,0.007038,-0.002893,86.973435,0.007075,
1760,670,-2.032478,-10.268687,0.999997,0.000201,-0.004046,0.007861,-0.000286,0.007868,-0.004053,-88.626006,0.007869,
1840,300,-1.473033,-12.921919,0.999997,0.000220,-0.003644,0.007521,-0.000039,0.007521,-0.003644,-89.800250,0.007522,
1590,510,-1.002174,-11.940780,0.999997,0.000189,-0.003767,0.007489,0.000502,0.007511,-0.003790,87.449554,0.007511,
1560,290,-0.559746,-13.553294,0.999997,0.000183,-0.002337,0.006582,-0.000267,0.006590,-0.002345,-88.287362,0.006681,
680,300,1.265810,-13.063250,0.999997,0.000203,-0.003599,0.007548,0.000186,0.007551,-0.003602,89.044094,0.007554,
1890,310,-1.684340,-12.705872,0.999997,0.000199,-0.003653,0.007351,0.000047,0.007351,-0.003654,89.753041,0.007351,
1090,160,0.100719,-14.443259,0.999998,0.000167,-0.000716,0.005061,0.000283,0.005074,-0.000730,87.200971,0.005487,
730,440,1.410734,-12.122839,0.999998,0.000183,-0.003740,0.007569,-0.000143,0.007571,-0.003742,-89.275264,0.007571,
1230,1580,0.001100,-2.285201,0.999998,0.000154,-0.001880,0.005166,0.000014,0.005166,-0.001880,89.883837,0.005230,
1410,1710,-0.298328,-1.714314,0.999998,0.000187,-0.002139,0.005845,-0.000263,0.005854,-0.002148,-88.114320,0.005923,
720,60,0.194510,-14.875505,0.999996,0.000239,-0.001175,0.006233,0.002158,0.006816,-0.001758,74.886346,0.007077,
1150,1710,0.125104,-1.624525,0.999998,0.000167,-0.001623,0.005399,0.000128,0.005401,-0.001625,88.960037,0.005542,
730,120,0.446014,-14.499066,0.999997,0.000217,-0.001971,0.006845,0.001801,0.007199,-0.002325,78.888439,0.007348,
1670,700,-1.728124,-10.211275,0.999997,0.000230,-0.004494,0.008303,-0.000252,0.008308,-0.004499,-88.870871,0.008318,
1050,1060,1.596008,-6.966913,0.999985,0.000501,-0.007057,0.017956,0.002488,0.018201,-0.007302,84.374281,0.018319,
1800,100,-0.511713,-14.559774,0.999997,0.000227,-0.001927,0.007424,-0.002409,0.008008,-0.002511,-76.371953,0.008192,
1480,870,-1.353703,-9.204788,0.999995,0.000277,-0.005551,0.010260,-0.000024,0.010260,-0.005551,-89.911403,0.010272,
1630,1030,-2.375186,-7.541967,0.999997,0.000220,-0.002930,0.007841,0.000043,0.007841,-0.002930,89.772308,0.007924,
1750,1530,-1.652636,-3.692228,0.999996,0.000219,-0.003931,0.007716,-0.000128,0.007718,-0.003932,-89.371739,0.007718,
1210,670,0.034819,-11.919579,0.999998,0.000143,-0.001644,0.003730,-0.000531,0.003782,-0.001696,-84.405666,0.003789,
1550,180,-0.326668,-14.250602,0.999998,0.000185,-0.001354,0.005905,-0.000723,0.005976,-0.001425,-84.369117,0.006243,
970,530,0.671415,-12.053575,0.999998,0.000194,-0.003557,0.007031,-0.000949,0.007116,-0.003641,-84.918535,0.007116,
1590,350,-0.751426,-13.094535,0.999998,0.000190,-0.003045,0.006891,0.000055,0.006891,-0.003046,89.680811,0.006907,
800,1100,2.402182,-7.002350,0.999997,0.000199,-0.003291,0.007755,-0.000716,0.007801,-0.003337,-86.307380,0.007828,
1360,1940,-0.060095,-0.448873,0.999998,0.000148,-0.000487,0.004871,0.000281,0.004885,-0.000502,87.002792,0.005375,
1500,1920,-0.178227,-0.587207,0.999998,0.000172,-0.001129,0.005393,0.000615,0.005450,-0.001186,84.658945,0.005733,
920,1250,1.422911,-5.520132,0.999992,0.000318,-0.005351,0.009440,-0.000209,0.009443,-0.005354,-89.192073,0.009471,
960,220,0.323949,-14.050036,0.999998,0.000182,-0.001801,0.005819,0.000340,0.005834,-0.001816,87.451110,0.005971,
1460,260,-0.312539,-13.849486,0.999997,0.000184,-0.001593,0.005791,-0.000223,0.005798,-0.001600,-88.272324,0.005989,
1600,1790,-0.612004,-1.458235,0.999997,0.000230,-0.002592,0.006670,0.000364,0.006684,-0.002606,87.752880,0.006738,
1590,530,-1.030969,-11.790691,0.999997,0.000171,-0.003872,0.007600,0.000541,0.007626,-0.003898,87.304728,0.007627,
1510,300,-0.464050,-13.552545,0.999997,0.000222,-0.002328,0.006261,-0.000030,0.006261,-0.002328,-89.798822,0.006329,
1230,160,0.001109,-14.467620,0.999998,0.000154,-0.000724,0.004903,-0.000007,0.004903,-0.000724,-89.932824,0.005293,
1050,460,0.381945,-12.707384,0.999997,0.000202,-0.002507,0.006095,-0.000676,0.006148,-0.002560,-85.537212,0.006176,
1670,70,-0.175548,-14.839124,0.999997,0.000196,-0.000962,0.005729,-0.001541,0.006066,-0.001300,-77.637446,0.006388,
720,1630,1.417083,-2.905055,0.999996,0.000246,-0.003717,0.007602,0.000156,0.007604,-0.003719,89.212679,0.007604,
1300,350,-0.106729,-13.473856,0.999999,0.000143,-0.001540,0.005387,0.000070,0.005388,-0.001541,89.417662,0.005550,
1760,690,-2.084603,-10.110272,0.999997,0.000216,-0.004051,0.007854,-0.000349,0.007864,-0.004061,-88.322481,0.007866,
1540,290,-0.517381,-13.575790,0.999998,0.000194,-0.002177,0.006460,-0.000237,0.006466,-0.002183,-88.426241,0.006579,
1160,580,0.138701,-12.244993,0.999998,0.000167,-0.002165,0.005027,-0.000979,0.005158,-0.002296,-82.384354,0.005169,
1830,900,-2.873412,-8.432918,0.999998,0.000196,-0.003367,0.006898,-0.000354,0.006910,-0.003380,-88.026306,0.006911,
1590,770,-1.547959,-9.787665,0.999996,0.000234,-0.005021,0.008937,-0.000321,0.008944,-0.005029,-88.682142,0.008967,
1790,560,-1.886738,-11.061649,0.999997,0.000195,-0.003895,0.007696,0.000022,0.007696,-0.003895,89.892235,0.007697,
1710,470,-1.384618,-11.951773,0.999996,0.000219,-0.003814,0.007625,0.000199,0.007628,-0.003817,89.005345,0.007628,
1590,470,-0.940948,-12.239447,0.999997,0.000215,-0.003601,0.007367,0.000469,0.007387,-0.003621,87.554517,0.007388,
840,1660,0.930807,-2.403118,0.999998,0.000149,-0.003260,0.007217,0.000178,0.007220,-0.003263,89.025130,0.007231,
1810,780,-2.522726,-9.328159,0.999997,0.000212,-0.003764,0.007491,-0.000527,0.007516,-0.003788,-87.325957,0.007516,
1540,1480,-0.899301,-3.536051,0.999997,0.000208,-0.004057,0.007655,-0.000836,0.007715,-0.004117,-85.938811,0.007720,
680,280,1.211319,-13.219078,0.999997,0.000206,-0.003592,0.007588,0.000280,0.007595,-0.003599,88.568333,0.007599,
760,1120,2.500606,-6.864842,0.999997,0.000213,-0.003416,0.007593,-0.000670,0.007634,-0.003456,-86.532171,0.007645,
1410,1070,-1.557109,-6.760997,0.999976,0.000581,-0.006773,0.017298,-0.003559,0.017814,-0.007288,-81.764529,0.017911,
960,1570,0.661460,-2.773952,0.999996,0.000232,-0.003291,0.006880,0.000739,0.006934,-0.003344,85.867711,0.006935,
1030,1520,0.474432,-2.933788,0.999997,0.000214,-0.003198,0.006501,0.001144,0.006634,-0.003331,83.360814,0.006634,
1650,1460,-1.393284,-3.998726,0.999996,0.000216,-0.004238,0.007974,-0.000220,0.007978,-0.004242,-88.967232,0.007984,
900,810,1.545763,-9.495071,0.999995,0.000294,-0.005139,0.009294,0.000466,0.009309,-0.005154,88.154014,0.009326,
1510,1040,-2.038787,-7.447623,0.999998,0.000181,-0.002781,0.009273,0.000183,0.009276,-0.002784,89.128637,0.009520,
710,1990,0.234910,-0.285166,0.999996,0.000221,-0.001459,0.006474,-0.002242,0.007064,-0.002049,-75.261929,0.007268,
970,510,0.649625,-12.198205,0.999997,0.000223,-0.003405,0.006952,-0.000868,0.007024,-0.003478,-85.240387,0.007024,
1580,1360,-1.290293,-4.638369,0.999997,0.000200,-0.004888,0.008621,-0.000313,0.008628,-0.004895,-88.674253,0.008654,
650,1380,2.254763,-4.998314,0.999997,0.000208,-0.003872,0.007623,-0.000293,0.007631,-0.003880,-88.543315,0.007631,
970,1780,0.388602,-1.390050,0.999996,0.000224,-0.002092,0.006102,-0.000156,0.006104,-0.002095,-88.913113,0.006204,
1590,330,-0.714876,-13.231982,0.999997,0.000215,-0.002929,0.006940,-0.000038,0.006940,-0.002929,-89.777614,0.006969,
800,1080,2.437530,-7.159433,0.999997,0.000206,-0.003178,0.007669,-0.000508,0.007693,-0.003202,-87.324794,0.007729,
1410,1690,-0.313737,-1.833587,0.999997,0.000207,-0.002227,0.005942,-0.000324,0.005955,-0.002240,-87.731282,0.006016,
1060,1140,1.210291,-5.757182,0.999993,0.000281,-0.004389,0.010134,0.003855,0.011094,-0.005349,76.017991,0.011096,
1500,1180,-1.487964,-6.055154,0.999995,0.000279,-0.005257,0.010058,0.000465,0.010072,-0.005271,88.260709,0.010076,
1360,1920,-0.073428,-0.547549,0.999999,0.000123,-0.000596,0.004952,0.000239,0.004962,-0.000607,87.538320,0.005414,
1350,160,-0.084628,-14.451050,0.999998,0.000172,-0.000782,0.005059,-0.000189,0.005065,-0.000788,-88.151071,0.005451,
990,280,0.356349,-13.721571,0.999998,0.000172,-0.001796,0.006006,0.000169,0.006009,-0.001800,88.757758,0.006168,
1780,900,-2.705730,-8.473950,0.999997,0.000196,-0.003481,0.007277,-0.000579,0.007308,-0.003512,-86.927953,0.007310,
580,1580,2.052093,-3.626065,0.999998,0.000190,-0.003640,0.007647,0.000022,0.007647,-0.003641,89.889128,0.007650,
1160,300,0.097958,-13.742385,0.999998,0.000148,-0.001345,0.005304,0.000002,0.005304,-0.001345,89.985192,0.005514,
1460,700,-0.706404,-10.905054,0.999997,0.000244,-0.004865,0.008050,0.001680,0.008265,-0.005080,82.707032,0.008337,
870,1000,2.251699,-7.782101,0.999996,0.000240,-0.002889,0.008001,0.000359,0.008013,-0.002901,88.113422,0.008113,
1160,560,0.139142,-12.346387,0.999998,0.000156,-0.002175,0.005085,-0.000852,0.005184,-0.002274,-83.393379,0.005197,
1580,1790,-0.559322,-1.428916,0.999997,0.000212,-0.002540,0.006556,0.000332,0.006568,-0.002552,87.911918,0.006622,
730,100,0.356145,-14.635534,0.999996,0.000234,-0.001696,0.006413,0.001778,0.006786,-0.002069,78.160771,0.006956,
1770,560,-1.808022,-11.108487,0.999997,0.000188,-0.003939,0.007724,0.000028,0.007724,-0.003939,89.860693,0.007724,
1590,550,-1.060667,-11.636247,0.999997,0.000191,-0.004013,0.007719,0.000558,0.007745,-0.004040,87.281457,0.007748,
1240,350,-0.014749,-13.491653,0.999998,0.000157,-0.001605,0.005287,0.000080,0.005288,-0.001606,89.337977,0.005422,
610,460,1.906941,-11.679173,0.999997,0.000216,-0.003744,0.007591,-0.000104,0.007592,-0.003745,-89.476213,0.007592,
900,790,1.475337,-9.680240,0.999995,0.000274,-0.005203,0.009212,0.000275,0.009217,-0.005208,88.905879,0.009243,
1590,750,-1.488259,-9.970142,0.999996,0.000243,-0.005018,0.008886,-0.000173,0.008888,-0.005020,-89.288855,0.008913,
1090,1900,0.096393,-0.648803,0.999998,0.000148,-0.000683,0.005083,-0.000283,0.005097,-0.000697,-87.191834,0.005527,
790,320,0.944557,-13.155664,0.999998,0.000219,-0.003301,0.007269,0.000140,0.007271,-0.003302,89.241809,0.007281,
1210,650,0.035340,-11.996626,0.999999,0.000152,-0.001706,0.003951,-0.000457,0.003988,-0.001743,-85.414103,0.003998,
1150,1690,0.131822,-1.731383,0.999998,0.000153,-0.001714,0.005445,0.000192,0.005450,-0.001719,88.467518,0.005572,
1150,740,0.151450,-11.476544,0.999997,0.000197,-0.002629,0.004195,-0.002590,0.005066,-0.003500,-71.400724,0.005188,
1400,1100,-1.409408,-6.161190,0.999986,0.000470,-0.005274,0.013890,-0.005598,0.015405,-0.006790,-74.853235,0.015441,
1530,1040,-2.092267,-7.452760,0.999998,0.000183,-0.002728,0.008764,0.000212,0.008768,-0.002732,88.942115,0.008974,
1670,1480,-1.435985,-3.891126,0.999995,0.000249,-0.004134,0.007890,-0.000197,0.007893,-0.004137,-89.063749,0.007896,
1630,1010,-2.363751,-7.697599,0.999997,0.000214,-0.002933,0.007780,-0.000260,0.007787,-0.002939,-88.611296,0.007864,
840,1640,0.965716,-2.550265,0.999998,0.000160,-0.003421,0.007335,0.000245,0.007341,-0.003427,88.698318,0.007346,
970,490,0.631367,-12.336459,0.999997,0.000209,-0.003214,0.006844,-0.000774,0.006903,-0.003273,-85.625131,0.006906,
1830,700,-2.385665,-9.896861,0.999998,0.000191,-0.003807,0.007545,-0.000305,0.007553,-0.003815,-88.464286,0.007553,
1250,1260,-0.038221,-3.526255,0.999998,0.000185,-0.002273,0.001676,-0.000836,0.001845,-0.002443,-78.525175,0.002547,
1360,1900,-0.087049,-0.645640,0.999998,0.000141,-0.000709,0.005073,0.000247,0.005083,-0.000720,87.560008,0.005501,
1500,1160,-1.586006,-6.255009,0.999995,0.000263,-0.004905,0.010051,0.000676,0.010082,-0.004936,87.417878,0.010082,
710,1970,0.333224,-0.414623,0.999996,0.000217,-0.002028,0.006429,-0.001893,0.006833,-0.002432,-77.943515,0.006927,
770,1820,0.782554,-1.383184,0.999998,0.000172,-0.002875,0.007184,-0.000732,0.007237,-0.002928,-85.857955,0.007281,
680,260,1.149684,-13.369438,0.999998,0.000193,-0.003535,0.007588,0.000420,0.007603,-0.003551,87.839452,0.007609,
1710,450,-1.344742,-12.104269,0.999997,0.000208,-0.003735,0.007580,0.000187,0.007583,-0.003738,89.053426,0.007583,
800,1060,2.452768,-7.310753,0.999997,0.000201,-0.003066,0.007616,-0.000279,0.007623,-0.003073,-88.502704,0.007671,
1590,450,-0.909417,-12.388944,0.999997,0.000225,-0.003448,0.007271,0.000384,0.007285,-0.003462,87.949022,0.007288,
1580,1340,-1.339947,-4.813605,0.999996,0.000208,-0.005007,0.008745,-0.000168,0.008747,-0.005009,-89.299030,0.008777,
1050,1870,0.158345,-0.819128,0.999998,0.000186,-0.001168,0.005301,-0.000255,0.005311,-0.001178,-87.743857,0.005578,
1750,1510,-1.696561,-3.846217,0.999996,0.000216,-0.003960,0.007777,-0.000080,0.007778,-0.003961,-89.609977,0.007778,
630,1380,2.332281,-5.038719,0.999996,0.000226,-0.003810,0.007559,-0.000249,0.007565,-0.003816,-88.748423,0.007565,
1590,310,-0.676835,-13.374211,0.999997,0.000224,-0.002847,0.006798,-0.000115,0.006799,-0.002848,-89.315310,0.006829,
1410,1670,-0.329571,-1.953899,0.999997,0.000189,-0.002328,0.005956,-0.000429,0.005978,-0.002350,-87.045542,0.006023,
1460,680,-0.681467,-11.063744,0.999995,0.000276,-0.004625,0.007827,0.001652,0.008042,-0.004841,82.571073,0.008098,
1370,160,-0.099006,-14.444960,0.999998,0.000158,-0.000720,0.005111,-0.000268,0.005124,-0.000732,-87.369515,0.005542,
1540,1460,-0.924726,-3.689586,0.999997,0.000207,-0.004162,0.007739,-0.000838,0.007798,-0.004220,-85.994087,0.007807,
1150,1950,0.031119,-0.392238,0.999998,0.000167,-0.000409,0.004735,-0.000159,0.004740,-0.000414,-88.235820,0.005250,
1160,280,0.088713,-13.847452,0.999998,0.000164,-0.001239,0.005283,0.000027,0.005283,-0.001239,89.760585,0.005526,
1710,500,-1.444744,-11.720251,0.999995,0.000246,-0.003908,0.007714,0.000192,0.007717,-0.003911,89.053742,0.007718,
830,1820,0.619376,-1.297330,0.999997,0.000208,-0.002269,0.006771,-0.000736,0.006830,-0.002329,-85.376080,0.006945,
1890,200,-1.316279,-13.507091,0.999997,0.000203,-0.003668,0.007352,-0.000289,0.007359,-0.003675,-88.498561,0.007359,
870,1880,0.385982,-0.872496,0.999997,0.000202,-0.001853,0.006078,-0.000812,0.006161,-0.001935,-84.215908,0.006301,
730,80,0.270858,-14.755800,0.999996,0.000210,-0.001344,0.006107,0.001855,0.006544,-0.001780,76.768671,0.006766,
1080,1570,0.315610,-2.503932,0.999997,0.000214,-0.002576,0.005980,0.000888,0.006071,-0.002668,84.135556,0.006086,
1590,730,-1.429876,-10.146379,0.999996,0.000226,-0.004966,0.008773,-0.000019,0.008773,-0.004966,-89.922725,0.008799,
1060,1130,1.274955,-5.854335,0.999994,0.000274,-0.004420,0.010715,0.004324,0.011863,-0.005568,75.129176,0.011870,
1150,1670,0.136502,-1.843276,0.999998,0.000156,-0.001832,0.005452,0.000247,0.005461,-0.001840,88.056449,0.005557,
1220,350,0.018823,-13.491941,0.999998,0.000189,-0.001624,0.005288,-0.000082,0.005289,-0.001625,-89.322681,0.005418,
1260,1580,-0.052706,-2.297757,0.999998,0.000158,-0.001855,0.005188,-0.000234,0.005195,-0.001863,-88.101495,0.005264,
1330,160,-0.068125,-14.456244,0.999999,0.000116,-0.000818,0.004980,-0.000167,0.004985,-0.000823,-88.354819,0.005345,
1630,990,-2.351326,-7.853500,0.999996,0.000230,-0.003031,0.007761,-0.000379,0.007775,-0.003044,-87.993562,0.007835,
1750,1490,-1.740725,-4.004103,0.999997,0.000200,-0.003989,0.007795,-0.000045,0.007795,-0.003989,-89.780636,0.007796,
1390,1120,-1.283885,-5.738855,0.999989,0.000403,-0.003552,0.011497,-0.005872,0.013516,-0.005572,-71.015892,0.013586,
730,420,1.370627,-12.275850,0.999998,0.000230,-0.003704,0.007585,-0.000121,0.007586,-0.003705,-89.386778,0.007587,
1610,1520,-1.116662,-3.421917,0.999997,0.000221,-0.003985,0.007747,-0.000447,0.007764,-0.004002,-87.819667,0.007765,
680,80,0.370236,-14.710221,0.999996,0.000222,-0.001573,0.007115,0.002641,0.007855,-0.002313,74.348581,0.008073,
580,1480,2.276075,-4.389785,0.999996,0.000240,-0.003500,0.007772,-0.000070,0.007773,-0.003501,-89.641842,0.007786,
1850,1400,-2.345206,-4.925891,0.999996,0.000225,-0.003813,0.007557,0.000182,0.007560,-0.003816,89.083723,0.007560,
920,470,0.779195,-12.350596,0.999997,0.000232,-0.003371,0.007113,-0.000556,0.007142,-0.003400,-86.970557,0.007145,
1310,1560,-0.151069,-2.440795,0.999997,0.000187,-0.002148,0.005393,-0.000630,0.005446,-0.002200,-85.253968,0.005479,
1210,630,0.037187,-12.077428,0.999998,0.000158,-0.001766,0.004229,-0.000418,0.004258,-0.001795,-86.027888,0.004275,
1670,330,-0.955799,-13.087044,0.999997,0.000190,-0.003319,0.007328,-0.000071,0.007328,-0.003320,-89.619094,0.007339,
1680,710,-1.799307,-10.107050,0.999998,0.000208,-0.004472,0.008261,-0.000346,0.008270,-0.004482,-88.443894,0.008280,
1660,1350,-1.696196,-4.929408,0.999997,0.000233,-0.004559,0.008364,0.000260,0.008369,-0.004564,88.848247,0.008381,
1520,1590,-0.694720,-2.677129,0.999998,0.000176,-0.003296,0.006993,-0.000614,0.007030,-0.003333,-86.598802,0.007033,
680,240,1.084925,-13.522660,0.999998,0.000189,-0.003472,0.007587,0.000542,0.007613,-0.003498,87.201687,0.007621,
920,1690,0.637851,-2.041711,0.999997,0.000200,-0.002584,0.006642,0.000041,0.006642,-0.002584,89.745888,0.006697,
1430,1900,-0.144296,-0.669329,0.999998,0.000172,-0.000962,0.005278,0.000407,0.005304,-0.000988,86.285562,0.005641,
1620,1350,-1.510432,-4.834450,0.999996,0.000242,-0.004757,0.008522,0.000073,0.008523,-0.004757,89.685480,0.008542,
1050,1850,0.181579,-0.927611,0.999998,0.000189,-0.001300,0.005359,-0.000202,0.005365,-0.001307,-88.263619,0.005595,
760,1100,2.534784,-7.016239,0.999996,0.000232,-0.003305,0.007544,-0.000653,0.007583,-0.003345,-86.565533,0.007601,
800,1040,2.467123,-7.463036,0.999996,0.000216,-0.003023,0.007647,-0.000198,0.007650,-0.003027,-88.937218,0.007706,
710,1950,0.423205,-0.541520,0.999996,0.000235,-0.002490,0.006768,-0.001729,0.007080,-0.002802,-79.760208,0.007131,
1890,190,-1.276724,-13.580572,0.999997,0.000206,-0.003661,0.007478,-0.000392,0.007491,-0.003675,-87.987139,0.007492,
1160,540,0.138848,-12.449819,0.999998,0.000167,-0.002173,0.005221,-0.000761,0.005299,-0.002250,-84.184199,0.005319,
1160,260,0.084402,-13.953656,0.999998,0.000150,-0.001148,0.005208,0.000033,0.005208,-0.001148,89.706480,0.005473,
1460,660,-0.658318,-11.219291,0.999995,0.000251,-0.004384,0.007643,0.001606,0.007853,-0.004595,82.524481,0.007891,
1820,1950,-0.582955,-0.624851,0.999994,0.000315,-0.002756,0.007783,0.001914,0.008120,-0.003093,80.017006,0.008197,
1540,1560,-0.799472,-2.941058,0.999998,0.000203,-0.003467,0.007152,-0.000634,0.007190,-0.003504,-86.593756,0.007191,
1590,710,-1.378141,-10.322932,0.999996,0.000229,-0.004903,0.008692,0.000125,0.008693,-0.004905,89.471221,0.008717,
840,1620,1.001961,-2.699420,0.999997,0.000186,-0.003559,0.007395,0.000298,0.007403,-0.003567,88.444448,0.007405,
1410,1220,-0.772843,-5.057119,0.999997,0.000217,-0.005720,0.009013,-0.002194,0.009332,-0.006040,-81.706978,0.009466,
1230,680,0.002299,-11.899437,0.999998,0.000165,-0.001572,0.003530,-0.000046,0.003531,-0.001573,-89.488844,0.003538,
1590,430,-0.879650,-12.532464,0.999997,0.000198,-0.003315,0.007194,0.000312,0.007204,-0.003324,88.300943,0.007211,
1500,790,-1.131854,-9.909173,0.999995,0.000271,-0.005683,0.009512,0.000548,0.009531,-0.005702,87.937624,0.009593,
1150,1650,0.142509,-1.951233,0.999998,0.000155,-0.001909,0.005451,0.000319,0.005465,-0.001923,87.521876,0.005544,
1260,1540,-0.053707,-2.504371,0.999998,0.000149,-0.001910,0.005061,-0.000281,0.005073,-0.001922,-87.692021,0.005122,
1600,430,-0.913168,-12.510727,0.999998,0.000169,-0.003365,0.007258,0.000305,0.007267,-0.003373,88.358588,0.007273,
1550,1040,-2.146059,-7.455032,0.999998,0.000194,-0.002700,0.008465,0.000245,0.008471,-0.002705,88.745514,0.008653,
640,1570,1.848389,-3.558975,0.999997,0.000226,-0.003760,0.007653,0.000123,0.007654,-0.003761,89.381053,0.007655,
1390,1130,-1.227482,-5.632408,0.999988,0.000428,-0.003320,0.010317,-0.005425,0.012211,-0.005214,-70.747158,0.012255,
1630,1190,-2.047689,-6.243876,0.999998,0.000184,-0.004146,0.008519,0.001015,0.008599,-0.004226,85.445636,0.008600,
1750,1470,-1.785858,-4.159665,0.999997,0.000209,-0.004017,0.007807,0.000000,0.007807,-0.004017,89.999250,0.007809,
1280,350,-0.076404,-13.479769,0.999998,0.000157,-0.001533,0.005359,0.000081,0.005360,-0.001534,89.330345,0.005521,
630,800,2.661533,-9.142528,0.999997,0.000187,-0.003609,0.007312,0.000462,0.007331,-0.003628,87.580450,0.007332,
1030,1480,0.496305,-3.196151,0.999996,0.000241,-0.003361,0.006658,0.001308,0.006826,-0.003529,82.683175,0.006827,
1350,1560,-0.237985,-2.499732,0.999997,0.000179,-0.002219,0.005671,-0.000719,0.005736,-0.002284,-84.832330,0.005775,
1210,610,0.038717,-12.164046,0.999998,0.000144,-0.001810,0.004429,-0.000406,0.004455,-0.001837,-86.292978,0.004478,
750,340,1.119177,-12.927403,0.999998,0.000168,-0.003368,0.007431,0.000135,0.007433,-0.003370,89.285066,0.007443,
1510,1760,-0.455955,-1.537301,0.999997,0.000204,-0.002334,0.006247,0.000052,0.006247,-0.002334,89.651838,0.006313,
1500,1140,-1.683569,-6.454445,0.999997,0.000223,-0.004525,0.010015,0.000767,0.010056,-0.004566,86.987507,0.010070,
1670,370,-1.041935,-12.796034,0.999998,0.000175,-0.003444,0.007335,0.000075,0.007335,-0.003444,89.602532,0.007340,
1270,280,-0.050487,-13.854908,0.999998,0.000138,-0.001268,0.005258,0.000021,0.005258,-0.001268,89.819602,0.005488,
680,60,0.235609,-14.862238,0.999997,0.000221,-0.000934,0.006843,0.002803,0.007748,-0.001838,72.108749,0.008097,
1150,1930,0.038930,-0.488971,0.999998,0.000150,-0.000518,0.004817,-0.000157,0.004822,-0.000523,-88.311399,0.005291,
1590,290,-0.639192,-13.505970,0.999997,0.000201,-0.002719,0.006764,-0.000226,0.006769,-0.002724,-88.636057,0.006812,
680,220,1.014642,-13.674074,0.999998,0.000188,-0.003384,0.007547,0.000722,0.007594,-0.003432,86.238830,0.007606,
870,1380,1.307750,-4.505233,0.999996,0.000217,-0.004747,0.008501,0.000289,0.008508,-0.004753,88.749668,0.008527,
970,470,0.615777,-12.469303,0.999997,0.000219,-0.003052,0.006771,-0.000648,0.006813,-0.003095,-86.240813,0.006823,
1890,180,-1.231699,-13.656532,0.999997,0.000209,-0.003675,0.007550,-0.000489,0.007571,-0.003697,-87.510949,0.007571,
1410,1420,-0.440921,-3.513032,0.999996,0.000224,-0.003571,0.006589,-0.001763,0.006886,-0.003868,-80.432371,0.006903,
1840,1590,-1.870217,-3.446543,0.999998,0.000217,-0.003794,0.007612,-0.000118,0.007614,-0.003795,-89.406796,0.007614,
1160,240,0.076829,-14.056312,0.999998,0.000156,-0.001048,0.005140,0.000063,0.005141,-0.001048,89.412592,0.005433,
1460,640,-0.640754,-11.369364,0.999996,0.000227,-0.004149,0.007377,0.001510,0.007571,-0.004343,82.657923,0.007598,
760,1080,2.563522,-7.168016,0.999996,0.000228,-0.003205,0.007453,-0.000410,0.007469,-0.003221,-87.799032,0.007492,
1540,1440,-0.952170,-3.844462,0.999997,0.000215,-0.004302,0.007874,-0.000845,0.007933,-0.004361,-86.050308,0.007946,
1020,1250,0.850763,-5.035544,0.999995,0.000273,-0.005811,0.009266,0.001624,0.009439,-0.005984,83.920283,0.009551,
1880,490,-2.074091,-11.387311,0.999998,0.000171,-0.003700,0.007587,0.000032,0.007587,-0.003700,89.839584,0.007588,
1050,1580,0.389837,-2.505406,0.999997,0.000218,-0.002559,0.006168,0.000741,0.006230,-0.002621,85.179062,0.006256,
1410,1900,-0.125683,-0.661177,0.999998,0.000160,-0.000925,0.005164,0.000324,0.005181,-0.000942,86.959776,0.005520,
640,1990,0.317709,-0.316947,0.999995,0.000263,-0.002341,0.007458,-0.002396,0.008013,-0.002895,-76.972074,0.008115,
1590,690,-1.330456,-10.493817,0.999996,0.000237,-0.004842,0.008560,0.000241,0.008564,-0.004846,88.971270,0.008589,
1830,1400,-2.268857,-4.882775,0.999996,0.000220,-0.003829,0.007642,0.000178,0.007645,-0.003832,89.109998,0.007645,
1150,1630,0.146535,-2.062111,0.999998,0.000151,-0.001980,0.005437,0.000380,0.005457,-0.001999,87.071326,0.005521,
1260,350,-0.044867,-13.485473,0.999998,0.000158,-0.001556,0.005308,0.000125,0.005310,-0.001558,88.960262,0.005459,
800,1020,2.470102,-7.618015,0.999996,0.000222,-0.003005,0.007623,0.000109,0.007625,-0.003006,89.413255,0.007681,
1880,970,-3.129332,-7.924842,0.999997,0.000201,-0.003061,0.006180,0.000000,0.006180,-0.003061,-89.998409,0.006180,
1380,1140,-1.136660,-5.359215,0.999996,0.000250,-0.002712,0.008492,-0.005245,0.010564,-0.004785,-68.442493,0.010580,
1400,1470,-0.390142,-3.153406,0.999996,0.000236,-0.003181,0.006284,-0.001492,0.006514,-0.003411,-81.251394,0.006516,
1210,680,0.034283,-11.883551,0.999998,0.000145,-0.001617,0.003613,-0.000568,0.003674,-0.001678,-83.878265,0.003679,
1590,410,-0.851063,-12.675115,0.999997,0.000199,-0.003220,0.007094,0.000244,0.007099,-0.003225,88.647828,0.007109,
1690,800,-2.101625,-9.341183,0.999997,0.000226,-0.004192,0.008234,-0.000776,0.008283,-0.004240,-86.440634,0.008283,
710,1930,0.521014,-0.684334,0.999997,0.000216,-0.002718,0.007022,-0.001632,0.007288,-0.002984,-80.739002,0.007328,
1620,1360,-1.483756,-4.749456,0.999996,0.000232,-0.004735,0.008485,0.000023,0.008485,-0.004735,89.900228,0.008504,
1750,1450,-1.830518,-4.316521,0.999998,0.000177,-0.004020,0.007835,0.000051,0.007835,-0.004021,89.755571,0.007836,
1050,1830,0.197936,-1.033122,0.999998,0.000191,-0.001450,0.005458,-0.000142,0.005461,-0.001453,-88.823326,0.005656,
1510,1740,-0.484910,-1.661123,0.999997,0.000217,-0.002420,0.006389,-0.000027,0.006389,-0.002420,-89.824740,0.006451,
840,1600,1.033723,-2.850062,0.999997,0.000210,-0.003618,0.007409,0.000337,0.007419,-0.003628,88.251788,0.007420,
1670,810,-2.048891,-9.285217,0.999997,0.000210,-0.004242,0.008368,-0.000811,0.008420,-0.004294,-86.333826,0.008421,
920,670,1.058047,-10.815319,0.999997,0.000204,-0.004780,0.008388,-0.000747,0.008430,-0.004823,-86.762101,0.008459,
1500,600,-0.765743,-11.523698,0.999997,0.000211,-0.004114,0.007546,0.001154,0.007659,-0.004227,84.400096,0.007673,
1160,520,0.137507,-12.555686,0.999998,0.000187,-0.002136,0.005276,-0.000679,0.005338,-0.002198,-84.805464,0.005366,
1570,660,-1.166695,-10.811757,0.999995,0.000282,-0.004717,0.008370,0.000532,0.008392,-0.004739,87.678023,0.008415,
680,440,1.600052,-12.003588,0.999996,0.000236,-0.003748,0.007588,-0.000128,0.007589,-0.003749,-89.354886,0.007589,
1860,490,-1.999316,-11.434336,0.999997,0.000192,-0.003761,0.007603,0.000061,0.007603,-0.003761,89.690148,0.007603,
1400,1210,-0.768890,-5.048656,0.999997,0.000205,-0.005566,0.008715,-0.002325,0.009084,-0.005935,-80.983969,0.009225,
1870,1550,-2.069356,-3.823731,0.999997,0.000198,-0.003760,0.007629,-0.000042,0.007629,-0.003760,-89.786517,0.007629,
1160,220,0.070018,-14.158928,0.999998,0.000163,-0.000956,0.005099,0.000087,0.005101,-0.000958,89.174789,0.005422,
1150,1910,0.046268,-0.585767,0.999999,0.000138,-0.000623,0.004896,-0.000142,0.004900,-0.000626,-88.529643,0.005333,
670,1990,0.277365,-0.294337,0.999997,0.000228,-0.000934,0.007108,-0.002964,0.008082,-0.001909,-71.799889,0.008449,
1590,270,-0.595172,-13.644725,0.999997,0.000192,-0.002610,0.006624,-0.000320,0.006635,-0.002621,-88.017905,0.006683,
1450,160,-0.170189,-14.415935,0.999998,0.000182,-0.000960,0.005381,-0.000463,0.005415,-0.000994,-85.845298,0.005765,
1590,670,-1.282139,-10.665904,0.999996,0.000226,-0.004743,0.008450,0.000345,0.008459,-0.004752,88.501856,0.008481,
1460,620,-0.624353,-11.513472,0.999996,0.000222,-0.003967,0.007244,0.001440,0.007426,-0.004149,82.797591,0.007443,
1820,1590,-1.792761,-3.398230,0.999997,0.000197,-0.003790,0.007609,-0.000123,0.007611,-0.003792,-89.383362,0.007611,
1560,1330,-1.265978,-4.840206,0.999995,0.000261,-0.005110,0.008856,-0.000319,0.008863,-0.005117,-88.691746,0.008898,
1190,160,0.030088,-14.464066,0.999998,0.000159,-0.000680,0.004943,0.000088,0.004944,-0.000682,89.099026,0.005359,
1030,1580,0.439455,-2.543515,0.999996,0.000231,-0.002743,0.006337,0.000767,0.006401,-0.002807,85.208270,0.006418,
1260,1520,-0.052788,-2.604610,0.999998,0.000162,-0.001909,0.004983,-0.000308,0.004997,-0.001923,-87.449752,0.005041,
1160,100,0.027037,-14.752500,0.999998,0.000173,-0.000313,0.004725,0.000133,0.004728,-0.000317,88.494258,0.005286,
730,340,1.188288,-12.885119,0.999997,0.000207,-0.003560,0.007487,0.000061,0.007487,-0.003560,89.684989,0.007490,
1380,1150,-1.066000,-5.278624,0.999994,0.000292,-0.002945,0.007812,-0.004636,0.009534,-0.004667,-69.621755,0.009535,
810,1820,0.667735,-1.323078,0.999997,0.000201,-0.002606,0.006898,-0.000684,0.006947,-0.002655,-85.902485,0.007011,
1450,1360,-0.654062,-4.129549,0.999996,0.000242,-0.004739,0.007877,-0.001810,0.008131,-0.004993,-81.996664,0.008202,
1480,790,-1.017181,-10.008232,0.999997,0.000213,-0.005733,0.009454,0.000942,0.009512,-0.005791,86.464440,0.009587,
1570,840,-1.692290,-9.197404,0.999997,0.000199,-0.004874,0.009218,-0.000786,0.009261,-0.004918,-86.816859,0.009267,
1160,350,0.111515,-13.472478,0.999998,0.000143,-0.001587,0.005382,-0.000088,0.005383,-0.001588,-89.276320,0.005531,
1420,1450,-0.464459,-3.352569,0.999997,0.000203,-0.003442,0.006622,-0.001495,0.006839,-0.003659,-81.727783,0.006845,
1660,1790,-0.768223,-1.543143,0.999997,0.000212,-0.002922,0.007040,0.000460,0.007061,-0.002943,87.361089,0.007094,
1580,1040,-2.227576,-7.456357,0.999997,0.000242,-0.002764,0.008177,0.000234,0.008182,-0.002769,88.777299,0.008323,
1290,480,-0.109503,-12.780952,0.999998,0.000146,-0.001921,0.005298,0.000334,0.005313,-0.001936,87.360282,0.005378,
1630,450,-1.051718,-12.292440,0.999997,0.000218,-0.003591,0.007432,0.000290,0.007440,-0.003599,88.493109,0.007441,
1210,590,0.038287,-12.254742,0.999998,0.000147,-0.001816,0.004569,-0.000378,0.004591,-0.001839,-86.620198,0.004621,
1540,1320,-1.186741,-4.859953,0.999996,0.000220,-0.005224,0.008949,-0.000448,0.008963,-0.005238,-88.192514,0.009006,
1500,580,-0.743164,-11.672601,0.999996,0.000212,-0.003892,0.007387,0.001051,0.007485,-0.003989,84.720306,0.007490,
970,450,0.596028,-12.605522,0.999997,0.000219,-0.002947,0.006676,-0.000579,0.006711,-0.002981,-86.569538,0.006725,
1670,790,-1.987556,-9.455453,0.999997,0.000222,-0.004353,0.008411,-0.000765,0.008457,-0.004399,-86.582940,0.008459,
920,310,0.556679,-13.444175,0.999997,0.000237,-0.002315,0.006486,0.000109,0.006487,-0.002316,89.292191,0.006575,
1760,610,-1.884197,-10.741781,0.999997,0.000189,-0.003992,0.007857,-0.000045,0.007857,-0.003992,-89.783979,0.007857,
590,1420,2.381564,-4.826495,0.999996,0.000227,-0.004041,0.007597,-0.000196,0.007600,-0.004044,-89.033763,0.007605,
1590,650,-1.240772,-10.833813,0.999996,0.000225,-0.004612,0.008317,0.000414,0.008330,-0.004625,88.169874,0.008347,
1510,660,-0.886369,-11.018683,0.999997,0.000201,-0.004659,0.008081,0.001090,0.008174,-0.004752,85.144240,0.008210,
1050,1810,0.220266,-1.146208,0.999998,0.000182,-0.001561,0.005539,-0.000092,0.005540,-0.001563,-89.254192,0.005713,
1160,200,0.062630,-14.259638,0.999998,0.000149,-0.000820,0.005067,0.000122,0.005069,-0.000823,88.809598,0.005441,
1540,1420,-0.983971,-4.007258,0.999996,0.000213,-0.004492,0.008039,-0.000833,0.008094,-0.004547,-86.215070,0.008115,
710,1910,0.612877,-0.823781,0.999997,0.000220,-0.002957,0.007152,-0.001363,0.007333,-0.003138,-82.451701,0.007358,
1380,1210,-0.660460,-4.847221,0.999994,0.000292,-0.005121,0.007840,-0.003069,0.008530,-0.005811,-77.327706,0.008715,
1550,1840,-0.398169,-1.081214,0.999997,0.000222,-0.001675,0.006070,0.000618,0.006119,-0.001724,85.466171,0.006310,
760,1060,2.576360,-7.316526,0.999997,0.000216,-0.003161,0.007435,-0.000271,0.007442,-0.003168,-88.538451,0.007470,
720,320,1.174701,-13.011542,0.999998,0.000201,-0.003547,0.007495,0.000080,0.007496,-0.003548,89.584215,0.007499,
730,320,1.140400,-13.035833,0.999998,0.000180,-0.003458,0.007456,0.000137,0.007458,-0.003460,89.279792,0.007464,
680,200,0.939546,-13.826449,0.999998,0.000182,-0.003330,0.007596,0.000899,0.007669,-0.003403,85.328194,0.007686,
1090,1380,0.325006,-3.608178,0.999997,0.000192,-0.003461,0.006078,0.002229,0.006574,-0.003957,77.475280,0.006619,
1050,1040,1.613631,-7.335312,0.999972,0.000734,-0.007588,0.018221,0.000964,0.018257,-0.007624,87.863375,0.018340,
990,1620,0.524659,-2.373654,0.999996,0.000217,-0.002888,0.006568,0.000601,0.006606,-0.002926,86.378587,0.006621,
1460,600,-0.607132,-11.660410,0.999997,0.000202,-0.003846,0.007153,0.001396,0.007327,-0.004020,82.876062,0.007339,
1160,120,0.033454,-14.655048,0.999998,0.000163,-0.000413,0.004783,0.000154,0.004787,-0.000418,88.302189,0.005303,
1030,1560,0.452051,-2.671625,0.999997,0.000183,-0.002927,0.006399,0.000902,0.006485,-0.003013,84.528488,0.006490,
1410,160,-0.127781,-14.433215,0.999998,0.000266,-0.000952,0.005223,-0.000300,0.005238,-0.000967,-87.224543,0.005574,
850,1000,2.308403,-7.777860,0.999997,0.000216,-0.002915,0.007862,0.000338,0.007873,-0.002925,88.207514,0.007959,
1170,680,0.107299,-11.803315,0.999999,0.000162,-0.002040,0.004142,-0.001489,0.004482,-0.002380,-77.136249,0.004485,
1580,1020,-2.231600,-7.623019,0.999996,0.000241,-0.002751,0.008201,-0.000144,0.008203,-0.002753,-89.245909,0.008349,
1710,430,-1.305955,-12.254478,0.999997,0.000212,-0.003700,0.007597,0.000158,0.007599,-0.003702,89.197066,0.007600,
800,1000,2.457518,-7.769003,0.999997,0.000198,-0.003044,0.007586,0.000286,0.007594,-0.003051,88.457318,0.007642,
1670,1040,-2.488751,-7.464971,0.999997,0.000190,-0.003048,0.007623,0.000191,0.007627,-0.003051,88.973463,0.007677,
1260,1500,-0.054077,-2.703250,0.999998,0.000180,-0.001898,0.004858,-0.000348,0.004876,-0.001916,-87.058559,0.004913,
970,1310,0.964909,-4.760896,0.999996,0.000230,-0.005383,0.008950,0.001026,0.009023,-0.005456,85.924388,0.009089,
1580,1320,-1.392937,-4.989451,0.999995,0.000253,-0.005062,0.008822,-0.000026,0.008822,-0.005062,-89.892556,0.008854,
1820,1770,-1.356594,-2.028884,0.999998,0.000186,-0.003563,0.007537,0.000168,0.007540,-0.003565,89.135565,0.007544,
1510,260,-0.404041,-13.802588,0.999997,0.000218,-0.002116,0.006074,-0.000203,0.006079,-0.002121,-88.582082,0.006171,
1160,500,0.136640,-12.664042,0.999998,0.000171,-0.002089,0.005317,-0.000588,0.005364,-0.002136,-85.491737,0.005401,
1600,1330,-1.467739,-4.956215,0.999995,0.000254,-0.004940,0.008718,0.000057,0.008718,-0.004941,89.760262,0.008744,
1200,350,0.050303,-13.485334,0.999998,0.000177,-0.001552,0.005293,-0.000124,0.005296,-0.001554,-88.959172,0.005444,
1410,1650,-0.343476,-2.074805,0.999997,0.000200,-0.002389,0.005999,-0.000516,0.006031,-0.002421,-86.491286,0.006070,
1420,1430,-0.472714,-3.485335,0.999996,0.000240,-0.003611,0.006688,-0.001641,0.006943,-0.003866,-81.161723,0.006958,
1630,410,-0.981459,-12.589399,0.999998,0.000150,-0.003404,0.007324,0.000235,0.007329,-0.003410,88.745553,0.007335,
1210,570,0.039254,-12.348483,0.999998,0.000152,-0.001854,0.004752,-0.000357,0.004771,-0.001873,-86.913654,0.004808,
1670,770,-1.926192,-9.622534,0.999997,0.000215,-0.004440,0.008389,-0.000635,0.008420,-0.004472,-87.174764,0.008426,
1570,820,-1.617691,-9.380932,0.999994,0.000255,-0.005031,0.009213,-0.000614,0.009240,-0.005057,-87.535437,0.009254,
1590,630,-1.199746,-11.000781,0.999996,0.000224,-0.004463,0.008148,0.000476,0.008166,-0.004481,87.843298,0.008179,
610,520,2.038781,-11.221080,0.999998,0.000173,-0.003754,0.007645,-0.000060,0.007645,-0.003754,-89.700566,0.007646,
890,1580,0.886232,-2.874663,0.999997,0.000182,-0.003505,0.007256,0.000485,0.007278,-0.003527,87.427028,0.007279,
1150,1890,0.055875,-0.684394,0.999999,0.000141,-0.000737,0.004960,-0.000129,0.004963,-0.000740,-88.704170,0.005354,
670,1970,0.413700,-0.451743,0.999997,0.000234,-0.001561,0.007284,-0.002729,0.008058,-0.002335,-74.163462,0.008292,
1590,250,-0.555190,-13.773562,0.999997,0.000204,-0.002467,0.006511,-0.000426,0.006532,-0.002487,-87.286639,0.006593,
1820,1230,-2.675598,-6.139358,0.999997,0.000213,-0.003599,0.007222,0.000518,0.007246,-0.003624,87.265947,0.007246,
920,490,0.802257,-12.207136,0.999998,0.000188,-0.003430,0.007172,-0.000595,0.007206,-0.003463,-86.799775,0.007208,
680,160,0.771503,-14.127483,0.999997,0.000207,-0.003009,0.007589,0.001375,0.007764,-0.003184,82.727568,0.007806,
1370,1150,-1.040664,-5.108551,0.999994,0.000290,-0.002398,0.007000,-0.004702,0.008949,-0.004347,-67.490160,0.008950,
1760,590,-1.838396,-10.899195,0.999996,0.000217,-0.003992,0.007777,-0.000027,0.007777,-0.003992,-89.868099,0.007778,
1160,180,0.055578,-14.363115,0.999998,0.000179,-0.000698,0.005011,0.000123,0.005013,-0.000701,88.768270,0.005430,
1610,400,-0.898373,-12.706536,0.999999,0.000130,-0.003228,0.007128,0.000173,0.007131,-0.003231,89.045821,0.007141,
1160,140,0.039987,-14.560270,0.999998,0.000137,-0.000510,0.004822,0.000138,0.004826,-0.000514,88.522646,0.005300,
690,1780,1.160274,-1.839526,0.999997,0.000203,-0.003580,0.007528,-0.000328,0.007538,-0.003589,-88.311146,0.007541,
1820,1750,-1.414464,-2.181965,0.999997,0.000211,-0.003612,0.007564,0.000112,0.007565,-0.003613,89.424717,0.007568,
1050,1790,0.236781,-1.255190,0.999998,0.000179,-0.001682,0.005593,-0.000025,0.005593,-0.001682,-89.802947,0.005739,
1620,1550,-1.106159,-3.217187,0.999998,0.000158,-0.003817,0.007555,-0.000405,0.007569,-0.003832,-87.961671,0.007569,
710,1890,0.697894,-0.971445,0.999998,0.000203,-0.003105,0.007299,-0.001173,0.007429,-0.003236,-83.646951,0.007450,
1500,560,-0.724344,-11.817940,0.999997,0.000187,-0.003727,0.007268,0.000980,0.007355,-0.003814,84.944199,0.007356,
970,1620,0.582912,-2.414973,0.999997,0.000202,-0.002905,0.006641,0.000521,0.006669,-0.002933,86.882864,0.006685,
1260,1480,-0.052138,-2.800512,0.999998,0.000156,-0.001861,0.004724,-0.000366,0.004744,-0.001881,-86.827649,0.004778,
740,1070,2.634578,-7.245036,0.999996,0.000223,-0.003271,0.007344,-0.000254,0.007350,-0.003277,-88.627629,0.007364,
1480,770,-0.955752,-10.194082,0.999997,0.000252,-0.005622,0.009203,0.001087,0.009282,-0.005701,85.828339,0.009362,
1180,350,0.080327,-13.478170,0.999999,0.000111,-0.001525,0.005322,-0.000077,0.005322,-0.001526,-89.355211,0.005481,
1460,580,-0.592766,-11.802560,0.999997,0.000212,-0.003708,0.007011,0.001314,0.007169,-0.003867,83.112021,0.007177,
1150,680,0.149841,-11.744712,0.999996,0.000249,-0.002353,0.004590,-0.001821,0.005039,-0.002801,-76.158036,0.005049,
580,1420,2.419193,-4.849710,0.999996,0.000225,-0.004623,0.007611,-0.000445,0.007627,-0.004639,-87.920999,0.007686,
1160,480,0.133970,-12.770969,0.999998,0.000180,-0.002062,0.005369,-0.000503,0.005403,-0.002096,-86.143788,0.005448,
1540,1280,-1.303094,-5.227039,0.999996,0.000210,-0.005386,0.009236,-0.000118,0.009237,-0.005387,-89.538162,0.009279,
1550,100,-0.157790,-14.706082,0.999998,0.000192,-0.000657,0.005372,-0.000894,0.005502,-0.000787,-81.739710,0.005951,
720,340,1.225732,-12.861109,0.999997,0.000207,-0.003609,0.007521,0.000017,0.007521,-0.003609,89.911865,0.007523,
1580,1000,-2.214830,-7.784808,0.999997,0.000205,-0.002849,0.008144,-0.000394,0.008158,-0.002863,-87.950021,0.008278,
1380,1470,-0.330724,-3.090621,0.999998,0.000184,-0.002837,0.005977,-0.001394,0.006192,-0.003052,-81.222130,0.006192,
1620,1800,-0.641180,-1.421380,0.999997,0.000201,-0.002426,0.006757,0.000549,0.006790,-0.002458,86.590591,0.006875,
800,980,2.443007,-7.921900,0.999996,0.000234,-0.003158,0.007678,0.000463,0.007698,-0.003178,87.558507,0.007736,
1080,790,0.473198,-10.680296,0.999996,0.000234,-0.005018,0.007465,-0.003058,0.008174,-0.005727,-76.947624,0.008391,
1580,1330,-1.366815,-4.902453,0.999996,0.000222,-0.005040,0.008787,-0.000098,0.008788,-0.005040,-89.595922,0.008819,
1590,610,-1.162564,-11.160877,0.999997,0.000208,-0.004337,0.007958,0.000530,0.007981,-0.004359,87.535594,0.007993,
1610,420,-0.930575,-12.561039,0.999997,0.000187,-0.003354,0.007254,0.000264,0.007260,-0.003361,88.576805,0.007267,
870,1920,0.285290,-0.630004,0.999997,0.000207,-0.001454,0.005858,-0.000967,0.005983,-0.001579,-82.595308,0.006202,
1210,550,0.041010,-12.446519,0.999998,0.000163,-0.001897,0.004886,-0.000307,0.004900,-0.001911,-87.414468,0.004939,
610,180,1.094968,-13.788251,0.999997,0.000213,-0.003658,0.007704,0.000496,0.007725,-0.003679,87.502895,0.007728,
1880,2010,-0.333954,-0.302063,0.999987,0.000428,-0.000865,0.009322,0.004432,0.010981,-0.002523,69.485801,0.011503,
1890,300,-1.656049,-12.779696,0.999997,0.000208,-0.003648,0.007296,0.000030,0.007296,-0.003649,89.844669,0.007296,
1670,750,-1.869597,-9.793192,0.999997,0.000215,-0.004460,0.008377,-0.000527,0.008399,-0.004481,-87.651477,0.008405,
1590,1040,-2.253935,-7.458872,0.999997,0.000222,-0.002804,0.008100,0.000234,0.008105,-0.002809,88.773098,0.008232,
1520,1770,-0.464756,-1.487428,0.999997,0.000198,-0.002252,0.006338,0.000167,0.006341,-0.002256,88.886337,0.006428,
920,590,0.931021,-11.460617,0.999997,0.000208,-0.004134,0.007732,-0.000814,0.007787,-0.004189,-86.093944,0.007795,
1160,380,0.119429,-13.310075,0.999998,0.000155,-0.001704,0.005425,-0.000158,0.005429,-0.001708,-88.729452,0.005552,
680,140,0.678580,-14.280751,0.999996,0.000229,-0.002777,0.007404,0.001634,0.007659,-0.003033,81.103908,0.007714,
990,800,1.008847,-9.950741,0.999995,0.000253,-0.005799,0.009538,-0.000975,0.009599,-0.005860,-86.377895,0.009677,
1060,320,0.265396,-13.560993,0.999998,0.000189,-0.001891,0.005781,-0.000129,0.005783,-0.001893,-89.035874,0.005897,
1390,160,-0.111553,-14.440498,0.999998,0.000171,-0.000739,0.005162,-0.000301,0.005178,-0.000754,-87.084478,0.005594,
1500,540,-0.705743,-11.962516,0.999997,0.000216,-0.003633,0.007147,0.000931,0.007227,-0.003713,85.099803,0.007228,
1370,1600,-0.272802,-2.300992,0.999996,0.000242,-0.002267,0.005800,-0.000605,0.005845,-0.002312,-85.735874,0.005887,
1460,560,-0.576242,-11.945159,0.999996,0.000216,-0.003519,0.006877,0.001152,0.007003,-0.003645,83.754005,0.007005,
1620,1530,-1.140035,-3.368812,0.999996,0.000220,-0.003941,0.007684,-0.000414,0.007699,-0.003956,-87.964423,0.007700,
1410,1630,-0.354727,-2.194789,0.999997,0.000195,-0.002461,0.006047,-0.000580,0.006086,-0.002500,-86.114912,0.006118,
870,1580,0.959427,-2.925532,0.999997,0.000173,-0.003640,0.007387,0.000435,0.007404,-0.003657,87.742673,0.007404,
1330,800,-0.259743,-11.093047,0.999995,0.000261,-0.003641,0.004830,0.003290,0.005958,-0.004769,71.078837,0.006306,
1270,480,-0.072679,-12.790980,0.999998,0.000148,-0.001863,0.005200,0.000245,0.005208,-0.001872,88.014204,0.005277,
720,360,1.272663,-12.709749,0.999997,0.000223,-0.003645,0.007528,-0.000013,0.007528,-0.003645,-89.935185,0.007529,
600,790,2.743646,-9.160089,0.999997,0.000218,-0.003551,0.007172,0.000291,0.007180,-0.003559,88.447255,0.007180,
1050,1770,0.256294,-1.371339,0.999998,0.000184,-0.001797,0.005737,0.000032,0.005737,-0.001797,89.759214,0.005869,
1620,1780,-0.685703,-1.554670,0.999997,0.000210,-0.002586,0.006852,0.000427,0.006872,-0.002605,87.415133,0.006938,
850,1500,1.164269,-3.586832,0.999997,0.000208,-0.004073,0.007820,0.000428,0.007835,-0.004088,87.943580,0.007838,
1260,1460,-0.052882,-2.892148,0.999998,0.000150,-0.001852,0.004583,-0.000410,0.004609,-0.001878,-86.371322,0.004635,
1530,100,-0.142930,-14.710750,0.999998,0.000180,-0.000676,0.005306,-0.000807,0.005413,-0.000783,-82.448975,0.005850,
1870,2010,-0.320363,-0.289906,0.999971,0.000641,-0.001461,0.008452,0.003705,0.009683,-0.002693,71.611344,0.009996,
670,1950,0.516333,-0.586638,0.999997,0.000246,-0.002120,0.007347,-0.002255,0.007857,-0.002630,-77.262283,0.007999,
970,1290,1.015534,-4.943628,0.999996,0.000272,-0.005547,0.009198,0.000885,0.009251,-0.005600,86.576376,0.009319,
1590,230,-0.510209,-13.905856,0.999997,0.000198,-0.002357,0.006443,-0.000521,0.006474,-0.002387,-86.624602,0.006548,
1060,180,0.140702,-14.332242,0.999998,0.000166,-0.001042,0.005232,0.000242,0.005242,-0.001052,87.792380,0.005546,
1710,410,-1.262341,-12.407753,0.999997,0.000212,-0.003665,0.007580,0.000133,0.007581,-0.003667,89.324537,0.007583,
1590,590,-1.128061,-11.319410,0.999997,0.000213,-0.004229,0.007924,0.000537,0.007947,-0.004253,87.475066,0.007954,
1580,1420,-1.164083,-4.131933,0.999997,0.000189,-0.004541,0.008156,-0.000525,0.008177,-0.004562,-87.634321,0.008196,
1580,1300,-1.452460,-5.167058,0.999995,0.000236,-0.005084,0.008967,0.000115,0.008968,-0.005085,89.531958,0.008995,
1760,270,-1.098761,-13.349436,0.999996,0.000226,-0.003571,0.007554,-0.000305,0.007562,-0.003579,-88.433015,0.007566,
1730,1040,-2.676545,-7.467546,0.999997,0.000211,-0.003201,0.007348,0.000172,0.007351,-0.003203,89.066645,0.007371,
780,870,2.277044,-8.779180,0.999997,0.000225,-0.003892,0.007981,0.000911,0.008051,-0.003961,85.636904,0.008051,
980,730,0.876187,-10.541149,0.999995,0.000253,-0.005243,0.008725,-0.001269,0.008839,-0.005357,-84.852508,0.008905,
790,1880,0.539944,-0.942488,0.999996,0.000227,-0.002444,0.006645,-0.001067,0.006769,-0.002568,-83.391512,0.006834,
1160,1830,0.071462,-0.986123,0.999998,0.000159,-0.000982,0.005100,-0.000074,0.005101,-0.000983,-89.301484,0.005413,
1670,730,-1.810332,-9.958753,0.999997,0.000239,-0.004490,0.008337,-0.000448,0.008353,-0.004506,-88.000144,0.008361,
970,430,0.578536,-12.738009,0.999997,0.000223,-0.002889,0.006630,-0.000528,0.006659,-0.002918,-86.835098,0.006676,
1540,1400,-1.017132,-4.169518,0.999997,0.000203,-0.004656,0.008249,-0.000799,0.008298,-0.004705,-86.469174,0.008323,
570,1820,1.478522,-1.893321,0.999634,0.002426,-0.005257,0.006851,-0.000230,0.006856,-0.005262,-88.909860,0.007175,
760,1070,2.570425,-7.242482,0.999997,0.000215,-0.003178,0.007432,-0.000302,0.007441,-0.003186,-88.372960,0.007466,
860,850,1.883932,-9.041822,0.999997,0.000219,-0.004477,0.008815,0.000931,0.008880,-0.004542,86.014363,0.008881,
1500,530,-0.696019,-12.034487,0.999996,0.000249,-0.003595,0.007087,0.000898,0.007162,-0.003670,85.228024,0.007163,
1050,1400,0.460257,-3.658872,0.999995,0.000252,-0.003852,0.006851,0.001938,0.007192,-0.004192,80.044327,0.007224,
1630,340,-0.847532,-13.094368,0.999998,0.000177,-0.002939,0.007157,-0.000138,0.007159,-0.002940,-89.216648,0.007197,
1210,750,0.031584,-11.677459,0.999998,0.000164,-0.001578,0.002395,-0.000870,0.002577,-0.001761,-78.173024,0.002634,
1500,520,-0.685441,-12.105454,0.999997,0.000226,-0.003546,0.007043,0.000868,0.007113,-0.003617,85.343322,0.007114,
670,1440,2.025282,-4.491580,0.999997,0.000185,-0.003924,0.007734,-0.000114,0.007736,-0.003925,-89.438939,0.007736,
1160,460,0.133287,-12.879739,0.999998,0.000190,-0.001994,0.005372,-0.000396,0.005393,-0.002016,-86.928024,0.005450,
1600,1550,-1.031385,-3.166606,0.999998,0.000252,-0.003737,0.007491,-0.000471,0.007511,-0.003756,-87.603106,0.007511,
1820,2010,-0.176926,-0.174405,0.999994,0.000317,-0.001819,0.006749,0.002507,0.007428,-0.002499,74.828775,0.007560,
1140,780,0.202455,-11.243351,0.999996,0.000234,-0.003272,0.004451,-0.003112,0.005548,-0.004369,-70.567547,0.005846,
1060,300,0.249368,-13.675271,0.999997,0.000205,-0.001765,0.005673,-0.000065,0.005674,-0.001765,-89.498999,0.005807,
1020,630,0.563962,-11.507790,0.999996,0.000220,-0.003953,0.007084,-0.001653,0.007327,-0.004195,-81.661817,0.007352,
800,960,2.411050,-8.077794,0.999996,0.000249,-0.003267,0.007751,0.000699,0.007795,-0.003311,86.381955,0.007824,
1460,540,-0.563747,-12.081647,0.999997,0.000209,-0.003312,0.006771,0.001039,0.006877,-0.003418,84.174960,0.006877,
1250,480,-0.034056,-12.801706,0.999998,0.000195,-0.001880,0.005186,0.000217,0.005193,-0.001887,88.242980,0.005257,
1580,1590,-0.897318,-2.818250,0.999998,0.000185,-0.003489,0.007268,-0.000452,0.007287,-0.003508,-87.599881,0.007289,
720,800,2.317256,-9.271061,0.999997,0.000239,-0.003977,0.007804,0.000723,0.007848,-0.004021,86.500148,0.007849,
1170,160,0.042316,-14.461945,0.999998,0.000169,-0.000582,0.004948,0.000144,0.004952,-0.000585,88.506967,0.005411,
1620,1760,-0.731024,-1.695630,0.999998,0.000184,-0.002732,0.006889,0.000293,0.006898,-0.002741,88.257285,0.006946,
1590,790,-1.613541,-9.612715,0.999995,0.000243,-0.004989,0.009015,-0.000498,0.009032,-0.005007,-87.967162,0.009050,
850,1480,1.199294,-3.744669,0.999997,0.000210,-0.004175,0.007895,0.000428,0.007911,-0.004191,87.971073,0.007915,
1870,360,-1.738947,-12.388172,0.999997,0.000210,-0.003686,0.007410,0.000073,0.007410,-0.003686,89.624833,0.007410,
1400,1550,-0.366488,-2.662291,0.999997,0.000196,-0.002615,0.006110,-0.000881,0.006198,-0.002703,-84.290562,0.006215,
670,1930,0.631556,-0.746983,0.999997,0.000233,-0.002580,0.007607,-0.001999,0.007985,-0.002959,-79.283705,0.008074,
1550,1820,-0.435728,-1.203077,0.999998,0.000190,-0.001791,0.006230,0.000524,0.006265,-0.001825,86.276036,0.006444,
1770,1800,-1.087846,-1.681567,0.999997,0.000231,-0.003495,0.007553,0.000435,0.007570,-0.003512,87.750909,0.007577,
1590,570,-1.095868,-11.479622,0.999997,0.000210,-0.004146,0.007860,0.000570,0.007887,-0.004173,87.286985,0.007892,
1060,620,0.411822,-11.729973,0.999996,0.000219,-0.003409,0.006384,-0.001724,0.006679,-0.003703,-80.299867,0.006692,
1490,1040,-1.981398,-7.436834,0.999997,0.000195,-0.003001,0.010042,0.000154,0.010043,-0.003003,89.324242,0.010310,
1160,440,0.128965,-12.986731,0.999998,0.000172,-0.001915,0.005394,-0.000330,0.005409,-0.001930,-87.420231,0.005482,
1260,1440,-0.049814,-2.982548,0.999998,0.000159,-0.001814,0.004402,-0.000467,0.004437,-0.001849,-85.728462,0.004458,
1500,510,-0.674253,-12.176140,0.999997,0.000225,-0.003479,0.007015,0.000843,0.007083,-0.003547,85.436168,0.007083,
1540,1260,-1.371633,-5.417429,0.999996,0.000226,-0.005392,0.009394,0.000099,0.009395,-0.005393,89.614649,0.009429,
650,1440,2.104273,-4.535710,0.999997,0.000182,-0.003897,0.007722,-0.000108,0.007723,-0.003898,-89.465478,0.007723,
870,1900,0.337034,-0.751592,0.999997,0.000188,-0.001680,0.006084,-0.000921,0.006192,-0.001788,-83.328990,0.006373,
1410,1610,-0.367554,-2.318570,0.999997,0.000189,-0.002477,0.006052,-0.000630,0.006098,-0.002524,-85.797002,0.006128,
1590,100,-0.191435,-14.694694,0.999998,0.000175,-0.001083,0.005561,-0.001044,0.005721,-0.001243,-81.274419,0.006018,
840,1070,2.324479,-7.226825,0.999995,0.000237,-0.003044,0.007862,-0.000486,0.007884,-0.003065,-87.454574,0.007949,
760,870,2.354728,-8.761187,0.999997,0.000206,-0.003798,0.007811,0.000864,0.007875,-0.003862,85.766024,0.007875,
1450,1400,-0.611020,-3.819394,0.999997,0.000232,-0.004259,0.007425,-0.001688,0.007664,-0.004498,-81.941573,0.007702,
970,1800,0.359982,-1.269841,0.999997,0.000191,-0.001948,0.006000,-0.000214,0.006005,-0.001954,-88.455609,0.006126,
1050,1750,0.273700,-1.484939,0.999998,0.000184,-0.001915,0.005774,0.000119,0.005775,-0.001917,89.109859,0.005883,
1590,210,-0.465468,-14.030695,0.999997,0.000202,-0.002191,0.006291,-0.000647,0.006340,-0.002240,-85.661171,0.006430,
760,1040,2.591643,-7.466023,0.999997,0.000213,-0.003165,0.007468,-0.000217,0.007473,-0.003169,-88.833672,0.007501,
1800,2010,-0.168301,-0.166620,0.999997,0.000229,-0.000433,0.006561,0.002834,0.007565,-0.001438,70.489901,0.008035,
1850,560,-2.116310,-10.922422,0.999997,0.000208,-0.003796,0.007633,0.000004,0.007633,-0.003796,89.980987,0.007633,
820,1450,1.383077,-4.062380,0.999996,0.000232,-0.004307,0.007994,0.000228,0.007998,-0.004311,88.938102,0.008006,
590,790,2.778823,-9.139377,0.999997,0.000198,-0.003582,0.007092,0.000202,0.007096,-0.003585,88.917970,0.007096,
840,850,1.971167,-9.011452,0.999998,0.000162,-0.004336,0.008580,0.000950,0.008650,-0.004406,85.816220,0.008650,
1580,1440,-1.128465,-3.970856,0.999997,0.000192,-0.004410,0.007994,-0.000572,0.008020,-0.004437,-87.367190,0.008035,
1560,1590,-0.830237,-2.773917,0.999998,0.000192,-0.003367,0.007136,-0.000487,0.007158,-0.003390,-87.351051,0.007162,
1580,960,-2.143389,-8.116570,0.999997,0.000201,-0.003205,0.008337,-0.000832,0.008397,-0.003265,-85.899652,0.008465,
1130,740,0.205335,-11.363560,0.999995,0.000283,-0.003101,0.004955,-0.002829,0.005849,-0.003995,-72.458892,0.005978,
1710,480,-1.404456,-11.875055,0.999997,0.000220,-0.003849,0.007650,0.000202,0.007654,-0.003853,88.995788,0.007654,
1880,1100,-3.121644,-7.102143,0.999997,0.000206,-0.003107,0.006299,0.000032,0.006300,-0.003107,89.805921,0.006300,
1750,1430,-1.879076,-4.474551,0.999998,0.000174,-0.004039,0.007864,0.000118,0.007865,-0.004040,89.433264,0.007866,
1710,390,-1.221347,-12.559152,0.999997,0.000191,-0.003587,0.007522,0.000089,0.007523,-0.003588,89.541966,0.007525,
1790,1800,-1.156602,-1.729710,0.999998,0.000218,-0.003509,0.007606,0.000477,0.007626,-0.003529,87.547734,0.007633,
1590,1010,-2.251270,-7.702408,0.999997,0.000218,-0.002815,0.008077,-0.000279,0.008084,-0.002822,-88.536115,0.008206,
1670,710,-1.753443,-10.127420,0.999997,0.000236,-0.004494,0.008324,-0.000316,0.008332,-0.004502,-88.586658,0.008341,
1650,700,-1.638220,-10.254895,0.999996,0.000293,-0.004573,0.008438,-0.000177,0.008441,-0.004575,-89.222891,0.008450,
790,480,1.265141,-11.963203,0.999997,0.000194,-0.003789,0.007597,-0.000263,0.007603,-0.003795,-88.676685,0.007603,
820,1070,2.386207,-7.230055,0.999997,0.000186,-0.003064,0.007736,-0.000422,0.007752,-0.003080,-87.766122,0.007807,
1500,500,-0.663658,-12.246973,0.999997,0.000216,-0.003394,0.006982,0.000807,0.007044,-0.003457,85.578146,0.007045,
990,160,0.191078,-14.408735,0.999998,0.000172,-0.000951,0.005470,0.000532,0.005514,-0.000995,85.296420,0.005877,
1710,1220,-2.285671,-6.086706,0.999996,0.000235,-0.003968,0.008004,0.000900,0.008072,-0.004035,85.726694,0.008072,
1630,580,-1.278852,-11.291811,0.999996,0.000219,-0.004226,0.007952,0.000342,0.007962,-0.004235,88.390593,0.007967,
1260,1420,-0.047978,-3.068758,0.999998,0.000168,-0.001804,0.004181,-0.000509,0.004224,-0.001847,-85.174870,0.004235,
1540,1240,-1.444751,-5.606173,0.999996,0.000227,-0.005354,0.009550,0.000279,0.009556,-0.005360,88.929718,0.009579,
1540,1380,-1.053222,-4.337112,0.999997,0.000197,-0.004836,0.008440,-0.000764,0.008484,-0.004880,-86.718997,0.008516,
1740,770,-2.221499,-9.512875,0.999998,0.000218,-0.004064,0.007931,-0.000650,0.007966,-0.004099,-86.908703,0.007967,
800,1140,2.320455,-6.689783,0.999995,0.000270,-0.003584,0.008014,-0.000909,0.008085,-0.003655,-85.546024,0.008098,
1460,520,-0.552564,-12.213187,0.999997,0.000209,-0.003171,0.006669,0.000951,0.006760,-0.003262,84.528335,0.006762,
1520,1410,-0.908602,-4.018098,0.999996,0.000222,-0.004499,0.007990,-0.001003,0.008070,-0.004579,-85.435749,0.008094,
970,1270,1.076493,-5.131399,0.999996,0.000257,-0.005676,0.009441,0.000744,0.009478,-0.005713,87.187802,0.009544,
1750,1040,-2.740713,-7.469869,0.999998,0.000179,-0.003244,0.007283,0.000170,0.007285,-0.003246,89.076733,0.007300,
1450,1380,-0.630170,-3.970801,0.999996,0.000233,-0.004501,0.007616,-0.001759,0.007866,-0.004751,-81.905590,0.007922,
1160,420,0.128086,-13.094629,0.999998,0.000181,-0.001847,0.005394,-0.000260,0.005403,-0.001856,-87.947519,0.005491,
970,410,0.556841,-12.870072,0.999996,0.000240,-0.002845,0.006550,-0.000453,0.006572,-0.002867,-87.243270,0.006590,
1510,100,-0.128372,-14.717016,0.999998,0.000192,-0.000760,0.005257,-0.000700,0.005337,-0.000841,-83.446924,0.005739,
1360,1880,-0.103410,-0.749952,0.999998,0.000162,-0.000817,0.005065,0.000180,0.005071,-0.000822,88.247569,0.005443,
710,1870,0.782660,-1.116995,0.999997,0.000188,-0.003250,0.007349,-0.000964,0.007436,-0.003337,-84.845842,0.007449,
800,940,2.375021,-8.235055,0.999997,0.000228,-0.003372,0.007790,0.000736,0.007838,-0.003420,86.241439,0.007859,
1050,1730,0.289603,-1.603105,0.999997,0.000205,-0.002015,0.005831,0.000180,0.005835,-0.002019,88.685551,0.005927,
1190,1240,0.122711,-3.643594,0.999996,0.000240,-0.002937,0.002064,0.001447,0.002452,-0.003326,74.971674,0.003448,
760,760,2.041761,-9.652366,0.999997,0.000220,-0.004240,0.008133,0.000640,0.008166,-0.004273,87.048946,0.008169,
1590,190,-0.414298,-14.158949,0.999997,0.000215,-0.002044,0.006225,-0.000746,0.006292,-0.002111,-84.884102,0.006405,
1320,1830,-0.089312,-0.990558,0.999998,0.000157,-0.001121,0.005148,0.000052,0.005148,-0.001122,89.525156,0.005415,
820,1430,1.425812,-4.223675,0.999996,0.000253,-0.004394,0.008128,0.000160,0.008130,-0.004396,89.269496,0.008139,
1580,1740,-0.656651,-1.763527,0.999997,0.000194,-0.002825,0.006826,0.000094,0.006827,-0.002826,89.442000,0.006861,
1850,540,-2.071992,-11.074792,0.999997,0.000179,-0.003763,0.007622,0.000040,0.007622,-0.003763,89.798264,0.007622,
630,1620,1.777822,-3.200741,0.999998,0.000166,-0.003775,0.007567,0.000109,0.007568,-0.003776,89.451713,0.007568,
1550,1960,-0.147851,-0.387056,0.999998,0.000152,-0.000581,0.005335,0.000921,0.005475,-0.000721,81.357035,0.005950,
1690,500,-1.367321,-11.768859,0.999996,0.000219,-0.003868,0.007700,0.000224,0.007705,-0.003873,88.890065,0.007705,
770,1880,0.589338,-0.964284,0.999996,0.000216,-0.002353,0.006790,-0.001218,0.006949,-0.002513,-82.541225,0.007037,
1890,1550,-2.144632,-3.869305,0.999997,0.000199,-0.003730,0.007586,-0.000018,0.007586,-0.003730,-89.910236,0.007586,
950,1580,0.683109,-2.730353,0.999997,0.000202,-0.003290,0.006943,0.000688,0.006989,-0.003336,86.170769,0.006992,
1060,280,0.233214,-13.788544,0.999998,0.000189,-0.001639,0.005639,0.000008,0.005639,-0.001639,89.938537,0.005802,
1800,2000,-0.226821,-0.231026,0.999996,0.000261,-0.000675,0.006782,0.002875,0.007762,-0.001655,71.179787,0.008176,
1120,530,0.227358,-12.438138,0.999997,0.000201,-0.002297,0.005533,-0.000844,0.005623,-0.002387,-83.914665,0.005644,
1580,1980,-0.125556,-0.289159,0.999998,0.000160,-0.000741,0.005313,0.001025,0.005482,-0.000910,80.648173,0.005876,
1580,1460,-1.094612,-3.811501,0.999998,0.000183,-0.004282,0.007911,-0.000598,0.007940,-0.004311,-87.200151,0.007950,
680,180,0.858431,-13.978249,0.999997,0.000201,-0.003171,0.007494,0.001125,0.007611,-0.003288,84.044792,0.007634,
1710,370,-1.177483,-12.708185,0.999998,0.000165,-0.003472,0.007436,-0.000042,0.007436,-0.003472,-89.779712,0.007442,
580,790,2.813656,-9.118491,0.999997,0.000220,-0.003768,0.006948,0.000046,0.006948,-0.003768,89.751504,0.006956,
910,1700,0.646969,-1.990239,0.999997,0.000210,-0.002701,0.006702,0.000020,0.006702,-0.002701,89.879513,0.006744,
800,1130,2.344880,-6.769264,0.999995,0.000296,-0.003504,0.007901,-0.000831,0.007961,-0.003564,-85.853794,0.007975,
970,1250,1.142111,-5.324137,0.999995,0.000281,-0.005753,0.009706,0.000567,0.009727,-0.005774,87.904162,0.009784,
1630,700,-1.545932,-10.301934,0.999995,0.000287,-0.004721,0.008525,-0.000088,0.008525,-0.004722,-89.619861,0.008542,
800,1160,2.268381,-6.524391,0.999996,0.000239,-0.003755,0.008090,-0.000956,0.008167,-0.003831,-85.413843,0.008172,
740,1250,2.253449,-5.862555,0.999997,0.000207,-0.004039,0.007898,-0.000777,0.007948,-0.004089,-86.289693,0.007949,
1460,740,-0.777343,-10.565137,0.999996,0.000261,-0.005306,0.008651,0.001660,0.008846,-0.005501,83.309294,0.008933,
970,390,0.534983,-13.001460,0.999997,0.000221,-0.002788,0.006492,-0.000375,0.006507,-0.002803,-87.687121,0.006528,
1160,640,0.133141,-11.952398,0.999998,0.000177,-0.002141,0.004615,-0.001277,0.004849,-0.002374,-79.642915,0.004849,
1790,1040,-2.870252,-7.469949,0.999998,0.000175,-0.003256,0.007064,0.000169,0.007067,-0.003259,89.063303,0.007074,
1670,690,-1.703059,-10.294206,0.999996,0.000235,-0.004490,0.008293,-0.000208,0.008296,-0.004493,-89.066423,0.008306,
1890,970,-3.160285,-7.918903,0.999998,0.000174,-0.003043,0.006052,0.000020,0.006052,-0.003043,89.872828,0.006052,
640,150,0.841049,-14.129228,0.999996,0.000265,-0.003297,0.007765,0.001133,0.007880,-0.003412,84.210284,0.007904,
1670,1380,-1.664811,-4.702199,0.999996,0.000243,-0.004467,0.008256,0.000136,0.008258,-0.004469,89.385676,0.008267,
1590,990,-2.236174,-7.862163,0.999998,0.000187,-0.002922,0.008080,-0.000481,0.008101,-0.002943,-87.503125,0.008201,
1540,1220,-1.520764,-5.801142,0.999996,0.000231,-0.005209,0.009558,0.000532,0.009577,-0.005228,87.939628,0.009591,
730,220,0.846492,-13.785002,0.999997,0.000188,-0.002964,0.007348,0.000854,0.007419,-0.003034,85.295356,0.007460,
800,920,2.335659,-8.390206,0.999997,0.000221,-0.003543,0.007983,0.000901,0.008053,-0.003613,85.558089,0.008067,
1500,480,-0.644987,-12.388112,0.999996,0.000223,-0.003204,0.006864,0.000691,0.006911,-0.003251,86.094653,0.006915,
760,1020,2.594204,-7.616814,0.999997,0.000208,-0.003162,0.007485,0.000127,0.007487,-0.003163,89.316903,0.007517,
1540,1360,-1.093317,-4.506729,0.999997,0.000197,-0.004972,0.008595,-0.000680,0.008629,-0.005006,-87.139625,0.008666,
1360,1860,-0.114874,-0.849806,0.999998,0.000164,-0.000954,0.005191,0.000185,0.005197,-0.000959,88.276800,0.005530,
1500,240,-0.351554,-13.934454,0.999997,0.000185,-0.001945,0.005966,-0.000290,0.005977,-0.001956,-87.905376,0.006095,
1390,1900,-0.107976,-0.655327,0.999998,0.000139,-0.000753,0.005112,0.000305,0.005128,-0.000769,87.035125,0.005531,
820,1470,1.343721,-3.902632,0.999995,0.000248,-0.004223,0.007933,0.000293,0.007940,-0.004230,88.619101,0.007945,
710,1850,0.857518,-1.266161,0.999996,0.000232,-0.003329,0.007431,-0.000770,0.007486,-0.003384,-85.928254,0.007498,
800,1450,1.470323,-4.110478,0.999997,0.000181,-0.004292,0.007986,0.000135,0.007988,-0.004294,89.372095,0.007995,
1830,2010,-0.204038,-0.195018,0.999998,0.000220,-0.002627,0.006808,0.002248,0.007316,-0.003135,77.260566,0.007341,
1190,1220,0.186542,-3.684020,0.999993,0.000307,-0.004014,0.002252,0.000650,0.002318,-0.004080,84.140592,0.004093,
1580,1960,-0.169409,-0.394879,0.999998,0.000172,-0.001018,0.005470,0.000991,0.005618,-0.001166,81.504126,0.005929,
1140,1830,0.092399,-0.991832,0.999998,0.000205,-0.001125,0.005148,-0.000030,0.005148,-0.001125,-89.723207,0.005413,
1590,170,-0.370231,-14.280816,0.999997,0.000206,-0.001824,0.006063,-0.000809,0.006145,-0.001906,-84.205816,0.006291,
610,1620,1.852207,-3.250939,0.999997,0.000185,-0.003731,0.007532,0.000107,0.007533,-0.003732,89.456243,0.007533,
620,270,1.395344,-13.136891,0.999998,0.000185,-0.003683,0.007540,0.000107,0.007541,-0.003684,89.453172,0.007542,
1060,260,0.215823,-13.901287,0.999998,0.000166,-0.001529,0.005521,0.000053,0.005521,-0.001530,89.567109,0.005702,
580,1570,2.073816,-3.702830,0.999998,0.000181,-0.003649,0.007641,0.000041,0.007641,-0.003649,89.789954,0.007643,
780,1130,2.413769,-6.779836,0.999996,0.000258,-0.003494,0.007756,-0.000767,0.007808,-0.003546,-86.115607,0.007819,
1880,1550,-2.107121,-3.846608,0.999998,0.000175,-0.003740,0.007609,-0.000027,0.007609,-0.003740,-89.861864,0.007610,
1580,1480,-1.060952,-3.652739,0.999997,0.000211,-0.004156,0.007848,-0.000628,0.007880,-0.004189,-87.015543,0.007885,
1610,1860,-0.468119,-1.011790,0.999997,0.000215,-0.002004,0.006402,0.000840,0.006485,-0.002087,84.351449,0.006621,
1730,1960,-0.330197,-0.453346,0.999997,0.000189,-0.001524,0.006306,0.001804,0.006702,-0.001920,77.632205,0.006902,
1710,700,-1.902897,-10.128585,0.999996,0.000251,-0.004264,0.008095,-0.000359,0.008106,-0.004275,-88.335882,0.008110,
1720,770,-2.140471,-9.542493,0.999998,0.000181,-0.004173,0.008096,-0.000686,0.008135,-0.004212,-86.810602,0.008136,
1160,400,0.121420,-13.202929,0.999998,0.000176,-0.001779,0.005422,-0.000206,0.005428,-0.001785,-88.364028,0.005533,
1040,1830,0.213851,-1.040766,0.999997,0.000204,-0.001458,0.005507,-0.000163,0.005511,-0.001462,-88.662531,0.005710,
780,1250,2.088060,-5.810892,0.999997,0.000217,-0.004242,0.008237,-0.000800,0.008288,-0.004293,-86.344757,0.008290,
1600,1410,-1.274542,-4.271109,0.999997,0.000203,-0.004572,0.008323,-0.000367,0.008334,-0.004583,-88.369311,0.008347,
1140,760,0.185435,-11.335445,0.999997,0.000231,-0.003048,0.004503,-0.002944,0.005515,-0.004060,-71.028447,0.005716,
800,1180,2.214124,-6.364487,0.999996,0.000232,-0.003890,0.008142,-0.000950,0.008217,-0.003965,-85.511826,0.008218,
970,1230,1.220996,-5.520021,0.999995,0.000281,-0.005757,0.009904,0.000286,0.009909,-0.005762,88.955014,0.009953,
840,590,1.267998,-11.230226,0.999997,0.000210,-0.004270,0.008018,-0.000384,0.008030,-0.004282,-88.211205,0.008036,
1710,350,-1.131097,-12.858651,0.999998,0.000164,-0.003375,0.007426,-0.000138,0.007428,-0.003377,-89.266590,0.007438,
1590,970,-2.197977,-8.026713,0.999998,0.000184,-0.003078,0.008182,-0.000748,0.008231,-0.003127,-86.215440,0.008310,
1830,560,-2.040802,-10.967949,0.999997,0.000182,-0.003811,0.007657,0.000037,0.007657,-0.003812,89.814199,0.007657,
1060,600,0.406773,-11.858608,0.999997,0.000205,-0.003300,0.006353,-0.001593,0.006610,-0.003556,-80.867048,0.006616,
1360,1840,-0.129240,-0.957632,0.999998,0.000170,-0.001076,0.005200,0.000133,0.005202,-0.001079,88.786406,0.005491,
1540,1200,-1.603153,-5.990952,0.999996,0.000237,-0.005046,0.009512,0.000713,0.009547,-0.005080,87.204415,0.009554,
1120,590,0.230434,-12.106797,0.999998,0.000180,-0.002570,0.005463,-0.001286,0.005664,-0.002771,-81.124709,0.005664,
1440,830,-0.931971,-9.872747,0.999996,0.000236,-0.005892,0.009652,0.001506,0.009797,-0.006037,84.516310,0.009885,
1500,460,-0.626272,-12.522465,0.999997,0.000203,-0.003038,0.006778,0.000594,0.006814,-0.003073,86.550764,0.006825,
1490,160,-0.207912,-14.401153,0.999998,0.000179,-0.001201,0.005521,-0.000534,0.005563,-0.001243,-85.484102,0.005840,
1810,1040,-2.935740,-7.473572,0.999997,0.000212,-0.003257,0.006950,0.000160,0.006952,-0.003259,89.103748,0.006957,
730,240,0.913682,-13.636234,0.999998,0.000169,-0.003054,0.007451,0.000684,0.007495,-0.003098,86.291164,0.007533,
800,1360,1.683486,-4.851255,0.999997,0.000224,-0.004529,0.008314,-0.000208,0.008317,-0.004533,-89.074399,0.008329,
1000,630,0.642615,-11.430010,0.999996,0.000232,-0.004095,0.007327,-0.001455,0.007510,-0.004277,-82.854189,0.007534,
760,980,2.567991,-7.913682,0.999997,0.000224,-0.003234,0.007433,0.000326,0.007443,-0.003244,88.252000,0.007463,
1590,150,-0.318295,-14.403820,0.999997,0.000191,-0.001624,0.006015,-0.000925,0.006125,-0.001734,-83.195102,0.006314,
1500,960,-1.883141,-8.214475,0.999997,0.000229,-0.003527,0.009753,-0.000777,0.009799,-0.003573,-86.661009,0.009918,
1500,220,-0.318665,-14.052422,0.999997,0.000196,-0.001805,0.005815,-0.000345,0.005831,-0.001820,-87.413702,0.005966,
1070,1900,0.109480,-0.654699,0.999998,0.000189,-0.000754,0.005142,-0.000307,0.005158,-0.000770,-87.024790,0.005565,
1680,1530,-1.376924,-3.521114,0.999996,0.000207,-0.003986,0.007791,-0.000247,0.007796,-0.003991,-88.797004,0.007797,
1460,500,-0.539153,-12.345379,0.999996,0.000210,-0.003101,0.006617,0.000883,0.006697,-0.003181,84.848753,0.006700,
1670,670,-1.650883,-10.459205,0.999997,0.000224,-0.004453,0.008239,-0.000121,0.008240,-0.004454,-89.454760,0.008249,
1580,1720,-0.695991,-1.904650,0.999997,0.000188,-0.002981,0.006871,-0.000032,0.006871,-0.002981,-89.811714,0.006891,
660,330,1.417751,-12.790995,0.999997,0.000227,-0.003670,0.007551,0.000046,0.007551,-0.003670,89.767607,0.007552,
1060,240,0.199066,-14.009563,0.999998,0.000169,-0.001399,0.005472,0.000132,0.005475,-0.001401,88.898445,0.005688,
970,810,1.162736,-9.746421,0.999996,0.000234,-0.005757,0.009755,-0.000497,0.009771,-0.005772,-88.168366,0.009824,
910,1380,1.118132,-4.382507,0.999997,0.000234,-0.004810,0.008472,0.000637,0.008502,-0.004840,87.259472,0.008530,
800,900,2.280507,-8.554672,0.999997,0.000247,-0.003734,0.008066,0.000990,0.008148,-0.003816,85.237294,0.008154,
710,1830,0.929715,-1.415337,0.999997,0.000205,-0.003399,0.007456,-0.000611,0.007490,-0.003434,-86.788118,0.007499,
1860,2010,-0.299236,-0.271667,0.999983,0.000460,-0.002195,0.007761,0.002970,0.008580,-0.003013,74.590184,0.008705,
1580,1920,-0.263644,-0.621389,0.999998,0.000192,-0.001386,0.005782,0.000890,0.005891,-0.001495,83.025851,0.006125,
1540,1590,-0.763384,-2.726764,0.999998,0.000206,-0.003395,0.007090,-0.000562,0.007120,-0.003425,-86.940580,0.007122,
760,1250,2.172341,-5.838000,0.999996,0.000237,-0.004142,0.008046,-0.000785,0.008096,-0.004193,-86.332104,0.008098,
1160,360,0.113371,-13.418579,0.999998,0.000145,-0.001622,0.005399,-0.000107,0.005400,-0.001624,-89.127631,0.005541,
1460,890,-1.350671,-9.109579,0.999994,0.000296,-0.005434,0.010531,0.000207,0.010533,-0.005437,89.256254,0.010535,
760,960,2.544738,-8.064811,0.999997,0.000223,-0.003327,0.007543,0.000614,0.007577,-0.003362,86.778981,0.007593,
1590,950,-2.154418,-8.191833,0.999997,0.000207,-0.003324,0.008321,-0.000860,0.008384,-0.003387,-85.799260,0.008436,
970,1210,1.308703,-5.720702,0.999995,0.000290,-0.005674,0.010063,0.000039,0.010063,-0.005674,89.856619,0.010090,
800,1620,1.142760,-2.791174,0.999997,0.000206,-0.003582,0.007465,0.000190,0.007468,-0.003585,89.014440,0.007470,
1580,1940,-0.220555,-0.509575,0.999998,0.000191,-0.001196,0.005689,0.000976,0.005825,-0.001332,82.082458,0.006104,
570,1580,2.089419,-3.649005,0.999995,0.000278,-0.003599,0.007680,0.000005,0.007680,-0.003599,89.975736,0.007685,
1600,1390,-1.318590,-4.441771,0.999996,0.000207,-0.004670,0.008412,-0.000303,0.008419,-0.004677,-88.671806,0.008436,
1610,1840,-0.521206,-1.142265,0.999997,0.000233,-0.002162,0.006464,0.000725,0.006525,-0.002222,85.228147,0.006634,
1850,1940,-0.747750,-0.809364,0.999997,0.000196,-0.003617,0.008021,0.001196,0.008142,-0.003739,84.190802,0.008151,
1280,1570,-0.091038,-2.359447,0.999998,0.000168,-0.001894,0.005246,-0.000250,0.005255,-0.001903,-88.000421,0.005321,
1730,1800,-0.951629,-1.590461,0.999997,0.000195,-0.003128,0.007462,0.000604,0.007497,-0.003163,86.746347,0.007527,
800,1340,1.738595,-5.019804,0.999997,0.000234,-0.004538,0.008349,-0.000327,0.008357,-0.004547,-88.549310,0.008368,
1310,640,-0.148284,-11.936192,0.999998,0.000164,-0.002211,0.004767,0.001343,0.005017,-0.002461,79.471084,0.005017,
1770,1040,-2.805177,-7.470961,0.999997,0.000194,-0.003239,0.007191,0.000195,0.007195,-0.003242,88.927116,0.007207,
780,510,1.359335,-11.708411,0.999996,0.000219,-0.003916,0.007720,-0.000244,0.007725,-0.003921,-88.797093,0.007726,
1080,770,0.433131,-10.830383,0.999995,0.000255,-0.004757,0.007189,-0.002989,0.007896,-0.005463,-76.707954,0.008087,
670,1060,2.867967,-7.329672,0.999998,0.000155,-0.003273,0.007020,-0.000212,0.007025,-0.003278,-88.823202,0.007030,
1540,1180,-1.688898,-6.181824,0.999996,0.000224,-0.004769,0.009509,0.000891,0.009565,-0.004824,86.444580,0.009565,
1500,200,-0.288106,-14.166673,0.999998,0.000180,-0.001647,0.005761,-0.000427,0.005785,-0.001671,-86.710130,0.005955,
1710,330,-1.085770,-13.008541,0.999997,0.000181,-0.003312,0.007405,-0.000156,0.007407,-0.003314,-89.165791,0.007421,
750,220,0.794343,-13.813106,0.999997,0.000197,-0.002715,0.007198,0.000990,0.007296,-0.002813,84.349806,0.007360,
1060,220,0.178818,-14.119240,0.999998,0.000164,-0.001295,0.005387,0.000181,0.005392,-0.001300,88.452927,0.005627,
1390,1400,-0.377904,-3.560603,0.999997,0.000189,-0.003516,0.006366,-0.002003,0.006756,-0.003906,-78.966131,0.006784,
640,330,1.491014,-12.741676,0.999996,0.000228,-0.003685,0.007543,0.000000,0.007543,-0.003685,-89.998730,0.007544,
1580,1680,-0.761504,-2.178102,0.999997,0.000204,-0.003138,0.006963,-0.000183,0.006966,-0.003141,-88.961090,0.006977,
890,1380,1.212740,-4.444609,0.999998,0.000172,-0.004782,0.008510,0.000445,0.008525,-0.004797,88.085576,0.008548,
1050,1900,0.129164,-0.662478,0.999998,0.000252,-0.000946,0.005199,-0.000316,0.005215,-0.000962,-87.060515,0.005551,
1670,650,-1.601353,-10.624186,0.999996,0.000219,-0.004401,0.008162,-0.000033,0.008162,-0.004401,-89.850206,0.008170,
1850,2010,-0.269394,-0.248311,0.999996,0.000218,-0.002829,0.007237,0.002418,0.007788,-0.003379,77.171833,0.007810,
1770,1600,-1.581512,-3.200370,0.999995,0.000241,-0.003802,0.007615,-0.000141,0.007616,-0.003804,-89.293974,0.007616,
1460,460,-0.508202,-12.610458,0.999997,0.000209,-0.002942,0.006545,0.000749,0.006604,-0.003001,85.512037,0.006613,
970,830,1.240087,-9.551335,0.999996,0.000246,-0.005742,0.009960,-0.000238,0.009963,-0.005746,-89.130151,0.010002,
720,300,1.123782,-13.162737,0.999997,0.000209,-0.003484,0.007491,0.000230,0.007496,-0.003489,88.797552,0.007502,
1160,340,0.108540,-13.525966,0.999998,0.000164,-0.001549,0.005384,-0.000069,0.005385,-0.001550,-89.428207,0.005544,
800,880,2.228790,-8.715333,0.999997,0.000245,-0.003870,0.008110,0.000951,0.008185,-0.003945,85.488753,0.008187,
1580,1900,-0.314340,-0.741066,0.999998,0.000193,-0.001553,0.005947,0.000874,0.006048,-0.001654,83.439403,0.006251,
1610,1220,-1.863541,-5.956309,0.999997,0.000183,-0.004562,0.008802,0.000885,0.008860,-0.004621,86.226759,0.008863,
970,1190,1.399170,-5.921216,0.999995,0.000279,-0.005500,0.010088,-0.000230,0.010091,-0.005503,-89.156569,0.010105,
1440,890,-1.239769,-9.243839,0.999993,0.000312,-0.005351,0.010611,0.000938,0.010665,-0.005406,86.647286,0.010666,
1580,1400,-1.204108,-4.297187,0.999998,0.000186,-0.004662,0.008344,-0.000466,0.008361,-0.004679,-87.952557,0.008380,
1060,910,1.174268,-9.412454,0.999987,0.000428,-0.004398,0.009795,-0.003633,0.010671,-0.005274,-76.445190,0.010671,
760,940,2.508503,-8.217601,0.999996,0.000237,-0.003399,0.007573,0.000686,0.007615,-0.003442,86.438473,0.007627,
860,1070,2.266783,-7.221036,0.999998,0.000205,-0.002990,0.008014,-0.000547,0.008041,-0.003017,-87.160004,0.008124,
760,510,1.439045,-11.658634,0.999998,0.000194,-0.003925,0.007745,-0.000198,0.007748,-0.003928,-89.025835,0.007748,
1590,930,-2.098279,-8.361660,0.999997,0.000206,-0.003552,0.008549,-0.001044,0.008639,-0.003642,-85.105035,0.008674,
1610,1940,-0.254911,-0.521412,0.999998,0.000191,-0.001138,0.005886,0.001161,0.006073,-0.001325,80.856438,0.006387,
1220,90,0.004624,-14.799574,0.999999,0.000143,-0.000369,0.004614,0.000012,0.004614,-0.000369,89.859877,0.005128,
1580,1660,-0.795069,-2.318768,0.999997,0.000196,-0.003168,0.007051,-0.000232,0.007056,-0.003174,-88.702186,0.007068,
1400,290,-0.236400,-13.734342,0.999997,0.000203,-0.001696,0.005672,0.000008,0.005672,-0.001696,89.934158,0.005823,
770,1520,1.450068,-3.632723,0.999997,0.000233,-0.004023,0.007807,0.000211,0.007811,-0.004027,88.978543,0.007812,
1830,1940,-0.675154,-0.735601,0.999997,0.000187,-0.003323,0.007947,0.001391,0.008116,-0.003493,83.065053,0.008142,
1260,1570,-0.053650,-2.349860,0.999998,0.000161,-0.001864,0.005202,-0.000254,0.005211,-0.001873,-87.946951,0.005280,
1710,310,-1.042288,-13.153933,0.999997,0.000209,-0.003221,0.007363,-0.000257,0.007369,-0.003227,-88.611001,0.007388,
1030,660,0.545401,-11.334818,0.999997,0.000196,-0.004123,0.007231,-0.001835,0.007520,-0.004412,-81.045135,0.007557,
800,1600,1.180851,-2.942429,0.999997,0.000226,-0.003689,0.007518,0.000252,0.007524,-0.003695,88.715083,0.007524,
800,1320,1.793561,-5.186418,0.999996,0.000250,-0.004537,0.008411,-0.000425,0.008425,-0.004551,-88.121923,0.008434,
1280,550,-0.091266,-12.428600,0.999998,0.000182,-0.001972,0.005002,0.000465,0.005033,-0.002003,86.198510,0.005067,
1360,1410,-0.277923,-3.373963,0.999997,0.000198,-0.002960,0.005717,-0.001829,0.006087,-0.003330,-78.570223,0.006096,
1030,1900,0.147110,-0.671102,0.999998,0.000203,-0.000924,0.005267,-0.000411,0.005294,-0.000952,-86.220002,0.005645,
1500,180,-0.254226,-14.283333,0.999998,0.000159,-0.001500,0.005649,-0.000477,0.005680,-0.001532,-86.196951,0.005878,
570,1840,1.390152,-1.736924,0.999863,0.001298,-0.004275,0.007901,-0.000207,0.007905,-0.004279,-89.028449,0.007913,
1060,200,0.159559,-14.225677,0.999998,0.000176,-0.001164,0.005345,0.000242,0.005354,-0.001173,87.869619,0.005628,
1730,80,-0.266598,-14.757690,0.999998,0.000170,-0.001242,0.006151,-0.001888,0.006606,-0.001696,-76.469811,0.006861,
1500,1350,-0.914024,-4.438813,0.999997,0.000217,-0.005059,0.008567,-0.001157,0.008665,-0.005157,-85.182863,0.008717,
1340,1830,-0.112152,-0.998245,0.999998,0.000158,-0.001164,0.005187,0.000049,0.005188,-0.001164,89.559573,0.005444,
970,850,1.329380,-9.349493,0.999996,0.000280,-0.005626,0.010093,0.000038,0.010093,-0.005626,89.861065,0.010115,
1670,630,-1.554937,-10.789330,0.999996,0.000205,-0.004329,0.008123,0.000058,0.008123,-0.004329,89.733676,0.008129,
1460,440,-0.490934,-12.742963,0.999997,0.000198,-0.002810,0.006467,0.000641,0.006511,-0.002854,86.068896,0.006528,
970,1170,1.498330,-6.124596,0.999995,0.000259,-0.005198,0.010136,-0.000496,0.010152,-0.005214,-88.148649,0.010153,
800,860,2.170076,-8.879829,0.999997,0.000222,-0.004008,0.008246,0.000971,0.008323,-0.004085,85.496865,0.008323,
800,1470,1.428027,-3.953045,0.999996,0.000240,-0.004209,0.007881,0.000169,0.007884,-0.004211,89.197071,0.007890,
1160,320,0.103441,-13.634424,0.999998,0.000153,-0.001446,0.005426,-0.000038,0.005427,-0.001446,-89.681718,0.005620,
1610,600,-1.230885,-11.185672,0.999996,0.000230,-0.004337,0.007986,0.000429,0.008001,-0.004351,88.010647,0.008011,
1880,1600,-1.996370,-3.466565,0.999997,0.000196,-0.003711,0.007549,-0.000053,0.007549,-0.003711,-89.729958,0.007550,
570,790,2.853084,-9.094737,0.999980,0.000577,-0.003874,0.006787,-0.000075,0.006788,-0.003875,-89.599579,0.006810,
1580,1880,-0.360774,-0.858886,0.999997,0.000202,-0.001770,0.006035,0.000758,0.006108,-0.001843,84.506838,0.006266,
1840,2010,-0.237713,-0.221312,0.999998,0.000197,-0.003033,0.006949,0.002176,0.007403,-0.003487,78.219591,0.007407,
1460,1810,-0.290830,-1.182881,0.999998,0.000158,-0.001490,0.005823,0.000283,0.005834,-0.001501,87.785661,0.006059,
680,1990,0.266748,-0.293441,0.999997,0.000262,-0.001088,0.007006,-0.002822,0.007893,-0.001974,-72.553853,0.008215,
770,1500,1.490036,-3.787157,0.999998,0.000205,-0.004081,0.007810,0.000175,0.007812,-0.004083,89.158420,0.007815,
1710,710,-1.930860,-10.046066,0.999997,0.000218,-0.004255,0.008083,-0.000401,0.008096,-0.004268,-88.142562,0.008100,
1010,1040,1.855113,-7.411758,0.999991,0.000371,-0.004252,0.012554,0.000161,0.012556,-0.004253,89.449631,0.012771,
760,920,2.473714,-8.368578,0.999996,0.000239,-0.003512,0.007663,0.000711,0.007708,-0.003557,86.373952,0.007715,
1590,910,-2.034867,-8.533693,0.999998,0.000191,-0.003841,0.008607,-0.001041,0.008693,-0.003927,-85.250891,0.008707,
1580,1380,-1.245823,-4.465318,0.999997,0.000199,-0.004776,0.008511,-0.000414,0.008524,-0.004789,-88.218609,0.008546,
1400,850,-0.794980,-10.030027,0.999997,0.000190,-0.005514,0.008730,0.002336,0.009104,-0.005887,80.919430,0.009233,
1570,1040,-2.199718,-7.455787,0.999997,0.000242,-0.002706,0.008250,0.000233,0.008255,-0.002710,88.780332,0.008416,
1140,290,0.121492,-13.785798,0.999998,0.000148,-0.001493,0.005339,-0.000084,0.005340,-0.001494,-89.293996,0.005510,
720,1250,2.332660,-5.887434,0.999996,0.000241,-0.003926,0.007782,-0.000755,0.007831,-0.003974,-86.327468,0.007831,
800,1580,1.217162,-3.094303,0.999996,0.000230,-0.003781,0.007575,0.000297,0.007583,-0.003789,88.503613,0.007583,
1520,1950,-0.145761,-0.432196,0.999998,0.000177,-0.000789,0.005344,0.000771,0.005439,-0.000885,82.940236,0.005837,
1710,290,-0.989977,-13.303019,0.999998,0.000171,-0.003134,0.007395,-0.000408,0.007411,-0.003150,-87.784906,0.007438,
820,870,2.119828,-8.818351,0.999997,0.000209,-0.004080,0.008375,0.001012,0.008457,-0.004162,85.385496,0.008457,
1580,1640,-0.826159,-2.461139,0.999997,0.000202,-0.003222,0.007087,-0.000296,0.007095,-0.003230,-88.356688,0.007105,
1140,1570,0.178377,-2.405740,0.999998,0.000183,-0.002150,0.005460,0.000656,0.005516,-0.002206,85.106910,0.005553,
1200,90,0.012813,-14.799320,0.999999,0.000169,-0.000299,0.004642,0.000059,0.004643,-0.000300,89.317174,0.005197,
990,460,0.547532,-12.582320,0.999997,0.000229,-0.002979,0.006614,-0.000695,0.006665,-0.003029,-85.879430,0.006674,
1360,1390,-0.277810,-3.489753,0.999996,0.000238,-0.003118,0.005738,-0.002074,0.006200,-0.003580,-77.450427,0.006225,
1190,1900,0.028082,-0.631258,0.999998,0.000156,-0.000636,0.004888,-0.000084,0.004890,-0.000637,-89.130334,0.005317,
1060,400,0.324073,-13.086480,0.999997,0.000198,-0.002370,0.005903,-0.000517,0.005935,-0.002402,-86.436501,0.005971,
1710,970,-2.582758,-7.988407,0.999996,0.000220,-0.003254,0.007445,-0.000455,0.007465,-0.003273,-87.567095,0.007483,
1500,940,-1.802107,-8.411160,0.999996,0.000247,-0.003970,0.009949,-0.000840,0.010000,-0.004021,-86.560499,0.010063,
620,310,1.512313,-12.837621,0.999998,0.000215,-0.003690,0.007498,-0.000009,0.007498,-0.003690,-89.954721,0.007498,
1500,440,-0.608501,-12.656819,0.999997,0.000200,-0.002931,0.006691,0.000527,0.006720,-0.002960,86.876977,0.006736,
1590,130,-0.268344,-14.521436,0.999998,0.000185,-0.001384,0.005809,-0.000969,0.005937,-0.001512,-82.458196,0.006171,
1460,420,-0.472338,-12.873783,0.999997,0.000203,-0.002654,0.006351,0.000509,0.006380,-0.002682,86.777076,0.006407,
970,870,1.425497,-9.144720,0.999996,0.000266,-0.005397,0.010090,0.000305,0.010096,-0.005403,88.871611,0.010105,
1300,490,-0.129645,-12.719509,0.999998,0.000162,-0.002053,0.005326,0.000489,0.005358,-0.002085,86.223911,0.005402,
800,1300,1.850094,-5.357802,0.999997,0.000228,-0.004520,0.008459,-0.000522,0.008480,-0.004541,-87.699911,0.008487,
1400,1390,-0.416046,-3.668118,0.999997,0.000190,-0.003738,0.006604,-0.002046,0.006994,-0.004128,-79.207170,0.007032,
1860,1410,-2.357913,-4.872222,0.999996,0.000244,-0.003777,0.007556,0.000142,0.007558,-0.003779,89.284482,0.007558,
1500,380,-0.542592,-13.052687,0.999997,0.000202,-0.002756,0.006478,0.000329,0.006489,-0.002768,87.960867,0.006513,
720,780,2.264983,-9.426811,0.999997,0.000231,-0.004045,0.007885,0.000665,0.007922,-0.004082,86.818391,0.007923,
1790,2010,-0.165269,-0.165013,0.999997,0.000229,-0.000386,0.006418,0.002770,0.007403,-0.001371,70.423285,0.007877,
620,1570,1.923799,-3.607422,0.999998,0.000183,-0.003775,0.007620,0.000096,0.007621,-0.003776,89.519125,0.007621,
610,540,2.082623,-11.067684,0.999997,0.000182,-0.003759,0.007615,-0.000028,0.007615,-0.003759,-89.856673,0.007616,
1580,1280,-1.513786,-5.350972,0.999995,0.000250,-0.005085,0.009047,0.000283,0.009053,-0.005091,88.853110,0.009076,
1830,1480,-2.074477,-4.265909,0.999998,0.000176,-0.003810,0.007686,0.000026,0.007686,-0.003810,89.872220,0.007687,
1890,1600,-2.033872,-3.490315,0.999997,0.000200,-0.003716,0.007553,-0.000045,0.007553,-0.003716,-89.768884,0.007553,
680,1250,2.487947,-5.940372,0.999997,0.000218,-0.003825,0.007597,-0.000694,0.007639,-0.003867,-86.535328,0.007640,
660,1990,0.288039,-0.299065,0.999997,0.000230,-0.001027,0.007189,-0.002966,0.008148,-0.001986,-72.088811,0.008497,
640,830,2.697874,-8.939875,0.999997,0.000203,-0.003553,0.007174,0.000517,0.007199,-0.003578,87.246205,0.007199,
1210,1900,0.015934,-0.630750,0.999998,0.000176,-0.000670,0.004881,-0.000017,0.004881,-0.000670,-89.825002,0.005291,
810,360,0.962144,-12.908366,0.999997,0.000199,-0.003384,0.007241,-0.000034,0.007241,-0.003384,-89.814480,0.007246,
1870,970,-3.098011,-7.929149,0.999998,0.000187,-0.003110,0.006295,-0.000043,0.006295,-0.003110,-89.738730,0.006295,
1590,890,-1.971462,-8.706516,0.999997,0.000208,-0.004112,0.008791,-0.001103,0.008885,-0.004205,-85.147403,0.008889,
1500,550,-0.714946,-11.890382,0.999997,0.000177,-0.003672,0.007205,0.000956,0.007288,-0.003756,85.015875,0.007290,
1670,350,-0.999467,-12.942632,0.999998,0.000165,-0.003396,0.007238,0.000005,0.007238,-0.003396,89.972282,0.007243,
1380,810,-0.511082,-10.557652,0.999994,0.000304,-0.005158,0.007676,0.003161,0.008412,-0.005894,76.886419,0.008635,
1630,380,-0.926613,-12.809276,0.999998,0.000149,-0.003184,0.007185,0.000049,0.007185,-0.003184,89.729930,0.007201,
1580,1620,-0.855485,-2.605198,0.999998,0.000196,-0.003302,0.007149,-0.000341,0.007160,-0.003313,-88.131194,0.007167,
1710,950,-2.550712,-8.138667,0.999997,0.000200,-0.003350,0.007551,-0.000669,0.007592,-0.003390,-86.500447,0.007606,
1580,1860,-0.407247,-0.984068,0.999997,0.000209,-0.001957,0.006202,0.000677,0.006258,-0.002012,85.288906,0.006389,
630,1580,1.864650,-3.505768,0.999997,0.000182,-0.003750,0.007632,0.000113,0.007634,-0.003752,89.430027,0.007634,
920,570,0.903560,-11.613185,0.999997,0.000209,-0.004023,0.007637,-0.000820,0.007694,-0.004081,-85.996119,0.007699,
1820,710,-2.374510,-9.840835,0.999997,0.000195,-0.003812,0.007601,-0.000342,0.007612,-0.003822,-88.283650,0.007612,
1340,1410,-0.222199,-3.302830,0.999998,0.000172,-0.002725,0.005299,-0.001820,0.005692,-0.003119,-77.799443,0.005701,
1180,90,0.018240,-14.799151,0.999998,0.000179,-0.000297,0.004656,0.000109,0.004658,-0.000299,88.740282,0.005214,
800,870,2.200426,-8.796705,0.999997,0.000238,-0.003943,0.008188,0.000961,0.008263,-0.004018,85.499767,0.008264,
760,900,2.430584,-8.525735,0.999996,0.000238,-0.003636,0.007849,0.000881,0.007916,-0.003703,85.637211,0.007922,
1440,1580,-0.460071,-2.559682,0.999997,0.000202,-0.002870,0.006391,-0.000795,0.006459,-0.002937,-85.130241,0.006468,
1750,1370,-2.027644,-4.950608,0.999998,0.000196,-0.004060,0.007896,0.000317,0.007905,-0.004068,88.482255,0.007906,
1430,600,-0.496857,-11.767266,0.999997,0.000213,-0.003524,0.006774,0.001472,0.006981,-0.003730,82.023558,0.006986,
720,540,1.658271,-11.328319,0.999996,0.000217,-0.003970,0.007798,-0.000105,0.007799,-0.003971,-89.487234,0.007800,
1050,1710,0.305756,-1.717775,0.999997,0.000205,-0.002124,0.005832,0.000286,0.005842,-0.002134,87.947077,0.005912,
1750,1650,-1.401388,-2.769897,0.999997,0.000218,-0.003708,0.007613,-0.000096,0.007614,-0.003709,-89.516190,0.007615,
1780,1310,-2.313785,-5.476072,0.999997,0.000199,-0.003924,0.007755,0.000534,0.007779,-0.003949,87.388368,0.007779,
1580,1260,-1.579931,-5.532938,0.999996,0.000262,-0.005070,0.009124,0.000438,0.009137,-0.005084,88.233068,0.009156,
620,290,1.454748,-12.988977,0.999998,0.000214,-0.003691,0.007446,0.000035,0.007446,-0.003691,89.820023,0.007446,
610,600,2.221958,-10.609270,0.999997,0.000222,-0.003840,0.007653,0.000054,0.007654,-0.003840,89.730163,0.007654,
1020,670,0.594774,-11.219280,0.999996,0.000233,-0.004308,0.007450,-0.001783,0.007715,-0.004573,-81.563771,0.007759,
1460,400,-0.456446,-13.000769,0.999997,0.000216,-0.002481,0.006290,0.000385,0.006307,-0.002498,87.492838,0.006352,
1400,1370,-0.427030,-3.800960,0.999995,0.000252,-0.003981,0.006748,-0.002221,0.007189,-0.004422,-78.754500,0.007253,
740,870,2.428073,-8.746036,0.999997,0.000228,-0.003747,0.007705,0.000838,0.007766,-0.003808,85.838773,0.007767,
1730,1860,-0.749010,-1.148050,0.999997,0.000199,-0.002737,0.007252,0.001098,0.007371,-0.002857,83.802809,0.007433,
1500,660,-0.839734,-11.055242,0.999997,0.000218,-0.004646,0.008018,0.001199,0.008130,-0.004759,84.636761,0.008170,
970,990,1.952657,-7.933990,0.999996,0.000212,-0.003167,0.010017,0.000427,0.010031,-0.003181,88.146393,0.010252,
1160,1510,0.138848,-2.696509,0.999998,0.000191,-0.002154,0.005181,0.000792,0.005266,-0.002238,83.906893,0.005285,
1060,580,0.398450,-11.988380,0.999997,0.000215,-0.003166,0.006269,-0.001448,0.006486,-0.003383,-81.468115,0.006488,
1570,280,-0.565453,-13.607117,0.999996,0.000217,-0.002431,0.006589,-0.000286,0.006598,-0.002440,-88.183112,0.006672,
640,1070,2.957275,-7.267558,0.999998,0.000192,-0.003215,0.006787,-0.000174,0.006790,-0.003218,-89.005258,0.006793,
1590,870,-1.895098,-8.886571,0.999996,0.000231,-0.004384,0.008856,-0.001012,0.008933,-0.004461,-85.653400,0.008933,
1060,1210,0.785173,-5.076137,0.999994,0.000278,-0.005599,0.008839,0.002289,0.009193,-0.005953,81.203047,0.009326,
1620,1700,-0.849712,-2.114566,0.999998,0.000190,-0.002925,0.007054,0.000091,0.007054,-0.002926,89.479641,0.007089,
800,170,0.499361,-14.223570,0.999997,0.000182,-0.002245,0.006559,0.001065,0.006686,-0.002372,83.199630,0.006779,
1670,610,-1.511022,-10.950229,0.999997,0.000197,-0.004264,0.008021,0.000115,0.008022,-0.004265,89.461491,0.008027,
1580,1600,-0.883569,-2.746456,0.999998,0.000186,-0.003413,0.007206,-0.000408,0.007221,-0.003429,-87.804994,0.007224,
1710,930,-2.516308,-8.289218,0.999998,0.000204,-0.003442,0.007542,-0.000651,0.007580,-0.003480,-86.619026,0.007589,
1580,1840,-0.453063,-1.107923,0.999997,0.000193,-0.002141,0.006255,0.000585,0.006296,-0.002182,86.031826,0.006394,
800,1560,1.254448,-3.247651,0.999996,0.000227,-0.003859,0.007654,0.000277,0.007660,-0.003865,88.622584,0.007660,
1010,1120,1.572313,-6.459455,0.999992,0.000311,-0.004629,0.011047,0.000337,0.011054,-0.004636,88.768147,0.011102,
1770,1520,-1.753927,-3.817017,0.999997,0.000182,-0.003922,0.007709,-0.000082,0.007709,-0.003922,-89.595074,0.007710,
1120,1570,0.221631,-2.433582,0.999998,0.000165,-0.002140,0.005587,0.000638,0.005639,-0.002192,85.313357,0.005686,
1460,290,-0.347318,-13.672567,0.999997,0.000211,-0.001801,0.005988,-0.000126,0.005990,-0.001803,-89.074333,0.006146,
1330,1560,-0.195693,-2.470268,0.999998,0.000168,-0.002179,0.005525,-0.000671,0.005583,-0.002237,-85.057718,0.005620,
1710,730,-1.986682,-9.884649,0.999997,0.000196,-0.004245,0.008111,-0.000514,0.008132,-0.004267,-87.623289,0.008135,
1610,380,-0.865105,-12.846526,0.999998,0.000155,-0.003095,0.007041,0.000107,0.007042,-0.003096,89.393223,0.007059,
1380,1890,-0.109383,-0.704172,0.999998,0.000148,-0.000746,0.005106,0.000273,0.005118,-0.000758,87.336455,0.005525,
1280,90,-0.016540,-14.798633,0.999998,0.000155,-0.000269,0.004619,-0.000100,0.004621,-0.000271,-88.825196,0.005187,
1820,630,-2.167496,-10.452874,0.999996,0.000232,-0.003863,0.007702,-0.000132,0.007703,-0.003865,-89.347084,0.007703,
920,550,0.878294,-11.766454,0.999998,0.000173,-0.003923,0.007540,-0.000783,0.007593,-0.003976,-86.110550,0.007596,
1050,1690,0.321975,-1.838323,0.999997,0.000197,-0.002224,0.005979,0.000332,0.005993,-0.002237,87.688034,0.006057,
1850,360,-1.665532,-12.443381,0.999995,0.000235,-0.003660,0.007496,0.000094,0.007497,-0.003661,89.519794,0.007498,
620,250,1.328537,-13.291059,0.999997,0.000209,-0.003654,0.007549,0.000151,0.007551,-0.003656,89.225906,0.007552,
970,970,1.897237,-8.125668,0.999997,0.000182,-0.003437,0.009901,0.000659,0.009933,-0.003470,87.177537,0.010083,
1480,1350,-0.814010,-4.352102,0.999997,0.000217,-0.005000,0.008408,-0.001421,0.008557,-0.005149,-84.015093,0.008616,
870,1060,2.246819,-7.299003,0.999997,0.000188,-0.002911,0.008018,-0.000406,0.008033,-0.002926,-87.875093,0.008131,
970,1150,1.604651,-6.334827,0.999995,0.000292,-0.004837,0.010164,-0.000660,0.010193,-0.004866,-87.485630,0.010197,
990,1400,0.711069,-3.916476,0.999996,0.000230,-0.004470,0.007691,0.001458,0.007864,-0.004642,83.257208,0.007907,
720,520,1.614154,-11.485703,0.999997,0.000214,-0.003932,0.007761,-0.000141,0.007763,-0.003933,-89.310272,0.007763,
1460,380,-0.439440,-13.122490,0.999997,0.000209,-0.002319,0.006270,0.000281,0.006279,-0.002328,88.128642,0.006348,
1750,1410,-1.927089,-4.634113,0.999997,0.000201,-0.004070,0.007894,0.000169,0.007897,-0.004073,89.190886,0.007898,
1060,290,0.241489,-13.731839,0.999997,0.000203,-0.001701,0.005664,-0.000024,0.005664,-0.001701,-89.811679,0.005812,
1750,1350,-2.083693,-5.108909,0.999998,0.000181,-0.004057,0.007884,0.000414,0.007898,-0.004071,88.016586,0.007900,
1500,920,-1.707543,-8.614898,0.999996,0.000249,-0.004417,0.009991,-0.000812,0.010037,-0.004463,-86.786496,0.010057,
710,1580,1.560295,-3.311504,0.999997,0.000217,-0.003805,0.007688,0.000160,0.007690,-0.003807,89.201191,0.007690,
1420,1830,-0.208477,-1.039504,0.999997,0.000204,-0.001478,0.005485,0.000143,0.005488,-0.001481,88.825373,0.005679,
1500,420,-0.588817,-12.788082,0.999997,0.000201,-0.002849,0.006626,0.000449,0.006647,-0.002870,87.290262,0.006668,
800,1070,2.445398,-7.235382,0.999997,0.000206,-0.003123,0.007635,-0.000368,0.007648,-0.003135,-88.040954,0.007689,
1590,850,-1.824749,-9.063165,0.999996,0.000222,-0.004594,0.008990,-0.000914,0.009052,-0.004655,-86.169269,0.009053,
800,840,2.108091,-9.046557,0.999997,0.000195,-0.004147,0.008264,0.000929,0.008334,-0.004216,85.742142,0.008334,
1620,1680,-0.888837,-2.256290,0.999998,0.000224,-0.003084,0.007110,-0.000025,0.007110,-0.003084,-89.859499,0.007131,
1090,730,0.345303,-11.173218,0.999996,0.000246,-0.004015,0.006401,-0.002769,0.007091,-0.004705,-76.002155,0.007217,
1710,1860,-0.697965,-1.121921,0.999997,0.000194,-0.002464,0.007137,0.001167,0.007276,-0.002604,83.170527,0.007374,
1180,1510,0.097583,-2.668730,0.999998,0.000169,-0.001983,0.005043,0.000495,0.005078,-0.002017,85.988147,0.005113,
990,1120,1.662772,-6.558402,0.999995,0.000256,-0.004447,0.010669,-0.000359,0.010678,-0.004456,-88.639594,0.010727,
1460,630,-0.632073,-11.442714,0.999996,0.000244,-0.004053,0.007293,0.001471,0.007481,-0.004240,82.733416,0.007503,
1820,690,-2.321117,-9.992931,0.999996,0.000228,-0.003825,0.007570,-0.000308,0.007579,-0.003833,-88.451928,0.007579,
1490,1540,-0.645378,-2.951074,0.999997,0.000211,-0.003412,0.006926,-0.000890,0.007002,-0.003488,-85.116098,0.007002,
1580,1820,-0.498111,-1.234073,0.999997,0.000204,-0.002321,0.006420,0.000478,0.006446,-0.002347,86.882061,0.006525,
1750,300,-1.147639,-13.146875,0.999997,0.000215,-0.003556,0.007485,-0.000179,0.007487,-0.003559,-89.071627,0.007490,
720,760,2.206677,-9.588049,0.999997,0.000206,-0.004107,0.007959,0.000618,0.007991,-0.004139,87.073679,0.007992,
800,1540,1.290407,-3.402681,0.999997,0.000177,-0.003925,0.007737,0.000286,0.007744,-0.003932,88.597105,0.007744,
1100,1570,0.265431,-2.464009,0.999997,0.000181,-0.002342,0.005776,0.000741,0.005843,-0.002409,84.829384,0.005873,
1060,560,0.390900,-12.115860,0.999997,0.000202,-0.002998,0.006220,-0.001274,0.006393,-0.003171,-82.274776,0.006393,
1890,620,-2.409154,-10.368458,0.999997,0.000213,-0.003804,0.007640,-0.000049,0.007640,-0.003804,-89.752502,0.007640,
1260,90,-0.010564,-14.798758,0.999998,0.000150,-0.000340,0.004603,-0.000037,0.004603,-0.000340,-89.572817,0.005130,
610,580,2.174198,-10.762590,0.999998,0.000160,-0.003851,0.007646,0.000025,0.007646,-0.003851,89.873549,0.007646,
1480,1330,-0.849684,-4.523632,0.999995,0.000267,-0.005218,0.008626,-0.001358,0.008758,-0.005350,-84.451708,0.008829,
1620,1030,-2.344326,-7.541003,0.999998,0.000221,-0.002880,0.007919,0.000038,0.007920,-0.002880,89.796562,0.008017,
970,1130,1.701904,-6.537022,0.999996,0.000250,-0.004393,0.010115,-0.000734,0.010152,-0.004430,-87.111631,0.010179,
1460,360,-0.421476,-13.249364,0.999997,0.000209,-0.002183,0.006125,0.000194,0.006129,-0.002188,88.663439,0.006212,
1510,160,-0.236374,-14.386863,0.999998,0.000160,-0.001333,0.005612,-0.000594,0.005662,-0.001384,-85.143293,0.005904,
1780,770,-2.381828,-9.451581,0.999997,0.000214,-0.003859,0.007645,-0.000585,0.007674,-0.003889,-87.097326,0.007674,
760,880,2.380116,-8.684105,0.999996,0.000231,-0.003758,0.007823,0.000881,0.007889,-0.003825,85.673232,0.007891,
1890,490,-2.110443,-11.364210,0.999997,0.000218,-0.003685,0.007576,0.000023,0.007577,-0.003685,89.884172,0.007577,
1200,1890,0.023780,-0.680702,0.999998,0.000160,-0.000702,0.004903,-0.000039,0.004903,-0.000703,-89.600485,0.005302,
1000,290,0.352547,-13.669219,0.999997,0.000198,-0.001775,0.006005,0.000122,0.006007,-0.001777,89.100157,0.006172,
1790,1220,-2.592381,-6.174526,0.999997,0.000239,-0.003643,0.007392,0.000632,0.007428,-0.003679,86.732895,0.007428,
1620,1740,-0.772781,-1.831002,0.999998,0.000188,-0.002813,0.006938,0.000179,0.006941,-0.002817,88.947057,0.006982,
1630,150,-0.376994,-14.378715,0.999997,0.000209,-0.001415,0.006253,-0.001191,0.006433,-0.001596,-81.370941,0.006700,
1620,1660,-0.921178,-2.398104,0.999998,0.000214,-0.003265,0.007205,-0.000154,0.007207,-0.003267,-89.159121,0.007217,
840,1450,1.297712,-4.009537,0.999996,0.000252,-0.004327,0.007987,0.000361,0.007997,-0.004338,88.324003,0.008007,
780,170,0.547881,-14.199494,0.999997,0.000191,-0.002345,0.006705,0.001175,0.006855,-0.002495,82.723856,0.006940,
1500,880,-1.509287,-9.015183,0.999995,0.000275,-0.005198,0.010052,-0.000530,0.010070,-0.005217,-88.013302,0.010073,
780,1070,2.508456,-7.238856,0.999996,0.000243,-0.003155,0.007539,-0.000332,0.007549,-0.003165,-88.221119,0.007582,
1670,570,-1.426133,-11.267402,0.999996,0.000228,-0.004125,0.007884,0.000211,0.007888,-0.004129,88.995187,0.007891,
1710,750,-2.042137,-9.721351,0.999997,0.000195,-0.004255,0.008129,-0.000601,0.008158,-0.004284,-87.226555,0.008161,
620,230,1.260772,-13.440303,0.999997,0.000209,-0.003658,0.007575,0.000246,0.007580,-0.003664,88.746972,0.007582,
1030,1960,0.077206,-0.362329,0.999998,0.000183,-0.000524,0.004945,-0.000445,0.004981,-0.000560,-85.377631,0.005458,
570,1640,1.955736,-3.196264,0.999998,0.000193,-0.003771,0.007376,0.000101,0.007376,-0.003772,89.480282,0.007377,
1050,1670,0.337340,-1.959606,0.999997,0.000200,-0.002329,0.005978,0.000432,0.006001,-0.002352,87.029140,0.006047,
1620,1820,-0.590317,-1.281865,0.999997,0.000217,-0.002244,0.006679,0.000669,0.006729,-0.002294,85.734441,0.006842,
720,500,1.573669,-11.639080,0.999997,0.000211,-0.003866,0.007699,-0.000160,0.007701,-0.003868,-89.205359,0.007701,
1890,1860,-1.295801,-1.578349,0.999997,0.000186,-0.003654,0.007403,0.000311,0.007412,-0.003663,88.388059,0.007412,
1500,620,-0.789052,-11.366466,0.999996,0.000231,-0.004299,0.007675,0.001191,0.007793,-0.004417,84.373887,0.007816,
1120,290,0.154249,-13.771128,0.999998,0.000201,-0.001532,0.005422,-0.000068,0.005423,-0.001533,-89.438913,0.005591,
1680,790,-2.031098,-9.440447,0.999996,0.000247,-0.004295,0.008340,-0.000756,0.008385,-0.004340,-86.586664,0.008387,
1590,830,-1.751216,-9.248329,0.999996,0.000223,-0.004788,0.009009,-0.000792,0.009054,-0.004833,-86.725425,0.009061,
1580,1800,-0.538331,-1.365102,0.999997,0.000209,-0.002479,0.006487,0.000371,0.006502,-0.002494,87.631915,0.006561,
1040,1570,0.418590,-2.586374,0.999997,0.000184,-0.002679,0.006270,0.000786,0.006339,-0.002748,85.018344,0.006358,
970,950,1.815853,-8.330447,0.999996,0.000224,-0.003830,0.010104,0.000767,0.010146,-0.003872,86.860106,0.010241,
1400,1830,-0.180454,-1.025311,0.999998,0.000154,-0.001281,0.005398,0.000158,0.005402,-0.001285,88.641902,0.005644,
960,670,0.868371,-10.960361,0.999997,0.000197,-0.004740,0.008181,-0.001183,0.008289,-0.004848,-84.811147,0.008328,
1750,1330,-2.138062,-5.264420,0.999997,0.000188,-0.004065,0.007855,0.000497,0.007876,-0.004086,87.615613,0.007877,
1580,590,-1.086351,-11.348094,0.999997,0.000203,-0.004249,0.007902,0.000605,0.007932,-0.004279,87.155512,0.007940,
800,820,2.049089,-9.211074,0.999998,0.000182,-0.004234,0.008380,0.000854,0.008437,-0.004291,86.143594,0.008438,
1300,1490,-0.131853,-2.795475,0.999999,0.000121,-0.002170,0.005102,-0.000853,0.005200,-0.002268,-83.397486,0.005214,
1240,1570,-0.017249,-2.337167,0.999998,0.000173,-0.001855,0.005167,-0.000142,0.005169,-0.001858,-88.845615,0.005237,
1140,550,0.183118,-12.362211,0.999998,0.000180,-0.002208,0.005303,-0.000854,0.005398,-0.002304,-83.591152,0.005418,
800,1520,1.327359,-3.556317,0.999998,0.000182,-0.004009,0.007798,0.000284,0.007805,-0.004016,88.623425,0.007806,
1370,500,-0.285779,-12.555229,0.999997,0.000177,-0.002524,0.005826,0.000937,0.005930,-0.002628,83.675165,0.005943,
1030,160,0.154621,-14.421910,0.999998,0.000190,-0.000999,0.005281,0.000385,0.005305,-0.001022,86.504747,0.005629,
1880,1230,-2.884202,-6.237953,0.999997,0.000197,-0.003405,0.006926,0.000201,0.006930,-0.003409,88.888109,0.006930,
1130,620,0.203484,-11.975807,0.999998,0.000162,-0.002541,0.005216,-0.001484,0.005490,-0.002815,-79.533551,0.005491,
1060,540,0.385230,-12.237323,0.999997,0.000196,-0.002849,0.006201,-0.001098,0.006332,-0.002980,-83.178303,0.006336,
720,740,2.151684,-9.746272,0.999998,0.000189,-0.004127,0.007919,0.000575,0.007946,-0.004155,87.274250,0.007949,
1730,60,-0.179911,-14.881070,0.999997,0.000193,-0.000829,0.006009,-0.002010,0.006556,-0.001376,-74.776672,0.006914,
1500,860,-1.416374,-9.217116,0.999994,0.000312,-0.005451,0.010066,-0.000274,0.010070,-0.005456,-88.987054,0.010082,
1890,610,-2.385132,-10.445624,0.999997,0.000207,-0.003776,0.007656,-0.000042,0.007656,-0.003777,-89.790433,0.007656,
1530,1540,-0.785136,-3.059558,0.999999,0.000179,-0.003550,0.007177,-0.000721,0.007225,-0.003599,-86.174229,0.007226,
760,860,2.328393,-8.839416,0.999997,0.000216,-0.003853,0.007889,0.000872,0.007953,-0.003918,85.775745,0.007953,
720,750,2.178900,-9.667800,0.999998,0.000172,-0.004126,0.007942,0.000592,0.007971,-0.004155,87.199695,0.007973,
1180,1890,0.038324,-0.681816,0.999998,0.000145,-0.000661,0.004916,-0.000094,0.004917,-0.000663,-89.031715,0.005337,
1160,1890,0.049230,-0.683940,0.999998,0.000149,-0.000658,0.004940,-0.000131,0.004943,-0.000661,-88.655327,0.005367,
1540,1410,-1.000530,-4.088413,0.999996,0.000227,-0.004571,0.008139,-0.000823,0.008192,-0.004624,-86.310706,0.008215,
1460,1410,-0.644653,-3.787533,0.999996,0.000246,-0.004235,0.007459,-0.001543,0.007659,-0.004436,-82.608635,0.007691,
1850,1040,-3.063251,-7.475901,0.999998,0.000179,-0.003136,0.006697,0.000166,0.006700,-0.003139,89.035666,0.006705,
1040,1630,0.387197,-2.218278,0.999997,0.000180,-0.002432,0.006086,0.000544,0.006121,-0.002466,86.361607,0.006159,
1670,550,-1.385496,-11.426284,0.999996,0.000239,-0.004069,0.007846,0.000226,0.007850,-0.004073,88.912979,0.007852,
820,170,0.458933,-14.242403,0.999997,0.000183,-0.001802,0.006445,0.001096,0.006588,-0.001945,82.557263,0.006770,
1820,670,-2.268272,-10.144283,0.999996,0.000218,-0.003835,0.007625,-0.000246,0.007631,-0.003840,-88.769243,0.007631,
1500,640,-0.813937,-11.210512,0.999996,0.000234,-0.004461,0.007775,0.001198,0.007891,-0.004578,84.461463,0.007925,
800,1550,1.272811,-3.324749,0.999996,0.000207,-0.003890,0.007695,0.000277,0.007702,-0.003897,88.629107,0.007702,
1420,90,-0.066830,-14.785290,0.999999,0.000142,-0.000500,0.004867,-0.000383,0.004894,-0.000527,-85.938614,0.005373,
1620,1640,-0.953900,-2.544051,0.999997,0.000222,-0.003417,0.007294,-0.000231,0.007299,-0.003422,-88.766428,0.007304,
790,360,1.030961,-12.862821,0.999997,0.000199,-0.003401,0.007308,-0.000034,0.007308,-0.003402,-89.816261,0.007314,
1580,1240,-1.650555,-5.717691,0.999996,0.000258,-0.004968,0.009139,0.000610,0.009165,-0.004995,87.528566,0.009177,
1580,1780,-0.580960,-1.495840,0.999997,0.000209,-0.002585,0.006615,0.000288,0.006624,-0.002594,88.209289,0.006676,
1560,590,-1.000680,-11.409619,0.999997,0.000224,-0.004220,0.007820,0.000738,0.007865,-0.004266,86.503750,0.007874,
1710,770,-2.098600,-9.557478,0.999997,0.000194,-0.004228,0.008146,-0.000676,0.008183,-0.004265,-86.880856,0.008185,
1120,1830,0.115998,-1.000632,0.999998,0.000159,-0.001195,0.005196,-0.000063,0.005196,-0.001195,-89.436481,0.005443,
1630,130,-0.323739,-14.500606,0.999997,0.000207,-0.001217,0.006038,-0.001243,0.006245,-0.001424,-80.540373,0.006546,
1620,1840,-0.544729,-1.153779,0.999997,0.000227,-0.002082,0.006543,0.000797,0.006616,-0.002155,84.763882,0.006748,
1500,400,-0.566409,-12.924325,0.999997,0.000216,-0.002803,0.006584,0.000364,0.006599,-0.002818,87.780572,0.006622,
720,480,1.531524,-11.794164,0.999997,0.000211,-0.003829,0.007655,-0.000165,0.007657,-0.003832,-89.177000,0.007657,
590,1500,2.192931,-4.212353,0.999998,0.000202,-0.003753,0.007652,-0.000026,0.007652,-0.003753,-89.870634,0.007653,
970,930,1.726930,-8.531062,0.999996,0.000234,-0.004234,0.010123,0.000721,0.010159,-0.004270,87.132998,0.010202,
1590,70,-0.122190,-14.856281,0.999998,0.000163,-0.000722,0.005400,-0.001130,0.005602,-0.000924,-79.867136,0.006006,
1050,1650,0.351080,-2.077710,0.999997,0.000196,-0.002399,0.006011,0.000518,0.006043,-0.002431,86.486006,0.006081,
1500,1610,-0.612373,-2.495794,0.999996,0.000238,-0.002926,0.006700,-0.000532,0.006729,-0.002955,-86.846481,0.006746,
1500,390,-0.553995,-12.988822,0.999996,0.000222,-0.002781,0.006534,0.000339,0.006547,-0.002793,87.921160,0.006570,
1060,1570,0.367953,-2.547938,0.999997,0.000213,-0.002585,0.006100,0.000828,0.006179,-0.002663,84.600421,0.006198,
1370,600,-0.303856,-11.967881,0.999997,0.000182,-0.002872,0.005830,0.001457,0.006067,-0.003109,80.741240,0.006068,
1600,1030,-2.287652,-7.539876,0.999997,0.000210,-0.002825,0.008048,0.000045,0.008048,-0.002825,89.762841,0.008166,
1500,840,-1.326613,-9.415190,0.999995,0.000291,-0.005621,0.009961,-0.000019,0.009961,-0.005621,-89.931240,0.009989,
970,1350,0.879681,-4.409612,0.999997,0.000226,-0.005040,0.008513,0.001214,0.008621,-0.005148,84.922922,0.008675,
1170,1360,0.104477,-3.377029,0.999998,0.000189,-0.002045,0.004002,0.001600,0.004400,-0.002442,76.057108,0.004408,
1750,1310,-2.193611,-5.425466,0.999997,0.000223,-0.004072,0.007908,0.000560,0.007934,-0.004098,87.330032,0.007935,
1130,540,0.205631,-12.399604,0.999997,0.000194,-0.002234,0.005429,-0.000829,0.005517,-0.002322,-83.893978,0.005540,
980,290,0.388444,-13.649069,0.999997,0.000178,-0.002011,0.006092,0.000107,0.006093,-0.002013,89.246680,0.006209,
800,800,1.986603,-9.382315,0.999997,0.000215,-0.004349,0.008445,0.000774,0.008491,-0.004396,86.550556,0.008493,
920,610,0.959081,-11.304799,0.999997,0.000218,-0.004287,0.007853,-0.000825,0.007909,-0.004343,-86.130853,0.007921,
1060,520,0.378854,-12.359593,0.999997,0.000209,-0.002716,0.006150,-0.000970,0.006255,-0.002821,-83.827440,0.006265,
1870,1230,-2.850780,-6.217351,0.999998,0.000175,-0.003421,0.006949,0.000255,0.006955,-0.003427,88.593041,0.006955,
1140,610,0.180802,-12.051518,0.999997,0.000201,-0.002330,0.005092,-0.001237,0.005293,-0.002530,-80.783902,0.005295,
820,150,0.397709,-14.371324,0.999997,0.000220,-0.001561,0.006311,0.001212,0.006493,-0.001744,81.443633,0.006721,
800,1500,1.366144,-3.715798,0.999997,0.000214,-0.004082,0.007880,0.000249,0.007885,-0.004087,88.806590,0.007887,
830,1640,1.000782,-2.575413,0.999998,0.000166,-0.003470,0.007391,0.000240,0.007396,-0.003475,88.736242,0.007401,
1100,1890,0.098025,-0.698429,0.999998,0.000177,-0.000780,0.005109,-0.000224,0.005117,-0.000789,-87.825468,0.005510,
720,720,2.095227,-9.906827,0.999997,0.000200,-0.004129,0.007886,0.000490,0.007906,-0.004149,87.669967,0.007909,
1580,1760,-0.618670,-1.628663,0.999997,0.000199,-0.002687,0.006654,0.000185,0.006658,-0.002691,88.863240,0.006698,
970,910,1.627583,-8.735665,0.999996,0.000252,-0.004695,0.010154,0.000669,0.010184,-0.004726,87.424315,0.010192,
1400,90,-0.056347,-14.787992,0.999998,0.000155,-0.000447,0.004828,-0.000370,0.004853,-0.000473,-86.006132,0.005352,
760,840,2.271660,-9.003023,0.999997,0.000207,-0.003978,0.008057,0.000915,0.008126,-0.004047,85.676490,0.008126,
640,810,2.650654,-9.084079,0.999997,0.000210,-0.003610,0.007307,0.000518,0.007332,-0.003635,87.287332,0.007332,
660,1630,1.643031,-3.051262,0.999997,0.000240,-0.003755,0.007581,0.000094,0.007582,-0.003756,89.524681,0.007582,
1510,1540,-0.715813,-3.007216,0.999997,0.000214,-0.003521,0.007084,-0.000829,0.007149,-0.003585,-85.555116,0.007149,
1140,1890,0.063736,-0.687265,0.999999,0.000117,-0.000807,0.004986,-0.000126,0.004989,-0.000810,-88.754494,0.005355,
1500,820,-1.242642,-9.614839,0.999995,0.000290,-0.005709,0.009826,0.000215,0.009829,-0.005712,89.207897,0.009872,
1590,810,-1.682637,-9.425605,0.999995,0.000254,-0.004907,0.009071,-0.000650,0.009101,-0.004937,-87.344314,0.009112,
1850,1020,-3.066622,-7.610639,0.999998,0.000175,-0.003138,0.006688,-0.000086,0.006689,-0.003138,-89.496282,0.006693,
1150,160,0.052898,-14.461202,0.999998,0.000154,-0.000677,0.004967,0.000134,0.004971,-0.000680,88.636003,0.005390,
1100,1830,0.138193,-1.008885,0.999998,0.000154,-0.001119,0.005253,-0.000126,0.005255,-0.001121,-88.867459,0.005536,
1670,530,-1.347079,-11.585189,0.999997,0.000198,-0.003985,0.007795,0.000267,0.007801,-0.003991,88.702225,0.007802,
1730,50,-0.138326,-14.939120,0.999998,0.000179,-0.000641,0.005896,-0.002057,0.006490,-0.001235,-73.911285,0.006892,
1090,1640,0.264354,-2.074767,0.999997,0.000207,-0.002060,0.005741,0.000397,0.005761,-0.002080,87.095129,0.005834,
580,1500,2.229918,-4.235749,0.999997,0.000205,-0.003616,0.007701,-0.000120,0.007702,-0.003617,-89.391036,0.007707,
1630,110,-0.258770,-14.622701,0.999998,0.000180,-0.000970,0.005894,-0.001315,0.006138,-0.001213,-79.519335,0.006501,
1850,960,-3.029069,-8.006997,0.999998,0.000170,-0.003192,0.006548,-0.000126,0.006549,-0.003194,-89.260480,0.006550,
1750,1290,-2.249414,-5.585334,0.999997,0.000225,-0.004049,0.007909,0.000645,0.007944,-0.004084,86.923125,0.007945,
1370,540,-0.296208,-12.318581,0.999997,0.000204,-0.002685,0.005828,0.001170,0.005986,-0.002843,82.316205,0.005988,
1570,400,-0.771680,-12.787157,0.999997,0.000207,-0.003167,0.007031,0.000282,0.007039,-0.003175,88.414758,0.007050,
1020,650,0.578769,-11.365195,0.999996,0.000267,-0.004087,0.007291,-0.001724,0.007546,-0.004343,-81.568709,0.007575,
1790,1540,-1.786810,-3.710724,0.999997,0.000224,-0.003851,0.007686,-0.000096,0.007687,-0.003852,-89.521455,0.007687,
1620,1620,-0.990871,-2.693043,0.999997,0.000227,-0.003534,0.007373,-0.000288,0.007380,-0.003542,-88.491105,0.007382,
1710,1210,-2.315219,-6.166278,0.999996,0.000233,-0.003919,0.007961,0.000908,0.008030,-0.003988,85.656978,0.008030,
1620,1860,-0.486882,-1.019632,0.999997,0.000208,-0.001913,0.006458,0.000903,0.006554,-0.002009,83.913930,0.006715,
1150,500,0.158050,-12.646319,0.999998,0.000173,-0.002143,0.005394,-0.000677,0.005454,-0.002203,-84.908236,0.005488,
940,670,0.964652,-10.885616,0.999997,0.000218,-0.004756,0.008299,-0.000944,0.008367,-0.004823,-85.885637,0.008399,
970,1110,1.796685,-6.739218,0.999995,0.000267,-0.003969,0.010125,-0.000774,0.010167,-0.004011,-86.865924,0.010242,
1560,1350,-1.216199,-4.663063,0.999997,0.000213,-0.004987,0.008722,-0.000444,0.008736,-0.005001,-88.145403,0.008767,
1060,120,0.084106,-14.639536,0.999998,0.000162,-0.000660,0.005043,0.000355,0.005065,-0.000682,86.446792,0.005498,
1100,290,0.182851,-13.758649,0.999998,0.000161,-0.001447,0.005499,0.000017,0.005499,-0.001447,89.862939,0.005701,
1250,1640,-0.031003,-1.976170,0.999998,0.000182,-0.001796,0.005297,-0.000156,0.005301,-0.001800,-88.740453,0.005391,
1500,370,-0.530695,-13.119038,0.999998,0.000208,-0.002728,0.006427,0.000326,0.006438,-0.002739,87.960068,0.006462,
720,700,2.043013,-10.063929,0.999997,0.000208,-0.004131,0.007916,0.000380,0.007928,-0.004143,88.195892,0.007931,
800,780,1.925637,-9.550819,0.999997,0.000205,-0.004455,0.008417,0.000690,0.008454,-0.004492,86.938491,0.008459,
710,1060,2.738864,-7.322735,0.999998,0.000176,-0.003230,0.007208,-0.000228,0.007213,-0.003235,-88.749135,0.007225,
1060,500,0.372461,-12.482207,0.999996,0.000221,-0.002641,0.006093,-0.000874,0.006180,-0.002728,-84.341633,0.006194,
1710,910,-2.480996,-8.442406,0.999997,0.000217,-0.003580,0.007730,-0.000801,0.007786,-0.003637,-85.968625,0.007792,
970,890,1.522860,-8.945560,0.999996,0.000257,-0.005069,0.010137,0.000532,0.010156,-0.005088,87.999788,0.010156,
920,1630,0.720678,-2.449875,0.999997,0.000177,-0.003189,0.006970,0.000414,0.006987,-0.003205,87.669105,0.006995,
1440,1430,-0.548305,-3.563339,0.999996,0.000234,-0.003896,0.007008,-0.001638,0.007248,-0.004137,-81.640240,0.007272,
1580,1580,-0.911293,-2.890992,0.999998,0.000185,-0.003575,0.007321,-0.000496,0.007344,-0.003597,-87.398492,0.007344,
1370,1620,-0.264202,-2.185429,0.999998,0.000199,-0.002174,0.005765,-0.000509,0.005797,-0.002206,-86.345832,0.005852,
1360,1890,-0.096588,-0.699449,0.999998,0.000140,-0.000766,0.005068,0.000214,0.005076,-0.000774,87.901657,0.005469,
1500,800,-1.164712,-9.811935,0.999995,0.000283,-0.005710,0.009634,0.000454,0.009647,-0.005723,88.308275,0.009703,
1680,1570,-1.300804,-3.211478,0.999997,0.000194,-0.003826,0.007613,-0.000264,0.007619,-0.003833,-88.676383,0.007619,
1820,1410,-2.205363,-4.782578,0.999997,0.000209,-0.003846,0.007697,0.000157,0.007699,-0.003848,89.222685,0.007699,
1160,1570,0.136268,-2.376739,0.999998,0.000160,-0.002083,0.005336,0.000498,0.005370,-0.002117,86.174591,0.005410,
1370,520,-0.291548,-12.437428,0.999997,0.000190,-0.002616,0.005863,0.001040,0.005989,-0.002741,83.110820,0.005996,
590,1930,0.889807,-0.974708,0.999998,0.000167,-0.003583,0.008035,-0.001104,0.008139,-0.003687,-84.619026,0.008150,
1500,360,-0.518841,-13.184606,0.999998,0.000204,-0.002692,0.006376,0.000296,0.006386,-0.002701,88.134221,0.006411,
1830,1040,-2.999529,-7.474179,0.999998,0.000214,-0.003211,0.006823,0.000171,0.006826,-0.003214,89.022207,0.006829,
790,340,0.987824,-13.007700,0.999998,0.000195,-0.003349,0.007300,0.000047,0.007300,-0.003350,89.744751,0.007308,
1500,680,-0.869890,-10.892497,0.999998,0.000197,-0.004830,0.008268,0.001197,0.008376,-0.004938,84.820820,0.008421,
950,1060,2.022466,-7.259039,0.999996,0.000242,-0.002883,0.009422,-0.000475,0.009440,-0.002901,-87.791004,0.009671,
1390,1480,-0.356687,-3.058936,0.999997,0.000231,-0.002929,0.006100,-0.001344,0.006295,-0.003125,-81.710420,0.006296,
1620,1600,-1.024749,-2.842454,0.999998,0.000191,-0.003592,0.007421,-0.000324,0.007431,-0.003602,-88.317381,0.007432,
1580,1220,-1.720985,-5.901100,0.999996,0.000266,-0.004837,0.009096,0.000791,0.009141,-0.004881,86.762931,0.009148,
1470,1540,-0.580181,-2.898137,0.999997,0.000199,-0.003224,0.006752,-0.000908,0.006834,-0.003306,-84.844694,0.006836,
1760,190,-0.825128,-13.950958,0.999998,0.000171,-0.003327,0.007434,-0.000904,0.007509,-0.003402,-85.232512,0.007520,
980,510,0.617135,-12.223501,0.999996,0.000264,-0.003285,0.006865,-0.000851,0.006936,-0.003356,-85.239202,0.006937,
1670,510,-1.309536,-11.739377,0.999996,0.000205,-0.003895,0.007716,0.000275,0.007722,-0.003902,88.644776,0.007722,
1010,160,0.172671,-14.415266,0.999998,0.000187,-0.000928,0.005377,0.000478,0.005413,-0.000964,85.690152,0.005775,
1130,520,0.203338,-12.507384,0.999997,0.000197,-0.002200,0.005427,-0.000733,0.005497,-0.002270,-84.562954,0.005524,
1060,140,0.103740,-14.539072,0.999998,0.000149,-0.000791,0.005090,0.000326,0.005108,-0.000809,86.837873,0.005491,
1740,1590,-1.490299,-3.203706,0.999997,0.000216,-0.003792,0.007634,-0.000158,0.007636,-0.003794,-89.210345,0.007636,
860,590,1.182085,-11.285384,0.999997,0.000216,-0.004242,0.007970,-0.000476,0.007989,-0.004260,-87.771212,0.007995,
1500,350,-0.506336,-13.247066,0.999997,0.000209,-0.002635,0.006353,0.000240,0.006360,-0.002642,88.474669,0.006390,
1690,320,-0.998770,-13.121852,0.999996,0.000218,-0.003274,0.007359,-0.000137,0.007361,-0.003275,-89.262552,0.007376,
1230,1640,0.003304,-1.970368,0.999998,0.000149,-0.001764,0.005266,0.000020,0.005266,-0.001764,89.840483,0.005361,
1620,1880,-0.438172,-0.895733,0.999997,0.000196,-0.001700,0.006288,0.001005,0.006413,-0.001824,82.940818,0.006608,
1750,1270,-2.306798,-5.740511,0.999997,0.000221,-0.003992,0.007765,0.000693,0.007806,-0.004033,86.637250,0.007808,
780,1550,1.350358,-3.371798,0.999995,0.000238,-0.003906,0.007715,0.000242,0.007720,-0.003911,88.808192,0.007721,
1630,90,-0.205180,-14.733578,0.999998,0.000166,-0.000751,0.005688,-0.001337,0.005955,-0.001018,-78.720262,0.006371,
1360,1830,-0.135015,-1.007666,0.999998,0.000162,-0.001135,0.005244,0.000109,0.005246,-0.001137,89.021889,0.005519,
1900,2020,-0.208378,-0.188633,0.999995,0.000000,0.000736,0.011980,0.006666,0.015078,-0.002362,65.071238,0.016219,
1500,410,-0.577562,-12.856106,0.999997,0.000210,-0.002825,0.006615,0.000402,0.006632,-0.002842,87.566035,0.006655,
1140,590,0.181668,-12.152851,0.999998,0.000200,-0.002274,0.005204,-0.001080,0.005357,-0.002427,-81.943061,0.005365,
800,1480,1.406620,-3.875642,0.999996,0.000231,-0.004163,0.007884,0.000193,0.007887,-0.004166,89.084216,0.007892,
970,1090,1.879203,-6.941744,0.999997,0.000236,-0.003535,0.009875,-0.000682,0.009910,-0.003569,-87.094617,0.010038,
970,1070,1.940633,-7.135848,0.999996,0.000271,-0.003229,0.009966,-0.000488,0.009984,-0.003247,-87.884523,0.010185,
1890,1830,-1.415347,-1.796069,0.999996,0.000255,-0.003648,0.007288,0.000206,0.007291,-0.003652,88.922033,0.007291,
1330,740,-0.195388,-11.383322,0.999997,0.000199,-0.003082,0.004834,0.002780,0.005712,-0.003960,72.458146,0.005853,
920,330,0.585481,-13.312706,0.999997,0.000212,-0.002422,0.006657,0.000055,0.006657,-0.002422,89.650878,0.006739,
900,1630,0.785734,-2.494092,0.999997,0.000192,-0.003241,0.007084,0.000363,0.007096,-0.003254,87.990882,0.007104,
1480,1890,-0.204715,-0.742718,0.999998,0.000173,-0.001083,0.005453,0.000513,0.005493,-0.001123,85.538278,0.005804,
1350,1620,-0.224005,-2.161923,0.999998,0.000226,-0.002021,0.005609,-0.000427,0.005632,-0.002045,-86.803895,0.005702,
1060,480,0.365005,-12.603616,0.999996,0.000239,-0.002584,0.006085,-0.000803,0.006159,-0.002658,-84.749348,0.006178,
1830,1540,-1.940078,-3.806622,0.999997,0.000238,-0.003812,0.007648,-0.000066,0.007648,-0.003813,-89.668188,0.007648,
1870,960,-3.092023,-7.993105,0.999997,0.000194,-0.003142,0.006321,-0.000067,0.006322,-0.003142,-89.597103,0.006322,
800,760,1.865421,-9.719262,0.999997,0.000206,-0.004500,0.008436,0.000563,0.008460,-0.004525,87.512700,0.008467,
1710,890,-2.428926,-8.600422,0.999997,0.000207,-0.003712,0.007835,-0.000908,0.007906,-0.003783,-85.528958,0.007909,
1250,1960,-0.006376,-0.343423,0.999998,0.000174,-0.000358,0.004622,-0.000002,0.004622,-0.000358,-89.973321,0.005143,
1370,1480,-0.302605,-3.004647,0.999997,0.000193,-0.002725,0.005817,-0.001312,0.006014,-0.002922,-81.461216,0.006015,
720,460,1.491212,-11.948007,0.999997,0.000219,-0.003803,0.007620,-0.000155,0.007622,-0.003805,-89.223138,0.007622,
1020,910,1.376193,-9.005382,0.999990,0.000365,-0.005054,0.010931,-0.000743,0.010965,-0.005089,-87.342996,0.010975,
970,1120,1.750965,-6.638917,0.999995,0.000253,-0.004174,0.010125,-0.000772,0.010167,-0.004216,-86.916879,0.010216,
1620,1580,-1.057377,-2.990256,0.999998,0.000164,-0.003642,0.007469,-0.000373,0.007481,-0.003655,-88.077855,0.007482,
1670,490,-1.271596,-11.894610,0.999996,0.000223,-0.003819,0.007624,0.000276,0.007631,-0.003826,88.621271,0.007631,
1840,1610,-1.825972,-3.294069,0.999998,0.000214,-0.003779,0.007571,-0.000103,0.007572,-0.003780,-89.481843,0.007572,
1190,1640,0.073632,-1.986133,0.999998,0.000178,-0.001749,0.005308,0.000177,0.005313,-0.001753,88.560737,0.005414,
1260,490,-0.053587,-12.745208,0.999999,0.000135,-0.001886,0.005163,0.000267,0.005173,-0.001896,87.834312,0.005234,
1440,1410,-0.562219,-3.705080,0.999997,0.000229,-0.004057,0.007183,-0.001722,0.007441,-0.004315,-81.481650,0.007472,
1060,160,0.122674,-14.435705,0.999998,0.000154,-0.000900,0.005143,0.000300,0.005158,-0.000915,87.165894,0.005504,
850,1640,0.932084,-2.527900,0.999998,0.000154,-0.003353,0.007272,0.000225,0.007277,-0.003358,88.786895,0.007284,
720,680,1.988992,-10.223048,0.999997,0.000206,-0.004124,0.007948,0.000316,0.007957,-0.004132,88.503392,0.007959,
1500,1120,-1.778482,-6.661251,0.999996,0.000221,-0.004070,0.009930,0.000846,0.009981,-0.004121,86.553990,0.010031,
760,820,2.215004,-9.162516,0.999997,0.000205,-0.004091,0.008031,0.000843,0.008089,-0.004149,86.040758,0.008090,
660,830,2.628578,-8.965300,0.999997,0.000205,-0.003618,0.007288,0.000586,0.007320,-0.003649,86.933185,0.007320,
960,260,0.387881,-13.809305,0.999997,0.000213,-0.002087,0.006041,0.000208,0.006046,-0.002092,88.534048,0.006141,
700,1130,2.689000,-6.817041,0.999997,0.000195,-0.003435,0.007305,-0.000575,0.007335,-0.003466,-86.941407,0.007339,
1500,1410,-0.820682,-3.945180,0.999997,0.000219,-0.004463,0.007848,-0.001216,0.007967,-0.004582,-84.413389,0.007997,
1500,340,-0.493771,-13.308456,0.999997,0.000217,-0.002572,0.006392,0.000172,0.006395,-0.002575,88.901575,0.006436,
1680,1090,-2.476054,-7.085029,0.999997,0.000226,-0.003254,0.007673,0.000628,0.007709,-0.003290,86.723265,0.007737,
800,1460,1.448320,-4.032000,0.999996,0.000218,-0.004253,0.007936,0.000155,0.007938,-0.004255,89.271065,0.007944,
980,490,0.601822,-12.358164,0.999997,0.000209,-0.003124,0.006744,-0.000770,0.006804,-0.003184,-85.564185,0.006808,
1060,460,0.356829,-12.726535,0.999997,0.000200,-0.002535,0.006048,-0.000724,0.006108,-0.002595,-85.214783,0.006131,
1160,1450,0.137520,-3.000910,0.999999,0.000143,-0.002161,0.004845,0.001062,0.005003,-0.002318,81.569372,0.005007,
1890,960,-3.153487,-7.978415,0.999998,0.000190,-0.003059,0.006101,0.000017,0.006101,-0.003059,89.895601,0.006101,
1580,1200,-1.798935,-6.083689,0.999996,0.000244,-0.004625,0.009027,0.000949,0.009092,-0.004691,86.044090,0.009094,
1760,210,-0.899705,-13.800063,0.999998,0.000160,-0.003368,0.007448,-0.000744,0.007499,-0.003419,-86.084366,0.007509,
1630,390,-0.944714,-12.734985,0.999998,0.000142,-0.003260,0.007242,0.000120,0.007244,-0.003261,89.345864,0.007256,
1610,140,-0.321611,-14.450697,0.999998,0.000195,-0.001396,0.006021,-0.001061,0.006170,-0.001545,-82.014612,0.006421,
1050,520,0.406354,-12.338203,0.999996,0.000224,-0.002846,0.006261,-0.000992,0.006368,-0.002953,-83.857884,0.006374,
1410,1540,-0.396729,-2.743822,0.999997,0.000198,-0.002749,0.006206,-0.000921,0.006299,-0.002843,-84.189088,0.006309,
890,1960,0.161499,-0.392309,0.999998,0.000157,-0.000909,0.005419,-0.000949,0.005558,-0.001048,-81.654045,0.005906,
800,740,1.808146,-9.890876,0.999997,0.000183,-0.004534,0.008401,0.000461,0.008418,-0.004551,87.960295,0.008427,
1080,1510,0.332702,-2.863772,0.999996,0.000224,-0.002698,0.005949,0.001128,0.006094,-0.002843,82.686179,0.006099,
1710,870,-2.379239,-8.756036,0.999996,0.000237,-0.003802,0.007775,-0.000845,0.007837,-0.003863,-85.848764,0.007837,
1280,410,-0.085507,-13.156009,0.999998,0.000154,-0.001725,0.005331,0.000153,0.005335,-0.001728,88.757452,0.005444,
1810,1540,-1.863537,-3.757995,0.999997,0.000225,-0.003838,0.007673,-0.000081,0.007674,-0.003839,-89.597621,0.007674,
1090,1960,0.050785,-0.352935,0.999998,0.000153,-0.000317,0.004802,-0.000303,0.004820,-0.000335,-86.625710,0.005382,
660,1890,0.854980,-1.065602,0.999998,0.000211,-0.003005,0.007710,-0.001368,0.007882,-0.003177,-82.837666,0.007931,
930,1060,2.079755,-7.274428,0.999998,0.000170,-0.002814,0.008940,-0.000498,0.008961,-0.002836,-87.579030,0.009160,
920,530,0.850313,-11.917931,0.999997,0.000223,-0.003747,0.007385,-0.000714,0.007431,-0.003793,-86.344727,0.007432,
1750,1250,-2.359677,-5.896196,0.999997,0.000227,-0.003950,0.007764,0.000741,0.007811,-0.003997,86.395387,0.007811,
1170,1640,0.108147,-1.995313,0.999999,0.000141,-0.001776,0.005359,0.000178,0.005363,-0.001781,88.573790,0.005463,
1670,470,-1.235622,-12.046682,0.999997,0.000211,-0.003750,0.007570,0.000290,0.007578,-0.003758,88.533871,0.007578,
720,440,1.447972,-12.100229,0.999997,0.000221,-0.003760,0.007589,-0.000137,0.007590,-0.003762,-89.307165,0.007591,
1740,1570,-1.531831,-3.358002,0.999997,0.000196,-0.003832,0.007711,-0.000155,0.007713,-0.003834,-89.230904,0.007713,
1410,600,-0.429566,-11.836755,0.999995,0.000245,-0.003342,0.006496,0.001558,0.006737,-0.003583,81.210856,0.006741,
980,1570,0.596922,-2.727178,0.999997,0.000192,-0.003106,0.006707,0.000747,0.006763,-0.003163,85.671227,0.006768,
1000,620,0.635538,-11.503224,0.999996,0.000239,-0.004001,0.007285,-0.001421,0.007461,-0.004177,-82.932258,0.007479,
870,1440,1.184955,-4.006112,0.999997,0.000223,-0.004414,0.007982,0.000465,0.007999,-0.004431,87.856455,0.008014,
1000,1890,0.187760,-0.734755,0.999999,0.000124,-0.000959,0.005413,-0.000512,0.005453,-0.001000,-85.435264,0.005806,
800,1440,1.491739,-4.192447,0.999996,0.000207,-0.004318,0.008069,0.000109,0.008070,-0.004319,89.496956,0.008076,
1060,440,0.346133,-12.846519,0.999997,0.000186,-0.002490,0.006019,-0.000660,0.006070,-0.002541,-85.591643,0.006096,
1890,1610,-2.011346,-3.414837,0.999997,0.000208,-0.003691,0.007532,-0.000011,0.007532,-0.003691,-89.942973,0.007533,
1400,830,-0.692437,-10.197163,0.999995,0.000270,-0.005613,0.008720,0.002453,0.009128,-0.006021,80.552307,0.009282,
1020,890,1.253963,-9.221421,0.999994,0.000297,-0.005362,0.010617,-0.000802,0.010657,-0.005403,-87.134037,0.010657,
1630,370,-0.905824,-12.878785,0.999998,0.000158,-0.003116,0.007135,-0.000027,0.007135,-0.003116,-89.847767,0.007154,
1620,1560,-1.090338,-3.142651,0.999998,0.000163,-0.003745,0.007535,-0.000389,0.007549,-0.003758,-88.026696,0.007549,
1580,1180,-1.871615,-6.262982,0.999997,0.000230,-0.004413,0.008989,0.001030,0.009068,-0.004492,85.629031,0.009068,
1440,570,-0.516415,-11.935777,0.999998,0.000169,-0.003340,0.006673,0.001251,0.006827,-0.003494,82.983505,0.006827,
1630,70,-0.141719,-14.850988,0.999998,0.000142,-0.000495,0.005597,-0.001391,0.005899,-0.000797,-77.728634,0.006402,
800,1280,1.909221,-5.527185,0.999997,0.000223,-0.004482,0.008432,-0.000638,0.008463,-0.004513,-87.180549,0.008469,
1160,1430,0.135052,-3.097974,0.999999,0.000135,-0.002166,0.004731,0.001191,0.004931,-0.002366,80.470777,0.004932,
1150,660,0.151704,-11.835849,0.999998,0.000175,-0.002294,0.004697,-0.001579,0.005037,-0.002634,-77.846133,0.005039,
1140,570,0.184167,-12.256255,0.999998,0.000201,-0.002228,0.005247,-0.000963,0.005369,-0.002350,-82.779592,0.005383,
1880,960,-3.123523,-7.986866,0.999997,0.000198,-0.003083,0.006224,-0.000014,0.006224,-0.003083,-89.912123,0.006224,
1710,1190,-2.367886,-6.325455,0.999996,0.000239,-0.003812,0.007810,0.000854,0.007872,-0.003875,85.820725,0.007873,
970,1050,1.982234,-7.339711,0.999996,0.000267,-0.003052,0.010126,-0.000272,0.010132,-0.003058,-88.819647,0.010394,
1060,1510,0.386427,-2.911287,0.999997,0.000213,-0.002874,0.006191,0.001123,0.006328,-0.003011,83.044031,0.006331,
640,1950,0.592113,-0.632955,0.999994,0.000261,-0.002918,0.007813,-0.001803,0.008108,-0.003212,-80.710930,0.008166,
1080,1830,0.161201,-1.017340,0.999998,0.000175,-0.001091,0.005321,-0.000176,0.005326,-0.001096,-88.427691,0.005625,
860,1130,2.130333,-6.727217,0.999997,0.000219,-0.003599,0.008436,-0.001055,0.008527,-0.003690,-85.027766,0.008553,
1030,1500,0.485733,-3.064257,0.999996,0.000218,-0.003275,0.006572,0.001205,0.006717,-0.003420,83.122936,0.006718,
700,1970,0.356658,-0.425368,0.999997,0.000199,-0.001980,0.006612,-0.002059,0.007080,-0.002448,-77.195182,0.007192,
720,660,1.936979,-10.383884,0.999997,0.000216,-0.004117,0.007956,0.000241,0.007961,-0.004122,88.857471,0.007962,
1620,1720,-0.811427,-1.973289,0.999998,0.000178,-0.002858,0.007072,0.000129,0.007074,-0.002860,89.256621,0.007117,
580,1930,0.925476,-1.010714,0.999997,0.000197,-0.003599,0.008076,-0.001102,0.008179,-0.003702,-84.656462,0.008191,
1010,1960,0.088333,-0.366290,0.999999,0.000150,-0.000458,0.005001,-0.000526,0.005051,-0.000508,-84.544244,0.005562,
1640,1090,-2.344533,-7.072550,0.999996,0.000256,-0.003176,0.007828,0.000720,0.007875,-0.003223,86.270616,0.007918,
1680,1550,-1.337789,-3.365349,0.999996,0.000220,-0.003881,0.007722,-0.000254,0.007727,-0.003887,-88.747080,0.007727,
790,300,0.896569,-13.301038,0.999998,0.000194,-0.003239,0.007173,0.000236,0.007179,-0.003244,88.702724,0.007190,
800,720,1.750693,-10.057218,0.999997,0.000218,-0.004557,0.008355,0.000360,0.008365,-0.004567,88.402999,0.008377,
910,1060,2.134637,-7.285744,0.999995,0.000274,-0.002820,0.008554,-0.000509,0.008577,-0.002843,-87.442411,0.008737,
1590,110,-0.219155,-14.636827,0.999998,0.000179,-0.001197,0.005705,-0.001046,0.005861,-0.001352,-81.566161,0.006137,
770,360,1.098790,-12.818331,0.999998,0.000174,-0.003351,0.007368,0.000056,0.007369,-0.003352,89.701308,0.007379,
840,1570,1.085794,-3.072991,0.999998,0.000187,-0.003679,0.007488,0.000379,0.007501,-0.003692,88.056030,0.007501,
1500,450,-0.617398,-12.589874,0.999997,0.000201,-0.002978,0.006741,0.000562,0.006773,-0.003010,86.704100,0.006787,
1390,1540,-0.343309,-2.701631,0.999998,0.000172,-0.002652,0.006024,-0.000975,0.006132,-0.002760,-83.663019,0.006142,
1020,290,0.317930,-13.689663,0.999998,0.000183,-0.001836,0.005886,0.000057,0.005887,-0.001836,89.578062,0.006024,
1110,1640,0.223776,-2.053371,0.999998,0.000172,-0.001980,0.005585,0.000398,0.005606,-0.002001,86.996535,0.005682,
720,420,1.407279,-12.252189,0.999997,0.000224,-0.003709,0.007583,-0.000114,0.007584,-0.003710,-89.420966,0.007585,
920,510,0.827107,-12.064128,0.999998,0.000202,-0.003561,0.007228,-0.000657,0.007268,-0.003601,-86.529615,0.007268,
1310,740,-0.143625,-11.492911,0.999997,0.000192,-0.002524,0.004058,0.002499,0.004899,-0.003366,71.394530,0.005012,
1460,1890,-0.186738,-0.734734,0.999998,0.000172,-0.000945,0.005385,0.000489,0.005423,-0.000983,85.611522,0.005778,
1850,1860,-1.149782,-1.434047,0.999997,0.000196,-0.003653,0.007598,0.000367,0.007610,-0.003665,88.133224,0.007611,
1670,450,-1.197314,-12.198210,0.999997,0.000213,-0.003661,0.007543,0.000234,0.007547,-0.003666,88.806380,0.007548,
1880,1610,-1.973409,-3.391282,0.999998,0.000203,-0.003687,0.007526,-0.000032,0.007526,-0.003687,-89.837232,0.007527,
1860,1610,-1.900640,-3.343169,0.999996,0.000221,-0.003696,0.007542,-0.000077,0.007542,-0.003697,-89.605074,0.007543,
970,1060,1.966503,-7.235444,0.999996,0.000300,-0.003122,0.010137,-0.000375,0.010148,-0.003133,-88.379211,0.010392,
1810,1600,-1.733281,-3.297046,0.999997,0.000182,-0.003780,0.007570,-0.000102,0.007571,-0.003781,-89.482705,0.007571,
1710,850,-2.329376,-8.912818,0.999996,0.000230,-0.003929,0.007904,-0.000887,0.007971,-0.003996,-85.737038,0.007971,
1280,490,-0.091633,-12.733848,0.999999,0.000136,-0.001884,0.005212,0.000288,0.005224,-0.001896,87.683744,0.005289,
1300,810,-0.187004,-11.308117,0.999995,0.000245,-0.003116,0.003094,0.002545,0.004003,-0.004026,70.332185,0.004636,
1060,660,0.424217,-11.473868,0.999997,0.000218,-0.003731,0.006679,-0.001997,0.007049,-0.004101,-79.502643,0.007080,
890,1440,1.097171,-3.950444,0.999996,0.000223,-0.004392,0.007924,0.000627,0.007956,-0.004423,87.094681,0.007973,
800,1660,1.067129,-2.493895,0.999997,0.000228,-0.003478,0.007376,0.000113,0.007377,-0.003479,89.404164,0.007381,
1060,790,0.577771,-10.513883,0.999994,0.000276,-0.005395,0.008196,-0.002644,0.008693,-0.005891,-79.369618,0.008874,
1450,1540,-0.517037,-2.848240,0.999996,0.000230,-0.003165,0.006610,-0.001006,0.006713,-0.003268,-84.184406,0.006714,
1430,440,-0.412396,-12.799526,0.999997,0.000211,-0.002507,0.006164,0.000574,0.006202,-0.002545,86.230805,0.006235,
1050,580,0.431186,-11.953933,0.999997,0.000210,-0.003264,0.006411,-0.001432,0.006618,-0.003471,-81.754220,0.006621,
1620,1540,-1.122269,-3.292550,0.999997,0.000203,-0.003880,0.007610,-0.000418,0.007625,-0.003895,-87.919791,0.007626,
1500,320,-0.468532,-13.440618,0.999996,0.000239,-0.002434,0.006406,0.000084,0.006407,-0.002435,89.457808,0.006468,
1750,1230,-2.416511,-6.053778,0.999996,0.000235,-0.003881,0.007756,0.000784,0.007808,-0.003934,86.163215,0.007809,
620,1950,0.661226,-0.702203,0.999997,0.000210,-0.003550,0.007966,-0.001398,0.008133,-0.003718,-83.178046,0.008143,
1100,1510,0.278904,-2.812848,0.999998,0.000170,-0.002634,0.005762,0.001167,0.005921,-0.002793,82.232962,0.005925,
1400,810,-0.620548,-10.373324,0.999995,0.000284,-0.005586,0.008522,0.002689,0.009017,-0.006081,79.565848,0.009198,
800,1260,1.971263,-5.695124,0.999997,0.000227,-0.004417,0.008449,-0.000757,0.008494,-0.004461,-86.645988,0.008497,
610,1060,3.061629,-7.343138,0.999998,0.000164,-0.003143,0.006555,-0.000167,0.006558,-0.003146,-89.013390,0.006559,
1250,500,-0.035109,-12.698465,0.999998,0.000158,-0.001888,0.005109,0.000241,0.005118,-0.001897,88.029103,0.005175,
1140,1450,0.181203,-3.041882,0.999997,0.000199,-0.002321,0.005117,0.001163,0.005294,-0.002499,81.317880,0.005297,
1760,230,-0.972006,-13.651935,0.999998,0.000184,-0.003429,0.007488,-0.000574,0.007518,-0.003460,-87.000840,0.007526,
1710,1170,-2.417163,-6.480343,0.999996,0.000244,-0.003725,0.007809,0.000887,0.007877,-0.003793,85.628406,0.007878,
1180,650,0.090371,-11.957054,0.999997,0.000210,-0.001994,0.004274,-0.001076,0.004454,-0.002174,-80.524278,0.004454,
1630,350,-0.867408,-13.020510,0.999998,0.000168,-0.002983,0.007145,-0.000126,0.007147,-0.002984,-89.289190,0.007179,
1620,1980,-0.153417,-0.296914,0.999998,0.000179,-0.000602,0.005548,0.001347,0.005830,-0.000884,78.167662,0.006284,
1580,1160,-1.948275,-6.442920,0.999997,0.000226,-0.004100,0.008899,0.001119,0.008995,-0.004196,85.116480,0.009002,
720,640,1.886458,-10.542440,0.999997,0.000198,-0.004097,0.007909,0.000155,0.007911,-0.004099,89.259163,0.007913,
770,1580,1.329978,-3.167705,0.999997,0.000194,-0.003783,0.007604,0.000230,0.007609,-0.003788,88.841849,0.007609,
1780,1950,-0.488262,-0.571966,0.999996,0.000254,-0.002301,0.007174,0.002021,0.007587,-0.002714,78.447319,0.007689,
1010,1500,0.550614,-3.122308,0.999996,0.000206,-0.003370,0.006771,0.001131,0.006896,-0.003495,83.713306,0.006896,
970,1030,2.000242,-7.537333,0.999997,0.000212,-0.002958,0.009728,-0.000033,0.009728,-0.002958,-89.850303,0.009974,
840,1130,2.202642,-6.743910,0.999997,0.000209,-0.003572,0.008238,-0.001016,0.008325,-0.003659,-85.120065,0.008345,
1300,1550,-0.131114,-2.478813,0.999998,0.000171,-0.002071,0.005298,-0.000563,0.005341,-0.002113,-85.656113,0.005379,
1740,1030,-2.712638,-7.541792,0.999997,0.000221,-0.003244,0.007314,0.000017,0.007314,-0.003244,89.909008,0.007330,
1140,90,0.029169,-14.797429,0.999998,0.000165,-0.000358,0.004672,0.000159,0.004677,-0.000363,88.196733,0.005204,
720,400,1.364967,-12.404619,0.999997,0.000229,-0.003682,0.007628,-0.000084,0.007629,-0.003683,-89.572705,0.007631,
1370,1540,-0.290412,-2.653690,0.999998,0.000165,-0.002588,0.005845,-0.001024,0.005967,-0.002710,-83.176553,0.005976,
990,1960,0.097743,-0.369527,0.999998,0.000202,-0.000501,0.005096,-0.000586,0.005157,-0.000561,-84.088181,0.005658,
1440,290,-0.311144,-13.690584,0.999998,0.000174,-0.001812,0.005867,-0.000019,0.005867,-0.001812,-89.859804,0.006008,
920,430,0.727185,-12.635076,0.999997,0.000193,-0.003203,0.006972,-0.000432,0.006990,-0.003221,-87.573746,0.006997,
1560,1950,-0.173430,-0.442957,0.999998,0.000189,-0.000781,0.005508,0.000945,0.005647,-0.000919,81.638393,0.006060,
1540,1610,-0.737721,-2.585161,0.999998,0.000195,-0.003315,0.007035,-0.000515,0.007061,-0.003341,-87.156581,0.007064,
1500,470,-0.635290,-12.454656,0.999997,0.000222,-0.003118,0.006808,0.000635,0.006849,-0.003159,86.353048,0.006855,
1260,410,-0.050334,-13.165447,0.999998,0.000162,-0.001746,0.005298,0.000181,0.005303,-0.001751,88.526526,0.005404,
1500,1100,-1.862511,-6.854398,0.999996,0.000208,-0.003642,0.009795,0.000819,0.009845,-0.003692,86.524740,0.009947,
890,1120,2.052328,-6.783971,0.999998,0.000185,-0.003535,0.008692,-0.001067,0.008785,-0.003627,-85.047728,0.008829,
1830,1860,-1.076603,-1.365423,0.999997,0.000195,-0.003536,0.007702,0.000519,0.007726,-0.003560,87.359541,0.007734,
1590,90,-0.168763,-14.748651,0.999998,0.000164,-0.000945,0.005440,-0.001047,0.005608,-0.001112,-80.918922,0.005938,
1670,430,-1.157959,-12.350715,0.999997,0.000201,-0.003580,0.007488,0.000168,0.007490,-0.003583,89.129938,0.007493,
1600,1930,-0.271229,-0.576944,0.999997,0.000211,-0.001300,0.005838,0.001044,0.005987,-0.001450,81.847359,0.006247,
1440,370,-0.387117,-13.214038,0.999997,0.000204,-0.002242,0.006122,0.000263,0.006130,-0.002250,88.197225,0.006202,
1580,1030,-2.233822,-7.538414,0.999996,0.000250,-0.002762,0.008207,0.000060,0.008208,-0.002762,89.686236,0.008353,
1870,1610,-1.937505,-3.367635,0.999997,0.000213,-0.003686,0.007530,-0.000060,0.007531,-0.003687,-89.692502,0.007531,
800,1420,1.536940,-4.355191,0.999996,0.000219,-0.004369,0.008136,0.000048,0.008136,-0.004370,89.781453,0.008143,
1040,1550,0.427392,-2.711531,0.999996,0.000223,-0.002867,0.006298,0.000924,0.006391,-0.002959,84.302037,0.006396,
1710,830,-2.271225,-9.073065,0.999997,0.000220,-0.004036,0.008005,-0.000883,0.008069,-0.004100,-85.829663,0.008070,
1060,420,0.335182,-12.967989,0.999997,0.000193,-0.002442,0.005985,-0.000588,0.006026,-0.002483,-86.025038,0.006057,
1180,1430,0.092311,-3.051200,0.999998,0.000187,-0.001998,0.004494,0.000932,0.004625,-0.002129,81.990353,0.004630,
1750,1210,-2.468324,-6.207667,0.999996,0.000241,-0.003784,0.007631,0.000762,0.007681,-0.003835,86.196640,0.007681,
1790,1600,-1.658358,-3.249093,0.999997,0.000196,-0.003814,0.007600,-0.000116,0.007601,-0.003815,-89.417606,0.007601,
1100,1490,0.281744,-2.926937,0.999997,0.000204,-0.002700,0.005685,0.001277,0.005875,-0.002890,81.527967,0.005875,
1370,580,-0.302743,-12.086520,0.999997,0.000193,-0.002783,0.005843,0.001339,0.006046,-0.002986,81.374479,0.006046,
1440,1890,-0.167387,-0.727997,0.999998,0.000170,-0.001006,0.005345,0.000412,0.005371,-0.001033,86.302221,0.005700,
1620,1520,-1.157567,-3.445573,0.999997,0.000204,-0.003994,0.007776,-0.000405,0.007789,-0.004008,-88.032217,0.007791,
660,850,2.674510,-8.820459,0.999997,0.000219,-0.003565,0.007281,0.000613,0.007315,-0.003600,86.776734,0.007316,
1800,1610,-1.674095,-3.197164,0.999998,0.000159,-0.003781,0.007561,-0.000105,0.007562,-0.003782,-89.469502,0.007562,
1500,300,-0.439486,-13.566357,0.999997,0.000226,-0.002309,0.006225,-0.000009,0.006225,-0.002309,-89.936472,0.006294,
1240,510,-0.015944,-12.652721,0.999998,0.000170,-0.001895,0.005040,0.000136,0.005043,-0.001897,88.873836,0.005094,
1580,1140,-2.014620,-6.618799,0.999997,0.000197,-0.003832,0.008698,0.001050,0.008786,-0.003919,85.241279,0.008803,
1330,1420,-0.196054,-3.213675,0.999998,0.000174,-0.002566,0.005129,-0.001622,0.005457,-0.002894,-78.570158,0.005460,
1520,1030,-2.069891,-7.537772,0.999998,0.000189,-0.002695,0.008874,0.000048,0.008874,-0.002695,89.764043,0.009099,
1730,100,-0.352489,-14.635228,0.999997,0.000233,-0.001562,0.006381,-0.001799,0.006770,-0.001951,-77.817638,0.006969,
1190,660,0.071034,-11.935668,0.999997,0.000210,-0.001877,0.004067,-0.000907,0.004202,-0.002012,-81.509937,0.004204,
1630,330,-0.827661,-13.166217,0.999998,0.000181,-0.002898,0.007097,-0.000139,0.007099,-0.002900,-89.204340,0.007139,
1620,1960,-0.209164,-0.408746,0.999998,0.000184,-0.000810,0.005664,0.001238,0.005893,-0.001038,79.538818,0.006292,
1710,1150,-2.468353,-6.638785,0.999996,0.000235,-0.003605,0.007745,0.000840,0.007807,-0.003666,85.788016,0.007812,
1080,350,0.250777,-13.404187,0.999998,0.000174,-0.001772,0.005714,-0.000158,0.005717,-0.001775,-88.794414,0.005852,
1370,420,-0.260368,-13.019587,0.999997,0.000186,-0.002049,0.005696,0.000429,0.005720,-0.002072,86.838946,0.005791,
720,620,1.839825,-10.700626,0.999997,0.000187,-0.004062,0.007860,0.000079,0.007860,-0.004063,89.619189,0.007862,
1350,1640,-0.218080,-2.049625,0.999998,0.000188,-0.001985,0.005567,-0.000407,0.005589,-0.002007,-86.926250,0.005663,
950,1120,1.832293,-6.691393,0.999996,0.000248,-0.003960,0.009619,-0.000925,0.009682,-0.004023,-86.121334,0.009728,
770,220,0.736714,-13.838667,0.999997,0.000210,-0.002765,0.007022,0.000860,0.007097,-0.002840,85.015956,0.007144,
970,1010,1.988573,-7.730748,0.999997,0.000213,-0.003006,0.009987,0.000207,0.009990,-0.003009,89.088803,0.010250,
880,1630,0.849877,-2.537498,0.999997,0.000220,-0.003234,0.007112,0.000326,0.007122,-0.003244,88.197099,0.007132,
720,380,1.317796,-12.557770,0.999997,0.000233,-0.003665,0.007618,-0.000063,0.007619,-0.003665,-89.681794,0.007620,
1320,1550,-0.174606,-2.510985,0.999997,0.000200,-0.002182,0.005436,-0.000712,0.005502,-0.002248,-84.708717,0.005533,
1720,1030,-2.647843,-7.539878,0.999997,0.000207,-0.003178,0.007414,0.000037,0.007414,-0.003178,89.797915,0.007439,
1070,1960,0.057512,-0.355266,0.999998,0.000150,-0.000415,0.004848,-0.000343,0.004870,-0.000437,-86.291334,0.005389,
800,1240,2.033213,-5.866614,0.999997,0.000226,-0.004286,0.008372,-0.000843,0.008428,-0.004342,-86.205933,0.008429,
1800,1950,-0.535887,-0.597518,0.999996,0.000245,-0.002085,0.007497,0.002285,0.008014,-0.002602,77.250274,0.008176,
600,1570,1.999471,-3.656340,0.999998,0.000150,-0.003772,0.007594,0.000067,0.007594,-0.003772,89.661883,0.007594,
1520,1610,-0.670506,-2.537327,0.999998,0.000196,-0.003129,0.006867,-0.000526,0.006895,-0.003156,-86.994029,0.006903,
1600,1910,-0.318764,-0.692656,0.999997,0.000230,-0.001543,0.005976,0.000986,0.006103,-0.001670,82.651782,0.006308,
770,1120,2.465917,-6.860529,0.999997,0.000237,-0.003399,0.007639,-0.000683,0.007681,-0.003441,-86.473705,0.007695,
1530,1100,-1.970919,-6.912475,0.999997,0.000210,-0.003406,0.009092,0.000918,0.009159,-0.003473,85.822247,0.009247,
1500,1080,-1.934697,-7.051616,0.999997,0.000168,-0.003301,0.009666,0.000625,0.009696,-0.003331,87.245531,0.009854,
1180,410,0.089442,-13.155122,0.999999,0.000154,-0.001735,0.005340,-0.000128,0.005342,-0.001737,-88.966050,0.005450,
920,350,0.616474,-13.176936,0.999997,0.000232,-0.002488,0.006681,0.000025,0.006681,-0.002488,89.846711,0.006753,
1540,1950,-0.161028,-0.437717,0.999997,0.000191,-0.000653,0.005425,0.000883,0.005551,-0.000779,81.902443,0.006010,
1130,500,0.201460,-12.617014,0.999998,0.000164,-0.002165,0.005509,-0.000668,0.005567,-0.002222,-85.060921,0.005605,
1440,350,-0.369105,-13.334964,0.999998,0.000183,-0.002167,0.005952,0.000221,0.005958,-0.002173,88.442338,0.006030,
640,1890,0.914498,-1.107827,0.999997,0.000250,-0.003349,0.007808,-0.000974,0.007892,-0.003433,-85.045677,0.007914,
1710,810,-2.214350,-9.233323,0.999997,0.000233,-0.004127,0.007992,-0.000802,0.008045,-0.004179,-86.229659,0.008047,
1060,380,0.309440,-13.207163,0.999997,0.000199,-0.002227,0.005938,-0.000380,0.005955,-0.002244,-87.343265,0.006015,
1610,1480,-1.187018,-3.734194,0.999997,0.000199,-0.004172,0.007897,-0.000454,0.007914,-0.004189,-87.850351,0.007919,
1050,620,0.446647,-11.693661,0.999996,0.000222,-0.003478,0.006546,-0.001646,0.006810,-0.003741,-80.909624,0.006821,
800,1380,1.633344,-4.685718,0.999996,0.000234,-0.004496,0.008300,-0.000103,0.008301,-0.004497,-89.538018,0.008310,
1420,290,-0.276145,-13.712600,0.999998,0.000178,-0.001858,0.005754,0.000058,0.005755,-0.001859,89.565806,0.005874,
1070,1640,0.308440,-2.103392,0.999996,0.000231,-0.002337,0.005917,0.000542,0.005952,-0.002372,86.258609,0.005993,
1340,850,-0.503655,-10.744389,0.999989,0.000451,-0.003366,0.004693,0.002839,0.005593,-0.004266,72.417548,0.005844,
1080,1630,0.290110,-2.146464,0.999998,0.000192,-0.002244,0.005842,0.000533,0.005877,-0.002279,86.246068,0.005927,
1580,1120,-2.078943,-6.792790,0.999997,0.000198,-0.003523,0.008587,0.001054,0.008678,-0.003614,85.062452,0.008718,
880,850,1.791685,-9.076956,0.999996,0.000262,-0.004663,0.009057,0.000910,0.009117,-0.004723,86.221526,0.009119,
1420,1890,-0.147005,-0.718717,0.999998,0.000173,-0.001028,0.005235,0.000314,0.005251,-0.001044,87.137434,0.005559,
1500,280,-0.411844,-13.690619,0.999997,0.000198,-0.002204,0.006171,-0.000117,0.006172,-0.002205,-89.200258,0.006256,
1500,1030,-2.018957,-7.537051,0.999997,0.000220,-0.002851,0.009450,0.000037,0.009451,-0.002851,89.829339,0.009695,
1820,1610,-1.750097,-3.245777,0.999996,0.000218,-0.003823,0.007562,-0.000081,0.007562,-0.003824,-89.593633,0.007562,
620,170,1.012353,-13.903724,0.999997,0.000212,-0.003661,0.007800,0.000601,0.007831,-0.003693,87.007060,0.007835,
1190,500,0.078950,-12.686091,0.999998,0.000180,-0.001872,0.005157,-0.000255,0.005166,-0.001881,-87.923705,0.005229,
1620,1500,-1.193721,-3.604890,0.999997,0.000194,-0.004074,0.007810,-0.000402,0.007824,-0.004087,-88.066441,0.007826,
1630,310,-0.790596,-13.306180,0.999998,0.000176,-0.002774,0.006954,-0.000232,0.006960,-0.002779,-88.637296,0.007006,
1170,660,0.110227,-11.888071,0.999998,0.000192,-0.002061,0.004326,-0.001315,0.004587,-0.002322,-78.808800,0.004587,
1710,1130,-2.508159,-6.791575,0.999996,0.000238,-0.003470,0.007542,0.000664,0.007582,-0.003510,86.564440,0.007589,
590,1640,1.880627,-3.147530,0.999997,0.000197,-0.003699,0.007470,0.000053,0.007470,-0.003699,89.730620,0.007470,
1620,1940,-0.265172,-0.524959,0.999997,0.000202,-0.001093,0.005943,0.001230,0.006152,-0.001302,80.362470,0.006484,
720,840,2.429694,-8.958768,0.999996,0.000235,-0.003837,0.007694,0.000796,0.007749,-0.003892,86.071969,0.007749,
1480,1950,-0.115867,-0.421763,0.999998,0.000206,-0.000626,0.005180,0.000607,0.005242,-0.000689,84.090952,0.005697,
1370,910,-1.078835,-9.976716,0.999990,0.000407,-0.002432,0.007405,0.005034,0.009525,-0.004551,67.166190,0.009528,
1690,360,-1.088919,-12.825298,0.999998,0.000144,-0.003353,0.007324,-0.000053,0.007324,-0.003353,-89.714135,0.007332,
820,1570,1.158583,-3.120941,0.999997,0.000185,-0.003797,0.007560,0.000333,0.007570,-0.003806,88.323975,0.007570,
1050,680,0.476967,-11.287196,0.999995,0.000255,-0.004120,0.007012,-0.002133,0.007406,-0.004514,-79.517079,0.007465,
1050,1960,0.066629,-0.358305,0.999998,0.000177,-0.000546,0.004907,-0.000383,0.004934,-0.000573,-85.997731,0.005397,
630,1060,2.996795,-7.338157,0.999997,0.000260,-0.003221,0.006740,-0.000213,0.006744,-0.003226,-88.776847,0.006746,
800,1220,2.093099,-6.032458,0.999997,0.000210,-0.004182,0.008279,-0.000921,0.008346,-0.004249,-85.794577,0.008347,
1100,350,0.216551,-13.424096,0.999998,0.000191,-0.001713,0.005611,-0.000184,0.005616,-0.001718,-88.564309,0.005755,
1020,1610,0.448732,-2.373619,0.999996,0.000228,-0.002631,0.006321,0.000613,0.006363,-0.002673,86.101723,0.006390,
590,1570,2.036255,-3.679301,0.999998,0.000174,-0.003737,0.007591,0.000051,0.007591,-0.003737,89.743459,0.007591,
750,1120,2.535304,-6.869211,0.999997,0.000206,-0.003408,0.007530,-0.000653,0.007569,-0.003447,-86.593927,0.007579,
1510,1100,-1.899123,-6.875638,0.999996,0.000208,-0.003566,0.009510,0.000894,0.009571,-0.003627,86.106060,0.009664,
1500,1060,-1.985236,-7.246099,0.999998,0.000170,-0.003038,0.009872,0.000418,0.009885,-0.003052,88.147412,0.010124,
1060,360,0.293611,-13.327894,0.999998,0.000204,-0.002109,0.005895,-0.000280,0.005905,-0.002119,-88.002414,0.005983,
580,1630,1.940410,-3.246918,0.999997,0.000221,-0.003708,0.007451,0.000063,0.007451,-0.003709,89.675939,0.007452,
1040,290,0.280454,-13.708918,0.999997,0.000206,-0.001873,0.005768,-0.000027,0.005768,-0.001874,-89.796580,0.005885,
1600,1890,-0.374154,-0.817124,0.999997,0.000207,-0.001751,0.006133,0.000927,0.006240,-0.001859,83.383017,0.006408,
1200,750,0.047015,-11.658194,0.999997,0.000196,-0.001695,0.002548,-0.001245,0.002886,-0.002034,-74.796948,0.002965,
620,1890,0.988855,-1.176057,0.999998,0.000179,-0.003640,0.007794,-0.000597,0.007825,-0.003671,-87.021070,0.007830,
1420,350,-0.324624,-13.362443,0.999997,0.000205,-0.002205,0.005893,0.000286,0.005903,-0.002215,87.983060,0.005964,
1480,1030,-1.957837,-7.535692,0.999996,0.000246,-0.003166,0.010332,0.000016,0.010332,-0.003166,89.932673,0.010587,
1580,1100,-2.134975,-6.963292,0.999996,0.000223,-0.003295,0.008388,0.000893,0.008456,-0.003363,85.652419,0.008514,
1790,1480,-1.920952,-4.174601,0.999998,0.000190,-0.003893,0.007737,0.000007,0.007737,-0.003893,89.967600,0.007737,
1130,640,0.203191,-11.869370,0.999997,0.000188,-0.002612,0.005167,-0.001688,0.005518,-0.002963,-78.267965,0.005523,
890,400,0.781222,-12.780449,0.999997,0.000200,-0.003193,0.007024,-0.000270,0.007031,-0.003200,-88.487006,0.007041,
890,1640,0.802743,-2.445551,0.999998,0.000184,-0.003210,0.007056,0.000319,0.007065,-0.003220,88.221686,0.007075,
1060,1630,0.338682,-2.181246,0.999997,0.000204,-0.002459,0.006014,0.000609,0.006057,-0.002502,85.912762,0.006087,
1700,790,-2.114882,-9.409485,0.999997,0.000203,-0.004196,0.008182,-0.000744,0.008227,-0.004241,-86.572204,0.008228,
1820,1030,-2.971218,-7.542500,0.999997,0.000192,-0.003257,0.006899,0.000036,0.006899,-0.003258,89.794439,0.006902,
1520,1890,-0.259809,-0.766317,0.999998,0.000184,-0.001306,0.005667,0.000622,0.005722,-0.001361,84.939652,0.005978,
770,1620,1.253184,-2.862546,0.999997,0.000202,-0.003683,0.007549,0.000181,0.007552,-0.003686,89.075961,0.007553,
1620,1480,-1.226817,-3.761412,0.999997,0.000209,-0.004185,0.007906,-0.000403,0.007919,-0.004199,-88.092212,0.007924,
1500,260,-0.382108,-13.814289,0.999997,0.000195,-0.002081,0.006026,-0.000193,0.006031,-0.002086,-88.636151,0.006126,
1620,1920,-0.323829,-0.646542,0.999997,0.000206,-0.001303,0.005980,0.001137,0.006153,-0.001477,81.326655,0.006424,
1580,1950,-0.194754,-0.451277,0.999998,0.000177,-0.001117,0.005613,0.000991,0.005756,-0.001260,81.798020,0.006051,
1630,290,-0.746944,-13.445690,0.999997,0.000195,-0.002677,0.007013,-0.000389,0.007028,-0.002693,-87.706000,0.007092,
720,600,1.792054,-10.858424,0.999997,0.000208,-0.004058,0.007859,0.000040,0.007859,-0.004058,89.809859,0.007861,
620,150,0.916047,-14.058427,0.999998,0.000175,-0.003686,0.007760,0.000760,0.007811,-0.003736,86.216849,0.007813,
590,1630,1.903793,-3.223792,0.999997,0.000217,-0.003697,0.007492,0.000056,0.007493,-0.003698,89.715278,0.007493,
1710,1110,-2.540454,-6.941908,0.999996,0.000232,-0.003377,0.007566,0.000664,0.007606,-0.003417,86.539063,0.007619,
1050,660,0.463767,-11.426225,0.999996,0.000249,-0.003897,0.006877,-0.001976,0.007228,-0.004248,-79.928051,0.007265,
1890,1470,-2.326134,-4.482362,0.999997,0.000194,-0.003793,0.007672,0.000004,0.007672,-0.003793,89.981119,0.007672,
1290,520,-0.110977,-12.573292,0.999998,0.000169,-0.002019,0.005156,0.000463,0.005186,-0.002049,86.320721,0.005224,
730,400,1.327652,-12.428250,0.999997,0.000244,-0.003683,0.007633,-0.000083,0.007634,-0.003684,-89.578842,0.007635,
650,1060,2.932784,-7.335262,0.999997,0.000192,-0.003225,0.006879,-0.000214,0.006884,-0.003229,-88.788578,0.006888,
1120,350,0.180394,-13.442245,0.999997,0.000189,-0.001812,0.005537,-0.000234,0.005544,-0.001819,-88.179070,0.005653,
1060,340,0.279934,-13.444651,0.999998,0.000206,-0.002002,0.005796,-0.000205,0.005801,-0.002008,-88.494386,0.005892,
800,1200,2.155884,-6.198157,0.999997,0.000218,-0.004044,0.008269,-0.000980,0.008347,-0.004121,-85.476929,0.008347,
1370,1960,-0.049876,-0.352555,0.999998,0.000154,-0.000315,0.004790,0.000276,0.004805,-0.000329,86.916509,0.005368,
900,1130,1.982942,-6.685139,0.999998,0.000189,-0.003771,0.008861,-0.001077,0.008952,-0.003862,-85.160820,0.008980,
1290,1640,-0.103268,-1.993110,0.999998,0.000206,-0.001728,0.005347,-0.000149,0.005350,-0.001731,-88.795319,0.005460,
1020,1590,0.460456,-2.502276,0.999998,0.000204,-0.002808,0.006414,0.000766,0.006477,-0.002871,85.284130,0.006491,
730,1120,2.602977,-6.877084,0.999997,0.000211,-0.003430,0.007437,-0.000625,0.007473,-0.003466,-86.718604,0.007480,
920,290,0.523392,-13.573146,0.999997,0.000206,-0.002198,0.006479,0.000259,0.006486,-0.002205,88.293828,0.006596,
620,1870,1.082222,-1.333914,0.999998,0.000198,-0.003630,0.007719,-0.000471,0.007739,-0.003650,-87.625966,0.007743,
1800,1030,-2.906307,-7.542843,0.999997,0.000193,-0.003250,0.007025,0.000030,0.007025,-0.003251,89.834356,0.007032,
1500,1040,-2.011848,-7.443173,0.999997,0.000189,-0.002883,0.009620,0.000166,0.009622,-0.002886,89.237634,0.009876,
1580,1080,-2.178020,-7.129196,0.999997,0.000217,-0.003055,0.008279,0.000748,0.008328,-0.003104,86.239374,0.008417,
1850,620,-2.258739,-10.462693,0.999997,0.000218,-0.003795,0.007672,-0.000071,0.007672,-0.003795,-89.643269,0.007672,
800,700,1.695189,-10.226148,0.999997,0.000237,-0.004533,0.008364,0.000243,0.008368,-0.004538,88.920870,0.008378,
1180,750,0.084117,-11.585284,0.999998,0.000181,-0.002038,0.003073,-0.001945,0.003729,-0.002693,-71.365203,0.003850,
1580,1930,-0.241829,-0.565686,0.999997,0.000205,-0.001286,0.005732,0.000930,0.005853,-0.001407,82.581384,0.006110,
850,1060,2.304331,-7.302942,0.999997,0.000214,-0.002939,0.007871,-0.000379,0.007885,-0.002953,-87.995495,0.007967,
1630,270,-0.701416,-13.586064,0.999997,0.000195,-0.002515,0.006839,-0.000499,0.006866,-0.002541,-86.953579,0.006943,
980,1890,0.208375,-0.744417,0.999997,0.000217,-0.001160,0.005507,-0.000524,0.005548,-0.001201,-85.530691,0.005837,
1590,1620,-0.888610,-2.625139,0.999998,0.000199,-0.003330,0.007206,-0.000322,0.007216,-0.003339,-88.253312,0.007222,
1600,1870,-0.423375,-0.938897,0.999997,0.000208,-0.001955,0.006253,0.000795,0.006330,-0.002031,84.516099,0.006464,
770,1600,1.292239,-3.013552,0.999997,0.000196,-0.003733,0.007592,0.000214,0.007596,-0.003737,88.918185,0.007596,
1170,500,0.116075,-12.673901,0.999998,0.000168,-0.001984,0.005252,-0.000450,0.005280,-0.002012,-86.454995,0.005330,
920,390,0.672571,-12.911595,0.999998,0.000182,-0.002842,0.006778,-0.000234,0.006784,-0.002848,-88.608518,0.006813,
600,1630,1.867294,-3.200301,0.999997,0.000218,-0.003703,0.007514,0.000071,0.007514,-0.003703,89.638352,0.007514,
1880,620,-2.371971,-10.392488,0.999997,0.000213,-0.003814,0.007643,-0.000046,0.007643,-0.003814,-89.769438,0.007643,
1350,740,-0.265504,-11.254842,0.999998,0.000219,-0.003623,0.005620,0.002927,0.006468,-0.004471,73.826465,0.006624,
1130,600,0.205427,-12.078990,0.999997,0.000212,-0.002478,0.005275,-0.001268,0.005478,-0.002680,-80.945242,0.005478,
1520,1870,-0.292365,-0.877644,0.999998,0.000192,-0.001477,0.005797,0.000550,0.005838,-0.001519,85.700831,0.006058,
1290,540,-0.111912,-12.469439,0.999998,0.000157,-0.002064,0.005111,0.000560,0.005154,-0.002108,85.561967,0.005182,
1420,890,-1.136456,-9.431239,0.999995,0.000246,-0.005160,0.010364,0.001941,0.010603,-0.005399,82.979643,0.010604,
1370,640,-0.306891,-11.736140,0.999996,0.000224,-0.003098,0.005902,0.001846,0.006266,-0.003462,78.848032,0.006278,
1870,1600,-1.960296,-3.443255,0.999997,0.000214,-0.003708,0.007553,-0.000069,0.007554,-0.003709,-89.647389,0.007554,
1620,1460,-1.265063,-3.922715,0.999997,0.000201,-0.004310,0.007976,-0.000384,0.007988,-0.004322,-88.213747,0.007997,
1310,1420,-0.148831,-3.160733,0.999998,0.000177,-0.002233,0.004796,-0.001321,0.005036,-0.002473,-79.701924,0.005036,
1710,1090,-2.578126,-7.095113,0.999997,0.000219,-0.003292,0.007511,0.000519,0.007536,-0.003317,87.257394,0.007554,
880,1130,2.056305,-6.707956,0.999998,0.000192,-0.003671,0.008633,-0.001074,0.008727,-0.003764,-85.048286,0.008754,
980,350,0.462180,-13.277010,0.999998,0.000177,-0.002414,0.006270,-0.000203,0.006275,-0.002419,-88.659085,0.006330,
1760,290,-1.156280,-13.196930,0.999997,0.000198,-0.003599,0.007535,-0.000207,0.007539,-0.003603,-88.933459,0.007541,
720,560,1.702239,-11.172542,0.999996,0.000211,-0.003994,0.007771,-0.000089,0.007771,-0.003994,-89.568652,0.007772,
1550,1540,-0.857674,-3.108749,0.999997,0.000248,-0.003693,0.007328,-0.000679,0.007370,-0.003735,-86.488117,0.007370,
1780,1610,-1.598352,-3.147565,0.999996,0.000245,-0.003785,0.007601,-0.000140,0.007602,-0.003787,-89.295745,0.007602,
940,1850,0.336659,-1.000814,0.999997,0.000205,-0.001609,0.005892,-0.000528,0.005929,-0.001646,-85.996888,0.006121,
1110,1960,0.043777,-0.350627,0.999998,0.000165,-0.000388,0.004751,-0.000233,0.004762,-0.000398,-87.407484,0.005283,
1580,1060,-2.210334,-7.294705,0.999997,0.000229,-0.002897,0.008155,0.000450,0.008174,-0.002915,87.672253,0.008285,
1780,1030,-2.841185,-7.542234,0.999997,0.000198,-0.003233,0.007140,0.000052,0.007140,-0.003233,89.715265,0.007151,
1500,1020,-2.019560,-7.630736,0.999997,0.000209,-0.002866,0.009517,-0.000078,0.009517,-0.002866,-89.641139,0.009765,
1830,620,-2.182704,-10.507882,0.999996,0.000230,-0.003852,0.007679,-0.000103,0.007679,-0.003853,-89.486180,0.007679,
800,1120,2.365410,-6.848259,0.999997,0.000236,-0.003430,0.007810,-0.000755,0.007861,-0.003481,-86.176222,0.007878,
1370,740,-0.340523,-11.124604,0.999996,0.000260,-0.004041,0.006318,0.002893,0.007072,-0.004794,75.408582,0.007219,
1460,1950,-0.105279,-0.418030,0.999998,0.000235,-0.000491,0.005115,0.000557,0.005170,-0.000545,84.384457,0.005681,
1630,250,-0.653009,-13.720968,0.999997,0.000204,-0.002397,0.006830,-0.000644,0.006875,-0.002442,-86.027309,0.006971,
1440,1950,-0.093574,-0.413171,0.999998,0.000182,-0.000604,0.005057,0.000485,0.005099,-0.000645,85.139701,0.005552,
1540,1850,-0.360730,-1.013659,0.999997,0.000210,-0.001577,0.006036,0.000634,0.006089,-0.001629,85.269038,0.006304,
1270,660,-0.064608,-11.940459,0.999998,0.000192,-0.001839,0.004015,0.000841,0.004134,-0.001957,81.988884,0.004135,
750,1060,2.608515,-7.318160,0.999997,0.000207,-0.003200,0.007395,-0.000264,0.007402,-0.003207,-88.571257,0.007424,
1120,1650,0.203010,-1.986128,0.999999,0.000161,-0.001972,0.005547,0.000408,0.005569,-0.001994,86.905808,0.005644,
630,1640,1.731859,-3.049163,0.999996,0.000237,-0.003762,0.007566,0.000109,0.007567,-0.003763,89.449692,0.007567,
1290,620,-0.108249,-12.077132,0.999998,0.000159,-0.002086,0.004604,0.001026,0.004757,-0.002240,81.477613,0.004760,
1870,620,-2.333800,-10.415673,0.999997,0.000223,-0.003805,0.007647,-0.000058,0.007647,-0.003805,-89.710305,0.007647,
1500,1890,-0.230149,-0.753983,0.999998,0.000171,-0.001359,0.005543,0.000529,0.005583,-0.001400,85.642899,0.005810,
1090,740,0.352691,-11.106698,0.999996,0.000232,-0.004152,0.006447,-0.002872,0.007175,-0.004880,-75.770474,0.007329,
920,650,1.022957,-10.981493,0.999997,0.000205,-0.004602,0.008194,-0.000798,0.008243,-0.004651,-86.444484,0.008266,
1400,890,-1.030459,-9.648740,0.999993,0.000284,-0.004773,0.009188,0.003002,0.009806,-0.005391,78.363182,0.009822,
780,1610,1.234986,-2.914198,0.999998,0.000176,-0.003699,0.007532,0.000204,0.007535,-0.003703,88.959545,0.007536,
1370,720,-0.328266,-11.251548,0.999997,0.000205,-0.003794,0.006270,0.002678,0.006938,-0.004462,75.988067,0.007032,
1200,810,0.086410,-11.528927,0.999997,0.000192,-0.002717,0.001851,-0.001200,0.002147,-0.003013,-76.136478,0.003103,
1130,580,0.204484,-12.185683,0.999998,0.000201,-0.002386,0.005365,-0.001083,0.005514,-0.002534,-82.193257,0.005520,
1270,1420,-0.066537,-3.077006,0.999998,0.000176,-0.001882,0.004278,-0.000670,0.004350,-0.001954,-83.867462,0.004358,
1670,1560,-1.280547,-3.263711,0.999997,0.000184,-0.003849,0.007642,-0.000291,0.007650,-0.003857,-88.549648,0.007650,
680,1130,2.756359,-6.829991,0.999998,0.000155,-0.003407,0.007184,-0.000529,0.007210,-0.003434,-87.145313,0.007213,
760,190,0.662178,-14.041626,0.999997,0.000197,-0.002465,0.007016,0.001164,0.007157,-0.002606,83.101200,0.007244,
1620,1440,-1.305838,-4.081314,0.999997,0.000201,-0.004397,0.008014,-0.000366,0.008025,-0.004408,-88.313969,0.008038,
1710,1070,-2.593547,-7.244259,0.999997,0.000213,-0.003216,0.007393,0.000276,0.007400,-0.003224,88.512299,0.007421,
1770,1540,-1.710830,-3.662972,0.999997,0.000199,-0.003901,0.007696,-0.000118,0.007697,-0.003903,-89.414986,0.007697,
1350,1960,-0.042291,-0.350771,0.999998,0.000166,-0.000408,0.004754,0.000213,0.004762,-0.000417,87.641480,0.005275,
930,1640,0.675575,-2.358339,0.999996,0.000226,-0.002973,0.006823,0.000356,0.006835,-0.002986,87.921825,0.006854,
1880,1780,-1.546499,-2.130358,0.999998,0.000205,-0.003679,0.007291,0.000017,0.007291,-0.003680,89.908954,0.007292,
890,1060,2.190790,-7.291767,0.999998,0.000202,-0.002866,0.008240,-0.000448,0.008258,-0.002884,-87.692914,0.008382,
1500,1000,-1.995842,-7.823194,0.999996,0.000248,-0.003002,0.009827,-0.000375,0.009838,-0.003013,-88.329132,0.010081,
1220,410,0.021108,-13.172389,0.999999,0.000153,-0.001767,0.005277,-0.000141,0.005280,-0.001770,-88.856765,0.005374,
570,1930,0.960598,-1.047002,0.999997,0.000225,-0.003608,0.008126,-0.001078,0.008224,-0.003706,-84.794685,0.008237,
1240,490,-0.016306,-12.754261,0.999998,0.000158,-0.001881,0.005140,0.000131,0.005142,-0.001884,88.933673,0.005203,
1670,1620,-1.168464,-2.809044,0.999998,0.000176,-0.003613,0.007479,-0.000206,0.007482,-0.003617,-88.935848,0.007484,
1540,1830,-0.399609,-1.132590,0.999998,0.000199,-0.001705,0.006053,0.000544,0.006091,-0.001743,86.007333,0.006274,
1630,230,-0.600938,-13.861173,0.999996,0.000221,-0.002191,0.006695,-0.000742,0.006756,-0.002252,-85.261255,0.006880,
1250,660,-0.029608,-11.959879,0.999999,0.000132,-0.001664,0.003820,0.000457,0.003857,-0.001702,85.271862,0.003866,
1370,620,-0.304762,-11.855391,0.999997,0.000195,-0.002977,0.005865,0.001637,0.006158,-0.003271,79.843929,0.006162,
920,1950,0.161574,-0.437686,0.999998,0.000193,-0.000649,0.005435,-0.000893,0.005564,-0.000778,-81.817441,0.006026,
610,1640,1.807940,-3.100004,0.999997,0.000209,-0.003734,0.007523,0.000093,0.007524,-0.003734,89.525605,0.007524,
1620,1420,-1.344458,-4.244544,0.999996,0.000236,-0.004497,0.008246,-0.000299,0.008253,-0.004504,-88.657813,0.008265,
780,1590,1.274227,-3.066481,0.999997,0.000187,-0.003753,0.007599,0.000228,0.007604,-0.003757,88.849555,0.007604,
1180,810,0.139868,-11.427846,0.999996,0.000240,-0.002853,0.002389,-0.001974,0.003050,-0.003513,-71.504852,0.003817,
1100,410,0.243307,-13.082504,0.999997,0.000184,-0.001977,0.005611,-0.000366,0.005628,-0.001995,-87.247509,0.005707,
1880,1760,-1.604070,-2.275108,0.999997,0.000241,-0.003655,0.007337,-0.000012,0.007337,-0.003655,-89.938684,0.007337,
760,170,0.595617,-14.177623,0.999996,0.000238,-0.002266,0.006882,0.001340,0.007074,-0.002459,81.834615,0.007183,
1710,1050,-2.606910,-7.391420,0.999996,0.000223,-0.003177,0.007401,0.000269,0.007408,-0.003184,88.544733,0.007432,
1400,870,-0.908559,-9.846331,0.999996,0.000221,-0.005296,0.009069,0.002536,0.009504,-0.005730,80.275627,0.009571,
1800,770,-2.458187,-9.419456,0.999996,0.000227,-0.003824,0.007542,-0.000535,0.007567,-0.003849,-87.311778,0.007567,
920,630,0.990151,-11.144095,0.999997,0.000199,-0.004455,0.008019,-0.000812,0.008072,-0.004508,-86.290382,0.008090,
1670,1540,-1.318030,-3.418087,0.999996,0.000224,-0.003908,0.007776,-0.000277,0.007782,-0.003914,-88.642161,0.007782,
660,1130,2.824883,-6.841405,0.999997,0.000182,-0.003395,0.007050,-0.000508,0.007075,-0.003419,-87.223651,0.007076,
1250,1420,-0.031215,-3.060327,0.999998,0.000174,-0.001728,0.004126,-0.000410,0.004155,-0.001756,-86.008301,0.004171,
790,1640,1.140641,-2.664795,0.999996,0.000214,-0.003550,0.007466,0.000143,0.007468,-0.003552,89.254452,0.007471,
1500,980,-1.950047,-8.020515,0.999997,0.000252,-0.003221,0.009701,-0.000600,0.009729,-0.003248,-87.348914,0.009906,
1680,1030,-2.523348,-7.541120,0.999997,0.000222,-0.003091,0.007587,0.000038,0.007587,-0.003092,89.793965,0.007630,
1340,410,-0.196489,-13.108860,0.999999,0.000161,-0.002018,0.005525,0.000420,0.005548,-0.002041,86.822771,0.005612,
570,1920,1.018460,-1.128112,0.999996,0.000251,-0.003524,0.008043,-0.000910,0.008114,-0.003596,-85.527156,0.008132,
1220,670,0.018283,-11.929423,0.999999,0.000137,-0.001601,0.003682,-0.000323,0.003702,-0.001621,-86.519406,0.003711,
1650,1620,-1.097810,-2.762610,0.999997,0.000187,-0.003556,0.007417,-0.000248,0.007423,-0.003561,-88.706031,0.007425,
1630,210,-0.550444,-13.988634,0.999996,0.000218,-0.002034,0.006563,-0.000869,0.006650,-0.002121,-84.286095,0.006793,
1230,500,0.003028,-12.704540,0.999998,0.000148,-0.001895,0.005095,-0.000017,0.005095,-0.001895,-89.859801,0.005150,
1080,1890,0.112831,-0.704269,0.999998,0.000173,-0.000750,0.005143,-0.000293,0.005158,-0.000765,-87.158104,0.005567,
1050,600,0.440260,-11.824093,0.999996,0.000225,-0.003359,0.006498,-0.001537,0.006732,-0.003593,-81.337275,0.006737,
1620,1400,-1.388711,-4.414407,0.999996,0.000216,-0.004596,0.008370,-0.000202,0.008373,-0.004599,-89.108146,0.008386,
1410,1600,-0.372404,-2.377597,0.999998,0.000173,-0.002499,0.006059,-0.000673,0.006112,-0.002552,-85.533726,0.006139,
1120,1890,0.081985,-0.693525,0.999998,0.000146,-0.000824,0.005048,-0.000149,0.005052,-0.000828,-88.549753,0.005419,
870,1640,0.867104,-2.488201,0.999997,0.000195,-0.003221,0.007136,0.000251,0.007142,-0.003228,88.612920,0.007153,
1020,350,0.375986,-13.331108,0.999997,0.000206,-0.002142,0.006000,-0.000253,0.006008,-0.002150,-88.221601,0.006088,
1300,410,-0.119024,-13.149110,0.999998,0.000165,-0.001780,0.005398,0.000217,0.005405,-0.001786,88.266009,0.005507,
1710,1030,-2.618768,-7.541734,0.999997,0.000212,-0.003170,0.007449,0.000045,0.007449,-0.003170,89.757704,0.007477,
1500,570,-0.733455,-11.745670,0.999997,0.000185,-0.003804,0.007323,0.001010,0.007414,-0.003895,84.853627,0.007417,
900,1950,0.175030,-0.443508,0.999998,0.000187,-0.000826,0.005523,-0.000942,0.005660,-0.000963,-81.736081,0.006056,
620,210,1.182454,-13.595463,0.999997,0.000204,-0.003665,0.007646,0.000317,0.007655,-0.003673,88.393635,0.007657,
1620,1090,-2.282509,-7.065528,0.999996,0.000226,-0.003150,0.007969,0.000758,0.008020,-0.003201,86.115747,0.008075,
1820,750,-2.480638,-9.536764,0.999997,0.000234,-0.003766,0.007471,-0.000457,0.007490,-0.003785,-87.675735,0.007490,
860,1630,0.915061,-2.580327,0.999998,0.000167,-0.003346,0.007242,0.000277,0.007249,-0.003353,88.501281,0.007256,
1240,1430,-0.014344,-3.009438,0.999998,0.000142,-0.001722,0.004226,-0.000237,0.004235,-0.001732,-87.724935,0.004258,
770,1640,1.211574,-2.709868,0.999997,0.000181,-0.003622,0.007523,0.000144,0.007525,-0.003624,89.259821,0.007527,
1320,410,-0.157421,-13.133122,0.999998,0.000157,-0.001970,0.005465,0.000409,0.005487,-0.001992,86.859195,0.005555,
1200,670,0.051267,-11.909948,0.999998,0.000144,-0.001738,0.003822,-0.000724,0.003915,-0.001831,-82.706155,0.003918,
1700,1030,-2.585568,-7.541875,0.999997,0.000220,-0.003145,0.007485,0.000047,0.007485,-0.003145,89.748539,0.007517,
570,1910,1.074975,-1.208495,0.999992,0.000341,-0.003485,0.007877,-0.000763,0.007928,-0.003536,-86.173872,0.007944,
1210,500,0.041116,-12.698107,0.999998,0.000153,-0.001903,0.005119,-0.000236,0.005127,-0.001911,-88.077552,0.005182,
1060,1890,0.127397,-0.710295,0.999998,0.000194,-0.000921,0.005185,-0.000292,0.005199,-0.000935,-87.265829,0.005543,
1140,1650,0.162104,-1.963291,0.999998,0.000165,-0.001975,0.005480,0.000401,0.005501,-0.001996,86.930630,0.005570,
1410,1580,-0.381084,-2.499157,0.999996,0.000242,-0.002539,0.006113,-0.000758,0.006179,-0.002605,-85.032867,0.006204,
1260,750,-0.043292,-11.664270,0.999997,0.000198,-0.001656,0.002527,0.001137,0.002816,-0.001945,75.734478,0.002884,
1640,510,-1.193037,-11.813774,0.999997,0.000204,-0.003911,0.007664,0.000358,0.007675,-0.003922,88.227917,0.007675,
980,430,0.549152,-12.759449,0.999998,0.000220,-0.002898,0.006593,-0.000559,0.006626,-0.002931,-86.640145,0.006640,
1370,680,-0.313996,-11.495384,0.999997,0.000222,-0.003428,0.005998,0.002276,0.006519,-0.003949,77.110765,0.006568,
1600,1090,-2.218807,-7.055980,0.999996,0.000246,-0.003153,0.008140,0.000786,0.008194,-0.003208,86.038410,0.008259,
1420,1610,-0.392391,-2.333988,0.999997,0.000193,-0.002461,0.006095,-0.000594,0.006136,-0.002502,-86.050667,0.006171,
1220,1430,0.020625,-3.011015,0.999999,0.000135,-0.001750,0.004214,0.000271,0.004227,-0.001762,87.400287,0.004246,
1710,1250,-2.199960,-5.845768,0.999997,0.000213,-0.004077,0.008005,0.000782,0.008055,-0.004127,86.309658,0.008056,
620,790,2.672198,-9.198545,0.999998,0.000198,-0.003614,0.007318,0.000412,0.007333,-0.003629,87.846123,0.007333,
600,1930,0.853717,-0.937990,0.999997,0.000198,-0.003588,0.007996,-0.001087,0.008097,-0.003689,-84.686373,0.008107,
880,1930,0.246351,-0.566953,0.999997,0.000192,-0.001334,0.005749,-0.000974,0.005880,-0.001465,-82.307997,0.006122,
1360,1810,-0.150212,-1.116600,0.999999,0.000133,-0.001242,0.005380,0.000090,0.005381,-0.001244,89.225583,0.005634,
1380,1610,-0.290797,-2.259152,0.999997,0.000215,-0.002376,0.005855,-0.000630,0.005903,-0.002424,-85.646323,0.005935,
1230,660,0.002612,-11.973542,0.999998,0.000145,-0.001624,0.003781,-0.000037,0.003781,-0.001624,-89.607387,0.003794,
1260,670,-0.045952,-11.912001,0.999998,0.000153,-0.001707,0.003793,0.000670,0.003873,-0.001787,83.155195,0.003877,
730,1060,2.673600,-7.321066,0.999996,0.000217,-0.003246,0.007307,-0.000236,0.007312,-0.003251,-88.719158,0.007327,
1180,1650,0.089915,-1.937273,0.999998,0.000157,-0.001709,0.005349,0.000138,0.005352,-0.001712,88.876876,0.005467,
1400,1890,-0.125820,-0.708283,0.999998,0.000152,-0.000925,0.005151,0.000278,0.005164,-0.000937,87.386423,0.005502,
1370,660,-0.309831,-11.617370,0.999997,0.000188,-0.003274,0.005952,0.002076,0.006398,-0.003720,77.884907,0.006426,
1620,510,-1.113711,-11.865550,0.999996,0.000256,-0.003834,0.007589,0.000419,0.007604,-0.003849,87.901077,0.007604,
1240,750,-0.012854,-11.692272,0.999998,0.000146,-0.001544,0.002275,0.000325,0.002302,-0.001572,85.164074,0.002353,
1490,1600,-0.592981,-2.542099,0.999996,0.000227,-0.002932,0.006675,-0.000589,0.006711,-0.002968,-86.507028,0.006725,
980,410,0.530054,-12.889879,0.999996,0.000242,-0.002833,0.006508,-0.000478,0.006533,-0.002857,-87.078113,0.006550,
1660,1090,-2.411043,-7.078996,0.999996,0.000246,-0.003230,0.007741,0.000670,0.007782,-0.003271,86.520838,0.007815,
1210,660,0.034606,-11.957935,0.999998,0.000144,-0.001673,0.003837,-0.000494,0.003881,-0.001717,-84.919257,0.003889,
1820,730,-2.426761,-9.686940,0.999998,0.000190,-0.003801,0.007594,-0.000394,0.007608,-0.003814,-88.024477,0.007608,
1710,1010,-2.610332,-7.691268,0.999997,0.000198,-0.003159,0.007433,-0.000212,0.007437,-0.003164,-88.852758,0.007465,
1240,670,-0.012883,-11.931940,0.999999,0.000142,-0.001612,0.003657,0.000253,0.003669,-0.001624,87.259290,0.003677,
1420,1590,-0.401583,-2.456551,0.999997,0.000221,-0.002546,0.006153,-0.000691,0.006208,-0.002601,-85.488996,0.006235,
570,1630,1.978468,-3.270630,0.999998,0.000205,-0.003717,0.007395,0.000076,0.007396,-0.003717,89.608194,0.007396,
910,1640,0.738067,-2.400439,0.999997,0.000176,-0.003195,0.006975,0.000353,0.006987,-0.003208,88.014391,0.006995,
1160,1650,0.123223,-1.945786,0.999998,0.000159,-0.001814,0.005420,0.000226,0.005427,-0.001821,88.209248,0.005524,
880,1950,0.197158,-0.451612,0.999998,0.000155,-0.001135,0.005603,-0.000986,0.005745,-0.001276,-81.843609,0.006033,
1010,1020,1.860079,-7.647924,0.999996,0.000273,-0.004232,0.012379,-0.000109,0.012380,-0.004232,-89.623463,0.012584,
1320,1810,-0.097684,-1.093455,0.999998,0.000151,-0.001219,0.005202,0.000014,0.005202,-0.001219,89.874233,0.005441,
750,1300,2.068417,-5.444208,0.999998,0.000176,-0.004219,0.008102,-0.000623,0.008134,-0.004250,-87.112427,0.008136,
1040,670,0.510880,-11.307578,0.999995,0.000251,-0.004130,0.007141,-0.001984,0.007480,-0.004469,-80.302043,0.007527,
1390,1600,-0.321880,-2.338535,0.999997,0.000200,-0.002527,0.005942,-0.000721,0.006003,-0.002588,-85.170277,0.006022,
1160,510,0.137667,-12.610603,0.999998,0.000187,-0.002111,0.005290,-0.000637,0.005344,-0.002166,-85.119200,0.005376,
1220,750,0.017045,-11.689598,0.999998,0.000145,-0.001513,0.002285,-0.000456,0.002339,-0.001567,-83.254543,0.002384,
1290,660,-0.104237,-11.895388,0.999998,0.000207,-0.002063,0.004278,0.001296,0.004532,-0.002317,78.883479,0.004533,
790,1580,1.255557,-3.119731,0.999997,0.000217,-0.003786,0.007598,0.000266,0.007605,-0.003792,88.662706,0.007605,
1400,1610,-0.341735,-2.298587,0.999997,0.000189,-0.002512,0.006010,-0.000662,0.006062,-0.002563,-85.582257,0.006086,
1760,770,-2.304817,-9.481085,0.999996,0.000262,-0.003952,0.007770,-0.000633,0.007804,-0.003986,-86.919272,0.007805,
1040,910,1.278549,-9.187858,0.999993,0.000325,-0.005036,0.010746,-0.001920,0.010977,-0.005266,-83.161515,0.010980,
1470,1600,-0.534135,-2.499176,0.999997,0.000218,-0.002957,0.006585,-0.000686,0.006635,-0.003006,-85.906965,0.006644,
1680,1910,-0.450479,-0.749779,0.999996,0.000220,-0.002100,0.006514,0.001313,0.006709,-0.002296,81.520345,0.006820,
1380,910,-1.100601,-9.801786,0.999992,0.000344,-0.002840,0.008137,0.004923,0.010022,-0.004725,69.053758,0.010027,
1880,1770,-1.575375,-2.202571,0.999998,0.000216,-0.003671,0.007277,-0.000012,0.007277,-0.003671,-89.934607,0.007277,
1140,510,0.181064,-12.577517,0.999998,0.000181,-0.002188,0.005412,-0.000712,0.005478,-0.002254,-84.696491,0.005507,
1330,1640,-0.177602,-2.026932,0.999998,0.000158,-0.002009,0.005513,-0.000443,0.005539,-0.002035,-86.644341,0.005604,
1650,840,-2.055082,-9.061932,0.999997,0.000214,-0.004244,0.008372,-0.000907,0.008437,-0.004309,-85.911106,0.008438,
1560,1610,-0.803343,-2.630860,0.999998,0.000194,-0.003290,0.007086,-0.000427,0.007104,-0.003308,-87.645781,0.007110,
1700,1890,-0.570496,-0.903680,0.999997,0.000200,-0.002222,0.006840,0.001361,0.007040,-0.002422,81.642317,0.007154,
940,1870,0.296071,-0.881571,0.999998,0.000149,-0.001435,0.005784,-0.000584,0.005831,-0.001482,-85.403714,0.006062,
1070,880,0.928473,-9.830224,0.999992,0.000343,-0.004809,0.008546,-0.003017,0.009196,-0.005459,-77.843350,0.009249,
1280,650,-0.083858,-11.964392,0.999997,0.000216,-0.001982,0.004242,0.001015,0.004404,-0.002143,80.967794,0.004404,
1310,1640,-0.138403,-2.005089,0.999998,0.000182,-0.001906,0.005437,-0.000313,0.005450,-0.001919,-87.563738,0.005529,
1620,1610,-1.007604,-2.767906,0.999997,0.000226,-0.003572,0.007402,-0.000304,0.007410,-0.003580,-88.416487,0.007412,
1630,840,-1.969185,-9.089876,0.999998,0.000160,-0.004375,0.008577,-0.000914,0.008641,-0.004439,-85.982935,0.008642,
870,1960,0.184243,-0.399979,0.999998,0.000183,-0.001016,0.005505,-0.001034,0.005665,-0.001176,-81.201333,0.005980,
820,1130,2.275551,-6.755695,0.999997,0.000213,-0.003527,0.008049,-0.000922,0.008122,-0.003600,-85.473290,0.008139,
1890,1850,-1.336398,-1.649858,0.999998,0.000191,-0.003640,0.007317,0.000253,0.007323,-0.003645,88.678507,0.007323,
1140,530,0.183574,-12.469975,0.999997,0.000214,-0.002208,0.005376,-0.000785,0.005456,-0.002289,-84.153589,0.005480,
580,1640,1.917966,-3.171632,0.999998,0.000205,-0.003738,0.007426,0.000079,0.007427,-0.003738,89.593910,0.007427,
1210,1640,0.038814,-1.976968,0.999998,0.000179,-0.001753,0.005272,0.000197,0.005278,-0.001759,88.391578,0.005375,
1670,800,-2.017642,-9.370900,0.999998,0.000192,-0.004305,0.008411,-0.000794,0.008460,-0.004355,-86.439053,0.008462,
870,1940,0.234135,-0.513425,0.999997,0.000197,-0.001252,0.005746,-0.001057,0.005902,-0.001408,-81.591994,0.006165,
1890,1840,-1.375772,-1.722991,0.999997,0.000224,-0.003645,0.007277,0.000244,0.007283,-0.003651,88.719879,0.007283,
1270,1960,-0.013706,-0.344168,0.999998,0.000178,-0.000347,0.004651,0.000064,0.004652,-0.000348,89.261394,0.005182,
990,1060,1.899285,-7.202101,0.999996,0.000222,-0.003486,0.011060,-0.000148,0.011061,-0.003488,-89.417039,0.011310,
1630,430,-1.016787,-12.441894,0.999998,0.000168,-0.003517,0.007402,0.000271,0.007408,-0.003524,88.579710,0.007411,
840,1630,0.984378,-2.625757,0.999998,0.000160,-0.003499,0.007365,0.000268,0.007372,-0.003505,88.587235,0.007375,
1630,190,-0.492129,-14.123531,0.999997,0.000204,-0.001819,0.006467,-0.000985,0.006582,-0.001935,-83.315264,0.006766,
