Image X[Pixel],Image Y[Pixel],Horizontal Displacement U[Pixel],Vertical Displacement V[Pixel],Correlation Coefficient: R,Sigma,Strain-global frame: Exx,Strain-global frame: Eyy,Strain-global frame: Exy,Maximum Principal Strain: EI,Minimum Principal Strain: EII,Shear Angle Gamma,Von Mises Equivalent Strain,
1210,580,0.026054,-8.201039,0.999998,0.000150,-0.001229,0.003122,-0.000237,0.003135,-0.001241,-86.886799,0.003158,
1000,660,0.446795,-7.470633,0.999997,0.000210,-0.002951,0.005136,-0.001050,0.005270,-0.003085,-82.718770,0.005295,
960,200,0.197426,-9.442944,0.999998,0.000183,-0.001096,0.003874,0.000306,0.003893,-0.001115,86.491513,0.004009,
980,1900,0.126760,-0.457786,0.999998,0.000177,-0.000720,0.003652,-0.000364,0.003682,-0.000750,-85.267207,0.003892,
910,1790,0.334507,-0.930867,0.999998,0.000174,-0.001363,0.004243,-0.000243,0.004254,-0.001374,-87.526251,0.004342,
1190,1430,0.048538,-2.024167,0.999998,0.000157,-0.001263,0.002930,0.000464,0.002981,-0.001313,83.763511,0.002988,
1040,1280,0.433780,-3.085458,0.999997,0.000211,-0.003654,0.005663,0.001484,0.005894,-0.003885,81.162610,0.005992,
1090,750,0.241101,-7.359894,0.999997,0.000212,-0.002827,0.004388,-0.001962,0.004887,-0.003326,-75.727662,0.004992,
620,880,1.923421,-5.705412,0.999998,0.000184,-0.002243,0.004625,0.000258,0.004634,-0.002253,87.848871,0.004635,
1030,370,0.246122,-8.816652,0.999998,0.000171,-0.001497,0.004084,-0.000202,0.004091,-0.001504,-87.927216,0.004139,
900,1080,1.418299,-4.747595,0.999998,0.000211,-0.002006,0.005692,-0.000493,0.005723,-0.002037,-86.352171,0.005802,
1240,1840,-0.005808,-0.617403,0.999998,0.000150,-0.000681,0.003369,-0.000014,0.003369,-0.000681,-89.801578,0.003563,
840,1800,0.432709,-0.951097,0.999998,0.000169,-0.001615,0.004499,-0.000381,0.004522,-0.001639,-86.443955,0.004579,
1510,30,-0.014474,-10.043795,0.999999,0.000000,-0.000128,0.003271,-0.000453,0.003330,-0.000187,-82.545038,0.003742,
1070,1200,0.521773,-3.375685,0.999996,0.000230,-0.003608,0.005675,0.001743,0.005991,-0.003924,79.709698,0.006086,
1620,1900,-0.250781,-0.510728,0.999998,0.000182,-0.000989,0.004145,0.000725,0.004246,-0.001089,82.116010,0.004410,
1360,1820,-0.096181,-0.708132,0.999998,0.000142,-0.000827,0.003555,0.000052,0.003556,-0.000827,89.316678,0.003721,
800,1400,1.055026,-3.012715,0.999998,0.000144,-0.002928,0.005445,-0.000009,0.005445,-0.002928,-89.939180,0.005450,
1540,1160,-1.180388,-4.244324,0.999998,0.000170,-0.003016,0.006288,0.000656,0.006334,-0.003062,85.984278,0.006335,
1040,1320,0.383551,-2.868262,0.999997,0.000207,-0.003273,0.005246,0.001531,0.005512,-0.003539,80.115100,0.005586,
940,1500,0.535874,-2.219645,0.999997,0.000193,-0.002562,0.004995,0.000573,0.005038,-0.002605,85.687597,0.005039,
1410,1590,-0.251723,-1.624388,0.999998,0.000175,-0.001682,0.004054,-0.000484,0.004095,-0.001723,-85.209580,0.004112,
1140,740,0.116857,-7.616092,0.999997,0.000209,-0.001903,0.003045,-0.001814,0.003639,-0.002497,-71.870223,0.003722,
720,580,1.162108,-7.344452,0.999998,0.000179,-0.002699,0.005194,-0.000043,0.005194,-0.002699,-89.687114,0.005196,
560,1210,2.002583,-4.280047,0.999998,0.000000,-0.002186,0.004529,-0.000057,0.004530,-0.002186,-89.509981,0.004531,
760,800,1.438136,-6.214539,0.999997,0.000201,-0.002766,0.005397,0.000532,0.005431,-0.002800,86.287225,0.005432,
980,1880,0.147789,-0.531707,0.999998,0.000159,-0.000850,0.003686,-0.000297,0.003705,-0.000869,-86.263816,0.003875,
620,860,1.893103,-5.798900,0.999998,0.000162,-0.002288,0.004728,0.000306,0.004742,-0.002301,87.505222,0.004742,
870,1370,0.890001,-3.060077,0.999998,0.000172,-0.003196,0.005683,0.000182,0.005687,-0.003200,88.825159,0.005701,
1190,1470,0.050486,-1.903393,0.999998,0.000174,-0.001298,0.003160,0.000327,0.003183,-0.001322,85.826584,0.003199,
1500,2020,-0.016109,-0.050014,0.999998,0.000000,-0.000176,0.003267,0.000400,0.003312,-0.000222,83.462176,0.003703,
760,790,1.419236,-6.269339,0.999998,0.000204,-0.002784,0.005454,0.000512,0.005486,-0.002816,86.454749,0.005487,
1460,340,-0.269456,-8.913387,0.999998,0.000160,-0.001366,0.004026,0.000063,0.004026,-0.001367,89.329035,0.004095,
650,1000,1.957204,-5.167002,0.999998,0.000170,-0.002160,0.004600,0.000142,0.004603,-0.002163,88.794175,0.004606,
1090,770,0.258360,-7.270071,0.999997,0.000209,-0.003001,0.004557,-0.002079,0.005091,-0.003535,-75.590582,0.005218,
1710,790,-1.438174,-6.262079,0.999997,0.000221,-0.002807,0.005423,-0.000492,0.005453,-0.002836,-86.590316,0.005454,
1310,1770,-0.066882,-0.866985,0.999999,0.000150,-0.000867,0.003525,0.000000,0.003525,-0.000867,89.996534,0.003674,
570,530,1.487380,-7.367323,0.999311,0.002958,-0.003770,0.005522,0.000228,0.005528,-0.003775,88.596863,0.005650,
1170,1950,0.014952,-0.260907,0.999998,0.000172,-0.000219,0.003148,-0.000098,0.003151,-0.000222,-88.327247,0.003517,
940,1430,0.595831,-2.579020,0.999997,0.000213,-0.002913,0.005247,0.000637,0.005296,-0.002962,85.564834,0.005309,
1410,1570,-0.255119,-1.708076,0.999997,0.000193,-0.001733,0.004111,-0.000526,0.004158,-0.001780,-84.893231,0.004173,
620,900,1.944711,-5.614364,0.999998,0.000172,-0.002190,0.004521,0.000228,0.004528,-0.002198,88.054037,0.004529,
990,1820,0.196636,-0.756294,0.999998,0.000169,-0.000977,0.003870,-0.000202,0.003878,-0.000985,-87.613679,0.004032,
790,260,0.530072,-9.059846,0.999997,0.000199,-0.002078,0.004720,0.000318,0.004735,-0.002092,87.330633,0.004746,
1030,350,0.234833,-8.897150,0.999998,0.000169,-0.001450,0.003968,-0.000184,0.003974,-0.001456,-88.058905,0.004021,
900,1060,1.442335,-4.859535,0.999997,0.000215,-0.001880,0.005602,-0.000322,0.005616,-0.001894,-87.541887,0.005714,
790,570,0.959642,-7.508300,0.999998,0.000160,-0.002712,0.005301,-0.000134,0.005303,-0.002714,-89.039968,0.005303,
1420,1950,-0.054951,-0.272652,0.999999,0.000180,-0.000420,0.003321,0.000268,0.003340,-0.000439,85.920421,0.003631,
620,840,1.862526,-5.894451,0.999998,0.000174,-0.002327,0.004720,0.000296,0.004732,-0.002340,87.603147,0.004732,
870,1330,0.954280,-3.291271,0.999998,0.000173,-0.003262,0.005877,0.000000,0.005877,-0.003262,-89.998697,0.005889,
820,40,0.039179,-10.007467,0.999999,0.000163,-0.000173,0.003498,0.000933,0.003721,-0.000396,76.532218,0.004087,
1740,470,-1.000224,-7.918493,0.999998,0.000173,-0.002533,0.005090,0.000100,0.005092,-0.002534,89.247361,0.005092,
1050,700,0.327176,-7.428357,0.999996,0.000231,-0.002867,0.004836,-0.001499,0.005117,-0.003149,-79.366655,0.005162,
790,600,1.001150,-7.350119,0.999997,0.000175,-0.002813,0.005337,-0.000093,0.005338,-0.002814,-89.345385,0.005341,
1460,320,-0.253359,-8.995364,0.999998,0.000163,-0.001303,0.004042,0.000002,0.004042,-0.001303,89.980278,0.004126,
1300,1330,-0.078256,-2.343699,0.999997,0.000207,-0.001542,0.002596,-0.001393,0.003021,-0.001968,-73.022227,0.003067,
1310,1750,-0.070570,-0.936561,0.999999,0.000126,-0.000960,0.003573,-0.000023,0.003573,-0.000960,-89.708944,0.003698,
760,770,1.379706,-6.380442,0.999997,0.000219,-0.002823,0.005478,0.000460,0.005503,-0.002848,86.840582,0.005504,
650,980,1.949923,-5.258234,0.999998,0.000196,-0.002162,0.004551,0.000093,0.004552,-0.002163,89.202495,0.004554,
1770,1940,-0.344638,-0.425074,0.999997,0.000180,-0.001721,0.004861,0.001234,0.005085,-0.001944,79.726213,0.005131,
980,1860,0.167542,-0.606916,0.999998,0.000169,-0.000925,0.003799,-0.000282,0.003816,-0.000942,-86.601101,0.003975,
1540,1140,-1.237775,-4.372162,0.999997,0.000198,-0.002759,0.006217,0.000708,0.006273,-0.002814,85.520793,0.006284,
900,1040,1.454134,-4.970063,0.999998,0.000198,-0.001816,0.005515,-0.000162,0.005519,-0.001820,-88.736833,0.005624,
1030,330,0.225114,-8.975536,0.999998,0.000159,-0.001389,0.003957,-0.000105,0.003959,-0.001392,-88.879243,0.004017,
1170,1930,0.022329,-0.325290,0.999998,0.000164,-0.000303,0.003201,-0.000091,0.003203,-0.000306,-88.520144,0.003536,
620,1410,1.529300,-3.223108,0.999997,0.000198,-0.002557,0.005061,-0.000093,0.005063,-0.002558,-89.297297,0.005063,
1410,1550,-0.261747,-1.787567,0.999998,0.000177,-0.001785,0.004121,-0.000559,0.004173,-0.001838,-84.637144,0.004183,
690,1500,1.205787,-2.652361,0.999997,0.000183,-0.002629,0.005168,0.000032,0.005168,-0.002629,89.766572,0.005168,
730,60,0.123558,-9.919398,0.999998,0.000192,-0.000621,0.004033,0.001362,0.004403,-0.000990,74.825700,0.004619,
1070,840,0.469019,-6.786645,0.999997,0.000220,-0.003672,0.005594,-0.001707,0.005898,-0.003977,-79.886758,0.006016,
810,40,0.042292,-10.006960,0.999998,0.000178,-0.000329,0.003526,0.000939,0.003742,-0.000545,77.008036,0.004043,
1140,1950,0.023373,-0.261937,0.999998,0.000143,-0.000314,0.003178,-0.000116,0.003181,-0.000318,-88.098880,0.003505,
790,550,0.932013,-7.612608,0.999998,0.000181,-0.002670,0.005252,-0.000164,0.005255,-0.002674,-88.817272,0.005255,
650,610,1.394660,-7.080997,0.999997,0.000196,-0.002604,0.005109,0.000061,0.005109,-0.002605,89.548478,0.005109,
1540,1120,-1.288768,-4.494245,0.999997,0.000213,-0.002521,0.006100,0.000704,0.006157,-0.002578,85.360854,0.006184,
1380,1140,-0.757832,-3.573877,0.999997,0.000222,-0.001832,0.005646,-0.003508,0.007034,-0.003220,-68.413482,0.007043,
1410,1750,-0.176886,-0.987604,0.999998,0.000169,-0.001287,0.003809,-0.000063,0.003810,-0.001288,-89.287327,0.003876,
1770,1920,-0.411225,-0.522298,0.999997,0.000206,-0.001872,0.004846,0.001053,0.005007,-0.002033,81.295495,0.005036,
1580,1560,-0.628701,-2.027411,0.999998,0.000197,-0.002472,0.004954,-0.000368,0.004972,-0.002490,-87.168582,0.004972,
1840,100,-0.414195,-9.647389,0.999997,0.000207,-0.002343,0.005251,-0.001008,0.005383,-0.002475,-82.564098,0.005389,
1500,780,-0.734499,-6.668882,0.999997,0.000215,-0.003781,0.006283,0.000459,0.006303,-0.003802,87.394288,0.006348,
1260,1400,-0.031363,-2.099374,0.999998,0.000150,-0.001165,0.002686,-0.000379,0.002723,-0.001202,-84.437482,0.002730,
980,890,0.982731,-5.990855,0.999998,0.000170,-0.003447,0.006841,0.000203,0.006845,-0.003451,88.868109,0.006845,
1630,460,-0.712781,-8.144983,0.999998,0.000198,-0.002400,0.004939,0.000197,0.004945,-0.002406,88.464023,0.004945,
1670,410,-0.747320,-8.331890,0.999998,0.000185,-0.002350,0.004982,0.000089,0.004983,-0.002351,89.301370,0.004985,
1720,470,-0.949114,-7.951340,0.999998,0.000151,-0.002522,0.005091,0.000146,0.005094,-0.002525,88.904498,0.005094,
1160,1570,0.090623,-1.585455,0.999998,0.000155,-0.001399,0.003592,0.000343,0.003615,-0.001422,86.086908,0.003642,
980,1840,0.188536,-0.682989,0.999998,0.000169,-0.001017,0.003834,-0.000252,0.003847,-0.001030,-87.029260,0.003983,
840,1290,1.130264,-3.574381,0.999997,0.000224,-0.003179,0.005822,-0.000297,0.005832,-0.003189,-88.114154,0.005841,
1310,1730,-0.076645,-1.009256,0.999998,0.000143,-0.001031,0.003591,-0.000028,0.003591,-0.001031,-89.656230,0.003698,
1790,1610,-1.090546,-2.115336,0.999998,0.000160,-0.002502,0.005064,-0.000099,0.005065,-0.002503,-89.251571,0.005065,
1170,1910,0.024543,-0.389719,0.999998,0.000155,-0.000376,0.003249,-0.000074,0.003250,-0.000378,-88.832790,0.003555,
1110,220,0.082967,-9.426037,0.999998,0.000155,-0.000762,0.003488,0.000062,0.003489,-0.000762,89.164620,0.003668,
790,580,0.972968,-7.454250,0.999998,0.000162,-0.002741,0.005280,-0.000120,0.005282,-0.002743,-89.143009,0.005283,
1370,420,-0.173803,-8.680308,0.999998,0.000180,-0.001381,0.003790,0.000303,0.003808,-0.001398,86.660004,0.003853,
760,1110,1.679486,-4.626087,0.999997,0.000210,-0.002241,0.005059,-0.000452,0.005087,-0.002269,-86.467389,0.005096,
1360,1800,-0.104150,-0.780942,0.999998,0.000149,-0.000885,0.003576,0.000020,0.003576,-0.000885,89.749117,0.003725,
790,400,0.742247,-8.377357,0.999998,0.000168,-0.002319,0.004974,-0.000067,0.004975,-0.002320,-89.473630,0.004979,
1630,170,-0.292235,-9.500472,0.999998,0.000183,-0.001114,0.004248,-0.000734,0.004347,-0.001213,-82.344812,0.004486,
1650,200,-0.373997,-9.359246,0.999997,0.000201,-0.001480,0.004501,-0.000611,0.004563,-0.001542,-84.229039,0.004642,
1460,300,-0.240106,-9.073991,0.999998,0.000168,-0.001222,0.003979,-0.000058,0.003980,-0.001223,-89.357795,0.004077,
900,1020,1.458822,-5.080690,0.999998,0.000196,-0.001822,0.005525,0.000092,0.005526,-0.001823,89.281716,0.005632,
1050,840,0.542997,-6.659399,0.999996,0.000224,-0.003816,0.006127,-0.001399,0.006320,-0.004009,-82.143608,0.006396,
1030,310,0.210742,-9.055681,0.999998,0.000166,-0.001309,0.003915,-0.000065,0.003916,-0.001310,-89.282637,0.003986,
740,1970,0.187525,-0.259964,0.999998,0.000152,-0.000753,0.004065,-0.001221,0.004357,-0.001044,-76.562223,0.004550,
1290,640,-0.071380,-7.988935,0.999998,0.000156,-0.001384,0.002970,0.000782,0.003106,-0.001521,80.121067,0.003106,
970,1820,0.219395,-0.766454,0.999998,0.000148,-0.001225,0.003954,-0.000197,0.003961,-0.001232,-87.822897,0.004055,
940,1480,0.552598,-2.323702,0.999997,0.000189,-0.002694,0.005046,0.000605,0.005093,-0.002741,85.556230,0.005098,
790,590,0.985376,-7.401161,0.999998,0.000157,-0.002776,0.005299,-0.000111,0.005301,-0.002778,-89.211324,0.005303,
1280,810,-0.086630,-7.630041,0.999997,0.000219,-0.001890,0.001517,0.001257,0.001931,-0.002303,71.787632,0.002473,
1540,1100,-1.336752,-4.617073,0.999997,0.000214,-0.002267,0.006014,0.000634,0.006063,-0.002315,85.645171,0.006119,
870,1350,0.919955,-3.174349,0.999998,0.000162,-0.003236,0.005769,0.000095,0.005770,-0.003237,89.398769,0.005784,
1140,720,0.117634,-7.676155,0.999998,0.000180,-0.001787,0.003098,-0.001645,0.003601,-0.002289,-73.018995,0.003645,
1120,1950,0.029910,-0.264396,0.999999,0.000149,-0.000339,0.003219,-0.000147,0.003225,-0.000345,-87.641393,0.003541,
1400,1610,-0.227336,-1.532853,0.999998,0.000160,-0.001666,0.004033,-0.000446,0.004068,-0.001701,-85.547860,0.004086,
730,1500,1.099597,-2.589971,0.999998,0.000184,-0.002660,0.005224,0.000079,0.005225,-0.002661,89.428364,0.005225,
1750,1190,-1.677138,-4.238889,0.999998,0.000190,-0.002453,0.005052,0.000536,0.005090,-0.002491,85.933047,0.005091,
790,530,0.907793,-7.719241,0.999998,0.000147,-0.002637,0.005162,-0.000182,0.005166,-0.002641,-88.661465,0.005167,
650,590,1.363413,-7.182442,0.999998,0.000192,-0.002568,0.005153,0.000027,0.005153,-0.002568,89.799014,0.005153,
1890,750,-1.824702,-6.261793,0.999997,0.000208,-0.002420,0.004928,-0.000110,0.004930,-0.002422,-89.141351,0.004930,
560,1200,2.019892,-4.325407,0.999998,0.000000,-0.002101,0.004481,-0.000043,0.004481,-0.002101,-89.628412,0.004484,
1840,80,-0.320045,-9.748191,0.999997,0.000197,-0.002263,0.005443,-0.001290,0.005653,-0.002474,-80.742424,0.005668,
1090,1760,0.133751,-0.932144,0.999999,0.000125,-0.000980,0.003686,0.000005,0.003686,-0.000980,89.934989,0.003819,
1580,1540,-0.647756,-2.127304,0.999998,0.000200,-0.002541,0.005003,-0.000371,0.005022,-0.002559,-87.193514,0.005022,
920,330,0.389924,-8.876135,0.999998,0.000165,-0.001609,0.004432,0.000039,0.004432,-0.001609,89.627521,0.004487,
1860,490,-1.332708,-7.623031,0.999997,0.000198,-0.002524,0.005068,0.000029,0.005068,-0.002524,89.782533,0.005068,
860,1210,1.242659,-4.021842,0.999997,0.000217,-0.003020,0.005913,-0.000624,0.005956,-0.003063,-86.022634,0.005957,
1880,1800,-0.987631,-1.320013,0.999998,0.000168,-0.002443,0.004895,0.000041,0.004895,-0.002444,89.679754,0.004895,
1350,550,-0.162541,-8.207185,0.999998,0.000148,-0.001657,0.003702,0.000716,0.003796,-0.001751,82.523763,0.003800,
980,1310,0.606103,-3.141783,0.999997,0.000235,-0.003604,0.005920,0.000803,0.005987,-0.003671,85.211464,0.006038,
920,1370,0.726656,-2.955315,0.999998,0.000225,-0.003293,0.005655,0.000454,0.005678,-0.003316,87.105449,0.005705,
1500,760,-0.694065,-6.795829,0.999997,0.000216,-0.003673,0.006136,0.000559,0.006168,-0.003705,86.746028,0.006209,
980,870,0.913529,-6.126661,0.999998,0.000183,-0.003651,0.006795,0.000064,0.006795,-0.003652,89.646622,0.006802,
1290,1260,-0.085535,-2.465199,0.999998,0.000185,-0.001732,0.001850,-0.001565,0.002437,-0.002319,-69.426805,0.002748,
980,1820,0.206857,-0.761212,0.999998,0.000158,-0.001101,0.003906,-0.000198,0.003914,-0.001108,-87.736251,0.004034,
1630,440,-0.690146,-8.243704,0.999998,0.000173,-0.002370,0.004950,0.000182,0.004954,-0.002375,88.573989,0.004956,
1720,1270,-1.455420,-3.799827,0.999998,0.000236,-0.002731,0.005358,0.000467,0.005385,-0.002757,86.707892,0.005385,
1540,2000,-0.043743,-0.116943,0.999998,0.000160,-0.000150,0.003324,0.000541,0.003407,-0.000232,81.348153,0.003807,
1680,550,-0.950906,-7.602758,0.999998,0.000189,-0.002660,0.005241,0.000142,0.005244,-0.002662,88.968650,0.005244,
1020,990,1.175787,-5.379436,0.999997,0.000219,-0.003177,0.008668,-0.000509,0.008690,-0.003199,-87.543369,0.008791,
1020,1630,0.289730,-1.500993,0.999998,0.000169,-0.001641,0.004178,0.000330,0.004197,-0.001660,86.768291,0.004227,
1670,390,-0.721704,-8.431649,0.999997,0.000199,-0.002329,0.004967,0.000079,0.004968,-0.002330,89.380299,0.004971,
1550,2020,-0.020847,-0.053367,0.999998,0.000000,-0.000005,0.003263,0.000581,0.003363,-0.000105,80.204751,0.003824,
760,1000,1.721092,-5.176913,0.999998,0.000178,-0.002114,0.004942,0.000173,0.004946,-0.002118,88.593108,0.004963,
750,130,0.306271,-9.626848,0.999998,0.000163,-0.001066,0.004461,0.001158,0.004694,-0.001299,78.631109,0.004847,
1310,1710,-0.080824,-1.082608,0.999999,0.000143,-0.001076,0.003592,-0.000071,0.003593,-0.001078,-89.132968,0.003687,
710,200,0.558883,-9.259417,0.999997,0.000190,-0.002240,0.004976,0.000546,0.005017,-0.002281,85.699203,0.005024,
1810,1040,-1.957067,-4.982386,0.999998,0.000150,-0.002150,0.004618,0.000111,0.004620,-0.002152,89.061572,0.004624,
1090,220,0.098419,-9.420972,0.999998,0.000172,-0.000709,0.003512,0.000122,0.003516,-0.000713,88.345924,0.003717,
1260,1380,-0.031177,-2.149981,0.999998,0.000138,-0.001146,0.002494,-0.000477,0.002555,-0.001208,-82.663719,0.002557,
1790,1590,-1.118438,-2.215881,0.999998,0.000157,-0.002529,0.005090,-0.000080,0.005091,-0.002530,-89.396075,0.005091,
1370,740,-0.226644,-7.416137,0.999997,0.000218,-0.002689,0.004251,0.001936,0.004754,-0.003193,75.422770,0.004847,
1460,280,-0.222008,-9.154174,0.999998,0.000157,-0.001142,0.003960,-0.000118,0.003962,-0.001145,-88.680039,0.004078,
1210,160,0.011780,-9.644121,0.999998,0.000165,-0.000485,0.003253,0.000020,0.003253,-0.000485,89.693950,0.003510,
1170,1890,0.029147,-0.453947,0.999998,0.000144,-0.000449,0.003288,-0.000064,0.003289,-0.000450,-89.026164,0.003567,
1360,1780,-0.109745,-0.851443,0.999998,0.000154,-0.000924,0.003634,0.000024,0.003634,-0.000924,89.703200,0.003777,
1820,770,-1.689533,-6.257688,0.999998,0.000194,-0.002494,0.004958,-0.000309,0.004971,-0.002507,-87.630276,0.004971,
1630,360,-0.591681,-8.634335,0.999997,0.000190,-0.002054,0.004768,-0.000038,0.004768,-0.002054,-89.684631,0.004784,
1290,520,-0.074148,-8.381412,0.999998,0.000163,-0.001359,0.003453,0.000308,0.003472,-0.001379,86.347615,0.003497,
660,1260,1.690275,-3.929819,0.999998,0.000181,-0.002507,0.005019,-0.000418,0.005042,-0.002530,-86.828103,0.005042,
1710,990,-1.730124,-5.226260,0.999998,0.000189,-0.002108,0.004943,-0.000174,0.004947,-0.002112,-88.589891,0.004965,
790,380,0.715166,-8.476268,0.999997,0.000187,-0.002282,0.004910,-0.000056,0.004910,-0.002282,-89.556641,0.004915,
1050,820,0.486621,-6.781843,0.999996,0.000239,-0.003872,0.006007,-0.001486,0.006226,-0.004091,-81.628378,0.006328,
900,1000,1.446415,-5.192570,0.999998,0.000203,-0.001897,0.005597,0.000288,0.005608,-0.001908,87.802923,0.005703,
1030,290,0.200390,-9.131767,0.999998,0.000157,-0.001240,0.003885,-0.000002,0.003885,-0.001240,-89.978234,0.003969,
700,250,0.699090,-8.995559,0.999998,0.000178,-0.002329,0.005015,0.000269,0.005024,-0.002339,87.904019,0.005028,
1650,1650,-0.694792,-1.693939,0.999997,0.000196,-0.002323,0.004929,-0.000108,0.004930,-0.002324,-89.148628,0.004933,
1850,1740,-1.034524,-1.559625,0.999999,0.000162,-0.002438,0.005031,-0.000027,0.005031,-0.002438,-89.792427,0.005032,
1230,410,0.002654,-8.783716,0.999998,0.000166,-0.001184,0.003545,-0.000016,0.003545,-0.001184,-89.805656,0.003609,
880,1610,0.585201,-1.787503,0.999997,0.000240,-0.002231,0.004788,0.000263,0.004797,-0.002241,87.860523,0.004801,
1020,1950,0.063344,-0.275872,0.999998,0.000166,-0.000371,0.003391,-0.000338,0.003421,-0.000401,-84.905569,0.003741,
1540,1300,-0.830197,-3.362909,0.999997,0.000175,-0.003567,0.006122,-0.000194,0.006125,-0.003571,-88.852972,0.006154,
560,1300,1.871099,-3.864743,0.999967,0.000000,-0.002768,0.004484,0.000212,0.004490,-0.002774,88.326826,0.004531,
1340,350,-0.116264,-8.963561,0.999998,0.000158,-0.001188,0.003667,0.000182,0.003674,-0.001195,87.860706,0.003748,
700,1660,0.950527,-1.816746,0.999998,0.000171,-0.002450,0.005071,0.000085,0.005072,-0.002451,89.354241,0.005073,
730,1410,1.238038,-3.064676,0.999998,0.000172,-0.002737,0.005292,-0.000102,0.005293,-0.002738,-89.268965,0.005294,
1070,1730,0.166701,-1.052125,0.999998,0.000156,-0.001152,0.003794,0.000062,0.003794,-0.001153,89.281942,0.003891,
1120,1680,0.128466,-1.213859,0.999998,0.000158,-0.001254,0.003755,0.000195,0.003762,-0.001261,87.778938,0.003830,
1500,740,-0.659785,-6.917117,0.999997,0.000206,-0.003571,0.005924,0.000641,0.005967,-0.003614,86.156567,0.006011,
1420,1350,-0.351217,-2.700465,0.999997,0.000205,-0.002988,0.004959,-0.001465,0.005220,-0.003250,-79.879378,0.005272,
960,290,0.288583,-9.082039,0.999998,0.000170,-0.001542,0.004134,0.000052,0.004134,-0.001542,89.472744,0.004179,
1840,60,-0.225763,-9.865216,0.999997,0.000208,-0.002153,0.005134,-0.001405,0.005396,-0.002415,-79.456436,0.005406,
1840,490,-1.282134,-7.654799,0.999997,0.000225,-0.002535,0.005083,0.000048,0.005084,-0.002536,89.639776,0.005084,
650,570,1.331278,-7.288364,0.999998,0.000186,-0.002551,0.005134,-0.000011,0.005134,-0.002551,-89.917552,0.005134,
940,1460,0.570898,-2.424060,0.999997,0.000206,-0.002790,0.005111,0.000637,0.005162,-0.002841,85.419750,0.005171,
1350,530,-0.161215,-8.283500,0.999998,0.000161,-0.001593,0.003812,0.000632,0.003884,-0.001666,83.416801,0.003898,
1660,550,-0.897903,-7.635801,0.999998,0.000177,-0.002678,0.005246,0.000195,0.005250,-0.002683,88.590311,0.005251,
1610,620,-0.847436,-7.350030,0.999998,0.000192,-0.002948,0.005413,0.000243,0.005420,-0.002955,88.335420,0.005427,
1520,2010,-0.029761,-0.084189,0.999999,0.000162,-0.000179,0.003268,0.000466,0.003330,-0.000241,82.430038,0.003714,
1570,1100,-1.401617,-4.636445,0.999996,0.000224,-0.002197,0.005714,0.000620,0.005762,-0.002245,85.546444,0.005809,
1720,1250,-1.493577,-3.905668,0.999998,0.000194,-0.002687,0.005305,0.000524,0.005339,-0.002721,86.267792,0.005339,
1580,1520,-0.667777,-2.227159,0.999998,0.000197,-0.002597,0.005079,-0.000398,0.005100,-0.002618,-87.040542,0.005100,
830,950,1.529988,-5.446383,0.999997,0.000225,-0.002215,0.005332,0.000524,0.005368,-0.002251,86.048137,0.005391,
960,890,1.050077,-5.936795,0.999998,0.000164,-0.003293,0.006676,0.000424,0.006694,-0.003311,87.568760,0.006694,
1670,590,-0.977498,-7.408634,0.999998,0.000166,-0.002762,0.005309,0.000102,0.005310,-0.002763,89.275593,0.005312,
1310,1910,-0.030582,-0.390614,0.999998,0.000136,-0.000368,0.003255,0.000089,0.003257,-0.000370,88.585804,0.003566,
1730,1080,-1.767438,-4.782807,0.999998,0.000166,-0.002164,0.004909,0.000224,0.004916,-0.002171,88.186878,0.004927,
1080,1190,0.522455,-3.358788,0.999994,0.000283,-0.003238,0.005249,0.002088,0.005734,-0.003724,76.902923,0.005819,
1890,740,-1.807152,-6.310990,0.999997,0.000217,-0.002432,0.004931,-0.000108,0.004932,-0.002434,-89.163659,0.004932,
1660,1230,-1.367421,-3.963140,0.999998,0.000190,-0.002824,0.005566,0.000598,0.005609,-0.002866,85.942226,0.005609,
1270,220,-0.026987,-9.443575,0.999998,0.000169,-0.000626,0.003396,-0.000001,0.003396,-0.000626,-89.984525,0.003615,
1750,1390,-1.318066,-3.193074,0.999997,0.000203,-0.002781,0.005269,0.000186,0.005273,-0.002785,88.678395,0.005276,
1490,880,-0.971889,-6.037975,0.999998,0.000155,-0.003500,0.006750,-0.000231,0.006755,-0.003505,-88.710253,0.006757,
1260,1360,-0.027679,-2.197165,0.999998,0.000148,-0.001086,0.002301,-0.000562,0.002392,-0.001177,-80.822404,0.002392,
980,1800,0.225929,-0.839710,0.999998,0.000163,-0.001193,0.003957,-0.000163,0.003962,-0.001198,-88.189078,0.004064,
690,200,0.604964,-9.231260,0.999997,0.000184,-0.002236,0.005053,0.000595,0.005101,-0.002284,85.362311,0.005110,
1350,740,-0.177097,-7.503701,0.999997,0.000261,-0.002421,0.003763,0.001950,0.004326,-0.002984,73.881531,0.004429,
1070,1760,0.153042,-0.940083,0.999998,0.000150,-0.001074,0.003757,0.000005,0.003757,-0.001074,89.938639,0.003871,
660,1300,1.621306,-3.727418,0.999998,0.000184,-0.002538,0.005022,-0.000326,0.005036,-0.002552,-87.531867,0.005037,
1460,480,-0.349241,-8.316867,0.999997,0.000178,-0.002024,0.004387,0.000552,0.004434,-0.002071,85.118051,0.004437,
1570,1740,-0.418898,-1.163808,0.999998,0.000168,-0.001804,0.004515,0.000048,0.004516,-0.001804,89.561198,0.004546,
680,270,0.787002,-8.863301,0.999998,0.000164,-0.002383,0.005043,0.000220,0.005050,-0.002390,88.308439,0.005052,
1360,1980,-0.022228,-0.170742,0.999998,0.000149,-0.000183,0.003133,0.000186,0.003144,-0.000194,86.795464,0.003524,
1170,1870,0.031948,-0.521017,0.999998,0.000160,-0.000494,0.003342,-0.000062,0.003343,-0.000495,-89.068788,0.003608,
1040,810,0.501852,-6.789789,0.999996,0.000236,-0.003896,0.006015,-0.001347,0.006195,-0.004076,-82.394544,0.006297,
1030,270,0.183338,-9.211781,0.999998,0.000142,-0.001154,0.003784,0.000041,0.003785,-0.001155,89.528745,0.003879,
900,980,1.425539,-5.305200,0.999997,0.000225,-0.001993,0.005655,0.000489,0.005686,-0.002025,86.355057,0.005764,
730,540,1.078084,-7.568337,0.999998,0.000163,-0.002647,0.005203,-0.000093,0.005204,-0.002648,-89.323054,0.005204,
870,160,0.233212,-9.559022,0.999998,0.000206,-0.001155,0.004075,0.000608,0.004145,-0.001225,83.452040,0.004259,
1290,500,-0.073240,-8.450061,0.999998,0.000145,-0.001331,0.003498,0.000254,0.003512,-0.001344,87.002710,0.003544,
1650,1670,-0.670065,-1.594900,0.999997,0.000203,-0.002298,0.004915,-0.000082,0.004916,-0.002299,-89.352442,0.004920,
1290,1240,-0.115272,-2.500327,0.999998,0.000185,-0.002000,0.001759,-0.001446,0.002251,-0.002492,-71.211642,0.002749,
1620,1690,-0.580092,-1.457239,0.999998,0.000227,-0.002032,0.004726,0.000011,0.004726,-0.002032,89.908800,0.004741,
1700,160,-0.366996,-9.499616,0.999997,0.000205,-0.001424,0.004590,-0.000933,0.004731,-0.001566,-81.384150,0.004821,
1420,1490,-0.297761,-2.060890,0.999997,0.000197,-0.002170,0.004296,-0.000886,0.004415,-0.002289,-82.333655,0.004416,
1000,1950,0.070527,-0.278303,0.999999,0.000137,-0.000341,0.003416,-0.000396,0.003458,-0.000382,-84.048622,0.003791,
1060,1190,0.598239,-3.505188,0.999996,0.000230,-0.003613,0.006140,0.001606,0.006398,-0.003871,80.886408,0.006445,
1120,1660,0.132998,-1.285868,0.999998,0.000169,-0.001299,0.003690,0.000236,0.003701,-0.001310,87.295676,0.003754,
1830,1740,-0.985370,-1.523204,0.999998,0.000159,-0.002420,0.005066,0.000008,0.005066,-0.002420,89.937137,0.005067,
1070,1710,0.177218,-1.128868,0.999999,0.000139,-0.001239,0.003823,0.000111,0.003826,-0.001241,88.747378,0.003904,
1230,390,0.001256,-8.856851,0.999998,0.000155,-0.001136,0.003557,-0.000004,0.003557,-0.001136,-89.947961,0.003633,
650,550,1.301147,-7.390170,0.999997,0.000192,-0.002570,0.005110,-0.000038,0.005110,-0.002570,-89.718610,0.005110,
1790,1790,-0.794822,-1.203263,0.999998,0.000198,-0.002350,0.005050,0.000281,0.005061,-0.002360,87.827036,0.005065,
730,1390,1.271325,-3.170613,0.999998,0.000180,-0.002783,0.005318,-0.000168,0.005321,-0.002786,-88.815798,0.005323,
1530,490,-0.505212,-8.158726,0.999997,0.000182,-0.002336,0.004723,0.000454,0.004752,-0.002365,86.337235,0.004752,
700,1700,0.890523,-1.614938,0.999998,0.000180,-0.002420,0.005023,0.000001,0.005023,-0.002420,89.990972,0.005024,
1500,720,-0.628048,-7.034535,0.999997,0.000222,-0.003442,0.005783,0.000731,0.005840,-0.003499,85.494425,0.005879,
1420,1330,-0.364666,-2.800993,0.999998,0.000165,-0.003183,0.005131,-0.001524,0.005402,-0.003453,-79.934170,0.005471,
1860,1780,-0.981113,-1.379740,0.999998,0.000193,-0.002425,0.004954,0.000029,0.004954,-0.002425,89.773126,0.004955,
1610,600,-0.820162,-7.457376,0.999997,0.000203,-0.002880,0.005343,0.000277,0.005352,-0.002889,88.069827,0.005358,
1120,350,0.119876,-8.961894,0.999998,0.000152,-0.001202,0.003664,-0.000179,0.003670,-0.001208,-87.898232,0.003741,
1700,490,-0.924679,-7.880895,0.999999,0.000122,-0.002551,0.005109,0.000139,0.005111,-0.002553,88.961770,0.005111,
1610,360,-0.552997,-8.659096,0.999998,0.000164,-0.001985,0.004693,-0.000011,0.004693,-0.001985,-89.903266,0.004711,
820,1150,1.481154,-4.394507,0.999997,0.000198,-0.002475,0.005471,-0.000668,0.005527,-0.002530,-85.224243,0.005533,
1350,510,-0.159687,-8.359028,0.999998,0.000144,-0.001538,0.003750,0.000538,0.003804,-0.001593,84.251153,0.003820,
1770,240,-0.694031,-9.034051,0.999998,0.000172,-0.002342,0.004998,-0.000337,0.005013,-0.002358,-87.377499,0.005016,
1510,2010,-0.027355,-0.082949,0.999999,0.000193,-0.000205,0.003284,0.000435,0.003337,-0.000258,83.000049,0.003713,
1890,830,-1.953249,-5.886593,0.999998,0.000144,-0.002228,0.004621,-0.000122,0.004623,-0.002230,-88.979274,0.004624,
980,590,0.457749,-7.769435,0.999997,0.000238,-0.002588,0.004859,-0.000789,0.004942,-0.002670,-84.021383,0.004947,
1360,1470,-0.184224,-2.022932,0.999998,0.000174,-0.001812,0.003825,-0.000920,0.003971,-0.001958,-80.961914,0.003972,
1660,1210,-1.408074,-4.073378,0.999998,0.000202,-0.002768,0.005549,0.000632,0.005597,-0.002815,85.676718,0.005597,
1840,260,-0.903223,-8.815130,0.999998,0.000180,-0.002431,0.005038,-0.000093,0.005039,-0.002432,-89.286375,0.005040,
1760,670,-1.354891,-6.846698,0.999997,0.000186,-0.002689,0.005238,-0.000183,0.005242,-0.002694,-88.676453,0.005243,
1150,1420,0.103190,-2.111771,0.999998,0.000173,-0.001496,0.003229,0.000872,0.003385,-0.001652,79.874855,0.003385,
1580,1500,-0.686052,-2.330325,0.999997,0.000208,-0.002689,0.005126,-0.000409,0.005147,-0.002710,-87.015362,0.005149,
1610,1250,-1.173306,-3.793198,0.999998,0.000191,-0.003168,0.005929,0.000464,0.005952,-0.003192,87.089969,0.005957,
1860,1760,-1.021310,-1.477818,0.999998,0.000199,-0.002432,0.004971,-0.000009,0.004971,-0.002432,-89.927069,0.004972,
1250,220,-0.013812,-9.444188,0.999998,0.000205,-0.000700,0.003392,0.000031,0.003392,-0.000700,89.572150,0.003582,
1710,1080,-1.725381,-4.781196,0.999997,0.000195,-0.002183,0.004979,0.000260,0.004989,-0.002192,87.925296,0.005001,
610,210,0.814509,-9.042159,0.999998,0.000192,-0.002441,0.005039,0.000174,0.005043,-0.002446,88.665945,0.005044,
1290,1760,-0.054046,-0.901271,0.999999,0.000129,-0.000846,0.003521,0.000006,0.003521,-0.000846,89.919012,0.003676,
1050,500,0.265373,-8.306843,0.999998,0.000182,-0.001818,0.004158,-0.000560,0.004210,-0.001870,-84.691696,0.004219,
830,990,1.574640,-5.235533,0.999998,0.000192,-0.002015,0.005182,0.000280,0.005193,-0.002026,87.778902,0.005235,
830,1140,1.474604,-4.443767,0.999997,0.000224,-0.002413,0.005512,-0.000672,0.005568,-0.002469,-85.190070,0.005580,
1470,900,-0.973194,-5.965243,0.999997,0.000200,-0.003448,0.007007,-0.000079,0.007008,-0.003449,-89.569698,0.007008,
1480,1960,-0.066871,-0.245222,0.999998,0.000178,-0.000398,0.003400,0.000403,0.003442,-0.000441,84.013070,0.003746,
1610,1290,-1.087607,-3.557008,0.999997,0.000202,-0.003238,0.005883,0.000260,0.005891,-0.003245,88.367157,0.005901,
1260,1560,-0.035970,-1.599837,0.999998,0.000156,-0.001225,0.003455,-0.000180,0.003462,-0.001232,-87.800182,0.003510,
980,1780,0.245123,-0.918838,0.999998,0.000172,-0.001286,0.004009,-0.000107,0.004011,-0.001288,-88.840957,0.004096,
900,960,1.394618,-5.417443,0.999996,0.000215,-0.002167,0.005727,0.000590,0.005771,-0.002211,85.748738,0.005823,
1030,250,0.171242,-9.283260,0.999998,0.000157,-0.001059,0.003758,0.000095,0.003759,-0.001061,88.871543,0.003876,
1350,570,-0.164244,-8.134960,0.999998,0.000169,-0.001712,0.003707,0.000817,0.003827,-0.001832,81.612995,0.003829,
750,150,0.357979,-9.541550,0.999998,0.000168,-0.001252,0.004607,0.001029,0.004783,-0.001427,80.325390,0.004911,
980,1950,0.076791,-0.280501,0.999998,0.000159,-0.000434,0.003463,-0.000423,0.003509,-0.000479,-83.879884,0.003805,
1370,1380,-0.208479,-2.394932,0.999998,0.000185,-0.002270,0.003978,-0.001469,0.004307,-0.002598,-77.407445,0.004337,
1170,1850,0.039113,-0.587716,0.999998,0.000184,-0.000545,0.003386,-0.000072,0.003387,-0.000546,-88.951534,0.003637,
1270,500,-0.047502,-8.457413,0.999998,0.000152,-0.001258,0.003446,0.000161,0.003451,-0.001264,88.038084,0.003492,
730,1370,1.307138,-3.277749,0.999997,0.000197,-0.002817,0.005315,-0.000218,0.005321,-0.002823,-88.462954,0.005324,
1780,1470,-1.269613,-2.820282,0.999998,0.000177,-0.002640,0.005175,0.000015,0.005175,-0.002640,89.891263,0.005175,
1240,1860,-0.005662,-0.549900,0.999998,0.000181,-0.000623,0.003332,-0.000013,0.003333,-0.000623,-89.812619,0.003544,
1120,1640,0.136604,-1.360854,0.999998,0.000177,-0.001328,0.003738,0.000284,0.003754,-0.001344,86.797858,0.003804,
850,100,0.144265,-9.791617,0.999999,0.000150,-0.000614,0.003794,0.000778,0.003927,-0.000747,80.283448,0.004171,
1570,850,-1.152178,-6.069605,0.999998,0.000166,-0.003163,0.006141,-0.000586,0.006178,-0.003200,-86.410864,0.006179,
820,280,0.502509,-8.999591,0.999998,0.000198,-0.001798,0.004651,0.000294,0.004664,-0.001811,87.397399,0.004703,
1630,200,-0.347520,-9.369993,0.999998,0.000186,-0.001311,0.004415,-0.000616,0.004480,-0.001376,-83.930469,0.004590,
1070,1690,0.184406,-1.204929,0.999998,0.000161,-0.001342,0.003884,0.000170,0.003889,-0.001347,88.135165,0.003950,
1820,1320,-1.628032,-3.650033,0.999997,0.000184,-0.002518,0.005010,0.000282,0.005021,-0.002528,87.856882,0.005021,
800,1150,1.528750,-4.403613,0.999997,0.000220,-0.002483,0.005381,-0.000648,0.005434,-0.002536,-85.319516,0.005438,
650,530,1.273278,-7.492930,0.999997,0.000203,-0.002595,0.005173,-0.000056,0.005173,-0.002595,-89.586526,0.005173,
1500,700,-0.603748,-7.149250,0.999998,0.000209,-0.003319,0.005686,0.000773,0.005752,-0.003385,85.130104,0.005782,
1650,1690,-0.641869,-1.495161,0.999997,0.000191,-0.002243,0.004861,-0.000016,0.004861,-0.002243,-89.869180,0.004866,
800,810,1.344240,-6.197869,0.999998,0.000177,-0.002884,0.005605,0.000543,0.005640,-0.002919,86.358419,0.005641,
1700,470,-0.898498,-7.983363,0.999998,0.000148,-0.002508,0.005084,0.000135,0.005087,-0.002511,88.984289,0.005087,
1500,2010,-0.025216,-0.081772,0.999998,0.000179,-0.000214,0.003283,0.000425,0.003334,-0.000265,83.171173,0.003706,
1040,1190,0.667778,-3.642323,0.999996,0.000235,-0.003640,0.006694,0.001231,0.006838,-0.003784,83.301028,0.006851,
1450,1440,-0.386168,-2.355110,0.999997,0.000197,-0.002601,0.004757,-0.001015,0.004894,-0.002739,-82.290597,0.004906,
1760,650,-1.320628,-6.950747,0.999998,0.000169,-0.002686,0.005233,-0.000149,0.005236,-0.002689,-88.924484,0.005236,
1580,1700,-0.485295,-1.358057,0.999997,0.000198,-0.002088,0.004579,-0.000075,0.004580,-0.002088,-89.351923,0.004586,
1220,30,0.003468,-10.047723,0.999999,0.000000,-0.000072,0.003008,-0.000035,0.003008,-0.000072,-89.344272,0.003433,
1050,480,0.260081,-8.389327,0.999997,0.000220,-0.001738,0.004117,-0.000521,0.004163,-0.001784,-84.952415,0.004177,
1280,820,-0.102928,-7.619096,0.999997,0.000194,-0.002063,0.001498,0.001052,0.001786,-0.002351,74.707328,0.002454,
1640,1230,-1.309092,-3.944134,0.999997,0.000201,-0.002949,0.005695,0.000598,0.005736,-0.002990,86.063703,0.005738,
1020,350,0.250206,-8.887664,0.999998,0.000167,-0.001430,0.003987,-0.000165,0.003992,-0.001435,-88.262255,0.004044,
1470,880,-0.900405,-6.102886,0.999997,0.000206,-0.003660,0.006942,0.000075,0.006943,-0.003660,89.593132,0.006946,
1240,1880,-0.005652,-0.484276,0.999998,0.000153,-0.000563,0.003270,-0.000014,0.003270,-0.000563,-89.790849,0.003497,
1170,220,0.040558,-9.440608,0.999998,0.000160,-0.000632,0.003392,0.000028,0.003392,-0.000632,89.606508,0.003608,
810,1140,1.522018,-4.454777,0.999997,0.000230,-0.002401,0.005418,-0.000646,0.005471,-0.002454,-85.310653,0.005481,
1890,1020,-2.125637,-5.071928,0.999999,0.000128,-0.002031,0.004191,-0.000065,0.004191,-0.002032,-89.401151,0.004192,
1440,1560,-0.315479,-1.793366,0.999997,0.000188,-0.002018,0.004309,-0.000616,0.004369,-0.002078,-84.487325,0.004370,
640,550,1.326615,-7.374452,0.999997,0.000198,-0.002557,0.005101,-0.000045,0.005101,-0.002557,-89.665716,0.005101,
1480,1980,-0.048632,-0.179985,0.999999,0.000156,-0.000276,0.003328,0.000423,0.003377,-0.000325,83.396412,0.003726,
1710,1680,-0.793296,-1.632685,0.999998,0.000163,-0.002342,0.004965,0.000005,0.004965,-0.002342,89.963563,0.004968,
1710,280,-0.641344,-8.919730,0.999998,0.000165,-0.002055,0.004902,-0.000313,0.004916,-0.002069,-87.429334,0.004936,
1300,300,-0.061830,-9.160069,0.999999,0.000142,-0.000886,0.003541,-0.000019,0.003541,-0.000886,-89.758480,0.003685,
860,680,0.912269,-7.029807,0.999999,0.000140,-0.003147,0.005634,-0.000140,0.005636,-0.003150,-89.089027,0.005649,
1030,230,0.153924,-9.362590,0.999998,0.000171,-0.000974,0.003773,0.000121,0.003776,-0.000977,88.543824,0.003920,
900,940,1.355279,-5.535003,0.999997,0.000207,-0.002324,0.005853,0.000704,0.005913,-0.002384,85.114138,0.005950,
960,590,0.510640,-7.726877,0.999997,0.000214,-0.002708,0.004994,-0.000716,0.005060,-0.002773,-84.735525,0.005068,
1400,420,-0.220131,-8.650235,0.999998,0.000180,-0.001570,0.003974,0.000384,0.004001,-0.001596,86.052563,0.004028,
1780,1450,-1.299843,-2.923171,0.999997,0.000221,-0.002658,0.005165,0.000047,0.005165,-0.002658,89.656895,0.005166,
1600,1690,-0.538876,-1.431184,0.999997,0.000197,-0.002077,0.004663,-0.000064,0.004663,-0.002078,-89.455896,0.004673,
890,100,0.114963,-9.800721,0.999998,0.000178,-0.000651,0.003634,0.000654,0.003732,-0.000749,81.517272,0.003949,
730,1350,1.342760,-3.384435,0.999997,0.000208,-0.002821,0.005328,-0.000268,0.005337,-0.002830,-88.115678,0.005340,
610,190,0.762355,-9.141041,0.999997,0.000188,-0.002436,0.005056,0.000274,0.005066,-0.002446,87.910406,0.005067,
960,1950,0.088261,-0.284120,0.999998,0.000151,-0.000554,0.003506,-0.000460,0.003558,-0.000606,-83.610270,0.003807,
980,1760,0.261092,-0.999633,0.999998,0.000161,-0.001375,0.004048,-0.000061,0.004049,-0.001376,-89.355818,0.004118,
1290,580,-0.074023,-8.178836,0.999998,0.000167,-0.001409,0.003272,0.000519,0.003329,-0.001466,83.745831,0.003337,
820,260,0.471389,-9.091163,0.999997,0.000207,-0.001699,0.004588,0.000365,0.004609,-0.001720,86.691762,0.004659,
1780,920,-1.825393,-5.551175,0.999998,0.000151,-0.002261,0.004804,-0.000343,0.004821,-0.002278,-87.225743,0.004823,
1570,890,-1.254126,-5.827306,0.999998,0.000178,-0.002843,0.006026,-0.000713,0.006083,-0.002900,-85.435003,0.006085,
580,760,1.825564,-6.225781,0.999997,0.000182,-0.002612,0.004875,0.000011,0.004875,-0.002612,89.914890,0.004879,
1170,1830,0.041323,-0.657385,0.999998,0.000150,-0.000610,0.003402,-0.000053,0.003403,-0.000611,-89.239138,0.003628,
1630,180,-0.310605,-9.458460,0.999997,0.000210,-0.001180,0.004273,-0.000689,0.004359,-0.001266,-82.914034,0.004485,
1070,1670,0.193532,-1.282559,0.999998,0.000166,-0.001444,0.003884,0.000254,0.003896,-0.001456,87.273789,0.003937,
1500,900,-1.074306,-5.875740,0.999997,0.000204,-0.003195,0.006678,-0.000481,0.006702,-0.003218,-87.219052,0.006703,
1500,2000,-0.034375,-0.114553,0.999999,0.000151,-0.000270,0.003303,0.000447,0.003358,-0.000325,82.981426,0.003704,
1750,360,-0.867055,-8.462030,0.999997,0.000203,-0.002439,0.005072,0.000023,0.005072,-0.002439,89.821114,0.005073,
1780,430,-1.043724,-8.058016,0.999998,0.000156,-0.002486,0.005060,0.000080,0.005060,-0.002487,89.391907,0.005061,
1600,1290,-1.055154,-3.540639,0.999997,0.000188,-0.003280,0.005934,0.000211,0.005939,-0.003285,88.688243,0.005950,
600,530,1.399070,-7.414873,0.999997,0.000201,-0.002504,0.005131,-0.000007,0.005131,-0.002504,-89.944117,0.005132,
1420,1470,-0.303830,-2.147317,0.999998,0.000177,-0.002231,0.004347,-0.000937,0.004478,-0.002362,-82.050670,0.004480,
1280,800,-0.070864,-7.646166,0.999997,0.000193,-0.001721,0.001602,0.001331,0.002069,-0.002189,70.649314,0.002461,
1150,220,0.053945,-9.437579,0.999999,0.000138,-0.000684,0.003424,0.000056,0.003424,-0.000684,89.221430,0.003624,
840,1110,1.501528,-4.605035,0.999997,0.000198,-0.002228,0.005385,-0.000546,0.005424,-0.002267,-85.915975,0.005448,
570,1990,0.361236,-0.335022,0.999883,0.001260,-0.001328,0.006194,-0.002497,0.006947,-0.002081,-73.209413,0.007131,
940,1440,0.586037,-2.526747,0.999997,0.000214,-0.002864,0.005198,0.000632,0.005248,-0.002913,85.545890,0.005258,
1610,1270,-1.130232,-3.674824,0.999997,0.000220,-0.003220,0.005928,0.000360,0.005942,-0.003234,87.750012,0.005950,
1820,1340,-1.590647,-3.545876,0.999997,0.000200,-0.002529,0.005078,0.000220,0.005084,-0.002536,88.342854,0.005084,
810,1120,1.553902,-4.562253,0.999998,0.000191,-0.002296,0.005296,-0.000530,0.005332,-0.002332,-86.028190,0.005346,
650,510,1.243235,-7.596975,0.999998,0.000195,-0.002593,0.005117,-0.000064,0.005118,-0.002594,-89.527889,0.005118,
1440,1600,-0.297498,-1.621180,0.999998,0.000176,-0.001802,0.004216,-0.000443,0.004248,-0.001834,-85.811887,0.004261,
730,1330,1.378248,-3.490955,0.999997,0.000205,-0.002803,0.005348,-0.000342,0.005362,-0.002817,-87.602854,0.005364,
1530,470,-0.489751,-8.255361,0.999997,0.000210,-0.002293,0.004731,0.000403,0.004754,-0.002316,86.725195,0.004754,
720,150,0.402809,-9.518552,0.999998,0.000175,-0.001835,0.004796,0.000916,0.004920,-0.001959,82.275221,0.004954,
1130,740,0.137405,-7.576293,0.999997,0.000238,-0.002076,0.003290,-0.001888,0.003887,-0.002673,-72.434154,0.003977,
870,100,0.129141,-9.796314,0.999998,0.000148,-0.000721,0.003717,0.000722,0.003832,-0.000835,80.987205,0.004030,
1300,320,-0.066645,-9.089014,0.999999,0.000145,-0.000930,0.003575,0.000021,0.003575,-0.000930,89.737486,0.003709,
1490,70,-0.045752,-9.916551,0.999999,0.000130,-0.000303,0.003313,-0.000414,0.003359,-0.000350,-83.551196,0.003694,
1030,210,0.141215,-9.435153,0.999998,0.000171,-0.000878,0.003678,0.000143,0.003683,-0.000883,88.201347,0.003846,
900,920,1.310400,-5.652271,0.999997,0.000194,-0.002569,0.005912,0.000712,0.005971,-0.002628,85.233739,0.005985,
1780,960,-1.868920,-5.358703,0.999998,0.000161,-0.002225,0.004756,-0.000261,0.004766,-0.002234,-87.864005,0.004769,
1690,1680,-0.747458,-1.603023,0.999997,0.000191,-0.002259,0.004916,-0.000022,0.004916,-0.002259,-89.824254,0.004922,
1070,1650,0.201229,-1.361673,0.999998,0.000178,-0.001522,0.003947,0.000330,0.003966,-0.001542,86.562317,0.003999,
1700,140,-0.316025,-9.594687,0.999997,0.000198,-0.001211,0.004452,-0.000997,0.004622,-0.001382,-80.298746,0.004745,
680,250,0.745680,-8.963933,0.999997,0.000204,-0.002355,0.005047,0.000323,0.005061,-0.002369,87.505239,0.005064,
1290,560,-0.074238,-8.244475,0.999998,0.000165,-0.001400,0.003332,0.000446,0.003373,-0.001441,84.665186,0.003385,
860,660,0.881655,-7.140701,0.999998,0.000154,-0.003077,0.005584,-0.000206,0.005589,-0.003082,-88.640034,0.005599,
1600,580,-0.768299,-7.582820,0.999997,0.000202,-0.002760,0.005309,0.000335,0.005323,-0.002774,87.627706,0.005324,
1680,1400,-1.104072,-3.038760,0.999998,0.000178,-0.002917,0.005430,0.000060,0.005430,-0.002918,89.587986,0.005435,
820,240,0.434850,-9.182759,0.999997,0.000203,-0.001611,0.004569,0.000449,0.004602,-0.001643,85.863689,0.004664,
1310,1620,-0.094559,-1.408452,0.999998,0.000186,-0.001304,0.003626,-0.000259,0.003640,-0.001318,-86.998390,0.003686,
1220,860,0.107635,-7.711674,0.999890,0.000000,-0.006711,-0.000232,0.000200,-0.000225,-0.006717,88.232031,0.007890,
1260,1950,-0.007393,-0.259953,0.999999,0.000140,-0.000278,0.003145,0.000020,0.003145,-0.000278,89.667676,0.003482,
1280,2010,-0.004955,-0.076296,0.999998,0.000156,-0.000072,0.003005,0.000055,0.003006,-0.000073,88.973281,0.003429,
580,750,1.809256,-6.274410,0.999998,0.000172,-0.002664,0.004980,0.000043,0.004981,-0.002664,89.678946,0.004985,
1140,1430,0.120248,-2.095017,0.999998,0.000164,-0.001600,0.003359,0.000912,0.003522,-0.001762,79.906615,0.003522,
1900,2010,-0.226547,-0.202755,0.999997,0.000000,-0.000292,0.007565,0.003874,0.009154,-0.001881,67.702947,0.009668,
830,1620,0.692082,-1.816250,0.999997,0.000184,-0.002392,0.004942,0.000173,0.004946,-0.002396,88.645761,0.004946,
590,530,1.424234,-7.400273,0.999997,0.000200,-0.002688,0.005198,0.000007,0.005198,-0.002688,89.948446,0.005199,
710,660,1.318209,-6.908852,0.999998,0.000202,-0.002743,0.005262,0.000165,0.005265,-0.002747,88.821418,0.005267,
1170,1810,0.045456,-0.725805,0.999999,0.000134,-0.000703,0.003446,-0.000064,0.003447,-0.000704,-89.112671,0.003642,
1280,780,-0.059175,-7.679179,0.999998,0.000199,-0.001470,0.001739,0.001368,0.002243,-0.001974,69.776030,0.002449,
1880,1020,-2.105356,-5.071104,0.999999,0.000138,-0.002024,0.004249,-0.000060,0.004250,-0.002024,-89.448736,0.004251,
1880,470,-1.353124,-7.693525,0.999997,0.000200,-0.002463,0.005063,0.000039,0.005063,-0.002463,89.706453,0.005063,
1610,660,-0.903460,-7.128893,0.999998,0.000154,-0.003084,0.005555,0.000148,0.005557,-0.003087,89.019537,0.005569,
860,1050,1.522570,-4.919890,0.999997,0.000201,-0.001887,0.005262,-0.000215,0.005268,-0.001893,-88.281350,0.005337,
1400,460,-0.232420,-8.487408,0.999998,0.000173,-0.001703,0.004030,0.000479,0.004070,-0.001742,85.259619,0.004084,
1120,1620,0.141129,-1.436046,0.999998,0.000162,-0.001367,0.003720,0.000306,0.003738,-0.001385,86.572764,0.003780,
940,1420,0.605476,-2.631574,0.999997,0.000204,-0.002965,0.005302,0.000642,0.005351,-0.003015,85.587208,0.005366,
750,170,0.413191,-9.444507,0.999997,0.000195,-0.001452,0.004662,0.000928,0.004800,-0.001590,81.555360,0.004890,
780,1370,1.163846,-3.208235,0.999998,0.000171,-0.002935,0.005476,-0.000132,0.005478,-0.002937,-89.099731,0.005482,
1240,1900,-0.004905,-0.420146,0.999998,0.000146,-0.000493,0.003269,0.000001,0.003269,-0.000493,89.977221,0.003524,
1730,1800,-0.634173,-1.060189,0.999998,0.000181,-0.002104,0.004974,0.000402,0.004997,-0.002127,86.758027,0.005015,
1860,1740,-1.059439,-1.578621,0.999998,0.000165,-0.002437,0.005011,-0.000041,0.005011,-0.002438,-89.684614,0.005012,
1310,220,-0.050301,-9.438388,0.999997,0.000188,-0.000678,0.003425,-0.000049,0.003425,-0.000679,-89.318322,0.003627,
650,490,1.212729,-7.698150,0.999998,0.000185,-0.002551,0.005092,-0.000063,0.005093,-0.002552,-89.530887,0.005093,
690,1010,1.875878,-5.123399,0.999998,0.000151,-0.002161,0.004783,0.000146,0.004786,-0.002164,88.796260,0.004793,
1700,1010,-1.718678,-5.127228,0.999998,0.000171,-0.002081,0.004993,-0.000153,0.004996,-0.002085,-88.764818,0.005019,
1580,1690,-0.496697,-1.405623,0.999997,0.000200,-0.002089,0.004615,-0.000093,0.004616,-0.002090,-89.206821,0.004623,
1720,1230,-1.531884,-4.012022,0.999998,0.000197,-0.002652,0.005302,0.000566,0.005342,-0.002692,85.950168,0.005342,
1030,190,0.125535,-9.509352,0.999998,0.000172,-0.000810,0.003612,0.000227,0.003624,-0.000822,87.072110,0.003800,
980,1740,0.279493,-1.080770,0.999998,0.000173,-0.001451,0.004117,0.000014,0.004117,-0.001451,89.854369,0.004177,
1230,370,0.002321,-8.926204,0.999999,0.000143,-0.001113,0.003509,-0.000012,0.003509,-0.001113,-89.847682,0.003586,
1000,350,0.278608,-8.869347,0.999997,0.000178,-0.001416,0.004048,-0.000116,0.004050,-0.001419,-88.784791,0.004110,
1820,1360,-1.556967,-3.442762,0.999997,0.000204,-0.002559,0.005099,0.000196,0.005104,-0.002564,88.534877,0.005104,
1560,180,-0.225552,-9.496174,0.999998,0.000178,-0.001017,0.003974,-0.000478,0.004019,-0.001063,-84.574347,0.004165,
1350,1760,-0.111636,-0.921624,0.999998,0.000170,-0.001023,0.003620,-0.000051,0.003621,-0.001024,-89.371027,0.003733,
890,2020,0.021046,-0.052321,0.999999,0.000000,-0.000200,0.003404,-0.000662,0.003522,-0.000318,-79.912159,0.003897,
1070,740,0.292606,-7.315465,0.999997,0.000209,-0.003010,0.004783,-0.001819,0.005187,-0.003414,-77.485258,0.005273,
860,640,0.853332,-7.253946,0.999998,0.000161,-0.003024,0.005496,-0.000242,0.005503,-0.003031,-88.374548,0.005513,
1430,160,-0.101117,-9.616010,0.999998,0.000201,-0.000654,0.003519,-0.000259,0.003535,-0.000670,-86.461931,0.003756,
1510,1730,-0.332946,-1.151210,0.999997,0.000182,-0.001630,0.004313,-0.000034,0.004313,-0.001630,-89.670521,0.004355,
920,530,0.567334,-7.944875,0.999997,0.000203,-0.002490,0.004936,-0.000479,0.004967,-0.002521,-86.323828,0.004967,
1300,340,-0.069424,-9.018200,0.999999,0.000137,-0.001008,0.003579,0.000031,0.003579,-0.001008,89.616024,0.003691,
820,220,0.402164,-9.273804,0.999998,0.000193,-0.001540,0.004497,0.000531,0.004543,-0.001586,85.012207,0.004611,
1600,560,-0.746418,-7.686478,0.999997,0.000206,-0.002717,0.005219,0.000351,0.005234,-0.002733,87.475923,0.005236,
1680,1380,-1.138374,-3.149143,0.999998,0.000191,-0.002949,0.005474,0.000111,0.005476,-0.002950,89.243716,0.005481,
960,830,0.866115,-6.335244,0.999998,0.000183,-0.003745,0.006602,-0.000052,0.006603,-0.003745,-89.709941,0.006622,
610,170,0.697901,-9.246041,0.999998,0.000189,-0.002433,0.005180,0.000378,0.005199,-0.002452,87.166385,0.005202,
700,150,0.443513,-9.493558,0.999997,0.000183,-0.002046,0.004907,0.000901,0.005022,-0.002161,82.736719,0.005038,
1900,720,-1.798832,-6.394408,0.999998,0.000000,-0.002445,0.004876,-0.000075,0.004877,-0.002446,-89.416775,0.004877,
820,1110,1.545604,-4.610192,0.999997,0.000204,-0.002235,0.005289,-0.000507,0.005323,-0.002269,-86.164482,0.005342,
1740,520,-1.068775,-7.662063,0.999998,0.000173,-0.002595,0.005157,0.000110,0.005158,-0.002597,89.187544,0.005158,
1290,1620,-0.070852,-1.399653,0.999998,0.000177,-0.001203,0.003570,-0.000127,0.003573,-0.001206,-88.472172,0.003635,
730,1310,1.418230,-3.598219,0.999997,0.000211,-0.002786,0.005353,-0.000390,0.005372,-0.002805,-87.262362,0.005373,
1360,1950,-0.034642,-0.266524,0.999998,0.000140,-0.000290,0.003215,0.000175,0.003223,-0.000298,87.153586,0.003562,
1280,2000,-0.004935,-0.106163,0.999999,0.000154,-0.000095,0.003009,0.000065,0.003011,-0.000096,88.794840,0.003422,
900,900,1.261969,-5.772417,0.999998,0.000190,-0.002773,0.006058,0.000719,0.006116,-0.002831,85.374877,0.006121,
850,760,1.086755,-6.548907,0.999997,0.000211,-0.003242,0.005891,0.000251,0.005898,-0.003249,88.425809,0.005908,
1040,790,0.458241,-6.907682,0.999997,0.000206,-0.003765,0.005805,-0.001464,0.006024,-0.003984,-81.494447,0.006128,
670,960,1.896681,-5.354956,0.999998,0.000200,-0.002232,0.004710,0.000240,0.004718,-0.002240,88.023104,0.004720,
1170,1790,0.049629,-0.795733,0.999999,0.000126,-0.000770,0.003511,-0.000046,0.003511,-0.000771,-89.390835,0.003691,
1870,1020,-2.085311,-5.071928,0.999998,0.000169,-0.002035,0.004310,-0.000065,0.004311,-0.002036,-89.413428,0.004313,
1860,1720,-1.092027,-1.678093,0.999998,0.000162,-0.002422,0.004952,-0.000081,0.004952,-0.002422,-89.371434,0.004953,
830,1600,0.714550,-1.916082,0.999997,0.000207,-0.002429,0.004937,0.000202,0.004942,-0.002435,88.427889,0.004943,
940,1400,0.625125,-2.739780,0.999997,0.000200,-0.003076,0.005439,0.000653,0.005489,-0.003125,85.642943,0.005506,
950,1240,0.864613,-3.673450,0.999998,0.000177,-0.003733,0.006460,0.000039,0.006460,-0.003733,89.779653,0.006486,
1610,1230,-1.219075,-3.913255,0.999998,0.000170,-0.003097,0.005885,0.000559,0.005919,-0.003132,86.452487,0.005923,
690,990,1.866756,-5.218481,0.999998,0.000157,-0.002163,0.004710,0.000123,0.004712,-0.002165,88.977628,0.004717,
1280,760,-0.051849,-7.710865,0.999998,0.000181,-0.001342,0.001890,0.001274,0.002332,-0.001784,70.869516,0.002438,
1760,570,-1.193518,-7.369363,0.999997,0.000190,-0.002642,0.005197,0.000020,0.005197,-0.002643,89.854042,0.005197,
980,370,0.322432,-8.768674,0.999998,0.000182,-0.001716,0.004250,-0.000200,0.004257,-0.001723,-88.080773,0.004282,
580,740,1.791888,-6.322205,0.999998,0.000156,-0.002786,0.005127,0.000097,0.005128,-0.002787,89.297766,0.005134,
1710,1800,-0.595554,-1.040179,0.999998,0.000171,-0.002007,0.004882,0.000444,0.004911,-0.002036,86.327774,0.004935,
1230,350,0.000643,-8.995835,0.999999,0.000131,-0.001099,0.003509,0.000009,0.003509,-0.001099,89.888447,0.003590,
1850,1090,-2.022239,-4.763506,0.999998,0.000154,-0.002116,0.004370,0.000063,0.004371,-0.002117,89.443981,0.004372,
580,530,1.448638,-7.383917,0.999997,0.000205,-0.003380,0.005345,0.000069,0.005345,-0.003380,89.548934,0.005407,
860,620,0.826017,-7.362346,0.999998,0.000168,-0.002945,0.005381,-0.000276,0.005390,-0.002954,-88.101164,0.005398,
1850,260,-0.925824,-8.795823,0.999998,0.000181,-0.002424,0.005008,-0.000080,0.005009,-0.002425,-89.380178,0.005009,
890,30,0.016026,-10.044583,0.999999,0.000000,-0.000232,0.003277,0.000606,0.003379,-0.000334,80.473385,0.003724,
850,1620,0.643585,-1.785857,0.999997,0.000202,-0.002345,0.004890,0.000215,0.004896,-0.002352,88.298716,0.004897,
1560,160,-0.196114,-9.574595,0.999998,0.000172,-0.000882,0.003907,-0.000542,0.003967,-0.000943,-83.622202,0.004145,
1120,1430,0.154117,-2.137155,0.999998,0.000177,-0.001795,0.003583,0.001086,0.003794,-0.002006,79.004031,0.003796,
770,1830,0.502103,-0.873981,0.999998,0.000181,-0.001854,0.004701,-0.000538,0.004745,-0.001898,-85.342013,0.004777,
1030,170,0.110839,-9.580149,0.999998,0.000162,-0.000705,0.003537,0.000255,0.003553,-0.000720,86.569257,0.003756,
980,1720,0.295422,-1.163612,0.999998,0.000181,-0.001529,0.004166,0.000085,0.004167,-0.001531,89.145025,0.004216,
1430,790,-0.486687,-6.875457,0.999997,0.000231,-0.003795,0.005937,0.001371,0.006127,-0.003985,82.133023,0.006218,
1120,1600,0.143149,-1.509735,0.999998,0.000162,-0.001385,0.003748,0.000350,0.003772,-0.001409,86.122482,0.003812,
820,1370,1.043802,-3.146182,0.999998,0.000197,-0.003062,0.005574,-0.000039,0.005574,-0.003062,-89.742564,0.005583,
1200,410,0.037230,-8.776209,0.999998,0.000182,-0.001128,0.003555,-0.000101,0.003557,-0.001130,-88.763592,0.003635,
1330,1760,-0.089614,-0.910573,0.999998,0.000141,-0.001054,0.003578,-0.000079,0.003579,-0.001055,-89.022654,0.003678,
610,150,0.637502,-9.347046,0.999997,0.000201,-0.002433,0.005184,0.000472,0.005213,-0.002462,86.469246,0.005216,
1900,710,-1.780947,-6.442816,0.999998,0.000000,-0.002472,0.004877,-0.000059,0.004877,-0.002472,-89.538172,0.004877,
660,50,0.132525,-9.947692,0.999998,0.000166,-0.000449,0.004403,0.001910,0.005065,-0.001110,70.897087,0.005324,
1520,1290,-0.776744,-3.371944,0.999997,0.000176,-0.003644,0.006219,-0.000348,0.006232,-0.003657,-87.983930,0.006263,
1080,1690,0.173173,-1.199483,0.999998,0.000171,-0.001268,0.003833,0.000136,0.003836,-0.001272,88.472526,0.003908,
1680,1360,-1.172135,-3.259329,0.999998,0.000196,-0.002945,0.005507,0.000168,0.005510,-0.002948,88.863062,0.005514,
1530,450,-0.471154,-8.349992,0.999997,0.000213,-0.002174,0.004668,0.000374,0.004689,-0.002194,86.877402,0.004692,
1340,1950,-0.029158,-0.263756,0.999999,0.000129,-0.000334,0.003200,0.000136,0.003205,-0.000339,87.805862,0.003521,
1290,540,-0.074168,-8.312146,0.999999,0.000130,-0.001383,0.003405,0.000379,0.003435,-0.001413,85.498976,0.003453,
870,660,0.850779,-7.160636,0.999998,0.000180,-0.003091,0.005586,-0.000255,0.005593,-0.003099,-88.317285,0.005604,
900,880,1.208984,-5.894838,0.999998,0.000187,-0.002987,0.006097,0.000660,0.006145,-0.003035,85.865143,0.006145,
670,980,1.906269,-5.262956,0.999998,0.000175,-0.002175,0.004634,0.000124,0.004637,-0.002177,88.954091,0.004640,
1700,120,-0.266647,-9.679666,0.999998,0.000184,-0.001043,0.004348,-0.001144,0.004581,-0.001276,-78.507083,0.004728,
1510,1710,-0.350162,-1.239119,0.999998,0.000182,-0.001731,0.004354,-0.000090,0.004356,-0.001732,-89.149413,0.004386,
650,470,1.184719,-7.801962,0.999998,0.000180,-0.002528,0.005096,-0.000075,0.005097,-0.002528,-89.439695,0.005097,
1020,2010,0.019410,-0.079954,0.999998,0.000142,-0.000083,0.003116,-0.000306,0.003145,-0.000112,-84.579766,0.003569,
1330,1490,-0.132616,-1.899599,0.999998,0.000158,-0.001519,0.003564,-0.000625,0.003639,-0.001595,-83.091422,0.003649,
1600,540,-0.725528,-7.792135,0.999997,0.000181,-0.002663,0.005104,0.000325,0.005117,-0.002676,87.609141,0.005119,
620,1690,1.101359,-1.797615,0.999998,0.000170,-0.002453,0.005022,0.000034,0.005022,-0.002453,89.742174,0.005022,
1380,1440,-0.223883,-2.178531,0.999998,0.000173,-0.002033,0.004023,-0.001109,0.004220,-0.002229,-79.946463,0.004222,
590,970,2.072175,-5.285647,0.999998,0.000183,-0.002026,0.004194,0.000002,0.004194,-0.002026,89.983544,0.004194,
1810,670,-1.486065,-6.777417,0.999997,0.000199,-0.002626,0.005118,-0.000186,0.005123,-0.002631,-88.623213,0.005124,
820,200,0.362502,-9.364911,0.999998,0.000194,-0.001424,0.004456,0.000631,0.004523,-0.001491,83.939549,0.004610,
1270,160,-0.018400,-9.643455,0.999998,0.000166,-0.000455,0.003280,-0.000045,0.003281,-0.000456,-89.315875,0.003554,
880,2020,0.025015,-0.052670,0.999999,0.000000,-0.000308,0.003388,-0.000694,0.003514,-0.000434,-79.715650,0.003832,
690,970,1.858820,-5.311994,0.999998,0.000167,-0.002205,0.004724,0.000163,0.004728,-0.002209,88.653771,0.004731,
1640,330,-0.571482,-8.767612,0.999997,0.000211,-0.002037,0.004773,-0.000081,0.004774,-0.002038,-89.320711,0.004791,
940,1380,0.647396,-2.851324,0.999997,0.000206,-0.003194,0.005570,0.000625,0.005615,-0.003238,85.944387,0.005637,
1890,820,-1.938541,-5.932698,0.999998,0.000158,-0.002238,0.004586,-0.000120,0.004588,-0.002240,-88.988859,0.004589,
980,1700,0.310809,-1.247177,0.999998,0.000191,-0.001623,0.004199,0.000189,0.004205,-0.001629,88.146428,0.004241,
1030,150,0.093146,-9.652012,0.999998,0.000158,-0.000620,0.003526,0.000297,0.003547,-0.000641,85.916187,0.003780,
920,510,0.549881,-8.043407,0.999998,0.000211,-0.002370,0.004844,-0.000429,0.004869,-0.002395,-86.609053,0.004869,
870,1240,1.142477,-3.829579,0.999998,0.000188,-0.003221,0.006014,-0.000452,0.006036,-0.003243,-87.206440,0.006041,
1610,1360,-0.958246,-3.148083,0.999999,0.000139,-0.003155,0.005693,-0.000055,0.005693,-0.003155,-89.644545,0.005704,
860,600,0.800754,-7.470472,0.999998,0.000181,-0.002853,0.005332,-0.000291,0.005343,-0.002863,-87.969562,0.005347,
1490,1400,-0.525037,-2.656944,0.999997,0.000199,-0.003019,0.005318,-0.000876,0.005409,-0.003110,-84.067620,0.005429,
1850,1070,-2.030077,-4.850752,0.999998,0.000157,-0.002085,0.004363,0.000066,0.004364,-0.002086,89.411416,0.004365,
690,1620,1.033414,-2.036879,0.999998,0.000171,-0.002494,0.005059,0.000091,0.005060,-0.002495,89.306913,0.005060,
1230,330,0.000842,-9.066230,0.999999,0.000136,-0.001040,0.003505,-0.000007,0.003505,-0.001040,-89.911942,0.003600,
610,130,0.563900,-9.453757,0.999997,0.000207,-0.002409,0.005318,0.000655,0.005374,-0.002464,85.190310,0.005380,
1120,1580,0.146460,-1.586523,0.999998,0.000150,-0.001407,0.003742,0.000389,0.003771,-0.001436,85.707584,0.003807,
1010,1880,0.126299,-0.523250,0.999998,0.000226,-0.000674,0.003614,-0.000299,0.003635,-0.000695,-86.031485,0.003859,
1850,1600,-1.256853,-2.262362,0.999998,0.000181,-0.002501,0.005057,-0.000062,0.005058,-0.002501,-89.532526,0.005058,
1680,1340,-1.208573,-3.370333,0.999998,0.000192,-0.002938,0.005559,0.000245,0.005566,-0.002945,88.352322,0.005569,
850,740,1.048548,-6.665253,0.999998,0.000182,-0.003217,0.005825,0.000159,0.005828,-0.003220,88.993566,0.005838,
800,1370,1.105314,-3.178352,0.999998,0.000153,-0.002974,0.005532,-0.000072,0.005533,-0.002975,-89.515008,0.005538,
1900,700,-1.765737,-6.491708,0.999998,0.000000,-0.002513,0.004914,-0.000029,0.004914,-0.002513,-89.779894,0.004914,
1410,1300,-0.361090,-2.915836,0.999998,0.000171,-0.003353,0.005226,-0.001690,0.005547,-0.003674,-79.248181,0.005644,
980,350,0.308058,-8.851731,0.999998,0.000169,-0.001613,0.004150,-0.000149,0.004154,-0.001617,-88.524168,0.004188,
1010,900,0.913687,-6.029655,0.999997,0.000214,-0.003522,0.007124,-0.000212,0.007128,-0.003526,-88.858977,0.007129,
1780,610,-1.308463,-7.131947,0.999998,0.000144,-0.002648,0.005181,-0.000063,0.005182,-0.002649,-89.537229,0.005182,
1080,1950,0.040563,-0.267934,0.999998,0.000155,-0.000252,0.003253,-0.000234,0.003268,-0.000267,-86.197130,0.003630,
650,450,1.154902,-7.901643,0.999998,0.000169,-0.002540,0.005063,-0.000085,0.005064,-0.002541,-89.359051,0.005064,
600,1430,1.547648,-3.150021,0.999997,0.000211,-0.002523,0.005099,-0.000072,0.005100,-0.002523,-89.457015,0.005100,
750,50,0.089694,-9.959542,0.999998,0.000165,-0.000228,0.003827,0.001277,0.004196,-0.000597,73.898966,0.004540,
900,860,1.157445,-6.019156,0.999998,0.000184,-0.003127,0.006164,0.000603,0.006202,-0.003166,86.304777,0.006203,
1280,740,-0.051533,-7.751380,0.999998,0.000165,-0.001284,0.002102,0.001160,0.002461,-0.001643,72.795712,0.002506,
1720,850,-1.578948,-5.935267,0.999997,0.000214,-0.002595,0.005227,-0.000558,0.005266,-0.002634,-85.942672,0.005266,
1510,1690,-0.367319,-1.324551,0.999997,0.000196,-0.001818,0.004304,-0.000170,0.004309,-0.001823,-88.409127,0.004326,
1560,140,-0.166648,-9.652576,0.999998,0.000152,-0.000751,0.003835,-0.000578,0.003907,-0.000823,-82.927021,0.004119,
1070,1630,0.209192,-1.444937,0.999998,0.000174,-0.001572,0.003977,0.000412,0.004008,-0.001602,85.777144,0.004035,
1380,1420,-0.223762,-2.259695,0.999998,0.000164,-0.002168,0.004028,-0.001257,0.004273,-0.002413,-78.957245,0.004285,
1870,780,-1.829712,-6.145316,0.999998,0.000161,-0.002370,0.004806,-0.000154,0.004809,-0.002373,-88.774043,0.004809,
980,50,0.025231,-9.982804,0.999999,0.000148,-0.000169,0.003237,0.000396,0.003282,-0.000214,83.460125,0.003673,
1330,1470,-0.132335,-1.968789,0.999998,0.000173,-0.001566,0.003528,-0.000738,0.003632,-0.001671,-81.923578,0.003636,
1430,770,-0.452764,-6.990337,0.999997,0.000203,-0.003664,0.005690,0.001410,0.005898,-0.003872,81.610949,0.005994,
880,30,0.020436,-10.041019,0.999999,0.000000,-0.000223,0.003297,0.000623,0.003404,-0.000330,80.259182,0.003754,
1490,160,-0.137657,-9.601049,0.999998,0.000190,-0.000790,0.003669,-0.000342,0.003695,-0.000816,-85.639821,0.003882,
1020,2000,0.024812,-0.110087,0.999999,0.000138,-0.000126,0.003168,-0.000318,0.003198,-0.000157,-84.531771,0.003606,
1810,650,-1.452191,-6.880465,0.999997,0.000188,-0.002639,0.005156,-0.000128,0.005158,-0.002641,-89.059420,0.005159,
690,950,1.841915,-5.409400,0.999998,0.000177,-0.002239,0.004843,0.000333,0.004859,-0.002255,87.317702,0.004863,
860,580,0.778389,-7.576281,0.999997,0.000192,-0.002782,0.005300,-0.000307,0.005311,-0.002794,-87.825567,0.005314,
1310,1760,-0.069936,-0.902329,0.999999,0.000133,-0.000917,0.003552,-0.000008,0.003552,-0.000917,-89.892243,0.003688,
940,1360,0.672745,-2.964847,0.999997,0.000205,-0.003315,0.005689,0.000589,0.005727,-0.003353,86.271808,0.005755,
1030,130,0.078604,-9.720537,0.999998,0.000152,-0.000520,0.003404,0.000289,0.003425,-0.000541,85.814286,0.003683,
980,1680,0.325494,-1.333258,0.999998,0.000196,-0.001721,0.004275,0.000231,0.004284,-0.001730,87.795547,0.004311,
1860,1410,-1.572533,-3.247019,0.999997,0.000208,-0.002530,0.005063,0.000093,0.005064,-0.002531,89.301683,0.005064,
810,1200,1.409924,-4.125101,0.999998,0.000183,-0.002760,0.005560,-0.000654,0.005611,-0.002811,-85.531362,0.005611,
1640,350,-0.598256,-8.669890,0.999997,0.000199,-0.002125,0.004795,-0.000049,0.004795,-0.002126,-89.597639,0.004806,
1360,1390,-0.184461,-2.326579,0.999997,0.000199,-0.002071,0.003828,-0.001365,0.004128,-0.002371,-77.585277,0.004143,
820,180,0.324970,-9.451684,0.999997,0.000197,-0.001294,0.004342,0.000685,0.004424,-0.001376,83.168789,0.004529,
1600,520,-0.702879,-7.892212,0.999997,0.000193,-0.002576,0.005056,0.000295,0.005067,-0.002587,87.790073,0.005067,
1850,1050,-2.037232,-4.939941,0.999999,0.000146,-0.002102,0.004407,0.000128,0.004409,-0.002104,88.876379,0.004411,
1230,310,0.000560,-9.137000,0.999999,0.000146,-0.000997,0.003509,-0.000013,0.003509,-0.000997,-89.834858,0.003616,
1900,690,-1.748771,-6.541065,0.999998,0.000000,-0.002552,0.004993,-0.000007,0.004993,-0.002552,-89.946999,0.004993,
1820,1610,-1.165944,-2.164125,0.999998,0.000173,-0.002548,0.005073,-0.000068,0.005074,-0.002549,-89.488320,0.005074,
880,910,1.338941,-5.694183,0.999997,0.000202,-0.002614,0.005785,0.000708,0.005844,-0.002674,85.216326,0.005851,
1120,1560,0.149209,-1.660211,0.999998,0.000146,-0.001457,0.003701,0.000435,0.003738,-0.001493,85.208668,0.003763,
610,110,0.485984,-9.560642,0.999997,0.000201,-0.002379,0.005357,0.000861,0.005452,-0.002473,83.721876,0.005460,
1470,1200,-0.814181,-3.803677,0.999998,0.000191,-0.003823,0.006819,-0.000276,0.006826,-0.003830,-88.515612,0.006843,
1690,1740,-0.659161,-1.306356,0.999998,0.000192,-0.002176,0.004884,0.000124,0.004886,-0.002178,88.990741,0.004896,
1800,590,-1.328841,-7.203920,0.999997,0.000198,-0.002589,0.005131,-0.000009,0.005131,-0.002589,-89.936904,0.005131,
590,1430,1.572216,-3.164632,0.999997,0.000199,-0.002824,0.005178,-0.000077,0.005179,-0.002824,-89.445843,0.005186,
810,1620,0.738572,-1.846918,0.999998,0.000199,-0.002365,0.004965,0.000134,0.004968,-0.002367,88.951809,0.004970,
1430,750,-0.422649,-7.103229,0.999997,0.000219,-0.003472,0.005499,0.001439,0.005725,-0.003698,81.105162,0.005805,
1680,1320,-1.246671,-3.482626,0.999998,0.000178,-0.002935,0.005545,0.000325,0.005557,-0.002948,87.811241,0.005561,
1640,1870,-0.331260,-0.648371,0.999997,0.000212,-0.001275,0.004353,0.000685,0.004435,-0.001357,83.163878,0.004545,
1840,410,-1.164755,-8.061448,0.999998,0.000152,-0.002459,0.005038,0.000063,0.005039,-0.002460,89.516112,0.005039,
900,840,1.104235,-6.141816,0.999998,0.000188,-0.003284,0.006198,0.000486,0.006223,-0.003309,87.073797,0.006227,
1660,150,-0.284917,-9.572059,0.999998,0.000180,-0.001329,0.004325,-0.000797,0.004435,-0.001439,-82.126856,0.004526,
1100,1430,0.190512,-2.180578,0.999998,0.000166,-0.001890,0.003823,0.001100,0.004028,-0.002095,79.471054,0.004029,
880,570,0.711262,-7.666437,0.999997,0.000198,-0.002767,0.005231,-0.000403,0.005251,-0.002787,-87.123855,0.005254,
820,1990,0.089944,-0.162366,0.999998,0.000164,-0.000368,0.003707,-0.000948,0.003916,-0.000577,-77.524106,0.004228,
1280,720,-0.051517,-7.795485,0.999998,0.000158,-0.001251,0.002283,0.001036,0.002564,-0.001532,74.808753,0.002580,
870,2020,0.028072,-0.053782,0.999998,0.000000,-0.000283,0.003394,-0.000727,0.003533,-0.000422,-79.209354,0.003859,
860,560,0.754609,-7.682011,0.999997,0.000186,-0.002714,0.005215,-0.000330,0.005229,-0.002727,-87.622841,0.005230,
1780,590,-1.276982,-7.235184,0.999998,0.000153,-0.002632,0.005173,-0.000030,0.005173,-0.002632,-89.782718,0.005173,
1810,630,-1.419234,-6.984784,0.999997,0.000193,-0.002614,0.005127,-0.000077,0.005128,-0.002615,-89.431821,0.005128,
1400,350,-0.188233,-8.927356,0.999998,0.000158,-0.001322,0.003856,0.000156,0.003861,-0.001326,88.274527,0.003924,
980,1660,0.342905,-1.421307,0.999997,0.000190,-0.001816,0.004318,0.000284,0.004332,-0.001830,87.357757,0.004349,
1030,110,0.063920,-9.789056,0.999999,0.000164,-0.000445,0.003372,0.000317,0.003398,-0.000471,85.290353,0.003682,
1350,2010,-0.010179,-0.077618,0.999998,0.000150,-0.000110,0.003041,0.000146,0.003047,-0.000117,87.344180,0.003453,
1560,120,-0.136923,-9.729361,0.999998,0.000167,-0.000617,0.003777,-0.000598,0.003857,-0.000697,-82.380959,0.004110,
650,430,1.128226,-8.004968,0.999998,0.000152,-0.002543,0.005073,-0.000074,0.005073,-0.002544,-89.442894,0.005073,
980,970,1.237945,-5.437075,0.999997,0.000196,-0.002383,0.006840,0.000336,0.006852,-0.002396,87.913704,0.006955,
1820,870,-1.854369,-5.769596,0.999998,0.000197,-0.002319,0.004802,-0.000373,0.004822,-0.002339,-87.006304,0.004823,
1850,1030,-2.046760,-5.027774,0.999999,0.000154,-0.002106,0.004438,0.000032,0.004438,-0.002106,89.718859,0.004440,
1660,250,-0.484970,-9.119723,0.999997,0.000195,-0.001894,0.004663,-0.000369,0.004684,-0.001915,-86.792415,0.004710,
990,160,0.126834,-9.606168,0.999998,0.000178,-0.000640,0.003669,0.000330,0.003694,-0.000665,85.646833,0.003938,
1280,1210,-0.178322,-2.499258,0.999997,0.000219,-0.002891,0.001282,-0.000229,0.001295,-0.002903,-86.865424,0.002909,
690,930,1.821260,-5.506807,0.999998,0.000170,-0.002275,0.004866,0.000354,0.004884,-0.002292,87.169917,0.004887,
1510,1670,-0.384347,-1.411625,0.999997,0.000199,-0.001861,0.004383,-0.000225,0.004391,-0.001869,-87.936338,0.004407,
1750,320,-0.801914,-8.664012,0.999998,0.000171,-0.002396,0.005027,-0.000060,0.005027,-0.002397,-89.539761,0.005029,
1600,500,-0.682687,-7.993670,0.999998,0.000193,-0.002509,0.004994,0.000307,0.005006,-0.002522,87.661061,0.005007,
1120,1540,0.150273,-1.733399,0.999998,0.000154,-0.001516,0.003727,0.000491,0.003772,-0.001562,84.694057,0.003791,
1900,680,-1.733642,-6.591254,0.999997,0.000000,-0.002585,0.005086,-0.000045,0.005087,-0.002585,-89.666078,0.005087,
1330,1450,-0.131233,-2.037654,0.999999,0.000150,-0.001636,0.003495,-0.000871,0.003639,-0.001780,-80.622851,0.003640,
570,1750,1.118625,-1.592034,0.999990,0.000383,-0.002277,0.004901,0.000076,0.004902,-0.002278,89.395979,0.004906,
820,160,0.283698,-9.538896,0.999997,0.000195,-0.001118,0.004275,0.000769,0.004382,-0.001226,82.044543,0.004522,
1120,1630,0.137817,-1.398348,0.999999,0.000150,-0.001351,0.003730,0.000300,0.003748,-0.001368,86.630373,0.003793,
1380,1400,-0.228710,-2.346137,0.999997,0.000181,-0.002290,0.004107,-0.001351,0.004381,-0.002563,-78.553937,0.004402,
1840,1410,-1.521666,-3.217143,0.999997,0.000212,-0.002549,0.005102,0.000091,0.005103,-0.002551,89.315425,0.005103,
850,1780,0.445121,-1.028999,0.999997,0.000217,-0.001742,0.004501,-0.000270,0.004513,-0.001754,-87.531639,0.004550,
1230,290,0.002000,-9.206159,0.999999,0.000137,-0.000934,0.003470,-0.000013,0.003470,-0.000934,-89.825558,0.003591,
750,40,0.061020,-9.998766,0.999999,0.000144,-0.000052,0.003821,0.001325,0.004230,-0.000462,72.812704,0.004641,
840,1990,0.082413,-0.159378,0.999999,0.000123,-0.000287,0.003677,-0.000876,0.003862,-0.000472,-78.077476,0.004213,
1800,570,-1.298796,-7.307035,0.999997,0.000194,-0.002587,0.005158,0.000036,0.005159,-0.002587,89.730912,0.005159,
950,1000,1.355357,-5.205885,0.999998,0.000174,-0.001918,0.006282,0.000282,0.006291,-0.001928,88.031039,0.006446,
1680,1300,-1.282857,-3.591658,0.999997,0.000185,-0.002950,0.005537,0.000400,0.005555,-0.002969,87.304395,0.005560,
1500,330,-0.319635,-8.915715,0.999998,0.000179,-0.001671,0.004289,0.000075,0.004289,-0.001671,89.281172,0.004324,
860,540,0.730780,-7.785872,0.999998,0.000191,-0.002643,0.005171,-0.000328,0.005185,-0.002657,-87.604177,0.005186,
1860,1270,-1.814140,-3.945130,0.999998,0.000169,-0.002395,0.004796,0.000221,0.004802,-0.002401,88.240628,0.004802,
870,30,0.022019,-10.040318,0.999999,0.000000,-0.000154,0.003301,0.000662,0.003424,-0.000276,79.521400,0.003804,
1470,1580,-0.365887,-1.753666,0.999998,0.000174,-0.001984,0.004406,-0.000500,0.004445,-0.002023,-85.556389,0.004451,
1290,1420,-0.069931,-2.074047,0.999998,0.000150,-0.001354,0.002985,-0.000743,0.003108,-0.001478,-80.549078,0.003110,
650,410,1.096794,-8.105356,0.999998,0.000172,-0.002525,0.005045,-0.000059,0.005045,-0.002525,-89.551275,0.005045,
1810,610,-1.387485,-7.086771,0.999997,0.000188,-0.002588,0.005098,-0.000064,0.005098,-0.002589,-89.524716,0.005098,
1030,90,0.050151,-9.854661,0.999998,0.000153,-0.000331,0.003271,0.000294,0.003295,-0.000355,85.367006,0.003617,
980,1640,0.356635,-1.509864,0.999997,0.000193,-0.001904,0.004386,0.000350,0.004405,-0.001923,86.821323,0.004417,
690,910,1.798600,-5.604178,0.999998,0.000182,-0.002312,0.004859,0.000358,0.004877,-0.002330,87.152027,0.004878,
920,850,1.065298,-6.112286,0.999998,0.000167,-0.003390,0.006327,0.000467,0.006350,-0.003412,87.254881,0.006356,
1340,2010,-0.009041,-0.077884,0.999999,0.000137,-0.000145,0.003042,0.000136,0.003048,-0.000151,87.568650,0.003436,
1280,700,-0.053712,-7.841740,0.999998,0.000156,-0.001264,0.002436,0.000919,0.002652,-0.001479,76.788453,0.002658,
940,1340,0.703542,-3.080389,0.999997,0.000193,-0.003416,0.005822,0.000531,0.005853,-0.003447,86.722359,0.005883,
1510,1650,-0.399882,-1.500020,0.999997,0.000215,-0.001868,0.004421,-0.000256,0.004431,-0.001878,-87.669248,0.004448,
1120,1520,0.152026,-1.808502,0.999998,0.000151,-0.001586,0.003719,0.000589,0.003784,-0.001650,83.742227,0.003794,
1850,1010,-2.039703,-5.117849,0.999999,0.000156,-0.002102,0.004429,-0.000123,0.004431,-0.002105,-88.917106,0.004433,
570,1200,1.998506,-4.313021,0.999998,0.000176,-0.002133,0.004522,-0.000083,0.004523,-0.002134,-89.281600,0.004525,
1560,100,-0.111541,-9.804553,0.999998,0.000161,-0.000483,0.003588,-0.000623,0.003682,-0.000576,-81.485364,0.003961,
1600,480,-0.663250,-8.093240,0.999997,0.000196,-0.002458,0.004968,0.000304,0.004980,-0.002471,87.656231,0.004980,
1830,1600,-1.205299,-2.230841,0.999998,0.000184,-0.002529,0.005065,-0.000074,0.005066,-0.002530,-89.440209,0.005066,
1900,670,-1.717393,-6.643094,0.999997,0.000000,-0.002583,0.005113,-0.000066,0.005114,-0.002584,-89.510458,0.005114,
1480,1310,-0.596245,-3.132305,0.999997,0.000210,-0.003644,0.005948,-0.000840,0.006020,-0.003717,-85.035075,0.006075,
1450,1200,-0.737076,-3.715118,0.999997,0.000195,-0.003927,0.006873,-0.000640,0.006911,-0.003965,-86.622976,0.006936,
610,90,0.396787,-9.666998,0.999997,0.000192,-0.002339,0.005529,0.001189,0.005705,-0.002515,81.590532,0.005718,
620,1430,1.496639,-3.120169,0.999997,0.000213,-0.002554,0.005108,-0.000064,0.005108,-0.002555,-89.519611,0.005108,
1330,1430,-0.129778,-2.106267,0.999998,0.000146,-0.001694,0.003453,-0.001013,0.003645,-0.001886,-79.257136,0.003646,
820,140,0.244969,-9.623059,0.999998,0.000189,-0.000968,0.004143,0.000808,0.004267,-0.001093,81.225819,0.004433,
1380,1380,-0.232574,-2.426981,0.999997,0.000192,-0.002389,0.004157,-0.001458,0.004468,-0.002699,-77.992395,0.004500,
1780,1330,-1.506822,-3.546780,0.999996,0.000216,-0.002637,0.005164,0.000321,0.005177,-0.002650,87.648220,0.005177,
1730,320,-0.753774,-8.694176,0.999997,0.000196,-0.002295,0.005006,-0.000121,0.005008,-0.002297,-89.053962,0.005014,
740,1690,0.808296,-1.601130,0.999997,0.000240,-0.002372,0.004982,-0.000015,0.004982,-0.002372,-89.885443,0.004984,
900,820,1.053940,-6.267045,0.999997,0.000201,-0.003381,0.006216,0.000353,0.006229,-0.003394,87.894549,0.006237,
1800,1370,-1.487042,-3.366653,0.999997,0.000194,-0.002627,0.005126,0.000227,0.005133,-0.002633,88.324517,0.005133,
850,1840,0.351066,-0.763103,0.999997,0.000197,-0.001406,0.004323,-0.000513,0.004369,-0.001452,-84.925092,0.004450,
860,2020,0.031832,-0.053519,0.999999,0.000000,-0.000176,0.003414,-0.000759,0.003567,-0.000330,-78.536787,0.003943,
620,770,1.746428,-6.229992,0.999998,0.000172,-0.002448,0.004934,0.000258,0.004943,-0.002457,88.001961,0.004943,
1680,1280,-1.323501,-3.704474,0.999997,0.000189,-0.002925,0.005551,0.000463,0.005576,-0.002950,86.882468,0.005579,
820,1950,0.172794,-0.314108,0.999999,0.000145,-0.000716,0.003957,-0.000893,0.004121,-0.000881,-79.538071,0.004341,
1500,450,-0.411289,-8.392390,0.999997,0.000191,-0.001969,0.004479,0.000380,0.004502,-0.001992,86.637256,0.004512,
1230,270,0.001593,-9.276393,0.999998,0.000146,-0.000871,0.003471,-0.000001,0.003471,-0.000871,-89.985739,0.003612,
1470,1560,-0.376525,-1.843562,0.999997,0.000203,-0.002043,0.004455,-0.000545,0.004501,-0.002089,-85.236287,0.004505,
1510,1630,-0.413750,-1.588756,0.999997,0.000224,-0.001932,0.004458,-0.000294,0.004472,-0.001946,-87.372278,0.004484,
800,1090,1.614221,-4.721142,0.999998,0.000158,-0.002162,0.005150,-0.000432,0.005175,-0.002187,-86.628428,0.005196,
860,520,0.710784,-7.889461,0.999998,0.000199,-0.002561,0.005044,-0.000328,0.005058,-0.002576,-87.536733,0.005058,
1270,240,-0.028572,-9.373310,0.999999,0.000111,-0.000695,0.003409,-0.000011,0.003409,-0.000695,-89.844683,0.003603,
900,850,1.130456,-6.081397,0.999998,0.000170,-0.003213,0.006181,0.000547,0.006213,-0.003245,86.675750,0.006215,
1640,1850,-0.369153,-0.736113,0.999997,0.000209,-0.001406,0.004461,0.000606,0.004523,-0.001468,84.168721,0.004615,
1590,1360,-0.894490,-3.111477,0.999998,0.000146,-0.003231,0.005712,-0.000141,0.005715,-0.003233,-89.097027,0.005731,
1530,2010,-0.031649,-0.084583,0.999999,0.000142,-0.000125,0.003263,0.000490,0.003332,-0.000194,81.927994,0.003741,
1120,1500,0.151994,-1.879839,0.999998,0.000147,-0.001634,0.003637,0.000687,0.003725,-0.001722,82.692270,0.003729,
1720,1800,-0.616087,-1.048706,0.999998,0.000180,-0.002034,0.004939,0.000453,0.004968,-0.002063,86.295676,0.004992,
940,1320,0.733891,-3.199826,0.999998,0.000180,-0.003513,0.005960,0.000475,0.005984,-0.003536,87.138973,0.006017,
1430,730,-0.401881,-7.212093,0.999997,0.000220,-0.003297,0.005337,0.001439,0.005570,-0.003530,80.783170,0.005636,
1400,370,-0.196721,-8.848020,0.999998,0.000173,-0.001388,0.003926,0.000219,0.003935,-0.001397,87.646865,0.003989,
1530,430,-0.455283,-8.444543,0.999997,0.000210,-0.002034,0.004580,0.000306,0.004594,-0.002048,87.353310,0.004603,
960,970,1.284365,-5.405412,0.999998,0.000166,-0.002264,0.006452,0.000486,0.006479,-0.002291,86.816728,0.006571,
1500,1810,-0.239457,-0.812685,0.999998,0.000168,-0.001308,0.003990,0.000174,0.003996,-0.001314,88.124487,0.004073,
650,390,1.066268,-8.206283,0.999998,0.000167,-0.002492,0.005050,-0.000058,0.005050,-0.002493,-89.558369,0.005050,
1120,850,0.341487,-7.133635,0.999996,0.000256,-0.002252,0.003283,-0.001952,0.003903,-0.002871,-72.400729,0.004045,
1150,500,0.105090,-8.430251,0.999999,0.000129,-0.001422,0.003585,-0.000456,0.003627,-0.001463,-84.837688,0.003649,
1030,70,0.034568,-9.920577,0.999998,0.000155,-0.000231,0.003240,0.000334,0.003271,-0.000263,84.557543,0.003635,
840,990,1.554893,-5.236333,0.999998,0.000208,-0.002015,0.005223,0.000296,0.005235,-0.002027,87.660794,0.005279,
1210,1760,0.020214,-0.894072,0.999999,0.000146,-0.000918,0.003465,0.000059,0.003466,-0.000919,89.231644,0.003591,
1620,930,-1.472185,-5.558036,0.999996,0.000255,-0.002331,0.005524,-0.000645,0.005577,-0.002384,-85.334409,0.005597,
1680,1010,-1.677616,-5.128146,0.999999,0.000146,-0.002079,0.005026,-0.000146,0.005029,-0.002082,-88.819286,0.005054,
980,1620,0.369065,-1.596426,0.999998,0.000179,-0.001964,0.004425,0.000370,0.004446,-0.001985,86.694096,0.004455,
1900,660,-1.698477,-6.695864,0.999997,0.000000,-0.002588,0.005093,-0.000070,0.005093,-0.002589,-89.475523,0.005094,
1680,1260,-1.363787,-3.815957,0.999997,0.000195,-0.002886,0.005533,0.000513,0.005564,-0.002917,86.527115,0.005566,
610,70,0.300551,-9.783257,0.999997,0.000186,-0.002276,0.005569,0.001379,0.005805,-0.002512,80.314162,0.005822,
1450,1180,-0.807862,-3.857055,0.999997,0.000209,-0.003788,0.007015,-0.000450,0.007034,-0.003807,-87.617639,0.007042,
1290,220,-0.038980,-9.439316,0.999998,0.000167,-0.000581,0.003401,-0.000035,0.003401,-0.000581,-89.497893,0.003638,
1600,460,-0.641987,-8.192169,0.999998,0.000187,-0.002395,0.004893,0.000260,0.004902,-0.002404,87.959386,0.004903,
960,350,0.342038,-8.828432,0.999998,0.000185,-0.001765,0.004270,-0.000163,0.004275,-0.001769,-88.457078,0.004296,
1700,100,-0.208467,-9.767565,0.999998,0.000164,-0.000831,0.004122,-0.001143,0.004374,-0.001082,-77.610997,0.004556,
1330,1410,-0.129608,-2.177698,0.999998,0.000164,-0.001726,0.003392,-0.001147,0.003637,-0.001971,-77.931408,0.003641,
900,800,1.007792,-6.391346,0.999998,0.000197,-0.003435,0.006171,0.000241,0.006177,-0.003441,88.561422,0.006191,
980,40,0.016285,-10.014733,0.999999,0.000150,-0.000121,0.003222,0.000395,0.003268,-0.000167,83.347144,0.003681,
1200,790,0.041455,-7.711541,0.999997,0.000204,-0.001411,0.001308,-0.000869,0.001562,-0.001665,-73.710623,0.001865,
1280,680,-0.053104,-7.893889,0.999998,0.000167,-0.001284,0.002598,0.000824,0.002766,-0.001452,78.498705,0.002767,
1810,590,-1.354218,-7.187723,0.999998,0.000179,-0.002570,0.005117,-0.000016,0.005117,-0.002570,-89.882941,0.005117,
900,1590,0.559301,-1.854365,0.999998,0.000213,-0.002279,0.004757,0.000320,0.004771,-0.002293,87.399216,0.004772,
1530,700,-0.704535,-7.069738,0.999998,0.000167,-0.003344,0.005740,0.000525,0.005770,-0.003374,86.706304,0.005798,
1070,1610,0.214432,-1.522002,0.999998,0.000168,-0.001632,0.003971,0.000482,0.004012,-0.001674,85.116115,0.004031,
690,890,1.774674,-5.701420,0.999997,0.000196,-0.002378,0.004930,0.000453,0.004957,-0.002406,86.469228,0.004958,
740,1990,0.130593,-0.178130,0.999999,0.000139,-0.000488,0.003969,-0.001286,0.004314,-0.000833,-75.008170,0.004577,
860,30,0.021998,-10.041530,0.999999,0.000000,-0.000046,0.003312,0.000745,0.003470,-0.000204,78.034767,0.003895,
770,1810,0.543495,-0.972061,0.999997,0.000186,-0.001947,0.004806,-0.000440,0.004834,-0.001975,-86.284951,0.004861,
1630,1720,-0.559726,-1.326122,0.999997,0.000209,-0.001958,0.004771,0.000098,0.004773,-0.001959,89.164443,0.004798,
1200,1690,0.034103,-1.142804,0.999999,0.000128,-0.001067,0.003547,0.000084,0.003548,-0.001068,88.956059,0.003640,
1120,1480,0.151365,-1.951882,0.999998,0.000168,-0.001695,0.003646,0.000795,0.003762,-0.001811,81.714255,0.003763,
1670,2000,-0.081361,-0.129818,0.999998,0.000156,-0.000542,0.003665,0.000986,0.003885,-0.000761,77.445500,0.004117,
1720,1780,-0.652547,-1.148793,0.999998,0.000198,-0.002080,0.004936,0.000344,0.004953,-0.002096,87.198736,0.004973,
1790,280,-0.824178,-8.802286,0.999998,0.000165,-0.002364,0.005056,-0.000186,0.005061,-0.002368,-88.561745,0.005064,
1430,710,-0.383398,-7.317658,0.999997,0.000217,-0.003118,0.005135,0.001412,0.005370,-0.003353,80.554015,0.005425,
940,350,0.378131,-8.805158,0.999998,0.000177,-0.001697,0.004384,-0.000056,0.004384,-0.001698,-89.468067,0.004421,
600,770,1.794110,-6.206137,0.999997,0.000193,-0.002396,0.004892,0.000192,0.004897,-0.002401,88.488398,0.004897,
930,940,1.283261,-5.563202,0.999997,0.000202,-0.002493,0.006137,0.000686,0.006191,-0.002547,85.482370,0.006223,
600,710,1.691053,-6.499121,0.999998,0.000193,-0.002461,0.004999,0.000118,0.005000,-0.002463,89.092174,0.005001,
820,120,0.201769,-9.704237,0.999998,0.000173,-0.000830,0.004054,0.000880,0.004208,-0.000984,80.097226,0.004402,
940,1300,0.768123,-3.318848,0.999998,0.000167,-0.003613,0.006102,0.000384,0.006117,-0.003628,87.739428,0.006152,
1850,1100,-2.016846,-4.721297,0.999999,0.000137,-0.002140,0.004443,0.000117,0.004445,-0.002142,88.984338,0.004446,
650,370,1.035970,-8.308134,0.999998,0.000144,-0.002491,0.005049,-0.000019,0.005049,-0.002491,-89.857948,0.005049,
1560,80,-0.080041,-9.873537,0.999998,0.000144,-0.000368,0.003512,-0.000653,0.003619,-0.000475,-80.691807,0.003933,
1400,70,-0.025417,-9.923031,0.999999,0.000127,-0.000229,0.003154,-0.000250,0.003172,-0.000248,-85.796911,0.003529,
1380,1360,-0.235347,-2.509553,0.999997,0.000202,-0.002489,0.004259,-0.001582,0.004611,-0.002842,-77.437096,0.004652,
1470,1310,-0.557853,-3.097531,0.999997,0.000198,-0.003634,0.005906,-0.000973,0.006004,-0.003733,-84.233775,0.006063,
1480,1810,-0.214764,-0.797813,0.999998,0.000174,-0.001101,0.003935,0.000187,0.003942,-0.001108,87.880614,0.004066,
1070,880,0.618382,-6.553024,0.999995,0.000256,-0.003233,0.005688,-0.002024,0.006125,-0.003671,-77.797736,0.006165,
720,1690,0.858177,-1.632730,0.999998,0.000184,-0.002451,0.005030,0.000028,0.005030,-0.002451,89.782934,0.005031,
1710,880,-1.604035,-5.785148,0.999998,0.000189,-0.002514,0.005192,-0.000580,0.005236,-0.002557,-85.717794,0.005236,
1020,1980,0.040612,-0.178586,0.999998,0.000152,-0.000232,0.003275,-0.000345,0.003309,-0.000265,-84.427162,0.003677,
1150,720,0.099899,-7.708885,0.999998,0.000169,-0.001674,0.002873,-0.001547,0.003349,-0.002151,-72.884045,0.003394,
1640,980,-1.582335,-5.283256,0.999997,0.000197,-0.002046,0.005211,-0.000351,0.005228,-0.002063,-87.235769,0.005267,
1600,440,-0.618561,-8.290402,0.999997,0.000193,-0.002302,0.004875,0.000216,0.004881,-0.002308,88.274508,0.004884,
1460,410,-0.309675,-8.623260,0.999998,0.000166,-0.001712,0.004220,0.000307,0.004236,-0.001728,87.048987,0.004260,
690,940,1.830516,-5.457892,0.999998,0.000169,-0.002262,0.004874,0.000367,0.004893,-0.002280,87.064730,0.004897,
1600,930,-1.423415,-5.568797,0.999997,0.000235,-0.002398,0.005635,-0.000672,0.005691,-0.002453,-85.251237,0.005709,
1900,650,-1.681221,-6.745288,0.999997,0.000000,-0.002588,0.005047,-0.000050,0.005048,-0.002588,-89.623249,0.005048,
1700,1590,-0.892239,-2.071953,0.999998,0.000156,-0.002491,0.005072,-0.000146,0.005075,-0.002493,-88.895529,0.005075,
1500,1050,-1.334950,-4.898482,0.999998,0.000170,-0.001964,0.006518,0.000219,0.006524,-0.001970,88.521075,0.006692,
880,1370,0.856687,-3.039190,0.999998,0.000164,-0.003218,0.005684,0.000228,0.005690,-0.003224,88.534479,0.005707,
1680,1240,-1.402594,-3.924304,0.999998,0.000187,-0.002829,0.005486,0.000552,0.005522,-0.002866,86.220243,0.005524,
1740,560,-1.127331,-7.452553,0.999998,0.000189,-0.002665,0.005218,0.000060,0.005219,-0.002665,89.567392,0.005219,
600,1980,0.348216,-0.348376,0.999997,0.000205,-0.002212,0.005807,-0.001418,0.006051,-0.002455,-80.262550,0.006087,
730,1290,1.454224,-3.703993,0.999998,0.000206,-0.002749,0.005337,-0.000435,0.005360,-0.002772,-86.930628,0.005361,
880,40,0.032703,-10.009237,0.999999,0.000133,-0.000258,0.003359,0.000621,0.003463,-0.000361,80.525892,0.003807,
900,780,0.962298,-6.513884,0.999997,0.000183,-0.003460,0.006147,0.000116,0.006149,-0.003461,89.305488,0.006165,
1330,1390,-0.129379,-2.245066,0.999998,0.000166,-0.001764,0.003361,-0.001279,0.003662,-0.002066,-76.737869,0.003672,
1280,660,-0.053909,-7.948422,0.999998,0.000165,-0.001293,0.002747,0.000736,0.002877,-0.001423,79.992889,0.002877,
1070,1590,0.222430,-1.603462,0.999998,0.000176,-0.001693,0.004032,0.000513,0.004078,-0.001739,84.920401,0.004093,
850,2020,0.031871,-0.053633,0.999998,0.000000,-0.000074,0.003430,-0.000792,0.003601,-0.000245,-77.839406,0.004024,
1590,1460,-0.758523,-2.559795,0.999997,0.000193,-0.002849,0.005319,-0.000352,0.005334,-0.002864,-87.535687,0.005339,
1180,790,0.069437,-7.652006,0.999997,0.000246,-0.001612,0.001719,-0.001434,0.002251,-0.002144,-69.636371,0.002540,
1120,1460,0.153012,-2.025333,0.999998,0.000167,-0.001732,0.003629,0.000920,0.003783,-0.001886,80.530803,0.003783,
940,1280,0.808114,-3.444638,0.999997,0.000191,-0.003670,0.006277,0.000245,0.006284,-0.003676,88.587940,0.006314,
1530,680,-0.676983,-7.183589,0.999998,0.000193,-0.003244,0.005613,0.000581,0.005651,-0.003282,86.260317,0.005676,
980,1600,0.381596,-1.686473,0.999998,0.000175,-0.001992,0.004422,0.000408,0.004448,-0.002017,86.377193,0.004454,
1060,1970,0.035892,-0.205117,0.999999,0.000137,-0.000303,0.003214,-0.000248,0.003232,-0.000320,-85.991057,0.003561,
1720,1760,-0.689748,-1.247502,0.999998,0.000196,-0.002141,0.004944,0.000240,0.004952,-0.002149,88.060099,0.004967,
1570,1360,-0.829464,-3.072144,0.999998,0.000158,-0.003261,0.005722,-0.000248,0.005729,-0.003267,-88.419882,0.005748,
1230,250,0.001123,-9.345148,0.999998,0.000149,-0.000773,0.003418,0.000017,0.003418,-0.000773,89.773863,0.003585,
770,1790,0.579402,-1.066838,0.999997,0.000200,-0.002018,0.004811,-0.000329,0.004827,-0.002034,-87.252410,0.004846,
820,100,0.161801,-9.784994,0.999998,0.000160,-0.000665,0.003900,0.000918,0.004078,-0.000843,79.049607,0.004305,
1430,690,-0.368775,-7.421506,0.999997,0.000219,-0.002946,0.005005,0.001354,0.005229,-0.003170,80.596517,0.005268,
1370,1660,-0.166832,-1.305720,0.999998,0.000176,-0.001283,0.003788,-0.000204,0.003796,-0.001291,-87.702047,0.003860,
790,1860,0.402109,-0.718668,0.999997,0.000190,-0.001758,0.004553,-0.000625,0.004615,-0.001819,-84.402155,0.004649,
1380,70,-0.021906,-9.924177,0.999998,0.000158,-0.000125,0.003122,-0.000213,0.003136,-0.000139,-86.260121,0.003544,
1060,1630,0.225426,-1.454913,0.999998,0.000170,-0.001611,0.004025,0.000408,0.004054,-0.001640,85.882140,0.004079,
1850,160,-0.660897,-9.303722,0.999998,0.000171,-0.002451,0.005179,-0.000395,0.005199,-0.002472,-87.045146,0.005201,
1470,1290,-0.590900,-3.218315,0.999997,0.000214,-0.003773,0.006072,-0.000896,0.006152,-0.003854,-84.843848,0.006218,
1650,760,-1.203734,-6.496615,0.999997,0.000237,-0.003049,0.005719,-0.000349,0.005732,-0.003063,-87.726752,0.005737,
1480,390,-0.332585,-8.685112,0.999998,0.000181,-0.001775,0.004306,0.000261,0.004317,-0.001786,87.543308,0.004339,
1900,640,-1.666368,-6.795476,0.999997,0.000000,-0.002564,0.005004,-0.000031,0.005004,-0.002564,-89.763200,0.005004,
1480,1490,-0.435741,-2.184074,0.999997,0.000216,-0.002484,0.004745,-0.000770,0.004826,-0.002565,-83.984255,0.004830,
650,350,1.002780,-8.408668,0.999998,0.000151,-0.002483,0.005054,-0.000002,0.005054,-0.002483,-89.983578,0.005054,
850,660,0.913058,-7.123913,0.999998,0.000140,-0.003069,0.005577,-0.000157,0.005580,-0.003072,-88.957585,0.005590,
1020,1960,0.054981,-0.242245,0.999998,0.000164,-0.000318,0.003335,-0.000326,0.003364,-0.000347,-84.933437,0.003701,
1330,1820,-0.070769,-0.697639,0.999998,0.000142,-0.000793,0.003478,0.000006,0.003478,-0.000793,89.917681,0.003645,
900,1370,0.791638,-3.000198,0.999997,0.000191,-0.003243,0.005675,0.000320,0.005686,-0.003254,87.950297,0.005706,
1680,1220,-1.442662,-4.035580,0.999997,0.000203,-0.002766,0.005462,0.000619,0.005508,-0.002813,85.721797,0.005509,
600,1960,0.444315,-0.464024,0.999997,0.000208,-0.002302,0.005541,-0.001153,0.005707,-0.002468,-81.806405,0.005725,
1640,960,-1.557900,-5.391723,0.999997,0.000211,-0.002138,0.005283,-0.000517,0.005319,-0.002173,-86.030407,0.005349,
1210,1880,0.011560,-0.485623,0.999998,0.000168,-0.000496,0.003284,0.000008,0.003284,-0.000496,89.878083,0.003541,
900,870,1.183722,-5.955917,0.999997,0.000190,-0.003056,0.006132,0.000638,0.006176,-0.003101,86.043937,0.006176,
1170,1770,0.053832,-0.865723,0.999999,0.000120,-0.000823,0.003526,-0.000036,0.003527,-0.000824,-89.521780,0.003690,
900,760,0.920989,-6.637466,0.999997,0.000181,-0.003460,0.006102,-0.000001,0.006102,-0.003460,-89.991917,0.006120,
1600,420,-0.598052,-8.389051,0.999997,0.000199,-0.002212,0.004819,0.000183,0.004824,-0.002217,88.513784,0.004829,
1070,640,0.255675,-7.764029,0.999998,0.000177,-0.002302,0.004230,-0.001267,0.004467,-0.002539,-79.397838,0.004481,
1510,1610,-0.427343,-1.677413,0.999998,0.000199,-0.002020,0.004530,-0.000358,0.004550,-0.002039,-86.876858,0.004558,
1460,390,-0.299596,-8.707859,0.999998,0.000180,-0.001606,0.004212,0.000220,0.004220,-0.001614,87.833984,0.004259,
1330,1370,-0.128946,-2.315355,0.999998,0.000178,-0.001793,0.003293,-0.001421,0.003663,-0.002163,-75.403152,0.003683,
1280,640,-0.057275,-8.005687,0.999998,0.000163,-0.001318,0.002897,0.000639,0.002992,-0.001412,81.563645,0.002994,
1760,490,-1.078330,-7.784340,0.999998,0.000176,-0.002540,0.005154,0.000101,0.005156,-0.002542,89.247943,0.005156,
790,40,0.052103,-10.003090,0.999999,0.000130,-0.000418,0.003579,0.000946,0.003791,-0.000631,77.335007,0.004063,
1070,1570,0.227321,-1.686573,0.999998,0.000171,-0.001712,0.004033,0.000595,0.004094,-0.001773,84.150861,0.004106,
1590,1100,-1.444950,-4.645472,0.999998,0.000198,-0.002194,0.005548,0.000556,0.005588,-0.002233,85.913405,0.005626,
1780,770,-1.587520,-6.300509,0.999998,0.000181,-0.002575,0.005094,-0.000394,0.005114,-0.002595,-87.064415,0.005114,
1240,1930,-0.002914,-0.322756,0.999999,0.000111,-0.000357,0.003158,0.000002,0.003158,-0.000357,89.964297,0.003459,
630,1140,1.939472,-4.529478,0.999998,0.000186,-0.002201,0.004602,-0.000269,0.004613,-0.002212,-87.743159,0.004614,
850,30,0.022614,-10.040608,0.999999,0.000000,0.000029,0.003373,0.000838,0.003571,-0.000169,76.686036,0.004029,
1640,1210,-1.352273,-4.057978,0.999998,0.000169,-0.002882,0.005634,0.000636,0.005681,-0.002929,85.753994,0.005682,
590,710,1.715199,-6.483479,0.999998,0.000194,-0.002553,0.004952,0.000157,0.004956,-0.002556,88.802841,0.004956,
1070,860,0.539886,-6.674281,0.999996,0.000243,-0.003582,0.005693,-0.001790,0.006026,-0.003916,-79.447643,0.006116,
790,1840,0.443357,-0.809967,0.999997,0.000207,-0.001877,0.004575,-0.000526,0.004617,-0.001919,-85.373544,0.004639,
1560,60,-0.052862,-9.944090,0.999998,0.000154,-0.000242,0.003430,-0.000644,0.003540,-0.000352,-80.339247,0.003900,
1170,1400,0.074635,-2.140924,0.999999,0.000141,-0.001377,0.002908,0.000859,0.003074,-0.001543,79.073919,0.003074,
1230,230,0.001018,-9.412670,0.999998,0.000143,-0.000716,0.003405,0.000009,0.003405,-0.000716,89.877060,0.003591,
1720,1740,-0.724643,-1.346099,0.999998,0.000186,-0.002199,0.004951,0.000140,0.004954,-0.002202,88.879278,0.004964,
980,1580,0.392839,-1.773997,0.999998,0.000175,-0.002053,0.004439,0.000467,0.004472,-0.002086,85.908725,0.004476,
940,1260,0.852197,-3.569682,0.999997,0.000189,-0.003687,0.006389,0.000095,0.006390,-0.003687,89.457350,0.006415,
1120,1440,0.153425,-2.100264,0.999998,0.000157,-0.001782,0.003598,0.001023,0.003786,-0.001970,79.586925,0.003787,
1430,670,-0.361582,-7.516076,0.999997,0.000238,-0.002800,0.004846,0.001278,0.005054,-0.003008,80.755885,0.005085,
1040,1970,0.042974,-0.206632,0.999999,0.000130,-0.000324,0.003253,-0.000268,0.003273,-0.000343,-85.738212,0.003597,
1470,1270,-0.629857,-3.341150,0.999997,0.000209,-0.003859,0.006211,-0.000809,0.006276,-0.003923,-85.433860,0.006341,
770,1770,0.616102,-1.166873,0.999997,0.000199,-0.002109,0.004881,-0.000260,0.004891,-0.002119,-87.876239,0.004905,
820,80,0.121648,-9.861028,0.999998,0.000145,-0.000494,0.003813,0.000968,0.004020,-0.000702,77.898072,0.004295,
1900,630,-1.650639,-6.846150,0.999997,0.000000,-0.002565,0.005049,-0.000025,0.005049,-0.002565,-89.808338,0.005049,
1480,70,-0.043145,-9.917509,0.999999,0.000116,-0.000241,0.003306,-0.000392,0.003349,-0.000284,-83.764960,0.003714,
1640,940,-1.531484,-5.495880,0.999997,0.000208,-0.002259,0.005333,-0.000537,0.005371,-0.002297,-85.976692,0.005390,
1400,1350,-0.292211,-2.627848,0.999995,0.000236,-0.002793,0.004658,-0.001601,0.004987,-0.003123,-78.372486,0.005040,
1240,370,-0.008904,-8.924419,0.999998,0.000150,-0.001103,0.003508,0.000060,0.003509,-0.001104,89.250095,0.003588,
1010,1540,0.351574,-1.903955,0.999997,0.000194,-0.002069,0.004403,0.000650,0.004467,-0.002134,84.318016,0.004469,
1850,140,-0.593598,-9.406164,0.999997,0.000193,-0.002445,0.005253,-0.000551,0.005293,-0.002484,-85.927446,0.005296,
1070,660,0.259285,-7.677117,0.999998,0.000170,-0.002390,0.004313,-0.001347,0.004573,-0.002651,-79.055674,0.004592,
600,1940,0.530622,-0.571060,0.999997,0.000193,-0.002368,0.005384,-0.000809,0.005468,-0.002452,-84.103863,0.005478,
1680,1200,-1.484622,-4.144474,0.999998,0.000194,-0.002670,0.005434,0.000608,0.005479,-0.002715,85.735706,0.005479,
900,740,0.880997,-6.757733,0.999997,0.000193,-0.003428,0.005962,-0.000127,0.005964,-0.003429,-89.228057,0.005986,
760,1350,1.257248,-3.345005,0.999998,0.000203,-0.002876,0.005440,-0.000246,0.005447,-0.002883,-88.307034,0.005451,
980,730,0.584649,-7.026268,0.999997,0.000211,-0.003514,0.005782,-0.000843,0.005858,-0.003589,-84.857433,0.005908,
610,1140,1.982696,-4.541917,0.999998,0.000155,-0.002175,0.004518,-0.000223,0.004525,-0.002183,-88.093632,0.004526,
1280,620,-0.058582,-8.064481,0.999998,0.000164,-0.001328,0.003018,0.000548,0.003086,-0.001396,82.917791,0.003091,
1330,1350,-0.129314,-2.379901,0.999998,0.000175,-0.001849,0.003299,-0.001576,0.003743,-0.002293,-74.262653,0.003775,
840,2020,0.031546,-0.053982,0.999999,0.000000,0.000011,0.003467,-0.000839,0.003660,-0.000182,-77.056013,0.004125,
1150,1820,0.056173,-0.692693,0.999998,0.000168,-0.000725,0.003447,-0.000040,0.003447,-0.000726,-89.456181,0.003634,
850,640,0.883317,-7.235634,0.999998,0.000164,-0.003024,0.005490,-0.000202,0.005495,-0.003029,-88.643691,0.005504,
1740,490,-1.027516,-7.815695,0.999998,0.000172,-0.002545,0.005144,0.000119,0.005146,-0.002547,89.114279,0.005146,
1040,1630,0.257221,-1.478373,0.999998,0.000149,-0.001622,0.004078,0.000358,0.004101,-0.001644,86.419465,0.004128,
1400,1530,-0.247865,-1.856972,0.999998,0.000166,-0.001815,0.004046,-0.000648,0.004117,-0.001885,-83.761898,0.004122,
580,710,1.739350,-6.467889,0.999997,0.000187,-0.002862,0.004805,0.000300,0.004817,-0.002874,87.762104,0.004846,
730,1260,1.512138,-3.864259,0.999997,0.000220,-0.002657,0.005238,-0.000494,0.005268,-0.002688,-86.434394,0.005269,
1160,1930,0.023401,-0.325578,0.999998,0.000175,-0.000310,0.003201,-0.000115,0.003205,-0.000314,-88.126783,0.003533,
940,1240,0.901332,-3.699086,0.999997,0.000183,-0.003668,0.006429,-0.000039,0.006429,-0.003668,-89.777389,0.006450,
1120,1420,0.154710,-2.173064,0.999998,0.000176,-0.001812,0.003573,0.001159,0.003812,-0.002051,78.353083,0.003816,
1720,1720,-0.755579,-1.446552,0.999998,0.000180,-0.002301,0.005001,0.000074,0.005001,-0.002302,89.421833,0.005007,
1760,770,-1.536660,-6.319976,0.999997,0.000232,-0.002627,0.005187,-0.000431,0.005211,-0.002650,-86.848981,0.005211,
1470,1250,-0.671884,-3.467927,0.999997,0.000221,-0.003914,0.006421,-0.000678,0.006465,-0.003958,-86.260510,0.006519,
1640,1190,-1.393380,-4.170766,0.999997,0.000197,-0.002776,0.005627,0.000674,0.005681,-0.002830,85.442398,0.005681,
1430,650,-0.350898,-7.615614,0.999997,0.000220,-0.002708,0.004727,0.001193,0.004914,-0.002895,81.103031,0.004940,
820,60,0.079152,-9.937012,0.999999,0.000146,-0.000320,0.003643,0.000946,0.003857,-0.000534,77.243074,0.004180,
770,1750,0.650310,-1.263119,0.999998,0.000181,-0.002168,0.004833,-0.000157,0.004837,-0.002171,-88.718325,0.004845,
1900,620,-1.632736,-6.896015,0.999997,0.000000,-0.002561,0.005072,-0.000037,0.005072,-0.002561,-89.719451,0.005072,
1500,1970,-0.066019,-0.216634,0.999998,0.000177,-0.000431,0.003399,0.000462,0.003454,-0.000486,83.221802,0.003740,
1200,1610,0.037763,-1.427797,0.999998,0.000158,-0.001219,0.003526,0.000134,0.003529,-0.001223,88.387560,0.003584,
1030,1220,0.608192,-3.497398,0.999996,0.000238,-0.003889,0.006470,0.001104,0.006586,-0.004005,83.984103,0.006637,
1550,1990,-0.056124,-0.151053,0.999998,0.000153,-0.000231,0.003430,0.000606,0.003528,-0.000329,80.838882,0.003898,
1310,700,-0.093878,-7.776398,0.999998,0.000179,-0.001566,0.002911,0.001347,0.003285,-0.001940,74.488461,0.003303,
1460,70,-0.039253,-9.921281,0.999999,0.000106,-0.000182,0.003264,-0.000383,0.003306,-0.000224,-83.735019,0.003695,
1320,390,-0.100927,-8.828812,0.999998,0.000154,-0.001256,0.003654,0.000215,0.003663,-0.001265,87.501789,0.003721,
1570,620,-0.729050,-7.426814,0.999997,0.000202,-0.002962,0.005358,0.000458,0.005383,-0.002987,86.857386,0.005394,
980,1560,0.402512,-1.862721,0.999997,0.000196,-0.002124,0.004528,0.000527,0.004570,-0.002165,85.500423,0.004572,
1230,210,0.001631,-9.481812,0.999998,0.000167,-0.000662,0.003358,-0.000008,0.003358,-0.000662,-89.879117,0.003557,
1640,920,-1.500970,-5.604328,0.999997,0.000204,-0.002385,0.005455,-0.000673,0.005512,-0.002442,-85.128665,0.005524,
1500,550,-0.476343,-7.926855,0.999997,0.000182,-0.002467,0.004800,0.000631,0.004855,-0.002522,85.070538,0.004856,
1630,760,-1.141692,-6.524227,0.999996,0.000247,-0.003171,0.005807,-0.000311,0.005818,-0.003182,-88.018362,0.005827,
900,720,0.848072,-6.874815,0.999997,0.000187,-0.003370,0.005862,-0.000228,0.005867,-0.003375,-88.588155,0.005889,
1530,1420,-0.625724,-2.649001,0.999997,0.000184,-0.003020,0.005328,-0.000609,0.005372,-0.003064,-85.847404,0.005390,
1480,1270,-0.667889,-3.376616,0.999998,0.000184,-0.003835,0.006266,-0.000683,0.006312,-0.003881,-86.147091,0.006367,
650,330,0.969093,-8.510714,0.999998,0.000168,-0.002446,0.005052,0.000006,0.005052,-0.002446,89.953493,0.005053,
840,30,0.022200,-10.041141,0.999998,0.000000,0.000111,0.003420,0.000918,0.003658,-0.000126,75.485198,0.004153,
1680,1180,-1.518147,-4.252179,0.999997,0.000213,-0.002572,0.005328,0.000581,0.005370,-0.002614,85.815962,0.005371,
600,1920,0.606112,-0.679171,0.999997,0.000202,-0.002415,0.005281,-0.000607,0.005329,-0.002463,-85.517127,0.005334,
980,710,0.558007,-7.139780,0.999997,0.000196,-0.003366,0.005656,-0.000906,0.005746,-0.003456,-84.321720,0.005785,
1280,600,-0.059640,-8.125289,0.999998,0.000168,-0.001333,0.003121,0.000458,0.003168,-0.001379,84.190966,0.003176,
1020,1940,0.073156,-0.310689,0.999998,0.000171,-0.000427,0.003408,-0.000336,0.003437,-0.000456,-85.034878,0.003734,
1130,1820,0.073531,-0.699721,0.999998,0.000145,-0.000843,0.003458,-0.000011,0.003458,-0.000843,-89.847620,0.003606,
1840,450,-1.222960,-7.858264,0.999998,0.000152,-0.002514,0.005041,0.000076,0.005042,-0.002515,89.420725,0.005042,
680,1690,0.953726,-1.697168,0.999998,0.000176,-0.002414,0.005042,0.000004,0.005042,-0.002414,89.967071,0.005044,
1490,840,-0.846218,-6.309533,0.999996,0.000239,-0.003809,0.006691,0.000127,0.006692,-0.003811,89.309129,0.006714,
720,1910,0.388020,-0.537290,0.999997,0.000225,-0.001752,0.004710,-0.000953,0.004847,-0.001889,-81.782327,0.004886,
730,1280,1.472979,-3.758977,0.999998,0.000215,-0.002720,0.005297,-0.000460,0.005324,-0.002747,-86.724462,0.005325,
1600,400,-0.577583,-8.482486,0.999997,0.000205,-0.002144,0.004739,0.000134,0.004742,-0.002147,88.885826,0.004749,
1420,330,-0.206519,-8.986885,0.999998,0.000166,-0.001399,0.003885,0.000135,0.003889,-0.001403,88.535161,0.003939,
1120,1400,0.152869,-2.245283,0.999998,0.000188,-0.001851,0.003587,0.001286,0.003876,-0.002140,77.347508,0.003883,
1330,1330,-0.129211,-2.441674,0.999998,0.000186,-0.001933,0.003271,-0.001735,0.003796,-0.002459,-73.156123,0.003851,
940,1220,0.953126,-3.826195,0.999998,0.000175,-0.003590,0.006490,-0.000196,0.006494,-0.003594,-88.887646,0.006506,
1470,1230,-0.723409,-3.601715,0.999996,0.000238,-0.003935,0.006607,-0.000535,0.006634,-0.003962,-87.099915,0.006676,
1410,120,-0.059948,-9.759111,0.999998,0.000172,-0.000485,0.003347,-0.000238,0.003361,-0.000500,-86.456044,0.003627,
770,1730,0.680532,-1.359614,0.999998,0.000175,-0.002199,0.004941,-0.000076,0.004942,-0.002200,-89.386887,0.004952,
820,1070,1.591415,-4.820063,0.999997,0.000176,-0.002074,0.005161,-0.000291,0.005173,-0.002086,-87.697094,0.005205,
1720,1700,-0.784912,-1.546451,0.999997,0.000185,-0.002351,0.005005,0.000049,0.005005,-0.002351,89.619152,0.005009,
1070,1550,0.232637,-1.767242,0.999998,0.000161,-0.001736,0.004010,0.000641,0.004081,-0.001806,83.715936,0.004090,
1430,630,-0.340750,-7.708775,0.999997,0.000211,-0.002584,0.004568,0.001113,0.004737,-0.002753,81.354818,0.004758,
740,1670,0.838804,-1.701186,0.999998,0.000198,-0.002399,0.005053,0.000026,0.005053,-0.002399,89.803556,0.005055,
1900,610,-1.616454,-6.948169,0.999997,0.000000,-0.002551,0.005087,-0.000020,0.005087,-0.002551,-89.848520,0.005087,
860,1710,0.520672,-1.343336,0.999997,0.000194,-0.001951,0.004671,-0.000041,0.004671,-0.001951,-89.643175,0.004692,
1570,600,-0.708134,-7.532548,0.999997,0.000192,-0.002872,0.005276,0.000476,0.005303,-0.002900,86.667040,0.005311,
810,1990,0.093653,-0.162632,0.999998,0.000165,-0.000469,0.003730,-0.000974,0.003945,-0.000684,-77.557380,0.004217,
1480,1970,-0.057646,-0.212374,0.999999,0.000166,-0.000339,0.003363,0.000419,0.003410,-0.000386,83.617663,0.003735,
1890,1270,-1.885349,-3.986524,0.999997,0.000203,-0.002312,0.004647,0.000090,0.004648,-0.002314,89.258890,0.004648,
1850,760,-1.745956,-6.270930,0.999998,0.000167,-0.002463,0.004934,-0.000233,0.004942,-0.002471,-88.195630,0.004942,
650,310,0.937089,-8.612319,0.999998,0.000177,-0.002405,0.005061,0.000088,0.005062,-0.002406,89.323371,0.005064,
1260,390,-0.031908,-8.849309,0.999998,0.000158,-0.001165,0.003556,0.000097,0.003558,-0.001167,88.828559,0.003627,
830,2020,0.031703,-0.055199,0.999999,0.000000,-0.000013,0.003507,-0.000888,0.003718,-0.000224,-76.615951,0.004170,
900,700,0.813437,-6.993724,0.999998,0.000181,-0.003293,0.005765,-0.000304,0.005775,-0.003303,-88.082939,0.005795,
1290,700,-0.065913,-7.821398,0.999999,0.000160,-0.001326,0.002588,0.001058,0.002856,-0.001593,75.807145,0.002862,
1740,850,-1.629077,-5.922649,0.999997,0.000211,-0.002511,0.005110,-0.000526,0.005146,-0.002547,-86.068065,0.005146,
1180,70,0.007361,-9.927740,0.999999,0.000139,-0.000119,0.003066,0.000095,0.003068,-0.000122,88.300245,0.003475,
1720,1210,-1.569569,-4.117142,0.999998,0.000191,-0.002588,0.005248,0.000568,0.005289,-0.002629,85.878076,0.005289,
1280,580,-0.058692,-8.188219,0.999998,0.000179,-0.001339,0.003213,0.000393,0.003246,-0.001372,85.099800,0.003259,
1680,1160,-1.554280,-4.358306,0.999997,0.000226,-0.002488,0.005335,0.000635,0.005386,-0.002539,85.386864,0.005389,
600,1900,0.677711,-0.782800,0.999997,0.000196,-0.002435,0.005159,-0.000429,0.005183,-0.002460,-86.775979,0.005185,
1780,1310,-1.542232,-3.650674,0.999997,0.000196,-0.002613,0.005177,0.000350,0.005193,-0.002629,87.429730,0.005193,
1750,1740,-0.792163,-1.391021,0.999998,0.000201,-0.002389,0.005019,0.000066,0.005020,-0.002389,89.490032,0.005022,
1640,900,-1.462794,-5.714731,0.999997,0.000194,-0.002519,0.005464,-0.000656,0.005518,-0.002573,-85.335288,0.005522,
900,410,0.508008,-8.486921,0.999997,0.000205,-0.002150,0.004708,-0.000229,0.004715,-0.002158,-88.093159,0.004721,
1600,380,-0.555549,-8.578328,0.999996,0.000207,-0.002087,0.004712,0.000097,0.004714,-0.002088,89.180072,0.004724,
1660,410,-0.724750,-8.347017,0.999998,0.000181,-0.002327,0.004964,0.000109,0.004966,-0.002329,89.143662,0.004969,
1420,850,-0.603812,-6.555075,0.999996,0.000262,-0.003772,0.006409,0.001269,0.006565,-0.003928,83.000026,0.006607,
1550,1970,-0.085448,-0.224736,0.999999,0.000137,-0.000353,0.003531,0.000611,0.003624,-0.000447,81.271114,0.003952,
1120,1380,0.153137,-2.315651,0.999998,0.000177,-0.001911,0.003577,0.001373,0.003901,-0.002235,76.710085,0.003915,
940,1200,1.009984,-3.958962,0.999998,0.000184,-0.003466,0.006495,-0.000367,0.006508,-0.003480,-87.894377,0.006513,
670,920,1.855221,-5.547388,0.999998,0.000199,-0.002271,0.004783,0.000324,0.004798,-0.002286,87.372435,0.004800,
1470,1210,-0.781179,-3.736202,0.999997,0.000206,-0.003866,0.006742,-0.000372,0.006755,-0.003879,-87.991374,0.006779,
740,1910,0.357385,-0.522503,0.999997,0.000208,-0.001313,0.004557,-0.001066,0.004745,-0.001501,-80.015619,0.004851,
940,830,0.939061,-6.284324,0.999998,0.000156,-0.003611,0.006494,0.000168,0.006497,-0.003614,89.049413,0.006511,
1180,830,0.130643,-7.587455,0.999996,0.000227,-0.002306,0.001581,-0.000849,0.001759,-0.002483,-78.204656,0.002554,
980,1540,0.413389,-1.954775,0.999998,0.000196,-0.002224,0.004576,0.000598,0.004628,-0.002277,85.015572,0.004628,
1870,640,-1.589808,-6.843327,0.999997,0.000207,-0.002526,0.005061,-0.000056,0.005062,-0.002527,-89.574166,0.005062,
1720,1680,-0.817925,-1.646750,0.999998,0.000168,-0.002388,0.005005,0.000001,0.005005,-0.002388,89.995372,0.005007,
750,540,1.025864,-7.600703,0.999997,0.000182,-0.002636,0.005192,-0.000129,0.005195,-0.002638,-89.057038,0.005195,
1230,190,0.001633,-9.546401,0.999998,0.000177,-0.000594,0.003307,0.000001,0.003307,-0.000594,89.982430,0.003526,
1330,1310,-0.133369,-2.507340,0.999997,0.000205,-0.002068,0.003234,-0.001905,0.003847,-0.002681,-72.149805,0.003945,
1360,1450,-0.185784,-2.098650,0.999999,0.000161,-0.001858,0.003804,-0.000999,0.003976,-0.002030,-80.282488,0.003976,
1490,820,-0.790557,-6.442102,0.999997,0.000236,-0.003869,0.006603,0.000282,0.006611,-0.003876,88.456997,0.006644,
1900,600,-1.599572,-6.998617,0.999996,0.000000,-0.002557,0.005142,0.000015,0.005142,-0.002557,89.885390,0.005142,
820,850,1.370848,-5.991438,0.999998,0.000198,-0.002813,0.005612,0.000635,0.005660,-0.002861,85.713036,0.005660,
1880,620,-1.582120,-6.928610,0.999997,0.000198,-0.002540,0.005074,-0.000031,0.005074,-0.002540,-89.770100,0.005074,
1160,70,0.009906,-9.927961,0.999999,0.000138,-0.000127,0.003070,0.000107,0.003074,-0.000131,88.090521,0.003476,
1240,390,-0.009390,-8.854470,0.999999,0.000135,-0.001138,0.003552,0.000063,0.003553,-0.001139,89.233175,0.003629,
1320,1970,-0.017174,-0.199452,0.999999,0.000150,-0.000221,0.003104,0.000103,0.003107,-0.000224,88.231537,0.003466,
690,870,1.743077,-5.802258,0.999997,0.000200,-0.002429,0.004992,0.000498,0.005026,-0.002462,86.178990,0.005026,
770,1710,0.709847,-1.461637,0.999997,0.000170,-0.002210,0.004944,-0.000053,0.004945,-0.002210,-89.572422,0.004954,
900,680,0.785043,-7.108348,0.999998,0.000184,-0.003216,0.005672,-0.000343,0.005685,-0.003229,-87.792350,0.005703,
810,1970,0.137337,-0.239406,0.999998,0.000156,-0.000636,0.003843,-0.000952,0.004037,-0.000830,-78.490564,0.004264,
1430,610,-0.333235,-7.800599,0.999997,0.000202,-0.002432,0.004554,0.001023,0.004701,-0.002578,81.840617,0.004708,
830,30,0.020695,-10.042345,0.999998,0.000000,0.000025,0.003460,0.000965,0.003713,-0.000228,75.333189,0.004162,
1230,460,0.002632,-8.608011,0.999998,0.000161,-0.001236,0.003492,-0.000002,0.003492,-0.001236,-89.980484,0.003541,
1870,1230,-1.900108,-4.145213,0.999998,0.000162,-0.002278,0.004641,0.000169,0.004645,-0.002282,88.600708,0.004645,
600,1880,0.738439,-0.884811,0.999998,0.000179,-0.002433,0.005146,-0.000350,0.005162,-0.002449,-87.358447,0.005164,
620,1710,1.067095,-1.696991,0.999998,0.000186,-0.002394,0.005015,0.000036,0.005015,-0.002394,89.718460,0.005017,
1680,1140,-1.589815,-4.466041,0.999997,0.000213,-0.002397,0.005247,0.000570,0.005289,-0.002440,85.759351,0.005295,
630,840,1.839121,-5.904399,0.999998,0.000163,-0.002348,0.004753,0.000340,0.004770,-0.002364,87.266620,0.004770,
1050,780,0.404515,-7.014031,0.999996,0.000236,-0.003608,0.005515,-0.001641,0.005802,-0.003894,-80.108152,0.005914,
1640,880,-1.425783,-5.822779,0.999997,0.000206,-0.002660,0.005550,-0.000670,0.005605,-0.002714,-85.368612,0.005606,
1850,740,-1.709808,-6.369315,0.999998,0.000179,-0.002467,0.004945,-0.000208,0.004951,-0.002473,-88.397187,0.004951,
1810,1020,-1.958017,-5.074520,0.999998,0.000162,-0.002141,0.004621,-0.000066,0.004622,-0.002141,-89.443386,0.004626,
1230,1800,0.001115,-0.752709,0.999998,0.000165,-0.000812,0.003432,0.000002,0.003432,-0.000812,89.968661,0.003587,
690,850,1.710634,-5.901392,0.999997,0.000193,-0.002465,0.004959,0.000455,0.004987,-0.002493,86.508253,0.004987,
960,1570,0.441562,-1.848898,0.999997,0.000190,-0.002193,0.004599,0.000501,0.004636,-0.002230,85.807791,0.004637,
1900,590,-1.584854,-7.049553,0.999996,0.000000,-0.002568,0.005124,0.000018,0.005124,-0.002568,89.866806,0.005124,
1070,1530,0.235084,-1.844542,0.999998,0.000171,-0.001770,0.004006,0.000678,0.004084,-0.001849,83.394904,0.004090,
1380,1340,-0.242909,-2.595537,0.999997,0.000201,-0.002642,0.004359,-0.001730,0.004763,-0.003046,-76.852472,0.004824,
1020,1920,0.088211,-0.378861,0.999998,0.000193,-0.000502,0.003427,-0.000286,0.003448,-0.000523,-85.860033,0.003716,
1850,990,-2.032619,-5.206385,0.999999,0.000160,-0.002099,0.004361,-0.000089,0.004363,-0.002100,-89.215086,0.004364,
860,500,0.690582,-7.988730,0.999998,0.000198,-0.002519,0.004973,-0.000321,0.004987,-0.002533,-87.551176,0.004987,
650,290,0.896370,-8.713729,0.999998,0.000173,-0.002393,0.005062,0.000134,0.005065,-0.002396,88.969189,0.005067,
720,2010,0.082074,-0.101301,0.999998,0.000181,-0.000549,0.004042,-0.001437,0.004455,-0.000962,-73.981391,0.004688,
1420,1610,-0.260440,-1.556346,0.999998,0.000179,-0.001641,0.004089,-0.000397,0.004116,-0.001668,-86.051473,0.004141,
1890,930,-2.080607,-5.445759,0.999998,0.000185,-0.002137,0.004308,-0.000124,0.004310,-0.002140,-88.895573,0.004310,
1550,1950,-0.110342,-0.292571,0.999998,0.000152,-0.000446,0.003627,0.000627,0.003721,-0.000540,81.440490,0.004022,
1120,1360,0.151984,-2.384282,0.999998,0.000164,-0.002000,0.003546,0.001551,0.003950,-0.002404,75.392705,0.003981,
1720,1660,-0.847045,-1.748120,0.999998,0.000173,-0.002430,0.005034,-0.000076,0.005035,-0.002431,-89.413167,0.005036,
1330,1290,-0.140381,-2.571746,0.999998,0.000186,-0.002221,0.003198,-0.002058,0.003891,-0.002914,-71.387510,0.004048,
670,900,1.833820,-5.643294,0.999998,0.000165,-0.002309,0.004795,0.000346,0.004812,-0.002326,87.216745,0.004813,
710,400,0.933572,-8.252760,0.999998,0.000191,-0.002453,0.005085,-0.000064,0.005086,-0.002454,-89.512976,0.005087,
880,870,1.243368,-5.931047,0.999998,0.000178,-0.002966,0.005978,0.000672,0.006028,-0.003016,85.726817,0.006028,
1170,1420,0.074473,-2.080594,0.999998,0.000155,-0.001386,0.003025,0.000773,0.003157,-0.001518,80.339745,0.003158,
940,1180,1.070078,-4.089209,0.999997,0.000192,-0.003300,0.006448,-0.000505,0.006474,-0.003326,-87.039740,0.006475,
800,870,1.465922,-5.863934,0.999998,0.000208,-0.002649,0.005452,0.000648,0.005504,-0.002700,85.457607,0.005504,
570,1590,1.368342,-2.377061,0.999929,0.001044,-0.002157,0.005071,-0.000021,0.005071,-0.002157,-89.834173,0.005090,
1640,860,-1.384126,-5.937014,0.999997,0.000220,-0.002789,0.005646,-0.000678,0.005701,-0.002843,-85.433496,0.005701,
1110,840,0.335964,-7.093521,0.999997,0.000225,-0.002780,0.004011,-0.002243,0.004685,-0.003454,-73.276852,0.004858,
900,1100,1.386098,-4.633327,0.999997,0.000210,-0.002200,0.005759,-0.000608,0.005805,-0.002246,-85.654266,0.005854,
940,810,0.887768,-6.414594,0.999997,0.000185,-0.003668,0.006424,-0.000012,0.006424,-0.003668,-89.929398,0.006445,
730,1270,1.493126,-3.812603,0.999997,0.000223,-0.002689,0.005258,-0.000473,0.005286,-0.002717,-86.606688,0.005287,
1210,460,0.025989,-8.602638,0.999998,0.000169,-0.001232,0.003503,-0.000148,0.003507,-0.001237,-88.207869,0.003558,
1220,770,0.013166,-7.765660,0.999998,0.000142,-0.001107,0.001299,-0.000341,0.001347,-0.001155,-82.091526,0.001457,
1160,830,0.176144,-7.481955,0.999997,0.000203,-0.002189,0.002042,-0.001388,0.002457,-0.002604,-73.367098,0.002926,
1470,1190,-0.849703,-3.875180,0.999998,0.000195,-0.003775,0.006886,-0.000198,0.006890,-0.003779,-88.936238,0.006900,
820,2020,0.031213,-0.054415,0.999999,0.000000,-0.000100,0.003516,-0.000903,0.003729,-0.000313,-76.725096,0.004137,
1770,1160,-1.774169,-4.401447,0.999998,0.000181,-0.002369,0.004920,0.000439,0.004947,-0.002395,86.564764,0.004947,
1600,360,-0.533859,-8.670988,0.999997,0.000201,-0.002013,0.004661,0.000021,0.004661,-0.002013,89.816672,0.004676,
900,390,0.488655,-8.581602,0.999997,0.000198,-0.002079,0.004625,-0.000172,0.004630,-0.002083,-88.528145,0.004638,
900,1330,0.856700,-3.232522,0.999998,0.000192,-0.003429,0.005932,0.000187,0.005936,-0.003432,88.859059,0.005960,
1410,200,-0.114490,-9.480635,0.999997,0.000322,-0.000839,0.003590,-0.000161,0.003596,-0.000845,-87.926830,0.003760,
690,1140,1.805087,-4.500081,0.999997,0.000185,-0.002305,0.004860,-0.000349,0.004877,-0.002322,-87.218619,0.004879,
1430,590,-0.326860,-7.887839,0.999997,0.000201,-0.002298,0.004459,0.000929,0.004585,-0.002424,82.309234,0.004587,
1770,270,-0.757439,-8.884335,0.999997,0.000192,-0.002385,0.005024,-0.000229,0.005031,-0.002392,-88.230928,0.005033,
1510,1590,-0.440026,-1.767384,0.999998,0.000178,-0.002152,0.004585,-0.000436,0.004613,-0.002180,-86.313618,0.004616,
1810,570,-1.325254,-7.290687,0.999997,0.000185,-0.002559,0.005139,0.000034,0.005140,-0.002559,89.745878,0.005140,
1590,580,-0.741525,-7.600444,0.999997,0.000206,-0.002755,0.005301,0.000370,0.005318,-0.002772,87.374954,0.005319,
990,1860,0.159647,-0.603114,0.999998,0.000187,-0.000807,0.003770,-0.000306,0.003790,-0.000827,-86.193767,0.003986,
1790,900,-1.826391,-5.644857,0.999998,0.000156,-0.002288,0.004808,-0.000375,0.004827,-0.002308,-86.984563,0.004829,
1820,530,-1.289785,-7.482194,0.999998,0.000168,-0.002552,0.005130,0.000039,0.005130,-0.002552,89.712558,0.005130,
690,830,1.679414,-6.002119,0.999998,0.000168,-0.002516,0.005001,0.000446,0.005027,-0.002542,86.617657,0.005027,
1900,580,-1.571357,-7.103323,0.999997,0.000000,-0.002553,0.005104,0.000011,0.005104,-0.002553,89.914548,0.005104,
1520,1710,-0.367688,-1.249894,0.999998,0.000170,-0.001687,0.004421,-0.000042,0.004421,-0.001687,-89.603561,0.004462,
770,1690,0.740917,-1.559689,0.999998,0.000171,-0.002249,0.004909,-0.000035,0.004909,-0.002249,-89.722101,0.004915,
1380,1320,-0.250759,-2.685246,0.999997,0.000204,-0.002821,0.004450,-0.001868,0.004902,-0.003272,-76.404493,0.004993,
720,2000,0.112742,-0.142768,0.999997,0.000190,-0.000738,0.004120,-0.001412,0.004501,-0.001119,-74.917717,0.004686,
1680,1120,-1.615002,-4.569209,0.999997,0.000194,-0.002287,0.005138,0.000465,0.005167,-0.002316,86.428963,0.005176,
1850,970,-2.023634,-5.294435,0.999998,0.000165,-0.002110,0.004369,-0.000038,0.004369,-0.002110,-89.662790,0.004370,
860,480,0.670666,-8.087805,0.999998,0.000184,-0.002475,0.004981,-0.000287,0.004992,-0.002486,-87.796665,0.004992,
1020,1900,0.103790,-0.448831,0.999998,0.000193,-0.000596,0.003557,-0.000294,0.003578,-0.000617,-85.975498,0.003825,
1440,1630,-0.285400,-1.496956,0.999997,0.000253,-0.001667,0.004152,-0.000342,0.004172,-0.001687,-86.646600,0.004198,
1070,1510,0.240198,-1.924146,0.999998,0.000175,-0.001842,0.004052,0.000737,0.004143,-0.001933,82.983534,0.004146,
1570,340,-0.448019,-8.802482,0.999998,0.000195,-0.001938,0.004538,0.000035,0.004538,-0.001938,89.686370,0.004554,
800,850,1.426580,-5.975992,0.999997,0.000203,-0.002732,0.005525,0.000624,0.005572,-0.002779,85.701121,0.005572,
1570,1400,-0.771724,-2.844977,0.999998,0.000177,-0.003093,0.005559,-0.000370,0.005574,-0.003109,-87.558042,0.005587,
1550,1930,-0.141470,-0.368336,0.999998,0.000163,-0.000577,0.003740,0.000606,0.003824,-0.000660,82.161060,0.004088,
1070,1150,0.735726,-3.667642,0.999996,0.000223,-0.002640,0.005939,0.002802,0.006773,-0.003474,73.423120,0.006774,
650,270,0.858939,-8.815574,0.999998,0.000172,-0.002350,0.005070,0.000186,0.005074,-0.002355,88.562735,0.005079,
730,1250,1.529451,-3.916907,0.999997,0.000210,-0.002628,0.005236,-0.000512,0.005269,-0.002661,-86.292967,0.005269,
670,680,1.459080,-6.749267,0.999997,0.000209,-0.002649,0.005136,0.000216,0.005142,-0.002655,88.408682,0.005143,
940,1160,1.129504,-4.219938,0.999998,0.000188,-0.003074,0.006450,-0.000605,0.006488,-0.003113,-86.381659,0.006490,
1640,840,-1.341890,-6.049681,0.999997,0.000200,-0.002887,0.005640,-0.000629,0.005686,-0.002933,-85.802649,0.005687,
790,1160,1.536301,-4.355006,0.999997,0.000236,-0.002538,0.005344,-0.000626,0.005394,-0.002587,-85.489032,0.005395,
1000,330,0.264805,-8.951658,0.999998,0.000154,-0.001337,0.004085,-0.000032,0.004085,-0.001337,-89.662207,0.004165,
1330,1270,-0.157101,-2.637026,0.999997,0.000207,-0.002358,0.003226,-0.002183,0.003978,-0.003110,-70.988680,0.004183,
570,1580,1.391508,-2.431729,0.999931,0.001066,-0.002039,0.005264,-0.000110,0.005266,-0.002040,-89.139816,0.005310,
1200,770,0.033868,-7.738461,0.999998,0.000183,-0.001198,0.001484,-0.000907,0.001761,-0.001476,-72.968752,0.001891,
710,380,0.904585,-8.355526,0.999997,0.000203,-0.002447,0.005065,-0.000047,0.005066,-0.002448,-89.643847,0.005067,
590,140,0.649213,-9.349057,0.999997,0.000218,-0.002512,0.005280,0.000549,0.005318,-0.002550,85.991912,0.005319,
1810,550,-1.295296,-7.396074,0.999997,0.000197,-0.002553,0.005139,0.000035,0.005139,-0.002553,89.742790,0.005139,
1430,570,-0.321819,-7.977160,0.999997,0.000181,-0.002215,0.004374,0.000871,0.004487,-0.002328,82.597855,0.004488,
1770,250,-0.715236,-8.984665,0.999998,0.000190,-0.002357,0.005002,-0.000301,0.005014,-0.002369,-87.664412,0.005016,
1600,340,-0.507248,-8.764548,0.999997,0.000206,-0.001940,0.004655,-0.000038,0.004655,-0.001941,-89.667754,0.004677,
1710,1760,-0.669188,-1.235786,0.999998,0.000193,-0.002113,0.004910,0.000246,0.004918,-0.002122,87.992664,0.004934,
1850,580,-1.442340,-7.178074,0.999997,0.000204,-0.002563,0.005077,-0.000018,0.005077,-0.002563,-89.863382,0.005077,
1900,570,-1.555099,-7.152991,0.999997,0.000000,-0.002566,0.005086,-0.000006,0.005086,-0.002566,-89.957834,0.005086,
900,1310,0.892465,-3.352256,0.999998,0.000197,-0.003479,0.006038,0.000111,0.006039,-0.003481,89.332985,0.006062,
690,810,1.643461,-6.103321,0.999997,0.000206,-0.002567,0.005109,0.000476,0.005138,-0.002596,86.465520,0.005138,
1700,970,-1.700226,-5.326332,0.999997,0.000214,-0.002156,0.005004,-0.000321,0.005018,-0.002171,-87.436201,0.005034,
980,1520,0.424681,-2.046652,0.999998,0.000192,-0.002337,0.004647,0.000674,0.004711,-0.002402,84.540467,0.004712,
1230,170,0.000246,-9.613302,0.999998,0.000154,-0.000517,0.003280,-0.000003,0.003280,-0.000517,-89.956543,0.003527,
1520,1690,-0.386357,-1.336934,0.999997,0.000200,-0.001772,0.004322,-0.000119,0.004325,-0.001775,-88.886190,0.004348,
1720,1640,-0.872205,-1.849015,0.999998,0.000165,-0.002466,0.005059,-0.000102,0.005061,-0.002467,-89.221879,0.005061,
1620,1570,-0.716599,-2.043307,0.999998,0.000157,-0.002477,0.004990,-0.000262,0.004999,-0.002486,-87.991729,0.004999,
910,1020,1.438390,-5.081561,0.999998,0.000190,-0.001814,0.005586,0.000094,0.005587,-0.001815,89.276129,0.005700,
1420,1250,-0.478820,-3.244363,0.999996,0.000250,-0.003850,0.005916,-0.001464,0.006131,-0.004065,-81.654624,0.006239,
900,1120,1.344133,-4.515641,0.999997,0.000210,-0.002390,0.005889,-0.000719,0.005951,-0.002452,-85.074243,0.005981,
1270,460,-0.047543,-8.597452,0.999998,0.000167,-0.001230,0.003530,0.000145,0.003535,-0.001234,88.259752,0.003588,
670,1140,1.849543,-4.508853,0.999999,0.000129,-0.002283,0.004760,-0.000319,0.004774,-0.002297,-87.411712,0.004775,
1380,1300,-0.264987,-2.775225,0.999997,0.000213,-0.002967,0.004612,-0.001938,0.005079,-0.003434,-76.456673,0.005183,
1680,1100,-1.638608,-4.671778,0.999997,0.000195,-0.002193,0.005183,0.000477,0.005213,-0.002224,86.315260,0.005232,
810,1950,0.179879,-0.316759,0.999998,0.000164,-0.000823,0.003999,-0.000911,0.004165,-0.000989,-79.654558,0.004353,
970,1100,1.224261,-4.558188,0.999997,0.000205,-0.002488,0.006715,-0.000492,0.006741,-0.002514,-86.948464,0.006813,
1510,1570,-0.455246,-1.861237,0.999998,0.000192,-0.002264,0.004654,-0.000484,0.004687,-0.002298,-86.013938,0.004688,
720,1950,0.265935,-0.353135,0.999997,0.000210,-0.001444,0.004422,-0.001168,0.004646,-0.001668,-79.145609,0.004708,
860,460,0.647874,-8.187891,0.999998,0.000198,-0.002401,0.004919,-0.000250,0.004927,-0.002409,-88.049740,0.004928,
1070,1490,0.242024,-2.006149,0.999998,0.000165,-0.001935,0.004052,0.000851,0.004171,-0.002054,82.065011,0.004171,
1460,1630,-0.319286,-1.520130,0.999998,0.000200,-0.001790,0.004268,-0.000377,0.004292,-0.001813,-86.449558,0.004309,
1570,580,-0.685785,-7.638329,0.999998,0.000204,-0.002779,0.005241,0.000458,0.005267,-0.002805,86.743316,0.005271,
730,1230,1.566006,-4.020581,0.999997,0.000209,-0.002601,0.005244,-0.000548,0.005282,-0.002639,-86.022808,0.005282,
960,910,1.114705,-5.802504,0.999998,0.000185,-0.003050,0.006663,0.000516,0.006690,-0.003077,86.966821,0.006697,
1480,1070,-1.262728,-4.741049,0.999997,0.000184,-0.002300,0.007015,0.000246,0.007021,-0.002307,88.487448,0.007158,
980,330,0.292072,-8.934700,0.999998,0.000173,-0.001509,0.004182,-0.000051,0.004183,-0.001510,-89.487370,0.004236,
1850,950,-2.014378,-5.381394,0.999998,0.000186,-0.002142,0.004454,-0.000159,0.004458,-0.002146,-88.618705,0.004459,
1550,1910,-0.168082,-0.442882,0.999998,0.000166,-0.000693,0.003830,0.000549,0.003896,-0.000759,83.179060,0.004131,
1400,450,-0.229008,-8.527372,0.999998,0.000165,-0.001666,0.004042,0.000455,0.004078,-0.001703,85.472899,0.004096,
1070,1140,0.781773,-3.727682,0.999996,0.000231,-0.002499,0.006301,0.003183,0.007332,-0.003529,72.059543,0.007333,
770,1670,0.768784,-1.655929,0.999998,0.000158,-0.002309,0.004973,0.000019,0.004973,-0.002309,89.847628,0.004978,
1590,1400,-0.833289,-2.884415,0.999998,0.000166,-0.003107,0.005551,-0.000262,0.005559,-0.003115,-88.266782,0.005572,
940,1140,1.191427,-4.350932,0.999997,0.000198,-0.002815,0.006402,-0.000673,0.006450,-0.002864,-85.843996,0.006464,
760,730,1.303490,-6.598871,0.999997,0.000215,-0.002882,0.005463,0.000330,0.005476,-0.002895,87.738430,0.005479,
1810,530,-1.264751,-7.497517,0.999997,0.000184,-0.002559,0.005120,0.000040,0.005120,-0.002559,89.700168,0.005120,
1470,1170,-0.919217,-4.012728,0.999997,0.000207,-0.003605,0.006968,-0.000043,0.006969,-0.003605,-89.765359,0.006970,
1640,820,-1.298254,-6.162515,0.999997,0.000187,-0.002954,0.005702,-0.000567,0.005739,-0.002991,-86.270062,0.005741,
1770,230,-0.671458,-9.084289,0.999997,0.000188,-0.002315,0.004991,-0.000392,0.005012,-0.002336,-86.939702,0.005015,
1230,200,0.001649,-9.514079,0.999998,0.000181,-0.000632,0.003317,-0.000002,0.003317,-0.000632,-89.974923,0.003522,
1600,320,-0.482821,-8.858971,0.999997,0.000203,-0.001895,0.004603,-0.000070,0.004604,-0.001896,-89.379937,0.004628,
1700,950,-1.678185,-5.427689,0.999998,0.000190,-0.002224,0.005081,-0.000452,0.005109,-0.002252,-86.473269,0.005120,
1900,560,-1.538781,-7.202825,0.999996,0.000000,-0.002576,0.005083,-0.000024,0.005083,-0.002576,-89.821008,0.005083,
760,650,1.161698,-7.032246,0.999998,0.000185,-0.002839,0.005362,0.000085,0.005363,-0.002840,89.404832,0.005366,
760,1270,1.409176,-3.782448,0.999997,0.000207,-0.002815,0.005437,-0.000504,0.005468,-0.002846,-86.520170,0.005470,
1430,550,-0.314811,-8.063462,0.999998,0.000181,-0.002153,0.004361,0.000817,0.004462,-0.002254,82.958613,0.004462,
1120,1910,0.045910,-0.394916,0.999999,0.000135,-0.000479,0.003268,-0.000117,0.003272,-0.000483,-88.212815,0.003532,
690,790,1.607429,-6.204735,0.999998,0.000193,-0.002572,0.005109,0.000442,0.005135,-0.002597,86.716323,0.005135,
1230,150,-0.000452,-9.676915,0.999998,0.000147,-0.000440,0.003223,-0.000005,0.003223,-0.000440,-89.929608,0.003495,
1510,1550,-0.469726,-1.958120,0.999997,0.000208,-0.002317,0.004715,-0.000540,0.004756,-0.002359,-85.635193,0.004756,
720,1770,0.722349,-1.228646,0.999997,0.000187,-0.002286,0.005032,-0.000201,0.005037,-0.002291,-88.430090,0.005044,
1030,390,0.256708,-8.733637,0.999998,0.000189,-0.001519,0.004080,-0.000232,0.004090,-0.001528,-87.629363,0.004133,
940,570,0.548693,-7.783212,0.999997,0.000203,-0.002672,0.004985,-0.000614,0.005034,-0.002721,-85.446705,0.005039,
880,1330,0.922306,-3.272347,0.999998,0.000183,-0.003281,0.005903,0.000050,0.005903,-0.003282,89.688286,0.005915,
1810,1160,-1.866053,-4.422154,0.999997,0.000207,-0.002262,0.004736,0.000306,0.004749,-0.002275,87.503628,0.004751,
810,1930,0.221109,-0.399005,0.999998,0.000193,-0.001014,0.004136,-0.000874,0.004280,-0.001158,-80.629160,0.004428,
720,1930,0.328156,-0.445624,0.999998,0.000194,-0.001621,0.004643,-0.001106,0.004833,-0.001810,-80.273361,0.004883,
570,1570,1.405217,-2.483774,0.999903,0.001227,-0.002079,0.005363,-0.000076,0.005364,-0.002080,-89.411665,0.005408,
950,1100,1.272453,-4.588215,0.999998,0.000203,-0.002372,0.006363,-0.000572,0.006401,-0.002410,-86.270429,0.006465,
900,1140,1.298890,-4.396770,0.999997,0.000200,-0.002623,0.005982,-0.000716,0.006041,-0.002683,-85.277514,0.006054,
1600,1570,-0.667186,-2.011202,0.999998,0.000201,-0.002452,0.004955,-0.000308,0.004967,-0.002465,-87.621692,0.004967,
1850,60,-0.247346,-9.845227,0.999997,0.000207,-0.002128,0.005330,-0.001511,0.005625,-0.002423,-78.967644,0.005643,
860,440,0.626660,-8.286975,0.999998,0.000232,-0.002318,0.004875,-0.000228,0.004882,-0.002325,-88.188655,0.004884,
1250,460,-0.022003,-8.604012,0.999998,0.000189,-0.001252,0.003512,0.000136,0.003516,-0.001256,88.366477,0.003563,
1630,860,-1.354886,-5.944848,0.999996,0.000223,-0.002837,0.005693,-0.000668,0.005745,-0.002890,-85.546503,0.005745,
730,1240,1.548091,-3.968322,0.999997,0.000206,-0.002615,0.005240,-0.000530,0.005276,-0.002651,-86.154179,0.005276,
820,30,0.017863,-10.041782,0.999999,0.000000,-0.000142,0.003500,0.000965,0.003740,-0.000381,76.038761,0.004116,
1170,1750,0.057654,-0.936071,0.999999,0.000137,-0.000870,0.003543,0.000001,0.003543,-0.000870,89.983649,0.003693,
1640,1650,-0.671114,-1.679145,0.999997,0.000198,-0.002297,0.004905,-0.000120,0.004907,-0.002299,-89.046731,0.004911,
1400,430,-0.222793,-8.610439,0.999997,0.000173,-0.001609,0.004008,0.000415,0.004039,-0.001640,85.799660,0.004062,
650,250,0.814534,-8.917890,0.999998,0.000169,-0.002326,0.005080,0.000281,0.005090,-0.002337,87.828547,0.005096,
1070,1470,0.245600,-2.084754,0.999998,0.000156,-0.002039,0.004088,0.000970,0.004237,-0.002189,81.217663,0.004238,
1720,1620,-0.903224,-1.952091,0.999998,0.000158,-0.002486,0.005078,-0.000087,0.005079,-0.002487,-89.344800,0.005079,
730,1210,1.603002,-4.128180,0.999997,0.000201,-0.002549,0.005190,-0.000545,0.005229,-0.002587,-85.994984,0.005229,
1280,560,-0.059764,-8.252798,0.999998,0.000164,-0.001323,0.003281,0.000337,0.003306,-0.001347,85.839706,0.003325,
910,1000,1.428253,-5.193346,0.999998,0.000183,-0.001910,0.005702,0.000308,0.005714,-0.001922,87.685880,0.005815,
1300,1970,-0.014595,-0.197933,0.999998,0.000153,-0.000175,0.003094,0.000088,0.003097,-0.000177,88.466300,0.003478,
1550,1890,-0.196560,-0.521897,0.999998,0.000184,-0.000836,0.003894,0.000525,0.003952,-0.000894,83.738536,0.004145,
1460,370,-0.287457,-8.791592,0.999998,0.000176,-0.001500,0.004167,0.000170,0.004172,-0.001505,88.279856,0.004225,
1380,1280,-0.283074,-2.868696,0.999997,0.000208,-0.003142,0.004755,-0.002037,0.005250,-0.003637,-76.353516,0.005378,
1000,910,0.987032,-5.920017,0.999997,0.000213,-0.003367,0.007113,0.000029,0.007113,-0.003367,89.843727,0.007116,
740,730,1.360940,-6.573988,0.999997,0.000251,-0.002780,0.005375,0.000339,0.005389,-0.002794,87.621879,0.005391,
1650,1400,-1.015885,-2.992992,0.999998,0.000157,-0.002970,0.005497,-0.000025,0.005497,-0.002971,-89.830231,0.005503,
940,1120,1.246883,-4.475453,0.999997,0.000196,-0.002592,0.006296,-0.000653,0.006344,-0.002640,-85.823057,0.006374,
1600,300,-0.457876,-8.949328,0.999997,0.000199,-0.001853,0.004501,-0.000133,0.004504,-0.001855,-88.802344,0.004527,
1700,1730,-0.695599,-1.369408,0.999997,0.000187,-0.002171,0.004947,0.000103,0.004948,-0.002173,89.168859,0.004961,
1860,1830,-0.870943,-1.130573,0.999998,0.000206,-0.002446,0.005017,0.000152,0.005020,-0.002449,88.832046,0.005021,
1450,180,-0.130074,-9.540062,0.999998,0.000275,-0.000709,0.003622,-0.000277,0.003639,-0.000727,-86.350550,0.003852,
1810,510,-1.234779,-7.600296,0.999997,0.000186,-0.002558,0.005134,0.000056,0.005135,-0.002559,89.580881,0.005135,
1680,1080,-1.662646,-4.776874,0.999997,0.000204,-0.002123,0.005095,0.000305,0.005108,-0.002136,87.586097,0.005131,
1640,800,-1.255773,-6.278575,0.999997,0.000203,-0.003031,0.005753,-0.000486,0.005780,-0.003057,-86.841276,0.005783,
890,640,0.763311,-7.313031,0.999997,0.000210,-0.003065,0.005483,-0.000388,0.005500,-0.003083,-87.404755,0.005514,
1770,210,-0.621983,-9.183740,0.999997,0.000205,-0.002247,0.005039,-0.000511,0.005075,-0.002283,-86.009518,0.005083,
1500,1130,-1.154410,-4.369669,0.999998,0.000181,-0.002837,0.006646,0.000532,0.006675,-0.002867,86.798972,0.006698,
1120,1340,0.152420,-2.455794,0.999998,0.000177,-0.002112,0.003547,0.001716,0.004027,-0.002592,74.386567,0.004082,
1900,550,-1.524046,-7.254516,0.999996,0.000000,-0.002560,0.005132,-0.000010,0.005132,-0.002560,-89.925671,0.005132,
690,770,1.570633,-6.307140,0.999997,0.000204,-0.002595,0.005120,0.000405,0.005141,-0.002616,87.001926,0.005141,
1070,1130,0.824795,-3.792178,0.999995,0.000245,-0.002446,0.006899,0.003520,0.008076,-0.003623,71.504377,0.008090,
740,650,1.218714,-7.003390,0.999998,0.000187,-0.002785,0.005314,0.000127,0.005316,-0.002787,89.098574,0.005318,
720,1990,0.145376,-0.185662,0.999998,0.000187,-0.000894,0.004199,-0.001383,0.004550,-0.001245,-75.744954,0.004703,
900,1160,1.248438,-4.276485,0.999997,0.000200,-0.002837,0.006055,-0.000720,0.006113,-0.002895,-85.402137,0.006115,
1430,530,-0.308245,-8.151958,0.999998,0.000178,-0.002098,0.004311,0.000758,0.004399,-0.002186,83.345015,0.004399,
770,1650,0.795183,-1.757460,0.999998,0.000165,-0.002384,0.005004,0.000084,0.005005,-0.002385,89.350749,0.005006,
1610,860,-1.297704,-5.962782,0.999997,0.000207,-0.002905,0.005801,-0.000654,0.005850,-0.002954,-85.730352,0.005850,
830,1760,0.510245,-1.141910,0.999997,0.000191,-0.001799,0.004692,-0.000236,0.004700,-0.001808,-87.923607,0.004742,
890,1800,0.348047,-0.903131,0.999998,0.000159,-0.001531,0.004278,-0.000234,0.004287,-0.001540,-87.701367,0.004343,
1680,970,-1.656187,-5.329016,0.999998,0.000175,-0.002180,0.005088,-0.000358,0.005106,-0.002197,-87.188669,0.005122,
1510,780,-0.770846,-6.640853,0.999997,0.000206,-0.003735,0.006289,0.000349,0.006301,-0.003747,88.008920,0.006338,
1330,1250,-0.177715,-2.701237,0.999997,0.000225,-0.002451,0.003180,-0.002216,0.003948,-0.003218,-70.893813,0.004201,
860,420,0.604394,-8.385212,0.999998,0.000218,-0.002223,0.004823,-0.000174,0.004827,-0.002228,-88.584179,0.004832,
1850,1320,-1.702357,-3.686544,0.999997,0.000179,-0.002479,0.004905,0.000197,0.004910,-0.002484,88.470895,0.004911,
1150,460,0.101746,-8.577292,0.999998,0.000191,-0.001392,0.003634,-0.000342,0.003658,-0.001415,-86.123832,0.003689,
580,140,0.675098,-9.324998,0.999997,0.000227,-0.002927,0.005345,0.000414,0.005366,-0.002947,87.139129,0.005374,
1070,1450,0.249163,-2.168348,0.999998,0.000165,-0.002149,0.004169,0.001094,0.004353,-0.002333,80.447846,0.004356,
1020,810,0.579600,-6.691942,0.999997,0.000213,-0.003912,0.006233,-0.001079,0.006347,-0.004025,-83.995098,0.006422,
920,570,0.602718,-7.743136,0.999997,0.000198,-0.002677,0.005077,-0.000543,0.005115,-0.002715,-86.012327,0.005119,
1790,1160,-1.820840,-4.411104,0.999998,0.000167,-0.002319,0.004827,0.000377,0.004847,-0.002339,86.986007,0.004848,
1030,410,0.268460,-8.652594,0.999998,0.000210,-0.001562,0.004092,-0.000294,0.004108,-0.001577,-87.031345,0.004144,
1850,930,-1.992739,-5.470930,0.999998,0.000177,-0.002173,0.004549,-0.000260,0.004559,-0.002183,-87.789098,0.004560,
1280,770,-0.055580,-7.694856,0.999998,0.000187,-0.001408,0.001808,0.001317,0.002278,-0.001879,70.338298,0.002433,
810,2020,0.033109,-0.055181,0.999999,0.000000,-0.000226,0.003513,-0.000906,0.003721,-0.000434,-77.077292,0.004069,
730,1190,1.636432,-4.230103,0.999998,0.000193,-0.002499,0.005115,-0.000537,0.005153,-0.002537,-85.988256,0.005153,
1550,1870,-0.223348,-0.598877,0.999998,0.000179,-0.000943,0.003976,0.000469,0.004020,-0.000987,84.599163,0.004190,
1510,1530,-0.483858,-2.052501,0.999998,0.000195,-0.002352,0.004751,-0.000588,0.004800,-0.002401,-85.299862,0.004800,
1380,1260,-0.312794,-2.969942,0.999997,0.000216,-0.003359,0.004919,-0.002090,0.005417,-0.003856,-76.603735,0.005576,
1150,1780,0.067715,-0.832836,0.999999,0.000135,-0.000852,0.003530,0.000013,0.003530,-0.000852,89.832663,0.003684,
1770,1420,-1.322081,-3.064408,0.999997,0.000204,-0.002678,0.005189,0.000105,0.005190,-0.002680,89.235136,0.005191,
640,590,1.387474,-7.168330,0.999998,0.000194,-0.002564,0.005140,0.000039,0.005140,-0.002564,89.710584,0.005140,
940,1100,1.297061,-4.602297,0.999997,0.000215,-0.002330,0.006209,-0.000604,0.006252,-0.002372,-85.976572,0.006312,
1240,830,-0.025490,-7.704664,0.999997,0.000187,-0.003075,0.001356,0.000065,0.001357,-0.003076,89.155863,0.003083,
1000,890,0.910504,-6.061970,0.999996,0.000257,-0.003621,0.007026,-0.000105,0.007027,-0.003622,-89.436979,0.007028,
970,1040,1.327461,-4.959857,0.999998,0.000213,-0.002008,0.006600,-0.000107,0.006601,-0.002010,-89.287906,0.006767,
1720,1600,-0.928333,-2.053016,0.999998,0.000174,-0.002525,0.005074,-0.000114,0.005076,-0.002527,-89.141188,0.005076,
1810,490,-1.204639,-7.702285,0.999998,0.000179,-0.002546,0.005112,0.000069,0.005112,-0.002547,89.480302,0.005112,
1840,1830,-0.820915,-1.087816,0.999998,0.000161,-0.002453,0.005085,0.000193,0.005090,-0.002457,88.530726,0.005091,
980,1500,0.437815,-2.140262,0.999997,0.000204,-0.002435,0.004734,0.000736,0.004809,-0.002510,84.201262,0.004810,
1790,1060,-1.905089,-4.887387,0.999998,0.000158,-0.002174,0.004683,0.000133,0.004685,-0.002176,88.885726,0.004689,
1680,1060,-1.669130,-4.876963,0.999998,0.000165,-0.002056,0.005009,0.000189,0.005014,-0.002061,88.469782,0.005041,
1600,280,-0.429991,-9.039224,0.999997,0.000188,-0.001789,0.004524,-0.000218,0.004532,-0.001797,-88.025667,0.004564,
1770,190,-0.572194,-9.286453,0.999997,0.000198,-0.002202,0.004999,-0.000624,0.005053,-0.002256,-85.086555,0.005062,
1210,180,0.011062,-9.578272,0.999998,0.000178,-0.000542,0.003296,0.000006,0.003296,-0.000542,89.907749,0.003535,
590,1330,1.741259,-3.669690,0.999997,0.000197,-0.002484,0.004930,-0.000072,0.004931,-0.002485,-89.441163,0.004931,
690,750,1.533797,-6.411184,0.999996,0.000220,-0.002612,0.005202,0.000356,0.005218,-0.002628,87.394674,0.005218,
740,630,1.185567,-7.109312,0.999998,0.000175,-0.002785,0.005297,0.000058,0.005298,-0.002786,89.589154,0.005300,
1900,540,-1.508375,-7.307067,0.999996,0.000000,-0.002534,0.005135,-0.000017,0.005135,-0.002534,-89.871080,0.005135,
720,1970,0.205579,-0.268434,0.999998,0.000165,-0.001215,0.004175,-0.001207,0.004433,-0.001473,-77.933768,0.004515,
1430,510,-0.300434,-8.239197,0.999998,0.000175,-0.002013,0.004281,0.000676,0.004352,-0.002085,83.938714,0.004354,
980,610,0.469897,-7.671371,0.999997,0.000217,-0.002708,0.004982,-0.000844,0.005073,-0.002799,-83.807497,0.005083,
900,1600,0.551267,-1.807185,0.999997,0.000218,-0.002239,0.004754,0.000316,0.004768,-0.002253,87.419793,0.004770,
810,1780,0.515372,-1.068376,0.999997,0.000205,-0.001929,0.004673,-0.000277,0.004684,-0.001941,-87.599473,0.004707,
860,400,0.583709,-8.478300,0.999998,0.000211,-0.002146,0.004753,-0.000110,0.004755,-0.002148,-89.090176,0.004762,
910,1180,1.165649,-4.140976,0.999997,0.000199,-0.003088,0.006192,-0.000634,0.006235,-0.003131,-86.112180,0.006235,
1610,840,-1.253462,-6.079322,0.999996,0.000235,-0.003013,0.005850,-0.000599,0.005890,-0.003054,-86.151722,0.005891,
730,860,1.627851,-5.876407,0.999998,0.000191,-0.002530,0.005120,0.000531,0.005157,-0.002566,86.046949,0.005157,
1260,770,-0.032432,-7.744905,0.999998,0.000162,-0.001184,0.001431,0.000837,0.001676,-0.001429,73.684318,0.001810,
1190,1300,0.044551,-2.340077,0.999998,0.000170,-0.001219,0.001800,0.001086,0.002150,-0.001569,72.134181,0.002225,
1070,1430,0.252549,-2.255959,0.999998,0.000166,-0.002236,0.004158,0.001185,0.004370,-0.002448,79.833831,0.004381,
1550,1850,-0.250939,-0.680718,0.999998,0.000198,-0.001064,0.004070,0.000452,0.004109,-0.001104,85.012268,0.004253,
1430,940,-0.996061,-5.852908,0.999997,0.000197,-0.003296,0.007727,0.001186,0.007853,-0.003423,83.928582,0.007875,
770,1630,0.822815,-1.858201,0.999998,0.000159,-0.002431,0.005009,0.000128,0.005011,-0.002433,89.012549,0.005012,
1130,460,0.131547,-8.559569,0.999998,0.000172,-0.001395,0.003701,-0.000362,0.003727,-0.001420,-85.952380,0.003762,
980,910,1.052778,-5.850398,0.999997,0.000210,-0.003179,0.006897,0.000292,0.006905,-0.003187,88.343128,0.006912,
1380,1240,-0.350710,-3.069019,0.999996,0.000233,-0.003437,0.005112,-0.002080,0.005592,-0.003916,-77.025116,0.005739,
650,230,0.769259,-9.020826,0.999998,0.000185,-0.002289,0.005093,0.000374,0.005112,-0.002308,87.105872,0.005120,
1310,1780,-0.063558,-0.832107,0.999999,0.000158,-0.000833,0.003537,0.000007,0.003537,-0.000833,89.903235,0.003698,
1750,1760,-0.757431,-1.290407,0.999998,0.000175,-0.002354,0.005029,0.000146,0.005032,-0.002357,88.863992,0.005035,
640,570,1.357474,-7.271962,0.999997,0.000189,-0.002561,0.005134,-0.000006,0.005134,-0.002561,-89.951853,0.005134,
730,1170,1.668610,-4.333142,0.999998,0.000183,-0.002423,0.005109,-0.000554,0.005149,-0.002464,-85.812017,0.005151,
1810,470,-1.177077,-7.806262,0.999998,0.000174,-0.002514,0.005102,0.000078,0.005103,-0.002515,89.409556,0.005103,
1070,1520,0.237547,-1.884651,0.999998,0.000168,-0.001803,0.004026,0.000699,0.004109,-0.001886,83.258740,0.004113,
940,1520,0.522350,-2.120200,0.999997,0.000182,-0.002443,0.004853,0.000541,0.004893,-0.002483,85.782710,0.004894,
1330,1230,-0.227164,-2.762546,0.999997,0.000230,-0.002498,0.003034,-0.002087,0.003733,-0.003197,-71.483362,0.004037,
570,140,0.698508,-9.300481,0.999871,0.001411,-0.003155,0.005431,0.000259,0.005439,-0.003162,88.272033,0.005463,
1230,830,0.003171,-7.708776,0.999993,0.000307,-0.003176,0.001291,0.000028,0.001291,-0.003176,89.638396,0.003194,
1680,1040,-1.680076,-4.977772,0.999998,0.000171,-0.002050,0.005026,0.000144,0.005029,-0.002053,88.838329,0.005057,
950,1040,1.366269,-4.963923,0.999998,0.000200,-0.001864,0.006109,-0.000136,0.006111,-0.001867,-89.025455,0.006264,
1850,910,-1.972025,-5.563498,0.999998,0.000164,-0.002182,0.004537,-0.000218,0.004544,-0.002189,-88.140885,0.004545,
1720,1580,-0.954612,-2.153562,0.999998,0.000170,-0.002568,0.005112,-0.000128,0.005114,-0.002571,-89.044666,0.005114,
1030,430,0.275693,-8.569359,0.999998,0.000205,-0.001638,0.004107,-0.000346,0.004128,-0.001659,-86.567386,0.004154,
1600,260,-0.400805,-9.129712,0.999998,0.000178,-0.001684,0.004399,-0.000264,0.004410,-0.001695,-87.521868,0.004449,
1300,1670,-0.075809,-1.223400,0.999999,0.000139,-0.001108,0.003581,-0.000086,0.003582,-0.001110,-88.952911,0.003668,
1510,1510,-0.496524,-2.147250,0.999997,0.000208,-0.002420,0.004836,-0.000599,0.004885,-0.002469,-85.312998,0.004885,
830,1780,0.478254,-1.048194,0.999998,0.000172,-0.001709,0.004579,-0.000319,0.004596,-0.001725,-87.101241,0.004643,
1770,170,-0.517909,-9.384986,0.999998,0.000208,-0.002112,0.004977,-0.000788,0.005064,-0.002199,-83.730429,0.005078,
880,1390,0.826817,-2.926104,0.999998,0.000150,-0.003157,0.005573,0.000268,0.005581,-0.003165,88.244964,0.005598,
810,30,0.024299,-10.042158,0.999998,0.000000,-0.000337,0.003529,0.000940,0.003746,-0.000554,77.032078,0.004044,
690,730,1.498629,-6.515926,0.999996,0.000216,-0.002641,0.005207,0.000333,0.005221,-0.002655,87.572591,0.005221,
730,560,1.107813,-7.463995,0.999998,0.000166,-0.002671,0.005213,-0.000078,0.005214,-0.002672,-89.432365,0.005215,
1900,530,-1.492870,-7.358003,0.999996,0.000000,-0.002523,0.005099,-0.000022,0.005099,-0.002523,-89.833995,0.005099,
1510,180,-0.179932,-9.517219,0.999998,0.000175,-0.001015,0.003797,-0.000356,0.003823,-0.001042,-85.788797,0.003953,
1430,490,-0.292639,-8.324599,0.999998,0.000169,-0.001884,0.004234,0.000601,0.004293,-0.001943,84.439013,0.004299,
810,1760,0.546031,-1.162391,0.999997,0.000190,-0.002000,0.004745,-0.000206,0.004751,-0.002006,-88.250272,0.004770,
1730,2010,-0.077409,-0.100147,0.999998,0.000164,-0.000294,0.003932,0.001397,0.004353,-0.000714,73.260736,0.004669,
900,1580,0.566988,-1.902363,0.999997,0.000204,-0.002331,0.004786,0.000333,0.004802,-0.002347,87.325233,0.004802,
860,380,0.560921,-8.573998,0.999997,0.000208,-0.002093,0.004712,-0.000073,0.004712,-0.002093,-89.387413,0.004722,
910,420,0.496345,-8.455478,0.999997,0.000210,-0.002148,0.004688,-0.000245,0.004697,-0.002157,-87.952886,0.004702,
1780,890,-1.790514,-5.697817,0.999997,0.000192,-0.002335,0.004909,-0.000450,0.004936,-0.002362,-86.458927,0.004938,
1140,390,0.104945,-8.826069,0.999999,0.000133,-0.001274,0.003652,-0.000237,0.003664,-0.001285,-87.253374,0.003718,
1550,1830,-0.278480,-0.761943,0.999998,0.000184,-0.001137,0.004095,0.000376,0.004122,-0.001164,85.908797,0.004250,
1640,780,-1.215525,-6.393433,0.999997,0.000219,-0.003081,0.005770,-0.000411,0.005789,-0.003100,-87.348537,0.005794,
1380,1220,-0.406146,-3.177552,0.999996,0.000256,-0.003469,0.005182,-0.002016,0.005629,-0.003916,-77.508360,0.005770,
1850,220,-0.833044,-8.995446,0.999998,0.000163,-0.002423,0.005045,-0.000169,0.005048,-0.002427,-88.702244,0.005050,
1850,1760,-0.996855,-1.458659,0.999998,0.000218,-0.002437,0.005013,-0.000004,0.005013,-0.002437,-89.968402,0.005013,
1900,520,-1.476357,-7.408135,0.999997,0.000000,-0.002497,0.005084,-0.000020,0.005084,-0.002497,-89.849640,0.005084,
650,210,0.717716,-9.124094,0.999998,0.000195,-0.002282,0.005139,0.000465,0.005168,-0.002311,86.425970,0.005177,
1220,830,0.033842,-7.703313,0.999997,0.000198,-0.003044,0.001296,-0.000029,0.001296,-0.003045,-89.612969,0.003056,
880,850,1.193358,-6.051326,0.999998,0.000208,-0.003107,0.006032,0.000610,0.006073,-0.003148,86.200750,0.006074,
690,710,1.460419,-6.619067,0.999996,0.000221,-0.002666,0.005182,0.000299,0.005194,-0.002677,87.822551,0.005195,
1680,1020,-1.681985,-5.077380,0.999998,0.000172,-0.002064,0.005031,-0.000073,0.005032,-0.002065,-89.406619,0.005059,
1510,140,-0.132573,-9.667037,0.999998,0.000152,-0.000767,0.003632,-0.000402,0.003668,-0.000804,-84.819284,0.003856,
1600,240,-0.371506,-9.217539,0.999998,0.000189,-0.001578,0.004405,-0.000338,0.004424,-0.001597,-86.777651,0.004481,
1820,650,-1.478258,-6.866089,0.999998,0.000174,-0.002608,0.005138,-0.000114,0.005140,-0.002609,-89.155715,0.005140,
1810,450,-1.147908,-7.906801,0.999998,0.000174,-0.002511,0.005070,0.000092,0.005071,-0.002512,89.303524,0.005071,
1070,1410,0.256923,-2.336769,0.999998,0.000163,-0.002296,0.004243,0.001286,0.004487,-0.002540,79.260662,0.004500,
1430,920,-0.914589,-6.003835,0.999997,0.000217,-0.003291,0.007337,0.001043,0.007438,-0.003392,84.445235,0.007448,
1470,1150,-0.992514,-4.149378,0.999997,0.000200,-0.003397,0.007033,0.000108,0.007034,-0.003398,89.405791,0.007036,
600,1860,0.799447,-0.988341,0.999998,0.000165,-0.002433,0.005018,-0.000252,0.005026,-0.002442,-88.068864,0.005027,
570,90,0.504363,-9.577693,0.999476,0.002801,-0.003387,0.006428,0.001909,0.006786,-0.003745,79.371694,0.006798,
860,360,0.538935,-8.666423,0.999997,0.000184,-0.002022,0.004639,-0.000022,0.004639,-0.002022,-89.815051,0.004652,
1330,1210,-0.286194,-2.823818,0.999996,0.000246,-0.002243,0.002748,-0.001695,0.003269,-0.002765,-72.906463,0.003520,
800,2020,0.036414,-0.058259,0.999998,0.000000,-0.000364,0.003534,-0.000915,0.003738,-0.000568,-77.424403,0.004029,
750,1520,1.019031,-2.454337,0.999997,0.000203,-0.002622,0.005211,0.000117,0.005213,-0.002624,89.146224,0.005213,
730,1150,1.700909,-4.434844,0.999998,0.000181,-0.002332,0.005064,-0.000497,0.005097,-0.002366,-86.172210,0.005102,
1190,700,0.041957,-7.854235,0.999998,0.000156,-0.001206,0.002377,-0.000810,0.002552,-0.001381,-77.834436,0.002555,
1230,130,0.000774,-9.741713,0.999999,0.000129,-0.000373,0.003179,-0.000016,0.003179,-0.000373,-89.735225,0.003475,
1400,1170,-0.666514,-3.613942,0.999996,0.000242,-0.003290,0.006092,-0.001914,0.006467,-0.003665,-78.903671,0.006486,
1170,1730,0.059828,-1.007773,0.999999,0.000144,-0.000930,0.003553,0.000020,0.003553,-0.000930,89.750633,0.003685,
580,1330,1.765498,-3.684975,0.999998,0.000204,-0.002771,0.004976,0.000018,0.004976,-0.002771,89.868390,0.004987,
810,1910,0.264782,-0.482367,0.999997,0.000200,-0.001158,0.004247,-0.000801,0.004363,-0.001274,-81.742735,0.004487,
860,1390,0.888652,-2.965953,0.999998,0.000165,-0.003084,0.005543,0.000183,0.005547,-0.003088,88.788570,0.005559,
1450,200,-0.147197,-9.465507,0.999998,0.000217,-0.000810,0.003730,-0.000259,0.003744,-0.000825,-86.740832,0.003935,
1140,1970,0.017514,-0.200082,0.999998,0.000158,-0.000252,0.003129,-0.000115,0.003133,-0.000255,-88.057201,0.003480,
630,1580,1.241978,-2.337474,0.999997,0.000182,-0.002525,0.005085,0.000079,0.005085,-0.002526,89.402776,0.005086,
1280,540,-0.061381,-8.317410,0.999998,0.000148,-0.001308,0.003360,0.000278,0.003377,-0.001325,86.604731,0.003403,
650,630,1.427386,-6.979099,0.999998,0.000188,-0.002617,0.005097,0.000085,0.005098,-0.002618,89.365229,0.005099,
1630,1700,-0.585749,-1.421270,0.999997,0.000206,-0.002012,0.004763,0.000071,0.004764,-0.002013,89.396215,0.004783,
860,1730,0.494642,-1.248274,0.999998,0.000195,-0.001907,0.004665,-0.000068,0.004665,-0.001907,-89.405059,0.004691,
1770,150,-0.456069,-9.487226,0.999997,0.000215,-0.002013,0.004937,-0.000927,0.005058,-0.002135,-82.534455,0.005079,
1120,390,0.130360,-8.811347,0.999999,0.000145,-0.001283,0.003712,-0.000247,0.003724,-0.001295,-87.174690,0.003781,
1640,760,-1.174256,-6.510758,0.999997,0.000231,-0.003105,0.005765,-0.000332,0.005777,-0.003118,-87.861078,0.005783,
900,1560,0.585199,-1.997293,0.999998,0.000200,-0.002441,0.004886,0.000374,0.004905,-0.002460,87.083372,0.004905,
1730,2000,-0.106999,-0.140116,0.999998,0.000171,-0.000485,0.003988,0.001353,0.004365,-0.000863,74.410854,0.004624,
710,860,1.678243,-5.864171,0.999997,0.000206,-0.002454,0.005039,0.000509,0.005073,-0.002489,86.132315,0.005074,
1600,1550,-0.688205,-2.110662,0.999998,0.000219,-0.002495,0.005016,-0.000315,0.005030,-0.002508,-87.605759,0.005030,
860,850,1.255994,-6.028678,0.999998,0.000192,-0.002997,0.005880,0.000628,0.005924,-0.003041,85.970335,0.005925,
980,1920,0.108226,-0.387285,0.999998,0.000161,-0.000591,0.003561,-0.000377,0.003595,-0.000625,-84.854010,0.003841,
1670,840,-1.425114,-6.025468,0.999996,0.000237,-0.002770,0.005487,-0.000632,0.005535,-0.002818,-85.648692,0.005536,
1380,1200,-0.475615,-3.285759,0.999996,0.000240,-0.003308,0.005175,-0.002112,0.005671,-0.003805,-76.763046,0.005781,
1820,630,-1.444923,-6.969419,0.999998,0.000191,-0.002599,0.005104,-0.000072,0.005105,-0.002599,-89.463494,0.005105,
770,1610,0.848000,-1.958796,0.999998,0.000151,-0.002461,0.005042,0.000122,0.005044,-0.002463,89.068519,0.005044,
1830,1760,-0.947663,-1.421155,0.999998,0.000148,-0.002419,0.005076,0.000030,0.005076,-0.002419,89.772603,0.005078,
1460,350,-0.275267,-8.873952,0.999998,0.000154,-0.001411,0.004041,0.000106,0.004043,-0.001413,88.890918,0.004104,
900,450,0.546234,-8.297213,0.999997,0.000210,-0.002216,0.004722,-0.000317,0.004736,-0.002230,-87.385976,0.004739,
600,1840,0.852299,-1.087331,0.999998,0.000146,-0.002421,0.004978,-0.000175,0.004982,-0.002425,-88.647919,0.004983,
1120,1320,0.158332,-2.527182,0.999997,0.000214,-0.002210,0.003536,0.001884,0.004098,-0.002773,73.376179,0.004183,
1030,450,0.283284,-8.489203,0.999998,0.000182,-0.001710,0.004147,-0.000414,0.004176,-0.001739,-85.972192,0.004196,
710,180,0.506845,-9.359599,0.999997,0.000186,-0.002180,0.004885,0.000668,0.004948,-0.002242,84.649131,0.004955,
1850,200,-0.779708,-9.098609,0.999998,0.000162,-0.002433,0.005061,-0.000232,0.005068,-0.002440,-88.226553,0.005070,
1550,1810,-0.303574,-0.845262,0.999997,0.000195,-0.001245,0.004189,0.000319,0.004208,-0.001263,86.655319,0.004318,
730,1130,1.724167,-4.535087,0.999998,0.000177,-0.002259,0.004994,-0.000414,0.005018,-0.002282,-86.741986,0.005025,
710,560,1.160871,-7.431014,0.999998,0.000162,-0.002671,0.005216,-0.000050,0.005216,-0.002671,-89.638373,0.005217,
1810,430,-1.119341,-8.008737,0.999998,0.000160,-0.002508,0.005041,0.000082,0.005042,-0.002509,89.379950,0.005042,
1040,1230,0.542436,-3.383045,0.999996,0.000230,-0.003915,0.006177,0.001295,0.006340,-0.004079,82.800990,0.006427,
1510,1490,-0.510714,-2.243537,0.999997,0.000206,-0.002538,0.004918,-0.000656,0.004975,-0.002595,-85.009674,0.004977,
1070,1390,0.259980,-2.425989,0.999997,0.000189,-0.002388,0.004381,0.001401,0.004660,-0.002666,78.753887,0.004676,
1720,610,-1.145796,-7.220050,0.999998,0.000164,-0.002775,0.005288,-0.000028,0.005288,-0.002775,-89.804579,0.005290,
800,30,0.028283,-10.040497,0.999999,0.000000,-0.000448,0.003546,0.000927,0.003750,-0.000652,77.548120,0.004007,
1070,1800,0.131773,-0.790876,0.999999,0.000143,-0.000931,0.003625,-0.000068,0.003626,-0.000932,-89.149043,0.003766,
810,1520,0.859945,-2.354063,0.999998,0.000141,-0.002637,0.005174,0.000208,0.005179,-0.002643,88.476029,0.005180,
1410,1780,-0.160810,-0.875015,0.999998,0.000160,-0.001149,0.003766,-0.000017,0.003766,-0.001149,-89.802107,0.003861,
1470,1130,-1.065340,-4.291284,0.999998,0.000178,-0.003105,0.007112,0.000145,0.007114,-0.003107,89.188833,0.007133,
1840,50,-0.180008,-9.910581,0.999998,0.000182,-0.001956,0.004889,-0.001552,0.005225,-0.002291,-77.805165,0.005238,
1230,110,0.000245,-9.805718,0.999999,0.000140,-0.000299,0.003157,-0.000005,0.003157,-0.000299,-89.917426,0.003485,
570,1330,1.791629,-3.701955,0.999960,0.000804,-0.002930,0.005038,0.000095,0.005039,-0.002931,89.316710,0.005061,
1710,180,-0.430653,-9.402204,0.999997,0.000194,-0.001545,0.004666,-0.000857,0.004782,-0.001661,-82.281856,0.004856,
860,340,0.513688,-8.759658,0.999997,0.000173,-0.001938,0.004698,0.000054,0.004699,-0.001938,89.534580,0.004722,
750,440,0.891218,-8.115246,0.999998,0.000179,-0.002480,0.005048,-0.000142,0.005050,-0.002483,-88.919208,0.005051,
830,1260,1.222855,-3.764027,0.999997,0.000196,-0.003065,0.005792,-0.000464,0.005817,-0.003090,-87.006341,0.005820,
1170,1710,0.064661,-1.077984,0.999999,0.000139,-0.000986,0.003554,0.000028,0.003554,-0.000986,89.644356,0.003670,
1430,200,-0.130812,-9.473446,0.999998,0.000191,-0.000850,0.003643,-0.000202,0.003652,-0.000859,-87.435418,0.003819,
1380,1510,-0.215635,-1.904221,0.999998,0.000168,-0.001813,0.003929,-0.000791,0.004036,-0.001920,-82.294647,0.004037,
1330,850,-0.310221,-7.244728,0.999996,0.000247,-0.002101,0.002598,0.001586,0.003083,-0.002587,72.985904,0.003311,
1640,740,-1.134049,-6.625580,0.999998,0.000211,-0.003101,0.005722,-0.000262,0.005729,-0.003108,-88.298438,0.005736,
630,1560,1.271238,-2.440215,0.999997,0.000219,-0.002531,0.005083,0.000064,0.005084,-0.002532,89.515371,0.005084,
980,1970,0.058513,-0.213382,0.999999,0.000129,-0.000342,0.003359,-0.000412,0.003404,-0.000388,-83.719362,0.003727,
1250,700,-0.018052,-7.879864,0.999998,0.000147,-0.001025,0.002171,0.000367,0.002213,-0.001066,83.536925,0.002213,
1430,470,-0.285627,-8.409328,0.999997,0.000195,-0.001762,0.004193,0.000502,0.004235,-0.001804,85.211551,0.004250,
900,1540,0.604652,-2.097784,0.999997,0.000202,-0.002513,0.004957,0.000437,0.004982,-0.002539,86.664158,0.004983,
1900,730,-1.815359,-6.345532,0.999998,0.000000,-0.002439,0.004908,-0.000096,0.004909,-0.002440,-89.247634,0.004909,
810,1890,0.306515,-0.569542,0.999998,0.000175,-0.001286,0.004325,-0.000732,0.004419,-0.001380,-82.692168,0.004522,
980,1940,0.087194,-0.315733,0.999998,0.000153,-0.000472,0.003505,-0.000422,0.003550,-0.000516,-84.002720,0.003836,
730,1110,1.745673,-4.634187,0.999998,0.000171,-0.002248,0.004956,-0.000406,0.004979,-0.002271,-86.781467,0.004985,
1300,390,-0.076956,-8.838670,0.999999,0.000133,-0.001138,0.003608,0.000099,0.003610,-0.001141,88.808470,0.003691,
600,1820,0.901367,-1.187674,0.999998,0.000155,-0.002408,0.004931,-0.000106,0.004932,-0.002410,-89.176068,0.004933,
1070,1370,0.263745,-2.511929,0.999997,0.000195,-0.002546,0.004421,0.001519,0.004738,-0.002863,78.219699,0.004772,
1850,890,-1.949873,-5.654157,0.999998,0.000184,-0.002212,0.004499,-0.000188,0.004504,-0.002217,-88.395155,0.004504,
650,650,1.460992,-6.877481,0.999997,0.000211,-0.002620,0.005138,0.000125,0.005140,-0.002622,89.079840,0.005141,
770,1590,0.875621,-2.060114,0.999998,0.000157,-0.002481,0.005078,0.000129,0.005080,-0.002483,89.023297,0.005081,
1650,380,-0.662647,-8.511216,0.999997,0.000197,-0.002278,0.004905,0.000053,0.004905,-0.002278,89.575864,0.004910,
1280,520,-0.062398,-8.386525,0.999998,0.000157,-0.001285,0.003417,0.000225,0.003428,-0.001296,87.263247,0.003462,
1050,1800,0.151424,-0.801809,0.999998,0.000155,-0.001084,0.003682,-0.000053,0.003683,-0.001084,-89.357190,0.003785,
1120,1300,0.166135,-2.601663,0.999997,0.000208,-0.002347,0.003608,0.002039,0.004239,-0.002978,72.800230,0.004354,
790,1520,0.913096,-2.386815,0.999999,0.000142,-0.002689,0.005199,0.000172,0.005202,-0.002693,88.752369,0.005204,
1810,410,-1.089538,-8.109090,0.999998,0.000160,-0.002492,0.005060,0.000069,0.005060,-0.002493,89.473377,0.005060,
710,540,1.131653,-7.536024,0.999998,0.000159,-0.002640,0.005192,-0.000058,0.005193,-0.002640,-89.572146,0.005193,
1470,1110,-1.134169,-4.437276,0.999997,0.000184,-0.002836,0.007266,0.000197,0.007270,-0.002840,88.882091,0.007327,
1510,1470,-0.523911,-2.344155,0.999997,0.000217,-0.002684,0.005025,-0.000704,0.005089,-0.002748,-84.826255,0.005094,
1830,50,-0.157220,-9.928200,0.999998,0.000189,-0.001752,0.004694,-0.001528,0.005038,-0.002096,-77.315447,0.005061,
1890,1040,-2.124572,-4.986820,0.999998,0.000161,-0.002026,0.004193,0.000092,0.004195,-0.002027,89.151517,0.004195,
970,1840,0.199480,-0.689772,0.999998,0.000178,-0.001131,0.003855,-0.000237,0.003866,-0.001142,-87.279941,0.003972,
640,50,0.145067,-9.938562,0.999996,0.000257,-0.001427,0.004538,0.001610,0.004944,-0.001834,75.819394,0.004999,
1460,330,-0.261057,-8.953716,0.999998,0.000170,-0.001335,0.004042,0.000026,0.004042,-0.001335,89.718633,0.004119,
790,2020,0.040609,-0.060553,0.999998,0.000000,-0.000418,0.003563,-0.000949,0.003778,-0.000632,-77.259887,0.004047,
1390,200,-0.098262,-9.487759,0.999998,0.000166,-0.000676,0.003549,-0.000171,0.003556,-0.000682,-87.681201,0.003774,
1170,1690,0.066120,-1.151366,0.999999,0.000133,-0.001062,0.003585,0.000057,0.003586,-0.001063,89.297798,0.003683,
1230,90,0.000894,-9.867421,0.999999,0.000140,-0.000233,0.003056,0.000013,0.003056,-0.000233,89.776238,0.003402,
570,780,1.885671,-6.110247,0.999990,0.000352,-0.002614,0.004677,-0.000029,0.004677,-0.002614,-89.770111,0.004688,
1530,760,-0.803769,-6.712482,0.999998,0.000165,-0.003597,0.006137,0.000257,0.006144,-0.003604,88.489406,0.006175,
1550,1790,-0.329563,-0.930126,0.999998,0.000185,-0.001334,0.004198,0.000244,0.004209,-0.001345,87.481227,0.004299,
1640,720,-1.096115,-6.739224,0.999998,0.000244,-0.003076,0.005675,-0.000161,0.005678,-0.003079,-88.949575,0.005685,
1650,840,-1.369974,-6.041934,0.999997,0.000207,-0.002831,0.005575,-0.000635,0.005622,-0.002879,-85.705585,0.005623,
1020,1970,0.048287,-0.210430,0.999998,0.000177,-0.000273,0.003288,-0.000334,0.003319,-0.000304,-84.692473,0.003669,
1330,830,-0.242117,-7.302016,0.999997,0.000227,-0.002423,0.003014,0.002035,0.003692,-0.003100,71.592202,0.003965,
810,1870,0.348433,-0.655165,0.999997,0.000198,-0.001444,0.004390,-0.000652,0.004462,-0.001516,-83.698264,0.004538,
900,1520,0.624296,-2.196892,0.999997,0.000197,-0.002579,0.005008,0.000453,0.005035,-0.002606,86.595481,0.005036,
1230,700,0.000990,-7.888711,0.999998,0.000157,-0.001007,0.002121,-0.000038,0.002121,-0.001007,-89.307653,0.002122,
1430,450,-0.278448,-8.492902,0.999997,0.000201,-0.001679,0.004155,0.000404,0.004183,-0.001707,86.059125,0.004206,
860,320,0.486761,-8.858380,0.999997,0.000190,-0.001887,0.004646,0.000099,0.004647,-0.001889,89.134921,0.004674,
680,150,0.482515,-9.470859,0.999996,0.000244,-0.001940,0.005031,0.000996,0.005171,-0.002080,82.030491,0.005204,
1720,590,-1.115863,-7.327221,0.999998,0.000141,-0.002725,0.005268,0.000029,0.005268,-0.002725,89.791512,0.005269,
1900,740,-1.832391,-6.296129,0.999997,0.000000,-0.002452,0.004959,-0.000102,0.004960,-0.002454,-89.212096,0.004960,
610,1580,1.293489,-2.370279,0.999998,0.000183,-0.002512,0.005086,0.000065,0.005087,-0.002512,89.508710,0.005087,
730,1090,1.768449,-4.732755,0.999998,0.000170,-0.002222,0.004937,-0.000295,0.004949,-0.002234,-87.646100,0.004957,
980,1960,0.067292,-0.247061,0.999998,0.000154,-0.000395,0.003397,-0.000408,0.003441,-0.000439,-83.929460,0.003746,
1070,1350,0.271622,-2.600818,0.999998,0.000176,-0.002733,0.004523,0.001621,0.004868,-0.003079,77.964876,0.004925,
1030,890,0.802069,-6.200223,0.999997,0.000204,-0.003495,0.007072,-0.000885,0.007146,-0.003568,-85.244240,0.007146,
1280,390,-0.055084,-8.844307,0.999999,0.000131,-0.001123,0.003562,0.000071,0.003563,-0.001124,89.130130,0.003643,
1380,1180,-0.550606,-3.386624,0.999995,0.000273,-0.002876,0.004932,-0.002240,0.005529,-0.003473,-75.076355,0.005590,
1030,1800,0.174999,-0.813540,0.999998,0.000184,-0.001102,0.003751,-0.000091,0.003752,-0.001103,-88.926500,0.003857,
1120,1280,0.177665,-2.670219,0.999998,0.000194,-0.002511,0.003639,0.002173,0.004329,-0.003201,72.372791,0.004492,
1120,1650,0.136703,-1.322933,0.999998,0.000180,-0.001310,0.003703,0.000266,0.003717,-0.001324,86.970509,0.003768,
610,540,1.388996,-7.378089,0.999997,0.000198,-0.002519,0.005115,-0.000012,0.005115,-0.002519,-89.909734,0.005115,
650,670,1.495999,-6.773085,0.999997,0.000214,-0.002607,0.005142,0.000168,0.005146,-0.002611,88.761756,0.005146,
600,1800,0.945326,-1.284685,0.999998,0.000174,-0.002404,0.004977,-0.000074,0.004977,-0.002404,-89.426849,0.004978,
1470,1090,-1.194212,-4.587695,0.999997,0.000198,-0.002622,0.007216,0.000148,0.007218,-0.002624,89.137552,0.007307,
1590,80,-0.096818,-9.867311,0.999998,0.000155,-0.000556,0.003639,-0.000707,0.003754,-0.000672,-80.690098,0.004004,
770,1570,0.901585,-2.161529,0.999998,0.000161,-0.002517,0.005107,0.000159,0.005110,-0.002520,88.802551,0.005110,
950,1840,0.224403,-0.701500,0.999997,0.000212,-0.001161,0.003908,-0.000253,0.003921,-0.001173,-87.151975,0.004025,
1810,390,-1.058855,-8.212371,0.999998,0.000166,-0.002482,0.005051,0.000053,0.005051,-0.002483,89.597432,0.005051,
1510,1450,-0.542154,-2.446984,0.999997,0.000218,-0.002792,0.005117,-0.000726,0.005183,-0.002858,-84.801429,0.005192,
1460,1010,-1.251244,-5.175200,0.999994,0.000278,-0.002572,0.008028,0.000066,0.008029,-0.002573,89.645226,0.008199,
640,40,0.101078,-9.983091,0.999997,0.000222,-0.001331,0.004371,0.001640,0.004809,-0.001769,75.042807,0.004864,
1440,330,-0.233978,-8.968846,0.999998,0.000162,-0.001386,0.003977,0.000087,0.003978,-0.001388,89.074711,0.004038,
770,1520,0.967640,-2.421693,0.999999,0.000166,-0.002651,0.005220,0.000145,0.005223,-0.002653,88.944248,0.005223,
1470,50,-0.025343,-9.983268,0.999999,0.000132,-0.000098,0.003142,-0.000375,0.003185,-0.000141,-83.489373,0.003598,
1880,1040,-2.103415,-4.987780,0.999998,0.000171,-0.002026,0.004251,0.000095,0.004253,-0.002028,89.132420,0.004254,
1230,70,-0.000303,-9.928408,0.999998,0.000151,-0.000159,0.003047,0.000017,0.003047,-0.000159,89.696536,0.003430,
1370,200,-0.085940,-9.490177,0.999999,0.000135,-0.000636,0.003530,-0.000151,0.003536,-0.000642,-87.924916,0.003767,
1850,870,-1.925052,-5.744624,0.999998,0.000179,-0.002272,0.004653,-0.000267,0.004663,-0.002282,-87.792172,0.004663,
1170,1670,0.069005,-1.221363,0.999999,0.000127,-0.001126,0.003585,0.000060,0.003586,-0.001127,89.268598,0.003667,
900,30,0.014334,-10.044144,0.999999,0.000000,-0.000154,0.003282,0.000621,0.003391,-0.000263,80.062926,0.003773,
830,1240,1.266230,-3.878157,0.999997,0.000185,-0.003027,0.005749,-0.000552,0.005784,-0.003061,-86.414369,0.005787,
1640,700,-1.061918,-6.852816,0.999998,0.000224,-0.003044,0.005645,-0.000074,0.005646,-0.003045,-89.512119,0.005651,
1280,500,-0.060429,-8.454591,0.999998,0.000150,-0.001277,0.003472,0.000185,0.003479,-0.001284,87.772551,0.003519,
900,1500,0.641385,-2.298770,0.999997,0.000207,-0.002645,0.005107,0.000456,0.005134,-0.002672,86.644577,0.005135,
810,1850,0.387102,-0.745475,0.999998,0.000186,-0.001571,0.004469,-0.000586,0.004525,-0.001627,-84.505295,0.004584,
1660,390,-0.698735,-8.446389,0.999998,0.000183,-0.002315,0.004953,0.000086,0.004954,-0.002316,89.325746,0.004958,
670,840,1.743679,-5.936913,0.999998,0.000182,-0.002406,0.004866,0.000392,0.004887,-0.002427,86.920097,0.004888,
860,300,0.463049,-8.945777,0.999998,0.000176,-0.001836,0.004496,0.000142,0.004500,-0.001840,88.713085,0.004524,
1430,430,-0.272172,-8.572676,0.999998,0.000182,-0.001632,0.004085,0.000347,0.004106,-0.001653,86.536803,0.004132,
960,1130,1.163545,-4.375944,0.999998,0.000184,-0.002849,0.006595,-0.000565,0.006629,-0.002883,-86.591246,0.006648,
1000,1970,0.054291,-0.211673,0.999999,0.000133,-0.000258,0.003327,-0.000400,0.003371,-0.000302,-83.708342,0.003730,
980,1980,0.049338,-0.178617,0.999999,0.000119,-0.000289,0.003347,-0.000421,0.003395,-0.000337,-83.478432,0.003741,
1900,750,-1.850139,-6.246039,0.999997,0.000000,-0.002441,0.004946,-0.000102,0.004948,-0.002442,-89.207045,0.004948,
1050,1520,0.275171,-1.916792,0.999997,0.000202,-0.001978,0.004196,0.000742,0.004284,-0.002066,83.243201,0.004285,
730,1070,1.778802,-4.833146,0.999998,0.000163,-0.002169,0.004864,-0.000150,0.004867,-0.002172,-88.774853,0.004877,
1330,810,-0.186770,-7.363516,0.999997,0.000205,-0.002478,0.003159,0.002166,0.003895,-0.003214,71.226253,0.004161,
1070,1330,0.282727,-2.695615,0.999998,0.000178,-0.002911,0.004654,0.001725,0.005029,-0.003286,77.741232,0.005107,
1210,700,0.022448,-7.876293,0.999999,0.000135,-0.001039,0.002205,-0.000443,0.002264,-0.001098,-82.353840,0.002265,
980,650,0.499721,-7.467989,0.999997,0.000203,-0.002995,0.005201,-0.000918,0.005303,-0.003097,-83.685346,0.005328,
1550,1770,-0.352633,-1.014704,0.999998,0.000160,-0.001439,0.004302,0.000207,0.004310,-0.001447,87.939092,0.004387,
1510,760,-0.731163,-6.766900,0.999997,0.000195,-0.003631,0.006149,0.000454,0.006170,-0.003652,87.348905,0.006204,
1420,1570,-0.272812,-1.720417,0.999997,0.000197,-0.001784,0.004157,-0.000540,0.004206,-0.001832,-84.850902,0.004218,
650,690,1.529582,-6.672011,0.999997,0.000208,-0.002579,0.005080,0.000201,0.005085,-0.002585,88.497057,0.005086,
1030,640,0.353023,-7.653683,0.999997,0.000201,-0.002619,0.004665,-0.001157,0.004845,-0.002798,-81.184969,0.004864,
1380,880,-0.578531,-6.672314,0.999995,0.000259,-0.002678,0.004882,0.002311,0.005533,-0.003329,74.281681,0.005571,
1030,870,0.722828,-6.339084,0.999997,0.000220,-0.003665,0.006892,-0.000930,0.006974,-0.003746,-85.001619,0.006980,
1810,370,-1.027857,-8.311668,0.999998,0.000168,-0.002486,0.005076,0.000021,0.005076,-0.002486,89.838258,0.005076,
1470,1070,-1.240673,-4.724940,0.999997,0.000208,-0.002470,0.007295,0.000102,0.007296,-0.002471,89.403586,0.007421,
600,1780,0.989680,-1.385910,0.999998,0.000165,-0.002413,0.004949,-0.000039,0.004949,-0.002413,-89.693531,0.004950,
610,520,1.358004,-7.481424,0.999997,0.000219,-0.002506,0.005117,-0.000029,0.005117,-0.002506,-89.785204,0.005117,
1350,1640,-0.144962,-1.366145,0.999998,0.000173,-0.001339,0.003732,-0.000277,0.003747,-0.001354,-86.882281,0.003795,
960,550,0.483754,-7.921180,0.999997,0.000199,-0.002466,0.004809,-0.000633,0.004864,-0.002521,-85.062023,0.004865,
1430,1840,-0.142422,-0.660857,0.999998,0.000156,-0.000904,0.003654,0.000145,0.003658,-0.000908,88.178538,0.003810,
1110,1460,0.172203,-2.047236,0.999998,0.000156,-0.001796,0.003729,0.000971,0.003895,-0.001962,80.318611,0.003895,
1040,850,0.614969,-6.535509,0.999995,0.000241,-0.003774,0.006485,-0.001197,0.006623,-0.003912,-83.431093,0.006659,
1220,1980,0.002639,-0.167987,0.999998,0.000152,-0.000193,0.003049,-0.000005,0.003049,-0.000193,-89.909413,0.003415,
1640,680,-1.027421,-6.966399,0.999998,0.000178,-0.003027,0.005554,-0.000010,0.005554,-0.003027,-89.931673,0.005561,
1120,1700,0.121661,-1.134919,0.999998,0.000147,-0.001209,0.003715,0.000186,0.003722,-0.001216,87.842568,0.003795,
900,2020,0.019564,-0.050905,0.999999,0.000000,-0.000097,0.003419,-0.000641,0.003533,-0.000210,-79.980539,0.003963,
710,520,1.102772,-7.639374,0.999998,0.000180,-0.002602,0.005176,-0.000074,0.005177,-0.002603,-89.456645,0.005177,
1000,1290,0.565227,-3.192080,0.999997,0.000237,-0.003726,0.006001,0.000961,0.006095,-0.003820,84.409354,0.006160,
1170,1650,0.071704,-1.292738,0.999998,0.000154,-0.001153,0.003585,0.000096,0.003587,-0.001155,88.837176,0.003662,
1410,700,-0.318755,-7.439158,0.999997,0.000198,-0.002866,0.004793,0.001515,0.005082,-0.003154,79.206830,0.005131,
1350,200,-0.073406,-9.496552,0.999998,0.000177,-0.000680,0.003490,-0.000079,0.003491,-0.000681,-88.920952,0.003702,
900,1480,0.661341,-2.400970,0.999997,0.000223,-0.002748,0.005196,0.000469,0.005224,-0.002775,86.635474,0.005227,
1340,50,-0.010116,-9.987124,0.999999,0.000131,-0.000116,0.003025,-0.000139,0.003031,-0.000122,-87.476085,0.003431,
810,1830,0.425480,-0.834417,0.999998,0.000180,-0.001695,0.004550,-0.000492,0.004588,-0.001734,-85.518480,0.004634,
1430,410,-0.262867,-8.655137,0.999998,0.000173,-0.001589,0.004071,0.000311,0.004088,-0.001606,86.861407,0.004119,
860,280,0.436129,-9.036651,0.999997,0.000201,-0.001787,0.004509,0.000209,0.004516,-0.001794,88.105032,0.004548,
1900,760,-1.868124,-6.195436,0.999998,0.000000,-0.002427,0.004868,-0.000077,0.004869,-0.002428,-89.398585,0.004869,
770,1550,0.926478,-2.264940,0.999998,0.000172,-0.002567,0.005145,0.000161,0.005148,-0.002570,88.806190,0.005148,
1850,850,-1.893567,-5.840473,0.999998,0.000169,-0.002319,0.004727,-0.000286,0.004739,-0.002330,-87.678636,0.004739,
1280,480,-0.060219,-8.523378,0.999998,0.000145,-0.001248,0.003515,0.000171,0.003521,-0.001254,87.946282,0.003569,
810,1260,1.285297,-3.786383,0.999998,0.000225,-0.003003,0.005680,-0.000482,0.005706,-0.003029,-86.832881,0.005710,
1680,1210,-1.464278,-4.089934,0.999997,0.000201,-0.002723,0.005464,0.000624,0.005511,-0.002771,85.666694,0.005511,
1030,1520,0.316632,-1.955553,0.999998,0.000177,-0.002138,0.004344,0.000755,0.004430,-0.002224,83.445587,0.004430,
1780,730,-1.515472,-6.507156,0.999997,0.000223,-0.002657,0.005178,-0.000313,0.005191,-0.002669,-87.715403,0.005191,
710,760,1.498459,-6.380215,0.999997,0.000211,-0.002721,0.005262,0.000395,0.005282,-0.002741,87.176971,0.005283,
1460,1970,-0.053557,-0.211522,0.999999,0.000148,-0.000259,0.003321,0.000378,0.003361,-0.000299,84.034956,0.003720,
990,490,0.381132,-8.253325,0.999998,0.000185,-0.002049,0.004469,-0.000534,0.004512,-0.002092,-85.345692,0.004516,
730,1050,1.786847,-4.929129,0.999998,0.000175,-0.002154,0.004862,-0.000177,0.004866,-0.002158,-88.552975,0.004877,
1380,860,-0.492120,-6.769793,0.999996,0.000230,-0.003217,0.005097,0.002111,0.005602,-0.003722,76.538715,0.005702,
820,1010,1.603976,-5.129439,0.999997,0.000196,-0.001952,0.005151,0.000159,0.005154,-0.001956,88.717507,0.005204,
1070,1750,0.156730,-0.978291,0.999998,0.000151,-0.001096,0.003746,0.000032,0.003746,-0.001096,89.618972,0.003852,
650,840,1.790990,-5.920114,0.999998,0.000157,-0.002370,0.004782,0.000396,0.004803,-0.002392,86.843233,0.004803,
1320,470,-0.113725,-8.533770,0.999998,0.000186,-0.001403,0.003664,0.000385,0.003693,-0.001433,85.675232,0.003724,
650,1130,1.907196,-4.565985,0.999998,0.000180,-0.002236,0.004694,-0.000320,0.004709,-0.002251,-87.362087,0.004711,
840,1750,0.506634,-1.177935,0.999997,0.000194,-0.001829,0.004636,-0.000160,0.004640,-0.001832,-88.586622,0.004674,
1630,1680,-0.612321,-1.516460,0.999997,0.000263,-0.002129,0.004818,-0.000034,0.004818,-0.002129,-89.723170,0.004829,
1770,130,-0.395272,-9.581267,0.999998,0.000192,-0.001843,0.004821,-0.001106,0.005000,-0.002022,-80.818054,0.005030,
1800,1910,-0.499722,-0.603322,0.999997,0.000223,-0.001868,0.005099,0.001100,0.005268,-0.002038,81.239904,0.005313,
1730,1980,-0.162508,-0.221723,0.999997,0.000189,-0.000781,0.004083,0.001267,0.004393,-0.001092,76.240717,0.004574,
900,430,0.528224,-8.392654,0.999997,0.000228,-0.002180,0.004723,-0.000255,0.004732,-0.002190,-87.885640,0.004737,
1760,110,-0.310887,-9.689160,0.999998,0.000181,-0.001725,0.004657,-0.001169,0.004865,-0.001933,-79.939488,0.004899,
1030,720,0.401927,-7.254856,0.999998,0.000188,-0.003251,0.005269,-0.001397,0.005492,-0.003474,-80.919575,0.005556,
1020,1710,0.248900,-1.171083,0.999998,0.000170,-0.001427,0.003985,0.000126,0.003988,-0.001430,88.669271,0.004041,
1640,660,-0.994560,-7.075274,0.999998,0.000184,-0.002991,0.005519,0.000052,0.005520,-0.002991,89.648512,0.005526,
1150,1360,0.099200,-2.296600,0.999998,0.000159,-0.001625,0.002978,0.001347,0.003343,-0.001990,74.830821,0.003363,
1390,1780,-0.139574,-0.863626,0.999999,0.000151,-0.000955,0.003710,0.000021,0.003711,-0.000955,89.744931,0.003853,
940,1540,0.508711,-2.026984,0.999997,0.000197,-0.002359,0.004748,0.000495,0.004782,-0.002393,86.037504,0.004782,
1220,1960,0.003620,-0.227763,0.999998,0.000153,-0.000272,0.003076,-0.000018,0.003076,-0.000272,-89.689703,0.003406,
1470,1050,-1.272895,-4.877314,0.999996,0.000233,-0.002363,0.007520,0.000068,0.007520,-0.002363,89.608452,0.007691,
1810,350,-0.995276,-8.415203,0.999998,0.000163,-0.002485,0.005078,0.000011,0.005078,-0.002485,89.916958,0.005078,
1190,1340,0.041782,-2.259450,0.999998,0.000175,-0.001166,0.002218,0.000885,0.002436,-0.001383,76.196871,0.002443,
1560,1610,-0.536302,-1.754365,0.999998,0.000204,-0.002211,0.004730,-0.000293,0.004742,-0.002224,-87.587217,0.004745,
1900,980,-2.129757,-5.232449,0.999998,0.000000,-0.001969,0.004011,-0.000005,0.004011,-0.001969,-89.948420,0.004011,
1000,1270,0.603993,-3.316554,0.999997,0.000218,-0.003839,0.006222,0.000895,0.006301,-0.003918,84.955808,0.006363,
820,910,1.488810,-5.657513,0.999998,0.000183,-0.002480,0.005466,0.000665,0.005521,-0.002536,85.245969,0.005527,
600,1760,1.029297,-1.482974,0.999998,0.000175,-0.002406,0.004946,0.000014,0.004946,-0.002406,89.889426,0.004947,
900,1460,0.681120,-2.506027,0.999997,0.000222,-0.002846,0.005243,0.000493,0.005273,-0.002876,86.525391,0.005280,
1550,1750,-0.376546,-1.102673,0.999998,0.000183,-0.001540,0.004335,0.000104,0.004337,-0.001541,88.988297,0.004397,
670,520,1.205724,-7.576627,0.999998,0.000185,-0.002589,0.005160,-0.000074,0.005160,-0.002590,-89.453283,0.005160,
770,1530,0.953021,-2.368775,0.999998,0.000169,-0.002628,0.005196,0.000143,0.005199,-0.002631,88.950035,0.005199,
1060,850,0.541385,-6.666155,0.999996,0.000253,-0.003725,0.005946,-0.001538,0.006185,-0.003963,-81.179579,0.006266,
860,700,0.943859,-6.915893,0.999998,0.000165,-0.003202,0.005719,-0.000049,0.005719,-0.003203,-89.684518,0.005733,
1430,390,-0.252748,-8.736280,0.999998,0.000169,-0.001555,0.004075,0.000256,0.004086,-0.001567,87.401159,0.004123,
1850,830,-1.862554,-5.934888,0.999998,0.000171,-0.002320,0.004672,-0.000246,0.004681,-0.002329,-87.986339,0.004681,
1280,460,-0.059859,-8.594299,0.999998,0.000150,-0.001220,0.003549,0.000148,0.003554,-0.001224,88.222292,0.003611,
820,300,0.536011,-8.904637,0.999998,0.000187,-0.001910,0.004663,0.000214,0.004670,-0.001917,88.137695,0.004694,
1170,1630,0.073357,-1.365533,0.999998,0.000159,-0.001179,0.003588,0.000130,0.003592,-0.001182,88.442477,0.003661,
930,1260,0.889735,-3.594966,0.999998,0.000180,-0.003618,0.006340,0.000009,0.006340,-0.003618,89.947389,0.006361,
1510,1430,-0.556502,-2.550765,0.999997,0.000213,-0.002863,0.005194,-0.000736,0.005261,-0.002930,-84.826088,0.005272,
1330,200,-0.058983,-9.503195,0.999998,0.000164,-0.000693,0.003442,-0.000049,0.003443,-0.000694,-89.320136,0.003642,
610,1200,1.908681,-4.267005,0.999998,0.000178,-0.002299,0.004713,-0.000289,0.004724,-0.002311,-87.644145,0.004725,
1330,1640,-0.117891,-1.351456,0.999999,0.000150,-0.001325,0.003697,-0.000309,0.003716,-0.001344,-86.489126,0.003763,
1380,840,-0.424320,-6.875737,0.999996,0.000223,-0.003466,0.005216,0.002024,0.005665,-0.003915,77.500750,0.005801,
1440,1970,-0.048332,-0.209614,0.999999,0.000137,-0.000283,0.003287,0.000322,0.003316,-0.000311,84.891803,0.003662,
1720,1560,-0.984307,-2.257724,0.999998,0.000171,-0.002575,0.005139,-0.000127,0.005141,-0.002578,-89.055001,0.005141,
1600,220,-0.339443,-9.305895,0.999998,0.000187,-0.001471,0.004279,-0.000405,0.004307,-0.001500,-85.990124,0.004373,
770,420,0.817060,-8.247007,0.999998,0.000176,-0.002432,0.005000,-0.000112,0.005001,-0.002434,-89.134772,0.005002,
1680,1000,-1.673745,-5.179077,0.999998,0.000186,-0.002087,0.005006,-0.000172,0.005011,-0.002091,-88.610199,0.005033,
690,690,1.423751,-6.724456,0.999997,0.000204,-0.002668,0.005204,0.000259,0.005212,-0.002676,88.114515,0.005213,
1550,800,-0.961883,-6.416655,0.999997,0.000217,-0.003530,0.006270,-0.000150,0.006273,-0.003533,-89.120837,0.006289,
730,1030,1.793212,-5.028327,0.999998,0.000176,-0.002148,0.004897,-0.000036,0.004897,-0.002148,-89.704470,0.004909,
980,690,0.535865,-7.253989,0.999997,0.000209,-0.003219,0.005491,-0.000926,0.005588,-0.003317,-83.996196,0.005621,
810,1480,0.911546,-2.564865,0.999998,0.000178,-0.002752,0.005292,0.000180,0.005296,-0.002756,88.718575,0.005297,
1030,850,0.651897,-6.477902,0.999996,0.000225,-0.003853,0.006660,-0.000974,0.006750,-0.003942,-84.751545,0.006781,
1640,640,-0.963886,-7.186135,0.999998,0.000179,-0.002946,0.005480,0.000095,0.005481,-0.002947,89.356468,0.005486,
1030,700,0.386080,-7.359392,0.999997,0.000212,-0.003062,0.005101,-0.001366,0.005324,-0.003284,-80.747243,0.005372,
940,1560,0.493462,-1.932065,0.999997,0.000202,-0.002288,0.004729,0.000479,0.004762,-0.002321,86.111868,0.004762,
1120,1720,0.116539,-1.063381,0.999998,0.000157,-0.001139,0.003662,0.000137,0.003666,-0.001143,88.366782,0.003752,
1070,1770,0.147886,-0.901954,0.999999,0.000140,-0.001043,0.003773,-0.000028,0.003774,-0.001043,-89.672101,0.003897,
990,470,0.370507,-8.343325,0.999998,0.000187,-0.002001,0.004417,-0.000488,0.004454,-0.002038,-85.672372,0.004459,
1470,1030,-1.287415,-5.022747,0.999997,0.000229,-0.002336,0.007259,-0.000017,0.007259,-0.002336,-89.898452,0.007411,
960,670,0.579161,-7.307089,0.999997,0.000199,-0.003187,0.005465,-0.000806,0.005539,-0.003261,-84.724184,0.005568,
1900,970,-2.124606,-5.273228,0.999998,0.000000,-0.001965,0.003983,0.000030,0.003983,-0.001965,89.708884,0.003983,
1550,1730,-0.395620,-1.188547,0.999997,0.000198,-0.001636,0.004439,0.000027,0.004439,-0.001636,89.742931,0.004490,
800,910,1.539193,-5.647210,0.999998,0.000200,-0.002441,0.005392,0.000651,0.005446,-0.002495,85.282018,0.005452,
1800,1630,-1.085162,-2.030544,0.999998,0.000170,-0.002504,0.005059,-0.000081,0.005060,-0.002505,-89.389825,0.005060,
860,720,0.978956,-6.798775,0.999998,0.000172,-0.003241,0.005817,0.000037,0.005817,-0.003241,89.768964,0.005830,
1050,950,0.971512,-5.892430,0.999995,0.000269,-0.003458,0.008565,-0.002577,0.009094,-0.003987,-78.396500,0.009117,
600,1740,1.063769,-1.583647,0.999998,0.000163,-0.002417,0.004976,0.000061,0.004977,-0.002418,89.528075,0.004977,
1790,1080,-1.898064,-4.792581,0.999998,0.000167,-0.002194,0.004663,0.000125,0.004665,-0.002197,88.952576,0.004668,
1170,1610,0.076114,-1.434990,0.999998,0.000156,-0.001226,0.003572,0.000163,0.003578,-0.001232,88.053144,0.003635,
1210,200,0.013934,-9.512098,0.999998,0.000220,-0.000605,0.003321,0.000010,0.003321,-0.000605,89.856333,0.003537,
770,1510,0.982266,-2.473369,0.999998,0.000180,-0.002663,0.005230,0.000149,0.005233,-0.002666,88.917214,0.005234,
760,1070,1.714070,-4.829018,0.999998,0.000179,-0.002117,0.004959,-0.000209,0.004965,-0.002124,-88.306810,0.004982,
1190,1320,0.042517,-2.302578,0.999998,0.000142,-0.001177,0.001994,0.000971,0.002268,-0.001451,74.253845,0.002297,
1330,790,-0.160810,-7.428750,0.999997,0.000199,-0.002384,0.003262,0.002210,0.004024,-0.003145,70.974087,0.004231,
1810,330,-0.962253,-8.515619,0.999998,0.000163,-0.002439,0.005010,0.000000,0.005010,-0.002439,-89.997415,0.005010,
1280,440,-0.058847,-8.665105,0.999998,0.000148,-0.001205,0.003526,0.000116,0.003529,-0.001208,88.598284,0.003587,
1510,1410,-0.575379,-2.654650,0.999997,0.000207,-0.002987,0.005306,-0.000729,0.005370,-0.003051,-85.017812,0.005386,
1380,820,-0.359452,-6.985194,0.999996,0.000230,-0.003446,0.005190,0.002065,0.005659,-0.003914,77.222787,0.005796,
1680,1190,-1.501176,-4.198600,0.999997,0.000207,-0.002619,0.005380,0.000584,0.005423,-0.002662,85.845525,0.005423,
900,1440,0.703874,-2.611687,0.999997,0.000208,-0.002934,0.005307,0.000474,0.005334,-0.002961,86.721344,0.005345,
1600,200,-0.308273,-9.388081,0.999998,0.000193,-0.001385,0.004271,-0.000509,0.004316,-0.001430,-84.893570,0.004397,
650,1200,1.814752,-4.231808,0.999998,0.000170,-0.002368,0.004830,-0.000403,0.004852,-0.002391,-86.804420,0.004852,
760,210,0.488056,-9.263756,0.999997,0.000187,-0.001747,0.004780,0.000667,0.004847,-0.001814,84.227205,0.004898,
1430,810,-0.530018,-6.752913,0.999996,0.000249,-0.003904,0.006103,0.001282,0.006265,-0.004066,82.812199,0.006357,
960,530,0.470542,-8.016647,0.999997,0.000206,-0.002424,0.004740,-0.000596,0.004789,-0.002473,-85.280839,0.004790,
1380,1430,-0.224246,-2.220421,0.999998,0.000188,-0.002102,0.004015,-0.001191,0.004239,-0.002325,-79.365413,0.004246,
1680,1420,-1.072697,-2.931107,0.999998,0.000179,-0.002860,0.005395,-0.000010,0.005395,-0.002860,-89.931015,0.005398,
910,1260,0.960043,-3.639131,0.999997,0.000216,-0.003510,0.006254,-0.000148,0.006256,-0.003512,-89.128868,0.006272,
1720,1540,-1.010423,-2.361100,0.999998,0.000171,-0.002582,0.005123,-0.000134,0.005126,-0.002584,-89.006739,0.005126,
1680,130,-0.267520,-9.645556,0.999998,0.000180,-0.001236,0.004253,-0.000942,0.004410,-0.001393,-80.529312,0.004508,
720,310,0.767670,-8.725321,0.999998,0.000177,-0.002354,0.005005,0.000102,0.005007,-0.002355,89.209392,0.005010,
910,30,0.013872,-10.042697,0.999999,0.000000,-0.000008,0.003298,0.000626,0.003413,-0.000123,79.629778,0.003872,
1120,1740,0.109416,-0.990258,0.999998,0.000147,-0.001099,0.003640,0.000105,0.003643,-0.001101,88.734177,0.003736,
1030,830,0.592795,-6.616488,0.999996,0.000227,-0.003930,0.006382,-0.001113,0.006500,-0.004048,-83.910645,0.006565,
1130,760,0.145491,-7.508730,0.999998,0.000202,-0.002260,0.003299,-0.002045,0.003971,-0.002931,-71.826664,0.004118,
1730,1960,-0.219651,-0.303550,0.999998,0.000172,-0.001032,0.004185,0.001197,0.004447,-0.001293,77.671967,0.004575,
690,670,1.389507,-6.827875,0.999998,0.000200,-0.002659,0.005224,0.000179,0.005228,-0.002663,88.702983,0.005229,
900,550,0.637031,-7.806429,0.999998,0.000186,-0.002633,0.005068,-0.000448,0.005094,-0.002659,-86.680176,0.005095,
1290,1780,-0.049037,-0.829052,0.999998,0.000155,-0.000773,0.003510,0.000041,0.003510,-0.000774,89.450079,0.003688,
1640,620,-0.934653,-7.296716,0.999998,0.000167,-0.002913,0.005396,0.000165,0.005400,-0.002916,88.865784,0.005405,
600,1770,1.009132,-1.434143,0.999998,0.000167,-0.002413,0.004925,-0.000011,0.004925,-0.002413,-89.911381,0.004926,
1780,710,-1.478426,-6.610352,0.999998,0.000196,-0.002659,0.005170,-0.000276,0.005180,-0.002668,-87.983103,0.005181,
1900,960,-2.121965,-5.313359,0.999998,0.000000,-0.001977,0.004022,0.000043,0.004022,-0.001978,89.588492,0.004022,
900,910,1.286493,-5.711270,0.999997,0.000201,-0.002671,0.005992,0.000723,0.006052,-0.002731,85.259372,0.006061,
1070,1790,0.137147,-0.826843,0.999999,0.000143,-0.000977,0.003669,-0.000049,0.003670,-0.000977,-89.400285,0.003801,
610,230,0.865895,-8.939234,0.999998,0.000187,-0.002441,0.005020,0.000128,0.005022,-0.002443,89.016753,0.005023,
940,1580,0.477175,-1.838519,0.999997,0.000196,-0.002207,0.004679,0.000457,0.004709,-0.002237,86.216666,0.004711,
960,690,0.600361,-7.196245,0.999997,0.000209,-0.003317,0.005608,-0.000780,0.005676,-0.003385,-85.040948,0.005711,
1560,200,-0.252271,-9.416052,0.999998,0.000177,-0.001134,0.004078,-0.000462,0.004118,-0.001175,-84.972509,0.004243,
1560,1590,-0.553188,-1.849663,0.999998,0.000174,-0.002266,0.004740,-0.000322,0.004755,-0.002281,-87.373213,0.004756,
1490,140,-0.116954,-9.673971,0.999998,0.000164,-0.000690,0.003575,-0.000348,0.003603,-0.000719,-85.361256,0.003814,
1470,1010,-1.277451,-5.163584,0.999996,0.000236,-0.002347,0.007511,-0.000036,0.007511,-0.002347,-89.791657,0.007685,
1320,1530,-0.116629,-1.746555,0.999998,0.000159,-0.001466,0.003575,-0.000513,0.003627,-0.001517,-84.248051,0.003643,
1620,1850,-0.344296,-0.725223,0.999997,0.000216,-0.001353,0.004389,0.000570,0.004445,-0.001409,84.383008,0.004543,
1330,770,-0.141974,-7.491515,0.999997,0.000195,-0.002243,0.003187,0.002099,0.003904,-0.002960,71.147692,0.004073,
840,1730,0.531381,-1.270175,0.999998,0.000193,-0.001891,0.004688,-0.000091,0.004689,-0.001892,-89.208556,0.004719,
1790,1960,-0.308204,-0.344193,0.999997,0.000205,-0.001244,0.004744,0.001582,0.005137,-0.001636,76.073289,0.005248,
650,1110,1.929175,-4.659171,0.999998,0.000167,-0.002201,0.004689,-0.000282,0.004701,-0.002212,-87.661480,0.004704,
1510,1390,-0.597095,-2.763947,0.999997,0.000210,-0.003121,0.005463,-0.000734,0.005525,-0.003184,-85.147336,0.005546,
1810,310,-0.929016,-8.616243,0.999998,0.000169,-0.002411,0.005059,-0.000077,0.005060,-0.002412,-89.411911,0.005062,
1170,1590,0.075450,-1.507151,0.999998,0.000153,-0.001294,0.003585,0.000216,0.003595,-0.001304,87.465045,0.003640,
1280,420,-0.057411,-8.736217,0.999999,0.000147,-0.001171,0.003556,0.000115,0.003558,-0.001174,88.608241,0.003626,
1850,810,-1.830537,-6.027178,0.999998,0.000177,-0.002358,0.004711,-0.000245,0.004720,-0.002367,-88.021605,0.004720,
1380,800,-0.321284,-7.087741,0.999997,0.000215,-0.003372,0.004980,0.002083,0.005470,-0.003863,76.744446,0.005623,
1890,1890,-0.775176,-0.899637,0.999998,0.000182,-0.002496,0.005041,0.000375,0.005060,-0.002514,87.158252,0.005060,
630,1200,1.861627,-4.247536,0.999998,0.000189,-0.002342,0.004781,-0.000369,0.004800,-0.002361,-87.039539,0.004801,
900,1420,0.724403,-2.720133,0.999997,0.000203,-0.003030,0.005468,0.000456,0.005492,-0.003054,86.934365,0.005504,
620,1330,1.667125,-3.627153,0.999998,0.000187,-0.002491,0.004989,-0.000208,0.004995,-0.002496,-88.410378,0.004995,
1600,180,-0.271734,-9.475782,0.999998,0.000196,-0.001248,0.004155,-0.000535,0.004207,-0.001301,-84.396824,0.004308,
780,1390,1.129845,-3.098508,0.999998,0.000173,-0.002910,0.005442,-0.000088,0.005443,-0.002911,-89.393793,0.005447,
1430,830,-0.581539,-6.629421,0.999995,0.000252,-0.003911,0.006327,0.001190,0.006463,-0.004047,83.454290,0.006532,
1520,570,-0.541250,-7.789257,0.999997,0.000179,-0.002646,0.004999,0.000614,0.005048,-0.002695,85.436429,0.005052,
1080,330,0.158389,-9.013297,0.999998,0.000161,-0.001117,0.003798,-0.000062,0.003799,-0.001118,-89.279345,0.003905,
1700,850,-1.526708,-5.948617,0.999997,0.000203,-0.002628,0.005340,-0.000603,0.005385,-0.002673,-85.694329,0.005385,
1660,130,-0.242139,-9.656451,0.999998,0.000197,-0.001163,0.004147,-0.000847,0.004279,-0.001295,-81.157819,0.004389,
720,290,0.730494,-8.826344,0.999998,0.000175,-0.002314,0.005028,0.000191,0.005032,-0.002319,88.510629,0.005038,
1770,110,-0.327245,-9.680939,0.999998,0.000174,-0.001685,0.004751,-0.001242,0.004982,-0.001916,-79.451560,0.005026,
1380,1410,-0.226465,-2.302151,0.999998,0.000159,-0.002232,0.004069,-0.001299,0.004326,-0.002489,-78.799000,0.004343,
1680,1440,-1.042291,-2.822984,0.999998,0.000171,-0.002824,0.005369,-0.000062,0.005369,-0.002824,-89.567451,0.005372,
1720,1520,-1.036810,-2.463121,0.999997,0.000182,-0.002619,0.005206,-0.000099,0.005207,-0.002620,-89.278126,0.005207,
1030,400,0.262277,-8.693581,0.999998,0.000197,-0.001541,0.004077,-0.000263,0.004089,-0.001554,-87.326412,0.004128,
1900,950,-2.116977,-5.352842,0.999998,0.000000,-0.002040,0.004140,0.000018,0.004140,-0.002040,89.831662,0.004140,
690,650,1.356441,-6.933237,0.999998,0.000190,-0.002662,0.005212,0.000133,0.005214,-0.002664,89.035762,0.005214,
970,1480,0.475046,-2.258525,0.999997,0.000201,-0.002536,0.004873,0.000742,0.004946,-0.002610,84.338769,0.004949,
1030,810,0.540712,-6.737527,0.999996,0.000224,-0.003916,0.006131,-0.001219,0.006276,-0.004061,-83.180886,0.006366,
1020,1690,0.259025,-1.252890,0.999998,0.000178,-0.001484,0.004091,0.000175,0.004097,-0.001489,88.205284,0.004148,
910,2020,0.020593,-0.050420,0.999999,0.000000,0.000012,0.003422,-0.000609,0.003528,-0.000093,-80.170024,0.004021,
610,250,0.910847,-8.841664,0.999998,0.000191,-0.002426,0.004989,0.000085,0.004990,-0.002427,89.341344,0.004991,
1750,1840,-0.588396,-0.889215,0.999997,0.000210,-0.002190,0.004940,0.000478,0.004972,-0.002222,86.181927,0.004981,
1070,1810,0.125510,-0.755336,0.999998,0.000159,-0.000880,0.003623,-0.000089,0.003625,-0.000882,-88.864163,0.003781,
1560,1550,-0.586819,-2.041548,0.999998,0.000196,-0.002466,0.004904,-0.000419,0.004928,-0.002490,-86.756688,0.004928,
900,530,0.619177,-7.907092,0.999998,0.000178,-0.002587,0.005025,-0.000419,0.005047,-0.002610,-86.861328,0.005048,
1560,220,-0.282605,-9.332620,0.999998,0.000188,-0.001246,0.004145,-0.000392,0.004173,-0.001274,-85.865099,0.004278,
1790,1940,-0.377948,-0.440014,0.999998,0.000180,-0.001610,0.005033,0.001382,0.005309,-0.001886,78.704093,0.005383,
1590,680,-0.871966,-7.053389,0.999998,0.000163,-0.003189,0.005662,0.000186,0.005666,-0.003193,88.797334,0.005681,
870,1140,1.375029,-4.421050,0.999998,0.000198,-0.002558,0.005739,-0.000702,0.005798,-0.002617,-85.200113,0.005807,
1640,600,-0.908396,-7.403615,0.999998,0.000173,-0.002870,0.005360,0.000194,0.005364,-0.002874,88.652803,0.005369,
1120,1760,0.103963,-0.917636,0.999999,0.000137,-0.001044,0.003604,0.000072,0.003605,-0.001045,89.111307,0.003709,
1330,750,-0.134169,-7.558501,0.999998,0.000187,-0.002103,0.003203,0.001945,0.003839,-0.002740,71.873221,0.003954,
990,450,0.357728,-8.429785,0.999997,0.000202,-0.001952,0.004396,-0.000439,0.004426,-0.001982,-86.064207,0.004434,
1510,1370,-0.618211,-2.875089,0.999996,0.000221,-0.003268,0.005595,-0.000715,0.005652,-0.003325,-85.418800,0.005681,
1270,1780,-0.033131,-0.827613,0.999998,0.000157,-0.000830,0.003490,0.000002,0.003490,-0.000830,89.979555,0.003646,
620,1390,1.563068,-3.323152,0.999996,0.000218,-0.002537,0.005035,-0.000125,0.005037,-0.002539,-89.054542,0.005037,
1810,290,-0.891139,-8.718464,0.999998,0.000174,-0.002378,0.005089,-0.000146,0.005092,-0.002381,-88.882287,0.005095,
900,660,0.754950,-7.220713,0.999997,0.000193,-0.003146,0.005587,-0.000395,0.005605,-0.003164,-87.416328,0.005620,
650,1090,1.943752,-4.752639,0.999998,0.000158,-0.002150,0.004579,-0.000126,0.004582,-0.002152,-88.928934,0.004584,
1380,780,-0.288607,-7.188120,0.999997,0.000210,-0.003197,0.004737,0.002068,0.005244,-0.003703,76.233953,0.005391,
1170,1570,0.075499,-1.579221,0.999998,0.000148,-0.001347,0.003555,0.000257,0.003568,-0.001361,87.012359,0.003602,
1280,1220,-0.135953,-2.483371,0.999996,0.000239,-0.002525,0.001544,-0.000566,0.001621,-0.002603,-82.222763,0.002629,
950,90,0.077459,-9.843152,0.999998,0.000153,-0.000439,0.003440,0.000486,0.003500,-0.000499,82.971554,0.003786,
600,1330,1.716984,-3.654899,0.999998,0.000176,-0.002468,0.004927,-0.000142,0.004930,-0.002471,-88.897326,0.004930,
600,1390,1.614083,-3.352209,0.999998,0.000202,-0.002502,0.005032,-0.000096,0.005033,-0.002503,-89.270475,0.005033,
730,1010,1.789161,-5.125405,0.999998,0.000162,-0.002153,0.004907,0.000164,0.004911,-0.002156,88.668333,0.004923,
1470,990,-1.251350,-5.320385,0.999997,0.000206,-0.002432,0.007406,-0.000074,0.007407,-0.002433,-89.566731,0.007551,
1320,1470,-0.117796,-1.956464,0.999999,0.000156,-0.001495,0.003422,-0.000692,0.003517,-0.001590,-82.143930,0.003523,
750,360,0.776710,-8.517314,0.999997,0.000180,-0.002317,0.005019,0.000044,0.005019,-0.002317,89.657176,0.005024,
1840,910,-1.949214,-5.569420,0.999998,0.000167,-0.002218,0.004585,-0.000235,0.004593,-0.002226,-88.023964,0.004594,
1430,850,-0.640252,-6.495076,0.999996,0.000247,-0.003820,0.006605,0.001058,0.006712,-0.003926,84.264799,0.006744,
1600,600,-0.791661,-7.474809,0.999998,0.000182,-0.002854,0.005323,0.000303,0.005335,-0.002865,87.883597,0.005340,
1500,570,-0.488570,-7.830577,0.999997,0.000185,-0.002536,0.004867,0.000682,0.004929,-0.002599,84.783696,0.004932,
1900,940,-2.110521,-5.394974,0.999998,0.000000,-0.002109,0.004211,-0.000046,0.004212,-0.002109,-89.587532,0.004212,
1200,1650,0.036707,-1.285152,0.999998,0.000176,-0.001164,0.003548,0.000105,0.003551,-0.001166,88.728315,0.003620,
1030,790,0.495203,-6.861727,0.999997,0.000211,-0.003829,0.005964,-0.001337,0.006144,-0.004008,-82.364655,0.006238,
970,1460,0.486914,-2.356496,0.999997,0.000205,-0.002664,0.004984,0.000785,0.005063,-0.002743,84.197306,0.005069,
1720,1500,-1.066884,-2.570118,0.999997,0.000194,-0.002657,0.005258,-0.000088,0.005259,-0.002658,-89.359687,0.005259,
1680,1460,-1.011916,-2.715966,0.999998,0.000154,-0.002784,0.005292,-0.000098,0.005294,-0.002785,-89.304587,0.005296,
1020,1670,0.270446,-1.335495,0.999998,0.000181,-0.001517,0.004100,0.000193,0.004106,-0.001524,88.036725,0.004152,
610,270,0.955362,-8.738361,0.999998,0.000180,-0.002451,0.004990,0.000062,0.004990,-0.002451,89.525119,0.004990,
740,790,1.473633,-6.250470,0.999998,0.000221,-0.002705,0.005343,0.000505,0.005375,-0.002737,86.421296,0.005375,
850,1140,1.425151,-4.433546,0.999997,0.000215,-0.002462,0.005615,-0.000708,0.005677,-0.002523,-85.028308,0.005688,
1560,240,-0.310308,-9.249183,0.999998,0.000183,-0.001323,0.004242,-0.000328,0.004262,-0.001342,-86.643385,0.004358,
1080,300,0.146423,-9.126485,0.999998,0.000152,-0.001008,0.003729,0.000007,0.003729,-0.001008,89.915198,0.003858,
1390,400,-0.195616,-8.739032,0.999998,0.000140,-0.001431,0.003896,0.000285,0.003911,-0.001446,86.948188,0.003955,
1020,2020,0.013928,-0.048798,0.999998,0.000000,-0.000003,0.003056,-0.000306,0.003086,-0.000033,-84.346958,0.003545,
900,350,0.443905,-8.765744,0.999997,0.000195,-0.001908,0.004542,-0.000046,0.004542,-0.001909,-89.591913,0.004561,
1020,330,0.238404,-8.967489,0.999998,0.000164,-0.001371,0.004009,-0.000081,0.004010,-0.001373,-89.135360,0.004076,
1130,270,0.083913,-9.257539,0.999998,0.000149,-0.000956,0.003570,-0.000038,0.003571,-0.000956,-89.519542,0.003697,
620,1370,1.598480,-3.424314,0.999998,0.000193,-0.002520,0.005076,-0.000145,0.005078,-0.002523,-88.902978,0.005078,
1330,1510,-0.132666,-1.828543,0.999998,0.000158,-0.001478,0.003578,-0.000543,0.003636,-0.001536,-83.937093,0.003650,
1850,790,-1.798695,-6.122346,0.999998,0.000173,-0.002417,0.004826,-0.000240,0.004834,-0.002425,-88.101407,0.004834,
1470,1420,-0.450714,-2.500843,0.999996,0.000225,-0.002808,0.004967,-0.000939,0.005078,-0.002920,-83.210638,0.005097,
1830,1700,-1.053258,-1.724301,0.999998,0.000169,-0.002434,0.005008,-0.000037,0.005008,-0.002435,-89.712959,0.005008,
1700,830,-1.486634,-6.057290,0.999996,0.000219,-0.002694,0.005364,-0.000601,0.005409,-0.002739,-85.761846,0.005409,
970,140,0.119296,-9.672701,0.999998,0.000161,-0.000724,0.003588,0.000385,0.003622,-0.000758,84.943270,0.003820,
1280,1240,-0.096044,-2.453006,0.999997,0.000194,-0.001958,0.001536,-0.001184,0.001899,-0.002322,-72.930081,0.002473,
1510,1350,-0.642155,-2.988335,0.999997,0.000213,-0.003404,0.005729,-0.000669,0.005777,-0.003453,-85.829754,0.005814,
650,1070,1.950620,-4.843508,0.999998,0.000171,-0.002123,0.004556,-0.000114,0.004558,-0.002125,-89.022499,0.004561,
1750,1820,-0.635802,-0.989598,0.999997,0.000196,-0.002225,0.004978,0.000370,0.004997,-0.002244,87.065358,0.005006,
1640,580,-0.881894,-7.509529,0.999998,0.000171,-0.002818,0.005304,0.000215,0.005310,-0.002823,88.482650,0.005313,
1590,1820,-0.346538,-0.832330,0.999997,0.000195,-0.001607,0.004345,0.000342,0.004364,-0.001626,86.724067,0.004411,
1880,1890,-0.748837,-0.875128,0.999998,0.000186,-0.002475,0.005064,0.000381,0.005083,-0.002494,87.114253,0.005083,
1170,1550,0.077993,-1.648091,0.999998,0.000145,-0.001366,0.003509,0.000298,0.003527,-0.001384,86.512137,0.003554,
1810,270,-0.851372,-8.820453,0.999998,0.000165,-0.002338,0.005049,-0.000219,0.005055,-0.002345,-88.307257,0.005060,
950,70,0.054380,-9.913022,0.999998,0.000175,-0.000330,0.003384,0.000514,0.003454,-0.000400,82.258673,0.003778,
730,360,0.826310,-8.488956,0.999997,0.000194,-0.002425,0.005040,0.000002,0.005040,-0.002425,89.988416,0.005041,
1820,910,-1.905644,-5.581404,0.999998,0.000159,-0.002252,0.004680,-0.000279,0.004691,-0.002263,-87.695192,0.004692,
590,1390,1.639094,-3.368787,0.999998,0.000199,-0.002711,0.005047,-0.000048,0.005047,-0.002711,-89.646724,0.005052,
1380,760,-0.269404,-7.280007,0.999997,0.000207,-0.003018,0.004634,0.001987,0.005119,-0.003504,76.277713,0.005234,
710,460,1.020349,-7.948644,0.999998,0.000152,-0.002518,0.005071,-0.000102,0.005073,-0.002519,-89.228903,0.005073,
900,1400,0.748402,-2.830357,0.999998,0.000186,-0.003135,0.005512,0.000380,0.005529,-0.003152,87.488981,0.005547,
1770,90,-0.263954,-9.768458,0.999997,0.000179,-0.001343,0.004470,-0.001396,0.004787,-0.001661,-77.176902,0.004862,
1870,1040,-2.082605,-4.986836,0.999998,0.000162,-0.002049,0.004310,0.000097,0.004311,-0.002051,89.125973,0.004313,
690,630,1.323516,-7.038087,0.999997,0.000196,-0.002682,0.005179,0.000102,0.005180,-0.002684,89.254675,0.005182,
1720,1480,-1.093202,-2.673577,0.999997,0.000195,-0.002682,0.005245,-0.000064,0.005245,-0.002683,-89.535112,0.005246,
1600,620,-0.817528,-7.368216,0.999998,0.000186,-0.002939,0.005399,0.000271,0.005408,-0.002948,88.143186,0.005415,
1010,1440,0.395849,-2.362507,0.999998,0.000188,-0.002622,0.004775,0.000996,0.004907,-0.002754,82.465812,0.004919,
820,810,1.286226,-6.218469,0.999997,0.000235,-0.002994,0.005722,0.000539,0.005755,-0.003027,86.472994,0.005758,
1440,1470,-0.348271,-2.189339,0.999998,0.000188,-0.002333,0.004538,-0.000883,0.004650,-0.002445,-82.789331,0.004652,
610,290,0.994955,-8.640536,0.999998,0.000188,-0.002469,0.004974,-0.000004,0.004974,-0.002469,-89.967304,0.004974,
1030,770,0.462464,-6.977759,0.999996,0.000214,-0.003682,0.005747,-0.001365,0.005940,-0.003875,-81.927942,0.006032,
1900,930,-2.103294,-5.440225,0.999998,0.000000,-0.002147,0.004221,-0.000104,0.004223,-0.002149,-89.067765,0.004223,
1080,280,0.136298,-9.200851,0.999998,0.000159,-0.000947,0.003697,0.000055,0.003698,-0.000948,89.325544,0.003842,
1430,870,-0.710488,-6.356670,0.999996,0.000229,-0.003637,0.006868,0.000996,0.006961,-0.003731,84.632008,0.006967,
1020,30,0.009454,-10.046275,0.999999,0.000000,0.000007,0.003116,0.000316,0.003148,-0.000025,84.258583,0.003621,
1450,880,-0.825730,-6.188093,0.999997,0.000197,-0.003743,0.007010,0.000412,0.007025,-0.003759,87.809368,0.007031,
1560,260,-0.334126,-9.163593,0.999998,0.000173,-0.001419,0.004232,-0.000254,0.004244,-0.001431,-87.433792,0.004318,
1470,970,-1.209618,-5.457978,0.999997,0.000204,-0.002574,0.007139,-0.000156,0.007141,-0.002576,-89.079078,0.007233,
1680,1480,-0.984308,-2.610960,0.999998,0.000160,-0.002739,0.005260,-0.000124,0.005261,-0.002741,-89.110679,0.005263,
740,810,1.511918,-6.145528,0.999998,0.000180,-0.002667,0.005272,0.000536,0.005308,-0.002703,86.151871,0.005309,
1390,420,-0.203060,-8.660905,0.999998,0.000169,-0.001516,0.003911,0.000365,0.003935,-0.001540,86.173925,0.003966,
1320,1510,-0.117781,-1.816756,0.999998,0.000160,-0.001466,0.003541,-0.000549,0.003600,-0.001526,-83.818666,0.003614,
1330,1530,-0.131282,-1.756734,0.999998,0.000163,-0.001465,0.003619,-0.000508,0.003669,-0.001516,-84.346692,0.003688,
1400,330,-0.178459,-9.002535,0.999998,0.000163,-0.001248,0.003820,0.000082,0.003822,-0.001249,89.074190,0.003897,
1610,1120,-1.457518,-4.544894,0.999998,0.000198,-0.002337,0.005522,0.000644,0.005574,-0.002390,85.345245,0.005593,
1130,250,0.079405,-9.327822,0.999998,0.000147,-0.000854,0.003511,-0.000014,0.003511,-0.000854,-89.813359,0.003662,
1520,430,-0.436700,-8.456388,0.999997,0.000216,-0.001959,0.004529,0.000285,0.004542,-0.001972,87.491260,0.004555,
1810,1700,-1.003921,-1.690814,0.999998,0.000170,-0.002480,0.005019,-0.000002,0.005019,-0.002480,-89.985042,0.005019,
1510,1330,-0.671641,-3.104645,0.999997,0.000211,-0.003509,0.005843,-0.000611,0.005883,-0.003549,-86.275471,0.005925,
1280,1260,-0.068052,-2.424126,0.999998,0.000195,-0.001628,0.001586,-0.001336,0.002069,-0.002111,-70.130362,0.002414,
1870,1890,-0.724299,-0.850142,0.999998,0.000191,-0.002446,0.005095,0.000390,0.005115,-0.002466,87.049475,0.005116,
650,1050,1.960442,-4.936344,0.999998,0.000162,-0.002144,0.004592,-0.000161,0.004595,-0.002148,-88.629704,0.004599,
1380,1460,-0.220520,-2.100233,0.999998,0.000165,-0.001937,0.004016,-0.000978,0.004172,-0.002093,-80.907617,0.004172,
590,1200,1.955170,-4.288624,0.999999,0.000125,-0.002212,0.004616,-0.000177,0.004621,-0.002217,-88.519217,0.004622,
1180,1650,0.060298,-1.290918,0.999998,0.000173,-0.001150,0.003564,0.000084,0.003566,-0.001151,88.974744,0.003639,
1550,140,-0.160733,-9.655355,0.999998,0.000158,-0.000656,0.003797,-0.000559,0.003866,-0.000725,-82.958725,0.004110,
1850,770,-1.763439,-6.221047,0.999998,0.000158,-0.002460,0.004922,-0.000227,0.004929,-0.002467,-88.242723,0.004929,
1020,890,0.836907,-6.146621,0.999997,0.000205,-0.003566,0.007057,-0.000553,0.007085,-0.003595,-87.028318,0.007085,
1590,1800,-0.375989,-0.920028,0.999997,0.000190,-0.001709,0.004353,0.000251,0.004363,-0.001719,87.630823,0.004396,
1430,1420,-0.343033,-2.394709,0.999997,0.000205,-0.002566,0.004587,-0.001143,0.004765,-0.002744,-81.138275,0.004784,
1640,1000,-1.591072,-5.181990,0.999997,0.000186,-0.001977,0.005124,-0.000205,0.005130,-0.001983,-88.344827,0.005174,
940,1980,0.064248,-0.184368,0.999999,0.000137,-0.000327,0.003430,-0.000542,0.003507,-0.000403,-81.950967,0.003838,
1170,1970,0.012128,-0.199869,0.999999,0.000159,-0.000154,0.003075,-0.000098,0.003078,-0.000157,-88.254907,0.003467,
580,1390,1.663508,-3.384888,0.999998,0.000185,-0.003204,0.005109,0.000050,0.005109,-0.003204,89.653102,0.005164,
680,130,0.419542,-9.567566,0.999996,0.000229,-0.001792,0.004946,0.001213,0.005158,-0.002004,80.101714,0.005201,
1720,1460,-1.123341,-2.780425,0.999998,0.000177,-0.002720,0.005284,-0.000011,0.005284,-0.002720,-89.920442,0.005285,
1810,690,-1.520998,-6.675511,0.999997,0.000215,-0.002610,0.005105,-0.000236,0.005112,-0.002617,-88.249733,0.005113,
1700,70,-0.131708,-9.886360,0.999998,0.000140,-0.000575,0.003925,-0.001175,0.004214,-0.000864,-76.211076,0.004451,
1600,640,-0.843666,-7.256519,0.999997,0.000181,-0.003024,0.005519,0.000233,0.005525,-0.003030,88.436659,0.005534,
1410,1360,-0.317156,-2.615558,0.999996,0.000229,-0.002821,0.004753,-0.001499,0.005039,-0.003107,-79.200001,0.005084,
1030,750,0.432266,-7.090842,0.999997,0.000202,-0.003492,0.005548,-0.001411,0.005763,-0.003707,-81.331825,0.005841,
900,1360,0.806130,-3.056327,0.999998,0.000191,-0.003286,0.005721,0.000298,0.005731,-0.003296,88.109882,0.005753,
820,790,1.243358,-6.332939,0.999998,0.000193,-0.003047,0.005720,0.000456,0.005744,-0.003071,87.031985,0.005749,
1080,260,0.126056,-9.274218,0.999998,0.000187,-0.000868,0.003652,0.000068,0.003653,-0.000869,89.136120,0.003816,
1680,1920,-0.277507,-0.455619,0.999997,0.000187,-0.001273,0.004279,0.000882,0.004416,-0.001410,81.191918,0.004511,
1470,950,-1.149293,-5.604147,0.999997,0.000209,-0.002796,0.007291,-0.000201,0.007295,-0.002800,-88.860031,0.007361,
1900,920,-2.091223,-5.480321,0.999998,0.000000,-0.002190,0.004239,-0.000159,0.004243,-0.002193,-88.586011,0.004243,
1850,1040,-2.042035,-4.984073,0.999999,0.000136,-0.002106,0.004426,0.000109,0.004428,-0.002108,89.040191,0.004429,
1320,1490,-0.118126,-1.887772,0.999999,0.000150,-0.001486,0.003488,-0.000609,0.003561,-0.001559,-83.120404,0.003571,
1390,740,-0.283213,-7.327909,0.999997,0.000201,-0.002957,0.004741,0.001807,0.005144,-0.003360,77.425238,0.005224,
1330,1550,-0.131122,-1.683090,0.999998,0.000156,-0.001467,0.003660,-0.000460,0.003701,-0.001508,-84.912406,0.003722,
1440,1450,-0.356271,-2.280209,0.999996,0.000228,-0.002462,0.004642,-0.000995,0.004779,-0.002599,-82.176891,0.004785,
610,730,1.700705,-6.414349,0.999997,0.000181,-0.002491,0.004925,0.000180,0.004929,-0.002496,88.612245,0.004929,
1770,70,-0.190738,-9.862347,0.999997,0.000202,-0.000965,0.004600,-0.001700,0.005078,-0.001443,-74.291374,0.005233,
1600,710,-0.951246,-6.862845,0.999998,0.000163,-0.003224,0.005762,0.000050,0.005763,-0.003225,89.679453,0.005776,
1450,860,-0.752579,-6.329439,0.999997,0.000180,-0.003895,0.006893,0.000602,0.006926,-0.003929,86.814198,0.006947,
1520,410,-0.422219,-8.545654,0.999997,0.000214,-0.001875,0.004488,0.000223,0.004495,-0.001882,87.993756,0.004515,
1560,700,-0.803432,-7.000014,0.999998,0.000203,-0.003325,0.005743,0.000315,0.005754,-0.003336,88.015821,0.005778,
1130,230,0.070439,-9.398675,0.999998,0.000160,-0.000785,0.003481,0.000016,0.003481,-0.000785,89.781026,0.003652,
690,610,1.290167,-7.140134,0.999997,0.000201,-0.002663,0.005191,0.000062,0.005191,-0.002664,89.545781,0.005192,
1510,1750,-0.314405,-1.066022,0.999998,0.000173,-0.001586,0.004179,0.000006,0.004179,-0.001586,89.936856,0.004219,
1280,1280,-0.056986,-2.393641,0.999997,0.000223,-0.001436,0.001804,-0.001348,0.002292,-0.001924,-70.119998,0.002462,
1250,1780,-0.016881,-0.824795,0.999999,0.000136,-0.000861,0.003468,-0.000057,0.003469,-0.000862,-89.243209,0.003613,
1610,1100,-1.486884,-4.653452,0.999997,0.000211,-0.002170,0.005410,0.000535,0.005448,-0.002207,85.986116,0.005480,
1430,1430,-0.339323,-2.348321,0.999997,0.000196,-0.002497,0.004544,-0.001098,0.004711,-0.002664,-81.338502,0.004724,
1010,2020,0.013532,-0.049862,0.999999,0.000000,0.000030,0.003071,-0.000309,0.003102,-0.000001,-84.254346,0.003581,
1540,1890,-0.188348,-0.518026,0.999998,0.000178,-0.000827,0.003859,0.000499,0.003912,-0.000880,83.984103,0.004105,
1570,1700,-0.464003,-1.345268,0.999997,0.000215,-0.002035,0.004556,-0.000061,0.004557,-0.002035,-89.469854,0.004565,
650,1030,1.966807,-5.028042,0.999999,0.000142,-0.002156,0.004617,-0.000006,0.004617,-0.002156,-89.951195,0.004621,
1380,1480,-0.219947,-2.020662,0.999998,0.000157,-0.001880,0.003955,-0.000870,0.004082,-0.002006,-81.698966,0.004083,
1220,1650,0.014149,-1.279829,0.999998,0.000150,-0.001143,0.003545,0.000083,0.003546,-0.001145,88.985301,0.003620,
1170,1990,0.006656,-0.137449,0.999998,0.000146,-0.000098,0.003043,-0.000092,0.003046,-0.000101,-88.328602,0.003461,
580,1200,1.976962,-4.300196,0.999998,0.000155,-0.002160,0.004564,-0.000119,0.004566,-0.002163,-88.983425,0.004568,
1020,870,0.763251,-6.291718,0.999997,0.000216,-0.003791,0.006945,-0.000661,0.006985,-0.003831,-86.491358,0.006996,
830,100,0.156041,-9.785576,0.999998,0.000149,-0.000585,0.003863,0.000871,0.004027,-0.000749,79.308886,0.004284,
1640,1020,-1.600749,-5.078135,0.999997,0.000192,-0.001964,0.005141,-0.000117,0.005143,-0.001966,-89.053478,0.005191,
770,560,0.999342,-7.530325,0.999997,0.000199,-0.002700,0.005268,-0.000126,0.005270,-0.002702,-89.093452,0.005271,
1850,750,-1.728365,-6.321168,0.999998,0.000172,-0.002467,0.004933,-0.000225,0.004940,-0.002474,-88.261211,0.004940,
1900,910,-2.078708,-5.521049,0.999999,0.000000,-0.002229,0.004224,-0.000136,0.004227,-0.002231,-88.797472,0.004229,
1560,1250,-1.008162,-3.714023,0.999997,0.000199,-0.003433,0.006225,0.000245,0.006231,-0.003440,88.549161,0.006242,
920,770,0.870083,-6.618146,0.999998,0.000166,-0.003558,0.006197,-0.000087,0.006198,-0.003559,-89.487605,0.006221,
900,1340,0.839561,-3.173110,0.999998,0.000192,-0.003379,0.005864,0.000233,0.005870,-0.003385,88.557518,0.005893,
1560,1970,-0.088155,-0.223250,0.999999,0.000141,-0.000431,0.003545,0.000628,0.003642,-0.000527,81.236422,0.003937,
1700,50,-0.085183,-9.961878,0.999998,0.000149,-0.000317,0.003753,-0.001177,0.004069,-0.000633,-74.977317,0.004379,
1600,660,-0.871813,-7.147815,0.999998,0.000175,-0.003085,0.005569,0.000194,0.005573,-0.003089,88.714472,0.005584,
1810,710,-1.558437,-6.573813,0.999998,0.000191,-0.002590,0.005120,-0.000258,0.005128,-0.002599,-88.083125,0.005128,
940,1960,0.086374,-0.254353,0.999998,0.000170,-0.000419,0.003474,-0.000492,0.003535,-0.000480,-82.910260,0.003835,
1870,1480,-1.485816,-2.907620,0.999997,0.000190,-0.002541,0.005090,0.000005,0.005090,-0.002541,89.963195,0.005090,
1100,330,0.137771,-9.023463,0.999998,0.000144,-0.001101,0.003730,-0.000083,0.003732,-0.001103,-89.013675,0.003834,
1030,730,0.412376,-7.201464,0.999997,0.000202,-0.003332,0.005380,-0.001406,0.005602,-0.003553,-81.054288,0.005669,
1080,240,0.116385,-9.348429,0.999997,0.000192,-0.000767,0.003620,0.000111,0.003623,-0.000769,88.547234,0.003818,
1830,1060,-1.991387,-4.892368,0.999998,0.000179,-0.002109,0.004496,0.000116,0.004498,-0.002111,88.990439,0.004501,
960,270,0.268749,-9.165700,0.999998,0.000174,-0.001456,0.004077,0.000136,0.004080,-0.001459,88.589927,0.004135,
1560,680,-0.776170,-7.114110,0.999997,0.000211,-0.003230,0.005673,0.000369,0.005689,-0.003245,87.629181,0.005707,
580,1100,2.086420,-4.736973,0.999998,0.000181,-0.001984,0.004186,-0.000016,0.004186,-0.001984,-89.852819,0.004188,
610,710,1.665773,-6.513397,0.999997,0.000198,-0.002503,0.005012,0.000148,0.005015,-0.002506,88.873815,0.005015,
1710,320,-0.710088,-8.721390,0.999998,0.000177,-0.002182,0.004949,-0.000125,0.004952,-0.002184,-88.999117,0.004963,
1430,1410,-0.346624,-2.440388,0.999997,0.000208,-0.002636,0.004658,-0.001188,0.004847,-0.002824,-80.981594,0.004869,
1330,1570,-0.129241,-1.609513,0.999998,0.000154,-0.001435,0.003637,-0.000406,0.003669,-0.001467,-85.454459,0.003694,
1380,390,-0.178574,-8.786515,0.999999,0.000139,-0.001304,0.003866,0.000209,0.003874,-0.001313,87.692080,0.003941,
1070,1780,0.142820,-0.864826,0.999999,0.000130,-0.001014,0.003736,-0.000039,0.003736,-0.001014,-89.531437,0.003864,
1420,1650,-0.244747,-1.392853,0.999997,0.000220,-0.001597,0.004023,-0.000332,0.004042,-0.001617,-86.635168,0.004069,
1010,30,0.008953,-10.045797,0.999999,0.000000,0.000011,0.003141,0.000360,0.003182,-0.000030,83.515692,0.003657,
1760,1980,-0.203422,-0.238896,0.999998,0.000168,-0.001157,0.004399,0.001471,0.004764,-0.001523,76.051138,0.004866,
1510,1770,-0.294816,-0.982503,0.999998,0.000168,-0.001521,0.004178,0.000092,0.004180,-0.001522,89.079170,0.004231,
650,1010,1.960843,-5.120449,0.999998,0.000154,-0.002154,0.004630,0.000146,0.004633,-0.002157,88.765557,0.004637,
1590,1120,-1.408976,-4.535120,0.999996,0.000236,-0.002348,0.005650,0.000698,0.005710,-0.002408,85.048072,0.005734,
1540,1870,-0.212693,-0.595588,0.999998,0.000180,-0.000918,0.003935,0.000443,0.003975,-0.000958,84.830314,0.004149,
1380,1500,-0.216104,-1.943848,0.999998,0.000171,-0.001834,0.003919,-0.000810,0.004031,-0.001946,-82.135401,0.004032,
690,1030,1.881349,-5.028922,0.999998,0.000152,-0.002175,0.004788,-0.000038,0.004788,-0.002175,-89.683360,0.004795,
1130,210,0.064656,-9.467745,0.999998,0.000144,-0.000711,0.003462,0.000046,0.003462,-0.000711,89.362358,0.003657,
1900,900,-2.067755,-5.566651,0.999999,0.000000,-0.002218,0.004247,-0.000051,0.004247,-0.002218,-89.547095,0.004249,
670,1920,0.454071,-0.547189,0.999997,0.000277,-0.001765,0.005030,-0.001205,0.005238,-0.001972,-80.233417,0.005291,
1280,1720,-0.048759,-1.041229,0.999999,0.000144,-0.000976,0.003523,-0.000020,0.003523,-0.000977,-89.746200,0.003638,
1180,60,0.005535,-9.958201,0.999999,0.000141,-0.000095,0.003028,0.000075,0.003030,-0.000097,88.619343,0.003444,
1540,1970,-0.082707,-0.221854,0.999998,0.000147,-0.000314,0.003511,0.000578,0.003596,-0.000399,81.598322,0.003942,
830,80,0.116957,-9.861847,0.999998,0.000140,-0.000441,0.003777,0.000947,0.003980,-0.000643,77.909116,0.004273,
1600,1100,-1.465901,-4.649769,0.999997,0.000210,-0.002192,0.005470,0.000541,0.005508,-0.002230,85.980857,0.005541,
940,1940,0.111615,-0.323909,0.999998,0.000167,-0.000563,0.003631,-0.000507,0.003691,-0.000624,-83.199435,0.003952,
1440,1310,-0.451474,-2.986937,0.999997,0.000209,-0.003487,0.005622,-0.001317,0.005809,-0.003673,-81.936814,0.005876,
770,480,0.894209,-7.943255,0.999998,0.000165,-0.002510,0.005070,-0.000142,0.005073,-0.002512,-88.929356,0.005073,
1620,1250,-1.204093,-3.804887,0.999997,0.000193,-0.003126,0.005864,0.000485,0.005890,-0.003152,86.920115,0.005895,
1850,730,-1.692359,-6.418238,0.999998,0.000191,-0.002467,0.004962,-0.000187,0.004966,-0.002472,-88.557111,0.004966,
940,770,0.798244,-6.669135,0.999997,0.000182,-0.003656,0.006239,-0.000313,0.006249,-0.003666,-88.188174,0.006280,
610,690,1.631520,-6.616623,0.999997,0.000200,-0.002533,0.005065,0.000151,0.005068,-0.002537,88.860376,0.005068,
1830,1040,-1.999231,-4.982993,0.999999,0.000158,-0.002132,0.004531,0.000114,0.004533,-0.002133,89.023414,0.004535,
1000,2020,0.011868,-0.050331,0.999999,0.000000,0.000030,0.003067,-0.000346,0.003106,-0.000009,-83.575303,0.003581,
1120,1250,0.214798,-2.783636,0.999997,0.000229,-0.002696,0.003665,0.002275,0.004395,-0.003426,72.213803,0.004618,
1720,1440,-1.154374,-2.886817,0.999998,0.000168,-0.002771,0.005278,0.000021,0.005278,-0.002771,89.847131,0.005280,
1720,650,-1.210324,-7.008191,0.999998,0.000185,-0.002813,0.005325,-0.000116,0.005327,-0.002815,-89.184230,0.005329,
1810,730,-1.592932,-6.469393,0.999998,0.000176,-0.002562,0.005108,-0.000287,0.005118,-0.002572,-87.861862,0.005118,
1080,220,0.104877,-9.417981,0.999998,0.000180,-0.000703,0.003535,0.000136,0.003539,-0.000708,88.168832,0.003745,
1320,1410,-0.111806,-2.155410,0.999998,0.000165,-0.001601,0.003276,-0.001027,0.003483,-0.001809,-78.582983,0.003484,
1590,520,-0.677991,-7.908991,0.999997,0.000181,-0.002569,0.005033,0.000330,0.005047,-0.002583,87.518410,0.005048,
1760,1960,-0.261711,-0.320323,0.999998,0.000165,-0.001535,0.004378,0.001204,0.004614,-0.001771,78.916284,0.004655,
650,990,1.952732,-5.213442,0.999998,0.000180,-0.002162,0.004559,0.000110,0.004561,-0.002163,89.060966,0.004563,
1470,930,-1.081315,-5.754410,0.999997,0.000198,-0.003063,0.007154,-0.000155,0.007156,-0.003066,-89.130690,0.007180,
900,1510,0.632129,-2.248284,0.999997,0.000188,-0.002610,0.005047,0.000460,0.005074,-0.002638,86.574084,0.005075,
1340,60,-0.012883,-9.956576,0.999999,0.000127,-0.000168,0.003072,-0.000145,0.003079,-0.000174,-87.435611,0.003458,
1190,200,0.025728,-9.510709,0.999998,0.000169,-0.000585,0.003342,0.000026,0.003343,-0.000585,89.617893,0.003570,
1680,1900,-0.324894,-0.545084,0.999997,0.000192,-0.001445,0.004421,0.000839,0.004539,-0.001563,82.016987,0.004611,
1280,1700,-0.050439,-1.110699,0.999998,0.000155,-0.001021,0.003572,-0.000043,0.003573,-0.001021,-89.459254,0.003680,
1560,660,-0.746145,-7.228450,0.999997,0.000238,-0.003146,0.005577,0.000415,0.005597,-0.003165,87.285356,0.005613,
860,740,1.017097,-6.682990,0.999998,0.000180,-0.003258,0.005856,0.000105,0.005857,-0.003259,89.340136,0.005870,
900,1320,0.874364,-3.291905,0.999998,0.000193,-0.003463,0.005987,0.000149,0.005990,-0.003466,89.097384,0.006014,
1480,730,-0.572545,-7.035452,0.999997,0.000206,-0.003538,0.005770,0.000874,0.005852,-0.003619,84.684506,0.005906,
1790,1700,-0.954607,-1.658676,0.999998,0.000157,-0.002422,0.005047,0.000007,0.005047,-0.002422,89.945580,0.005048,
900,930,1.332412,-5.594932,0.999998,0.000187,-0.002447,0.005873,0.000720,0.005935,-0.002508,85.091350,0.005959,
1410,1900,-0.083945,-0.440148,0.999998,0.000148,-0.000625,0.003489,0.000215,0.003500,-0.000637,87.017605,0.003729,
1690,50,-0.080628,-9.964410,0.999998,0.000147,-0.000360,0.003699,-0.001102,0.003979,-0.000640,-75.751929,0.004273,
1400,390,-0.205905,-8.768768,0.999998,0.000167,-0.001467,0.003952,0.000291,0.003967,-0.001483,86.930111,0.004009,
1620,910,-1.432012,-5.670381,0.999997,0.000196,-0.002498,0.005552,-0.000699,0.005612,-0.002558,-85.073829,0.005620,
1510,1790,-0.272885,-0.898246,0.999998,0.000177,-0.001434,0.004027,0.000132,0.004031,-0.001437,88.615761,0.004086,
710,1260,1.562270,-3.881320,0.999998,0.000208,-0.002597,0.005154,-0.000463,0.005182,-0.002624,-86.595504,0.005182,
1380,1520,-0.214947,-1.864876,0.999998,0.000162,-0.001791,0.003920,-0.000767,0.004021,-0.001892,-82.481645,0.004023,
1640,1040,-1.600528,-4.974429,0.999997,0.000206,-0.001966,0.005167,0.000124,0.005169,-0.001968,89.005940,0.005217,
1900,890,-2.058981,-5.608939,0.999999,0.000000,-0.002233,0.004199,-0.000002,0.004199,-0.002233,-89.979961,0.004202,
1130,190,0.056564,-9.536803,0.999998,0.000160,-0.000674,0.003398,0.000066,0.003399,-0.000676,89.072639,0.003599,
730,1430,1.207037,-2.958405,0.999998,0.000162,-0.002719,0.005286,-0.000062,0.005287,-0.002719,-89.553260,0.005287,
1090,1380,0.216802,-2.405085,0.999998,0.000166,-0.002297,0.004079,0.001492,0.004411,-0.002629,77.458327,0.004438,
1180,80,0.010023,-9.897089,0.999999,0.000147,-0.000149,0.003082,0.000091,0.003085,-0.000152,88.384543,0.003478,
1100,70,0.019941,-9.924005,0.999998,0.000162,-0.000162,0.003135,0.000198,0.003147,-0.000174,86.572801,0.003538,
690,1050,1.872845,-4.932385,0.999998,0.000144,-0.002174,0.004751,-0.000167,0.004755,-0.002178,-88.619532,0.004761,
940,1920,0.137061,-0.398624,0.999998,0.000172,-0.000683,0.003697,-0.000473,0.003748,-0.000734,-83.907483,0.003972,
1120,1970,0.023455,-0.201551,0.999998,0.000176,-0.000252,0.003165,-0.000140,0.003171,-0.000258,-87.653100,0.003522,
1320,1390,-0.112137,-2.219671,0.999998,0.000166,-0.001638,0.003216,-0.001180,0.003488,-0.001909,-77.040166,0.003493,
1080,200,0.093373,-9.490168,0.999998,0.000165,-0.000634,0.003541,0.000168,0.003548,-0.000641,87.698484,0.003781,
1630,1440,-0.899469,-2.740394,0.999998,0.000161,-0.002892,0.005356,-0.000202,0.005361,-0.002897,-88.598387,0.005367,
1470,910,-1.009136,-5.894803,0.999997,0.000189,-0.003316,0.007032,-0.000126,0.007034,-0.003318,-89.301085,0.007037,
1850,710,-1.658831,-6.518335,0.999997,0.000206,-0.002482,0.005015,-0.000154,0.005018,-0.002486,-88.822054,0.005019,
650,970,1.947003,-5.303827,0.999998,0.000194,-0.002171,0.004571,0.000109,0.004573,-0.002173,89.075444,0.004575,
1160,1650,0.082421,-1.296153,0.999998,0.000153,-0.001194,0.003619,0.000153,0.003623,-0.001199,88.179929,0.003692,
1000,30,0.009718,-10.046636,0.999999,0.000000,0.000030,0.003166,0.000401,0.003216,-0.000020,82.821130,0.003702,
1570,1480,-0.680569,-2.414341,0.999997,0.000206,-0.002767,0.005187,-0.000451,0.005212,-0.002792,-86.763199,0.005217,
1220,1940,0.003397,-0.292171,0.999999,0.000136,-0.000342,0.003145,-0.000010,0.003145,-0.000342,-89.836849,0.003451,
1030,710,0.392590,-7.308541,0.999997,0.000205,-0.003156,0.005174,-0.001382,0.005398,-0.003379,-80.822569,0.005455,
1670,1380,-1.109035,-3.134330,0.999997,0.000202,-0.002982,0.005493,0.000090,0.005494,-0.002983,89.390314,0.005501,
1890,590,-1.559654,-7.065619,0.999996,0.000219,-0.002545,0.005092,0.000005,0.005092,-0.002545,89.962692,0.005092,
1250,140,-0.006575,-9.709444,0.999998,0.000186,-0.000395,0.003195,-0.000007,0.003195,-0.000395,-89.887437,0.003484,
1020,1330,0.439392,-2.889491,0.999998,0.000195,-0.003357,0.005448,0.001288,0.005632,-0.003541,81.843339,0.005694,
960,370,0.359242,-8.742702,0.999997,0.000191,-0.001823,0.004310,-0.000206,0.004317,-0.001830,-88.075561,0.004334,
580,1110,2.080058,-4.694963,0.999998,0.000166,-0.001992,0.004237,-0.000082,0.004238,-0.001993,-89.249778,0.004241,
1850,540,-1.381131,-7.383612,0.999997,0.000186,-0.002527,0.005137,0.000020,0.005137,-0.002527,89.851441,0.005137,
1370,1840,-0.094104,-0.641240,0.999998,0.000150,-0.000697,0.003537,0.000129,0.003541,-0.000701,88.262551,0.003750,
990,430,0.347381,-8.520074,0.999997,0.000206,-0.001891,0.004362,-0.000378,0.004385,-0.001914,-86.552062,0.004397,
820,320,0.563499,-8.811290,0.999998,0.000191,-0.002007,0.004754,0.000108,0.004756,-0.002009,89.084438,0.004775,
1430,1390,-0.356969,-2.538344,0.999996,0.000217,-0.002760,0.004833,-0.001262,0.005037,-0.002964,-80.809056,0.005063,
860,760,1.053149,-6.563377,0.999997,0.000198,-0.003280,0.005934,0.000197,0.005938,-0.003284,88.774480,0.005950,
1770,1700,-0.906825,-1.626834,0.999998,0.000135,-0.002410,0.005044,0.000004,0.005044,-0.002410,89.966008,0.005046,
710,1200,1.669574,-4.190748,0.999997,0.000197,-0.002490,0.005049,-0.000503,0.005082,-0.002523,-86.200364,0.005082,
970,200,0.184705,-9.448411,0.999998,0.000183,-0.001045,0.003832,0.000299,0.003850,-0.001063,86.499005,0.003977,
1560,640,-0.721554,-7.339156,0.999997,0.000212,-0.003051,0.005498,0.000452,0.005521,-0.003075,86.981999,0.005533,
1420,1630,-0.251322,-1.474187,0.999998,0.000183,-0.001622,0.004087,-0.000362,0.004110,-0.001645,-86.383386,0.004137,
1330,1990,-0.014074,-0.138325,0.999998,0.000153,-0.000174,0.003066,0.000139,0.003072,-0.000180,87.542588,0.003448,
1680,1880,-0.371777,-0.633566,0.999997,0.000197,-0.001575,0.004498,0.000745,0.004588,-0.001665,83.109678,0.004645,
1710,1820,-0.552866,-0.942166,0.999998,0.000149,-0.001907,0.004825,0.000563,0.004872,-0.001954,85.250362,0.004904,
1280,1680,-0.056083,-1.183962,0.999998,0.000165,-0.001054,0.003565,-0.000055,0.003566,-0.001054,-89.315976,0.003664,
1650,420,-0.713910,-8.312244,0.999998,0.000159,-0.002337,0.004952,0.000135,0.004955,-0.002339,88.941837,0.004957,
1720,630,-1.177618,-7.114221,0.999998,0.000180,-0.002790,0.005310,-0.000066,0.005311,-0.002791,-89.534014,0.005313,
1810,750,-1.628805,-6.369403,0.999997,0.000197,-0.002522,0.005012,-0.000305,0.005024,-0.002534,-87.689250,0.005024,
840,1250,1.213171,-3.809732,0.999997,0.000197,-0.003077,0.005825,-0.000488,0.005852,-0.003104,-86.872885,0.005856,
940,790,0.841856,-6.541795,0.999997,0.000178,-0.003694,0.006343,-0.000188,0.006346,-0.003697,-88.929779,0.006375,
1510,1810,-0.254934,-0.820242,0.999998,0.000174,-0.001333,0.004028,0.000198,0.004035,-0.001340,87.888590,0.004110,
1380,1960,-0.036231,-0.235668,0.999998,0.000162,-0.000230,0.003209,0.000224,0.003224,-0.000245,86.282988,0.003590,
900,1300,0.911083,-3.415092,0.999997,0.000193,-0.003494,0.006048,0.000064,0.006048,-0.003495,89.612832,0.006073,
1480,710,-0.549367,-7.149233,0.999998,0.000206,-0.003400,0.005637,0.000932,0.005733,-0.003495,84.170086,0.005778,
1100,530,0.183407,-8.264041,0.999998,0.000180,-0.001717,0.003843,-0.000724,0.003936,-0.001810,-82.703567,0.003940,
1640,1060,-1.589830,-4.872288,0.999998,0.000196,-0.001989,0.005141,0.000208,0.005147,-0.001995,88.328245,0.005190,
1860,50,-0.224656,-9.875411,0.999997,0.000220,-0.001494,0.005539,-0.002101,0.006119,-0.002074,-74.570194,0.006224,
1900,510,-1.461309,-7.459059,0.999997,0.000000,-0.002467,0.005069,-0.000007,0.005069,-0.002467,-89.947528,0.005070,
1620,890,-1.393669,-5.781221,0.999998,0.000188,-0.002647,0.005631,-0.000682,0.005687,-0.002703,-85.319180,0.005690,
890,1560,0.611120,-2.014820,0.999997,0.000224,-0.002470,0.004923,0.000361,0.004940,-0.002488,87.213685,0.004940,
1160,1450,0.092039,-2.000331,0.999999,0.000131,-0.001434,0.003250,0.000713,0.003356,-0.001541,81.531163,0.003360,
1890,580,-1.544336,-7.116473,0.999997,0.000211,-0.002554,0.005089,0.000004,0.005089,-0.002554,89.971481,0.005089,
940,1900,0.160993,-0.473488,0.999998,0.000167,-0.000811,0.003792,-0.000472,0.003840,-0.000859,-84.204196,0.004030,
1850,690,-1.624109,-6.621578,0.999997,0.000206,-0.002504,0.005047,-0.000144,0.005050,-0.002507,-88.911283,0.005050,
1100,1250,0.274243,-2.909713,0.999996,0.000237,-0.003086,0.004438,0.002269,0.005069,-0.003718,74.449879,0.005250,
730,1450,1.175665,-2.851440,0.999998,0.000162,-0.002707,0.005252,-0.000034,0.005252,-0.002708,-89.758603,0.005253,
1850,520,-1.350907,-7.486452,0.999996,0.000220,-0.002519,0.005102,0.000051,0.005102,-0.002519,89.618475,0.005102,
1120,1590,0.145546,-1.549200,0.999998,0.000139,-0.001396,0.003758,0.000372,0.003785,-0.001423,85.889324,0.003823,
1080,180,0.082233,-9.560523,0.999998,0.000156,-0.000548,0.003444,0.000177,0.003452,-0.000556,87.468187,0.003706,
1120,70,0.017354,-9.925391,0.999999,0.000136,-0.000179,0.003104,0.000176,0.003113,-0.000188,86.937818,0.003491,
1770,1760,-0.805195,-1.322413,0.999998,0.000156,-0.002399,0.005052,0.000123,0.005054,-0.002401,89.055926,0.005056,
1390,1360,-0.261207,-2.544336,0.999996,0.000225,-0.002612,0.004435,-0.001572,0.004770,-0.002947,-77.978834,0.004814,
1470,1330,-0.529993,-2.982330,0.999997,0.000211,-0.003458,0.005647,-0.001041,0.005764,-0.003575,-83.556826,0.005819,
650,950,1.933200,-5.397883,0.999997,0.000199,-0.002214,0.004668,0.000263,0.004678,-0.002224,87.814512,0.004680,
1600,1080,-1.494519,-4.760589,0.999997,0.000219,-0.002041,0.005425,0.000456,0.005453,-0.002069,86.520980,0.005505,
950,200,0.207671,-9.437549,0.999998,0.000182,-0.001089,0.003913,0.000333,0.003935,-0.001111,86.210506,0.004058,
1280,1660,-0.055624,-1.253532,0.999998,0.000166,-0.001115,0.003547,-0.000103,0.003549,-0.001117,-88.741056,0.003630,
990,2020,0.012417,-0.051596,0.999999,0.000000,-0.000047,0.003077,-0.000381,0.003123,-0.000093,-83.150724,0.003554,
1000,1330,0.507790,-2.958619,0.999997,0.000231,-0.003446,0.005622,0.001081,0.005749,-0.003573,83.297346,0.005806,
660,290,0.873665,-8.729908,0.999997,0.000204,-0.002394,0.005073,0.000170,0.005077,-0.002398,88.698289,0.005079,
1180,520,0.065561,-8.386332,0.999998,0.000157,-0.001267,0.003446,-0.000277,0.003463,-0.001283,-86.652953,0.003501,
860,1200,1.265747,-4.082113,0.999997,0.000213,-0.002953,0.005862,-0.000654,0.005911,-0.003001,-85.778966,0.005911,
770,1490,1.006151,-2.577640,0.999998,0.000197,-0.002713,0.005243,0.000132,0.005245,-0.002716,89.048632,0.005246,
1720,1420,-1.187055,-2.990220,0.999998,0.000168,-0.002787,0.005302,0.000063,0.005302,-0.002787,89.554448,0.005305,
1140,1650,0.108564,-1.308686,0.999998,0.000167,-0.001314,0.003657,0.000272,0.003671,-0.001328,86.880802,0.003718,
1400,410,-0.214501,-8.689139,0.999997,0.000188,-0.001529,0.003958,0.000342,0.003979,-0.001550,86.442834,0.004012,
1230,1780,0.000454,-0.821929,0.999999,0.000139,-0.000883,0.003467,-0.000006,0.003467,-0.000883,-89.924405,0.003603,
1630,420,-0.666988,-8.343962,0.999997,0.000178,-0.002316,0.004922,0.000163,0.004926,-0.002320,88.707325,0.004929,
1560,620,-0.699597,-7.447802,0.999997,0.000222,-0.002955,0.005354,0.000512,0.005385,-0.002987,86.486077,0.005396,
1360,1970,-0.026709,-0.202461,0.999999,0.000142,-0.000211,0.003159,0.000171,0.003168,-0.000220,87.095252,0.003538,
1690,1820,-0.515669,-0.921027,0.999998,0.000158,-0.001929,0.004741,0.000468,0.004773,-0.001961,86.006502,0.004799,
650,1920,0.486264,-0.565508,0.999997,0.000268,-0.001957,0.005191,-0.001088,0.005353,-0.002119,-81.535430,0.005392,
900,1280,0.951809,-3.533455,0.999997,0.000190,-0.003478,0.006102,-0.000075,0.006102,-0.003479,-89.553979,0.006122,
1680,1860,-0.416657,-0.724868,0.999997,0.000200,-0.001715,0.004669,0.000647,0.004734,-0.001780,84.271311,0.004782,
1330,1970,-0.018933,-0.200253,0.999998,0.000154,-0.000241,0.003117,0.000115,0.003121,-0.000245,88.044586,0.003471,
840,1230,1.258800,-3.925721,0.999996,0.000205,-0.003030,0.005804,-0.000564,0.005839,-0.003066,-86.363615,0.005842,
1460,710,-0.480770,-7.213711,0.999997,0.000220,-0.003309,0.005465,0.001127,0.005607,-0.003451,82.795649,0.005657,
1130,170,0.051392,-9.603896,0.999998,0.000151,-0.000600,0.003341,0.000079,0.003343,-0.000601,88.856635,0.003564,
1380,1940,-0.046370,-0.301342,0.999998,0.000146,-0.000297,0.003272,0.000227,0.003287,-0.000312,86.383622,0.003629,
1520,300,-0.325449,-9.025226,0.999998,0.000185,-0.001537,0.004176,-0.000051,0.004176,-0.001538,-89.484880,0.004224,
1100,690,0.195375,-7.647178,0.999997,0.000228,-0.002289,0.003914,-0.001578,0.004292,-0.002668,-76.517700,0.004334,
690,1070,1.864054,-4.837766,0.999998,0.000165,-0.002184,0.004700,-0.000143,0.004703,-0.002186,-88.813802,0.004707,
1640,1500,-0.847808,-2.439191,0.999998,0.000163,-0.002720,0.005213,-0.000232,0.005220,-0.002727,-88.326019,0.005222,
1900,880,-2.047770,-5.649482,0.999998,0.000000,-0.002255,0.004151,-0.000023,0.004151,-0.002255,-89.797516,0.004157,
1100,850,0.400147,-6.967131,0.999997,0.000260,-0.002875,0.004402,-0.002281,0.005057,-0.003531,-73.960128,0.005188,
1050,140,0.074634,-9.690335,0.999998,0.000146,-0.000574,0.003397,0.000219,0.003409,-0.000586,86.852597,0.003645,
940,1880,0.186690,-0.549492,0.999998,0.000169,-0.000893,0.003825,-0.000400,0.003859,-0.000926,-85.188227,0.004029,
1850,1110,-2.009912,-4.676017,0.999998,0.000150,-0.002161,0.004498,0.000183,0.004503,-0.002166,88.424613,0.004504,
1080,160,0.070232,-9.628167,0.999998,0.000139,-0.000473,0.003426,0.000205,0.003437,-0.000484,86.995675,0.003720,
800,1070,1.630956,-4.824082,0.999997,0.000191,-0.002089,0.005090,-0.000243,0.005098,-0.002097,-88.064646,0.005124,
1500,70,-0.050244,-9.913755,0.999998,0.000144,-0.000355,0.003329,-0.000434,0.003379,-0.000405,-83.370369,0.003690,
1870,1400,-1.614917,-3.312967,0.999998,0.000198,-0.002522,0.005048,0.000090,0.005049,-0.002523,89.321784,0.005049,
990,410,0.334089,-8.607500,0.999998,0.000196,-0.001826,0.004308,-0.000324,0.004325,-0.001843,-86.984685,0.004340,
730,1470,1.142346,-2.748556,0.999998,0.000166,-0.002691,0.005214,0.000013,0.005214,-0.002691,89.909200,0.005214,
1050,200,0.116169,-9.479926,0.999998,0.000180,-0.000841,0.003598,0.000155,0.003604,-0.000847,88.002118,0.003769,
1470,1350,-0.508542,-2.869515,0.999997,0.000225,-0.003300,0.005500,-0.001034,0.005620,-0.003420,-83.386773,0.005664,
1450,1420,-0.397150,-2.450178,0.999998,0.000197,-0.002715,0.004784,-0.001068,0.004933,-0.002864,-82.053263,0.004954,
1100,1590,0.173267,-1.565863,0.999998,0.000157,-0.001500,0.003874,0.000412,0.003906,-0.001531,85.645468,0.003936,
890,1540,0.630425,-2.115158,0.999998,0.000190,-0.002512,0.005010,0.000410,0.005033,-0.002534,86.891052,0.005033,
1890,570,-1.528632,-7.167588,0.999997,0.000221,-0.002575,0.005095,-0.000003,0.005095,-0.002575,-89.974289,0.005095,
1280,1640,-0.056088,-1.326029,0.999998,0.000178,-0.001170,0.003574,-0.000100,0.003576,-0.001172,-88.791641,0.003646,
650,190,0.666297,-9.227360,0.999998,0.000189,-0.002225,0.005133,0.000614,0.005184,-0.002276,85.260832,0.005197,
1140,1450,0.120377,-2.028258,0.999998,0.000165,-0.001543,0.003412,0.000778,0.003531,-0.001663,81.287464,0.003533,
1550,440,-0.508313,-8.365483,0.999997,0.000194,-0.002222,0.004734,0.000324,0.004750,-0.002237,87.336329,0.004752,
990,30,0.008445,-10.047404,0.999999,0.000000,-0.000032,0.003209,0.000418,0.003262,-0.000085,82.767071,0.003719,
1180,500,0.065511,-8.453742,0.999998,0.000149,-0.001248,0.003462,-0.000201,0.003471,-0.001256,-87.557166,0.003515,
1090,1780,0.123517,-0.856098,0.999998,0.000154,-0.000904,0.003702,-0.000042,0.003702,-0.000904,-89.472649,0.003860,
1690,1800,-0.554534,-1.017732,0.999997,0.000192,-0.002001,0.004781,0.000381,0.004803,-0.002023,86.799057,0.004822,
860,1180,1.312442,-4.197189,0.999998,0.000197,-0.002810,0.005810,-0.000703,0.005867,-0.002867,-85.367645,0.005867,
1340,1970,-0.022859,-0.201112,0.999999,0.000152,-0.000231,0.003126,0.000126,0.003131,-0.000235,87.858213,0.003488,
570,1710,1.188300,-1.785594,0.999974,0.000604,-0.002256,0.004909,0.000060,0.004910,-0.002256,89.523830,0.004915,
1760,1940,-0.326980,-0.414798,0.999997,0.000190,-0.001760,0.004755,0.001171,0.004959,-0.001964,80.111505,0.004995,
1520,280,-0.302870,-9.109897,0.999998,0.000177,-0.001467,0.004188,-0.000114,0.004190,-0.001470,-88.840884,0.004252,
610,670,1.595855,-6.715773,0.999997,0.000205,-0.002551,0.005053,0.000137,0.005056,-0.002553,88.971097,0.005056,
1380,1920,-0.056734,-0.366793,0.999998,0.000136,-0.000375,0.003345,0.000198,0.003356,-0.000385,86.965696,0.003673,
830,1220,1.310609,-3.994423,0.999997,0.000184,-0.002943,0.005719,-0.000598,0.005760,-0.002984,-86.072249,0.005761,
1080,1250,0.341903,-3.034766,0.999997,0.000199,-0.003473,0.005112,0.002073,0.005586,-0.003947,77.112311,0.005743,
1520,290,-0.314535,-9.067255,0.999998,0.000171,-0.001502,0.004184,-0.000104,0.004185,-0.001504,-88.956744,0.004240,
1610,420,-0.620576,-8.374124,0.999997,0.000187,-0.002258,0.004848,0.000181,0.004852,-0.002262,88.542624,0.004856,
1640,1480,-0.874670,-2.540400,0.999998,0.000161,-0.002799,0.005284,-0.000206,0.005289,-0.002805,-88.537889,0.005292,
1330,1950,-0.025921,-0.262227,0.999998,0.000155,-0.000330,0.003182,0.000114,0.003186,-0.000334,88.137074,0.003502,
1680,1840,-0.456741,-0.818400,0.999997,0.000190,-0.001832,0.004614,0.000532,0.004658,-0.001876,85.312359,0.004687,
1100,630,0.190387,-7.879962,0.999998,0.000184,-0.001942,0.003852,-0.001116,0.004060,-0.002150,-79.462955,0.004062,
1030,140,0.085781,-9.688307,0.999998,0.000138,-0.000568,0.003458,0.000288,0.003479,-0.000589,85.926637,0.003724,
1270,1840,-0.025644,-0.620604,0.999998,0.000173,-0.000651,0.003394,0.000019,0.003394,-0.000651,89.732154,0.003603,
780,1070,1.672909,-4.826495,0.999998,0.000196,-0.002092,0.005017,-0.000216,0.005023,-0.002099,-88.264929,0.005046,
1900,860,-2.022030,-5.733780,0.999998,0.000000,-0.002238,0.004454,-0.000123,0.004456,-0.002241,-88.947460,0.004456,
900,1260,0.996387,-3.659440,0.999997,0.000200,-0.003451,0.006209,-0.000215,0.006213,-0.003456,-88.723885,0.006226,
1080,140,0.060337,-9.695653,0.999998,0.000131,-0.000396,0.003333,0.000185,0.003343,-0.000406,87.164814,0.003648,
1560,600,-0.679287,-7.553861,0.999997,0.000208,-0.002861,0.005244,0.000527,0.005278,-0.002895,86.298642,0.005287,
1100,830,0.335823,-7.059227,0.999998,0.000213,-0.003223,0.004516,-0.002238,0.005116,-0.003824,-74.977779,0.005321,
1000,1310,0.533864,-3.074886,0.999997,0.000228,-0.003610,0.005778,0.001046,0.005893,-0.003725,83.721273,0.005961,
940,1860,0.210823,-0.627884,0.999998,0.000176,-0.001016,0.003946,-0.000383,0.003976,-0.001046,-85.613778,0.004122,
1850,1130,-1.987440,-4.583790,0.999998,0.000146,-0.002188,0.004544,0.000235,0.004552,-0.002196,88.001444,0.004553,
1730,1940,-0.277298,-0.388997,0.999997,0.000194,-0.001191,0.004466,0.001234,0.004723,-0.001448,78.215823,0.004839,
860,70,0.085232,-9.903192,0.999998,0.000139,-0.000456,0.003627,0.000842,0.003794,-0.000623,78.799710,0.004069,
1470,1370,-0.489938,-2.761343,0.999997,0.000208,-0.003164,0.005343,-0.001030,0.005466,-0.003286,-83.195791,0.005503,
1280,1620,-0.060442,-1.395924,0.999998,0.000179,-0.001207,0.003560,-0.000099,0.003562,-0.001209,-88.812611,0.003623,
1320,1450,-0.116065,-2.023512,0.999999,0.000145,-0.001525,0.003387,-0.000791,0.003511,-0.001649,-81.075930,0.003513,
1030,200,0.134588,-9.472336,0.999998,0.000179,-0.000846,0.003666,0.000187,0.003674,-0.000854,87.630950,0.003845,
730,1490,1.114749,-2.642376,0.999998,0.000174,-0.002675,0.005238,0.000068,0.005238,-0.002675,89.504239,0.005239,
650,930,1.911517,-5.490531,0.999998,0.000187,-0.002239,0.004700,0.000338,0.004716,-0.002255,87.215393,0.004718,
1810,1190,-1.823651,-4.278174,0.999998,0.000173,-0.002357,0.004844,0.000414,0.004868,-0.002381,86.718936,0.004869,
610,140,0.601342,-9.400136,0.999997,0.000209,-0.002425,0.005243,0.000570,0.005285,-0.002468,85.770649,0.005289,
690,1090,1.855847,-4.743682,0.999998,0.000184,-0.002215,0.004757,-0.000225,0.004765,-0.002222,-88.152464,0.004768,
690,1200,1.718514,-4.203624,0.999998,0.000194,-0.002444,0.004969,-0.000471,0.004999,-0.002474,-86.379917,0.004999,
860,1160,1.360250,-4.315026,0.999998,0.000198,-0.002652,0.005742,-0.000711,0.005801,-0.002712,-85.194865,0.005805,
1780,1570,-1.123060,-2.303386,0.999999,0.000123,-0.002577,0.005109,-0.000095,0.005110,-0.002578,-89.288923,0.005110,
800,1010,1.642521,-5.129907,0.999998,0.000168,-0.001991,0.005067,0.000170,0.005071,-0.001995,88.623940,0.005109,
1480,830,-0.777725,-6.411307,0.999997,0.000231,-0.003902,0.006662,0.000333,0.006672,-0.003912,88.198093,0.006705,
1130,1780,0.085760,-0.840670,0.999998,0.000153,-0.000961,0.003588,0.000052,0.003589,-0.000961,89.343611,0.003715,
1030,1900,0.098479,-0.446866,0.999998,0.000196,-0.000596,0.003539,-0.000264,0.003556,-0.000612,-86.365670,0.003802,
1670,360,-0.681032,-8.579996,0.999997,0.000177,-0.002299,0.004839,0.000009,0.004839,-0.002299,89.930570,0.004841,
1760,1920,-0.392794,-0.510672,0.999997,0.000198,-0.001908,0.004768,0.000999,0.004914,-0.002054,81.672638,0.004936,
830,1200,1.352401,-4.108656,0.999997,0.000220,-0.002855,0.005674,-0.000641,0.005722,-0.002903,-85.728479,0.005722,
1520,270,-0.292210,-9.151661,0.999997,0.000185,-0.001418,0.004127,-0.000119,0.004129,-0.001420,-88.769847,0.004196,
980,2020,0.013117,-0.051482,0.999999,0.000000,-0.000145,0.003079,-0.000404,0.003129,-0.000195,-82.964894,0.003506,
1330,1930,-0.032852,-0.328409,0.999998,0.000146,-0.000391,0.003230,0.000108,0.003233,-0.000395,88.287908,0.003528,
920,1450,0.634631,-2.517771,0.999998,0.000197,-0.002851,0.005199,0.000552,0.005237,-0.002889,86.098737,0.005246,
1100,550,0.186528,-8.185975,0.999998,0.000179,-0.001780,0.003839,-0.000832,0.003960,-0.001901,-81.747820,0.003961,
1180,480,0.063135,-8.523450,0.999998,0.000163,-0.001234,0.003508,-0.000160,0.003513,-0.001240,-88.067057,0.003564,
1640,1460,-0.901366,-2.651252,0.999998,0.000147,-0.002851,0.005378,-0.000178,0.005382,-0.002854,-88.761487,0.005385,
1280,1970,-0.011063,-0.198193,0.999998,0.000166,-0.000179,0.003080,0.000076,0.003082,-0.000181,88.660472,0.003459,
1600,1060,-1.512199,-4.866151,0.999997,0.000213,-0.001968,0.005305,0.000268,0.005315,-0.001978,87.896321,0.005372,
1250,1260,-0.025969,-2.349427,0.999998,0.000166,-0.001494,0.001124,-0.000542,0.001231,-0.001602,-78.756565,0.001677,
1080,120,0.048760,-9.763121,0.999998,0.000147,-0.000319,0.003302,0.000216,0.003315,-0.000332,86.593815,0.003652,
860,1070,1.510806,-4.814805,0.999998,0.000204,-0.001967,0.005343,-0.000359,0.005361,-0.001985,-87.191346,0.005421,
1070,1840,0.108704,-0.646144,0.999998,0.000145,-0.000775,0.003587,-0.000123,0.003590,-0.000779,-88.390247,0.003777,
1720,1400,-1.218841,-3.097867,0.999998,0.000186,-0.002774,0.005327,0.000120,0.005329,-0.002776,89.148147,0.005331,
940,1840,0.235659,-0.707024,0.999997,0.000183,-0.001132,0.003945,-0.000297,0.003962,-0.001150,-86.661806,0.004077,
700,230,0.654162,-9.095409,0.999998,0.000183,-0.002315,0.004967,0.000377,0.004987,-0.002334,87.047198,0.004990,
1490,200,-0.180684,-9.450759,0.999998,0.000166,-0.000987,0.003840,-0.000281,0.003856,-0.001003,-86.678742,0.004001,
770,1470,1.034881,-2.683354,0.999997,0.000185,-0.002747,0.005281,0.000083,0.005282,-0.002748,89.404342,0.005284,
900,1240,1.041147,-3.782178,0.999997,0.000182,-0.003402,0.006207,-0.000344,0.006219,-0.003414,-87.953727,0.006229,
1020,530,0.336604,-8.127676,0.999998,0.000190,-0.002128,0.004412,-0.000721,0.004491,-0.002207,-83.780958,0.004491,
1610,1720,-0.521618,-1.304697,0.999998,0.000159,-0.001939,0.004728,0.000086,0.004730,-0.001940,89.259978,0.004755,
740,1890,0.412128,-0.615802,0.999998,0.000177,-0.001514,0.004738,-0.000968,0.004885,-0.001660,-81.400904,0.004967,
1470,1390,-0.472645,-2.659337,0.999997,0.000206,-0.003017,0.005230,-0.001042,0.005360,-0.003146,-82.911044,0.005387,
710,1320,1.452628,-3.567414,0.999996,0.000238,-0.002688,0.005278,-0.000352,0.005293,-0.002704,-87.475016,0.005293,
1650,1380,-1.047905,-3.102634,0.999998,0.000178,-0.003017,0.005536,0.000028,0.005536,-0.003017,89.812024,0.005544,
770,600,1.057466,-7.316796,0.999998,0.000189,-0.002779,0.005327,-0.000046,0.005327,-0.002779,-89.676831,0.005329,
1680,1820,-0.496332,-0.910059,0.999998,0.000179,-0.001952,0.004697,0.000434,0.004725,-0.001980,86.280803,0.004746,
1440,950,-1.063755,-5.724733,0.999996,0.000254,-0.003120,0.007975,0.000750,0.008026,-0.003170,86.148761,0.008084,
650,890,1.868354,-5.678488,0.999998,0.000176,-0.002286,0.004757,0.000322,0.004772,-0.002301,87.388654,0.004773,
1850,1150,-1.966589,-4.493866,0.999998,0.000165,-0.002184,0.004533,0.000208,0.004539,-0.002190,88.228470,0.004540,
730,1930,0.310933,-0.436590,0.999998,0.000187,-0.001363,0.004588,-0.001162,0.004807,-0.001582,-79.331496,0.004900,
1280,1600,-0.058590,-1.467975,0.999998,0.000177,-0.001220,0.003533,-0.000141,0.003538,-0.001224,-88.299650,0.003593,
1380,1900,-0.067103,-0.434700,0.999998,0.000131,-0.000450,0.003427,0.000184,0.003435,-0.000459,87.293104,0.003730,
1520,260,-0.283107,-9.192936,0.999998,0.000172,-0.001359,0.004084,-0.000153,0.004088,-0.001363,-88.387533,0.004163,
700,470,1.058328,-7.881167,0.999998,0.000159,-0.002510,0.005086,-0.000094,0.005087,-0.002511,-89.288543,0.005087,
1320,1430,-0.113866,-2.089862,0.999999,0.000142,-0.001571,0.003344,-0.000906,0.003506,-0.001732,-79.878420,0.003506,
1890,1100,-2.101393,-4.741187,0.999998,0.000157,-0.002032,0.004136,-0.000011,0.004136,-0.002032,-89.902128,0.004136,
980,30,0.009100,-10.048290,0.999999,0.000000,-0.000107,0.003254,0.000400,0.003301,-0.000154,83.304299,0.003726,
1560,580,-0.656798,-7.659648,0.999997,0.000218,-0.002762,0.005191,0.000488,0.005220,-0.002792,86.502036,0.005225,
930,640,0.640832,-7.397451,0.999997,0.000187,-0.003026,0.005387,-0.000609,0.005431,-0.003070,-85.879921,0.005446,
1130,150,0.042750,-9.669750,0.999999,0.000126,-0.000527,0.003293,0.000103,0.003295,-0.000529,88.452538,0.003539,
1110,1780,0.104998,-0.849754,0.999999,0.000136,-0.000954,0.003649,0.000005,0.003649,-0.000954,89.939759,0.003785,
1640,1440,-0.927653,-2.757189,0.999998,0.000159,-0.002883,0.005360,-0.000155,0.005363,-0.002886,-88.920012,0.005368,
1330,1910,-0.039173,-0.393607,0.999998,0.000136,-0.000480,0.003295,0.000099,0.003298,-0.000483,88.498353,0.003562,
900,510,0.599782,-8.008009,0.999998,0.000193,-0.002508,0.004944,-0.000397,0.004965,-0.002529,-86.957083,0.004965,
850,1260,1.161080,-3.739068,0.999998,0.000171,-0.003181,0.005913,-0.000406,0.005931,-0.003199,-87.450659,0.005937,
1570,800,-1.032238,-6.378646,0.999998,0.000163,-0.003390,0.006153,-0.000263,0.006160,-0.003397,-88.422169,0.006171,
1100,670,0.192171,-7.727158,0.999998,0.000175,-0.002170,0.003871,-0.001430,0.004193,-0.002492,-77.332756,0.004218,
1590,1780,-0.404534,-1.007928,0.999998,0.000171,-0.001808,0.004402,0.000183,0.004408,-0.001813,88.309043,0.004431,
1180,460,0.062646,-8.592770,0.999998,0.000185,-0.001204,0.003531,-0.000155,0.003536,-0.001209,-88.126400,0.003595,
900,1450,0.692113,-2.559338,0.999997,0.000221,-0.002893,0.005252,0.000488,0.005281,-0.002922,86.583715,0.005291,
1050,1840,0.126373,-0.653773,0.999998,0.000178,-0.000931,0.003615,-0.000108,0.003617,-0.000933,-88.636075,0.003756,
1070,1310,0.294741,-2.788003,0.999998,0.000180,-0.003101,0.004795,0.001821,0.005195,-0.003501,77.618084,0.005299,
940,1080,1.335227,-4.723967,0.999998,0.000192,-0.002119,0.006128,-0.000476,0.006156,-0.002146,-86.707859,0.006249,
840,1070,1.549533,-4.819117,0.999996,0.000209,-0.002030,0.005251,-0.000338,0.005267,-0.002046,-87.345990,0.005311,
990,390,0.320160,-8.693339,0.999998,0.000185,-0.001726,0.004287,-0.000249,0.004297,-0.001736,-87.633081,0.004323,
900,1220,1.092840,-3.906664,0.999998,0.000163,-0.003332,0.006195,-0.000453,0.006216,-0.003354,-87.284580,0.006223,
1570,1960,-0.106448,-0.260088,0.999998,0.000167,-0.000597,0.003604,0.000638,0.003698,-0.000692,81.546707,0.003932,
1220,1510,0.014443,-1.763055,0.999998,0.000153,-0.001270,0.003270,0.000149,0.003275,-0.001275,88.120130,0.003302,
1730,1920,-0.338827,-0.480196,0.999997,0.000187,-0.001385,0.004577,0.001107,0.004776,-0.001584,79.810225,0.004865,
1900,850,-2.005205,-5.781060,0.999998,0.000000,-0.002242,0.004588,-0.000137,0.004591,-0.002244,-88.850554,0.004591,
1470,200,-0.163319,-9.458692,0.999998,0.000176,-0.000807,0.003796,-0.000304,0.003816,-0.000827,-86.241210,0.004015,
1600,1040,-1.521984,-4.971881,0.999998,0.000191,-0.001899,0.005346,0.000144,0.005348,-0.001902,88.862201,0.005422,
1280,1580,-0.059491,-1.537536,0.999998,0.000172,-0.001257,0.003507,-0.000144,0.003511,-0.001262,-88.275247,0.003557,
730,1910,0.371095,-0.528033,0.999997,0.000211,-0.001503,0.004631,-0.001018,0.004795,-0.001668,-80.815817,0.004869,
1470,1830,-0.187119,-0.716782,0.999998,0.000155,-0.000939,0.003818,0.000234,0.003830,-0.000951,87.192278,0.003988,
1850,1170,-1.944701,-4.402759,0.999998,0.000182,-0.002209,0.004540,0.000209,0.004546,-0.002215,88.223806,0.004547,
650,870,1.839003,-5.776152,0.999998,0.000169,-0.002359,0.004853,0.000404,0.004875,-0.002382,86.801582,0.004876,
770,580,1.027273,-7.422236,0.999998,0.000162,-0.002742,0.005296,-0.000081,0.005296,-0.002742,-89.420707,0.005297,
1420,70,-0.031947,-9.921617,0.999998,0.000151,-0.000266,0.003185,-0.000285,0.003208,-0.000290,-85.307601,0.003549,
1420,950,-0.998049,-5.834532,0.999992,0.000364,-0.003497,0.008388,0.002024,0.008723,-0.003832,80.595801,0.008744,
1720,1820,-0.573647,-0.950611,0.999998,0.000163,-0.001929,0.004868,0.000579,0.004917,-0.001978,85.163290,0.004949,
1680,1800,-0.534789,-1.005451,0.999997,0.000196,-0.002018,0.004744,0.000350,0.004762,-0.002037,87.041748,0.004778,
680,230,0.701102,-9.065950,0.999998,0.000179,-0.002290,0.005017,0.000419,0.005040,-0.002314,86.730093,0.005046,
770,1450,1.065749,-2.789511,0.999998,0.000176,-0.002796,0.005351,0.000054,0.005351,-0.002797,89.618167,0.005353,
1040,390,0.241408,-8.743689,0.999998,0.000181,-0.001539,0.004046,-0.000256,0.004058,-0.001551,-87.379187,0.004095,
1210,1780,0.018337,-0.824826,0.999998,0.000147,-0.000873,0.003500,0.000037,0.003500,-0.000873,89.513750,0.003643,
820,1390,1.012511,-3.036118,0.999998,0.000190,-0.003022,0.005471,0.000013,0.005471,-0.003022,89.909775,0.005481,
1560,560,-0.638991,-7.760159,0.999997,0.000210,-0.002670,0.005108,0.000462,0.005135,-0.002698,86.609545,0.005138,
810,1660,0.688455,-1.647435,0.999998,0.000199,-0.002298,0.004931,0.000085,0.004932,-0.002299,89.328072,0.004936,
790,30,0.032708,-10.038335,0.999999,0.000000,-0.000312,0.003584,0.000950,0.003803,-0.000531,76.999737,0.004119,
1130,130,0.036328,-9.734321,0.999998,0.000138,-0.000440,0.003226,0.000096,0.003228,-0.000443,88.500985,0.003500,
1730,1480,-1.120333,-2.689495,0.999997,0.000202,-0.002674,0.005233,-0.000050,0.005233,-0.002674,-89.634127,0.005233,
1650,1080,-1.596982,-4.771624,0.999997,0.000216,-0.002092,0.005177,0.000377,0.005196,-0.002111,87.039169,0.005227,
920,1330,0.785655,-3.186513,0.999998,0.000201,-0.003466,0.005940,0.000316,0.005951,-0.003477,88.077018,0.005979,
1330,1890,-0.045727,-0.458604,0.999998,0.000165,-0.000555,0.003329,0.000089,0.003331,-0.000557,88.681291,0.003569,
1630,1380,-0.987559,-3.069523,0.999998,0.000154,-0.003052,0.005573,-0.000050,0.005573,-0.003052,-89.665735,0.005582,
1640,1420,-0.955767,-2.865504,0.999998,0.000173,-0.002927,0.005469,-0.000114,0.005470,-0.002929,-89.222471,0.005475,
920,610,0.638415,-7.536645,0.999996,0.000250,-0.002871,0.005271,-0.000556,0.005309,-0.002908,-86.110171,0.005317,
1490,760,-0.658968,-6.824459,0.999996,0.000247,-0.003710,0.006106,0.000664,0.006151,-0.003755,86.149611,0.006201,
930,1840,0.246909,-0.713343,0.999998,0.000155,-0.001116,0.003989,-0.000348,0.004013,-0.001140,-86.116607,0.004136,
1080,100,0.038215,-9.827923,0.999999,0.000158,-0.000244,0.003224,0.000223,0.003238,-0.000259,86.330849,0.003599,
1050,1900,0.087144,-0.440809,0.999998,0.000253,-0.000625,0.003476,-0.000216,0.003487,-0.000637,-86.998385,0.003714,
610,650,1.563093,-6.818479,0.999997,0.000202,-0.002545,0.005047,0.000105,0.005049,-0.002546,89.208150,0.005049,
1520,240,-0.260876,-9.273850,0.999998,0.000174,-0.001277,0.004097,-0.000259,0.004109,-0.001290,-87.243133,0.004203,
1170,200,0.035927,-9.507671,0.999999,0.000137,-0.000543,0.003365,0.000057,0.003366,-0.000544,89.158066,0.003614,
1600,1020,-1.526946,-5.080750,0.999997,0.000208,-0.001899,0.005327,-0.000079,0.005328,-0.001900,-89.372075,0.005401,
900,490,0.580924,-8.106656,0.999997,0.000202,-0.002402,0.004855,-0.000382,0.004875,-0.002422,-86.997643,0.004875,
990,370,0.304534,-8.780101,0.999998,0.000174,-0.001612,0.004207,-0.000180,0.004213,-0.001618,-88.225647,0.004251,
1630,820,-1.267804,-6.174150,0.999998,0.000171,-0.003006,0.005770,-0.000559,0.005806,-0.003042,-86.370628,0.005808,
1850,1610,-1.240898,-2.213113,0.999998,0.000193,-0.002494,0.005043,-0.000059,0.005043,-0.002494,-89.552538,0.005043,
650,850,1.806181,-5.872001,0.999998,0.000167,-0.002376,0.004789,0.000404,0.004811,-0.002399,86.779006,0.004811,
840,1450,0.866404,-2.675051,0.999997,0.000205,-0.002890,0.005369,0.000249,0.005376,-0.002897,88.277492,0.005382,
730,1890,0.426538,-0.621903,0.999997,0.000192,-0.001671,0.004791,-0.000905,0.004915,-0.001795,-82.177141,0.004974,
1470,1810,-0.205266,-0.791000,0.999998,0.000155,-0.001036,0.003899,0.000203,0.003907,-0.001044,87.649361,0.004046,
970,1500,0.461576,-2.162108,0.999997,0.000199,-0.002455,0.004792,0.000702,0.004859,-0.002523,84.519589,0.004861,
1090,1520,0.202649,-1.853501,0.999997,0.000183,-0.001756,0.003926,0.000751,0.004024,-0.001853,82.595408,0.004028,
920,70,0.062646,-9.909789,0.999998,0.000151,-0.000244,0.003451,0.000607,0.003548,-0.000341,80.911497,0.003915,
1100,650,0.190618,-7.803288,0.999998,0.000166,-0.002032,0.003852,-0.001264,0.004112,-0.002292,-78.378359,0.004121,
1220,1970,0.002751,-0.197573,0.999998,0.000165,-0.000234,0.003049,-0.000009,0.003049,-0.000234,-89.840531,0.003394,
940,850,0.996039,-6.153395,0.999998,0.000176,-0.003498,0.006487,0.000326,0.006498,-0.003509,88.131880,0.006505,
1380,1880,-0.077832,-0.503307,0.999998,0.000145,-0.000533,0.003406,0.000150,0.003411,-0.000539,87.826891,0.003668,
770,1430,1.094554,-2.897973,0.999998,0.000177,-0.002838,0.005352,0.000014,0.005352,-0.002838,89.900891,0.005355,
1720,1840,-0.529320,-0.854032,0.999998,0.000171,-0.001848,0.004847,0.000690,0.004917,-0.001918,84.172230,0.004956,
1280,1560,-0.061417,-1.608565,0.999998,0.000152,-0.001267,0.003487,-0.000189,0.003495,-0.001275,-87.729406,0.003537,
1560,540,-0.620508,-7.863680,0.999997,0.000191,-0.002593,0.005001,0.000451,0.005028,-0.002620,86.610833,0.005029,
1810,1170,-1.855237,-4.375326,0.999998,0.000190,-0.002300,0.004764,0.000347,0.004781,-0.002316,87.198169,0.004782,
690,1530,1.162025,-2.498580,0.999998,0.000178,-0.002591,0.005161,0.000049,0.005162,-0.002592,89.641275,0.005162,
940,1820,0.256862,-0.786580,0.999998,0.000164,-0.001253,0.004074,-0.000267,0.004087,-0.001266,-87.139978,0.004184,
1900,840,-1.990625,-5.827481,0.999998,0.000000,-0.002239,0.004640,-0.000129,0.004642,-0.002241,-88.928945,0.004643,
1230,430,0.001227,-8.713974,0.999998,0.000169,-0.001217,0.003506,-0.000017,0.003506,-0.001217,-89.787703,0.003560,
1420,930,-0.923343,-5.994156,0.999997,0.000188,-0.003272,0.007416,0.001728,0.007688,-0.003544,81.039574,0.007696,
860,1140,1.400313,-4.426371,0.999998,0.000206,-0.002500,0.005674,-0.000706,0.005735,-0.002560,-85.101178,0.005746,
960,450,0.417524,-8.388838,0.999998,0.000188,-0.001965,0.004506,-0.000357,0.004526,-0.001985,-86.847285,0.004537,
1710,920,-1.665344,-5.577077,0.999998,0.000192,-0.002315,0.005095,-0.000475,0.005125,-0.002346,-86.349383,0.005132,
1760,90,-0.247595,-9.777613,0.999997,0.000174,-0.001446,0.004362,-0.001259,0.004624,-0.001707,-78.280661,0.004676,
900,1200,1.142263,-4.029142,0.999998,0.000170,-0.003212,0.006161,-0.000580,0.006197,-0.003248,-86.473548,0.006199,
1180,440,0.061710,-8.663640,0.999998,0.000179,-0.001200,0.003564,-0.000118,0.003567,-0.001203,-88.579534,0.003630,
1020,410,0.282720,-8.641782,0.999998,0.000204,-0.001585,0.004141,-0.000280,0.004154,-0.001598,-87.203854,0.004191,
1020,1880,0.120066,-0.520890,0.999998,0.000235,-0.000692,0.003591,-0.000268,0.003608,-0.000709,-86.436426,0.003823,
830,1640,0.668212,-1.716998,0.999997,0.000190,-0.002316,0.004937,0.000154,0.004941,-0.002320,88.785878,0.004944,
1330,1870,-0.052049,-0.526034,0.999998,0.000166,-0.000650,0.003374,0.000056,0.003375,-0.000651,89.208089,0.003581,
1190,1780,0.035360,-0.827873,0.999998,0.000147,-0.000828,0.003520,0.000004,0.003520,-0.000828,89.945829,0.003680,
1080,60,0.018825,-9.954835,0.999998,0.000166,-0.000122,0.003121,0.000211,0.003135,-0.000136,86.286958,0.003544,
1760,1900,-0.453334,-0.608354,0.999997,0.000191,-0.002042,0.004913,0.000854,0.005016,-0.002145,83.104047,0.005033,
1150,200,0.047625,-9.506359,0.999998,0.000156,-0.000595,0.003391,0.000089,0.003393,-0.000597,88.717993,0.003622,
1820,1410,-1.469934,-3.187680,0.999996,0.000214,-0.002598,0.005129,0.000117,0.005131,-0.002599,89.129644,0.005131,
1430,1370,-0.365974,-2.635357,0.999996,0.000217,-0.002905,0.004979,-0.001311,0.005191,-0.003117,-80.804326,0.005226,
1470,1840,-0.177435,-0.679158,0.999999,0.000143,-0.000897,0.003793,0.000250,0.003806,-0.000911,86.956788,0.003975,
1680,1780,-0.570739,-1.100397,0.999997,0.000198,-0.002107,0.004791,0.000266,0.004801,-0.002117,87.797540,0.004812,
800,1390,1.071798,-3.066955,0.999999,0.000146,-0.002956,0.005473,-0.000035,0.005473,-0.002956,-89.760274,0.005479,
650,830,1.775684,-5.968329,0.999998,0.000161,-0.002387,0.004808,0.000388,0.004829,-0.002408,86.925254,0.004829,
1520,530,-0.511367,-7.986235,0.999997,0.000197,-0.002392,0.004810,0.000522,0.004848,-0.002430,85.876438,0.004848,
820,340,0.590296,-8.715841,0.999997,0.000194,-0.002104,0.004798,0.000043,0.004798,-0.002104,89.640406,0.004810,
1650,1060,-1.609074,-4.873296,0.999998,0.000182,-0.002026,0.005109,0.000195,0.005114,-0.002031,88.438569,0.005150,
640,1450,1.411933,-2.987558,0.999997,0.000206,-0.002579,0.005097,-0.000055,0.005097,-0.002579,-89.590868,0.005097,
990,350,0.292868,-8.862040,0.999998,0.000162,-0.001491,0.004095,-0.000118,0.004098,-0.001493,-88.786773,0.004147,
1670,1760,-0.582681,-1.184708,0.999998,0.000175,-0.002143,0.004765,0.000184,0.004770,-0.002147,88.472424,0.004778,
1310,1320,-0.095025,-2.403610,0.999997,0.000208,-0.001711,0.002732,-0.001628,0.003265,-0.002243,-71.881741,0.003340,
1640,1400,-0.987577,-2.975731,0.999998,0.000171,-0.002969,0.005512,-0.000068,0.005513,-0.002970,-89.538305,0.005518,
1850,1590,-1.271530,-2.313236,0.999998,0.000187,-0.002517,0.005070,-0.000061,0.005071,-0.002518,-89.542979,0.005071,
1660,650,-1.037981,-7.098126,0.999998,0.000158,-0.002939,0.005469,-0.000007,0.005469,-0.002939,-89.953108,0.005474,
940,1330,0.718079,-3.138760,0.999997,0.000201,-0.003468,0.005892,0.000501,0.005918,-0.003494,86.943736,0.005950,
690,1580,1.089743,-2.239807,0.999998,0.000190,-0.002521,0.005107,0.000090,0.005108,-0.002522,89.326161,0.005108,
1780,630,-1.340483,-7.026265,0.999997,0.000175,-0.002655,0.005186,-0.000108,0.005187,-0.002657,-89.208450,0.005188,
690,1510,1.192013,-2.600332,0.999998,0.000181,-0.002614,0.005160,0.000041,0.005161,-0.002614,89.696811,0.005161,
1810,1150,-1.876840,-4.470226,0.999997,0.000200,-0.002248,0.004715,0.000292,0.004727,-0.002260,87.601097,0.004729,
1320,530,-0.118384,-8.316274,0.999998,0.000166,-0.001462,0.003611,0.000531,0.003666,-0.001517,84.086809,0.003684,
920,630,0.660496,-7.428678,0.999997,0.000193,-0.002984,0.005362,-0.000544,0.005397,-0.003019,-86.287375,0.005410,
900,70,0.067525,-9.908539,0.999998,0.000153,-0.000305,0.003517,0.000649,0.003624,-0.000413,80.623322,0.003968,
900,690,0.799366,-7.051139,0.999997,0.000194,-0.003254,0.005706,-0.000331,0.005718,-0.003266,-87.884495,0.005737,
960,470,0.430370,-8.298568,0.999998,0.000195,-0.002091,0.004593,-0.000422,0.004620,-0.002118,-86.400964,0.004625,
650,680,1.512607,-6.722372,0.999997,0.000202,-0.002598,0.005098,0.000188,0.005103,-0.002603,88.599339,0.005103,
780,1010,1.683007,-5.128479,0.999998,0.000146,-0.002065,0.005021,0.000156,0.005024,-0.002068,88.739302,0.005050,
1380,1860,-0.088366,-0.571398,0.999998,0.000149,-0.000608,0.003484,0.000175,0.003492,-0.000616,87.549958,0.003728,
1900,830,-1.976352,-5.873193,0.999998,0.000000,-0.002235,0.004605,-0.000121,0.004607,-0.002237,-88.984315,0.004608,
580,1120,2.070148,-4.651757,0.999998,0.000175,-0.002028,0.004304,-0.000145,0.004308,-0.002032,-88.684811,0.004310,
1650,360,-0.634983,-8.609126,0.999997,0.000175,-0.002240,0.004815,-0.000002,0.004815,-0.002240,-89.981614,0.004819,
770,1850,0.460651,-0.783902,0.999997,0.000192,-0.001775,0.004690,-0.000649,0.004755,-0.001839,-84.323919,0.004795,
1720,1860,-0.480968,-0.755593,0.999997,0.000186,-0.001693,0.004793,0.000782,0.004886,-0.001786,83.223165,0.004944,
900,1190,1.169716,-4.093083,0.999998,0.000162,-0.003128,0.006129,-0.000620,0.006171,-0.003170,-86.187390,0.006171,
940,1780,0.302115,-0.949918,0.999998,0.000174,-0.001420,0.004167,-0.000149,0.004171,-0.001424,-88.473072,0.004240,
860,1120,1.442449,-4.542604,0.999997,0.000206,-0.002325,0.005603,-0.000648,0.005656,-0.002378,-85.358274,0.005680,
1520,220,-0.237516,-9.355767,0.999998,0.000184,-0.001172,0.003987,-0.000293,0.004004,-0.001188,-86.755616,0.004113,
1030,690,0.378285,-7.410149,0.999996,0.000214,-0.002970,0.005013,-0.001333,0.005230,-0.003187,-80.767395,0.005271,
1020,390,0.272555,-8.723533,0.999998,0.000195,-0.001525,0.004120,-0.000214,0.004128,-0.001533,-87.832673,0.004173,
900,1180,1.196281,-4.154954,0.999997,0.000189,-0.003041,0.006102,-0.000657,0.006149,-0.003088,-85.908368,0.006149,
970,2020,0.015672,-0.052214,0.999999,0.000000,-0.000202,0.003098,-0.000407,0.003147,-0.000252,-83.065225,0.003498,
860,1690,0.545460,-1.436047,0.999996,0.000204,-0.002051,0.004665,0.000039,0.004665,-0.002051,89.665573,0.004676,
1470,1790,-0.222043,-0.872377,0.999998,0.000154,-0.001105,0.003941,0.000147,0.003945,-0.001109,88.327147,0.004069,
770,260,0.571260,-9.035502,0.999997,0.000177,-0.002013,0.004787,0.000369,0.004807,-0.002033,86.900105,0.004826,
830,1660,0.643143,-1.618132,0.999997,0.000178,-0.002217,0.004862,0.000102,0.004863,-0.002219,89.171917,0.004869,
1070,1990,0.022213,-0.140745,0.999999,0.000144,-0.000170,0.003139,-0.000235,0.003156,-0.000187,-85.952053,0.003541,
1760,1880,-0.508104,-0.705912,0.999998,0.000176,-0.002142,0.004912,0.000711,0.004983,-0.002213,84.302412,0.004993,
1330,1850,-0.061296,-0.594110,0.999998,0.000144,-0.000702,0.003426,0.000048,0.003426,-0.000702,89.340241,0.003620,
1520,550,-0.525466,-7.890509,0.999997,0.000211,-0.002516,0.004912,0.000573,0.004956,-0.002560,85.613938,0.004957,
1430,1350,-0.380939,-2.736346,0.999997,0.000198,-0.003090,0.005083,-0.001387,0.005312,-0.003319,-80.629170,0.005367,
1180,420,0.060194,-8.735953,0.999998,0.000169,-0.001170,0.003582,-0.000084,0.003583,-0.001172,-88.990047,0.003654,
1450,1840,-0.160058,-0.671214,0.999998,0.000172,-0.000874,0.003721,0.000216,0.003731,-0.000884,87.318514,0.003900,
1760,1570,-1.070062,-2.270566,0.999998,0.000159,-0.002550,0.005121,-0.000112,0.005122,-0.002552,-89.162687,0.005122,
770,460,0.867737,-8.045165,0.999998,0.000151,-0.002479,0.005098,-0.000128,0.005100,-0.002481,-89.032363,0.005101,
1680,1760,-0.605245,-1.198841,0.999998,0.000182,-0.002179,0.004790,0.000197,0.004795,-0.002184,88.382867,0.004802,
1890,620,-1.606309,-6.912168,0.999997,0.000211,-0.002535,0.005075,-0.000035,0.005075,-0.002536,-89.739171,0.005075,
1800,1430,-1.385114,-3.056807,0.999998,0.000161,-0.002591,0.005130,0.000089,0.005131,-0.002592,89.337256,0.005131,
1640,1380,-1.018516,-3.086304,0.999998,0.000167,-0.003026,0.005544,-0.000011,0.005544,-0.003026,-89.927253,0.005552,
1320,510,-0.116816,-8.389446,0.999998,0.000157,-0.001444,0.003608,0.000463,0.003650,-0.001486,84.807103,0.003671,
1510,1160,-1.089055,-4.193976,0.999997,0.000217,-0.003156,0.006600,0.000522,0.006627,-0.003184,86.947489,0.006629,
680,930,1.844787,-5.502088,0.999998,0.000170,-0.002286,0.004827,0.000347,0.004844,-0.002303,87.212222,0.004846,
1420,1970,-0.040878,-0.207490,0.999998,0.000178,-0.000313,0.003241,0.000271,0.003261,-0.000334,85.667859,0.003589,
610,630,1.527375,-6.918695,0.999997,0.000209,-0.002523,0.005072,0.000049,0.005072,-0.002524,89.627375,0.005072,
1810,1130,-1.901011,-4.563551,0.999998,0.000180,-0.002245,0.004687,0.000319,0.004702,-0.002260,87.368142,0.004703,
690,1490,1.219914,-2.705366,0.999998,0.000171,-0.002637,0.005175,0.000014,0.005175,-0.002637,89.895190,0.005176,
1440,70,-0.035676,-9.919353,0.999999,0.000116,-0.000192,0.003235,-0.000346,0.003270,-0.000227,-84.297031,0.003652,
650,810,1.742811,-6.065756,0.999998,0.000176,-0.002426,0.004925,0.000397,0.004947,-0.002447,86.919275,0.004947,
730,1870,0.479634,-0.719636,0.999997,0.000181,-0.001802,0.004843,-0.000741,0.004925,-0.001883,-83.713387,0.004970,
670,1580,1.141343,-2.272137,0.999998,0.000199,-0.002561,0.005092,0.000078,0.005093,-0.002562,89.414656,0.005093,
1900,820,-1.961341,-5.920239,0.999998,0.000000,-0.002257,0.004565,-0.000123,0.004567,-0.002259,-88.965290,0.004567,
1130,110,0.028897,-9.799780,0.999999,0.000144,-0.000359,0.003221,0.000114,0.003224,-0.000363,88.177226,0.003532,
670,1200,1.767323,-4.216737,0.999997,0.000202,-0.002403,0.004897,-0.000443,0.004924,-0.002430,-86.536010,0.004924,
990,330,0.277604,-8.942899,0.999998,0.000162,-0.001389,0.004133,-0.000033,0.004133,-0.001389,-89.653913,0.004206,
900,670,0.769705,-7.164798,0.999998,0.000186,-0.003180,0.005639,-0.000362,0.005653,-0.003195,-87.655434,0.005669,
940,1760,0.324865,-1.036546,0.999998,0.000175,-0.001497,0.004205,-0.000087,0.004206,-0.001498,-89.127606,0.004264,
860,1100,1.471005,-4.651216,0.999998,0.000179,-0.002158,0.005458,-0.000532,0.005495,-0.002195,-86.020233,0.005532,
1530,580,-0.576435,-7.717364,0.999996,0.000219,-0.002721,0.005059,0.000569,0.005101,-0.002763,85.838729,0.005107,
1380,1840,-0.100605,-0.643227,0.999998,0.000165,-0.000679,0.003565,0.000151,0.003570,-0.000685,87.963624,0.003789,
1670,1740,-0.614999,-1.279704,0.999998,0.000190,-0.002201,0.004833,0.000110,0.004835,-0.002202,89.106413,0.004841,
1020,610,0.366069,-7.767929,0.999998,0.000198,-0.002522,0.004681,-0.001010,0.004820,-0.002661,-82.170245,0.004829,
840,1690,0.584831,-1.459955,0.999997,0.000194,-0.002004,0.004749,-0.000032,0.004749,-0.002004,-89.732189,0.004768,
1310,1340,-0.094029,-2.347024,0.999998,0.000189,-0.001648,0.002835,-0.001472,0.003275,-0.002089,-73.352439,0.003316,
570,1090,2.108539,-4.783138,0.999990,0.000365,-0.001957,0.004098,0.000041,0.004098,-0.001958,89.614180,0.004099,
1030,650,0.358497,-7.606851,0.999997,0.000200,-0.002672,0.004751,-0.001183,0.004935,-0.002856,-81.157004,0.004955,
960,330,0.326643,-8.914422,0.999997,0.000210,-0.001666,0.004298,-0.000076,0.004299,-0.001667,-89.274374,0.004335,
1760,1860,-0.562784,-0.805238,0.999997,0.000186,-0.002236,0.004949,0.000590,0.004997,-0.002284,85.337097,0.005003,
1470,1770,-0.240245,-0.953749,0.999998,0.000150,-0.001170,0.003988,0.000099,0.003990,-0.001172,88.897449,0.004102,
1070,1970,0.032839,-0.204698,0.999999,0.000153,-0.000249,0.003204,-0.000243,0.003221,-0.000266,-85.988185,0.003576,
960,2020,0.017959,-0.052314,0.999999,0.000000,-0.000227,0.003148,-0.000421,0.003199,-0.000279,-83.002333,0.003544,
1290,1840,-0.038607,-0.622130,0.999998,0.000147,-0.000585,0.003411,0.000056,0.003412,-0.000585,89.194960,0.003649,
1340,810,-0.215584,-7.297444,0.999997,0.000209,-0.002655,0.003548,0.002224,0.004262,-0.003370,72.179704,0.004496,
900,1380,0.778546,-2.943553,0.999998,0.000188,-0.003207,0.005640,0.000338,0.005653,-0.003220,87.816137,0.005671,
770,440,0.841950,-8.147387,0.999998,0.000164,-0.002476,0.005047,-0.000150,0.005050,-0.002479,-88.856986,0.005050,
1430,1330,-0.397364,-2.840336,0.999998,0.000178,-0.003269,0.005253,-0.001439,0.005490,-0.003505,-80.667444,0.005560,
1560,520,-0.602167,-7.962679,0.999997,0.000206,-0.002515,0.004950,0.000442,0.004976,-0.002541,86.622854,0.004976,
1280,1540,-0.061770,-1.676661,0.999999,0.000136,-0.001282,0.003437,-0.000220,0.003448,-0.001292,-87.339661,0.003483,
1170,1780,0.051002,-0.830183,0.999999,0.000131,-0.000794,0.003527,-0.000033,0.003528,-0.000794,-89.556656,0.003701,
1890,80,-0.432860,-9.650223,0.999997,0.000192,-0.002145,0.006211,-0.001512,0.006476,-0.002410,-80.049852,0.006546,
1700,1570,-0.917301,-2.173469,0.999998,0.000168,-0.002547,0.005090,-0.000146,0.005093,-0.002550,-88.904731,0.005093,
1330,1830,-0.066555,-0.663231,0.999998,0.000151,-0.000766,0.003449,0.000015,0.003449,-0.000766,89.790947,0.003622,
820,360,0.617620,-8.620547,0.999997,0.000191,-0.002199,0.004830,0.000014,0.004830,-0.002199,89.889521,0.004837,
1810,1110,-1.920776,-4.658613,0.999998,0.000176,-0.002241,0.004718,0.000302,0.004732,-0.002255,87.520991,0.004733,
1680,1740,-0.637256,-1.293029,0.999998,0.000193,-0.002208,0.004863,0.000117,0.004865,-0.002210,89.050872,0.004872,
1790,660,-1.416290,-6.857423,0.999996,0.000238,-0.002599,0.005193,-0.000171,0.005197,-0.002603,-88.740898,0.005197,
1530,560,-0.558466,-7.819480,0.999997,0.000191,-0.002621,0.005023,0.000566,0.005065,-0.002662,85.785974,0.005067,
1180,400,0.058384,-8.808392,0.999998,0.000168,-0.001141,0.003574,-0.000072,0.003575,-0.001142,-89.121637,0.003652,
850,1580,0.688480,-1.982603,0.999997,0.000193,-0.002432,0.004960,0.000262,0.004970,-0.002441,87.970683,0.004970,
1220,70,0.002220,-9.928247,0.999998,0.000178,-0.000163,0.003041,0.000031,0.003041,-0.000164,89.437112,0.003421,
1720,1880,-0.434842,-0.663993,0.999997,0.000189,-0.001561,0.004720,0.000876,0.004840,-0.001681,82.208071,0.004915,
1800,1410,-1.418936,-3.158456,0.999997,0.000227,-0.002612,0.005149,0.000120,0.005151,-0.002614,89.117163,0.005151,
990,310,0.262481,-9.025366,0.999998,0.000153,-0.001294,0.004041,0.000014,0.004041,-0.001294,89.845240,0.004127,
1900,810,-1.945398,-5.965406,0.999998,0.000000,-0.002266,0.004536,-0.000122,0.004538,-0.002268,-88.974787,0.004538,
1660,1250,-1.324891,-3.850232,0.999997,0.000219,-0.002897,0.005624,0.000527,0.005657,-0.002929,86.474357,0.005658,
770,1870,0.414696,-0.688019,0.999997,0.000191,-0.001655,0.004592,-0.000751,0.004681,-0.001745,-83.237666,0.004732,
1640,1360,-1.051518,-3.199712,0.999998,0.000190,-0.003084,0.005637,0.000085,0.005637,-0.003085,89.441760,0.005646,
1660,670,-1.070461,-6.988411,0.999998,0.000186,-0.002963,0.005485,-0.000048,0.005485,-0.002964,-89.674684,0.005491,
660,590,1.337167,-7.199822,0.999998,0.000183,-0.002590,0.005160,0.000029,0.005160,-0.002591,89.787356,0.005160,
1230,450,0.002882,-8.644311,0.999998,0.000161,-0.001230,0.003506,0.000004,0.003506,-0.001230,89.952863,0.003557,
1530,1160,-1.151472,-4.229140,0.999998,0.000164,-0.003052,0.006372,0.000637,0.006415,-0.003095,86.152194,0.006416,
730,1850,0.527745,-0.816620,0.999997,0.000208,-0.001915,0.004869,-0.000644,0.004930,-0.001975,-84.626842,0.004962,
650,790,1.707912,-6.165158,0.999998,0.000170,-0.002497,0.004990,0.000376,0.005009,-0.002516,87.129662,0.005009,
1130,90,0.022214,-9.864933,0.999998,0.000156,-0.000262,0.003136,0.000119,0.003141,-0.000266,87.989571,0.003483,
1270,700,-0.040376,-7.861241,0.999998,0.000160,-0.001194,0.002337,0.000738,0.002485,-0.001342,78.654141,0.002488,
1720,490,-0.976478,-7.848601,0.999998,0.000158,-0.002580,0.005137,0.000141,0.005139,-0.002583,88.951533,0.005139,
690,1470,1.251057,-2.809278,0.999998,0.000159,-0.002644,0.005194,-0.000007,0.005194,-0.002644,-89.946461,0.005194,
990,1420,0.458661,-2.508186,0.999997,0.000199,-0.002814,0.004980,0.000936,0.005091,-0.002925,83.244938,0.005109,
620,1450,1.463242,-3.018579,0.999998,0.000194,-0.002569,0.005081,-0.000053,0.005082,-0.002569,-89.604766,0.005082,
860,1080,1.501165,-4.760705,0.999998,0.000189,-0.002009,0.005402,-0.000460,0.005430,-0.002037,-86.461432,0.005487,
890,720,0.879965,-6.855649,0.999998,0.000162,-0.003351,0.005861,-0.000141,0.005863,-0.003353,-89.122196,0.005884,
930,1140,1.218230,-4.363081,0.999997,0.000206,-0.002753,0.006288,-0.000716,0.006344,-0.002810,-85.500752,0.006358,
1760,1840,-0.611671,-0.904483,0.999997,0.000204,-0.002270,0.004971,0.000462,0.005000,-0.002299,86.364148,0.005006,
1030,630,0.348321,-7.699606,0.999997,0.000198,-0.002559,0.004611,-0.001128,0.004784,-0.002733,-81.264238,0.004800,
1000,870,0.839918,-6.199960,0.999997,0.000215,-0.003798,0.006968,-0.000289,0.006976,-0.003806,-88.465223,0.006986,
970,1200,0.901754,-3.879887,0.999997,0.000230,-0.003689,0.006735,-0.000071,0.006736,-0.003690,-89.609731,0.006746,
960,410,0.390468,-8.567434,0.999997,0.000227,-0.001891,0.004404,-0.000288,0.004417,-0.001904,-87.382363,0.004431,
1610,1380,-0.926111,-3.035466,0.999998,0.000154,-0.003116,0.005626,-0.000125,0.005627,-0.003118,-89.182079,0.005638,
1580,1490,-0.697693,-2.381239,0.999997,0.000201,-0.002737,0.005161,-0.000415,0.005183,-0.002758,-87.000159,0.005187,
1470,1750,-0.254667,-1.030253,0.999998,0.000162,-0.001267,0.004011,0.000020,0.004011,-0.001267,89.778554,0.004101,
1380,1970,-0.031483,-0.203937,0.999998,0.000161,-0.000202,0.003185,0.000227,0.003200,-0.000217,86.174949,0.003576,
1230,140,0.000253,-9.710214,0.999999,0.000125,-0.000416,0.003188,-0.000009,0.003188,-0.000416,-89.859663,0.003466,
1520,200,-0.214624,-9.434667,0.999998,0.000168,-0.001071,0.003939,-0.000360,0.003965,-0.001097,-85.916071,0.004095,
1070,1950,0.043583,-0.267405,0.999998,0.000150,-0.000310,0.003267,-0.000236,0.003282,-0.000326,-86.239067,0.003616,
1020,590,0.356953,-7.861697,0.999998,0.000183,-0.002387,0.004575,-0.000917,0.004694,-0.002506,-82.624467,0.004698,
940,1740,0.342663,-1.118574,0.999998,0.000173,-0.001554,0.004291,-0.000019,0.004291,-0.001554,-89.809368,0.004345,
1680,1570,-0.868419,-2.141834,0.999998,0.000170,-0.002527,0.005070,-0.000175,0.005074,-0.002531,-88.684118,0.005074,
1170,260,0.049169,-9.302693,0.999998,0.000145,-0.000736,0.003474,0.000019,0.003475,-0.000736,89.740971,0.003662,
1430,1310,-0.416879,-2.949255,0.999997,0.000201,-0.003431,0.005485,-0.001439,0.005712,-0.003658,-81.055719,0.005786,
1550,1710,-0.415442,-1.279206,0.999997,0.000209,-0.001703,0.004523,0.000014,0.004523,-0.001703,89.872725,0.004568,
1380,1820,-0.111176,-0.713729,0.999998,0.000165,-0.000750,0.003582,0.000120,0.003586,-0.000754,88.408216,0.003781,
1150,1840,0.050872,-0.624297,0.999998,0.000184,-0.000676,0.003422,-0.000031,0.003422,-0.000676,-89.559900,0.003625,
1330,730,-0.127596,-7.620333,0.999998,0.000186,-0.001994,0.003252,0.001773,0.003795,-0.002537,72.971397,0.003867,
900,1620,0.533978,-1.709951,0.999997,0.000204,-0.002187,0.004730,0.000264,0.004740,-0.002197,87.819035,0.004744,
1880,80,-0.412285,-9.669075,0.999997,0.000207,-0.002193,0.006073,-0.001463,0.006324,-0.002445,-80.251074,0.006378,
1810,1090,-1.937682,-4.752352,0.999998,0.000174,-0.002195,0.004602,0.000151,0.004605,-0.002198,88.725666,0.004607,
1280,400,-0.057749,-8.808012,0.999999,0.000139,-0.001151,0.003589,0.000093,0.003591,-0.001153,88.870643,0.003667,
1490,1500,-0.455541,-2.156934,0.999997,0.000213,-0.002454,0.004781,-0.000692,0.004846,-0.002520,-84.582208,0.004848,
840,1210,1.302790,-4.042451,0.999997,0.000203,-0.002939,0.005760,-0.000618,0.005804,-0.002983,-85.955666,0.005805,
1680,980,-1.664566,-5.278779,0.999997,0.000195,-0.002149,0.005028,-0.000262,0.005038,-0.002159,-87.914831,0.005055,
1900,800,-1.930335,-6.010428,0.999998,0.000000,-0.002281,0.004512,-0.000099,0.004514,-0.002282,-89.169040,0.004514,
980,1480,0.449321,-2.236964,0.999997,0.000201,-0.002512,0.004815,0.000768,0.004895,-0.002592,84.082289,0.004898,
610,610,1.498544,-7.020429,0.999997,0.000213,-0.002554,0.005091,0.000030,0.005091,-0.002554,89.774814,0.005091,
830,1580,0.736259,-2.014603,0.999997,0.000187,-0.002471,0.005008,0.000241,0.005016,-0.002479,88.155493,0.005016,
1200,70,0.005153,-9.928006,0.999999,0.000159,-0.000171,0.003050,0.000053,0.003051,-0.000172,89.062396,0.003428,
1510,580,-0.522105,-7.759817,0.999997,0.000176,-0.002660,0.004968,0.000683,0.005028,-0.002721,84.920674,0.005034,
860,1060,1.517175,-4.867423,0.999998,0.000197,-0.001925,0.005277,-0.000264,0.005287,-0.001935,-87.907290,0.005350,
690,1450,1.281117,-2.914640,0.999998,0.000166,-0.002648,0.005179,-0.000033,0.005179,-0.002648,-89.756894,0.005180,
1230,470,0.002764,-8.573127,0.999998,0.000155,-0.001239,0.003467,-0.000006,0.003467,-0.001239,-89.927134,0.003514,
1120,1260,0.201486,-2.744427,0.999997,0.000221,-0.002659,0.003679,0.002311,0.004432,-0.003412,71.945921,0.004642,
820,800,1.264342,-6.275526,0.999997,0.000213,-0.003025,0.005721,0.000498,0.005749,-0.003053,86.749731,0.005753,
870,720,0.946538,-6.816897,0.999998,0.000153,-0.003298,0.005834,-0.000012,0.005834,-0.003298,-89.922681,0.005851,
1510,500,-0.466580,-8.146943,0.999997,0.000191,-0.002288,0.004687,0.000520,0.004725,-0.002326,85.756599,0.004726,
990,1200,0.826414,-3.815675,0.999997,0.000206,-0.003821,0.006803,0.000228,0.006808,-0.003826,88.771316,0.006826,
1640,1340,-1.086129,-3.313493,0.999997,0.000197,-0.003102,0.005681,0.000147,0.005684,-0.003105,89.038497,0.005692,
1760,1820,-0.659215,-1.004930,0.999997,0.000202,-0.002313,0.005014,0.000351,0.005031,-0.002330,87.266686,0.005036,
730,1830,0.576438,-0.913980,0.999997,0.000214,-0.002012,0.004894,-0.000551,0.004938,-0.002056,-85.463364,0.004961,
1330,600,-0.131742,-8.057352,0.999998,0.000159,-0.001589,0.003524,0.000816,0.003651,-0.001716,81.151011,0.003653,
1030,610,0.341129,-7.794237,0.999998,0.000182,-0.002415,0.004574,-0.001023,0.004721,-0.002562,-81.839548,0.004726,
1590,1380,-0.863588,-2.997127,0.999998,0.000150,-0.003182,0.005657,-0.000208,0.005662,-0.003187,-88.649808,0.005677,
1540,930,-1.275796,-5.615317,0.999998,0.000185,-0.002568,0.006126,-0.000712,0.006184,-0.002626,-85.350625,0.006208,
960,390,0.375517,-8.654966,0.999997,0.000198,-0.001862,0.004392,-0.000245,0.004401,-0.001872,-87.759463,0.004418,
640,1330,1.616797,-3.600552,0.999997,0.000228,-0.002519,0.005063,-0.000239,0.005070,-0.002527,-88.198277,0.005070,
1010,140,0.097911,-9.683037,0.999998,0.000136,-0.000527,0.003492,0.000316,0.003517,-0.000552,85.535903,0.003783,
1650,1800,-0.474490,-0.972225,0.999998,0.000195,-0.001788,0.004637,0.000377,0.004659,-0.001810,86.656599,0.004697,
1430,1290,-0.442973,-3.059521,0.999997,0.000203,-0.003616,0.005663,-0.001433,0.005879,-0.003833,-81.419727,0.005969,
1210,260,0.018197,-9.307602,0.999998,0.000158,-0.000809,0.003475,-0.000021,0.003475,-0.000809,-89.712966,0.003637,
990,1400,0.473740,-2.610075,0.999997,0.000212,-0.002971,0.005163,0.000956,0.005274,-0.003082,83.383964,0.005299,
1130,1840,0.066206,-0.630307,0.999998,0.000162,-0.000777,0.003437,-0.000013,0.003437,-0.000777,-89.827788,0.003605,
1730,390,-0.863533,-8.342130,0.999998,0.000194,-0.002432,0.005047,0.000043,0.005047,-0.002432,89.670523,0.005048,
1680,1230,-1.421989,-3.980018,0.999997,0.000193,-0.002795,0.005475,0.000592,0.005517,-0.002837,85.929216,0.005518,
1810,1070,-1.945101,-4.843144,0.999998,0.000184,-0.002168,0.004571,0.000090,0.004572,-0.002169,89.238256,0.004574,
1520,180,-0.189662,-9.512918,0.999998,0.000172,-0.000961,0.003831,-0.000393,0.003863,-0.000992,-85.345219,0.004012,
900,640,0.731201,-7.333126,0.999997,0.000210,-0.003060,0.005463,-0.000434,0.005485,-0.003082,-87.092571,0.005499,
1560,500,-0.583174,-8.062740,0.999998,0.000198,-0.002400,0.004880,0.000414,0.004904,-0.002423,86.752516,0.004904,
1330,1810,-0.074126,-0.732672,0.999998,0.000152,-0.000829,0.003515,-0.000014,0.003515,-0.000829,-89.820894,0.003675,
1070,1930,0.055579,-0.334410,0.999998,0.000154,-0.000388,0.003317,-0.000227,0.003331,-0.000401,-86.501105,0.003637,
1870,80,-0.389907,-9.688115,0.999997,0.000205,-0.002242,0.005919,-0.001408,0.006156,-0.002478,-80.480666,0.006194,
910,1640,0.491709,-1.602370,0.999997,0.000186,-0.002152,0.004664,0.000231,0.004671,-0.002160,88.061289,0.004676,
1470,1730,-0.270034,-1.111633,0.999998,0.000171,-0.001359,0.004107,-0.000021,0.004107,-0.001359,-89.776846,0.004184,
650,770,1.672289,-6.266115,0.999998,0.000169,-0.002517,0.005018,0.000348,0.005034,-0.002533,87.364565,0.005034,
990,290,0.246617,-9.105454,0.999998,0.000153,-0.001201,0.004010,0.000082,0.004011,-0.001202,89.096992,0.004117,
1680,1310,-1.264705,-3.537064,0.999998,0.000172,-0.002950,0.005534,0.000361,0.005549,-0.002965,87.565209,0.005554,
810,1580,0.786213,-2.046162,0.999997,0.000208,-0.002542,0.005041,0.000208,0.005047,-0.002547,88.432851,0.005047,
690,1430,1.312286,-3.015858,0.999998,0.000178,-0.002672,0.005168,-0.000108,0.005170,-0.002673,-89.208122,0.005171,
600,650,1.588163,-6.802967,0.999997,0.000201,-0.002541,0.005032,0.000088,0.005033,-0.002542,89.336705,0.005033,
1380,1800,-0.122180,-0.787420,0.999998,0.000163,-0.000856,0.003626,0.000069,0.003627,-0.000857,89.114730,0.003792,
770,1890,0.370424,-0.600030,0.999997,0.000190,-0.001525,0.004557,-0.000880,0.004682,-0.001650,-81.927170,0.004749,
700,510,1.114087,-7.676302,0.999998,0.000181,-0.002571,0.005164,-0.000073,0.005165,-0.002572,-89.461326,0.005165,
1800,390,-1.034899,-8.228232,0.999999,0.000147,-0.002469,0.005050,0.000048,0.005050,-0.002469,89.634327,0.005051,
1130,70,0.016228,-9.924947,0.999999,0.000144,-0.000189,0.003091,0.000159,0.003098,-0.000197,87.228947,0.003469,
1900,790,-1.914213,-6.055645,0.999998,0.000000,-0.002306,0.004549,-0.000055,0.004549,-0.002306,-89.540936,0.004549,
940,1720,0.364979,-1.209612,0.999998,0.000184,-0.001597,0.004409,-0.000005,0.004409,-0.001597,-89.951217,0.004465,
1500,950,-1.228017,-5.544486,0.999997,0.000191,-0.002536,0.006605,-0.000550,0.006638,-0.002569,-86.569769,0.006694,
770,80,0.157248,-9.846537,0.999998,0.000171,-0.000651,0.003910,0.001105,0.004164,-0.000904,77.078891,0.004380,
1850,500,-1.322025,-7.587623,0.999997,0.000208,-0.002528,0.005072,0.000047,0.005072,-0.002529,89.646906,0.005072,
1230,490,0.002523,-8.505506,0.999998,0.000152,-0.001254,0.003431,-0.000006,0.003431,-0.001254,-89.925419,0.003472,
610,590,1.466710,-7.125032,0.999997,0.000187,-0.002583,0.005084,0.000040,0.005084,-0.002584,89.697486,0.005084,
1600,1000,-1.514824,-5.186871,0.999998,0.000195,-0.001943,0.005287,-0.000207,0.005293,-0.001949,-88.357541,0.005354,
1330,620,-0.130958,-7.987701,0.999998,0.000167,-0.001633,0.003437,0.000952,0.003610,-0.001806,79.706322,0.003610,
1680,1720,-0.668244,-1.394000,0.999998,0.000195,-0.002212,0.004930,0.000049,0.004931,-0.002212,89.603902,0.004939,
1090,1460,0.207802,-2.086888,0.999998,0.000144,-0.001889,0.003931,0.000957,0.004084,-0.002042,80.893859,0.004084,
730,1810,0.617845,-1.014556,0.999998,0.000186,-0.002098,0.004951,-0.000438,0.004978,-0.002125,-86.458781,0.004996,
1760,1800,-0.701162,-1.104987,0.999998,0.000201,-0.002321,0.005022,0.000268,0.005032,-0.002331,87.910021,0.005036,
1640,1320,-1.123450,-3.425641,0.999997,0.000228,-0.003129,0.005701,0.000225,0.005707,-0.003135,88.539088,0.005716,
1100,390,0.155752,-8.796177,0.999999,0.000141,-0.001259,0.003768,-0.000192,0.003775,-0.001267,-87.821034,0.003843,
1450,1120,-1.038775,-4.293155,0.999998,0.000152,-0.003103,0.007457,-0.000328,0.007468,-0.003113,-88.223133,0.007502,
1510,480,-0.450640,-8.240351,0.999997,0.000220,-0.002196,0.004643,0.000455,0.004674,-0.002226,86.208239,0.004675,
570,520,1.462419,-7.423102,0.999712,0.001932,-0.003086,0.005510,0.000305,0.005521,-0.003097,87.970458,0.005534,
1030,590,0.334414,-7.882926,0.999998,0.000177,-0.002280,0.004484,-0.000916,0.004606,-0.002402,-82.425056,0.004607,
1560,930,-1.326130,-5.597043,0.999998,0.000190,-0.002484,0.005929,-0.000721,0.005991,-0.002546,-85.139295,0.006013,
1130,200,0.061126,-9.502263,0.999998,0.000143,-0.000692,0.003436,0.000066,0.003437,-0.000693,89.084201,0.003635,
900,600,0.687008,-7.547812,0.999997,0.000218,-0.002890,0.005267,-0.000489,0.005296,-0.002919,-86.579025,0.005305,
1390,260,-0.131682,-9.271578,0.999998,0.000166,-0.000921,0.003643,-0.000081,0.003644,-0.000922,-88.985984,0.003790,
1540,1550,-0.540566,-2.008685,0.999998,0.000215,-0.002368,0.004803,-0.000455,0.004832,-0.002397,-86.380205,0.004832,
1430,1270,-0.475967,-3.178071,0.999997,0.000221,-0.003774,0.005870,-0.001398,0.006068,-0.003973,-81.915690,0.006164,
960,510,0.456734,-8.112440,0.999998,0.000207,-0.002360,0.004696,-0.000573,0.004742,-0.002406,-85.385428,0.004742,
1070,1910,0.067330,-0.401982,0.999998,0.000165,-0.000485,0.003384,-0.000221,0.003396,-0.000498,-86.745518,0.003668,
1810,1050,-1.953656,-4.935894,0.999998,0.000155,-0.002155,0.004621,0.000142,0.004624,-0.002158,88.798425,0.004628,
1860,1890,-0.700382,-0.825559,0.999998,0.000167,-0.002432,0.005140,0.000397,0.005161,-0.002453,87.006906,0.005163,
1520,160,-0.166324,-9.588186,0.999998,0.000162,-0.000863,0.003784,-0.000448,0.003827,-0.000906,-84.542512,0.004000,
860,1040,1.528325,-4.972614,0.999997,0.000212,-0.001886,0.005291,-0.000160,0.005295,-0.001890,-88.722400,0.005367,
990,250,0.211182,-9.266069,0.999998,0.000168,-0.001066,0.003911,0.000196,0.003918,-0.001074,87.744495,0.004050,
1750,1440,-1.237041,-2.929362,0.999998,0.000155,-0.002690,0.005224,0.000051,0.005224,-0.002690,89.630660,0.005225,
700,490,1.084818,-7.779506,0.999999,0.000130,-0.002565,0.005125,-0.000095,0.005126,-0.002566,-89.295767,0.005126,
1120,1960,0.025445,-0.232236,0.999999,0.000159,-0.000299,0.003185,-0.000135,0.003190,-0.000304,-87.781637,0.003521,
910,1620,0.510992,-1.696454,0.999997,0.000194,-0.002210,0.004716,0.000284,0.004727,-0.002221,87.654128,0.004730,
940,1700,0.383258,-1.296789,0.999998,0.000190,-0.001685,0.004332,0.000069,0.004332,-0.001686,89.345080,0.004368,
1560,460,-0.549479,-8.254390,0.999997,0.000200,-0.002255,0.004771,0.000315,0.004785,-0.002269,87.441096,0.004787,
1470,1710,-0.284946,-1.195333,0.999998,0.000167,-0.001427,0.004090,-0.000088,0.004091,-0.001428,-89.083171,0.004153,
1600,980,-1.501166,-5.292989,0.999997,0.000208,-0.002042,0.005418,-0.000398,0.005439,-0.002064,-86.955693,0.005491,
1130,870,0.443465,-7.175842,0.999998,0.000205,-0.001653,0.002276,-0.001537,0.002806,-0.002183,-70.984902,0.002947,
820,780,1.222580,-6.390122,0.999997,0.000189,-0.003071,0.005737,0.000414,0.005757,-0.003090,87.315290,0.005762,
1730,370,-0.832998,-8.443173,0.999998,0.000187,-0.002418,0.005078,0.000015,0.005078,-0.002418,89.888094,0.005080,
1640,560,-0.856608,-7.617703,0.999998,0.000178,-0.002751,0.005280,0.000235,0.005287,-0.002758,88.326277,0.005289,
1900,780,-1.899799,-6.101364,0.999998,0.000000,-0.002354,0.004619,-0.000029,0.004620,-0.002355,-89.760484,0.004620,
1680,1250,-1.383160,-3.869923,0.999997,0.000188,-0.002858,0.005509,0.000527,0.005543,-0.002891,86.409575,0.005544,
660,470,1.159294,-7.816768,0.999998,0.000185,-0.002533,0.005088,-0.000084,0.005089,-0.002534,-89.368501,0.005089,
1140,1910,0.036994,-0.389847,0.999999,0.000108,-0.000463,0.003257,-0.000104,0.003260,-0.000465,-88.402656,0.003526,
1680,1680,-0.726411,-1.589132,0.999997,0.000192,-0.002269,0.004903,-0.000031,0.004904,-0.002269,-89.750247,0.004908,
660,1250,1.708723,-3.978500,0.999998,0.000176,-0.002475,0.004987,-0.000425,0.005011,-0.002499,-86.751760,0.005011,
1280,1650,-0.056262,-1.289728,0.999998,0.000184,-0.001150,0.003566,-0.000111,0.003569,-0.001153,-88.647125,0.003642,
810,1700,0.634658,-1.451223,0.999997,0.000175,-0.002248,0.004821,0.000006,0.004821,-0.002248,89.952528,0.004825,
1180,380,0.057425,-8.878630,0.999998,0.000158,-0.001081,0.003562,-0.000071,0.003563,-0.001082,-89.129742,0.003654,
690,1410,1.348462,-3.119764,0.999997,0.000196,-0.002688,0.005205,-0.000147,0.005208,-0.002690,-88.931030,0.005209,
730,1790,0.660403,-1.112728,0.999998,0.000186,-0.002156,0.004959,-0.000356,0.004977,-0.002174,-87.144088,0.004990,
600,630,1.553994,-6.903112,0.999996,0.000241,-0.002527,0.005071,0.000041,0.005071,-0.002527,89.693053,0.005071,
1330,1770,-0.086795,-0.875544,0.999998,0.000159,-0.001024,0.003562,-0.000062,0.003563,-0.001025,-89.228904,0.003668,
610,570,1.434717,-7.223546,0.999997,0.000183,-0.002571,0.005099,0.000001,0.005099,-0.002571,89.993356,0.005099,
1770,290,-0.796469,-8.782224,0.999998,0.000174,-0.002385,0.005065,-0.000145,0.005068,-0.002388,-88.888435,0.005071,
1480,950,-1.175141,-5.579369,0.999996,0.000213,-0.002701,0.007060,-0.000381,0.007075,-0.002716,-87.767409,0.007138,
1280,1520,-0.061476,-1.745476,0.999998,0.000154,-0.001290,0.003366,-0.000266,0.003381,-0.001305,-86.746229,0.003410,
960,30,0.013873,-10.046848,0.999999,0.000000,-0.000198,0.003284,0.000356,0.003320,-0.000234,84.220380,0.003706,
670,1080,1.903635,-4.794335,0.999998,0.000152,-0.002179,0.004637,-0.000127,0.004640,-0.002181,-88.929406,0.004642,
1450,1100,-1.107994,-4.445200,0.999996,0.000236,-0.002953,0.007878,-0.000388,0.007892,-0.002967,-87.951079,0.007973,
1660,1310,-1.204702,-3.510988,0.999997,0.000209,-0.003044,0.005628,0.000306,0.005639,-0.003054,87.983655,0.005646,
1470,1500,-0.405807,-2.114975,0.999997,0.000191,-0.002401,0.004641,-0.000768,0.004724,-0.002484,-83.849203,0.004726,
900,60,0.053526,-9.944308,0.999999,0.000143,-0.000252,0.003467,0.000639,0.003574,-0.000359,80.511297,0.003936,
1810,1030,-1.959530,-5.028522,0.999998,0.000160,-0.002145,0.004619,0.000023,0.004619,-0.002145,89.802833,0.004623,
650,750,1.635920,-6.367886,0.999997,0.000172,-0.002537,0.005009,0.000319,0.005022,-0.002550,87.580035,0.005022,
1400,670,-0.277503,-7.613433,0.999996,0.000227,-0.002517,0.004462,0.001415,0.004738,-0.002793,78.959922,0.004763,
1030,570,0.328526,-7.971591,0.999998,0.000184,-0.002200,0.004399,-0.000855,0.004508,-0.002309,-82.734005,0.004508,
710,680,1.352813,-6.802837,0.999997,0.000212,-0.002737,0.005279,0.000214,0.005285,-0.002742,88.468640,0.005286,
1110,200,0.075110,-9.496802,0.999999,0.000133,-0.000678,0.003491,0.000097,0.003493,-0.000681,88.661611,0.003704,
1070,1460,0.248066,-2.126369,0.999998,0.000150,-0.002094,0.004144,0.001038,0.004313,-0.002262,80.792236,0.004314,
770,1910,0.317469,-0.503563,0.999997,0.000193,-0.001346,0.004437,-0.000941,0.004587,-0.001495,-80.987843,0.004678,
1230,1330,0.001454,-2.238003,0.999998,0.000147,-0.000991,0.001834,0.000046,0.001835,-0.000991,89.076673,0.001837,
960,490,0.443443,-8.205882,0.999998,0.000197,-0.002248,0.004624,-0.000523,0.004663,-0.002288,-85.672205,0.004663,
1850,1570,-1.299758,-2.414768,0.999997,0.000188,-0.002533,0.005078,-0.000070,0.005078,-0.002534,-89.472939,0.005078,
1430,1250,-0.517135,-3.296747,0.999996,0.000235,-0.003874,0.006038,-0.001302,0.006206,-0.004043,-82.639419,0.006300,
610,700,1.648721,-6.564254,0.999996,0.000209,-0.002514,0.005053,0.000143,0.005056,-0.002516,88.916568,0.005056,
1090,1220,0.383658,-3.120557,0.999996,0.000240,-0.003366,0.004956,0.002137,0.005472,-0.003882,76.410496,0.005630,
940,1680,0.399529,-1.381647,0.999997,0.000204,-0.001784,0.004403,0.000142,0.004407,-0.001787,88.681426,0.004433,
1090,260,0.117599,-9.276321,0.999998,0.000186,-0.000870,0.003635,0.000048,0.003635,-0.000870,89.387242,0.003796,
1560,440,-0.530668,-8.350192,0.999997,0.000196,-0.002218,0.004753,0.000293,0.004766,-0.002230,87.594261,0.004769,
990,140,0.107621,-9.677535,0.999998,0.000135,-0.000524,0.003527,0.000347,0.003556,-0.000554,85.139878,0.003827,
910,1140,1.272690,-4.386507,0.999997,0.000214,-0.002665,0.006079,-0.000716,0.006138,-0.002724,-85.346893,0.006150,
1470,1690,-0.298489,-1.276544,0.999998,0.000176,-0.001525,0.004190,-0.000163,0.004195,-0.001529,-88.369098,0.004246,
890,1640,0.535733,-1.630833,0.999997,0.000227,-0.002152,0.004724,0.000202,0.004730,-0.002157,88.319771,0.004736,
1600,960,-1.471737,-5.403529,0.999997,0.000207,-0.002180,0.005464,-0.000522,0.005499,-0.002215,-86.111653,0.005534,
820,760,1.182517,-6.505903,0.999997,0.000198,-0.003098,0.005754,0.000327,0.005766,-0.003110,87.890038,0.005772,
1900,770,-1.884490,-6.147770,0.999998,0.000000,-0.002397,0.004743,-0.000038,0.004743,-0.002397,-89.694992,0.004744,
1730,350,-0.802102,-8.545783,0.999998,0.000166,-0.002400,0.005014,-0.000041,0.005014,-0.002400,-89.686592,0.005015,
990,230,0.193135,-9.343828,0.999998,0.000163,-0.000979,0.003853,0.000220,0.003863,-0.000989,87.399674,0.004014,
1520,140,-0.138105,-9.665308,0.999998,0.000159,-0.000738,0.003669,-0.000456,0.003715,-0.000784,-84.148535,0.003917,
1680,1660,-0.751294,-1.687061,0.999998,0.000174,-0.002303,0.004956,-0.000065,0.004957,-0.002304,-89.490743,0.004961,
680,450,1.079289,-7.951193,0.999998,0.000184,-0.002493,0.005053,-0.000085,0.005054,-0.002494,-89.357188,0.005054,
1330,1750,-0.091465,-0.944983,0.999999,0.000124,-0.001082,0.003609,-0.000105,0.003611,-0.001085,-88.715906,0.003706,
640,1270,1.722888,-3.900191,0.999998,0.000196,-0.002497,0.004966,-0.000336,0.004981,-0.002512,-87.425350,0.004981,
1380,1210,-0.440465,-3.230734,0.999996,0.000251,-0.003411,0.005217,-0.002062,0.005685,-0.003878,-77.227346,0.005809,
860,1020,1.531827,-5.079469,0.999997,0.000219,-0.001900,0.005325,0.000083,0.005326,-0.001901,89.338756,0.005398,
1540,70,-0.061876,-9.911116,0.999999,0.000132,-0.000237,0.003404,-0.000607,0.003503,-0.000336,-80.784695,0.003866,
1780,390,-0.986060,-8.259191,0.999998,0.000174,-0.002461,0.005046,0.000056,0.005047,-0.002461,89.569863,0.005047,
760,1390,1.188759,-3.127826,0.999998,0.000208,-0.002852,0.005391,-0.000117,0.005392,-0.002853,-89.189188,0.005396,
1180,360,0.054055,-8.951308,0.999999,0.000133,-0.001031,0.003547,-0.000062,0.003548,-0.001032,-89.224642,0.003650,
1530,1800,-0.291668,-0.875253,0.999998,0.000187,-0.001309,0.004086,0.000209,0.004094,-0.001317,87.789612,0.004180,
610,550,1.403885,-7.327685,0.999997,0.000199,-0.002538,0.005116,-0.000013,0.005116,-0.002538,-89.905111,0.005116,
690,1390,1.381281,-3.225540,0.999997,0.000213,-0.002684,0.005215,-0.000176,0.005219,-0.002688,-88.721112,0.005220,
1640,1570,-0.766466,-2.074971,0.999997,0.000177,-0.002518,0.005035,-0.000218,0.005041,-0.002525,-88.351394,0.005041,
1770,310,-0.832003,-8.680695,0.999998,0.000163,-0.002406,0.005029,-0.000074,0.005030,-0.002407,-89.431803,0.005031,
1180,770,0.059583,-7.685921,0.999998,0.000231,-0.001458,0.001897,-0.001400,0.002404,-0.001966,-70.072155,0.002561,
650,730,1.600946,-6.466279,0.999997,0.000193,-0.002542,0.005058,0.000278,0.005069,-0.002553,87.910488,0.005069,
730,1770,0.699529,-1.212793,0.999997,0.000192,-0.002204,0.005001,-0.000260,0.005011,-0.002213,-87.938310,0.005022,
830,780,1.192323,-6.402763,0.999997,0.000191,-0.003115,0.005786,0.000396,0.005803,-0.003132,87.456838,0.005809,
1670,1920,-0.265639,-0.449506,0.999998,0.000192,-0.001293,0.004234,0.000832,0.004357,-0.001415,81.624213,0.004445,
890,1990,0.064986,-0.154470,0.999998,0.000138,-0.000403,0.003508,-0.000660,0.003617,-0.000511,-80.670361,0.003914,
1030,550,0.322488,-8.056731,0.999998,0.000166,-0.002167,0.004359,-0.000784,0.004451,-0.002260,-83.245846,0.004452,
1090,200,0.086860,-9.492680,0.999998,0.000161,-0.000621,0.003533,0.000157,0.003539,-0.000627,87.836042,0.003776,
690,680,1.406539,-6.775993,0.999997,0.000201,-0.002657,0.005207,0.000221,0.005213,-0.002663,88.392778,0.005213,
1090,780,0.268930,-7.223908,0.999997,0.000204,-0.003097,0.004599,-0.002120,0.005144,-0.003642,-75.570897,0.005291,
650,1080,1.946731,-4.797904,0.999998,0.000160,-0.002127,0.004551,-0.000096,0.004553,-0.002128,-89.179568,0.004556,
780,400,0.765636,-8.362873,0.999998,0.000172,-0.002317,0.004993,-0.000045,0.004993,-0.002318,-89.647083,0.004998,
920,1610,0.497832,-1.729458,0.999997,0.000204,-0.002217,0.004691,0.000339,0.004708,-0.002233,87.195641,0.004710,
1070,260,0.134281,-9.271217,0.999998,0.000188,-0.000929,0.003671,0.000056,0.003671,-0.000929,89.297504,0.003817,
1120,1450,0.154025,-2.062726,0.999998,0.000150,-0.001761,0.003610,0.000977,0.003782,-0.001933,80.001796,0.003782,
1520,1050,-1.371334,-4.906258,0.999997,0.000202,-0.001874,0.006114,0.000220,0.006121,-0.001880,88.424398,0.006270,
800,890,1.503596,-5.756931,0.999997,0.000236,-0.002541,0.005393,0.000652,0.005446,-0.002594,85.329728,0.005448,
1810,1010,-1.954509,-5.120265,0.999998,0.000156,-0.002136,0.004613,-0.000131,0.004615,-0.002138,-88.887762,0.004619,
1430,370,-0.242204,-8.819420,0.999998,0.000171,-0.001532,0.004084,0.000208,0.004092,-0.001539,87.879946,0.004134,
1850,1550,-1.329176,-2.517823,0.999997,0.000204,-0.002546,0.005126,-0.000052,0.005127,-0.002546,-89.608588,0.005127,
1280,1480,-0.059862,-1.876855,0.999999,0.000139,-0.001325,0.003234,-0.000388,0.003267,-0.001358,-85.173973,0.003282,
1830,1080,-1.984331,-4.802767,0.999998,0.000173,-0.002116,0.004458,0.000081,0.004459,-0.002117,89.295048,0.004461,
1880,1230,-1.923170,-4.158795,0.999998,0.000169,-0.002246,0.004636,0.000137,0.004638,-0.002248,88.861621,0.004639,
1730,330,-0.770407,-8.644065,0.999997,0.000183,-0.002331,0.004976,-0.000075,0.004977,-0.002332,-89.413676,0.004980,
820,740,1.143552,-6.621142,0.999997,0.000215,-0.003109,0.005718,0.000252,0.005726,-0.003116,88.362847,0.005733,
1800,470,-1.151132,-7.821128,0.999999,0.000157,-0.002528,0.005101,0.000084,0.005102,-0.002529,89.370623,0.005102,
1900,870,-2.036473,-5.689797,0.999998,0.000000,-0.002249,0.004276,-0.000083,0.004277,-0.002250,-89.270481,0.004279,
1330,1730,-0.097955,-1.019832,0.999998,0.000151,-0.001133,0.003658,-0.000128,0.003661,-0.001136,-88.472085,0.003748,
1210,140,0.007741,-9.708687,0.999998,0.000152,-0.000415,0.003185,0.000020,0.003185,-0.000415,89.682979,0.003463,
660,450,1.129670,-7.917885,0.999998,0.000168,-0.002535,0.005047,-0.000083,0.005048,-0.002536,-89.371338,0.005048,
1600,940,-1.442896,-5.511530,0.999997,0.000234,-0.002325,0.005567,-0.000604,0.005613,-0.002371,-85.647404,0.005635,
940,1660,0.416878,-1.471982,0.999997,0.000210,-0.001858,0.004432,0.000198,0.004439,-0.001864,88.200259,0.004457,
1470,1670,-0.310928,-1.361284,0.999998,0.000189,-0.001645,0.004257,-0.000223,0.004266,-0.001654,-87.835444,0.004301,
1560,420,-0.511675,-8.444522,0.999997,0.000197,-0.002164,0.004708,0.000260,0.004718,-0.002173,87.837937,0.004723,
1730,1440,-1.182449,-2.901363,0.999998,0.000158,-0.002746,0.005255,0.000046,0.005255,-0.002747,89.671553,0.005257,
1610,1940,-0.168693,-0.347679,0.999999,0.000134,-0.000760,0.003927,0.000790,0.004057,-0.000889,80.689776,0.004265,
1130,860,0.379126,-7.197173,0.999997,0.000209,-0.001898,0.002466,-0.001506,0.002935,-0.002367,-72.693243,0.003114,
1070,1890,0.078635,-0.470362,0.999998,0.000175,-0.000577,0.003442,-0.000200,0.003452,-0.000587,-87.154677,0.003694,
1180,340,0.052379,-9.020401,0.999999,0.000139,-0.000978,0.003529,-0.000029,0.003530,-0.000979,-89.629640,0.003645,
1260,1910,-0.012111,-0.387369,0.999999,0.000139,-0.000407,0.003240,0.000032,0.003240,-0.000407,89.504555,0.003530,
1680,1640,-0.778256,-1.787431,0.999998,0.000164,-0.002364,0.004991,-0.000102,0.004992,-0.002365,-89.209321,0.004994,
1870,1600,-1.305912,-2.293715,0.999997,0.000194,-0.002476,0.005042,-0.000038,0.005042,-0.002476,-89.711517,0.005042,
600,1720,1.098196,-1.683543,0.999998,0.000165,-0.002424,0.004971,0.000069,0.004972,-0.002425,89.468681,0.004972,
950,2020,0.020170,-0.053014,0.999998,0.000000,-0.000159,0.003220,-0.000484,0.003288,-0.000227,-82.006238,0.003673,
1560,1490,-0.643589,-2.343768,0.999997,0.000207,-0.002690,0.005108,-0.000471,0.005137,-0.002719,-86.552991,0.005139,
1640,1300,-1.163113,-3.541564,0.999997,0.000216,-0.003123,0.005739,0.000301,0.005749,-0.003133,88.054749,0.005757,
1230,1310,0.001188,-2.272465,0.999998,0.000151,-0.001005,0.001568,0.000038,0.001568,-0.001006,89.163258,0.001589,
1330,560,-0.132426,-8.197082,0.999998,0.000141,-0.001511,0.003553,0.000643,0.003633,-0.001591,82.870648,0.003643,
1520,120,-0.117342,-9.736058,0.999998,0.000153,-0.000604,0.003636,-0.000511,0.003697,-0.000665,-83.219965,0.003941,
1090,1200,0.451251,-3.224533,0.999996,0.000232,-0.003091,0.004832,0.002261,0.005432,-0.003690,75.141136,0.005548,
1670,1980,-0.128532,-0.206851,0.999998,0.000170,-0.000696,0.003853,0.001001,0.004064,-0.000906,78.116673,0.004266,
890,1970,0.093455,-0.225891,0.999998,0.000155,-0.000554,0.003559,-0.000649,0.003659,-0.000654,-81.238812,0.003903,
1050,1780,0.164867,-0.875709,0.999998,0.000160,-0.001172,0.003781,0.000000,0.003781,-0.001172,89.997955,0.003871,
870,680,0.880721,-7.048503,0.999998,0.000144,-0.003182,0.005659,-0.000181,0.005663,-0.003186,-88.828091,0.005677,
1460,510,-0.363756,-8.185388,0.999997,0.000189,-0.002067,0.004443,0.000610,0.004499,-0.002123,84.696486,0.004502,
860,260,0.406437,-9.126507,0.999997,0.000202,-0.001695,0.004423,0.000295,0.004437,-0.001709,87.248974,0.004476,
1760,390,-0.936151,-8.293012,0.999998,0.000165,-0.002462,0.005046,0.000071,0.005047,-0.002463,89.455323,0.005047,
650,710,1.564666,-6.570087,0.999997,0.000209,-0.002552,0.005088,0.000223,0.005095,-0.002559,88.332812,0.005095,
600,930,2.021732,-5.464211,0.999998,0.000158,-0.002164,0.004525,0.000215,0.004532,-0.002171,88.158127,0.004534,
690,1370,1.415644,-3.329796,0.999997,0.000213,-0.002664,0.005220,-0.000211,0.005226,-0.002669,-88.468627,0.005226,
660,170,0.584696,-9.342775,0.999997,0.000212,-0.002075,0.005161,0.000874,0.005265,-0.002179,83.211203,0.005291,
1030,530,0.313861,-8.145372,0.999998,0.000176,-0.002113,0.004351,-0.000744,0.004436,-0.002198,-83.515654,0.004436,
1330,1710,-0.103826,-1.090761,0.999999,0.000149,-0.001182,0.003625,-0.000184,0.003633,-0.001189,-87.811765,0.003704,
1520,1030,-1.379382,-5.025015,0.999998,0.000179,-0.001805,0.005894,0.000027,0.005894,-0.001805,89.801327,0.006040,
990,210,0.174314,-9.420359,0.999998,0.000160,-0.000894,0.003796,0.000269,0.003811,-0.000909,86.730237,0.003981,
740,1330,1.350107,-3.478990,0.999998,0.000211,-0.002845,0.005386,-0.000333,0.005400,-0.002858,-87.683496,0.005403,
1280,1460,-0.058779,-1.938095,0.999998,0.000160,-0.001333,0.003133,-0.000439,0.003176,-0.001375,-84.444627,0.003185,
1470,1650,-0.324764,-1.447459,0.999998,0.000190,-0.001761,0.004278,-0.000300,0.004293,-0.001776,-87.164876,0.004314,
610,680,1.613659,-6.665805,0.999998,0.000185,-0.002549,0.005061,0.000151,0.005064,-0.002552,88.866873,0.005064,
1560,400,-0.492896,-8.538922,0.999997,0.000208,-0.002080,0.004643,0.000209,0.004650,-0.002087,88.217215,0.004658,
1430,260,-0.173301,-9.249189,0.999998,0.000187,-0.001112,0.003779,-0.000050,0.003779,-0.001113,-89.411171,0.003884,
940,1640,0.431324,-1.560634,0.999997,0.000200,-0.001919,0.004511,0.000262,0.004521,-0.001930,87.668782,0.004537,
1850,1530,-1.357999,-2.619950,0.999997,0.000215,-0.002530,0.005113,-0.000037,0.005113,-0.002530,-89.720144,0.005113,
1870,2010,-0.213310,-0.193513,0.999988,0.000407,-0.001014,0.005595,0.002449,0.006403,-0.001822,71.728277,0.006599,
590,1130,2.036946,-4.600727,0.999998,0.000190,-0.002112,0.004432,-0.000190,0.004438,-0.002117,-88.337899,0.004439,
1600,920,-1.401861,-5.626562,0.999997,0.000211,-0.002470,0.005649,-0.000708,0.005710,-0.002531,-85.052776,0.005722,
1890,1230,-1.945295,-4.170813,0.999998,0.000163,-0.002228,0.004640,0.000125,0.004643,-0.002230,88.958222,0.004644,
1860,1150,-1.987300,-4.500115,0.999998,0.000147,-0.002148,0.004500,0.000170,0.004505,-0.002152,88.535259,0.004506,
1680,1620,-0.803680,-1.888345,0.999998,0.000162,-0.002423,0.005019,-0.000125,0.005021,-0.002425,-89.038067,0.005022,
1730,310,-0.737115,-8.745458,0.999997,0.000194,-0.002253,0.004990,-0.000168,0.004994,-0.002257,-88.674623,0.005001,
1430,1230,-0.566747,-3.419093,0.999996,0.000238,-0.003930,0.006278,-0.001186,0.006414,-0.004066,-83.456574,0.006491,
1190,140,0.015686,-9.708101,0.999999,0.000129,-0.000367,0.003186,0.000056,0.003187,-0.000368,89.097043,0.003487,
1170,1530,0.078254,-1.719110,0.999998,0.000146,-0.001367,0.003455,0.000368,0.003482,-0.001395,85.664965,0.003505,
1810,250,-0.807331,-8.922609,0.999998,0.000175,-0.002323,0.005094,-0.000306,0.005106,-0.002336,-87.639238,0.005112,
1380,1780,-0.130613,-0.858917,0.999998,0.000158,-0.000918,0.003684,0.000047,0.003685,-0.000918,89.408801,0.003836,
1120,1940,0.034768,-0.297836,0.999998,0.000144,-0.000374,0.003236,-0.000144,0.003241,-0.000380,-87.718726,0.003544,
780,380,0.737638,-8.463123,0.999998,0.000184,-0.002277,0.004911,-0.000038,0.004911,-0.002277,-89.698284,0.004916,
820,720,1.105776,-6.734297,0.999998,0.000190,-0.003080,0.005654,0.000174,0.005658,-0.003083,88.858332,0.005665,
830,540,0.813563,-7.733559,0.999998,0.000167,-0.002690,0.005186,-0.000235,0.005193,-0.002697,-88.295109,0.005194,
1770,330,-0.866785,-8.582835,0.999998,0.000159,-0.002400,0.005010,-0.000001,0.005010,-0.002400,-89.992070,0.005011,
1460,430,-0.320426,-8.538880,0.999998,0.000165,-0.001820,0.004283,0.000386,0.004307,-0.001844,86.392101,0.004322,
1190,1440,0.050134,-1.995982,0.999999,0.000150,-0.001272,0.002984,0.000429,0.003027,-0.001315,84.306613,0.003036,
660,430,1.102063,-8.020589,0.999998,0.000141,-0.002538,0.005076,-0.000082,0.005077,-0.002539,-89.382169,0.005077,
610,530,1.373781,-7.429810,0.999997,0.000208,-0.002504,0.005133,-0.000020,0.005133,-0.002504,-89.853623,0.005133,
860,1000,1.521322,-5.186266,0.999997,0.000220,-0.001945,0.005297,0.000231,0.005304,-0.001952,88.177713,0.005366,
1090,520,0.200418,-8.286788,0.999998,0.000170,-0.001746,0.003919,-0.000705,0.004006,-0.001832,-83.012431,0.004011,
1520,70,-0.056644,-9.911818,0.999999,0.000131,-0.000330,0.003352,-0.000514,0.003422,-0.000401,-82.199391,0.003742,
1330,1690,-0.107348,-1.164917,0.999998,0.000151,-0.001232,0.003689,-0.000204,0.003697,-0.001240,-87.635253,0.003764,
890,1950,0.121716,-0.298016,0.999998,0.000168,-0.000678,0.003692,-0.000645,0.003785,-0.000771,-81.771354,0.004001,
1530,1700,-0.394360,-1.304500,0.999998,0.000189,-0.001665,0.004407,-0.000043,0.004408,-0.001666,-89.594189,0.004451,
690,1350,1.451179,-3.435299,0.999997,0.000215,-0.002640,0.005189,-0.000260,0.005198,-0.002649,-88.100037,0.005198,
1900,990,-2.134237,-5.192835,0.999998,0.000000,-0.001998,0.004001,-0.000076,0.004002,-0.001999,-89.275863,0.004002,
640,170,0.626025,-9.314012,0.999997,0.000185,-0.002289,0.005234,0.000629,0.005286,-0.002341,85.256216,0.005297,
1030,510,0.307335,-8.235052,0.999998,0.000185,-0.002031,0.004296,-0.000652,0.004362,-0.002098,-84.173692,0.004363,
990,190,0.155321,-9.494360,0.999998,0.000149,-0.000798,0.003715,0.000312,0.003737,-0.000820,86.060499,0.003928,
1890,310,-1.122065,-8.470432,0.999998,0.000179,-0.002417,0.004910,0.000040,0.004910,-0.002417,89.688388,0.004910,
1470,890,-0.937160,-6.033595,0.999997,0.000196,-0.003569,0.006975,-0.000003,0.006975,-0.003569,-89.982337,0.006975,
1860,2010,-0.198825,-0.181147,0.999991,0.000338,-0.001501,0.005136,0.001946,0.005665,-0.002030,74.806139,0.005740,
650,910,1.889299,-5.585804,0.999998,0.000185,-0.002240,0.004675,0.000285,0.004687,-0.002251,87.640913,0.004688,
1710,1880,-0.419010,-0.655968,0.999998,0.000183,-0.001511,0.004656,0.000863,0.004775,-0.001629,82.182315,0.004854,
1280,1440,-0.058658,-2.001959,0.999998,0.000172,-0.001316,0.003017,-0.000540,0.003084,-0.001382,-83.005606,0.003089,
790,1460,0.994330,-2.704177,0.999999,0.000123,-0.002791,0.005338,0.000087,0.005339,-0.002792,89.384415,0.005341,
830,1180,1.395824,-4.221718,0.999997,0.000201,-0.002712,0.005628,-0.000677,0.005683,-0.002767,-85.390374,0.005684,
1560,380,-0.470758,-8.633249,0.999997,0.000197,-0.001985,0.004591,0.000120,0.004593,-0.001987,88.955727,0.004607,
1600,160,-0.242440,-9.555412,0.999998,0.000184,-0.001102,0.004075,-0.000626,0.004149,-0.001176,-83.202152,0.004277,
1150,260,0.063687,-9.300018,0.999998,0.000143,-0.000835,0.003501,0.000003,0.003501,-0.000835,89.953840,0.003657,
1680,1600,-0.830304,-1.988926,0.999998,0.000174,-0.002474,0.005069,-0.000139,0.005071,-0.002477,-88.944999,0.005072,
720,1330,1.406781,-3.502052,0.999997,0.000215,-0.002748,0.005308,-0.000345,0.005323,-0.002763,-87.553060,0.005324,
1850,1510,-1.388278,-2.722777,0.999997,0.000203,-0.002531,0.005089,-0.000018,0.005090,-0.002531,-89.865794,0.005090,
810,1400,1.026464,-2.996538,0.999998,0.000152,-0.002968,0.005464,0.000004,0.005464,-0.002968,89.970073,0.005471,
1790,800,-1.667295,-6.138294,0.999998,0.000173,-0.002528,0.005066,-0.000427,0.005090,-0.002552,-86.791571,0.005090,
890,140,0.177809,-9.649065,0.999998,0.000158,-0.000915,0.003852,0.000579,0.003922,-0.000984,83.175419,0.004081,
1180,320,0.050569,-9.092552,0.999999,0.000138,-0.000932,0.003588,-0.000025,0.003588,-0.000932,-89.685385,0.003723,
1120,1920,0.042090,-0.361887,0.999999,0.000135,-0.000438,0.003230,-0.000114,0.003234,-0.000441,-88.221527,0.003507,
780,360,0.710925,-8.559140,0.999997,0.000197,-0.002233,0.004921,0.000008,0.004921,-0.002233,89.936953,0.004928,
1770,350,-0.900109,-8.480609,0.999998,0.000172,-0.002385,0.005076,-0.000004,0.005076,-0.002385,-89.971149,0.005079,
1590,480,-0.637557,-8.109553,0.999996,0.000208,-0.002472,0.004946,0.000332,0.004961,-0.002487,87.445889,0.004961,
1730,290,-0.700474,-8.844407,0.999997,0.000177,-0.002199,0.004979,-0.000248,0.004987,-0.002207,-88.022907,0.004998,
1430,1190,-0.690674,-3.688518,0.999997,0.000213,-0.003692,0.006829,-0.001023,0.006928,-0.003791,-84.496428,0.006938,
1460,550,-0.380263,-8.007856,0.999998,0.000182,-0.002272,0.004551,0.000729,0.004628,-0.002349,83.971971,0.004629,
1380,740,-0.256447,-7.370515,0.999997,0.000208,-0.002829,0.004503,0.001878,0.004956,-0.003282,76.438304,0.005042,
820,700,1.069766,-6.847906,0.999999,0.000162,-0.003077,0.005622,0.000100,0.005624,-0.003079,89.342036,0.005632,
1090,500,0.196036,-8.366076,0.999998,0.000151,-0.001677,0.003925,-0.000614,0.003991,-0.001743,-83.822506,0.004002,
1660,1550,-0.841508,-2.211367,0.999998,0.000137,-0.002565,0.005132,-0.000217,0.005138,-0.002572,-88.388715,0.005138,
1530,1820,-0.266850,-0.791680,0.999998,0.000183,-0.001216,0.004089,0.000298,0.004105,-0.001232,86.793796,0.004213,
830,560,0.836096,-7.629161,0.999998,0.000169,-0.002754,0.005238,-0.000254,0.005246,-0.002762,-88.183870,0.005249,
1900,500,-1.445908,-7.511050,0.999997,0.000000,-0.002436,0.005070,0.000014,0.005070,-0.002436,89.894616,0.005072,
1190,1420,0.048104,-2.053522,0.999998,0.000160,-0.001252,0.002885,0.000507,0.002946,-0.001314,83.116875,0.002952,
660,270,0.835700,-8.832032,0.999998,0.000187,-0.002347,0.005070,0.000221,0.005077,-0.002354,88.296614,0.005081,
1810,990,-1.946181,-5.212670,0.999998,0.000154,-0.002130,0.004585,-0.000119,0.004587,-0.002132,-88.987275,0.004591,
610,490,1.315056,-7.634440,0.999997,0.000195,-0.002515,0.005079,-0.000027,0.005079,-0.002515,-89.792844,0.005079,
890,1930,0.155771,-0.373156,0.999998,0.000160,-0.000791,0.003797,-0.000621,0.003880,-0.000874,-82.426829,0.004070,
1670,1960,-0.171717,-0.283199,0.999998,0.000159,-0.000887,0.003980,0.000984,0.004171,-0.001079,78.990425,0.004330,
730,1750,0.734880,-1.314113,0.999997,0.000203,-0.002256,0.004986,-0.000163,0.004989,-0.002259,-88.710567,0.004997,
810,800,1.294842,-6.265454,0.999997,0.000223,-0.002974,0.005657,0.000506,0.005687,-0.003004,86.657507,0.005690,
1640,1260,-1.246081,-3.772776,0.999997,0.000206,-0.003062,0.005753,0.000471,0.005778,-0.003087,86.953170,0.005782,
650,1150,1.884117,-4.471318,0.999998,0.000170,-0.002245,0.004680,-0.000277,0.004691,-0.002256,-87.713924,0.004692,
1230,1290,0.002405,-2.300612,0.999998,0.000172,-0.001084,0.001302,0.000046,0.001303,-0.001085,88.885306,0.001395,
1850,50,-0.202994,-9.893459,0.999998,0.000154,-0.001797,0.005162,-0.001777,0.005590,-0.002225,-76.474131,0.005629,
1470,1630,-0.338566,-1.534800,0.999997,0.000202,-0.001851,0.004324,-0.000382,0.004348,-0.001874,-86.469067,0.004361,
1510,1310,-0.703888,-3.221577,0.999997,0.000207,-0.003580,0.006018,-0.000525,0.006047,-0.003608,-86.875713,0.006084,
1850,1490,-1.419411,-2.824996,0.999997,0.000189,-0.002550,0.005113,0.000005,0.005113,-0.002550,89.959223,0.005113,
1600,900,-1.361957,-5.738223,0.999998,0.000198,-0.002635,0.005727,-0.000713,0.005787,-0.002695,-85.162101,0.005792,
960,770,0.723924,-6.725564,0.999997,0.000206,-0.003723,0.006197,-0.000475,0.006220,-0.003746,-87.263757,0.006263,
990,170,0.136436,-9.568321,0.999998,0.000169,-0.000699,0.003689,0.000323,0.003713,-0.000723,85.816276,0.003937,
1560,360,-0.449568,-8.724272,0.999998,0.000180,-0.001910,0.004512,0.000059,0.004513,-0.001910,89.475009,0.004531,
1030,490,0.299331,-8.320885,0.999998,0.000186,-0.001917,0.004272,-0.000578,0.004325,-0.001970,-84.712991,0.004331,
1730,1900,-0.394044,-0.572714,0.999997,0.000181,-0.001543,0.004758,0.000967,0.004903,-0.001688,81.466549,0.004981,
720,130,0.342819,-9.613049,0.999998,0.000185,-0.001673,0.004649,0.001063,0.004823,-0.001847,80.704311,0.004867,
1680,1580,-0.856189,-2.091227,0.999998,0.000167,-0.002502,0.005063,-0.000172,0.005067,-0.002506,-88.697971,0.005067,
1330,260,-0.077905,-9.293658,0.999999,0.000143,-0.000914,0.003507,0.000030,0.003508,-0.000914,89.610714,0.003639,
790,1400,1.084809,-3.028207,0.999998,0.000151,-0.002892,0.005420,-0.000027,0.005420,-0.002893,-89.812021,0.005424,
780,340,0.683696,-8.658505,0.999997,0.000203,-0.002203,0.004935,0.000067,0.004936,-0.002203,89.460766,0.004945,
1460,530,-0.371976,-8.096558,0.999997,0.000175,-0.002137,0.004472,0.000658,0.004537,-0.002202,84.369549,0.004537,
780,810,1.402109,-6.179439,0.999997,0.000201,-0.002843,0.005468,0.000541,0.005503,-0.002878,86.288040,0.005505,
1430,1170,-0.772888,-3.825989,0.999997,0.000223,-0.003536,0.007015,-0.000982,0.007106,-0.003627,-84.726700,0.007107,
1730,270,-0.664475,-8.945613,0.999998,0.000171,-0.002117,0.004972,-0.000337,0.004988,-0.002133,-87.287019,0.005005,
1770,790,-1.599002,-6.208325,0.999998,0.000185,-0.002560,0.005115,-0.000446,0.005141,-0.002586,-86.686807,0.005141,
1180,390,0.057695,-8.843892,0.999998,0.000157,-0.001108,0.003562,-0.000073,0.003563,-0.001109,-89.107525,0.003647,
1380,1760,-0.140375,-0.934251,0.999998,0.000159,-0.000969,0.003704,0.000016,0.003704,-0.000969,89.801425,0.003842,
1670,1940,-0.221001,-0.368077,0.999997,0.000207,-0.001092,0.004164,0.000957,0.004333,-0.001261,79.994494,0.004457,
850,560,0.783189,-7.663666,0.999998,0.000167,-0.002723,0.005213,-0.000290,0.005223,-0.002734,-87.908172,0.005225,
660,310,0.911348,-8.628243,0.999998,0.000154,-0.002407,0.005048,0.000107,0.005050,-0.002409,89.174923,0.005051,
890,1910,0.184140,-0.449200,0.999998,0.000173,-0.000916,0.003923,-0.000593,0.003995,-0.000987,-83.113995,0.004162,
870,140,0.197625,-9.641931,0.999998,0.000188,-0.001000,0.003931,0.000641,0.004013,-0.001082,82.709550,0.004153,
1180,280,0.044419,-9.233739,0.999999,0.000144,-0.000826,0.003498,0.000004,0.003498,-0.000826,89.951040,0.003657,
1900,480,-1.416025,-7.611745,0.999998,0.000000,-0.002419,0.005044,0.000020,0.005044,-0.002419,89.845109,0.005045,
1240,70,-0.001483,-9.928409,0.999998,0.000152,-0.000176,0.003046,-0.000007,0.003046,-0.000176,-89.878964,0.003420,
860,960,1.479746,-5.401318,0.999997,0.000221,-0.002128,0.005441,0.000523,0.005477,-0.002164,86.062645,0.005517,
730,990,1.780336,-5.224017,0.999998,0.000159,-0.002146,0.004844,0.000172,0.004848,-0.002151,88.587805,0.004859,
1870,1300,-1.786239,-3.811566,0.999998,0.000160,-0.002430,0.004897,0.000152,0.004900,-0.002434,88.815513,0.004900,
610,470,1.285665,-7.735682,0.999998,0.000191,-0.002510,0.005081,-0.000046,0.005082,-0.002511,-89.649285,0.005082,
1790,780,-1.630680,-6.239817,0.999998,0.000212,-0.002555,0.005062,-0.000397,0.005083,-0.002576,-87.025632,0.005083,
620,1270,1.773108,-3.923608,0.999998,0.000159,-0.002426,0.004897,-0.000276,0.004908,-0.002436,-87.848075,0.004908,
690,590,1.259725,-7.244686,0.999998,0.000169,-0.002654,0.005169,0.000017,0.005169,-0.002654,89.875453,0.005169,
1810,950,-1.926724,-5.397630,0.999998,0.000167,-0.002209,0.004666,-0.000269,0.004676,-0.002220,-87.759173,0.004678,
1850,40,-0.154107,-9.940841,0.999991,0.000355,-0.001419,0.005061,-0.002015,0.005636,-0.001995,-74.057839,0.005716,
1660,1570,-0.816887,-2.108546,0.999997,0.000185,-0.002541,0.005052,-0.000212,0.005058,-0.002547,-88.401143,0.005058,
1730,1740,-0.746612,-1.360418,0.999998,0.000175,-0.002258,0.004985,0.000124,0.004987,-0.002260,89.016769,0.004994,
1600,860,-1.270106,-5.972436,0.999997,0.000214,-0.002941,0.005872,-0.000642,0.005919,-0.002988,-85.852769,0.005919,
920,1590,0.514080,-1.822527,0.999998,0.000207,-0.002244,0.004720,0.000382,0.004741,-0.002264,86.873270,0.004742,
830,1160,1.436350,-4.334359,0.999997,0.000208,-0.002566,0.005532,-0.000667,0.005587,-0.002621,-85.319644,0.005590,
1010,840,0.701361,-6.451664,0.999997,0.000211,-0.003947,0.006717,-0.000744,0.006769,-0.003998,-86.027316,0.006806,
1520,100,-0.090282,-9.810337,0.999998,0.000161,-0.000493,0.003521,-0.000515,0.003586,-0.000558,-82.799855,0.003860,
1470,1590,-0.361207,-1.710321,0.999998,0.000190,-0.001964,0.004395,-0.000486,0.004432,-0.002001,-85.650654,0.004439,
820,680,1.034767,-6.959894,0.999998,0.000172,-0.003042,0.005538,0.000016,0.005538,-0.003042,89.889867,0.005547,
1560,340,-0.427958,-8.815198,0.999998,0.000183,-0.001847,0.004505,0.000003,0.004505,-0.001847,89.976107,0.004530,
1860,350,-1.117159,-8.326969,0.999998,0.000180,-0.002439,0.004974,0.000074,0.004975,-0.002440,89.430329,0.004975,
650,170,0.604207,-9.331979,0.999997,0.000199,-0.002175,0.005211,0.000783,0.005293,-0.002257,84.013943,0.005312,
810,780,1.253449,-6.378682,0.999998,0.000190,-0.003023,0.005687,0.000430,0.005708,-0.003044,87.181684,0.005712,
1850,1470,-1.451110,-2.927116,0.999998,0.000184,-0.002559,0.005085,0.000016,0.005085,-0.002559,89.881194,0.005085,
1280,1420,-0.055750,-2.058249,0.999998,0.000179,-0.001309,0.002913,-0.000606,0.002999,-0.001395,-81.997345,0.003001,
600,250,0.935237,-8.819571,0.999998,0.000186,-0.002423,0.004952,0.000073,0.004952,-0.002423,89.436493,0.004953,
990,150,0.116036,-9.642371,0.999998,0.000153,-0.000578,0.003607,0.000338,0.003634,-0.000605,85.410681,0.003894,
1030,470,0.289904,-8.407034,0.999998,0.000163,-0.001806,0.004218,-0.000496,0.004259,-0.001846,-85.328634,0.004271,
810,1460,0.938363,-2.671694,0.999998,0.000162,-0.002820,0.005362,0.000145,0.005365,-0.002823,88.984678,0.005367,
1450,260,-0.196995,-9.238135,0.999998,0.000163,-0.001075,0.003865,-0.000113,0.003868,-0.001077,-88.686917,0.003993,
780,320,0.649939,-8.757888,0.999997,0.000206,-0.002174,0.004893,0.000112,0.004895,-0.002175,89.094063,0.004905,
840,1390,0.951088,-3.002272,0.999998,0.000179,-0.003075,0.005509,0.000098,0.005510,-0.003076,89.346614,0.005522,
1680,1560,-0.879501,-2.191057,0.999998,0.000164,-0.002555,0.005097,-0.000173,0.005101,-0.002558,-88.706170,0.005101,
1640,1240,-1.288512,-3.887938,0.999997,0.000205,-0.002999,0.005732,0.000566,0.005768,-0.003035,86.308504,0.005771,
1230,1270,0.001088,-2.322801,0.999997,0.000209,-0.001268,0.001117,0.000053,0.001118,-0.001270,88.727424,0.001387,
1870,1590,-1.320828,-2.345421,0.999997,0.000210,-0.002478,0.005073,-0.000038,0.005073,-0.002478,-89.712974,0.005074,
1870,1310,-1.769049,-3.762463,0.999998,0.000172,-0.002437,0.004880,0.000148,0.004883,-0.002440,88.843096,0.004883,
1380,1720,-0.158182,-1.084751,0.999998,0.000157,-0.001104,0.003754,-0.000084,0.003755,-0.001106,-89.006662,0.003860,
1540,1470,-0.607394,-2.408056,0.999997,0.000212,-0.002742,0.005131,-0.000545,0.005168,-0.002779,-86.058953,0.005173,
1180,260,0.041838,-9.304007,0.999998,0.000145,-0.000750,0.003471,0.000002,0.003471,-0.000750,89.970610,0.003653,
1430,1150,-0.855899,-3.965492,0.999997,0.000208,-0.003406,0.007184,-0.001005,0.007278,-0.003501,-84.629107,0.007280,
1890,560,-1.514203,-7.218781,0.999996,0.000228,-0.002582,0.005101,-0.000016,0.005101,-0.002582,-89.883164,0.005101,
620,1010,2.025279,-5.117296,0.999998,0.000150,-0.002099,0.004470,0.000130,0.004473,-0.002102,88.864880,0.004475,
1610,1920,-0.207062,-0.426569,0.999998,0.000180,-0.000895,0.003965,0.000713,0.004068,-0.000997,81.827959,0.004240,
840,1010,1.564381,-5.131766,0.999998,0.000199,-0.001955,0.005219,0.000165,0.005222,-0.001959,88.684359,0.005276,
1770,770,-1.562232,-6.310437,0.999998,0.000201,-0.002596,0.005135,-0.000418,0.005157,-0.002619,-86.917005,0.005157,
1250,1280,-0.021322,-2.326760,0.999998,0.000158,-0.001214,0.001311,-0.000564,0.001431,-0.001334,-77.971708,0.001599,
1900,210,-0.927427,-8.932386,0.999998,0.000000,-0.002383,0.004840,-0.000119,0.004842,-0.002385,-89.054961,0.004842,
1840,40,-0.135271,-9.954451,0.999998,0.000192,-0.001760,0.004715,-0.001676,0.005123,-0.002168,-76.317109,0.005143,
1530,140,-0.147508,-9.661090,0.999998,0.000153,-0.000695,0.003712,-0.000504,0.003769,-0.000752,-83.554517,0.003989,
610,450,1.255221,-7.838543,0.999998,0.000176,-0.002487,0.005055,-0.000086,0.005056,-0.002488,-89.347167,0.005056,
1080,70,0.023580,-9.923665,0.999998,0.000166,-0.000152,0.003137,0.000219,0.003151,-0.000166,86.209534,0.003547,
1680,1540,-0.904577,-2.294744,0.999998,0.000167,-0.002614,0.005160,-0.000166,0.005163,-0.002617,-88.776262,0.005163,
1310,200,-0.045730,-9.506674,0.999998,0.000213,-0.000608,0.003424,-0.000075,0.003425,-0.000609,-88.929803,0.003654,
950,30,0.015682,-10.044641,0.999999,0.000000,-0.000119,0.003289,0.000384,0.003332,-0.000161,83.646823,0.003757,
890,1890,0.214560,-0.529911,0.999998,0.000188,-0.001049,0.003994,-0.000559,0.004055,-0.001110,-83.750265,0.004191,
780,1950,0.206000,-0.328918,0.999998,0.000180,-0.000971,0.004173,-0.001072,0.004387,-0.001186,-78.687730,0.004539,
660,330,0.945298,-8.526837,0.999998,0.000193,-0.002438,0.005058,0.000016,0.005058,-0.002438,89.876374,0.005060,
1120,1900,0.051788,-0.425821,0.999998,0.000137,-0.000518,0.003334,-0.000107,0.003337,-0.000521,-88.403530,0.003590,
1420,690,-0.341134,-7.454407,0.999997,0.000194,-0.002878,0.004865,0.001423,0.005119,-0.003131,79.909854,0.005161,
940,1620,0.444836,-1.651200,0.999997,0.000196,-0.002029,0.004568,0.000325,0.004584,-0.002045,87.184172,0.004593,
1370,1780,-0.119960,-0.854668,0.999998,0.000144,-0.000916,0.003659,0.000044,0.003660,-0.000917,89.454056,0.003809,
1230,1250,0.004052,-2.344163,0.999998,0.000185,-0.001747,0.000979,0.000036,0.000979,-0.001748,89.235891,0.001752,
860,940,1.451662,-5.510053,0.999997,0.000217,-0.002293,0.005578,0.000633,0.005628,-0.002344,85.431009,0.005654,
1340,390,-0.126524,-8.813063,0.999998,0.000151,-0.001287,0.003711,0.000252,0.003724,-0.001299,87.120083,0.003780,
1430,780,-0.469174,-6.934159,0.999997,0.000196,-0.003740,0.005824,0.001398,0.006024,-0.003940,81.854003,0.006118,
1600,840,-1.222631,-6.090675,0.999997,0.000204,-0.003062,0.005925,-0.000577,0.005962,-0.003099,-86.344217,0.005963,
580,1130,2.058947,-4.606810,0.999998,0.000162,-0.002032,0.004362,-0.000150,0.004366,-0.002035,-88.661067,0.004369,
820,1270,1.231404,-3.717962,0.999998,0.000202,-0.003051,0.005733,-0.000426,0.005753,-0.003071,-87.230141,0.005758,
730,1730,0.768941,-1.414299,0.999998,0.000172,-0.002320,0.004997,-0.000073,0.004998,-0.002321,-89.429188,0.005002,
690,1330,1.487081,-3.538213,0.999997,0.000213,-0.002650,0.005207,-0.000319,0.005220,-0.002663,-87.676005,0.005221,
1850,1450,-1.480483,-3.027820,0.999997,0.000193,-0.002523,0.005086,0.000060,0.005086,-0.002524,89.550903,0.005086,
1070,1870,0.091587,-0.537845,0.999998,0.000188,-0.000662,0.003491,-0.000158,0.003497,-0.000668,-87.827639,0.003713,
650,130,0.468981,-9.541004,0.999997,0.000221,-0.001924,0.005229,0.001127,0.005403,-0.002097,81.251235,0.005448,
1470,1570,-0.371416,-1.798516,0.999998,0.000189,-0.002016,0.004416,-0.000517,0.004457,-0.002057,-85.435443,0.004461,
1560,320,-0.406313,-8.904621,0.999998,0.000187,-0.001722,0.004426,-0.000050,0.004427,-0.001722,-89.534236,0.004463,
1330,1670,-0.113234,-1.240589,0.999998,0.000164,-0.001291,0.003694,-0.000238,0.003706,-0.001302,-87.275661,0.003760,
1030,670,0.367916,-7.506918,0.999997,0.000206,-0.002790,0.004898,-0.001259,0.005099,-0.002991,-80.933630,0.005125,
1860,330,-1.084273,-8.426436,0.999998,0.000172,-0.002429,0.004978,0.000078,0.004978,-0.002430,89.398336,0.004979,
1720,1190,-1.604727,-4.221905,0.999997,0.000211,-0.002531,0.005170,0.000542,0.005208,-0.002569,85.996292,0.005208,
820,660,1.003547,-7.070728,0.999998,0.000169,-0.002998,0.005535,-0.000056,0.005536,-0.002999,-89.627040,0.005542,
1810,1560,-1.214910,-2.402536,0.999997,0.000236,-0.002509,0.005131,-0.000074,0.005131,-0.002510,-89.445250,0.005132,
1870,1320,-1.750953,-3.713814,0.999997,0.000188,-0.002442,0.004869,0.000141,0.004871,-0.002444,88.895602,0.004871,
1330,520,-0.131703,-8.343624,0.999999,0.000133,-0.001440,0.003656,0.000499,0.003704,-0.001488,84.455853,0.003728,
1880,560,-1.488641,-7.234172,0.999996,0.000239,-0.002584,0.005114,-0.000017,0.005114,-0.002584,-89.870339,0.005114,
1440,1610,-0.293762,-1.579853,0.999998,0.000189,-0.001765,0.004203,-0.000398,0.004230,-0.001791,-86.199958,0.004246,
1770,750,-1.524978,-6.415322,0.999997,0.000222,-0.002647,0.005221,-0.000373,0.005238,-0.002664,-87.292124,0.005238,
600,970,2.051512,-5.288712,0.999998,0.000179,-0.002072,0.004258,0.000036,0.004258,-0.002072,89.669873,0.004258,
1280,1910,-0.019239,-0.387896,0.999999,0.000116,-0.000370,0.003231,0.000062,0.003232,-0.000371,89.007434,0.003538,
1430,1130,-0.936808,-4.115476,0.999997,0.000192,-0.003298,0.007397,-0.001062,0.007501,-0.003402,-84.382706,0.007512,
1900,200,-0.902502,-8.980529,0.999998,0.000000,-0.002404,0.004868,-0.000153,0.004871,-0.002407,-88.797447,0.004871,
1640,1220,-1.332280,-4.000808,0.999998,0.000185,-0.002915,0.005652,0.000613,0.005696,-0.002959,85.929593,0.005697,
1850,1400,-1.563686,-3.283383,0.999997,0.000190,-0.002552,0.005078,0.000119,0.005080,-0.002554,89.105346,0.005080,
1310,260,-0.061852,-9.300191,0.999999,0.000132,-0.000811,0.003484,-0.000016,0.003484,-0.000811,-89.784754,0.003646,
990,130,0.098215,-9.713170,0.999998,0.000154,-0.000479,0.003493,0.000361,0.003526,-0.000512,84.848833,0.003810,
1390,800,-0.354877,-7.031356,0.999997,0.000223,-0.003555,0.005269,0.001947,0.005680,-0.003965,78.095558,0.005826,
770,1160,1.587432,-4.365746,0.999997,0.000199,-0.002477,0.005280,-0.000630,0.005330,-0.002528,-85.383902,0.005333,
1780,490,-1.128810,-7.751598,0.999998,0.000164,-0.002556,0.005141,0.000093,0.005143,-0.002557,89.305469,0.005143,
1810,930,-1.903550,-5.491906,0.999998,0.000173,-0.002257,0.004726,-0.000332,0.004741,-0.002273,-87.281776,0.004743,
1730,1760,-0.710854,-1.260642,0.999998,0.000185,-0.002203,0.004969,0.000217,0.004976,-0.002209,88.269372,0.004986,
1280,1400,-0.056861,-2.116792,0.999998,0.000181,-0.001308,0.002837,-0.000687,0.002948,-0.001419,-80.832217,0.002949,
1520,60,-0.044087,-9.946872,0.999999,0.000140,-0.000268,0.003332,-0.000500,0.003400,-0.000336,-82.240910,0.003747,
1000,70,0.040114,-9.918666,0.999999,0.000159,-0.000153,0.003300,0.000401,0.003346,-0.000199,83.460938,0.003754,
1590,1960,-0.119855,-0.266482,0.999998,0.000156,-0.000658,0.003670,0.000673,0.003772,-0.000760,81.367252,0.003990,
1770,1440,-1.289981,-2.960473,0.999997,0.000202,-0.002666,0.005193,0.000059,0.005193,-0.002666,89.567371,0.005194,
1830,40,-0.113498,-9.971709,0.999998,0.000165,-0.001630,0.004509,-0.001593,0.004898,-0.002019,-76.282556,0.004924,
850,200,0.324718,-9.381168,0.999998,0.000176,-0.001325,0.004333,0.000554,0.004387,-0.001378,84.455392,0.004486,
780,300,0.619582,-8.855037,0.999998,0.000198,-0.002145,0.004798,0.000169,0.004802,-0.002149,88.606400,0.004811,
790,180,0.370947,-9.431088,0.999998,0.000164,-0.001651,0.004461,0.000690,0.004538,-0.001728,83.638985,0.004581,
1680,1520,-0.932087,-2.398897,0.999998,0.000183,-0.002651,0.005218,-0.000164,0.005222,-0.002655,-88.809304,0.005222,
930,1440,0.615521,-2.548349,0.999997,0.000215,-0.002871,0.005226,0.000594,0.005270,-0.002914,85.824368,0.005280,
670,340,0.937619,-8.492260,0.999998,0.000168,-0.002416,0.005057,-0.000007,0.005057,-0.002416,-89.942534,0.005058,
790,2010,0.061248,-0.095205,0.999998,0.000153,-0.000455,0.003604,-0.000962,0.003821,-0.000671,-77.321208,0.004080,
940,1600,0.461777,-1.743292,0.999998,0.000197,-0.002129,0.004612,0.000390,0.004634,-0.002151,86.702988,0.004638,
1230,1230,0.003284,-2.360089,0.999997,0.000211,-0.002752,0.001247,0.000015,0.001247,-0.002752,89.787977,0.002756,
860,920,1.409067,-5.625559,0.999997,0.000218,-0.002466,0.005642,0.000722,0.005706,-0.002530,84.951489,0.005718,
580,520,1.433697,-7.435983,0.999997,0.000204,-0.002903,0.005318,0.000126,0.005320,-0.002905,89.118914,0.005327,
1680,910,-1.582233,-5.641141,0.999997,0.000218,-0.002435,0.005312,-0.000596,0.005358,-0.002480,-85.624274,0.005363,
1850,1430,-1.514647,-3.130382,0.999997,0.000199,-0.002520,0.005075,0.000063,0.005076,-0.002520,89.521863,0.005076,
690,1290,1.559615,-3.747515,0.999998,0.000199,-0.002598,0.005146,-0.000377,0.005164,-0.002616,-87.219389,0.005164,
1120,1880,0.056559,-0.495237,0.999998,0.000163,-0.000584,0.003402,-0.000078,0.003403,-0.000585,-88.876408,0.003639,
940,2020,0.021705,-0.051638,0.999998,0.000000,-0.000063,0.003285,-0.000534,0.003368,-0.000146,-81.152458,0.003807,
640,1520,1.305352,-2.629190,0.999997,0.000184,-0.002555,0.005132,0.000041,0.005133,-0.002555,89.697283,0.005133,
1070,1850,0.101354,-0.609073,0.999998,0.000177,-0.000744,0.003565,-0.000132,0.003569,-0.000748,-88.250238,0.003765,
1030,910,0.886157,-6.060247,0.999997,0.000212,-0.003340,0.007304,-0.000892,0.007378,-0.003414,-85.241136,0.007385,
820,640,0.973159,-7.181758,0.999998,0.000158,-0.002934,0.005452,-0.000097,0.005453,-0.002935,-89.337848,0.005458,
1470,1740,-0.262608,-1.070855,0.999998,0.000167,-0.001312,0.004063,-0.000003,0.004063,-0.001312,-89.973099,0.004147,
1380,330,-0.156006,-9.013825,0.999998,0.000151,-0.001111,0.003768,0.000054,0.003768,-0.001112,89.360199,0.003872,
1770,730,-1.487996,-6.519674,0.999997,0.000228,-0.002673,0.005208,-0.000326,0.005221,-0.002687,-87.638771,0.005222,
1440,1590,-0.301978,-1.663715,0.999998,0.000166,-0.001853,0.004233,-0.000489,0.004272,-0.001892,-85.439766,0.004282,
1850,180,-0.722907,-9.199025,0.999998,0.000190,-0.002453,0.005167,-0.000338,0.005182,-0.002468,-87.464108,0.005184,
1350,760,-0.186728,-7.429995,0.999998,0.000184,-0.002570,0.003812,0.002116,0.004450,-0.003208,73.229136,0.004592,
1470,1550,-0.381601,-1.887055,0.999997,0.000199,-0.002093,0.004488,-0.000573,0.004537,-0.002142,-85.056643,0.004540,
1520,1470,-0.553826,-2.366618,0.999997,0.000233,-0.002722,0.005075,-0.000652,0.005129,-0.002776,-85.254549,0.005134,
890,1870,0.247084,-0.609900,0.999997,0.000205,-0.001187,0.004057,-0.000485,0.004102,-0.001232,-84.759134,0.004209,
1430,1110,-1.014698,-4.265443,0.999996,0.000228,-0.003291,0.007955,-0.001268,0.008096,-0.003432,-83.646722,0.008127,
710,1520,1.124493,-2.518432,0.999998,0.000220,-0.002618,0.005175,0.000070,0.005175,-0.002619,89.486115,0.005175,
1370,260,-0.114551,-9.277837,0.999998,0.000138,-0.000840,0.003573,-0.000048,0.003573,-0.000840,-89.379962,0.003737,
1900,190,-0.875926,-9.029398,0.999998,0.000000,-0.002438,0.004901,-0.000197,0.004906,-0.002444,-88.465735,0.004906,
1640,1200,-1.372286,-4.114296,0.999998,0.000191,-0.002832,0.005636,0.000659,0.005687,-0.002883,85.579883,0.005687,
900,1610,0.542346,-1.758523,0.999997,0.000226,-0.002206,0.004742,0.000290,0.004754,-0.002218,87.611506,0.004757,
1770,1360,-1.425679,-3.377839,0.999997,0.000213,-0.002678,0.005227,0.000246,0.005235,-0.002686,88.216892,0.005236,
1560,300,-0.384074,-8.991981,0.999998,0.000187,-0.001605,0.004373,-0.000110,0.004375,-0.001607,-88.949482,0.004426,
600,950,2.041275,-5.373462,0.999998,0.000161,-0.002113,0.004341,0.000118,0.004344,-0.002115,88.954568,0.004344,
1590,1940,-0.153891,-0.341749,0.999998,0.000182,-0.000816,0.003841,0.000690,0.003941,-0.000916,81.749562,0.004124,
1870,560,-1.461858,-7.249442,0.999997,0.000217,-0.002564,0.005123,-0.000011,0.005123,-0.002564,-89.919829,0.005123,
980,70,0.043143,-9.917944,0.999999,0.000151,-0.000263,0.003332,0.000423,0.003381,-0.000312,83.385889,0.003736,
990,110,0.077629,-9.783854,0.999999,0.000170,-0.000367,0.003449,0.000394,0.003489,-0.000407,84.167417,0.003816,
1590,220,-0.324953,-9.313298,0.999997,0.000185,-0.001493,0.004239,-0.000383,0.004264,-0.001518,-86.197522,0.004323,
780,280,0.585899,-8.950401,0.999997,0.000195,-0.002117,0.004821,0.000259,0.004830,-0.002127,87.861339,0.004842,
790,200,0.414009,-9.338891,0.999998,0.000185,-0.001763,0.004611,0.000605,0.004668,-0.001820,84.626457,0.004706,
610,430,1.226354,-7.938276,0.999998,0.000165,-0.002479,0.004998,-0.000098,0.004999,-0.002480,-89.249367,0.004999,
940,1390,0.636707,-2.795850,0.999997,0.000199,-0.003132,0.005517,0.000641,0.005564,-0.003179,85.783253,0.005583,
1380,1700,-0.163619,-1.157094,0.999998,0.000155,-0.001180,0.003788,-0.000109,0.003790,-0.001183,-88.739126,0.003878,
1880,310,-1.098250,-8.488568,0.999998,0.000180,-0.002426,0.004955,0.000036,0.004955,-0.002426,89.718381,0.004955,
1280,1380,-0.054480,-2.172959,0.999998,0.000152,-0.001289,0.002646,-0.000820,0.002810,-0.001454,-78.683530,0.002811,
1680,1500,-0.956786,-2.505835,0.999998,0.000174,-0.002685,0.005286,-0.000149,0.005289,-0.002688,-88.930862,0.005289,
1180,240,0.037500,-9.373078,0.999998,0.000157,-0.000707,0.003445,0.000030,0.003445,-0.000707,89.582406,0.003639,
800,1270,1.293341,-3.741270,0.999998,0.000214,-0.002984,0.005623,-0.000465,0.005648,-0.003009,-86.914839,0.005652,
1720,510,-1.003829,-7.745434,0.999997,0.000199,-0.002612,0.005164,0.000126,0.005166,-0.002614,89.074693,0.005166,
1130,1190,0.410210,-2.892467,0.999998,0.000192,-0.001742,0.002341,0.001456,0.002806,-0.002207,72.252616,0.002956,
1230,810,0.004361,-7.731860,0.999998,0.000189,-0.001942,0.001045,-0.000030,0.001045,-0.001942,-89.433860,0.001944,
860,900,1.370423,-5.735945,0.999998,0.000192,-0.002623,0.005674,0.000715,0.005735,-0.002684,85.111532,0.005739,
1070,1830,0.114292,-0.682563,0.999998,0.000165,-0.000803,0.003622,-0.000110,0.003624,-0.000805,-88.575805,0.003806,
1680,890,-1.546125,-5.748507,0.999997,0.000231,-0.002500,0.005314,-0.000633,0.005365,-0.002551,-85.402253,0.005367,
690,1270,1.595659,-3.849660,0.999998,0.000186,-0.002569,0.005078,-0.000434,0.005103,-0.002594,-86.759146,0.005103,
1770,710,-1.452950,-6.623201,0.999997,0.000208,-0.002666,0.005190,-0.000283,0.005200,-0.002676,-87.942576,0.005201,
1000,1910,0.106836,-0.418443,0.999998,0.000162,-0.000548,0.003527,-0.000322,0.003552,-0.000573,-85.505803,0.003814,
1510,1360,-0.630039,-2.931528,0.999996,0.000211,-0.003334,0.005653,-0.000684,0.005705,-0.003386,-85.673274,0.005738,
940,1800,0.282266,-0.870664,0.999998,0.000174,-0.001339,0.004080,-0.000197,0.004087,-0.001346,-87.922812,0.004166,
1730,250,-0.623289,-9.044373,0.999997,0.000186,-0.002054,0.004936,-0.000440,0.004963,-0.002081,-86.413457,0.004985,
1600,820,-1.175427,-6.208948,0.999997,0.000193,-0.003170,0.005947,-0.000487,0.005973,-0.003196,-86.951725,0.005978,
1470,1760,-0.247997,-0.992871,0.999998,0.000149,-0.001223,0.003995,0.000064,0.003996,-0.001224,89.294105,0.004095,
1850,670,-1.588102,-6.719853,0.999997,0.000200,-0.002522,0.005058,-0.000117,0.005060,-0.002524,-89.116807,0.005060,
1020,1860,0.137940,-0.593160,0.999998,0.000208,-0.000805,0.003682,-0.000274,0.003698,-0.000821,-86.523963,0.003884,
820,620,0.942481,-7.290684,0.999998,0.000155,-0.002891,0.005418,-0.000131,0.005421,-0.002893,-89.097448,0.005425,
590,1770,1.033472,-1.454559,0.999998,0.000141,-0.002379,0.004895,-0.000003,0.004895,-0.002379,-89.974903,0.004896,
730,1690,0.832321,-1.617037,0.999998,0.000197,-0.002432,0.005006,0.000006,0.005006,-0.002432,89.951376,0.005006,
790,2000,0.081685,-0.129868,0.999998,0.000145,-0.000508,0.003675,-0.000993,0.003899,-0.000731,-77.303083,0.004145,
870,1200,1.237072,-4.071218,0.999997,0.000206,-0.003002,0.005931,-0.000634,0.005976,-0.003047,-85.960148,0.005976,
1330,1650,-0.116319,-1.314577,0.999998,0.000157,-0.001317,0.003684,-0.000298,0.003702,-0.001334,-86.606214,0.003750,
940,30,0.016579,-10.043601,0.999999,0.000000,-0.000008,0.003278,0.000442,0.003337,-0.000066,82.471921,0.003815,
890,1850,0.276221,-0.693490,0.999998,0.000183,-0.001282,0.004154,-0.000433,0.004188,-0.001317,-85.470342,0.004284,
1430,1090,-1.079803,-4.439808,0.999996,0.000240,-0.003480,0.008787,-0.001340,0.008932,-0.003624,-83.836065,0.008984,
870,1520,0.699303,-2.251518,0.999997,0.000192,-0.002639,0.005082,0.000353,0.005098,-0.002655,87.386217,0.005099,
1430,760,-0.437445,-7.047926,0.999997,0.000218,-0.003564,0.005570,0.001424,0.005786,-0.003780,81.339820,0.005876,
1800,1570,-1.174075,-2.335451,0.999997,0.000194,-0.002523,0.005117,-0.000067,0.005118,-0.002523,-89.494671,0.005118,
1640,1180,-1.415750,-4.228025,0.999997,0.000216,-0.002709,0.005594,0.000669,0.005647,-0.002763,85.423853,0.005647,
1520,390,-0.406133,-8.634572,0.999998,0.000180,-0.001837,0.004428,0.000185,0.004433,-0.001843,88.311451,0.004454,
1330,500,-0.130246,-8.415032,0.999998,0.000138,-0.001429,0.003626,0.000449,0.003665,-0.001469,84.966539,0.003689,
1400,470,-0.235822,-8.447029,0.999998,0.000173,-0.001721,0.004037,0.000511,0.004082,-0.001766,84.963148,0.004094,
1400,1850,-0.107996,-0.612418,0.999998,0.000149,-0.000771,0.003574,0.000165,0.003580,-0.000778,87.830861,0.003767,
1560,280,-0.360117,-9.080492,0.999998,0.000168,-0.001493,0.004331,-0.000207,0.004338,-0.001500,-87.963739,0.004407,
700,170,0.502454,-9.393912,0.999997,0.000202,-0.002134,0.004923,0.000750,0.005002,-0.002213,83.999764,0.005013,
1770,1380,-1.390879,-3.273508,0.999997,0.000209,-0.002670,0.005238,0.000193,0.005243,-0.002675,88.604844,0.005243,
1810,910,-1.883454,-5.588088,0.999998,0.000159,-0.002262,0.004715,-0.000304,0.004728,-0.002275,-87.509678,0.004730,
1380,1680,-0.172480,-1.235252,0.999998,0.000160,-0.001260,0.003883,-0.000140,0.003887,-0.001263,-88.440796,0.003965,
1900,180,-0.846543,-9.079671,0.999998,0.000000,-0.002468,0.004950,-0.000268,0.004959,-0.002478,-87.935260,0.004959,
810,180,0.337360,-9.445227,0.999997,0.000187,-0.001446,0.004381,0.000680,0.004459,-0.001525,83.433164,0.004533,
1040,1330,0.374653,-2.815025,0.999998,0.000188,-0.003185,0.005173,0.001502,0.005434,-0.003447,80.116897,0.005499,
1510,1990,-0.048138,-0.149398,0.999999,0.000172,-0.000315,0.003358,0.000498,0.003424,-0.000382,82.419208,0.003753,
1680,1700,-0.697158,-1.490003,0.999997,0.000188,-0.002247,0.004910,0.000019,0.004910,-0.002247,89.845773,0.004916,
640,1050,1.981618,-4.936088,0.999998,0.000200,-0.002127,0.004536,-0.000158,0.004540,-0.002131,-88.640082,0.004543,
1130,1180,0.473642,-2.913585,0.999998,0.000183,-0.001467,0.002248,0.001577,0.002827,-0.002046,69.833851,0.002920,
1880,1400,-1.640568,-3.327973,0.999998,0.000193,-0.002521,0.005054,0.000061,0.005054,-0.002521,89.540197,0.005054,
1320,70,-0.012798,-9.926659,0.999999,0.000107,-0.000171,0.003095,-0.000119,0.003099,-0.000175,-87.923952,0.003482,
1810,1080,-1.941236,-4.797517,0.999998,0.000187,-0.002182,0.004561,0.000094,0.004562,-0.002183,89.200292,0.004564,
1650,1840,-0.403304,-0.788405,0.999997,0.000219,-0.001603,0.004493,0.000526,0.004538,-0.001648,85.105220,0.004594,
1470,1530,-0.391369,-1.976979,0.999998,0.000182,-0.002211,0.004542,-0.000641,0.004602,-0.002272,-84.624780,0.004602,
1280,1360,-0.053109,-2.224660,0.999999,0.000152,-0.001264,0.002479,-0.000926,0.002696,-0.001480,-76.842612,0.002700,
1180,220,0.035091,-9.442634,0.999998,0.000166,-0.000629,0.003388,0.000004,0.003388,-0.000629,89.949820,0.003604,
1870,310,-1.074363,-8.507792,0.999998,0.000164,-0.002428,0.004990,0.000029,0.004990,-0.002428,89.774007,0.004991,
1590,200,-0.293775,-9.395345,0.999998,0.000184,-0.001376,0.004223,-0.000479,0.004263,-0.001417,-85.149180,0.004343,
570,1610,1.350246,-2.277410,0.999908,0.001136,-0.002173,0.004930,0.000017,0.004930,-0.002173,89.862664,0.004942,
1770,690,-1.415952,-6.727785,0.999997,0.000217,-0.002658,0.005224,-0.000229,0.005231,-0.002665,-88.340519,0.005231,
720,1010,1.810358,-5.125391,0.999998,0.000152,-0.002161,0.004893,0.000165,0.004897,-0.002165,88.664023,0.004908,
1660,1750,-0.576201,-1.218565,0.999998,0.000195,-0.002096,0.004747,0.000141,0.004750,-0.002099,88.816116,0.004761,
990,90,0.060138,-9.850411,0.999998,0.000170,-0.000282,0.003371,0.000400,0.003414,-0.000326,83.827474,0.003768,
1850,800,-1.814785,-6.075275,0.999997,0.000184,-0.002384,0.004761,-0.000244,0.004770,-0.002392,-88.043910,0.004770,
1480,1690,-0.313903,-1.286989,0.999998,0.000161,-0.001635,0.004223,-0.000193,0.004229,-0.001641,-88.117834,0.004264,
1730,230,-0.581625,-9.143841,0.999997,0.000203,-0.001962,0.004878,-0.000542,0.004921,-0.002004,-85.501049,0.004949,
690,1250,1.634387,-3.951955,0.999998,0.000190,-0.002582,0.005114,-0.000478,0.005144,-0.002612,-86.460808,0.005144,
950,110,0.101522,-9.776367,0.999998,0.000161,-0.000579,0.003570,0.000485,0.003626,-0.000635,83.417193,0.003873,
1230,790,0.002706,-7.751580,0.999997,0.000215,-0.001400,0.001073,-0.000057,0.001074,-0.001401,-88.669604,0.001466,
860,880,1.323536,-5.853448,0.999997,0.000195,-0.002766,0.005833,0.000729,0.005894,-0.002827,85.187327,0.005896,
1450,1400,-0.407626,-2.545898,0.999997,0.000231,-0.002852,0.004972,-0.001140,0.005135,-0.003015,-81.874838,0.005161,
1850,1410,-1.547059,-3.232978,0.999997,0.000200,-0.002538,0.005081,0.000087,0.005082,-0.002539,89.343350,0.005082,
810,1810,0.462509,-0.929034,0.999997,0.000197,-0.001795,0.004643,-0.000421,0.004671,-0.001823,-86.271365,0.004708,
580,1770,1.057115,-1.475726,0.999998,0.000178,-0.002327,0.004863,0.000012,0.004863,-0.002327,89.902519,0.004865,
1080,80,0.029155,-9.892105,0.999999,0.000151,-0.000190,0.003161,0.000224,0.003176,-0.000205,86.198976,0.003554,
780,1990,0.109986,-0.170635,0.999999,0.000121,-0.000591,0.003803,-0.001076,0.004052,-0.000840,-76.947788,0.004277,
1190,1260,0.057865,-2.404466,0.999998,0.000184,-0.001565,0.001451,0.001149,0.001839,-0.001953,71.345885,0.002192,
1430,950,-1.034627,-5.776316,0.999996,0.000270,-0.003352,0.008161,0.001301,0.008306,-0.003497,83.633784,0.008340,
1200,390,0.036061,-8.847646,0.999998,0.000162,-0.001105,0.003563,-0.000093,0.003565,-0.001107,-88.855735,0.003649,
1120,830,0.275964,-7.207761,0.999996,0.000208,-0.002684,0.003606,-0.002191,0.004294,-0.003372,-72.570268,0.004521,
680,170,0.544782,-9.367744,0.999997,0.000194,-0.002054,0.005044,0.000839,0.005142,-0.002152,83.346103,0.005164,
1330,1630,-0.121254,-1.388383,0.999998,0.000168,-0.001342,0.003704,-0.000321,0.003725,-0.001362,-86.371212,0.003769,
1280,1340,-0.049512,-2.274981,0.999998,0.000177,-0.001263,0.002310,-0.001014,0.002578,-0.001530,-75.206397,0.002593,
930,2020,0.021116,-0.048913,0.999998,0.000000,0.000008,0.003349,-0.000568,0.003443,-0.000086,-80.605906,0.003927,
890,1830,0.305561,-0.776916,0.999998,0.000157,-0.001390,0.004198,-0.000361,0.004222,-0.001413,-86.320572,0.004298,
1900,170,-0.815772,-9.128548,0.999998,0.000000,-0.002496,0.004996,-0.000308,0.005009,-0.002508,-87.647459,0.005009,
1560,480,-0.565903,-8.158721,0.999998,0.000184,-0.002302,0.004824,0.000365,0.004843,-0.002321,87.071810,0.004844,
1790,180,-0.587880,-9.309021,0.999998,0.000177,-0.002108,0.005046,-0.000779,0.005130,-0.002192,-83.853913,0.005148,
1650,1820,-0.439997,-0.878182,0.999997,0.000214,-0.001687,0.004573,0.000461,0.004607,-0.001721,85.815148,0.004656,
1300,70,-0.010160,-9.927328,0.999999,0.000124,-0.000135,0.003081,-0.000091,0.003083,-0.000137,-88.384870,0.003484,
1870,1380,-1.649348,-3.413789,0.999997,0.000218,-0.002497,0.005048,0.000086,0.005049,-0.002498,89.350179,0.005049,
1860,310,-1.049066,-8.526466,0.999998,0.000184,-0.002416,0.005003,0.000025,0.005003,-0.002416,89.806909,0.005004,
1400,130,-0.061262,-9.727640,0.999998,0.000169,-0.000472,0.003326,-0.000223,0.003339,-0.000485,-86.647891,0.003609,
1060,1310,0.327924,-2.833150,0.999998,0.000173,-0.003185,0.004973,0.001744,0.005331,-0.003543,78.425138,0.005426,
590,2010,0.216503,-0.193257,0.999991,0.000385,-0.000739,0.005839,-0.002622,0.006756,-0.001657,-70.717986,0.007043,
570,1600,1.357907,-2.327531,0.999929,0.001082,-0.002298,0.004941,0.000113,0.004943,-0.002299,89.108531,0.004947,
910,1460,0.652257,-2.486108,0.999996,0.000250,-0.002822,0.005210,0.000529,0.005245,-0.002857,86.248872,0.005252,
1680,1940,-0.234037,-0.371270,0.999997,0.000190,-0.001079,0.004236,0.001018,0.004424,-0.001268,79.525388,0.004557,
640,1030,1.987595,-5.027743,0.999999,0.000143,-0.002136,0.004567,-0.000014,0.004567,-0.002136,-89.877052,0.004571,
1110,460,0.158336,-8.542281,0.999998,0.000182,-0.001396,0.003765,-0.000356,0.003790,-0.001420,-86.071419,0.003829,
780,260,0.551410,-9.047505,0.999997,0.000187,-0.002057,0.004754,0.000346,0.004772,-0.002074,87.098249,0.004785,
1570,1120,-1.360961,-4.519572,0.999997,0.000219,-0.002371,0.005797,0.000729,0.005861,-0.002436,84.941514,0.005889,
990,70,0.040722,-9.918531,0.999999,0.000154,-0.000187,0.003313,0.000414,0.003362,-0.000235,83.346050,0.003753,
1850,780,-1.781053,-6.171582,0.999998,0.000155,-0.002450,0.004878,-0.000237,0.004885,-0.002458,-88.151775,0.004886,
1720,670,-1.244592,-6.900826,0.999998,0.000185,-0.002835,0.005345,-0.000152,0.005348,-0.002838,-88.937115,0.005351,
1730,210,-0.534735,-9.241649,0.999997,0.000201,-0.001895,0.004891,-0.000657,0.004954,-0.001958,-84.519135,0.004990,
860,910,1.389893,-5.680956,0.999998,0.000198,-0.002543,0.005637,0.000715,0.005699,-0.002605,85.042902,0.005706,
1890,980,-2.110531,-5.238625,0.999998,0.000171,-0.002010,0.004096,-0.000026,0.004096,-0.002010,-89.753801,0.004096,
1850,1370,-1.616289,-3.435009,0.999997,0.000194,-0.002538,0.005056,0.000155,0.005059,-0.002541,88.834185,0.005059,
860,860,1.279599,-5.970021,0.999998,0.000185,-0.002937,0.005854,0.000655,0.005903,-0.002985,85.760102,0.005903,
1230,770,0.002086,-7.773663,0.999998,0.000176,-0.001117,0.001252,-0.000051,0.001253,-0.001118,-88.775547,0.001375,
1810,890,-1.859209,-5.680526,0.999998,0.000184,-0.002305,0.004730,-0.000335,0.004746,-0.002321,-87.277508,0.004747,
1320,1850,-0.053428,-0.591044,0.999999,0.000133,-0.000660,0.003410,0.000056,0.003411,-0.000661,89.208705,0.003618,
1120,1860,0.066055,-0.563206,0.999998,0.000160,-0.000675,0.003462,-0.000078,0.003463,-0.000676,-88.919146,0.003671,
690,1230,1.671030,-4.055148,0.999997,0.000191,-0.002536,0.005043,-0.000473,0.005072,-0.002566,-86.440065,0.005072,
820,600,0.916897,-7.398396,0.999998,0.000160,-0.002849,0.005391,-0.000164,0.005394,-0.002852,-88.857858,0.005397,
580,1840,0.900339,-1.130869,0.999998,0.000159,-0.002479,0.004968,-0.000194,0.004973,-0.002484,-88.511562,0.004973,
940,1060,1.369564,-4.846745,0.999998,0.000193,-0.001916,0.006115,-0.000334,0.006129,-0.001930,-87.624757,0.006268,
1440,670,-0.388277,-7.487299,0.999997,0.000258,-0.002860,0.004959,0.001224,0.005146,-0.003047,81.309992,0.005175,
1510,1970,-0.071640,-0.218334,0.999998,0.000171,-0.000410,0.003431,0.000494,0.003493,-0.000472,82.780158,0.003791,
1180,200,0.030901,-9.509065,0.999998,0.000150,-0.000563,0.003359,0.000033,0.003359,-0.000563,89.521641,0.003598,
1380,1660,-0.178808,-1.311830,0.999998,0.000180,-0.001339,0.003846,-0.000235,0.003856,-0.001349,-87.412915,0.003914,
1600,800,-1.129453,-6.330223,0.999997,0.000194,-0.003227,0.005998,-0.000387,0.006015,-0.003244,-87.602292,0.006021,
1020,1820,0.167713,-0.741554,0.999998,0.000172,-0.000996,0.003796,-0.000152,0.003801,-0.001001,-88.188923,0.003940,
1430,930,-0.955291,-5.925714,0.999997,0.000206,-0.003272,0.007436,0.001096,0.007548,-0.003383,84.215184,0.007561,
1660,1730,-0.608562,-1.315546,0.999997,0.000206,-0.002188,0.004838,0.000064,0.004838,-0.002188,89.479044,0.004846,
730,1670,0.861800,-1.716964,0.999998,0.000181,-0.002429,0.005066,0.000039,0.005066,-0.002429,89.698891,0.005068,
570,1770,1.080504,-1.494821,0.999992,0.000323,-0.002294,0.004841,0.000017,0.004841,-0.002294,89.867140,0.004843,
660,490,1.188156,-7.714198,0.999998,0.000176,-0.002548,0.005109,-0.000075,0.005109,-0.002549,-89.436561,0.005109,
1080,1650,0.186122,-1.351329,0.999997,0.000188,-0.001427,0.003891,0.000275,0.003905,-0.001441,87.050771,0.003949,
780,1970,0.160886,-0.249589,0.999999,0.000132,-0.000743,0.003933,-0.001063,0.004164,-0.000973,-77.774375,0.004356,
930,30,0.016130,-10.044328,0.999999,0.000000,0.000063,0.003263,0.000511,0.003343,-0.000016,81.141604,0.003851,
1120,810,0.224164,-7.277808,0.999997,0.000200,-0.002709,0.003676,-0.002255,0.004392,-0.003425,-72.384678,0.004616,
1020,470,0.308857,-8.390544,0.999998,0.000162,-0.001907,0.004279,-0.000531,0.004324,-0.001952,-85.125544,0.004331,
610,1520,1.381386,-2.674870,0.999997,0.000197,-0.002539,0.005099,0.000029,0.005100,-0.002539,89.785714,0.005100,
1280,1320,-0.051663,-2.318459,0.999998,0.000157,-0.001267,0.002098,-0.001129,0.002442,-0.001611,-73.064443,0.002483,
610,410,1.196849,-8.038249,0.999998,0.000173,-0.002471,0.005024,-0.000076,0.005025,-0.002472,-89.422188,0.005025,
1560,720,-0.838374,-6.882423,0.999997,0.000214,-0.003402,0.005858,0.000239,0.005865,-0.003408,88.523645,0.005890,
850,1200,1.296351,-4.090735,0.999997,0.000235,-0.002905,0.005798,-0.000655,0.005847,-0.002954,-85.718221,0.005847,
1380,130,-0.053922,-9.729582,0.999998,0.000162,-0.000336,0.003282,-0.000193,0.003293,-0.000346,-86.959272,0.003619,
1640,1250,-1.266841,-3.829625,0.999997,0.000209,-0.003041,0.005748,0.000517,0.005778,-0.003072,86.646226,0.005782,
1400,1970,-0.033937,-0.204903,0.999998,0.000175,-0.000266,0.003202,0.000249,0.003220,-0.000284,85.907917,0.003565,
590,2000,0.274768,-0.249509,0.999997,0.000236,-0.001330,0.005895,-0.002245,0.006536,-0.001970,-74.072353,0.006706,
1100,1390,0.191011,-2.333665,0.999997,0.000193,-0.002141,0.003911,0.001384,0.004212,-0.002443,77.713392,0.004230,
780,240,0.513019,-9.142261,0.999997,0.000184,-0.001987,0.004713,0.000445,0.004743,-0.002016,86.217382,0.004760,
1720,1380,-1.252173,-3.205320,0.999998,0.000216,-0.002800,0.005354,0.000176,0.005357,-0.002804,88.767468,0.005359,
890,1810,0.334665,-0.861032,0.999998,0.000157,-0.001473,0.004262,-0.000283,0.004276,-0.001487,-87.180634,0.004341,
1140,70,0.013449,-9.926062,0.999999,0.000146,-0.000174,0.003080,0.000139,0.003086,-0.000180,87.551368,0.003464,
1780,670,-1.408292,-6.817552,0.999997,0.000201,-0.002626,0.005204,-0.000200,0.005209,-0.002631,-88.538473,0.005209,
990,270,0.228744,-9.187902,0.999998,0.000163,-0.001136,0.003975,0.000132,0.003978,-0.001139,88.521948,0.004097,
1680,960,-1.645135,-5.380715,0.999998,0.000183,-0.002210,0.005144,-0.000436,0.005169,-0.002236,-86.621046,0.005185,
800,750,1.223985,-6.536336,0.999997,0.000193,-0.003006,0.005659,0.000338,0.005672,-0.003019,87.769154,0.005676,
1640,410,-0.678296,-8.377590,0.999998,0.000161,-0.002312,0.004924,0.000134,0.004927,-0.002315,88.936094,0.004930,
840,910,1.440410,-5.669149,0.999997,0.000212,-0.002480,0.005539,0.000684,0.005597,-0.002538,85.159361,0.005605,
860,840,1.231580,-6.087224,0.999998,0.000184,-0.003054,0.005892,0.000604,0.005933,-0.003094,86.154615,0.005935,
940,1020,1.389109,-5.082215,0.999998,0.000173,-0.001779,0.005869,0.000097,0.005871,-0.001780,89.271010,0.006020,
1720,1110,-1.717132,-4.631443,0.999997,0.000205,-0.002257,0.005061,0.000452,0.005089,-0.002285,86.482358,0.005098,
1850,1350,-1.650215,-3.536128,0.999997,0.000195,-0.002514,0.005048,0.000155,0.005051,-0.002517,88.823897,0.005051,
1850,720,-1.675768,-6.469056,0.999998,0.000199,-0.002476,0.004980,-0.000169,0.004984,-0.002480,-88.702225,0.004984,
1350,260,-0.097232,-9.286133,0.999998,0.000148,-0.000899,0.003532,0.000018,0.003533,-0.000899,89.771977,0.003672,
1720,730,-1.351095,-6.577530,0.999998,0.000196,-0.002842,0.005383,-0.000354,0.005398,-0.002858,-87.538540,0.005401,
1870,1410,-1.597464,-3.262115,0.999997,0.000224,-0.002525,0.005050,0.000086,0.005051,-0.002526,89.350644,0.005051,
1870,130,-0.604747,-9.410357,0.999997,0.000228,-0.002403,0.005376,-0.000693,0.005438,-0.002464,-84.952240,0.005445,
690,1210,1.702915,-4.153679,0.999997,0.000197,-0.002475,0.004960,-0.000460,0.004989,-0.002503,-86.471306,0.004989,
1640,1160,-1.454383,-4.339268,0.999997,0.000223,-0.002554,0.005504,0.000653,0.005556,-0.002606,85.394321,0.005560,
1020,1280,0.507289,-3.172409,0.999997,0.000211,-0.003754,0.005948,0.001213,0.006097,-0.003903,82.981778,0.006176,
1570,200,-0.265420,-9.410154,0.999998,0.000192,-0.001248,0.004120,-0.000462,0.004159,-0.001288,-85.115625,0.004259,
1900,160,-0.783560,-9.179270,0.999998,0.000000,-0.002500,0.005048,-0.000370,0.005066,-0.002519,-87.200865,0.005066,
1400,1690,-0.194590,-1.211525,0.999998,0.000183,-0.001417,0.003947,-0.000194,0.003954,-0.001424,-87.928916,0.004005,
1460,470,-0.343489,-8.361831,0.999998,0.000174,-0.001995,0.004387,0.000529,0.004431,-0.002039,85.293292,0.004436,
1080,320,0.154690,-9.051118,0.999998,0.000162,-0.001074,0.003786,-0.000038,0.003786,-0.001074,-89.553984,0.003903,
1470,1510,-0.400312,-2.067953,0.999998,0.000186,-0.002346,0.004592,-0.000724,0.004667,-0.002421,-84.106235,0.004668,
1230,750,0.002705,-7.802104,0.999998,0.000146,-0.001002,0.001483,-0.000034,0.001483,-0.001003,-89.214332,0.001514,
1020,450,0.301251,-8.476080,0.999997,0.000218,-0.001802,0.004210,-0.000445,0.004243,-0.001835,-85.790107,0.004255,
1890,1290,-1.850762,-3.891425,0.999997,0.000176,-0.002382,0.004869,0.000095,0.004870,-0.002383,89.247667,0.004870,
610,390,1.166317,-8.140957,0.999998,0.000162,-0.002451,0.005005,-0.000062,0.005006,-0.002452,-89.520967,0.005006,
1430,910,-0.875141,-6.078206,0.999997,0.000200,-0.003347,0.007258,0.001011,0.007354,-0.003443,84.601585,0.007359,
1120,1840,0.074613,-0.633981,0.999998,0.000157,-0.000741,0.003453,-0.000030,0.003454,-0.000741,-89.589279,0.003636,
570,1840,0.924735,-1.153043,0.999994,0.000275,-0.002500,0.004997,-0.000193,0.005002,-0.002505,-88.524314,0.005002,
980,1390,0.513258,-2.690655,0.999996,0.000223,-0.003090,0.005318,0.000916,0.005416,-0.003188,83.851856,0.005445,
920,2020,0.020254,-0.049684,0.999999,0.000000,0.000056,0.003402,-0.000592,0.003503,-0.000046,-80.252994,0.004019,
640,1500,1.334212,-2.731509,0.999997,0.000189,-0.002552,0.005104,0.000030,0.005104,-0.002552,89.772916,0.005104,
1700,1130,-1.649752,-4.524363,0.999997,0.000203,-0.002316,0.005093,0.000465,0.005122,-0.002345,86.421539,0.005128,
1820,1830,-0.774233,-1.044981,0.999997,0.000194,-0.002312,0.005114,0.000338,0.005129,-0.002328,87.400933,0.005137,
1680,920,-1.597418,-5.586827,0.999997,0.000209,-0.002391,0.005238,-0.000535,0.005276,-0.002428,-86.005765,0.005281,
820,560,0.865312,-7.612911,0.999998,0.000162,-0.002753,0.005258,-0.000249,0.005266,-0.002761,-88.221283,0.005268,
1140,130,0.031163,-9.737131,0.999998,0.000160,-0.000406,0.003218,0.000076,0.003220,-0.000407,88.801178,0.003506,
1190,460,0.052110,-8.596208,0.999998,0.000196,-0.001203,0.003508,-0.000153,0.003513,-0.001208,-88.136392,0.003569,
1850,1330,-1.684620,-3.637044,0.999997,0.000181,-0.002495,0.004938,0.000184,0.004943,-0.002499,88.580316,0.004943,
940,480,0.482445,-8.218002,0.999998,0.000200,-0.002236,0.004735,-0.000427,0.004761,-0.002262,-86.508891,0.004763,
1260,1490,-0.035274,-1.834190,0.999998,0.000145,-0.001236,0.003222,-0.000251,0.003236,-0.001250,-86.786127,0.003264,
1290,200,-0.033971,-9.508778,0.999998,0.000171,-0.000514,0.003397,-0.000064,0.003398,-0.000515,-89.068373,0.003662,
1020,1260,0.545054,-3.295799,0.999997,0.000217,-0.003833,0.006131,0.001176,0.006268,-0.003970,83.357231,0.006342,
1810,870,-1.831420,-5.777357,0.999998,0.000186,-0.002336,0.004839,-0.000405,0.004862,-0.002358,-86.781459,0.004863,
730,1650,0.892819,-1.819668,0.999998,0.000166,-0.002435,0.005097,0.000062,0.005098,-0.002435,89.527252,0.005099,
1300,1850,-0.041277,-0.589434,0.999998,0.000147,-0.000564,0.003398,0.000078,0.003400,-0.000566,88.875436,0.003643,
960,1970,0.067674,-0.216330,0.999998,0.000147,-0.000423,0.003394,-0.000450,0.003446,-0.000475,-83.372261,0.003736,
1870,120,-0.565599,-9.464886,0.999997,0.000211,-0.002384,0.005433,-0.000788,0.005511,-0.002463,-84.301931,0.005522,
1770,1000,-1.864856,-5.171723,0.999998,0.000169,-0.002171,0.004778,-0.000155,0.004782,-0.002174,-88.719997,0.004788,
1660,970,-1.613080,-5.333893,0.999997,0.000175,-0.002121,0.005170,-0.000400,0.005192,-0.002143,-86.872070,0.005219,
1880,2010,-0.222811,-0.201567,0.999994,0.000306,-0.000598,0.006194,0.002941,0.007291,-0.001694,69.553208,0.007631,
1180,180,0.028468,-9.576157,0.999998,0.000153,-0.000483,0.003324,0.000018,0.003324,-0.000483,89.724034,0.003592,
1730,190,-0.486316,-9.340374,0.999997,0.000199,-0.001785,0.004839,-0.000761,0.004925,-0.001871,-83.531964,0.004972,
1080,1390,0.238883,-2.394555,0.999998,0.000167,-0.002316,0.004234,0.001425,0.004531,-0.002613,78.241515,0.004549,
1610,1700,-0.546963,-1.398337,0.999997,0.000186,-0.001999,0.004661,0.000016,0.004661,-0.001999,89.862119,0.004677,
1530,520,-0.526566,-8.017381,0.999997,0.000203,-0.002387,0.004819,0.000481,0.004851,-0.002419,86.195395,0.004851,
790,680,1.126181,-6.913651,0.999998,0.000164,-0.002970,0.005485,0.000109,0.005486,-0.002972,89.258692,0.005492,
1020,1650,0.281370,-1.417853,0.999997,0.000208,-0.001573,0.004141,0.000266,0.004153,-0.001586,87.339839,0.004192,
1470,1490,-0.409981,-2.161718,0.999997,0.000207,-0.002447,0.004675,-0.000807,0.004766,-0.002538,-83.612381,0.004769,
820,390,0.659492,-8.470538,0.999996,0.000238,-0.002296,0.004884,-0.000100,0.004886,-0.002297,-89.204445,0.004889,
780,220,0.472668,-9.236074,0.999997,0.000182,-0.001850,0.004666,0.000519,0.004708,-0.001891,85.474384,0.004738,
780,750,1.282749,-6.511573,0.999997,0.000206,-0.002952,0.005546,0.000378,0.005562,-0.002968,87.461016,0.005567,
1120,1820,0.082379,-0.702231,0.999998,0.000141,-0.000829,0.003478,-0.000036,0.003478,-0.000829,-89.518662,0.003634,
1280,1300,-0.052883,-2.357336,0.999998,0.000162,-0.001324,0.001966,-0.001254,0.002390,-0.001748,-71.335821,0.002473,
1660,470,-0.798114,-8.048138,0.999998,0.000182,-0.002508,0.005038,0.000192,0.005043,-0.002513,88.545341,0.005043,
1220,1920,0.005126,-0.353594,0.999998,0.000161,-0.000411,0.003193,-0.000001,0.003193,-0.000411,-89.991435,0.003474,
1600,780,-1.087255,-6.450134,0.999998,0.000159,-0.003270,0.005953,-0.000298,0.005963,-0.003280,-88.149497,0.005973,
710,1920,0.377459,-0.501714,0.999997,0.000214,-0.001886,0.004714,-0.000995,0.004860,-0.002033,-81.607595,0.004882,
940,910,1.173766,-5.764533,0.999997,0.000209,-0.002926,0.006405,0.000658,0.006451,-0.002972,85.987154,0.006458,
1420,1770,-0.179364,-0.919735,0.999997,0.000190,-0.001251,0.003821,-0.000020,0.003821,-0.001251,-89.778952,0.003896,
890,1790,0.360508,-0.947215,0.999998,0.000171,-0.001588,0.004326,-0.000200,0.004333,-0.001595,-88.061826,0.004382,
1470,260,-0.217419,-9.227470,0.999999,0.000144,-0.001084,0.003917,-0.000136,0.003921,-0.001088,-88.439045,0.004048,
860,820,1.184588,-6.205793,0.999997,0.000195,-0.003159,0.005950,0.000514,0.005979,-0.003188,86.780633,0.005983,
1510,1950,-0.092767,-0.286699,0.999998,0.000168,-0.000551,0.003545,0.000470,0.003599,-0.000604,83.536765,0.003854,
920,30,0.013874,-10.043345,0.999999,0.000000,0.000065,0.003277,0.000580,0.003379,-0.000036,80.068984,0.003881,
970,1140,1.101913,-4.288833,0.999998,0.000196,-0.003082,0.006763,-0.000463,0.006784,-0.003104,-87.311049,0.006793,
610,370,1.133244,-8.239926,0.999998,0.000169,-0.002428,0.004989,-0.000040,0.004989,-0.002428,-89.693176,0.004989,
990,510,0.389740,-8.164543,0.999997,0.000197,-0.002111,0.004514,-0.000575,0.004564,-0.002161,-85.074914,0.004566,
690,1190,1.734379,-4.253792,0.999998,0.000191,-0.002435,0.004977,-0.000493,0.005010,-0.002467,-86.207938,0.005010,
1470,1220,-0.752728,-3.668136,0.999997,0.000223,-0.003914,0.006663,-0.000465,0.006684,-0.003934,-87.490078,0.006719,
1720,570,-1.085909,-7.431984,0.999998,0.000185,-0.002697,0.005249,0.000059,0.005250,-0.002697,89.575659,0.005250,
1590,1860,-0.286662,-0.661718,0.999998,0.000184,-0.001366,0.004202,0.000480,0.004243,-0.001407,85.110548,0.004323,
1680,1130,-1.602381,-4.517685,0.999997,0.000207,-0.002344,0.005172,0.000507,0.005206,-0.002378,86.159715,0.005213,
1880,1290,-1.826892,-3.875813,0.999997,0.000183,-0.002403,0.004879,0.000121,0.004881,-0.002405,89.047755,0.004881,
1850,1310,-1.720142,-3.734526,0.999997,0.000175,-0.002459,0.004902,0.000205,0.004908,-0.002465,88.405736,0.004908,
1440,1570,-0.311096,-1.748809,0.999998,0.000183,-0.001963,0.004273,-0.000572,0.004325,-0.002015,-84.800240,0.004328,
1770,670,-1.383183,-6.832390,0.999997,0.000197,-0.002657,0.005221,-0.000189,0.005225,-0.002662,-88.629499,0.005226,
1120,130,0.040518,-9.733558,0.999999,0.000119,-0.000415,0.003235,0.000124,0.003240,-0.000419,88.059006,0.003524,
940,460,0.464706,-8.314219,0.999998,0.000182,-0.002153,0.004653,-0.000387,0.004675,-0.002175,-86.753842,0.004679,
1110,700,0.173929,-7.644407,0.999997,0.000213,-0.002200,0.003739,-0.001631,0.004157,-0.002619,-75.614305,0.004203,
900,370,0.466372,-8.673207,0.999996,0.000216,-0.001982,0.004565,-0.000090,0.004566,-0.001983,-89.214301,0.004579,
1680,380,-0.733629,-8.466946,0.999997,0.000182,-0.002316,0.004932,0.000059,0.004932,-0.002316,89.530360,0.004935,
730,1630,0.921206,-1.921992,0.999998,0.000165,-0.002462,0.005040,0.000084,0.005040,-0.002463,89.360429,0.005041,
1020,1240,0.592385,-3.417537,0.999996,0.000237,-0.003891,0.006304,0.001047,0.006411,-0.003997,84.194968,0.006476,
1810,850,-1.800160,-5.875960,0.999998,0.000168,-0.002350,0.004851,-0.000401,0.004873,-0.002372,-86.821055,0.004874,
1300,1650,-0.079255,-1.295179,0.999997,0.000210,-0.001177,0.003622,-0.000134,0.003625,-0.001180,-88.399936,0.003698,
1260,1850,-0.018964,-0.585445,0.999998,0.000180,-0.000617,0.003374,0.000012,0.003374,-0.000617,89.828431,0.003593,
1260,1970,-0.006708,-0.198060,0.999999,0.000149,-0.000203,0.003067,0.000040,0.003068,-0.000204,89.297954,0.003431,
820,540,0.839904,-7.716070,0.999998,0.000168,-0.002678,0.005197,-0.000219,0.005203,-0.002684,-88.411640,0.005204,
770,1410,1.125662,-3.006574,0.999998,0.000180,-0.002872,0.005376,-0.000060,0.005377,-0.002872,-89.579943,0.005381,
1640,170,-0.302162,-9.496365,0.999998,0.000158,-0.001177,0.004296,-0.000749,0.004397,-0.001277,-82.345896,0.004523,
1470,1470,-0.422790,-2.258156,0.999997,0.000224,-0.002527,0.004791,-0.000837,0.004885,-0.002622,-83.557156,0.004890,
1460,450,-0.332995,-8.450486,0.999998,0.000182,-0.001925,0.004358,0.000465,0.004392,-0.001960,85.785766,0.004400,
630,1460,1.422123,-2.951020,0.999997,0.000197,-0.002568,0.005090,-0.000035,0.005090,-0.002568,-89.741074,0.005090,
1070,1290,0.315618,-2.887240,0.999997,0.000192,-0.003283,0.004986,0.001889,0.005397,-0.003694,77.721300,0.005518,
1120,1800,0.089508,-0.772578,0.999998,0.000143,-0.000896,0.003554,0.000000,0.003554,-0.000896,89.998477,0.003696,
1280,1500,-0.060791,-1.810431,0.999998,0.000153,-0.001317,0.003326,-0.000335,0.003351,-0.001341,-85.893196,0.003373,
1860,70,-0.317148,-9.769215,0.999998,0.000190,-0.002192,0.005709,-0.001467,0.005973,-0.002456,-79.811015,0.006004,
1730,220,-0.559046,-9.191358,0.999997,0.000219,-0.001937,0.004876,-0.000606,0.004930,-0.001991,-84.955707,0.004960,
860,800,1.140641,-6.326400,0.999998,0.000202,-0.003233,0.005975,0.000417,0.005994,-0.003252,87.412073,0.006001,
640,1480,1.364201,-2.834185,0.999997,0.000198,-0.002573,0.005123,0.000004,0.005123,-0.002573,89.973417,0.005123,
1810,980,-1.942288,-5.259114,0.999999,0.000143,-0.002137,0.004571,-0.000097,0.004572,-0.002138,-89.169079,0.004575,
1510,1930,-0.115918,-0.359200,0.999998,0.000153,-0.000666,0.003614,0.000438,0.003658,-0.000710,84.219930,0.003879,
1180,160,0.024935,-9.641734,0.999998,0.000160,-0.000428,0.003280,0.000078,0.003281,-0.000430,88.789523,0.003567,
1490,940,-1.174325,-5.626844,0.999997,0.000193,-0.002768,0.006846,-0.000469,0.006868,-0.002791,-87.216171,0.006908,
1710,900,-1.636706,-5.680762,0.999998,0.000199,-0.002415,0.005224,-0.000585,0.005269,-0.002460,-85.649113,0.005272,
830,480,0.743203,-8.039659,0.999997,0.000165,-0.002474,0.005014,-0.000213,0.005020,-0.002480,-88.369358,0.005020,
920,910,1.231385,-5.736667,0.999998,0.000183,-0.002789,0.006197,0.000727,0.006256,-0.002847,85.405416,0.006264,
820,370,0.633416,-8.570160,0.999998,0.000166,-0.002228,0.004864,-0.000012,0.004864,-0.002228,-89.899209,0.004870,
980,1460,0.461716,-2.334382,0.999997,0.000200,-0.002603,0.004935,0.000804,0.005020,-0.002688,83.975871,0.005024,
1600,760,-1.045421,-6.568794,0.999998,0.000164,-0.003313,0.005953,-0.000188,0.005957,-0.003317,-88.839239,0.005970,
1240,1510,-0.011195,-1.761252,0.999998,0.000150,-0.001265,0.003250,-0.000093,0.003252,-0.001267,-88.815062,0.003278,
710,1900,0.436315,-0.598476,0.999998,0.000208,-0.002003,0.004856,-0.000852,0.004961,-0.002108,-83.020980,0.004979,
970,30,0.011708,-10.048021,0.999999,0.000000,-0.000192,0.003272,0.000372,0.003311,-0.000232,83.946894,0.003697,
1230,730,0.000191,-7.831777,0.999998,0.000140,-0.000982,0.001751,-0.000027,0.001751,-0.000983,-89.442029,0.001755,
1500,1570,-0.431937,-1.844335,0.999998,0.000186,-0.002170,0.004596,-0.000479,0.004629,-0.002204,-85.971803,0.004631,
1590,1840,-0.316460,-0.746585,0.999998,0.000169,-0.001477,0.004228,0.000395,0.004255,-0.001504,86.061926,0.004315,
610,350,1.100382,-8.340243,0.999998,0.000170,-0.002402,0.004980,-0.000066,0.004980,-0.002403,-89.487925,0.004981,
960,1390,0.574595,-2.745056,0.999998,0.000193,-0.003103,0.005429,0.000791,0.005502,-0.003176,84.745924,0.005524,
1790,1100,-1.885710,-4.699231,0.999998,0.000160,-0.002223,0.004743,0.000278,0.004754,-0.002234,87.719443,0.004757,
1010,760,0.518537,-6.955505,0.999996,0.000219,-0.003685,0.005865,-0.001123,0.005995,-0.003816,-83.384602,0.006069,
1850,1290,-1.753662,-3.835247,0.999998,0.000176,-0.002436,0.004932,0.000216,0.004938,-0.002442,88.321835,0.004938,
940,440,0.447911,-8.407634,0.999998,0.000208,-0.002055,0.004550,-0.000350,0.004568,-0.002073,-86.978590,0.004575,
730,1610,0.948918,-2.023348,0.999998,0.000162,-0.002493,0.005041,0.000113,0.005043,-0.002495,89.138521,0.005043,
1640,1630,-0.696705,-1.776607,0.999998,0.000171,-0.002327,0.004930,-0.000146,0.004933,-0.002330,-88.844583,0.004936,
1680,360,-0.703588,-8.564988,0.999997,0.000176,-0.002279,0.004861,-0.000005,0.004861,-0.002279,-89.956475,0.004864,
1330,480,-0.127870,-8.488886,0.999998,0.000207,-0.001408,0.003704,0.000405,0.003736,-0.001440,85.494921,0.003769,
1870,1290,-1.802825,-3.860474,0.999998,0.000175,-0.002426,0.004894,0.000164,0.004897,-0.002430,88.717781,0.004897,
1020,1220,0.646529,-3.545480,0.999996,0.000237,-0.003913,0.006585,0.000949,0.006670,-0.003998,84.875004,0.006714,
1810,830,-1.768860,-5.972407,0.999998,0.000171,-0.002406,0.004812,-0.000386,0.004832,-0.002426,-86.947816,0.004832,
1240,1850,-0.006111,-0.583799,0.999998,0.000167,-0.000650,0.003350,-0.000012,0.003350,-0.000650,-89.821446,0.003553,
1120,1780,0.095074,-0.844878,0.999998,0.000139,-0.000983,0.003618,0.000032,0.003618,-0.000984,89.602974,0.003741,
1730,200,-0.510749,-9.290603,0.999997,0.000195,-0.001841,0.004886,-0.000707,0.004959,-0.001914,-84.064719,0.005002,
1180,140,0.019086,-9.707023,0.999998,0.000138,-0.000344,0.003187,0.000077,0.003189,-0.000346,88.748952,0.003500,
1240,130,-0.003125,-9.742281,0.999999,0.000121,-0.000362,0.003176,-0.000009,0.003176,-0.000362,-89.847653,0.003478,
690,1170,1.767862,-4.352362,0.999998,0.000186,-0.002394,0.004932,-0.000463,0.004961,-0.002423,-86.400851,0.004961,
1520,1970,-0.075490,-0.218281,0.999998,0.000153,-0.000371,0.003463,0.000527,0.003534,-0.000443,82.315772,0.003850,
640,1460,1.396042,-2.935823,0.999997,0.000201,-0.002573,0.005096,-0.000028,0.005096,-0.002573,-89.791987,0.005096,
1470,1450,-0.434393,-2.354692,0.999997,0.000211,-0.002611,0.004877,-0.000870,0.004976,-0.002711,-83.461101,0.004983,
1380,1590,-0.199264,-1.586644,0.999997,0.000203,-0.001644,0.003938,-0.000496,0.003982,-0.001688,-84.964075,0.003997,
610,1460,1.472877,-2.983058,0.999997,0.000198,-0.002552,0.005076,-0.000040,0.005076,-0.002552,-89.698873,0.005076,
1730,150,-0.380306,-9.531573,0.999997,0.000214,-0.001496,0.004681,-0.000998,0.004838,-0.001653,-81.046758,0.004918,
1030,30,0.008778,-10.047105,0.999999,0.000000,0.000012,0.003106,0.000264,0.003128,-0.000010,85.156491,0.003606,
1890,500,-1.421952,-7.526350,0.999997,0.000206,-0.002463,0.005079,0.000015,0.005079,-0.002463,89.886388,0.005080,
1640,2010,-0.050807,-0.089358,0.999998,0.000166,-0.000148,0.003548,0.000932,0.003770,-0.000370,76.615305,0.004156,
1720,550,-1.057975,-7.537203,0.999997,0.000211,-0.002693,0.005211,0.000074,0.005212,-0.002694,89.463900,0.005213,
1380,1190,-0.511949,-3.334590,0.999995,0.000245,-0.003143,0.005049,-0.002156,0.005581,-0.003676,-76.117596,0.005674,
950,1200,0.975252,-3.937118,0.999997,0.000214,-0.003542,0.006579,-0.000276,0.006586,-0.003550,-88.439979,0.006593,
1790,980,-1.898903,-5.263646,0.999998,0.000157,-0.002156,0.004647,-0.000115,0.004649,-0.002158,-89.028175,0.004653,
690,1920,0.416920,-0.525151,0.999997,0.000228,-0.001876,0.004860,-0.001060,0.005023,-0.002039,-81.262684,0.005053,
610,330,1.067002,-8.438040,0.999998,0.000166,-0.002429,0.004973,-0.000064,0.004974,-0.002429,-89.504186,0.004974,
980,1420,0.488366,-2.533169,0.999997,0.000204,-0.002899,0.005046,0.000908,0.005148,-0.003001,83.563512,0.005172,
1500,1550,-0.446376,-1.938817,0.999997,0.000222,-0.002275,0.004667,-0.000556,0.004711,-0.002320,-85.448929,0.004711,
1570,1860,-0.258459,-0.649613,0.999998,0.000186,-0.001208,0.004109,0.000474,0.004151,-0.001250,84.948872,0.004259,
620,190,0.736895,-9.164972,0.999997,0.000201,-0.002429,0.005097,0.000299,0.005109,-0.002441,87.730831,0.005111,
730,640,1.230070,-7.042295,0.999998,0.000179,-0.002766,0.005273,0.000094,0.005274,-0.002767,89.332655,0.005276,
570,1390,1.703746,-3.401681,0.999867,0.001517,-0.003505,0.005170,0.000150,0.005172,-0.003507,89.010429,0.005280,
890,1770,0.386610,-1.033431,0.999998,0.000176,-0.001675,0.004396,-0.000172,0.004401,-0.001680,-88.374358,0.004441,
1230,690,0.001116,-7.912088,0.999999,0.000141,-0.001017,0.002244,-0.000034,0.002244,-0.001018,-89.408903,0.002247,
1260,1310,-0.028033,-2.294564,0.999998,0.000157,-0.001092,0.001734,-0.000750,0.001921,-0.001278,-76.020594,0.001955,
1020,950,1.071217,-5.708053,0.999997,0.000196,-0.003068,0.007922,-0.000619,0.007957,-0.003103,-86.786442,0.008021,
820,520,0.815752,-7.820356,0.999998,0.000167,-0.002623,0.005114,-0.000225,0.005120,-0.002629,-88.332910,0.005121,
910,300,0.375660,-8.996890,0.999999,0.000139,-0.001525,0.004344,0.000148,0.004347,-0.001529,88.558137,0.004410,
780,200,0.431776,-9.329810,0.999997,0.000185,-0.001739,0.004675,0.000627,0.004735,-0.001800,84.469635,0.004781,
1850,1270,-1.788932,-3.932831,0.999998,0.000176,-0.002410,0.004851,0.000249,0.004860,-0.002419,88.034545,0.004860,
1000,850,0.772772,-6.338489,0.999997,0.000230,-0.003880,0.006836,-0.000470,0.006856,-0.003901,-87.495961,0.006878,
1280,1740,-0.044162,-0.968432,0.999999,0.000141,-0.000922,0.003541,-0.000033,0.003542,-0.000922,-89.579844,0.003675,
1010,740,0.492165,-7.070135,0.999996,0.000210,-0.003527,0.005671,-0.001186,0.005821,-0.003678,-82.770965,0.005888,
960,1330,0.647169,-3.082638,0.999998,0.000172,-0.003501,0.005826,0.000686,0.005876,-0.003551,85.816743,0.005919,
1600,740,-1.006559,-6.688487,0.999998,0.000170,-0.003297,0.005862,-0.000092,0.005863,-0.003298,-89.423224,0.005878,
1440,450,-0.295752,-8.480335,0.999997,0.000193,-0.001741,0.004219,0.000429,0.004250,-0.001772,85.904077,0.004269,
1680,340,-0.674379,-8.661100,0.999997,0.000199,-0.002230,0.004930,-0.000048,0.004930,-0.002230,-89.614466,0.004938,
1070,1250,0.377534,-3.094231,0.999997,0.000220,-0.003634,0.005398,0.001905,0.005784,-0.004020,78.564048,0.005928,
1020,1200,0.708047,-3.684143,0.999997,0.000211,-0.003907,0.006795,0.000778,0.006852,-0.003964,85.862712,0.006880,
1770,180,-0.545038,-9.336428,0.999998,0.000194,-0.002162,0.004950,-0.000702,0.005019,-0.002230,-84.419259,0.005029,
1770,650,-1.347493,-6.937706,0.999998,0.000184,-0.002650,0.005214,-0.000151,0.005217,-0.002653,-88.898268,0.005217,
730,1590,0.975652,-2.122499,0.999998,0.000160,-0.002540,0.005114,0.000115,0.005116,-0.002541,89.138320,0.005116,
940,420,0.435610,-8.497516,0.999997,0.000210,-0.001932,0.004522,-0.000287,0.004535,-0.001945,-87.460299,0.004550,
1120,1980,0.021494,-0.170375,0.999998,0.000154,-0.000209,0.003142,-0.000153,0.003149,-0.000216,-87.396138,0.003518,
590,1520,1.431868,-2.708006,0.999998,0.000165,-0.002751,0.005307,0.000106,0.005309,-0.002752,89.243301,0.005310,
1330,460,-0.126806,-8.562837,0.999998,0.000158,-0.001392,0.003689,0.000362,0.003714,-0.001417,85.948920,0.003749,
660,1770,0.864760,-1.325079,0.999998,0.000173,-0.002384,0.005069,-0.000169,0.005072,-0.002388,-88.702019,0.005075,
1220,130,0.003913,-9.740775,0.999998,0.000139,-0.000377,0.003187,-0.000021,0.003187,-0.000378,-89.665418,0.003483,
860,780,1.096283,-6.444424,0.999997,0.000191,-0.003271,0.005924,0.000326,0.005935,-0.003283,87.973793,0.005946,
1510,1910,-0.138568,-0.432426,0.999998,0.000153,-0.000803,0.003679,0.000428,0.003720,-0.000843,84.589564,0.003901,
1810,810,-1.734366,-6.068008,0.999998,0.000180,-0.002465,0.004934,-0.000394,0.004955,-0.002486,-86.958320,0.004955,
1890,1760,-1.093503,-1.536896,0.999997,0.000230,-0.002381,0.004878,-0.000058,0.004878,-0.002381,-89.544531,0.004879,
830,460,0.720618,-8.140030,0.999998,0.000165,-0.002423,0.004977,-0.000193,0.004982,-0.002428,-88.505098,0.004982,
780,2020,0.045899,-0.060721,0.999998,0.000000,-0.000389,0.003591,-0.001001,0.003829,-0.000626,-76.646658,0.004108,
950,1140,1.160502,-4.330457,0.999997,0.000203,-0.002895,0.006520,-0.000623,0.006561,-0.002936,-86.231273,0.006573,
1470,1430,-0.443453,-2.451107,0.999997,0.000216,-0.002735,0.004921,-0.000914,0.005028,-0.002843,-83.286969,0.005042,
840,1970,0.123836,-0.236202,0.999998,0.000150,-0.000484,0.003755,-0.000878,0.003930,-0.000659,-78.750166,0.004209,
1180,120,0.016704,-9.770363,0.999998,0.000160,-0.000302,0.003201,0.000067,0.003202,-0.000303,88.910190,0.003535,
1600,990,-1.510154,-5.239139,0.999998,0.000202,-0.001987,0.005341,-0.000287,0.005352,-0.001998,-87.761060,0.005409,
1130,1340,0.134733,-2.420806,0.999998,0.000159,-0.001934,0.003349,0.001666,0.003830,-0.002416,73.884246,0.003874,
610,310,1.031763,-8.539993,0.999998,0.000171,-0.002451,0.005026,-0.000044,0.005026,-0.002451,-89.664072,0.005027,
1020,1430,0.373286,-2.383520,0.999996,0.000231,-0.002621,0.004705,0.001083,0.004862,-0.002778,81.761267,0.004878,
1730,130,-0.323830,-9.622418,0.999997,0.000205,-0.001336,0.004552,-0.001136,0.004764,-0.001547,-79.449481,0.004861,
980,880,0.947754,-6.056903,0.999998,0.000188,-0.003558,0.006825,0.000143,0.006827,-0.003560,89.209987,0.006829,
570,1380,1.712114,-3.450176,0.999896,0.001243,-0.003483,0.005160,0.000199,0.005165,-0.003487,88.681647,0.005269,
730,620,1.198607,-7.147899,0.999998,0.000176,-0.002747,0.005276,0.000053,0.005277,-0.002748,89.618329,0.005278,
1770,980,-1.856964,-5.267148,0.999998,0.000153,-0.002187,0.004724,-0.000147,0.004727,-0.002191,-88.779011,0.004731,
1240,1910,-0.003989,-0.386218,0.999998,0.000152,-0.000461,0.003235,-0.000004,0.003235,-0.000461,-89.938849,0.003500,
1230,670,0.001655,-7.958491,0.999999,0.000140,-0.001054,0.002434,-0.000021,0.002434,-0.001054,-89.649533,0.002441,
970,1720,0.313107,-1.175754,0.999998,0.000188,-0.001664,0.004233,0.000113,0.004235,-0.001666,88.906346,0.004267,
690,720,1.478722,-6.567744,0.999996,0.000222,-0.002653,0.005188,0.000319,0.005201,-0.002666,87.675532,0.005202,
1850,1250,-1.822581,-4.028206,0.999998,0.000171,-0.002368,0.004742,0.000243,0.004751,-0.002377,88.045509,0.004751,
640,1440,1.427730,-3.039295,0.999997,0.000208,-0.002571,0.005129,-0.000065,0.005130,-0.002572,-89.519572,0.005130,
1770,1100,-1.840988,-4.694188,0.999998,0.000178,-0.002228,0.004833,0.000327,0.004848,-0.002243,87.356798,0.004852,
820,500,0.792265,-7.923917,0.999998,0.000160,-0.002565,0.005088,-0.000221,0.005094,-0.002572,-88.344370,0.005095,
600,490,1.339715,-7.618266,0.999997,0.000216,-0.002505,0.005070,-0.000026,0.005070,-0.002505,-89.806080,0.005071,
1750,180,-0.500277,-9.363525,0.999997,0.000201,-0.002118,0.004889,-0.000691,0.004956,-0.002186,-84.424150,0.004968,
1070,450,0.217543,-8.536504,0.999998,0.000177,-0.001680,0.003988,-0.000479,0.004028,-0.001721,-85.199561,0.004042,
890,1750,0.413059,-1.122731,0.999998,0.000184,-0.001791,0.004418,-0.000097,0.004420,-0.001793,-89.107724,0.004446,
910,280,0.349304,-9.084441,0.999998,0.000161,-0.001419,0.004279,0.000198,0.004286,-0.001426,88.013754,0.004365,
940,400,0.420417,-8.585360,0.999997,0.000200,-0.001831,0.004471,-0.000219,0.004479,-0.001838,-88.013104,0.004503,
1680,320,-0.643661,-8.761786,0.999997,0.000183,-0.002204,0.004900,-0.000105,0.004902,-0.002206,-89.156314,0.004910,
760,750,1.341550,-6.488375,0.999997,0.000224,-0.002867,0.005444,0.000388,0.005462,-0.002885,87.329995,0.005465,
1660,450,-0.774010,-8.148345,0.999998,0.000195,-0.002442,0.004986,0.000165,0.004990,-0.002446,88.730341,0.004990,
1020,1180,0.779564,-3.825474,0.999997,0.000199,-0.003762,0.006963,0.000608,0.006997,-0.003797,86.764266,0.007006,
730,1570,1.002810,-2.227985,0.999998,0.000153,-0.002577,0.005142,0.000127,0.005144,-0.002579,89.055355,0.005144,
1890,1750,-1.112068,-1.586551,0.999997,0.000192,-0.002366,0.004876,-0.000059,0.004876,-0.002366,-89.536217,0.004877,
1810,790,-1.700517,-6.169681,0.999998,0.000189,-0.002512,0.005012,-0.000379,0.005031,-0.002531,-87.124459,0.005031,
780,160,0.341682,-9.508888,0.999997,0.000186,-0.001501,0.004484,0.000844,0.004600,-0.001617,82.121549,0.004667,
1280,830,-0.122024,-7.603028,0.999997,0.000207,-0.002354,0.001527,0.000735,0.001661,-0.002489,79.632213,0.002535,
1380,1570,-0.205255,-1.665139,0.999998,0.000170,-0.001693,0.003980,-0.000585,0.004040,-0.001753,-84.169711,0.004052,
1280,380,-0.053975,-8.880677,0.999999,0.000133,-0.001100,0.003539,0.000061,0.003539,-0.001100,89.249145,0.003623,
1000,830,0.711008,-6.472928,0.999997,0.000231,-0.003924,0.006629,-0.000618,0.006665,-0.003960,-86.662094,0.006704,
1600,720,-0.969502,-6.803124,0.999998,0.000154,-0.003258,0.005788,0.000011,0.005789,-0.003258,89.931473,0.005804,
1140,1530,0.121735,-1.749858,0.999998,0.000158,-0.001455,0.003619,0.000531,0.003674,-0.001510,84.091084,0.003693,
770,2020,0.049144,-0.061790,0.999998,0.000000,-0.000235,0.003665,-0.001098,0.003953,-0.000523,-75.307056,0.004294,
1180,100,0.013472,-9.835333,0.999998,0.000158,-0.000225,0.003137,0.000056,0.003138,-0.000226,89.045220,0.003500,
870,200,0.298613,-9.394985,0.999997,0.000213,-0.001391,0.004237,0.000488,0.004279,-0.001433,85.076113,0.004356,
1130,290,0.092884,-9.183918,0.999998,0.000149,-0.001012,0.003573,-0.000069,0.003574,-0.001014,-89.140718,0.003684,
1180,130,0.018345,-9.738942,0.999998,0.000150,-0.000329,0.003191,0.000066,0.003193,-0.000331,88.920279,0.003511,
1470,1410,-0.458170,-2.551298,0.999996,0.000219,-0.002879,0.005067,-0.000971,0.005184,-0.002996,-83.132209,0.005205,
1590,1060,-1.492923,-4.865532,0.999997,0.000221,-0.001918,0.005361,0.000280,0.005372,-0.001929,87.798589,0.005442,
840,1950,0.157862,-0.310627,0.999998,0.000171,-0.000627,0.003875,-0.000839,0.004026,-0.000778,-79.779813,0.004271,
980,860,0.879118,-6.196071,0.999998,0.000199,-0.003728,0.006784,-0.000009,0.006784,-0.003728,-89.951717,0.006795,
570,1370,1.724112,-3.504101,0.999885,0.001260,-0.003350,0.005191,0.000144,0.005194,-0.003353,89.036869,0.005267,
580,1520,1.457277,-2.722786,0.999997,0.000191,-0.003282,0.005907,0.000255,0.005914,-0.003289,88.409718,0.005927,
1130,1320,0.136352,-2.488217,0.999997,0.000206,-0.002029,0.003297,0.001832,0.003866,-0.002598,72.738233,0.003941,
690,1150,1.794799,-4.451091,0.999998,0.000176,-0.002333,0.004880,-0.000370,0.004899,-0.002351,-87.067533,0.004901,
1640,1140,-1.490824,-4.447625,0.999997,0.000225,-0.002399,0.005474,0.000683,0.005533,-0.002458,85.075006,0.005544,
1420,1670,-0.234527,-1.312937,0.999998,0.000185,-0.001561,0.004049,-0.000266,0.004062,-0.001574,-87.291133,0.004096,
690,1260,1.614685,-3.900403,0.999998,0.000188,-0.002578,0.005097,-0.000456,0.005124,-0.002605,-86.612783,0.005124,
1550,1690,-0.435208,-1.369540,0.999997,0.000213,-0.001790,0.004469,-0.000032,0.004469,-0.001790,-89.702801,0.004499,
960,1910,0.131961,-0.428599,0.999998,0.000138,-0.000791,0.003680,-0.000399,0.003715,-0.000826,-84.940859,0.003901,
1310,460,-0.098175,-8.579801,0.999999,0.000135,-0.001384,0.003623,0.000337,0.003645,-0.001407,86.164904,0.003677,
1230,650,0.002015,-8.010006,0.999999,0.000128,-0.001123,0.002613,-0.000011,0.002613,-0.001123,-89.826513,0.002621,
610,510,1.344298,-7.532136,0.999997,0.000219,-0.002506,0.005085,-0.000035,0.005085,-0.002506,-89.739383,0.005085,
1890,450,-1.347629,-7.778847,0.999997,0.000208,-0.002469,0.005017,0.000022,0.005017,-0.002469,89.828295,0.005017,
640,1420,1.460816,-3.141153,0.999997,0.000195,-0.002556,0.005117,-0.000099,0.005119,-0.002558,-89.264174,0.005119,
1340,850,-0.336387,-7.161526,0.999994,0.000322,-0.002229,0.003110,0.001893,0.003713,-0.002832,72.330883,0.003880,
1730,260,-0.644167,-8.994253,0.999997,0.000194,-0.002096,0.004958,-0.000391,0.004979,-0.002118,-86.839449,0.004998,
1330,1610,-0.124013,-1.462168,0.999998,0.000180,-0.001353,0.003730,-0.000343,0.003753,-0.001376,-86.159988,0.003797,
1810,770,-1.664600,-6.269620,0.999997,0.000199,-0.002516,0.004980,-0.000326,0.004995,-0.002530,-87.512928,0.004995,
620,110,0.461869,-9.584624,0.999997,0.000207,-0.002397,0.005341,0.000855,0.005434,-0.002490,83.766778,0.005441,
1900,150,-0.753143,-9.230197,0.999997,0.000000,-0.002480,0.005214,-0.000492,0.005245,-0.002511,-86.357946,0.005246,
730,1550,1.030038,-2.330148,0.999998,0.000160,-0.002599,0.005146,0.000121,0.005148,-0.002601,89.102325,0.005148,
1750,1100,-1.796008,-4.688526,0.999998,0.000158,-0.002237,0.004934,0.000351,0.004951,-0.002255,87.203961,0.004958,
950,1720,0.347835,-1.198936,0.999998,0.000174,-0.001659,0.004365,0.000048,0.004366,-0.001659,89.538925,0.004407,
1680,300,-0.612709,-8.858237,0.999997,0.000189,-0.002170,0.004825,-0.000159,0.004828,-0.002174,-88.697616,0.004836,
1770,630,-1.314145,-7.040463,0.999997,0.000180,-0.002661,0.005215,-0.000109,0.005217,-0.002663,-89.209914,0.005217,
990,1620,0.348895,-1.583075,0.999997,0.000188,-0.001938,0.004379,0.000408,0.004405,-0.001964,86.322394,0.004414,
780,730,1.245381,-6.623824,0.999997,0.000197,-0.002977,0.005552,0.000309,0.005563,-0.002988,87.930223,0.005568,
1880,1760,-1.069373,-1.516514,0.999998,0.000203,-0.002395,0.004905,-0.000038,0.004905,-0.002395,-89.698765,0.004905,
770,100,0.203346,-9.770279,0.999997,0.000199,-0.000837,0.004129,0.001097,0.004361,-0.001069,78.078556,0.004546,
860,690,0.927874,-6.972531,0.999998,0.000146,-0.003176,0.005664,-0.000098,0.005665,-0.003177,-89.362606,0.005679,
1380,1640,-0.185264,-1.387681,0.999998,0.000178,-0.001429,0.003862,-0.000314,0.003880,-0.001447,-86.619833,0.003922,
1850,1230,-1.855471,-4.121867,0.999998,0.000157,-0.002321,0.004673,0.000249,0.004681,-0.002330,87.964712,0.004682,
1020,1160,0.856489,-3.970124,0.999997,0.000192,-0.003534,0.007111,0.000531,0.007138,-0.003560,87.151328,0.007138,
810,1640,0.713691,-1.747417,0.999997,0.000196,-0.002322,0.004954,0.000112,0.004956,-0.002324,89.118947,0.004959,
640,30,0.057184,-10.027645,0.999997,0.000000,-0.001276,0.004386,0.001685,0.004850,-0.001740,74.618669,0.004914,
1280,340,-0.049775,-9.021295,0.999999,0.000135,-0.001002,0.003567,0.000044,0.003567,-0.001002,89.454182,0.003679,
1000,1450,0.415763,-2.338489,0.999997,0.000193,-0.002594,0.004817,0.000901,0.004925,-0.002702,83.164151,0.004932,
1180,300,0.047502,-9.164980,0.999999,0.000133,-0.000885,0.003529,-0.000001,0.003529,-0.000885,-89.991531,0.003672,
760,810,1.458583,-6.161205,0.999997,0.000210,-0.002749,0.005352,0.000536,0.005388,-0.002784,86.230838,0.005389,
1160,130,0.024907,-9.739388,0.999998,0.000145,-0.000312,0.003204,0.000087,0.003206,-0.000315,88.576437,0.003534,
860,980,1.505518,-5.290886,0.999997,0.000220,-0.002010,0.005366,0.000411,0.005389,-0.002033,86.817806,0.005443,
1650,2000,-0.072025,-0.125852,0.999998,0.000162,-0.000372,0.003634,0.000950,0.003847,-0.000586,77.312481,0.004146,
980,840,0.817914,-6.332055,0.999998,0.000195,-0.003837,0.006713,-0.000200,0.006717,-0.003840,-88.915377,0.006740,
1800,550,-1.269264,-7.410585,0.999997,0.000212,-0.002579,0.005138,0.000039,0.005138,-0.002579,89.711068,0.005138,
1120,1240,0.231995,-2.820406,0.999997,0.000235,-0.002750,0.003617,0.002218,0.004313,-0.003447,72.569048,0.004563,
780,140,0.293568,-9.603166,0.999998,0.000180,-0.001344,0.004349,0.000892,0.004485,-0.001481,81.296234,0.004571,
1820,850,-1.823522,-5.867543,0.999998,0.000169,-0.002339,0.004817,-0.000367,0.004836,-0.002358,-87.073261,0.004836,
1830,1320,-1.652507,-3.660854,0.999997,0.000199,-0.002505,0.004979,0.000263,0.004988,-0.002514,87.992735,0.004989,
1470,1610,-0.349647,-1.623920,0.999998,0.000186,-0.001912,0.004383,-0.000446,0.004414,-0.001943,-85.968254,0.004425,
770,1200,1.517403,-4.153519,0.999997,0.000202,-0.002639,0.005367,-0.000612,0.005413,-0.002686,-85.652995,0.005413,
1510,1890,-0.163965,-0.506995,0.999998,0.000171,-0.000884,0.003738,0.000371,0.003768,-0.000914,85.442251,0.003931,
1160,1970,0.013023,-0.199159,0.999999,0.000161,-0.000175,0.003102,-0.000120,0.003106,-0.000179,-87.897360,0.003488,
1360,390,-0.153205,-8.799101,0.999998,0.000156,-0.001290,0.003772,0.000194,0.003779,-0.001298,87.811898,0.003840,
690,1440,1.296646,-2.965000,0.999997,0.000178,-0.002655,0.005167,-0.000066,0.005168,-0.002655,-89.513982,0.005169,
1290,1720,-0.058763,-1.042118,0.999999,0.000123,-0.001000,0.003542,-0.000007,0.003542,-0.001000,-89.916433,0.003653,
1850,1160,-1.955145,-4.448064,0.999998,0.000177,-0.002194,0.004520,0.000198,0.004526,-0.002200,88.308373,0.004527,
940,1910,0.148371,-0.435971,0.999997,0.000194,-0.000756,0.003739,-0.000469,0.003787,-0.000805,-84.106810,0.003990,
1120,1530,0.151408,-1.770716,0.999998,0.000160,-0.001547,0.003737,0.000541,0.003792,-0.001602,84.210282,0.003807,
1550,1650,-0.476385,-1.550738,0.999997,0.000198,-0.002069,0.004625,-0.000237,0.004634,-0.002078,-87.974167,0.004642,
640,1400,1.494545,-3.243485,0.999997,0.000199,-0.002562,0.005076,-0.000131,0.005078,-0.002565,-89.019999,0.005078,
1850,980,-2.026990,-5.249961,0.999998,0.000160,-0.002104,0.004350,-0.000051,0.004350,-0.002105,-89.550565,0.004351,
1730,240,-0.603263,-9.094698,0.999997,0.000196,-0.001997,0.004914,-0.000488,0.004948,-0.002032,-85.977042,0.004974,
1140,870,0.423506,-7.263896,0.999997,0.000227,-0.001844,0.001879,-0.001220,0.002244,-0.002209,-73.379812,0.002571,
1600,700,-0.935299,-6.921179,0.999998,0.000171,-0.003201,0.005720,0.000080,0.005721,-0.003202,89.485794,0.005734,
760,350,0.739630,-8.583256,0.999997,0.000212,-0.002197,0.004990,0.000077,0.004991,-0.002198,89.387049,0.005003,
690,1130,1.815504,-4.548558,0.999998,0.000161,-0.002286,0.004859,-0.000356,0.004877,-0.002303,-87.155404,0.004879,
730,1530,1.058473,-2.433986,0.999998,0.000181,-0.002613,0.005193,0.000107,0.005195,-0.002615,89.217763,0.005195,
1330,1590,-0.126234,-1.537408,0.999998,0.000168,-0.001401,0.003689,-0.000375,0.003716,-0.001428,-85.805147,0.003749,
1310,1300,-0.099093,-2.459045,0.999998,0.000165,-0.001771,0.002674,-0.001802,0.003313,-0.002410,-70.485242,0.003425,
1320,490,-0.115123,-8.460678,0.999998,0.000174,-0.001430,0.003612,0.000416,0.003646,-0.001464,85.309066,0.003670,
1850,1210,-1.884785,-4.216192,0.999998,0.000152,-0.002294,0.004716,0.000271,0.004727,-0.002304,87.786469,0.004727,
1430,890,-0.791631,-6.220748,0.999996,0.000215,-0.003488,0.007069,0.000974,0.007158,-0.003577,84.770533,0.007158,
1900,140,-0.716006,-9.281875,0.999997,0.000000,-0.002468,0.005354,-0.000620,0.005403,-0.002517,-85.496611,0.005407,
830,180,0.314217,-9.456725,0.999997,0.000218,-0.001170,0.004297,0.000671,0.004378,-0.001251,83.107640,0.004510,
980,820,0.762628,-6.467408,0.999997,0.000205,-0.003886,0.006608,-0.000376,0.006621,-0.003899,-87.949554,0.006656,
1730,110,-0.262835,-9.714246,0.999998,0.000187,-0.001115,0.004418,-0.001203,0.004668,-0.001365,-78.246993,0.004800,
1770,610,-1.281552,-7.145166,0.999998,0.000165,-0.002657,0.005216,-0.000045,0.005216,-0.002657,-89.671225,0.005217,
1890,440,-1.333252,-7.829640,0.999997,0.000198,-0.002458,0.005015,0.000007,0.005015,-0.002458,89.945879,0.005015,
600,110,0.509099,-9.537048,0.999997,0.000188,-0.002369,0.005389,0.000879,0.005487,-0.002467,83.612046,0.005496,
1640,1120,-1.526000,-4.557707,0.999997,0.000238,-0.002286,0.005354,0.000570,0.005396,-0.002328,85.760243,0.005413,
1590,500,-0.658200,-8.010134,0.999998,0.000189,-0.002519,0.004986,0.000333,0.005000,-0.002533,87.465643,0.005000,
840,690,0.990046,-6.937931,0.999998,0.000163,-0.003115,0.005625,-0.000021,0.005625,-0.003115,-89.865469,0.005636,
840,1330,1.051729,-3.342860,0.999998,0.000187,-0.003170,0.005774,-0.000133,0.005776,-0.003172,-89.148817,0.005785,
1860,390,-1.182658,-8.126901,0.999998,0.000146,-0.002479,0.004978,0.000079,0.004979,-0.002480,89.395053,0.004979,
610,750,1.734471,-6.315467,0.999998,0.000175,-0.002461,0.004894,0.000211,0.004900,-0.002467,88.357428,0.004900,
1130,260,0.082077,-9.292188,0.999999,0.000139,-0.000906,0.003547,-0.000029,0.003547,-0.000907,-89.631709,0.003685,
1130,1720,0.104438,-1.057561,0.999998,0.000153,-0.001159,0.003626,0.000131,0.003630,-0.001163,88.434666,0.003707,
820,480,0.768276,-8.023234,0.999998,0.000168,-0.002487,0.005035,-0.000197,0.005040,-0.002493,-88.498282,0.005040,
940,1970,0.076541,-0.219880,0.999999,0.000146,-0.000370,0.003445,-0.000521,0.003515,-0.000440,-82.366741,0.003830,
1180,540,0.064264,-8.318028,0.999998,0.000160,-0.001299,0.003366,-0.000318,0.003388,-0.001321,-86.123462,0.003415,
1000,1430,0.426081,-2.435681,0.999996,0.000219,-0.002679,0.004871,0.000954,0.004990,-0.002798,82.905793,0.005002,
1600,680,-0.903572,-7.033766,0.999998,0.000174,-0.003152,0.005649,0.000132,0.005651,-0.003154,89.138761,0.005664,
630,2020,0.097888,-0.091871,0.999998,0.000000,-0.001832,0.004417,-0.001473,0.004747,-0.002162,-77.382001,0.004753,
1380,1620,-0.189691,-1.466077,0.999997,0.000199,-0.001537,0.003914,-0.000394,0.003942,-0.001565,-85.886809,0.003970,
1260,1390,-0.031292,-2.126371,0.999999,0.000112,-0.001157,0.002590,-0.000427,0.002638,-0.001205,-83.580277,0.002641,
890,1730,0.434863,-1.212923,0.999998,0.000190,-0.001900,0.004531,0.000010,0.004531,-0.001900,89.912468,0.004551,
1070,430,0.210978,-8.617975,0.999998,0.000184,-0.001618,0.003965,-0.000417,0.003996,-0.001649,-85.751747,0.004016,
1400,650,-0.274272,-7.700692,0.999998,0.000169,-0.002354,0.004356,0.001312,0.004603,-0.002601,79.318301,0.004616,
1870,1760,-1.044847,-1.497047,0.999998,0.000178,-0.002418,0.004930,-0.000017,0.004930,-0.002418,-89.863982,0.004931,
1660,210,-0.409172,-9.305451,0.999997,0.000196,-0.001689,0.004550,-0.000542,0.004596,-0.001735,-85.074916,0.004642,
1810,1320,-1.601510,-3.634215,0.999997,0.000179,-0.002545,0.005059,0.000288,0.005070,-0.002556,87.837573,0.005070,
950,1700,0.365741,-1.285307,0.999998,0.000198,-0.001753,0.004297,0.000134,0.004300,-0.001756,88.728427,0.004324,
1010,200,0.149842,-9.464767,0.999998,0.000172,-0.000790,0.003711,0.000238,0.003723,-0.000802,86.983140,0.003919,
1520,930,-1.225033,-5.641240,0.999996,0.000233,-0.002634,0.006339,-0.000662,0.006388,-0.002683,-85.801665,0.006415,
1270,1750,-0.035961,-0.932068,0.999999,0.000139,-0.000898,0.003507,-0.000063,0.003508,-0.000899,-89.178843,0.003644,
1120,1200,0.363674,-2.962064,0.999996,0.000253,-0.002139,0.003137,0.001854,0.003723,-0.002725,72.452954,0.003854,
770,1180,1.552648,-4.259522,0.999997,0.000187,-0.002552,0.005292,-0.000600,0.005338,-0.002598,-85.650819,0.005339,
1680,280,-0.579398,-8.956163,0.999997,0.000194,-0.002122,0.004795,-0.000252,0.004804,-0.002131,-87.915086,0.004814,
730,1510,1.086210,-2.537755,0.999998,0.000189,-0.002652,0.005204,0.000093,0.005205,-0.002653,89.324615,0.005206,
690,1110,1.837395,-4.646410,0.999998,0.000171,-0.002257,0.004868,-0.000378,0.004888,-0.002277,-86.972562,0.004891,
920,750,0.830022,-6.742332,0.999997,0.000215,-0.003522,0.006092,-0.000218,0.006097,-0.003527,-88.700108,0.006122,
740,1710,0.777411,-1.500827,0.999998,0.000175,-0.002336,0.005011,-0.000068,0.005012,-0.002337,-89.472912,0.005015,
940,380,0.403506,-8.676781,0.999997,0.000181,-0.001786,0.004369,-0.000166,0.004374,-0.001791,-88.456053,0.004398,
1850,1190,-1.917368,-4.311986,0.999998,0.000164,-0.002256,0.004673,0.000274,0.004683,-0.002267,87.740050,0.004684,
1430,1210,-0.624467,-3.551010,0.999997,0.000219,-0.003861,0.006532,-0.001078,0.006643,-0.003972,-84.137765,0.006685,
1900,130,-0.675673,-9.338679,0.999996,0.000000,-0.002461,0.005429,-0.000734,0.005496,-0.002529,-84.732545,0.005502,
800,670,1.079498,-6.983058,0.999997,0.000203,-0.002983,0.005487,0.000068,0.005488,-0.002983,89.542556,0.005495,
1810,970,-1.939511,-5.304976,0.999998,0.000154,-0.002162,0.004590,-0.000111,0.004592,-0.002164,-89.057933,0.004594,
1260,830,-0.075545,-7.671752,0.999998,0.000187,-0.002635,0.001372,0.000295,0.001393,-0.002656,85.812967,0.002657,
1310,1280,-0.106138,-2.509584,0.999997,0.000203,-0.001888,0.002584,-0.001919,0.003295,-0.002599,-69.680102,0.003473,
1020,1140,0.939460,-4.116429,0.999997,0.000215,-0.003314,0.007368,0.000520,0.007393,-0.003339,87.219244,0.007405,
980,800,0.711784,-6.597857,0.999997,0.000204,-0.003849,0.006432,-0.000522,0.006459,-0.003876,-87.102697,0.006502,
1140,860,0.362199,-7.282395,0.999998,0.000208,-0.001992,0.002020,-0.001161,0.002331,-0.002303,-74.971229,0.002676,
1730,90,-0.205077,-9.799100,0.999998,0.000173,-0.000958,0.004146,-0.001211,0.004419,-0.001231,-77.304340,0.004562,
1880,450,-1.322718,-7.794599,0.999998,0.000169,-0.002469,0.005012,0.000035,0.005012,-0.002469,89.733067,0.005012,
1760,1780,-0.742093,-1.205127,0.999998,0.000184,-0.002361,0.005032,0.000193,0.005037,-0.002366,88.507250,0.005040,
640,1380,1.528731,-3.344875,0.999997,0.000197,-0.002579,0.005082,-0.000194,0.005087,-0.002584,-88.552139,0.005087,
1690,840,-1.481062,-6.009592,0.999996,0.000232,-0.002689,0.005408,-0.000624,0.005456,-0.002737,-85.618285,0.005456,
1880,980,-2.090039,-5.241214,0.999998,0.000164,-0.002028,0.004159,-0.000025,0.004159,-0.002028,-89.767995,0.004160,
1510,1870,-0.183824,-0.580558,0.999998,0.000187,-0.001006,0.003829,0.000337,0.003853,-0.001029,86.034493,0.003989,
770,500,0.919533,-7.841701,0.999998,0.000178,-0.002573,0.005132,-0.000153,0.005135,-0.002576,-88.866269,0.005135,
1600,730,-0.987565,-6.745812,0.999998,0.000151,-0.003287,0.005826,-0.000037,0.005827,-0.003287,-89.765397,0.005843,
780,120,0.249065,-9.684467,0.999998,0.000176,-0.001119,0.004293,0.001013,0.004476,-0.001302,79.742297,0.004605,
1640,1100,-1.550778,-4.663377,0.999997,0.000220,-0.002173,0.005281,0.000508,0.005316,-0.002208,86.116345,0.005341,
1330,1790,-0.080412,-0.803839,0.999999,0.000141,-0.000935,0.003554,-0.000037,0.003554,-0.000936,-89.530795,0.003685,
1330,540,-0.132225,-8.269457,0.999999,0.000138,-0.001464,0.003629,0.000569,0.003692,-0.001527,83.702820,0.003711,
820,1330,1.115020,-3.373754,0.999998,0.000254,-0.003093,0.005689,-0.000193,0.005693,-0.003097,-88.743159,0.005701,
1830,1160,-1.910674,-4.434673,0.999996,0.000229,-0.002243,0.004621,0.000264,0.004631,-0.002253,87.801472,0.004632,
820,460,0.744413,-8.124529,0.999998,0.000171,-0.002415,0.005011,-0.000172,0.005015,-0.002419,-88.675604,0.005016,
730,1880,0.453815,-0.671315,0.999997,0.000186,-0.001739,0.004825,-0.000820,0.004926,-0.001840,-82.989056,0.004978,
660,770,1.646761,-6.276914,0.999997,0.000194,-0.002537,0.005029,0.000374,0.005047,-0.002555,87.174956,0.005048,
1260,1350,-0.028935,-2.219433,0.999999,0.000139,-0.001072,0.002201,-0.000595,0.002306,-0.001177,-80.005433,0.002306,
1070,410,0.201667,-8.697316,0.999998,0.000182,-0.001549,0.003946,-0.000345,0.003967,-0.001570,-86.422853,0.003996,
600,1700,1.133157,-1.782496,0.999998,0.000168,-0.002437,0.004961,0.000055,0.004962,-0.002438,89.574482,0.004962,
1550,1110,-1.337002,-4.565737,0.999997,0.000216,-0.002326,0.005963,0.000693,0.006020,-0.002384,85.254414,0.006063,
920,1970,0.083443,-0.221800,0.999998,0.000157,-0.000324,0.003490,-0.000587,0.003578,-0.000413,-81.442486,0.003915,
1600,880,-1.314387,-5.856843,0.999997,0.000221,-0.002786,0.005849,-0.000711,0.005907,-0.002844,-85.324839,0.005909,
1400,630,-0.269554,-7.785010,0.999998,0.000160,-0.002269,0.004226,0.001207,0.004443,-0.002486,79.805392,0.004453,
1060,1650,0.217921,-1.373730,0.999998,0.000175,-0.001568,0.004010,0.000356,0.004033,-0.001591,86.367360,0.004063,
690,1420,1.330503,-3.067470,0.999998,0.000176,-0.002686,0.005194,-0.000132,0.005196,-0.002688,-89.037615,0.005197,
1230,630,-0.000049,-8.061260,0.999999,0.000139,-0.001171,0.002773,-0.000010,0.002773,-0.001171,-89.847511,0.002784,
1110,1720,0.128069,-1.069672,0.999998,0.000173,-0.001126,0.003694,0.000119,0.003697,-0.001129,88.585523,0.003789,
1170,1510,0.078234,-1.786523,0.999998,0.000149,-0.001367,0.003404,0.000435,0.003444,-0.001406,84.833839,0.003463,
1190,1360,0.043923,-2.212648,0.999998,0.000183,-0.001190,0.002411,0.000803,0.002582,-0.001361,77.979589,0.002583,
1110,260,0.099922,-9.284266,0.999999,0.000151,-0.000875,0.003590,-0.000006,0.003590,-0.000875,-89.925466,0.003744,
690,1310,1.525131,-3.642403,0.999998,0.000209,-0.002637,0.005227,-0.000350,0.005242,-0.002652,-87.458730,0.005242,
930,200,0.227486,-9.428734,0.999997,0.000205,-0.001031,0.003993,0.000409,0.004026,-0.001064,85.379185,0.004173,
630,1900,0.602428,-0.708531,0.999997,0.000202,-0.002408,0.005230,-0.000561,0.005271,-0.002449,-85.821113,0.005275,
1460,1770,-0.227748,-0.946055,0.999998,0.000153,-0.001158,0.003969,0.000084,0.003970,-0.001159,89.064366,0.004083,
1100,1910,0.054649,-0.396883,0.999999,0.000126,-0.000407,0.003314,-0.000163,0.003321,-0.000414,-87.499584,0.003620,
630,140,0.550750,-9.450209,0.999998,0.000186,-0.002394,0.005252,0.000684,0.005313,-0.002455,84.926486,0.005318,
1140,850,0.303408,-7.301526,0.999997,0.000241,-0.002132,0.002313,-0.001347,0.002689,-0.002508,-74.386456,0.003006,
990,1100,1.172460,-4.519490,0.999997,0.000197,-0.002688,0.007187,-0.000246,0.007193,-0.002694,-88.576230,0.007268,
1810,1210,-1.791181,-4.181976,0.999998,0.000165,-0.002378,0.004839,0.000408,0.004862,-0.002401,86.776031,0.004862,
1460,610,-0.410455,-7.724436,0.999998,0.000177,-0.002586,0.004820,0.000946,0.004939,-0.002705,82.833337,0.004946,
1770,590,-1.250840,-7.249310,0.999998,0.000171,-0.002647,0.005181,-0.000034,0.005182,-0.002647,-89.753906,0.005182,
730,1710,0.801883,-1.514775,0.999998,0.000176,-0.002393,0.005024,-0.000045,0.005024,-0.002394,-89.655719,0.005026,
1430,1450,-0.331438,-2.257570,0.999997,0.000190,-0.002357,0.004551,-0.000991,0.004690,-0.002496,-81.994945,0.004693,
1320,1550,-0.116670,-1.673972,0.999998,0.000171,-0.001464,0.003624,-0.000470,0.003667,-0.001507,-84.771236,0.003686,
1900,120,-0.637918,-9.393410,0.999997,0.000000,-0.002412,0.005543,-0.000848,0.005632,-0.002502,-83.981877,0.005644,
640,1360,1.563960,-3.448359,0.999997,0.000209,-0.002554,0.005099,-0.000212,0.005105,-0.002560,-88.410773,0.005105,
1420,1210,-0.587156,-3.493518,0.999996,0.000230,-0.003803,0.006346,-0.001279,0.006505,-0.003962,-82.924502,0.006556,
1870,450,-1.297766,-7.810078,0.999998,0.000163,-0.002483,0.005019,0.000050,0.005019,-0.002484,89.615434,0.005019,
880,70,0.076120,-9.903834,0.999998,0.000137,-0.000460,0.003568,0.000723,0.003694,-0.000586,80.120223,0.003970,
1730,70,-0.147004,-9.880565,0.999998,0.000160,-0.000684,0.004063,-0.001302,0.004397,-0.001018,-75.626454,0.004603,
1640,1080,-1.576770,-4.768554,0.999997,0.000222,-0.002074,0.005214,0.000392,0.005235,-0.002095,86.929354,0.005270,
1510,1850,-0.210315,-0.660441,0.999998,0.000186,-0.001117,0.003917,0.000298,0.003934,-0.001134,86.624499,0.004050,
980,780,0.668144,-6.723402,0.999997,0.000216,-0.003785,0.006252,-0.000643,0.006293,-0.003826,-86.351181,0.006342,
590,400,1.230883,-8.055689,0.999998,0.000170,-0.002222,0.004975,-0.000063,0.004976,-0.002222,-89.496989,0.004985,
1340,80,-0.022442,-9.893898,0.999998,0.000148,-0.000228,0.003144,-0.000137,0.003150,-0.000234,-87.676168,0.003509,
890,1710,0.458051,-1.303280,0.999998,0.000206,-0.002023,0.004559,0.000055,0.004559,-0.002023,89.517106,0.004569,
900,1970,0.088439,-0.224291,0.999998,0.000164,-0.000453,0.003532,-0.000628,0.003629,-0.000550,-81.250418,0.003912,
1850,1390,-1.581047,-3.334092,0.999997,0.000201,-0.002549,0.005067,0.000134,0.005069,-0.002551,88.989390,0.005069,
1790,260,-0.784443,-8.902329,0.999998,0.000175,-0.002318,0.005026,-0.000284,0.005037,-0.002329,-87.787604,0.005041,
1020,1120,1.018403,-4.263292,0.999997,0.000214,-0.003090,0.007514,0.000555,0.007543,-0.003119,87.012943,0.007581,
1600,1120,-1.433312,-4.539757,0.999997,0.000218,-0.002350,0.005579,0.000674,0.005636,-0.002407,85.174170,0.005656,
1260,1330,-0.027419,-2.259858,0.999998,0.000157,-0.001045,0.001945,-0.000664,0.002086,-0.001185,-78.020086,0.002093,
820,440,0.721721,-8.224147,0.999997,0.000185,-0.002354,0.004959,-0.000170,0.004963,-0.002358,-88.666939,0.004965,
1040,1650,0.248658,-1.396537,0.999998,0.000161,-0.001575,0.004063,0.000325,0.004082,-0.001594,86.709827,0.004114,
1400,570,-0.256820,-8.040140,0.999998,0.000169,-0.002038,0.004127,0.000895,0.004255,-0.002165,81.908389,0.004255,
1470,140,-0.106374,-9.678141,0.999998,0.000174,-0.000527,0.003536,-0.000358,0.003567,-0.000558,-84.995564,0.003837,
1070,390,0.196280,-8.777185,0.999998,0.000172,-0.001468,0.003899,-0.000277,0.003914,-0.001482,-87.057712,0.003952,
690,1550,1.132553,-2.394554,0.999998,0.000181,-0.002564,0.005159,0.000079,0.005160,-0.002565,89.410685,0.005160,
600,1660,1.199096,-1.982881,0.999998,0.000158,-0.002482,0.004988,0.000062,0.004988,-0.002482,89.523934,0.004988,
710,1880,0.493048,-0.695817,0.999997,0.000194,-0.002114,0.004909,-0.000719,0.004981,-0.002186,-84.214566,0.004994,
1860,370,-1.151072,-8.227873,0.999998,0.000160,-0.002460,0.004957,0.000070,0.004958,-0.002460,89.463139,0.004958,
830,1520,0.806226,-2.321146,0.999997,0.000205,-0.002644,0.005161,0.000259,0.005169,-0.002653,88.098558,0.005170,
1170,1470,0.077830,-1.920138,0.999998,0.000160,-0.001382,0.003249,0.000569,0.003318,-0.001451,83.091759,0.003327,
1540,1530,-0.553769,-2.104063,0.999997,0.000209,-0.002483,0.004897,-0.000480,0.004928,-0.002514,-86.297342,0.004928,
1870,980,-2.069547,-5.242857,0.999998,0.000158,-0.002066,0.004228,-0.000039,0.004228,-0.002066,-89.643169,0.004229,
1850,2010,-0.178723,-0.165524,0.999997,0.000194,-0.001893,0.004809,0.001579,0.005162,-0.002246,77.387510,0.005177,
1460,590,-0.400237,-7.822224,0.999998,0.000184,-0.002518,0.004711,0.000912,0.004824,-0.002631,82.918488,0.004831,
990,1080,1.226516,-4.659630,0.999997,0.000196,-0.002464,0.007062,-0.000191,0.007065,-0.002467,-88.852848,0.007172,
840,390,0.615700,-8.500090,0.999997,0.000254,-0.002154,0.004813,-0.000090,0.004814,-0.002156,-89.262952,0.004823,
1810,230,-0.762815,-9.025436,0.999998,0.000166,-0.002313,0.005089,-0.000390,0.005109,-0.002333,-86.992175,0.005116,
1330,700,-0.128450,-7.716624,0.999998,0.000148,-0.001855,0.003294,0.001517,0.003707,-0.002269,74.742495,0.003738,
1900,110,-0.597765,-9.446455,0.999998,0.000000,-0.002358,0.005673,-0.001027,0.005802,-0.002487,-82.826283,0.005822,
1200,1590,0.039734,-1.497950,0.999998,0.000157,-0.001223,0.003488,0.000153,0.003493,-0.001228,88.147461,0.003544,
1430,350,-0.230654,-8.899983,0.999998,0.000173,-0.001471,0.003951,0.000170,0.003957,-0.001477,88.202552,0.003999,
640,1340,1.600648,-3.549191,0.999997,0.000217,-0.002531,0.005075,-0.000221,0.005081,-0.002538,-88.333817,0.005081,
1290,260,-0.046699,-9.302694,0.999998,0.000144,-0.000754,0.003462,-0.000025,0.003462,-0.000754,-89.660438,0.003642,
730,1950,0.249795,-0.343232,0.999998,0.000191,-0.001162,0.004370,-0.001204,0.004620,-0.001412,-78.241957,0.004735,
1790,160,-0.528042,-9.410573,0.999997,0.000219,-0.002014,0.005112,-0.000956,0.005238,-0.002140,-82.490104,0.005267,
1770,550,-1.190744,-7.458134,0.999998,0.000175,-0.002625,0.005159,0.000046,0.005160,-0.002626,89.661439,0.005160,
1640,1280,-1.202410,-3.656239,0.999997,0.000184,-0.003110,0.005747,0.000386,0.005763,-0.003127,87.508261,0.005770,
1230,610,0.000730,-8.120486,0.999998,0.000152,-0.001182,0.002927,-0.000037,0.002927,-0.001183,-89.481548,0.002945,
1590,1040,-1.502776,-4.972977,0.999998,0.000176,-0.001870,0.005408,0.000145,0.005411,-0.001873,88.858648,0.005496,
590,390,1.216685,-8.106518,0.999998,0.000162,-0.002249,0.004971,-0.000074,0.004972,-0.002249,-89.416326,0.004979,
980,760,0.631532,-6.846698,0.999997,0.000215,-0.003696,0.006054,-0.000747,0.006110,-0.003753,-85.646910,0.006163,
1120,340,0.117705,-8.997505,0.999999,0.000145,-0.001174,0.003648,-0.000156,0.003653,-0.001179,-88.149932,0.003729,
1680,260,-0.543465,-9.050491,0.999997,0.000192,-0.002041,0.004703,-0.000327,0.004718,-0.002057,-87.233758,0.004731,
820,420,0.695628,-8.325077,0.999998,0.000181,-0.002335,0.004931,-0.000148,0.004934,-0.002338,-88.833273,0.004936,
1400,550,-0.252990,-8.122485,0.999998,0.000168,-0.001916,0.004100,0.000773,0.004198,-0.002013,82.791415,0.004199,
920,1390,0.699084,-2.841578,0.999997,0.000203,-0.003175,0.005572,0.000505,0.005601,-0.003204,86.708531,0.005620,
1720,1980,-0.156028,-0.218298,0.999998,0.000167,-0.000579,0.004024,0.001242,0.004337,-0.000893,75.820015,0.004581,
880,1970,0.100385,-0.228613,0.999998,0.000147,-0.000603,0.003604,-0.000676,0.003710,-0.000709,-81.098414,0.003939,
1260,1470,-0.034842,-1.898305,0.999999,0.000120,-0.001218,0.003100,-0.000263,0.003116,-0.001234,-86.524296,0.003139,
1600,140,-0.204720,-9.639902,0.999998,0.000165,-0.000956,0.003984,-0.000675,0.004075,-0.001047,-82.354967,0.004232,
1330,710,-0.127747,-7.684288,0.999998,0.000171,-0.001884,0.003292,0.001600,0.003747,-0.002339,74.134233,0.003785,
1850,1630,-1.210927,-2.110439,0.999998,0.000197,-0.002488,0.005011,-0.000064,0.005011,-0.002489,-89.513640,0.005011,
1440,650,-0.377243,-7.586777,0.999997,0.000225,-0.002724,0.004837,0.001157,0.005010,-0.002898,81.489254,0.005030,
1260,70,-0.005156,-9.927572,0.999999,0.000144,-0.000159,0.003050,-0.000053,0.003051,-0.000160,-89.059031,0.003434,
1770,1640,-0.996216,-1.930170,0.999998,0.000158,-0.002476,0.005062,-0.000086,0.005063,-0.002477,-89.342842,0.005064,
760,1010,1.725443,-5.127310,0.999998,0.000161,-0.002103,0.004957,0.000161,0.004961,-0.002107,88.692825,0.004980,
1590,740,-0.972050,-6.707363,0.999997,0.000188,-0.003331,0.005889,-0.000042,0.005889,-0.003331,-89.739840,0.005906,
1070,370,0.186114,-8.853688,0.999998,0.000173,-0.001366,0.003897,-0.000191,0.003904,-0.001373,-87.927067,0.003961,
610,1900,0.652226,-0.757351,0.999997,0.000190,-0.002434,0.005188,-0.000436,0.005213,-0.002459,-86.738520,0.005216,
690,570,1.229115,-7.347599,0.999998,0.000171,-0.002626,0.005178,-0.000009,0.005178,-0.002626,-89.932611,0.005178,
770,320,0.672104,-8.744413,0.999996,0.000236,-0.002156,0.004897,0.000119,0.004899,-0.002158,89.030293,0.004911,
600,1120,2.027730,-4.637133,0.999998,0.000182,-0.002145,0.004453,-0.000220,0.004461,-0.002152,-88.094082,0.004461,
1850,2000,-0.223255,-0.209857,0.999998,0.000152,-0.002068,0.005073,0.001495,0.005373,-0.002368,78.642742,0.005385,
1460,570,-0.390436,-7.915980,0.999998,0.000173,-0.002417,0.004610,0.000818,0.004704,-0.002511,83.446647,0.004708,
1900,100,-0.552474,-9.505842,0.999997,0.000000,-0.002295,0.005961,-0.001247,0.006145,-0.002479,-81.597273,0.006183,
1880,1410,-1.623010,-3.278113,0.999997,0.000213,-0.002538,0.005040,0.000065,0.005041,-0.002539,89.506529,0.005041,
570,1270,1.894970,-3.993544,0.999993,0.000377,-0.002507,0.004680,-0.000088,0.004681,-0.002508,-89.297187,0.004685,
1170,550,0.079204,-8.276383,0.999998,0.000142,-0.001387,0.003357,-0.000442,0.003398,-0.001427,-84.723756,0.003412,
1810,190,-0.659286,-9.232052,0.999998,0.000190,-0.002193,0.005135,-0.000626,0.005188,-0.002246,-85.151421,0.005203,
1430,310,-0.207863,-9.058250,0.999998,0.000187,-0.001320,0.003886,0.000076,0.003887,-0.001321,89.159710,0.003953,
990,1060,1.265796,-4.801479,0.999998,0.000177,-0.002315,0.007374,-0.000077,0.007374,-0.002315,-89.545783,0.007542,
1190,1240,0.082738,-2.427506,0.999997,0.000192,-0.001945,0.001378,0.000966,0.001639,-0.002205,74.915923,0.002290,
890,1690,0.482654,-1.396113,0.999997,0.000215,-0.002072,0.004601,0.000101,0.004603,-0.002073,89.132591,0.004610,
1220,1590,0.014976,-1.490153,0.999998,0.000168,-0.001271,0.003456,0.000100,0.003458,-0.001273,88.788370,0.003498,
1640,1520,-0.824999,-2.333471,0.999998,0.000164,-0.002662,0.005215,-0.000235,0.005222,-0.002669,-88.292064,0.005223,
990,200,0.164573,-9.457262,0.999998,0.000162,-0.000842,0.003763,0.000303,0.003783,-0.000862,86.249610,0.003966,
1770,530,-1.161439,-7.560962,0.999997,0.000183,-0.002598,0.005124,0.000059,0.005124,-0.002599,89.564254,0.005124,
1270,260,-0.032287,-9.306299,0.999999,0.000138,-0.000750,0.003448,0.000007,0.003448,-0.000750,89.905311,0.003626,
1490,580,-0.470487,-7.804044,0.999997,0.000213,-0.002549,0.004852,0.000753,0.004928,-0.002624,84.250296,0.004931,
860,1910,0.215714,-0.461868,0.999997,0.000198,-0.001023,0.004027,-0.000677,0.004117,-0.001112,-82.490291,0.004259,
730,970,1.772917,-5.321011,0.999998,0.000175,-0.002192,0.004919,0.000275,0.004930,-0.002203,87.788909,0.004939,
640,1320,1.633282,-3.652086,0.999997,0.000196,-0.002507,0.005031,-0.000255,0.005039,-0.002516,-88.065103,0.005039,
820,400,0.672154,-8.421721,0.999997,0.000208,-0.002311,0.004889,-0.000124,0.004891,-0.002313,-89.014615,0.004893,
1720,1960,-0.211805,-0.299042,0.999998,0.000171,-0.000767,0.004139,0.001197,0.004415,-0.001044,76.991589,0.004615,
1550,1090,-1.375454,-4.683574,0.999997,0.000223,-0.002139,0.005845,0.000577,0.005886,-0.002180,85.890487,0.005952,
1260,1450,-0.034433,-1.958948,0.999999,0.000124,-0.001209,0.002984,-0.000303,0.003006,-0.001231,-85.888936,0.003022,
1270,1730,-0.038138,-1.002777,0.999999,0.000150,-0.000937,0.003531,-0.000043,0.003532,-0.000937,-89.445175,0.003659,
980,740,0.599039,-6.968193,0.999997,0.000209,-0.003593,0.005874,-0.000823,0.005945,-0.003664,-85.066966,0.005998,
590,380,1.199391,-8.153982,0.999998,0.000151,-0.002254,0.004962,-0.000087,0.004963,-0.002256,-89.311086,0.004970,
1600,100,-0.134216,-9.793544,0.999998,0.000161,-0.000693,0.003714,-0.000730,0.003832,-0.000811,-80.830072,0.004038,
690,530,1.168957,-7.556832,0.999998,0.000170,-0.002574,0.005176,-0.000054,0.005177,-0.002575,-89.598671,0.005177,
1240,770,-0.009142,-7.768512,0.999998,0.000166,-0.001148,0.001275,0.000240,0.001298,-0.001171,84.386744,0.001431,
1360,70,-0.020204,-9.925800,0.999999,0.000115,-0.000135,0.003105,-0.000190,0.003116,-0.000146,-86.664072,0.003517,
1840,390,-1.133048,-8.161637,0.999998,0.000176,-0.002452,0.005016,0.000053,0.005017,-0.002453,89.590956,0.005017,
1070,350,0.178709,-8.931312,0.999998,0.000182,-0.001292,0.003827,-0.000140,0.003831,-0.001295,-88.430441,0.003897,
690,960,1.852765,-5.360725,0.999997,0.000178,-0.002222,0.004792,0.000252,0.004801,-0.002231,87.942378,0.004805,
650,1940,0.414488,-0.459360,0.999997,0.000212,-0.001775,0.005200,-0.001259,0.005420,-0.001995,-80.078275,0.005483,
1720,310,-0.715871,-8.757344,0.999997,0.000207,-0.002169,0.004964,-0.000174,0.004968,-0.002173,-88.603426,0.004981,
600,2010,0.200706,-0.183130,0.999989,0.000421,-0.001226,0.005366,-0.002187,0.006025,-0.001885,-73.217706,0.006165,
1530,1660,-0.428337,-1.479982,0.999997,0.000185,-0.001852,0.004494,-0.000190,0.004499,-0.001858,-88.289175,0.004522,
1900,90,-0.503763,-9.566953,0.999997,0.000000,-0.002240,0.006254,-0.001407,0.006482,-0.002467,-80.833316,0.006543,
600,1100,2.045540,-4.728077,0.999998,0.000169,-0.002107,0.004355,-0.000065,0.004355,-0.002107,-89.421787,0.004356,
1140,830,0.224120,-7.351506,0.999997,0.000226,-0.002304,0.002755,-0.001911,0.003395,-0.002945,-71.468013,0.003688,
1540,1630,-0.473366,-1.629332,0.999997,0.000201,-0.002100,0.004628,-0.000268,0.004639,-0.002111,-87.721167,0.004645,
1420,1700,-0.219510,-1.190015,0.999999,0.000170,-0.001503,0.003965,-0.000198,0.003972,-0.001510,-87.928546,0.004010,
1580,930,-1.373596,-5.582927,0.999997,0.000201,-0.002386,0.005771,-0.000709,0.005833,-0.002447,-85.069835,0.005858,
1230,590,0.002808,-8.179044,0.999998,0.000151,-0.001205,0.003068,-0.000022,0.003068,-0.001205,-89.701838,0.003091,
600,1270,1.820473,-3.949423,0.999998,0.000179,-0.002367,0.004804,-0.000196,0.004809,-0.002373,-88.438356,0.004810,
1190,1220,0.124549,-2.455737,0.999996,0.000246,-0.002667,0.001506,0.000456,0.001555,-0.002716,83.841145,0.002725,
1640,540,-0.831017,-7.721109,0.999998,0.000163,-0.002674,0.005159,0.000245,0.005167,-0.002681,88.209135,0.005168,
1800,1580,-1.159814,-2.284649,0.999998,0.000165,-0.002518,0.005099,-0.000059,0.005099,-0.002519,-89.553654,0.005100,
1290,460,-0.072163,-8.592161,0.999999,0.000148,-0.001244,0.003578,0.000186,0.003585,-0.001251,87.796675,0.003639,
1120,320,0.111942,-9.070533,0.999998,0.000145,-0.001119,0.003683,-0.000096,0.003685,-0.001121,-88.851659,0.003778,
1680,240,-0.507657,-9.145373,0.999998,0.000180,-0.001968,0.004746,-0.000436,0.004774,-0.001996,-86.302542,0.004795,
930,1200,1.045321,-3.980248,0.999998,0.000168,-0.003388,0.006415,-0.000434,0.006434,-0.003407,-87.471349,0.006438,
1770,510,-1.132340,-7.664138,0.999998,0.000154,-0.002573,0.005177,0.000079,0.005178,-0.002574,89.416032,0.005178,
730,930,1.729393,-5.521951,0.999997,0.000176,-0.002291,0.004957,0.000420,0.004981,-0.002315,86.695594,0.004985,
670,100,0.329904,-9.711251,0.999997,0.000194,-0.001289,0.004849,0.001541,0.005214,-0.001654,76.666761,0.005329,
1550,1070,-1.409579,-4.800265,0.999997,0.000212,-0.001963,0.005758,0.000457,0.005785,-0.001990,86.624378,0.005878,
840,1930,0.198257,-0.392061,0.999998,0.000174,-0.000784,0.003990,-0.000821,0.004128,-0.000921,-80.511040,0.004333,
640,1300,1.669869,-3.751340,0.999998,0.000185,-0.002493,0.004957,-0.000280,0.004967,-0.002503,-87.853644,0.004967,
1330,670,-0.129758,-7.817046,0.999998,0.000159,-0.001737,0.003327,0.001323,0.003652,-0.002062,76.202337,0.003662,
1750,1640,-0.947738,-1.898269,0.999998,0.000164,-0.002456,0.005057,-0.000085,0.005058,-0.002457,-89.352492,0.005059,
1610,1440,-0.841571,-2.702548,0.999998,0.000169,-0.002954,0.005378,-0.000265,0.005386,-0.002962,-88.181212,0.005395,
820,380,0.647128,-8.520640,0.999997,0.000211,-0.002257,0.004887,-0.000054,0.004888,-0.002257,-89.564769,0.004892,
1850,650,-1.554930,-6.821591,0.999997,0.000210,-0.002532,0.005079,-0.000094,0.005080,-0.002533,-89.292914,0.005080,
1270,1710,-0.039862,-1.072747,0.999998,0.000161,-0.000997,0.003528,-0.000048,0.003528,-0.000998,-89.386742,0.003637,
1170,530,0.077201,-8.345037,0.999998,0.000166,-0.001334,0.003464,-0.000390,0.003495,-0.001365,-85.383799,0.003523,
590,370,1.181629,-8.202635,0.999998,0.000152,-0.002313,0.004942,-0.000067,0.004942,-0.002313,-89.470108,0.004946,
1590,1510,-0.702413,-2.296435,0.999997,0.000212,-0.002666,0.005127,-0.000377,0.005146,-0.002684,-87.235096,0.005147,
1720,1940,-0.267173,-0.384929,0.999998,0.000183,-0.000966,0.004416,0.001258,0.004696,-0.001246,77.469570,0.004866,
1350,80,-0.024634,-9.893327,0.999998,0.000148,-0.000207,0.003156,-0.000163,0.003164,-0.000215,-87.237424,0.003536,
980,720,0.570917,-7.081988,0.999997,0.000195,-0.003435,0.005707,-0.000874,0.005790,-0.003518,-84.585803,0.005835,
600,2000,0.253424,-0.233325,0.999998,0.000169,-0.001668,0.005518,-0.001919,0.005998,-0.002148,-75.948960,0.006078,
680,1920,0.436928,-0.536484,0.999997,0.000245,-0.001822,0.004944,-0.001135,0.005129,-0.002008,-80.727009,0.005170,
1020,550,0.343675,-8.039251,0.999998,0.000181,-0.002175,0.004414,-0.000754,0.004499,-0.002260,-83.557008,0.004499,
1240,1590,-0.010883,-1.490397,0.999998,0.000160,-0.001235,0.003448,-0.000083,0.003450,-0.001237,-88.984644,0.003495,
1820,450,-1.172805,-7.891545,0.999998,0.000176,-0.002512,0.005063,0.000095,0.005064,-0.002513,89.278245,0.005064,
1700,310,-0.672484,-8.784172,0.999997,0.000221,-0.002167,0.004885,-0.000145,0.004887,-0.002170,-88.826244,0.004898,
1610,140,-0.214417,-9.634905,0.999998,0.000170,-0.000921,0.004018,-0.000713,0.004119,-0.001021,-81.946783,0.004289,
1070,330,0.170361,-9.007616,0.999998,0.000169,-0.001202,0.003822,-0.000076,0.003824,-0.001203,-89.138109,0.003910,
1900,80,-0.453606,-9.632268,0.999997,0.000000,-0.002138,0.006337,-0.001583,0.006623,-0.002424,-79.757390,0.006701,
660,1950,0.363946,-0.400255,0.999998,0.000189,-0.001446,0.005026,-0.001521,0.005366,-0.001786,-77.412195,0.005465,
890,1670,0.503230,-1.489625,0.999997,0.000231,-0.002095,0.004673,0.000147,0.004676,-0.002098,88.756313,0.004684,
640,1550,1.260700,-2.474799,0.999996,0.000224,-0.002539,0.005109,0.000066,0.005110,-0.002540,89.502733,0.005110,
1090,800,0.300111,-7.130010,0.999997,0.000192,-0.003283,0.004778,-0.002168,0.005324,-0.003830,-75.860579,0.005492,
600,1080,2.052721,-4.814162,0.999998,0.000158,-0.002071,0.004253,-0.000031,0.004253,-0.002071,-89.720160,0.004254,
1520,1630,-0.431614,-1.600311,0.999998,0.000214,-0.001980,0.004510,-0.000284,0.004523,-0.001992,-87.499441,0.004533,
1530,200,-0.224409,-9.430061,0.999998,0.000144,-0.001007,0.003969,-0.000398,0.004001,-0.001038,-85.454513,0.004152,
1800,1560,-1.188924,-2.386848,0.999997,0.000208,-0.002518,0.005128,-0.000075,0.005129,-0.002519,-89.435715,0.005129,
1570,1380,-0.798846,-2.957791,0.999998,0.000199,-0.003179,0.005657,-0.000298,0.005667,-0.003189,-88.071575,0.005681,
590,1270,1.843987,-3.962195,0.999999,0.000166,-0.002383,0.004761,-0.000149,0.004764,-0.002386,-88.802217,0.004764,
1420,1680,-0.230697,-1.273089,0.999998,0.000171,-0.001537,0.004063,-0.000233,0.004072,-0.001547,-87.626245,0.004111,
1030,260,0.177636,-9.248175,0.999998,0.000143,-0.001109,0.003749,0.000063,0.003750,-0.001109,89.254427,0.003852,
1770,490,-1.103775,-7.767689,0.999998,0.000168,-0.002542,0.005153,0.000100,0.005154,-0.002543,89.257383,0.005154,
1500,910,-1.107228,-5.808854,0.999997,0.000214,-0.003081,0.006671,-0.000511,0.006698,-0.003107,-87.011393,0.006704,
730,390,0.869654,-8.336140,0.999998,0.000202,-0.002428,0.005081,-0.000046,0.005081,-0.002428,-89.645780,0.005083,
1640,500,-0.784042,-7.926771,0.999997,0.000186,-0.002574,0.005147,0.000254,0.005155,-0.002583,88.115154,0.005155,
1590,380,-0.534462,-8.590860,0.999997,0.000213,-0.002106,0.004696,0.000120,0.004698,-0.002108,88.993695,0.004706,
840,1910,0.235338,-0.470461,0.999998,0.000178,-0.000922,0.004100,-0.000759,0.004212,-0.001034,-81.586325,0.004390,
1090,580,0.206541,-8.053166,0.999997,0.000203,-0.001852,0.003885,-0.000918,0.004028,-0.001995,-81.131272,0.004028,
640,1280,1.704486,-3.849629,0.999998,0.000185,-0.002493,0.004976,-0.000323,0.004990,-0.002507,-87.528510,0.004990,
590,360,1.165100,-8.253323,0.999998,0.000158,-0.002367,0.004941,-0.000058,0.004941,-0.002367,-89.542459,0.004943,
1590,1490,-0.725773,-2.399317,0.999997,0.000205,-0.002758,0.005181,-0.000390,0.005200,-0.002777,-87.197516,0.005204,
1260,1430,-0.032842,-2.016898,0.999999,0.000154,-0.001192,0.002837,-0.000333,0.002864,-0.001219,-85.305832,0.002875,
1170,510,0.078583,-8.415875,0.999998,0.000163,-0.001297,0.003491,-0.000340,0.003515,-0.001321,-85.952610,0.003551,
1220,390,0.013193,-8.853395,0.999998,0.000171,-0.001132,0.003566,-0.000070,0.003567,-0.001133,-89.141150,0.003646,
760,1650,0.819033,-1.773087,0.999998,0.000172,-0.002399,0.005053,0.000089,0.005054,-0.002400,89.319043,0.005056,
1850,610,-1.490106,-7.026085,0.999998,0.000197,-0.002541,0.005062,-0.000048,0.005062,-0.002541,-89.636464,0.005062,
820,580,0.889657,-7.506506,0.999998,0.000155,-0.002809,0.005307,-0.000211,0.005312,-0.002814,-88.515158,0.005315,
600,1990,0.300018,-0.286049,0.999997,0.000224,-0.002040,0.005696,-0.001598,0.006013,-0.002357,-78.776823,0.006060,
1420,1660,-0.240252,-1.352410,0.999998,0.000198,-0.001580,0.004017,-0.000301,0.004033,-0.001596,-86.933323,0.004062,
1900,70,-0.405505,-9.696878,0.999998,0.000000,-0.001796,0.006663,-0.002084,0.007149,-0.002281,-76.881929,0.007303,
890,1780,0.374061,-0.990661,0.999997,0.000189,-0.001631,0.004383,-0.000185,0.004389,-0.001637,-88.240010,0.004436,
600,1060,2.060799,-4.897335,0.999999,0.000150,-0.002060,0.004296,-0.000102,0.004298,-0.002062,-89.083299,0.004299,
1430,1280,-0.459065,-3.117819,0.999997,0.000233,-0.003705,0.005780,-0.001431,0.005992,-0.003916,-81.605346,0.006085,
1630,1910,-0.242185,-0.473933,0.999998,0.000180,-0.000884,0.004091,0.000788,0.004213,-0.001006,81.208610,0.004401,
1720,1920,-0.329076,-0.474237,0.999998,0.000171,-0.001188,0.004504,0.001143,0.004725,-0.001408,79.059581,0.004852,
1360,330,-0.134123,-9.024674,0.999998,0.000173,-0.001124,0.003722,0.000107,0.003725,-0.001126,88.741050,0.003820,
1800,1540,-1.216017,-2.489670,0.999998,0.000209,-0.002546,0.005128,-0.000085,0.005129,-0.002547,-89.366484,0.005129,
700,530,1.143219,-7.572283,0.999998,0.000160,-0.002593,0.005169,-0.000058,0.005169,-0.002593,-89.570938,0.005169,
860,1970,0.113348,-0.233065,0.999997,0.000203,-0.000528,0.003687,-0.000782,0.003827,-0.000668,-79.819137,0.004088,
1400,1710,-0.184295,-1.134326,0.999998,0.000169,-0.001348,0.003826,-0.000156,0.003831,-0.001352,-88.269830,0.003886,
640,770,1.696611,-6.255207,0.999998,0.000161,-0.002493,0.005001,0.000317,0.005015,-0.002506,87.580359,0.005015,
1470,1850,-0.167428,-0.639594,0.999998,0.000154,-0.000849,0.003772,0.000282,0.003789,-0.000866,86.524913,0.003971,
1720,710,-1.312240,-6.687501,0.999998,0.000212,-0.002852,0.005380,-0.000292,0.005391,-0.002862,-87.972295,0.005394,
1270,200,-0.024333,-9.509427,0.999998,0.000174,-0.000564,0.003369,-0.000038,0.003370,-0.000565,-89.449124,0.003610,
700,1390,1.354256,-3.211049,0.999997,0.000202,-0.002718,0.005245,-0.000188,0.005249,-0.002722,-88.649364,0.005250,
1640,610,-0.921445,-7.348975,0.999998,0.000170,-0.002894,0.005374,0.000182,0.005378,-0.002898,88.738590,0.005383,
980,700,0.547374,-7.197247,0.999997,0.000204,-0.003294,0.005583,-0.000927,0.005679,-0.003390,-84.103312,0.005714,
1330,130,-0.034803,-9.736384,0.999999,0.000131,-0.000419,0.003242,-0.000103,0.003245,-0.000422,-88.388498,0.003528,
1070,310,0.159522,-9.084092,0.999998,0.000167,-0.001124,0.003788,-0.000032,0.003789,-0.001124,-89.630654,0.003892,
890,1650,0.526019,-1.582043,0.999997,0.000218,-0.002129,0.004708,0.000179,0.004713,-0.002133,88.504963,0.004720,
900,1390,0.763469,-2.886197,0.999998,0.000178,-0.003179,0.005571,0.000359,0.005586,-0.003194,87.656237,0.005605,
1650,100,-0.167100,-9.783560,0.999998,0.000190,-0.000751,0.003935,-0.000922,0.004110,-0.000926,-79.256706,0.004312,
1550,1380,-0.736060,-2.916268,0.999997,0.000191,-0.003231,0.005639,-0.000447,0.005662,-0.003253,-87.119898,0.005683,
1840,170,-0.666663,-9.275568,0.999997,0.000212,-0.002415,0.005236,-0.000391,0.005256,-0.002435,-87.083525,0.005261,
860,1220,1.220279,-3.961747,0.999997,0.000191,-0.003074,0.005934,-0.000582,0.005972,-0.003112,-86.316963,0.005974,
1770,1400,-1.357101,-3.168243,0.999998,0.000201,-0.002675,0.005211,0.000148,0.005214,-0.002678,88.924093,0.005214,
1360,1250,-0.264975,-2.890716,0.999996,0.000250,-0.003071,0.004322,-0.002264,0.004960,-0.003709,-74.255589,0.005159,
730,370,0.841407,-8.438177,0.999998,0.000186,-0.002431,0.005045,-0.000022,0.005045,-0.002431,-89.832947,0.005046,
1230,570,0.000631,-8.242214,0.999998,0.000159,-0.001244,0.003166,-0.000024,0.003166,-0.001244,-89.686499,0.003190,
810,240,0.452950,-9.174041,0.999998,0.000193,-0.001761,0.004603,0.000436,0.004632,-0.001791,86.101730,0.004672,
1640,2000,-0.069573,-0.124938,0.999999,0.000150,-0.000257,0.003600,0.000943,0.003819,-0.000475,76.968546,0.004162,
1020,570,0.350539,-7.951582,0.999998,0.000200,-0.002252,0.004459,-0.000837,0.004562,-0.002354,-82.998028,0.004562,
1680,220,-0.466531,-9.239916,0.999997,0.000197,-0.001878,0.004633,-0.000509,0.004673,-0.001918,-85.556666,0.004698,
960,1670,0.370429,-1.404371,0.999998,0.000176,-0.001843,0.004376,0.000217,0.004384,-0.001850,87.999880,0.004401,
780,100,0.194924,-9.775673,0.999997,0.000189,-0.000911,0.004087,0.001050,0.004299,-0.001123,78.603635,0.004460,
1630,1890,-0.281696,-0.558124,0.999998,0.000188,-0.001052,0.004236,0.000747,0.004340,-0.001155,82.112601,0.004495,
1020,1100,1.087724,-4.412620,0.999996,0.000262,-0.003013,0.008028,0.000642,0.008066,-0.003050,86.685529,0.008145,
1400,1250,-0.404099,-3.135502,0.999996,0.000243,-0.003680,0.005589,-0.001768,0.005914,-0.004006,-79.559526,0.006037,
1510,1830,-0.229898,-0.737233,0.999998,0.000177,-0.001248,0.003969,0.000230,0.003979,-0.001258,87.477894,0.004067,
1550,1050,-1.426820,-4.914330,0.999998,0.000185,-0.001853,0.005698,0.000248,0.005706,-0.001861,88.123554,0.005819,
600,1040,2.070851,-4.985026,0.999999,0.000149,-0.002059,0.004348,-0.000098,0.004349,-0.002061,-89.123399,0.004351,
1590,1470,-0.747750,-2.505617,0.999997,0.000200,-0.002816,0.005296,-0.000371,0.005313,-0.002833,-87.385864,0.005317,
640,1260,1.742412,-3.949660,0.999998,0.000189,-0.002475,0.004931,-0.000338,0.004946,-0.002490,-87.389058,0.004946,
680,1900,0.497576,-0.633868,0.999997,0.000216,-0.002002,0.005048,-0.000968,0.005178,-0.002132,-82.325503,0.005205,
1500,890,-1.039397,-5.944672,0.999997,0.000205,-0.003304,0.006688,-0.000413,0.006705,-0.003321,-87.636022,0.006705,
1120,300,0.104233,-9.144848,0.999998,0.000146,-0.001036,0.003600,-0.000082,0.003602,-0.001037,-88.988064,0.003708,
630,30,0.074401,-10.010339,0.999999,0.000000,-0.001764,0.004454,0.001502,0.004798,-0.002108,77.105522,0.004810,
1740,170,-0.451247,-9.425321,0.999996,0.000228,-0.001878,0.004823,-0.000810,0.004919,-0.001975,-83.205194,0.004951,
1490,1300,-0.649907,-3.224415,0.999996,0.000223,-0.003682,0.006073,-0.000684,0.006121,-0.003730,-86.006599,0.006170,
1270,1690,-0.042359,-1.145717,0.999998,0.000173,-0.001057,0.003572,-0.000069,0.003573,-0.001058,-89.150548,0.003670,
1420,1640,-0.248511,-1.432879,0.999997,0.000199,-0.001614,0.004055,-0.000353,0.004077,-0.001636,-86.451345,0.004103,
1520,1830,-0.242342,-0.744723,0.999998,0.000161,-0.001192,0.003991,0.000267,0.004005,-0.001206,87.054805,0.004109,
1170,490,0.077287,-8.485576,0.999998,0.000155,-0.001297,0.003514,-0.000262,0.003528,-0.001311,-86.892736,0.003566,
700,1330,1.460773,-3.526198,0.999997,0.000236,-0.002664,0.005231,-0.000321,0.005244,-0.002677,-87.675749,0.005245,
820,820,1.307851,-6.160905,0.999997,0.000223,-0.002947,0.005712,0.000579,0.005750,-0.002986,86.190425,0.005752,
1720,1900,-0.380035,-0.567437,0.999997,0.000187,-0.001374,0.004682,0.001006,0.004845,-0.001536,80.814108,0.004952,
590,240,0.936976,-8.846480,0.999998,0.000184,-0.002438,0.004908,0.000056,0.004909,-0.002439,89.565376,0.004909,
1010,260,0.199977,-9.235874,0.999998,0.000152,-0.001080,0.003834,0.000139,0.003838,-0.001084,88.386494,0.003957,
1470,870,-0.865968,-6.169261,0.999998,0.000190,-0.003762,0.006903,0.000164,0.006906,-0.003764,89.118124,0.006915,
1800,1520,-1.244853,-2.591930,0.999998,0.000191,-0.002567,0.005131,-0.000058,0.005132,-0.002567,-89.565891,0.005132,
940,360,0.389608,-8.759289,0.999998,0.000187,-0.001736,0.004343,-0.000094,0.004344,-0.001738,-89.118127,0.004373,
1720,530,-1.030224,-7.641389,0.999997,0.000232,-0.002650,0.005194,0.000112,0.005196,-0.002652,89.182580,0.005196,
770,660,1.150419,-6.993544,0.999998,0.000173,-0.002880,0.005406,0.000103,0.005407,-0.002882,89.285922,0.005411,
850,380,0.583663,-8.561708,0.999998,0.000184,-0.002077,0.004752,-0.000049,0.004752,-0.002078,-89.588341,0.004765,
1850,70,-0.293766,-9.786324,0.999997,0.000205,-0.002270,0.005524,-0.001374,0.005759,-0.002505,-80.292602,0.005776,
1060,330,0.182764,-9.000842,0.999998,0.000177,-0.001302,0.003849,-0.000099,0.003851,-0.001304,-88.898679,0.003917,
1070,80,0.029811,-9.891221,0.999998,0.000154,-0.000216,0.003174,0.000228,0.003189,-0.000231,86.172223,0.003557,
890,1630,0.545730,-1.678548,0.999997,0.000209,-0.002172,0.004732,0.000229,0.004740,-0.002179,88.101756,0.004745,
700,1890,0.487022,-0.661601,0.999997,0.000237,-0.002114,0.004962,-0.000810,0.005054,-0.002205,-83.554683,0.005067,
1380,1490,-0.218499,-1.982299,0.999998,0.000160,-0.001855,0.003926,-0.000834,0.004044,-0.001973,-81.951367,0.004044,
580,1270,1.867709,-3.976505,0.999999,0.000185,-0.002466,0.004715,-0.000107,0.004717,-0.002468,-89.146779,0.004718,
730,350,0.810241,-8.540654,0.999997,0.000194,-0.002408,0.005043,0.000028,0.005043,-0.002408,89.783533,0.005045,
1330,110,-0.028018,-9.802262,0.999999,0.000139,-0.000332,0.003177,-0.000122,0.003181,-0.000337,-88.012501,0.003495,
980,680,0.525347,-7.309295,0.999997,0.000192,-0.003161,0.005414,-0.000919,0.005511,-0.003258,-83.953014,0.005541,
1380,1600,-0.197021,-1.546095,0.999997,0.000210,-0.001616,0.003927,-0.000458,0.003965,-0.001654,-85.310883,0.003983,
1230,550,0.002614,-8.303912,0.999998,0.000152,-0.001277,0.003242,-0.000022,0.003242,-0.001277,-89.722519,0.003266,
1070,290,0.149451,-9.159050,0.999998,0.000167,-0.001052,0.003751,0.000015,0.003751,-0.001052,89.826348,0.003870,
1740,430,-0.945636,-8.122341,0.999998,0.000199,-0.002510,0.005085,0.000109,0.005086,-0.002511,89.178733,0.005087,
1380,1710,-0.160475,-1.120427,0.999999,0.000144,-0.001139,0.003747,-0.000099,0.003749,-0.001141,-88.845066,0.003844,
1090,760,0.250843,-7.315305,0.999997,0.000220,-0.002914,0.004490,-0.002025,0.005008,-0.003432,-75.660600,0.005121,
780,80,0.151955,-9.849988,0.999998,0.000168,-0.000710,0.003890,0.001066,0.004125,-0.000945,77.564609,0.004322,
1060,1290,0.349984,-2.936124,0.999997,0.000195,-0.003387,0.005191,0.001776,0.005544,-0.003740,78.753146,0.005656,
1130,1300,0.144961,-2.554209,0.999997,0.000209,-0.002168,0.003298,0.001991,0.003946,-0.002817,71.964137,0.004065,
1510,1900,-0.151304,-0.469564,0.999998,0.000174,-0.000842,0.003733,0.000411,0.003770,-0.000879,84.901709,0.003944,
1020,1080,1.146896,-4.584461,0.999996,0.000274,-0.003090,0.008323,0.000614,0.008356,-0.003123,86.927485,0.008445,
790,240,0.493208,-9.152143,0.999997,0.000186,-0.001982,0.004684,0.000414,0.004709,-0.002008,86.460388,0.004726,
690,1520,1.177003,-2.549531,0.999998,0.000179,-0.002600,0.005162,0.000041,0.005162,-0.002600,89.696170,0.005162,
650,1140,1.895349,-4.518648,0.999998,0.000172,-0.002230,0.004672,-0.000295,0.004685,-0.002243,-87.559761,0.004686,
860,240,0.375223,-9.214199,0.999997,0.000208,-0.001592,0.004405,0.000375,0.004428,-0.001615,86.432349,0.004482,
1520,80,-0.070103,-9.876016,0.999999,0.000135,-0.000382,0.003386,-0.000510,0.003454,-0.000450,-82.424253,0.003755,
620,2020,0.120200,-0.110361,0.999997,0.000000,-0.001841,0.004573,-0.001630,0.004963,-0.002232,-76.529694,0.004972,
1680,350,-0.688793,-8.613276,0.999997,0.000188,-0.002250,0.004890,-0.000026,0.004890,-0.002250,-89.791757,0.004895,
1250,850,-0.095701,-7.666611,0.999775,0.001741,-0.004027,0.001189,-0.000211,0.001197,-0.004035,-87.685169,0.004145,
1470,830,-0.738541,-6.445012,0.999996,0.000231,-0.003927,0.006642,0.000486,0.006665,-0.003949,87.371335,0.006703,
930,840,1.002205,-6.196326,0.999997,0.000200,-0.003497,0.006433,0.000328,0.006444,-0.003508,88.108688,0.006452,
1550,1030,-1.436065,-5.027021,0.999998,0.000188,-0.001774,0.005578,0.000042,0.005578,-0.001775,89.672651,0.005699,
600,1020,2.071599,-5.072508,0.999998,0.000159,-0.002080,0.004350,0.000081,0.004351,-0.002081,89.276256,0.004353,
1470,1300,-0.574442,-3.158319,0.999997,0.000213,-0.003716,0.006003,-0.000941,0.006094,-0.003806,-84.520178,0.006157,
1420,1620,-0.255945,-1.516320,0.999998,0.000185,-0.001625,0.004103,-0.000376,0.004128,-0.001649,-86.259589,0.004156,
1680,200,-0.426176,-9.331374,0.999997,0.000208,-0.001785,0.004648,-0.000610,0.004705,-0.001842,-84.633271,0.004742,
1170,470,0.075518,-8.556134,0.999998,0.000179,-0.001272,0.003566,-0.000222,0.003576,-0.001283,-87.375921,0.003623,
1190,260,0.034416,-9.305348,0.999998,0.000146,-0.000780,0.003471,-0.000005,0.003471,-0.000780,-89.929665,0.003642,
750,660,1.207798,-6.963969,0.999998,0.000202,-0.002821,0.005347,0.000141,0.005349,-0.002824,89.014578,0.005352,
890,1610,0.564297,-1.772982,0.999997,0.000227,-0.002209,0.004762,0.000271,0.004773,-0.002219,87.774459,0.004777,
680,1330,1.512782,-3.549785,0.999998,0.000198,-0.002643,0.005174,-0.000320,0.005187,-0.002657,-87.657402,0.005187,
710,960,1.808252,-5.365512,0.999997,0.000206,-0.002203,0.004884,0.000298,0.004896,-0.002215,87.592515,0.004904,
1630,1870,-0.318531,-0.642793,0.999997,0.000202,-0.001190,0.004285,0.000668,0.004366,-0.001270,83.145129,0.004491,
590,230,0.913333,-8.894818,0.999998,0.000186,-0.002451,0.004939,0.000091,0.004940,-0.002452,89.291598,0.004940,
870,1680,0.535120,-1.469152,0.999996,0.000216,-0.002106,0.004672,0.000104,0.004674,-0.002107,89.122898,0.004681,
730,330,0.776761,-8.642184,0.999998,0.000188,-0.002365,0.004996,0.000062,0.004996,-0.002366,89.520277,0.004998,
830,380,0.622718,-8.534306,0.999997,0.000263,-0.002168,0.004853,-0.000046,0.004853,-0.002168,-89.625310,0.004862,
940,340,0.367940,-8.849059,0.999997,0.000187,-0.001655,0.004422,-0.000025,0.004422,-0.001655,-89.761826,0.004468,
1800,1500,-1.276414,-2.695493,0.999998,0.000180,-0.002576,0.005140,-0.000015,0.005141,-0.002576,-89.885411,0.005141,
1100,1650,0.161084,-1.338120,0.999998,0.000151,-0.001288,0.003763,0.000227,0.003773,-0.001298,87.435091,0.003834,
1120,280,0.098974,-9.216586,0.999998,0.000158,-0.000959,0.003594,-0.000033,0.003594,-0.000959,-89.587004,0.003722,
1450,420,-0.297583,-8.592947,0.999998,0.000171,-0.001660,0.004184,0.000321,0.004202,-0.001678,86.866482,0.004230,
1400,1370,-0.284511,-2.534431,0.999997,0.000194,-0.002644,0.004504,-0.001493,0.004804,-0.002943,-78.660571,0.004844,
1630,840,-1.312788,-6.059551,0.999997,0.000183,-0.002935,0.005705,-0.000617,0.005749,-0.002979,-85.938663,0.005751,
1840,1980,-0.294539,-0.301422,0.999997,0.000193,-0.002272,0.005408,0.001327,0.005631,-0.002495,80.467498,0.005643,
1330,90,-0.020890,-9.863045,0.999998,0.000152,-0.000267,0.003134,-0.000106,0.003138,-0.000271,-88.217136,0.003477,
1490,80,-0.055763,-9.881331,0.999999,0.000113,-0.000358,0.003336,-0.000416,0.003382,-0.000404,-83.657485,0.003694,
780,60,0.098426,-9.929258,0.999998,0.000163,-0.000554,0.003771,0.001058,0.004016,-0.000799,76.964462,0.004251,
1230,530,0.002676,-8.370524,0.999998,0.000149,-0.001278,0.003311,-0.000006,0.003311,-0.001278,-89.924954,0.003339,
620,30,0.097389,-9.993657,0.999997,0.000000,-0.001530,0.004725,0.001795,0.005203,-0.002009,75.070977,0.005248,
1390,600,-0.242400,-7.938287,0.999998,0.000173,-0.002094,0.004127,0.001054,0.004300,-0.002268,80.642004,0.004303,
1520,320,-0.342812,-8.942515,0.999998,0.000187,-0.001594,0.004317,-0.000011,0.004317,-0.001594,-89.895471,0.004366,
1460,1050,-1.247966,-4.865538,0.999995,0.000282,-0.002586,0.008036,-0.000056,0.008036,-0.002586,-89.697018,0.008205,
1440,1770,-0.204779,-0.932103,0.999998,0.000163,-0.001216,0.003893,0.000040,0.003893,-0.001217,89.553746,0.003984,
1020,790,0.535748,-6.816295,0.999997,0.000206,-0.003860,0.006089,-0.001186,0.006228,-0.003999,-83.297547,0.006312,
1570,1440,-0.723913,-2.626437,0.999997,0.000197,-0.002938,0.005358,-0.000456,0.005383,-0.002963,-86.866486,0.005392,
1660,350,-0.644108,-8.642344,0.999997,0.000170,-0.002271,0.004841,0.000004,0.004841,-0.002271,89.970455,0.004844,
1470,290,-0.243070,-9.107907,0.999998,0.000176,-0.001204,0.004010,-0.000106,0.004012,-0.001206,-88.839328,0.004117,
1170,450,0.074694,-8.625095,0.999998,0.000174,-0.001252,0.003576,-0.000174,0.003582,-0.001258,-87.943670,0.003634,
1020,1060,1.187682,-4.742181,0.999996,0.000254,-0.003252,0.008877,0.000440,0.008893,-0.003268,87.923404,0.008997,
910,840,1.071498,-6.158344,0.999998,0.000169,-0.003349,0.006268,0.000458,0.006290,-0.003370,87.281659,0.006296,
1550,1010,-1.429537,-5.134107,0.999998,0.000193,-0.001780,0.005641,-0.000222,0.005648,-0.001786,-88.286131,0.005774,
600,1000,2.062259,-5.160551,0.999998,0.000162,-0.002077,0.004344,0.000124,0.004346,-0.002080,88.891283,0.004347,
1060,1270,0.375043,-3.043171,0.999997,0.000222,-0.003564,0.005398,0.001775,0.005737,-0.003903,79.196313,0.005860,
640,1240,1.774650,-4.049061,0.999997,0.000189,-0.002408,0.004834,-0.000331,0.004849,-0.002424,-87.388073,0.004849,
1590,1450,-0.770351,-2.613058,0.999997,0.000184,-0.002890,0.005344,-0.000347,0.005359,-0.002905,-87.590490,0.005365,
780,130,0.271779,-9.643962,0.999998,0.000175,-0.001225,0.004283,0.000939,0.004439,-0.001381,80.591539,0.004543,
710,1000,1.828079,-5.175432,0.999998,0.000155,-0.002159,0.004825,0.000175,0.004829,-0.002163,88.564447,0.004838,
1630,1850,-0.357535,-0.729995,0.999997,0.000207,-0.001346,0.004422,0.000610,0.004486,-0.001410,84.025067,0.004588,
1490,1160,-1.023109,-4.143769,0.999998,0.000163,-0.003332,0.006784,0.000319,0.006794,-0.003342,88.194365,0.006794,
1710,1380,-1.223830,-3.190961,0.999998,0.000233,-0.002824,0.005380,0.000164,0.005383,-0.002828,88.855805,0.005385,
830,360,0.596905,-8.631832,0.999997,0.000204,-0.002077,0.004782,0.000044,0.004783,-0.002077,89.630506,0.004796,
940,320,0.347712,-8.938369,0.999998,0.000178,-0.001609,0.004327,0.000016,0.004327,-0.001609,89.841459,0.004374,
1420,1600,-0.263525,-1.597441,0.999998,0.000172,-0.001663,0.004078,-0.000423,0.004109,-0.001694,-85.803747,0.004130,
680,710,1.486870,-6.608131,0.999996,0.000223,-0.002629,0.005159,0.000285,0.005169,-0.002640,87.905029,0.005170,
1310,1640,-0.092502,-1.335896,0.999998,0.000185,-0.001251,0.003649,-0.000224,0.003659,-0.001261,-87.388099,0.003718,
1430,440,-0.275509,-8.532800,0.999998,0.000191,-0.001649,0.004114,0.000372,0.004138,-0.001673,86.324437,0.004163,
1490,260,-0.240322,-9.215638,0.999998,0.000163,-0.001315,0.003978,-0.000114,0.003980,-0.001317,-88.763010,0.004055,
900,80,0.081816,-9.872104,0.999999,0.000141,-0.000380,0.003516,0.000635,0.003617,-0.000480,80.975778,0.003929,
850,1680,0.577732,-1.495876,0.999997,0.000181,-0.002049,0.004734,0.000038,0.004734,-0.002049,89.677971,0.004748,
730,310,0.743073,-8.739901,0.999998,0.000172,-0.002284,0.004978,0.000139,0.004981,-0.002287,88.901251,0.004986,
730,1140,1.712969,-4.484876,0.999998,0.000172,-0.002286,0.005030,-0.000448,0.005057,-0.002313,-86.505146,0.005063,
860,200,0.311524,-9.387551,0.999998,0.000196,-0.001353,0.004289,0.000517,0.004336,-0.001400,84.810880,0.004426,
610,2020,0.140772,-0.123697,0.999996,0.000000,-0.001225,0.004885,-0.002025,0.005495,-0.001836,-73.230362,0.005595,
1270,1670,-0.045422,-1.216102,0.999998,0.000164,-0.001118,0.003543,-0.000093,0.003545,-0.001120,-88.859989,0.003624,
1800,1480,-1.306051,-2.798485,0.999998,0.000188,-0.002584,0.005169,0.000015,0.005169,-0.002584,89.886957,0.005169,
750,1820,0.558879,-0.944308,0.999998,0.000173,-0.001855,0.004846,-0.000531,0.004888,-0.001897,-85.499325,0.004929,
1870,660,-1.623193,-6.742117,0.999997,0.000210,-0.002526,0.005062,-0.000077,0.005063,-0.002527,-89.416199,0.005063,
770,1990,0.114191,-0.172491,0.999999,0.000129,-0.000551,0.003826,-0.001130,0.004101,-0.000826,-76.341835,0.004338,
1550,1440,-0.663855,-2.584894,0.999996,0.000225,-0.002936,0.005312,-0.000511,0.005343,-0.002967,-86.467587,0.005354,
1730,170,-0.433823,-9.435658,0.999997,0.000211,-0.001677,0.004773,-0.000879,0.004891,-0.001794,-82.379232,0.004948,
1730,1640,-0.898011,-1.865882,0.999998,0.000204,-0.002473,0.005072,-0.000097,0.005074,-0.002474,-89.266937,0.005074,
1680,180,-0.381489,-9.425692,0.999998,0.000180,-0.001653,0.004509,-0.000688,0.004585,-0.001729,-83.709235,0.004631,
1470,270,-0.224890,-9.188232,0.999998,0.000145,-0.001113,0.003956,-0.000124,0.003959,-0.001116,-88.599937,0.004082,
1170,430,0.073641,-8.697922,0.999998,0.000169,-0.001229,0.003603,-0.000134,0.003607,-0.001232,-88.410839,0.003666,
1020,1040,1.206967,-4.934968,0.999996,0.000242,-0.003310,0.009035,0.000178,0.009038,-0.003312,89.173442,0.009144,
1510,1290,-0.740241,-3.343832,0.999997,0.000199,-0.003655,0.006215,-0.000443,0.006235,-0.003674,-87.434520,0.006268,
1550,990,-1.412699,-5.253405,0.999998,0.000193,-0.001870,0.005782,-0.000410,0.005804,-0.001892,-86.944439,0.005920,
1020,1030,1.208882,-5.020040,0.999996,0.000252,-0.003318,0.008928,0.000013,0.008928,-0.003318,89.938677,0.009025,
1470,80,-0.050326,-9.885306,0.999999,0.000121,-0.000248,0.003325,-0.000391,0.003368,-0.000291,-83.821545,0.003732,
1740,410,-0.916372,-8.224310,0.999998,0.000167,-0.002468,0.005066,0.000069,0.005067,-0.002468,89.473406,0.005067,
1230,510,0.002332,-8.437682,0.999998,0.000156,-0.001264,0.003372,-0.000014,0.003372,-0.001264,-89.821835,0.003407,
590,1840,0.876464,-1.108639,0.999998,0.000148,-0.002441,0.004950,-0.000178,0.004955,-0.002445,-88.617761,0.004955,
590,220,0.890730,-8.945800,0.999999,0.000170,-0.002458,0.004963,0.000137,0.004965,-0.002460,88.945872,0.004965,
1330,70,-0.015130,-9.926839,0.999999,0.000125,-0.000208,0.003099,-0.000128,0.003104,-0.000212,-87.793068,0.003468,
1630,1830,-0.392405,-0.820910,0.999997,0.000199,-0.001455,0.004430,0.000525,0.004477,-0.001501,84.939657,0.004557,
1030,440,0.280001,-8.529156,0.999998,0.000183,-0.001673,0.004125,-0.000374,0.004149,-0.001697,-86.320425,0.004172,
830,900,1.445394,-5.718873,0.999997,0.000188,-0.002545,0.005504,0.000673,0.005560,-0.002601,85.252860,0.005564,
1840,1960,-0.389792,-0.407569,0.999997,0.000201,-0.002371,0.005295,0.001102,0.005450,-0.002526,81.976487,0.005455,
660,250,0.792818,-8.932981,0.999999,0.000168,-0.002320,0.005086,0.000330,0.005100,-0.002334,87.451118,0.005107,
600,610,1.523705,-7.005231,0.999997,0.000232,-0.002537,0.005091,0.000008,0.005091,-0.002537,89.938450,0.005091,
1710,1360,-1.257867,-3.299876,0.999998,0.000206,-0.002857,0.005429,0.000221,0.005435,-0.002863,88.471412,0.005437,
940,300,0.329930,-9.022478,0.999998,0.000183,-0.001537,0.004221,0.000058,0.004221,-0.001538,89.424652,0.004273,
1170,820,0.131000,-7.556313,0.999998,0.000179,-0.002065,0.001827,-0.001418,0.002289,-0.002526,-71.963127,0.002790,
1450,1140,-0.961535,-4.144711,0.999997,0.000203,-0.003304,0.007252,-0.000278,0.007259,-0.003311,-88.490668,0.007268,
930,1660,0.433797,-1.483314,0.999996,0.000235,-0.001865,0.004493,0.000191,0.004499,-0.001870,88.284245,0.004520,
1040,1270,0.451921,-3.142066,0.999996,0.000259,-0.003724,0.005774,0.001481,0.006000,-0.003949,81.340434,0.006099,
730,290,0.708293,-8.840837,0.999998,0.000170,-0.002220,0.005019,0.000239,0.005027,-0.002227,88.111501,0.005037,
710,1140,1.758102,-4.491639,0.999998,0.000171,-0.002328,0.004950,-0.000410,0.004973,-0.002351,-86.787487,0.004976,
710,980,1.819369,-5.270558,0.999998,0.000171,-0.002175,0.004777,0.000150,0.004781,-0.002178,88.764446,0.004787,
1250,200,-0.011954,-9.512080,0.999998,0.000207,-0.000635,0.003329,-0.000001,0.003329,-0.000635,-89.979826,0.003535,
980,660,0.506483,-7.416177,0.999997,0.000205,-0.003053,0.005282,-0.000920,0.005382,-0.003153,-83.778094,0.005408,
1380,1580,-0.201423,-1.625053,0.999998,0.000182,-0.001672,0.003959,-0.000547,0.004011,-0.001725,-84.499980,0.004025,
1070,270,0.139433,-9.234951,0.999998,0.000176,-0.000972,0.003687,0.000047,0.003687,-0.000972,89.423200,0.003822,
610,30,0.116114,-9.978349,0.999995,0.000000,-0.000715,0.005183,0.002425,0.006052,-0.001584,70.285080,0.006277,
1230,260,0.000520,-9.310287,0.999998,0.000157,-0.000821,0.003452,0.000010,0.003452,-0.000821,89.872355,0.003607,
1800,1460,-1.338135,-2.901836,0.999997,0.000206,-0.002595,0.005150,0.000026,0.005150,-0.002596,89.804771,0.005150,
600,980,2.054700,-5.245491,0.999998,0.000171,-0.002073,0.004292,0.000050,0.004292,-0.002073,89.554345,0.004293,
660,710,1.539426,-6.582274,0.999997,0.000209,-0.002579,0.005117,0.000237,0.005124,-0.002586,88.234310,0.005124,
1470,250,-0.208654,-9.267559,0.999998,0.000156,-0.001049,0.003889,-0.000160,0.003894,-0.001054,-88.149402,0.004028,
590,440,1.290616,-7.855693,0.999998,0.000173,-0.002364,0.004996,-0.000021,0.004996,-0.002364,-89.832923,0.004999,
770,1970,0.169579,-0.252470,0.999998,0.000144,-0.000722,0.003963,-0.001121,0.004217,-0.000976,-77.208999,0.004415,
870,80,0.099435,-9.866888,0.999999,0.000122,-0.000561,0.003588,0.000771,0.003726,-0.000700,79.802968,0.003961,
1120,260,0.090965,-9.288202,0.999999,0.000146,-0.000890,0.003570,-0.000023,0.003571,-0.000890,-89.699134,0.003717,
1420,1580,-0.270548,-1.678001,0.999998,0.000186,-0.001738,0.004137,-0.000504,0.004179,-0.001781,-85.135701,0.004195,
1020,1020,1.214029,-5.100256,0.999996,0.000259,-0.003296,0.009004,-0.000134,0.009005,-0.003297,-89.375343,0.009112,
970,1780,0.258804,-0.926578,0.999998,0.000165,-0.001404,0.004040,-0.000099,0.004041,-0.001406,-88.961333,0.004103,
1320,1980,-0.015757,-0.166780,0.999998,0.000154,-0.000177,0.003072,0.000115,0.003076,-0.000181,87.972130,0.003453,
900,100,0.108762,-9.804257,0.999998,0.000156,-0.000540,0.003608,0.000626,0.003701,-0.000633,81.599688,0.003959,
850,1610,0.654110,-1.834224,0.999997,0.000215,-0.002382,0.004889,0.000233,0.004896,-0.002390,88.170101,0.004896,
1510,1250,-0.827945,-3.600103,0.999998,0.000186,-0.003744,0.006446,-0.000150,0.006448,-0.003746,-89.155860,0.006476,
1680,160,-0.339911,-9.512486,0.999998,0.000192,-0.001508,0.004487,-0.000823,0.004598,-0.001619,-82.328292,0.004665,
1170,410,0.071789,-8.769632,0.999998,0.000178,-0.001191,0.003600,-0.000107,0.003602,-0.001193,-88.718840,0.003670,
1590,1430,-0.792237,-2.721452,0.999998,0.000174,-0.002974,0.005412,-0.000332,0.005425,-0.002987,-87.737152,0.005434,
1020,1010,1.204998,-5.192627,0.999996,0.000227,-0.003254,0.009133,-0.000260,0.009138,-0.003259,-88.797887,0.009263,
720,1710,0.825324,-1.531528,0.999998,0.000169,-0.002416,0.005034,-0.000018,0.005034,-0.002416,-89.864846,0.005036,
640,1220,1.806450,-4.145178,0.999997,0.000182,-0.002356,0.004788,-0.000363,0.004806,-0.002375,-87.096936,0.004806,
990,1660,0.324083,-1.407790,0.999998,0.000185,-0.001758,0.004276,0.000273,0.004288,-0.001770,87.415819,0.004310,
1030,960,1.072388,-5.673427,0.999997,0.000213,-0.003344,0.008512,-0.001166,0.008626,-0.003457,-84.435650,0.008682,
610,640,1.545391,-6.867766,0.999997,0.000192,-0.002530,0.005061,0.000076,0.005062,-0.002531,89.426090,0.005062,
810,900,1.497188,-5.707457,0.999998,0.000207,-0.002510,0.005441,0.000661,0.005496,-0.002565,85.280133,0.005500,
780,110,0.221187,-9.731004,0.999997,0.000197,-0.001020,0.004228,0.001061,0.004434,-0.001227,78.996451,0.004579,
940,280,0.308606,-9.109499,0.999998,0.000176,-0.001470,0.004199,0.000121,0.004201,-0.001473,88.774271,0.004263,
1670,1120,-1.592727,-4.565846,0.999997,0.000200,-0.002275,0.005188,0.000506,0.005222,-0.002309,86.138828,0.005233,
1210,820,0.047828,-7.699824,0.999997,0.000222,-0.002247,0.001214,-0.000396,0.001258,-0.002292,-83.562078,0.002296,
1840,1940,-0.473932,-0.514613,0.999997,0.000202,-0.002396,0.005358,0.000795,0.005439,-0.002477,84.204467,0.005446,
980,640,0.491989,-7.519398,0.999996,0.000221,-0.002931,0.005109,-0.000923,0.005213,-0.003035,-83.535152,0.005237,
590,1580,1.341966,-2.401673,0.999997,0.000191,-0.002418,0.005113,0.000016,0.005113,-0.002418,89.880989,0.005115,
1830,600,-1.422589,-7.107444,0.999998,0.000181,-0.002593,0.005072,-0.000060,0.005072,-0.002593,-89.553821,0.005072,
600,2020,0.147726,-0.129077,0.999989,0.000000,-0.000477,0.005391,-0.002636,0.006401,-0.001487,-69.032496,0.006699,
910,200,0.246930,-9.419222,0.999998,0.000161,-0.001024,0.004053,0.000442,0.004091,-0.001062,85.065325,0.004246,
1230,710,0.001526,-7.870704,0.999999,0.000145,-0.000990,0.002026,-0.000054,0.002027,-0.000991,-88.971969,0.002027,
1550,970,-1.383275,-5.368256,0.999998,0.000196,-0.002048,0.005815,-0.000526,0.005851,-0.002083,-86.187086,0.005931,
1120,240,0.083744,-9.359373,0.999998,0.000155,-0.000842,0.003534,0.000023,0.003535,-0.000842,89.693190,0.003693,
1800,1440,-1.369727,-3.005066,0.999998,0.000189,-0.002598,0.005129,0.000057,0.005129,-0.002598,89.579262,0.005129,
1470,230,-0.191333,-9.344366,0.999998,0.000168,-0.000951,0.003834,-0.000205,0.003843,-0.000960,-87.557547,0.004000,
900,120,0.139217,-9.728417,0.999998,0.000154,-0.000666,0.003767,0.000634,0.003855,-0.000755,82.024135,0.004086,
1520,470,-0.465970,-8.271481,0.999996,0.000239,-0.002220,0.004678,0.000415,0.004703,-0.002245,86.565786,0.004704,
1390,520,-0.230003,-8.258775,0.999998,0.000153,-0.001759,0.004020,0.000651,0.004092,-0.001831,83.648417,0.004100,
1800,490,-1.181014,-7.720204,0.999998,0.000184,-0.002557,0.005124,0.000081,0.005125,-0.002557,89.397511,0.005125,
1530,1480,-0.570291,-2.336730,0.999998,0.000229,-0.002700,0.005067,-0.000595,0.005112,-0.002746,-85.643458,0.005117,
1690,1380,-1.167552,-3.163214,0.999998,0.000188,-0.002886,0.005453,0.000128,0.005455,-0.002888,89.119541,0.005458,
1170,390,0.069876,-8.841357,0.999998,0.000158,-0.001124,0.003579,-0.000087,0.003580,-0.001126,-88.938970,0.003661,
1510,710,-0.649497,-7.063388,0.999997,0.000212,-0.003396,0.005771,0.000674,0.005821,-0.003446,85.814898,0.005853,
1830,660,-1.521895,-6.801345,0.999997,0.000195,-0.002571,0.005088,-0.000128,0.005091,-0.002573,-89.039923,0.005091,
870,980,1.485489,-5.295070,0.999997,0.000223,-0.001989,0.005424,0.000416,0.005448,-0.002012,86.797944,0.005509,
850,80,0.109642,-9.864415,0.999998,0.000141,-0.000485,0.003683,0.000861,0.003853,-0.000656,78.779243,0.004123,
1430,1360,-0.373892,-2.685425,0.999996,0.000231,-0.002998,0.005045,-0.001346,0.005264,-0.003217,-80.744437,0.005307,
770,1950,0.214078,-0.330842,0.999998,0.000167,-0.000934,0.004226,-0.001133,0.004464,-0.001171,-78.147013,0.004629,
590,430,1.276726,-7.905207,0.999998,0.000170,-0.002342,0.004977,-0.000035,0.004977,-0.002342,-89.728488,0.004980,
1440,930,-0.988821,-5.872462,0.999997,0.000220,-0.003185,0.007445,0.000639,0.007484,-0.003223,86.572247,0.007507,
1630,1810,-0.426698,-0.908743,0.999998,0.000186,-0.001546,0.004549,0.000453,0.004582,-0.001579,85.772276,0.004655,
1380,1560,-0.207128,-1.706747,0.999998,0.000173,-0.001717,0.003990,-0.000628,0.004058,-0.001786,-83.791072,0.004068,
1320,1960,-0.018910,-0.230796,0.999998,0.000160,-0.000255,0.003148,0.000090,0.003150,-0.000257,88.484518,0.003498,
1070,250,0.128685,-9.307038,0.999998,0.000178,-0.000875,0.003668,0.000072,0.003669,-0.000876,89.095752,0.003833,
1420,1560,-0.275514,-1.762169,0.999997,0.000188,-0.001832,0.004178,-0.000559,0.004229,-0.001884,-84.732324,0.004238,
730,270,0.669625,-8.942197,0.999997,0.000204,-0.002160,0.004971,0.000318,0.004985,-0.002174,87.448073,0.004999,
1590,1410,-0.820938,-2.829738,0.999998,0.000169,-0.003069,0.005496,-0.000282,0.005505,-0.003078,-88.118603,0.005518,
640,1200,1.838646,-4.238466,0.999998,0.000179,-0.002356,0.004802,-0.000389,0.004823,-0.002377,-86.897464,0.004824,
1640,1730,-0.564379,-1.288473,0.999998,0.000195,-0.001976,0.004745,0.000101,0.004747,-0.001978,89.136923,0.004769,
940,260,0.287524,-9.192099,0.999998,0.000181,-0.001367,0.004076,0.000193,0.004083,-0.001374,87.968434,0.004156,
600,910,1.998803,-5.555878,0.999998,0.000181,-0.002174,0.004483,0.000178,0.004488,-0.002179,88.466451,0.004489,
810,880,1.459494,-5.815882,0.999998,0.000222,-0.002610,0.005468,0.000659,0.005521,-0.002663,85.365601,0.005522,
610,620,1.513226,-6.969755,0.999997,0.000220,-0.002536,0.005089,0.000033,0.005089,-0.002537,89.749476,0.005089,
1650,1100,-1.573851,-4.666007,0.999997,0.000218,-0.002183,0.005257,0.000505,0.005291,-0.002218,86.137750,0.005314,
710,360,0.873488,-8.456605,0.999998,0.000190,-0.002414,0.005048,-0.000015,0.005048,-0.002414,-89.884464,0.005050,
1840,1920,-0.550077,-0.621351,0.999997,0.000192,-0.002429,0.005291,0.000630,0.005342,-0.002480,85.367120,0.005347,
700,1710,0.873644,-1.565008,0.999998,0.000166,-0.002419,0.005037,-0.000005,0.005037,-0.002419,-89.959981,0.005038,
600,30,0.112102,-9.984968,0.999991,0.000000,0.000222,0.005796,0.003131,0.007200,-0.001182,65.837769,0.007722,
590,1570,1.357061,-2.452724,0.999997,0.000199,-0.002436,0.005103,0.000022,0.005103,-0.002436,89.831995,0.005105,
1810,600,-1.369830,-7.135879,0.999998,0.000173,-0.002573,0.005107,-0.000045,0.005107,-0.002573,-89.667611,0.005107,
1010,1780,0.210250,-0.901715,0.999998,0.000153,-0.001099,0.003924,-0.000083,0.003925,-0.001101,-89.049535,0.004049,
600,960,2.047823,-5.330501,0.999998,0.000168,-0.002087,0.004266,0.000063,0.004267,-0.002087,89.434508,0.004267,
980,620,0.477058,-7.621146,0.999997,0.000231,-0.002786,0.005022,-0.000882,0.005120,-0.002884,-83.633481,0.005134,
890,200,0.268824,-9.407047,0.999998,0.000179,-0.001258,0.004137,0.000447,0.004174,-0.001295,85.297219,0.004273,
850,1590,0.677668,-1.933317,0.999997,0.000197,-0.002418,0.004946,0.000250,0.004955,-0.002426,88.057285,0.004955,
1680,140,-0.288020,-9.604781,0.999998,0.000195,-0.001353,0.004336,-0.000880,0.004469,-0.001486,-81.403406,0.004552,
1020,1000,1.193612,-5.291513,0.999996,0.000238,-0.003224,0.009017,-0.000382,0.009029,-0.003236,-88.214544,0.009149,
1190,1280,0.049501,-2.373777,0.999998,0.000177,-0.001339,0.001632,0.001184,0.002046,-0.001753,70.718133,0.002213,
1550,950,-1.348130,-5.484221,0.999998,0.000186,-0.002275,0.005932,-0.000664,0.005986,-0.002328,-85.407479,0.006035,
1230,1350,0.001788,-2.199817,0.999998,0.000151,-0.000996,0.002074,0.000038,0.002075,-0.000996,89.286967,0.002075,
1390,560,-0.236263,-8.098875,0.999998,0.000148,-0.001892,0.004003,0.000822,0.004116,-0.002004,82.208353,0.004116,
1630,1790,-0.458712,-1.000926,0.999997,0.000193,-0.001638,0.004537,0.000369,0.004559,-0.001660,86.590098,0.004615,
730,250,0.628482,-9.042046,0.999997,0.000184,-0.002119,0.004955,0.000404,0.004978,-0.002142,86.741410,0.004994,
1190,820,0.090057,-7.645152,0.999997,0.000198,-0.002092,0.001421,-0.000886,0.001632,-0.002303,-76.620405,0.002369,
1320,1940,-0.024689,-0.293792,0.999998,0.000163,-0.000320,0.003208,0.000113,0.003212,-0.000324,88.163575,0.003536,
1770,470,-1.075725,-7.871427,0.999998,0.000181,-0.002520,0.005088,0.000107,0.005090,-0.002521,89.193676,0.005090,
1900,60,-0.351479,-9.758820,0.999992,0.000000,-0.001364,0.007088,-0.002817,0.007940,-0.002216,-73.156844,0.008195,
1800,1420,-1.400729,-3.108750,0.999998,0.000192,-0.002594,0.005132,0.000104,0.005134,-0.002595,89.229944,0.005134,
1590,1390,-0.847770,-2.940778,0.999998,0.000162,-0.003142,0.005617,-0.000238,0.005624,-0.003149,-88.442816,0.005637,
1850,1420,-1.530432,-3.182201,0.999997,0.000191,-0.002518,0.005080,0.000067,0.005081,-0.002518,89.496725,0.005081,
1570,1260,-1.020187,-3.671957,0.999997,0.000209,-0.003390,0.006167,0.000230,0.006172,-0.003396,88.622235,0.006183,
1130,1380,0.134669,-2.288275,0.999998,0.000170,-0.001793,0.003390,0.001355,0.003722,-0.002126,76.198576,0.003735,
1380,1540,-0.211513,-1.786236,0.999998,0.000159,-0.001761,0.003940,-0.000703,0.004026,-0.001846,-83.076835,0.004030,
900,140,0.169557,-9.654108,0.999998,0.000154,-0.000792,0.003806,0.000579,0.003878,-0.000863,82.934861,0.004072,
750,1800,0.601311,-1.042747,0.999998,0.000206,-0.001953,0.004901,-0.000439,0.004929,-0.001981,-86.349498,0.004961,
930,1040,1.400514,-4.968119,0.999997,0.000206,-0.001789,0.005787,-0.000137,0.005789,-0.001792,-88.966962,0.005928,
1550,80,-0.078102,-9.874621,0.999999,0.000134,-0.000323,0.003476,-0.000644,0.003582,-0.000429,-80.637460,0.003912,
600,350,1.124388,-8.321281,0.999998,0.000152,-0.002434,0.004960,-0.000065,0.004960,-0.002435,-89.495034,0.004961,
1510,1480,-0.517181,-2.293764,0.999997,0.000211,-0.002620,0.004966,-0.000690,0.005029,-0.002682,-84.842663,0.005032,
1220,1910,0.005568,-0.386564,0.999998,0.000181,-0.000441,0.003233,-0.000004,0.003233,-0.000441,-89.935954,0.003507,
590,520,1.408924,-7.450798,0.999996,0.000229,-0.002598,0.005148,0.000012,0.005148,-0.002598,89.911303,0.005148,
1630,1920,-0.223940,-0.434725,0.999997,0.000182,-0.000831,0.004045,0.000813,0.004177,-0.000963,80.780766,0.004375,
1830,640,-1.488155,-6.903283,0.999998,0.000192,-0.002579,0.005118,-0.000088,0.005119,-0.002580,-89.348529,0.005119,
640,1180,1.870855,-4.337354,0.999998,0.000184,-0.002315,0.004770,-0.000344,0.004787,-0.002332,-87.224799,0.004787,
1510,690,-0.624375,-7.178554,0.999998,0.000195,-0.003272,0.005632,0.000712,0.005689,-0.003328,85.455343,0.005716,
1090,560,0.205708,-8.127990,0.999998,0.000169,-0.001830,0.003873,-0.000857,0.003999,-0.001956,-81.637029,0.003999,
1560,750,-0.890293,-6.704083,0.999998,0.000170,-0.003464,0.006042,0.000094,0.006043,-0.003465,89.431546,0.006064,
1420,270,-0.168758,-9.218920,0.999998,0.000194,-0.001147,0.003771,-0.000014,0.003772,-0.001147,-89.835039,0.003867,
1170,370,0.065879,-8.911581,0.999998,0.000141,-0.001076,0.003582,-0.000063,0.003583,-0.001077,-89.221145,0.003677,
1120,220,0.074748,-9.429738,0.999998,0.000155,-0.000763,0.003473,0.000023,0.003473,-0.000763,89.684415,0.003651,
1780,650,-1.373673,-6.923424,0.999997,0.000208,-0.002624,0.005198,-0.000155,0.005201,-0.002627,-88.865921,0.005201,
1730,410,-0.891688,-8.239025,0.999998,0.000165,-0.002471,0.005057,0.000072,0.005057,-0.002472,89.448312,0.005058,
1470,210,-0.172526,-9.420188,0.999998,0.000164,-0.000865,0.003811,-0.000262,0.003825,-0.000880,-86.797586,0.004007,
1680,1510,-0.943878,-2.452518,0.999998,0.000173,-0.002670,0.005263,-0.000158,0.005266,-0.002673,-88.856034,0.005266,
1070,230,0.115779,-9.382197,0.999998,0.000181,-0.000790,0.003608,0.000103,0.003610,-0.000793,88.653479,0.003795,
850,1320,1.039849,-3.385105,0.999997,0.000195,-0.003229,0.005833,-0.000135,0.005835,-0.003231,-89.147982,0.005847,
1420,1540,-0.282449,-1.842835,0.999998,0.000182,-0.001930,0.004206,-0.000657,0.004276,-0.001999,-83.955960,0.004279,
990,1780,0.233757,-0.914098,0.999998,0.000172,-0.001161,0.003983,-0.000122,0.003986,-0.001164,-88.641774,0.004099,
1840,1900,-0.620331,-0.725197,0.999997,0.000202,-0.002445,0.005214,0.000489,0.005245,-0.002476,86.360288,0.005248,
1350,840,-0.326639,-7.116564,0.999998,0.000210,-0.002716,0.003874,0.002189,0.004535,-0.003377,73.203816,0.004712,
690,360,0.921058,-8.424291,0.999999,0.000125,-0.002409,0.005048,-0.000007,0.005048,-0.002409,-89.949444,0.005050,
770,1930,0.272986,-0.421295,0.999997,0.000191,-0.001131,0.004339,-0.001064,0.004539,-0.001330,-79.372897,0.004667,
600,940,2.032579,-5.417552,0.999998,0.000149,-0.002136,0.004455,0.000182,0.004460,-0.002141,88.421827,0.004461,
890,840,1.136406,-6.126203,0.999997,0.000222,-0.003231,0.006123,0.000522,0.006152,-0.003260,86.814469,0.006156,
790,220,0.453191,-9.246310,0.999998,0.000171,-0.001871,0.004624,0.000494,0.004662,-0.001908,85.673971,0.004687,
910,1200,1.110301,-4.014381,0.999997,0.000189,-0.003269,0.006243,-0.000545,0.006274,-0.003300,-86.733014,0.006277,
680,1880,0.560498,-0.738515,0.999997,0.000223,-0.002107,0.005025,-0.000805,0.005115,-0.002197,-83.641332,0.005132,
830,520,0.789139,-7.836982,0.999997,0.000188,-0.002638,0.005108,-0.000254,0.005116,-0.002646,-88.121447,0.005117,
1320,1920,-0.031626,-0.357104,0.999998,0.000139,-0.000391,0.003242,0.000094,0.003244,-0.000393,88.520374,0.003541,
1450,540,-0.354656,-8.070983,0.999998,0.000176,-0.002167,0.004445,0.000711,0.004521,-0.002242,83.933528,0.004521,
940,240,0.263779,-9.271745,0.999998,0.000173,-0.001297,0.004097,0.000270,0.004110,-0.001311,87.138087,0.004199,
1800,1400,-1.435056,-3.210963,0.999997,0.000217,-0.002626,0.005158,0.000137,0.005160,-0.002628,88.992981,0.005161,
1380,1740,-0.148648,-1.008347,0.999998,0.000162,-0.001022,0.003747,-0.000030,0.003747,-0.001022,-89.634240,0.003874,
810,1790,0.497352,-1.020594,0.999997,0.000193,-0.001905,0.004638,-0.000319,0.004654,-0.001921,-87.212929,0.004677,
700,1690,0.906337,-1.664071,0.999998,0.000183,-0.002432,0.005046,0.000025,0.005046,-0.002432,89.808174,0.005047,
1830,980,-1.985224,-5.254849,0.999998,0.000197,-0.002148,0.004478,-0.000088,0.004479,-0.002149,-89.235280,0.004480,
1860,1370,-1.640162,-3.448993,0.999998,0.000186,-0.002507,0.005057,0.000123,0.005059,-0.002509,89.069755,0.005059,
590,2020,0.143541,-0.131228,0.999991,0.000000,0.000153,0.006049,-0.003202,0.007454,-0.001252,-66.315765,0.007983,
900,580,0.665508,-7.653171,0.999997,0.000218,-0.002767,0.005191,-0.000483,0.005221,-0.002796,-86.540466,0.005225,
1590,1370,-0.879239,-3.054967,0.999998,0.000150,-0.003211,0.005683,-0.000175,0.005686,-0.003215,-88.871948,0.005702,
1530,80,-0.072994,-9.875937,0.999999,0.000126,-0.000347,0.003418,-0.000561,0.003500,-0.000429,-81.695464,0.003818,
1770,450,-1.047490,-7.972111,0.999998,0.000165,-0.002495,0.005067,0.000105,0.005068,-0.002496,89.207477,0.005069,
1000,1650,0.312010,-1.437313,0.999997,0.000195,-0.001709,0.004248,0.000301,0.004263,-0.001725,87.119462,0.004289,
850,1570,0.699071,-2.032726,0.999998,0.000193,-0.002450,0.004987,0.000273,0.004997,-0.002460,87.897718,0.004998,
590,420,1.261903,-7.954947,0.999998,0.000183,-0.002257,0.004956,-0.000037,0.004956,-0.002258,-89.704820,0.004962,
1330,640,-0.130630,-7.920147,0.999998,0.000190,-0.001682,0.003389,0.001095,0.003615,-0.001908,78.323109,0.003617,
970,680,0.557238,-7.280642,0.999997,0.000203,-0.003217,0.005474,-0.000868,0.005560,-0.003303,-84.355115,0.005593,
1240,1970,-0.002487,-0.197969,0.999998,0.000165,-0.000233,0.003049,0.000009,0.003049,-0.000233,89.836872,0.003394,
640,1160,1.895219,-4.430798,0.999998,0.000171,-0.002245,0.004653,-0.000253,0.004662,-0.002255,-87.898825,0.004663,
1550,930,-1.300993,-5.605449,0.999998,0.000187,-0.002535,0.006027,-0.000725,0.006088,-0.002596,-85.195953,0.006110,
1720,1360,-1.286774,-3.312196,0.999998,0.000226,-0.002839,0.005389,0.000230,0.005396,-0.002846,88.401944,0.005399,
1720,1930,-0.299194,-0.430232,0.999998,0.000168,-0.001087,0.004473,0.001218,0.004728,-0.001342,78.168776,0.004874,
1200,1910,0.012850,-0.387005,0.999999,0.000150,-0.000372,0.003233,-0.000027,0.003233,-0.000372,-89.575755,0.003538,
1130,1360,0.133833,-2.356542,0.999998,0.000137,-0.001855,0.003359,0.001513,0.003766,-0.002262,74.935542,0.003792,
1810,660,-1.469022,-6.828376,0.999997,0.000199,-0.002636,0.005140,-0.000155,0.005143,-0.002639,-88.855008,0.005144,
730,1520,1.072036,-2.485912,0.999998,0.000191,-0.002635,0.005200,0.000103,0.005201,-0.002636,89.248598,0.005202,
1540,750,-0.819096,-6.749188,0.999998,0.000201,-0.003551,0.006062,0.000223,0.006067,-0.003556,88.673180,0.006097,
770,1320,1.283643,-3.496506,0.999997,0.000194,-0.002897,0.005520,-0.000343,0.005534,-0.002911,-87.672672,0.005536,
1360,270,-0.109720,-9.247002,0.999999,0.000136,-0.000901,0.003597,0.000000,0.003597,-0.000901,89.998664,0.003743,
1510,670,-0.602013,-7.288081,0.999997,0.000210,-0.003169,0.005486,0.000751,0.005551,-0.003233,85.078848,0.005576,
1330,1780,-0.083137,-0.839645,0.999998,0.000156,-0.000984,0.003567,-0.000043,0.003567,-0.000984,-89.460720,0.003685,
1170,350,0.063858,-8.984267,0.999999,0.000127,-0.001024,0.003530,-0.000046,0.003531,-0.001025,-89.419922,0.003633,
1470,190,-0.154830,-9.497866,0.999998,0.000174,-0.000755,0.003758,-0.000321,0.003781,-0.000777,-85.953584,0.003993,
740,1070,1.756897,-4.830718,0.999998,0.000175,-0.002170,0.004903,-0.000165,0.004907,-0.002174,-88.665380,0.004917,
1640,150,-0.261157,-9.582839,0.999998,0.000186,-0.001031,0.004220,-0.000786,0.004335,-0.001146,-81.666529,0.004493,
600,920,2.009488,-5.511553,0.999998,0.000168,-0.002178,0.004537,0.000204,0.004543,-0.002185,88.265492,0.004545,
780,180,0.387494,-9.422469,0.999997,0.000183,-0.001619,0.004512,0.000715,0.004594,-0.001702,83.434768,0.004645,
1070,210,0.105950,-9.450769,0.999998,0.000167,-0.000736,0.003560,0.000144,0.003564,-0.000741,88.086541,0.003762,
870,840,1.200867,-6.100547,0.999998,0.000169,-0.003121,0.005969,0.000593,0.006008,-0.003160,86.281938,0.006011,
1370,840,-0.390095,-6.957786,0.999997,0.000217,-0.003275,0.004860,0.002199,0.005417,-0.003832,75.799820,0.005570,
900,560,0.646645,-7.754657,0.999997,0.000204,-0.002665,0.005103,-0.000456,0.005130,-0.002691,-86.648779,0.005132,
1800,1380,-1.468162,-3.314011,0.999997,0.000198,-0.002635,0.005137,0.000203,0.005142,-0.002640,88.507401,0.005143,
1420,1520,-0.288254,-1.929177,0.999997,0.000182,-0.002032,0.004255,-0.000751,0.004343,-0.002121,-83.281532,0.004344,
1840,1880,-0.682856,-0.832315,0.999997,0.000208,-0.002423,0.005173,0.000402,0.005194,-0.002444,86.976784,0.005197,
1070,200,0.100157,-9.487294,0.999998,0.000160,-0.000701,0.003551,0.000162,0.003557,-0.000707,87.824337,0.003766,
590,30,0.102560,-9.990334,0.999993,0.000000,0.000705,0.006502,0.003707,0.008309,-0.001102,64.012892,0.009026,
1120,200,0.069288,-9.499632,0.999998,0.000146,-0.000707,0.003462,0.000066,0.003463,-0.000708,89.093627,0.003660,
1450,520,-0.346055,-8.159105,0.999998,0.000178,-0.002100,0.004400,0.000662,0.004467,-0.002167,84.246426,0.004467,
1320,1900,-0.037203,-0.424353,0.999998,0.000154,-0.000450,0.003297,0.000097,0.003300,-0.000452,88.512673,0.003578,
1660,1510,-0.892107,-2.417761,0.999997,0.000194,-0.002693,0.005254,-0.000196,0.005258,-0.002698,-88.590430,0.005259,
1380,1980,-0.024987,-0.172081,0.999998,0.000158,-0.000163,0.003161,0.000234,0.003177,-0.000179,85.996772,0.003570,
680,1860,0.613113,-0.834568,0.999997,0.000198,-0.002204,0.005070,-0.000629,0.005124,-0.002258,-85.095302,0.005136,
850,1550,0.720482,-2.132897,0.999998,0.000190,-0.002529,0.005047,0.000280,0.005057,-0.002540,87.885445,0.005058,
810,1750,0.561101,-1.210394,0.999997,0.000190,-0.002037,0.004765,-0.000169,0.004769,-0.002041,-88.580710,0.004785,
640,1140,1.917710,-4.523144,0.999998,0.000186,-0.002204,0.004637,-0.000277,0.004648,-0.002215,-87.682286,0.004650,
1810,1860,-0.672943,-0.874683,0.999997,0.000204,-0.002188,0.005114,0.000601,0.005163,-0.002237,85.325407,0.005178,
970,660,0.538790,-7.389285,0.999997,0.000225,-0.003096,0.005343,-0.000864,0.005431,-0.003183,-84.213268,0.005457,
1410,80,-0.035411,-9.889736,0.999999,0.000145,-0.000304,0.003200,-0.000270,0.003221,-0.000325,-85.621788,0.003547,
1590,1350,-0.909797,-3.168465,0.999998,0.000141,-0.003261,0.005771,-0.000110,0.005772,-0.003262,-89.300797,0.005788,
1770,430,-1.019887,-8.074891,0.999998,0.000163,-0.002478,0.005077,0.000083,0.005078,-0.002479,89.372982,0.005078,
1330,680,-0.129229,-7.783146,0.999998,0.000144,-0.001756,0.003306,0.001390,0.003663,-0.002112,75.607755,0.003677,
1080,1970,0.030507,-0.204062,0.999998,0.000176,-0.000194,0.003192,-0.000237,0.003209,-0.000210,-86.017549,0.003590,
940,220,0.241435,-9.354922,0.999998,0.000180,-0.001158,0.003990,0.000288,0.004007,-0.001174,86.805982,0.004119,
1110,1380,0.171092,-2.344087,0.999998,0.000184,-0.002054,0.003747,0.001409,0.004071,-0.002379,77.043230,0.004090,
1720,1320,-1.361259,-3.528994,0.999997,0.000232,-0.002833,0.005358,0.000358,0.005374,-0.002848,87.503619,0.005377,
770,800,1.411096,-6.224361,0.999998,0.000185,-0.002830,0.005449,0.000526,0.005483,-0.002863,86.378958,0.005485,
1720,1910,-0.353867,-0.519304,0.999998,0.000166,-0.001282,0.004585,0.001068,0.004774,-0.001470,79.997836,0.004890,
670,1520,1.227772,-2.581021,0.999997,0.000187,-0.002575,0.005146,0.000052,0.005146,-0.002575,89.610924,0.005146,
660,1270,1.671967,-3.879925,0.999998,0.000179,-0.002534,0.005016,-0.000400,0.005037,-0.002555,-86.972155,0.005037,
680,1710,0.921681,-1.596757,0.999997,0.000183,-0.002392,0.005038,-0.000011,0.005038,-0.002392,-89.914771,0.005040,
990,1500,0.414040,-2.120599,0.999997,0.000218,-0.002386,0.004667,0.000748,0.004745,-0.002464,84.009718,0.004746,
750,1320,1.340625,-3.521269,0.999998,0.000191,-0.002854,0.005417,-0.000352,0.005432,-0.002869,-87.567507,0.005435,
1640,130,-0.221337,-9.664462,0.999998,0.000191,-0.000891,0.004063,-0.000837,0.004201,-0.001028,-80.658951,0.004379,
1470,170,-0.133309,-9.571588,0.999998,0.000149,-0.000660,0.003633,-0.000336,0.003660,-0.000687,-85.547239,0.003890,
1550,910,-1.252449,-5.726112,0.999998,0.000198,-0.002748,0.006105,-0.000748,0.006167,-0.002811,-85.206286,0.006175,
1180,1910,0.020524,-0.388619,0.999998,0.000143,-0.000375,0.003237,-0.000045,0.003237,-0.000375,-89.283940,0.003542,
1800,1360,-1.505656,-3.417184,0.999997,0.000204,-0.002608,0.005136,0.000235,0.005143,-0.002615,88.262882,0.005143,
600,900,1.989024,-5.600418,0.999998,0.000152,-0.002164,0.004433,0.000148,0.004436,-0.002168,88.711810,0.004437,
1870,1700,-1.149109,-1.796319,0.999998,0.000155,-0.002477,0.004917,-0.000040,0.004917,-0.002477,-89.693183,0.004917,
1370,820,-0.328660,-7.054529,0.999995,0.000249,-0.003298,0.004794,0.002166,0.005338,-0.003842,75.916893,0.005507,
900,540,0.627481,-7.857489,0.999998,0.000180,-0.002607,0.005051,-0.000436,0.005075,-0.002632,-86.755224,0.005076,
580,2020,0.139553,-0.124856,0.999991,0.000000,0.000699,0.006659,-0.003589,0.008343,-0.000986,-64.850488,0.009119,
1550,200,-0.243048,-9.420266,0.999998,0.000166,-0.001023,0.004044,-0.000450,0.004084,-0.001063,-84.960993,0.004237,
1840,1860,-0.743426,-0.932566,0.999998,0.000193,-0.002446,0.005082,0.000285,0.005093,-0.002456,87.831699,0.005094,
1450,400,-0.288734,-8.675377,0.999998,0.000168,-0.001587,0.004153,0.000246,0.004163,-0.001598,87.550026,0.004200,
1380,720,-0.243588,-7.461905,0.999998,0.000175,-0.002651,0.004388,0.001769,0.004808,-0.003071,76.655652,0.004869,
850,1530,0.742258,-2.233313,0.999998,0.000177,-0.002634,0.005112,0.000297,0.005124,-0.002645,87.805394,0.005125,
1780,1510,-1.208575,-2.612170,0.999998,0.000163,-0.002596,0.005162,-0.000042,0.005163,-0.002596,-89.687865,0.005163,
1320,1880,-0.043261,-0.490512,0.999998,0.000185,-0.000536,0.003336,0.000062,0.003337,-0.000537,89.076972,0.003584,
580,1090,2.090250,-4.778437,0.999998,0.000184,-0.001993,0.004156,0.000014,0.004156,-0.001993,89.867280,0.004157,
1120,180,0.058759,-9.568471,0.999998,0.000151,-0.000629,0.003382,0.000069,0.003384,-0.000630,89.014914,0.003599,
1420,1500,-0.295138,-2.017171,0.999997,0.000189,-0.002134,0.004286,-0.000850,0.004397,-0.002244,-82.582803,0.004397,
810,1210,1.390053,-4.069461,0.999998,0.000195,-0.002805,0.005583,-0.000639,0.005632,-0.002853,-85.666812,0.005632,
1510,650,-0.580464,-7.398931,0.999997,0.000212,-0.003045,0.005345,0.000744,0.005410,-0.003111,84.969492,0.005431,
640,1120,1.938607,-4.616037,0.999998,0.000184,-0.002195,0.004652,-0.000297,0.004665,-0.002208,-87.521545,0.004667,
1510,880,-1.040865,-5.985888,0.999997,0.000221,-0.003347,0.006605,-0.000421,0.006623,-0.003364,-87.579278,0.006623,
1030,1080,1.112375,-4.541968,0.999995,0.000296,-0.003528,0.008900,0.001088,0.008995,-0.003622,85.035205,0.009051,
800,1830,0.443093,-0.844974,0.999998,0.000171,-0.001841,0.004595,-0.000479,0.004630,-0.001876,-85.767489,0.004658,
1450,80,-0.046329,-9.886333,0.999999,0.000129,-0.000235,0.003292,-0.000361,0.003328,-0.000271,-84.215403,0.003696,
1590,1330,-0.944675,-3.286343,0.999998,0.000156,-0.003308,0.005871,-0.000027,0.005871,-0.003308,-89.831254,0.005887,
1310,1960,-0.017414,-0.229984,0.999998,0.000159,-0.000215,0.003142,0.000077,0.003143,-0.000217,88.680924,0.003511,
1330,660,-0.128969,-7.850362,0.999998,0.000182,-0.001729,0.003363,0.001246,0.003652,-0.002018,76.964080,0.003659,
1770,410,-0.990260,-8.175322,0.999997,0.000185,-0.002460,0.005054,0.000074,0.005054,-0.002461,89.433551,0.005055,
750,800,1.465764,-6.205768,0.999998,0.000204,-0.002706,0.005343,0.000535,0.005378,-0.002741,86.213505,0.005379,
1720,780,-1.446919,-6.306665,0.999997,0.000219,-0.002794,0.005392,-0.000468,0.005419,-0.002820,-86.741152,0.005420,
1550,890,-1.197723,-5.850415,0.999998,0.000192,-0.002986,0.006193,-0.000692,0.006245,-0.003038,-85.710225,0.006246,
890,1520,0.648877,-2.216086,0.999997,0.000191,-0.002564,0.005027,0.000422,0.005050,-0.002588,86.825182,0.005051,
810,1320,1.164304,-3.444221,0.999998,0.000209,-0.003057,0.005668,-0.000254,0.005675,-0.003065,-88.331998,0.005681,
990,1480,0.423796,-2.216066,0.999997,0.000197,-0.002493,0.004764,0.000799,0.004851,-0.002580,83.787053,0.004854,
1380,1290,-0.274895,-2.821608,0.999997,0.000212,-0.003058,0.004700,-0.001993,0.005182,-0.003540,-76.404701,0.005296,
670,1260,1.664858,-3.919694,0.999998,0.000187,-0.002518,0.005047,-0.000451,0.005074,-0.002545,-86.599336,0.005074,
900,520,0.610228,-7.956674,0.999998,0.000199,-0.002550,0.004992,-0.000406,0.005013,-0.002571,-86.926210,0.005014,
600,880,1.966891,-5.687999,0.999998,0.000161,-0.002194,0.004463,0.000160,0.004467,-0.002198,88.623648,0.004467,
1470,150,-0.116486,-9.642351,0.999998,0.000155,-0.000568,0.003572,-0.000350,0.003601,-0.000598,-85.206393,0.003860,
840,170,0.283870,-9.504487,0.999997,0.000219,-0.001087,0.004219,0.000685,0.004306,-0.001174,82.762756,0.004452,
1800,1340,-1.540122,-3.521364,0.999997,0.000201,-0.002587,0.005129,0.000255,0.005137,-0.002595,88.108696,0.005137,
1350,1780,-0.102609,-0.847223,0.999999,0.000146,-0.000938,0.003611,-0.000001,0.003611,-0.000938,-89.985287,0.003748,
680,1840,0.665804,-0.941869,0.999997,0.000199,-0.002262,0.005042,-0.000520,0.005079,-0.002299,-85.949475,0.005086,
870,1660,0.556365,-1.563729,0.999997,0.000204,-0.002139,0.004736,0.000130,0.004738,-0.002141,88.914970,0.004745,
1340,1910,-0.043230,-0.392945,0.999998,0.000140,-0.000494,0.003314,0.000109,0.003318,-0.000497,88.366898,0.003579,
1860,1230,-1.877890,-4.132591,0.999998,0.000157,-0.002304,0.004655,0.000208,0.004662,-0.002310,88.287725,0.004662,
940,200,0.217540,-9.431294,0.999998,0.000187,-0.001069,0.003957,0.000367,0.003984,-0.001096,85.849892,0.004116,
850,220,0.357852,-9.295122,0.999998,0.000183,-0.001442,0.004354,0.000469,0.004392,-0.001479,85.402161,0.004469,
1450,500,-0.338144,-8.247997,0.999997,0.000188,-0.002057,0.004372,0.000621,0.004431,-0.002116,84.530505,0.004433,
1840,110,-0.454261,-9.593390,0.999996,0.000214,-0.002361,0.005320,-0.000859,0.005415,-0.002456,-83.697633,0.005423,
580,30,0.091880,-9.995122,0.999997,0.000000,0.000744,0.007271,0.004115,0.009260,-0.001244,64.207282,0.010051,
1380,680,-0.232086,-7.631074,0.999997,0.000181,-0.002387,0.004203,0.001507,0.004531,-0.002715,77.709188,0.004561,
640,1540,1.275186,-2.525749,0.999997,0.000200,-0.002547,0.005127,0.000060,0.005127,-0.002548,89.555799,0.005127,
780,420,0.791932,-8.262842,0.999998,0.000179,-0.002412,0.004974,-0.000110,0.004976,-0.002413,-89.144244,0.004977,
1820,40,-0.096464,-9.985991,0.999996,0.000249,-0.001174,0.004383,-0.001708,0.004866,-0.001657,-74.212083,0.004948,
1320,1860,-0.049325,-0.556060,0.999998,0.000151,-0.000621,0.003388,0.000060,0.003389,-0.000621,89.145411,0.003608,
590,310,1.081499,-8.501890,0.999998,0.000175,-0.002394,0.004944,-0.000036,0.004944,-0.002394,-89.721957,0.004945,
1340,270,-0.091206,-9.255671,0.999999,0.000133,-0.000962,0.003559,0.000040,0.003559,-0.000962,89.492982,0.003682,
1170,330,0.060623,-9.052688,0.999999,0.000133,-0.000968,0.003576,-0.000012,0.003576,-0.000968,-89.854890,0.003699,
1840,1840,-0.794598,-1.036441,0.999998,0.000178,-0.002450,0.005110,0.000212,0.005116,-0.002456,88.395888,0.005117,
810,1190,1.431266,-4.182432,0.999997,0.000202,-0.002708,0.005540,-0.000658,0.005592,-0.002760,-85.469076,0.005592,
1430,80,-0.042120,-9.888024,0.999998,0.000144,-0.000261,0.003239,-0.000301,0.003265,-0.000287,-85.128617,0.003616,
1770,390,-0.961859,-8.275570,0.999998,0.000172,-0.002456,0.005044,0.000069,0.005045,-0.002456,89.472558,0.005045,
1760,1510,-1.157090,-2.580070,0.999998,0.000170,-0.002634,0.005199,-0.000056,0.005200,-0.002634,-89.592453,0.005200,
1590,1310,-0.981883,-3.403597,0.999998,0.000166,-0.003321,0.005905,0.000062,0.005905,-0.003322,89.614379,0.005921,
1420,1480,-0.300035,-2.104105,0.999998,0.000190,-0.002208,0.004314,-0.000910,0.004439,-0.002332,-82.204623,0.004441,
810,1720,0.606351,-1.354994,0.999998,0.000184,-0.002167,0.004813,-0.000048,0.004813,-0.002167,-89.609986,0.004821,
850,1510,0.766325,-2.337849,0.999997,0.000186,-0.002699,0.005195,0.000284,0.005205,-0.002709,87.940255,0.005207,
750,780,1.426908,-6.314555,0.999997,0.000260,-0.002760,0.005449,0.000477,0.005477,-0.002788,86.687504,0.005477,
1030,1070,1.135220,-4.628018,0.999991,0.000377,-0.003648,0.009245,0.000976,0.009319,-0.003721,85.693227,0.009381,
900,500,0.588782,-8.058446,0.999997,0.000200,-0.002464,0.004895,-0.000393,0.004916,-0.002485,-86.949353,0.004916,
1120,160,0.054202,-9.634288,0.999998,0.000135,-0.000534,0.003350,0.000116,0.003353,-0.000537,88.292561,0.003602,
1530,1960,-0.089814,-0.255370,0.999998,0.000150,-0.000391,0.003529,0.000531,0.003600,-0.000462,82.425669,0.003917,
1170,700,0.069921,-7.815608,0.999999,0.000156,-0.001396,0.002639,-0.001108,0.002924,-0.001680,-75.615676,0.002934,
1340,1890,-0.053268,-0.461286,0.999998,0.000144,-0.000569,0.003344,0.000103,0.003347,-0.000572,88.498756,0.003580,
750,1460,1.105045,-2.768421,0.999998,0.000179,-0.002731,0.005272,0.000018,0.005272,-0.002731,89.868766,0.005273,
1720,760,-1.409778,-6.416750,0.999997,0.000199,-0.002818,0.005400,-0.000431,0.005423,-0.002840,-87.005194,0.005425,
1690,120,-0.256319,-9.683164,0.999998,0.000181,-0.001083,0.004277,-0.001080,0.004487,-0.001293,-79.022931,0.004619,
890,1260,1.030214,-3.676206,0.999998,0.000182,-0.003388,0.006147,-0.000275,0.006155,-0.003396,-88.351485,0.006166,
1890,1380,-1.697227,-3.446468,0.999997,0.000196,-0.002465,0.005076,0.000030,0.005076,-0.002465,89.770648,0.005077,
1380,1270,-0.296951,-2.919067,0.999997,0.000215,-0.003241,0.004806,-0.002064,0.005305,-0.003739,-76.423043,0.005451,
1190,1400,0.047330,-2.110548,0.999998,0.000181,-0.001239,0.002742,0.000601,0.002831,-0.001328,81.600302,0.002833,
1550,870,-1.143531,-5.974476,0.999998,0.000189,-0.003156,0.006242,-0.000603,0.006281,-0.003194,-86.345116,0.006281,
1070,190,0.093157,-9.524173,0.999998,0.000152,-0.000655,0.003494,0.000162,0.003500,-0.000662,87.767673,0.003719,
1510,630,-0.563920,-7.503546,0.999997,0.000225,-0.002935,0.005223,0.000722,0.005286,-0.002999,84.982442,0.005302,
570,2020,0.135276,-0.124061,0.999966,0.000000,0.000907,0.007321,-0.003999,0.009240,-0.001012,-64.364028,0.010136,
1810,540,-1.279580,-7.446467,0.999997,0.000198,-0.002554,0.005122,0.000033,0.005122,-0.002555,89.756703,0.005122,
1450,480,-0.328711,-8.333566,0.999997,0.000187,-0.001998,0.004342,0.000569,0.004393,-0.002049,84.907878,0.004396,
1800,1320,-1.576304,-3.620670,0.999997,0.000196,-0.002569,0.005108,0.000297,0.005119,-0.002580,87.789126,0.005119,
600,860,1.939751,-5.781258,0.999998,0.000163,-0.002242,0.004609,0.000217,0.004616,-0.002248,88.188159,0.004617,
790,1320,1.225028,-3.471864,0.999997,0.000212,-0.002996,0.005600,-0.000305,0.005611,-0.003007,-87.973381,0.005616,
1000,770,0.574113,-6.856798,0.999996,0.000244,-0.003761,0.006052,-0.000948,0.006143,-0.003852,-84.529805,0.006209,
1840,1820,-0.845588,-1.137758,0.999998,0.000163,-0.002443,0.005049,0.000153,0.005052,-0.002446,88.827769,0.005053,
880,390,0.530055,-8.553036,0.999997,0.000214,-0.002116,0.004702,-0.000133,0.004704,-0.002119,-88.884670,0.004712,
770,1390,1.158217,-3.112958,0.999998,0.000187,-0.002884,0.005418,-0.000110,0.005420,-0.002885,-89.242584,0.005424,
1030,1780,0.189609,-0.888010,0.999998,0.000169,-0.001182,0.003863,-0.000028,0.003864,-0.001183,-89.679915,0.003959,
930,780,0.855797,-6.578813,0.999998,0.000154,-0.003617,0.006257,-0.000136,0.006258,-0.003618,-89.209994,0.006284,
590,300,1.063218,-8.552004,0.999998,0.000180,-0.002389,0.004916,-0.000028,0.004916,-0.002389,-89.776745,0.004916,
1320,1840,-0.056024,-0.625572,0.999999,0.000143,-0.000701,0.003429,0.000046,0.003430,-0.000701,89.356392,0.003624,
940,180,0.191611,-9.512092,0.999998,0.000169,-0.000940,0.003853,0.000399,0.003886,-0.000973,85.270242,0.004045,
1470,130,-0.096234,-9.713881,0.999998,0.000162,-0.000489,0.003514,-0.000371,0.003548,-0.000523,-84.745891,0.003831,
1840,850,-1.869357,-5.849518,0.999998,0.000179,-0.002334,0.004760,-0.000319,0.004775,-0.002348,-87.433789,0.004775,
1320,270,-0.072327,-9.262622,0.999998,0.000147,-0.000891,0.003537,0.000021,0.003537,-0.000891,89.731676,0.003680,
1380,140,-0.058831,-9.696910,0.999998,0.000147,-0.000371,0.003317,-0.000191,0.003327,-0.000380,-87.038205,0.003642,
1630,2010,-0.050311,-0.089216,0.999999,0.000143,-0.000097,0.003523,0.000880,0.003725,-0.000299,77.033288,0.004140,
900,480,0.572825,-8.155750,0.999997,0.000209,-0.002347,0.004827,-0.000360,0.004845,-0.002365,-87.135728,0.004845,
810,1170,1.468520,-4.291219,0.999997,0.000201,-0.002577,0.005441,-0.000641,0.005492,-0.002628,-85.460413,0.005494,
640,1560,1.246186,-2.423706,0.999997,0.000214,-0.002527,0.005099,0.000074,0.005099,-0.002527,89.444502,0.005099,
680,1820,0.713799,-1.039997,0.999998,0.000185,-0.002303,0.005025,-0.000390,0.005046,-0.002324,-86.961718,0.005051,
870,1640,0.578060,-1.659542,0.999997,0.000196,-0.002150,0.004783,0.000180,0.004788,-0.002155,88.515161,0.004796,
1170,310,0.057936,-9.126843,0.999999,0.000134,-0.000903,0.003585,-0.000005,0.003585,-0.000903,-89.940101,0.003730,
970,80,0.058463,-9.882201,0.999998,0.000176,-0.000406,0.003398,0.000413,0.003442,-0.000450,83.880969,0.003742,
1070,170,0.081430,-9.592667,0.999998,0.000140,-0.000587,0.003451,0.000183,0.003459,-0.000595,87.414887,0.003699,
1880,1380,-1.673038,-3.430074,0.999996,0.000230,-0.002488,0.005060,0.000051,0.005060,-0.002488,89.612412,0.005061,
1560,610,-0.689113,-7.500769,0.999998,0.000225,-0.002905,0.005287,0.000530,0.005321,-0.002940,86.310988,0.005331,
1590,1290,-1.021552,-3.523416,0.999998,0.000157,-0.003319,0.005976,0.000156,0.005979,-0.003322,89.038645,0.005991,
1360,1270,-0.236112,-2.805674,0.999998,0.000165,-0.002936,0.004245,-0.002238,0.004885,-0.003576,-74.031292,0.005057,
1420,1460,-0.307263,-2.192543,0.999998,0.000173,-0.002254,0.004402,-0.000970,0.004541,-0.002393,-81.876667,0.004543,
1890,1880,-0.806012,-0.949791,0.999998,0.000176,-0.002489,0.005026,0.000315,0.005040,-0.002502,87.601622,0.005040,
1030,1060,1.155261,-4.720107,0.999995,0.000281,-0.003781,0.009694,0.000799,0.009742,-0.003829,86.616538,0.009816,
590,1260,1.860428,-4.009125,0.999999,0.000147,-0.002361,0.004681,-0.000131,0.004684,-0.002363,-88.931687,0.004684,
1510,610,-0.546390,-7.607693,0.999997,0.000219,-0.002831,0.005142,0.000716,0.005205,-0.002895,84.905370,0.005216,
1150,700,0.098374,-7.767988,0.999998,0.000167,-0.001620,0.002954,-0.001384,0.003340,-0.002006,-74.411571,0.003363,
1720,740,-1.369265,-6.524989,0.999997,0.000201,-0.002839,0.005376,-0.000379,0.005394,-0.002856,-87.365144,0.005397,
750,340,0.746284,-8.618972,0.999997,0.000191,-0.002254,0.004986,0.000096,0.004987,-0.002255,89.240924,0.004995,
1770,370,-0.930535,-8.377772,0.999998,0.000180,-0.002415,0.005099,0.000029,0.005100,-0.002415,89.778384,0.005102,
570,30,0.090532,-9.993833,0.999972,0.000000,0.000661,0.007949,0.004458,0.010063,-0.001453,64.630275,0.010878,
600,840,1.908240,-5.872824,0.999998,0.000168,-0.002281,0.004671,0.000217,0.004677,-0.002287,88.214071,0.004678,
770,1350,1.227777,-3.331844,0.999998,0.000194,-0.002925,0.005479,-0.000236,0.005485,-0.002932,-88.392446,0.005490,
1160,1590,0.089082,-1.512976,0.999998,0.000153,-0.001341,0.003622,0.000292,0.003639,-0.001358,86.643347,0.003677,
910,780,0.926862,-6.535429,0.999997,0.000190,-0.003519,0.006195,0.000065,0.006196,-0.003520,89.616932,0.006215,
860,210,0.328492,-9.344130,0.999998,0.000198,-0.001404,0.004285,0.000472,0.004324,-0.001442,85.289496,0.004403,
1800,1300,-1.613209,-3.724727,0.999997,0.000201,-0.002548,0.005053,0.000337,0.005068,-0.002563,87.466430,0.005068,
1740,1090,-1.783893,-4.736243,0.999997,0.000179,-0.002206,0.004914,0.000301,0.004927,-0.002219,87.583939,0.004935,
1550,850,-1.088663,-6.100102,0.999997,0.000213,-0.003319,0.006268,-0.000479,0.006292,-0.003343,-87.145581,0.006296,
850,1490,0.788274,-2.444087,0.999997,0.000195,-0.002749,0.005226,0.000289,0.005236,-0.002759,87.929183,0.005239,
1380,1910,-0.061236,-0.399573,0.999998,0.000127,-0.000412,0.003399,0.000192,0.003409,-0.000422,87.129209,0.003716,
970,500,0.426910,-8.177770,0.999998,0.000214,-0.002223,0.004602,-0.000559,0.004647,-0.002269,-85.346815,0.004648,
730,1460,1.158683,-2.800431,0.999998,0.000173,-0.002701,0.005220,-0.000010,0.005220,-0.002701,-89.924965,0.005221,
590,1140,2.024992,-4.556649,0.999998,0.000169,-0.002109,0.004439,-0.000171,0.004443,-0.002113,-88.503180,0.004445,
1840,1800,-0.890890,-1.238817,0.999998,0.000170,-0.002408,0.005046,0.000094,0.005047,-0.002409,89.274905,0.005049,
1320,1820,-0.063239,-0.693496,0.999998,0.000150,-0.000752,0.003458,0.000027,0.003458,-0.000752,89.635256,0.003638,
1880,500,-1.397273,-7.541996,0.999997,0.000187,-0.002475,0.005080,0.000020,0.005080,-0.002475,89.846147,0.005081,
1120,140,0.042393,-9.701727,0.999999,0.000121,-0.000461,0.003250,0.000120,0.003254,-0.000465,88.144478,0.003520,
1380,120,-0.047844,-9.762176,0.999998,0.000156,-0.000302,0.003280,-0.000218,0.003293,-0.000315,-86.527937,0.003634,
1830,60,-0.203172,-9.882118,0.999997,0.000229,-0.001866,0.004971,-0.001477,0.005276,-0.002172,-78.314927,0.005303,
1890,1700,-1.200239,-1.831030,0.999998,0.000149,-0.002482,0.004864,0.000006,0.004864,-0.002482,89.952913,0.004864,
700,50,0.112154,-9.952663,0.999998,0.000196,-0.000640,0.004210,0.001620,0.004701,-0.001131,73.126958,0.004908,
680,1890,0.529107,-0.687809,0.999997,0.000221,-0.002064,0.005066,-0.000894,0.005176,-0.002174,-82.960861,0.005198,
1510,590,-0.530063,-7.710457,0.999997,0.000196,-0.002726,0.005019,0.000713,0.005085,-0.002791,84.785223,0.005093,
1560,590,-0.668149,-7.606431,0.999997,0.000214,-0.002812,0.005224,0.000513,0.005256,-0.002844,86.364319,0.005262,
1070,150,0.069625,-9.663324,0.999998,0.000131,-0.000499,0.003403,0.000192,0.003412,-0.000508,87.190337,0.003682,
810,1150,1.504335,-4.400138,0.999997,0.000211,-0.002458,0.005421,-0.000664,0.005477,-0.002513,-85.219920,0.005483,
980,600,0.462337,-7.721573,0.999997,0.000228,-0.002640,0.004927,-0.000810,0.005013,-0.002725,-83.960101,0.005019,
1710,1640,-0.847940,-1.832704,0.999999,0.000144,-0.002443,0.005046,-0.000100,0.005048,-0.002444,-89.234611,0.005049,
1220,1900,0.007627,-0.418894,0.999998,0.000158,-0.000468,0.003275,0.000007,0.003276,-0.000468,89.895759,0.003543,
1390,540,-0.233583,-8.178666,0.999998,0.000157,-0.001807,0.004012,0.000722,0.004100,-0.001895,83.028789,0.004104,
1270,1650,-0.044213,-1.286870,0.999998,0.000173,-0.001168,0.003553,-0.000122,0.003557,-0.001171,-88.524831,0.003625,
640,1580,1.217083,-2.322346,0.999997,0.000196,-0.002519,0.005085,0.000083,0.005086,-0.002520,89.374105,0.005086,
600,820,1.877921,-5.966438,0.999998,0.000158,-0.002279,0.004641,0.000185,0.004646,-0.002284,88.468596,0.004646,
1800,1280,-1.648163,-3.826405,0.999997,0.000207,-0.002512,0.005039,0.000392,0.005059,-0.002532,87.034325,0.005059,
900,460,0.554253,-8.249965,0.999997,0.000209,-0.002260,0.004747,-0.000340,0.004764,-0.002276,-87.227389,0.004765,
1520,210,-0.227121,-9.394147,0.999997,0.000196,-0.001124,0.003950,-0.000327,0.003971,-0.001145,-86.323069,0.004088,
1010,1060,1.215648,-4.768705,0.999995,0.000267,-0.002829,0.008271,0.000205,0.008274,-0.002833,88.939732,0.008410,
560,2020,0.119579,-0.136764,0.999966,0.000000,0.001220,0.007749,-0.004152,0.009766,-0.000797,-64.087418,0.010846,
730,340,0.793484,-8.590969,0.999997,0.000191,-0.002390,0.005027,0.000044,0.005028,-0.002390,89.659391,0.005030,
1380,100,-0.037718,-9.827922,0.999999,0.000147,-0.000233,0.003252,-0.000222,0.003266,-0.000247,-86.375334,0.003637,
1720,720,-1.331625,-6.631472,0.999998,0.000205,-0.002846,0.005384,-0.000320,0.005397,-0.002858,-87.779024,0.005400,
1680,120,-0.247122,-9.686579,0.999998,0.000180,-0.001117,0.004218,-0.001010,0.004403,-0.001301,-79.632978,0.004524,
1720,1090,-1.739832,-4.732716,0.999998,0.000188,-0.002204,0.004996,0.000336,0.005012,-0.002219,87.333722,0.005023,
850,620,0.856340,-7.344354,0.999998,0.000147,-0.002955,0.005386,-0.000257,0.005394,-0.002963,-88.238506,0.005402,
1590,1700,-0.506303,-1.372830,0.999997,0.000199,-0.002065,0.004605,-0.000067,0.004606,-0.002066,-89.426924,0.004614,
1100,270,0.110705,-9.244469,0.999998,0.000157,-0.000905,0.003614,0.000020,0.003614,-0.000905,89.747563,0.003762,
1020,980,1.157063,-5.457110,0.999995,0.000268,-0.003136,0.008370,-0.000604,0.008402,-0.003168,-87.003855,0.008486,
770,810,1.430758,-6.169347,0.999997,0.000196,-0.002802,0.005408,0.000537,0.005443,-0.002837,86.276778,0.005444,
1880,1700,-1.174695,-1.813627,0.999998,0.000155,-0.002483,0.004893,-0.000020,0.004893,-0.002483,-89.846505,0.004893,
1170,1440,0.076482,-2.019011,0.999999,0.000122,-0.001402,0.003138,0.000706,0.003245,-0.001509,81.360327,0.003248,
650,80,0.266599,-9.800989,0.999997,0.000199,-0.001222,0.005116,0.001806,0.005595,-0.001700,75.163314,0.005736,
680,1800,0.756641,-1.141407,0.999998,0.000190,-0.002327,0.005045,-0.000290,0.005057,-0.002338,-87.747789,0.005062,
980,1510,0.431374,-2.093280,0.999998,0.000194,-0.002392,0.004692,0.000706,0.004762,-0.002462,84.364930,0.004763,
730,230,0.588422,-9.142266,0.999998,0.000171,-0.002039,0.004883,0.000539,0.004924,-0.002081,85.573487,0.004944,
640,1600,1.187711,-2.219431,0.999997,0.000179,-0.002542,0.005086,0.000081,0.005087,-0.002543,89.395084,0.005087,
1800,910,-1.860013,-5.592132,0.999998,0.000139,-0.002262,0.004758,-0.000324,0.004773,-0.002277,-87.360443,0.004774,
1590,1270,-1.062389,-3.643017,0.999997,0.000203,-0.003309,0.006046,0.000279,0.006054,-0.003318,88.293154,0.006063,
950,80,0.065839,-9.877881,0.999999,0.000149,-0.000384,0.003420,0.000504,0.003485,-0.000450,82.579906,0.003791,
1360,1910,-0.052859,-0.398238,0.999998,0.000131,-0.000436,0.003357,0.000149,0.003362,-0.000441,87.754140,0.003654,
1330,580,-0.132247,-8.127701,0.999999,0.000151,-0.001554,0.003544,0.000717,0.003643,-0.001652,82.145466,0.003648,
1470,110,-0.076769,-9.784144,0.999998,0.000155,-0.000394,0.003456,-0.000403,0.003497,-0.000436,-84.093234,0.003812,
1140,1590,0.118208,-1.529772,0.999998,0.000196,-0.001400,0.003696,0.000379,0.003724,-0.001428,85.774935,0.003757,
1870,500,-1.372484,-7.556864,0.999997,0.000206,-0.002512,0.005074,0.000025,0.005075,-0.002512,89.814683,0.005075,
1720,430,-0.894512,-8.154386,0.999998,0.000170,-0.002475,0.005063,0.000100,0.005064,-0.002477,89.240670,0.005065,
1880,1880,-0.780015,-0.925412,0.999999,0.000171,-0.002463,0.005058,0.000325,0.005072,-0.002477,87.531219,0.005073,
1170,290,0.054883,-9.197847,0.999999,0.000141,-0.000840,0.003514,0.000018,0.003514,-0.000840,89.767182,0.003670,
1320,1800,-0.067498,-0.763149,0.999999,0.000138,-0.000838,0.003511,-0.000008,0.003511,-0.000838,-89.897043,0.003667,
1260,1410,-0.031925,-2.071601,0.999998,0.000168,-0.001181,0.002743,-0.000354,0.002775,-0.001213,-84.893180,0.002782,
1420,1440,-0.311892,-2.278538,0.999998,0.000180,-0.002349,0.004458,-0.001050,0.004616,-0.002508,-81.427952,0.004622,
1550,830,-1.036067,-6.224987,0.999997,0.000205,-0.003425,0.006294,-0.000378,0.006309,-0.003439,-87.773056,0.006317,
910,980,1.405553,-5.309360,0.999997,0.000218,-0.002006,0.005757,0.000489,0.005788,-0.002036,86.412219,0.005872,
1630,1770,-0.488401,-1.092180,0.999998,0.000198,-0.001748,0.004637,0.000295,0.004651,-0.001762,87.358782,0.004696,
1900,50,-0.268965,-9.838326,0.999992,0.000000,-0.000943,0.007552,-0.003576,0.008857,-0.002248,-69.950851,0.009208,
580,1260,1.884061,-4.023188,0.999999,0.000160,-0.002468,0.004626,-0.000058,0.004627,-0.002469,-89.529945,0.004630,
1120,120,0.038413,-9.765575,0.999999,0.000134,-0.000367,0.003239,0.000142,0.003244,-0.000373,87.751703,0.003551,
1510,570,-0.514268,-7.809454,0.999997,0.000181,-0.002595,0.004933,0.000657,0.004990,-0.002652,85.052068,0.004994,
1470,940,-1.116153,-5.681223,0.999996,0.000214,-0.002908,0.007245,-0.000174,0.007248,-0.002911,-89.017333,0.007295,
690,1320,1.505751,-3.590221,0.999998,0.000207,-0.002647,0.005226,-0.000332,0.005240,-0.002661,-87.587239,0.005240,
900,440,0.538073,-8.344473,0.999997,0.000208,-0.002202,0.004720,-0.000287,0.004732,-0.002213,-87.629518,0.004735,
1720,700,-1.296090,-6.740340,0.999997,0.000211,-0.002855,0.005371,-0.000246,0.005378,-0.002862,-88.286869,0.005382,
980,580,0.451280,-7.815817,0.999997,0.000210,-0.002544,0.004813,-0.000774,0.004893,-0.002624,-84.059803,0.004897,
1080,270,0.130639,-9.237964,0.999998,0.000174,-0.000908,0.003660,0.000057,0.003661,-0.000908,89.285304,0.003812,
1020,960,1.104275,-5.623104,0.999996,0.000246,-0.003070,0.008170,-0.000654,0.008208,-0.003108,-86.681821,0.008288,
1500,210,-0.201881,-9.406307,0.999998,0.000184,-0.001131,0.003893,-0.000269,0.003908,-0.001145,-86.946185,0.004018,
1680,100,-0.191084,-9.772506,0.999998,0.000163,-0.000916,0.004057,-0.001043,0.004267,-0.001126,-78.619998,0.004423,
600,800,1.847288,-6.058337,0.999998,0.000160,-0.002309,0.004712,0.000189,0.004717,-0.002314,88.456993,0.004717,
560,2010,0.205199,-0.220367,0.999966,0.000000,0.000487,0.007246,-0.003667,0.008853,-0.001120,-66.329752,0.009641,
940,160,0.169237,-9.587236,0.999998,0.000156,-0.000847,0.003793,0.000452,0.003837,-0.000891,84.492108,0.004016,
1530,1780,-0.311899,-0.954534,0.999997,0.000189,-0.001416,0.004185,0.000165,0.004189,-0.001421,88.311338,0.004261,
1600,1250,-1.140147,-3.781069,0.999998,0.000188,-0.003224,0.005995,0.000446,0.006016,-0.003245,87.237487,0.006022,
1060,1450,0.271183,-2.194814,0.999997,0.000194,-0.002199,0.004277,0.001083,0.004453,-0.002376,80.754717,0.004457,
680,1780,0.797513,-1.241368,0.999997,0.000182,-0.002370,0.005041,-0.000205,0.005047,-0.002376,-88.415849,0.005050,
960,1510,0.480244,-2.134798,0.999997,0.000186,-0.002459,0.004810,0.000640,0.004865,-0.002515,85.010066,0.004866,
810,740,1.173131,-6.607465,0.999997,0.000209,-0.003050,0.005674,0.000272,0.005682,-0.003058,88.217318,0.005688,
850,1470,0.811722,-2.547825,0.999997,0.000193,-0.002812,0.005302,0.000301,0.005313,-0.002823,87.880923,0.005317,
810,1130,1.539625,-4.509326,0.999997,0.000215,-0.002345,0.005365,-0.000593,0.005410,-0.002391,-85.628323,0.005422,
730,210,0.539351,-9.239043,0.999997,0.000194,-0.001957,0.004892,0.000637,0.004951,-0.002016,84.735062,0.004979,
770,790,1.391218,-6.279306,0.999998,0.000190,-0.002843,0.005497,0.000508,0.005528,-0.002874,86.527672,0.005529,
1840,1780,-0.934619,-1.339379,0.999998,0.000169,-0.002408,0.005011,0.000048,0.005011,-0.002409,89.630964,0.005013,
700,40,0.080282,-9.993741,0.999998,0.000160,-0.000509,0.004090,0.001584,0.004583,-0.001002,72.718303,0.004819,
850,900,1.395637,-5.729620,0.999998,0.000192,-0.002600,0.005601,0.000694,0.005659,-0.002659,85.198623,0.005663,
990,340,0.285903,-8.902231,0.999998,0.000155,-0.001445,0.004119,-0.000079,0.004120,-0.001446,-89.188651,0.004181,
750,1200,1.569313,-4.165321,0.999998,0.000203,-0.002565,0.005257,-0.000557,0.005297,-0.002605,-85.950674,0.005297,
1170,270,0.050695,-9.268647,0.999999,0.000145,-0.000763,0.003489,0.000009,0.003489,-0.000763,89.875895,0.003668,
1810,1240,-1.743638,-4.035844,0.999998,0.000184,-0.002434,0.004888,0.000377,0.004907,-0.002454,87.058557,0.004907,
660,1650,1.064754,-1.933588,0.999998,0.000157,-0.002471,0.005053,0.000059,0.005053,-0.002472,89.554306,0.005054,
1270,1630,-0.045187,-1.358389,0.999998,0.000175,-0.001212,0.003562,-0.000091,0.003563,-0.001214,-88.913310,0.003623,
1870,1880,-0.755723,-0.901699,0.999998,0.000189,-0.002442,0.005087,0.000337,0.005102,-0.002457,87.440414,0.005103,
1360,830,-0.324135,-7.081901,0.999997,0.000199,-0.003126,0.004389,0.002220,0.004996,-0.003733,74.716144,0.005195,
650,110,0.393214,-9.649674,0.999997,0.000215,-0.001675,0.005181,0.001325,0.005428,-0.001922,79.433210,0.005504,
1230,80,0.000805,-9.897067,0.999999,0.000138,-0.000191,0.003048,0.000017,0.003048,-0.000191,89.698942,0.003414,
1420,1420,-0.317879,-2.366405,0.999997,0.000191,-0.002461,0.004474,-0.001162,0.004664,-0.002651,-80.736931,0.004678,
980,1090,1.226655,-4.611619,0.999997,0.000204,-0.002436,0.006856,-0.000368,0.006870,-0.002451,-87.734654,0.006964,
1500,1910,-0.130891,-0.429314,0.999998,0.000136,-0.000790,0.003646,0.000402,0.003682,-0.000826,84.866099,0.003864,
730,580,1.136142,-7.359553,0.999998,0.000173,-0.002693,0.005222,-0.000046,0.005222,-0.002693,-89.667567,0.005223,
1590,1250,-1.108646,-3.766617,0.999998,0.000192,-0.003275,0.006059,0.000403,0.006076,-0.003292,87.534608,0.006083,
1320,1780,-0.072591,-0.834408,0.999999,0.000150,-0.000918,0.003545,-0.000025,0.003545,-0.000918,-89.681356,0.003680,
1260,1510,-0.035857,-1.769546,0.999998,0.000146,-0.001264,0.003262,-0.000222,0.003273,-0.001275,-87.203122,0.003299,
1680,430,-0.797615,-8.217049,0.999998,0.000160,-0.002419,0.005002,0.000110,0.005004,-0.002420,89.154799,0.005005,
1900,40,-0.182132,-9.917572,0.999998,0.000000,-0.000311,0.007905,-0.004175,0.009654,-0.002060,-67.268473,0.010169,
1770,570,-1.219966,-7.353889,0.999998,0.000165,-0.002634,0.005180,0.000012,0.005180,-0.002634,89.909419,0.005180,
570,1260,1.908690,-4.038248,0.999993,0.000337,-0.002531,0.004577,-0.000001,0.004577,-0.002531,-89.992348,0.004585,
980,560,0.441722,-7.913835,0.999997,0.000199,-0.002470,0.004737,-0.000731,0.004810,-0.002543,-84.267327,0.004813,
1630,1750,-0.521182,-1.186439,0.999998,0.000191,-0.001853,0.004613,0.000174,0.004618,-0.001858,88.460440,0.004647,
1510,550,-0.500932,-7.909149,0.999997,0.000190,-0.002489,0.004856,0.000596,0.004904,-0.002537,85.387446,0.004905,
1700,530,-0.976532,-7.673164,0.999998,0.000188,-0.002644,0.005198,0.000156,0.005201,-0.002648,88.860447,0.005201,
670,1320,1.558495,-3.614832,0.999998,0.000186,-0.002605,0.005149,-0.000334,0.005164,-0.002620,-87.537239,0.005164,
1550,810,-0.985223,-6.354025,0.999997,0.000204,-0.003507,0.006285,-0.000228,0.006290,-0.003513,-88.665812,0.006304,
920,310,0.370856,-8.962709,0.999998,0.000191,-0.001532,0.004316,0.000075,0.004317,-0.001533,89.261464,0.004376,
1010,1120,1.047655,-4.306693,0.999996,0.000221,-0.003076,0.007380,0.000238,0.007385,-0.003081,88.695743,0.007419,
560,2000,0.299103,-0.290213,0.999907,0.000000,-0.000244,0.007021,-0.003219,0.008242,-0.001465,-69.224933,0.008795,
770,770,1.350868,-6.391570,0.999997,0.000198,-0.002881,0.005515,0.000463,0.005540,-0.002906,86.855130,0.005542,
790,740,1.234565,-6.580069,0.999998,0.000177,-0.002983,0.005600,0.000329,0.005613,-0.002996,87.811336,0.005617,
750,1920,0.320435,-0.474274,0.999998,0.000178,-0.001145,0.004461,-0.001111,0.004673,-0.001357,-79.184560,0.004808,
680,1760,0.836844,-1.342500,0.999998,0.000180,-0.002410,0.005064,-0.000137,0.005066,-0.002413,-88.952109,0.005068,
1680,80,-0.147060,-9.851006,0.999998,0.000156,-0.000704,0.003913,-0.001061,0.004145,-0.000936,-77.662692,0.004347,
1720,680,-1.260874,-6.848068,0.999997,0.000197,-0.002848,0.005357,-0.000179,0.005361,-0.002852,-88.754223,0.005364,
600,780,1.811529,-6.155632,0.999998,0.000181,-0.002354,0.004871,0.000206,0.004877,-0.002360,88.367962,0.004878,
1130,700,0.133844,-7.707171,0.999998,0.000154,-0.001840,0.003369,-0.001540,0.003790,-0.002262,-74.700929,0.003813,
1580,1230,-1.123456,-3.872408,0.999996,0.000234,-0.003257,0.006060,0.000465,0.006083,-0.003280,87.146771,0.006090,
900,420,0.517473,-8.441424,0.999997,0.000216,-0.002166,0.004725,-0.000238,0.004733,-0.002174,-88.027954,0.004739,
1470,90,-0.060127,-9.851606,0.999999,0.000142,-0.000297,0.003359,-0.000387,0.003399,-0.000338,-84.023387,0.003745,
1380,1450,-0.222561,-2.139415,0.999998,0.000166,-0.001975,0.004026,-0.001036,0.004200,-0.002149,-80.471429,0.004201,
1690,1640,-0.801188,-1.802958,0.999999,0.000155,-0.002361,0.005014,-0.000085,0.005015,-0.002362,-89.336929,0.005018,
1530,1760,-0.335929,-1.042245,0.999998,0.000167,-0.001496,0.004268,0.000103,0.004270,-0.001497,88.976340,0.004333,
1640,1370,-1.034531,-3.142633,0.999998,0.000163,-0.003054,0.005586,0.000035,0.005586,-0.003054,89.769254,0.005594,
1070,130,0.058678,-9.727631,0.999998,0.000131,-0.000420,0.003328,0.000207,0.003339,-0.000431,86.855587,0.003633,
730,1200,1.619737,-4.179228,0.999998,0.000178,-0.002525,0.005152,-0.000537,0.005189,-0.002562,-86.014894,0.005189,
1800,1260,-1.683626,-3.926434,0.999997,0.000198,-0.002487,0.005022,0.000418,0.005046,-0.002510,86.824447,0.005046,
1020,940,1.036783,-5.783935,0.999997,0.000184,-0.003114,0.007615,-0.000582,0.007647,-0.003145,-86.905209,0.007687,
940,140,0.140512,-9.663816,0.999998,0.000174,-0.000712,0.003663,0.000466,0.003712,-0.000761,83.993785,0.003922,
840,310,0.513334,-8.879851,0.999997,0.000198,-0.001865,0.004591,0.000136,0.004594,-0.001868,88.797947,0.004620,
730,190,0.490976,-9.338124,0.999998,0.000180,-0.001826,0.004849,0.000736,0.004929,-0.001906,83.782520,0.004972,
640,1650,1.112907,-1.964678,0.999997,0.000209,-0.002464,0.005031,0.000071,0.005032,-0.002465,89.458407,0.005032,
1840,1760,-0.971936,-1.439424,0.999998,0.000180,-0.002427,0.005050,0.000006,0.005050,-0.002427,89.956530,0.005052,
970,360,0.332741,-8.798463,0.999998,0.000171,-0.001754,0.004234,-0.000200,0.004240,-0.001761,-88.090600,0.004260,
650,90,0.313019,-9.752465,0.999997,0.000203,-0.001399,0.005082,0.001665,0.005485,-0.001802,76.398668,0.005591,
1480,1910,-0.116097,-0.422276,0.999998,0.000147,-0.000605,0.003585,0.000375,0.003619,-0.000638,84.920218,0.003863,
980,1070,1.270554,-4.744919,0.999997,0.000209,-0.002237,0.006898,-0.000255,0.006905,-0.002244,-88.404178,0.007045,
1680,190,-0.403137,-9.380159,0.999997,0.000203,-0.001725,0.004597,-0.000651,0.004663,-0.001791,-84.177081,0.004705,
1390,80,-0.029287,-9.891662,0.999999,0.000136,-0.000213,0.003174,-0.000243,0.003191,-0.000230,-85.910411,0.003559,
950,1320,0.697572,-3.170181,0.999998,0.000157,-0.003546,0.005939,0.000570,0.005973,-0.003580,86.570751,0.006012,
1700,550,-1.004247,-7.569345,0.999998,0.000203,-0.002680,0.005209,0.000116,0.005211,-0.002681,89.161309,0.005212,
1510,530,-0.488024,-8.002597,0.999997,0.000192,-0.002402,0.004778,0.000553,0.004820,-0.002444,85.621338,0.004820,
1360,850,-0.391725,-6.992792,0.999996,0.000247,-0.002808,0.004246,0.002270,0.004913,-0.003475,73.616809,0.005052,
1270,1610,-0.047821,-1.429535,0.999998,0.000177,-0.001219,0.003533,-0.000115,0.003536,-0.001222,-88.613174,0.003591,
640,1130,1.928289,-4.570131,0.999998,0.000211,-0.002205,0.004654,-0.000301,0.004667,-0.002218,-87.493470,0.004669,
1590,1230,-1.154892,-3.885672,0.999997,0.000209,-0.003194,0.005987,0.000512,0.006015,-0.003222,86.818729,0.006020,
1420,1400,-0.326024,-2.462271,0.999997,0.000215,-0.002608,0.004630,-0.001276,0.004848,-0.002826,-80.291217,0.004870,
1720,660,-1.226837,-6.954778,0.999998,0.000185,-0.002819,0.005330,-0.000135,0.005333,-0.002821,-89.052789,0.005336,
970,1960,0.071837,-0.248296,0.999998,0.000169,-0.000468,0.003414,-0.000421,0.003459,-0.000513,-83.883160,0.003733,
900,330,0.423489,-8.856203,0.999998,0.000178,-0.001804,0.004498,-0.000003,0.004498,-0.001804,-89.973857,0.004527,
1660,430,-0.748675,-8.247716,0.999997,0.000201,-0.002370,0.004961,0.000141,0.004963,-0.002372,88.896426,0.004965,
1400,1670,-0.204485,-1.291295,0.999998,0.000149,-0.001490,0.003957,-0.000284,0.003971,-0.001505,-87.022151,0.004010,
900,400,0.498068,-8.533780,0.999997,0.000201,-0.002121,0.004665,-0.000212,0.004671,-0.002128,-88.212240,0.004678,
730,1920,0.341791,-0.483338,0.999998,0.000201,-0.001443,0.004595,-0.001088,0.004785,-0.001633,-80.090379,0.004865,
680,1740,0.872780,-1.444090,0.999998,0.000164,-0.002413,0.005069,-0.000063,0.005070,-0.002413,-89.517722,0.005072,
790,720,1.196512,-6.691521,0.999997,0.000190,-0.003008,0.005552,0.000255,0.005560,-0.003015,88.293587,0.005567,
1770,810,-1.633597,-6.105599,0.999998,0.000192,-0.002544,0.005113,-0.000482,0.005143,-0.002574,-86.413619,0.005143,
1320,1760,-0.078426,-0.905840,0.999999,0.000136,-0.000995,0.003559,-0.000051,0.003560,-0.000996,-89.358178,0.003673,
710,580,1.189159,-7.327963,0.999997,0.000207,-0.002695,0.005183,-0.000032,0.005183,-0.002695,-89.770733,0.005184,
770,750,1.312197,-6.499340,0.999997,0.000214,-0.002920,0.005494,0.000387,0.005511,-0.002938,87.374275,0.005515,
1830,1560,-1.262428,-2.434418,0.999998,0.000200,-0.002533,0.005122,-0.000064,0.005122,-0.002534,-89.522320,0.005122,
1590,1440,-0.781957,-2.666611,0.999998,0.000168,-0.002931,0.005380,-0.000343,0.005394,-0.002945,-87.641471,0.005402,
1800,1240,-1.719174,-4.026586,0.999998,0.000179,-0.002423,0.004925,0.000384,0.004945,-0.002443,87.015700,0.004945,
1180,1250,0.086338,-2.450621,0.999998,0.000188,-0.001788,0.001610,0.001369,0.002093,-0.002271,70.571099,0.002526,
1070,110,0.046048,-9.794319,0.999999,0.000154,-0.000318,0.003302,0.000236,0.003317,-0.000333,86.290103,0.003653,
1800,970,-1.918016,-5.307606,0.999998,0.000156,-0.002159,0.004634,-0.000129,0.004637,-0.002161,-88.913991,0.004640,
1290,1580,-0.072164,-1.541128,0.999998,0.000181,-0.001310,0.003548,-0.000214,0.003557,-0.001319,-87.487875,0.003597,
980,540,0.428422,-8.008598,0.999998,0.000187,-0.002375,0.004664,-0.000673,0.004728,-0.002439,-84.590448,0.004729,
730,170,0.437042,-9.432914,0.999997,0.000188,-0.001724,0.004771,0.000861,0.004883,-0.001837,82.576291,0.004933,
1440,1150,-0.887752,-4.024403,0.999998,0.000166,-0.003393,0.007228,-0.000617,0.007264,-0.003428,-86.687753,0.007268,
1090,640,0.210569,-7.816799,0.999998,0.000180,-0.002117,0.003987,-0.001236,0.004228,-0.002358,-78.977718,0.004237,
560,1990,0.365072,-0.355066,0.999883,0.000000,-0.001120,0.006200,-0.002991,0.007266,-0.002187,-70.372812,0.007456,
1470,70,-0.041001,-9.917727,0.999999,0.000114,-0.000190,0.003288,-0.000387,0.003331,-0.000233,-83.730528,0.003719,
1530,1740,-0.353337,-1.125820,0.999997,0.000184,-0.001566,0.004279,0.000021,0.004279,-0.001566,89.797935,0.004330,
1020,920,0.958752,-5.925145,0.999997,0.000208,-0.003246,0.007363,-0.000523,0.007389,-0.003272,-87.183608,0.007405,
1510,920,-1.167896,-5.722958,0.999997,0.000226,-0.002825,0.006520,-0.000611,0.006560,-0.002865,-86.272813,0.006577,
940,120,0.120485,-9.736386,0.999998,0.000170,-0.000590,0.003646,0.000502,0.003705,-0.000649,83.337865,0.003957,
1680,60,-0.097069,-9.929655,0.999998,0.000150,-0.000545,0.003768,-0.001039,0.004005,-0.000782,-77.141419,0.004246,
1840,1740,-1.009908,-1.542026,0.999998,0.000167,-0.002428,0.005052,-0.000013,0.005052,-0.002428,-89.900940,0.005053,
750,260,0.610756,-9.012883,0.999998,0.000152,-0.001972,0.004875,0.000422,0.004901,-0.001998,86.487630,0.004928,
930,1320,0.768173,-3.223375,0.999998,0.000213,-0.003509,0.005977,0.000379,0.005992,-0.003524,87.716350,0.006023,
600,760,1.777904,-6.254649,0.999998,0.000176,-0.002431,0.004890,0.000182,0.004895,-0.002436,88.573305,0.004895,
650,70,0.218573,-9.855141,0.999997,0.000182,-0.001068,0.004986,0.001834,0.005499,-0.001581,74.393655,0.005662,
1140,1190,0.392791,-2.806148,0.999998,0.000184,-0.001842,0.001936,0.001104,0.002235,-0.002141,74.847838,0.002528,
740,1010,1.767042,-5.126280,0.999998,0.000175,-0.002132,0.004913,0.000153,0.004917,-0.002135,88.753472,0.004931,
1270,1590,-0.047061,-1.499771,0.999998,0.000164,-0.001221,0.003490,-0.000123,0.003494,-0.001224,-88.501969,0.003545,
900,310,0.400797,-8.944899,0.999998,0.000164,-0.001684,0.004420,0.000083,0.004422,-0.001685,89.218744,0.004463,
1600,1010,-1.519936,-5.133787,0.999998,0.000188,-0.001905,0.005291,-0.000154,0.005294,-0.001909,-88.774022,0.005362,
1510,510,-0.474114,-8.098560,0.999997,0.000198,-0.002333,0.004730,0.000541,0.004771,-0.002374,85.645751,0.004771,
1160,1910,0.028363,-0.390296,0.999998,0.000161,-0.000379,0.003253,-0.000089,0.003255,-0.000381,-88.592607,0.003559,
950,1960,0.082906,-0.251729,0.999998,0.000192,-0.000469,0.003447,-0.000460,0.003501,-0.000522,-83.395229,0.003777,
840,290,0.484560,-8.970374,0.999997,0.000203,-0.001757,0.004590,0.000238,0.004599,-0.001766,87.859724,0.004640,
1720,640,-1.194734,-7.061358,0.999998,0.000184,-0.002802,0.005318,-0.000089,0.005319,-0.002803,-89.371059,0.005322,
620,1130,1.971609,-4.581496,0.999998,0.000166,-0.002190,0.004578,-0.000274,0.004589,-0.002201,-87.684337,0.004591,
1420,1380,-0.332766,-2.554808,0.999997,0.000205,-0.002734,0.004759,-0.001348,0.004994,-0.002969,-80.105384,0.005024,
570,700,1.748908,-6.503500,0.999876,0.001252,-0.003092,0.004576,0.000298,0.004588,-0.003104,87.777038,0.004682,
810,1110,1.566898,-4.614850,0.999997,0.000190,-0.002248,0.005242,-0.000491,0.005274,-0.002280,-86.262387,0.005291,
780,290,0.602803,-8.902446,0.999998,0.000197,-0.002125,0.004807,0.000220,0.004814,-0.002132,88.179953,0.004824,
1320,1740,-0.085080,-0.978618,0.999999,0.000138,-0.001048,0.003615,-0.000083,0.003616,-0.001050,-88.976948,0.003721,
680,1720,0.905038,-1.546494,0.999998,0.000162,-0.002395,0.005060,-0.000020,0.005060,-0.002396,-89.849629,0.005062,
730,1940,0.281855,-0.390834,0.999998,0.000173,-0.001253,0.004527,-0.001208,0.004769,-0.001496,-78.654153,0.004878,
1820,70,-0.229308,-9.845024,0.999997,0.000221,-0.001448,0.005074,-0.001671,0.005478,-0.001851,-76.431936,0.005573,
1820,390,-1.083428,-8.194127,0.999998,0.000181,-0.002474,0.005041,0.000044,0.005042,-0.002475,89.663551,0.005042,
1780,970,-1.874589,-5.312735,0.999998,0.000169,-0.002199,0.004709,-0.000178,0.004713,-0.002204,-88.526623,0.004717,
1670,1440,-1.014869,-2.806357,0.999998,0.000167,-0.002838,0.005376,-0.000074,0.005376,-0.002839,-89.484298,0.005379,
1590,1210,-1.204115,-4.006992,0.999997,0.000218,-0.003087,0.005968,0.000599,0.006008,-0.003126,86.230146,0.006010,
1370,80,-0.026228,-9.892337,0.999999,0.000136,-0.000160,0.003170,-0.000206,0.003182,-0.000172,-86.480800,0.003580,
1170,250,0.047208,-9.335184,0.999998,0.000144,-0.000724,0.003463,0.000034,0.003464,-0.000724,89.541313,0.003654,
560,1980,0.425409,-0.420339,0.999848,0.000000,-0.002188,0.005451,-0.002944,0.006454,-0.003191,-71.187096,0.006454,
770,1460,1.049855,-2.735720,0.999997,0.000179,-0.002777,0.005329,0.000065,0.005329,-0.002777,89.539698,0.005331,
590,1640,1.252905,-2.099148,0.999998,0.000181,-0.002295,0.004977,-0.000027,0.004977,-0.002295,-89.785858,0.004982,
730,150,0.384081,-9.529039,0.999997,0.000181,-0.001566,0.004718,0.000997,0.004873,-0.001720,81.200968,0.004942,
770,730,1.274394,-6.611986,0.999997,0.000207,-0.002941,0.005510,0.000328,0.005523,-0.002954,87.783436,0.005528,
1670,1990,-0.104893,-0.166983,0.999998,0.000169,-0.000626,0.003774,0.001007,0.003994,-0.000846,77.699794,0.004209,
1460,1980,-0.043736,-0.177159,0.999999,0.000157,-0.000205,0.003301,0.000398,0.003345,-0.000250,83.604307,0.003727,
900,620,0.708075,-7.440770,0.999997,0.000193,-0.002985,0.005357,-0.000463,0.005383,-0.003011,-86.835773,0.005395,
850,1450,0.836871,-2.655532,0.999997,0.000202,-0.002907,0.005354,0.000282,0.005364,-0.002917,88.047275,0.005370,
1030,1840,0.145403,-0.662861,0.999998,0.000170,-0.000924,0.003658,-0.000150,0.003663,-0.000928,-88.122603,0.003808,
1100,570,0.186865,-8.108533,0.999998,0.000159,-0.001803,0.003805,-0.000889,0.003943,-0.001941,-81.207616,0.003943,
1420,1150,-0.821096,-3.898944,0.999995,0.000256,-0.003386,0.006998,-0.001411,0.007186,-0.003574,-82.396297,0.007186,
1510,900,-1.104979,-5.853039,0.999997,0.000209,-0.003103,0.006567,-0.000554,0.006598,-0.003134,-86.732461,0.006601,
1020,900,0.876989,-6.073095,0.999997,0.000208,-0.003458,0.007177,-0.000513,0.007201,-0.003482,-87.243776,0.007203,
1780,1090,-1.872209,-4.743109,0.999998,0.000161,-0.002213,0.004732,0.000215,0.004739,-0.002220,88.225473,0.004742,
980,520,0.415822,-8.102891,0.999997,0.000203,-0.002240,0.004625,-0.000606,0.004678,-0.002293,-84.996957,0.004678,
1180,1230,0.118951,-2.484258,0.999998,0.000174,-0.002136,0.001612,0.001020,0.001871,-0.002395,75.716930,0.002518,
1630,1730,-0.546172,-1.277537,0.999997,0.000205,-0.001927,0.004720,0.000105,0.004722,-0.001928,89.098648,0.004748,
1020,1910,0.094654,-0.412569,0.999998,0.000190,-0.000544,0.003496,-0.000287,0.003516,-0.000564,-85.959348,0.003777,
850,1960,0.134765,-0.270605,0.999998,0.000155,-0.000576,0.003753,-0.000788,0.003893,-0.000715,-79.993231,0.004144,
1720,690,-1.278463,-6.793754,0.999997,0.000207,-0.002851,0.005362,-0.000204,0.005367,-0.002856,-88.580687,0.005370,
910,700,0.779844,-7.016865,0.999998,0.000165,-0.003335,0.005770,-0.000368,0.005785,-0.003350,-87.690508,0.005809,
1420,1360,-0.344869,-2.651647,0.999996,0.000218,-0.002907,0.004914,-0.001420,0.005164,-0.003157,-80.024476,0.005207,
1700,1890,-0.379374,-0.601670,0.999998,0.000180,-0.001481,0.004589,0.000914,0.004723,-0.001616,81.623836,0.004801,
1820,50,-0.140039,-9.941749,0.999996,0.000254,-0.001278,0.004558,-0.001675,0.005005,-0.001724,-75.068952,0.005085,
670,740,1.566958,-6.440079,0.999996,0.000227,-0.002564,0.005133,0.000332,0.005148,-0.002578,87.536904,0.005148,
1900,30,-0.093433,-9.996766,0.999998,0.000000,0.000119,0.007897,-0.004479,0.009940,-0.001924,-65.485135,0.010544,
1720,620,-1.162190,-7.166917,0.999998,0.000167,-0.002789,0.005304,-0.000047,0.005305,-0.002789,-89.664294,0.005307,
640,1980,0.256546,-0.259804,0.999997,0.000203,-0.001640,0.005170,-0.001595,0.005525,-0.001995,-77.452747,0.005596,
1840,830,-1.840283,-5.943688,0.999998,0.000182,-0.002336,0.004693,-0.000281,0.004705,-0.002347,-87.713951,0.004705,
680,1700,0.939099,-1.646655,0.999998,0.000183,-0.002402,0.005023,-0.000010,0.005023,-0.002402,-89.926320,0.005025,
1320,1720,-0.088149,-1.048843,0.999998,0.000167,-0.001100,0.003602,-0.000103,0.003604,-0.001102,-88.748525,0.003694,
790,700,1.158268,-6.803535,0.999997,0.000220,-0.002985,0.005535,0.000170,0.005538,-0.002989,88.857242,0.005544,
1510,490,-0.459209,-8.193822,0.999997,0.000194,-0.002249,0.004661,0.000492,0.004696,-0.002284,85.950182,0.004696,
880,490,0.629692,-8.072289,0.999998,0.000189,-0.002480,0.004931,-0.000353,0.004947,-0.002497,-87.282381,0.004947,
1170,230,0.041340,-9.407610,0.999998,0.000151,-0.000656,0.003426,0.000022,0.003426,-0.000656,89.686874,0.003637,
770,710,1.238189,-6.720714,0.999997,0.000209,-0.002940,0.005473,0.000272,0.005481,-0.002948,88.151338,0.005487,
930,80,0.074010,-9.875877,0.999998,0.000153,-0.000322,0.003452,0.000574,0.003538,-0.000407,81.534052,0.003871,
1550,790,-0.939256,-6.478750,0.999997,0.000207,-0.003544,0.006246,-0.000084,0.006247,-0.003545,-89.508747,0.006266,
1590,1190,-1.251595,-4.125901,0.999998,0.000187,-0.002953,0.005926,0.000665,0.005975,-0.003003,85.737281,0.005975,
1180,270,0.043004,-9.269418,0.999999,0.000136,-0.000785,0.003485,-0.000008,0.003485,-0.000785,-89.886411,0.003656,
900,380,0.477768,-8.627240,0.999997,0.000209,-0.002036,0.004585,-0.000132,0.004587,-0.002039,-88.860373,0.004597,
1840,1230,-1.831804,-4.112295,0.999998,0.000142,-0.002353,0.004703,0.000291,0.004715,-0.002365,87.639110,0.004715,
730,130,0.326524,-9.622328,0.999998,0.000181,-0.001417,0.004590,0.001134,0.004797,-0.001624,79.657030,0.004880,
1670,1970,-0.150547,-0.244651,0.999998,0.000171,-0.000777,0.003912,0.000981,0.004109,-0.000974,78.644357,0.004294,
810,1090,1.593164,-4.720425,0.999998,0.000168,-0.002152,0.005187,-0.000443,0.005213,-0.002178,-86.554575,0.005237,
850,1430,0.862478,-2.763010,0.999997,0.000193,-0.002961,0.005439,0.000264,0.005447,-0.002970,88.200165,0.005455,
620,870,1.908574,-5.752127,0.999998,0.000164,-0.002264,0.004694,0.000291,0.004707,-0.002276,87.612260,0.004707,
560,1970,0.508803,-0.462909,0.999660,0.000000,-0.003293,0.005498,-0.003101,0.006482,-0.004276,-72.399199,0.006591,
1700,1370,-1.213571,-3.231740,0.999998,0.000186,-0.002857,0.005440,0.000181,0.005444,-0.002861,88.747815,0.005446,
1080,1590,0.204879,-1.589817,0.999998,0.000178,-0.001645,0.003995,0.000507,0.004040,-0.001690,84.900452,0.004058,
980,500,0.405511,-8.194011,0.999998,0.000197,-0.002120,0.004547,-0.000550,0.004592,-0.002165,-85.315593,0.004595,
1000,1470,0.404512,-2.241635,0.999997,0.000216,-0.002504,0.004749,0.000858,0.004850,-0.002604,83.341511,0.004854,
1710,840,-1.533909,-5.996202,0.999997,0.000200,-0.002653,0.005327,-0.000595,0.005371,-0.002697,-85.760482,0.005371,
1020,880,0.798740,-6.216363,0.999997,0.000217,-0.003683,0.007004,-0.000594,0.007037,-0.003716,-86.826705,0.007041,
1690,900,-1.588814,-5.690231,0.999997,0.000220,-0.002434,0.005296,-0.000613,0.005344,-0.002482,-85.490779,0.005349,
1780,1070,-1.879914,-4.838485,0.999998,0.000139,-0.002179,0.004707,0.000115,0.004709,-0.002180,89.042675,0.004714,
1630,1710,-0.573047,-1.374411,0.999997,0.000205,-0.001971,0.004776,0.000092,0.004777,-0.001972,89.222789,0.004801,
1400,1910,-0.070518,-0.405312,0.999998,0.000125,-0.000526,0.003432,0.000229,0.003445,-0.000540,86.693060,0.003706,
600,690,1.656707,-6.601386,0.999997,0.000206,-0.002494,0.005063,0.000113,0.005064,-0.002496,89.146066,0.005064,
1890,2020,-0.138387,-0.125811,0.999997,0.000000,0.000578,0.007243,0.004082,0.009180,-0.001359,64.612661,0.009910,
1420,1340,-0.355128,-2.749328,0.999998,0.000178,-0.003085,0.005038,-0.001502,0.005307,-0.003354,-79.853101,0.005368,
850,1940,0.172233,-0.349079,0.999998,0.000175,-0.000733,0.003912,-0.000790,0.004043,-0.000864,-80.609925,0.004258,
1720,600,-1.130600,-7.273925,0.999998,0.000156,-0.002747,0.005284,0.000001,0.005284,-0.002747,89.992702,0.005285,
990,1040,1.285412,-4.953794,0.999997,0.000234,-0.002257,0.007290,-0.000010,0.007291,-0.002257,-89.939305,0.007465,
1140,1200,0.330697,-2.788184,0.999998,0.000195,-0.002017,0.002152,0.001183,0.002464,-0.002329,75.216312,0.002771,
1510,470,-0.442343,-8.287925,0.999997,0.000216,-0.002123,0.004607,0.000420,0.004633,-0.002150,86.442257,0.004637,
640,1960,0.350897,-0.368526,0.999996,0.000220,-0.001839,0.005210,-0.001357,0.005462,-0.002091,-79.473130,0.005512,
600,740,1.743224,-6.351859,0.999998,0.000178,-0.002461,0.004874,0.000174,0.004878,-0.002466,88.642764,0.004878,
1270,1570,-0.047645,-1.569974,0.999998,0.000158,-0.001223,0.003486,-0.000150,0.003491,-0.001228,-88.179947,0.003542,
1720,1950,-0.238752,-0.341401,0.999998,0.000183,-0.000860,0.004290,0.001232,0.004569,-0.001140,77.220040,0.004757,
860,490,0.680483,-8.038050,0.999998,0.000181,-0.002502,0.004975,-0.000309,0.004988,-0.002515,-87.634237,0.004988,
1320,1700,-0.094223,-1.122989,0.999999,0.000142,-0.001156,0.003641,-0.000156,0.003646,-0.001161,-88.142308,0.003725,
1680,50,-0.075296,-9.966185,0.999998,0.000146,-0.000434,0.003664,-0.001018,0.003903,-0.000673,-76.783530,0.004173,
720,690,1.342864,-6.762571,0.999998,0.000176,-0.002759,0.005317,0.000224,0.005323,-0.002765,88.414881,0.005324,
1840,810,-1.808494,-6.038931,0.999998,0.000186,-0.002385,0.004764,-0.000280,0.004774,-0.002396,-87.762626,0.004774,
930,820,0.950293,-6.324508,0.999998,0.000164,-0.003591,0.006412,0.000165,0.006415,-0.003594,89.053957,0.006431,
900,340,0.433620,-8.811480,0.999997,0.000182,-0.001868,0.004521,-0.000034,0.004521,-0.001868,-89.693447,0.004543,
770,690,1.201671,-6.829449,0.999998,0.000198,-0.002931,0.005450,0.000178,0.005454,-0.002935,88.782981,0.005459,
1550,770,-0.894136,-6.604886,0.999998,0.000178,-0.003536,0.006146,0.000037,0.006146,-0.003536,89.783482,0.006169,
1160,270,0.058157,-9.266253,0.999998,0.000155,-0.000796,0.003500,0.000010,0.003500,-0.000796,89.863307,0.003669,
910,80,0.079352,-9.873249,0.999999,0.000133,-0.000310,0.003491,0.000622,0.003590,-0.000409,80.942106,0.003931,
1590,1170,-1.302002,-4.245417,0.999997,0.000207,-0.002785,0.005897,0.000746,0.005960,-0.002849,85.121614,0.005962,
730,110,0.264068,-9.713312,0.999998,0.000166,-0.001220,0.004449,0.001207,0.004695,-0.001466,78.468975,0.004804,
680,1680,0.969493,-1.748212,0.999998,0.000166,-0.002435,0.005066,0.000033,0.005066,-0.002435,89.748208,0.005067,
1650,400,-0.688181,-8.412137,0.999998,0.000167,-0.002302,0.004939,0.000101,0.004940,-0.002303,89.197229,0.004944,
1770,620,-1.297486,-7.093841,0.999998,0.000166,-0.002662,0.005223,-0.000069,0.005224,-0.002663,-89.496260,0.005224,
1670,1950,-0.195101,-0.325544,0.999998,0.000190,-0.001003,0.004093,0.000985,0.004277,-0.001187,79.430285,0.004416,
1180,1590,0.064106,-1.503536,0.999998,0.000144,-0.001248,0.003540,0.000167,0.003546,-0.001254,88.003398,0.003596,
1750,820,-1.602139,-6.070497,0.999997,0.000214,-0.002569,0.005162,-0.000532,0.005198,-0.002606,-86.084601,0.005198,
1720,580,-1.101417,-7.380242,0.999998,0.000170,-0.002712,0.005256,0.000050,0.005257,-0.002712,89.637805,0.005257,
1740,890,-1.693756,-5.719131,0.999998,0.000170,-0.002411,0.005110,-0.000532,0.005148,-0.002449,-85.972705,0.005150,
1700,1350,-1.248173,-3.340988,0.999997,0.000233,-0.002887,0.005478,0.000254,0.005486,-0.002895,88.261268,0.005489,
980,480,0.396243,-8.283966,0.999998,0.000184,-0.002031,0.004480,-0.000484,0.004516,-0.002067,-85.769998,0.004521,
1020,1300,0.474911,-3.056341,0.999997,0.000219,-0.003628,0.005677,0.001276,0.005849,-0.003800,82.331009,0.005935,
940,1550,0.500455,-1.978668,0.999996,0.000214,-0.002324,0.004743,0.000488,0.004776,-0.002357,86.065775,0.004777,
1510,450,-0.430811,-8.379804,0.999997,0.000199,-0.002005,0.004532,0.000355,0.004551,-0.002025,86.900651,0.004561,
640,1940,0.432672,-0.473165,0.999996,0.000213,-0.002034,0.005254,-0.001062,0.005406,-0.002185,-81.874846,0.005439,
930,800,0.900372,-6.452320,0.999997,0.000184,-0.003622,0.006325,0.000008,0.006325,-0.003622,89.955495,0.006347,
1070,90,0.034434,-9.860072,0.999999,0.000148,-0.000256,0.003199,0.000228,0.003214,-0.000271,86.244721,0.003565,
1300,470,-0.084809,-8.550197,0.999998,0.000162,-0.001345,0.003597,0.000291,0.003614,-0.001362,86.639366,0.003650,
640,2020,0.076963,-0.076780,0.999997,0.000000,-0.001277,0.004377,-0.001597,0.004797,-0.001697,-75.265402,0.004865,
1460,1960,-0.061794,-0.244742,0.999999,0.000169,-0.000300,0.003345,0.000360,0.003380,-0.000335,84.407033,0.003725,
1820,1230,-1.783695,-4.093365,0.999998,0.000163,-0.002406,0.004796,0.000351,0.004813,-0.002423,87.217736,0.004813,
1320,1680,-0.097906,-1.195520,0.999998,0.000152,-0.001212,0.003662,-0.000186,0.003670,-0.001219,-87.820799,0.003738,
1630,1240,-1.256897,-3.876269,0.999997,0.000196,-0.003057,0.005795,0.000550,0.005829,-0.003091,86.459547,0.005833,
1680,1730,-0.652564,-1.343216,0.999998,0.000215,-0.002211,0.004919,0.000084,0.004920,-0.002212,89.326945,0.004928,
810,1070,1.611752,-4.821671,0.999998,0.000178,-0.002078,0.005130,-0.000262,0.005140,-0.002088,-87.920025,0.005170,
850,1410,0.889107,-2.873629,0.999998,0.000177,-0.003035,0.005537,0.000214,0.005543,-0.003040,88.569899,0.005551,
900,320,0.411629,-8.901584,0.999998,0.000167,-0.001740,0.004463,0.000041,0.004463,-0.001741,89.618595,0.004499,
1220,1860,0.008145,-0.550802,0.999998,0.000192,-0.000621,0.003322,-0.000005,0.003322,-0.000621,-89.925307,0.003533,
1760,1090,-1.827609,-4.739135,0.999998,0.000166,-0.002212,0.004835,0.000261,0.004844,-0.002221,87.880758,0.004850,
1740,130,-0.337850,-9.614592,0.999997,0.000216,-0.001582,0.004611,-0.001087,0.004796,-0.001767,-80.325481,0.004851,
1290,760,-0.066887,-7.683753,0.999996,0.000241,-0.001482,0.002100,0.001471,0.002626,-0.002008,70.303974,0.002746,
730,1960,0.222718,-0.303778,0.999998,0.000204,-0.001091,0.004204,-0.001185,0.004457,-0.001344,-77.943285,0.004572,
630,1880,0.666567,-0.814076,0.999997,0.000200,-0.002406,0.005212,-0.000452,0.005239,-0.002433,-86.619708,0.005243,
1020,1230,0.619465,-3.480663,0.999996,0.000253,-0.003912,0.006445,0.000988,0.006539,-0.004006,84.601260,0.006594,
1450,1960,-0.057963,-0.243266,0.999999,0.000154,-0.000308,0.003328,0.000331,0.003358,-0.000338,84.839444,0.003698,
1350,800,-0.228126,-7.272070,0.999997,0.000231,-0.002845,0.003968,0.002279,0.004660,-0.003537,73.108873,0.004864,
610,780,1.788563,-6.168999,0.999998,0.000161,-0.002393,0.004905,0.000246,0.004913,-0.002401,88.070520,0.004913,
1080,210,0.098862,-9.454756,0.999998,0.000162,-0.000673,0.003543,0.000156,0.003549,-0.000679,87.885804,0.003767,
1360,1630,-0.160436,-1.410981,0.999998,0.000188,-0.001347,0.003791,-0.000278,0.003806,-0.001362,-86.915056,0.003857,
1210,80,0.004364,-9.897625,0.999999,0.000169,-0.000214,0.003054,0.000029,0.003054,-0.000214,89.490519,0.003410,
1170,1720,0.062058,-1.043611,0.999999,0.000139,-0.000958,0.003549,0.000021,0.003549,-0.000958,89.728284,0.003672,
970,340,0.316704,-8.882855,0.999998,0.000171,-0.001668,0.004234,-0.000130,0.004237,-0.001671,-88.734416,0.004268,
1380,80,-0.027116,-9.892875,0.999999,0.000143,-0.000171,0.003173,-0.000223,0.003188,-0.000185,-86.203039,0.003579,
830,620,0.914704,-7.306338,0.999998,0.000150,-0.002910,0.005397,-0.000176,0.005401,-0.002914,-88.787867,0.005407,
1670,1930,-0.244083,-0.409423,0.999998,0.000192,-0.001193,0.004187,0.000891,0.004331,-0.001337,80.832749,0.004436,
1700,430,-0.846532,-8.185927,0.999998,0.000162,-0.002433,0.005033,0.000101,0.005035,-0.002435,89.226684,0.005036,
1660,1930,-0.230353,-0.403158,0.999998,0.000191,-0.001123,0.004128,0.000870,0.004269,-0.001263,80.829734,0.004386,
690,380,0.954491,-8.323291,0.999999,0.000138,-0.002439,0.005045,-0.000033,0.005046,-0.002439,-89.747255,0.005046,
1170,210,0.039251,-9.474007,0.999998,0.000152,-0.000596,0.003370,0.000048,0.003371,-0.000596,89.310865,0.003597,
590,700,1.698819,-6.534104,0.999997,0.000226,-0.002560,0.004996,0.000127,0.004999,-0.002562,89.039600,0.004999,
1720,560,-1.072037,-7.484856,0.999997,0.000201,-0.002692,0.005226,0.000063,0.005226,-0.002692,89.547168,0.005227,
1590,1150,-1.346108,-4.361591,0.999997,0.000201,-0.002607,0.005796,0.000696,0.005853,-0.002664,85.294016,0.005861,
610,1840,0.827679,-1.065392,0.999998,0.000147,-0.002428,0.005037,-0.000177,0.005041,-0.002432,-88.641272,0.005042,
1200,690,0.032713,-7.892225,0.999999,0.000135,-0.001128,0.002405,-0.000570,0.002495,-0.001218,-81.061824,0.002495,
600,720,1.707895,-6.449358,0.999997,0.000189,-0.002463,0.004939,0.000135,0.004942,-0.002465,88.954528,0.004942,
650,30,0.048414,-10.033666,0.999999,0.000000,-0.000596,0.004330,0.001889,0.004971,-0.001237,71.254893,0.005176,
1460,1940,-0.076974,-0.312498,0.999998,0.000183,-0.000400,0.003474,0.000390,0.003513,-0.000439,84.305515,0.003828,
1060,1590,0.239519,-1.616168,0.999998,0.000165,-0.001705,0.004065,0.000484,0.004105,-0.001745,85.240699,0.004120,
1270,1550,-0.048491,-1.638903,0.999998,0.000149,-0.001238,0.003440,-0.000181,0.003447,-0.001245,-87.789057,0.003491,
730,90,0.208190,-9.799334,0.999998,0.000164,-0.001052,0.004123,0.001183,0.004380,-0.001309,77.717120,0.004497,
980,900,1.017731,-5.918594,0.999998,0.000186,-0.003312,0.006883,0.000253,0.006889,-0.003318,88.577728,0.006891,
1130,1280,0.155759,-2.620579,0.999998,0.000183,-0.002339,0.003308,0.002138,0.004026,-0.003057,71.434562,0.004202,
700,1510,1.164873,-2.586026,0.999998,0.000173,-0.002626,0.005170,0.000054,0.005171,-0.002626,89.604522,0.005171,
1320,1660,-0.102203,-1.268238,0.999998,0.000160,-0.001267,0.003657,-0.000234,0.003668,-0.001278,-87.288356,0.003724,
640,1920,0.507394,-0.579055,0.999997,0.000231,-0.002185,0.005242,-0.000901,0.005350,-0.002293,-83.182720,0.005368,
900,300,0.388573,-8.989135,0.999998,0.000160,-0.001637,0.004388,0.000129,0.004391,-0.001640,88.777084,0.004438,
1220,1320,0.010377,-2.262735,0.999998,0.000149,-0.001005,0.001735,0.000286,0.001764,-0.001034,84.097919,0.001773,
1650,1040,-1.619437,-4.975866,0.999996,0.000230,-0.002001,0.005133,0.000113,0.005134,-0.002003,89.093039,0.005176,
770,670,1.167588,-6.940434,0.999998,0.000194,-0.002899,0.005413,0.000117,0.005415,-0.002901,89.191830,0.005419,
1820,1070,-1.966603,-4.845223,0.999998,0.000185,-0.002134,0.004522,0.000089,0.004523,-0.002135,89.236981,0.004526,
1760,1760,-0.782018,-1.305631,0.999998,0.000173,-0.002401,0.005039,0.000128,0.005041,-0.002403,89.014260,0.005043,
850,1390,0.920561,-2.983636,0.999998,0.000176,-0.003079,0.005527,0.000141,0.005529,-0.003081,89.064155,0.005541,
1520,1890,-0.172456,-0.510966,0.999998,0.000178,-0.000848,0.003772,0.000414,0.003808,-0.000884,84.924876,0.003986,
1660,230,-0.447574,-9.213732,0.999998,0.000168,-0.001809,0.004590,-0.000454,0.004622,-0.001841,-85.963404,0.004654,
810,1050,1.619388,-4.923962,0.999998,0.000173,-0.002008,0.005101,-0.000187,0.005106,-0.002013,-88.495448,0.005144,
1630,1690,-0.598023,-1.468552,0.999997,0.000223,-0.002072,0.004780,0.000026,0.004781,-0.002072,89.784701,0.004795,
1610,1240,-1.195919,-3.852384,0.999998,0.000166,-0.003137,0.005907,0.000510,0.005936,-0.003166,86.781627,0.005940,
1400,870,-0.605040,-6.564233,0.999997,0.000202,-0.003532,0.006063,0.001705,0.006357,-0.003826,80.214767,0.006401,
1420,1320,-0.375091,-2.855568,0.999997,0.000191,-0.003266,0.005226,-0.001535,0.005495,-0.003535,-80.059700,0.005570,
590,780,1.834615,-6.141852,0.999997,0.000207,-0.002377,0.004824,0.000140,0.004826,-0.002379,88.883603,0.004826,
1060,210,0.113417,-9.447829,0.999998,0.000172,-0.000819,0.003578,0.000123,0.003582,-0.000823,88.403772,0.003752,
1190,80,0.009015,-9.896734,0.999998,0.000167,-0.000167,0.003072,0.000066,0.003074,-0.000169,88.833825,0.003456,
1380,60,-0.017903,-9.955067,0.999999,0.000139,-0.000084,0.003092,-0.000196,0.003104,-0.000096,-86.477143,0.003530,
1420,1850,-0.126072,-0.621116,0.999998,0.000183,-0.000882,0.003614,0.000152,0.003619,-0.000887,88.063509,0.003773,
1890,30,-0.093028,-9.996935,0.999998,0.000000,0.000216,0.007570,-0.004317,0.009563,-0.001777,-65.212536,0.010173,
1800,450,-1.123239,-7.923602,0.999998,0.000168,-0.002513,0.005074,0.000093,0.005075,-0.002514,89.299416,0.005075,
1270,760,-0.040776,-7.736919,0.999999,0.000138,-0.001220,0.001689,0.001039,0.002022,-0.001554,72.226686,0.002117,
1560,1950,-0.115058,-0.294490,0.999998,0.000156,-0.000531,0.003654,0.000632,0.003747,-0.000624,81.596696,0.004016,
810,2010,0.052716,-0.090528,0.999999,0.000133,-0.000295,0.003557,-0.000931,0.003770,-0.000508,-77.096547,0.004092,
810,400,0.694818,-8.407145,0.999997,0.000208,-0.002345,0.004912,-0.000112,0.004913,-0.002346,-89.116515,0.004915,
770,1700,0.725839,-1.509488,0.999998,0.000159,-0.002219,0.004915,-0.000048,0.004915,-0.002220,-89.611310,0.004923,
1480,1430,-0.471766,-2.475684,0.999996,0.000234,-0.002803,0.005001,-0.000894,0.005102,-0.002904,-83.549188,0.005118,
1800,1220,-1.753361,-4.125145,0.999998,0.000177,-0.002379,0.004876,0.000385,0.004896,-0.002400,86.973452,0.004897,
1680,400,-0.757052,-8.368023,0.999997,0.000197,-0.002340,0.004995,0.000080,0.004996,-0.002341,89.374513,0.005000,
910,540,0.602922,-7.875054,0.999997,0.000191,-0.002583,0.005019,-0.000480,0.005049,-0.002613,-86.401734,0.005050,
1020,930,0.998357,-5.856126,0.999997,0.000193,-0.003162,0.007435,-0.000544,0.007463,-0.003190,-87.070216,0.007489,
1720,2010,-0.077033,-0.100347,0.999998,0.000160,-0.000156,0.003852,0.001322,0.004249,-0.000553,73.301336,0.004620,
1320,670,-0.111668,-7.843809,0.999998,0.000152,-0.001637,0.003173,0.001235,0.003471,-0.001935,76.412557,0.003479,
1840,1720,-1.043694,-1.642445,0.999998,0.000164,-0.002416,0.004989,-0.000045,0.004990,-0.002416,-89.649403,0.004990,
650,2020,0.070670,-0.066181,0.999998,0.000000,-0.000627,0.004366,-0.001802,0.004949,-0.001210,-72.089520,0.005160,
580,700,1.722197,-6.518568,0.999997,0.000202,-0.002885,0.004803,0.000221,0.004809,-0.002892,88.354738,0.004842,
1720,540,-1.043899,-7.589185,0.999997,0.000213,-0.002677,0.005201,0.000090,0.005202,-0.002678,89.347545,0.005203,
950,1660,0.397262,-1.459865,0.999997,0.000194,-0.001852,0.004401,0.000216,0.004409,-0.001859,88.028292,0.004427,
1180,1310,0.056582,-2.345510,0.999998,0.000172,-0.001325,0.002100,0.001242,0.002503,-0.001728,72.022859,0.002563,
920,1550,0.547073,-2.012873,0.999997,0.000212,-0.002368,0.004805,0.000426,0.004830,-0.002393,86.616974,0.004831,
980,920,1.087077,-5.779509,0.999998,0.000181,-0.003051,0.006891,0.000312,0.006901,-0.003061,88.204309,0.006916,
930,1460,0.598766,-2.444830,0.999998,0.000196,-0.002789,0.005136,0.000581,0.005178,-0.002831,85.825678,0.005186,
1460,1920,-0.097748,-0.383410,0.999998,0.000143,-0.000485,0.003512,0.000356,0.003544,-0.000517,84.947250,0.003828,
1040,1590,0.272606,-1.641769,0.999998,0.000193,-0.001687,0.004135,0.000460,0.004171,-0.001723,85.509740,0.004192,
850,1370,0.951093,-3.095844,0.999997,0.000196,-0.003129,0.005634,0.000077,0.005635,-0.003129,89.497060,0.005646,
900,280,0.362940,-9.077437,0.999998,0.000165,-0.001519,0.004314,0.000192,0.004320,-0.001525,88.114563,0.004382,
810,1030,1.629725,-5.027128,0.999997,0.000188,-0.001983,0.005128,-0.000027,0.005128,-0.001983,-89.781470,0.005172,
1330,150,-0.040686,-9.669796,0.999999,0.000124,-0.000505,0.003290,-0.000104,0.003293,-0.000508,-88.426090,0.003546,
1800,1070,-1.923767,-4.841349,0.999998,0.000199,-0.002182,0.004629,0.000101,0.004630,-0.002183,89.153940,0.004633,
1220,1300,0.012608,-2.293813,0.999998,0.000157,-0.001053,0.001470,0.000309,0.001508,-0.001090,83.109162,0.001557,
590,320,1.099102,-8.451721,0.999998,0.000167,-0.002400,0.004953,-0.000042,0.004953,-0.002400,-89.673169,0.004954,
640,1900,0.578020,-0.685084,0.999998,0.000219,-0.002250,0.005220,-0.000727,0.005290,-0.002320,-84.489371,0.005304,
770,650,1.133142,-7.046979,0.999998,0.000182,-0.002857,0.005392,0.000068,0.005393,-0.002857,89.528779,0.005396,
710,240,0.654073,-9.061501,0.999997,0.000198,-0.002290,0.004981,0.000321,0.004995,-0.002304,87.474292,0.005000,
1170,190,0.033197,-9.541790,0.999998,0.000149,-0.000494,0.003353,0.000054,0.003354,-0.000495,89.203384,0.003621,
1550,750,-0.855194,-6.726617,0.999998,0.000200,-0.003527,0.006048,0.000158,0.006051,-0.003530,89.054297,0.006079,
1380,870,-0.533583,-6.721883,0.999995,0.000245,-0.002992,0.004989,0.002171,0.005542,-0.003544,75.724844,0.005613,
720,390,0.894595,-8.320209,0.999998,0.000203,-0.002446,0.005089,-0.000064,0.005090,-0.002446,-89.517111,0.005091,
940,100,0.092617,-9.810131,0.999998,0.000152,-0.000454,0.003517,0.000516,0.003582,-0.000520,82.718743,0.003872,
680,1660,1.000373,-1.851264,0.999998,0.000164,-0.002481,0.005079,0.000072,0.005079,-0.002482,89.451272,0.005080,
1090,1720,0.150453,-1.080999,0.999998,0.000178,-0.001134,0.003764,0.000068,0.003765,-0.001134,89.201602,0.003863,
1450,380,-0.277908,-8.758716,0.999998,0.000172,-0.001522,0.004164,0.000194,0.004171,-0.001529,88.043831,0.004220,
890,1960,0.107619,-0.261479,0.999998,0.000153,-0.000626,0.003605,-0.000644,0.003701,-0.000722,-81.539643,0.003923,
1150,400,0.093403,-8.796285,0.999998,0.000156,-0.001242,0.003631,-0.000198,0.003639,-0.001250,-87.672642,0.003698,
1630,1670,-0.624268,-1.564582,0.999997,0.000248,-0.002185,0.004845,-0.000085,0.004846,-0.002186,-89.308816,0.004854,
830,1820,0.412956,-0.864592,0.999998,0.000170,-0.001519,0.004545,-0.000485,0.004584,-0.001557,-85.458385,0.004662,
1590,1240,-1.131457,-3.826845,0.999998,0.000184,-0.003231,0.006015,0.000458,0.006038,-0.003254,87.170762,0.006044,
1900,220,-0.953569,-8.884114,0.999998,0.000000,-0.002358,0.004803,-0.000103,0.004805,-0.002359,-89.175036,0.004805,
1120,100,0.026728,-9.830542,0.999999,0.000141,-0.000290,0.003197,0.000135,0.003202,-0.000295,87.784355,0.003539,
1770,600,-1.266584,-7.197377,0.999998,0.000175,-0.002652,0.005202,-0.000040,0.005203,-0.002652,-89.706983,0.005203,
580,1080,2.093673,-4.819416,0.999998,0.000173,-0.001980,0.004121,-0.000009,0.004121,-0.001980,-89.918722,0.004122,
1220,840,0.045390,-7.687675,0.999994,0.000301,-0.004038,0.000783,0.000103,0.000785,-0.004040,88.771729,0.004284,
1380,1470,-0.220464,-2.060383,0.999998,0.000157,-0.001909,0.003986,-0.000923,0.004127,-0.002051,-81.308727,0.004127,
1420,210,-0.130866,-9.440891,0.999998,0.000223,-0.000931,0.003612,-0.000148,0.003617,-0.000935,-88.135580,0.003755,
650,60,0.176871,-9.903326,0.999997,0.000187,-0.000966,0.004723,0.001799,0.005244,-0.001487,73.845919,0.005405,
1350,1840,-0.079130,-0.634868,0.999998,0.000165,-0.000746,0.003482,0.000062,0.003482,-0.000747,89.153236,0.003667,
910,140,0.162933,-9.655525,0.999998,0.000150,-0.000694,0.003760,0.000571,0.003832,-0.000766,82.805441,0.004055,
1630,500,-0.757085,-7.944224,0.999997,0.000204,-0.002556,0.005102,0.000276,0.005112,-0.002566,87.941225,0.005112,
1680,420,-0.784554,-8.266431,0.999998,0.000165,-0.002387,0.004998,0.000090,0.004999,-0.002388,89.305343,0.005001,
660,30,0.046528,-10.032932,0.999999,0.000000,-0.000070,0.004282,0.001995,0.005059,-0.000846,68.739624,0.005419,
1370,1990,-0.019100,-0.139468,0.999998,0.000149,-0.000137,0.003114,0.000208,0.003127,-0.000150,86.361533,0.003527,
600,1140,2.003895,-4.548721,0.999998,0.000164,-0.002166,0.004475,-0.000204,0.004482,-0.002172,-88.240618,0.004482,
1270,1530,-0.049499,-1.707372,0.999999,0.000137,-0.001261,0.003360,-0.000190,0.003368,-0.001269,-87.654615,0.003402,
1490,1580,-0.405694,-1.784692,0.999997,0.000207,-0.002031,0.004498,-0.000447,0.004529,-0.002061,-86.099546,0.004535,
1720,520,-1.017099,-7.693548,0.999997,0.000192,-0.002632,0.005178,0.000128,0.005180,-0.002634,89.062148,0.005180,
1720,2000,-0.105308,-0.140175,0.999998,0.000171,-0.000322,0.003909,0.001285,0.004269,-0.000682,74.365985,0.004586,
1680,1370,-1.154984,-3.203968,0.999998,0.000178,-0.002955,0.005485,0.000136,0.005487,-0.002957,89.074156,0.005493,
1600,1710,-0.514623,-1.339968,0.999998,0.000169,-0.001997,0.004649,0.000015,0.004649,-0.001997,89.866457,0.004664,
850,1350,0.983748,-3.210337,0.999998,0.000188,-0.003173,0.005742,-0.000002,0.005742,-0.003173,-89.985142,0.005752,
1580,690,-0.854421,-7.015764,0.999998,0.000166,-0.003247,0.005697,0.000219,0.005703,-0.003252,88.596160,0.005722,
740,1650,0.868614,-1.804076,0.999998,0.000187,-0.002433,0.005097,0.000065,0.005098,-0.002434,89.502964,0.005100,
1320,650,-0.112789,-7.907762,0.999998,0.000175,-0.001599,0.003257,0.001066,0.003481,-0.001822,78.147078,0.003482,
1860,670,-1.614017,-6.706258,0.999997,0.000216,-0.002516,0.005051,-0.000098,0.005053,-0.002517,-89.255499,0.005053,
730,70,0.150676,-9.879109,0.999997,0.000187,-0.000754,0.004051,0.001312,0.004386,-0.001089,75.684842,0.004567,
1070,70,0.024278,-9.922974,0.999998,0.000165,-0.000184,0.003147,0.000230,0.003163,-0.000200,86.071275,0.003542,
1500,1150,-1.090787,-4.236845,0.999998,0.000183,-0.003113,0.006688,0.000477,0.006711,-0.003136,87.218266,0.006716,
1330,170,-0.048212,-9.605553,0.999998,0.000145,-0.000586,0.003327,-0.000085,0.003328,-0.000588,-88.751841,0.003553,
900,260,0.339940,-9.161721,0.999998,0.000170,-0.001444,0.004285,0.000255,0.004296,-0.001455,87.457391,0.004370,
1460,1900,-0.113985,-0.453445,0.999998,0.000169,-0.000571,0.003574,0.000341,0.003601,-0.000599,85.332395,0.003860,
810,1010,1.623099,-5.129907,0.999998,0.000176,-0.001960,0.005111,0.000169,0.005115,-0.001964,88.633881,0.005160,
570,1450,1.621125,-3.078105,0.999703,0.002050,-0.004282,0.004881,-0.000132,0.004883,-0.004283,-89.176669,0.005326,
1220,1280,0.013166,-2.319469,0.999998,0.000185,-0.001146,0.001244,0.000344,0.001292,-0.001194,81.965478,0.001439,
1170,170,0.032755,-9.607566,0.999998,0.000166,-0.000423,0.003324,0.000065,0.003325,-0.000424,89.000707,0.003619,
1590,1130,-1.387807,-4.478305,0.999997,0.000218,-0.002437,0.005707,0.000711,0.005769,-0.002499,85.050509,0.005786,
1550,730,-0.818472,-6.847192,0.999998,0.000229,-0.003482,0.005946,0.000268,0.005954,-0.003489,88.371913,0.005983,
1760,1720,-0.849787,-1.507892,0.999998,0.000172,-0.002431,0.005055,0.000019,0.005055,-0.002431,89.857977,0.005056,
1770,40,-0.084236,-9.993316,0.999998,0.000193,-0.000361,0.004052,-0.001635,0.004592,-0.000901,-71.729441,0.004866,
690,240,0.699728,-9.030412,0.999998,0.000191,-0.002327,0.005016,0.000346,0.005032,-0.002343,87.307237,0.005036,
980,940,1.154352,-5.642702,0.999997,0.000183,-0.002758,0.006990,0.000389,0.007006,-0.002773,87.720162,0.007056,
590,1990,0.322051,-0.304694,0.999996,0.000255,-0.001842,0.005920,-0.001813,0.006323,-0.002244,-77.480069,0.006411,
1390,460,-0.215951,-8.500608,0.999998,0.000164,-0.001680,0.003994,0.000507,0.004039,-0.001725,84.936093,0.004053,
1010,340,0.259344,-8.917794,0.999998,0.000175,-0.001386,0.004030,-0.000087,0.004031,-0.001387,-89.074681,0.004096,
640,1880,0.643007,-0.790437,0.999998,0.000198,-0.002293,0.005213,-0.000593,0.005259,-0.002340,-85.512581,0.005270,
570,1080,2.113652,-4.823311,0.999991,0.000367,-0.001948,0.004065,-0.000003,0.004065,-0.001948,-89.972588,0.004066,
920,410,0.465424,-8.514536,0.999997,0.000181,-0.002026,0.004596,-0.000226,0.004604,-0.002034,-88.046207,0.004614,
720,550,1.119360,-7.500590,0.999998,0.000148,-0.002664,0.005218,-0.000073,0.005219,-0.002665,-89.471106,0.005219,
1850,1820,-0.869712,-1.158775,0.999999,0.000141,-0.002459,0.005004,0.000136,0.005007,-0.002461,88.952907,0.005007,
1590,1220,-1.178758,-3.945460,0.999997,0.000232,-0.003145,0.005975,0.000558,0.006009,-0.003180,86.509274,0.006012,
1100,210,0.086580,-9.458083,0.999999,0.000129,-0.000694,0.003524,0.000117,0.003527,-0.000697,88.411649,0.003736,
1680,440,-0.810296,-8.166904,0.999998,0.000174,-0.002465,0.005010,0.000132,0.005012,-0.002467,88.990526,0.005012,
1850,320,-1.043377,-8.494903,0.999997,0.000214,-0.002418,0.004998,0.000050,0.004999,-0.002419,89.615326,0.005000,
850,160,0.255895,-9.551048,0.999998,0.000191,-0.001080,0.004168,0.000690,0.004257,-0.001170,82.628925,0.004399,
1370,1970,-0.029721,-0.204641,0.999998,0.000151,-0.000208,0.003174,0.000202,0.003186,-0.000220,86.597326,0.003559,
1240,1650,-0.008860,-1.278963,0.999998,0.000161,-0.001165,0.003538,-0.000070,0.003539,-0.001166,-89.146857,0.003607,
1470,1700,-0.292222,-1.235638,0.999998,0.000168,-0.001469,0.004131,-0.000130,0.004134,-0.001472,-88.672343,0.004191,
770,30,0.035324,-10.036760,0.999998,0.000000,0.000087,0.003702,0.001213,0.004072,-0.000282,73.065941,0.004547,
1580,1710,-0.473913,-1.313718,0.999998,0.000178,-0.002055,0.004564,-0.000051,0.004564,-0.002055,-89.561471,0.004571,
1720,500,-0.989618,-7.796920,0.999998,0.000173,-0.002590,0.005149,0.000132,0.005151,-0.002592,89.019627,0.005151,
1480,1150,-1.024662,-4.184616,0.999997,0.000188,-0.003300,0.006916,0.000242,0.006922,-0.003305,88.642548,0.006925,
900,240,0.311905,-9.248721,0.999998,0.000167,-0.001330,0.004247,0.000331,0.004267,-0.001350,86.612195,0.004362,
1300,1570,-0.086653,-1.582975,0.999998,0.000167,-0.001373,0.003564,-0.000329,0.003586,-0.001395,-86.207383,0.003615,
1780,270,-0.781133,-8.868575,0.999997,0.000188,-0.002362,0.005023,-0.000226,0.005030,-0.002369,-88.245887,0.005032,
850,1330,1.021250,-3.326715,0.999998,0.000181,-0.003219,0.005815,-0.000090,0.005816,-0.003220,-89.428024,0.005827,
810,990,1.614478,-5.230484,0.999998,0.000168,-0.002024,0.005103,0.000254,0.005112,-0.002033,87.962076,0.005148,
1840,1700,-1.078436,-1.740676,0.999998,0.000179,-0.002417,0.004990,-0.000048,0.004990,-0.002417,-89.627687,0.004991,
1140,690,0.116343,-7.769774,0.999998,0.000160,-0.001714,0.003192,-0.001413,0.003570,-0.002092,-75.024451,0.003587,
1660,1370,-1.095343,-3.173333,0.999998,0.000176,-0.003018,0.005533,0.000090,0.005534,-0.003019,89.394213,0.005541,
1330,190,-0.055105,-9.537045,0.999998,0.000181,-0.000667,0.003425,-0.000062,0.003426,-0.000668,-89.135637,0.003633,
1900,230,-0.978773,-8.835159,0.999998,0.000000,-0.002328,0.004783,-0.000076,0.004784,-0.002329,-89.390358,0.004784,
1220,1260,0.014877,-2.341757,0.999997,0.000202,-0.001473,0.001082,0.000315,0.001120,-0.001511,83.078553,0.001569,
770,630,1.102919,-7.155727,0.999998,0.000183,-0.002822,0.005351,-0.000003,0.005351,-0.002822,-89.978217,0.005353,
1460,1880,-0.134470,-0.525847,0.999998,0.000155,-0.000654,0.003613,0.000288,0.003632,-0.000673,86.160931,0.003864,
980,960,1.212275,-5.502576,0.999997,0.000201,-0.002495,0.006929,0.000374,0.006943,-0.002510,87.732767,0.007032,
1070,1720,0.172690,-1.090705,0.999999,0.000136,-0.001197,0.003811,0.000084,0.003812,-0.001198,89.038808,0.003899,
1740,1270,-1.509281,-3.818460,0.999998,0.000217,-0.002700,0.005239,0.000472,0.005267,-0.002728,86.607617,0.005268,
1630,1650,-0.648533,-1.662943,0.999997,0.000219,-0.002281,0.004874,-0.000124,0.004876,-0.002283,-89.009407,0.004880,
1270,1510,-0.049524,-1.774255,0.999998,0.000152,-0.001269,0.003295,-0.000237,0.003307,-0.001281,-87.037890,0.003335,
580,1990,0.342605,-0.322773,0.999995,0.000253,-0.001527,0.006050,-0.002156,0.006620,-0.002097,-75.179594,0.006766,
710,80,0.207676,-9.824794,0.999998,0.000174,-0.001259,0.004260,0.001318,0.004559,-0.001558,77.234341,0.004635,
1390,440,-0.209321,-8.580282,0.999999,0.000145,-0.001605,0.003992,0.000442,0.004027,-0.001640,85.508983,0.004050,
870,1960,0.122926,-0.266863,0.999998,0.000179,-0.000665,0.003671,-0.000702,0.003781,-0.000775,-81.029508,0.003995,
1740,830,-1.594345,-6.026671,0.999998,0.000179,-0.002583,0.005190,-0.000548,0.005229,-0.002621,-85.989590,0.005229,
600,1160,1.983035,-4.459109,0.999998,0.000143,-0.002162,0.004439,-0.000151,0.004443,-0.002166,-88.692797,0.004443,
1090,80,0.026834,-9.892126,0.999999,0.000136,-0.000182,0.003156,0.000208,0.003169,-0.000195,86.442136,0.003552,
670,500,1.177502,-7.679474,0.999998,0.000206,-0.002566,0.005122,-0.000082,0.005123,-0.002566,-89.387411,0.005123,
970,600,0.490468,-7.698384,0.999997,0.000230,-0.002713,0.004993,-0.000764,0.005068,-0.002788,-84.394382,0.005076,
1550,710,-0.785084,-6.965010,0.999998,0.000200,-0.003391,0.005801,0.000348,0.005815,-0.003404,87.833527,0.005843,
1760,1180,-1.718856,-4.294759,0.999997,0.000203,-0.002438,0.005031,0.000536,0.005069,-0.002476,85.912719,0.005070,
1720,1990,-0.129649,-0.178370,0.999998,0.000172,-0.000454,0.003979,0.001269,0.004317,-0.000791,75.108227,0.004596,
1190,1900,0.018048,-0.420905,0.999998,0.000140,-0.000417,0.003271,-0.000049,0.003272,-0.000418,-89.234611,0.003561,
1100,790,0.250934,-7.236147,0.999997,0.000197,-0.003031,0.004373,-0.002236,0.004995,-0.003654,-74.435094,0.005171,
1170,150,0.025313,-9.675862,0.999998,0.000140,-0.000353,0.003255,0.000101,0.003258,-0.000356,88.405597,0.003575,
1840,750,-1.703789,-6.333180,0.999998,0.000164,-0.002473,0.004946,-0.000254,0.004954,-0.002482,-88.038555,0.004954,
1370,1950,-0.036895,-0.267294,0.999998,0.000148,-0.000269,0.003232,0.000195,0.003243,-0.000280,86.819896,0.003594,
1870,300,-1.054830,-8.558068,0.999998,0.000174,-0.002419,0.004956,0.000013,0.004956,-0.002419,89.898567,0.004957,
640,1860,0.700209,-0.894421,0.999997,0.000198,-0.002311,0.005138,-0.000444,0.005165,-0.002337,-86.600690,0.005173,
1760,1150,-1.762658,-4.446268,0.999998,0.000189,-0.002327,0.004897,0.000414,0.004921,-0.002351,86.731447,0.004923,
1120,80,0.023765,-9.894005,0.999999,0.000141,-0.000197,0.003113,0.000158,0.003120,-0.000205,87.273266,0.003491,
860,250,0.391715,-9.169825,0.999998,0.000192,-0.001648,0.004415,0.000340,0.004434,-0.001667,86.799616,0.004479,
1680,460,-0.836172,-8.066150,0.999998,0.000163,-0.002501,0.005051,0.000157,0.005054,-0.002504,88.813241,0.005054,
760,2020,0.051402,-0.063540,0.999998,0.000000,-0.000027,0.003750,-0.001198,0.004098,-0.000375,-73.801900,0.004531,
850,1310,1.058053,-3.443623,0.999997,0.000181,-0.003236,0.005838,-0.000183,0.005841,-0.003239,-88.845027,0.005853,
910,1840,0.268866,-0.723139,0.999998,0.000162,-0.001133,0.004096,-0.000410,0.004128,-0.001164,-85.542062,0.004257,
850,140,0.216685,-9.634457,0.999998,0.000181,-0.000916,0.004009,0.000725,0.004114,-0.001020,81.800030,0.004284,
810,970,1.598788,-5.335515,0.999997,0.000196,-0.002126,0.005217,0.000418,0.005241,-0.002150,86.754587,0.005269,
1350,1620,-0.148946,-1.441936,0.999998,0.000224,-0.001358,0.003764,-0.000296,0.003781,-0.001375,-86.700597,0.003827,
1860,1030,-2.066525,-5.028454,0.999998,0.000157,-0.002072,0.004366,0.000026,0.004366,-0.002072,89.766227,0.004368,
940,80,0.071360,-9.876762,0.999998,0.000156,-0.000342,0.003433,0.000546,0.003510,-0.000419,81.928892,0.003834,
590,1900,0.701380,-0.807061,0.999997,0.000194,-0.002537,0.005112,-0.000406,0.005134,-0.002558,-86.972179,0.005134,
820,1510,0.846245,-2.389698,0.999998,0.000181,-0.002675,0.005213,0.000229,0.005220,-0.002682,88.338871,0.005221,
1330,210,-0.063279,-9.468228,0.999998,0.000177,-0.000730,0.003444,-0.000028,0.003445,-0.000730,-89.620536,0.003630,
900,220,0.284891,-9.332513,0.999998,0.000170,-0.001246,0.004125,0.000365,0.004149,-0.001271,86.130107,0.004252,
1720,480,-0.963090,-7.900558,0.999998,0.000161,-0.002556,0.005128,0.000148,0.005131,-0.002559,88.899682,0.005131,
680,1640,1.028575,-1.952530,0.999998,0.000155,-0.002484,0.005042,0.000078,0.005043,-0.002485,89.408225,0.005043,
1120,690,0.152016,-7.711766,0.999998,0.000162,-0.001959,0.003561,-0.001501,0.003943,-0.002340,-75.732376,0.003966,
810,860,1.419437,-5.926910,0.999998,0.000230,-0.002716,0.005568,0.000655,0.005619,-0.002767,85.507596,0.005620,
1840,1680,-1.109539,-1.843667,0.999998,0.000176,-0.002460,0.005064,-0.000041,0.005064,-0.002461,-89.684721,0.005065,
1900,240,-1.000975,-8.788929,0.999998,0.000000,-0.002319,0.004795,-0.000049,0.004795,-0.002319,-89.606818,0.004796,
1460,1860,-0.148943,-0.597353,0.999998,0.000152,-0.000757,0.003719,0.000280,0.003737,-0.000775,86.430073,0.003945,
990,760,0.593700,-6.881595,0.999997,0.000201,-0.003715,0.006011,-0.000871,0.006089,-0.003793,-84.920689,0.006150,
980,1400,0.504169,-2.636920,0.999997,0.000213,-0.003028,0.005232,0.000911,0.005331,-0.003128,83.779462,0.005358,
1610,920,-1.427203,-5.620293,0.999998,0.000206,-0.002435,0.005608,-0.000714,0.005671,-0.002498,-84.965005,0.005685,
1100,1370,0.195035,-2.413144,0.999998,0.000163,-0.002235,0.003913,0.001552,0.004283,-0.002605,76.607438,0.004316,
1170,400,0.070429,-8.805798,0.999998,0.000174,-0.001162,0.003592,-0.000095,0.003594,-0.001164,-88.860337,0.003667,
1820,110,-0.408231,-9.638777,0.999997,0.000220,-0.001907,0.005210,-0.001196,0.005406,-0.002103,-80.709342,0.005450,
1870,1690,-1.166317,-1.845161,0.999998,0.000161,-0.002475,0.004936,-0.000022,0.004936,-0.002475,-89.829589,0.004936,
680,1650,1.014735,-1.900733,0.999998,0.000158,-0.002485,0.005057,0.000072,0.005057,-0.002486,89.451567,0.005057,
670,640,1.391056,-6.956614,0.999997,0.000198,-0.002621,0.005162,0.000114,0.005164,-0.002622,89.161856,0.005164,
720,1980,0.176679,-0.226669,0.999998,0.000175,-0.001051,0.004200,-0.001305,0.004507,-0.001357,-76.788565,0.004624,
1220,1240,0.024723,-2.359130,0.999997,0.000189,-0.002122,0.001078,0.000250,0.001097,-0.002142,85.553696,0.002142,
1060,1980,0.029175,-0.172837,0.999999,0.000137,-0.000255,0.003181,-0.000263,0.003201,-0.000275,-85.640624,0.003548,
760,30,0.033014,-10.037829,0.999998,0.000000,0.000177,0.003788,0.001337,0.004228,-0.000264,71.741508,0.004738,
650,150,0.541697,-9.437958,0.999997,0.000215,-0.002039,0.005190,0.000921,0.005306,-0.002154,82.849409,0.005337,
1680,900,-1.565563,-5.695116,0.999997,0.000215,-0.002467,0.005333,-0.000627,0.005383,-0.002518,-85.432554,0.005387,
950,600,0.546876,-7.653145,0.999996,0.000233,-0.002792,0.005125,-0.000698,0.005186,-0.002853,-84.998907,0.005195,
1590,1110,-1.429295,-4.590845,0.999997,0.000225,-0.002269,0.005589,0.000627,0.005639,-0.002319,85.467303,0.005669,
850,1290,1.096949,-3.560473,0.999997,0.000199,-0.003247,0.005851,-0.000272,0.005859,-0.003255,-88.287341,0.005871,
1120,60,0.011313,-9.957824,0.999999,0.000135,-0.000148,0.003093,0.000164,0.003101,-0.000156,87.103468,0.003494,
1010,80,0.047738,-9.885591,0.999998,0.000182,-0.000226,0.003305,0.000372,0.003344,-0.000265,84.047435,0.003718,
1840,730,-1.668790,-6.432651,0.999998,0.000170,-0.002470,0.004998,-0.000205,0.005003,-0.002476,-88.431627,0.005003,
1850,300,-1.006649,-8.595197,0.999998,0.000189,-0.002415,0.005015,-0.000002,0.005015,-0.002415,-89.985840,0.005016,
1590,1740,-0.457014,-1.187553,0.999998,0.000172,-0.001917,0.004594,0.000055,0.004594,-0.001917,89.520395,0.004615,
1510,430,-0.418814,-8.468092,0.999997,0.000196,-0.001914,0.004479,0.000287,0.004492,-0.001926,87.433467,0.004507,
1780,1910,-0.459400,-0.580320,0.999998,0.000181,-0.001905,0.004956,0.001030,0.005108,-0.002056,81.640738,0.005140,
860,230,0.359106,-9.259203,0.999997,0.000244,-0.001529,0.004354,0.000405,0.004382,-0.001557,86.079183,0.004443,
1590,980,-1.479417,-5.295764,0.999997,0.000198,-0.002032,0.005471,-0.000423,0.005495,-0.002056,-86.783161,0.005552,
1020,1320,0.448939,-2.944139,0.999998,0.000207,-0.003451,0.005520,0.001303,0.005706,-0.003636,81.897775,0.005777,
720,1510,1.111953,-2.553748,0.999998,0.000185,-0.002627,0.005187,0.000088,0.005188,-0.002628,89.353473,0.005188,
1050,1300,0.370115,-2.928960,0.999997,0.000199,-0.003365,0.005271,0.001641,0.005572,-0.003666,79.595720,0.005664,
1800,1200,-1.784666,-4.222039,0.999997,0.000183,-0.002375,0.004901,0.000422,0.004925,-0.002399,86.689765,0.004926,
1330,650,-0.129546,-7.885720,0.999998,0.000185,-0.001704,0.003390,0.001175,0.003647,-0.001962,77.618812,0.003651,
580,1900,0.725516,-0.831705,0.999997,0.000190,-0.002956,0.005060,-0.000303,0.005071,-0.002968,-87.836699,0.005096,
1580,510,-0.642404,-7.977946,0.999997,0.000189,-0.002522,0.005005,0.000373,0.005024,-0.002540,87.169374,0.005024,
1840,1030,-2.023142,-5.028025,0.999999,0.000160,-0.002133,0.004493,0.000029,0.004493,-0.002133,89.750184,0.004495,
770,300,0.641524,-8.841551,0.999998,0.000201,-0.002140,0.004847,0.000184,0.004852,-0.002145,88.495060,0.004863,
900,200,0.256843,-9.414243,0.999998,0.000167,-0.001113,0.004096,0.000442,0.004133,-0.001150,85.186024,0.004266,
1720,460,-0.935629,-8.002215,0.999998,0.000151,-0.002504,0.005069,0.000136,0.005072,-0.002507,88.970526,0.005072,
1650,1560,-0.803839,-2.141427,0.999998,0.000150,-0.002555,0.005085,-0.000219,0.005092,-0.002561,-88.360922,0.005092,
810,950,1.574689,-5.439670,0.999997,0.000226,-0.002211,0.005241,0.000497,0.005274,-0.002244,86.198381,0.005294,
1420,1300,-0.394843,-2.961057,0.999997,0.000193,-0.003443,0.005403,-0.001558,0.005669,-0.003710,-80.295261,0.005759,
1860,1690,-1.141163,-1.827203,0.999997,0.000199,-0.002448,0.004974,-0.000033,0.004975,-0.002448,-89.743310,0.004975,
980,1380,0.521678,-2.744596,0.999997,0.000223,-0.003153,0.005382,0.000926,0.005482,-0.003252,83.876152,0.005513,
1310,540,-0.103759,-8.292319,0.999998,0.000184,-0.001465,0.003520,0.000533,0.003576,-0.001521,83.962407,0.003590,
1860,90,-0.412389,-9.650432,0.999997,0.000190,-0.002302,0.005582,-0.001224,0.005767,-0.002488,-81.378293,0.005785,
1270,1580,-0.047741,-1.535673,0.999998,0.000165,-0.001222,0.003476,-0.000128,0.003479,-0.001225,-88.442650,0.003530,
1850,1220,-1.871023,-4.169011,0.999998,0.000157,-0.002308,0.004683,0.000259,0.004693,-0.002318,87.884584,0.004693,
940,500,0.498718,-8.122920,0.999998,0.000206,-0.002295,0.004736,-0.000471,0.004767,-0.002327,-86.186514,0.004767,
680,1620,1.059701,-2.051914,0.999998,0.000173,-0.002490,0.005058,0.000083,0.005059,-0.002491,89.368888,0.005060,
870,780,1.062687,-6.460675,0.999998,0.000154,-0.003310,0.005978,0.000279,0.005986,-0.003318,88.279371,0.005998,
850,1270,1.140061,-3.679191,0.999997,0.000191,-0.003211,0.005904,-0.000353,0.005918,-0.003225,-87.786351,0.005926,
750,2020,0.049109,-0.061526,0.999998,0.000000,0.000060,0.003818,-0.001303,0.004225,-0.000348,-72.632571,0.004691,
1460,1840,-0.169845,-0.675249,0.999998,0.000156,-0.000865,0.003754,0.000245,0.003767,-0.000878,86.976599,0.003942,
1220,820,0.025272,-7.717466,0.999997,0.000194,-0.002391,0.001175,-0.000187,0.001185,-0.002400,-86.998535,0.002401,
1370,1930,-0.049093,-0.331191,0.999998,0.000133,-0.000346,0.003273,0.000185,0.003282,-0.000355,87.073898,0.003602,
1680,880,-1.529204,-5.800660,0.999997,0.000202,-0.002527,0.005312,-0.000618,0.005360,-0.002576,-85.517409,0.005361,
1850,380,-1.142497,-8.195038,0.999998,0.000152,-0.002446,0.004994,0.000068,0.004995,-0.002447,89.472866,0.004995,
1760,170,-0.494765,-9.398770,0.999998,0.000212,-0.002130,0.004942,-0.000756,0.005022,-0.002210,-83.964777,0.005034,
1230,1640,0.002044,-1.313771,0.999998,0.000154,-0.001166,0.003529,0.000010,0.003529,-0.001166,89.877689,0.003597,
1250,1720,-0.019778,-1.034410,0.999998,0.000145,-0.001006,0.003505,-0.000063,0.003506,-0.001007,-89.194619,0.003610,
1250,400,-0.021155,-8.815405,0.999998,0.000147,-0.001153,0.003565,0.000111,0.003567,-0.001156,88.649347,0.003640,
1540,990,-1.393268,-5.256121,0.999998,0.000190,-0.001870,0.005905,-0.000399,0.005925,-0.001890,-87.069070,0.006053,
770,610,1.071831,-7.262581,0.999998,0.000188,-0.002796,0.005350,-0.000039,0.005350,-0.002797,-89.726446,0.005352,
1440,210,-0.147782,-9.432459,0.999998,0.000188,-0.000864,0.003682,-0.000191,0.003690,-0.000872,-87.596864,0.003858,
1270,1490,-0.047571,-1.838612,0.999999,0.000138,-0.001260,0.003251,-0.000280,0.003268,-0.001277,-86.458931,0.003294,
630,1320,1.660067,-3.664133,0.999998,0.000182,-0.002484,0.004994,-0.000235,0.005001,-0.002491,-88.201637,0.005001,
1800,1230,-1.736217,-4.075803,0.999998,0.000165,-0.002398,0.004885,0.000373,0.004904,-0.002417,87.075667,0.004904,
900,950,1.376479,-5.475746,0.999997,0.000206,-0.002239,0.005800,0.000651,0.005852,-0.002292,85.400804,0.005898,
1590,1530,-0.683508,-2.195261,0.999998,0.000205,-0.002564,0.005073,-0.000350,0.005089,-0.002580,-87.381653,0.005089,
1110,640,0.172122,-7.865064,0.999998,0.000170,-0.001883,0.003729,-0.001170,0.003963,-0.002117,-78.678266,0.003966,
1890,1970,-0.458822,-0.461649,0.999997,0.000202,-0.002239,0.006180,0.001462,0.006427,-0.002486,80.420709,0.006481,
1630,1630,-0.674308,-1.761649,0.999998,0.000195,-0.002325,0.004915,-0.000164,0.004918,-0.002329,-88.705875,0.004921,
570,1900,0.754567,-0.853009,0.999870,0.001345,-0.003185,0.005003,-0.000198,0.005008,-0.003190,-88.612944,0.005070,
640,1840,0.755905,-0.999494,0.999997,0.000199,-0.002351,0.005126,-0.000345,0.005142,-0.002366,-87.367252,0.005148,
1330,630,-0.130097,-7.955825,0.999998,0.000178,-0.001663,0.003385,0.001025,0.003585,-0.001863,78.950621,0.003586,
1720,830,-1.542117,-6.041638,0.999996,0.000231,-0.002669,0.005281,-0.000572,0.005322,-0.002710,-85.907430,0.005322,
710,50,0.104849,-9.954792,0.999998,0.000191,-0.000695,0.004132,0.001541,0.004582,-0.001145,73.720760,0.004769,
1590,1720,-0.483100,-1.281442,0.999997,0.000174,-0.001979,0.004638,0.000010,0.004638,-0.001979,89.916220,0.004654,
1700,810,-1.448823,-6.163788,0.999997,0.000226,-0.002756,0.005373,-0.000544,0.005410,-0.002792,-86.185269,0.005411,
720,1960,0.233284,-0.308100,0.999997,0.000198,-0.001361,0.004245,-0.001157,0.004475,-0.001591,-78.780941,0.004536,
1220,800,0.017232,-7.734278,0.999998,0.000195,-0.001607,0.001076,-0.000308,0.001111,-0.001641,-83.526061,0.001675,
1680,860,-1.492971,-5.907495,0.999997,0.000225,-0.002627,0.005405,-0.000620,0.005452,-0.002675,-85.612671,0.005453,
1110,1990,0.016102,-0.138505,0.999998,0.000144,-0.000120,0.003092,-0.000175,0.003102,-0.000130,-86.890809,0.003509,
1100,770,0.231084,-7.321178,0.999998,0.000200,-0.002820,0.004255,-0.002137,0.004851,-0.003415,-74.429267,0.004984,
930,1960,0.091876,-0.256366,0.999998,0.000163,-0.000390,0.003502,-0.000533,0.003574,-0.000461,-82.338761,0.003888,
1200,130,0.011827,-9.738815,0.999999,0.000136,-0.000352,0.003194,0.000022,0.003194,-0.000352,89.638707,0.003503,
1070,470,0.223227,-8.456015,0.999998,0.000191,-0.001714,0.004006,-0.000544,0.004058,-0.001765,-84.612282,0.004069,
1510,1620,-0.420329,-1.632897,0.999997,0.000227,-0.001967,0.004484,-0.000324,0.004501,-0.001983,-87.128774,0.004511,
1800,1180,-1.816202,-4.319203,0.999998,0.000177,-0.002348,0.004842,0.000428,0.004868,-0.002374,86.607230,0.004868,
810,930,1.550957,-5.544595,0.999997,0.000220,-0.002324,0.005281,0.000557,0.005322,-0.002364,85.831334,0.005333,
1520,750,-0.747932,-6.799634,0.999998,0.000147,-0.003570,0.006067,0.000411,0.006085,-0.003588,87.559864,0.006118,
850,720,1.010728,-6.783876,0.999997,0.000195,-0.003190,0.005784,0.000075,0.005785,-0.003191,89.518366,0.005795,
600,1180,1.960578,-4.369528,0.999998,0.000163,-0.002197,0.004522,-0.000182,0.004527,-0.002202,-88.452990,0.004528,
850,1250,1.183182,-3.798250,0.999997,0.000182,-0.003150,0.005885,-0.000455,0.005908,-0.003173,-87.121637,0.005914,
1760,1160,-1.750613,-4.397010,0.999998,0.000186,-0.002366,0.004966,0.000470,0.004996,-0.002396,86.345901,0.004997,
1240,1270,-0.010351,-2.328380,0.999998,0.000191,-0.001301,0.001145,-0.000240,0.001168,-0.001324,-84.449156,0.001447,
940,520,0.511484,-8.028004,0.999998,0.000199,-0.002386,0.004793,-0.000505,0.004828,-0.002422,-85.993341,0.004828,
930,280,0.321526,-9.100712,0.999998,0.000153,-0.001426,0.004236,0.000145,0.004239,-0.001429,88.528887,0.004314,
700,1910,0.427819,-0.560870,0.999998,0.000192,-0.002003,0.004853,-0.000922,0.004975,-0.002124,-82.474509,0.004992,
620,150,0.611484,-9.372871,0.999998,0.000183,-0.002458,0.005205,0.000507,0.005238,-0.002492,86.229321,0.005240,
1020,1340,0.432382,-2.836470,0.999997,0.000206,-0.003269,0.005376,0.001276,0.005560,-0.003453,81.777390,0.005615,
1250,1580,-0.023407,-1.528417,0.999999,0.000138,-0.001208,0.003440,-0.000141,0.003444,-0.001212,-88.265022,0.003494,
1420,1720,-0.209899,-1.112722,0.999999,0.000159,-0.001441,0.003893,-0.000164,0.003898,-0.001446,-88.239593,0.003941,
1030,80,0.043146,-9.887470,0.999998,0.000163,-0.000283,0.003270,0.000318,0.003298,-0.000311,84.927393,0.003641,
680,1830,0.688939,-0.990807,0.999997,0.000196,-0.002289,0.005017,-0.000460,0.005046,-0.002318,-86.408902,0.005052,
740,1190,1.611721,-4.224168,0.999998,0.000202,-0.002513,0.005155,-0.000536,0.005193,-0.002550,-86.019904,0.005193,
1720,440,-0.907790,-8.103484,0.999998,0.000169,-0.002471,0.005059,0.000107,0.005061,-0.002473,89.182368,0.005061,
1050,1280,0.397504,-3.036888,0.999998,0.000178,-0.003578,0.005486,0.001627,0.005770,-0.003862,80.124629,0.005879,
1180,1290,0.058558,-2.384901,0.999998,0.000179,-0.001407,0.001927,0.001372,0.002419,-0.001899,70.268528,0.002547,
1840,1660,-1.142136,-1.945284,0.999998,0.000169,-0.002494,0.005037,-0.000077,0.005038,-0.002495,-89.411897,0.005038,
900,180,0.227504,-9.494962,0.999998,0.000171,-0.001005,0.003989,0.000478,0.004035,-0.001050,84.584199,0.004186,
1460,1820,-0.185073,-0.749118,0.999998,0.000154,-0.000960,0.003825,0.000213,0.003835,-0.000969,87.454416,0.003988,
1550,1130,-1.290222,-4.446849,0.999997,0.000203,-0.002608,0.006031,0.000707,0.006089,-0.002665,85.353364,0.006104,
770,590,1.042737,-7.370410,0.999998,0.000170,-0.002755,0.005308,-0.000065,0.005308,-0.002756,-89.535483,0.005309,
1270,1470,-0.046965,-1.903022,0.999999,0.000134,-0.001265,0.003139,-0.000304,0.003160,-0.001286,-86.065835,0.003178,
1170,570,0.078191,-8.209895,0.999999,0.000135,-0.001402,0.003323,-0.000523,0.003380,-0.001460,-83.758964,0.003391,
1520,990,-1.356436,-5.267194,0.999997,0.000200,-0.001980,0.006201,-0.000373,0.006218,-0.001997,-87.396830,0.006349,
870,1320,0.973701,-3.350273,0.999997,0.000188,-0.003273,0.005908,-0.000040,0.005908,-0.003273,-89.752365,0.005919,
1370,1910,-0.056963,-0.398888,0.999999,0.000127,-0.000411,0.003379,0.000171,0.003387,-0.000419,87.419427,0.003692,
1460,1430,-0.417876,-2.428222,0.999997,0.000195,-0.002684,0.004839,-0.000967,0.004962,-0.002806,-82.790721,0.004976,
680,1600,1.087179,-2.154014,0.999998,0.000183,-0.002513,0.005081,0.000080,0.005082,-0.002513,89.398151,0.005082,
1900,250,-1.022524,-8.741096,0.999998,0.000000,-0.002310,0.004834,-0.000032,0.004834,-0.002311,-89.739844,0.004835,
1040,210,0.132587,-9.439404,0.999998,0.000173,-0.000889,0.003637,0.000120,0.003640,-0.000893,88.479814,0.003794,
1850,360,-1.110107,-8.294750,0.999998,0.000166,-0.002429,0.004981,0.000056,0.004981,-0.002429,89.564719,0.004982,
1590,1550,-0.661711,-2.094151,0.999998,0.000204,-0.002495,0.005009,-0.000333,0.005024,-0.002510,-87.464095,0.005024,
1440,1070,-1.158183,-4.651789,0.999997,0.000205,-0.003281,0.008699,-0.000658,0.008735,-0.003317,-86.864322,0.008819,
1510,410,-0.403666,-8.558159,0.999997,0.000203,-0.001864,0.004465,0.000247,0.004474,-0.001874,87.771242,0.004494,
690,920,1.810004,-5.556073,0.999998,0.000173,-0.002285,0.004847,0.000341,0.004864,-0.002301,87.266637,0.004866,
1470,1020,-1.283349,-5.093554,0.999996,0.000241,-0.002336,0.007336,-0.000018,0.007336,-0.002336,-89.895241,0.007495,
1700,790,-1.409171,-6.272866,0.999997,0.000216,-0.002819,0.005481,-0.000501,0.005511,-0.002849,-86.560356,0.005512,
1110,500,0.164138,-8.391793,0.999998,0.000142,-0.001533,0.003784,-0.000497,0.003830,-0.001579,-84.709690,0.003850,
1570,1720,-0.441942,-1.254746,0.999997,0.000180,-0.001941,0.004536,-0.000030,0.004536,-0.001941,-89.736760,0.004552,
640,1800,0.849478,-1.203615,0.999998,0.000166,-0.002394,0.005103,-0.000200,0.005108,-0.002399,-88.476095,0.005111,
1220,780,0.014696,-7.756196,0.999998,0.000183,-0.001210,0.001184,-0.000355,0.001235,-0.001261,-81.747272,0.001441,
810,910,1.515137,-5.651507,0.999998,0.000198,-0.002454,0.005429,0.000653,0.005482,-0.002508,85.294358,0.005489,
750,30,0.028665,-10.037705,0.999999,0.000000,0.000124,0.003837,0.001411,0.004312,-0.000351,71.388496,0.004789,
780,90,0.172893,-9.812424,0.999998,0.000172,-0.000797,0.003958,0.001040,0.004175,-0.001014,78.187037,0.004355,
1110,1970,0.026253,-0.200930,0.999999,0.000147,-0.000202,0.003174,-0.000166,0.003182,-0.000210,-87.183058,0.003559,
1740,1750,-0.750815,-1.326034,0.999998,0.000178,-0.002297,0.004995,0.000134,0.004997,-0.002300,88.944755,0.005003,
1630,1610,-0.696130,-1.860939,0.999998,0.000189,-0.002367,0.004954,-0.000197,0.004959,-0.002372,-88.461184,0.004961,
1330,610,-0.131000,-8.020989,0.999998,0.000159,-0.001606,0.003477,0.000873,0.003622,-0.001751,80.524654,0.003623,
1230,820,0.005027,-7.717647,0.999998,0.000160,-0.002453,0.001150,-0.000015,0.001150,-0.002453,-89.766971,0.002454,
850,840,1.262306,-6.076269,0.999997,0.000193,-0.002993,0.005814,0.000610,0.005856,-0.003035,86.056127,0.005857,
1760,1140,-1.774193,-4.494794,0.999998,0.000195,-0.002292,0.004861,0.000386,0.004882,-0.002313,86.917339,0.004884,
770,570,1.012802,-7.476078,0.999998,0.000173,-0.002724,0.005285,-0.000097,0.005286,-0.002725,-89.305646,0.005287,
1420,1740,-0.197151,-1.033667,0.999998,0.000165,-0.001377,0.003886,-0.000089,0.003888,-0.001378,-89.026825,0.003942,
940,540,0.527126,-7.933994,0.999997,0.000203,-0.002480,0.004868,-0.000547,0.004908,-0.002521,-85.763731,0.004909,
680,1870,0.587516,-0.785809,0.999997,0.000196,-0.002151,0.005020,-0.000712,0.005090,-0.002221,-84.385309,0.005104,
910,1960,0.099294,-0.258275,0.999998,0.000188,-0.000414,0.003554,-0.000605,0.003644,-0.000504,-81.527159,0.003949,
1020,1360,0.411914,-2.729350,0.999997,0.000219,-0.003099,0.005179,0.001257,0.005366,-0.003286,81.552180,0.005410,
1270,1450,-0.045667,-1.963471,0.999998,0.000151,-0.001255,0.003034,-0.000368,0.003066,-0.001286,-85.128516,0.003079,
1510,460,-0.436382,-8.333888,0.999998,0.000189,-0.002061,0.004575,0.000394,0.004598,-0.002084,86.613053,0.004605,
1070,490,0.227646,-8.377487,0.999997,0.000187,-0.001722,0.004038,-0.000596,0.004099,-0.001783,-84.154797,0.004111,
720,1940,0.297167,-0.399750,0.999998,0.000193,-0.001520,0.004580,-0.001162,0.004794,-0.001734,-79.575933,0.004854,
1590,140,-0.194388,-9.642167,0.999998,0.000150,-0.001014,0.003951,-0.000638,0.004032,-0.001095,-82.793202,0.004170,
850,1230,1.228577,-3.916282,0.999997,0.000187,-0.003072,0.005872,-0.000551,0.005906,-0.003106,-86.486428,0.005909,
1590,460,-0.617480,-8.209073,0.999998,0.000183,-0.002372,0.004859,0.000280,0.004870,-0.002383,87.782399,0.004870,
1690,1120,-1.637482,-4.571346,0.999998,0.000173,-0.002295,0.005102,0.000440,0.005128,-0.002321,86.604970,0.005136,
1840,1640,-1.170456,-2.044585,0.999998,0.000174,-0.002478,0.004993,-0.000075,0.004994,-0.002478,-89.421825,0.004994,
1170,590,0.077872,-8.143001,0.999999,0.000148,-0.001415,0.003251,-0.000591,0.003325,-0.001489,-82.890297,0.003331,
1550,1150,-1.238228,-4.323259,0.999998,0.000186,-0.002821,0.006171,0.000712,0.006227,-0.002877,85.500409,0.006233,
600,1200,1.932131,-4.276815,0.999998,0.000147,-0.002258,0.004670,-0.000241,0.004679,-0.002267,-88.012289,0.004679,
720,1650,0.917112,-1.835471,0.999998,0.000159,-0.002437,0.005083,0.000065,0.005083,-0.002438,89.506331,0.005085,
1520,970,-1.321869,-5.389322,0.999998,0.000188,-0.002182,0.006207,-0.000509,0.006238,-0.002212,-86.538565,0.006325,
680,1580,1.115199,-2.256336,0.999998,0.000186,-0.002549,0.005097,0.000080,0.005098,-0.002550,89.398277,0.005098,
1370,1890,-0.068986,-0.467763,0.999999,0.000136,-0.000486,0.003405,0.000152,0.003411,-0.000491,87.760817,0.003688,
1590,1570,-0.643323,-1.994347,0.999998,0.000195,-0.002458,0.004934,-0.000325,0.004949,-0.002473,-87.485902,0.004949,
1020,210,0.150499,-9.431949,0.999998,0.000177,-0.000875,0.003710,0.000174,0.003716,-0.000882,87.826169,0.003884,
1470,310,-0.259231,-9.028245,0.999998,0.000171,-0.001286,0.004051,-0.000028,0.004051,-0.001286,-89.697289,0.004140,
670,1180,1.798495,-4.315688,0.999996,0.000237,-0.002371,0.004884,-0.000452,0.004912,-0.002399,-86.451091,0.004912,
1900,470,-1.400748,-7.662932,0.999998,0.000000,-0.002434,0.005048,0.000037,0.005048,-0.002434,89.719821,0.005049,
900,160,0.198931,-9.574152,0.999998,0.000171,-0.000884,0.003948,0.000527,0.004005,-0.000940,83.852153,0.004188,
1720,420,-0.880555,-8.204577,0.999998,0.000164,-0.002481,0.005051,0.000098,0.005053,-0.002482,89.256309,0.005053,
780,70,0.125530,-9.890918,0.999998,0.000172,-0.000646,0.003855,0.001078,0.004100,-0.000891,77.205238,0.004313,
1760,1120,-1.797371,-4.592547,0.999998,0.000188,-0.002265,0.004895,0.000393,0.004917,-0.002287,86.867988,0.004921,
1220,760,0.013054,-7.779647,0.999998,0.000146,-0.001045,0.001395,-0.000317,0.001436,-0.001085,-82.723674,0.001497,
680,1810,0.735467,-1.090706,0.999998,0.000194,-0.002309,0.005040,-0.000333,0.005055,-0.002324,-87.409532,0.005060,
760,1230,1.487360,-3.998642,0.999997,0.000216,-0.002695,0.005341,-0.000559,0.005380,-0.002734,-86.037970,0.005380,
1180,1210,0.188161,-2.514052,0.999997,0.000177,-0.002821,0.001445,0.000323,0.001470,-0.002846,85.690646,0.002846,
980,1360,0.540997,-2.854569,0.999998,0.000211,-0.003309,0.005523,0.000936,0.005622,-0.003407,84.016217,0.005664,
1740,1730,-0.785178,-1.425320,0.999997,0.000191,-0.002341,0.005016,0.000053,0.005017,-0.002342,89.585985,0.005021,
1890,1370,-1.713910,-3.496704,0.999998,0.000186,-0.002450,0.005052,0.000042,0.005052,-0.002450,89.677134,0.005053,
970,400,0.363584,-8.624777,0.999998,0.000203,-0.001874,0.004371,-0.000286,0.004384,-0.001887,-87.386012,0.004398,
1390,1900,-0.072071,-0.436871,0.999998,0.000129,-0.000492,0.003459,0.000200,0.003469,-0.000502,87.115400,0.003749,
1420,1760,-0.185751,-0.956445,0.999998,0.000178,-0.001290,0.003817,-0.000046,0.003817,-0.001290,-89.478853,0.003884,
1110,1950,0.032926,-0.265515,0.999999,0.000149,-0.000304,0.003233,-0.000170,0.003241,-0.000312,-87.246173,0.003575,
810,890,1.477806,-5.762597,0.999998,0.000223,-0.002554,0.005438,0.000653,0.005491,-0.002607,85.362171,0.005493,
1710,720,-1.303912,-6.644258,0.999998,0.000199,-0.002848,0.005423,-0.000313,0.005435,-0.002859,-87.838996,0.005438,
940,560,0.539243,-7.834038,0.999997,0.000208,-0.002613,0.004951,-0.000606,0.004999,-0.002662,-85.451912,0.005003,
740,2020,0.046673,-0.061243,0.999998,0.000000,-0.000026,0.003879,-0.001382,0.004319,-0.000466,-72.353009,0.004741,
1830,380,-1.094019,-8.228763,0.999998,0.000177,-0.002473,0.005040,0.000053,0.005040,-0.002473,89.599358,0.005040,
640,1780,0.892547,-1.306888,0.999998,0.000162,-0.002394,0.005053,-0.000133,0.005056,-0.002396,-88.977900,0.005058,
1110,480,0.161167,-8.467348,0.999998,0.000144,-0.001458,0.003779,-0.000427,0.003814,-0.001492,-85.366463,0.003844,
720,1920,0.357375,-0.490401,0.999997,0.000208,-0.001704,0.004666,-0.001026,0.004827,-0.001865,-81.071861,0.004869,
1180,1270,0.067661,-2.420227,0.999998,0.000195,-0.001539,0.001762,0.001447,0.002306,-0.002083,69.375194,0.002544,
1050,80,0.036622,-9.889440,0.999999,0.000160,-0.000306,0.003217,0.000259,0.003235,-0.000325,85.818265,0.003563,
1070,510,0.233321,-8.293028,0.999998,0.000164,-0.001736,0.004029,-0.000638,0.004099,-0.001806,-83.761441,0.004109,
1030,1320,0.416427,-2.905825,0.999997,0.000218,-0.003369,0.005386,0.001424,0.005611,-0.003595,80.992809,0.005685,
1720,230,-0.563274,-9.152443,0.999997,0.000201,-0.001884,0.004843,-0.000585,0.004893,-0.001934,-85.069669,0.004929,
1270,1430,-0.045177,-2.021537,0.999998,0.000170,-0.001248,0.002881,-0.000427,0.002925,-0.001292,-84.159863,0.002931,
1630,1590,-0.719411,-1.960693,0.999998,0.000158,-0.002427,0.004950,-0.000221,0.004957,-0.002434,-88.289530,0.004957,
1330,590,-0.130519,-8.093257,0.999998,0.000164,-0.001570,0.003557,0.000760,0.003667,-0.001680,81.740529,0.003672,
770,550,0.986642,-7.582881,0.999997,0.000191,-0.002680,0.005233,-0.000142,0.005236,-0.002683,-88.968727,0.005236,
1710,1100,-1.706716,-4.680052,0.999998,0.000183,-0.002229,0.005079,0.000428,0.005104,-0.002254,86.658113,0.005116,
1550,1170,-1.183757,-4.200886,0.999997,0.000180,-0.003046,0.006189,0.000641,0.006234,-0.003091,86.049915,0.006234,
850,1210,1.273688,-4.033064,0.999997,0.000213,-0.002967,0.005843,-0.000624,0.005887,-0.003011,-85.968703,0.005887,
1590,1590,-0.623053,-1.896510,0.999998,0.000182,-0.002376,0.004873,-0.000302,0.004886,-0.002388,-87.621057,0.004886,
960,210,0.206644,-9.404479,0.999998,0.000192,-0.001147,0.003888,0.000261,0.003901,-0.001160,87.045386,0.004007,
1590,440,-0.596777,-8.306139,0.999998,0.000175,-0.002264,0.004837,0.000219,0.004844,-0.002270,88.234158,0.004847,
1470,1960,-0.064097,-0.245403,0.999998,0.000170,-0.000323,0.003370,0.000384,0.003410,-0.000362,84.130721,0.003746,
590,1100,2.065164,-4.731979,0.999998,0.000176,-0.002056,0.004271,-0.000046,0.004271,-0.002057,-89.586673,0.004272,
980,1430,0.480955,-2.482634,0.999996,0.000216,-0.002819,0.005014,0.000891,0.005114,-0.002919,83.593294,0.005131,
1510,390,-0.388805,-8.647037,0.999997,0.000191,-0.001831,0.004406,0.000203,0.004412,-0.001838,88.133491,0.004433,
700,1870,0.543442,-0.758647,0.999997,0.000202,-0.002223,0.004947,-0.000654,0.005006,-0.002282,-84.830721,0.005013,
1840,1620,-1.202746,-2.145210,0.999998,0.000189,-0.002492,0.005048,-0.000065,0.005049,-0.002493,-89.509834,0.005049,
700,390,0.944204,-8.288281,0.999998,0.000189,-0.002459,0.005058,-0.000056,0.005059,-0.002460,-89.573003,0.005059,
660,850,1.782359,-5.880040,0.999998,0.000177,-0.002382,0.004834,0.000405,0.004857,-0.002404,86.794715,0.004857,
1760,1100,-1.818747,-4.691179,0.999998,0.000172,-0.002228,0.004888,0.000341,0.004904,-0.002245,87.262511,0.004910,
1900,460,-1.386390,-7.712796,0.999998,0.000000,-0.002447,0.005029,0.000046,0.005029,-0.002447,89.646794,0.005030,
970,380,0.349604,-8.712031,0.999997,0.000188,-0.001829,0.004325,-0.000234,0.004334,-0.001838,-87.826092,0.004351,
1220,740,0.011261,-7.807640,0.999999,0.000140,-0.000978,0.001653,-0.000288,0.001684,-0.001009,-83.816414,0.001695,
1020,1800,0.186805,-0.819536,0.999998,0.000172,-0.001062,0.003795,-0.000117,0.003798,-0.001065,-88.619792,0.003918,
1520,1770,-0.310216,-0.990295,0.999998,0.000163,-0.001485,0.004226,0.000121,0.004229,-0.001487,88.785674,0.004290,
1530,1040,-1.395179,-4.968854,0.999997,0.000197,-0.001830,0.005835,0.000132,0.005837,-0.001832,89.014579,0.005970,
1890,1360,-1.731783,-3.547269,0.999997,0.000185,-0.002436,0.005010,0.000060,0.005010,-0.002437,89.535510,0.005011,
1420,1780,-0.172699,-0.881409,0.999998,0.000167,-0.001209,0.003796,-0.000002,0.003796,-0.001209,-89.975722,0.003879,
1170,610,0.075828,-8.078423,0.999998,0.000172,-0.001414,0.003171,-0.000685,0.003271,-0.001514,-81.684871,0.003274,
1110,1930,0.043299,-0.332256,0.999998,0.000154,-0.000374,0.003245,-0.000155,0.003252,-0.000381,-87.553802,0.003555,
1450,140,-0.094690,-9.683513,0.999998,0.000179,-0.000514,0.003497,-0.000319,0.003522,-0.000539,-85.480771,0.003794,
700,1650,0.964729,-1.867800,0.999998,0.000186,-0.002455,0.005058,0.000087,0.005059,-0.002456,89.339207,0.005060,
940,1000,1.373580,-5.201276,0.999997,0.000191,-0.001862,0.006114,0.000312,0.006127,-0.001875,87.765800,0.006278,
1170,1900,0.026474,-0.422385,0.999998,0.000153,-0.000417,0.003272,-0.000076,0.003274,-0.000419,-88.817457,0.003563,
1270,1410,-0.043027,-2.077173,0.999998,0.000178,-0.001246,0.002816,-0.000470,0.002870,-0.001299,-83.491095,0.002874,
640,1760,0.932234,-1.407705,0.999998,0.000172,-0.002392,0.005065,-0.000069,0.005066,-0.002392,-89.472346,0.005068,
1110,560,0.168778,-8.166688,0.999998,0.000168,-0.001712,0.003739,-0.000799,0.003854,-0.001826,-81.834038,0.003855,
1890,280,-1.064067,-8.614465,0.999997,0.000186,-0.002404,0.004823,0.000009,0.004823,-0.002404,89.932365,0.004823,
740,1230,1.539397,-4.013520,0.999997,0.000206,-0.002616,0.005277,-0.000552,0.005315,-0.002655,-86.020504,0.005315,
600,1640,1.229392,-2.083916,0.999998,0.000175,-0.002487,0.005001,0.000052,0.005002,-0.002487,89.602617,0.005002,
660,690,1.504036,-6.684206,0.999997,0.000201,-0.002619,0.005094,0.000220,0.005100,-0.002625,88.366271,0.005101,
1470,330,-0.274070,-8.945713,0.999998,0.000162,-0.001361,0.004090,0.000034,0.004090,-0.001362,89.647141,0.004166,
660,1830,0.734926,-1.018373,0.999998,0.000190,-0.002261,0.005081,-0.000471,0.005111,-0.002291,-86.342057,0.005121,
1360,1190,-0.453844,-3.150865,0.999995,0.000283,-0.002293,0.003800,-0.002244,0.004538,-0.003030,-71.812921,0.004622,
1720,400,-0.854508,-8.306204,0.999998,0.000175,-0.002429,0.005047,0.000071,0.005048,-0.002430,89.458931,0.005049,
900,360,0.453991,-8.720465,0.999997,0.000211,-0.001943,0.004553,-0.000062,0.004554,-0.001943,-89.450501,0.004570,
770,530,0.959681,-7.685639,0.999998,0.000150,-0.002641,0.005182,-0.000141,0.005184,-0.002644,-88.968171,0.005185,
680,1560,1.143417,-2.359382,0.999998,0.000177,-0.002573,0.005144,0.000087,0.005145,-0.002574,89.356483,0.005145,
850,1630,0.632742,-1.736364,0.999997,0.000188,-0.002299,0.004874,0.000178,0.004879,-0.002303,88.575520,0.004881,
1330,570,-0.132175,-8.161645,0.999998,0.000152,-0.001534,0.003549,0.000686,0.003640,-0.001625,82.451717,0.003647,
1630,1570,-0.741654,-2.059944,0.999998,0.000163,-0.002496,0.005011,-0.000234,0.005018,-0.002503,-88.213755,0.005018,
1370,1870,-0.076378,-0.534630,0.999998,0.000157,-0.000553,0.003406,0.000133,0.003410,-0.000558,88.080696,0.003659,
1710,1120,-1.682811,-4.578037,0.999998,0.000187,-0.002269,0.005063,0.000430,0.005088,-0.002294,86.651455,0.005096,
1400,210,-0.111036,-9.449051,0.999998,0.000176,-0.000803,0.003564,-0.000135,0.003568,-0.000808,-88.228185,0.003742,
1600,80,-0.104178,-9.864713,0.999998,0.000156,-0.000535,0.003678,-0.000763,0.003812,-0.000669,-80.041308,0.004071,
810,870,1.440572,-5.870712,0.999998,0.000214,-0.002665,0.005531,0.000666,0.005584,-0.002719,85.382208,0.005585,
1710,700,-1.267222,-6.752566,0.999998,0.000191,-0.002863,0.005406,-0.000238,0.005413,-0.002870,-88.353673,0.005416,
1190,1960,0.009900,-0.228795,0.999999,0.000127,-0.000197,0.003093,-0.000056,0.003094,-0.000198,-89.022795,0.003464,
590,1090,2.069355,-4.774870,0.999998,0.000180,-0.002055,0.004204,-0.000014,0.004204,-0.002055,-89.871595,0.004204,
1550,1190,-1.129898,-4.073352,0.999998,0.000181,-0.003192,0.006262,0.000583,0.006298,-0.003228,86.486822,0.006299,
1570,440,-0.552630,-8.334801,0.999998,0.000197,-0.002202,0.004759,0.000256,0.004768,-0.002212,87.896947,0.004773,
1820,1370,-1.538735,-3.392573,0.999996,0.000220,-0.002567,0.005083,0.000190,0.005088,-0.002572,88.578142,0.005088,
1840,1600,-1.231570,-2.246971,0.999998,0.000187,-0.002518,0.005062,-0.000074,0.005063,-0.002519,-89.440619,0.005063,
1020,1780,0.199843,-0.893470,0.999998,0.000158,-0.001138,0.003902,-0.000059,0.003903,-0.001139,-89.332884,0.004014,
1760,1080,-1.832764,-4.788577,0.999998,0.000172,-0.002192,0.004796,0.000180,0.004801,-0.002196,88.529050,0.004807,
1900,450,-1.372836,-7.763436,0.999997,0.000000,-0.002447,0.005016,0.000026,0.005016,-0.002447,89.802099,0.005016,
640,850,1.831304,-5.864781,0.999998,0.000164,-0.002363,0.004768,0.000384,0.004789,-0.002383,86.925724,0.004789,
1450,440,-0.308658,-8.509380,0.999998,0.000182,-0.001775,0.004246,0.000412,0.004274,-0.001803,86.098614,0.004291,
1320,1570,-0.114325,-1.601372,0.999998,0.000156,-0.001436,0.003610,-0.000418,0.003644,-0.001470,-85.301088,0.003667,
680,390,0.993577,-8.256821,0.999999,0.000132,-0.002456,0.005039,-0.000056,0.005039,-0.002457,-89.570654,0.005040,
740,30,0.030244,-10.037868,0.999998,0.000000,-0.000072,0.003884,0.001439,0.004352,-0.000540,71.982296,0.004744,
1430,290,-0.196141,-9.133395,0.999998,0.000174,-0.001233,0.003871,0.000017,0.003871,-0.001233,89.809629,0.003955,
1530,1020,-1.398319,-5.083331,0.999997,0.000207,-0.001803,0.005773,-0.000071,0.005774,-0.001804,-89.462135,0.005908,
1110,1910,0.050031,-0.395494,0.999999,0.000137,-0.000447,0.003287,-0.000145,0.003293,-0.000453,-87.784988,0.003570,
1220,720,0.010660,-7.845545,0.999999,0.000139,-0.000982,0.001921,-0.000288,0.001950,-0.001010,-84.389997,0.001950,
660,670,1.468397,-6.786900,0.999997,0.000206,-0.002650,0.005158,0.000178,0.005162,-0.002654,88.696692,0.005162,
1470,350,-0.288828,-8.865119,0.999998,0.000164,-0.001439,0.004092,0.000118,0.004095,-0.001442,88.783360,0.004154,
1170,630,0.075233,-8.015487,0.999998,0.000160,-0.001398,0.003047,-0.000765,0.003175,-0.001526,-80.508053,0.003176,
1150,1900,0.034723,-0.423497,0.999999,0.000133,-0.000440,0.003286,-0.000093,0.003288,-0.000442,-88.571239,0.003569,
940,980,1.345717,-5.325219,0.999997,0.000201,-0.002033,0.006156,0.000466,0.006182,-0.002059,86.755051,0.006296,
1520,1750,-0.329713,-1.075600,0.999998,0.000176,-0.001560,0.004201,0.000028,0.004201,-0.001560,89.719673,0.004247,
1270,1390,-0.043720,-2.132886,0.999998,0.000147,-0.001227,0.002666,-0.000588,0.002753,-0.001314,-81.591389,0.002754,
1070,530,0.236548,-8.215858,0.999998,0.000155,-0.001776,0.004020,-0.000701,0.004104,-0.001860,-83.200273,0.004110,
730,410,0.900853,-8.234221,0.999998,0.000195,-0.002431,0.005073,-0.000071,0.005073,-0.002432,-89.460442,0.005075,
820,410,0.683304,-8.374751,0.999998,0.000173,-0.002311,0.004906,-0.000135,0.004909,-0.002314,-88.926686,0.004911,
640,1740,0.969543,-1.511114,0.999998,0.000181,-0.002417,0.005061,-0.000038,0.005061,-0.002418,-89.707785,0.005062,
680,1540,1.172483,-2.461842,0.999998,0.000171,-0.002584,0.005154,0.000052,0.005154,-0.002585,89.613521,0.005154,
1310,680,-0.093385,-7.837185,0.999998,0.000159,-0.001544,0.003014,0.001179,0.003301,-0.001832,76.319433,0.003308,
1720,380,-0.824403,-8.408600,0.999998,0.000187,-0.002386,0.005041,0.000012,0.005041,-0.002386,89.908572,0.005044,
1380,210,-0.097969,-9.453834,0.999998,0.000156,-0.000659,0.003518,-0.000150,0.003523,-0.000664,-87.946945,0.003744,
770,510,0.933186,-7.788857,0.999998,0.000161,-0.002597,0.005148,-0.000148,0.005151,-0.002600,-88.908940,0.005151,
600,1620,1.258395,-2.183773,0.999998,0.000176,-0.002479,0.005004,0.000052,0.005005,-0.002480,89.605438,0.005005,
1730,420,-0.905967,-8.188885,0.999998,0.000148,-0.002495,0.005065,0.000093,0.005066,-0.002496,89.294985,0.005067,
720,1250,1.554279,-3.925140,0.999997,0.000222,-0.002602,0.005192,-0.000501,0.005224,-0.002634,-86.340366,0.005224,
1180,1200,0.234543,-2.529998,0.999981,0.000516,-0.003266,0.001358,0.000144,0.001363,-0.003270,88.212702,0.003285,
910,1320,0.838889,-3.269414,0.999998,0.000199,-0.003515,0.006005,0.000218,0.006010,-0.003520,88.686839,0.006040,
1710,600,-1.103379,-7.289636,0.999998,0.000153,-0.002757,0.005301,0.000024,0.005301,-0.002757,89.827650,0.005302,
1370,1850,-0.088175,-0.604655,0.999998,0.000146,-0.000655,0.003534,0.000151,0.003540,-0.000660,87.941019,0.003765,
1830,840,-1.830831,-5.906500,0.999998,0.000174,-0.002345,0.004744,-0.000316,0.004758,-0.002359,-87.451008,0.004758,
890,1590,0.582372,-1.868981,0.999997,0.000208,-0.002306,0.004812,0.000292,0.004824,-0.002318,87.653900,0.004825,
1240,1770,-0.007979,-0.857349,0.999999,0.000127,-0.000905,0.003465,-0.000043,0.003465,-0.000905,-89.438908,0.003595,
1570,760,-0.944756,-6.623171,0.999997,0.000211,-0.003402,0.006065,-0.000035,0.006065,-0.003402,-89.786896,0.006080,
1550,920,-1.277472,-5.665784,0.999998,0.000195,-0.002652,0.006056,-0.000728,0.006117,-0.002713,-85.255523,0.006130,
1760,1060,-1.840650,-4.881461,0.999998,0.000161,-0.002173,0.004762,0.000169,0.004766,-0.002177,88.605172,0.004772,
1150,820,0.173817,-7.443647,0.999997,0.000210,-0.002271,0.002445,-0.001853,0.003086,-0.002912,-70.919509,0.003467,
850,1650,0.610613,-1.637205,0.999998,0.000163,-0.002206,0.004827,0.000121,0.004829,-0.002208,89.011985,0.004835,
1810,1360,-1.531643,-3.428973,0.999997,0.000198,-0.002574,0.005114,0.000213,0.005120,-0.002580,88.411905,0.005120,
1600,60,-0.067278,-9.942222,0.999998,0.000157,-0.000378,0.003579,-0.000772,0.003724,-0.000523,-79.339540,0.004032,
810,850,1.399081,-5.982409,0.999998,0.000206,-0.002762,0.005567,0.000629,0.005614,-0.002809,85.705233,0.005614,
1330,550,-0.132984,-8.233661,0.999998,0.000146,-0.001477,0.003571,0.000605,0.003643,-0.001549,83.256542,0.003656,
670,480,1.147717,-7.781897,0.999998,0.000172,-0.002539,0.005110,-0.000092,0.005111,-0.002540,-89.313541,0.005111,
1630,1550,-0.764534,-2.162546,0.999998,0.000173,-0.002580,0.005089,-0.000255,0.005098,-0.002589,-88.097103,0.005098,
1020,1760,0.216286,-0.975295,0.999998,0.000154,-0.001217,0.003902,0.000002,0.003902,-0.001217,89.973093,0.003993,
890,400,0.519640,-8.519939,0.999997,0.000209,-0.002135,0.004685,-0.000191,0.004691,-0.002140,-88.398081,0.004696,
1900,440,-1.357725,-7.813260,0.999997,0.000000,-0.002448,0.005024,-0.000003,0.005024,-0.002448,-89.979250,0.005025,
730,2020,0.048645,-0.061667,0.999998,0.000000,-0.000262,0.003921,-0.001393,0.004343,-0.000684,-73.167216,0.004670,
1110,1890,0.061281,-0.463165,0.999998,0.000158,-0.000531,0.003389,-0.000110,0.003392,-0.000534,-88.390909,0.003647,
1430,270,-0.179927,-9.212310,0.999998,0.000185,-0.001149,0.003811,-0.000033,0.003812,-0.001150,-89.623012,0.003910,
1510,1960,-0.081614,-0.251870,0.999998,0.000179,-0.000474,0.003488,0.000477,0.003545,-0.000531,83.226174,0.003823,
780,1650,0.772264,-1.742136,0.999998,0.000181,-0.002386,0.004971,0.000079,0.004972,-0.002387,89.384939,0.004973,
1550,1630,-0.494624,-1.644808,0.999997,0.000203,-0.002147,0.004672,-0.000250,0.004681,-0.002156,-87.906296,0.004686,
1220,700,0.012062,-7.883801,0.999999,0.000138,-0.001013,0.002143,-0.000261,0.002165,-0.001034,-85.309513,0.002165,
940,960,1.310285,-5.446774,0.999997,0.000204,-0.002281,0.006191,0.000592,0.006232,-0.002322,86.023914,0.006299,
920,1830,0.269799,-0.757560,0.999998,0.000159,-0.001151,0.004071,-0.000356,0.004095,-0.001175,-86.121250,0.004218,
1270,1370,-0.041132,-2.181670,0.999998,0.000147,-0.001197,0.002475,-0.000698,0.002603,-0.001325,-79.591980,0.002604,
1850,90,-0.390524,-9.674258,0.999997,0.000198,-0.002335,0.005434,-0.001172,0.005607,-0.002508,-81.606926,0.005618,
680,1520,1.202696,-2.564939,0.999998,0.000179,-0.002589,0.005149,0.000044,0.005149,-0.002589,89.672142,0.005149,
1470,370,-0.301979,-8.781983,0.999998,0.000178,-0.001550,0.004197,0.000174,0.004203,-0.001555,88.266259,0.004250,
620,730,1.675983,-6.428009,0.999997,0.000179,-0.002501,0.004958,0.000210,0.004964,-0.002507,88.389000,0.004964,
1120,210,0.072324,-9.464229,0.999998,0.000148,-0.000732,0.003482,0.000046,0.003482,-0.000733,89.380284,0.003672,
1070,1230,0.421128,-3.208575,0.999996,0.000236,-0.003676,0.005589,0.001804,0.005928,-0.004015,79.362338,0.006051,
1810,840,-1.784861,-5.923186,0.999998,0.000179,-0.002370,0.004818,-0.000392,0.004839,-0.002392,-86.884473,0.004839,
730,430,0.928142,-8.132708,0.999999,0.000158,-0.002465,0.005042,-0.000109,0.005043,-0.002466,-89.169658,0.005043,
1110,540,0.167403,-8.241824,0.999998,0.000182,-0.001656,0.003781,-0.000708,0.003872,-0.001747,-82.706310,0.003878,
1460,1150,-0.957867,-4.111880,0.999997,0.000208,-0.003450,0.007100,-0.000053,0.007101,-0.003450,-89.711493,0.007102,
640,1720,1.004028,-1.612407,0.999998,0.000178,-0.002445,0.005046,0.000012,0.005046,-0.002445,89.908500,0.005046,
780,590,1.014709,-7.386026,0.999998,0.000144,-0.002769,0.005302,-0.000087,0.005303,-0.002770,-89.379987,0.005305,
600,1600,1.288515,-2.283688,0.999997,0.000182,-0.002485,0.005070,0.000056,0.005070,-0.002486,89.571919,0.005070,
770,490,0.906376,-7.892126,0.999998,0.000169,-0.002535,0.005092,-0.000146,0.005095,-0.002537,-88.906334,0.005095,
1290,1900,-0.025438,-0.421098,0.999998,0.000156,-0.000403,0.003266,0.000081,0.003267,-0.000405,88.732759,0.003562,
1130,820,0.223676,-7.313215,0.999998,0.000196,-0.002545,0.003238,-0.002154,0.003952,-0.003259,-71.656932,0.004221,
1790,1360,-1.478928,-3.404286,0.999997,0.000212,-0.002641,0.005169,0.000245,0.005177,-0.002648,88.201806,0.005177,
1570,740,-0.905261,-6.744022,0.999998,0.000210,-0.003369,0.005951,0.000073,0.005952,-0.003370,89.550417,0.005969,
1730,400,-0.877840,-8.289792,0.999998,0.000181,-0.002443,0.005053,0.000060,0.005054,-0.002444,89.543162,0.005055,
900,1640,0.513661,-1.615944,0.999997,0.000197,-0.002165,0.004704,0.000211,0.004711,-0.002171,88.241023,0.004716,
1230,1720,0.001783,-1.031630,0.999999,0.000135,-0.001051,0.003502,0.000021,0.003502,-0.001051,89.730754,0.003594,
1060,1770,0.158822,-0.907193,0.999998,0.000141,-0.001135,0.003790,0.000000,0.003790,-0.001135,-89.996469,0.003891,
1590,1990,-0.068626,-0.160883,0.999998,0.000151,-0.000426,0.003534,0.000740,0.003668,-0.000560,79.755517,0.003952,
910,400,0.476589,-8.549344,0.999997,0.000191,-0.002052,0.004622,-0.000213,0.004628,-0.002059,-88.175781,0.004638,
1270,1350,-0.038436,-2.231462,0.999998,0.000159,-0.001155,0.002288,-0.000791,0.002461,-0.001328,-77.657293,0.002464,
730,30,0.031666,-10.035445,0.999998,0.000000,-0.000349,0.003916,0.001469,0.004373,-0.000806,72.725170,0.004654,
720,1230,1.592412,-4.029598,0.999997,0.000203,-0.002593,0.005211,-0.000537,0.005248,-0.002630,-86.083657,0.005248,
980,1340,0.565375,-2.969436,0.999997,0.000216,-0.003426,0.005686,0.000890,0.005772,-0.003512,84.472089,0.005817,
1330,530,-0.132219,-8.305303,0.999998,0.000144,-0.001451,0.003674,0.000534,0.003729,-0.001505,84.118510,0.003752,
850,1670,0.589313,-1.542225,0.999997,0.000170,-0.002098,0.004767,0.000078,0.004768,-0.002099,89.351538,0.004779,
1710,580,-1.074577,-7.395074,0.999997,0.000185,-0.002725,0.005279,0.000062,0.005279,-0.002726,89.559782,0.005280,
1370,1830,-0.099359,-0.676512,0.999998,0.000163,-0.000737,0.003545,0.000106,0.003547,-0.000739,88.586047,0.003743,
1630,1530,-0.787126,-2.263326,0.999997,0.000179,-0.002621,0.005164,-0.000261,0.005173,-0.002630,-88.080557,0.005173,
1890,2000,-0.301350,-0.274441,0.999988,0.000411,-0.001107,0.006694,0.002860,0.007630,-0.002043,71.873941,0.007899,
940,940,1.258339,-5.572902,0.999997,0.000198,-0.002568,0.006270,0.000663,0.006320,-0.002617,85.736063,0.006351,
670,460,1.118971,-7.884233,0.999998,0.000144,-0.002514,0.005061,-0.000086,0.005062,-0.002515,-89.350826,0.005062,
1170,1450,0.077838,-1.985878,0.999999,0.000140,-0.001399,0.003185,0.000652,0.003276,-0.001490,82.060715,0.003280,
760,1450,1.093134,-2.807127,0.999998,0.000193,-0.002772,0.005329,0.000029,0.005329,-0.002772,89.792677,0.005330,
1490,1960,-0.071394,-0.248009,0.999998,0.000188,-0.000462,0.003423,0.000416,0.003467,-0.000506,83.961718,0.003746,
1810,900,-1.870878,-5.634343,0.999998,0.000177,-0.002286,0.004709,-0.000309,0.004723,-0.002299,-87.474605,0.004723,
1010,1320,0.486173,-2.982351,0.999998,0.000197,-0.003489,0.005624,0.001188,0.005776,-0.003641,82.695182,0.005841,
900,1830,0.292965,-0.769817,0.999998,0.000156,-0.001260,0.004156,-0.000366,0.004181,-0.001285,-86.147176,0.004283,
1850,110,-0.478178,-9.568466,0.999996,0.000213,-0.002389,0.005364,-0.000839,0.005453,-0.002479,-83.890611,0.005461,
710,40,0.074209,-9.994695,0.999999,0.000157,-0.000556,0.004035,0.001546,0.004507,-0.001028,73.021817,0.004723,
1480,210,-0.180731,-9.416603,0.999999,0.000142,-0.000916,0.003845,-0.000264,0.003860,-0.000931,-86.836896,0.004029,
1900,430,-1.341019,-7.863692,0.999997,0.000000,-0.002452,0.004963,0.000009,0.004963,-0.002452,89.934109,0.004963,
1160,1270,0.100669,-2.501570,0.999998,0.000165,-0.001872,0.002324,0.001876,0.003040,-0.002588,69.100895,0.003281,
1650,80,-0.123949,-9.860821,0.999998,0.000144,-0.000566,0.003845,-0.000964,0.004046,-0.000768,-78.196261,0.004298,
770,470,0.881694,-7.993485,0.999998,0.000161,-0.002498,0.005086,-0.000137,0.005088,-0.002501,-88.966385,0.005089,
1550,760,-0.874487,-6.665416,0.999997,0.000194,-0.003531,0.006095,0.000103,0.006097,-0.003532,89.389605,0.006122,
970,420,0.377513,-8.535555,0.999997,0.000232,-0.001903,0.004422,-0.000322,0.004439,-0.001920,-87.096119,0.004452,
640,1700,1.036371,-1.713506,0.999998,0.000171,-0.002450,0.005041,0.000006,0.005041,-0.002450,89.953206,0.005042,
800,410,0.732918,-8.341570,0.999997,0.000223,-0.002365,0.004940,-0.000113,0.004942,-0.002367,-89.113733,0.004944,
1110,520,0.165758,-8.317845,0.999998,0.000177,-0.001589,0.003763,-0.000594,0.003828,-0.001655,-83.738545,0.003840,
730,450,0.954858,-8.032031,0.999998,0.000169,-0.002525,0.005066,-0.000112,0.005067,-0.002526,-89.158159,0.005067,
1070,1210,0.486240,-3.321575,0.999996,0.000236,-0.003682,0.005640,0.001697,0.005939,-0.003982,79.995072,0.006053,
900,1680,0.471465,-1.428598,0.999997,0.000204,-0.002006,0.004606,0.000110,0.004608,-0.002008,89.048892,0.004620,
1210,1720,0.022796,-1.034676,0.999999,0.000123,-0.001001,0.003504,0.000080,0.003505,-0.001002,88.987644,0.003611,
1400,1770,-0.154245,-0.906176,0.999999,0.000149,-0.001084,0.003746,-0.000017,0.003746,-0.001084,-89.793919,0.003856,
1510,370,-0.372226,-8.734872,0.999998,0.000182,-0.001823,0.004315,0.000177,0.004320,-0.001828,88.352604,0.004337,
1270,1900,-0.018988,-0.420115,0.999999,0.000133,-0.000430,0.003278,0.000052,0.003278,-0.000431,89.194428,0.003563,
1800,1600,-1.129443,-2.182493,0.999998,0.000149,-0.002521,0.005074,-0.000083,0.005075,-0.002522,-89.375147,0.005075,
1590,1970,-0.105865,-0.230323,0.999998,0.000149,-0.000569,0.003591,0.000692,0.003703,-0.000681,80.797730,0.003942,
680,1940,0.366447,-0.435571,0.999997,0.000218,-0.001666,0.004946,-0.001325,0.005202,-0.001921,-79.077662,0.005261,
910,380,0.458052,-8.640210,0.999997,0.000202,-0.001920,0.004525,-0.000122,0.004527,-0.001923,-88.916315,0.004544,
1440,1430,-0.364949,-2.376295,0.999997,0.000206,-0.002591,0.004654,-0.001085,0.004813,-0.002750,-81.661376,0.004829,
570,1070,2.119003,-4.863503,0.999989,0.000403,-0.001937,0.004057,-0.000059,0.004058,-0.001937,-89.440279,0.004059,
720,2020,0.053854,-0.062608,0.999998,0.000000,-0.000462,0.003945,-0.001412,0.004359,-0.000876,-73.674892,0.004611,
1270,1770,-0.034617,-0.862530,0.999998,0.000146,-0.000857,0.003482,-0.000014,0.003482,-0.000857,-89.817282,0.003628,
810,830,1.357950,-6.094903,0.999997,0.000201,-0.002850,0.005605,0.000600,0.005647,-0.002892,85.961543,0.005648,
1470,810,-0.685066,-6.579132,0.999997,0.000211,-0.003879,0.006445,0.000619,0.006482,-0.003916,86.579951,0.006528,
980,1320,0.590833,-3.082415,0.999997,0.000216,-0.003559,0.005844,0.000833,0.005918,-0.003632,84.975745,0.005968,
850,1690,0.564846,-1.449132,0.999997,0.000193,-0.002004,0.004701,-0.000001,0.004701,-0.002004,-89.989449,0.004718,
900,1250,1.018500,-3.720233,0.999997,0.000203,-0.003424,0.006208,-0.000287,0.006217,-0.003433,-88.296592,0.006228,
1170,1430,0.075451,-2.050373,0.999999,0.000137,-0.001396,0.003070,0.000745,0.003191,-0.001517,80.768937,0.003192,
940,920,1.205365,-5.698151,0.999997,0.000206,-0.002797,0.006363,0.000684,0.006414,-0.002847,85.754064,0.006428,
1890,1990,-0.359170,-0.334081,0.999997,0.000229,-0.001675,0.006408,0.002208,0.006972,-0.002239,75.678055,0.007119,
1590,860,-1.240526,-5.983159,0.999997,0.000196,-0.002990,0.005945,-0.000631,0.005990,-0.003035,-85.979080,0.005990,
1290,80,-0.011230,-9.896395,0.999999,0.000141,-0.000152,0.003083,-0.000082,0.003085,-0.000154,-88.540821,0.003477,
1880,1370,-1.690161,-3.480487,0.999998,0.000203,-0.002466,0.005057,0.000057,0.005057,-0.002467,89.565941,0.005058,
660,1190,1.806480,-4.272778,0.999998,0.000178,-0.002383,0.004871,-0.000433,0.004897,-0.002408,-86.599590,0.004897,
980,1410,0.496003,-2.585292,0.999997,0.000199,-0.002966,0.005139,0.000912,0.005240,-0.003067,83.658484,0.005266,
1330,510,-0.131309,-8.380157,0.999998,0.000139,-0.001430,0.003636,0.000472,0.003679,-0.001473,84.725912,0.003703,
1710,420,-0.855767,-8.220253,0.999998,0.000174,-0.002444,0.005047,0.000106,0.005048,-0.002445,89.187178,0.005049,
1590,720,-0.936156,-6.823024,0.999999,0.000141,-0.003291,0.005815,0.000058,0.005815,-0.003291,89.635603,0.005832,
1370,1810,-0.108171,-0.748494,0.999998,0.000146,-0.000833,0.003587,0.000070,0.003588,-0.000834,89.089181,0.003756,
1290,1960,-0.014632,-0.227480,0.999998,0.000147,-0.000203,0.003129,0.000069,0.003131,-0.000204,88.817716,0.003503,
1630,1510,-0.811198,-2.366854,0.999998,0.000173,-0.002656,0.005222,-0.000264,0.005230,-0.002665,-88.079533,0.005231,
770,450,0.854134,-8.096949,0.999998,0.000160,-0.002477,0.005090,-0.000138,0.005093,-0.002479,-88.952920,0.005093,
780,410,0.778193,-8.312094,0.999998,0.000184,-0.002373,0.004988,-0.000077,0.004989,-0.002374,-89.401724,0.004991,
1900,420,-1.325494,-7.914262,0.999998,0.000000,-0.002454,0.004877,0.000058,0.004878,-0.002454,89.550081,0.004878,
1150,1440,0.106017,-2.047587,0.999998,0.000149,-0.001474,0.003295,0.000777,0.003419,-0.001598,80.975166,0.003421,
850,1380,0.936336,-3.039843,0.999997,0.000200,-0.003109,0.005574,0.000107,0.005575,-0.003110,89.296069,0.005588,
1850,130,-0.555701,-9.459609,0.999997,0.000205,-0.002424,0.005353,-0.000643,0.005406,-0.002477,-85.302393,0.005412,
1460,210,-0.165601,-9.423596,0.999998,0.000179,-0.000848,0.003766,-0.000244,0.003779,-0.000860,-86.986096,0.003962,
1370,1900,-0.062956,-0.432653,0.999999,0.000132,-0.000450,0.003408,0.000172,0.003415,-0.000457,87.444568,0.003708,
740,1450,1.148344,-2.836471,0.999998,0.000147,-0.002724,0.005272,-0.000027,0.005272,-0.002724,-89.803432,0.005273,
670,440,1.090370,-7.985553,0.999998,0.000146,-0.002524,0.005058,-0.000085,0.005059,-0.002525,-89.354059,0.005059,
1510,350,-0.355005,-8.818088,0.999998,0.000179,-0.001771,0.004280,0.000120,0.004283,-0.001773,88.860857,0.004304,
640,1680,1.068105,-1.813855,0.999998,0.000172,-0.002441,0.005029,0.000044,0.005029,-0.002441,89.664507,0.005030,
1040,330,0.212200,-8.984447,0.999998,0.000158,-0.001394,0.003916,-0.000125,0.003919,-0.001397,-88.649432,0.003973,
740,350,0.784962,-8.554767,0.999997,0.000192,-0.002365,0.005036,0.000059,0.005037,-0.002366,89.540765,0.005040,
1590,1950,-0.136389,-0.301129,0.999998,0.000169,-0.000743,0.003769,0.000685,0.003870,-0.000845,81.554970,0.004070,
900,1810,0.319973,-0.853052,0.999998,0.000167,-0.001363,0.004220,-0.000301,0.004236,-0.001379,-86.927652,0.004322,
910,1190,1.138628,-4.079094,0.999998,0.000188,-0.003175,0.006219,-0.000598,0.006257,-0.003213,-86.371631,0.006258,
940,410,0.427761,-8.542186,0.999997,0.000206,-0.001876,0.004483,-0.000255,0.004493,-0.001886,-87.711008,0.004513,
1190,1720,0.042866,-1.038265,0.999999,0.000134,-0.001005,0.003530,0.000051,0.003531,-0.001006,89.350865,0.003638,
780,30,0.036013,-10.037066,0.999999,0.000000,-0.000151,0.003632,0.001069,0.003913,-0.000432,75.269300,0.004291,
680,1960,0.296778,-0.339489,0.999997,0.000210,-0.001332,0.004642,-0.001484,0.004990,-0.001681,-76.789564,0.005078,
640,1950,0.394022,-0.422199,0.999996,0.000226,-0.001938,0.005228,-0.001202,0.005424,-0.002134,-80.727975,0.005465,
1380,1770,-0.134908,-0.896773,0.999998,0.000163,-0.000941,0.003708,0.000040,0.003708,-0.000941,89.504678,0.003855,
1110,620,0.170866,-7.939876,0.999998,0.000190,-0.001831,0.003725,-0.001081,0.003928,-0.002033,-79.372127,0.003928,
1890,1980,-0.408579,-0.397153,0.999997,0.000192,-0.002046,0.006247,0.001717,0.006589,-0.002388,78.752394,0.006671,
990,1220,0.764865,-3.678916,0.999996,0.000242,-0.003897,0.006675,0.000387,0.006689,-0.003911,87.908209,0.006721,
980,1300,0.622633,-3.202390,0.999997,0.000242,-0.003664,0.006005,0.000764,0.006065,-0.003724,85.511955,0.006117,
1070,1190,0.556306,-3.434762,0.999995,0.000246,-0.003505,0.005731,0.001824,0.006078,-0.003853,79.222827,0.006150,
1570,860,-1.178655,-6.009003,0.999997,0.000178,-0.003101,0.006107,-0.000611,0.006147,-0.003141,-86.221873,0.006148,
730,470,0.982693,-7.929279,0.999998,0.000167,-0.002548,0.005097,-0.000122,0.005099,-0.002550,-89.088674,0.005099,
1230,400,0.001998,-8.819311,0.999998,0.000171,-0.001154,0.003565,-0.000005,0.003565,-0.001154,-89.944316,0.003638,
980,1610,0.374927,-1.641255,0.999998,0.000177,-0.001973,0.004431,0.000388,0.004455,-0.001996,86.541894,0.004463,
1330,490,-0.128421,-8.452138,0.999998,0.000172,-0.001424,0.003649,0.000426,0.003684,-0.001460,85.234592,0.003710,
1470,790,-0.639978,-6.707022,0.999997,0.000214,-0.003820,0.006304,0.000757,0.006361,-0.003877,85.749641,0.006411,
1270,1790,-0.032755,-0.793243,0.999998,0.000162,-0.000794,0.003471,0.000006,0.003471,-0.000794,89.924980,0.003637,
720,1190,1.661186,-4.235719,0.999998,0.000195,-0.002489,0.005071,-0.000539,0.005109,-0.002527,-85.939471,0.005109,
770,430,0.830339,-8.197636,0.999998,0.000168,-0.002458,0.005005,-0.000139,0.005007,-0.002461,-88.934297,0.005008,
1170,1410,0.075114,-2.110624,0.999998,0.000166,-0.001382,0.002975,0.000812,0.003121,-0.001529,79.780202,0.003121,
1430,250,-0.167888,-9.284957,0.999998,0.000180,-0.001078,0.003790,-0.000085,0.003791,-0.001079,-89.001811,0.003906,
1800,1620,-1.099736,-2.081159,0.999998,0.000165,-0.002512,0.005045,-0.000076,0.005046,-0.002513,-89.422862,0.005046,
810,810,1.316623,-6.207190,0.999997,0.000209,-0.002937,0.005656,0.000544,0.005691,-0.002971,86.393861,0.005692,
940,900,1.144048,-5.827346,0.999997,0.000192,-0.003045,0.006433,0.000619,0.006474,-0.003086,86.277359,0.006476,
1550,1610,-0.514357,-1.740233,0.999998,0.000193,-0.002212,0.004724,-0.000319,0.004738,-0.002227,-87.374195,0.004741,
570,1890,0.784752,-0.907317,0.999904,0.001103,-0.002975,0.004921,-0.000250,0.004929,-0.002983,-88.185805,0.004966,
1220,680,0.010609,-7.930264,0.999999,0.000139,-0.001044,0.002363,-0.000222,0.002377,-0.001058,-86.282372,0.002382,
570,1060,2.121565,-4.905070,0.999990,0.000375,-0.001936,0.004051,-0.000066,0.004052,-0.001937,-89.365932,0.004053,
860,180,0.277956,-9.473825,0.999998,0.000199,-0.001235,0.004154,0.000554,0.004211,-0.001292,84.191645,0.004314,
1370,1790,-0.115934,-0.819098,0.999998,0.000155,-0.000894,0.003620,0.000042,0.003620,-0.000894,89.471239,0.003771,
1630,1930,-0.205368,-0.395300,0.999998,0.000168,-0.000772,0.004037,0.000857,0.004185,-0.000920,80.191135,0.004398,
1650,680,-1.056838,-6.949449,0.999998,0.000174,-0.002986,0.005528,-0.000043,0.005528,-0.002986,-89.709621,0.005534,
1590,700,-0.903721,-6.938943,0.999998,0.000165,-0.003241,0.005736,0.000137,0.005738,-0.003244,89.123214,0.005755,
1640,270,-0.483563,-9.048220,0.999997,0.000171,-0.001745,0.004577,-0.000345,0.004596,-0.001763,-86.883713,0.004637,
820,1450,0.922899,-2.709288,0.999998,0.000177,-0.002856,0.005384,0.000163,0.005387,-0.002860,88.866150,0.005391,
670,420,1.061324,-8.086713,0.999998,0.000169,-0.002508,0.005094,-0.000079,0.005094,-0.002509,-89.403478,0.005095,
1890,1280,-1.868205,-3.939593,0.999997,0.000194,-0.002344,0.004754,0.000099,0.004756,-0.002345,89.199409,0.004756,
1130,1960,0.022492,-0.232572,0.999999,0.000166,-0.000301,0.003168,-0.000117,0.003172,-0.000305,-88.067581,0.003499,
1780,1930,-0.397878,-0.484945,0.999996,0.000219,-0.001756,0.004979,0.001238,0.005199,-0.001977,79.911062,0.005249,
1850,150,-0.628812,-9.355278,0.999998,0.000184,-0.002453,0.005180,-0.000460,0.005208,-0.002481,-86.561803,0.005210,
1360,210,-0.084426,-9.458508,0.999998,0.000188,-0.000700,0.003474,-0.000086,0.003476,-0.000702,-88.821353,0.003676,
1320,330,-0.087220,-9.047181,0.999998,0.000155,-0.001091,0.003619,0.000093,0.003621,-0.001093,88.872551,0.003714,
640,1660,1.098250,-1.915456,0.999998,0.000181,-0.002447,0.005024,0.000072,0.005025,-0.002447,89.450878,0.005026,
700,190,0.555996,-9.295536,0.999998,0.000177,-0.002239,0.004990,0.000615,0.005042,-0.002291,85.168966,0.005049,
720,30,0.036951,-10.035251,0.999999,0.000000,-0.000460,0.003968,0.001509,0.004433,-0.000925,72.867063,0.004677,
1870,1370,-1.665208,-3.464592,0.999998,0.000206,-0.002479,0.005054,0.000088,0.005055,-0.002480,89.331352,0.005055,
980,1280,0.658366,-3.323943,0.999998,0.000211,-0.003771,0.006236,0.000669,0.006280,-0.003815,86.190535,0.006328,
900,1790,0.346585,-0.938334,0.999998,0.000164,-0.001462,0.004289,-0.000221,0.004298,-0.001471,-87.797833,0.004368,
680,1980,0.224894,-0.247787,0.999998,0.000195,-0.000953,0.004771,-0.001815,0.005298,-0.001480,-73.812212,0.005467,
1380,270,-0.128268,-9.238338,0.999998,0.000140,-0.000901,0.003633,-0.000061,0.003634,-0.000902,-89.227089,0.003784,
1900,410,-1.312441,-7.961738,0.999998,0.000000,-0.002449,0.004825,0.000087,0.004826,-0.002450,89.316333,0.004826,
1590,1930,-0.170940,-0.382103,0.999998,0.000189,-0.000896,0.003873,0.000661,0.003963,-0.000986,82.255604,0.004126,
1710,1180,-1.595852,-4.269237,0.999997,0.000205,-0.002532,0.005190,0.000556,0.005230,-0.002571,85.904457,0.005230,
920,1250,0.948885,-3.681135,0.999997,0.000183,-0.003543,0.006303,-0.000143,0.006305,-0.003545,-89.167091,0.006321,
770,410,0.801897,-8.297647,0.999998,0.000169,-0.002403,0.005008,-0.000080,0.005009,-0.002404,-89.383385,0.005011,
1880,2000,-0.284582,-0.260727,0.999992,0.000328,-0.001256,0.006167,0.002496,0.006928,-0.002017,73.041611,0.007127,
1350,1720,-0.125610,-1.069531,0.999999,0.000138,-0.001134,0.003689,-0.000120,0.003692,-0.001137,-88.576104,0.003781,
1040,1770,0.183457,-0.921854,0.999998,0.000154,-0.001245,0.003840,0.000021,0.003840,-0.001245,89.762234,0.003918,
910,1170,1.192169,-4.202277,0.999997,0.000202,-0.003009,0.006159,-0.000665,0.006207,-0.003057,-85.870211,0.006207,
1630,1950,-0.162665,-0.312111,0.999998,0.000158,-0.000628,0.003905,0.000870,0.004066,-0.000790,79.503833,0.004312,
1800,1640,-1.070091,-1.981089,0.999997,0.000177,-0.002494,0.005067,-0.000085,0.005068,-0.002495,-89.353323,0.005068,
590,1080,2.072828,-4.817137,0.999998,0.000181,-0.002040,0.004182,-0.000019,0.004182,-0.002040,-89.827336,0.004182,
1330,470,-0.129151,-8.525118,0.999998,0.000175,-0.001395,0.003711,0.000384,0.003740,-0.001424,85.717942,0.003775,
810,1230,1.347562,-3.957281,0.999997,0.000204,-0.002873,0.005609,-0.000586,0.005650,-0.002913,-86.063280,0.005651,
1170,1390,0.072763,-2.170178,0.999999,0.000149,-0.001379,0.002839,0.000912,0.003028,-0.001568,78.302954,0.003029,
700,1190,1.709749,-4.246665,0.999998,0.000170,-0.002450,0.005005,-0.000513,0.005040,-0.002485,-86.079817,0.005041,
1470,770,-0.599270,-6.832150,0.999997,0.000217,-0.003776,0.006114,0.000842,0.006185,-0.003847,85.170769,0.006246,
940,880,1.084085,-5.958080,0.999998,0.000180,-0.003226,0.006467,0.000527,0.006496,-0.003255,86.899045,0.006496,
1370,1770,-0.125559,-0.892531,0.999998,0.000163,-0.000940,0.003688,0.000039,0.003688,-0.000940,89.512479,0.003833,
1000,150,0.111315,-9.645727,0.999998,0.000136,-0.000546,0.003587,0.000324,0.003612,-0.000572,85.541483,0.003884,
1650,660,-1.024452,-7.060316,0.999998,0.000159,-0.002958,0.005495,0.000008,0.005495,-0.002958,89.949019,0.005501,
1790,320,-0.898360,-8.598026,0.999998,0.000177,-0.002410,0.005008,-0.000038,0.005009,-0.002410,-89.706535,0.005010,
1270,1810,-0.029937,-0.723105,0.999998,0.000162,-0.000755,0.003449,0.000030,0.003449,-0.000755,89.592474,0.003626,
670,320,0.905244,-8.593594,0.999998,0.000168,-0.002412,0.005043,0.000053,0.005043,-0.002413,89.594348,0.005045,
800,1450,0.980620,-2.740540,0.999999,0.000122,-0.002836,0.005376,0.000097,0.005377,-0.002837,89.321524,0.005380,
640,1640,1.128319,-2.015390,0.999998,0.000190,-0.002496,0.005051,0.000065,0.005051,-0.002497,89.509996,0.005051,
1510,330,-0.337202,-8.906118,0.999998,0.000183,-0.001670,0.004353,0.000041,0.004353,-0.001671,89.608824,0.004392,
1350,1900,-0.053707,-0.429551,0.999999,0.000132,-0.000511,0.003365,0.000130,0.003369,-0.000516,88.081396,0.003630,
1570,80,-0.084747,-9.871350,0.999998,0.000135,-0.000445,0.003549,-0.000663,0.003656,-0.000552,-80.818706,0.003942,
1880,1280,-1.843998,-3.924251,0.999998,0.000185,-0.002368,0.004796,0.000132,0.004799,-0.002370,88.942106,0.004799,
1770,1320,-1.499159,-3.586926,0.999996,0.000242,-0.002658,0.005211,0.000334,0.005226,-0.002672,87.574876,0.005226,
710,30,0.043734,-10.034230,0.999999,0.000000,-0.000465,0.004027,0.001581,0.004528,-0.000966,72.424775,0.004769,
1560,1430,-0.704901,-2.659989,0.999998,0.000175,-0.002998,0.005377,-0.000469,0.005403,-0.003024,-86.807885,0.005416,
1590,1910,-0.203130,-0.456834,0.999998,0.000201,-0.001075,0.003962,0.000611,0.004035,-0.001148,83.175856,0.004158,
1280,270,-0.039733,-9.270232,0.999999,0.000130,-0.000769,0.003495,0.000010,0.003495,-0.000769,89.871291,0.003673,
1300,330,-0.067834,-9.053795,0.999999,0.000141,-0.000972,0.003576,0.000032,0.003576,-0.000972,89.599121,0.003698,
980,1260,0.701154,-3.450902,0.999997,0.000228,-0.003858,0.006416,0.000574,0.006448,-0.003890,86.810466,0.006494,
1530,920,-1.223518,-5.690383,0.999997,0.000210,-0.002709,0.006260,-0.000701,0.006314,-0.002763,-85.560105,0.006330,
690,70,0.193638,-9.861513,0.999998,0.000183,-0.000957,0.004605,0.001744,0.005107,-0.001459,73.955235,0.005261,
1850,590,-1.458077,-7.127013,0.999997,0.000194,-0.002565,0.005069,-0.000037,0.005069,-0.002565,-89.724757,0.005069,
1890,630,-1.623486,-6.861800,0.999997,0.000200,-0.002538,0.005060,-0.000032,0.005060,-0.002538,-89.755962,0.005060,
1180,210,0.033729,-9.475060,0.999998,0.000168,-0.000596,0.003364,0.000019,0.003364,-0.000596,89.728402,0.003591,
1630,1970,-0.128012,-0.236936,0.999998,0.000159,-0.000482,0.003800,0.000899,0.003981,-0.000663,78.610297,0.004266,
1520,1670,-0.403100,-1.422924,0.999997,0.000188,-0.001834,0.004406,-0.000195,0.004412,-0.001840,-88.215431,0.004432,
860,160,0.245821,-9.554531,0.999998,0.000199,-0.001118,0.004119,0.000646,0.004198,-0.001197,83.075836,0.004325,
770,830,1.468640,-6.063498,0.999997,0.000194,-0.002737,0.005390,0.000578,0.005431,-0.002778,85.954164,0.005431,
1870,2000,-0.268235,-0.245322,0.999998,0.000170,-0.001544,0.005703,0.002116,0.006275,-0.002117,74.859161,0.006385,
860,610,0.813404,-7.416414,0.999998,0.000176,-0.002913,0.005348,-0.000286,0.005358,-0.002923,-88.017651,0.005365,
1170,1370,0.071351,-2.226277,0.999999,0.000146,-0.001396,0.002721,0.001027,0.002963,-0.001638,76.742677,0.002969,
910,1150,1.247545,-4.326427,0.999997,0.000207,-0.002766,0.006126,-0.000729,0.006185,-0.002826,-85.346941,0.006193,
1310,660,-0.097892,-7.895720,0.999999,0.000142,-0.001510,0.003070,0.001031,0.003292,-0.001731,77.882109,0.003293,
680,1190,1.759826,-4.260091,0.999997,0.000217,-0.002417,0.004933,-0.000476,0.004964,-0.002448,-86.311623,0.004964,
940,860,1.024795,-6.086807,0.999998,0.000174,-0.003430,0.006484,0.000403,0.006501,-0.003446,87.673997,0.006505,
1610,320,-0.501001,-8.847921,0.999998,0.000192,-0.001887,0.004623,-0.000074,0.004624,-0.001888,-89.350065,0.004650,
730,910,1.707176,-5.618942,0.999998,0.000174,-0.002339,0.005021,0.000473,0.005051,-0.002369,86.338899,0.005054,
1330,690,-0.128149,-7.748864,0.999998,0.000152,-0.001811,0.003293,0.001451,0.003676,-0.002194,75.190088,0.003699,
1070,1170,0.640617,-3.560868,0.999996,0.000232,-0.003113,0.005657,0.002131,0.006147,-0.003603,77.042396,0.006177,
1710,520,-0.990028,-7.708745,0.999998,0.000172,-0.002633,0.005191,0.000150,0.005194,-0.002635,88.903392,0.005194,
1370,1750,-0.136192,-0.966724,0.999998,0.000167,-0.000982,0.003697,-0.000022,0.003697,-0.000982,-89.725620,0.003830,
1330,1720,-0.100899,-1.055322,0.999998,0.000165,-0.001149,0.003636,-0.000152,0.003641,-0.001154,-88.182146,0.003721,
940,1830,0.244956,-0.745888,0.999998,0.000164,-0.001192,0.003993,-0.000270,0.004007,-0.001206,-87.031238,0.004111,
1020,1770,0.207968,-0.935205,0.999998,0.000152,-0.001173,0.003917,-0.000031,0.003918,-0.001174,-89.654305,0.004021,
1590,1180,-1.275250,-4.184774,0.999998,0.000190,-0.002874,0.005922,0.000713,0.005979,-0.002931,85.396428,0.005979,
1510,310,-0.317766,-8.993564,0.999998,0.000191,-0.001599,0.004206,0.000006,0.004206,-0.001599,89.940109,0.004246,
1250,80,-0.003906,-9.896855,0.999999,0.000134,-0.000213,0.003043,-0.000016,0.003043,-0.000213,-89.721327,0.003398,
640,1620,1.159820,-2.118328,0.999998,0.000165,-0.002536,0.005070,0.000075,0.005071,-0.002537,89.437532,0.005071,
1370,1300,-0.237542,-2.728176,0.999997,0.000223,-0.002813,0.004343,-0.001995,0.004862,-0.003332,-75.432202,0.004972,
1130,400,0.120359,-8.782549,0.999999,0.000149,-0.001303,0.003662,-0.000271,0.003677,-0.001318,-86.888575,0.003726,
1270,1830,-0.025603,-0.654306,0.999998,0.000188,-0.000689,0.003416,0.000014,0.003416,-0.000689,89.798079,0.003613,
1550,1960,-0.097527,-0.258850,0.999999,0.000129,-0.000395,0.003561,0.000609,0.003652,-0.000487,81.442252,0.003966,
1250,1900,-0.008601,-0.420811,0.999998,0.000154,-0.000469,0.003275,0.000012,0.003275,-0.000469,89.816378,0.003543,
1800,1660,-1.042453,-1.876988,0.999998,0.000162,-0.002459,0.005097,-0.000078,0.005098,-0.002460,-89.408369,0.005099,
570,1050,2.125104,-4.945593,0.999990,0.000361,-0.001935,0.004065,-0.000100,0.004067,-0.001937,-89.048738,0.004069,
1430,230,-0.153546,-9.364595,0.999998,0.000178,-0.001001,0.003746,-0.000108,0.003749,-0.001004,-88.694526,0.003881,
1690,1180,-1.544778,-4.258225,0.999997,0.000207,-0.002561,0.005275,0.000569,0.005316,-0.002602,85.867273,0.005316,
1900,400,-1.298624,-8.008770,0.999998,0.000000,-0.002442,0.004853,0.000060,0.004854,-0.002442,89.530048,0.004854,
850,1700,0.551899,-1.401228,0.999997,0.000191,-0.001957,0.004690,-0.000039,0.004690,-0.001957,-89.660029,0.004712,
1590,1890,-0.237221,-0.539284,0.999998,0.000187,-0.001189,0.004039,0.000557,0.004098,-0.001248,83.981968,0.004201,
670,300,0.870102,-8.695142,0.999998,0.000180,-0.002403,0.005063,0.000137,0.005065,-0.002406,88.950028,0.005067,
1550,1590,-0.530386,-1.834536,0.999998,0.000183,-0.002260,0.004712,-0.000349,0.004729,-0.002277,-87.139479,0.004730,
980,1240,0.748525,-3.580070,0.999997,0.000231,-0.003896,0.006542,0.000417,0.006559,-0.003913,87.718434,0.006600,
690,510,1.140842,-7.659876,0.999998,0.000189,-0.002574,0.005161,-0.000076,0.005162,-0.002575,-89.440642,0.005162,
1220,660,0.013315,-7.978133,0.999999,0.000136,-0.001096,0.002537,-0.000215,0.002550,-0.001109,-86.624919,0.002557,
700,2020,0.065143,-0.066567,0.999998,0.000000,-0.000422,0.004014,-0.001530,0.004491,-0.000899,-72.698848,0.004753,
1050,940,0.937633,-5.971857,0.999996,0.000234,-0.003285,0.007909,-0.002426,0.008412,-0.003788,-78.284154,0.008426,
1830,1220,-1.823727,-4.148967,0.999999,0.000135,-0.002376,0.004748,0.000338,0.004764,-0.002392,87.285956,0.004764,
1790,300,-0.862144,-8.700384,0.999998,0.000160,-0.002388,0.005095,-0.000129,0.005098,-0.002391,-89.011449,0.005101,
1280,330,-0.048310,-9.056803,0.999999,0.000149,-0.000988,0.003560,0.000041,0.003560,-0.000988,89.489083,0.003675,
1300,270,-0.055336,-9.267228,0.999999,0.000141,-0.000808,0.003512,-0.000021,0.003512,-0.000808,-89.728078,0.003679,
860,140,0.206774,-9.638471,0.999998,0.000183,-0.000954,0.003973,0.000683,0.004065,-0.001047,82.253236,0.004222,
1470,750,-0.566058,-6.952599,0.999997,0.000241,-0.003666,0.005884,0.000953,0.005979,-0.003760,84.355826,0.006045,
1880,630,-1.598372,-6.878024,0.999997,0.000202,-0.002544,0.005064,-0.000040,0.005064,-0.002544,-89.696409,0.005064,
1850,80,-0.342717,-9.727940,0.999997,0.000206,-0.002306,0.005595,-0.001303,0.005804,-0.002515,-80.875595,0.005821,
770,850,1.508514,-5.952058,0.999997,0.000207,-0.002642,0.005388,0.000625,0.005437,-0.002690,85.574435,0.005437,
1630,1990,-0.084616,-0.159756,0.999998,0.000156,-0.000293,0.003668,0.000940,0.003880,-0.000505,77.301033,0.004219,
840,610,0.872747,-7.378900,0.999998,0.000158,-0.002910,0.005384,-0.000237,0.005391,-0.002916,-88.364985,0.005397,
1330,450,-0.125072,-8.599485,0.999998,0.000160,-0.001383,0.003690,0.000340,0.003713,-0.001405,86.179584,0.003749,
1170,1350,0.067427,-2.276638,0.999998,0.000167,-0.001407,0.002608,0.001145,0.002911,-0.001711,75.152379,0.002926,
1590,1020,-1.505716,-5.080537,0.999997,0.000222,-0.001888,0.005395,-0.000078,0.005396,-0.001889,-89.386404,0.005476,
940,840,0.965566,-6.220129,0.999998,0.000177,-0.003559,0.006492,0.000242,0.006498,-0.003565,88.621191,0.006508,
1610,300,-0.476045,-8.937961,0.999997,0.000214,-0.001824,0.004543,-0.000157,0.004547,-0.001827,-88.586084,0.004576,
1880,1750,-1.089429,-1.566764,0.999998,0.000192,-0.002377,0.004925,-0.000047,0.004925,-0.002378,-89.631290,0.004926,
1430,210,-0.140635,-9.436490,0.999998,0.000197,-0.000894,0.003639,-0.000165,0.003645,-0.000900,-87.917558,0.003798,
1570,1180,-1.217298,-4.162550,0.999997,0.000191,-0.003022,0.006078,0.000687,0.006130,-0.003074,85.707020,0.006130,
1850,570,-1.427070,-7.229126,0.999997,0.000206,-0.002554,0.005101,-0.000009,0.005101,-0.002554,-89.934458,0.005101,
640,1820,0.803928,-1.102231,0.999998,0.000193,-0.002378,0.005080,-0.000241,0.005087,-0.002386,-88.154393,0.005091,
1370,1730,-0.141734,-1.041339,0.999998,0.000164,-0.001052,0.003743,-0.000056,0.003744,-0.001053,-89.332107,0.003862,
1370,1280,-0.257581,-2.817665,0.999998,0.000195,-0.002997,0.004491,-0.002121,0.005050,-0.003556,-75.237846,0.005189,
840,430,0.662954,-8.305071,0.999997,0.000230,-0.002341,0.004945,-0.000179,0.004950,-0.002345,-88.595942,0.004952,
1260,330,-0.029623,-9.061381,0.999998,0.000147,-0.000976,0.003537,0.000061,0.003537,-0.000977,89.222950,0.003654,
1880,1970,-0.435940,-0.442155,0.999996,0.000222,-0.002246,0.006006,0.001428,0.006246,-0.002487,80.453261,0.006289,
1520,1650,-0.418304,-1.513457,0.999997,0.000204,-0.001877,0.004460,-0.000239,0.004469,-0.001886,-87.840847,0.004487,
1310,480,-0.099568,-8.506540,0.999997,0.000191,-0.001419,0.003617,0.000377,0.003645,-0.001447,85.742980,0.003671,
1830,1420,-1.478981,-3.150627,0.999997,0.000213,-0.002594,0.005101,0.000091,0.005102,-0.002595,89.325605,0.005102,
700,30,0.047310,-10.036077,0.999998,0.000000,-0.000374,0.004089,0.001614,0.004611,-0.000896,72.061158,0.004890,
1510,730,-0.678560,-6.947427,0.999997,0.000190,-0.003484,0.005874,0.000610,0.005913,-0.003524,86.283596,0.005950,
1110,400,0.146379,-8.766791,0.999998,0.000180,-0.001284,0.003700,-0.000248,0.003712,-0.001296,-87.162687,0.003768,
1000,1770,0.230055,-0.947539,0.999998,0.000151,-0.001139,0.003977,-0.000098,0.003979,-0.001141,-88.902675,0.004098,
910,1130,1.296813,-4.448095,0.999997,0.000209,-0.002559,0.006035,-0.000719,0.006095,-0.002619,-85.250307,0.006115,
1130,80,0.019413,-9.894507,0.999999,0.000151,-0.000218,0.003104,0.000144,0.003110,-0.000224,87.524534,0.003470,
730,890,1.675842,-5.721992,0.999998,0.000182,-0.002422,0.005124,0.000553,0.005164,-0.002462,85.831449,0.005166,
1070,890,0.664057,-6.490590,0.999996,0.000254,-0.002951,0.005721,-0.002291,0.006289,-0.003519,-76.072398,0.006304,
1590,1870,-0.268938,-0.618449,0.999998,0.000182,-0.001310,0.004138,0.000503,0.004184,-0.001356,84.767933,0.004270,
810,1250,1.305696,-3.844018,0.999998,0.000214,-0.002975,0.005662,-0.000520,0.005694,-0.003006,-86.566480,0.005697,
1220,640,0.013103,-8.031155,0.999999,0.000134,-0.001160,0.002678,-0.000176,0.002686,-0.001168,-87.374684,0.002694,
850,1880,0.282422,-0.592661,0.999997,0.000202,-0.001167,0.004165,-0.000617,0.004235,-0.001237,-83.484688,0.004355,
1550,1570,-0.548727,-1.929294,0.999997,0.000209,-0.002311,0.004785,-0.000364,0.004803,-0.002329,-87.070303,0.004804,
980,1220,0.803270,-3.713741,0.999997,0.000221,-0.003865,0.006675,0.000239,0.006680,-0.003871,88.701165,0.006708,
690,490,1.110377,-7.764698,0.999998,0.000155,-0.002575,0.005122,-0.000098,0.005124,-0.002576,-89.269610,0.005124,
1470,730,-0.539332,-7.068536,0.999997,0.000211,-0.003538,0.005717,0.000998,0.005823,-0.003645,83.913452,0.005884,
1810,170,-0.599081,-9.335398,0.999998,0.000207,-0.002126,0.005192,-0.000798,0.005278,-0.002212,-83.845953,0.005301,
880,930,1.381908,-5.579115,0.999997,0.000215,-0.002433,0.005741,0.000724,0.005805,-0.002496,84.980078,0.005824,
1900,390,-1.281764,-8.058076,0.999998,0.000000,-0.002450,0.004901,0.000053,0.004902,-0.002451,89.583758,0.004902,
1050,930,0.900910,-6.047493,0.999996,0.000242,-0.003217,0.007424,-0.002221,0.007869,-0.003662,-78.668995,0.007875,
1850,440,-1.233391,-7.894113,0.999997,0.000197,-0.002488,0.005000,0.000071,0.005000,-0.002489,89.459280,0.005000,
1810,1220,-1.775171,-4.133241,0.999998,0.000165,-0.002386,0.004820,0.000386,0.004841,-0.002407,86.942672,0.004841,
590,1110,2.058695,-4.688643,0.999998,0.000164,-0.002067,0.004337,-0.000115,0.004339,-0.002069,-88.969329,0.004341,
770,870,1.544934,-5.846334,0.999997,0.000210,-0.002559,0.005268,0.000601,0.005314,-0.002605,85.636912,0.005314,
1620,1910,-0.232277,-0.470246,0.999998,0.000183,-0.000905,0.004051,0.000734,0.004158,-0.001012,81.747082,0.004337,
1260,270,-0.024071,-9.272353,0.999998,0.000158,-0.000833,0.003479,0.000024,0.003479,-0.000833,89.678384,0.003633,
1690,80,-0.153777,-9.848295,0.999998,0.000173,-0.000691,0.003950,-0.001127,0.004209,-0.000950,-77.044602,0.004415,
1870,1280,-1.819970,-3.909859,0.999997,0.000200,-0.002411,0.004833,0.000179,0.004837,-0.002416,88.584279,0.004837,
1230,1900,0.000823,-0.418701,0.999998,0.000144,-0.000486,0.003268,0.000002,0.003268,-0.000486,89.976878,0.003526,
1280,320,-0.047105,-9.093310,0.999998,0.000165,-0.000957,0.003546,0.000033,0.003546,-0.000957,89.578202,0.003669,
1890,90,-0.481928,-9.585579,0.999997,0.000189,-0.002243,0.006095,-0.001346,0.006307,-0.002455,-81.052967,0.006359,
1590,1000,-1.495782,-5.188154,0.999997,0.000182,-0.001946,0.005347,-0.000227,0.005354,-0.001953,-88.218235,0.005419,
1640,480,-0.760613,-8.029922,0.999998,0.000181,-0.002499,0.005042,0.000216,0.005048,-0.002505,88.362301,0.005048,
1640,250,-0.449068,-9.139973,0.999998,0.000188,-0.001660,0.004580,-0.000431,0.004610,-0.001689,-86.068420,0.004664,
940,820,0.914091,-6.348472,0.999998,0.000171,-0.003645,0.006463,0.000078,0.006464,-0.003646,89.556035,0.006482,
1170,1330,0.066318,-2.326189,0.999998,0.000181,-0.001436,0.002455,0.001264,0.002829,-0.001811,73.496746,0.002866,
860,120,0.174926,-9.713771,0.999998,0.000178,-0.000796,0.003897,0.000747,0.004013,-0.000912,81.175756,0.004207,
1330,410,-0.118977,-8.747857,0.999998,0.000170,-0.001332,0.003669,0.000287,0.003686,-0.001348,86.726791,0.003730,
1790,240,-0.738645,-9.004174,0.999998,0.000179,-0.002288,0.005050,-0.000384,0.005070,-0.002308,-87.011521,0.005077,
1760,970,-1.829991,-5.315286,0.999998,0.000179,-0.002226,0.004792,-0.000202,0.004797,-0.002232,-88.351555,0.004801,
1370,1710,-0.150181,-1.115312,0.999998,0.000171,-0.001112,0.003704,-0.000095,0.003706,-0.001114,-88.874958,0.003803,
690,2020,0.069360,-0.066478,0.999998,0.000000,-0.000252,0.004076,-0.001680,0.004651,-0.000828,-71.092801,0.004963,
1590,320,-0.463495,-8.869893,0.999997,0.000216,-0.001926,0.004568,-0.000055,0.004568,-0.001926,-89.518627,0.004587,
1870,1750,-1.065095,-1.547350,0.999998,0.000179,-0.002409,0.004967,-0.000034,0.004968,-0.002409,-89.734827,0.004968,
1810,150,-0.535188,-9.440267,0.999998,0.000238,-0.002000,0.005196,-0.000981,0.005328,-0.002131,-82.376360,0.005363,
1890,1220,-1.960980,-4.217581,0.999998,0.000146,-0.002245,0.004635,0.000143,0.004638,-0.002248,88.811200,0.004639,
1020,1740,0.227345,-1.050671,0.999998,0.000178,-0.001312,0.003950,0.000051,0.003951,-0.001312,89.447582,0.004024,
1590,1850,-0.303351,-0.705240,0.999998,0.000172,-0.001422,0.004225,0.000435,0.004258,-0.001455,85.616898,0.004328,
1370,1540,-0.193105,-1.769521,0.999999,0.000141,-0.001719,0.003879,-0.000709,0.003968,-0.001808,-82.893582,0.003973,
1430,1760,-0.199157,-0.964440,0.999998,0.000162,-0.001278,0.003860,-0.000025,0.003860,-0.001278,-89.720352,0.003933,
880,1190,1.231253,-4.117868,0.999997,0.000199,-0.002997,0.005961,-0.000641,0.006006,-0.003043,-85.925855,0.006006,
1470,710,-0.512375,-7.182385,0.999998,0.000208,-0.003378,0.005566,0.001032,0.005683,-0.003496,83.499724,0.005733,
640,1100,1.960426,-4.709538,0.999998,0.000173,-0.002161,0.004595,-0.000173,0.004600,-0.002166,-88.536381,0.004602,
1170,1310,0.069582,-2.368928,0.999998,0.000190,-0.001481,0.002306,0.001435,0.002788,-0.001964,71.423327,0.002864,
1540,1430,-0.645693,-2.617456,0.999997,0.000208,-0.002970,0.005325,-0.000548,0.005361,-0.003006,-86.235789,0.005374,
1760,1040,-1.848805,-4.979421,0.999998,0.000155,-0.002181,0.004797,0.000122,0.004800,-0.002183,88.999175,0.004806,
1550,1550,-0.563364,-2.024088,0.999997,0.000214,-0.002426,0.004852,-0.000437,0.004878,-0.002452,-86.579489,0.004878,
1720,800,-1.485213,-6.200217,0.999997,0.000217,-0.002750,0.005317,-0.000506,0.005349,-0.002781,-86.428221,0.005350,
1690,60,-0.102533,-9.927386,0.999998,0.000156,-0.000498,0.003800,-0.001106,0.004068,-0.000766,-76.384082,0.004323,
1640,230,-0.416020,-9.232778,0.999998,0.000182,-0.001538,0.004506,-0.000506,0.004549,-0.001580,-85.248634,0.004619,
1630,80,-0.116569,-9.862592,0.999999,0.000133,-0.000407,0.003786,-0.000930,0.003983,-0.000604,-78.039585,0.004293,
1520,370,-0.389647,-8.723287,0.999998,0.000182,-0.001795,0.004340,0.000134,0.004343,-0.001798,88.746252,0.004364,
1120,360,0.122879,-8.925028,0.999998,0.000174,-0.001228,0.003726,-0.000191,0.003733,-0.001235,-87.800856,0.003804,
1330,390,-0.113291,-8.821324,0.999998,0.000152,-0.001286,0.003685,0.000253,0.003698,-0.001299,87.093792,0.003752,
1760,990,-1.838884,-5.220975,0.999998,0.000154,-0.002187,0.004795,-0.000140,0.004798,-0.002190,-88.851424,0.004804,
1180,330,0.051532,-9.054939,0.999999,0.000140,-0.000954,0.003558,-0.000020,0.003558,-0.000954,-89.742691,0.003683,
1560,1370,-0.782536,-2.993678,0.999998,0.000178,-0.003243,0.005682,-0.000349,0.005695,-0.003256,-87.761323,0.005715,
1640,1890,-0.291543,-0.562827,0.999997,0.000196,-0.001151,0.004279,0.000773,0.004386,-0.001259,82.052324,0.004517,
890,380,0.498675,-8.613142,0.999996,0.000220,-0.002093,0.004639,-0.000129,0.004641,-0.002096,-88.906559,0.004649,
770,890,1.577635,-5.742947,0.999997,0.000211,-0.002489,0.005280,0.000617,0.005328,-0.002538,85.486786,0.005330,
860,100,0.135626,-9.795220,0.999998,0.000150,-0.000659,0.003755,0.000751,0.003879,-0.000784,80.600543,0.004103,
1430,190,-0.122262,-9.511033,0.999998,0.000205,-0.000797,0.003619,-0.000216,0.003630,-0.000808,-87.204730,0.003812,
1310,520,-0.103282,-8.362490,0.999998,0.000159,-0.001456,0.003543,0.000469,0.003587,-0.001499,84.685993,0.003603,
690,470,1.085145,-7.866110,0.999998,0.000163,-0.002513,0.005082,-0.000097,0.005083,-0.002515,-89.271510,0.005083,
730,870,1.646061,-5.824798,0.999998,0.000197,-0.002494,0.005119,0.000538,0.005157,-0.002531,85.976429,0.005157,
1070,870,0.573751,-6.612696,0.999995,0.000255,-0.003446,0.005726,-0.001868,0.006092,-0.003812,-78.916117,0.006156,
1370,1690,-0.155496,-1.190626,0.999998,0.000159,-0.001183,0.003816,-0.000106,0.003818,-0.001186,-88.785163,0.003908,
1640,460,-0.737401,-8.129516,0.999998,0.000182,-0.002420,0.004957,0.000190,0.004962,-0.002425,88.523781,0.004962,
1580,1650,-0.539717,-1.593543,0.999997,0.000198,-0.002130,0.004723,-0.000174,0.004728,-0.002134,-88.549698,0.004735,
1280,300,-0.046687,-9.163728,0.999998,0.000145,-0.000899,0.003520,0.000017,0.003520,-0.000899,89.779059,0.003658,
810,1270,1.261102,-3.729465,0.999998,0.000211,-0.003017,0.005671,-0.000440,0.005693,-0.003040,-87.105659,0.005698,
1900,380,-1.263396,-8.109303,0.999998,0.000000,-0.002452,0.004920,0.000059,0.004921,-0.002453,89.541346,0.004921,
1010,1900,0.108237,-0.450399,0.999999,0.000140,-0.000586,0.003569,-0.000314,0.003592,-0.000609,-85.705977,0.003845,
1210,400,0.025016,-8.814789,0.999998,0.000171,-0.001138,0.003565,-0.000099,0.003567,-0.001140,-88.799426,0.003643,
1810,1440,-1.394726,-3.019825,0.999998,0.000176,-0.002601,0.005105,0.000055,0.005106,-0.002601,89.591411,0.005106,
1870,1970,-0.412954,-0.424437,0.999996,0.000216,-0.002284,0.005851,0.001360,0.006073,-0.002505,80.759244,0.006103,
1850,1920,-0.574184,-0.646864,0.999997,0.000189,-0.002444,0.005297,0.000596,0.005342,-0.002489,85.623334,0.005346,
1560,410,-0.502047,-8.492358,0.999996,0.000210,-0.002126,0.004673,0.000239,0.004681,-0.002134,87.991257,0.004687,
1020,1720,0.242581,-1.133150,0.999998,0.000169,-0.001400,0.003979,0.000088,0.003981,-0.001401,89.064206,0.004038,
1770,320,-0.850385,-8.631798,0.999998,0.000161,-0.002404,0.005011,-0.000026,0.005011,-0.002404,-89.801555,0.005013,
1810,130,-0.464990,-9.545213,0.999997,0.000226,-0.001891,0.005223,-0.001211,0.005424,-0.002091,-80.602335,0.005471,
900,210,0.271142,-9.373032,0.999998,0.000157,-0.001182,0.004113,0.000405,0.004144,-0.001213,85.651008,0.004261,
1880,90,-0.459859,-9.605907,0.999997,0.000208,-0.002271,0.005921,-0.001311,0.006125,-0.002476,-81.126490,0.006163,
860,1190,1.290016,-4.139954,0.999997,0.000193,-0.002888,0.005820,-0.000673,0.005872,-0.002939,-85.606414,0.005872,
1780,1690,-0.947197,-1.692960,0.999999,0.000125,-0.002406,0.005020,-0.000007,0.005020,-0.002406,-89.949640,0.005022,
1600,120,-0.173445,-9.715525,0.999998,0.000164,-0.000815,0.003879,-0.000729,0.003989,-0.000925,-81.376982,0.004176,
1720,820,-1.521909,-6.094101,0.999997,0.000216,-0.002707,0.005273,-0.000559,0.005311,-0.002746,-86.015091,0.005313,
1760,1020,-1.850531,-5.076089,0.999998,0.000162,-0.002181,0.004818,-0.000068,0.004819,-0.002181,-89.440488,0.004826,
1470,690,-0.493466,-7.292024,0.999997,0.000223,-0.003229,0.005428,0.001019,0.005546,-0.003347,83.374885,0.005586,
1680,840,-1.454024,-6.016855,0.999996,0.000238,-0.002738,0.005449,-0.000629,0.005497,-0.002786,-85.629890,0.005497,
1580,150,-0.201270,-9.606417,0.999998,0.000143,-0.001054,0.003962,-0.000611,0.004036,-0.001127,-83.152142,0.004165,
650,1170,1.861995,-4.377284,0.999998,0.000185,-0.002299,0.004758,-0.000337,0.004774,-0.002315,-87.269187,0.004775,
1120,380,0.127956,-8.847692,0.999998,0.000172,-0.001269,0.003763,-0.000226,0.003774,-0.001279,-87.432538,0.003838,
600,1580,1.317627,-2.386844,0.999997,0.000187,-0.002500,0.005087,0.000058,0.005087,-0.002501,89.561235,0.005088,
1760,1370,-1.381640,-3.311686,0.999998,0.000206,-0.002716,0.005263,0.000231,0.005270,-0.002723,88.343507,0.005270,
670,280,0.830412,-8.797058,0.999998,0.000181,-0.002379,0.005073,0.000190,0.005078,-0.002383,88.539893,0.005081,
1170,1290,0.070897,-2.415512,0.999998,0.000190,-0.001557,0.002154,0.001572,0.002730,-0.002133,69.858851,0.002871,
1710,780,-1.419541,-6.317257,0.999996,0.000230,-0.002837,0.005441,-0.000466,0.005467,-0.002863,-86.790380,0.005469,
980,270,0.240283,-9.180155,0.999998,0.000154,-0.001249,0.004020,0.000117,0.004022,-0.001252,88.729306,0.004117,
1380,160,-0.069014,-9.629432,0.999998,0.000160,-0.000467,0.003407,-0.000198,0.003417,-0.000477,-87.082796,0.003701,
1330,370,-0.110749,-8.895980,0.999998,0.000140,-0.001222,0.003715,0.000216,0.003725,-0.001231,87.499818,0.003795,
690,450,1.054711,-7.966246,0.999998,0.000179,-0.002475,0.005050,-0.000089,0.005051,-0.002476,-89.326018,0.005051,
1870,1390,-1.632024,-3.363632,0.999997,0.000218,-0.002506,0.005049,0.000086,0.005050,-0.002507,89.346457,0.005050,
1160,330,0.070087,-9.052396,0.999999,0.000135,-0.001003,0.003598,-0.000024,0.003598,-0.001003,-89.703790,0.003714,
580,480,1.375593,-7.637851,0.999997,0.000228,-0.001891,0.005037,0.000101,0.005038,-0.001892,89.161688,0.005090,
760,1510,1.006610,-2.489864,0.999998,0.000185,-0.002647,0.005216,0.000130,0.005218,-0.002649,89.049734,0.005218,
860,80,0.105858,-9.866283,0.999999,0.000134,-0.000525,0.003629,0.000827,0.003788,-0.000683,79.141784,0.004038,
1640,1910,-0.251232,-0.477132,0.999998,0.000189,-0.000988,0.004131,0.000825,0.004261,-0.001118,81.066546,0.004418,
1900,490,-1.431133,-7.560825,0.999997,0.000000,-0.002423,0.005070,0.000016,0.005070,-0.002423,89.879424,0.005071,
1150,1720,0.081262,-1.046981,0.999999,0.000141,-0.001060,0.003577,0.000063,0.003578,-0.001061,89.217365,0.003675,
1280,280,-0.041027,-9.234055,0.999999,0.000133,-0.000804,0.003530,0.000000,0.003530,-0.000804,89.996490,0.003700,
610,1260,1.814370,-3.985274,0.999998,0.000170,-0.002377,0.004778,-0.000237,0.004785,-0.002385,-88.108233,0.004785,
1070,850,0.504074,-6.731059,0.999996,0.000240,-0.003661,0.005635,-0.001732,0.005947,-0.003973,-79.781699,0.006058,
1540,430,-0.477416,-8.428190,0.999997,0.000190,-0.002125,0.004639,0.000315,0.004653,-0.002139,87.341678,0.004658,
1880,1220,-1.938347,-4.204602,0.999999,0.000121,-0.002255,0.004638,0.000150,0.004642,-0.002258,88.753602,0.004642,
730,850,1.611662,-5.926333,0.999997,0.000198,-0.002566,0.005144,0.000537,0.005181,-0.002604,86.031399,0.005181,
1610,80,-0.109218,-9.862976,0.999998,0.000160,-0.000483,0.003722,-0.000820,0.003877,-0.000637,-79.347267,0.004158,
580,1640,1.278219,-2.114887,0.999998,0.000204,-0.001449,0.005018,-0.000314,0.005033,-0.001464,-87.224435,0.005178,
810,1290,1.224067,-3.617430,0.999998,0.000206,-0.003031,0.005692,-0.000359,0.005707,-0.003046,-87.647979,0.005711,
990,1900,0.121401,-0.456571,0.999998,0.000166,-0.000650,0.003613,-0.000350,0.003642,-0.000679,-85.339198,0.003873,
1430,170,-0.108400,-9.580991,0.999998,0.000205,-0.000701,0.003528,-0.000232,0.003541,-0.000714,-86.865802,0.003745,
1310,500,-0.101763,-8.434194,0.999998,0.000152,-0.001427,0.003571,0.000410,0.003604,-0.001460,85.342812,0.003626,
880,210,0.298577,-9.358466,0.999998,0.000171,-0.001425,0.004191,0.000409,0.004220,-0.001454,85.860361,0.004288,
1550,1530,-0.580216,-2.122230,0.999997,0.000218,-0.002553,0.004945,-0.000472,0.004974,-0.002583,-86.410584,0.004975,
1190,400,0.047338,-8.810032,0.999998,0.000174,-0.001127,0.003568,-0.000083,0.003569,-0.001128,-88.992084,0.003649,
1630,1560,-0.753343,-2.110604,0.999997,0.000180,-0.002539,0.005058,-0.000242,0.005066,-0.002547,-88.174407,0.005066,
1760,1000,-1.843507,-5.173183,0.999998,0.000171,-0.002177,0.004823,-0.000149,0.004826,-0.002180,-88.780144,0.004834,
1720,840,-1.561935,-5.987816,0.999997,0.000210,-0.002634,0.005266,-0.000572,0.005307,-0.002675,-85.877793,0.005307,
1830,220,-0.784179,-9.039767,0.999998,0.000184,-0.002397,0.005099,-0.000263,0.005108,-0.002406,-87.995163,0.005111,
770,1330,1.264860,-3.441165,0.999998,0.000191,-0.002913,0.005513,-0.000313,0.005524,-0.002925,-87.878431,0.005528,
1020,1700,0.253829,-1.210467,0.999998,0.000178,-0.001461,0.004036,0.000158,0.004040,-0.001466,88.355927,0.004091,
1560,150,-0.181347,-9.614470,0.999998,0.000162,-0.000813,0.003890,-0.000567,0.003958,-0.000881,-83.226324,0.004156,
1810,110,-0.390159,-9.650582,0.999997,0.000199,-0.001618,0.005131,-0.001395,0.005408,-0.001895,-78.767354,0.005488,
1830,1920,-0.524770,-0.596359,0.999997,0.000192,-0.002311,0.005269,0.000756,0.005344,-0.002385,84.360573,0.005354,
1060,1130,0.851097,-3.902454,0.999997,0.000199,-0.002880,0.007164,0.002872,0.007927,-0.003643,75.116322,0.007936,
670,260,0.791123,-8.897627,0.999999,0.000180,-0.002352,0.005059,0.000284,0.005069,-0.002363,87.807045,0.005073,
1590,1830,-0.329317,-0.787390,0.999998,0.000183,-0.001549,0.004273,0.000370,0.004296,-0.001572,86.382427,0.004347,
1760,1350,-1.415665,-3.418198,0.999997,0.000209,-0.002707,0.005246,0.000281,0.005256,-0.002717,87.979193,0.005257,
1120,400,0.132951,-8.774754,0.999998,0.000160,-0.001300,0.003677,-0.000271,0.003691,-0.001315,-86.896963,0.003742,
1640,440,-0.714738,-8.228075,0.999998,0.000174,-0.002375,0.004951,0.000179,0.004955,-0.002380,88.599862,0.004956,
1140,330,0.092060,-9.045401,0.999998,0.000159,-0.001106,0.003633,-0.000104,0.003635,-0.001108,-88.746159,0.003726,
1820,1310,-1.646090,-3.698963,0.999998,0.000161,-0.002509,0.004992,0.000293,0.005003,-0.002521,87.768030,0.005004,
650,1210,1.799018,-4.184117,0.999998,0.000177,-0.002363,0.004811,-0.000384,0.004831,-0.002384,-86.947802,0.004831,
1520,310,-0.334763,-8.985016,0.999998,0.000185,-0.001571,0.004227,-0.000015,0.004227,-0.001571,-89.847269,0.004273,
1380,180,-0.080470,-9.560532,0.999998,0.000170,-0.000536,0.003482,-0.000184,0.003490,-0.000544,-87.389215,0.003756,
1870,90,-0.437867,-9.628969,0.999997,0.000213,-0.002301,0.005751,-0.001266,0.005945,-0.002495,-81.268854,0.005971,
600,1560,1.346443,-2.487312,0.999997,0.000182,-0.002511,0.005070,0.000039,0.005070,-0.002511,89.705721,0.005070,
1170,1270,0.082408,-2.457067,0.999998,0.000177,-0.001679,0.002017,0.001668,0.002658,-0.002320,68.965516,0.002894,
1200,1970,0.006614,-0.198493,0.999998,0.000157,-0.000184,0.003055,-0.000042,0.003055,-0.000185,-89.256220,0.003426,
1330,350,-0.104623,-8.969574,0.999998,0.000157,-0.001182,0.003640,0.000166,0.003646,-0.001188,88.036476,0.003719,
570,480,1.393303,-7.628596,0.999913,0.001206,-0.001616,0.005010,0.000146,0.005013,-0.001619,88.740462,0.005117,
1470,670,-0.476696,-7.396135,0.999996,0.000239,-0.003059,0.005255,0.001009,0.005376,-0.003180,83.178278,0.005406,
690,430,1.026155,-8.069363,0.999998,0.000160,-0.002470,0.005069,-0.000082,0.005070,-0.002471,-89.374655,0.005071,
1900,370,-1.249936,-8.157332,0.999998,0.000000,-0.002443,0.004917,0.000043,0.004917,-0.002443,89.665993,0.004917,
1870,1220,-1.916012,-4.191266,0.999998,0.000163,-0.002273,0.004649,0.000180,0.004654,-0.002278,88.509543,0.004655,
910,1110,1.344342,-4.568340,0.999997,0.000205,-0.002295,0.005921,-0.000694,0.005979,-0.002353,-85.202837,0.006024,
1840,1950,-0.432741,-0.461258,0.999997,0.000217,-0.002380,0.005298,0.000945,0.005413,-0.002495,83.083513,0.005419,
1070,830,0.434644,-6.840923,0.999997,0.000215,-0.003643,0.005589,-0.001764,0.005915,-0.003968,-79.542538,0.006029,
820,930,1.524222,-5.548806,0.999997,0.000252,-0.002345,0.005345,0.000575,0.005388,-0.002388,85.743534,0.005399,
1870,970,-2.065333,-5.285105,0.999999,0.000158,-0.002074,0.004225,-0.000022,0.004226,-0.002074,-89.795592,0.004226,
730,830,1.576462,-6.031116,0.999998,0.000203,-0.002616,0.005223,0.000555,0.005263,-0.002655,85.970271,0.005263,
980,1440,0.473403,-2.432563,0.999996,0.000211,-0.002737,0.005000,0.000866,0.005096,-0.002833,83.690718,0.005106,
1280,260,-0.039321,-9.305627,0.999999,0.000132,-0.000734,0.003454,-0.000001,0.003454,-0.000734,-89.980533,0.003639,
840,550,0.798197,-7.698454,0.999998,0.000148,-0.002725,0.005194,-0.000263,0.005202,-0.002734,-88.101536,0.005205,
1550,1560,-0.557002,-1.976958,0.999998,0.000212,-0.002362,0.004823,-0.000403,0.004846,-0.002384,-86.795859,0.004846,
1430,150,-0.091984,-9.651705,0.999998,0.000174,-0.000614,0.003502,-0.000268,0.003519,-0.000632,-86.284790,0.003753,
1810,240,-0.784420,-8.973586,0.999998,0.000161,-0.002315,0.005095,-0.000344,0.005111,-0.002331,-87.346632,0.005117,
1720,860,-1.596348,-5.883576,0.999997,0.000208,-0.002550,0.005169,-0.000543,0.005207,-0.002588,-85.993670,0.005207,
1150,680,0.099772,-7.829646,0.999997,0.000206,-0.001574,0.003075,-0.001204,0.003368,-0.001867,-76.312807,0.003375,
860,60,0.065384,-9.940350,0.999998,0.000148,-0.000366,0.003566,0.000795,0.003721,-0.000521,78.986623,0.004030,
1190,760,0.045510,-7.730021,0.999998,0.000165,-0.001264,0.001756,-0.001107,0.002118,-0.001626,-71.882045,0.002217,
1830,1900,-0.595356,-0.701594,0.999997,0.000221,-0.002340,0.005231,0.000607,0.005280,-0.002388,85.448463,0.005288,
1020,1680,0.264348,-1.294312,0.999998,0.000178,-0.001497,0.004107,0.000178,0.004113,-0.001503,88.185888,0.004162,
1760,980,-1.833981,-5.267440,0.999998,0.000157,-0.002207,0.004760,-0.000145,0.004763,-0.002210,-88.807060,0.004767,
780,330,0.667383,-8.708299,0.999998,0.000207,-0.002183,0.004916,0.000098,0.004918,-0.002185,89.207542,0.004928,
1310,1720,-0.078313,-1.045887,0.999998,0.000149,-0.001065,0.003574,-0.000043,0.003574,-0.001065,-89.464629,0.003670,
1810,90,-0.311315,-9.751449,0.999998,0.000186,-0.001314,0.005018,-0.001697,0.005444,-0.001740,-75.904703,0.005561,
1050,920,0.860594,-6.119953,0.999996,0.000217,-0.003202,0.007115,-0.002024,0.007498,-0.003585,-79.290128,0.007501,
810,1730,0.593186,-1.306492,0.999997,0.000199,-0.002121,0.004798,-0.000083,0.004799,-0.002122,-89.312890,0.004810,
1590,1790,-0.389415,-0.963738,0.999998,0.000185,-0.001765,0.004365,0.000214,0.004372,-0.001773,87.999723,0.004398,
1740,1350,-1.361778,-3.392921,0.999996,0.000229,-0.002771,0.005333,0.000284,0.005343,-0.002781,87.993556,0.005345,
1670,60,-0.092009,-9.931090,0.999998,0.000149,-0.000559,0.003726,-0.000989,0.003944,-0.000776,-77.610081,0.004178,
1060,1140,0.807634,-3.837971,0.999997,0.000193,-0.002899,0.006716,0.002589,0.007368,-0.003552,75.847494,0.007370,
1510,750,-0.711429,-6.829312,0.999997,0.000184,-0.003593,0.006049,0.000502,0.006075,-0.003619,87.028166,0.006112,
1850,550,-1.395510,-7.331641,0.999997,0.000212,-0.002536,0.005135,0.000004,0.005135,-0.002536,89.968133,0.005135,
1840,1310,-1.695080,-3.720934,0.999997,0.000193,-0.002469,0.004921,0.000238,0.004929,-0.002477,88.159521,0.004929,
1380,200,-0.091453,-9.489247,0.999998,0.000158,-0.000624,0.003546,-0.000173,0.003553,-0.000631,-87.628109,0.003791,
1120,330,0.115553,-9.033851,0.999999,0.000136,-0.001140,0.003675,-0.000117,0.003677,-0.001143,-88.605336,0.003764,
1680,820,-1.413794,-6.126058,0.999997,0.000226,-0.002789,0.005455,-0.000576,0.005495,-0.002829,-86.025845,0.005495,
690,410,0.996351,-8.170310,0.999998,0.000165,-0.002475,0.005089,-0.000078,0.005090,-0.002476,-89.409742,0.005091,
1500,270,-0.264863,-9.167210,0.999998,0.000160,-0.001439,0.004059,-0.000076,0.004060,-0.001440,-89.203960,0.004116,
1900,350,-1.216037,-8.256357,0.999998,0.000000,-0.002440,0.004896,-0.000027,0.004897,-0.002440,-89.791495,0.004897,
570,470,1.377724,-7.677299,0.999915,0.001183,-0.001729,0.004826,-0.000049,0.004827,-0.001730,-89.571164,0.004891,
1120,420,0.136120,-8.701635,0.999998,0.000174,-0.001324,0.003713,-0.000310,0.003732,-0.001343,-86.486089,0.003780,
600,1540,1.376823,-2.589747,0.999997,0.000186,-0.002524,0.005080,0.000033,0.005080,-0.002524,89.751118,0.005080,
1330,330,-0.100805,-9.043700,0.999998,0.000155,-0.001121,0.003649,0.000137,0.003653,-0.001125,88.355502,0.003741,
1280,240,-0.034871,-9.372548,0.999999,0.000124,-0.000670,0.003413,-0.000018,0.003413,-0.000670,-89.745127,0.003617,
1180,1970,0.010677,-0.198531,0.999999,0.000139,-0.000146,0.003067,-0.000070,0.003069,-0.000148,-88.757734,0.003461,
870,1260,1.095519,-3.707469,0.999997,0.000204,-0.003286,0.006040,-0.000351,0.006053,-0.003299,-87.847361,0.006061,
1150,1190,0.375135,-2.726178,0.999997,0.000221,-0.002127,0.001586,0.000774,0.001741,-0.002282,78.687824,0.002385,
670,1840,0.687441,-0.955231,0.999997,0.000200,-0.002240,0.005084,-0.000555,0.005126,-0.002281,-85.691121,0.005136,
1020,1660,0.276934,-1.377406,0.999997,0.000198,-0.001542,0.004104,0.000234,0.004114,-0.001552,87.630898,0.004155,
1070,810,0.386721,-6.956370,0.999997,0.000216,-0.003603,0.005497,-0.001896,0.005876,-0.003982,-78.690307,0.005998,
1470,650,-0.461312,-7.503766,0.999996,0.000213,-0.002902,0.005077,0.000988,0.005197,-0.003022,83.046091,0.005220,
1840,210,-0.782730,-9.069336,0.999998,0.000152,-0.002412,0.005092,-0.000217,0.005098,-0.002418,-88.343598,0.005101,
1430,130,-0.078440,-9.720669,0.999998,0.000155,-0.000517,0.003413,-0.000262,0.003430,-0.000534,-86.207408,0.003691,
660,700,1.521970,-6.633752,0.999997,0.000208,-0.002594,0.005106,0.000225,0.005113,-0.002601,88.331277,0.005113,
1290,480,-0.072198,-8.520939,0.999998,0.000157,-0.001288,0.003546,0.000224,0.003556,-0.001299,87.356254,0.003599,
1170,1490,0.077468,-1.854850,0.999999,0.000152,-0.001364,0.003330,0.000519,0.003387,-0.001421,83.767350,0.003402,
800,1930,0.234040,-0.405118,0.999997,0.000215,-0.001121,0.004177,-0.000885,0.004321,-0.001265,-80.764876,0.004443,
590,1120,2.049367,-4.644575,0.999998,0.000187,-0.002097,0.004394,-0.000184,0.004399,-0.002102,-88.381461,0.004400,
1760,960,-1.824906,-5.363268,0.999998,0.000172,-0.002242,0.004845,-0.000277,0.004856,-0.002253,-87.763603,0.004860,
770,1380,1.175130,-3.167537,0.999998,0.000178,-0.002892,0.005437,-0.000131,0.005439,-0.002894,-89.096729,0.005443,
850,1990,0.078606,-0.158006,0.999999,0.000137,-0.000331,0.003657,-0.000836,0.003825,-0.000499,-78.626940,0.004159,
1200,330,0.032037,-9.059646,0.999999,0.000144,-0.000989,0.003532,-0.000061,0.003533,-0.000990,-89.221644,0.003645,
1380,220,-0.103967,-9.419880,0.999998,0.000166,-0.000694,0.003527,-0.000125,0.003530,-0.000698,-88.299095,0.003739,
940,1040,1.383425,-4.966148,0.999998,0.000196,-0.001812,0.005931,-0.000125,0.005933,-0.001814,-89.075407,0.006081,
1620,1430,-0.884271,-2.775138,0.999998,0.000170,-0.002948,0.005419,-0.000230,0.005425,-0.002955,-88.425508,0.005433,
840,1510,0.792037,-2.354904,0.999997,0.000192,-0.002685,0.005209,0.000264,0.005218,-0.002693,88.086967,0.005218,
890,1320,0.907279,-3.312261,0.999998,0.000183,-0.003359,0.005970,0.000080,0.005971,-0.003360,89.509477,0.005986,
780,310,0.635135,-8.807017,0.999998,0.000183,-0.002163,0.004839,0.000128,0.004842,-0.002166,88.950532,0.004851,
1590,1770,-0.418887,-1.052242,0.999998,0.000170,-0.001843,0.004441,0.000140,0.004444,-0.001846,88.724225,0.004465,
1900,340,-1.198516,-8.305380,0.999998,0.000000,-0.002422,0.004859,-0.000023,0.004859,-0.002423,-89.818512,0.004859,
1060,1150,0.765939,-3.767460,0.999994,0.000261,-0.003017,0.006432,0.002260,0.006945,-0.003530,77.220427,0.006945,
1810,70,-0.216657,-9.855184,0.999998,0.000192,-0.000973,0.004961,-0.001893,0.005514,-0.001525,-73.730548,0.005694,
690,390,0.969911,-8.274199,0.999998,0.000155,-0.002457,0.005046,-0.000054,0.005046,-0.002457,-89.586589,0.005047,
1670,50,-0.070079,-9.967720,0.999999,0.000140,-0.000471,0.003637,-0.000967,0.003854,-0.000687,-77.394769,0.004111,
730,810,1.537219,-6.137291,0.999998,0.000203,-0.002655,0.005248,0.000533,0.005284,-0.002691,86.160436,0.005284,
570,1630,1.311314,-2.177290,0.999954,0.000924,-0.001421,0.005226,-0.000764,0.005313,-0.001508,-83.528457,0.005476,
1710,760,-1.379934,-6.426613,0.999997,0.000194,-0.002859,0.005431,-0.000435,0.005454,-0.002882,-87.004754,0.005457,
910,1090,1.382759,-4.685300,0.999997,0.000214,-0.002106,0.005801,-0.000570,0.005842,-0.002146,-85.896761,0.005910,
1620,810,-1.215669,-6.244157,0.999998,0.000184,-0.003104,0.005861,-0.000496,0.005888,-0.003132,-86.843576,0.005892,
1330,310,-0.094101,-9.116704,0.999998,0.000150,-0.001068,0.003594,0.000104,0.003596,-0.001071,88.724423,0.003693,
1550,1720,-0.405347,-1.233911,0.999997,0.000211,-0.001672,0.004499,0.000012,0.004499,-0.001672,89.891560,0.004548,
810,1710,0.619436,-1.402958,0.999997,0.000179,-0.002213,0.004797,-0.000019,0.004797,-0.002213,-89.842439,0.004802,
1480,270,-0.236056,-9.183243,0.999999,0.000145,-0.001225,0.003996,-0.000110,0.003998,-0.001228,-88.790518,0.004096,
1280,220,-0.033676,-9.441626,0.999998,0.000168,-0.000591,0.003397,-0.000008,0.003397,-0.000591,-89.887646,0.003629,
1630,1080,-1.556969,-4.766529,0.999996,0.000252,-0.002071,0.005261,0.000408,0.005283,-0.002094,86.825841,0.005321,
1170,760,0.070870,-7.676942,0.999998,0.000179,-0.001517,0.002190,-0.001545,0.002749,-0.002076,-70.094700,0.002866,
1020,1640,0.285683,-1.458802,0.999997,0.000182,-0.001604,0.004172,0.000297,0.004188,-0.001620,87.061201,0.004223,
1720,1890,-0.408649,-0.615355,0.999997,0.000208,-0.001476,0.004719,0.000944,0.004859,-0.001617,81.524755,0.004949,
760,910,1.636568,-5.630100,0.999997,0.000210,-0.002380,0.005192,0.000535,0.005230,-0.002417,85.977544,0.005235,
1520,510,-0.496663,-8.082538,0.999997,0.000190,-0.002323,0.004758,0.000504,0.004794,-0.002358,85.948690,0.004794,
1610,2000,-0.060943,-0.124165,0.999998,0.000156,-0.000298,0.003546,0.000819,0.003713,-0.000465,78.457782,0.004046,
1760,940,-1.801326,-5.463299,0.999998,0.000160,-0.002250,0.004886,-0.000373,0.004905,-0.002270,-87.016311,0.004910,
1340,330,-0.111614,-9.037362,0.999999,0.000143,-0.001132,0.003679,0.000147,0.003683,-0.001136,88.249457,0.003772,
1430,110,-0.063763,-9.788858,0.999999,0.000145,-0.000418,0.003367,-0.000301,0.003391,-0.000441,-85.474472,0.003687,
1070,790,0.347666,-7.064461,0.999997,0.000208,-0.003458,0.005211,-0.001895,0.005608,-0.003855,-78.191473,0.005737,
860,1510,0.738662,-2.321183,0.999997,0.000200,-0.002701,0.005172,0.000310,0.005184,-0.002713,87.749834,0.005186,
660,680,1.486424,-6.735307,0.999997,0.000204,-0.002641,0.005112,0.000202,0.005117,-0.002646,88.507887,0.005118,
650,1840,0.732278,-0.981413,0.999997,0.000185,-0.002284,0.005131,-0.000460,0.005159,-0.002312,-86.466507,0.005169,
1720,1300,-1.398653,-3.636117,0.999997,0.000226,-0.002783,0.005394,0.000417,0.005415,-0.002804,87.085330,0.005416,
1210,480,0.027403,-8.533869,0.999998,0.000148,-0.001244,0.003450,-0.000161,0.003456,-0.001249,-88.032738,0.003500,
1470,630,-0.446704,-7.604764,0.999996,0.000221,-0.002736,0.004946,0.000931,0.005057,-0.002847,83.187309,0.005070,
850,1970,0.119721,-0.235186,0.999998,0.000163,-0.000492,0.003724,-0.000829,0.003881,-0.000649,-79.267231,0.004158,
1380,660,-0.231550,-7.717005,0.999998,0.000165,-0.002293,0.004154,0.001407,0.004448,-0.002586,78.212556,0.004467,
1170,1250,0.099404,-2.497369,0.999998,0.000179,-0.001887,0.001880,0.001606,0.002472,-0.002479,69.773488,0.002858,
1900,330,-1.180897,-8.352888,0.999998,0.000000,-0.002398,0.004847,0.000004,0.004847,-0.002398,89.969551,0.004848,
1860,2000,-0.245032,-0.229150,0.999998,0.000162,-0.001842,0.005342,0.001758,0.005749,-0.002249,76.963636,0.005794,
980,1200,0.863979,-3.850764,0.999997,0.000207,-0.003753,0.006774,0.000054,0.006774,-0.003753,89.706506,0.006787,
1510,770,-0.749900,-6.704923,0.999997,0.000199,-0.003680,0.006229,0.000402,0.006245,-0.003696,87.680343,0.006280,
820,1570,0.772340,-2.081330,0.999998,0.000157,-0.002537,0.005074,0.000222,0.005080,-0.002543,88.327652,0.005080,
690,370,0.938031,-8.371946,0.999998,0.000135,-0.002418,0.005055,-0.000018,0.005055,-0.002418,-89.860034,0.005056,
1580,290,-0.406711,-9.014393,0.999997,0.000194,-0.001808,0.004443,-0.000138,0.004446,-0.001811,-88.737836,0.004471,
1260,150,-0.012441,-9.676188,0.999998,0.000167,-0.000420,0.003250,-0.000026,0.003250,-0.000420,-89.592122,0.003535,
1590,1750,-0.444710,-1.142095,0.999998,0.000170,-0.001893,0.004509,0.000070,0.004510,-0.001894,89.377184,0.004529,
1120,860,0.396724,-7.106003,0.999996,0.000238,-0.001972,0.002988,-0.001809,0.003577,-0.002561,-71.949794,0.003687,
1800,1980,-0.234393,-0.248150,0.999998,0.000173,-0.000805,0.004915,0.001964,0.005524,-0.001414,72.760535,0.005739,
1660,1630,-0.742759,-1.806857,0.999997,0.000178,-0.002375,0.004952,-0.000132,0.004954,-0.002377,-88.970836,0.004955,
1510,620,-0.555235,-7.555469,0.999996,0.000228,-0.002877,0.005177,0.000714,0.005239,-0.002940,84.973643,0.005252,
1330,290,-0.087884,-9.186871,0.999999,0.000138,-0.000988,0.003587,0.000072,0.003589,-0.000989,89.095963,0.003707,
950,760,0.741638,-6.757772,0.999997,0.000188,-0.003648,0.006135,-0.000454,0.006156,-0.003669,-87.351080,0.006194,
1850,530,-1.365737,-7.434728,0.999997,0.000200,-0.002521,0.005128,0.000037,0.005128,-0.002521,89.723982,0.005128,
1400,270,-0.146962,-9.230004,0.999998,0.000156,-0.001043,0.003703,-0.000047,0.003704,-0.001043,-89.435889,0.003820,
730,790,1.501782,-6.240908,0.999998,0.000214,-0.002694,0.005282,0.000502,0.005313,-0.002725,86.409607,0.005314,
1670,40,-0.050224,-10.003598,0.999998,0.000152,-0.000394,0.003592,-0.000957,0.003810,-0.000612,-77.171018,0.004092,
1690,780,-1.361444,-6.338519,0.999997,0.000203,-0.002858,0.005515,-0.000474,0.005542,-0.002885,-86.770086,0.005544,
1520,490,-0.482084,-8.177038,0.999997,0.000168,-0.002294,0.004706,0.000471,0.004738,-0.002326,86.170843,0.004738,
1380,1250,-0.331348,-3.016615,0.999997,0.000213,-0.003431,0.005029,-0.002085,0.005515,-0.003917,-76.877998,0.005675,
1530,1720,-0.373724,-1.213542,0.999997,0.000187,-0.001608,0.004459,0.000011,0.004459,-0.001608,89.900535,0.004517,
810,1690,0.648887,-1.498912,0.999997,0.000180,-0.002267,0.004873,0.000030,0.004873,-0.002267,89.760527,0.004877,
760,890,1.602932,-5.737067,0.999997,0.000214,-0.002471,0.005254,0.000605,0.005301,-0.002518,85.550612,0.005304,
1020,1620,0.294655,-1.540867,0.999998,0.000173,-0.001688,0.004176,0.000372,0.004200,-0.001712,86.383417,0.004223,
1680,800,-1.374148,-6.235317,0.999997,0.000205,-0.002847,0.005557,-0.000539,0.005591,-0.002881,-86.346317,0.005592,
1250,760,-0.018570,-7.772377,0.999998,0.000162,-0.001104,0.001442,0.000533,0.001549,-0.001211,78.646713,0.001629,
1280,200,-0.029233,-9.509102,0.999998,0.000173,-0.000530,0.003380,-0.000046,0.003381,-0.000531,-89.329309,0.003636,
1600,2000,-0.056768,-0.125200,0.999998,0.000153,-0.000341,0.003526,0.000759,0.003670,-0.000485,79.284815,0.003987,
600,1520,1.405735,-2.689600,0.999997,0.000184,-0.002528,0.005090,0.000033,0.005090,-0.002528,89.748570,0.005090,
1070,1270,0.339097,-2.989423,0.999997,0.000213,-0.003450,0.005172,0.001892,0.005569,-0.003847,78.149658,0.005702,
1610,1080,-1.513832,-4.762107,0.999997,0.000212,-0.002055,0.005366,0.000448,0.005393,-0.002082,86.554676,0.005440,
1760,920,-1.780888,-5.561140,0.999998,0.000168,-0.002264,0.004850,-0.000362,0.004868,-0.002282,-87.095776,0.004871,
1240,330,-0.009735,-9.064846,0.999999,0.000144,-0.001008,0.003507,0.000034,0.003508,-0.001009,89.573281,0.003612,
1220,690,0.012050,-7.906008,0.999999,0.000122,-0.001032,0.002263,-0.000240,0.002280,-0.001049,-85.857826,0.002282,
850,1950,0.150849,-0.308451,0.999998,0.000167,-0.000656,0.003837,-0.000780,0.003968,-0.000788,-80.429601,0.004202,
1530,1880,-0.192892,-0.553320,0.999998,0.000176,-0.000887,0.003833,0.000408,0.003868,-0.000922,85.092633,0.004041,
660,660,1.450835,-6.838780,0.999997,0.000219,-0.002654,0.005169,0.000151,0.005172,-0.002657,88.892263,0.005173,
1430,330,-0.220454,-8.977413,0.999998,0.000173,-0.001408,0.003934,0.000120,0.003936,-0.001411,88.718215,0.003989,
1520,1370,-0.650612,-2.900476,0.999996,0.000234,-0.003271,0.005624,-0.000625,0.005667,-0.003314,-85.997298,0.005695,
1720,1280,-1.437520,-3.745785,0.999997,0.000238,-0.002751,0.005405,0.000459,0.005431,-0.002777,86.787553,0.005431,
1880,1990,-0.337743,-0.317440,0.999997,0.000193,-0.001777,0.006106,0.001984,0.006577,-0.002248,76.643582,0.006686,
1900,320,-1.163437,-8.401323,0.999998,0.000000,-0.002396,0.004862,0.000029,0.004862,-0.002396,89.771522,0.004862,
1470,850,-0.798402,-6.308009,0.999997,0.000212,-0.003893,0.006800,0.000334,0.006810,-0.003903,88.214160,0.006834,
1510,790,-0.791634,-6.577710,0.999997,0.000204,-0.003757,0.006381,0.000278,0.006389,-0.003764,88.431643,0.006422,
1120,840,0.301293,-7.169262,0.999996,0.000232,-0.002477,0.003502,-0.002122,0.004178,-0.003153,-72.313792,0.004355,
1380,640,-0.226696,-7.798686,0.999998,0.000159,-0.002192,0.004022,0.001265,0.004269,-0.002439,78.923809,0.004284,
930,760,0.814456,-6.703549,0.999998,0.000155,-0.003579,0.006163,-0.000258,0.006170,-0.003586,-88.483998,0.006197,
1580,370,-0.502146,-8.651706,0.999997,0.000213,-0.002094,0.004633,0.000120,0.004635,-0.002096,88.981429,0.004642,
1590,1730,-0.469954,-1.234281,0.999998,0.000176,-0.001943,0.004648,0.000038,0.004648,-0.001944,89.672125,0.004668,
690,350,0.904669,-8.474266,0.999998,0.000161,-0.002415,0.005056,-0.000005,0.005056,-0.002415,-89.965313,0.005057,
800,1570,0.825045,-2.113227,0.999997,0.000192,-0.002570,0.005098,0.000193,0.005103,-0.002574,88.560509,0.005103,
780,490,0.881195,-7.908564,0.999998,0.000170,-0.002542,0.005088,-0.000164,0.005091,-0.002546,-88.767818,0.005091,
1200,270,0.026354,-9.271485,0.999998,0.000166,-0.000825,0.003490,-0.000020,0.003490,-0.000825,-89.731673,0.003648,
1800,1960,-0.323145,-0.350851,0.999997,0.000191,-0.001192,0.004892,0.001679,0.005325,-0.001624,75.552715,0.005458,
1100,1710,0.141965,-1.112572,0.999998,0.000176,-0.001159,0.003733,0.000128,0.003736,-0.001163,88.500119,0.003824,
730,770,1.461725,-6.349043,0.999997,0.000223,-0.002741,0.005343,0.000431,0.005366,-0.002764,86.957020,0.005367,
1330,270,-0.080965,-9.258895,0.999999,0.000141,-0.000941,0.003554,0.000045,0.003554,-0.000941,89.427559,0.003683,
1660,1850,-0.400741,-0.753681,0.999997,0.000223,-0.001696,0.004538,0.000549,0.004586,-0.001744,85.004613,0.004630,
650,1260,1.716995,-3.938941,0.999998,0.000180,-0.002492,0.004969,-0.000378,0.004989,-0.002512,-87.105141,0.004989,
1170,830,0.150229,-7.540498,0.999997,0.000209,-0.002235,0.001788,-0.001119,0.002079,-0.002525,-75.457834,0.002695,
1280,180,-0.026298,-9.576368,0.999998,0.000147,-0.000480,0.003317,-0.000040,0.003317,-0.000480,-89.395116,0.003585,
810,1670,0.675482,-1.597913,0.999997,0.000193,-0.002296,0.004945,0.000075,0.004945,-0.002297,89.403902,0.004949,
660,640,1.417585,-6.942021,0.999997,0.000203,-0.002632,0.005142,0.000115,0.005143,-0.002634,89.156246,0.005144,
1270,400,-0.045802,-8.810284,0.999998,0.000159,-0.001179,0.003581,0.000098,0.003583,-0.001181,88.816817,0.003652,
570,1510,1.514607,-2.818552,0.999365,0.002879,-0.004161,0.006096,0.000577,0.006128,-0.004194,86.790580,0.006265,
770,240,0.531911,-9.131189,0.999997,0.000193,-0.001944,0.004752,0.000480,0.004786,-0.001978,85.920931,0.004810,
910,1070,1.414214,-4.799894,0.999997,0.000216,-0.001918,0.005752,-0.000431,0.005776,-0.001942,-86.790392,0.005879,
1070,770,0.321665,-7.165961,0.999997,0.000207,-0.003288,0.005056,-0.001910,0.005472,-0.003705,-77.700338,0.005585,
1410,1280,-0.384821,-3.022290,0.999997,0.000207,-0.003531,0.005429,-0.001697,0.005740,-0.003841,-79.625618,0.005848,
1760,900,-1.758311,-5.656910,0.999998,0.000179,-0.002354,0.004971,-0.000442,0.004997,-0.002380,-86.556070,0.004999,
1020,1840,0.155578,-0.667307,0.999998,0.000174,-0.000886,0.003695,-0.000183,0.003702,-0.000894,-87.717377,0.003864,
1890,670,-1.689819,-6.659028,0.999997,0.000212,-0.002537,0.005088,-0.000059,0.005089,-0.002537,-89.555543,0.005089,
690,330,0.873206,-8.576477,0.999998,0.000160,-0.002406,0.005041,0.000015,0.005041,-0.002406,89.884573,0.005043,
1310,1400,-0.096226,-2.168528,0.999999,0.000155,-0.001481,0.003146,-0.000975,0.003343,-0.001678,-78.577822,0.003343,
790,120,0.235944,-9.689768,0.999998,0.000173,-0.001160,0.004232,0.000954,0.004396,-0.001324,80.259063,0.004510,
1460,1830,-0.176997,-0.711829,0.999998,0.000158,-0.000912,0.003776,0.000225,0.003787,-0.000923,87.254982,0.003949,
1760,1690,-0.898718,-1.661215,0.999998,0.000157,-0.002441,0.005034,-0.000015,0.005034,-0.002441,-89.882727,0.005035,
1590,1710,-0.495495,-1.327950,0.999997,0.000180,-0.002030,0.004602,-0.000029,0.004602,-0.002030,-89.747244,0.004612,
1770,680,-1.399087,-6.780226,0.999996,0.000229,-0.002665,0.005224,-0.000206,0.005230,-0.002670,-88.503077,0.005230,
1430,90,-0.048475,-9.855663,0.999999,0.000146,-0.000301,0.003271,-0.000290,0.003294,-0.000324,-85.394048,0.003631,
980,1160,0.999028,-4.126647,0.999998,0.000171,-0.003401,0.006865,-0.000237,0.006871,-0.003406,-88.680708,0.006871,
1840,190,-0.728565,-9.170461,0.999998,0.000184,-0.002410,0.005131,-0.000312,0.005144,-0.002423,-87.634732,0.005147,
1700,1870,-0.425228,-0.692476,0.999997,0.000187,-0.001598,0.004656,0.000776,0.004751,-0.001693,83.035164,0.004816,
690,30,0.049235,-10.036411,0.999999,0.000000,-0.000170,0.004153,0.001708,0.004746,-0.000764,70.839268,0.005097,
600,1500,1.436436,-2.793813,0.999997,0.000208,-0.002535,0.005106,0.000018,0.005106,-0.002535,89.865125,0.005106,
1170,80,0.012289,-9.896718,0.999999,0.000121,-0.000136,0.003094,0.000108,0.003098,-0.000139,88.091438,0.003500,
1670,1240,-1.374511,-3.916383,0.999998,0.000184,-0.002832,0.005542,0.000560,0.005579,-0.002870,86.188846,0.005580,
1510,1880,-0.173197,-0.544248,0.999998,0.000174,-0.000938,0.003768,0.000344,0.003793,-0.000963,85.841023,0.003943,
1170,810,0.111338,-7.574605,0.999998,0.000193,-0.001947,0.001861,-0.001570,0.002425,-0.002511,-70.238674,0.002851,
660,1910,0.505548,-0.606981,0.999998,0.000250,-0.001862,0.005114,-0.001098,0.005282,-0.002031,-81.264349,0.005329,
1690,540,-0.963699,-7.638195,0.999998,0.000193,-0.002643,0.005199,0.000148,0.005202,-0.002645,88.921500,0.005202,
1760,1430,-1.279171,-2.998033,0.999998,0.000176,-0.002710,0.005220,0.000078,0.005220,-0.002710,89.436480,0.005222,
770,1310,1.303180,-3.552782,0.999997,0.000194,-0.002888,0.005516,-0.000370,0.005532,-0.002905,-87.484401,0.005534,
1260,470,-0.035256,-8.565273,0.999999,0.000153,-0.001252,0.003503,0.000155,0.003508,-0.001257,88.135004,0.003554,
940,800,0.863619,-6.479439,0.999997,0.000186,-0.003686,0.006394,-0.000093,0.006395,-0.003687,-89.472455,0.006420,
1450,600,-0.379863,-7.798426,0.999998,0.000175,-0.002521,0.004703,0.000963,0.004829,-0.002648,82.537561,0.004836,
1520,690,-0.656401,-7.152278,0.999998,0.000177,-0.003282,0.005645,0.000631,0.005690,-0.003326,85.974454,0.005717,
1550,1510,-0.599732,-2.224535,0.999997,0.000201,-0.002642,0.005032,-0.000487,0.005063,-0.002673,-86.382351,0.005066,
1370,1700,-0.153126,-1.152746,0.999998,0.000170,-0.001151,0.003749,-0.000106,0.003751,-0.001153,-88.763520,0.003843,
1640,420,-0.690839,-8.328363,0.999998,0.000169,-0.002332,0.004938,0.000151,0.004941,-0.002336,88.809265,0.004944,
570,1470,1.564006,-3.000244,0.999817,0.001441,-0.004433,0.004241,-0.000129,0.004243,-0.004435,-89.145029,0.005014,
1720,1260,-1.474508,-3.854147,0.999998,0.000208,-0.002705,0.005320,0.000483,0.005349,-0.002734,86.570063,0.005349,
1330,250,-0.075100,-9.328760,0.999998,0.000153,-0.000882,0.003491,0.000005,0.003491,-0.000882,89.938968,0.003631,
1350,400,-0.143524,-8.768815,0.999998,0.000168,-0.001321,0.003690,0.000239,0.003702,-0.001332,87.280491,0.003750,
1510,1230,-0.879753,-3.731488,0.999998,0.000185,-0.003705,0.006515,0.000011,0.006515,-0.003705,89.940066,0.006536,
780,570,0.985982,-7.492376,0.999998,0.000158,-0.002724,0.005297,-0.000104,0.005298,-0.002726,-89.255414,0.005299,
910,1050,1.430384,-4.915274,0.999997,0.000203,-0.001824,0.005641,-0.000259,0.005650,-0.001833,-88.017627,0.005765,
700,790,1.580808,-6.215091,0.999997,0.000208,-0.002623,0.005132,0.000454,0.005159,-0.002649,86.664228,0.005159,
660,620,1.385794,-7.046033,0.999998,0.000187,-0.002620,0.005116,0.000074,0.005117,-0.002621,89.453295,0.005117,
1070,730,0.286302,-7.360466,0.999997,0.000188,-0.002925,0.004698,-0.001775,0.005091,-0.003318,-77.515357,0.005168,
1700,170,-0.391666,-9.454047,0.999997,0.000200,-0.001493,0.004578,-0.000865,0.004699,-0.001614,-82.046193,0.004775,
1760,880,-1.726015,-5.758808,0.999998,0.000189,-0.002436,0.005044,-0.000502,0.005077,-0.002469,-86.177205,0.005078,
1240,1570,-0.012442,-1.558403,0.999998,0.000150,-0.001254,0.003448,-0.000090,0.003450,-0.001256,-88.903120,0.003492,
1800,1940,-0.392125,-0.446634,0.999997,0.000196,-0.001574,0.005127,0.001412,0.005412,-0.001859,78.572262,0.005500,
1120,820,0.244137,-7.241439,0.999997,0.000213,-0.002757,0.003645,-0.002206,0.004332,-0.003443,-72.712459,0.004576,
790,140,0.280405,-9.607815,0.999997,0.000194,-0.001382,0.004303,0.000848,0.004427,-0.001506,81.693638,0.004502,
1020,1600,0.301401,-1.624885,0.999998,0.000172,-0.001803,0.004251,0.000462,0.004286,-0.001838,85.657008,0.004300,
1420,1980,-0.035872,-0.175646,0.999998,0.000169,-0.000276,0.003235,0.000280,0.003258,-0.000298,85.464624,0.003602,
1590,1690,-0.517679,-1.417952,0.999997,0.000200,-0.002074,0.004643,-0.000094,0.004644,-0.002076,-89.198365,0.004653,
690,550,1.198221,-7.455216,0.999998,0.000155,-0.002592,0.005197,-0.000019,0.005197,-0.002592,-89.858271,0.005197,
1880,670,-1.664324,-6.674991,0.999997,0.000210,-0.002524,0.005079,-0.000060,0.005079,-0.002525,-89.550830,0.005079,
1470,860,-0.831456,-6.240475,0.999997,0.000204,-0.003841,0.006846,0.000250,0.006852,-0.003847,88.660384,0.006869,
600,1480,1.466338,-2.895229,0.999997,0.000207,-0.002540,0.005114,-0.000007,0.005114,-0.002540,-89.949268,0.005114,
660,1970,0.282277,-0.301933,0.999998,0.000163,-0.001088,0.005006,-0.001863,0.005530,-0.001612,-74.276939,0.005688,
1340,210,-0.069889,-9.465276,0.999998,0.000158,-0.000740,0.003454,-0.000032,0.003454,-0.000740,-89.568843,0.003637,
680,2020,0.069144,-0.066767,0.999999,0.000000,-0.000101,0.004169,-0.001813,0.004835,-0.000767,-69.832510,0.005196,
1820,1690,-1.044918,-1.757553,0.999999,0.000139,-0.002481,0.005056,-0.000027,0.005056,-0.002481,-89.797343,0.005056,
980,1140,1.071053,-4.266288,0.999998,0.000192,-0.003155,0.006904,-0.000318,0.006914,-0.003165,-88.190226,0.006923,
1770,580,-1.235120,-7.302129,0.999998,0.000171,-0.002638,0.005173,-0.000014,0.005173,-0.002638,-89.895479,0.005173,
1780,210,-0.644223,-9.169827,0.999997,0.000194,-0.002236,0.005082,-0.000537,0.005121,-0.002275,-85.824858,0.005132,
1870,1820,-0.919914,-1.202113,0.999998,0.000206,-0.002423,0.004913,0.000091,0.004915,-0.002424,89.289085,0.004915,
620,1570,1.281656,-2.404436,0.999998,0.000185,-0.002524,0.005079,0.000065,0.005079,-0.002525,89.510061,0.005079,
740,1850,0.510881,-0.808159,0.999997,0.000207,-0.001772,0.004834,-0.000712,0.004910,-0.001848,-83.919951,0.004960,
1150,80,0.014428,-9.896474,0.999999,0.000133,-0.000197,0.003088,0.000122,0.003093,-0.000201,87.869838,0.003461,
620,1890,0.659692,-0.785217,0.999998,0.000188,-0.002442,0.005214,-0.000409,0.005236,-0.002464,-86.951727,0.005239,
1470,610,-0.436092,-7.701015,0.999997,0.000185,-0.002616,0.004905,0.000894,0.005009,-0.002721,83.316547,0.005016,
810,1650,0.700637,-1.698497,0.999997,0.000203,-0.002305,0.004932,0.000095,0.004934,-0.002307,89.244318,0.004937,
1170,790,0.085691,-7.611815,0.999997,0.000211,-0.001713,0.001974,-0.001658,0.002610,-0.002349,-69.018259,0.002875,
1540,1150,-1.207637,-4.307313,0.999998,0.000185,-0.002884,0.006267,0.000693,0.006319,-0.002936,85.691018,0.006325,
1720,1240,-1.512124,-3.958138,0.999998,0.000195,-0.002671,0.005299,0.000552,0.005337,-0.002709,86.053282,0.005337,
1550,1490,-0.616530,-2.325596,0.999997,0.000200,-0.002696,0.005087,-0.000501,0.005119,-0.002728,-86.335626,0.005123,
1030,680,0.372831,-7.459328,0.999996,0.000215,-0.002872,0.004953,-0.001288,0.005160,-0.003078,-80.890369,0.005192,
1280,160,-0.022616,-9.643197,0.999998,0.000146,-0.000438,0.003286,-0.000067,0.003287,-0.000439,-88.975466,0.003569,
770,1290,1.340558,-3.661729,0.999997,0.000192,-0.002875,0.005496,-0.000445,0.005520,-0.002899,-86.965450,0.005522,
1330,230,-0.068204,-9.398608,0.999998,0.000187,-0.000819,0.003481,-0.000024,0.003481,-0.000819,-89.683090,0.003640,
690,1380,1.399215,-3.277609,0.999997,0.000215,-0.002670,0.005217,-0.000197,0.005222,-0.002675,-88.572840,0.005223,
1050,1580,0.260126,-1.669775,0.999998,0.000167,-0.001699,0.004122,0.000485,0.004162,-0.001739,85.267323,0.004181,
650,100,0.355417,-9.698702,0.999997,0.000197,-0.001537,0.005094,0.001475,0.005407,-0.001850,78.007228,0.005496,
1030,460,0.287178,-8.446892,0.999998,0.000158,-0.001760,0.004176,-0.000461,0.004212,-0.001795,-85.584450,0.004227,
1510,1210,-0.935152,-3.863258,0.999998,0.000199,-0.003632,0.006575,0.000166,0.006578,-0.003635,89.067213,0.006590,
800,230,0.454117,-9.210579,0.999998,0.000182,-0.001872,0.004622,0.000453,0.004654,-0.001903,86.027369,0.004680,
1670,1220,-1.414859,-4.026835,0.999997,0.000203,-0.002774,0.005503,0.000624,0.005549,-0.002821,85.712099,0.005550,
940,760,0.778601,-6.729295,0.999997,0.000176,-0.003618,0.006166,-0.000365,0.006179,-0.003632,-87.868061,0.006211,
1280,470,-0.060038,-8.559449,0.999998,0.000145,-0.001241,0.003535,0.000156,0.003540,-0.001246,88.131299,0.003591,
1610,1560,-0.703590,-2.077704,0.999998,0.000185,-0.002498,0.005012,-0.000298,0.005024,-0.002509,-87.729664,0.005024,
1640,400,-0.664960,-8.426836,0.999998,0.000167,-0.002282,0.004905,0.000106,0.004906,-0.002283,89.153436,0.004910,
1760,860,-1.696041,-5.861022,0.999998,0.000190,-0.002491,0.005041,-0.000477,0.005071,-0.002521,-86.387007,0.005071,
1070,710,0.275141,-7.455349,0.999997,0.000199,-0.002754,0.004550,-0.001667,0.004913,-0.003116,-77.736303,0.004971,
730,750,1.424824,-6.455825,0.999997,0.000209,-0.002758,0.005333,0.000381,0.005351,-0.002776,87.312725,0.005353,
1850,510,-1.335606,-7.536632,0.999996,0.000215,-0.002525,0.005086,0.000057,0.005086,-0.002525,89.574402,0.005086,
1120,800,0.207444,-7.317600,0.999997,0.000204,-0.002672,0.003696,-0.002293,0.004436,-0.003412,-72.120739,0.004645,
680,30,0.052398,-10.033433,0.999998,0.000000,0.000016,0.004210,0.001809,0.004882,-0.000656,69.609497,0.005300,
1870,670,-1.639821,-6.691261,0.999997,0.000216,-0.002508,0.005055,-0.000074,0.005056,-0.002509,-89.435720,0.005056,
1680,780,-1.333388,-6.348832,0.999997,0.000203,-0.002892,0.005554,-0.000475,0.005580,-0.002918,-86.790262,0.005582,
860,220,0.344304,-9.302455,0.999998,0.000206,-0.001468,0.004300,0.000431,0.004332,-0.001500,85.748088,0.004400,
1680,170,-0.360927,-9.468157,0.999998,0.000163,-0.001580,0.004473,-0.000748,0.004564,-0.001671,-83.062375,0.004618,
1790,1920,-0.448455,-0.543529,0.999996,0.000228,-0.001782,0.005025,0.001179,0.005224,-0.001980,80.444593,0.005274,
600,1460,1.499176,-2.998074,0.999997,0.000207,-0.002550,0.005072,-0.000039,0.005072,-0.002550,-89.703758,0.005072,
1880,1820,-0.944132,-1.224094,0.999998,0.000192,-0.002398,0.004869,0.000086,0.004870,-0.002399,89.319119,0.004871,
980,1120,1.138045,-4.403202,0.999997,0.000201,-0.002866,0.006957,-0.000389,0.006973,-0.002881,-87.735574,0.007008,
690,310,0.838589,-8.676278,0.999998,0.000150,-0.002398,0.005032,0.000076,0.005033,-0.002399,89.412918,0.005035,
1020,1560,0.321678,-1.798781,0.999998,0.000168,-0.002022,0.004299,0.000618,0.004358,-0.002082,84.470179,0.004360,
720,1870,0.499526,-0.732741,0.999998,0.000159,-0.002001,0.004893,-0.000680,0.004959,-0.002068,-84.416666,0.004982,
910,1030,1.441486,-5.025339,0.999998,0.000193,-0.001790,0.005571,-0.000039,0.005571,-0.001791,-89.696783,0.005688,
1420,1960,-0.047148,-0.239106,0.999998,0.000172,-0.000370,0.003259,0.000265,0.003279,-0.000390,85.850786,0.003582,
660,600,1.352857,-7.147782,0.999997,0.000196,-0.002594,0.005130,0.000046,0.005130,-0.002594,89.660505,0.005130,
1590,1670,-0.539311,-1.513600,0.999997,0.000224,-0.002084,0.004712,-0.000132,0.004715,-0.002086,-88.883890,0.004725,
620,1870,0.722877,-0.890256,0.999998,0.000195,-0.002436,0.005145,-0.000314,0.005158,-0.002449,-87.629326,0.005160,
1060,270,0.149663,-9.229596,0.999998,0.000165,-0.001069,0.003711,0.000021,0.003711,-0.001069,89.749479,0.003821,
1170,770,0.075201,-7.654124,0.999998,0.000191,-0.001570,0.002120,-0.001604,0.002720,-0.002169,-69.504733,0.002876,
1800,1920,-0.467610,-0.554031,0.999997,0.000213,-0.001791,0.005125,0.001194,0.005325,-0.001991,80.477897,0.005382,
620,1550,1.311530,-2.507553,0.999997,0.000202,-0.002535,0.005079,0.000044,0.005079,-0.002535,89.668256,0.005079,
810,140,0.253051,-9.618046,0.999998,0.000185,-0.001129,0.004182,0.000810,0.004303,-0.001249,81.517065,0.004428,
1510,1190,-0.993995,-3.996765,0.999998,0.000197,-0.003497,0.006596,0.000320,0.006606,-0.003507,88.183874,0.006611,
630,1000,2.000148,-5.164782,0.999999,0.000155,-0.002123,0.004504,0.000128,0.004507,-0.002126,88.896753,0.004509,
1720,1220,-1.552148,-4.065156,0.999997,0.000201,-0.002617,0.005283,0.000575,0.005325,-0.002659,85.860980,0.005325,
990,80,0.051018,-9.884951,0.999999,0.000146,-0.000233,0.003352,0.000405,0.003397,-0.000279,83.637090,0.003772,
1800,1690,-0.994933,-1.724505,0.999998,0.000146,-0.002450,0.005035,-0.000011,0.005035,-0.002450,-89.917257,0.005036,
1330,430,-0.121900,-8.673001,0.999998,0.000172,-0.001357,0.003701,0.000310,0.003719,-0.001376,86.501914,0.003761,
1620,1310,-1.078107,-3.454187,0.999997,0.000251,-0.003178,0.005792,0.000209,0.005797,-0.003183,88.665932,0.005806,
1350,1700,-0.129673,-1.141497,0.999998,0.000154,-0.001191,0.003701,-0.000175,0.003708,-0.001197,-87.959430,0.003784,
790,800,1.352837,-6.243878,0.999997,0.000204,-0.002887,0.005562,0.000516,0.005593,-0.002918,86.519592,0.005595,
770,1270,1.380042,-3.772322,0.999997,0.000213,-0.002858,0.005490,-0.000511,0.005521,-0.002889,-86.508594,0.005523,
800,210,0.415865,-9.301883,0.999997,0.000204,-0.001760,0.004563,0.000538,0.004608,-0.001805,85.167043,0.004644,
1520,670,-0.633082,-7.263734,0.999997,0.000210,-0.003176,0.005531,0.000670,0.005582,-0.003227,85.626487,0.005605,
1390,580,-0.238174,-8.019738,0.999998,0.000154,-0.001985,0.004058,0.000922,0.004196,-0.002122,81.515476,0.004196,
1640,380,-0.639770,-8.525245,0.999997,0.000190,-0.002217,0.004868,0.000039,0.004868,-0.002217,89.682436,0.004875,
1240,470,-0.010237,-8.571464,0.999998,0.000163,-0.001254,0.003475,0.000079,0.003477,-0.001255,89.040370,0.003521,
1760,840,-1.662413,-5.959800,0.999997,0.000208,-0.002516,0.005033,-0.000502,0.005066,-0.002549,-86.211418,0.005066,
940,740,0.741136,-6.852545,0.999997,0.000192,-0.003534,0.005991,-0.000439,0.006012,-0.003554,-87.363943,0.006045,
1120,780,0.182876,-7.391311,0.999998,0.000201,-0.002590,0.003639,-0.002221,0.004350,-0.003301,-72.252899,0.004540,
670,2020,0.069397,-0.065348,0.999998,0.000000,-0.000023,0.004255,-0.001913,0.004986,-0.000754,-69.093551,0.005375,
1890,1820,-0.967862,-1.246205,0.999997,0.000188,-0.002401,0.004819,0.000097,0.004821,-0.002402,89.232130,0.004821,
980,1100,1.200179,-4.544709,0.999997,0.000208,-0.002581,0.006947,-0.000401,0.006963,-0.002598,-87.596003,0.007038,
1620,1990,-0.081976,-0.159659,0.999998,0.000162,-0.000326,0.003635,0.000911,0.003835,-0.000526,77.651752,0.004158,
980,1190,0.897715,-3.918374,0.999998,0.000183,-0.003685,0.006779,-0.000022,0.006779,-0.003685,-89.877046,0.006787,
660,1990,0.192467,-0.199312,0.999998,0.000185,-0.000683,0.004802,-0.001982,0.005443,-0.001324,-72.074825,0.005677,
680,910,1.821179,-5.599835,0.999998,0.000190,-0.002295,0.004818,0.000334,0.004834,-0.002310,87.313812,0.004836,
1650,1240,-1.318549,-3.898334,0.999997,0.000212,-0.002927,0.005654,0.000565,0.005691,-0.002964,86.249590,0.005693,
1020,1540,0.331708,-1.886127,0.999997,0.000188,-0.002097,0.004361,0.000681,0.004432,-0.002168,84.045532,0.004432,
600,1680,1.166947,-1.882219,0.999998,0.000172,-0.002462,0.004975,0.000048,0.004976,-0.002462,89.627793,0.004976,
1550,1480,-0.625998,-2.376185,0.999998,0.000188,-0.002724,0.005125,-0.000501,0.005157,-0.002756,-86.363807,0.005161,
1680,760,-1.294386,-6.459551,0.999998,0.000190,-0.002926,0.005544,-0.000397,0.005562,-0.002945,-87.322441,0.005566,
910,1010,1.432581,-5.137398,0.999998,0.000181,-0.001860,0.005630,0.000211,0.005636,-0.001866,88.389415,0.005743,
1170,750,0.069124,-7.699461,0.999998,0.000170,-0.001480,0.002259,-0.001493,0.002782,-0.002003,-70.696326,0.002870,
600,1890,0.707854,-0.833742,0.999997,0.000189,-0.002435,0.005155,-0.000379,0.005174,-0.002454,-87.152239,0.005177,
1420,1940,-0.063234,-0.306944,0.999998,0.000166,-0.000455,0.003360,0.000248,0.003376,-0.000471,86.294750,0.003657,
1590,1650,-0.559947,-1.606808,0.999997,0.000216,-0.002122,0.004743,-0.000142,0.004746,-0.002125,-88.817023,0.004754,
640,190,0.689360,-9.208985,0.999997,0.000185,-0.002316,0.005134,0.000488,0.005166,-0.002348,86.266312,0.005173,
1070,690,0.267056,-7.548180,0.999997,0.000211,-0.002584,0.004458,-0.001546,0.004782,-0.002909,-78.151148,0.004820,
1270,80,-0.008557,-9.897504,0.999998,0.000162,-0.000168,0.003063,-0.000060,0.003064,-0.000169,-88.940347,0.003445,
1720,1200,-1.588241,-4.170109,0.999997,0.000199,-0.002557,0.005209,0.000551,0.005248,-0.002595,85.964655,0.005248,
1340,1710,-0.115383,-1.098467,0.999999,0.000123,-0.001191,0.003642,-0.000179,0.003648,-0.001198,-87.880333,0.003719,
1170,1260,0.089718,-2.479064,0.999998,0.000175,-0.001765,0.001936,0.001653,0.002567,-0.002396,69.109866,0.002871,
1320,1640,-0.104635,-1.343467,0.999998,0.000171,-0.001305,0.003676,-0.000285,0.003692,-0.001322,-86.738872,0.003742,
690,270,0.764292,-8.879418,0.999998,0.000169,-0.002362,0.005038,0.000207,0.005043,-0.002368,88.401510,0.005046,
1510,1170,-1.057956,-4.128856,0.999997,0.000193,-0.003279,0.006597,0.000480,0.006621,-0.003302,87.222847,0.006621,
770,1250,1.421813,-3.883280,0.999997,0.000228,-0.002810,0.005417,-0.000539,0.005452,-0.002846,-86.268313,0.005454,
1610,1540,-0.723592,-2.177873,0.999998,0.000213,-0.002568,0.005056,-0.000302,0.005068,-0.002580,-87.736770,0.005068,
1640,360,-0.611514,-8.622016,0.999997,0.000190,-0.002153,0.004793,-0.000028,0.004793,-0.002153,-89.771062,0.004801,
1760,820,-1.628083,-6.063564,0.999997,0.000214,-0.002551,0.005112,-0.000524,0.005148,-0.002586,-86.108539,0.005148,
1850,490,-1.307948,-7.638396,0.999997,0.000205,-0.002526,0.005072,0.000038,0.005072,-0.002526,89.709782,0.005072,
1500,150,-0.135227,-9.633865,0.999998,0.000156,-0.000818,0.003667,-0.000363,0.003696,-0.000847,-85.404236,0.003873,
730,730,1.387391,-6.562927,0.999997,0.000225,-0.002767,0.005330,0.000342,0.005344,-0.002782,87.584663,0.005346,
1100,510,0.180952,-8.341379,0.999998,0.000162,-0.001648,0.003849,-0.000616,0.003918,-0.001716,-83.685205,0.003928,
670,30,0.049582,-10.033891,0.999998,0.000000,0.000090,0.004245,0.001923,0.004998,-0.000663,68.607196,0.005429,
850,1930,0.193033,-0.388083,0.999998,0.000176,-0.000817,0.003931,-0.000759,0.004050,-0.000935,-81.133751,0.004241,
940,720,0.711895,-6.968428,0.999997,0.000199,-0.003452,0.005832,-0.000492,0.005858,-0.003478,-86.972173,0.005892,
960,1190,0.969487,-3.977636,0.999996,0.000254,-0.003546,0.006644,-0.000251,0.006650,-0.003553,-88.587591,0.006655,
1440,1350,-0.413459,-2.772358,0.999998,0.000188,-0.003159,0.005203,-0.001287,0.005397,-0.003353,-81.446300,0.005449,
1130,1900,0.045487,-0.425446,0.999999,0.000115,-0.000514,0.003322,-0.000092,0.003324,-0.000516,-88.626695,0.003577,
880,590,0.733316,-7.559401,0.999997,0.000208,-0.002832,0.005289,-0.000395,0.005308,-0.002851,-87.223357,0.005313,
1040,270,0.172757,-9.216941,0.999998,0.000147,-0.001176,0.003759,0.000014,0.003759,-0.001176,89.840747,0.003846,
1120,760,0.171195,-7.461978,0.999997,0.000211,-0.002436,0.003611,-0.002091,0.004264,-0.003088,-72.663667,0.004404,
980,1080,1.251163,-4.679271,0.999997,0.000209,-0.002333,0.006817,-0.000333,0.006829,-0.002345,-87.918674,0.006940,
750,1900,0.371632,-0.562651,0.999998,0.000173,-0.001360,0.004606,-0.001021,0.004776,-0.001529,-80.555810,0.004878,
660,580,1.321993,-7.251327,0.999998,0.000188,-0.002587,0.005171,0.000013,0.005171,-0.002587,89.906471,0.005171,
1810,210,-0.711240,-9.128419,0.999998,0.000182,-0.002271,0.005144,-0.000495,0.005177,-0.002304,-86.195272,0.005188,
600,1440,1.529760,-3.098873,0.999997,0.000210,-0.002531,0.005067,-0.000057,0.005067,-0.002531,-89.567176,0.005067,
1420,1920,-0.074278,-0.373034,0.999998,0.000147,-0.000559,0.003435,0.000222,0.003447,-0.000572,86.829087,0.003695,
1720,1180,-1.620637,-4.273858,0.999997,0.000209,-0.002510,0.005156,0.000552,0.005195,-0.002550,85.904048,0.005196,
1170,730,0.066692,-7.741189,0.999998,0.000169,-0.001435,0.002415,-0.001322,0.002825,-0.001846,-72.760820,0.002869,
1070,670,0.261093,-7.635082,0.999998,0.000176,-0.002445,0.004366,-0.001398,0.004642,-0.002720,-78.840326,0.004665,
1870,1920,-0.623162,-0.696297,0.999997,0.000221,-0.002418,0.005318,0.000627,0.005368,-0.002468,85.398106,0.005374,
600,1570,1.332346,-2.437403,0.999998,0.000184,-0.002507,0.005075,0.000048,0.005075,-0.002507,89.637840,0.005076,
890,80,0.086446,-9.870866,0.999999,0.000139,-0.000460,0.003527,0.000659,0.003634,-0.000566,80.848495,0.003910,
930,1380,0.680300,-2.874688,0.999997,0.000216,-0.003226,0.005604,0.000549,0.005638,-0.003260,86.456754,0.005661,
1080,1230,0.384692,-3.141856,0.999996,0.000270,-0.003532,0.005266,0.001997,0.005698,-0.003964,77.792596,0.005841,
730,260,0.649617,-8.990222,0.999997,0.000218,-0.002140,0.004960,0.000352,0.004977,-0.002157,87.167422,0.004992,
1200,1710,0.032306,-1.071486,0.999999,0.000127,-0.001022,0.003527,0.000082,0.003529,-0.001023,88.961528,0.003631,
740,710,1.323037,-6.682147,0.999997,0.000250,-0.002804,0.005371,0.000284,0.005381,-0.002813,88.011145,0.005383,
720,1070,1.800170,-4.834250,0.999998,0.000156,-0.002149,0.004819,-0.000143,0.004822,-0.002152,-88.827784,0.004831,
1030,1580,0.292796,-1.696816,0.999997,0.000186,-0.001817,0.004229,0.000519,0.004273,-0.001862,85.128709,0.004285,
1410,1760,-0.170448,-0.950162,0.999998,0.000197,-0.001238,0.003777,-0.000047,0.003777,-0.001239,-89.464822,0.003851,
1390,620,-0.244304,-7.852870,0.999998,0.000180,-0.002178,0.004133,0.001192,0.004351,-0.002395,79.653238,0.004358,
1510,1150,-1.121384,-4.261148,0.999998,0.000191,-0.003046,0.006586,0.000559,0.006619,-0.003078,86.691117,0.006624,
1040,1830,0.142151,-0.694377,0.999998,0.000182,-0.000993,0.003692,-0.000094,0.003694,-0.000995,-88.848637,0.003822,
770,1230,1.459573,-3.990266,0.999997,0.000219,-0.002763,0.005373,-0.000570,0.005413,-0.002802,-86.008544,0.005414,
1340,100,-0.024287,-9.830657,0.999998,0.000162,-0.000317,0.003176,-0.000134,0.003181,-0.000322,-87.799116,0.003502,
1500,750,-0.677503,-6.857323,0.999996,0.000212,-0.003635,0.006026,0.000600,0.006063,-0.003672,86.458402,0.006108,
780,550,0.958909,-7.597916,0.999997,0.000195,-0.002684,0.005242,-0.000149,0.005245,-0.002687,-88.921418,0.005245,
910,990,1.421292,-5.250221,0.999997,0.000208,-0.001952,0.005756,0.000404,0.005777,-0.001973,87.010391,0.005873,
1590,1630,-0.582102,-1.702542,0.999998,0.000197,-0.002194,0.004767,-0.000181,0.004771,-0.002199,-88.514214,0.004776,
640,150,0.561044,-9.419451,0.999997,0.000234,-0.002225,0.005215,0.000750,0.005290,-0.002299,84.298148,0.005305,
640,1190,1.854300,-4.288193,0.999998,0.000191,-0.002339,0.004804,-0.000382,0.004825,-0.002360,-86.951423,0.004825,
1440,1330,-0.430033,-2.877157,0.999997,0.000189,-0.003326,0.005373,-0.001326,0.005571,-0.003524,-81.519664,0.005635,
830,1800,0.447212,-0.957886,0.999998,0.000167,-0.001632,0.004546,-0.000403,0.004573,-0.001659,-86.281352,0.004630,
1020,1520,0.337551,-1.973811,0.999998,0.000169,-0.002140,0.004406,0.000719,0.004484,-0.002218,83.807910,0.004484,
690,250,0.721751,-8.979494,0.999998,0.000183,-0.002343,0.005030,0.000298,0.005042,-0.002355,87.687860,0.005045,
980,1060,1.289741,-4.813664,0.999997,0.000228,-0.002159,0.007031,-0.000189,0.007035,-0.002163,-88.825464,0.007207,
1120,740,0.159831,-7.534197,0.999997,0.000225,-0.002263,0.003553,-0.001935,0.004138,-0.002848,-73.183431,0.004235,
1890,1470,-1.550957,-2.988275,0.999997,0.000198,-0.002548,0.005093,0.000014,0.005093,-0.002548,89.891558,0.005093,
1420,1900,-0.092063,-0.443691,0.999998,0.000164,-0.000661,0.003507,0.000232,0.003520,-0.000673,86.822131,0.003737,
660,2020,0.069429,-0.065158,0.999998,0.000000,-0.000148,0.004310,-0.001927,0.005028,-0.000865,-69.574092,0.005376,
1720,1160,-1.654044,-4.378777,0.999997,0.000192,-0.002451,0.005157,0.000558,0.005197,-0.002491,85.826406,0.005199,
660,560,1.290710,-7.353798,0.999998,0.000178,-0.002569,0.005132,-0.000015,0.005132,-0.002569,-89.887895,0.005132,
600,1400,1.596614,-3.302466,0.999997,0.000204,-0.002508,0.005037,-0.000095,0.005039,-0.002509,-89.275546,0.005039,
1040,1510,0.298192,-1.980704,0.999998,0.000174,-0.002121,0.004286,0.000797,0.004384,-0.002219,83.010216,0.004384,
1070,650,0.256894,-7.722145,0.999998,0.000173,-0.002347,0.004267,-0.001309,0.004516,-0.002597,-79.199349,0.004533,
1800,1900,-0.530182,-0.655641,0.999997,0.000216,-0.001940,0.005143,0.001028,0.005289,-0.002086,81.902819,0.005328,
1170,710,0.068114,-7.791484,0.999998,0.000161,-0.001416,0.002570,-0.001175,0.002890,-0.001736,-74.741461,0.002909,
670,400,1.032528,-8.189590,0.999998,0.000160,-0.002469,0.005067,-0.000082,0.005068,-0.002470,-89.380206,0.005068,
940,700,0.679724,-7.087503,0.999997,0.000208,-0.003359,0.005727,-0.000560,0.005761,-0.003393,-86.489249,0.005792,
1680,740,-1.255043,-6.570539,0.999997,0.000192,-0.002958,0.005561,-0.000342,0.005575,-0.002971,-87.707200,0.005579,
1060,1250,0.415680,-3.154022,0.999996,0.000245,-0.003765,0.005640,0.001735,0.005950,-0.004075,79.873801,0.006084,
1180,1710,0.054198,-1.076614,0.999999,0.000135,-0.001014,0.003547,0.000051,0.003548,-0.001015,89.357454,0.003655,
1300,1630,-0.080651,-1.367541,0.999998,0.000188,-0.001215,0.003601,-0.000169,0.003607,-0.001221,-87.986935,0.003669,
910,1380,0.746164,-2.921912,0.999997,0.000210,-0.003205,0.005630,0.000413,0.005649,-0.003224,87.326392,0.005668,
1310,80,-0.013994,-9.896183,0.999999,0.000134,-0.000179,0.003111,-0.000101,0.003115,-0.000182,-88.241935,0.003496,
1760,800,-1.590581,-6.165568,0.999998,0.000201,-0.002573,0.005155,-0.000478,0.005184,-0.002602,-86.474629,0.005184,
730,950,1.752133,-5.420728,0.999997,0.000184,-0.002252,0.004986,0.000422,0.005011,-0.002276,86.677550,0.005018,
770,1210,1.498165,-4.098970,0.999997,0.000200,-0.002689,0.005393,-0.000607,0.005438,-0.002735,-85.727725,0.005438,
1510,1130,-1.182130,-4.390388,0.999997,0.000199,-0.002778,0.006527,0.000620,0.006568,-0.002819,86.202214,0.006590,
1850,470,-1.277061,-7.740306,0.999998,0.000169,-0.002527,0.005100,0.000056,0.005100,-0.002528,89.580561,0.005100,
860,770,1.074833,-6.504044,0.999997,0.000194,-0.003280,0.005938,0.000260,0.005946,-0.003288,88.387775,0.005957,
1640,340,-0.584351,-8.719471,0.999997,0.000200,-0.002086,0.004803,-0.000067,0.004803,-0.002087,-89.444325,0.004817,
630,860,1.870444,-5.808926,0.999998,0.000160,-0.002322,0.004770,0.000349,0.004787,-0.002339,87.193169,0.004788,
860,150,0.225197,-9.597475,0.999998,0.000193,-0.001042,0.004066,0.000678,0.004155,-0.001131,82.562337,0.004296,
910,970,1.389761,-5.366676,0.999997,0.000221,-0.002084,0.005771,0.000544,0.005808,-0.002121,86.056366,0.005878,
1590,1610,-0.600358,-1.796939,0.999998,0.000188,-0.002287,0.004827,-0.000242,0.004835,-0.002295,-88.050788,0.004837,
1320,550,-0.118509,-8.245819,0.999998,0.000155,-0.001458,0.003518,0.000599,0.003589,-0.001529,83.230905,0.003602,
1440,1830,-0.158537,-0.702418,0.999998,0.000181,-0.000929,0.003725,0.000149,0.003729,-0.000934,88.172758,0.003881,
1310,1560,-0.101477,-1.627352,0.999998,0.000149,-0.001433,0.003585,-0.000417,0.003619,-0.001467,-85.283796,0.003641,
1340,140,-0.042136,-9.703478,0.999999,0.000131,-0.000471,0.003272,-0.000112,0.003275,-0.000474,-88.294722,0.003540,
980,1040,1.306360,-4.960721,0.999997,0.000228,-0.002091,0.006908,-0.000058,0.006908,-0.002092,-89.630846,0.007085,
1120,720,0.152500,-7.605301,0.999997,0.000199,-0.002131,0.003548,-0.001771,0.004055,-0.002638,-74.026711,0.004115,
910,1160,1.218966,-4.263537,0.999997,0.000200,-0.002895,0.006141,-0.000707,0.006196,-0.002949,-85.555186,0.006199,
1420,1880,-0.104337,-0.513493,0.999998,0.000164,-0.000760,0.003490,0.000174,0.003498,-0.000767,87.654298,0.003677,
700,770,1.544451,-6.316947,0.999997,0.000219,-0.002634,0.005172,0.000413,0.005194,-0.002656,86.978626,0.005194,
1020,1500,0.346659,-2.062521,0.999997,0.000182,-0.002189,0.004435,0.000774,0.004524,-0.002279,83.425829,0.004524,
1390,640,-0.250429,-7.771760,0.999998,0.000149,-0.002231,0.004150,0.001282,0.004398,-0.002479,79.053559,0.004410,
1490,860,-0.906788,-6.174779,0.999996,0.000246,-0.003685,0.006753,-0.000060,0.006754,-0.003685,-89.673040,0.006763,
1320,210,-0.054621,-9.470706,0.999998,0.000183,-0.000696,0.003436,-0.000046,0.003437,-0.000697,-89.360466,0.003634,
1790,1820,-0.728531,-1.049350,0.999997,0.000205,-0.002310,0.005069,0.000386,0.005089,-0.002330,87.017332,0.005095,
690,230,0.677349,-9.080147,0.999998,0.000186,-0.002310,0.004988,0.000403,0.005010,-0.002333,86.849936,0.005014,
810,1630,0.726961,-1.796476,0.999997,0.000191,-0.002339,0.004947,0.000122,0.004949,-0.002341,89.037465,0.004951,
600,1380,1.630536,-3.402913,0.999997,0.000201,-0.002498,0.005046,-0.000091,0.005047,-0.002499,-89.311043,0.005047,
1550,1470,-0.635366,-2.427275,0.999997,0.000207,-0.002775,0.005166,-0.000507,0.005199,-0.002807,-86.364720,0.005204,
1890,1460,-1.566599,-3.039369,0.999997,0.000209,-0.002533,0.005106,0.000031,0.005106,-0.002534,89.765566,0.005106,
620,1510,1.370471,-2.711862,0.999997,0.000195,-0.002544,0.005098,0.000010,0.005098,-0.002544,89.921747,0.005098,
1170,690,0.070539,-7.840439,0.999998,0.000161,-0.001383,0.002720,-0.001047,0.002972,-0.001635,-76.476859,0.002977,
660,2010,0.111925,-0.109579,0.999998,0.000185,-0.000359,0.004380,-0.001899,0.005047,-0.001026,-70.645140,0.005335,
1320,1710,-0.091490,-1.086311,0.999998,0.000174,-0.001123,0.003608,-0.000137,0.003612,-0.001127,-88.343017,0.003696,
710,440,0.991346,-8.050615,0.999998,0.000158,-0.002479,0.005064,-0.000084,0.005065,-0.002480,-89.358941,0.005065,
1320,1770,-0.075825,-0.870570,0.999998,0.000159,-0.000959,0.003535,-0.000040,0.003536,-0.000959,-89.492184,0.003657,
710,2020,0.059806,-0.065545,0.999998,0.000000,-0.000530,0.003978,-0.001447,0.004403,-0.000954,-73.647739,0.004632,
940,680,0.655722,-7.200614,0.999996,0.000220,-0.003239,0.005586,-0.000612,0.005628,-0.003281,-86.048454,0.005654,
1720,210,-0.518553,-9.248784,0.999998,0.000194,-0.001784,0.004841,-0.000711,0.004916,-0.001860,-83.939154,0.004964,
770,1190,1.536068,-4.206648,0.999998,0.000194,-0.002595,0.005320,-0.000608,0.005367,-0.002642,-85.630138,0.005367,
1070,630,0.254549,-7.804292,0.999997,0.000191,-0.002265,0.004170,-0.001224,0.004395,-0.002490,-79.585814,0.004408,
800,190,0.374513,-9.393073,0.999998,0.000179,-0.001662,0.004495,0.000640,0.004561,-0.001728,84.126797,0.004605,
1760,780,-1.554753,-6.269585,0.999997,0.000215,-0.002601,0.005161,-0.000437,0.005185,-0.002625,-86.788569,0.005186,
1640,320,-0.557331,-8.814636,0.999997,0.000199,-0.001982,0.004716,-0.000111,0.004718,-0.001984,-89.051756,0.004738,
1260,690,-0.028831,-7.894551,0.999998,0.000130,-0.001109,0.002333,0.000496,0.002403,-0.001179,81.966726,0.002403,
1420,1830,-0.139262,-0.693090,0.999998,0.000166,-0.000983,0.003660,0.000105,0.003662,-0.000986,88.708993,0.003790,
1510,1110,-1.238943,-4.519055,0.999997,0.000183,-0.002541,0.006449,0.000624,0.006492,-0.002584,86.045291,0.006537,
1120,700,0.152250,-7.677217,0.999998,0.000177,-0.002006,0.003557,-0.001582,0.003975,-0.002425,-75.187240,0.004007,
980,1020,1.309949,-5.090117,0.999998,0.000203,-0.002096,0.006798,0.000031,0.006798,-0.002097,89.799333,0.006963,
600,1360,1.664143,-3.505869,0.999997,0.000208,-0.002499,0.005037,-0.000109,0.005038,-0.002501,-89.173730,0.005038,
1720,1140,-1.682484,-4.479189,0.999997,0.000187,-0.002352,0.005022,0.000464,0.005051,-0.002381,86.417477,0.005054,
1300,1710,-0.070900,-1.079748,0.999999,0.000127,-0.001038,0.003574,-0.000032,0.003575,-0.001038,-89.597536,0.003678,
1170,670,0.072927,-7.897010,0.999998,0.000169,-0.001356,0.002830,-0.000935,0.003030,-0.001556,-77.969640,0.003030,
760,1170,1.594676,-4.316809,0.999997,0.000193,-0.002486,0.005253,-0.000613,0.005301,-0.002534,-85.497321,0.005303,
680,890,1.798036,-5.696981,0.999997,0.000195,-0.002359,0.004897,0.000425,0.004922,-0.002383,86.662522,0.004923,
1580,670,-0.823835,-7.128969,0.999997,0.000190,-0.003180,0.005631,0.000271,0.005639,-0.003188,88.238569,0.005655,
1550,1450,-0.653320,-2.530170,0.999997,0.000221,-0.002873,0.005259,-0.000516,0.005291,-0.002906,-86.383180,0.005300,
1340,1900,-0.048262,-0.427717,0.999998,0.000140,-0.000534,0.003343,0.000109,0.003346,-0.000537,88.391572,0.003594,
810,1920,0.243352,-0.441397,0.999998,0.000189,-0.001101,0.004177,-0.000831,0.004304,-0.001228,-81.261658,0.004435,
1420,910,-0.842428,-6.143730,0.999997,0.000169,-0.003295,0.007075,0.001453,0.007275,-0.003495,82.171879,0.007277,
1220,620,0.012976,-8.087247,0.999998,0.000153,-0.001196,0.002862,-0.000177,0.002869,-0.001204,-87.502816,0.002882,
1280,140,-0.018248,-9.708275,0.999999,0.000147,-0.000366,0.003219,-0.000043,0.003220,-0.000367,-89.306207,0.003525,
1000,1490,0.394058,-2.146104,0.999998,0.000182,-0.002375,0.004640,0.000801,0.004731,-0.002465,83.571790,0.004732,
1800,1860,-0.650597,-0.860924,0.999997,0.000203,-0.002165,0.005086,0.000658,0.005145,-0.002224,84.857949,0.005161,
1020,1480,0.351414,-2.150168,0.999997,0.000189,-0.002298,0.004509,0.000863,0.004617,-0.002406,82.884464,0.004618,
1750,1180,-1.694066,-4.290256,0.999998,0.000174,-0.002430,0.005064,0.000551,0.005104,-0.002470,85.817838,0.005105,
940,270,0.296802,-9.151469,0.999998,0.000185,-0.001418,0.004134,0.000158,0.004138,-0.001422,88.368798,0.004205,
610,880,1.944293,-5.696296,0.999998,0.000174,-0.002224,0.004553,0.000206,0.004559,-0.002230,88.259553,0.004560,
850,1890,0.266498,-0.551371,0.999997,0.000195,-0.001123,0.004172,-0.000668,0.004255,-0.001206,-82.915858,0.004386,
1470,570,-0.415590,-7.893446,0.999997,0.000194,-0.002453,0.004681,0.000798,0.004770,-0.002541,83.693162,0.004773,
1520,1150,-1.149761,-4.278646,0.999998,0.000170,-0.002980,0.006462,0.000619,0.006502,-0.003020,86.264656,0.006508,
560,1960,0.578621,-0.504973,0.999373,0.000000,-0.004138,0.006071,-0.002705,0.006744,-0.004810,-76.038278,0.006945,
910,950,1.355882,-5.482468,0.999997,0.000223,-0.002235,0.005897,0.000661,0.005951,-0.002288,85.382317,0.006003,
1120,680,0.151442,-7.748039,0.999998,0.000156,-0.001909,0.003569,-0.001425,0.003917,-0.002258,-76.255849,0.003933,
660,1390,1.459959,-3.266883,0.999997,0.000202,-0.002584,0.005136,-0.000162,0.005140,-0.002588,-88.799734,0.005140,
840,330,0.538896,-8.786235,0.999997,0.000239,-0.001924,0.004750,0.000094,0.004751,-0.001925,89.196119,0.004779,
810,1610,0.750345,-1.896488,0.999998,0.000201,-0.002401,0.004977,0.000150,0.004980,-0.002404,88.835710,0.004981,
1890,1450,-1.582397,-3.089521,0.999997,0.000217,-0.002535,0.005111,0.000032,0.005111,-0.002535,89.759931,0.005112,
1640,300,-0.532341,-8.907591,0.999997,0.000190,-0.001880,0.004708,-0.000225,0.004715,-0.001887,-88.049286,0.004746,
1830,240,-0.832880,-8.937962,0.999999,0.000157,-0.002407,0.005066,-0.000173,0.005070,-0.002411,-88.676081,0.005072,
1550,1670,-0.456260,-1.457644,0.999997,0.000194,-0.001938,0.004557,-0.000137,0.004559,-0.001941,-88.791222,0.004576,
1110,1900,0.055245,-0.429465,0.999998,0.000143,-0.000495,0.003352,-0.000136,0.003357,-0.000500,-87.972263,0.003622,
600,1340,1.699513,-3.606118,0.999998,0.000185,-0.002478,0.004970,-0.000127,0.004972,-0.002480,-89.023139,0.004972,
980,1030,1.311160,-5.024400,0.999998,0.000214,-0.002076,0.006775,-0.000015,0.006775,-0.002076,-89.903023,0.006942,
1510,1090,-1.290797,-4.650049,0.999998,0.000167,-0.002273,0.006334,0.000524,0.006366,-0.002305,86.530414,0.006446,
820,190,0.344651,-9.408774,0.999998,0.000186,-0.001362,0.004411,0.000656,0.004485,-0.001435,83.601374,0.004581,
1340,1880,-0.056406,-0.494309,0.999998,0.000171,-0.000614,0.003355,0.000077,0.003356,-0.000615,88.883146,0.003573,
730,710,1.350636,-6.668926,0.999997,0.000219,-0.002785,0.005330,0.000285,0.005340,-0.002795,87.988593,0.005342,
1420,770,-0.415859,-7.036996,0.999998,0.000176,-0.003608,0.005527,0.001544,0.005781,-0.003862,80.663898,0.005889,
980,1000,1.296289,-5.227114,0.999997,0.000210,-0.002160,0.007036,0.000168,0.007039,-0.002163,88.956072,0.007211,
690,210,0.631238,-9.179434,0.999998,0.000186,-0.002264,0.005029,0.000533,0.005067,-0.002302,85.843953,0.005074,
830,1880,0.304884,-0.602448,0.999997,0.000192,-0.001141,0.004255,-0.000678,0.004339,-0.001225,-82.943937,0.004474,
1680,720,-1.216996,-6.682611,0.999998,0.000200,-0.002988,0.005544,-0.000269,0.005553,-0.002996,-88.194047,0.005558,
1310,1380,-0.094641,-2.229874,0.999998,0.000184,-0.001524,0.003040,-0.001125,0.003302,-0.001786,-76.877480,0.003306,
1660,1830,-0.438782,-0.843204,0.999998,0.000191,-0.001783,0.004551,0.000454,0.004584,-0.001816,85.918298,0.004616,
710,420,0.962221,-8.151596,0.999998,0.000170,-0.002443,0.005063,-0.000083,0.005064,-0.002444,-89.368433,0.005065,
1430,1070,-1.125461,-4.615621,0.999993,0.000307,-0.003750,0.009429,-0.001150,0.009529,-0.003849,-85.048897,0.009587,
780,250,0.532689,-9.094466,0.999998,0.000177,-0.002015,0.004733,0.000396,0.004756,-0.002038,86.654639,0.004772,
1030,560,0.325793,-8.014779,0.999998,0.000176,-0.002182,0.004375,-0.000821,0.004476,-0.002283,-82.968971,0.004476,
630,1700,1.059988,-1.730102,0.999998,0.000189,-0.002428,0.005026,0.000012,0.005026,-0.002428,89.907178,0.005027,
1720,190,-0.470171,-9.348405,0.999996,0.000207,-0.001640,0.004795,-0.000813,0.004897,-0.001742,-82.907082,0.004964,
650,1240,1.750309,-4.038404,0.999997,0.000183,-0.002429,0.004891,-0.000365,0.004910,-0.002447,-87.149422,0.004910,
1440,1170,-0.807826,-3.881678,0.999996,0.000259,-0.003619,0.007028,-0.000649,0.007068,-0.003659,-86.522556,0.007069,
1180,470,0.062976,-8.557833,0.999998,0.000173,-0.001220,0.003520,-0.000162,0.003525,-0.001225,-88.039147,0.003579,
1800,1840,-0.704870,-0.963818,0.999997,0.000205,-0.002241,0.005090,0.000540,0.005129,-0.002281,85.808410,0.005140,
1020,1460,0.358280,-2.241862,0.999997,0.000192,-0.002452,0.004617,0.000955,0.004744,-0.002579,82.437074,0.004750,
610,860,1.915811,-5.789148,0.999998,0.000151,-0.002268,0.004670,0.000257,0.004680,-0.002277,87.881414,0.004680,
1280,360,-0.051212,-8.949728,0.999999,0.000134,-0.001052,0.003548,0.000052,0.003548,-0.001053,89.353662,0.003645,
1900,310,-1.145141,-8.451026,0.999998,0.000000,-0.002397,0.004857,0.000048,0.004857,-0.002397,89.623707,0.004857,
1520,450,-0.451068,-8.365430,0.999997,0.000209,-0.002085,0.004594,0.000365,0.004614,-0.002105,86.880968,0.004620,
1170,650,0.074851,-7.955397,0.999999,0.000150,-0.001365,0.002916,-0.000843,0.003076,-0.001525,-79.247785,0.003076,
1470,550,-0.403283,-7.989002,0.999998,0.000185,-0.002337,0.004618,0.000727,0.004693,-0.002412,84.094512,0.004694,
1720,1120,-1.705676,-4.580007,0.999997,0.000198,-0.002275,0.005030,0.000426,0.005054,-0.002300,86.673794,0.005061,
1220,1770,0.010908,-0.858355,0.999999,0.000157,-0.000911,0.003481,0.000031,0.003482,-0.000912,89.599062,0.003611,
1250,1400,-0.020359,-2.093368,0.999999,0.000144,-0.001114,0.002627,-0.000273,0.002646,-0.001134,-85.847310,0.002655,
850,1870,0.297358,-0.631854,0.999998,0.000189,-0.001227,0.004216,-0.000584,0.004278,-0.001289,-83.945579,0.004389,
1120,1220,0.286708,-2.889091,0.999997,0.000228,-0.002600,0.003554,0.002136,0.004222,-0.003268,72.615901,0.004429,
990,1120,1.108002,-4.372536,0.999998,0.000183,-0.002959,0.007130,-0.000235,0.007136,-0.002965,-88.666850,0.007170,
670,380,1.001975,-8.289398,0.999998,0.000142,-0.002442,0.005027,-0.000030,0.005027,-0.002442,-89.768922,0.005028,
840,530,0.774695,-7.802772,0.999998,0.000154,-0.002679,0.005129,-0.000274,0.005139,-0.002688,-87.994867,0.005141,
1070,610,0.250187,-7.889306,0.999998,0.000178,-0.002190,0.004127,-0.001130,0.004323,-0.002386,-80.158656,0.004331,
1220,600,0.013686,-8.143833,0.999998,0.000153,-0.001188,0.003006,-0.000184,0.003014,-0.001196,-87.497226,0.003035,
970,1320,0.626581,-3.113545,0.999997,0.000201,-0.003549,0.005862,0.000733,0.005919,-0.003606,85.572788,0.005965,
810,1590,0.775131,-1.994864,0.999998,0.000198,-0.002497,0.005016,0.000200,0.005021,-0.002502,88.474721,0.005021,
770,1170,1.569960,-4.312853,0.999997,0.000193,-0.002517,0.005288,-0.000610,0.005335,-0.002564,-85.555279,0.005337,
940,660,0.631490,-7.311652,0.999997,0.000207,-0.003126,0.005497,-0.000640,0.005544,-0.003174,-85.780071,0.005564,
1640,520,-0.808105,-7.822286,0.999998,0.000152,-0.002636,0.005108,0.000249,0.005116,-0.002644,88.163591,0.005117,
630,680,1.563617,-6.694286,0.999997,0.000212,-0.002524,0.005066,0.000170,0.005070,-0.002528,88.719670,0.005070,
1850,450,-1.248740,-7.844748,0.999998,0.000166,-0.002493,0.005033,0.000069,0.005034,-0.002494,89.477165,0.005034,
760,1190,1.561338,-4.212163,0.999998,0.000193,-0.002558,0.005261,-0.000584,0.005304,-0.002601,-85.748680,0.005305,
1510,1070,-1.326904,-4.772189,0.999998,0.000167,-0.002043,0.006354,0.000393,0.006372,-0.002062,87.326462,0.006503,
1600,150,-0.223095,-9.597585,0.999998,0.000168,-0.001032,0.004048,-0.000666,0.004133,-0.001118,-82.657703,0.004276,
810,1900,0.286129,-0.526389,0.999997,0.000190,-0.001216,0.004301,-0.000772,0.004407,-0.001322,-82.179178,0.004524,
1190,1380,0.044567,-2.161893,0.999998,0.000184,-0.001221,0.002579,0.000695,0.002702,-0.001344,79.947736,0.002702,
600,1320,1.735053,-3.703093,0.999998,0.000166,-0.002461,0.004905,-0.000153,0.004908,-0.002464,-88.810722,0.004908,
980,980,1.261447,-5.369058,0.999997,0.000194,-0.002306,0.006851,0.000286,0.006860,-0.002315,88.212993,0.006979,
1030,2020,0.013166,-0.048684,0.999998,0.000000,-0.000083,0.003039,-0.000284,0.003065,-0.000109,-84.847650,0.003478,
1550,1430,-0.675820,-2.639205,0.999997,0.000201,-0.002993,0.005359,-0.000502,0.005389,-0.003023,-86.575447,0.005402,
990,820,0.723186,-6.502083,0.999997,0.000222,-0.003910,0.006574,-0.000500,0.006598,-0.003934,-87.277629,0.006638,
900,1630,0.523840,-1.663527,0.999997,0.000186,-0.002181,0.004726,0.000238,0.004735,-0.002189,88.029885,0.004739,
1690,520,-0.938691,-7.742662,0.999998,0.000171,-0.002601,0.005201,0.000183,0.005206,-0.002605,88.660853,0.005206,
730,670,1.280251,-6.883204,0.999997,0.000195,-0.002760,0.005307,0.000183,0.005311,-0.002765,88.704448,0.005313,
1400,890,-0.687675,-6.431316,0.999995,0.000237,-0.003178,0.006114,0.002021,0.006534,-0.003599,78.243630,0.006546,
1340,1860,-0.063934,-0.563398,0.999998,0.000150,-0.000686,0.003428,0.000071,0.003430,-0.000687,89.015303,0.003629,
1030,580,0.331467,-7.926702,0.999998,0.000181,-0.002232,0.004440,-0.000886,0.004555,-0.002347,-82.566691,0.004556,
1090,1900,0.064424,-0.431993,0.999998,0.000159,-0.000448,0.003388,-0.000188,0.003398,-0.000457,-87.203413,0.003688,
1730,820,-1.549054,-6.086613,0.999998,0.000193,-0.002656,0.005239,-0.000546,0.005276,-0.002693,-86.065391,0.005277,
690,190,0.578153,-9.282994,0.999998,0.000181,-0.002202,0.005019,0.000648,0.005077,-0.002260,84.911112,0.005087,
740,1810,0.599215,-1.003582,0.999998,0.000178,-0.001980,0.004922,-0.000482,0.004956,-0.002013,-86.027907,0.004985,
1110,80,0.024746,-9.892969,0.999999,0.000130,-0.000194,0.003138,0.000171,0.003147,-0.000202,87.065648,0.003523,
1440,1190,-0.730495,-3.739080,0.999997,0.000230,-0.003813,0.006903,-0.000748,0.006955,-0.003865,-86.028546,0.006969,
1800,1820,-0.751824,-1.065387,0.999998,0.000199,-0.002283,0.005095,0.000393,0.005115,-0.002304,86.958617,0.005124,
1280,120,-0.016069,-9.770812,0.999998,0.000163,-0.000297,0.003178,-0.000067,0.003179,-0.000299,-88.892261,0.003512,
1900,300,-1.127893,-8.499679,0.999998,0.000000,-0.002390,0.004781,0.000035,0.004781,-0.002390,89.724376,0.004781,
900,770,0.941163,-6.576136,0.999997,0.000180,-0.003461,0.006125,0.000060,0.006126,-0.003462,89.638920,0.006143,
1680,940,-1.621764,-5.484678,0.999997,0.000207,-0.002285,0.005144,-0.000460,0.005172,-0.002313,-86.470255,0.005182,
1020,1440,0.368063,-2.335287,0.999997,0.000211,-0.002585,0.004687,0.001049,0.004836,-0.002734,81.956352,0.004849,
1250,1640,-0.020377,-1.317308,0.999999,0.000158,-0.001191,0.003548,-0.000110,0.003551,-0.001193,-88.676214,0.003614,
1780,810,-1.660093,-6.096666,0.999998,0.000165,-0.002521,0.005070,-0.000461,0.005098,-0.002549,-86.539025,0.005098,
910,930,1.309024,-5.601118,0.999997,0.000210,-0.002478,0.005971,0.000713,0.006031,-0.002538,85.212208,0.006056,
1530,1640,-0.444325,-1.569741,0.999997,0.000219,-0.001976,0.004529,-0.000254,0.004539,-0.001985,-87.766252,0.004551,
1250,1420,-0.020801,-2.039272,0.999999,0.000133,-0.001147,0.002756,-0.000262,0.002774,-0.001164,-86.177450,0.002786,
1070,590,0.245599,-7.972886,0.999998,0.000172,-0.002090,0.004113,-0.001014,0.004274,-0.002252,-80.946535,0.004276,
1310,1360,-0.095544,-2.286973,0.999998,0.000178,-0.001588,0.002927,-0.001302,0.003276,-0.001937,-75.011283,0.003294,
1450,580,-0.372136,-7.891408,0.999998,0.000169,-0.002401,0.004571,0.000870,0.004678,-0.002508,82.993675,0.004682,
1550,1160,-1.210121,-4.260682,0.999998,0.000169,-0.002946,0.006195,0.000680,0.006246,-0.002996,85.769346,0.006247,
920,290,0.348608,-9.048745,0.999999,0.000144,-0.001437,0.004311,0.000166,0.004315,-0.001442,88.344973,0.004394,
810,1570,0.798286,-2.098604,0.999998,0.000183,-0.002572,0.005082,0.000203,0.005088,-0.002578,88.482604,0.005088,
600,1130,2.015969,-4.593391,0.999998,0.000189,-0.002161,0.004480,-0.000229,0.004488,-0.002169,-88.029673,0.004489,
1170,1230,0.138473,-2.531771,0.999997,0.000190,-0.002086,0.001829,0.001313,0.002228,-0.002486,73.072259,0.002734,
1120,660,0.153384,-7.816942,0.999998,0.000149,-0.001850,0.003555,-0.001312,0.003857,-0.002151,-77.048214,0.003866,
580,720,1.756628,-6.418959,0.999997,0.000198,-0.002825,0.004934,0.000289,0.004945,-0.002835,87.872304,0.004963,
850,1850,0.335251,-0.720409,0.999997,0.000200,-0.001361,0.004318,-0.000562,0.004373,-0.001416,-84.403588,0.004462,
1580,210,-0.295316,-9.362085,0.999998,0.000176,-0.001397,0.004174,-0.000425,0.004206,-0.001429,-85.660079,0.004278,
660,540,1.261827,-7.456366,0.999997,0.000198,-0.002607,0.005148,-0.000044,0.005148,-0.002607,-89.676547,0.005148,
1430,140,-0.084459,-9.686421,0.999998,0.000155,-0.000572,0.003450,-0.000259,0.003467,-0.000589,-86.335482,0.003710,
1330,760,-0.139303,-7.523728,0.999998,0.000193,-0.002172,0.003188,0.002026,0.003868,-0.002852,71.452230,0.004010,
1220,580,0.013772,-8.207383,0.999998,0.000156,-0.001215,0.003125,-0.000167,0.003132,-0.001222,-87.795943,0.003157,
980,1180,0.931710,-3.988333,0.999998,0.000184,-0.003596,0.006807,-0.000109,0.006808,-0.003597,-89.398806,0.006812,
1590,1810,-0.362790,-0.876777,0.999998,0.000191,-0.001660,0.004368,0.000307,0.004383,-0.001676,87.094415,0.004424,
1510,1050,-1.353362,-4.903277,0.999997,0.000188,-0.001890,0.006286,0.000226,0.006292,-0.001896,88.418176,0.006455,
940,640,0.609937,-7.421897,0.999997,0.000196,-0.003020,0.005342,-0.000656,0.005393,-0.003071,-85.541514,0.005410,
1170,2010,0.005547,-0.076536,0.999999,0.000134,-0.000042,0.003000,-0.000065,0.003002,-0.000043,-88.783340,0.003442,
1550,1390,-0.722606,-2.859543,0.999997,0.000193,-0.003182,0.005588,-0.000467,0.005613,-0.003207,-86.960010,0.005632,
830,1000,1.580601,-5.183165,0.999998,0.000194,-0.001976,0.005170,0.000215,0.005177,-0.001983,88.278956,0.005224,
1850,430,-1.219067,-7.942005,0.999998,0.000175,-0.002471,0.005013,0.000079,0.005013,-0.002472,89.395359,0.005014,
770,60,0.103418,-9.926641,0.999998,0.000157,-0.000464,0.003802,0.001112,0.004074,-0.000736,76.232666,0.004343,
1820,250,-0.830417,-8.906697,0.999998,0.000176,-0.002386,0.005095,-0.000233,0.005103,-0.002393,-88.221189,0.005106,
600,1510,1.420543,-2.741053,0.999998,0.000180,-0.002527,0.005096,0.000024,0.005096,-0.002527,89.819588,0.005096,
600,1300,1.768634,-3.802111,0.999998,0.000162,-0.002438,0.004897,-0.000167,0.004901,-0.002441,-88.698654,0.004901,
1040,2020,0.012507,-0.051591,0.999999,0.000000,-0.000128,0.003020,-0.000253,0.003040,-0.000149,-85.436738,0.003427,
1640,280,-0.498130,-9.003186,0.999997,0.000190,-0.001787,0.004640,-0.000312,0.004655,-0.001802,-87.225425,0.004694,
1160,470,0.088616,-8.550072,0.999998,0.000212,-0.001360,0.003598,-0.000310,0.003617,-0.001379,-86.439818,0.003651,
730,650,1.246046,-6.988472,0.999997,0.000185,-0.002758,0.005278,0.000132,0.005280,-0.002760,89.058193,0.005282,
1900,290,-1.109004,-8.546812,0.999997,0.000000,-0.002382,0.004732,0.000020,0.004732,-0.002383,89.837340,0.004732,
1380,620,-0.221793,-7.881839,0.999998,0.000173,-0.002092,0.004002,0.001148,0.004211,-0.002301,79.678696,0.004217,
970,720,0.603775,-7.053541,0.999998,0.000165,-0.003461,0.005742,-0.000776,0.005807,-0.003526,-85.212631,0.005851,
1020,1420,0.379106,-2.431223,0.999996,0.000237,-0.002670,0.004739,0.001116,0.004903,-0.002835,81.614695,0.004923,
1340,1630,-0.132866,-1.396191,0.999998,0.000165,-0.001345,0.003728,-0.000305,0.003746,-0.001363,-86.576973,0.003792,
1780,790,-1.623870,-6.198627,0.999998,0.000163,-0.002540,0.005094,-0.000431,0.005119,-0.002565,-86.775871,0.005119,
1280,80,-0.010201,-9.897149,0.999998,0.000154,-0.000152,0.003073,-0.000067,0.003075,-0.000154,-88.809337,0.003465,
1800,1800,-0.794341,-1.166634,0.999998,0.000212,-0.002337,0.005077,0.000331,0.005091,-0.002352,87.447680,0.005096,
1420,1860,-0.118175,-0.583769,0.999998,0.000168,-0.000852,0.003582,0.000174,0.003589,-0.000858,87.749932,0.003748,
1460,270,-0.214628,-9.193964,0.999999,0.000133,-0.001096,0.003924,-0.000119,0.003927,-0.001098,-88.637178,0.004052,
660,2000,0.151916,-0.153023,0.999998,0.000186,-0.000526,0.004551,-0.001941,0.005208,-0.001183,-71.301803,0.005461,
810,1550,0.824346,-2.200367,0.999998,0.000157,-0.002600,0.005120,0.000208,0.005126,-0.002605,88.457586,0.005126,
1340,1840,-0.071443,-0.632056,0.999998,0.000160,-0.000757,0.003457,0.000035,0.003458,-0.000757,89.519964,0.003635,
740,1790,0.639905,-1.102853,0.999997,0.000180,-0.002051,0.004924,-0.000401,0.004947,-0.002074,-86.720638,0.004968,
690,170,0.524742,-9.380552,0.999997,0.000200,-0.002081,0.004977,0.000796,0.005066,-0.002170,83.647610,0.005083,
1760,1200,-1.686338,-4.194981,0.999997,0.000200,-0.002490,0.005035,0.000506,0.005069,-0.002524,86.167621,0.005069,
1500,830,-0.855181,-6.343676,0.999998,0.000207,-0.003770,0.006596,0.000081,0.006597,-0.003770,89.551816,0.006619,
1120,620,0.152052,-7.960775,0.999998,0.000170,-0.001767,0.003608,-0.001064,0.003811,-0.001970,-79.203630,0.003812,
1680,700,-1.181405,-6.793465,0.999998,0.000187,-0.002979,0.005506,-0.000188,0.005510,-0.002983,-88.734201,0.005516,
1600,1310,-1.015640,-3.422215,0.999998,0.000188,-0.003278,0.005867,0.000101,0.005868,-0.003279,89.366859,0.005882,
980,460,0.384242,-8.371706,0.999998,0.000189,-0.001986,0.004433,-0.000425,0.004461,-0.002014,-86.225819,0.004468,
1370,140,-0.055182,-9.698464,0.999998,0.000156,-0.000368,0.003294,-0.000167,0.003301,-0.000376,-87.394544,0.003615,
1560,210,-0.268496,-9.374935,0.999997,0.000196,-0.001192,0.004108,-0.000429,0.004143,-0.001227,-85.398434,0.004256,
1520,1090,-1.311728,-4.660481,0.999998,0.000162,-0.002239,0.006192,0.000536,0.006226,-0.002273,86.375134,0.006302,
660,520,1.231912,-7.560486,0.999998,0.000200,-0.002615,0.005156,-0.000069,0.005157,-0.002615,-89.488345,0.005157,
1810,1420,-1.427148,-3.122448,0.999998,0.000179,-0.002604,0.005116,0.000106,0.005118,-0.002605,89.214003,0.005118,
1510,1640,-0.406640,-1.544367,0.999997,0.000225,-0.001895,0.004435,-0.000274,0.004447,-0.001906,-87.529974,0.004462,
1200,470,0.039590,-8.564755,0.999998,0.000159,-0.001212,0.003478,-0.000164,0.003484,-0.001217,-88.004098,0.003536,
1640,240,-0.431999,-9.187524,0.999998,0.000186,-0.001592,0.004574,-0.000470,0.004609,-0.001628,-85.662455,0.004675,
1840,250,-0.879342,-8.866522,0.999998,0.000180,-0.002430,0.005041,-0.000096,0.005043,-0.002431,-89.262856,0.005044,
830,980,1.566082,-5.285891,0.999997,0.000204,-0.002056,0.005229,0.000373,0.005248,-0.002075,87.073572,0.005286,
1550,1370,-0.749997,-2.972438,0.999997,0.000189,-0.003275,0.005681,-0.000420,0.005700,-0.003294,-87.322129,0.005723,
1510,1270,-0.781225,-3.471873,0.999997,0.000205,-0.003726,0.006326,-0.000303,0.006335,-0.003735,-88.276256,0.006369,
970,700,0.579761,-7.168137,0.999997,0.000202,-0.003339,0.005647,-0.000836,0.005724,-0.003417,-84.727604,0.005760,
1250,1440,-0.021458,-1.983518,0.999999,0.000131,-0.001170,0.002897,-0.000261,0.002914,-0.001187,-86.339693,0.002930,
1040,1050,1.121559,-4.797631,0.999990,0.000470,-0.004481,0.010988,0.000904,0.011041,-0.004534,86.666547,0.011099,
850,1830,0.366442,-0.805523,0.999997,0.000191,-0.001463,0.004378,-0.000468,0.004416,-0.001500,-85.445116,0.004491,
790,1960,0.173477,-0.284688,0.999998,0.000148,-0.000849,0.003996,-0.000986,0.004189,-0.001042,-78.928206,0.004362,
1800,1780,-0.837814,-1.268674,0.999998,0.000200,-0.002369,0.005072,0.000231,0.005079,-0.002377,88.224435,0.005082,
1280,60,-0.004687,-9.958524,0.999999,0.000132,-0.000109,0.003028,-0.000062,0.003030,-0.000111,-88.872796,0.003436,
1470,530,-0.393250,-8.079771,0.999997,0.000189,-0.002198,0.004549,0.000652,0.004611,-0.002260,84.528891,0.004612,
1720,1340,-1.325045,-3.421957,0.999997,0.000244,-0.002855,0.005394,0.000297,0.005404,-0.002865,87.939170,0.005408,
1260,1770,-0.025663,-0.861617,0.999998,0.000152,-0.000873,0.003470,-0.000044,0.003471,-0.000873,-89.418228,0.003611,
770,1150,1.606222,-4.419888,0.999997,0.000214,-0.002431,0.005252,-0.000608,0.005300,-0.002479,-85.506007,0.005304,
1150,2020,0.003286,-0.047037,0.999999,0.000000,-0.000030,0.002983,-0.000089,0.002985,-0.000033,-88.316153,0.003429,
1380,600,-0.221145,-7.961060,0.999998,0.000168,-0.001980,0.004010,0.001014,0.004177,-0.002147,80.643844,0.004178,
1020,1400,0.387261,-2.526565,0.999997,0.000229,-0.002766,0.004905,0.001170,0.005080,-0.002940,81.518007,0.005101,
1320,1630,-0.107246,-1.380148,0.999998,0.000184,-0.001328,0.003670,-0.000298,0.003687,-0.001346,-86.596277,0.003732,
1760,810,-1.609048,-6.114367,0.999997,0.000218,-0.002562,0.005148,-0.000501,0.005180,-0.002595,-86.300308,0.005180,
1420,1840,-0.132908,-0.656753,0.999998,0.000162,-0.000928,0.003626,0.000121,0.003629,-0.000931,88.475584,0.003770,
810,1770,0.530647,-1.113916,0.999997,0.000187,-0.001960,0.004722,-0.000241,0.004731,-0.001969,-87.935412,0.004753,
730,630,1.214971,-7.096168,0.999998,0.000171,-0.002755,0.005275,0.000074,0.005276,-0.002756,89.475029,0.005278,
1440,270,-0.192523,-9.206132,0.999998,0.000177,-0.001138,0.003848,-0.000066,0.003849,-0.001139,-89.238051,0.003954,
600,1280,1.802473,-3.900444,0.999998,0.000167,-0.002402,0.004859,-0.000199,0.004865,-0.002407,-88.428019,0.004865,
1220,560,0.015113,-8.269154,0.999998,0.000151,-0.001242,0.003213,-0.000166,0.003219,-0.001248,-87.871874,0.003246,
1340,1820,-0.077768,-0.700804,0.999998,0.000154,-0.000836,0.003505,-0.000002,0.003505,-0.000836,-89.979869,0.003662,
1120,600,0.155146,-8.036094,0.999998,0.000160,-0.001717,0.003631,-0.000939,0.003792,-0.001878,-80.323391,0.003792,
580,1510,1.472174,-2.773648,0.999997,0.000198,-0.003678,0.005636,0.000471,0.005660,-0.003702,87.114952,0.005749,
1500,850,-0.914170,-6.211031,0.999997,0.000241,-0.003660,0.006689,-0.000088,0.006689,-0.003661,-89.512430,0.006699,
1170,140,0.023261,-9.706931,0.999999,0.000121,-0.000325,0.003204,0.000089,0.003206,-0.000327,88.551776,0.003528,
990,530,0.399501,-8.074426,0.999998,0.000193,-0.002226,0.004578,-0.000651,0.004640,-0.002288,-84.580627,0.004640,
1680,660,-1.113244,-7.015326,0.999998,0.000182,-0.002917,0.005426,-0.000085,0.005427,-0.002918,-89.415204,0.005432,
860,390,0.572199,-8.526083,0.999997,0.000218,-0.002116,0.004747,-0.000095,0.004748,-0.002118,-89.210454,0.004757,
880,1630,0.566734,-1.692808,0.999997,0.000211,-0.002158,0.004748,0.000228,0.004755,-0.002165,88.107809,0.004762,
1630,620,-0.905463,-7.313341,0.999998,0.000163,-0.002934,0.005397,0.000193,0.005402,-0.002939,88.671899,0.005409,
1500,1090,-1.266511,-4.635877,0.999997,0.000187,-0.002310,0.006517,0.000486,0.006544,-0.002337,86.857191,0.006632,
850,1810,0.400250,-0.897439,0.999998,0.000175,-0.001585,0.004487,-0.000395,0.004513,-0.001611,-86.290466,0.004574,
710,500,1.072998,-7.744591,0.999999,0.000146,-0.002555,0.005152,-0.000085,0.005153,-0.002556,-89.364537,0.005153,
950,700,0.647062,-7.112520,0.999996,0.000214,-0.003389,0.005720,-0.000654,0.005767,-0.003436,-85.915563,0.005802,
1870,220,-0.881414,-8.951573,0.999998,0.000135,-0.002443,0.004973,-0.000164,0.004976,-0.002447,-88.731248,0.004977,
1510,1030,-1.365751,-5.024489,0.999998,0.000192,-0.001828,0.006086,0.000013,0.006087,-0.001828,89.909001,0.006246,
810,1000,1.619121,-5.180905,0.999998,0.000156,-0.001987,0.005092,0.000207,0.005098,-0.001993,88.330156,0.005138,
1550,1350,-0.777428,-3.085213,0.999997,0.000189,-0.003360,0.005790,-0.000363,0.005805,-0.003374,-87.730128,0.005830,
910,910,1.260240,-5.721773,0.999998,0.000186,-0.002723,0.006092,0.000728,0.006152,-0.002782,85.312532,0.006161,
870,1700,0.512640,-1.377677,0.999996,0.000221,-0.002056,0.004622,0.000043,0.004622,-0.002056,89.635051,0.004632,
1650,1440,-0.956869,-2.774021,0.999998,0.000150,-0.002884,0.005369,-0.000121,0.005371,-0.002886,-89.161774,0.005376,
1220,470,0.015587,-8.572371,0.999999,0.000143,-0.001245,0.003468,-0.000093,0.003470,-0.001246,-88.867541,0.003515,
790,1980,0.129968,-0.207238,0.999998,0.000149,-0.000659,0.003854,-0.001024,0.004076,-0.000881,-77.792741,0.004289,
1800,1760,-0.875819,-1.370753,0.999998,0.000165,-0.002382,0.005081,0.000143,0.005084,-0.002384,88.902674,0.005087,
1640,220,-0.397585,-9.275306,0.999997,0.000192,-0.001484,0.004463,-0.000546,0.004513,-0.001533,-84.798585,0.004589,
1040,1040,1.129114,-4.909548,0.999989,0.000424,-0.004634,0.011001,0.000498,0.011017,-0.004650,88.177201,0.011062,
1270,1990,-0.005424,-0.136628,0.999998,0.000164,-0.000138,0.003026,0.000081,0.003029,-0.000140,88.539971,0.003419,
1150,1180,0.438564,-2.743111,0.999997,0.000000,-0.002032,0.001458,0.000910,0.001681,-0.002255,76.234850,0.002344,
1880,570,-1.503466,-7.183254,0.999998,0.000203,-0.002573,0.005101,-0.000013,0.005101,-0.002573,-89.904392,0.005101,
880,770,1.009082,-6.537458,0.999999,0.000124,-0.003341,0.006032,0.000162,0.006035,-0.003344,89.007629,0.006047,
810,1530,0.846700,-2.303379,0.999999,0.000132,-0.002621,0.005141,0.000213,0.005147,-0.002627,88.432106,0.005147,
1020,1380,0.397662,-2.626880,0.999997,0.000232,-0.002937,0.005021,0.001219,0.005203,-0.003120,81.486696,0.005238,
1170,130,0.022454,-9.737329,0.999999,0.000142,-0.000303,0.003197,0.000077,0.003198,-0.000305,88.742743,0.003530,
890,1080,1.437543,-4.750282,0.999998,0.000201,-0.002020,0.005605,-0.000490,0.005637,-0.002052,-86.337472,0.005706,
730,1700,0.817598,-1.565468,0.999998,0.000178,-0.002418,0.005016,-0.000019,0.005016,-0.002418,-89.856641,0.005017,
1070,1900,0.073620,-0.435882,0.999998,0.000174,-0.000523,0.003419,-0.000213,0.003430,-0.000535,-86.910174,0.003691,
1070,570,0.243415,-8.053668,0.999998,0.000177,-0.001961,0.004062,-0.000888,0.004191,-0.002089,-81.786422,0.004191,
1520,350,-0.373396,-8.807952,0.999998,0.000185,-0.001712,0.004330,0.000066,0.004330,-0.001713,89.370139,0.004362,
1130,1580,0.132876,-1.576360,0.999998,0.000184,-0.001392,0.003720,0.000402,0.003751,-0.001423,85.534517,0.003787,
1450,560,-0.361574,-7.981889,0.999997,0.000201,-0.002279,0.004511,0.000766,0.004596,-0.002364,83.641047,0.004597,
600,1260,1.837919,-3.996416,0.999998,0.000163,-0.002338,0.004732,-0.000188,0.004737,-0.002343,-88.475751,0.004737,
1680,640,-1.079798,-7.121723,0.999998,0.000159,-0.002882,0.005384,-0.000024,0.005385,-0.002882,-89.833378,0.005389,
1540,210,-0.247597,-9.384682,0.999998,0.000172,-0.001048,0.004027,-0.000393,0.004057,-0.001079,-85.594482,0.004203,
730,610,1.182018,-7.200173,0.999998,0.000180,-0.002741,0.005288,0.000035,0.005288,-0.002741,89.749151,0.005289,
1150,140,0.029887,-9.706127,0.999998,0.000139,-0.000390,0.003219,0.000090,0.003221,-0.000392,88.579951,0.003515,
1120,580,0.152995,-8.108899,0.999998,0.000159,-0.001661,0.003644,-0.000799,0.003762,-0.001779,-81.622882,0.003764,
850,1790,0.430199,-0.983957,0.999998,0.000181,-0.001683,0.004433,-0.000303,0.004448,-0.001698,-87.168953,0.004489,
1890,1140,-2.062621,-4.569552,0.999998,0.000149,-0.002109,0.004337,0.000147,0.004340,-0.002112,88.694258,0.004341,
1720,1100,-1.728996,-4.683316,0.999997,0.000192,-0.002234,0.005052,0.000420,0.005076,-0.002258,86.712372,0.005087,
990,570,0.421806,-7.886250,0.999997,0.000216,-0.002473,0.004704,-0.000811,0.004794,-0.002564,-83.631884,0.004798,
1880,1690,-1.191862,-1.863148,0.999998,0.000170,-0.002473,0.004899,-0.000026,0.004899,-0.002474,-89.799312,0.004899,
1470,510,-0.382841,-8.170454,0.999997,0.000191,-0.002092,0.004500,0.000591,0.004552,-0.002144,84.920875,0.004555,
1220,540,0.014803,-8.334874,0.999998,0.000149,-0.001263,0.003288,-0.000133,0.003292,-0.001267,-88.321301,0.003321,
1340,1800,-0.086082,-0.772851,0.999998,0.000156,-0.000887,0.003552,-0.000036,0.003552,-0.000888,-89.533343,0.003697,
1740,870,-1.661316,-5.821277,0.999998,0.000178,-0.002465,0.005088,-0.000524,0.005124,-0.002502,-86.049041,0.005124,
770,1370,1.193124,-3.222605,0.999997,0.000186,-0.002911,0.005439,-0.000163,0.005442,-0.002914,-88.883728,0.005447,
1870,210,-0.855826,-9.002615,0.999998,0.000147,-0.002450,0.004964,-0.000194,0.004969,-0.002455,-88.503887,0.004969,
1100,610,0.189496,-7.956412,0.999998,0.000189,-0.001857,0.003813,-0.001043,0.003998,-0.002043,-79.899096,0.003999,
1550,1330,-0.810316,-3.203516,0.999997,0.000199,-0.003433,0.005894,-0.000309,0.005904,-0.003444,-88.103639,0.005931,
720,990,1.801358,-5.222512,0.999998,0.000162,-0.002144,0.004817,0.000163,0.004821,-0.002148,88.657300,0.004830,
1510,990,-1.335476,-5.275224,0.999997,0.000216,-0.002018,0.006357,-0.000343,0.006371,-0.002032,-87.657385,0.006509,
1270,1970,-0.010332,-0.198561,0.999999,0.000159,-0.000193,0.003074,0.000062,0.003075,-0.000194,88.906475,0.003444,
1820,1390,-1.504789,-3.291738,0.999996,0.000228,-0.002585,0.005119,0.000150,0.005122,-0.002588,88.886920,0.005122,
1310,760,-0.099409,-7.609410,0.999998,0.000200,-0.001761,0.002631,0.001819,0.003286,-0.002417,70.180539,0.003406,
1800,1740,-0.911786,-1.471109,0.999998,0.000164,-0.002405,0.005038,0.000066,0.005039,-0.002406,89.492108,0.005040,
1480,1630,-0.356717,-1.547849,0.999997,0.000219,-0.001893,0.004381,-0.000362,0.004402,-0.001914,-86.711853,0.004415,
1500,1070,-1.305269,-4.763928,0.999998,0.000157,-0.002112,0.006540,0.000368,0.006556,-0.002128,87.570452,0.006689,
1640,200,-0.359940,-9.366404,0.999997,0.000204,-0.001349,0.004454,-0.000624,0.004520,-0.001415,-83.931335,0.004624,
940,620,0.591671,-7.527309,0.999997,0.000197,-0.002882,0.005248,-0.000649,0.005300,-0.002933,-85.464469,0.005310,
1540,1370,-0.715725,-2.948127,0.999997,0.000191,-0.003279,0.005665,-0.000480,0.005691,-0.003305,-86.939106,0.005716,
1720,170,-0.421006,-9.441859,0.999997,0.000197,-0.001510,0.004721,-0.000928,0.004857,-0.001646,-81.703754,0.004940,
790,1580,0.838267,-2.079234,0.999998,0.000154,-0.002536,0.005075,0.000179,0.005079,-0.002540,88.650782,0.005079,
1850,410,-1.187640,-8.046646,0.999998,0.000152,-0.002466,0.005042,0.000071,0.005042,-0.002467,89.461839,0.005043,
1040,1030,1.134089,-5.013786,0.999996,0.000248,-0.004667,0.011008,0.000074,0.011008,-0.004667,89.728566,0.011051,
910,890,1.206704,-5.846485,0.999998,0.000165,-0.002983,0.006169,0.000668,0.006218,-0.003032,85.848912,0.006218,
1150,880,0.467129,-7.330004,0.999997,0.000000,-0.002149,0.001529,-0.001045,0.001806,-0.002426,-75.197601,0.002520,
1560,2010,-0.033684,-0.086198,0.999999,0.000130,-0.000133,0.003320,0.000620,0.003428,-0.000241,80.120678,0.003826,
1650,1120,-1.548034,-4.560764,0.999997,0.000258,-0.002285,0.005303,0.000553,0.005343,-0.002325,85.850713,0.005358,
1180,560,0.064180,-8.251373,0.999998,0.000148,-0.001346,0.003318,-0.000366,0.003346,-0.001375,-85.542653,0.003364,
1020,1580,0.311543,-1.712063,0.999998,0.000167,-0.001922,0.004298,0.000548,0.004346,-0.001970,85.003915,0.004352,
1520,330,-0.353043,-8.897402,0.999998,0.000195,-0.001618,0.004395,-0.000001,0.004395,-0.001618,-89.988718,0.004446,
710,1700,0.865540,-1.598121,0.999998,0.000170,-0.002440,0.005029,0.000012,0.005029,-0.002440,89.907653,0.005030,
1680,620,-1.049008,-7.230841,0.999998,0.000152,-0.002835,0.005379,0.000043,0.005379,-0.002835,89.697479,0.005382,
1120,560,0.151300,-8.183901,0.999998,0.000158,-0.001612,0.003670,-0.000703,0.003762,-0.001704,-82.551115,0.003767,
730,590,1.152091,-7.307348,0.999997,0.000189,-0.002700,0.005251,-0.000014,0.005251,-0.002700,-89.900718,0.005252,
610,980,2.034303,-5.249704,0.999997,0.000181,-0.002092,0.004349,0.000056,0.004349,-0.002093,89.503550,0.004350,
1580,270,-0.379292,-9.104555,0.999998,0.000181,-0.001715,0.004375,-0.000208,0.004382,-0.001722,-88.042180,0.004415,
810,1490,0.898694,-2.511561,0.999998,0.000182,-0.002720,0.005265,0.000190,0.005269,-0.002724,88.635679,0.005270,
1890,1690,-1.218836,-1.878741,0.999998,0.000158,-0.002468,0.004869,-0.000028,0.004869,-0.002468,-89.783046,0.004869,
1720,1060,-1.755944,-4.880557,0.999998,0.000173,-0.002126,0.004871,0.000163,0.004875,-0.002130,88.662670,0.004888,
1470,490,-0.373791,-8.257402,0.999997,0.000178,-0.002036,0.004427,0.000536,0.004471,-0.002080,85.294451,0.004475,
1550,1310,-0.846207,-3.322381,0.999997,0.000194,-0.003509,0.006045,-0.000176,0.006048,-0.003512,-88.946157,0.006074,
980,930,1.120208,-5.713213,0.999998,0.000163,-0.002899,0.006930,0.000349,0.006942,-0.002911,87.966065,0.006972,
850,1770,0.459905,-1.075750,0.999997,0.000216,-0.001788,0.004573,-0.000242,0.004582,-0.001797,-87.823687,0.004617,
1710,620,-1.134458,-7.183449,0.999998,0.000161,-0.002797,0.005321,-0.000024,0.005321,-0.002797,-89.828143,0.005323,
600,1240,1.869587,-4.089287,0.999998,0.000158,-0.002305,0.004643,-0.000184,0.004647,-0.002310,-88.481531,0.004647,
1100,590,0.189744,-8.032577,0.999998,0.000172,-0.001814,0.003829,-0.000952,0.003985,-0.001970,-80.680169,0.003985,
1800,1720,-0.945466,-1.573966,0.999998,0.000178,-0.002427,0.005071,0.000008,0.005071,-0.002427,89.937840,0.005073,
1270,1950,-0.009766,-0.260022,0.999999,0.000144,-0.000271,0.003165,0.000052,0.003166,-0.000271,89.129345,0.003510,
1500,1250,-0.789558,-3.571517,0.999997,0.000192,-0.003816,0.006476,-0.000275,0.006484,-0.003824,-88.468834,0.006518,
770,1130,1.634555,-4.523164,0.999997,0.000222,-0.002332,0.005131,-0.000476,0.005161,-0.002363,-86.366678,0.005168,
1000,60,0.031983,-9.951764,0.999999,0.000153,-0.000104,0.003233,0.000391,0.003278,-0.000149,83.407296,0.003702,
1220,520,0.014281,-8.400419,0.999998,0.000139,-0.001266,0.003331,-0.000123,0.003334,-0.001270,-88.467488,0.003366,
1640,180,-0.322469,-9.454391,0.999997,0.000195,-0.001232,0.004321,-0.000708,0.004409,-0.001321,-82.851623,0.004526,
1030,1050,1.165560,-4.819778,0.999995,0.000268,-0.003865,0.009955,0.000585,0.009980,-0.003889,87.578511,0.010061,
1100,1970,0.028465,-0.202579,0.999999,0.000129,-0.000176,0.003179,-0.000190,0.003190,-0.000187,-86.766192,0.003580,
1900,280,-1.087353,-8.592760,0.999997,0.000000,-0.002371,0.004772,0.000000,0.004772,-0.002371,-89.996098,0.004772,
1800,1310,-1.594367,-3.673620,0.999997,0.000208,-0.002560,0.005086,0.000313,0.005099,-0.002572,87.658816,0.005099,
1780,170,-0.538334,-9.370868,0.999998,0.000208,-0.002093,0.005030,-0.000834,0.005126,-0.002189,-83.413577,0.005145,
950,140,0.133772,-9.666484,0.999998,0.000175,-0.000754,0.003642,0.000433,0.003684,-0.000796,84.423156,0.003877,
770,50,0.083701,-9.963032,0.999999,0.000139,-0.000311,0.003713,0.001110,0.003999,-0.000598,75.554207,0.004314,
910,870,1.154107,-5.970232,0.999998,0.000172,-0.003148,0.006212,0.000620,0.006252,-0.003189,86.228527,0.006253,
740,1870,0.463894,-0.712126,0.999997,0.000198,-0.001647,0.004780,-0.000803,0.004879,-0.001746,-82.983548,0.004945,
1340,1780,-0.093635,-0.843103,0.999998,0.000155,-0.000976,0.003593,-0.000035,0.003593,-0.000977,-89.557840,0.003716,
1790,2010,-0.109398,-0.109063,0.999998,0.000195,-0.000238,0.004265,0.001837,0.004919,-0.000893,70.395371,0.005241,
690,150,0.463096,-9.483807,0.999997,0.000214,-0.001989,0.004969,0.000945,0.005095,-0.002115,82.400504,0.005120,
800,1910,0.278193,-0.489104,0.999997,0.000229,-0.001306,0.004314,-0.000808,0.004428,-0.001420,-81.977847,0.004522,
770,1580,0.888323,-2.111762,0.999998,0.000156,-0.002493,0.005088,0.000149,0.005091,-0.002496,88.873078,0.005092,
570,790,1.901063,-6.063928,0.999992,0.000355,-0.002562,0.004549,-0.000050,0.004549,-0.002563,-89.595611,0.004561,
1760,1220,-1.653959,-4.094854,0.999998,0.000183,-0.002554,0.005088,0.000517,0.005123,-0.002589,86.143907,0.005123,
1760,1010,-1.846796,-5.123533,0.999998,0.000184,-0.002173,0.004821,-0.000129,0.004823,-0.002176,-88.940030,0.004831,
730,160,0.411440,-9.480013,0.999997,0.000189,-0.001642,0.004762,0.000932,0.004894,-0.001775,81.886279,0.004956,
1180,600,0.063068,-8.123413,0.999998,0.000158,-0.001356,0.003132,-0.000505,0.003188,-0.001412,-83.659441,0.003195,
1270,1930,-0.014718,-0.324318,0.999999,0.000138,-0.000329,0.003184,0.000056,0.003185,-0.000330,89.090538,0.003503,
1110,1580,0.160276,-1.594729,0.999999,0.000124,-0.001456,0.003787,0.000396,0.003817,-0.001486,85.703796,0.003848,
1720,1040,-1.763068,-4.976863,0.999998,0.000169,-0.002106,0.004890,0.000116,0.004892,-0.002108,89.048576,0.004907,
1380,580,-0.219465,-8.038853,0.999998,0.000156,-0.001889,0.003981,0.000902,0.004117,-0.002025,81.455249,0.004117,
1420,1820,-0.146383,-0.729825,0.999998,0.000168,-0.001025,0.003717,0.000088,0.003718,-0.001027,88.943157,0.003840,
1710,640,-1.166728,-7.075966,0.999998,0.000163,-0.002824,0.005326,-0.000070,0.005327,-0.002824,-89.508403,0.005330,
940,600,0.573857,-7.630127,0.999997,0.000217,-0.002796,0.005170,-0.000653,0.005223,-0.002850,-85.345188,0.005230,
1500,1230,-0.842256,-3.703358,0.999997,0.000218,-0.003805,0.006564,-0.000122,0.006565,-0.003806,-89.323572,0.006593,
770,1090,1.679973,-4.728125,0.999997,0.000199,-0.002163,0.005075,-0.000382,0.005095,-0.002183,-86.984093,0.005112,
1550,1290,-0.885369,-3.445632,0.999997,0.000171,-0.003536,0.006137,-0.000064,0.006138,-0.003536,-89.623667,0.006162,
1650,720,-1.125622,-6.725083,0.999998,0.000264,-0.003028,0.005645,-0.000193,0.005649,-0.003033,-88.728518,0.005654,
730,570,1.122187,-7.411452,0.999998,0.000171,-0.002683,0.005208,-0.000066,0.005209,-0.002684,-89.522035,0.005210,
660,500,1.202029,-7.664123,0.999998,0.000191,-0.002577,0.005108,-0.000073,0.005109,-0.002578,-89.454778,0.005109,
1590,1090,-1.459405,-4.700998,0.999997,0.000209,-0.002107,0.005527,0.000516,0.005562,-0.002142,86.153243,0.005611,
1510,970,-1.299739,-5.399837,0.999998,0.000204,-0.002223,0.006339,-0.000491,0.006367,-0.002251,-86.730310,0.006458,
1530,1620,-0.461818,-1.661267,0.999998,0.000208,-0.002103,0.004610,-0.000329,0.004626,-0.002119,-87.198666,0.004632,
1680,600,-1.021077,-7.336430,0.999998,0.000150,-0.002797,0.005347,0.000081,0.005348,-0.002798,89.427586,0.005350,
1220,1340,0.010225,-2.225393,0.999999,0.000143,-0.001001,0.001983,0.000279,0.002009,-0.001027,84.696979,0.002009,
1640,160,-0.281124,-9.540051,0.999998,0.000170,-0.001105,0.004278,-0.000777,0.004388,-0.001215,-81.945215,0.004532,
1020,860,0.724609,-6.362869,0.999996,0.000223,-0.003885,0.006867,-0.000719,0.006915,-0.003933,-86.192695,0.006937,
770,40,0.060753,-9.999432,0.999998,0.000196,-0.000166,0.003689,0.001127,0.003995,-0.000471,74.843931,0.004366,
1150,870,0.403098,-7.345825,0.999998,0.000000,-0.002135,0.001652,-0.000865,0.001841,-0.002323,-77.723113,0.002452,
1720,250,-0.604780,-9.054448,0.999998,0.000187,-0.001978,0.004907,-0.000480,0.004940,-0.002011,-86.032554,0.004969,
1900,270,-1.066954,-8.641548,0.999998,0.000000,-0.002335,0.004854,-0.000020,0.004855,-0.002335,-89.836975,0.004856,
1340,1770,-0.098005,-0.880004,0.999998,0.000182,-0.001015,0.003597,-0.000049,0.003598,-0.001015,-89.396879,0.003710,
850,1750,0.489062,-1.167944,0.999997,0.000199,-0.001842,0.004588,-0.000137,0.004591,-0.001845,-88.781012,0.004620,
910,850,1.097727,-6.096520,0.999998,0.000170,-0.003299,0.006243,0.000511,0.006271,-0.003326,86.945180,0.006275,
1020,1050,1.199155,-4.837700,0.999996,0.000227,-0.003280,0.009094,0.000328,0.009102,-0.003289,88.482538,0.009218,
1860,1310,-1.744181,-3.748727,0.999998,0.000156,-0.002444,0.004895,0.000176,0.004899,-0.002449,88.624220,0.004899,
1720,1970,-0.185471,-0.259504,0.999998,0.000162,-0.000685,0.004060,0.001207,0.004350,-0.000974,76.516068,0.004565,
690,130,0.402336,-9.577814,0.999996,0.000215,-0.001830,0.004861,0.001135,0.005049,-0.002017,80.629779,0.005083,
1490,1620,-0.382072,-1.606276,0.999997,0.000222,-0.001918,0.004411,-0.000356,0.004431,-0.001938,-86.788099,0.004443,
790,1940,0.223588,-0.368139,0.999997,0.000196,-0.001073,0.004191,-0.000979,0.004368,-0.001249,-79.798545,0.004499,
960,930,1.177431,-5.670409,0.999998,0.000181,-0.002769,0.006587,0.000576,0.006622,-0.002804,86.489972,0.006648,
610,960,2.026467,-5.336708,0.999999,0.000132,-0.002107,0.004358,0.000081,0.004359,-0.002108,89.284312,0.004359,
930,140,0.149092,-9.660389,0.999998,0.000185,-0.000682,0.003686,0.000500,0.003742,-0.000738,83.555397,0.003964,
970,1900,0.136355,-0.462632,0.999998,0.000176,-0.000806,0.003687,-0.000376,0.003718,-0.000837,-85.254705,0.003901,
990,1990,0.036998,-0.144474,0.999999,0.000123,-0.000189,0.003266,-0.000406,0.003313,-0.000236,-83.379436,0.003697,
1070,550,0.240303,-8.135254,0.999998,0.000161,-0.001853,0.004061,-0.000758,0.004156,-0.001949,-82.814628,0.004159,
1790,2000,-0.144322,-0.151009,0.999998,0.000213,-0.000418,0.004459,0.001895,0.005109,-0.001068,71.072849,0.005389,
1190,490,0.052618,-8.490399,0.999998,0.000161,-0.001241,0.003464,-0.000150,0.003469,-0.001245,-88.177450,0.003515,
1850,630,-1.521647,-6.924671,0.999997,0.000213,-0.002524,0.005077,-0.000070,0.005077,-0.002525,-89.473375,0.005077,
1750,120,-0.325433,-9.650242,0.999997,0.000216,-0.001698,0.004655,-0.001112,0.004844,-0.001887,-80.353509,0.004883,
1720,1020,-1.765298,-5.076003,0.999998,0.000168,-0.002107,0.004940,-0.000085,0.004941,-0.002108,-89.310613,0.004958,
1760,1240,-1.618528,-3.991724,0.999997,0.000195,-0.002615,0.005139,0.000514,0.005173,-0.002649,86.225024,0.005173,
1200,1510,0.040795,-1.771991,0.999998,0.000181,-0.001261,0.003295,0.000223,0.003306,-0.001272,87.207037,0.003335,
940,580,0.557980,-7.733216,0.999997,0.000213,-0.002709,0.005032,-0.000626,0.005082,-0.002759,-85.408363,0.005088,
1270,1910,-0.016015,-0.387122,0.999999,0.000125,-0.000398,0.003236,0.000050,0.003237,-0.000398,89.209153,0.003531,
660,480,1.173936,-7.764189,0.999998,0.000180,-0.002536,0.005116,-0.000077,0.005116,-0.002537,-89.420876,0.005116,
1030,420,0.271941,-8.611154,0.999997,0.000233,-0.001596,0.004109,-0.000321,0.004127,-0.001614,-86.792027,0.004160,
670,1240,1.702434,-4.020569,0.999997,0.000190,-0.002456,0.004995,-0.000452,0.005023,-0.002483,-86.541473,0.005023,
600,1220,1.900478,-4.183406,0.999998,0.000147,-0.002300,0.004677,-0.000220,0.004684,-0.002307,-88.198786,0.004684,
1670,900,-1.538394,-5.699731,0.999998,0.000190,-0.002493,0.005360,-0.000637,0.005411,-0.002544,-85.393803,0.005414,
730,550,1.092726,-7.516092,0.999998,0.000165,-0.002661,0.005224,-0.000084,0.005225,-0.002662,-89.386971,0.005225,
1580,1310,-0.949030,-3.385152,0.999998,0.000184,-0.003355,0.005934,0.000020,0.005934,-0.003355,89.877910,0.005951,
1640,140,-0.241783,-9.624445,0.999998,0.000188,-0.000958,0.004128,-0.000806,0.004252,-0.001082,-81.208126,0.004420,
1830,1620,-1.176697,-2.128961,0.999998,0.000160,-0.002513,0.005053,-0.000057,0.005054,-0.002514,-89.569686,0.005054,
1900,260,-1.045496,-8.691367,0.999998,0.000000,-0.002308,0.004897,-0.000028,0.004897,-0.002308,-89.779608,0.004900,
1340,1760,-0.101521,-0.916505,0.999998,0.000153,-0.001050,0.003598,-0.000071,0.003599,-0.001051,-89.126548,0.003702,
790,1000,1.657769,-5.179440,0.999998,0.000146,-0.002036,0.005027,0.000180,0.005032,-0.002040,88.543614,0.005061,
1550,1270,-0.926750,-3.568451,0.999998,0.000165,-0.003541,0.006223,0.000060,0.006223,-0.003541,89.645253,0.006243,
1500,670,-0.570447,-7.315654,0.999997,0.000209,-0.003147,0.005440,0.000815,0.005516,-0.003223,84.628495,0.005542,
1380,560,-0.217758,-8.116440,0.999998,0.000147,-0.001839,0.003911,0.000835,0.004030,-0.001958,81.898008,0.004031,
1420,1800,-0.160228,-0.805802,0.999998,0.000151,-0.001103,0.003760,0.000044,0.003760,-0.001104,89.479099,0.003865,
950,1900,0.152967,-0.470936,0.999998,0.000143,-0.000840,0.003768,-0.000442,0.003810,-0.000882,-84.570502,0.003989,
1150,30,0.002856,-10.047962,0.999999,0.000000,-0.000065,0.002994,0.000103,0.002998,-0.000069,88.066220,0.003423,
1220,1360,0.011763,-2.183255,0.999998,0.000146,-0.001024,0.002190,0.000247,0.002209,-0.001043,85.625129,0.002210,
1030,930,0.967074,-5.907288,0.999997,0.000187,-0.003259,0.007454,-0.000968,0.007541,-0.003346,-84.880632,0.007556,
680,510,1.166063,-7.644364,0.999998,0.000185,-0.002574,0.005155,-0.000079,0.005156,-0.002575,-89.412655,0.005156,
1310,1420,-0.098627,-2.106259,0.999999,0.000149,-0.001478,0.003186,-0.000868,0.003342,-0.001634,-79.794846,0.003342,
1680,580,-0.989938,-7.444813,0.999998,0.000168,-0.002752,0.005282,0.000116,0.005284,-0.002754,89.175253,0.005286,
910,830,1.045739,-6.220941,0.999998,0.000187,-0.003399,0.006291,0.000387,0.006306,-0.003415,87.716636,0.006313,
770,1070,1.695093,-4.827617,0.999998,0.000194,-0.002094,0.004987,-0.000207,0.004993,-0.002100,-88.329467,0.005014,
600,1830,0.876979,-1.138235,0.999998,0.000153,-0.002414,0.004958,-0.000142,0.004961,-0.002416,-88.900087,0.004962,
1650,740,-1.164938,-6.611825,0.999997,0.000231,-0.003066,0.005675,-0.000281,0.005684,-0.003075,-88.164022,0.005691,
1530,1680,-0.412841,-1.390716,0.999997,0.000197,-0.001748,0.004373,-0.000120,0.004376,-0.001751,-88.877862,0.004405,
850,1920,0.209529,-0.426725,0.999998,0.000159,-0.000895,0.003968,-0.000722,0.004073,-0.001000,-81.734960,0.004246,
1850,390,-1.158073,-8.143231,0.999998,0.000154,-0.002452,0.005002,0.000068,0.005003,-0.002453,89.476336,0.005003,
1880,1140,-2.041221,-4.562502,0.999998,0.000169,-0.002110,0.004400,0.000144,0.004403,-0.002113,88.734758,0.004404,
1210,850,0.109669,-7.672428,0.999890,0.001218,-0.003831,0.000431,0.000127,0.000435,-0.003835,88.295356,0.004200,
1740,1710,-0.818928,-1.526766,0.999998,0.000190,-0.002390,0.005046,0.000014,0.005046,-0.002390,89.894425,0.005049,
1090,140,0.056202,-9.697226,0.999998,0.000126,-0.000375,0.003309,0.000170,0.003317,-0.000383,87.371113,0.003629,
620,990,2.017552,-5.207593,0.999998,0.000172,-0.002095,0.004434,0.000085,0.004435,-0.002096,89.255307,0.004438,
1860,1290,-1.777751,-3.846983,0.999997,0.000181,-0.002426,0.004918,0.000197,0.004924,-0.002431,88.467396,0.004924,
1810,280,-0.871168,-8.770392,0.999998,0.000167,-0.002363,0.005062,-0.000173,0.005066,-0.002367,-88.663725,0.005069,
1510,950,-1.252458,-5.529896,0.999997,0.000219,-0.002452,0.006425,-0.000599,0.006466,-0.002492,-86.154571,0.006522,
690,110,0.331120,-9.677247,0.999997,0.000211,-0.001687,0.004782,0.001240,0.005011,-0.001917,79.512984,0.005057,
1870,1930,-0.585336,-0.642180,0.999997,0.000199,-0.002390,0.005393,0.000709,0.005457,-0.002454,84.835148,0.005466,
1070,750,0.299448,-7.267688,0.999997,0.000201,-0.003102,0.004878,-0.001848,0.005285,-0.003509,-77.574058,0.005379,
850,1730,0.512018,-1.258714,0.999998,0.000190,-0.001885,0.004684,-0.000089,0.004685,-0.001886,-89.219893,0.004715,
710,1580,1.040935,-2.207467,0.999998,0.000160,-0.002513,0.005127,0.000114,0.005128,-0.002514,89.145408,0.005129,
990,1970,0.056026,-0.212461,0.999999,0.000132,-0.000282,0.003346,-0.000410,0.003392,-0.000328,-83.630578,0.003742,
940,780,0.818784,-6.605565,0.999997,0.000178,-0.003684,0.006292,-0.000255,0.006298,-0.003690,-88.539011,0.006329,
680,630,1.349009,-7.023272,0.999997,0.000203,-0.002647,0.005157,0.000101,0.005159,-0.002648,89.260640,0.005159,
1720,1000,-1.756740,-5.175246,0.999998,0.000170,-0.002119,0.004943,-0.000178,0.004947,-0.002123,-88.556579,0.004964,
1190,470,0.051740,-8.560876,0.999998,0.000175,-0.001214,0.003485,-0.000149,0.003490,-0.001219,-88.191594,0.003542,
1430,1300,-0.429770,-3.003233,0.999997,0.000197,-0.003518,0.005559,-0.001437,0.005781,-0.003740,-81.217025,0.005864,
1640,120,-0.200725,-9.704785,0.999998,0.000189,-0.000815,0.004026,-0.000872,0.004178,-0.000967,-80.090645,0.004374,
730,530,1.063740,-7.620371,0.999998,0.000161,-0.002625,0.005195,-0.000100,0.005196,-0.002626,-89.266820,0.005196,
1270,1890,-0.019587,-0.454316,0.999998,0.000159,-0.000461,0.003285,0.000044,0.003285,-0.000461,89.325846,0.003557,
1760,1260,-1.582096,-3.887069,0.999998,0.000195,-0.002651,0.005134,0.000473,0.005163,-0.002680,86.534710,0.005164,
1030,620,0.344980,-7.746291,0.999997,0.000193,-0.002489,0.004593,-0.001089,0.004757,-0.002653,-81.452296,0.004767,
1670,880,-1.503641,-5.806093,0.999998,0.000182,-0.002567,0.005357,-0.000623,0.005406,-0.002616,-85.535845,0.005407,
1140,2020,0.004136,-0.047693,0.999999,0.000000,-0.000097,0.002987,-0.000110,0.002991,-0.000100,-87.964519,0.003397,
600,1420,1.562693,-3.201505,0.999997,0.000205,-0.002507,0.005097,-0.000079,0.005098,-0.002508,-89.403772,0.005098,
660,460,1.144837,-7.867504,0.999998,0.000168,-0.002532,0.005068,-0.000087,0.005069,-0.002533,-89.343243,0.005069,
1740,1010,-1.803392,-5.125123,0.999998,0.000180,-0.002162,0.004903,-0.000148,0.004906,-0.002165,-88.799121,0.004917,
1820,90,-0.321349,-9.742066,0.999997,0.000225,-0.001693,0.005120,-0.001504,0.005437,-0.002010,-78.092083,0.005499,
1220,1380,0.011506,-2.137661,0.999998,0.000149,-0.001077,0.002382,0.000225,0.002397,-0.001092,86.293235,0.002400,
690,1640,1.004040,-1.936225,0.999998,0.000151,-0.002482,0.005048,0.000088,0.005049,-0.002483,89.334141,0.005049,
1380,540,-0.215289,-8.194026,0.999998,0.000155,-0.001791,0.003946,0.000767,0.004047,-0.001892,82.520111,0.004050,
1340,1740,-0.105511,-0.986824,0.999999,0.000126,-0.001124,0.003657,-0.000118,0.003660,-0.001127,-88.586840,0.003749,
1550,1250,-0.973297,-3.695253,0.999998,0.000178,-0.003496,0.006269,0.000190,0.006273,-0.003500,88.883390,0.006287,
1430,70,-0.034481,-9.920805,0.999999,0.000138,-0.000227,0.003206,-0.000308,0.003233,-0.000255,-84.918926,0.003595,
1750,480,-1.039314,-7.851440,0.999998,0.000162,-0.002528,0.005134,0.000095,0.005135,-0.002530,89.290639,0.005135,
910,810,0.996028,-6.349869,0.999998,0.000185,-0.003479,0.006244,0.000249,0.006250,-0.003485,88.536913,0.006264,
1600,1930,-0.181198,-0.384545,0.999998,0.000186,-0.000855,0.003912,0.000709,0.004015,-0.000958,81.714541,0.004194,
690,520,1.154567,-7.608764,0.999997,0.000199,-0.002578,0.005172,-0.000066,0.005173,-0.002578,-89.509050,0.005173,
1530,1540,-0.522908,-2.039117,0.999998,0.000188,-0.002390,0.004794,-0.000495,0.004828,-0.002424,-86.078382,0.004828,
1900,360,-1.234551,-8.206312,0.999998,0.000000,-0.002438,0.004904,0.000013,0.004904,-0.002438,89.902031,0.004904,
1850,350,-1.094445,-8.344888,0.999998,0.000183,-0.002418,0.004997,0.000067,0.004998,-0.002418,89.481112,0.004999,
1110,860,0.413428,-7.012499,0.999996,0.000271,-0.002208,0.003548,-0.002072,0.004216,-0.002877,-72.126540,0.004309,
770,1050,1.701307,-4.926815,0.999998,0.000182,-0.002064,0.004973,-0.000176,0.004977,-0.002069,-88.569293,0.005001,
1030,970,1.103215,-5.580023,0.999995,0.000273,-0.003435,0.008787,-0.001139,0.008892,-0.003540,-84.719174,0.008953,
1810,260,-0.830030,-8.870820,0.999998,0.000172,-0.002329,0.005061,-0.000270,0.005070,-0.002339,-87.911344,0.005076,
1580,1850,-0.287095,-0.697520,0.999998,0.000148,-0.001374,0.004181,0.000424,0.004213,-0.001406,85.654796,0.004290,
1800,1870,-0.623354,-0.810626,0.999997,0.000214,-0.002128,0.005093,0.000739,0.005168,-0.002203,84.213583,0.005186,
1450,1160,-0.882163,-4.000646,0.999997,0.000182,-0.003555,0.007064,-0.000327,0.007074,-0.003565,-88.237096,0.007074,
1650,440,-0.737450,-8.213344,0.999998,0.000172,-0.002385,0.004956,0.000168,0.004959,-0.002389,88.686823,0.004961,
690,90,0.269669,-9.768215,0.999997,0.000186,-0.001334,0.004512,0.001417,0.004837,-0.001659,77.070010,0.004916,
610,900,1.967028,-5.607955,0.999998,0.000148,-0.002188,0.004481,0.000188,0.004486,-0.002193,88.385711,0.004487,
1890,1930,-0.632604,-0.691191,0.999997,0.000208,-0.002420,0.005417,0.000763,0.005491,-0.002494,84.489583,0.005498,
1680,560,-0.964497,-7.549965,0.999998,0.000174,-0.002688,0.005268,0.000136,0.005270,-0.002690,89.023031,0.005271,
1470,1680,-0.305680,-1.319710,0.999998,0.000188,-0.001586,0.004231,-0.000192,0.004237,-0.001592,-88.116479,0.004281,
940,60,0.044721,-9.947359,0.999999,0.000160,-0.000232,0.003346,0.000529,0.003423,-0.000308,81.756975,0.003787,
640,1510,1.319472,-2.680911,0.999997,0.000184,-0.002557,0.005104,0.000032,0.005104,-0.002557,89.759474,0.005104,
1170,1520,0.078412,-1.752696,0.999998,0.000142,-0.001367,0.003425,0.000401,0.003458,-0.001400,85.246269,0.003479,
1640,100,-0.160384,-9.784734,0.999998,0.000164,-0.000627,0.003890,-0.000901,0.004063,-0.000800,-79.128351,0.004305,
1720,980,-1.747995,-5.274618,0.999998,0.000170,-0.002148,0.004912,-0.000218,0.004918,-0.002155,-88.230852,0.004931,
990,1950,0.073021,-0.278884,0.999998,0.000152,-0.000365,0.003444,-0.000411,0.003487,-0.000409,-83.903113,0.003813,
1030,600,0.338135,-7.838834,0.999998,0.000170,-0.002344,0.004519,-0.000962,0.004651,-0.002476,-82.172599,0.004654,
1070,140,0.063928,-9.695084,0.999998,0.000135,-0.000465,0.003358,0.000195,0.003368,-0.000475,87.082037,0.003645,
1270,1870,-0.019885,-0.519008,0.999998,0.000167,-0.000534,0.003303,0.000037,0.003304,-0.000534,89.441746,0.003547,
850,1710,0.539825,-1.354527,0.999997,0.000187,-0.001917,0.004697,-0.000074,0.004698,-0.001918,-89.355267,0.004725,
730,510,1.036916,-7.724184,0.999998,0.000152,-0.002578,0.005163,-0.000128,0.005165,-0.002580,-89.054532,0.005165,
660,440,1.115433,-7.969150,0.999998,0.000153,-0.002545,0.005051,-0.000081,0.005052,-0.002546,-89.386505,0.005052,
910,790,0.948965,-6.472502,0.999998,0.000187,-0.003515,0.006190,0.000123,0.006192,-0.003517,89.271143,0.006211,
1790,1980,-0.227078,-0.247778,0.999998,0.000179,-0.000829,0.004830,0.001919,0.005419,-0.001419,72.923325,0.005621,
1220,1400,0.011767,-2.090677,0.999999,0.000133,-0.001124,0.002584,0.000215,0.002596,-0.001137,86.690705,0.002603,
1880,2020,-0.148685,-0.129953,0.999994,0.000000,0.000338,0.006392,0.003555,0.008034,-0.001304,65.210257,0.008623,
1140,1180,0.455733,-2.823838,0.999998,0.000000,-0.001669,0.001868,0.001229,0.002253,-0.002054,72.608709,0.002495,
1550,1230,-1.022359,-3.821490,0.999998,0.000170,-0.003439,0.006302,0.000318,0.006313,-0.003449,88.132027,0.006322,
600,700,1.674531,-6.549947,0.999997,0.000209,-0.002473,0.005046,0.000111,0.005048,-0.002475,89.154946,0.005048,
1760,1700,-0.882116,-1.611023,0.999998,0.000175,-0.002429,0.005048,-0.000001,0.005048,-0.002429,-89.994526,0.005049,
1060,1960,0.040519,-0.236739,0.999999,0.000144,-0.000349,0.003257,-0.000236,0.003273,-0.000365,-86.263955,0.003587,
1660,1030,-1.641616,-5.028533,0.999997,0.000197,-0.002023,0.005075,0.000007,0.005075,-0.002023,89.946764,0.005110,
660,110,0.379269,-9.655608,0.999997,0.000194,-0.001476,0.005096,0.001448,0.005401,-0.001781,78.107463,0.005504,
1880,1930,-0.608900,-0.666699,0.999998,0.000206,-0.002406,0.005409,0.000735,0.005477,-0.002475,84.671380,0.005486,
1530,1560,-0.509214,-1.944548,0.999998,0.000207,-0.002333,0.004753,-0.000460,0.004783,-0.002363,-86.300255,0.004783,
1750,100,-0.261806,-9.743937,0.999998,0.000194,-0.001551,0.004386,-0.001138,0.004597,-0.001762,-79.511384,0.004638,
1190,450,0.051680,-8.631453,0.999998,0.000197,-0.001198,0.003533,-0.000138,0.003537,-0.001202,-88.327681,0.003597,
1690,100,-0.200785,-9.770819,0.999997,0.000172,-0.000873,0.004087,-0.001099,0.004319,-0.001106,-78.051715,0.004488,
1770,1840,-0.635107,-0.919352,0.999997,0.000220,-0.002299,0.005004,0.000488,0.005037,-0.002331,86.196625,0.005041,
1040,560,0.305529,-8.033949,0.999998,0.000173,-0.002175,0.004320,-0.000856,0.004431,-0.002286,-82.615157,0.004432,
1340,1720,-0.113789,-1.064016,0.999999,0.000141,-0.001158,0.003663,-0.000145,0.003667,-0.001162,-88.284190,0.003748,
570,800,1.914928,-6.020179,0.999995,0.000262,-0.002482,0.004531,-0.000020,0.004531,-0.002482,-89.839132,0.004538,
1090,860,0.468280,-6.830674,0.999997,0.000238,-0.002974,0.004744,-0.002245,0.005349,-0.003579,-74.903002,0.005450,
1310,1460,-0.101758,-1.976741,0.999998,0.000173,-0.001465,0.003335,-0.000710,0.003438,-0.001568,-81.761050,0.003442,
1380,520,-0.213127,-8.274549,0.999998,0.000154,-0.001766,0.003973,0.000693,0.004056,-0.001848,83.216160,0.004061,
1580,1830,-0.315470,-0.780820,0.999998,0.000172,-0.001484,0.004236,0.000359,0.004259,-0.001507,86.422361,0.004319,
1420,1280,-0.419750,-3.071774,0.999997,0.000213,-0.003628,0.005618,-0.001563,0.005875,-0.003885,-80.658183,0.005976,
880,950,1.421420,-5.464840,0.999996,0.000234,-0.002272,0.005638,0.000604,0.005684,-0.002318,85.658163,0.005716,
690,290,0.802027,-8.777586,0.999998,0.000162,-0.002373,0.005058,0.000144,0.005061,-0.002376,88.889193,0.005064,
770,1030,1.710371,-5.026732,0.999998,0.000174,-0.002076,0.005011,-0.000035,0.005011,-0.002076,-89.720697,0.005035,
1430,1160,-0.814901,-3.893967,0.999997,0.000205,-0.003476,0.007081,-0.000980,0.007171,-0.003566,-84.739408,0.007171,
1640,80,-0.119140,-9.861639,0.999998,0.000139,-0.000465,0.003813,-0.000963,0.004020,-0.000672,-77.879494,0.004306,
1020,270,0.194302,-9.205828,0.999999,0.000126,-0.001138,0.003826,0.000072,0.003827,-0.001139,89.170800,0.003930,
950,130,0.124624,-9.701642,0.999998,0.000168,-0.000683,0.003604,0.000441,0.003649,-0.000727,84.189543,0.003863,
1150,1520,0.107787,-1.773988,0.999998,0.000154,-0.001435,0.003532,0.000549,0.003592,-0.001495,83.767759,0.003609,
1470,470,-0.364066,-8.347289,0.999998,0.000179,-0.002010,0.004406,0.000491,0.004443,-0.002047,85.652329,0.004448,
1850,330,-1.060209,-8.444997,0.999998,0.000195,-0.002424,0.004996,0.000074,0.004997,-0.002424,89.429741,0.004998,
1670,420,-0.760708,-8.281949,0.999998,0.000151,-0.002376,0.004982,0.000103,0.004983,-0.002378,89.200845,0.004985,
1210,1640,0.025222,-1.317916,0.999998,0.000182,-0.001155,0.003523,0.000129,0.003527,-0.001159,88.425756,0.003595,
1320,570,-0.117584,-8.175052,0.999998,0.000144,-0.001468,0.003479,0.000660,0.003565,-0.001555,82.529631,0.003575,
1600,1140,-1.390874,-4.425536,0.999998,0.000205,-0.002508,0.005691,0.000693,0.005749,-0.002567,85.202162,0.005760,
660,130,0.454416,-9.550041,0.999996,0.000225,-0.001749,0.005157,0.001271,0.005384,-0.001976,79.893611,0.005447,
1870,1580,-1.335003,-2.396621,0.999997,0.000211,-0.002482,0.005079,-0.000041,0.005079,-0.002482,-89.689945,0.005080,
1390,1340,-0.269503,-2.635382,0.999997,0.000182,-0.002777,0.004552,-0.001698,0.004926,-0.003151,-77.569758,0.004990,
990,1930,0.094970,-0.349864,0.999998,0.000158,-0.000465,0.003503,-0.000388,0.003541,-0.000503,-84.467383,0.003832,
1810,320,-0.946359,-8.565251,0.999998,0.000136,-0.002423,0.005020,-0.000034,0.005020,-0.002423,-89.741800,0.005021,
1780,550,-1.216728,-7.442680,0.999998,0.000168,-0.002619,0.005149,0.000046,0.005149,-0.002619,89.658467,0.005149,
1040,1450,0.315270,-2.241275,0.999997,0.000211,-0.002304,0.004445,0.001012,0.004593,-0.002453,81.650239,0.004597,
1390,480,-0.220976,-8.419328,0.999997,0.000212,-0.001724,0.004019,0.000572,0.004075,-0.001780,84.370911,0.004086,
1410,140,-0.072028,-9.691411,0.999998,0.000184,-0.000587,0.003399,-0.000210,0.003410,-0.000598,-86.993396,0.003642,
730,490,1.010315,-7.827523,0.999999,0.000139,-0.002554,0.005119,-0.000117,0.005121,-0.002556,-89.128473,0.005121,
1270,1850,-0.026563,-0.586279,0.999998,0.000173,-0.000609,0.003381,0.000036,0.003382,-0.000610,89.486216,0.003605,
1720,960,-1.734173,-5.372548,0.999998,0.000167,-0.002195,0.004986,-0.000391,0.005007,-0.002217,-86.893577,0.005018,
1550,1210,-1.073390,-3.949223,0.999998,0.000175,-0.003346,0.006262,0.000462,0.006284,-0.003368,87.251750,0.006290,
910,1210,1.083220,-3.952614,0.999997,0.000195,-0.003333,0.006254,-0.000475,0.006277,-0.003357,-87.171594,0.006283,
1680,540,-0.937307,-7.654645,0.999998,0.000174,-0.002645,0.005195,0.000152,0.005198,-0.002648,88.886859,0.005198,
610,770,1.770936,-6.218114,0.999998,0.000174,-0.002419,0.004914,0.000228,0.004922,-0.002426,88.218160,0.004922,
850,1910,0.225280,-0.466049,0.999998,0.000180,-0.000969,0.004060,-0.000720,0.004161,-0.001070,-82.005239,0.004321,
1220,1840,0.008725,-0.617787,0.999998,0.000181,-0.000692,0.003362,0.000022,0.003362,-0.000692,89.686711,0.003551,
660,420,1.086819,-8.070691,0.999998,0.000158,-0.002523,0.005082,-0.000079,0.005083,-0.002524,-89.406402,0.005083,
1790,1900,-0.511138,-0.643056,0.999997,0.000206,-0.001961,0.005087,0.001013,0.005230,-0.002104,81.983097,0.005263,
1770,1820,-0.680900,-1.019734,0.999997,0.000206,-0.002337,0.005036,0.000367,0.005054,-0.002355,87.159047,0.005058,
1480,1670,-0.328627,-1.374047,0.999998,0.000182,-0.001734,0.004296,-0.000248,0.004306,-0.001744,-87.646572,0.004332,
1310,1440,-0.100227,-2.042365,0.999999,0.000119,-0.001469,0.003252,-0.000787,0.003380,-0.001596,-80.786713,0.003382,
820,750,1.163011,-6.563465,0.999997,0.000217,-0.003104,0.005742,0.000289,0.005752,-0.003113,88.130011,0.005758,
1380,500,-0.207812,-8.353264,0.999998,0.000161,-0.001722,0.003933,0.000632,0.004003,-0.001791,83.699018,0.004010,
680,1500,1.231625,-2.669357,0.999998,0.000186,-0.002612,0.005159,0.000029,0.005159,-0.002612,89.784414,0.005159,
1760,1680,-0.914252,-1.709512,0.999998,0.000174,-0.002452,0.005034,-0.000034,0.005034,-0.002453,-89.742419,0.005035,
770,1010,1.704075,-5.127367,0.999998,0.000159,-0.002087,0.004986,0.000160,0.004989,-0.002091,88.702524,0.005011,
1250,1500,-0.024187,-1.797425,0.999998,0.000140,-0.001247,0.003230,-0.000202,0.003239,-0.001256,-87.419978,0.003266,
700,350,0.881895,-8.492049,0.999998,0.000174,-0.002400,0.005062,-0.000002,0.005062,-0.002400,-89.986177,0.005064,
1040,540,0.296528,-8.121790,0.999998,0.000160,-0.002106,0.004278,-0.000777,0.004371,-0.002200,-83.163428,0.004371,
1760,1190,-1.703205,-4.245228,0.999997,0.000221,-0.002467,0.005034,0.000523,0.005070,-0.002503,86.028149,0.005070,
1640,60,-0.078882,-9.937609,0.999998,0.000153,-0.000287,0.003629,-0.000938,0.003842,-0.000500,-77.197974,0.004178,
950,170,0.172366,-9.554394,0.999998,0.000168,-0.000926,0.003785,0.000374,0.003815,-0.000956,85.492754,0.003970,
630,1260,1.765878,-3.961149,0.999998,0.000181,-0.002442,0.004889,-0.000300,0.004901,-0.002454,-87.664196,0.004901,
1610,800,-1.162148,-6.316525,0.999996,0.000216,-0.003180,0.005938,-0.000426,0.005958,-0.003200,-87.327824,0.005963,
1560,1850,-0.260834,-0.685022,0.999997,0.000194,-0.001143,0.004099,0.000452,0.004138,-0.001181,85.110444,0.004263,
1660,1990,-0.098385,-0.164474,0.999997,0.000198,-0.000569,0.003746,0.000978,0.003958,-0.000780,77.807019,0.004193,
1340,1700,-0.117044,-1.134362,0.999999,0.000144,-0.001219,0.003682,-0.000195,0.003690,-0.001227,-87.721695,0.003758,
580,2010,0.222860,-0.198941,0.999991,0.000368,-0.000168,0.006341,-0.002993,0.007508,-0.001335,-68.697962,0.008011,
1390,720,-0.271668,-7.420603,0.999997,0.000188,-0.002795,0.004582,0.001720,0.004963,-0.003176,77.499281,0.005028,
680,1510,1.216868,-2.616536,0.999998,0.000189,-0.002599,0.005156,0.000040,0.005156,-0.002600,89.707218,0.005156,
1900,1000,-2.137483,-5.152216,0.999998,0.000000,-0.002024,0.003997,-0.000110,0.003999,-0.002026,-88.950791,0.003999,
1140,1170,0.521107,-2.843437,0.999998,0.000000,-0.001447,0.001746,0.001451,0.002307,-0.002007,68.869905,0.002509,
1430,1470,-0.325681,-2.168282,0.999998,0.000190,-0.002265,0.004439,-0.000896,0.004557,-0.002382,-82.518505,0.004558,
1870,1500,-1.453437,-2.804266,0.999997,0.000193,-0.002542,0.005104,0.000025,0.005104,-0.002542,89.811741,0.005104,
730,690,1.316317,-6.776386,0.999997,0.000205,-0.002774,0.005336,0.000215,0.005342,-0.002780,88.485127,0.005344,
1720,940,-1.711741,-5.473588,0.999998,0.000187,-0.002264,0.004989,-0.000448,0.005017,-0.002291,-86.478164,0.005023,
930,980,1.364491,-5.319647,0.999997,0.000219,-0.002011,0.006013,0.000467,0.006040,-0.002038,86.683482,0.006145,
1850,310,-1.025680,-8.544772,0.999998,0.000189,-0.002410,0.005010,0.000021,0.005010,-0.002410,89.838048,0.005011,
1550,1410,-0.697849,-2.745591,0.999997,0.000195,-0.003071,0.005465,-0.000496,0.005494,-0.003100,-86.688297,0.005509,
890,1840,0.291370,-0.734539,0.999998,0.000171,-0.001339,0.004175,-0.000398,0.004204,-0.001368,-85.897459,0.004289,
1810,300,-0.910193,-8.667777,0.999998,0.000182,-0.002394,0.005097,-0.000121,0.005099,-0.002396,-89.074345,0.005102,
990,1910,0.111623,-0.420286,0.999998,0.000166,-0.000591,0.003554,-0.000344,0.003583,-0.000620,-85.294675,0.003830,
910,1230,1.034090,-3.827447,0.999998,0.000175,-0.003429,0.006277,-0.000347,0.006289,-0.003442,-87.954164,0.006299,
850,1190,1.319299,-4.149031,0.999997,0.000213,-0.002843,0.005766,-0.000683,0.005820,-0.002897,-85.491134,0.005820,
660,400,1.057151,-8.172761,0.999998,0.000172,-0.002488,0.005057,-0.000066,0.005057,-0.002489,-89.496018,0.005058,
1440,1410,-0.374593,-2.469244,0.999997,0.000208,-0.002710,0.004777,-0.001147,0.004948,-0.002882,-81.483354,0.004971,
1220,1820,0.008609,-0.686076,0.999998,0.000154,-0.000756,0.003405,0.000022,0.003405,-0.000756,89.698001,0.003576,
1280,100,-0.011706,-9.835322,0.999998,0.000172,-0.000204,0.003128,-0.000056,0.003129,-0.000205,-89.044862,0.003500,
610,940,2.010253,-5.424007,0.999998,0.000134,-0.002144,0.004526,0.000215,0.004533,-0.002151,88.156958,0.004535,
630,40,0.119891,-9.966364,0.999999,0.000151,-0.001835,0.004442,0.001465,0.004767,-0.002160,77.486296,0.004774,
680,350,0.929733,-8.458161,0.999998,0.000176,-0.002407,0.005056,0.000001,0.005056,-0.002407,89.990825,0.005058,
1390,140,-0.062878,-9.695528,0.999999,0.000131,-0.000426,0.003342,-0.000203,0.003352,-0.000437,-86.924303,0.003645,
1640,1810,-0.441640,-0.917333,0.999998,0.000192,-0.001612,0.004580,0.000451,0.004613,-0.001644,85.852638,0.004676,
1040,520,0.290149,-8.208259,0.999998,0.000173,-0.002003,0.004245,-0.000687,0.004320,-0.002078,-83.797749,0.004321,
1170,1580,0.075993,-1.543338,0.999998,0.000170,-0.001325,0.003578,0.000249,0.003591,-0.001337,87.105207,0.003630,
1380,480,-0.203331,-8.434803,0.999998,0.000178,-0.001681,0.003969,0.000574,0.004027,-0.001738,84.255125,0.004039,
1640,1990,-0.088269,-0.161011,0.999999,0.000151,-0.000340,0.003689,0.000961,0.003907,-0.000557,77.253806,0.004226,
770,990,1.695175,-5.227157,0.999997,0.000185,-0.002120,0.004962,0.000162,0.004966,-0.002123,88.688019,0.004983,
1760,1660,-0.943398,-1.812980,0.999998,0.000178,-0.002466,0.005090,-0.000075,0.005090,-0.002467,-89.434766,0.005091,
950,1610,0.432134,-1.682377,0.999997,0.000198,-0.002012,0.004530,0.000336,0.004547,-0.002029,87.065069,0.004556,
1410,780,-0.393523,-7.029944,0.999996,0.000224,-0.003640,0.005453,0.001698,0.005760,-0.003947,79.757747,0.005890,
710,480,1.046093,-7.847357,0.999999,0.000151,-0.002518,0.005103,-0.000114,0.005104,-0.002520,-89.146012,0.005105,
1140,880,0.485187,-7.246030,0.999997,0.000000,-0.001662,0.001755,-0.001449,0.002286,-0.002194,-69.852941,0.002588,
1580,250,-0.353423,-9.190790,0.999997,0.000178,-0.001604,0.004307,-0.000273,0.004319,-0.001616,-87.365624,0.004365,
1680,520,-0.911398,-7.758125,0.999998,0.000151,-0.002597,0.005181,0.000184,0.005185,-0.002602,88.643579,0.005185,
1250,1480,-0.022566,-1.863069,0.999998,0.000149,-0.001218,0.003153,-0.000221,0.003164,-0.001229,-87.106471,0.003190,
1470,450,-0.351622,-8.435538,0.999998,0.000192,-0.001977,0.004408,0.000448,0.004440,-0.002008,86.002698,0.004446,
1510,930,-1.199815,-5.656270,0.999997,0.000229,-0.002698,0.006488,-0.000623,0.006530,-0.002740,-86.137076,0.006559,
1870,200,-0.829353,-9.051327,0.999999,0.000131,-0.002462,0.004971,-0.000221,0.004978,-0.002469,-88.300318,0.004978,
1760,1170,-1.735401,-4.346553,0.999998,0.000180,-0.002403,0.005012,0.000514,0.005048,-0.002438,86.054741,0.005048,
1600,1180,-1.303293,-4.193004,0.999997,0.000187,-0.002803,0.005858,0.000730,0.005919,-0.002864,85.218176,0.005920,
1080,340,0.162013,-8.974493,0.999998,0.000168,-0.001151,0.003780,-0.000093,0.003782,-0.001152,-88.920297,0.003877,
580,2000,0.290514,-0.264346,0.999986,0.000445,-0.000843,0.006282,-0.002569,0.007112,-0.001673,-72.100055,0.007436,
1140,470,0.119611,-8.531539,0.999999,0.000147,-0.001429,0.003684,-0.000401,0.003715,-0.001461,-85.540859,0.003743,
1000,270,0.219029,-9.192108,0.999998,0.000172,-0.001095,0.003928,0.000126,0.003932,-0.001098,88.564383,0.004057,
890,780,0.995809,-6.494977,0.999998,0.000148,-0.003393,0.006087,0.000160,0.006090,-0.003396,89.036132,0.006103,
1570,1060,-1.457526,-4.859291,0.999998,0.000186,-0.001859,0.005521,0.000319,0.005535,-0.001873,87.531961,0.005630,
660,1510,1.268857,-2.648333,0.999997,0.000189,-0.002571,0.005137,0.000036,0.005137,-0.002571,89.733923,0.005137,
1720,920,-1.687212,-5.573667,0.999998,0.000193,-0.002337,0.005046,-0.000453,0.005074,-0.002365,-86.501235,0.005078,
1640,260,-0.467101,-9.093229,0.999997,0.000180,-0.001713,0.004551,-0.000383,0.004574,-0.001737,-86.514773,0.004618,
1050,1640,0.237746,-1.426795,0.999998,0.000173,-0.001595,0.004069,0.000365,0.004092,-0.001619,86.327256,0.004122,
1820,710,-1.583968,-6.560985,0.999998,0.000193,-0.002545,0.005092,-0.000240,0.005100,-0.002553,-88.204246,0.005100,
1190,430,0.049383,-8.702588,0.999998,0.000177,-0.001167,0.003559,-0.000110,0.003562,-0.001170,-88.661834,0.003631,
610,920,1.987646,-5.518389,0.999998,0.000150,-0.002183,0.004561,0.000235,0.004569,-0.002191,88.008612,0.004571,
1720,1030,-1.765426,-5.025343,0.999998,0.000170,-0.002105,0.004914,0.000021,0.004914,-0.002105,89.831036,0.004931,
1010,1040,1.235732,-4.940291,0.999995,0.000274,-0.002824,0.008343,0.000113,0.008344,-0.002825,89.421155,0.008488,
1890,1510,-1.489457,-2.783810,0.999997,0.000214,-0.002555,0.005086,0.000034,0.005087,-0.002555,89.744064,0.005087,
1640,1790,-0.474475,-1.009846,0.999998,0.000195,-0.001705,0.004590,0.000367,0.004611,-0.001727,86.672337,0.004659,
810,1470,0.925736,-2.618545,0.999998,0.000165,-0.002792,0.005322,0.000160,0.005325,-0.002796,88.868550,0.005328,
1870,1570,-1.350602,-2.447120,0.999998,0.000203,-0.002489,0.005065,-0.000035,0.005065,-0.002489,-89.734738,0.005065,
1630,2000,-0.067473,-0.124925,0.999998,0.000149,-0.000201,0.003581,0.000907,0.003787,-0.000407,77.187934,0.004157,
1270,1330,-0.037856,-2.274421,0.999998,0.000166,-0.001136,0.002045,-0.000878,0.002272,-0.001362,-75.548244,0.002287,
1800,1700,-0.978156,-1.674429,0.999998,0.000160,-0.002455,0.005029,0.000004,0.005029,-0.002455,89.972520,0.005030,
890,1820,0.321911,-0.820963,0.999998,0.000149,-0.001434,0.004226,-0.000328,0.004245,-0.001453,-86.696587,0.004315,
1900,1020,-2.145453,-5.072829,0.999999,0.000000,-0.002030,0.004156,-0.000067,0.004157,-0.002031,-89.375233,0.004157,
1390,700,-0.262220,-7.513470,0.999997,0.000173,-0.002656,0.004427,0.001599,0.004771,-0.003000,77.850125,0.004823,
1140,30,0.003284,-10.047147,0.999999,0.000000,-0.000080,0.003003,0.000095,0.003006,-0.000083,88.243422,0.003424,
770,970,1.685391,-5.327815,0.999998,0.000181,-0.002169,0.005082,0.000326,0.005096,-0.002183,87.430969,0.005114,
860,1240,1.174357,-3.844442,0.999998,0.000179,-0.003168,0.005940,-0.000483,0.005966,-0.003193,-86.974275,0.005971,
990,1890,0.130243,-0.492282,0.999998,0.000155,-0.000706,0.003642,-0.000343,0.003669,-0.000733,-85.514109,0.003883,
1480,1650,-0.343634,-1.461289,0.999997,0.000211,-0.001827,0.004341,-0.000307,0.004356,-0.001842,-87.160160,0.004373,
1760,1640,-0.971319,-1.915073,0.999998,0.000154,-0.002478,0.005056,-0.000079,0.005057,-0.002479,-89.401094,0.005057,
1870,1490,-1.469208,-2.855288,0.999997,0.000191,-0.002537,0.005107,0.000022,0.005107,-0.002537,89.835110,0.005107,
1380,700,-0.236182,-7.548713,0.999998,0.000169,-0.002502,0.004252,0.001614,0.004618,-0.002868,77.226127,0.004663,
950,1590,0.449313,-1.772049,0.999997,0.000199,-0.002117,0.004595,0.000417,0.004621,-0.002142,86.456847,0.004625,
850,680,0.942565,-7.011377,0.999999,0.000129,-0.003109,0.005611,-0.000097,0.005612,-0.003110,-89.361256,0.005623,
660,380,1.027454,-8.274491,0.999998,0.000152,-0.002468,0.005034,-0.000033,0.005035,-0.002468,-89.745298,0.005035,
1470,430,-0.340200,-8.523603,0.999998,0.000182,-0.001913,0.004351,0.000400,0.004376,-0.001939,86.363431,0.004386,
1680,500,-0.886667,-7.863911,0.999998,0.000165,-0.002566,0.005150,0.000174,0.005154,-0.002570,88.709093,0.005154,
1510,910,-1.137139,-5.786721,0.999997,0.000212,-0.002979,0.006549,-0.000589,0.006586,-0.003016,-86.475290,0.006594,
1040,500,0.283184,-8.293428,0.999998,0.000184,-0.001899,0.004222,-0.000577,0.004276,-0.001953,-84.664271,0.004281,
1740,210,-0.554708,-9.229698,0.999997,0.000194,-0.002065,0.004931,-0.000578,0.004978,-0.002112,-85.309994,0.004997,
1230,1500,0.001761,-1.792396,0.999998,0.000180,-0.001259,0.003216,0.000033,0.003216,-0.001259,89.575726,0.003241,
1390,780,-0.322899,-7.132655,0.999997,0.000218,-0.003347,0.005006,0.001953,0.005440,-0.003781,77.469356,0.005577,
1740,1190,-1.653627,-4.234106,0.999998,0.000181,-0.002456,0.005085,0.000537,0.005123,-0.002494,85.944465,0.005124,
1870,190,-0.802518,-9.100360,0.999998,0.000152,-0.002462,0.005020,-0.000260,0.005029,-0.002471,-88.010386,0.005030,
840,370,0.590612,-8.596068,0.999998,0.000204,-0.002048,0.004769,0.000008,0.004769,-0.002048,89.935738,0.004785,
1300,1210,-0.227331,-2.605373,0.999997,0.000198,-0.002398,0.001740,-0.000736,0.001868,-0.002525,-80.208227,0.002620,
1320,690,-0.111027,-7.779193,0.999998,0.000148,-0.001699,0.003118,0.001387,0.003489,-0.002069,75.032081,0.003509,
1610,690,-0.949884,-6.959527,0.999998,0.000176,-0.003152,0.005669,0.000061,0.005670,-0.003152,89.604380,0.005682,
710,60,0.137332,-9.912929,0.999997,0.000226,-0.000891,0.004274,0.001524,0.004690,-0.001307,74.728873,0.004841,
1550,1060,-1.420128,-4.857093,0.999998,0.000181,-0.001906,0.005737,0.000351,0.005753,-0.001922,87.377862,0.005858,
1800,710,-1.531540,-6.585539,0.999998,0.000191,-0.002622,0.005141,-0.000275,0.005151,-0.002632,-87.970261,0.005152,
1620,1790,-0.442082,-0.992173,0.999997,0.000189,-0.001657,0.004493,0.000328,0.004511,-0.001674,86.953084,0.004560,
1030,1640,0.269067,-1.447283,0.999998,0.000168,-0.001597,0.004106,0.000312,0.004123,-0.001614,86.876494,0.004155,
1720,900,-1.662133,-5.677389,0.999998,0.000182,-0.002412,0.005178,-0.000561,0.005219,-0.002453,-85.791837,0.005222,
1570,140,-0.174914,-9.649302,0.999998,0.000140,-0.000887,0.003874,-0.000594,0.003947,-0.000960,-82.995819,0.004116,
1700,1030,-1.724055,-5.027121,0.999998,0.000185,-0.002091,0.004973,0.000040,0.004973,-0.002092,89.676734,0.004994,
1630,1490,-0.834082,-2.471325,0.999998,0.000171,-0.002729,0.005212,-0.000256,0.005220,-0.002737,-88.153183,0.005222,
1190,410,0.047313,-8.774597,0.999998,0.000175,-0.001145,0.003564,-0.000088,0.003566,-0.001147,-88.932465,0.003641,
1020,1410,0.383985,-2.478995,0.999996,0.000226,-0.002717,0.004823,0.001138,0.004991,-0.002885,81.601114,0.005012,
810,1450,0.951549,-2.725430,0.999998,0.000150,-0.002847,0.005377,0.000129,0.005379,-0.002849,89.099809,0.005383,
1010,1020,1.239635,-5.097635,0.999996,0.000243,-0.002818,0.008279,-0.000068,0.008279,-0.002818,-89.646768,0.008419,
880,1510,0.684023,-2.283537,0.999998,0.000174,-0.002648,0.005089,0.000398,0.005110,-0.002668,87.065056,0.005111,
700,1070,1.842318,-4.835494,0.999997,0.000184,-0.002167,0.004738,-0.000148,0.004741,-0.002170,-88.768979,0.004747,
1900,1740,-1.153257,-1.655351,0.999998,0.000000,-0.002331,0.004777,-0.000046,0.004777,-0.002331,-89.633080,0.004778,
1620,2010,-0.048562,-0.090590,0.999998,0.000146,-0.000133,0.003519,0.000822,0.003695,-0.000309,77.885649,0.004100,
1140,270,0.075320,-9.261431,0.999998,0.000149,-0.000933,0.003554,-0.000029,0.003554,-0.000933,-89.624879,0.003685,
1500,1830,-0.217264,-0.731428,0.999998,0.000193,-0.001230,0.003933,0.000211,0.003942,-0.001238,87.665391,0.004032,
1870,1560,-1.364850,-2.497642,0.999997,0.000212,-0.002507,0.005074,-0.000028,0.005074,-0.002508,-89.788788,0.005074,
1800,1680,-1.011337,-1.776399,0.999998,0.000144,-0.002446,0.005052,-0.000027,0.005052,-0.002447,-89.790128,0.005053,
1080,380,0.178547,-8.823480,0.999998,0.000156,-0.001316,0.003867,-0.000186,0.003874,-0.001323,-87.950684,0.003938,
1280,1760,-0.045694,-0.898956,0.999999,0.000135,-0.000859,0.003504,-0.000019,0.003504,-0.000859,-89.752007,0.003652,
960,1710,0.338603,-1.231127,0.999998,0.000193,-0.001765,0.004276,0.000151,0.004280,-0.001769,88.569680,0.004301,
860,1280,1.086619,-3.603889,0.999998,0.000175,-0.003284,0.005920,-0.000273,0.005929,-0.003292,-88.304816,0.005941,
1130,2020,0.005522,-0.047359,0.999999,0.000000,-0.000115,0.002973,-0.000103,0.002977,-0.000119,-88.099881,0.003371,
1070,760,0.310115,-7.216881,0.999997,0.000212,-0.003193,0.004982,-0.001883,0.005395,-0.003606,-77.635844,0.005496,
990,1870,0.150978,-0.564751,0.999998,0.000170,-0.000784,0.003717,-0.000301,0.003737,-0.000804,-86.188273,0.003934,
1250,1300,-0.018442,-2.300100,0.999998,0.000154,-0.001055,0.001542,-0.000514,0.001640,-0.001154,-79.198156,0.001685,
1380,460,-0.198929,-8.514087,0.999998,0.000161,-0.001613,0.003942,0.000497,0.003986,-0.001657,84.929662,0.004005,
1740,190,-0.505700,-9.326151,0.999997,0.000176,-0.001980,0.004886,-0.000688,0.004954,-0.002048,-84.333028,0.004979,
1040,480,0.276835,-8.377358,0.999998,0.000187,-0.001770,0.004185,-0.000506,0.004228,-0.001813,-85.173671,0.004242,
1680,480,-0.862324,-7.963161,0.999998,0.000153,-0.002529,0.005077,0.000170,0.005081,-0.002533,88.722005,0.005081,
770,950,1.662316,-5.430235,0.999998,0.000177,-0.002242,0.005093,0.000459,0.005122,-0.002270,86.433018,0.005133,
1470,410,-0.327211,-8.611122,0.999998,0.000183,-0.001817,0.004295,0.000336,0.004313,-0.001836,86.859885,0.004329,
1510,890,-1.072376,-5.920293,0.999997,0.000206,-0.003216,0.006597,-0.000503,0.006623,-0.003241,-87.075136,0.006624,
660,360,0.993391,-8.375246,0.999998,0.000157,-0.002465,0.005044,0.000006,0.005044,-0.002465,89.957326,0.005045,
1760,1620,-1.001251,-2.014597,0.999998,0.000146,-0.002487,0.005048,-0.000080,0.005048,-0.002488,-89.394586,0.005049,
1610,670,-0.918646,-7.073569,0.999998,0.000166,-0.003105,0.005585,0.000120,0.005587,-0.003107,89.206452,0.005598,
830,680,1.004427,-6.976826,0.999998,0.000175,-0.003064,0.005564,-0.000028,0.005564,-0.003064,-89.815156,0.005574,
950,1570,0.462036,-1.865847,0.999997,0.000196,-0.002236,0.004662,0.000498,0.004698,-0.002272,85.894178,0.004698,
1450,460,-0.318010,-8.421901,0.999998,0.000178,-0.001897,0.004328,0.000509,0.004369,-0.001939,85.357186,0.004379,
600,370,1.157879,-8.222576,0.999998,0.000153,-0.002444,0.004964,-0.000051,0.004964,-0.002444,-89.602884,0.004964,
1300,1200,-0.284462,-2.621450,0.999997,0.000205,-0.002558,0.001558,-0.000464,0.001609,-0.002610,-83.641452,0.002634,
1870,1140,-2.019912,-4.554236,0.999998,0.000165,-0.002131,0.004459,0.000160,0.004463,-0.002135,88.608173,0.004464,
1870,180,-0.772684,-9.152198,0.999998,0.000165,-0.002457,0.005093,-0.000313,0.005106,-0.002470,-87.627139,0.005107,
920,1430,0.654905,-2.621933,0.999997,0.000204,-0.002957,0.005345,0.000568,0.005384,-0.002996,86.101188,0.005396,
1900,1730,-1.170374,-1.701835,0.999998,0.000000,-0.002352,0.004795,-0.000024,0.004795,-0.002352,-89.804871,0.004795,
1190,390,0.046886,-8.844897,0.999998,0.000169,-0.001101,0.003561,-0.000080,0.003563,-0.001102,-89.012419,0.003648,
1720,880,-1.629435,-5.780152,0.999998,0.000187,-0.002495,0.005163,-0.000575,0.005206,-0.002538,-85.726220,0.005207,
810,620,0.972773,-7.273415,0.999998,0.000148,-0.002890,0.005425,-0.000098,0.005426,-0.002891,-89.326251,0.005430,
1600,1910,-0.213919,-0.462395,0.999997,0.000216,-0.001023,0.003987,0.000649,0.004069,-0.001105,82.738312,0.004208,
810,1430,0.979797,-2.833983,0.999998,0.000156,-0.002909,0.005411,0.000079,0.005412,-0.002910,89.457435,0.005417,
590,1510,1.446754,-2.758157,0.999998,0.000177,-0.002843,0.005245,0.000172,0.005249,-0.002847,88.781149,0.005255,
1860,910,-1.993627,-5.557237,0.999999,0.000140,-0.002153,0.004489,-0.000196,0.004495,-0.002159,-88.308702,0.004496,
840,350,0.564931,-8.689964,0.999997,0.000196,-0.001956,0.004731,0.000080,0.004732,-0.001957,89.313727,0.004755,
1720,1010,-1.760782,-5.125514,0.999998,0.000170,-0.002113,0.004954,-0.000155,0.004957,-0.002116,-88.746412,0.004975,
1480,1830,-0.195337,-0.720227,0.999998,0.000160,-0.001008,0.003850,0.000228,0.003860,-0.001018,87.320901,0.004001,
1020,1390,0.391628,-2.576637,0.999997,0.000250,-0.002844,0.004966,0.001201,0.005146,-0.003024,81.454952,0.005172,
1800,1880,-0.597002,-0.759024,0.999997,0.000216,-0.002099,0.005135,0.000848,0.005233,-0.002197,83.402595,0.005255,
1280,1800,-0.039010,-0.758829,0.999998,0.000149,-0.000744,0.003458,0.000029,0.003458,-0.000745,89.603266,0.003640,
1850,1500,-1.403977,-2.773225,0.999997,0.000198,-0.002539,0.005109,-0.000005,0.005109,-0.002539,-89.963484,0.005109,
680,1070,1.886092,-4.838776,0.999998,0.000155,-0.002190,0.004673,-0.000136,0.004676,-0.002193,-88.868255,0.004679,
1240,690,-0.008223,-7.908968,0.999999,0.000135,-0.001013,0.002231,0.000180,0.002241,-0.001023,86.828432,0.002244,
1070,400,0.199455,-8.737045,0.999998,0.000188,-0.001508,0.003930,-0.000315,0.003949,-0.001526,-86.695794,0.003982,
1120,270,0.093243,-9.253843,0.999999,0.000140,-0.000924,0.003585,-0.000028,0.003585,-0.000924,-89.644457,0.003723,
1640,1540,-0.801736,-2.228469,0.999998,0.000167,-0.002619,0.005123,-0.000239,0.005130,-0.002627,-88.231362,0.005131,
1710,1440,-1.126278,-2.871275,0.999998,0.000184,-0.002801,0.005294,0.000001,0.005294,-0.002801,89.990802,0.005297,
870,790,1.084907,-6.401671,0.999998,0.000184,-0.003300,0.006003,0.000336,0.006015,-0.003312,87.935256,0.006026,
1130,1170,0.536705,-2.935367,0.999998,0.000000,-0.001176,0.002219,0.001839,0.003024,-0.001981,66.351078,0.003072,
690,1570,1.103914,-2.291326,0.999998,0.000178,-0.002536,0.005126,0.000093,0.005128,-0.002537,89.305315,0.005128,
1380,420,-0.186897,-8.672052,0.999998,0.000180,-0.001449,0.003852,0.000329,0.003872,-0.001469,86.463663,0.003910,
610,810,1.838808,-6.023928,0.999998,0.000157,-0.002342,0.004692,0.000211,0.004698,-0.002348,88.281742,0.004698,
1040,460,0.271162,-8.457763,0.999998,0.000170,-0.001684,0.004112,-0.000443,0.004145,-0.001718,-85.656841,0.004165,
1520,590,-0.558149,-7.689216,0.999997,0.000178,-0.002762,0.005063,0.000647,0.005116,-0.002815,85.302484,0.005124,
1680,680,-1.145241,-6.903051,0.999998,0.000177,-0.002946,0.005497,-0.000117,0.005498,-0.002947,-89.205603,0.005503,
1510,870,-1.010489,-6.049295,0.999997,0.000228,-0.003439,0.006598,-0.000337,0.006609,-0.003451,-88.077535,0.006612,
1870,570,-1.477496,-7.198561,0.999998,0.000199,-0.002561,0.005104,-0.000014,0.005104,-0.002561,-89.898679,0.005104,
1430,1510,-0.313633,-1.995346,0.999997,0.000184,-0.002121,0.004345,-0.000783,0.004438,-0.002215,-83.189976,0.004438,
1610,650,-0.888048,-7.183302,0.999998,0.000166,-0.003055,0.005537,0.000169,0.005540,-0.003059,88.876279,0.005550,
1470,390,-0.314733,-8.698151,0.999998,0.000185,-0.001697,0.004265,0.000241,0.004275,-0.001707,87.685485,0.004303,
1090,170,0.072674,-9.593772,0.999998,0.000148,-0.000492,0.003419,0.000180,0.003428,-0.000500,87.376102,0.003703,
1770,340,-0.882330,-8.530766,0.999998,0.000136,-0.002393,0.005039,0.000002,0.005039,-0.002393,89.983760,0.005041,
600,390,1.190873,-8.122983,0.999998,0.000152,-0.002440,0.004974,-0.000066,0.004974,-0.002440,-89.490814,0.004974,
1620,2000,-0.063559,-0.125047,0.999999,0.000147,-0.000222,0.003563,0.000865,0.003751,-0.000410,77.722660,0.004115,
1580,1950,-0.129599,-0.299935,0.999998,0.000187,-0.000729,0.003735,0.000651,0.003828,-0.000822,81.874936,0.004030,
1580,1250,-1.075444,-3.750841,0.999998,0.000172,-0.003319,0.006113,0.000340,0.006125,-0.003331,87.937766,0.006133,
810,1410,1.010154,-2.942645,0.999998,0.000153,-0.002940,0.005458,0.000025,0.005458,-0.002940,89.826523,0.005464,
950,1550,0.476963,-1.962579,0.999997,0.000206,-0.002325,0.004710,0.000532,0.004750,-0.002365,85.698443,0.004750,
1870,910,-2.014799,-5.550005,0.999998,0.000145,-0.002152,0.004426,-0.000170,0.004430,-0.002156,-88.518425,0.004430,
1410,1840,-0.123208,-0.652332,0.999999,0.000144,-0.000888,0.003609,0.000123,0.003613,-0.000892,88.432116,0.003764,
660,1070,1.929545,-4.841692,0.999998,0.000159,-0.002146,0.004604,-0.000122,0.004606,-0.002148,-88.962727,0.004610,
1800,1160,-1.844563,-4.415612,0.999998,0.000188,-0.002281,0.004781,0.000341,0.004798,-0.002297,87.244265,0.004799,
740,1510,1.059709,-2.521483,0.999998,0.000196,-0.002661,0.005212,0.000097,0.005213,-0.002662,89.293329,0.005214,
1860,970,-2.044535,-5.289235,0.999998,0.000155,-0.002093,0.004307,-0.000032,0.004307,-0.002093,-89.709584,0.004308,
940,1130,1.219803,-4.412899,0.999997,0.000190,-0.002698,0.006345,-0.000667,0.006394,-0.002747,-85.802455,0.006415,
1190,1640,0.049342,-1.323511,0.999998,0.000166,-0.001192,0.003551,0.000108,0.003554,-0.001195,88.696476,0.003617,
770,930,1.637883,-5.532486,0.999997,0.000189,-0.002306,0.005104,0.000449,0.005131,-0.002334,86.546301,0.005138,
1440,1050,-1.189877,-4.830202,0.999996,0.000236,-0.003449,0.009354,-0.000393,0.009366,-0.003461,-88.243964,0.009471,
750,1580,0.938252,-2.143500,0.999997,0.000195,-0.002523,0.005136,0.000143,0.005138,-0.002525,88.934239,0.005139,
1720,1080,-1.746620,-4.782324,0.999998,0.000178,-0.002173,0.004943,0.000240,0.004951,-0.002181,88.071340,0.004963,
1130,140,0.039308,-9.702572,0.999999,0.000121,-0.000491,0.003242,0.000097,0.003244,-0.000493,88.518758,0.003497,
1490,1480,-0.467352,-2.252474,0.999997,0.000226,-0.002535,0.004837,-0.000744,0.004912,-0.002609,-84.296534,0.004915,
1190,370,0.045644,-8.917586,0.999998,0.000153,-0.001052,0.003557,-0.000077,0.003558,-0.001053,-89.039664,0.003656,
1290,1690,-0.063248,-1.149120,0.999998,0.000147,-0.001030,0.003592,-0.000045,0.003593,-0.001031,-89.446374,0.003700,
830,660,0.974178,-7.088339,0.999998,0.000174,-0.003015,0.005557,-0.000101,0.005558,-0.003017,-89.328390,0.005565,
1130,1160,0.599421,-2.963898,0.999985,0.000000,-0.000821,0.002126,0.002150,0.003259,-0.001954,62.217620,0.003280,
870,770,1.041754,-6.520074,0.999998,0.000163,-0.003315,0.005989,0.000213,0.005994,-0.003320,88.687397,0.006005,
1390,1680,-0.186173,-1.242305,0.999998,0.000166,-0.001358,0.003923,-0.000188,0.003930,-0.001365,-87.962335,0.003991,
1370,400,-0.169053,-8.755050,0.999998,0.000154,-0.001314,0.003778,0.000222,0.003787,-0.001323,87.508212,0.003844,
630,100,0.395581,-9.663532,0.999997,0.000211,-0.002237,0.005271,0.001076,0.005422,-0.002388,82.006568,0.005435,
970,440,0.392331,-8.447483,0.999996,0.000244,-0.001929,0.004442,-0.000359,0.004462,-0.001949,-86.785328,0.004474,
1760,1600,-1.029213,-2.116542,0.999998,0.000165,-0.002494,0.005096,-0.000098,0.005097,-0.002495,-89.260541,0.005098,
1670,1910,-0.287834,-0.490739,0.999997,0.000197,-0.001381,0.004313,0.000814,0.004427,-0.001496,82.019327,0.004504,
860,270,0.420462,-9.082528,0.999997,0.000226,-0.001741,0.004472,0.000251,0.004482,-0.001751,87.689777,0.004517,
1240,270,-0.006801,-9.275435,0.999998,0.000154,-0.000874,0.003466,0.000023,0.003466,-0.000874,89.690130,0.003605,
1320,610,-0.117027,-8.037664,0.999998,0.000142,-0.001512,0.003377,0.000799,0.003505,-0.001639,80.948640,0.003507,
1380,400,-0.182220,-8.746551,0.999998,0.000153,-0.001357,0.003836,0.000242,0.003848,-0.001368,87.336511,0.003901,
1510,850,-0.949084,-6.182870,0.999997,0.000236,-0.003576,0.006604,-0.000207,0.006608,-0.003580,-88.835385,0.006615,
1120,540,0.151515,-8.256154,0.999998,0.000161,-0.001561,0.003706,-0.000608,0.003775,-0.001630,-83.499672,0.003787,
1470,590,-0.424658,-7.798354,0.999997,0.000190,-0.002529,0.004785,0.000862,0.004885,-0.002629,83.365359,0.004890,
930,960,1.331363,-5.439146,0.999997,0.000215,-0.002232,0.006057,0.000603,0.006100,-0.002275,85.862652,0.006166,
1640,1580,-0.753642,-2.026670,0.999998,0.000159,-0.002478,0.005000,-0.000208,0.005005,-0.002483,-88.404838,0.005006,
720,1900,0.416870,-0.584914,0.999997,0.000210,-0.001809,0.004775,-0.000892,0.004894,-0.001928,-82.421717,0.004931,
1610,630,-0.860568,-7.295958,0.999998,0.000179,-0.002985,0.005475,0.000221,0.005481,-0.002991,88.507694,0.005488,
1500,590,-0.502480,-7.732707,0.999996,0.000217,-0.002671,0.004957,0.000747,0.005029,-0.002743,84.461019,0.005036,
1040,440,0.263731,-8.541330,0.999998,0.000179,-0.001634,0.004074,-0.000384,0.004100,-0.001659,-86.170641,0.004124,
1750,340,-0.833794,-8.563232,0.999998,0.000168,-0.002419,0.005021,-0.000030,0.005021,-0.002420,-89.769330,0.005022,
1620,330,-0.533249,-8.788673,0.999998,0.000200,-0.001909,0.004702,-0.000077,0.004703,-0.001910,-89.334727,0.004731,
810,1390,1.042766,-3.050712,0.999998,0.000161,-0.002995,0.005471,-0.000020,0.005471,-0.002995,-89.866347,0.005480,
1580,1930,-0.160500,-0.377105,0.999998,0.000193,-0.000868,0.003837,0.000625,0.003919,-0.000950,82.564891,0.004088,
1850,1140,-1.976577,-4.537956,0.999998,0.000142,-0.002186,0.004535,0.000224,0.004543,-0.002193,88.094735,0.004544,
960,1690,0.355083,-1.315826,0.999997,0.000246,-0.001822,0.004305,0.000216,0.004313,-0.001829,87.983381,0.004329,
800,1890,0.321501,-0.576387,0.999997,0.000193,-0.001438,0.004366,-0.000735,0.004457,-0.001530,-82.892152,0.004530,
1390,1840,-0.107581,-0.645591,0.999998,0.000169,-0.000729,0.003580,0.000151,0.003585,-0.000735,87.995352,0.003787,
660,340,0.959528,-8.475786,0.999998,0.000171,-0.002443,0.005064,-0.000007,0.005064,-0.002443,-89.946766,0.005065,
990,1850,0.168599,-0.641139,0.999998,0.000178,-0.000843,0.003796,-0.000288,0.003814,-0.000860,-86.455800,0.004001,
730,1580,0.989579,-2.175632,0.999998,0.000150,-0.002563,0.005146,0.000125,0.005148,-0.002565,89.073915,0.005148,
650,1060,1.955310,-4.890048,0.999998,0.000180,-0.002137,0.004574,-0.000153,0.004577,-0.002141,-88.694997,0.004580,
950,1530,0.492440,-2.057029,0.999997,0.000186,-0.002390,0.004740,0.000544,0.004781,-0.002431,85.661208,0.004781,
1890,910,-2.057730,-5.532259,0.999999,0.000137,-0.002193,0.004306,-0.000135,0.004309,-0.002196,-88.814582,0.004309,
1530,1380,-0.669324,-2.867514,0.999997,0.000205,-0.003225,0.005616,-0.000578,0.005654,-0.003262,-86.277606,0.005676,
1130,890,0.565345,-7.131050,0.999996,0.000000,-0.001189,0.002184,-0.002060,0.003160,-0.002165,-64.650519,0.003231,
870,750,1.001301,-6.641709,0.999998,0.000179,-0.003321,0.005933,0.000095,0.005934,-0.003322,89.409346,0.005948,
1840,970,-2.003152,-5.296496,0.999998,0.000166,-0.002147,0.004423,-0.000057,0.004424,-0.002148,-89.506512,0.004425,
1390,1220,-0.441119,-3.245805,0.999997,0.000205,-0.003591,0.005513,-0.001785,0.005850,-0.003929,-79.291877,0.005964,
1680,1960,-0.179739,-0.286223,0.999998,0.000179,-0.000875,0.004010,0.001030,0.004219,-0.001083,78.562987,0.004382,
770,910,1.614787,-5.633977,0.999997,0.000201,-0.002401,0.005249,0.000563,0.005290,-0.002442,85.816424,0.005295,
1070,1380,0.262107,-2.468866,0.999997,0.000210,-0.002460,0.004391,0.001465,0.004691,-0.002761,78.421882,0.004716,
1380,380,-0.174878,-8.826182,0.999998,0.000153,-0.001269,0.003872,0.000163,0.003877,-0.001275,88.182524,0.003952,
1810,1230,-1.758863,-4.083995,0.999998,0.000169,-0.002407,0.004835,0.000366,0.004853,-0.002425,87.111183,0.004853,
1030,480,0.294811,-8.363490,0.999998,0.000163,-0.001855,0.004243,-0.000532,0.004289,-0.001901,-85.046333,0.004298,
1010,880,0.835770,-6.174253,0.999997,0.000213,-0.003750,0.007031,-0.000361,0.007043,-0.003762,-88.082299,0.007049,
1760,1580,-1.057876,-2.218983,0.999998,0.000150,-0.002526,0.005129,-0.000116,0.005131,-0.002527,-89.133559,0.005131,
1510,80,-0.065346,-9.878099,0.999999,0.000129,-0.000414,0.003370,-0.000470,0.003427,-0.000472,-83.031400,0.003715,
1510,830,-0.891779,-6.314713,0.999997,0.000215,-0.003677,0.006537,-0.000051,0.006537,-0.003677,-89.715064,0.006554,
1290,1670,-0.064485,-1.220911,0.999998,0.000151,-0.001068,0.003555,-0.000063,0.003556,-0.001069,-89.216364,0.003649,
1900,1720,-1.188578,-1.750271,0.999998,0.000000,-0.002392,0.004846,0.000004,0.004846,-0.002392,89.972020,0.004847,
920,1130,1.272325,-4.436546,0.999998,0.000187,-0.002593,0.006130,-0.000723,0.006190,-0.002652,-85.296890,0.006211,
1110,800,0.235836,-7.254364,0.999997,0.000202,-0.002898,0.004085,-0.002305,0.004777,-0.003590,-73.283548,0.004975,
1460,1800,-0.203238,-0.828404,0.999998,0.000141,-0.001046,0.003876,0.000163,0.003881,-0.001051,88.109417,0.004015,
1610,610,-0.832981,-7.404096,0.999998,0.000187,-0.002912,0.005358,0.000266,0.005366,-0.002921,88.162226,0.005373,
1620,310,-0.507642,-8.882542,0.999998,0.000178,-0.001856,0.004592,-0.000128,0.004595,-0.001859,-88.865624,0.004622,
1580,350,-0.480463,-8.743356,0.999998,0.000212,-0.002038,0.004570,0.000072,0.004571,-0.002039,89.372090,0.004580,
600,130,0.586805,-9.427683,0.999997,0.000207,-0.002405,0.005335,0.000673,0.005393,-0.002463,85.066965,0.005400,
1040,420,0.254919,-8.622314,0.999998,0.000199,-0.001605,0.004072,-0.000343,0.004093,-0.001625,-86.556942,0.004122,
1420,1410,-0.322212,-2.412742,0.999997,0.000198,-0.002534,0.004550,-0.001219,0.004754,-0.002738,-80.505794,0.004772,
770,820,1.449342,-6.116341,0.999998,0.000186,-0.002769,0.005388,0.000553,0.005426,-0.002807,86.142469,0.005427,
1490,1600,-0.393887,-1.694509,0.999997,0.000212,-0.001966,0.004447,-0.000395,0.004471,-0.001990,-86.484564,0.004480,
990,1830,0.188215,-0.717147,0.999998,0.000164,-0.000933,0.003835,-0.000226,0.003846,-0.000944,-87.291249,0.004008,
610,1700,1.108394,-1.765204,0.999998,0.000164,-0.002430,0.004987,0.000043,0.004988,-0.002430,89.669380,0.004988,
1890,1120,-2.084383,-4.657645,0.999999,0.000144,-0.002075,0.004305,0.000162,0.004309,-0.002079,88.544514,0.004310,
1660,1690,-0.664741,-1.510458,0.999998,0.000177,-0.002296,0.004888,-0.000021,0.004888,-0.002296,-89.831702,0.004891,
650,1040,1.964139,-4.982518,0.999999,0.000139,-0.002151,0.004596,-0.000110,0.004598,-0.002153,-89.067878,0.004601,
810,1370,1.075115,-3.161352,0.999998,0.000170,-0.003023,0.005551,-0.000059,0.005551,-0.003024,-89.605702,0.005558,
950,1510,0.503954,-2.151646,0.999997,0.000191,-0.002464,0.004877,0.000595,0.004925,-0.002512,85.392651,0.004925,
1610,2010,-0.047286,-0.089362,0.999999,0.000141,-0.000217,0.003516,0.000757,0.003663,-0.000365,78.960791,0.004036,
1250,1320,-0.018853,-2.267769,0.999999,0.000143,-0.000999,0.001765,-0.000453,0.001838,-0.001072,-80.926523,0.001846,
1130,880,0.507532,-7.155395,0.999998,0.000000,-0.001465,0.002241,-0.001742,0.002931,-0.002156,-68.384104,0.003038,
1330,1840,-0.063830,-0.628506,0.999998,0.000155,-0.000736,0.003436,0.000030,0.003436,-0.000736,89.591674,0.003619,
1690,70,-0.127288,-9.887479,0.999998,0.000154,-0.000614,0.003896,-0.001130,0.004163,-0.000882,-76.696890,0.004387,
770,1110,1.657107,-4.624094,0.999997,0.000207,-0.002244,0.005095,-0.000457,0.005123,-0.002273,-86.450440,0.005134,
1880,910,-2.035893,-5.541360,0.999998,0.000153,-0.002167,0.004359,-0.000144,0.004362,-0.002170,-88.740930,0.004362,
630,1520,1.330242,-2.645475,0.999997,0.000185,-0.002554,0.005122,0.000035,0.005122,-0.002554,89.742398,0.005122,
1390,1200,-0.511767,-3.355968,0.999996,0.000218,-0.003552,0.005565,-0.001821,0.005916,-0.003902,-79.113286,0.006015,
870,730,0.965720,-6.757124,0.999998,0.000163,-0.003315,0.005853,0.000012,0.005853,-0.003315,89.923160,0.005870,
1010,860,0.765951,-6.316237,0.999996,0.000243,-0.003900,0.006919,-0.000541,0.006946,-0.003927,-87.143497,0.006966,
1820,970,-1.958840,-5.302527,0.999998,0.000151,-0.002158,0.004545,-0.000096,0.004546,-0.002159,-89.179873,0.004548,
660,320,0.929506,-8.577978,0.999998,0.000173,-0.002424,0.005050,0.000060,0.005051,-0.002425,89.541365,0.005052,
1390,500,-0.225462,-8.338863,0.999998,0.000148,-0.001732,0.003995,0.000605,0.004059,-0.001795,84.030909,0.004068,
1330,80,-0.018382,-9.894590,0.999998,0.000138,-0.000228,0.003129,-0.000113,0.003133,-0.000232,-88.065677,0.003491,
1510,810,-0.840940,-6.447952,0.999997,0.000209,-0.003752,0.006495,0.000113,0.006497,-0.003754,89.367769,0.006523,
1380,360,-0.167255,-8.901443,0.999998,0.000160,-0.001207,0.003787,0.000129,0.003790,-0.001210,88.516266,0.003872,
1810,1270,-1.690816,-3.886081,0.999997,0.000187,-0.002496,0.005025,0.000400,0.005046,-0.002517,86.963051,0.005046,
1050,1380,0.315324,-2.531666,0.999997,0.000186,-0.002715,0.004654,0.001377,0.004903,-0.002964,79.753250,0.004939,
1550,690,-0.756380,-7.078787,0.999998,0.000208,-0.003292,0.005701,0.000404,0.005719,-0.003310,87.433467,0.005743,
1220,1800,0.009345,-0.753562,0.999998,0.000169,-0.000818,0.003438,0.000029,0.003438,-0.000818,89.603526,0.003592,
1590,800,-1.097402,-6.344464,0.999997,0.000211,-0.003269,0.006050,-0.000348,0.006063,-0.003282,-87.866939,0.006070,
1470,1870,-0.148318,-0.565676,0.999998,0.000154,-0.000735,0.003684,0.000289,0.003703,-0.000754,86.270271,0.003914,
1290,1650,-0.069126,-1.292387,0.999998,0.000190,-0.001144,0.003590,-0.000105,0.003593,-0.001146,-88.736001,0.003670,
1850,290,-0.988319,-8.646762,0.999998,0.000170,-0.002417,0.004987,-0.000017,0.004987,-0.002417,-89.868590,0.004988,
1040,400,0.247934,-8.704122,0.999998,0.000194,-0.001563,0.004052,-0.000285,0.004066,-0.001577,-87.098116,0.004100,
590,130,0.610989,-9.401988,0.999997,0.000216,-0.002548,0.005312,0.000620,0.005361,-0.002596,85.515900,0.005362,
1220,330,0.011264,-9.064328,0.999999,0.000130,-0.001044,0.003515,-0.000049,0.003516,-0.001045,-89.389704,0.003611,
1760,1560,-1.082687,-2.320964,0.999998,0.000167,-0.002583,0.005118,-0.000106,0.005119,-0.002584,-89.213044,0.005119,
1470,920,-1.045980,-5.824110,0.999998,0.000179,-0.003200,0.007075,-0.000141,0.007077,-0.003202,-89.211578,0.007088,
1610,590,-0.808082,-7.510693,0.999997,0.000199,-0.002844,0.005328,0.000291,0.005339,-0.002854,87.960636,0.005343,
1600,330,-0.495338,-8.811357,0.999998,0.000201,-0.001912,0.004651,-0.000059,0.004652,-0.001912,-89.488609,0.004676,
1580,330,-0.456924,-8.834941,0.999997,0.000208,-0.001952,0.004575,-0.000005,0.004575,-0.001952,-89.958173,0.004591,
1030,1960,0.051893,-0.241329,0.999998,0.000163,-0.000345,0.003321,-0.000295,0.003345,-0.000369,-85.430180,0.003668,
1900,1710,-1.206408,-1.800105,0.999998,0.000000,-0.002441,0.004863,0.000053,0.004863,-0.002441,89.584408,0.004863,
650,1020,1.964741,-5.073510,0.999999,0.000136,-0.002156,0.004628,0.000092,0.004630,-0.002157,89.223289,0.004633,
1690,1620,-0.827816,-1.903261,0.999999,0.000140,-0.002425,0.005051,-0.000113,0.005052,-0.002427,-89.138030,0.005054,
790,840,1.433644,-6.022339,0.999996,0.000214,-0.002753,0.005493,0.000619,0.005539,-0.002799,85.728135,0.005539,
810,1350,1.109558,-3.274590,0.999998,0.000197,-0.003049,0.005648,-0.000136,0.005650,-0.003052,-89.106742,0.005656,
1250,1460,-0.022927,-1.922913,0.999999,0.000121,-0.001186,0.003006,-0.000245,0.003020,-0.001200,-86.670038,0.003042,
1640,1690,-0.619584,-1.480924,0.999997,0.000196,-0.002138,0.004824,0.000009,0.004824,-0.002138,89.924778,0.004834,
1770,1560,-1.110995,-2.338158,0.999998,0.000169,-0.002605,0.005118,-0.000104,0.005120,-0.002606,-89.231261,0.005120,
1130,30,0.004119,-10.047749,0.999999,0.000000,-0.000070,0.002992,0.000107,0.002995,-0.000074,87.992354,0.003417,
1890,1110,-2.095628,-4.701156,0.999998,0.000153,-0.002048,0.004217,0.000085,0.004219,-0.002050,89.218986,0.004219,
990,1810,0.206064,-0.795529,0.999998,0.000164,-0.001021,0.003895,-0.000189,0.003902,-0.001029,-87.797860,0.004045,
660,300,0.892346,-8.678481,0.999998,0.000183,-0.002400,0.005064,0.000142,0.005067,-0.002403,88.908352,0.005069,
620,300,0.988620,-8.609075,0.999998,0.000183,-0.002444,0.005030,-0.000004,0.005030,-0.002444,-89.967704,0.005031,
690,1610,1.047415,-2.087297,0.999998,0.000188,-0.002504,0.005082,0.000097,0.005083,-0.002505,89.268548,0.005083,
570,1440,1.617811,-3.135099,0.999601,0.002391,-0.004405,0.005109,0.000053,0.005109,-0.004406,89.678093,0.005538,
1690,1510,-0.970454,-2.469074,0.999998,0.000178,-0.002687,0.005263,-0.000133,0.005266,-0.002689,-89.041804,0.005266,
1510,1010,-1.357616,-5.144230,0.999997,0.000201,-0.001895,0.006238,-0.000171,0.006241,-0.001899,-88.794713,0.006399,
1310,1840,-0.049716,-0.624309,0.999999,0.000138,-0.000643,0.003425,0.000071,0.003427,-0.000645,89.003590,0.003642,
1650,1900,-0.282865,-0.522817,0.999997,0.000192,-0.001226,0.004268,0.000812,0.004386,-0.001343,81.763105,0.004494,
1890,970,-2.106672,-5.278930,0.999998,0.000165,-0.002008,0.004071,0.000003,0.004071,-0.002008,89.971708,0.004072,
670,620,1.358640,-7.059965,0.999998,0.000181,-0.002614,0.005136,0.000079,0.005136,-0.002615,89.415703,0.005137,
870,710,0.928202,-6.877266,0.999998,0.000163,-0.003271,0.005809,-0.000052,0.005809,-0.003271,-89.670983,0.005824,
1440,1000,-1.185098,-5.299395,0.999996,0.000253,-0.003384,0.009218,0.000459,0.009234,-0.003400,87.917630,0.009341,
1460,1130,-1.033037,-4.258250,0.999998,0.000173,-0.003185,0.007199,-0.000024,0.007199,-0.003185,-89.865149,0.007215,
1900,1700,-1.224353,-1.849087,0.999998,0.000000,-0.002468,0.004850,0.000037,0.004851,-0.002469,89.707056,0.004851,
1610,570,-0.784646,-7.616764,0.999997,0.000206,-0.002770,0.005267,0.000316,0.005279,-0.002783,87.755078,0.005281,
780,370,0.724876,-8.510820,0.999997,0.000202,-0.002254,0.004912,-0.000018,0.004912,-0.002254,-89.859720,0.004917,
1470,1910,-0.111093,-0.420847,0.999998,0.000151,-0.000524,0.003555,0.000370,0.003588,-0.000557,84.857637,0.003862,
1430,1620,-0.272188,-1.527294,0.999997,0.000205,-0.001673,0.004139,-0.000360,0.004162,-0.001695,-86.465355,0.004185,
930,1900,0.169163,-0.475668,0.999998,0.000169,-0.000777,0.003810,-0.000488,0.003862,-0.000828,-83.992847,0.004066,
1560,740,-0.872038,-6.764442,0.999998,0.000214,-0.003447,0.005983,0.000147,0.005985,-0.003449,89.107709,0.006008,
1380,340,-0.160405,-8.975479,0.999998,0.000155,-0.001146,0.003761,0.000085,0.003762,-0.001147,89.007304,0.003856,
770,390,0.773638,-8.398708,0.999998,0.000170,-0.002330,0.004975,-0.000035,0.004975,-0.002330,-89.721655,0.004979,
680,1930,0.402517,-0.487321,0.999997,0.000248,-0.001749,0.004970,-0.001241,0.005192,-0.001971,-79.861407,0.005242,
1820,760,-1.671912,-6.307604,0.999997,0.000203,-0.002503,0.004962,-0.000304,0.004974,-0.002516,-87.671737,0.004974,
1390,680,-0.256049,-7.600187,0.999996,0.000213,-0.002487,0.004366,0.001481,0.004672,-0.002793,78.315174,0.004702,
950,1490,0.517982,-2.250853,0.999997,0.000194,-0.002577,0.004969,0.000626,0.005020,-0.002628,85.291978,0.005022,
990,1790,0.225348,-0.874787,0.999998,0.000169,-0.001122,0.003951,-0.000139,0.003955,-0.001126,-88.435819,0.004075,
1340,1680,-0.123055,-1.209994,0.999998,0.000174,-0.001272,0.003743,-0.000211,0.003751,-0.001281,-87.600095,0.003814,
810,1330,1.145381,-3.388910,0.999998,0.000225,-0.003053,0.005649,-0.000222,0.005655,-0.003059,-88.538622,0.005661,
1320,590,-0.115871,-8.105678,0.999998,0.000160,-0.001485,0.003463,0.000714,0.003564,-0.001586,81.949918,0.003571,
1870,1330,-1.733560,-3.666587,0.999997,0.000193,-0.002443,0.004894,0.000127,0.004897,-0.002445,89.007995,0.004897,
1400,1230,-0.447908,-3.251052,0.999996,0.000242,-0.003731,0.005806,-0.001682,0.006094,-0.004019,-80.287015,0.006197,
840,510,0.751583,-7.903954,0.999997,0.000206,-0.002594,0.005058,-0.000284,0.005069,-0.002605,-87.875072,0.005069,
740,1130,1.701646,-4.531598,0.999997,0.000212,-0.002269,0.005014,-0.000420,0.005038,-0.002293,-86.710326,0.005045,
1680,40,-0.054435,-10.001829,0.999998,0.000172,-0.000354,0.003604,-0.001009,0.003846,-0.000596,-76.492526,0.004140,
1720,360,-0.792377,-8.510524,0.999998,0.000163,-0.002343,0.005018,-0.000043,0.005018,-0.002344,-89.663974,0.005021,
1250,1360,-0.018555,-2.190166,0.999998,0.000152,-0.001036,0.002225,-0.000386,0.002270,-0.001081,-83.341213,0.002271,
970,540,0.453588,-7.988439,0.999998,0.000175,-0.002422,0.004720,-0.000649,0.004779,-0.002481,-84.853497,0.004780,
1560,770,-0.930416,-6.583302,0.999998,0.000161,-0.003476,0.006115,-0.000033,0.006115,-0.003476,-89.802295,0.006134,
1760,1540,-1.113575,-2.424942,0.999998,0.000175,-0.002617,0.005133,-0.000101,0.005134,-0.002618,-89.256199,0.005134,
1640,1670,-0.645822,-1.579451,0.999996,0.000250,-0.002231,0.004885,-0.000081,0.004886,-0.002232,-89.346573,0.004892,
1110,140,0.047623,-9.700849,0.999999,0.000124,-0.000412,0.003279,0.000143,0.003285,-0.000417,87.791219,0.003576,
1510,860,-0.979395,-6.116998,0.999996,0.000273,-0.003507,0.006605,-0.000277,0.006612,-0.003515,-88.434206,0.006617,
710,120,0.330954,-9.647755,0.999997,0.000183,-0.001764,0.004689,0.001112,0.004875,-0.001950,80.489717,0.004907,
1880,970,-2.087122,-5.282822,0.999998,0.000168,-0.002032,0.004154,-0.000005,0.004154,-0.002032,-89.955537,0.004154,
1120,2020,0.006925,-0.047468,0.999998,0.000000,-0.000094,0.002962,-0.000104,0.002966,-0.000098,-88.047935,0.003370,
620,280,0.949767,-8.709122,0.999998,0.000166,-0.002446,0.004996,0.000038,0.004996,-0.002446,89.708570,0.004996,
870,690,0.896834,-6.991151,0.999998,0.000153,-0.003209,0.005690,-0.000141,0.005693,-0.003212,-89.089680,0.005708,
1290,1560,-0.073751,-1.612140,0.999998,0.000147,-0.001323,0.003514,-0.000261,0.003528,-0.001337,-86.917470,0.003562,
1730,1860,-0.499067,-0.765336,0.999997,0.000184,-0.001823,0.004820,0.000730,0.004899,-0.001903,83.806164,0.004939,
1220,1780,0.009593,-0.823511,0.999998,0.000152,-0.000884,0.003480,0.000031,0.003480,-0.000884,89.593426,0.003618,
660,720,1.556343,-6.530084,0.999997,0.000205,-0.002570,0.005126,0.000257,0.005135,-0.002579,88.087836,0.005135,
1790,1560,-1.163001,-2.370748,0.999998,0.000192,-0.002557,0.005118,-0.000084,0.005119,-0.002558,-89.370559,0.005119,
1110,1840,0.081921,-0.637093,0.999998,0.000159,-0.000692,0.003473,-0.000065,0.003474,-0.000693,-89.112839,0.003677,
1120,520,0.151691,-8.329726,0.999998,0.000168,-0.001517,0.003683,-0.000516,0.003734,-0.001567,-84.390382,0.003750,
1540,1250,-0.938051,-3.674829,0.999998,0.000176,-0.003556,0.006318,0.000121,0.006320,-0.003557,89.296622,0.006336,
1900,1690,-1.243221,-1.896506,0.999998,0.000000,-0.002442,0.004847,-0.000038,0.004848,-0.002442,-89.702226,0.004848,
700,1100,1.826106,-4.693358,0.999998,0.000193,-0.002227,0.004869,-0.000344,0.004886,-0.002243,-87.229339,0.004891,
1040,70,0.033590,-9.921185,0.999999,0.000145,-0.000251,0.003216,0.000309,0.003243,-0.000278,84.953867,0.003595,
1650,480,-0.785240,-8.013562,0.999998,0.000181,-0.002527,0.005063,0.000201,0.005069,-0.002533,88.481470,0.005069,
1460,1110,-1.104203,-4.406959,0.999998,0.000176,-0.002955,0.007478,-0.000058,0.007478,-0.002955,-89.679127,0.007533,
1610,550,-0.762869,-7.721310,0.999998,0.000188,-0.002705,0.005185,0.000319,0.005197,-0.002718,87.688517,0.005199,
1440,980,-1.148739,-5.465099,0.999995,0.000303,-0.003268,0.008576,0.000685,0.008615,-0.003308,86.701816,0.008692,
730,1970,0.193691,-0.262572,0.999998,0.000173,-0.000984,0.004113,-0.001211,0.004386,-0.001257,-77.290865,0.004517,
1430,1480,-0.322854,-2.124878,0.999997,0.000216,-0.002230,0.004402,-0.000864,0.004512,-0.002341,-82.699151,0.004513,
1390,660,-0.253354,-7.685587,0.999998,0.000148,-0.002329,0.004286,0.001389,0.004565,-0.002609,78.610803,0.004581,
1380,320,-0.151482,-9.052082,0.999998,0.000158,-0.001065,0.003759,0.000034,0.003759,-0.001065,89.591454,0.003875,
660,1930,0.435228,-0.504524,0.999997,0.000222,-0.001721,0.005157,-0.001299,0.005394,-0.001958,-79.649868,0.005461,
1810,1820,-0.774745,-1.080118,0.999998,0.000191,-0.002299,0.005097,0.000349,0.005113,-0.002315,87.303342,0.005121,
910,1250,0.983065,-3.700930,0.999997,0.000198,-0.003485,0.006252,-0.000220,0.006257,-0.003490,-88.707937,0.006271,
1560,780,-0.951618,-6.520849,0.999997,0.000191,-0.003490,0.006152,-0.000100,0.006153,-0.003491,-89.404371,0.006171,
1480,1400,-0.496518,-2.629570,0.999997,0.000196,-0.002982,0.005248,-0.000943,0.005354,-0.003089,-83.548924,0.005375,
950,1470,0.533118,-2.352549,0.999997,0.000196,-0.002721,0.005034,0.000686,0.005094,-0.002781,84.984532,0.005101,
1730,430,-0.919989,-8.138767,0.999998,0.000179,-0.002502,0.005075,0.000101,0.005076,-0.002504,89.233388,0.005076,
1820,740,-1.635305,-6.406941,0.999998,0.000174,-0.002513,0.005033,-0.000281,0.005044,-0.002523,-87.869499,0.005044,
740,270,0.649733,-8.953497,0.999997,0.000220,-0.002041,0.004937,0.000362,0.004956,-0.002059,87.039422,0.004979,
1760,1520,-1.141407,-2.527863,0.999998,0.000168,-0.002628,0.005181,-0.000073,0.005182,-0.002629,-89.467478,0.005182,
1860,1330,-1.709345,-3.651600,0.999997,0.000176,-0.002465,0.004911,0.000145,0.004914,-0.002468,88.870595,0.004914,
1740,1690,-0.849590,-1.627367,0.999998,0.000190,-0.002424,0.005031,-0.000014,0.005031,-0.002424,-89.889986,0.005032,
780,440,0.817232,-8.163984,0.999998,0.000159,-0.002486,0.005022,-0.000158,0.005026,-0.002490,-88.792532,0.005026,
1590,1680,-0.528113,-1.465060,0.999997,0.000202,-0.002076,0.004686,-0.000117,0.004688,-0.002078,-89.007622,0.004698,
1070,1640,0.205796,-1.402799,0.999998,0.000187,-0.001545,0.003978,0.000365,0.004002,-0.001569,86.238538,0.004033,
1120,1160,0.607696,-3.068968,0.999985,0.000000,-0.000845,0.002850,0.002385,0.004019,-0.002014,63.883440,0.004019,
1340,1660,-0.127990,-1.285177,0.999998,0.000167,-0.001324,0.003710,-0.000270,0.003724,-0.001339,-86.932827,0.003773,
1290,320,-0.056887,-9.091281,0.999999,0.000167,-0.000932,0.003558,0.000024,0.003558,-0.000932,89.695187,0.003689,
620,260,0.908870,-8.809675,0.999998,0.000170,-0.002434,0.005048,0.000085,0.005049,-0.002435,89.352252,0.005050,
1090,1840,0.095483,-0.641069,0.999998,0.000171,-0.000672,0.003527,-0.000130,0.003531,-0.000676,-88.224387,0.003749,
1490,800,-0.737460,-6.572980,0.999997,0.000227,-0.003851,0.006454,0.000452,0.006473,-0.003871,87.494158,0.006515,
1310,140,-0.029181,-9.706554,0.999998,0.000157,-0.000376,0.003269,-0.000086,0.003271,-0.000378,-88.652284,0.003578,
1250,1340,-0.018341,-2.231022,0.999999,0.000140,-0.000992,0.001998,-0.000419,0.002055,-0.001049,-82.168646,0.002056,
1780,1250,-1.652275,-3.957979,0.999998,0.000208,-0.002538,0.005048,0.000440,0.005073,-0.002563,86.692577,0.005073,
990,1770,0.242219,-0.952619,0.999998,0.000164,-0.001206,0.004008,-0.000118,0.004010,-0.001209,-88.700163,0.004115,
840,490,0.730173,-8.006049,0.999998,0.000162,-0.002500,0.005020,-0.000262,0.005029,-0.002509,-88.004817,0.005029,
1680,1030,-1.682508,-5.027999,0.999997,0.000197,-0.002052,0.005022,0.000035,0.005022,-0.002052,89.719623,0.005050,
870,670,0.865696,-7.104378,0.999998,0.000159,-0.003137,0.005616,-0.000219,0.005622,-0.003143,-88.568962,0.005635,
1120,470,0.146123,-8.514288,0.999998,0.000166,-0.001408,0.003710,-0.000384,0.003739,-0.001437,-85.729756,0.003772,
710,100,0.265677,-9.741961,0.999997,0.000184,-0.001593,0.004397,0.001131,0.004603,-0.001799,79.656398,0.004640,
740,60,0.118495,-9.919687,0.999998,0.000178,-0.000432,0.003953,0.001297,0.004308,-0.000787,74.695898,0.004588,
810,1310,1.182271,-3.500363,0.999998,0.000199,-0.003047,0.005690,-0.000294,0.005700,-0.003057,-88.072800,0.005705,
1280,70,-0.006987,-9.927205,0.999998,0.000154,-0.000129,0.003063,-0.000070,0.003064,-0.000131,-88.743006,0.003465,
1610,530,-0.740545,-7.826614,0.999998,0.000171,-0.002632,0.005110,0.000299,0.005121,-0.002643,87.790870,0.005122,
1900,1680,-1.258234,-1.945491,0.999998,0.000000,-0.002414,0.004874,-0.000086,0.004875,-0.002415,-89.320902,0.004875,
990,1280,0.620966,-3.289064,0.999998,0.000183,-0.003792,0.006190,0.000790,0.006253,-0.003854,85.505474,0.006309,
1120,500,0.149288,-8.401302,0.999998,0.000152,-0.001491,0.003726,-0.000447,0.003764,-0.001529,-85.140453,0.003786,
700,1080,1.838094,-4.788742,0.999998,0.000179,-0.002189,0.004753,-0.000171,0.004757,-0.002193,-88.588587,0.004762,
950,1450,0.550968,-2.454190,0.999997,0.000215,-0.002825,0.005126,0.000696,0.005187,-0.002885,85.033680,0.005198,
1220,1760,0.010728,-0.892580,0.999999,0.000155,-0.000936,0.003469,0.000042,0.003470,-0.000936,89.459593,0.003590,
1310,1540,-0.102259,-1.700133,0.999999,0.000145,-0.001446,0.003562,-0.000480,0.003607,-0.001492,-84.578411,0.003625,
890,1900,0.200074,-0.489716,0.999998,0.000173,-0.000984,0.003975,-0.000590,0.004044,-0.001053,-83.312463,0.004196,
660,740,1.592237,-6.430024,0.999997,0.000201,-0.002564,0.005084,0.000321,0.005098,-0.002577,87.601948,0.005098,
1380,300,-0.143144,-9.126382,0.999998,0.000155,-0.001010,0.003737,0.000011,0.003737,-0.001010,89.865253,0.003866,
1810,1900,-0.551009,-0.666366,0.999997,0.000221,-0.002001,0.005190,0.000946,0.005312,-0.002123,82.631922,0.005347,
710,1760,0.764163,-1.295122,0.999997,0.000208,-0.002359,0.005042,-0.000129,0.005044,-0.002361,-88.998543,0.005047,
1030,540,0.318503,-8.100596,0.999998,0.000147,-0.002143,0.004364,-0.000759,0.004451,-0.002230,-83.429864,0.004451,
1730,470,-0.975540,-7.934187,0.999998,0.000161,-0.002533,0.005093,0.000129,0.005095,-0.002535,89.031586,0.005095,
1570,290,-0.387634,-9.025434,0.999997,0.000187,-0.001683,0.004407,-0.000145,0.004411,-0.001687,-88.634942,0.004451,
720,370,0.865108,-8.421902,0.999998,0.000198,-0.002445,0.005066,-0.000038,0.005066,-0.002445,-89.710621,0.005067,
1820,720,-1.603322,-6.510380,0.999998,0.000187,-0.002531,0.005090,-0.000248,0.005099,-0.002539,-88.140965,0.005099,
1440,960,-1.095528,-5.638544,0.999995,0.000301,-0.003143,0.008266,0.000791,0.008320,-0.003197,86.050884,0.008394,
660,1530,1.238994,-2.545642,0.999997,0.000190,-0.002569,0.005133,0.000055,0.005134,-0.002569,89.589562,0.005134,
1870,1420,-1.580724,-3.211726,0.999997,0.000223,-0.002523,0.005069,0.000072,0.005070,-0.002523,89.458316,0.005070,
1740,1570,-1.020748,-2.238935,0.999999,0.000147,-0.002527,0.005126,-0.000116,0.005127,-0.002529,-89.130911,0.005128,
1760,1740,-0.816900,-1.408458,0.999998,0.000175,-0.002426,0.005022,0.000064,0.005022,-0.002426,89.511295,0.005023,
1460,1750,-0.242681,-1.024055,0.999998,0.000158,-0.001242,0.003969,0.000011,0.003969,-0.001242,89.884276,0.004060,
620,240,0.865139,-8.911417,0.999998,0.000184,-0.002434,0.005020,0.000119,0.005021,-0.002436,89.084004,0.005022,
1800,1250,-1.701959,-3.976666,0.999997,0.000189,-0.002453,0.004972,0.000407,0.004994,-0.002475,86.870957,0.004994,
670,780,1.639217,-6.237124,0.999997,0.000187,-0.002539,0.005051,0.000402,0.005072,-0.002560,86.977292,0.005072,
910,1270,0.937737,-3.575860,0.999997,0.000209,-0.003534,0.006204,-0.000080,0.006205,-0.003534,-89.529331,0.006225,
1120,900,0.632327,-6.996519,0.999997,0.000000,-0.000967,0.002776,-0.002801,0.004273,-0.002464,-61.871058,0.004290,
1150,320,0.078746,-9.087141,0.999998,0.000162,-0.001018,0.003612,-0.000044,0.003612,-0.001018,-89.455735,0.003725,
1210,1840,0.015711,-0.618295,0.999998,0.000198,-0.000662,0.003364,0.000025,0.003364,-0.000663,89.640943,0.003564,
1810,380,-1.043020,-8.261686,0.999998,0.000164,-0.002481,0.005057,0.000040,0.005058,-0.002481,89.696965,0.005058,
1480,1380,-0.510624,-2.739407,0.999997,0.000192,-0.003121,0.005345,-0.000952,0.005451,-0.003226,-83.662208,0.005481,
1290,140,-0.022623,-9.706496,0.999999,0.000143,-0.000347,0.003227,-0.000062,0.003228,-0.000348,-89.005299,0.003544,
1900,1670,-1.270806,-1.994652,0.999998,0.000000,-0.002387,0.004913,-0.000092,0.004914,-0.002388,-89.279380,0.004914,
700,1060,1.846968,-4.883248,0.999998,0.000167,-0.002160,0.004756,-0.000157,0.004760,-0.002164,-88.699011,0.004766,
870,60,0.061500,-9.938044,0.999998,0.000142,-0.000395,0.003548,0.000741,0.003683,-0.000530,79.698507,0.003982,
870,650,0.836633,-7.216671,0.999998,0.000168,-0.003062,0.005551,-0.000275,0.005560,-0.003071,-88.172126,0.005570,
1610,510,-0.716886,-7.927494,0.999997,0.000205,-0.002540,0.005051,0.000284,0.005061,-0.002551,87.862729,0.005061,
990,1260,0.662570,-3.414829,0.999995,0.000258,-0.003875,0.006362,0.000701,0.006410,-0.003923,86.103581,0.006463,
1430,1460,-0.328904,-2.213088,0.999998,0.000179,-0.002306,0.004490,-0.000944,0.004619,-0.002434,-82.237526,0.004621,
1120,480,0.147368,-8.476115,0.999998,0.000157,-0.001430,0.003734,-0.000403,0.003766,-0.001461,-85.564376,0.003797,
990,1750,0.258922,-1.034145,0.999998,0.000148,-0.001287,0.004026,-0.000052,0.004026,-0.001288,-89.439171,0.004112,
1030,520,0.310751,-8.190301,0.999998,0.000199,-0.002076,0.004321,-0.000706,0.004398,-0.002153,-83.775871,0.004398,
890,1880,0.231551,-0.569891,0.999998,0.000201,-0.001126,0.004005,-0.000511,0.004055,-0.001177,-84.362657,0.004173,
1520,1250,-0.865898,-3.625833,0.999998,0.000181,-0.003693,0.006417,-0.000056,0.006417,-0.003693,-89.684748,0.006442,
1860,1970,-0.390687,-0.404094,0.999997,0.000196,-0.002324,0.005691,0.001303,0.005898,-0.002531,80.993424,0.005918,
1730,1910,-0.366061,-0.525198,0.999997,0.000186,-0.001459,0.004665,0.001029,0.004833,-0.001627,80.712383,0.004919,
1340,1640,-0.131466,-1.358669,0.999998,0.000160,-0.001336,0.003716,-0.000300,0.003734,-0.001353,-86.615794,0.003781,
740,1500,1.072680,-2.573308,0.999998,0.000184,-0.002680,0.005233,0.000088,0.005234,-0.002681,89.362000,0.005235,
1490,1560,-0.417723,-1.874016,0.999998,0.000179,-0.002142,0.004574,-0.000520,0.004614,-0.002182,-85.600521,0.004616,
760,330,0.709735,-8.681180,0.999997,0.000209,-0.002170,0.004928,0.000103,0.004929,-0.002171,89.171637,0.004941,
700,1250,1.606595,-3.941784,0.999997,0.000206,-0.002612,0.005158,-0.000478,0.005187,-0.002641,-86.489902,0.005188,
810,1510,0.871853,-2.405808,0.999998,0.000166,-0.002672,0.005225,0.000199,0.005230,-0.002677,88.553922,0.005230,
1100,490,0.178057,-8.419289,0.999998,0.000176,-0.001568,0.003857,-0.000516,0.003906,-0.001617,-84.618816,0.003925,
1380,280,-0.132638,-9.202368,0.999998,0.000146,-0.000939,0.003698,-0.000047,0.003698,-0.000940,-89.423824,0.003844,
950,1430,0.568448,-2.556695,0.999997,0.000202,-0.002907,0.005196,0.000686,0.005254,-0.002965,85.195532,0.005268,
600,230,0.889069,-8.917125,0.999998,0.000189,-0.002436,0.004976,0.000102,0.004978,-0.002438,89.210155,0.004978,
1570,270,-0.361962,-9.114682,0.999998,0.000173,-0.001591,0.004328,-0.000217,0.004336,-0.001599,-87.905722,0.004385,
1820,700,-1.564697,-6.611075,0.999997,0.000206,-0.002564,0.005090,-0.000234,0.005097,-0.002571,-88.251279,0.005097,
660,760,1.629287,-6.326479,0.999997,0.000184,-0.002548,0.005032,0.000359,0.005049,-0.002565,87.296449,0.005049,
1720,1570,-0.969536,-2.205878,0.999998,0.000183,-0.002576,0.005128,-0.000128,0.005130,-0.002579,-89.047077,0.005130,
1120,890,0.575193,-7.027848,0.999997,0.000000,-0.001181,0.002726,-0.002364,0.003840,-0.002295,-64.785093,0.003864,
1760,1500,-1.171843,-2.632113,0.999998,0.000169,-0.002643,0.005211,-0.000042,0.005212,-0.002643,-89.691497,0.005212,
1560,1690,-0.454900,-1.379925,0.999996,0.000227,-0.001931,0.004531,-0.000052,0.004532,-0.001932,-89.540327,0.004548,
1010,1840,0.164548,-0.671857,0.999998,0.000170,-0.000841,0.003731,-0.000210,0.003740,-0.000850,-87.380264,0.003921,
1220,1740,0.012254,-0.961609,0.999999,0.000146,-0.000986,0.003502,0.000047,0.003502,-0.000986,89.396427,0.003612,
1310,1520,-0.102960,-1.770914,0.999998,0.000143,-0.001451,0.003515,-0.000524,0.003569,-0.001505,-84.044966,0.003584,
1820,1330,-1.608953,-3.596983,0.999997,0.000199,-0.002527,0.005043,0.000254,0.005051,-0.002535,88.077709,0.005051,
780,480,0.869374,-7.958076,0.999998,0.000167,-0.002528,0.005074,-0.000160,0.005078,-0.002531,-88.791814,0.005078,
630,1020,2.008257,-5.074376,0.999998,0.000181,-0.002115,0.004526,0.000073,0.004526,-0.002115,89.368378,0.004530,
1900,1660,-1.286348,-2.043808,0.999998,0.000000,-0.002350,0.004912,-0.000060,0.004913,-0.002350,-89.529813,0.004914,
580,130,0.636374,-9.378540,0.999996,0.000244,-0.003259,0.005251,0.000393,0.005269,-0.003277,87.364505,0.005321,
1850,270,-0.948585,-8.744572,0.999998,0.000164,-0.002416,0.004999,-0.000074,0.004999,-0.002417,-89.430247,0.005000,
1270,140,-0.015283,-9.709372,0.999998,0.000168,-0.000368,0.003204,-0.000028,0.003204,-0.000368,-89.556344,0.003506,
1440,940,-1.027768,-5.801378,0.999996,0.000227,-0.003137,0.007657,0.000677,0.007699,-0.003179,86.423924,0.007738,
1480,1360,-0.532273,-2.845274,0.999997,0.000207,-0.003264,0.005478,-0.000948,0.005579,-0.003366,-83.882339,0.005619,
830,60,0.077086,-9.937473,0.999999,0.000141,-0.000265,0.003612,0.000920,0.003820,-0.000473,77.307688,0.004165,
620,220,0.816288,-9.012483,0.999998,0.000188,-0.002442,0.005094,0.000186,0.005099,-0.002446,88.589240,0.005100,
870,630,0.809462,-7.326571,0.999998,0.000170,-0.002964,0.005446,-0.000304,0.005457,-0.002975,-87.929771,0.005464,
1130,1520,0.136385,-1.797342,0.999999,0.000141,-0.001513,0.003647,0.000551,0.003705,-0.001571,83.967004,0.003719,
1470,800,-0.661058,-6.644006,0.999997,0.000215,-0.003856,0.006372,0.000698,0.006420,-0.003903,86.115195,0.006469,
1430,1440,-0.335267,-2.302761,0.999997,0.000188,-0.002425,0.004560,-0.001046,0.004713,-0.002579,-81.661494,0.004720,
700,1040,1.855243,-4.979394,0.999998,0.000156,-0.002164,0.004790,-0.000117,0.004792,-0.002166,-89.035751,0.004800,
1120,460,0.144090,-8.551456,0.999998,0.000176,-0.001381,0.003723,-0.000351,0.003747,-0.001405,-86.082967,0.003786,
990,1730,0.273175,-1.114618,0.999998,0.000163,-0.001359,0.004084,0.000009,0.004084,-0.001359,89.906799,0.004159,
1030,500,0.303057,-8.277614,0.999997,0.000191,-0.001976,0.004288,-0.000612,0.004347,-0.002035,-84.473449,0.004350,
1260,210,-0.019962,-9.477811,0.999998,0.000173,-0.000626,0.003370,-0.000002,0.003370,-0.000626,-89.968810,0.003585,
730,1320,1.397985,-3.544915,0.999998,0.000203,-0.002794,0.005349,-0.000363,0.005365,-0.002810,-87.451472,0.005367,
1610,490,-0.697965,-8.026628,0.999997,0.000206,-0.002467,0.005002,0.000291,0.005013,-0.002478,87.769908,0.005013,
740,1480,1.102303,-2.680654,0.999998,0.000168,-0.002708,0.005242,0.000054,0.005242,-0.002709,89.607973,0.005243,
1310,1900,-0.033280,-0.422410,0.999998,0.000153,-0.000395,0.003281,0.000092,0.003283,-0.000397,88.567777,0.003584,
1490,1080,-1.266296,-4.688359,0.999998,0.000166,-0.002285,0.006695,0.000387,0.006711,-0.002301,87.538377,0.006821,
600,210,0.838642,-9.018639,0.999998,0.000185,-0.002444,0.004996,0.000163,0.005000,-0.002448,88.749063,0.005000,
1100,470,0.174013,-8.495317,0.999998,0.000188,-0.001486,0.003816,-0.000441,0.003853,-0.001523,-85.273876,0.003881,
670,1940,0.381923,-0.443220,0.999998,0.000192,-0.001589,0.005044,-0.001403,0.005329,-0.001873,-78.531077,0.005406,
810,790,1.274502,-6.323036,0.999997,0.000207,-0.003001,0.005664,0.000471,0.005690,-0.003026,86.899082,0.005694,
1570,250,-0.336514,-9.198995,0.999998,0.000175,-0.001494,0.004268,-0.000276,0.004281,-0.001507,-87.267093,0.004343,
1460,1730,-0.256544,-1.104737,0.999998,0.000164,-0.001309,0.004060,-0.000005,0.004060,-0.001309,-89.944190,0.004144,
1730,1890,-0.421108,-0.621411,0.999997,0.000187,-0.001638,0.004783,0.000908,0.004909,-0.001763,82.107163,0.004974,
1120,30,0.005588,-10.048047,0.999999,0.000000,-0.000045,0.002992,0.000122,0.002997,-0.000050,87.705276,0.003432,
740,330,0.753386,-8.655368,0.999998,0.000173,-0.002294,0.004968,0.000089,0.004970,-0.002295,89.297195,0.004974,
660,1710,0.969196,-1.629454,0.999998,0.000141,-0.002459,0.005047,0.000016,0.005047,-0.002459,89.875041,0.005048,
1340,1620,-0.136091,-1.434525,0.999998,0.000188,-0.001348,0.003738,-0.000308,0.003756,-0.001366,-86.546560,0.003803,
1380,260,-0.123670,-9.273870,0.999998,0.000151,-0.000861,0.003604,-0.000074,0.003605,-0.000862,-89.053411,0.003765,
1900,1650,-1.302463,-2.092636,0.999998,0.000000,-0.002334,0.004929,-0.000027,0.004929,-0.002334,-89.785871,0.004932,
650,780,1.689985,-6.215434,0.999998,0.000159,-0.002510,0.005001,0.000363,0.005019,-0.002528,87.242899,0.005019,
1120,1330,0.154723,-2.492920,0.999998,0.000194,-0.002163,0.003541,0.001809,0.004066,-0.002688,73.804170,0.004136,
1560,1670,-0.476716,-1.471360,0.999997,0.000189,-0.002028,0.004605,-0.000138,0.004608,-0.002031,-88.807942,0.004619,
1760,1460,-1.231676,-2.841990,0.999998,0.000176,-0.002677,0.005190,0.000026,0.005190,-0.002677,89.811032,0.005191,
810,60,0.082791,-9.935454,0.999999,0.000134,-0.000442,0.003670,0.000965,0.003885,-0.000657,77.424079,0.004159,
1820,680,-1.529964,-6.713826,0.999997,0.000206,-0.002585,0.005089,-0.000190,0.005094,-0.002590,-88.582721,0.005094,
1250,1840,-0.012437,-0.619420,0.999999,0.000146,-0.000671,0.003376,-0.000024,0.003376,-0.000671,-89.658276,0.003574,
870,610,0.784335,-7.435923,0.999997,0.000182,-0.002889,0.005327,-0.000325,0.005340,-0.002902,-87.738425,0.005346,
1350,140,-0.046420,-9.701058,0.999999,0.000141,-0.000439,0.003277,-0.000124,0.003281,-0.000444,-88.086194,0.003561,
700,1020,1.857573,-5.076283,0.999998,0.000159,-0.002162,0.004826,0.000082,0.004827,-0.002163,89.329085,0.004836,
950,1410,0.585531,-2.661190,0.999997,0.000206,-0.003006,0.005315,0.000706,0.005375,-0.003066,85.184836,0.005392,
620,200,0.763904,-9.115630,0.999997,0.000195,-0.002442,0.005064,0.000233,0.005071,-0.002449,88.222329,0.005072,
990,1710,0.289467,-1.196664,0.999998,0.000172,-0.001456,0.004124,0.000100,0.004126,-0.001458,88.969905,0.004185,
1440,920,-0.947737,-5.942036,0.999997,0.000221,-0.003275,0.007365,0.000624,0.007402,-0.003312,86.652777,0.007415,
1090,400,0.170493,-8.753888,0.999998,0.000168,-0.001320,0.003804,-0.000225,0.003814,-0.001330,-87.484935,0.003872,
1860,1610,-1.265968,-2.227762,0.999997,0.000198,-0.002469,0.005022,-0.000045,0.005022,-0.002469,-89.657128,0.005023,
910,1710,0.419873,-1.280708,0.999998,0.000209,-0.001754,0.004490,-0.000018,0.004490,-0.001754,-89.833708,0.004526,
1490,1900,-0.133918,-0.460266,0.999999,0.000137,-0.000765,0.003647,0.000365,0.003677,-0.000795,85.299133,0.003870,
1770,1020,-1.871619,-5.075915,0.999998,0.000157,-0.002180,0.004785,-0.000071,0.004786,-0.002181,-89.415088,0.004792,
740,1460,1.132128,-2.783879,0.999998,0.000165,-0.002717,0.005245,-0.000007,0.005245,-0.002717,-89.951389,0.005247,
590,610,1.548949,-6.990439,0.999996,0.000243,-0.002756,0.004961,0.000013,0.004961,-0.002756,89.904960,0.004971,
1480,1340,-0.553357,-2.959032,0.999997,0.000222,-0.003419,0.005640,-0.000939,0.005737,-0.003515,-84.142323,0.005785,
1120,440,0.140261,-8.625187,0.999998,0.000195,-0.001353,0.003757,-0.000303,0.003774,-0.001371,-86.619801,0.003821,
1890,300,-1.103611,-8.519551,0.999998,0.000171,-0.002409,0.004848,0.000026,0.004848,-0.002409,89.792488,0.004848,
1380,310,-0.146556,-9.089404,0.999999,0.000161,-0.001036,0.003748,0.000029,0.003748,-0.001036,89.656785,0.003871,
650,1980,0.244207,-0.253090,0.999998,0.000180,-0.001184,0.005072,-0.001826,0.005566,-0.001678,-74.864231,0.005711,
1570,230,-0.308368,-9.285425,0.999998,0.000185,-0.001402,0.004243,-0.000354,0.004266,-0.001424,-86.426309,0.004343,
1110,1520,0.167351,-1.819597,0.999998,0.000166,-0.001657,0.003790,0.000665,0.003870,-0.001737,83.135906,0.003877,
1580,230,-0.324795,-9.277343,0.999997,0.000188,-0.001497,0.004279,-0.000353,0.004301,-0.001519,-86.520494,0.004362,
1610,820,-1.207621,-6.197293,0.999997,0.000196,-0.003124,0.005886,-0.000534,0.005917,-0.003155,-86.620743,0.005922,
1160,30,0.002210,-10.048970,0.999999,0.000000,-0.000050,0.002995,0.000103,0.002998,-0.000053,88.058506,0.003432,
720,570,1.148088,-7.395667,0.999998,0.000157,-0.002688,0.005191,-0.000060,0.005191,-0.002689,-89.567194,0.005192,
600,470,1.310209,-7.720196,0.999997,0.000199,-0.002508,0.005074,-0.000040,0.005074,-0.002508,-89.701379,0.005075,
580,1830,0.926076,-1.180017,0.999998,0.000166,-0.002452,0.004946,-0.000129,0.004948,-0.002454,-88.998248,0.004948,
1900,1640,-1.318032,-2.142242,0.999998,0.000000,-0.002385,0.004950,-0.000003,0.004950,-0.002385,-89.973948,0.004951,
1300,690,-0.080058,-7.828693,0.999999,0.000146,-0.001419,0.002823,0.001115,0.003098,-0.001694,76.138965,0.003102,
640,1710,1.019577,-1.662838,0.999998,0.000185,-0.002452,0.005050,0.000013,0.005050,-0.002452,89.897906,0.005050,
1730,1870,-0.472811,-0.716158,0.999998,0.000181,-0.001767,0.004776,0.000775,0.004866,-0.001857,83.335520,0.004912,
830,1320,1.102185,-3.416489,0.999998,0.000194,-0.003125,0.005739,-0.000211,0.005744,-0.003130,-88.636085,0.005752,
1380,240,-0.111857,-9.347741,0.999998,0.000170,-0.000772,0.003638,-0.000098,0.003640,-0.000774,-88.723919,0.003835,
1610,470,-0.677293,-8.127386,0.999997,0.000197,-0.002424,0.004951,0.000246,0.004959,-0.002432,88.087856,0.004959,
820,840,1.351163,-6.046384,0.999997,0.000204,-0.002865,0.005623,0.000615,0.005667,-0.002909,85.878505,0.005668,
810,80,0.126720,-9.859573,0.999999,0.000140,-0.000605,0.003832,0.000980,0.004038,-0.000812,78.084385,0.004272,
1550,1460,-0.644348,-2.478544,0.999997,0.000216,-0.002831,0.005213,-0.000513,0.005246,-0.002864,-86.364588,0.005253,
620,180,0.706844,-9.214883,0.999997,0.000192,-0.002428,0.005156,0.000362,0.005173,-0.002446,87.273563,0.005175,
1800,1330,-1.558706,-3.571187,0.999997,0.000187,-0.002579,0.005122,0.000272,0.005132,-0.002588,87.982102,0.005132,
730,1640,0.906343,-1.871645,0.999998,0.000155,-0.002443,0.005061,0.000077,0.005062,-0.002444,89.409933,0.005063,
660,780,1.664102,-6.225517,0.999998,0.000176,-0.002534,0.005025,0.000389,0.005045,-0.002554,87.059848,0.005045,
1330,140,-0.037509,-9.704199,0.999998,0.000137,-0.000466,0.003271,-0.000106,0.003274,-0.000469,-88.374334,0.003541,
870,590,0.761148,-7.539103,0.999997,0.000198,-0.002811,0.005304,-0.000349,0.005319,-0.002826,-87.544702,0.005322,
1820,660,-1.495413,-6.814411,0.999998,0.000184,-0.002612,0.005116,-0.000139,0.005118,-0.002614,-88.969328,0.005118,
1480,1320,-0.579605,-3.073120,0.999997,0.000208,-0.003570,0.005840,-0.000875,0.005921,-0.003650,-84.733636,0.005974,
1470,1900,-0.120303,-0.456619,0.999998,0.000166,-0.000578,0.003596,0.000355,0.003626,-0.000608,85.176865,0.003884,
1340,1600,-0.138965,-1.508880,0.999998,0.000184,-0.001379,0.003737,-0.000349,0.003760,-0.001403,-86.112638,0.003801,
1720,1630,-0.888163,-1.900706,0.999999,0.000142,-0.002473,0.005066,-0.000089,0.005068,-0.002474,-89.320342,0.005068,
780,1920,0.281510,-0.456378,0.999997,0.000191,-0.001276,0.004298,-0.000918,0.004445,-0.001423,-80.879686,0.004540,
1150,760,0.104590,-7.596860,0.999998,0.000163,-0.001842,0.002746,-0.001867,0.003410,-0.002506,-70.426267,0.003533,
1440,900,-0.867790,-6.088945,0.999997,0.000207,-0.003466,0.007199,0.000630,0.007236,-0.003504,86.629405,0.007237,
990,1690,0.302734,-1.279028,0.999998,0.000189,-0.001565,0.004200,0.000171,0.004205,-0.001570,88.305951,0.004249,
1230,1840,0.001315,-0.616591,0.999998,0.000161,-0.000688,0.003364,0.000001,0.003364,-0.000688,89.986323,0.003554,
1160,870,0.377597,-7.414350,0.999997,0.000000,-0.002472,0.001318,-0.000555,0.001398,-0.002551,-81.831518,0.002555,
1720,1050,-1.759031,-4.928845,0.999998,0.000177,-0.002113,0.004868,0.000166,0.004872,-0.002117,88.639282,0.004886,
1120,640,0.154012,-7.888477,0.999998,0.000164,-0.001812,0.003565,-0.001171,0.003809,-0.002056,-78.234705,0.003813,
700,1000,1.849575,-5.174059,0.999998,0.000153,-0.002165,0.004786,0.000168,0.004790,-0.002169,88.614929,0.004797,
1220,1720,0.012777,-1.032643,0.999999,0.000134,-0.001024,0.003502,0.000065,0.003502,-0.001025,89.171875,0.003601,
1570,210,-0.280676,-9.369472,0.999998,0.000188,-0.001308,0.004141,-0.000430,0.004175,-0.001342,-85.516181,0.004262,
950,1390,0.605624,-2.771403,0.999997,0.000198,-0.003117,0.005474,0.000709,0.005532,-0.003175,85.311055,0.005552,
1760,1440,-1.263245,-2.944861,0.999998,0.000181,-0.002686,0.005212,0.000059,0.005213,-0.002686,89.574930,0.005214,
1280,690,-0.053539,-7.867302,0.999999,0.000165,-0.001271,0.002518,0.000864,0.002706,-0.001459,77.748172,0.002709,
600,450,1.279899,-7.822231,0.999998,0.000172,-0.002488,0.005032,-0.000062,0.005033,-0.002488,-89.524443,0.005033,
880,710,0.894756,-6.894745,0.999998,0.000151,-0.003291,0.005825,-0.000112,0.005827,-0.003293,-89.297470,0.005843,
600,1710,1.116639,-1.733661,0.999998,0.000173,-0.002435,0.004968,0.000069,0.004968,-0.002436,89.462702,0.004968,
570,1830,0.950893,-1.203765,0.999997,0.000195,-0.002461,0.004956,-0.000119,0.004958,-0.002463,-89.077674,0.004958,
1460,1330,-0.497835,-2.947339,0.999997,0.000196,-0.003405,0.005551,-0.001144,0.005695,-0.003548,-82.832155,0.005753,
1900,1630,-1.333237,-2.192491,0.999998,0.000000,-0.002461,0.004965,0.000020,0.004965,-0.002461,89.847457,0.004965,
740,1440,1.162406,-2.889796,0.999998,0.000157,-0.002741,0.005295,-0.000039,0.005295,-0.002741,-89.722774,0.005297,
820,880,1.433405,-5.821527,0.999998,0.000208,-0.002643,0.005543,0.000671,0.005597,-0.002698,85.341610,0.005598,
1380,440,-0.192453,-8.594017,0.999998,0.000175,-0.001546,0.003936,0.000421,0.003968,-0.001578,85.632733,0.003996,
620,160,0.644620,-9.320860,0.999998,0.000196,-0.002461,0.005213,0.000440,0.005238,-0.002486,86.725870,0.005241,
810,120,0.211196,-9.700454,0.999999,0.000166,-0.000962,0.004119,0.000888,0.004270,-0.001113,80.370738,0.004430,
1530,1460,-0.589260,-2.439457,0.999997,0.000206,-0.002781,0.005147,-0.000605,0.005193,-0.002827,-85.662203,0.005200,
1610,450,-0.654662,-8.224258,0.999998,0.000200,-0.002369,0.004907,0.000227,0.004914,-0.002376,88.217645,0.004915,
1480,1300,-0.613031,-3.192753,0.999997,0.000214,-0.003704,0.006051,-0.000809,0.006117,-0.003770,-85.288992,0.006172,
870,570,0.739289,-7.648059,0.999997,0.000194,-0.002767,0.005245,-0.000369,0.005262,-0.002783,-87.371644,0.005265,
1740,1630,-0.936733,-1.932745,0.999998,0.000170,-0.002463,0.005050,-0.000085,0.005051,-0.002464,-89.350051,0.005051,
1570,190,-0.250626,-9.452010,0.999998,0.000184,-0.001193,0.004065,-0.000480,0.004108,-0.001236,-84.821542,0.004215,
1900,1620,-1.350698,-2.242165,0.999997,0.000000,-0.002496,0.004965,0.000004,0.004965,-0.002496,89.971312,0.004965,
1730,1850,-0.523279,-0.812500,0.999997,0.000183,-0.001893,0.004881,0.000683,0.004949,-0.001961,84.300740,0.004984,
1630,1180,-1.387994,-4.219715,0.999997,0.000199,-0.002728,0.005660,0.000681,0.005715,-0.002783,85.389566,0.005716,
1820,640,-1.461819,-6.918704,0.999998,0.000186,-0.002604,0.005131,-0.000088,0.005132,-0.002605,-89.345516,0.005132,
1810,1760,-0.900180,-1.387150,0.999998,0.000185,-0.002402,0.005091,0.000117,0.005093,-0.002403,89.108160,0.005096,
1650,1090,-1.586634,-4.718419,0.999997,0.000220,-0.002132,0.005225,0.000472,0.005255,-0.002162,86.346880,0.005283,
1090,150,0.059634,-9.664155,0.999998,0.000131,-0.000414,0.003374,0.000182,0.003383,-0.000423,87.260840,0.003686,
1190,350,0.043985,-8.988352,0.999999,0.000143,-0.000993,0.003503,-0.000061,0.003504,-0.000994,-89.224846,0.003612,
660,1220,1.759635,-4.126129,0.999997,0.000189,-0.002390,0.004840,-0.000395,0.004862,-0.002411,-86.882660,0.004862,
780,1900,0.330039,-0.547349,0.999997,0.000195,-0.001475,0.004480,-0.000862,0.004603,-0.001597,-81.929448,0.004674,
770,540,0.973524,-7.634026,0.999997,0.000191,-0.002665,0.005195,-0.000142,0.005198,-0.002668,-88.966416,0.005198,
710,1640,0.955647,-1.902324,0.999998,0.000141,-0.002440,0.005064,0.000082,0.005065,-0.002441,89.374032,0.005066,
640,1830,0.778968,-1.051602,0.999997,0.000217,-0.002356,0.005098,-0.000293,0.005110,-0.002368,-87.754525,0.005114,
590,1710,1.140048,-1.752142,0.999999,0.000158,-0.002443,0.004948,0.000063,0.004949,-0.002443,89.511439,0.004949,
640,1530,1.289546,-2.577055,0.999998,0.000173,-0.002550,0.005131,0.000052,0.005131,-0.002550,89.611210,0.005131,
700,980,1.839806,-5.268240,0.999998,0.000162,-0.002187,0.004729,0.000127,0.004731,-0.002189,88.948230,0.004735,
1050,400,0.231817,-8.714548,0.999998,0.000189,-0.001579,0.004023,-0.000317,0.004040,-0.001596,-86.772676,0.004070,
1810,1980,-0.241134,-0.251651,0.999998,0.000158,-0.001046,0.005024,0.001883,0.005561,-0.001583,74.088535,0.005730,
670,660,1.424378,-6.852906,0.999997,0.000219,-0.002647,0.005188,0.000154,0.005191,-0.002650,88.877329,0.005191,
860,710,0.960832,-6.858983,0.999997,0.000184,-0.003220,0.005788,-0.000004,0.005788,-0.003220,-89.974821,0.005800,
580,610,1.573179,-6.974816,0.999996,0.000239,-0.003655,0.004474,0.000024,0.004474,-0.003655,89.831460,0.004764,
910,1690,0.441672,-1.370571,0.999997,0.000201,-0.001836,0.004533,0.000038,0.004534,-0.001836,89.660323,0.004561,
950,1370,0.628630,-2.881816,0.999997,0.000205,-0.003240,0.005600,0.000694,0.005654,-0.003294,85.539732,0.005680,
1700,1050,-1.717035,-4.928202,0.999997,0.000186,-0.002117,0.004921,0.000191,0.004926,-0.002123,88.443123,0.004942,
1510,1660,-0.391588,-1.455533,0.999997,0.000213,-0.001870,0.004419,-0.000236,0.004428,-0.001879,-87.855422,0.004445,
1760,1420,-1.295744,-3.050402,0.999997,0.000190,-0.002722,0.005209,0.000103,0.005210,-0.002723,89.254240,0.005212,
1370,1670,-0.164237,-1.267835,0.999998,0.000166,-0.001250,0.003827,-0.000162,0.003832,-0.001255,-88.172496,0.003907,
1440,880,-0.788013,-6.231339,0.999996,0.000223,-0.003664,0.007000,0.000664,0.007041,-0.003705,86.449518,0.007044,
990,1670,0.316426,-1.365120,0.999998,0.000189,-0.001698,0.004254,0.000228,0.004263,-0.001706,87.805541,0.004291,
1180,690,0.057249,-7.861579,0.999998,0.000161,-0.001316,0.002582,-0.000931,0.002793,-0.001527,-77.235240,0.002797,
1420,890,-0.757950,-6.287694,0.999997,0.000209,-0.003459,0.006898,0.001299,0.007058,-0.003619,82.960971,0.007059,
1340,1580,-0.142139,-1.583196,0.999998,0.000162,-0.001414,0.003692,-0.000369,0.003719,-0.001440,-85.890848,0.003750,
660,1130,1.884290,-4.559764,0.999998,0.000157,-0.002270,0.004726,-0.000337,0.004742,-0.002286,-87.250819,0.004743,
1120,1350,0.152970,-2.420117,0.999998,0.000179,-0.002056,0.003547,0.001633,0.003988,-0.002497,74.878394,0.004030,
620,140,0.576772,-9.425448,0.999997,0.000195,-0.002467,0.005255,0.000593,0.005300,-0.002513,85.634743,0.005303,
1040,380,0.236502,-8.783845,0.999998,0.000184,-0.001514,0.004055,-0.000237,0.004065,-0.001524,-87.571414,0.004107,
1580,630,-0.770665,-7.352485,0.999998,0.000172,-0.002993,0.005452,0.000376,0.005468,-0.003010,87.452380,0.005478,
1280,310,-0.046848,-9.128816,0.999998,0.000164,-0.000926,0.003531,0.000028,0.003531,-0.000926,89.643037,0.003662,
1160,1180,0.416038,-2.666935,0.999997,0.000000,-0.002658,0.001247,0.000565,0.001327,-0.002738,81.926345,0.002739,
1220,1700,0.012094,-1.102956,0.999999,0.000143,-0.001076,0.003539,0.000058,0.003539,-0.001077,89.278743,0.003629,
840,470,0.706957,-8.105379,0.999998,0.000167,-0.002439,0.004976,-0.000219,0.004983,-0.002446,-88.307328,0.004983,
1220,1710,0.012540,-1.066532,0.999999,0.000148,-0.001051,0.003514,0.000067,0.003515,-0.001052,89.154485,0.003608,
1610,430,-0.631518,-8.325086,0.999997,0.000190,-0.002309,0.004886,0.000206,0.004892,-0.002315,88.359001,0.004894,
1790,1760,-0.852049,-1.355161,0.999998,0.000149,-0.002368,0.005067,0.000144,0.005069,-0.002370,88.893222,0.005073,
810,100,0.168874,-9.782683,0.999998,0.000185,-0.000790,0.003949,0.000938,0.004128,-0.000969,79.196696,0.004317,
990,1020,1.289204,-5.092012,0.999997,0.000213,-0.002256,0.007188,0.000031,0.007188,-0.002256,89.814735,0.007352,
780,1880,0.376170,-0.635440,0.999997,0.000186,-0.001632,0.004482,-0.000752,0.004573,-0.001723,-83.086517,0.004619,
1220,270,0.010073,-9.273787,0.999998,0.000139,-0.000845,0.003480,-0.000023,0.003480,-0.000845,-89.693430,0.003630,
1140,1770,0.079390,-0.871683,0.999998,0.000151,-0.000950,0.003571,0.000051,0.003572,-0.000951,89.351827,0.003700,
580,1710,1.164514,-1.770337,0.999998,0.000164,-0.002320,0.004925,0.000051,0.004925,-0.002320,89.597406,0.004928,
1690,1490,-0.997878,-2.573820,0.999998,0.000180,-0.002728,0.005263,-0.000103,0.005265,-0.002729,-89.265169,0.005266,
1730,1830,-0.570744,-0.911959,0.999998,0.000168,-0.001978,0.004882,0.000582,0.004931,-0.002027,85.187780,0.004957,
770,520,0.946358,-7.736785,0.999998,0.000143,-0.002616,0.005167,-0.000143,0.005169,-0.002619,-88.947443,0.005170,
1330,400,-0.116765,-8.784563,0.999998,0.000168,-0.001304,0.003659,0.000275,0.003674,-0.001319,86.837968,0.003722,
1630,1160,-1.428421,-4.332120,0.999997,0.000208,-0.002566,0.005567,0.000667,0.005621,-0.002620,85.344307,0.005625,
700,1930,0.366039,-0.466826,0.999998,0.000177,-0.001827,0.004766,-0.001118,0.004950,-0.002011,-80.634614,0.004979,
620,1530,1.341404,-2.609176,0.999997,0.000182,-0.002538,0.005108,0.000034,0.005108,-0.002538,89.742149,0.005108,
1820,620,-1.428608,-7.020232,0.999997,0.000198,-0.002598,0.005076,-0.000074,0.005076,-0.002598,-89.450837,0.005077,
1650,700,-1.091153,-6.837777,0.999997,0.000227,-0.002999,0.005619,-0.000097,0.005620,-0.003000,-89.357091,0.005624,
740,1420,1.195522,-2.995750,0.999997,0.000181,-0.002750,0.005301,-0.000069,0.005302,-0.002751,-89.511479,0.005303,
1570,170,-0.220641,-9.531225,0.999998,0.000192,-0.001074,0.003975,-0.000523,0.004028,-0.001128,-84.144298,0.004156,
1310,1500,-0.102891,-1.841145,0.999999,0.000132,-0.001461,0.003467,-0.000574,0.003533,-0.001527,-83.443401,0.003544,
1190,330,0.042122,-9.057616,0.999999,0.000150,-0.000961,0.003545,-0.000045,0.003545,-0.000961,-89.431642,0.003667,
1480,1280,-0.647490,-3.315162,0.999997,0.000206,-0.003796,0.006189,-0.000730,0.006242,-0.003849,-85.841752,0.006298,
890,700,0.845830,-6.972039,0.999997,0.000180,-0.003277,0.005773,-0.000222,0.005779,-0.003283,-88.592782,0.005797,
1250,1380,-0.020069,-2.143788,0.999998,0.000143,-0.001080,0.002419,-0.000339,0.002452,-0.001112,-84.523497,0.002455,
1650,1070,-1.604760,-4.822861,0.999997,0.000190,-0.002059,0.005135,0.000267,0.005145,-0.002069,87.874791,0.005178,
700,960,1.831595,-5.363740,0.999997,0.000184,-0.002215,0.004838,0.000272,0.004848,-0.002226,87.797599,0.004854,
1090,130,0.052316,-9.730799,0.999998,0.000130,-0.000345,0.003279,0.000184,0.003288,-0.000354,87.107935,0.003610,
1810,1960,-0.332159,-0.355583,0.999997,0.000183,-0.001374,0.005025,0.001623,0.005413,-0.001762,76.551139,0.005522,
870,550,0.717054,-7.751725,0.999998,0.000188,-0.002670,0.005164,-0.000362,0.005181,-0.002687,-87.358231,0.005182,
1510,290,-0.299338,-9.075932,0.999998,0.000185,-0.001536,0.004142,-0.000070,0.004142,-0.001537,-89.294785,0.004188,
860,990,1.515199,-5.237918,0.999997,0.000202,-0.001973,0.005324,0.000302,0.005336,-0.001986,87.635887,0.005394,
1780,570,-1.246168,-7.338576,0.999998,0.000148,-0.002630,0.005172,0.000016,0.005172,-0.002630,89.882351,0.005172,
1390,70,-0.022875,-9.923141,0.999999,0.000141,-0.000169,0.003132,-0.000232,0.003148,-0.000185,-85.993937,0.003533,
980,1990,0.039711,-0.145564,0.999999,0.000128,-0.000247,0.003288,-0.000416,0.003336,-0.000295,-83.380726,0.003694,
910,1670,0.461998,-1.462487,0.999997,0.000196,-0.001959,0.004566,0.000143,0.004569,-0.001962,88.746994,0.004584,
630,1280,1.730107,-3.861827,0.999998,0.000169,-0.002469,0.004947,-0.000299,0.004959,-0.002481,-87.691563,0.004959,
1850,250,-0.902317,-8.847200,0.999998,0.000177,-0.002422,0.004997,-0.000084,0.004998,-0.002423,-89.354571,0.004999,
1320,630,-0.114639,-7.972473,0.999998,0.000157,-0.001561,0.003284,0.000935,0.003458,-0.001735,79.442307,0.003458,
1560,630,-0.711007,-7.394291,0.999997,0.000224,-0.003012,0.005427,0.000475,0.005453,-0.003039,86.788741,0.005465,
990,1650,0.330373,-1.451009,0.999997,0.000198,-0.001816,0.004306,0.000330,0.004324,-0.001834,86.926824,0.004341,
1440,860,-0.711528,-6.376393,0.999997,0.000218,-0.003829,0.006831,0.000782,0.006888,-0.003887,85.828010,0.006907,
1220,1680,0.013059,-1.172891,0.999998,0.000147,-0.001104,0.003525,0.000060,0.003526,-0.001105,89.261299,0.003607,
1580,1590,-0.598215,-1.879631,0.999997,0.000194,-0.002323,0.004832,-0.000304,0.004845,-0.002336,-87.573628,0.004846,
1060,1390,0.284304,-2.455472,0.999997,0.000209,-0.002520,0.004510,0.001377,0.004770,-0.002780,79.304575,0.004792,
620,120,0.501227,-9.530513,0.999996,0.000214,-0.002427,0.005350,0.000736,0.005419,-0.002496,84.638680,0.005425,
580,780,1.858816,-6.126885,0.999997,0.000202,-0.002520,0.004763,0.000039,0.004763,-0.002521,89.690801,0.004765,
1410,940,-0.928635,-5.998603,0.999996,0.000230,-0.003197,0.007894,0.002709,0.008521,-0.003823,76.981398,0.008536,
1340,1560,-0.145853,-1.656550,0.999998,0.000153,-0.001455,0.003683,-0.000437,0.003720,-0.001492,-85.170070,0.003744,
1160,1190,0.350164,-2.654511,0.999997,0.000000,-0.002627,0.001464,0.000486,0.001521,-0.002684,83.319687,0.002692,
950,1350,0.652668,-2.996188,0.999997,0.000197,-0.003375,0.005730,0.000653,0.005777,-0.003422,85.920605,0.005810,
1190,1840,0.028336,-0.621095,0.999998,0.000171,-0.000611,0.003391,-0.000011,0.003391,-0.000611,-89.845657,0.003615,
1440,310,-0.221023,-9.049537,0.999998,0.000178,-0.001286,0.003918,0.000050,0.003918,-0.001287,89.455014,0.003994,
1310,1480,-0.103454,-1.909360,0.999999,0.000157,-0.001469,0.003376,-0.000635,0.003458,-0.001550,-82.654412,0.003465,
1450,1760,-0.224056,-0.978482,0.999998,0.000163,-0.001224,0.003923,0.000017,0.003923,-0.001224,89.812338,0.004015,
680,1390,1.408162,-3.239090,0.999997,0.000215,-0.002654,0.005186,-0.000160,0.005189,-0.002657,-88.832280,0.005190,
1140,770,0.127759,-7.524607,0.999997,0.000237,-0.002134,0.002981,-0.002026,0.003686,-0.002840,-70.806785,0.003861,
790,280,0.565184,-8.962840,0.999997,0.000188,-0.002142,0.004774,0.000244,0.004783,-0.002151,87.984974,0.004791,
1380,1550,-0.208999,-1.746486,0.999997,0.000184,-0.001738,0.003974,-0.000670,0.004051,-0.001816,-83.397116,0.004059,
1760,1400,-1.331220,-3.154399,0.999998,0.000198,-0.002746,0.005233,0.000161,0.005236,-0.002749,88.841596,0.005238,
1190,310,0.039575,-9.129596,0.999999,0.000137,-0.000919,0.003572,-0.000034,0.003573,-0.000919,-89.561059,0.003710,
780,1860,0.420593,-0.726701,0.999997,0.000190,-0.001765,0.004608,-0.000656,0.004675,-0.001832,-84.180934,0.004711,
1610,410,-0.610483,-8.422204,0.999997,0.000183,-0.002213,0.004803,0.000147,0.004806,-0.002216,88.803252,0.004811,
990,1380,0.490663,-2.717267,0.999996,0.000237,-0.003110,0.005314,0.001000,0.005431,-0.003227,83.324242,0.005463,
700,940,1.808366,-5.462763,0.999998,0.000175,-0.002269,0.004904,0.000376,0.004924,-0.002288,87.007210,0.004928,
920,270,0.325392,-9.134062,0.999998,0.000183,-0.001333,0.004202,0.000194,0.004209,-0.001340,87.990762,0.004300,
890,680,0.817050,-7.088151,0.999998,0.000161,-0.003222,0.005672,-0.000277,0.005681,-0.003231,-88.215499,0.005699,
1550,60,-0.050815,-9.944202,0.999998,0.000153,-0.000173,0.003386,-0.000620,0.003491,-0.000278,-80.398588,0.003880,
1390,110,-0.044742,-9.793439,0.999998,0.000146,-0.000309,0.003294,-0.000234,0.003309,-0.000324,-86.301795,0.003649,
990,1000,1.271720,-5.239706,0.999996,0.000240,-0.002318,0.007401,0.000096,0.007402,-0.002319,89.436782,0.007572,
1030,920,0.926326,-5.985393,0.999997,0.000209,-0.003291,0.007381,-0.000925,0.007460,-0.003370,-85.084894,0.007472,
1180,1510,0.064984,-1.779608,0.999998,0.000164,-0.001308,0.003361,0.000329,0.003384,-0.001332,85.994413,0.003410,
1510,200,-0.203481,-9.439387,0.999998,0.000170,-0.001118,0.003905,-0.000318,0.003925,-0.001138,-86.388368,0.004039,
800,1850,0.405165,-0.754452,0.999997,0.000189,-0.001729,0.004519,-0.000574,0.004572,-0.001781,-84.790844,0.004609,
1850,230,-0.859499,-8.945373,0.999998,0.000169,-0.002421,0.004994,-0.000129,0.004997,-0.002423,-89.006401,0.004997,
910,1650,0.481294,-1.555688,0.999997,0.000194,-0.002094,0.004628,0.000203,0.004634,-0.002100,88.270728,0.004641,
870,530,0.696704,-7.855113,0.999998,0.000192,-0.002570,0.005092,-0.000341,0.005107,-0.002585,-87.456392,0.005107,
1520,340,-0.363696,-8.852133,0.999998,0.000179,-0.001660,0.004384,0.000024,0.004384,-0.001660,89.773978,0.004426,
1220,1660,0.014250,-1.243982,0.999999,0.000140,-0.001136,0.003541,0.000074,0.003542,-0.001137,89.099625,0.003617,
1610,1180,-1.332400,-4.203297,0.999997,0.000182,-0.002760,0.005796,0.000727,0.005857,-0.002822,85.174741,0.005858,
1690,1470,-1.027373,-2.678707,0.999998,0.000161,-0.002769,0.005257,-0.000082,0.005258,-0.002770,-89.415241,0.005260,
1730,1810,-0.614200,-1.008711,0.999997,0.000184,-0.002064,0.004935,0.000469,0.004966,-0.002096,86.180831,0.004986,
1040,1390,0.339160,-2.516952,0.999997,0.000235,-0.002723,0.004751,0.001300,0.004970,-0.002943,80.408726,0.004998,
740,1400,1.227529,-3.103355,0.999998,0.000179,-0.002769,0.005328,-0.000113,0.005329,-0.002771,-89.202998,0.005331,
620,100,0.421024,-9.639192,0.999997,0.000202,-0.002379,0.005316,0.000998,0.005443,-0.002507,82.731776,0.005449,
1790,1880,-0.574806,-0.747425,0.999997,0.000220,-0.002099,0.005075,0.000823,0.005169,-0.002192,83.536343,0.005188,
630,780,1.738905,-6.193626,0.999997,0.000186,-0.002461,0.004949,0.000304,0.004962,-0.002474,87.651507,0.004962,
760,930,1.662319,-5.528721,0.999997,0.000203,-0.002288,0.005059,0.000441,0.005085,-0.002315,86.579550,0.005092,
990,1630,0.342469,-1.538401,0.999997,0.000194,-0.001906,0.004360,0.000395,0.004385,-0.001930,86.405006,0.004396,
1410,930,-0.891191,-6.075315,0.999996,0.000228,-0.003082,0.007369,0.002501,0.007937,-0.003649,77.213494,0.007945,
1440,840,-0.649543,-6.515082,0.999996,0.000232,-0.003931,0.006600,0.000970,0.006689,-0.004019,84.779360,0.006734,
1850,1620,-1.225928,-2.161456,0.999997,0.000212,-0.002491,0.005028,-0.000059,0.005028,-0.002491,-89.549174,0.005028,
1170,1840,0.040445,-0.622289,0.999998,0.000186,-0.000577,0.003399,-0.000056,0.003400,-0.000577,-89.188366,0.003638,
1160,690,0.084354,-7.821489,0.999998,0.000155,-0.001461,0.002862,-0.001164,0.003155,-0.001754,-75.851072,0.003162,
610,1280,1.778834,-3.886111,0.999998,0.000165,-0.002427,0.004891,-0.000237,0.004899,-0.002435,-88.150914,0.004899,
1340,1540,-0.146423,-1.729953,0.999998,0.000159,-0.001479,0.003694,-0.000509,0.003743,-0.001528,-84.432847,0.003764,
1500,770,-0.713516,-6.733740,0.999997,0.000209,-0.003725,0.006220,0.000511,0.006247,-0.003751,87.066543,0.006288,
950,1330,0.683154,-3.111812,0.999998,0.000176,-0.003498,0.005872,0.000599,0.005910,-0.003536,86.357694,0.005948,
640,1970,0.305136,-0.316129,0.999996,0.000242,-0.001736,0.005234,-0.001514,0.005548,-0.002050,-78.254777,0.005611,
1400,510,-0.245297,-8.285597,0.999998,0.000133,-0.001753,0.004052,0.000598,0.004113,-0.001814,84.183706,0.004123,
780,1840,0.463797,-0.819965,0.999997,0.000199,-0.001865,0.004620,-0.000552,0.004666,-0.001912,-85.166493,0.004692,
670,1640,1.054464,-1.967596,0.999998,0.000160,-0.002485,0.005044,0.000066,0.005045,-0.002485,89.497224,0.005045,
1610,390,-0.586782,-8.516737,0.999997,0.000186,-0.002115,0.004770,0.000097,0.004771,-0.002116,89.194143,0.004781,
1190,290,0.037126,-9.200784,0.999998,0.000148,-0.000866,0.003489,0.000004,0.003489,-0.000866,89.951569,0.003634,
590,1380,1.655726,-3.419638,0.999998,0.000181,-0.002696,0.005054,-0.000039,0.005054,-0.002696,-89.712569,0.005058,
940,1510,0.528215,-2.169532,0.999998,0.000174,-0.002496,0.004932,0.000564,0.004974,-0.002538,85.684259,0.004975,
1380,1530,-0.212992,-1.825339,0.999998,0.000151,-0.001775,0.003921,-0.000730,0.004013,-0.001867,-82.807865,0.004016,
1720,1690,-0.801347,-1.597298,0.999998,0.000172,-0.002373,0.005004,0.000027,0.005004,-0.002373,89.791693,0.005007,
790,620,1.029920,-7.240549,0.999998,0.000161,-0.002857,0.005407,-0.000063,0.005408,-0.002857,-89.565820,0.005411,
700,920,1.787976,-5.559968,0.999998,0.000178,-0.002296,0.004879,0.000362,0.004897,-0.002315,87.117513,0.004900,
930,560,0.567019,-7.813866,0.999997,0.000202,-0.002651,0.005004,-0.000581,0.005048,-0.002695,-85.681663,0.005052,
850,240,0.390532,-9.205942,0.999997,0.000233,-0.001567,0.004451,0.000411,0.004479,-0.001595,86.109093,0.004540,
1390,1810,-0.123769,-0.751985,0.999998,0.000158,-0.000841,0.003627,0.000098,0.003629,-0.000843,88.744126,0.003798,
870,510,0.675011,-7.956152,0.999998,0.000214,-0.002516,0.004985,-0.000334,0.005000,-0.002531,-87.452334,0.005000,
910,1630,0.501896,-1.649647,0.999997,0.000188,-0.002185,0.004700,0.000260,0.004710,-0.002195,87.844072,0.004713,
1220,1880,0.006281,-0.484040,0.999998,0.000164,-0.000544,0.003275,0.000010,0.003275,-0.000545,89.857484,0.003510,
990,1610,0.355157,-1.627119,0.999998,0.000188,-0.001959,0.004404,0.000430,0.004433,-0.001988,86.153735,0.004441,
1760,1380,-1.364441,-3.258764,0.999997,0.000211,-0.002726,0.005268,0.000206,0.005274,-0.002731,88.525592,0.005275,
1870,50,-0.242909,-9.860284,0.999993,0.000336,-0.001236,0.005992,-0.002467,0.006754,-0.001998,-72.839395,0.006939,
1440,820,-0.592720,-6.643963,0.999996,0.000242,-0.003925,0.006325,0.001082,0.006438,-0.004038,84.040397,0.006507,
1520,380,-0.397260,-8.678963,0.999998,0.000186,-0.001816,0.004379,0.000162,0.004383,-0.001820,88.500122,0.004404,
1210,60,0.002042,-9.958630,0.999999,0.000132,-0.000141,0.003023,0.000034,0.003024,-0.000141,89.385881,0.003413,
1210,1200,0.114698,-2.428070,0.999995,0.000000,-0.004767,0.001538,-0.000154,0.001541,-0.004771,-88.597742,0.004869,
1690,1440,-1.070395,-2.838592,0.999998,0.000160,-0.002811,0.005350,-0.000044,0.005351,-0.002811,-89.689512,0.005353,
640,830,1.799262,-5.960078,0.999998,0.000173,-0.002378,0.004777,0.000367,0.004795,-0.002397,87.068318,0.004795,
1670,120,-0.232791,-9.692670,0.999998,0.000186,-0.001129,0.004170,-0.000932,0.004329,-0.001288,-80.310903,0.004446,
1420,310,-0.193557,-9.065208,0.999998,0.000178,-0.001333,0.003861,0.000089,0.003863,-0.001334,89.016166,0.003924,
620,80,0.326391,-9.743071,0.999997,0.000191,-0.002311,0.005517,0.001279,0.005720,-0.002515,80.954802,0.005734,
1620,1630,-0.650444,-1.746354,0.999998,0.000207,-0.002322,0.004892,-0.000185,0.004897,-0.002327,-88.532523,0.004899,
1850,210,-0.806469,-9.047771,0.999998,0.000156,-0.002427,0.005055,-0.000194,0.005060,-0.002432,-88.518096,0.005061,
900,1730,0.416994,-1.200764,0.999997,0.000196,-0.001780,0.004476,-0.000005,0.004476,-0.001780,-89.953617,0.004507,
830,1280,1.182363,-3.646716,0.999997,0.000225,-0.003111,0.005799,-0.000357,0.005814,-0.003126,-87.708626,0.005819,
700,1770,0.768734,-1.261315,0.999997,0.000203,-0.002378,0.005052,-0.000162,0.005056,-0.002381,-88.750399,0.005059,
1230,480,0.002244,-8.538192,0.999998,0.000152,-0.001247,0.003447,0.000000,0.003447,-0.001247,89.997764,0.003491,
1410,600,-0.286215,-7.890327,0.999997,0.000197,-0.002234,0.004348,0.001039,0.004508,-0.002394,81.242540,0.004511,
1660,1950,-0.187345,-0.320241,0.999998,0.000206,-0.000924,0.004047,0.000940,0.004219,-0.001096,79.637120,0.004378,
1210,1900,0.011462,-0.419260,0.999998,0.000151,-0.000425,0.003280,-0.000001,0.003280,-0.000425,-89.980557,0.003567,
1190,270,0.033837,-9.269838,0.999998,0.000151,-0.000807,0.003483,-0.000014,0.003483,-0.000807,-89.818536,0.003646,
780,1820,0.502993,-0.912769,0.999997,0.000193,-0.001958,0.004735,-0.000468,0.004767,-0.001990,-86.015298,0.004789,
650,1640,1.104478,-1.999602,0.999998,0.000176,-0.002497,0.005050,0.000065,0.005050,-0.002497,89.509742,0.005050,
1340,1520,-0.146460,-1.801955,0.999998,0.000158,-0.001522,0.003671,-0.000569,0.003733,-0.001583,-83.822133,0.003747,
1860,130,-0.580328,-9.435285,0.999997,0.000217,-0.002408,0.005356,-0.000671,0.005413,-0.002466,-85.098137,0.005420,
750,1700,0.768960,-1.538570,0.999997,0.000169,-0.002283,0.004966,-0.000067,0.004967,-0.002284,-89.471069,0.004972,
1610,370,-0.566021,-8.613041,0.999997,0.000187,-0.002026,0.004712,0.000033,0.004712,-0.002027,89.715186,0.004727,
1110,1870,0.066645,-0.531728,0.999998,0.000164,-0.000601,0.003440,-0.000094,0.003442,-0.000603,-88.671825,0.003676,
920,1510,0.579870,-2.209707,0.999997,0.000215,-0.002593,0.005015,0.000542,0.005053,-0.002632,85.943976,0.005055,
1290,1630,-0.068884,-1.364588,0.999998,0.000182,-0.001182,0.003580,-0.000112,0.003582,-0.001184,-88.648536,0.003650,
580,1380,1.680398,-3.435285,0.999997,0.000190,-0.003187,0.005110,0.000091,0.005111,-0.003188,89.368727,0.005163,
1700,1690,-0.756261,-1.569024,0.999998,0.000180,-0.002247,0.004937,0.000030,0.004937,-0.002248,89.762128,0.004944,
700,900,1.764834,-5.657094,0.999998,0.000182,-0.002365,0.004930,0.000434,0.004956,-0.002391,86.606065,0.004957,
1040,150,0.088180,-9.653373,0.999997,0.000184,-0.000637,0.003491,0.000265,0.003508,-0.000654,86.341569,0.003730,
1730,1790,-0.653503,-1.110609,0.999998,0.000188,-0.002121,0.004990,0.000345,0.005006,-0.002138,87.232125,0.005024,
1390,1790,-0.135115,-0.826102,0.999998,0.000159,-0.000932,0.003685,0.000039,0.003686,-0.000933,89.519446,0.003832,
890,300,0.405149,-8.979754,0.999998,0.000177,-0.001769,0.004430,0.000106,0.004432,-0.001771,89.024037,0.004462,
1760,1250,-1.600686,-3.939498,0.999997,0.000198,-0.002642,0.005150,0.000501,0.005182,-0.002674,86.339125,0.005183,
1220,1640,0.013533,-1.315886,0.999998,0.000166,-0.001153,0.003529,0.000088,0.003531,-0.001154,88.927285,0.003601,
1460,890,-0.900999,-6.073271,0.999997,0.000212,-0.003617,0.007032,0.000154,0.007034,-0.003619,89.170585,0.007035,
910,1610,0.519385,-1.744880,0.999997,0.000207,-0.002232,0.004724,0.000315,0.004738,-0.002247,87.412671,0.004740,
650,1320,1.609145,-3.638217,0.999998,0.000190,-0.002539,0.005078,-0.000282,0.005088,-0.002549,-87.886135,0.005088,
830,390,0.637752,-8.484994,0.999997,0.000243,-0.002216,0.004848,-0.000102,0.004849,-0.002217,-89.174385,0.004855,
1440,800,-0.544154,-6.767304,0.999996,0.000237,-0.003864,0.006144,0.001194,0.006285,-0.004005,83.289964,0.006363,
1390,1700,-0.175494,-1.164334,0.999999,0.000151,-0.001273,0.003833,-0.000141,0.003837,-0.001276,-88.420334,0.003908,
870,490,0.655694,-8.054793,0.999998,0.000200,-0.002500,0.004961,-0.000328,0.004976,-0.002514,-87.486322,0.004976,
1000,80,0.050186,-9.884534,0.999999,0.000161,-0.000196,0.003330,0.000390,0.003373,-0.000239,83.761073,0.003765,
1650,120,-0.208361,-9.701953,0.999998,0.000193,-0.000923,0.004060,-0.000880,0.004211,-0.001074,-80.270844,0.004376,
1850,190,-0.753014,-9.146782,0.999998,0.000175,-0.002442,0.005097,-0.000291,0.005108,-0.002453,-87.791081,0.005109,
620,60,0.230389,-9.859363,0.999998,0.000181,-0.002178,0.005125,0.001393,0.005381,-0.002434,79.560208,0.005390,
1530,660,-0.653994,-7.295333,0.999997,0.000209,-0.003129,0.005517,0.000608,0.005560,-0.003171,85.995980,0.005578,
720,1130,1.746868,-4.539132,0.999998,0.000158,-0.002276,0.004963,-0.000406,0.004986,-0.002298,-86.802464,0.004991,
1520,1730,-0.347836,-1.159503,0.999998,0.000180,-0.001612,0.004350,0.000001,0.004350,-0.001612,89.993357,0.004398,
1270,60,-0.004659,-9.958176,0.999999,0.000103,-0.000108,0.003031,-0.000056,0.003032,-0.000109,-88.982061,0.003440,
1090,660,0.213221,-7.736034,0.999998,0.000174,-0.002228,0.004015,-0.001362,0.004299,-0.002512,-78.211976,0.004320,
810,1280,1.242654,-3.673373,0.999998,0.000205,-0.003027,0.005669,-0.000400,0.005687,-0.003046,-87.374218,0.005692,
570,130,0.667134,-9.356983,0.999843,0.001585,-0.003647,0.005165,0.000145,0.005167,-0.003649,89.055252,0.005312,
1060,920,0.830607,-6.209757,0.999996,0.000246,-0.002914,0.006915,-0.002750,0.007632,-0.003631,-75.382349,0.007635,
1900,1610,-1.368204,-2.291835,0.999997,0.000000,-0.002497,0.004963,-0.000050,0.004963,-0.002497,-89.617490,0.004963,
1190,250,0.033937,-9.341254,0.999998,0.000163,-0.000757,0.003460,0.000028,0.003460,-0.000757,89.621999,0.003638,
690,1080,1.860180,-4.789951,0.999998,0.000172,-0.002195,0.004706,-0.000158,0.004709,-0.002199,-88.689320,0.004713,
780,1800,0.542538,-1.009427,0.999997,0.000192,-0.002012,0.004762,-0.000362,0.004782,-0.002031,-86.952633,0.004800,
1520,1820,-0.254685,-0.785300,0.999998,0.000176,-0.001259,0.004063,0.000259,0.004075,-0.001272,87.218881,0.004170,
1210,860,0.146190,-7.694336,0.999890,0.000000,-0.004148,-0.000428,-0.000078,-0.000426,-0.004149,-88.805693,0.005055,
700,880,1.733235,-5.758508,0.999997,0.000200,-0.002428,0.005013,0.000508,0.005048,-0.002462,86.116232,0.005048,
1590,1760,-0.431536,-1.096181,0.999998,0.000166,-0.001863,0.004466,0.000101,0.004467,-0.001864,89.088772,0.004488,
640,1910,0.544991,-0.633958,0.999997,0.000242,-0.002224,0.005217,-0.000806,0.005303,-0.002310,-83.885781,0.005318,
670,1900,0.518214,-0.646215,0.999998,0.000202,-0.001921,0.005107,-0.001020,0.005252,-0.002066,-81.904875,0.005292,
1550,860,-1.116417,-6.037294,0.999997,0.000192,-0.003250,0.006255,-0.000540,0.006286,-0.003280,-86.757404,0.006288,
1610,350,-0.539603,-8.707507,0.999997,0.000186,-0.001945,0.004684,-0.000046,0.004685,-0.001945,-89.603138,0.004707,
610,1640,1.204009,-2.066611,0.999998,0.000175,-0.002489,0.005022,0.000062,0.005023,-0.002490,89.526157,0.005023,
1260,1650,-0.033631,-1.285212,0.999998,0.000182,-0.001174,0.003545,-0.000132,0.003548,-0.001178,-88.401783,0.003614,
1580,610,-0.746777,-7.459305,0.999998,0.000166,-0.002887,0.005318,0.000414,0.005339,-0.002908,87.121332,0.005346,
1290,780,-0.076107,-7.643719,0.999997,0.000218,-0.001612,0.001976,0.001566,0.002564,-0.002199,69.445097,0.002774,
1040,890,0.767983,-6.268307,0.999997,0.000208,-0.003491,0.006977,-0.001199,0.007112,-0.003626,-83.550286,0.007113,
1390,1770,-0.144084,-0.900907,0.999999,0.000151,-0.000981,0.003728,0.000011,0.003728,-0.000981,89.871065,0.003864,
1100,130,0.049284,-9.732054,0.999999,0.000124,-0.000356,0.003271,0.000165,0.003279,-0.000363,87.405307,0.003595,
1760,1360,-1.398604,-3.365486,0.999997,0.000206,-0.002709,0.005256,0.000256,0.005264,-0.002717,88.162945,0.005265,
1890,1130,-2.073000,-4.613129,0.999998,0.000154,-0.002108,0.004346,0.000178,0.004351,-0.002112,88.422336,0.004352,
1680,1430,-1.057059,-2.877216,0.999997,0.000193,-0.002839,0.005387,-0.000040,0.005387,-0.002839,-89.720655,0.005390,
1200,1230,0.075166,-2.409553,0.999998,0.000180,-0.002382,0.001358,0.000493,0.001422,-0.002446,82.611809,0.002457,
1360,1770,-0.116306,-0.889086,0.999998,0.000176,-0.000958,0.003665,0.000017,0.003665,-0.000958,89.794590,0.003801,
1730,1770,-0.693206,-1.210244,0.999998,0.000189,-0.002183,0.004975,0.000256,0.004984,-0.002192,87.952842,0.004996,
1220,1600,0.014254,-1.456244,0.999998,0.000171,-0.001246,0.003482,0.000086,0.003483,-0.001248,88.953277,0.003530,
1790,1860,-0.628242,-0.847148,0.999998,0.000185,-0.002192,0.005053,0.000643,0.005109,-0.002249,84.969172,0.005121,
640,1430,1.444591,-3.089736,0.999997,0.000220,-0.002560,0.005124,-0.000082,0.005125,-0.002560,-89.387605,0.005125,
910,1590,0.536112,-1.838800,0.999997,0.000210,-0.002268,0.004732,0.000353,0.004749,-0.002286,87.122745,0.004750,
1340,1500,-0.147725,-1.875779,0.999998,0.000148,-0.001556,0.003631,-0.000643,0.003709,-0.001634,-83.038329,0.003718,
1000,100,0.066951,-9.819258,0.999999,0.000164,-0.000281,0.003379,0.000378,0.003418,-0.000320,84.160066,0.003776,
1440,780,-0.504468,-6.889719,0.999997,0.000209,-0.003756,0.005957,0.001259,0.006117,-0.003916,82.735125,0.006197,
900,1770,0.370115,-1.025817,0.999998,0.000175,-0.001564,0.004366,-0.000183,0.004372,-0.001570,-88.235872,0.004430,
870,470,0.633823,-8.153872,0.999998,0.000197,-0.002421,0.004921,-0.000292,0.004933,-0.002433,-87.723821,0.004933,
1850,170,-0.691957,-9.252826,0.999998,0.000190,-0.002452,0.005210,-0.000364,0.005227,-0.002469,-87.288775,0.005229,
1840,1630,-1.187075,-2.094468,0.999998,0.000205,-0.002478,0.005017,-0.000069,0.005018,-0.002479,-89.476112,0.005018,
610,1990,0.277564,-0.265583,0.999997,0.000203,-0.002176,0.005472,-0.001454,0.005739,-0.002444,-79.589170,0.005760,
1050,260,0.154976,-9.260201,0.999998,0.000146,-0.001102,0.003698,0.000023,0.003698,-0.001102,89.728396,0.003797,
1860,570,-1.452314,-7.213431,0.999998,0.000201,-0.002545,0.005104,-0.000012,0.005104,-0.002545,-89.907697,0.005104,
1250,60,-0.002605,-9.958182,0.999999,0.000135,-0.000145,0.003029,-0.000026,0.003029,-0.000145,-89.529152,0.003417,
740,370,0.816292,-8.454056,0.999998,0.000162,-0.002403,0.005024,-0.000005,0.005024,-0.002403,-89.963428,0.005026,
1530,640,-0.631500,-7.404789,0.999997,0.000212,-0.003003,0.005407,0.000612,0.005451,-0.003047,85.859764,0.005464,
700,1130,1.793226,-4.544582,0.999998,0.000156,-0.002291,0.004901,-0.000378,0.004920,-0.002310,-86.995944,0.004923,
950,1310,0.713051,-3.230156,0.999998,0.000161,-0.003594,0.006011,0.000535,0.006041,-0.003624,86.821469,0.006081,
1600,290,-0.444650,-8.993734,0.999997,0.000186,-0.001822,0.004523,-0.000183,0.004528,-0.001828,-88.347252,0.004556,
780,1780,0.576392,-1.102531,0.999997,0.000190,-0.002095,0.004824,-0.000264,0.004834,-0.002105,-87.815450,0.004848,
740,1380,1.259624,-3.210304,0.999997,0.000185,-0.002798,0.005343,-0.000172,0.005346,-0.002802,-88.788094,0.005349,
1190,230,0.027592,-9.409754,0.999998,0.000182,-0.000696,0.003422,0.000000,0.003422,-0.000696,89.995013,0.003617,
700,860,1.701091,-5.858635,0.999997,0.000210,-0.002445,0.005019,0.000490,0.005051,-0.002477,86.261493,0.005051,
1040,1090,1.057628,-4.395572,0.999994,0.000383,-0.003719,0.009155,0.001855,0.009417,-0.003981,81.963421,0.009454,
640,1890,0.609875,-0.738924,0.999998,0.000209,-0.002269,0.005232,-0.000658,0.005289,-0.002326,-85.021635,0.005302,
630,1060,1.997631,-4.893194,0.999998,0.000193,-0.002129,0.004474,-0.000146,0.004477,-0.002132,-88.736766,0.004479,
630,1640,1.153896,-2.032652,0.999997,0.000195,-0.002496,0.005045,0.000064,0.005045,-0.002496,89.517338,0.005046,
1090,540,0.203155,-8.206810,0.999998,0.000155,-0.001793,0.003942,-0.000777,0.004045,-0.001896,-82.414268,0.004048,
1890,600,-1.574512,-7.015094,0.999996,0.000220,-0.002537,0.005106,0.000002,0.005106,-0.002537,89.981417,0.005106,
1520,1800,-0.278241,-0.868057,0.999998,0.000183,-0.001336,0.004041,0.000185,0.004047,-0.001343,88.033064,0.004123,
1690,1450,-1.055940,-2.785032,0.999998,0.000158,-0.002799,0.005326,-0.000066,0.005326,-0.002800,-89.534109,0.005328,
1610,330,-0.513787,-8.800565,0.999997,0.000197,-0.001908,0.004685,-0.000064,0.004686,-0.001908,-89.444752,0.004713,
1210,30,0.003213,-10.048573,0.999999,0.000000,0.000012,0.003006,-0.000027,0.003007,0.000011,-89.490689,0.003478,
1390,1750,-0.153923,-0.975178,0.999998,0.000152,-0.001057,0.003750,-0.000013,0.003750,-0.001057,-89.840465,0.003867,
1160,1530,0.093391,-1.728220,0.999998,0.000158,-0.001412,0.003509,0.000466,0.003552,-0.001456,84.636239,0.003572,
1370,1340,-0.216646,-2.557976,0.999997,0.000209,-0.002498,0.004164,-0.001743,0.004592,-0.002926,-76.190923,0.004649,
1300,130,-0.025638,-9.738947,0.999998,0.000177,-0.000316,0.003228,-0.000079,0.003230,-0.000318,-88.716183,0.003560,
1320,310,-0.083559,-9.121133,0.999998,0.000151,-0.001029,0.003575,0.000056,0.003576,-0.001030,89.302622,0.003681,
1610,720,-1.001547,-6.787613,0.999998,0.000160,-0.003219,0.005769,-0.000037,0.005770,-0.003220,-89.766331,0.005783,
1010,600,0.386108,-7.789895,0.999997,0.000203,-0.002532,0.004715,-0.000940,0.004835,-0.002652,-82.727959,0.004843,
1760,1340,-1.434369,-3.471781,0.999996,0.000219,-0.002711,0.005229,0.000303,0.005241,-0.002722,87.820624,0.005242,
1880,440,-1.307911,-7.844459,0.999998,0.000178,-0.002460,0.004994,0.000026,0.004994,-0.002460,89.803064,0.004994,
1540,1390,-0.690900,-2.835078,0.999997,0.000206,-0.003198,0.005580,-0.000526,0.005611,-0.003229,-86.585576,0.005632,
1840,1690,-1.093872,-1.791738,0.999998,0.000184,-0.002440,0.005033,-0.000042,0.005033,-0.002440,-89.678633,0.005034,
640,1410,1.477859,-3.191906,0.999997,0.000196,-0.002558,0.005105,-0.000109,0.005106,-0.002560,-89.186667,0.005106,
1810,2010,-0.112545,-0.110862,0.999998,0.000145,-0.000617,0.004429,0.001833,0.005024,-0.001212,72.002669,0.005244,
1220,1580,0.014674,-1.525310,0.999998,0.000161,-0.001284,0.003466,0.000116,0.003469,-0.001287,88.603069,0.003507,
1440,760,-0.471910,-7.006920,0.999997,0.000213,-0.003611,0.005709,0.001290,0.005884,-0.003786,82.263411,0.005964,
910,1570,0.553149,-1.933039,0.999997,0.000203,-0.002340,0.004795,0.000367,0.004814,-0.002359,87.065659,0.004814,
1340,1920,-0.040318,-0.359818,0.999998,0.000132,-0.000448,0.003263,0.000104,0.003266,-0.000451,88.399126,0.003539,
870,450,0.612722,-8.253777,0.999998,0.000219,-0.002321,0.004839,-0.000251,0.004848,-0.002330,-87.991848,0.004849,
1000,120,0.085557,-9.749659,0.999998,0.000166,-0.000399,0.003456,0.000368,0.003490,-0.000434,84.594182,0.003805,
1650,500,-0.809734,-7.910374,0.999997,0.000179,-0.002579,0.005171,0.000217,0.005177,-0.002585,88.396279,0.005177,
680,1130,1.837696,-4.553118,0.999998,0.000138,-0.002281,0.004812,-0.000344,0.004829,-0.002298,-87.233193,0.004831,
1750,1160,-1.727588,-4.392310,0.999997,0.000194,-0.002367,0.005024,0.000497,0.005058,-0.002400,86.168950,0.005060,
610,1970,0.374298,-0.387801,0.999997,0.000190,-0.002305,0.005593,-0.001259,0.005789,-0.002501,-81.160826,0.005807,
920,1650,0.461027,-1.540900,0.999996,0.000213,-0.001999,0.004576,0.000214,0.004583,-0.002006,88.140027,0.004595,
780,1760,0.612002,-1.203009,0.999997,0.000190,-0.002157,0.004814,-0.000191,0.004820,-0.002162,-88.432666,0.004828,
660,1200,1.790749,-4.225031,0.999998,0.000182,-0.002389,0.004863,-0.000420,0.004887,-0.002413,-86.696218,0.004888,
1390,1730,-0.163806,-1.050852,0.999998,0.000152,-0.001148,0.003787,-0.000071,0.003788,-0.001149,-89.176989,0.003885,
1520,1780,-0.297917,-0.945479,0.999997,0.000182,-0.001449,0.004147,0.000144,0.004150,-0.001453,88.527946,0.004212,
1040,1100,1.031534,-4.306290,0.999996,0.000334,-0.003538,0.008595,0.001859,0.008874,-0.003816,81.481981,0.008902,
1010,60,0.030410,-9.952211,0.999998,0.000156,-0.000132,0.003218,0.000366,0.003257,-0.000172,83.838899,0.003666,
1200,2020,0.003732,-0.047983,0.999999,0.000000,-0.000095,0.002962,0.000024,0.002962,-0.000095,89.553625,0.003367,
570,1320,1.805510,-3.755193,0.999953,0.000867,-0.002801,0.004950,0.000070,0.004950,-0.002802,89.486023,0.004965,
570,1620,1.336591,-2.229294,0.999946,0.000850,-0.001793,0.005168,-0.000516,0.005206,-0.001831,-85.781258,0.005282,
1350,660,-0.165556,-7.799427,0.999998,0.000193,-0.001926,0.003702,0.001310,0.003992,-0.002216,77.515818,0.004000,
1290,1610,-0.072100,-1.435106,0.999998,0.000174,-0.001225,0.003567,-0.000154,0.003572,-0.001230,-88.162745,0.003629,
1850,370,-1.126898,-8.245732,0.999998,0.000157,-0.002437,0.004995,0.000059,0.004996,-0.002437,89.541611,0.004996,
1130,310,0.096158,-9.114696,0.999998,0.000134,-0.001092,0.003621,-0.000102,0.003624,-0.001094,-88.755562,0.003717,
1010,580,0.376142,-7.885396,0.999998,0.000180,-0.002405,0.004601,-0.000889,0.004712,-0.002516,-82.878505,0.004716,
850,50,0.055527,-9.973483,0.999998,0.000153,-0.000228,0.003470,0.000797,0.003634,-0.000392,78.346326,0.003989,
1150,120,0.023831,-9.770191,0.999999,0.000137,-0.000320,0.003205,0.000093,0.003207,-0.000322,88.486063,0.003532,
870,1280,1.052296,-3.588039,0.999998,0.000157,-0.003305,0.005952,-0.000236,0.005958,-0.003311,-88.538878,0.005970,
700,840,1.670437,-5.957530,0.999997,0.000192,-0.002507,0.005020,0.000481,0.005051,-0.002538,86.361173,0.005051,
1540,1510,-0.572916,-2.204743,0.999998,0.000192,-0.002605,0.004994,-0.000511,0.005028,-0.002639,-86.168162,0.005030,
950,1290,0.748880,-3.351133,0.999997,0.000185,-0.003664,0.006195,0.000409,0.006212,-0.003681,87.626394,0.006248,
740,1590,0.950280,-2.107642,0.999998,0.000165,-0.002531,0.005111,0.000124,0.005113,-0.002533,89.069056,0.005113,
1040,360,0.225826,-8.866925,0.999998,0.000175,-0.001481,0.004002,-0.000212,0.004010,-0.001489,-87.790794,0.004054,
1650,1050,-1.613447,-4.925253,0.999997,0.000206,-0.002000,0.005129,0.000165,0.005133,-0.002004,88.675397,0.005174,
1550,1620,-0.505383,-1.692441,0.999997,0.000195,-0.002184,0.004711,-0.000281,0.004722,-0.002196,-87.669224,0.004726,
1190,210,0.028798,-9.477052,0.999998,0.000176,-0.000614,0.003360,0.000005,0.003360,-0.000614,89.925394,0.003579,
740,1360,1.295820,-3.317175,0.999997,0.000215,-0.002832,0.005363,-0.000228,0.005369,-0.002838,-88.405437,0.005372,
1610,310,-0.488407,-8.894082,0.999998,0.000197,-0.001861,0.004565,-0.000105,0.004566,-0.001862,-89.065369,0.004592,
1440,890,-0.827474,-6.162489,0.999996,0.000231,-0.003561,0.007078,0.000645,0.007117,-0.003600,86.541912,0.007117,
1600,270,-0.414574,-9.085795,0.999998,0.000177,-0.001740,0.004458,-0.000238,0.004467,-0.001749,-87.801560,0.004502,
1300,310,-0.064748,-9.124081,0.999999,0.000132,-0.000901,0.003558,0.000007,0.003558,-0.000901,89.912130,0.003700,
1340,1940,-0.033995,-0.297189,0.999999,0.000138,-0.000371,0.003217,0.000128,0.003222,-0.000375,87.951739,0.003524,
830,370,0.609049,-8.584360,0.999997,0.000209,-0.002123,0.004824,0.000007,0.004824,-0.002123,89.943413,0.004835,
1690,1430,-1.084774,-2.891916,0.999998,0.000176,-0.002825,0.005364,-0.000026,0.005364,-0.002825,-89.818227,0.005367,
1610,740,-1.038380,-6.671387,0.999998,0.000168,-0.003234,0.005828,-0.000141,0.005830,-0.003236,-89.111167,0.005842,
1710,560,-1.045777,-7.500779,0.999998,0.000195,-0.002697,0.005231,0.000079,0.005232,-0.002698,89.431894,0.005233,
1820,1630,-1.137318,-2.061090,0.999998,0.000151,-0.002528,0.005040,-0.000050,0.005041,-0.002529,-89.624837,0.005041,
1590,1260,-1.085507,-3.704531,0.999997,0.000223,-0.003298,0.006064,0.000346,0.006077,-0.003311,87.885601,0.006085,
620,1830,0.829994,-1.095071,0.999997,0.000186,-0.002424,0.005035,-0.000163,0.005039,-0.002428,-88.749368,0.005040,
1480,1260,-0.688648,-3.439126,0.999997,0.000203,-0.003877,0.006372,-0.000619,0.006409,-0.003914,-86.554413,0.006461,
1450,1900,-0.108933,-0.450738,0.999998,0.000179,-0.000612,0.003550,0.000327,0.003576,-0.000637,85.537377,0.003815,
1800,810,-1.710096,-6.077393,0.999998,0.000189,-0.002478,0.004981,-0.000422,0.005005,-0.002502,-86.771357,0.005005,
1090,110,0.041174,-9.796530,0.999998,0.000153,-0.000263,0.003262,0.000220,0.003276,-0.000277,86.444338,0.003633,
1390,1710,-0.171556,-1.126783,0.999999,0.000151,-0.001234,0.003786,-0.000124,0.003789,-0.001237,-88.583032,0.003864,
990,60,0.033134,-9.951309,0.999998,0.000160,-0.000142,0.003248,0.000408,0.003296,-0.000190,83.229519,0.003701,
780,1740,0.642893,-1.296245,0.999998,0.000168,-0.002203,0.004855,-0.000105,0.004857,-0.002204,-89.146279,0.004863,
1430,840,-0.610229,-6.564527,0.999995,0.000260,-0.003876,0.006459,0.001125,0.006580,-0.003997,83.857672,0.006631,
1570,150,-0.190330,-9.610577,0.999998,0.000158,-0.000944,0.003922,-0.000592,0.003993,-0.001015,-83.161744,0.004151,
1200,1200,0.156598,-2.448289,0.999996,0.000000,-0.004229,0.001429,-0.000090,0.001431,-0.004231,-89.090976,0.004304,
670,1880,0.580928,-0.750031,0.999996,0.000254,-0.002063,0.005083,-0.000838,0.005180,-0.002160,-83.402567,0.005203,
660,1180,1.823398,-4.320955,0.999997,0.000199,-0.002353,0.004855,-0.000419,0.004879,-0.002378,-86.687318,0.004879,
1750,380,-0.896499,-8.359758,0.999998,0.000200,-0.002452,0.005082,0.000064,0.005083,-0.002453,89.515290,0.005084,
1520,1760,-0.321683,-1.034392,0.999998,0.000168,-0.001519,0.004222,0.000073,0.004223,-0.001520,89.274933,0.004278,
910,1550,0.570665,-2.029354,0.999998,0.000199,-0.002440,0.004872,0.000419,0.004896,-0.002464,86.729851,0.004896,
610,1950,0.465794,-0.492375,0.999997,0.000205,-0.002371,0.005357,-0.000936,0.005469,-0.002483,-83.193587,0.005476,
1840,1580,-1.259891,-2.348150,0.999998,0.000188,-0.002548,0.005077,-0.000078,0.005078,-0.002548,-89.411248,0.005078,
1800,1490,-1.290585,-2.747038,0.999998,0.000183,-0.002572,0.005153,0.000005,0.005153,-0.002572,89.963201,0.005153,
920,1630,0.480183,-1.634563,0.999997,0.000187,-0.002133,0.004652,0.000282,0.004663,-0.002145,87.627339,0.004668,
870,430,0.592105,-8.350444,0.999998,0.000219,-0.002216,0.004815,-0.000198,0.004820,-0.002221,-88.386176,0.004825,
1130,350,0.108110,-8.968531,0.999998,0.000152,-0.001198,0.003636,-0.000187,0.003643,-0.001205,-87.786157,0.003712,
890,620,0.738775,-7.420636,0.999998,0.000170,-0.002971,0.005363,-0.000419,0.005384,-0.002992,-87.125819,0.005395,
1350,480,-0.157269,-8.469450,0.999998,0.000151,-0.001447,0.003792,0.000435,0.003827,-0.001483,85.286881,0.003860,
1290,1590,-0.071185,-1.504864,0.999998,0.000175,-0.001283,0.003567,-0.000204,0.003575,-0.001291,-87.599589,0.003621,
1410,540,-0.270019,-8.147119,0.999998,0.000169,-0.001955,0.004182,0.000752,0.004273,-0.002045,83.118616,0.004274,
950,1270,0.793243,-3.479268,0.999997,0.000187,-0.003727,0.006353,0.000269,0.006360,-0.003734,88.475153,0.006392,
700,820,1.635553,-6.060280,0.999997,0.000196,-0.002572,0.005115,0.000504,0.005148,-0.002605,86.267276,0.005148,
660,1330,1.565707,-3.574556,0.999997,0.000210,-0.002593,0.005127,-0.000284,0.005137,-0.002604,-87.899155,0.005137,
850,1280,1.117838,-3.619447,0.999997,0.000211,-0.003234,0.005882,-0.000311,0.005893,-0.003244,-88.050701,0.005903,
1040,340,0.217357,-8.944973,0.999998,0.000176,-0.001425,0.003916,-0.000165,0.003921,-0.001430,-88.232370,0.003968,
780,1450,1.036742,-2.773190,0.999998,0.000131,-0.002812,0.005363,0.000069,0.005364,-0.002813,89.519808,0.005366,
770,400,0.788461,-8.348097,0.999998,0.000166,-0.002363,0.005013,-0.000046,0.005014,-0.002364,-89.642526,0.005016,
1270,1320,-0.038874,-2.295514,0.999998,0.000158,-0.001147,0.001931,-0.000920,0.002185,-0.001401,-74.563644,0.002214,
740,1340,1.331876,-3.425308,0.999997,0.000213,-0.002841,0.005388,-0.000294,0.005398,-0.002852,-87.956110,0.005401,
1600,250,-0.386572,-9.172048,0.999998,0.000183,-0.001630,0.004386,-0.000303,0.004402,-0.001645,-87.122643,0.004448,
1900,1600,-1.380572,-2.341429,0.999997,0.000000,-0.002484,0.004988,-0.000102,0.004990,-0.002485,-89.216806,0.004990,
1760,890,-1.742541,-5.707900,0.999998,0.000190,-0.002400,0.005020,-0.000490,0.005052,-0.002433,-86.237133,0.005053,
1520,1510,-0.521183,-2.166313,0.999997,0.000204,-0.002460,0.004885,-0.000564,0.004928,-0.002503,-85.632269,0.004928,
1180,310,0.049246,-9.129236,0.999999,0.000125,-0.000913,0.003582,-0.000020,0.003582,-0.000913,-89.744994,0.003723,
1610,290,-0.462137,-8.982608,0.999997,0.000208,-0.001788,0.004570,-0.000213,0.004577,-0.001795,-88.084106,0.004613,
1760,1320,-1.471246,-3.574411,0.999997,0.000222,-0.002705,0.005234,0.000328,0.005248,-0.002718,87.636808,0.005249,
950,780,0.781407,-6.633927,0.999997,0.000197,-0.003731,0.006302,-0.000342,0.006314,-0.003743,-88.052214,0.006350,
1710,660,-1.199534,-6.969143,0.999998,0.000205,-0.002844,0.005352,-0.000118,0.005354,-0.002846,-89.174252,0.005357,
1610,700,-0.966289,-6.902817,0.999999,0.000172,-0.003168,0.005712,0.000029,0.005712,-0.003168,89.815374,0.005723,
830,350,0.584442,-8.678456,0.999997,0.000202,-0.002041,0.004765,0.000067,0.004766,-0.002042,89.433673,0.004782,
1690,1410,-1.117591,-3.001220,0.999998,0.000178,-0.002861,0.005380,0.000049,0.005380,-0.002861,89.656884,0.005384,
990,1840,0.179511,-0.679196,0.999998,0.000163,-0.000888,0.003810,-0.000255,0.003824,-0.000902,-86.899803,0.003997,
1890,1150,-2.051305,-4.526224,0.999998,0.000162,-0.002129,0.004314,0.000105,0.004316,-0.002130,89.065245,0.004316,
1430,1900,-0.096809,-0.447327,0.999998,0.000164,-0.000656,0.003525,0.000266,0.003542,-0.000673,86.376472,0.003762,
590,1830,0.901604,-1.159199,0.999998,0.000164,-0.002430,0.004943,-0.000133,0.004945,-0.002432,-88.966572,0.004945,
1570,130,-0.158873,-9.688955,0.999998,0.000155,-0.000815,0.003832,-0.000589,0.003906,-0.000888,-82.885759,0.004095,
1200,860,0.175496,-7.636134,0.999978,0.000000,-0.003790,0.000290,-0.000292,0.000310,-0.003811,-85.930048,0.004233,
1190,190,0.022742,-9.544392,0.999998,0.000154,-0.000555,0.003324,0.000021,0.003324,-0.000555,89.692177,0.003561,
1850,1650,-1.180678,-2.012981,0.999998,0.000172,-0.002493,0.004993,-0.000074,0.004994,-0.002493,-89.432758,0.004994,
1090,90,0.032064,-9.860840,0.999999,0.000145,-0.000209,0.003178,0.000203,0.003190,-0.000222,86.587564,0.003562,
1530,60,-0.047724,-9.943998,0.999998,0.000155,-0.000204,0.003342,-0.000546,0.003424,-0.000286,-81.446505,0.003799,
910,1530,0.588715,-2.128467,0.999997,0.000211,-0.002547,0.004932,0.000489,0.004964,-0.002579,86.273054,0.004965,
1290,1570,-0.073211,-1.576187,0.999998,0.000164,-0.001325,0.003534,-0.000238,0.003546,-0.001336,-87.205173,0.003581,
1340,1960,-0.025049,-0.231811,0.999999,0.000142,-0.000281,0.003178,0.000118,0.003182,-0.000285,88.050673,0.003522,
660,1160,1.851188,-4.418575,0.999998,0.000176,-0.002307,0.004766,-0.000329,0.004781,-0.002322,-87.346478,0.004782,
1410,580,-0.280326,-7.977099,0.999998,0.000152,-0.002168,0.004253,0.000960,0.004393,-0.002308,81.675452,0.004395,
1600,2010,-0.044108,-0.089529,0.999998,0.000140,-0.000277,0.003507,0.000698,0.003632,-0.000401,79.876834,0.003982,
1630,600,-0.879269,-7.421001,0.999998,0.000172,-0.002901,0.005351,0.000229,0.005357,-0.002907,88.410537,0.005363,
750,420,0.865701,-8.215176,0.999999,0.000150,-0.002448,0.005047,-0.000111,0.005049,-0.002450,-89.150834,0.005049,
870,410,0.573459,-8.444757,0.999997,0.000210,-0.002160,0.004752,-0.000147,0.004756,-0.002163,-88.779755,0.004762,
1350,460,-0.153368,-8.545674,0.999998,0.000149,-0.001400,0.003762,0.000373,0.003788,-0.001427,85.889904,0.003826,
950,1250,0.838294,-3.606975,0.999997,0.000198,-0.003740,0.006439,0.000124,0.006441,-0.003742,89.302916,0.006469,
740,1320,1.369412,-3.533805,0.999998,0.000202,-0.002839,0.005379,-0.000366,0.005395,-0.002856,-87.454570,0.005398,
1800,1470,-1.322835,-2.849988,0.999998,0.000185,-0.002596,0.005162,0.000023,0.005162,-0.002596,89.827124,0.005162,
820,730,1.124661,-6.678098,0.999997,0.000211,-0.003097,0.005687,0.000216,0.005692,-0.003102,88.593913,0.005700,
700,800,1.598920,-6.163815,0.999997,0.000216,-0.002619,0.005136,0.000478,0.005165,-0.002649,86.488555,0.005165,
980,250,0.221576,-9.259976,0.999998,0.000178,-0.001162,0.003941,0.000168,0.003946,-0.001167,88.110857,0.004055,
1440,740,-0.444603,-7.120474,0.999997,0.000215,-0.003449,0.005551,0.001327,0.005743,-0.003641,81.784062,0.005811,
1040,320,0.203588,-9.023658,0.999998,0.000165,-0.001370,0.003915,-0.000101,0.003917,-0.001372,-88.905129,0.003975,
670,1280,1.629451,-3.818211,0.999997,0.000191,-0.002568,0.005051,-0.000389,0.005071,-0.002588,-87.088277,0.005071,
1220,1560,0.014789,-1.594696,0.999998,0.000168,-0.001279,0.003452,0.000125,0.003456,-0.001282,88.487063,0.003494,
600,1450,1.514249,-3.048851,0.999997,0.000220,-0.002540,0.005053,-0.000048,0.005054,-0.002541,-89.637990,0.005054,
830,330,0.557994,-8.775774,0.999997,0.000206,-0.001966,0.004765,0.000095,0.004766,-0.001967,89.190731,0.004790,
1220,310,0.011276,-9.135034,0.999999,0.000137,-0.000978,0.003516,-0.000053,0.003516,-0.000978,-89.320950,0.003630,
1810,2000,-0.154227,-0.153756,0.999997,0.000196,-0.000778,0.004589,0.001835,0.005156,-0.001346,72.816694,0.005349,
1650,1030,-1.622305,-5.027894,0.999997,0.000207,-0.002002,0.005115,-0.000002,0.005115,-0.002002,-89.983933,0.005155,
1540,1170,-1.153793,-4.183741,0.999998,0.000161,-0.003114,0.006290,0.000611,0.006330,-0.003153,86.296954,0.006330,
1700,930,-1.655359,-5.529945,0.999997,0.000242,-0.002268,0.005092,-0.000451,0.005120,-0.002296,-86.508292,0.005129,
1270,1520,-0.049196,-1.741090,0.999999,0.000146,-0.001262,0.003321,-0.000210,0.003331,-0.001272,-87.380403,0.003361,
1830,1820,-0.821219,-1.116233,0.999998,0.000180,-0.002383,0.005076,0.000200,0.005082,-0.002388,88.462031,0.005085,
1600,1630,-0.603920,-1.715811,0.999998,0.000201,-0.002244,0.004814,-0.000183,0.004819,-0.002249,-88.517025,0.004823,
1790,340,-0.929496,-8.498891,0.999998,0.000173,-0.002395,0.005030,0.000013,0.005030,-0.002395,89.899321,0.005032,
1480,1240,-0.737008,-3.570900,0.999997,0.000226,-0.003927,0.006562,-0.000468,0.006582,-0.003947,-87.448592,0.006626,
1140,180,0.045717,-9.572618,0.999998,0.000172,-0.000604,0.003367,0.000069,0.003368,-0.000606,89.011881,0.003591,
1080,1330,0.253767,-2.653710,0.999997,0.000196,-0.002766,0.004433,0.001788,0.004852,-0.003186,76.794719,0.004931,
1610,710,-0.983278,-6.845188,0.999998,0.000168,-0.003189,0.005746,0.000003,0.005746,-0.003189,89.982957,0.005758,
1570,110,-0.130159,-9.765607,0.999998,0.000156,-0.000645,0.003718,-0.000624,0.003806,-0.000732,-82.021022,0.004039,
1690,180,-0.398122,-9.417241,0.999998,0.000166,-0.001612,0.004555,-0.000737,0.004642,-0.001699,-83.275951,0.004697,
1730,1750,-0.728816,-1.310807,0.999998,0.000182,-0.002219,0.004964,0.000176,0.004969,-0.002224,88.595797,0.004978,
1600,230,-0.354689,-9.262231,0.999998,0.000190,-0.001524,0.004356,-0.000371,0.004380,-0.001548,-86.403875,0.004442,
1800,790,-1.674451,-6.179435,0.999998,0.000202,-0.002523,0.005043,-0.000399,0.005064,-0.002544,-86.988782,0.005064,
1120,1770,0.100514,-0.881242,0.999999,0.000124,-0.001017,0.003623,0.000046,0.003624,-0.001018,89.436469,0.003738,
1290,1550,-0.072407,-1.647319,0.999998,0.000143,-0.001323,0.003495,-0.000287,0.003512,-0.001340,-86.601301,0.003544,
1690,1390,-1.150655,-3.108335,0.999997,0.000193,-0.002883,0.005425,0.000106,0.005426,-0.002884,89.269531,0.005430,
1370,1620,-0.176439,-1.457231,0.999998,0.000204,-0.001452,0.003860,-0.000336,0.003882,-0.001473,-86.396432,0.003919,
770,1000,1.699615,-5.177206,0.999998,0.000165,-0.002094,0.004965,0.000165,0.004969,-0.002097,88.662839,0.004989,
1820,1750,-0.942855,-1.454437,0.999998,0.000195,-0.002424,0.005081,0.000057,0.005082,-0.002424,89.561129,0.005084,
910,770,0.904933,-6.597778,0.999997,0.000180,-0.003512,0.006175,0.000005,0.006175,-0.003512,89.971599,0.006195,
920,1670,0.443552,-1.451037,0.999996,0.000218,-0.001855,0.004521,0.000144,0.004525,-0.001859,88.707883,0.004549,
1090,70,0.021802,-9.923618,0.999998,0.000157,-0.000143,0.003135,0.000208,0.003148,-0.000156,86.374958,0.003548,
1510,60,-0.042307,-9.947031,0.999998,0.000145,-0.000310,0.003327,-0.000454,0.003383,-0.000366,-82.985159,0.003713,
1200,30,0.003522,-10.050106,0.999999,0.000000,0.000040,0.003000,0.000008,0.003000,0.000040,89.854621,0.003487,
870,390,0.550956,-8.539372,0.999997,0.000216,-0.002122,0.004722,-0.000113,0.004724,-0.002124,-89.057273,0.004732,
1410,560,-0.275341,-8.062502,0.999998,0.000192,-0.002064,0.004199,0.000863,0.004316,-0.002181,82.297938,0.004316,
1900,1590,-1.392581,-2.391549,0.999997,0.000000,-0.002478,0.005014,-0.000080,0.005015,-0.002478,-89.390383,0.005015,
1520,1390,-0.627784,-2.787885,0.999997,0.000193,-0.003146,0.005504,-0.000657,0.005554,-0.003196,-85.682199,0.005575,
1850,1690,-1.117427,-1.809363,0.999998,0.000193,-0.002435,0.005008,-0.000039,0.005008,-0.002435,-89.700824,0.005009,
1590,2010,-0.040365,-0.088863,0.999999,0.000134,-0.000304,0.003478,0.000673,0.003594,-0.000420,80.197366,0.003930,
750,400,0.837415,-8.316742,0.999998,0.000169,-0.002426,0.005064,-0.000046,0.005065,-0.002426,-89.645599,0.005066,
1820,600,-1.395874,-7.122204,0.999998,0.000178,-0.002581,0.005086,-0.000057,0.005087,-0.002582,-89.575674,0.005087,
1190,170,0.021993,-9.610430,0.999998,0.000166,-0.000489,0.003294,0.000021,0.003295,-0.000489,89.687931,0.003556,
1340,1980,-0.020464,-0.170084,0.999998,0.000152,-0.000198,0.003103,0.000145,0.003109,-0.000204,87.487466,0.003478,
660,1140,1.872756,-4.513516,0.999998,0.000153,-0.002262,0.004715,-0.000310,0.004728,-0.002276,-87.464702,0.004729,
1690,420,-0.808848,-8.252046,0.999998,0.000167,-0.002398,0.005026,0.000088,0.005027,-0.002399,89.319816,0.005029,
740,1300,1.406939,-3.639951,0.999998,0.000198,-0.002824,0.005377,-0.000419,0.005399,-0.002845,-87.084387,0.005401,
700,780,1.562987,-6.265376,0.999997,0.000206,-0.002624,0.005147,0.000433,0.005171,-0.002648,86.817519,0.005171,
950,1230,0.889691,-3.738972,0.999998,0.000187,-0.003702,0.006512,-0.000042,0.006512,-0.003702,-89.767023,0.006533,
1880,600,-1.549688,-7.031051,0.999997,0.000218,-0.002534,0.005082,-0.000009,0.005082,-0.002534,-89.930947,0.005082,
1070,560,0.241995,-8.093310,0.999998,0.000153,-0.001900,0.004055,-0.000817,0.004165,-0.002010,-82.326962,0.004166,
590,1450,1.539873,-3.063862,0.999997,0.000220,-0.002830,0.004991,-0.000062,0.004992,-0.002830,-89.543651,0.005007,
1200,310,0.030268,-9.131636,0.999999,0.000143,-0.000937,0.003552,-0.000042,0.003552,-0.000938,-89.461305,0.003682,
1710,1500,-1.039118,-2.553218,0.999998,0.000179,-0.002695,0.005263,-0.000096,0.005264,-0.002696,-89.310985,0.005264,
830,310,0.532741,-8.868345,0.999998,0.000188,-0.001881,0.004647,0.000160,0.004651,-0.001885,88.596036,0.004678,
1040,300,0.193226,-9.102753,0.999998,0.000177,-0.001300,0.003859,-0.000078,0.003860,-0.001302,-89.131810,0.003928,
1690,960,-1.668034,-5.378476,0.999998,0.000178,-0.002208,0.005101,-0.000421,0.005125,-0.002232,-86.717276,0.005139,
960,250,0.248553,-9.244802,0.999998,0.000164,-0.001345,0.003992,0.000175,0.003998,-0.001350,88.125339,0.004068,
1250,1520,-0.022558,-1.733019,0.999999,0.000134,-0.001275,0.003284,-0.000176,0.003290,-0.001282,-87.794951,0.003317,
1870,550,-1.446715,-7.301258,0.999997,0.000217,-0.002561,0.005132,-0.000007,0.005132,-0.002561,-89.948601,0.005132,
910,1900,0.184293,-0.483458,0.999998,0.000180,-0.000744,0.003889,-0.000552,0.003953,-0.000809,-83.301700,0.004177,
780,830,1.441425,-6.069736,0.999997,0.000201,-0.002762,0.005435,0.000589,0.005477,-0.002804,85.912321,0.005478,
1140,160,0.040978,-9.640085,0.999998,0.000144,-0.000518,0.003306,0.000082,0.003307,-0.000520,88.771310,0.003557,
1080,1310,0.267322,-2.744409,0.999998,0.000200,-0.002964,0.004589,0.001898,0.005040,-0.003414,76.657214,0.005144,
1190,60,0.005649,-9.958258,0.999999,0.000139,-0.000110,0.003025,0.000055,0.003026,-0.000111,88.993926,0.003432,
1080,1980,0.023954,-0.172014,0.999999,0.000157,-0.000158,0.003166,-0.000237,0.003182,-0.000174,-85.940534,0.003578,
1290,1530,-0.073372,-1.714940,0.999998,0.000147,-0.001337,0.003439,-0.000325,0.003461,-0.001359,-86.127311,0.003488,
640,330,0.994741,-8.494475,0.999998,0.000149,-0.002446,0.005043,-0.000020,0.005043,-0.002446,-89.848041,0.005043,
1190,2020,0.003773,-0.048085,0.999999,0.000000,-0.000048,0.002954,-0.000009,0.002954,-0.000048,-89.825756,0.003384,
830,960,1.542779,-5.392213,0.999997,0.000234,-0.002146,0.005312,0.000502,0.005345,-0.002180,86.169136,0.005376,
950,1680,0.380924,-1.370763,0.999998,0.000182,-0.001819,0.004370,0.000181,0.004375,-0.001824,88.323908,0.004395,
1610,730,-1.019487,-6.729598,0.999998,0.000162,-0.003232,0.005800,-0.000085,0.005800,-0.003233,-89.460291,0.005813,
1760,1300,-1.508201,-3.681060,0.999997,0.000201,-0.002685,0.005255,0.000390,0.005274,-0.002704,87.193866,0.005274,
660,1120,1.895167,-4.606324,0.999998,0.000166,-0.002266,0.004745,-0.000352,0.004762,-0.002284,-87.131992,0.004764,
1410,400,-0.225959,-8.717207,0.999998,0.000182,-0.001558,0.004002,0.000323,0.004020,-0.001577,86.687162,0.004051,
1350,490,-0.158355,-8.430741,0.999998,0.000152,-0.001470,0.003751,0.000470,0.003793,-0.001512,84.901453,0.003819,
950,1210,0.946557,-3.871523,0.999998,0.000195,-0.003614,0.006567,-0.000185,0.006570,-0.003617,-88.956953,0.006581,
860,190,0.293789,-9.431272,0.999998,0.000198,-0.001298,0.004244,0.000539,0.004296,-0.001350,84.494083,0.004393,
1000,730,0.514519,-7.091972,0.999996,0.000235,-0.003493,0.005647,-0.001087,0.005774,-0.003620,-83.309493,0.005836,
580,1450,1.565676,-3.079532,0.999997,0.000198,-0.003749,0.004947,-0.000101,0.004949,-0.003750,-89.335955,0.005163,
1870,600,-1.525239,-7.046192,0.999997,0.000206,-0.002519,0.005062,-0.000021,0.005062,-0.002519,-89.841883,0.005062,
1690,1370,-1.184237,-3.218481,0.999998,0.000185,-0.002890,0.005469,0.000158,0.005472,-0.002893,88.914087,0.005475,
1440,720,-0.424481,-7.230200,0.999997,0.000217,-0.003289,0.005363,0.001320,0.005559,-0.003486,81.515157,0.005619,
740,1280,1.444938,-3.749344,0.999997,0.000216,-0.002766,0.005359,-0.000474,0.005386,-0.002793,-86.674247,0.005387,
1580,2010,-0.037829,-0.087057,0.999999,0.000131,-0.000257,0.003443,0.000644,0.003552,-0.000366,80.406108,0.003908,
910,120,0.134466,-9.729099,0.999998,0.000159,-0.000569,0.003739,0.000629,0.003829,-0.000659,81.856350,0.004095,
1220,1540,0.014238,-1.662366,0.999998,0.000171,-0.001258,0.003358,0.000124,0.003361,-0.001262,88.466564,0.003396,
1890,290,-1.084895,-8.567469,0.999997,0.000192,-0.002399,0.004800,0.000019,0.004800,-0.002399,89.849967,0.004800,
910,1510,0.606031,-2.230936,0.999997,0.000206,-0.002616,0.005038,0.000504,0.005071,-0.002649,86.248727,0.005072,
1670,960,-1.622716,-5.383758,0.999997,0.000179,-0.002189,0.005173,-0.000448,0.005200,-0.002216,-86.531645,0.005219,
1630,1500,-0.822051,-2.421288,0.999998,0.000169,-0.002684,0.005194,-0.000261,0.005203,-0.002693,-88.104620,0.005204,
870,810,1.129393,-6.278463,0.999998,0.000204,-0.003247,0.006029,0.000442,0.006050,-0.003268,87.279048,0.006057,
1570,90,-0.099085,-9.836862,0.999998,0.000148,-0.000519,0.003567,-0.000652,0.003668,-0.000620,-81.148724,0.003927,
1260,310,-0.026365,-9.132250,0.999999,0.000154,-0.000943,0.003523,0.000055,0.003524,-0.000944,89.291695,0.003648,
1860,1180,-1.954424,-4.367175,0.999998,0.000175,-0.002200,0.004519,0.000188,0.004524,-0.002205,88.399682,0.004524,
700,760,1.525710,-6.369739,0.999997,0.000218,-0.002648,0.005211,0.000392,0.005230,-0.002668,87.152118,0.005231,
1460,1850,-0.159749,-0.636332,0.999999,0.000149,-0.000820,0.003745,0.000271,0.003761,-0.000836,86.608159,0.003950,
900,1690,0.461146,-1.382601,0.999997,0.000213,-0.001962,0.004580,0.000070,0.004581,-0.001962,89.383148,0.004596,
1190,150,0.017769,-9.676600,0.999998,0.000148,-0.000417,0.003223,0.000067,0.003224,-0.000418,88.951202,0.003507,
830,290,0.501920,-8.961095,0.999998,0.000196,-0.001749,0.004625,0.000263,0.004635,-0.001760,87.638096,0.004680,
1860,550,-1.420471,-7.316492,0.999996,0.000227,-0.002535,0.005129,-0.000003,0.005129,-0.002535,-89.975888,0.005130,
760,830,1.495380,-6.055227,0.999998,0.000180,-0.002700,0.005359,0.000571,0.005399,-0.002740,85.966188,0.005399,
1310,440,-0.095210,-8.653499,0.999999,0.000136,-0.001328,0.003616,0.000266,0.003630,-0.001342,86.930044,0.003671,
1700,1810,-0.555837,-0.979908,0.999998,0.000164,-0.001976,0.004817,0.000470,0.004849,-0.002008,86.059013,0.004873,
1040,280,0.180720,-9.178184,0.999998,0.000156,-0.001221,0.003823,0.000003,0.003823,-0.001221,89.971139,0.003905,
610,1040,2.048666,-4.984422,0.999999,0.000154,-0.002095,0.004408,-0.000097,0.004409,-0.002096,-89.142879,0.004411,
1060,1330,0.312957,-2.734078,0.999997,0.000181,-0.003008,0.004861,0.001653,0.005194,-0.003341,78.608722,0.005265,
640,2010,0.121226,-0.119868,0.999997,0.000207,-0.001367,0.004508,-0.001593,0.004912,-0.001771,-75.763697,0.004975,
1110,60,0.013416,-9.957044,0.999999,0.000137,-0.000134,0.003108,0.000174,0.003118,-0.000144,86.930071,0.003520,
1190,1200,0.197542,-2.487987,0.999996,0.000000,-0.003694,0.001326,0.000022,0.001326,-0.003694,89.748962,0.003743,
1900,1580,-1.406671,-2.442411,0.999997,0.000000,-0.002423,0.005044,-0.000034,0.005044,-0.002423,-89.740853,0.005045,
1290,1510,-0.074022,-1.783808,0.999998,0.000157,-0.001355,0.003398,-0.000409,0.003433,-0.001390,-85.116227,0.003453,
1720,70,-0.143510,-9.881783,0.999998,0.000150,-0.000526,0.003997,-0.001281,0.004334,-0.000863,-75.233245,0.004588,
1580,1630,-0.560465,-1.689322,0.999997,0.000202,-0.002162,0.004734,-0.000197,0.004739,-0.002168,-88.361049,0.004745,
1870,440,-1.282462,-7.859907,0.999997,0.000187,-0.002471,0.004988,0.000049,0.004988,-0.002471,89.621213,0.004988,
1750,1700,-0.857741,-1.593707,0.999997,0.000212,-0.002420,0.005044,-0.000008,0.005044,-0.002420,-89.938648,0.005045,
1760,1280,-1.545858,-3.785815,0.999998,0.000203,-0.002667,0.005167,0.000424,0.005190,-0.002689,86.914346,0.005191,
1410,380,-0.216394,-8.797574,0.999998,0.000159,-0.001505,0.003993,0.000263,0.004006,-0.001517,87.265647,0.004045,
1080,1960,0.036375,-0.235484,0.999998,0.000152,-0.000220,0.003217,-0.000236,0.003234,-0.000236,-86.086045,0.003605,
1610,750,-1.058191,-6.611933,0.999997,0.000176,-0.003246,0.005860,-0.000188,0.005864,-0.003250,-88.815590,0.005875,
950,1630,0.420417,-1.593240,0.999998,0.000191,-0.001917,0.004502,0.000301,0.004516,-0.001931,87.320326,0.004532,
1690,1350,-1.219014,-3.327821,0.999997,0.000213,-0.002899,0.005507,0.000234,0.005514,-0.002905,88.408439,0.005516,
1000,710,0.490516,-7.204842,0.999997,0.000222,-0.003329,0.005503,-0.001087,0.005635,-0.003461,-83.087561,0.005684,
740,1260,1.484458,-3.855846,0.999997,0.000209,-0.002695,0.005288,-0.000508,0.005320,-0.002728,-86.370513,0.005321,
1750,880,-1.701484,-5.764460,0.999998,0.000181,-0.002449,0.005082,-0.000513,0.005117,-0.002483,-86.117686,0.005118,
1570,70,-0.070802,-9.908579,0.999998,0.000151,-0.000387,0.003535,-0.000669,0.003646,-0.000498,-80.575936,0.003954,
660,1100,1.915718,-4.704686,0.999998,0.000154,-0.002207,0.004694,-0.000245,0.004703,-0.002215,-87.968874,0.004706,
1860,1160,-1.977566,-4.454358,0.999998,0.000165,-0.002153,0.004477,0.000158,0.004481,-0.002157,88.638659,0.004482,
1860,610,-1.515496,-7.010761,0.999998,0.000196,-0.002526,0.005060,-0.000038,0.005060,-0.002526,-89.710759,0.005060,
880,1450,0.750258,-2.599404,0.999997,0.000198,-0.002886,0.005289,0.000378,0.005307,-0.002903,87.359687,0.005315,
1440,700,-0.408077,-7.333383,0.999997,0.000225,-0.003128,0.005200,0.001301,0.005399,-0.003326,81.322045,0.005447,
1690,1500,-0.984581,-2.520744,0.999997,0.000191,-0.002703,0.005283,-0.000123,0.005285,-0.002705,-89.118195,0.005285,
910,1470,0.643413,-2.432709,0.999996,0.000234,-0.002767,0.005199,0.000517,0.005232,-0.002800,86.300619,0.005236,
1350,470,-0.154982,-8.508704,0.999998,0.000143,-0.001425,0.003791,0.000400,0.003822,-0.001456,85.643096,0.003858,
890,120,0.147522,-9.725159,0.999998,0.000159,-0.000789,0.003798,0.000639,0.003886,-0.000876,82.218171,0.004076,
870,830,1.176628,-6.161327,0.999998,0.000188,-0.003173,0.005977,0.000542,0.006009,-0.003205,86.623341,0.006013,
700,740,1.489861,-6.476164,0.999997,0.000224,-0.002676,0.005256,0.000353,0.005272,-0.002692,87.454033,0.005272,
1140,140,0.034420,-9.705207,0.999998,0.000138,-0.000459,0.003236,0.000077,0.003237,-0.000461,88.802863,0.003503,
1240,310,-0.008566,-9.135692,0.999999,0.000157,-0.000965,0.003511,0.000025,0.003512,-0.000966,89.684649,0.003628,
1070,540,0.238461,-8.175040,0.999998,0.000171,-0.001808,0.004051,-0.000729,0.004141,-0.001897,-83.013989,0.004146,
740,770,1.434565,-6.359526,0.999997,0.000248,-0.002757,0.005397,0.000439,0.005421,-0.002780,86.925096,0.005421,
1700,1830,-0.514263,-0.884441,0.999998,0.000173,-0.001854,0.004722,0.000569,0.004771,-0.001903,85.088237,0.004803,
830,270,0.472153,-9.054208,0.999997,0.000208,-0.001644,0.004576,0.000335,0.004594,-0.001662,86.923712,0.004652,
1190,1190,0.249896,-2.493977,0.999981,0.000000,-0.004149,0.001070,-0.000017,0.001070,-0.004149,-89.816302,0.004308,
1650,1460,-0.929268,-2.666910,0.999998,0.000139,-0.002833,0.005366,-0.000151,0.005369,-0.002836,-88.947322,0.005371,
1890,1160,-2.039880,-4.482294,0.999998,0.000154,-0.002161,0.004297,0.000061,0.004298,-0.002161,89.462473,0.004298,
800,2010,0.056355,-0.093203,0.999998,0.000153,-0.000400,0.003585,-0.000946,0.003798,-0.000613,-77.307047,0.004078,
1720,50,-0.092236,-9.959633,0.999999,0.000148,-0.000299,0.003878,-0.001323,0.004262,-0.000683,-73.822935,0.004578,
840,190,0.318716,-9.419136,0.999997,0.000192,-0.001225,0.004325,0.000616,0.004393,-0.001292,83.737387,0.004515,
970,60,0.037127,-9.949896,0.999998,0.000165,-0.000288,0.003288,0.000421,0.003337,-0.000337,83.368437,0.003674,
1290,1490,-0.073956,-1.851304,0.999998,0.000142,-0.001384,0.003331,-0.000474,0.003378,-0.001431,-84.313005,0.003391,
1040,260,0.166574,-9.253693,0.999998,0.000146,-0.001123,0.003718,0.000033,0.003718,-0.001123,89.607397,0.003814,
840,950,1.507812,-5.448842,0.999997,0.000205,-0.002186,0.005386,0.000537,0.005424,-0.002223,85.965616,0.005453,
1610,770,-1.098045,-6.493801,0.999998,0.000176,-0.003239,0.005905,-0.000274,0.005913,-0.003247,-88.286937,0.005923,
920,990,1.399071,-5.254940,0.999998,0.000196,-0.001924,0.005875,0.000402,0.005895,-0.001945,87.060268,0.006008,
1850,340,-1.077144,-8.394851,0.999998,0.000188,-0.002418,0.004999,0.000078,0.005000,-0.002419,89.399984,0.005001,
1820,1770,-0.905134,-1.351503,0.999998,0.000158,-0.002403,0.005083,0.000096,0.005085,-0.002404,89.262556,0.005087,
900,1670,0.482780,-1.476051,0.999997,0.000201,-0.002040,0.004620,0.000146,0.004623,-0.002043,88.745419,0.004633,
1080,1940,0.046009,-0.300314,0.999998,0.000158,-0.000289,0.003291,-0.000233,0.003306,-0.000304,-86.289543,0.003655,
1840,1710,-1.060891,-1.691549,0.999998,0.000164,-0.002404,0.004975,-0.000048,0.004976,-0.002404,-89.628398,0.004977,
1190,130,0.014990,-9.739633,0.999998,0.000147,-0.000337,0.003198,0.000045,0.003198,-0.000338,89.272733,0.003514,
1750,860,-1.670892,-5.867643,0.999998,0.000177,-0.002489,0.005053,-0.000498,0.005086,-0.002522,-86.235883,0.005086,
740,1240,1.520479,-3.960528,0.999997,0.000196,-0.002638,0.005268,-0.000537,0.005304,-0.002674,-86.130727,0.005304,
1010,420,0.303274,-8.589327,0.999998,0.000206,-0.001709,0.004229,-0.000324,0.004247,-0.001727,-86.888740,0.004272,
910,1450,0.662678,-2.538479,0.999997,0.000221,-0.002874,0.005227,0.000527,0.005261,-0.002908,86.291610,0.005271,
660,1080,1.926690,-4.795727,0.999998,0.000153,-0.002153,0.004594,-0.000112,0.004596,-0.002155,-89.051893,0.004599,
870,850,1.225905,-6.038588,0.999998,0.000187,-0.003061,0.005962,0.000629,0.006006,-0.003104,86.029573,0.006007,
1430,960,-1.067576,-5.689672,0.999998,0.000263,-0.003430,0.008615,0.001350,0.008765,-0.003579,83.682205,0.008814,
780,1720,0.673503,-1.397595,0.999997,0.000189,-0.002221,0.004947,-0.000050,0.004947,-0.002222,-89.598933,0.004956,
1350,120,-0.039848,-9.765575,0.999998,0.000177,-0.000382,0.003232,-0.000156,0.003239,-0.000388,-87.534864,0.003537,
1020,1570,0.316746,-1.754855,0.999998,0.000173,-0.001977,0.004293,0.000583,0.004347,-0.002030,84.736889,0.004350,
1690,1330,-1.255371,-3.438757,0.999997,0.000198,-0.002898,0.005507,0.000316,0.005519,-0.002910,87.846615,0.005522,
1560,1980,-0.072585,-0.188673,0.999998,0.000146,-0.000357,0.003517,0.000636,0.003619,-0.000459,80.911303,0.003941,
1860,1140,-1.998261,-4.544899,0.999998,0.000148,-0.002157,0.004502,0.000188,0.004507,-0.002162,88.385817,0.004508,
1740,1290,-1.473321,-3.711769,0.999997,0.000225,-0.002728,0.005316,0.000421,0.005338,-0.002750,87.012825,0.005339,
1740,1030,-1.807912,-5.027574,0.999998,0.000167,-0.002139,0.004847,0.000016,0.004847,-0.002140,89.865983,0.004858,
1070,520,0.235618,-8.254470,0.999998,0.000151,-0.001756,0.004025,-0.000670,0.004102,-0.001832,-83.474638,0.004109,
1110,2020,0.007861,-0.048783,0.999999,0.000000,-0.000050,0.002998,-0.000126,0.003003,-0.000055,-87.630535,0.003436,
1100,810,0.283817,-7.147019,0.999997,0.000210,-0.003148,0.004489,-0.002263,0.005109,-0.003768,-74.674179,0.005298,
1390,1690,-0.181362,-1.202187,0.999998,0.000163,-0.001316,0.003897,-0.000156,0.003901,-0.001321,-88.292951,0.003969,
1520,1740,-0.336919,-1.116997,0.999998,0.000179,-0.001590,0.004255,0.000010,0.004255,-0.001590,89.906812,0.004300,
1720,40,-0.062337,-9.998591,0.999999,0.000156,-0.000140,0.003858,-0.001379,0.004288,-0.000570,-72.701340,0.004657,
610,1930,0.544804,-0.599147,0.999997,0.000194,-0.002416,0.005327,-0.000702,0.005390,-0.002479,-84.864079,0.005396,
1610,1210,-1.264734,-4.029916,0.999998,0.000180,-0.002976,0.005809,0.000608,0.005851,-0.003018,86.060090,0.005852,
1000,140,0.103782,-9.680503,0.999998,0.000141,-0.000496,0.003508,0.000331,0.003535,-0.000523,85.310930,0.003816,
950,1650,0.405316,-1.501807,0.999997,0.000202,-0.001862,0.004423,0.000248,0.004432,-0.001871,87.746474,0.004450,
1900,1570,-1.424626,-2.492719,0.999997,0.000000,-0.002384,0.005079,-0.000028,0.005079,-0.002384,-89.788111,0.005082,
1140,120,0.027246,-9.768614,0.999998,0.000150,-0.000357,0.003208,0.000086,0.003210,-0.000359,88.616601,0.003518,
1290,1470,-0.073437,-1.916710,0.999998,0.000160,-0.001399,0.003223,-0.000537,0.003285,-0.001461,-83.459467,0.003292,
1540,1270,-0.892230,-3.548280,0.999998,0.000156,-0.003596,0.006249,-0.000015,0.006249,-0.003596,-89.915093,0.006272,
830,250,0.439356,-9.144548,0.999997,0.000209,-0.001574,0.004548,0.000425,0.004577,-0.001603,86.046834,0.004645,
700,720,1.452124,-6.579210,0.999996,0.000221,-0.002705,0.005215,0.000329,0.005229,-0.002719,87.628878,0.005230,
1370,1600,-0.180970,-1.534153,0.999996,0.000241,-0.001510,0.003880,-0.000400,0.003909,-0.001539,-85.782408,0.003939,
1890,1300,-1.834051,-3.841684,0.999998,0.000168,-0.002406,0.004912,0.000085,0.004913,-0.002407,89.337210,0.004914,
900,1650,0.503857,-1.568711,0.999997,0.000188,-0.002126,0.004676,0.000186,0.004681,-0.002131,88.435233,0.004687,
1840,790,-1.773685,-6.135710,0.999998,0.000177,-0.002443,0.004874,-0.000270,0.004884,-0.002453,-87.886754,0.004884,
1760,70,-0.181550,-9.865206,0.999998,0.000175,-0.001072,0.004455,-0.001538,0.004854,-0.001472,-75.447878,0.004978,
1660,1810,-0.475516,-0.935979,0.999998,0.000183,-0.001876,0.004656,0.000392,0.004680,-0.001900,86.578270,0.004707,
1820,1710,-1.012642,-1.656953,0.999997,0.000195,-0.002469,0.005009,-0.000012,0.005009,-0.002469,-89.906341,0.005009,
1650,1010,-1.616091,-5.128054,0.999998,0.000183,-0.001995,0.005104,-0.000185,0.005108,-0.002000,-88.506774,0.005148,
1600,210,-0.324329,-9.345667,0.999998,0.000178,-0.001425,0.004262,-0.000458,0.004299,-0.001461,-85.427104,0.004372,
840,930,1.478819,-5.557363,0.999996,0.000218,-0.002328,0.005503,0.000641,0.005555,-0.002380,85.351432,0.005574,
780,1700,0.703216,-1.495628,0.999997,0.000185,-0.002247,0.004902,-0.000020,0.004902,-0.002247,-89.840969,0.004908,
660,1060,1.932587,-4.888971,0.999998,0.000152,-0.002159,0.004628,-0.000153,0.004631,-0.002162,-88.708336,0.004635,
1630,1460,-0.873060,-2.633047,0.999998,0.000167,-0.002853,0.005375,-0.000217,0.005380,-0.002859,-88.488034,0.005384,
1820,580,-1.364119,-7.223791,0.999997,0.000182,-0.002571,0.005125,-0.000002,0.005125,-0.002571,-89.982587,0.005125,
1810,1780,-0.862286,-1.283829,0.999998,0.000192,-0.002375,0.005074,0.000196,0.005079,-0.002380,88.491480,0.005082,
740,1220,1.558225,-4.066976,0.999997,0.000212,-0.002589,0.005278,-0.000556,0.005317,-0.002628,-85.973777,0.005317,
1790,380,-0.995042,-8.294824,0.999998,0.000188,-0.002436,0.005061,0.000024,0.005061,-0.002436,89.817898,0.005062,
590,940,2.054019,-5.412485,0.999999,0.000145,-0.002097,0.004387,0.000145,0.004390,-0.002100,88.719473,0.004392,
1020,1550,0.327226,-1.842573,0.999997,0.000178,-0.002063,0.004344,0.000651,0.004410,-0.002129,84.254011,0.004411,
770,340,0.703064,-8.646467,0.999997,0.000196,-0.002167,0.004957,0.000076,0.004957,-0.002167,89.390402,0.004970,
1440,250,-0.178392,-9.280663,0.999998,0.000183,-0.001062,0.003823,-0.000117,0.003826,-0.001065,-88.625372,0.003949,
1390,1670,-0.189758,-1.281428,0.999998,0.000173,-0.001401,0.003915,-0.000242,0.003926,-0.001412,-87.397392,0.003977,
1040,1020,1.135433,-5.117763,0.999993,0.000349,-0.004593,0.011100,-0.000387,0.011109,-0.004602,-88.586524,0.011164,
860,1450,0.807106,-2.635866,0.999997,0.000193,-0.002905,0.005336,0.000310,0.005348,-0.002916,87.851224,0.005355,
1040,240,0.152667,-9.327956,0.999998,0.000167,-0.001019,0.003749,0.000083,0.003751,-0.001020,88.997026,0.003879,
1730,1730,-0.763029,-1.408648,0.999998,0.000178,-0.002300,0.004998,0.000080,0.004999,-0.002301,89.374915,0.005004,
1520,1720,-0.358165,-1.204533,0.999998,0.000181,-0.001643,0.004428,-0.000012,0.004428,-0.001643,-89.889889,0.004477,
610,1910,0.619501,-0.706153,0.999997,0.000204,-0.002442,0.005223,-0.000519,0.005258,-0.002477,-86.147015,0.005261,
1900,1560,-1.437948,-2.543776,0.999997,0.000000,-0.002397,0.005101,-0.000017,0.005101,-0.002397,-89.870075,0.005104,
1480,1220,-0.790824,-3.702879,0.999997,0.000214,-0.003909,0.006660,-0.000302,0.006669,-0.003918,-88.362454,0.006703,
1610,1190,-1.309794,-4.145551,0.999998,0.000182,-0.002847,0.005789,0.000684,0.005843,-0.002901,85.496248,0.005843,
1000,580,0.402498,-7.863453,0.999998,0.000208,-0.002467,0.004680,-0.000882,0.004787,-0.002574,-83.066172,0.004792,
720,790,1.527551,-6.232988,0.999998,0.000200,-0.002693,0.005219,0.000483,0.005248,-0.002722,86.518088,0.005250,
1560,1960,-0.100534,-0.258650,0.999999,0.000148,-0.000489,0.003586,0.000628,0.003680,-0.000584,81.433683,0.003956,
1350,450,-0.151952,-8.583308,0.999998,0.000159,-0.001380,0.003756,0.000341,0.003779,-0.001403,86.221648,0.003820,
1290,440,-0.070860,-8.662494,0.999998,0.000150,-0.001219,0.003550,0.000134,0.003554,-0.001223,88.389090,0.003611,
950,1670,0.388584,-1.417492,0.999997,0.000193,-0.001841,0.004387,0.000197,0.004393,-0.001848,88.194077,0.004411,
1080,810,0.352055,-7.017970,0.999997,0.000213,-0.003455,0.005198,-0.002061,0.005664,-0.003921,-77.262431,0.005802,
1140,100,0.023126,-9.834573,0.999998,0.000159,-0.000288,0.003173,0.000102,0.003176,-0.000291,88.317813,0.003511,
1220,1520,0.015221,-1.728796,0.999998,0.000153,-0.001271,0.003316,0.000135,0.003320,-0.001275,88.321344,0.003350,
950,60,0.044125,-9.946992,0.999999,0.000177,-0.000266,0.003323,0.000491,0.003389,-0.000332,82.344600,0.003737,
1190,860,0.217351,-7.587003,0.999996,0.000000,-0.003913,0.000742,-0.000282,0.000759,-0.003930,-86.546021,0.004169,
1520,1270,-0.818542,-3.499352,0.999997,0.000203,-0.003701,0.006320,-0.000213,0.006324,-0.003706,-88.783870,0.006355,
1190,110,0.011760,-9.804229,0.999998,0.000160,-0.000275,0.003181,0.000044,0.003181,-0.000276,89.271674,0.003525,
1690,1310,-1.293944,-3.548299,0.999997,0.000193,-0.002910,0.005489,0.000381,0.005507,-0.002927,87.409546,0.005510,
1840,1550,-1.303995,-2.501154,0.999997,0.000213,-0.002542,0.005134,-0.000054,0.005135,-0.002543,-89.593854,0.005135,
610,400,1.181563,-8.089469,0.999998,0.000164,-0.002474,0.005024,-0.000072,0.005024,-0.002475,-89.448567,0.005025,
1290,1450,-0.073344,-1.982063,0.999998,0.000163,-0.001377,0.003151,-0.000624,0.003235,-0.001462,-82.293504,0.003240,
1680,1390,-1.121852,-3.093490,0.999998,0.000198,-0.002936,0.005455,0.000089,0.005456,-0.002937,89.394329,0.005462,
830,230,0.404338,-9.235694,0.999997,0.000205,-0.001495,0.004486,0.000493,0.004527,-0.001536,85.319190,0.004604,
1770,1860,-0.584841,-0.819099,0.999997,0.000194,-0.002247,0.004981,0.000602,0.005031,-0.002297,85.267793,0.005037,
1860,1120,-2.020589,-4.634845,0.999998,0.000143,-0.002167,0.004477,0.000200,0.004483,-0.002173,88.275657,0.004483,
1610,1460,-0.814555,-2.596013,0.999998,0.000156,-0.002854,0.005353,-0.000285,0.005363,-0.002863,-88.014661,0.005367,
1660,1790,-0.511331,-1.028775,0.999997,0.000206,-0.001959,0.004688,0.000317,0.004703,-0.001974,87.278609,0.004723,
700,700,1.415806,-6.684155,0.999997,0.000199,-0.002700,0.005224,0.000282,0.005234,-0.002710,87.967486,0.005236,
1010,400,0.292488,-8.673717,0.999998,0.000175,-0.001610,0.004172,-0.000243,0.004182,-0.001620,-87.601378,0.004217,
910,1430,0.685291,-2.644046,0.999997,0.000211,-0.002972,0.005376,0.000525,0.005409,-0.003005,86.416472,0.005420,
710,1280,1.527436,-3.778814,0.999998,0.000210,-0.002601,0.005196,-0.000422,0.005219,-0.002624,-86.911035,0.005219,
1820,560,-1.334919,-7.327591,0.999997,0.000191,-0.002550,0.005138,0.000032,0.005138,-0.002550,89.764502,0.005138,
780,1680,0.731957,-1.594589,0.999997,0.000184,-0.002304,0.004931,0.000024,0.004931,-0.002304,89.808729,0.004935,
940,1690,0.391776,-1.339681,0.999997,0.000193,-0.001741,0.004371,0.000107,0.004373,-0.001743,88.995688,0.004403,
720,350,0.833696,-8.522429,0.999997,0.000201,-0.002408,0.005055,0.000005,0.005055,-0.002408,89.961277,0.005057,
870,870,1.272337,-5.922316,0.999998,0.000182,-0.002909,0.005904,0.000688,0.005957,-0.002963,85.562094,0.005957,
640,1770,0.911993,-1.357263,0.999998,0.000160,-0.002384,0.005051,-0.000088,0.005052,-0.002385,-89.323260,0.005055,
660,1040,1.943226,-4.982103,0.999999,0.000139,-0.002158,0.004643,-0.000119,0.004645,-0.002160,-88.999917,0.004648,
740,1200,1.595141,-4.172799,0.999998,0.000199,-0.002540,0.005203,-0.000540,0.005240,-0.002578,-86.029578,0.005241,
800,2000,0.076467,-0.128293,0.999998,0.000155,-0.000475,0.003653,-0.000969,0.003869,-0.000691,-77.424563,0.004126,
610,1890,0.683594,-0.808429,0.999998,0.000184,-0.002429,0.005190,-0.000382,0.005209,-0.002449,-87.134796,0.005212,
1310,1260,-0.124042,-2.558306,0.999997,0.000210,-0.002013,0.002488,-0.001969,0.003228,-0.002753,-69.403656,0.003485,
1220,250,0.008602,-9.343907,0.999998,0.000146,-0.000774,0.003426,-0.000001,0.003426,-0.000774,-89.982542,0.003594,
1350,430,-0.148873,-8.658616,0.999998,0.000186,-0.001361,0.003753,0.000284,0.003768,-0.001377,86.827266,0.003814,
1080,1920,0.057812,-0.367591,0.999998,0.000157,-0.000389,0.003316,-0.000208,0.003328,-0.000400,-86.793069,0.003634,
590,930,2.043789,-5.457451,0.999998,0.000164,-0.002123,0.004472,0.000177,0.004477,-0.002128,88.461519,0.004479,
1610,1170,-1.355012,-4.261527,0.999998,0.000188,-0.002691,0.005760,0.000730,0.005822,-0.002754,85.099597,0.005825,
640,2000,0.166246,-0.163498,0.999997,0.000218,-0.001463,0.004697,-0.001586,0.005081,-0.001847,-76.379019,0.005144,
1900,1550,-1.451085,-2.595755,0.999998,0.000000,-0.002434,0.005107,-0.000013,0.005107,-0.002434,-89.902966,0.005109,
1560,1940,-0.130006,-0.331944,0.999998,0.000161,-0.000584,0.003716,0.000635,0.003808,-0.000676,81.770933,0.004063,
860,950,1.465289,-5.455609,0.999997,0.000223,-0.002210,0.005492,0.000564,0.005533,-0.002251,85.830354,0.005565,
720,770,1.490892,-6.338115,0.999997,0.000213,-0.002732,0.005292,0.000423,0.005314,-0.002754,86.987296,0.005315,
1540,1310,-0.809994,-3.298969,0.999998,0.000175,-0.003531,0.006052,-0.000252,0.006058,-0.003538,-88.493318,0.006087,
1520,1700,-0.378520,-1.294673,0.999998,0.000190,-0.001734,0.004361,-0.000079,0.004362,-0.001735,-89.260841,0.004393,
1000,560,0.391559,-7.955942,0.999997,0.000208,-0.002339,0.004597,-0.000793,0.004687,-0.002429,-83.559502,0.004688,
1770,380,-0.945867,-8.327147,0.999998,0.000163,-0.002435,0.005068,0.000055,0.005068,-0.002435,89.577038,0.005069,
1600,190,-0.289334,-9.433446,0.999997,0.000205,-0.001326,0.004244,-0.000528,0.004294,-0.001376,-84.632370,0.004385,
1180,2020,0.003945,-0.047952,0.999999,0.000000,-0.000001,0.002964,-0.000042,0.002965,-0.000001,-89.193871,0.003423,
720,950,1.774767,-5.418347,0.999998,0.000182,-0.002240,0.004956,0.000394,0.004978,-0.002262,86.877884,0.004985,
1660,1770,-0.544916,-1.123815,0.999998,0.000191,-0.002020,0.004741,0.000227,0.004749,-0.002027,88.080854,0.004766,
1770,1780,-0.766220,-1.221491,0.999998,0.000185,-0.002384,0.005033,0.000192,0.005038,-0.002389,88.515119,0.005040,
1140,80,0.016105,-9.895524,0.999999,0.000151,-0.000206,0.003097,0.000128,0.003102,-0.000211,87.779382,0.003466,
1760,1480,-1.200664,-2.736524,0.999997,0.000185,-0.002667,0.005216,-0.000014,0.005216,-0.002667,-89.897041,0.005216,
1270,440,-0.046772,-8.668253,0.999998,0.000160,-0.001213,0.003518,0.000121,0.003521,-0.001216,88.541458,0.003576,
950,800,0.826990,-6.505440,0.999997,0.000198,-0.003746,0.006436,-0.000181,0.006439,-0.003749,-88.981771,0.006468,
1820,540,-1.304143,-7.430110,0.999997,0.000188,-0.002550,0.005133,0.000028,0.005133,-0.002550,89.791079,0.005133,
830,210,0.369427,-9.324494,0.999998,0.000198,-0.001399,0.004424,0.000589,0.004483,-0.001458,84.278170,0.004574,
860,1530,0.716052,-2.217959,0.999997,0.000177,-0.002626,0.005086,0.000316,0.005099,-0.002639,87.657919,0.005100,
1480,1200,-0.852278,-3.840230,0.999998,0.000191,-0.003785,0.006778,-0.000098,0.006779,-0.003786,-89.467822,0.006794,
1840,770,-1.739173,-6.234023,0.999998,0.000172,-0.002476,0.004941,-0.000255,0.004950,-0.002485,-88.032805,0.004950,
1270,1500,-0.049004,-1.805853,0.999998,0.000150,-0.001272,0.003283,-0.000263,0.003298,-0.001287,-86.711205,0.003324,
1650,990,-1.607780,-5.232458,0.999997,0.000178,-0.002029,0.005110,-0.000227,0.005117,-0.002036,-88.177005,0.005153,
670,360,0.969646,-8.391587,0.999998,0.000161,-0.002431,0.005041,0.000015,0.005041,-0.002431,89.881588,0.005042,
780,1660,0.758892,-1.693127,0.999998,0.000177,-0.002358,0.004951,0.000060,0.004951,-0.002359,89.526408,0.004953,
1210,120,0.007978,-9.771932,0.999998,0.000167,-0.000331,0.003187,0.000002,0.003187,-0.000331,89.966664,0.003505,
850,1900,0.244765,-0.508976,0.999997,0.000186,-0.001049,0.004149,-0.000709,0.004244,-0.001144,-82.369659,0.004391,
1190,90,0.011644,-9.865772,0.999999,0.000157,-0.000201,0.003082,0.000050,0.003083,-0.000202,89.121199,0.003449,
1690,1290,-1.333628,-3.658286,0.999997,0.000190,-0.002899,0.005507,0.000438,0.005530,-0.002922,87.025823,0.005533,
740,1180,1.627062,-4.276178,0.999998,0.000194,-0.002485,0.005150,-0.000546,0.005189,-0.002524,-85.929279,0.005190,
660,280,0.854909,-8.781606,0.999998,0.000183,-0.002368,0.005074,0.000194,0.005079,-0.002373,88.508803,0.005083,
940,1670,0.407740,-1.426987,0.999997,0.000219,-0.001826,0.004414,0.000178,0.004419,-0.001831,88.370886,0.004440,
1040,220,0.137639,-9.403396,0.999998,0.000170,-0.000935,0.003675,0.000094,0.003677,-0.000937,88.835159,0.003822,
1080,790,0.315114,-7.119520,0.999997,0.000196,-0.003331,0.004949,-0.002043,0.005425,-0.003808,-76.867167,0.005571,
600,270,0.979670,-8.719552,0.999998,0.000191,-0.002444,0.004963,0.000053,0.004963,-0.002445,89.587007,0.004964,
950,1690,0.374089,-1.327067,0.999997,0.000204,-0.001787,0.004332,0.000162,0.004336,-0.001792,88.485362,0.004358,
1730,1710,-0.794396,-1.511179,0.999998,0.000183,-0.002374,0.005022,0.000042,0.005023,-0.002374,89.676985,0.005025,
1880,1160,-2.018145,-4.473545,0.999998,0.000182,-0.002140,0.004360,0.000075,0.004361,-0.002141,89.337331,0.004361,
890,1180,1.226387,-4.166394,0.999998,0.000180,-0.002997,0.006025,-0.000671,0.006075,-0.003046,-85.768029,0.006075,
1290,1430,-0.069677,-2.043436,0.999998,0.000168,-0.001371,0.003024,-0.000710,0.003135,-0.001483,-81.044686,0.003137,
1540,270,-0.319847,-9.136460,0.999998,0.000162,-0.001351,0.004177,-0.000209,0.004185,-0.001359,-87.837471,0.004270,
590,920,2.032312,-5.502333,0.999998,0.000182,-0.002138,0.004496,0.000167,0.004500,-0.002143,88.557356,0.004502,
1310,1240,-0.155026,-2.608024,0.999997,0.000184,-0.002183,0.002376,-0.001887,0.003055,-0.002863,-70.190493,0.003422,
1390,1650,-0.196059,-1.359797,0.999998,0.000180,-0.001473,0.003892,-0.000314,0.003910,-0.001492,-86.661333,0.003947,
1040,1010,1.126532,-5.227890,0.999988,0.000458,-0.004482,0.011115,-0.000775,0.011153,-0.004521,-87.163018,0.011220,
1000,540,0.382095,-8.046652,0.999997,0.000197,-0.002209,0.004543,-0.000702,0.004615,-0.002281,-84.129752,0.004615,
1560,1920,-0.160540,-0.406945,0.999998,0.000167,-0.000713,0.003800,0.000579,0.003873,-0.000786,82.799791,0.004095,
1840,1530,-1.333078,-2.604838,0.999997,0.000205,-0.002528,0.005117,-0.000040,0.005117,-0.002528,-89.702280,0.005117,
1650,640,-0.993043,-7.170427,0.999998,0.000178,-0.002930,0.005464,0.000064,0.005464,-0.002930,89.561192,0.005469,
1520,1680,-0.394726,-1.380035,0.999997,0.000197,-0.001807,0.004338,-0.000163,0.004343,-0.001811,-88.484497,0.004362,
610,1870,0.746500,-0.914130,0.999998,0.000184,-0.002427,0.005113,-0.000294,0.005124,-0.002438,-87.771808,0.005126,
1610,1150,-1.399651,-4.376569,0.999997,0.000201,-0.002567,0.005659,0.000696,0.005718,-0.002626,85.195490,0.005724,
1750,1860,-0.540254,-0.790401,0.999997,0.000187,-0.002160,0.004912,0.000604,0.004963,-0.002211,85.149268,0.004973,
1900,1540,-1.468982,-2.646887,0.999997,0.000000,-0.002441,0.005083,0.000009,0.005083,-0.002441,89.928774,0.005085,
1210,720,0.020969,-7.835897,0.999999,0.000138,-0.001025,0.001974,-0.000499,0.002054,-0.001106,-80.797733,0.002056,
700,1120,1.803277,-4.593271,0.999998,0.000161,-0.002274,0.004895,-0.000396,0.004917,-0.002296,-86.845160,0.004921,
1120,1290,0.171484,-2.636323,0.999998,0.000184,-0.002420,0.003636,0.002105,0.004296,-0.003080,72.594532,0.004429,
1180,1190,0.281596,-2.543872,0.999981,0.000000,-0.003684,0.001165,0.000090,0.001167,-0.003686,88.932394,0.003768,
820,530,0.827562,-7.768221,0.999998,0.000158,-0.002650,0.005128,-0.000222,0.005134,-0.002656,-88.366777,0.005135,
1480,1180,-0.920221,-3.978729,0.999997,0.000199,-0.003624,0.006841,0.000056,0.006842,-0.003625,89.694563,0.006846,
1710,1140,-1.660727,-4.476242,0.999997,0.000200,-0.002348,0.005077,0.000498,0.005110,-0.002381,86.183317,0.005114,
1240,1530,-0.010725,-1.695085,0.999998,0.000139,-0.001262,0.003326,-0.000107,0.003328,-0.001264,-88.660334,0.003360,
670,800,1.674726,-6.135122,0.999997,0.000206,-0.002496,0.005046,0.000426,0.005070,-0.002520,86.778321,0.005070,
840,1530,0.769149,-2.251227,0.999997,0.000171,-0.002627,0.005126,0.000277,0.005136,-0.002636,87.953283,0.005137,
830,190,0.331178,-9.413888,0.999997,0.000201,-0.001243,0.004368,0.000648,0.004442,-0.001317,83.499602,0.004563,
830,1900,0.264912,-0.516531,0.999998,0.000177,-0.000997,0.004218,-0.000777,0.004331,-0.001111,-81.701571,0.004499,
1820,520,-1.274723,-7.532423,0.999997,0.000194,-0.002555,0.005124,0.000050,0.005124,-0.002555,89.625012,0.005124,
780,1640,0.785312,-1.789703,0.999998,0.000166,-0.002407,0.004988,0.000099,0.004989,-0.002408,89.229474,0.004990,
660,1020,1.943857,-5.073379,0.999998,0.000156,-0.002152,0.004659,0.000088,0.004660,-0.002153,89.262697,0.004664,
1480,1730,-0.283549,-1.121326,0.999997,0.000197,-0.001462,0.004164,-0.000047,0.004164,-0.001462,-89.522756,0.004225,
1650,970,-1.592305,-5.335422,0.999997,0.000198,-0.002106,0.005218,-0.000429,0.005243,-0.002131,-86.655710,0.005274,
1860,1100,-2.039276,-4.725470,0.999998,0.000156,-0.002140,0.004360,0.000080,0.004361,-0.002141,89.293646,0.004361,
740,670,1.252960,-6.896927,0.999998,0.000191,-0.002788,0.005324,0.000176,0.005327,-0.002791,88.756689,0.005329,
1290,1410,-0.070775,-2.104112,0.999998,0.000178,-0.001348,0.002962,-0.000770,0.003095,-0.001482,-80.163879,0.003096,
740,1160,1.662056,-4.379409,0.999998,0.000192,-0.002407,0.005150,-0.000571,0.005193,-0.002450,-85.700429,0.005195,
910,1410,0.705347,-2.755154,0.999998,0.000206,-0.003061,0.005481,0.000495,0.005510,-0.003089,86.693433,0.005523,
690,1280,1.577614,-3.798666,0.999998,0.000183,-0.002578,0.005103,-0.000408,0.005125,-0.002600,-86.968217,0.005125,
870,1310,0.992549,-3.410167,0.999998,0.000179,-0.003288,0.005935,-0.000082,0.005936,-0.003289,-89.492730,0.005947,
1750,1780,-0.719733,-1.189711,0.999998,0.000190,-0.002316,0.005022,0.000222,0.005029,-0.002322,88.271283,0.005034,
1540,250,-0.298353,-9.218687,0.999998,0.000178,-0.001268,0.004182,-0.000272,0.004195,-0.001281,-87.150087,0.004300,
820,1410,0.980421,-2.926471,0.999998,0.000181,-0.002971,0.005474,0.000059,0.005475,-0.002972,89.599564,0.005481,
570,1640,1.283204,-2.120565,0.999972,0.000814,-0.000990,0.005044,-0.000572,0.005098,-0.001044,-84.630214,0.005386,
1520,1660,-0.411086,-1.468313,0.999997,0.000197,-0.001854,0.004451,-0.000215,0.004458,-0.001861,-88.047123,0.004479,
960,180,0.170838,-9.522165,0.999998,0.000180,-0.001001,0.003789,0.000337,0.003812,-0.001024,85.995669,0.003946,
950,400,0.402528,-8.598738,0.999997,0.000215,-0.001857,0.004428,-0.000244,0.004437,-0.001866,-87.780553,0.004456,
600,430,1.252028,-7.921612,0.999998,0.000154,-0.002479,0.004984,-0.000082,0.004985,-0.002480,-89.372878,0.004985,
1650,620,-0.964025,-7.278681,0.999998,0.000176,-0.002895,0.005399,0.000129,0.005401,-0.002897,89.110551,0.005406,
1390,1630,-0.204331,-1.438749,0.999998,0.000180,-0.001565,0.003952,-0.000396,0.003980,-0.001593,-85.919105,0.004006,
1140,60,0.009922,-9.956104,0.999999,0.000144,-0.000143,0.003063,0.000130,0.003068,-0.000148,87.676696,0.003460,
1040,1000,1.119993,-5.340433,0.999994,0.000304,-0.004347,0.010862,-0.001152,0.010949,-0.004434,-85.690977,0.011014,
720,1090,1.790040,-4.737654,0.999998,0.000173,-0.002205,0.004897,-0.000273,0.004908,-0.002216,-87.799988,0.004915,
1560,1900,-0.189460,-0.484549,0.999998,0.000184,-0.000832,0.003911,0.000562,0.003976,-0.000898,83.335004,0.004171,
610,1850,0.801871,-1.013952,0.999998,0.000162,-0.002428,0.005052,-0.000202,0.005057,-0.002433,-88.456523,0.005059,
1820,1550,-1.252296,-2.470400,0.999998,0.000191,-0.002529,0.005141,-0.000062,0.005142,-0.002530,-89.533465,0.005142,
1000,520,0.374612,-8.136076,0.999997,0.000194,-0.002112,0.004474,-0.000632,0.004534,-0.002172,-84.570822,0.004535,
980,1450,0.467081,-2.383438,0.999996,0.000210,-0.002666,0.004973,0.000832,0.005063,-0.002755,83.853927,0.005069,
1220,1530,0.014963,-1.696203,0.999998,0.000165,-0.001264,0.003342,0.000126,0.003346,-0.001267,88.438405,0.003378,
1610,1130,-1.436934,-4.487921,0.999997,0.000210,-0.002423,0.005602,0.000697,0.005663,-0.002483,85.072932,0.005677,
1900,1750,-1.135057,-1.607562,0.999997,0.000000,-0.002339,0.004815,-0.000081,0.004816,-0.002340,-89.351499,0.004817,
1120,1270,0.190564,-2.706997,0.999997,0.000222,-0.002604,0.003659,0.002255,0.004387,-0.003332,72.122187,0.004580,
820,510,0.804259,-7.871313,0.999998,0.000167,-0.002599,0.005107,-0.000229,0.005114,-0.002606,-88.300851,0.005115,
1690,1140,-1.613587,-4.470351,0.999997,0.000198,-0.002381,0.005203,0.000548,0.005242,-0.002421,85.891875,0.005247,
1180,860,0.254938,-7.543495,0.999996,0.000000,-0.003622,0.001289,-0.000196,0.001297,-0.003630,-87.722303,0.003679,
660,980,1.927966,-5.260060,0.999998,0.000193,-0.002161,0.004593,0.000112,0.004595,-0.002163,89.049252,0.004597,
1250,720,-0.018317,-7.838259,0.999999,0.000132,-0.001017,0.001977,0.000425,0.002036,-0.001076,82.065937,0.002037,
680,1530,1.187704,-2.514096,0.999998,0.000161,-0.002585,0.005143,0.000048,0.005143,-0.002586,89.644825,0.005144,
830,170,0.295925,-9.499403,0.999997,0.000204,-0.001092,0.004261,0.000717,0.004356,-0.001186,82.497218,0.004504,
780,1620,0.810947,-1.892482,0.999998,0.000157,-0.002446,0.005027,0.000123,0.005029,-0.002448,89.059031,0.005029,
800,150,0.288838,-9.569502,0.999998,0.000163,-0.001361,0.004327,0.000789,0.004435,-0.001469,82.243901,0.004518,
910,1390,0.730799,-2.864664,0.999998,0.000198,-0.003163,0.005576,0.000441,0.005598,-0.003185,87.118564,0.005616,
1820,500,-1.245955,-7.635137,0.999997,0.000190,-0.002541,0.005106,0.000056,0.005106,-0.002541,89.581081,0.005106,
1500,1690,-0.349196,-1.312383,0.999997,0.000181,-0.001818,0.004290,-0.000209,0.004297,-0.001825,-88.042029,0.004313,
1520,250,-0.273710,-9.232136,0.999998,0.000168,-0.001309,0.004098,-0.000210,0.004106,-0.001317,-87.777870,0.004193,
1780,1030,-1.894649,-5.027901,0.999998,0.000161,-0.002166,0.004746,0.000019,0.004746,-0.002166,89.844078,0.004752,
870,1290,1.032324,-3.530618,0.999998,0.000165,-0.003300,0.005935,-0.000175,0.005938,-0.003304,-88.914803,0.005951,
1070,1580,0.225215,-1.645034,0.999998,0.000190,-0.001707,0.004045,0.000554,0.004097,-0.001760,84.547000,0.004111,
1850,1900,-0.644521,-0.750712,0.999998,0.000176,-0.002452,0.005187,0.000444,0.005212,-0.002478,86.686498,0.005214,
740,1140,1.691319,-4.481730,0.999997,0.000201,-0.002310,0.005059,-0.000469,0.005089,-0.002339,-86.374697,0.005095,
1860,1080,-2.046030,-4.811443,0.999998,0.000163,-0.002101,0.004279,0.000031,0.004279,-0.002102,89.720600,0.004279,
1290,1390,-0.070469,-2.164692,0.999998,0.000176,-0.001331,0.002839,-0.000887,0.003020,-0.001512,-78.481230,0.003020,
1390,1610,-0.210691,-1.518739,0.999998,0.000183,-0.001649,0.003980,-0.000454,0.004016,-0.001685,-85.420299,0.004034,
950,380,0.385393,-8.686749,0.999998,0.000176,-0.001830,0.004358,-0.000211,0.004365,-0.001837,-88.052497,0.004384,
1870,1160,-1.997774,-4.464418,0.999998,0.000174,-0.002132,0.004419,0.000116,0.004421,-0.002134,88.984274,0.004422,
1130,1860,0.060136,-0.560723,0.999998,0.000160,-0.000686,0.003432,-0.000065,0.003433,-0.000687,-89.089275,0.003633,
600,410,1.221419,-8.021722,0.999998,0.000191,-0.002445,0.005015,-0.000068,0.005015,-0.002445,-89.477023,0.005016,
960,160,0.151505,-9.595145,0.999998,0.000154,-0.000875,0.003725,0.000391,0.003758,-0.000908,85.172294,0.003921,
1520,1640,-0.426171,-1.556619,0.999997,0.000215,-0.001927,0.004480,-0.000256,0.004491,-0.001937,-87.717214,0.004505,
620,320,1.025567,-8.507173,0.999998,0.000179,-0.002413,0.005024,-0.000053,0.005024,-0.002413,-89.595198,0.005026,
1130,1990,0.014330,-0.136274,0.999998,0.000148,-0.000191,0.003070,-0.000134,0.003075,-0.000197,-87.657002,0.003443,
1560,1880,-0.217853,-0.563435,0.999998,0.000184,-0.000980,0.003962,0.000503,0.004013,-0.001030,84.249867,0.004168,
1370,860,-0.459221,-6.857330,0.999996,0.000228,-0.002880,0.004552,0.002262,0.005187,-0.003514,74.335007,0.005294,
1000,500,0.364744,-8.225486,0.999997,0.000193,-0.002070,0.004452,-0.000584,0.004503,-0.002122,-84.926891,0.004506,
1900,1760,-1.115777,-1.558448,0.999997,0.000000,-0.002358,0.004870,-0.000088,0.004871,-0.002359,-89.304889,0.004872,
1180,30,0.001216,-10.048220,0.999999,0.000000,0.000038,0.003013,0.000054,0.003014,0.000037,88.965630,0.003502,
700,1090,1.833297,-4.741969,0.999998,0.000191,-0.002205,0.004809,-0.000250,0.004818,-0.002214,-87.960367,0.004823,
1610,1110,-1.475213,-4.600707,0.999997,0.000204,-0.002249,0.005447,0.000571,0.005489,-0.002291,85.778892,0.005514,
1270,1360,-0.039519,-2.208485,0.999999,0.000148,-0.001165,0.002385,-0.000749,0.002537,-0.001316,-78.561120,0.002538,
660,960,1.919362,-5.353611,0.999998,0.000203,-0.002199,0.004663,0.000218,0.004670,-0.002206,88.182024,0.004673,
1880,300,-1.078737,-8.538398,0.999998,0.000185,-0.002419,0.004905,0.000023,0.004905,-0.002419,89.818318,0.004905,
1560,1390,-0.754274,-2.880144,0.999998,0.000175,-0.003149,0.005610,-0.000399,0.005628,-0.003167,-87.399442,0.005643,
1120,1370,0.152715,-2.350581,0.999998,0.000164,-0.001955,0.003556,0.001456,0.003917,-0.002316,76.077489,0.003939,
900,270,0.351928,-9.119780,0.999998,0.000175,-0.001484,0.004284,0.000217,0.004292,-0.001492,87.849691,0.004358,
1820,480,-1.216712,-7.737696,0.999998,0.000178,-0.002527,0.005108,0.000071,0.005109,-0.002527,89.464607,0.005109,
1010,1280,0.545487,-3.215012,0.999997,0.000217,-0.003776,0.006042,0.001068,0.006157,-0.003891,83.863176,0.006228,
820,490,0.780084,-7.973969,0.999998,0.000164,-0.002531,0.005067,-0.000210,0.005073,-0.002537,-88.417058,0.005073,
1090,1640,0.176478,-1.382538,0.999997,0.000190,-0.001381,0.003866,0.000274,0.003881,-0.001396,87.019718,0.003931,
830,150,0.254548,-9.585873,0.999998,0.000182,-0.000935,0.004171,0.000773,0.004285,-0.001049,81.582943,0.004468,
1500,1670,-0.365554,-1.399141,0.999998,0.000192,-0.001853,0.004368,-0.000238,0.004378,-0.001862,-87.816705,0.004394,
770,220,0.491862,-9.225798,0.999997,0.000201,-0.001828,0.004704,0.000557,0.004751,-0.001875,85.164025,0.004786,
780,1600,0.837746,-1.993733,0.999998,0.000152,-0.002483,0.005050,0.000125,0.005052,-0.002485,89.046486,0.005053,
880,1690,0.503537,-1.409408,0.999997,0.000211,-0.002110,0.004619,0.000101,0.004620,-0.002111,89.137989,0.004626,
910,1370,0.760094,-2.978988,0.999998,0.000204,-0.003253,0.005660,0.000391,0.005677,-0.003270,87.494316,0.005699,
740,1120,1.713336,-4.581543,0.999997,0.000190,-0.002244,0.004988,-0.000406,0.005011,-0.002267,-86.793731,0.005018,
1850,1880,-0.708112,-0.854525,0.999998,0.000187,-0.002433,0.005147,0.000365,0.005165,-0.002451,87.247148,0.005167,
1290,1370,-0.065620,-2.219683,0.999999,0.000157,-0.001349,0.002677,-0.000995,0.002909,-0.001582,-76.845228,0.002913,
1230,720,0.001144,-7.849999,0.999998,0.000141,-0.000981,0.001905,-0.000045,0.001906,-0.000982,-89.103227,0.001906,
1520,1620,-0.440193,-1.646133,0.999997,0.000210,-0.002027,0.004543,-0.000324,0.004559,-0.002043,-87.180404,0.004567,
1650,1500,-0.876467,-2.454242,0.999998,0.000165,-0.002738,0.005233,-0.000210,0.005238,-0.002743,-88.491062,0.005240,
1130,1970,0.020719,-0.201900,0.999998,0.000163,-0.000263,0.003146,-0.000123,0.003151,-0.000267,-87.930566,0.003494,
1350,1860,-0.069988,-0.565392,0.999998,0.000143,-0.000653,0.003451,0.000100,0.003453,-0.000656,88.601105,0.003668,
1240,840,-0.033483,-7.689256,0.999994,0.000282,-0.004060,0.001066,0.000079,0.001068,-0.004062,89.121004,0.004211,
1690,1270,-1.372042,-3.769195,0.999998,0.000183,-0.002864,0.005498,0.000485,0.005526,-0.002892,86.692076,0.005528,
1730,1690,-0.825807,-1.611771,0.999998,0.000182,-0.002410,0.005028,0.000007,0.005028,-0.002410,89.948163,0.005030,
1040,200,0.126195,-9.475404,0.999998,0.000180,-0.000862,0.003623,0.000164,0.003629,-0.000868,87.906780,0.003790,
620,340,1.059723,-8.407112,0.999998,0.000169,-0.002401,0.004995,-0.000061,0.004996,-0.002401,-89.528773,0.004997,
1480,1160,-0.989920,-4.117674,0.999998,0.000188,-0.003423,0.006884,0.000183,0.006888,-0.003426,88.985894,0.006888,
1900,1770,-1.098916,-1.509030,0.999997,0.000000,-0.002395,0.004869,-0.000086,0.004870,-0.002396,-89.319374,0.004871,
1190,510,0.053738,-8.423202,0.999999,0.000137,-0.001262,0.003414,-0.000190,0.003422,-0.001269,-87.674539,0.003460,
1170,2020,0.004461,-0.046524,0.999999,0.000000,0.000015,0.002980,-0.000065,0.002982,0.000013,-88.753162,0.003451,
1000,480,0.355301,-8.314263,0.999997,0.000198,-0.002050,0.004407,-0.000546,0.004453,-0.002096,-85.196837,0.004455,
660,940,1.900453,-5.447607,0.999998,0.000191,-0.002233,0.004737,0.000352,0.004754,-0.002251,87.116006,0.004757,
720,1450,1.201779,-2.866769,0.999998,0.000171,-0.002691,0.005224,-0.000029,0.005224,-0.002691,-89.789153,0.005225,
1560,1860,-0.245624,-0.643833,0.999998,0.000189,-0.001081,0.004069,0.000478,0.004113,-0.001125,84.744881,0.004251,
880,550,0.690446,-7.770264,0.999998,0.000185,-0.002660,0.005131,-0.000388,0.005151,-0.002679,-87.154859,0.005152,
1010,1260,0.584270,-3.339578,0.999997,0.000206,-0.003850,0.006228,0.001014,0.006329,-0.003951,84.313916,0.006394,
900,1410,0.736978,-2.776016,0.999998,0.000209,-0.003085,0.005500,0.000425,0.005521,-0.003106,87.170896,0.005535,
1460,870,-0.826930,-6.214642,0.999998,0.000181,-0.003819,0.006965,0.000321,0.006974,-0.003829,88.296359,0.006986,
960,140,0.126785,-9.669882,0.999998,0.000158,-0.000772,0.003619,0.000405,0.003656,-0.000809,84.772846,0.003841,
1610,1090,-1.499590,-4.707118,0.999997,0.000214,-0.002104,0.005402,0.000513,0.005436,-0.002139,86.106410,0.005478,
1580,190,-0.263677,-9.445513,0.999998,0.000188,-0.001282,0.004133,-0.000481,0.004176,-0.001324,-84.961228,0.004268,
1650,950,-1.567479,-5.440918,0.999997,0.000219,-0.002210,0.005253,-0.000495,0.005286,-0.002243,-86.222361,0.005306,
700,1530,1.135236,-2.483118,0.999997,0.000197,-0.002607,0.005168,0.000062,0.005168,-0.002607,89.546392,0.005169,
670,600,1.326664,-7.163287,0.999997,0.000209,-0.002603,0.005141,0.000048,0.005141,-0.002604,89.641404,0.005141,
700,1140,1.781915,-4.495877,0.999998,0.000179,-0.002323,0.004915,-0.000379,0.004935,-0.002343,-87.008783,0.004937,
780,1580,0.863780,-2.095302,0.999998,0.000153,-0.002514,0.005073,0.000159,0.005076,-0.002517,88.797195,0.005076,
570,1850,0.899323,-1.103415,0.999992,0.000320,-0.002532,0.005003,-0.000243,0.005011,-0.002540,-88.154629,0.005011,
650,460,1.170143,-7.852575,0.999998,0.000176,-0.002533,0.005082,-0.000079,0.005083,-0.002534,-89.402398,0.005083,
740,1100,1.735433,-4.682161,0.999998,0.000177,-0.002225,0.004983,-0.000389,0.005004,-0.002246,-86.916566,0.005012,
1820,460,-1.185987,-7.842154,0.999998,0.000170,-0.002508,0.005092,0.000092,0.005094,-0.002509,89.309333,0.005094,
1270,1340,-0.038359,-2.254244,0.999998,0.000187,-0.001149,0.002178,-0.000833,0.002374,-0.001346,-76.704269,0.002382,
600,1010,2.065791,-5.115848,0.999998,0.000164,-0.002082,0.004348,0.000134,0.004351,-0.002085,88.808502,0.004352,
830,130,0.217295,-9.665359,0.999998,0.000178,-0.000819,0.004049,0.000823,0.004184,-0.000955,80.659424,0.004386,
1860,1060,-2.054646,-4.896462,0.999998,0.000156,-0.002089,0.004334,0.000089,0.004335,-0.002090,89.210166,0.004336,
1780,1010,-1.890648,-5.123586,0.999999,0.000133,-0.002164,0.004732,-0.000137,0.004734,-0.002167,-88.862937,0.004740,
830,1940,0.184607,-0.352773,0.999998,0.000169,-0.000719,0.004008,-0.000880,0.004167,-0.000877,-79.783729,0.004393,
1520,1600,-0.454267,-1.737648,0.999998,0.000175,-0.002164,0.004608,-0.000415,0.004634,-0.002189,-86.505677,0.004636,
1390,1590,-0.216117,-1.600079,0.999998,0.000183,-0.001697,0.003989,-0.000521,0.004036,-0.001744,-84.804442,0.004048,
1290,1350,-0.065261,-2.270764,0.999998,0.000178,-0.001379,0.002564,-0.001096,0.002848,-0.001663,-75.466576,0.002862,
1690,1250,-1.411649,-3.878805,0.999997,0.000190,-0.002817,0.005451,0.000521,0.005484,-0.002850,86.409639,0.005485,
1440,680,-0.392309,-7.436946,0.999996,0.000238,-0.002939,0.005032,0.001255,0.005225,-0.003132,81.260662,0.005259,
1480,1140,-1.062093,-4.256344,0.999998,0.000176,-0.003164,0.006955,0.000260,0.006962,-0.003170,88.527280,0.006971,
1130,60,0.011578,-9.956590,0.999999,0.000143,-0.000153,0.003075,0.000147,0.003082,-0.000160,87.394958,0.003470,
1290,720,-0.064107,-7.773000,0.999998,0.000157,-0.001345,0.002451,0.001197,0.002797,-0.001691,73.877655,0.002817,
1670,1560,-0.854608,-2.176616,0.999997,0.000169,-0.002549,0.005094,-0.000198,0.005099,-0.002554,-88.515081,0.005099,
1190,530,0.052776,-8.355313,0.999998,0.000150,-0.001275,0.003368,-0.000226,0.003379,-0.001286,-87.224789,0.003411,
1790,1500,-1.250568,-2.678813,0.999998,0.000171,-0.002586,0.005160,-0.000019,0.005160,-0.002586,-89.860767,0.005160,
1130,1950,0.027143,-0.262521,0.999998,0.000148,-0.000334,0.003200,-0.000124,0.003204,-0.000339,-87.990890,0.003521,
1730,1670,-0.854880,-1.712808,0.999998,0.000188,-0.002430,0.005047,-0.000044,0.005047,-0.002430,-89.660707,0.005048,
1900,1780,-1.079780,-1.460410,0.999997,0.000000,-0.002435,0.004870,-0.000043,0.004870,-0.002435,-89.664192,0.004870,
1000,460,0.345110,-8.402116,0.999998,0.000197,-0.001981,0.004350,-0.000501,0.004390,-0.002021,-85.504906,0.004394,
1350,860,-0.408715,-7.040427,0.999994,0.000322,-0.002179,0.003379,0.002032,0.004043,-0.002843,71.912263,0.004153,
1170,1190,0.318341,-2.593648,0.999997,0.000000,-0.003212,0.001392,0.000168,0.001398,-0.003218,87.915799,0.003227,
1230,840,0.007703,-7.692738,0.999993,0.000321,-0.004280,0.000805,0.000143,0.000809,-0.004284,88.395761,0.004552,
1370,1860,-0.082151,-0.569297,0.999998,0.000146,-0.000603,0.003481,0.000153,0.003487,-0.000609,87.861813,0.003725,
640,1990,0.212048,-0.211504,0.999997,0.000204,-0.001553,0.004964,-0.001593,0.005333,-0.001922,-76.970087,0.005402,
760,90,0.188732,-9.805434,0.999997,0.000181,-0.000679,0.004020,0.001134,0.004279,-0.000938,77.112742,0.004499,
700,1160,1.758195,-4.397363,0.999998,0.000188,-0.002385,0.004952,-0.000447,0.004979,-0.002412,-86.525308,0.004980,
1040,180,0.109077,-9.549240,0.999998,0.000168,-0.000799,0.003526,0.000210,0.003536,-0.000809,87.223832,0.003706,
870,1270,1.073044,-3.646566,0.999997,0.000181,-0.003300,0.005987,-0.000293,0.005996,-0.003309,-88.192455,0.006007,
960,120,0.106263,-9.740573,0.999998,0.000164,-0.000652,0.003570,0.000438,0.003615,-0.000697,84.135232,0.003836,
1560,1840,-0.275725,-0.725400,0.999998,0.000179,-0.001198,0.004101,0.000413,0.004133,-0.001230,85.570877,0.004245,
760,1870,0.431214,-0.696993,0.999997,0.000195,-0.001602,0.004651,-0.000792,0.004749,-0.001701,-82.896530,0.004813,
910,1350,0.789051,-3.091536,0.999998,0.000194,-0.003360,0.005785,0.000329,0.005797,-0.003372,87.941920,0.005823,
1860,1040,-2.063070,-4.985356,0.999999,0.000149,-0.002077,0.004362,0.000100,0.004364,-0.002078,89.106865,0.004366,
1390,1570,-0.222027,-1.679152,0.999998,0.000175,-0.001723,0.004038,-0.000572,0.004094,-0.001780,-84.383702,0.004106,
1690,1230,-1.450831,-3.987690,0.999997,0.000196,-0.002764,0.005433,0.000582,0.005474,-0.002805,85.959791,0.005475,
880,1410,0.800332,-2.816435,0.999998,0.000171,-0.003087,0.005532,0.000329,0.005544,-0.003099,87.813740,0.005557,
840,270,0.455203,-9.063103,0.999996,0.000213,-0.001651,0.004539,0.000317,0.004555,-0.001667,87.073066,0.004609,
1220,1500,0.014733,-1.795220,0.999998,0.000179,-0.001266,0.003212,0.000167,0.003218,-0.001272,87.868098,0.003241,
1200,1530,0.039403,-1.704554,0.999998,0.000149,-0.001267,0.003356,0.000200,0.003364,-0.001276,87.532242,0.003397,
620,1770,0.961046,-1.396160,0.999998,0.000190,-0.002433,0.004987,-0.000021,0.004988,-0.002433,-89.837057,0.004988,
740,830,1.549567,-6.039349,0.999998,0.000214,-0.002644,0.005267,0.000547,0.005304,-0.002681,86.062748,0.005304,
1760,1030,-1.851304,-5.028007,0.999999,0.000139,-0.002180,0.004800,0.000030,0.004800,-0.002181,89.751474,0.004807,
1190,120,0.014095,-9.771197,0.999998,0.000174,-0.000307,0.003205,0.000042,0.003205,-0.000307,89.312044,0.003537,
740,1520,1.045801,-2.469883,0.999998,0.000192,-0.002636,0.005206,0.000106,0.005207,-0.002637,89.228230,0.005208,
790,1340,1.186072,-3.360212,0.999997,0.000215,-0.002974,0.005561,-0.000241,0.005567,-0.002981,-88.382516,0.005572,
1430,1780,-0.184251,-0.887696,0.999998,0.000167,-0.001198,0.003824,0.000035,0.003824,-0.001198,89.600634,0.003912,
1410,640,-0.293763,-7.716260,0.999998,0.000176,-0.002415,0.004400,0.001200,0.004605,-0.002620,80.301332,0.004620,
1520,1580,-0.471456,-1.833020,0.999998,0.000184,-0.002259,0.004671,-0.000453,0.004700,-0.002288,-86.272436,0.004701,
1760,760,-1.518013,-6.371410,0.999997,0.000222,-0.002646,0.005228,-0.000413,0.005250,-0.002668,-87.006326,0.005250,
1670,100,-0.184316,-9.774902,0.999998,0.000149,-0.000930,0.004025,-0.000987,0.004215,-0.001119,-79.136140,0.004367,
1290,1330,-0.063456,-2.319402,0.999998,0.000184,-0.001394,0.002402,-0.001238,0.002770,-0.001762,-73.446672,0.002804,
1080,1900,0.067857,-0.433829,0.999998,0.000162,-0.000467,0.003405,-0.000202,0.003415,-0.000478,-87.022504,0.003698,
700,1450,1.254729,-2.898822,0.999997,0.000177,-0.002654,0.005191,-0.000019,0.005191,-0.002654,-89.860043,0.005192,
1480,1120,-1.129921,-4.391898,0.999997,0.000181,-0.002859,0.007029,0.000337,0.007041,-0.002870,88.047614,0.007081,
1190,550,0.052730,-8.288624,0.999998,0.000166,-0.001275,0.003313,-0.000265,0.003329,-0.001290,-86.711156,0.003356,
1900,2000,-0.309336,-0.286012,0.999988,0.000000,-0.001015,0.007250,0.003236,0.008366,-0.002131,70.968392,0.008695,
1000,440,0.333098,-8.489467,0.999997,0.000202,-0.001900,0.004334,-0.000436,0.004364,-0.001930,-86.022367,0.004374,
800,1990,0.099929,-0.165271,0.999998,0.000168,-0.000549,0.003759,-0.000992,0.003976,-0.000766,-77.630498,0.004219,
1770,1500,-1.197864,-2.648431,0.999998,0.000156,-0.002638,0.005196,-0.000034,0.005196,-0.002638,-89.752187,0.005197,
1730,1650,-0.885402,-1.815491,0.999998,0.000194,-0.002465,0.005064,-0.000100,0.005065,-0.002467,-89.239437,0.005066,
1130,1930,0.034685,-0.329849,0.999999,0.000130,-0.000397,0.003225,-0.000099,0.003228,-0.000400,-88.440671,0.003520,
830,1920,0.226703,-0.434754,0.999998,0.000215,-0.000856,0.004065,-0.000825,0.004199,-0.000991,-80.735811,0.004390,
570,50,0.263218,-9.831934,0.999944,0.000841,-0.000170,0.007339,0.003049,0.008421,-0.001253,70.459086,0.009088,
970,560,0.466505,-7.893430,0.999998,0.000186,-0.002491,0.004796,-0.000685,0.004860,-0.002555,-84.677118,0.004862,
900,730,0.863545,-6.817247,0.999998,0.000179,-0.003399,0.005911,-0.000181,0.005915,-0.003402,-88.888436,0.005937,
700,1180,1.726513,-4.296714,0.999998,0.000186,-0.002439,0.004990,-0.000516,0.005025,-0.002475,-86.049143,0.005025,
1290,1860,-0.033702,-0.554291,0.999999,0.000130,-0.000527,0.003361,0.000064,0.003362,-0.000528,89.060846,0.003616,
1560,1820,-0.301710,-0.808844,0.999998,0.000174,-0.001271,0.004203,0.000352,0.004226,-0.001294,86.334299,0.004330,
1040,160,0.096382,-9.617309,0.999998,0.000173,-0.000692,0.003523,0.000247,0.003538,-0.000706,86.657400,0.003744,
1420,1370,-0.338305,-2.602592,0.999997,0.000207,-0.002822,0.004836,-0.001380,0.005077,-0.003063,-80.093482,0.005113,
960,100,0.082422,-9.811438,0.999998,0.000164,-0.000563,0.003465,0.000457,0.003516,-0.000614,83.612759,0.003756,
1390,1550,-0.227337,-1.763969,0.999998,0.000166,-0.001745,0.004021,-0.000622,0.004088,-0.001811,-83.909314,0.004097,
870,1250,1.118462,-3.769228,0.999997,0.000187,-0.003260,0.006038,-0.000404,0.006055,-0.003278,-87.519028,0.006062,
1270,1420,-0.043818,-2.050000,0.999998,0.000167,-0.001244,0.002839,-0.000445,0.002887,-0.001292,-83.847355,0.002892,
1650,460,-0.761575,-8.114218,0.999998,0.000178,-0.002453,0.004975,0.000181,0.004979,-0.002457,88.607047,0.004980,
1860,1020,-2.066487,-5.073011,0.999998,0.000162,-0.002061,0.004372,-0.000063,0.004373,-0.002061,-89.442873,0.004375,
620,360,1.093107,-8.308284,0.999998,0.000178,-0.002418,0.005007,-0.000042,0.005007,-0.002418,-89.674074,0.005008,
910,1330,0.822386,-3.210296,0.999998,0.000195,-0.003469,0.005942,0.000252,0.005949,-0.003476,88.465055,0.005977,
720,830,1.602618,-6.023552,0.999997,0.000199,-0.002582,0.005182,0.000541,0.005220,-0.002619,86.035812,0.005220,
1090,120,0.046643,-9.764495,0.999999,0.000124,-0.000313,0.003279,0.000210,0.003291,-0.000325,86.670368,0.003627,
1160,1710,0.072818,-1.080396,0.999999,0.000135,-0.001010,0.003569,0.000038,0.003570,-0.001010,89.527444,0.003680,
700,950,1.819856,-5.412793,0.999998,0.000182,-0.002245,0.004883,0.000347,0.004900,-0.002261,87.222658,0.004905,
800,1410,1.039561,-2.958546,0.999999,0.000127,-0.002912,0.005420,0.000005,0.005420,-0.002912,89.963584,0.005425,
1690,1210,-1.490596,-4.097213,0.999997,0.000200,-0.002692,0.005408,0.000617,0.005455,-0.002738,85.669419,0.005455,
1520,1560,-0.486860,-1.926689,0.999998,0.000203,-0.002331,0.004735,-0.000492,0.004769,-0.002365,-86.035385,0.004769,
1670,80,-0.138649,-9.853757,0.999998,0.000146,-0.000720,0.003882,-0.001001,0.004091,-0.000928,-78.241902,0.004289,
1770,830,-1.671648,-6.003140,0.999997,0.000206,-0.002505,0.005013,-0.000490,0.005044,-0.002537,-86.287630,0.005044,
1080,1880,0.081436,-0.502925,0.999998,0.000173,-0.000565,0.003440,-0.000178,0.003448,-0.000573,-87.463677,0.003695,
1760,50,-0.108918,-9.954742,0.999998,0.000168,-0.000651,0.004164,-0.001572,0.004631,-0.001119,-73.431487,0.004833,
1890,990,-2.114401,-5.197553,0.999998,0.000186,-0.002022,0.004102,-0.000081,0.004103,-0.002023,-89.244560,0.004103,
1710,1320,-1.332182,-3.517091,0.999997,0.000240,-0.002864,0.005401,0.000355,0.005417,-0.002880,87.544580,0.005420,
770,1340,1.247090,-3.386094,0.999998,0.000178,-0.002924,0.005491,-0.000276,0.005500,-0.002933,-88.126228,0.005504,
1820,440,-1.159163,-7.941110,0.999998,0.000168,-0.002508,0.005043,0.000088,0.005044,-0.002509,89.330488,0.005044,
1730,1630,-0.912540,-1.916977,0.999999,0.000165,-0.002480,0.005065,-0.000084,0.005066,-0.002481,-89.361756,0.005066,
1410,620,-0.289179,-7.801239,0.999998,0.000183,-0.002300,0.004335,0.001119,0.004519,-0.002484,80.676647,0.004526,
740,1540,1.017853,-2.364833,0.999998,0.000172,-0.002604,0.005181,0.000116,0.005182,-0.002606,89.147481,0.005182,
640,1090,1.963509,-4.754902,0.999998,0.000174,-0.002141,0.004532,-0.000102,0.004533,-0.002142,-89.127408,0.004536,
1000,420,0.321057,-8.576989,0.999998,0.000195,-0.001801,0.004286,-0.000342,0.004305,-0.001820,-86.793970,0.004322,
1130,1910,0.040609,-0.392664,0.999999,0.000121,-0.000485,0.003261,-0.000101,0.003264,-0.000488,-88.460302,0.003521,
1060,1210,0.522872,-3.383733,0.999996,0.000237,-0.003757,0.005907,0.001538,0.006146,-0.003996,81.170259,0.006238,
1900,1990,-0.378957,-0.351285,0.999997,0.000000,-0.001564,0.006798,0.002473,0.007475,-0.002241,74.697262,0.007672,
1170,870,0.355159,-7.480819,0.999997,0.000000,-0.003150,0.001244,-0.000284,0.001262,-0.003169,-86.321594,0.003190,
700,1810,0.688322,-1.059143,0.999998,0.000187,-0.002349,0.005001,-0.000313,0.005015,-0.002362,-87.569013,0.005017,
1480,1100,-1.193193,-4.535464,0.999997,0.000176,-0.002597,0.007015,0.000371,0.007029,-0.002612,87.793062,0.007106,
1190,570,0.051061,-8.223268,0.999998,0.000142,-0.001297,0.003227,-0.000296,0.003246,-0.001316,-86.268671,0.003265,
1150,1580,0.105159,-1.556882,0.999998,0.000173,-0.001416,0.003650,0.000382,0.003679,-0.001445,85.715192,0.003707,
1040,580,0.308992,-7.947359,0.999998,0.000174,-0.002210,0.004362,-0.000911,0.004486,-0.002334,-82.255992,0.004487,
1390,1530,-0.230959,-1.842423,0.999998,0.000158,-0.001791,0.003981,-0.000682,0.004060,-0.001871,-83.351626,0.004064,
1570,310,-0.411365,-8.937718,0.999997,0.000202,-0.001776,0.004424,-0.000062,0.004425,-0.001777,-89.430440,0.004453,
1570,2010,-0.034496,-0.086412,0.999999,0.000131,-0.000190,0.003385,0.000632,0.003493,-0.000299,80.256447,0.003873,
960,80,0.063502,-9.879974,0.999999,0.000171,-0.000430,0.003414,0.000449,0.003466,-0.000482,83.420715,0.003754,
1650,1740,-0.572309,-1.254334,0.999997,0.000203,-0.002033,0.004742,0.000129,0.004745,-0.002035,88.905575,0.004760,
1460,910,-0.975909,-5.932024,0.999998,0.000185,-0.003359,0.007114,0.000030,0.007115,-0.003359,89.835545,0.007118,
1190,1540,0.052368,-1.675466,0.999998,0.000147,-0.001278,0.003407,0.000197,0.003415,-0.001286,87.596494,0.003450,
990,720,0.536970,-7.114940,0.999998,0.000210,-0.003419,0.005651,-0.000986,0.005757,-0.003525,-83.867367,0.005806,
1800,890,-1.836709,-5.686611,0.999998,0.000181,-0.002309,0.004784,-0.000373,0.004803,-0.002329,-86.994415,0.004804,
720,810,1.564163,-6.128308,0.999998,0.000223,-0.002637,0.005220,0.000518,0.005254,-0.002671,86.240885,0.005254,
1010,1400,0.416056,-2.555708,0.999997,0.000214,-0.002839,0.005002,0.001096,0.005152,-0.002989,82.189450,0.005174,
1860,1000,-2.056746,-5.161459,0.999999,0.000147,-0.002059,0.004340,-0.000119,0.004343,-0.002062,-88.939477,0.004344,
1290,1310,-0.064378,-2.362610,0.999998,0.000172,-0.001421,0.002251,-0.001388,0.002717,-0.001886,-71.460624,0.002784,
780,1560,0.887969,-2.198060,0.999998,0.000165,-0.002559,0.005129,0.000173,0.005133,-0.002563,88.713936,0.005133,
870,1230,1.164694,-3.888251,0.999998,0.000177,-0.003179,0.006006,-0.000501,0.006033,-0.003206,-86.885325,0.006037,
830,110,0.175092,-9.747610,0.999998,0.000158,-0.000659,0.003947,0.000865,0.004104,-0.000816,79.710605,0.004346,
620,380,1.126432,-8.206898,0.999998,0.000164,-0.002447,0.005025,-0.000035,0.005025,-0.002447,-89.735070,0.005025,
1730,380,-0.848115,-8.392528,0.999998,0.000205,-0.002428,0.005070,0.000028,0.005070,-0.002428,89.783853,0.005071,
1330,120,-0.031757,-9.768762,0.999999,0.000125,-0.000364,0.003201,-0.000115,0.003205,-0.000368,-88.161577,0.003508,
1350,410,-0.144952,-8.732489,0.999998,0.000174,-0.001337,0.003693,0.000260,0.003706,-0.001351,87.053206,0.003752,
910,1310,0.856026,-3.330226,0.999998,0.000211,-0.003537,0.006060,0.000176,0.006064,-0.003541,88.948595,0.006092,
1520,1540,-0.500136,-2.022554,0.999998,0.000197,-0.002357,0.004757,-0.000533,0.004797,-0.002397,-85.736091,0.004797,
900,710,0.830311,-6.935437,0.999997,0.000183,-0.003332,0.005816,-0.000269,0.005824,-0.003339,-88.319653,0.005845,
1040,1710,0.217857,-1.154645,0.999998,0.000187,-0.001470,0.003917,0.000177,0.003923,-0.001476,88.119844,0.003963,
700,1620,1.008368,-2.020258,0.999998,0.000167,-0.002483,0.005055,0.000109,0.005057,-0.002484,89.173953,0.005057,
1770,870,-1.736434,-5.803176,0.999998,0.000184,-0.002432,0.005020,-0.000467,0.005049,-0.002461,-86.428090,0.005049,
1730,1610,-0.940478,-2.016427,0.999998,0.000169,-0.002509,0.005063,-0.000091,0.005064,-0.002510,-89.311804,0.005064,
740,1560,0.989858,-2.263215,0.999998,0.000161,-0.002579,0.005124,0.000140,0.005126,-0.002582,88.957417,0.005126,
750,1340,1.303895,-3.412575,0.999997,0.000212,-0.002851,0.005422,-0.000279,0.005432,-0.002860,-88.069289,0.005434,
890,60,0.056192,-9.943541,0.999999,0.000137,-0.000321,0.003502,0.000654,0.003611,-0.000430,80.551137,0.003945,
1080,1860,0.090181,-0.571874,0.999998,0.000180,-0.000623,0.003517,-0.000167,0.003524,-0.000629,-87.690523,0.003759,
1000,400,0.307963,-8.663591,0.999998,0.000185,-0.001697,0.004231,-0.000261,0.004243,-0.001708,-87.480871,0.004269,
1130,1890,0.049130,-0.458889,0.999998,0.000145,-0.000553,0.003356,-0.000078,0.003358,-0.000554,-88.854565,0.003600,
580,40,0.181693,-9.916298,0.999997,0.000201,0.000063,0.006949,0.003393,0.008340,-0.001329,67.708048,0.008962,
1040,600,0.314928,-7.859527,0.999998,0.000174,-0.002281,0.004416,-0.000981,0.004557,-0.002422,-81.836345,0.004560,
1760,40,-0.078332,-9.993947,0.999998,0.000168,-0.000500,0.004018,-0.001539,0.004492,-0.000974,-72.866370,0.004726,
1690,1190,-1.529806,-4.206303,0.999997,0.000197,-0.002601,0.005323,0.000569,0.005364,-0.002642,85.910817,0.005364,
1820,420,-1.130041,-8.043530,0.999998,0.000159,-0.002496,0.005047,0.000071,0.005047,-0.002496,89.462775,0.005047,
780,1410,1.096926,-2.990428,0.999998,0.000159,-0.002878,0.005387,-0.000036,0.005387,-0.002878,-89.750051,0.005392,
1220,1480,0.013705,-1.858250,0.999998,0.000173,-0.001241,0.003131,0.000172,0.003138,-0.001248,87.751778,0.003160,
830,1840,0.378889,-0.776331,0.999998,0.000165,-0.001402,0.004408,-0.000567,0.004462,-0.001457,-84.481114,0.004551,
700,930,1.797739,-5.510790,0.999998,0.000167,-0.002270,0.004893,0.000368,0.004912,-0.002289,87.069600,0.004916,
1900,1980,-0.430204,-0.415619,0.999997,0.000000,-0.001979,0.006430,0.001828,0.006810,-0.002359,78.252973,0.006916,
1390,1510,-0.233409,-1.919982,0.999998,0.000173,-0.001836,0.004005,-0.000763,0.004103,-0.001934,-82.680551,0.004105,
790,1640,0.761551,-1.776137,0.999998,0.000177,-0.002390,0.004973,0.000096,0.004974,-0.002391,89.252360,0.004976,
1570,330,-0.436332,-8.848972,0.999997,0.000199,-0.001893,0.004527,-0.000001,0.004527,-0.001893,-89.988210,0.004547,
1840,990,-2.011485,-5.207838,0.999999,0.000197,-0.002135,0.004428,-0.000114,0.004430,-0.002137,-89.006051,0.004431,
960,60,0.039825,-9.947752,0.999999,0.000178,-0.000312,0.003305,0.000450,0.003360,-0.000367,83.007100,0.003686,
680,1090,1.878023,-4.744997,0.999998,0.000186,-0.002227,0.004708,-0.000204,0.004714,-0.002233,-88.317213,0.004716,
820,270,0.487235,-9.045490,0.999998,0.000199,-0.001749,0.004620,0.000324,0.004636,-0.001766,87.091302,0.004680,
1860,980,-2.048045,-5.247017,0.999998,0.000154,-0.002078,0.004294,-0.000045,0.004294,-0.002078,-89.598879,0.004295,
990,700,0.513706,-7.227626,0.999997,0.000210,-0.003273,0.005524,-0.001011,0.005638,-0.003387,-83.530170,0.005676,
570,720,1.793731,-6.412263,0.999954,0.000776,-0.002999,0.004953,0.000381,0.004971,-0.003017,87.264425,0.005009,
1170,860,0.298025,-7.497132,0.999997,0.000000,-0.003000,0.001423,-0.000285,0.001441,-0.003018,-86.332207,0.003019,
1170,1540,0.078698,-1.685266,0.999998,0.000155,-0.001370,0.003481,0.000329,0.003504,-0.001392,86.139227,0.003528,
1310,120,-0.023270,-9.770890,0.999999,0.000157,-0.000301,0.003195,-0.000109,0.003198,-0.000305,-88.216978,0.003531,
830,90,0.138090,-9.822623,0.999998,0.000147,-0.000522,0.003806,0.000908,0.003989,-0.000705,78.624720,0.004257,
1190,1390,0.046286,-2.135247,0.999998,0.000166,-0.001238,0.002658,0.000648,0.002763,-0.001343,80.793387,0.002763,
1480,1080,-1.243621,-4.675340,0.999997,0.000184,-0.002376,0.006922,0.000299,0.006931,-0.002386,88.160981,0.007042,
1660,870,-1.459528,-5.866496,0.999997,0.000208,-0.002644,0.005478,-0.000649,0.005530,-0.002696,-85.457785,0.005530,
1570,780,-0.986661,-6.500853,0.999997,0.000206,-0.003414,0.006099,-0.000163,0.006102,-0.003417,-89.020854,0.006116,
700,1430,1.286511,-3.001851,0.999998,0.000170,-0.002675,0.005194,-0.000098,0.005196,-0.002676,-89.289439,0.005196,
1010,1380,0.429320,-2.657261,0.999996,0.000236,-0.003030,0.005132,0.001154,0.005292,-0.003190,82.106419,0.005329,
1080,1840,0.102670,-0.643058,0.999998,0.000164,-0.000698,0.003557,-0.000135,0.003562,-0.000702,-88.181587,0.003773,
1130,1870,0.055264,-0.525676,0.999998,0.000168,-0.000644,0.003411,-0.000073,0.003413,-0.000646,-88.967537,0.003626,
1890,1900,-0.743372,-0.849979,0.999998,0.000192,-0.002503,0.005106,0.000447,0.005132,-0.002529,86.646410,0.005132,
1280,1710,-0.049791,-1.075056,0.999998,0.000143,-0.001005,0.003535,-0.000031,0.003535,-0.001005,-89.603644,0.003643,
850,700,0.975706,-6.898501,0.999998,0.000168,-0.003153,0.005697,-0.000018,0.005697,-0.003153,-89.883951,0.005708,
1730,1590,-0.969215,-2.120583,0.999998,0.000175,-0.002546,0.005098,-0.000115,0.005099,-0.002548,-89.138928,0.005099,
1350,390,-0.139673,-8.805187,0.999998,0.000154,-0.001291,0.003734,0.000216,0.003743,-0.001300,87.542423,0.003801,
990,1590,0.367933,-1.715179,0.999998,0.000176,-0.002012,0.004408,0.000470,0.004442,-0.002046,85.832891,0.004447,
1870,140,-0.643032,-9.356575,0.999996,0.000241,-0.002418,0.005255,-0.000590,0.005301,-0.002463,-85.625311,0.005305,
1520,1520,-0.514643,-2.118906,0.999997,0.000200,-0.002405,0.004830,-0.000549,0.004871,-0.002446,-85.683615,0.004871,
1610,1070,-1.524987,-4.816738,0.999997,0.000209,-0.002018,0.005299,0.000343,0.005315,-0.002034,87.325036,0.005364,
880,530,0.671438,-7.872209,0.999998,0.000192,-0.002565,0.005061,-0.000367,0.005078,-0.002583,-87.253472,0.005079,
950,560,0.514900,-7.853706,0.999997,0.000219,-0.002556,0.004906,-0.000629,0.004959,-0.002608,-85.216801,0.004961,
1730,1320,-1.388381,-3.541321,0.999998,0.000206,-0.002789,0.005327,0.000352,0.005342,-0.002804,87.523734,0.005344,
1570,350,-0.460282,-8.756562,0.999998,0.000193,-0.001986,0.004536,0.000072,0.004536,-0.001986,89.371435,0.004548,
1410,1860,-0.109814,-0.580065,0.999999,0.000146,-0.000811,0.003546,0.000170,0.003553,-0.000818,87.765546,0.003721,
780,1540,0.913676,-2.299657,0.999998,0.000164,-0.002617,0.005159,0.000164,0.005162,-0.002620,88.789105,0.005163,
1290,1290,-0.068245,-2.403885,0.999998,0.000210,-0.001491,0.002090,-0.001520,0.002648,-0.002049,-69.832785,0.002777,
1780,360,-0.938615,-8.412976,0.999998,0.000179,-0.002393,0.005095,-0.000002,0.005095,-0.002393,-89.981432,0.005098,
1080,1160,0.666033,-3.503905,0.999997,0.000198,-0.002395,0.005095,0.002739,0.005990,-0.003290,71.907439,0.005999,
1390,1490,-0.237145,-2.000110,0.999998,0.000172,-0.001910,0.004019,-0.000843,0.004136,-0.002027,-82.063238,0.004137,
660,920,1.877905,-5.542967,0.999998,0.000189,-0.002260,0.004747,0.000319,0.004762,-0.002274,87.394771,0.004763,
620,820,1.829402,-5.989319,0.999998,0.000153,-0.002361,0.004705,0.000252,0.004714,-0.002370,87.957559,0.004714,
1040,620,0.319996,-7.772510,0.999997,0.000189,-0.002390,0.004483,-0.001093,0.004652,-0.002560,-81.179207,0.004660,
950,1990,0.047092,-0.148884,0.999998,0.000140,-0.000306,0.003345,-0.000497,0.003411,-0.000372,-82.391074,0.003743,
1900,1970,-0.480481,-0.479282,0.999997,0.000000,-0.002212,0.006340,0.001497,0.006595,-0.002467,80.351088,0.006664,
860,1410,0.860399,-2.854881,0.999998,0.000167,-0.003031,0.005530,0.000251,0.005537,-0.003038,88.323681,0.005546,
1690,1170,-1.561394,-4.310759,0.999997,0.000212,-0.002526,0.005265,0.000605,0.005312,-0.002573,85.582843,0.005313,
910,1290,0.895216,-3.452939,0.999997,0.000197,-0.003549,0.006101,0.000060,0.006101,-0.003550,89.640814,0.006128,
770,1640,0.808692,-1.807319,0.999998,0.000156,-0.002410,0.005004,0.000108,0.005005,-0.002412,89.162199,0.005007,
700,1790,0.730353,-1.158817,0.999998,0.000189,-0.002369,0.005014,-0.000234,0.005021,-0.002377,-88.185666,0.005023,
1740,1050,-1.801256,-4.931031,0.999998,0.000166,-0.002131,0.004827,0.000159,0.004831,-0.002134,88.695257,0.004842,
1860,960,-2.042498,-5.331807,0.999998,0.000173,-0.002116,0.004332,-0.000062,0.004332,-0.002116,-89.448593,0.004333,
1710,1460,-1.096239,-2.763595,0.999998,0.000154,-0.002732,0.005289,-0.000033,0.005289,-0.002732,-89.765541,0.005290,
600,310,1.056904,-8.520390,0.999999,0.000137,-0.002434,0.005001,-0.000037,0.005001,-0.002434,-89.711905,0.005002,
720,650,1.273573,-6.974888,0.999997,0.000190,-0.002743,0.005255,0.000131,0.005257,-0.002745,89.060042,0.005259,
870,1210,1.212802,-4.011068,0.999997,0.000191,-0.003067,0.005981,-0.000601,0.006021,-0.003107,-86.217638,0.006022,
700,1600,1.036822,-2.122819,0.999997,0.000191,-0.002499,0.005087,0.000103,0.005088,-0.002500,89.223303,0.005088,
1170,30,0.000923,-10.047692,0.999999,0.000000,-0.000009,0.002997,0.000095,0.003000,-0.000012,88.182817,0.003457,
660,1090,1.921799,-4.750281,0.999999,0.000139,-0.002183,0.004625,-0.000158,0.004628,-0.002187,-88.668129,0.004631,
1820,400,-1.099289,-8.143055,0.999998,0.000164,-0.002479,0.005055,0.000050,0.005055,-0.002479,89.617837,0.005055,
1220,1460,0.013639,-1.919516,0.999999,0.000140,-0.001216,0.003021,0.000176,0.003029,-0.001223,87.629878,0.003047,
820,570,0.876732,-7.559946,0.999998,0.000150,-0.002784,0.005299,-0.000245,0.005307,-0.002792,-88.266813,0.005309,
830,70,0.094806,-9.901087,0.999998,0.000147,-0.000348,0.003713,0.000947,0.003923,-0.000558,77.502165,0.004244,
700,1410,1.320471,-3.107080,0.999998,0.000182,-0.002709,0.005225,-0.000153,0.005228,-0.002712,-88.896936,0.005229,
1880,1900,-0.718650,-0.825299,0.999998,0.000202,-0.002480,0.005105,0.000445,0.005131,-0.002506,86.653387,0.005131,
1010,480,0.334557,-8.331111,0.999997,0.000197,-0.002029,0.004366,-0.000572,0.004417,-0.002080,-84.924638,0.004420,
1480,1060,-1.282022,-4.810510,0.999997,0.000193,-0.002213,0.007112,0.000193,0.007116,-0.002217,88.812689,0.007282,
1510,120,-0.110865,-9.737581,0.999998,0.000154,-0.000621,0.003604,-0.000467,0.003655,-0.000671,-83.772468,0.003891,
1190,1370,0.043783,-2.185870,0.999998,0.000162,-0.001200,0.002493,0.000753,0.002640,-0.001348,78.905723,0.002640,
740,1580,0.963335,-2.160365,0.999998,0.000166,-0.002547,0.005144,0.000137,0.005146,-0.002549,88.979681,0.005146,
1610,500,-0.707250,-7.977344,0.999998,0.000200,-0.002504,0.005021,0.000291,0.005033,-0.002515,87.785414,0.005033,
1130,1850,0.064060,-0.594604,0.999998,0.000163,-0.000730,0.003446,-0.000040,0.003446,-0.000730,-89.444874,0.003632,
1000,380,0.297137,-8.746551,0.999998,0.000184,-0.001582,0.004213,-0.000189,0.004219,-0.001588,-88.130265,0.004262,
1730,1570,-0.995035,-2.222257,0.999998,0.000157,-0.002553,0.005132,-0.000116,0.005134,-0.002554,-89.138347,0.005134,
820,950,1.552571,-5.442668,0.999997,0.000233,-0.002219,0.005288,0.000509,0.005322,-0.002253,86.141106,0.005343,
1080,1820,0.112263,-0.715951,0.999998,0.000172,-0.000776,0.003599,-0.000106,0.003602,-0.000778,-88.606401,0.003790,
870,700,0.912622,-6.934482,0.999998,0.000163,-0.003237,0.005746,-0.000095,0.005747,-0.003238,-89.393500,0.005762,
1080,1710,0.165363,-1.124260,0.999999,0.000130,-0.001181,0.003790,0.000086,0.003791,-0.001182,89.014555,0.003879,
730,1340,1.360701,-3.437881,0.999998,0.000190,-0.002814,0.005344,-0.000307,0.005356,-0.002825,-87.850210,0.005358,
950,540,0.501843,-7.950687,0.999997,0.000205,-0.002444,0.004805,-0.000571,0.004850,-0.002489,-85.521810,0.004851,
1660,1970,-0.141959,-0.241582,0.999998,0.000163,-0.000725,0.003895,0.000958,0.004085,-0.000916,78.740126,0.004288,
1350,370,-0.134705,-8.882086,0.999998,0.000144,-0.001243,0.003776,0.000176,0.003782,-0.001249,87.998846,0.003854,
1520,1500,-0.528879,-2.215009,0.999997,0.000207,-0.002532,0.004937,-0.000598,0.004985,-0.002579,-85.448321,0.004986,
1570,370,-0.479987,-8.666606,0.999997,0.000202,-0.002049,0.004593,0.000117,0.004595,-0.002051,88.993746,0.004604,
1780,340,-0.904960,-8.513744,0.999998,0.000167,-0.002386,0.005034,0.000010,0.005034,-0.002386,89.922160,0.005037,
1390,1470,-0.239028,-2.078716,0.999998,0.000170,-0.002002,0.004076,-0.000956,0.004223,-0.002149,-81.267110,0.004223,
950,1970,0.072895,-0.218035,0.999998,0.000155,-0.000407,0.003418,-0.000481,0.003477,-0.000466,-82.944983,0.003775,
1900,1960,-0.529165,-0.544658,0.999996,0.000000,-0.002291,0.006140,0.001313,0.006340,-0.002491,81.351815,0.006388,
1870,40,-0.177931,-9.921654,0.999996,0.000263,-0.000581,0.006114,-0.002928,0.007214,-0.001681,-69.413779,0.007549,
1690,1460,-1.041860,-2.732458,0.999998,0.000159,-0.002782,0.005285,-0.000075,0.005286,-0.002783,-89.464479,0.005289,
600,290,1.019632,-8.620374,0.999998,0.000195,-0.002451,0.004928,-0.000005,0.004928,-0.002451,-89.962628,0.004928,
1690,1150,-1.597221,-4.417389,0.999997,0.000216,-0.002432,0.005266,0.000613,0.005315,-0.002481,85.479245,0.005319,
840,1410,0.920542,-2.892547,0.999997,0.000194,-0.003028,0.005521,0.000160,0.005524,-0.003031,88.930263,0.005533,
1040,640,0.326051,-7.683181,0.999997,0.000201,-0.002542,0.004554,-0.001187,0.004747,-0.002735,-80.754299,0.004766,
1280,1570,-0.060315,-1.573563,0.999998,0.000160,-0.001262,0.003506,-0.000169,0.003512,-0.001268,-87.972000,0.003557,
1860,940,-2.025845,-5.421562,0.999998,0.000178,-0.002140,0.004456,-0.000207,0.004462,-0.002146,-88.206810,0.004463,
1290,1710,-0.060354,-1.077346,0.999999,0.000133,-0.001014,0.003558,-0.000024,0.003558,-0.001014,-89.705312,0.003666,
820,1980,0.109683,-0.199768,0.999998,0.000158,-0.000455,0.003774,-0.000958,0.003981,-0.000662,-77.808882,0.004266,
700,1950,0.297847,-0.369612,0.999997,0.000192,-0.001652,0.004592,-0.001211,0.004819,-0.001879,-79.400910,0.004857,
910,1490,0.625986,-2.330150,0.999997,0.000227,-0.002688,0.005122,0.000481,0.005151,-0.002717,86.488045,0.005154,
1160,2020,0.003260,-0.046756,0.999998,0.000000,0.000009,0.002969,-0.000076,0.002971,0.000007,-88.529311,0.003435,
1080,1800,0.123264,-0.787380,0.999998,0.000152,-0.000869,0.003616,-0.000077,0.003617,-0.000870,-89.013313,0.003776,
1730,1550,-1.022833,-2.325814,0.999998,0.000162,-0.002539,0.005119,-0.000115,0.005121,-0.002541,-89.138193,0.005121,
1480,1040,-1.301021,-4.956858,0.999997,0.000214,-0.002140,0.006973,0.000077,0.006974,-0.002141,89.518456,0.007145,
1390,1860,-0.094533,-0.573965,0.999999,0.000140,-0.000663,0.003498,0.000178,0.003506,-0.000671,87.552554,0.003722,
1680,1050,-1.675096,-4.926300,0.999998,0.000144,-0.002048,0.005018,0.000185,0.005023,-0.002053,88.500579,0.005051,
1000,340,0.272599,-8.908859,0.999998,0.000166,-0.001382,0.004068,-0.000071,0.004069,-0.001383,-89.250783,0.004138,
1580,590,-0.725037,-7.565437,0.999997,0.000187,-0.002804,0.005289,0.000413,0.005310,-0.002825,87.087329,0.005314,
1060,1710,0.189777,-1.136216,0.999998,0.000144,-0.001328,0.003854,0.000154,0.003859,-0.001333,88.299401,0.003920,
1520,1480,-0.543742,-2.314430,0.999997,0.000216,-0.002669,0.005027,-0.000649,0.005081,-0.002723,-85.216177,0.005085,
870,1190,1.261233,-4.129984,0.999997,0.000199,-0.002940,0.005881,-0.000657,0.005930,-0.002988,-85.764566,0.005930,
1130,1830,0.070383,-0.665244,0.999998,0.000158,-0.000820,0.003444,-0.000007,0.003444,-0.000820,-89.911920,0.003598,
1570,810,-1.053978,-6.318375,0.999997,0.000182,-0.003356,0.006161,-0.000330,0.006173,-0.003367,-88.018369,0.006181,
1490,120,-0.097432,-9.744303,0.999998,0.000158,-0.000591,0.003547,-0.000404,0.003586,-0.000630,-84.477737,0.003829,
690,420,1.011752,-8.120063,0.999998,0.000154,-0.002475,0.005083,-0.000071,0.005084,-0.002476,-89.461382,0.005084,
1820,380,-1.068721,-8.244800,0.999998,0.000177,-0.002477,0.005044,0.000045,0.005045,-0.002478,89.659777,0.005045,
1220,1440,0.013259,-1.979058,0.999998,0.000143,-0.001192,0.002881,0.000181,0.002889,-0.001200,87.458081,0.002903,
1780,320,-0.875259,-8.614723,0.999998,0.000170,-0.002412,0.005000,-0.000034,0.005000,-0.002412,-89.738502,0.005001,
950,1950,0.093313,-0.285637,0.999998,0.000175,-0.000538,0.003526,-0.000474,0.003580,-0.000593,-83.439721,0.003838,
710,220,0.608264,-9.161186,0.999997,0.000207,-0.002266,0.004937,0.000435,0.004963,-0.002292,86.556731,0.004968,
1350,350,-0.126860,-8.956831,0.999998,0.000155,-0.001187,0.003692,0.000169,0.003698,-0.001193,88.020373,0.003774,
610,1020,2.050296,-5.072936,0.999998,0.000171,-0.002096,0.004415,0.000080,0.004416,-0.002097,89.296479,0.004418,
1390,1450,-0.242575,-2.162158,0.999998,0.000167,-0.002105,0.004142,-0.001082,0.004324,-0.002287,-80.450365,0.004326,
820,550,0.853176,-7.666403,0.999998,0.000173,-0.002712,0.005220,-0.000232,0.005227,-0.002719,-88.326603,0.005229,
700,1580,1.065276,-2.223239,0.999998,0.000178,-0.002505,0.005114,0.000103,0.005115,-0.002507,89.228184,0.005116,
1750,1460,-1.205009,-2.826230,0.999998,0.000156,-0.002697,0.005218,0.000028,0.005218,-0.002697,89.795466,0.005219,
1080,1150,0.714753,-3.551561,0.999995,0.000237,-0.002180,0.005330,0.003157,0.006481,-0.003331,69.971995,0.006482,
1900,1950,-0.576635,-0.604431,0.999997,0.000000,-0.002340,0.005854,0.001104,0.006000,-0.002486,82.458806,0.006030,
1060,1170,0.676346,-3.637992,0.999996,0.000222,-0.003367,0.006218,0.001790,0.006542,-0.003690,79.759401,0.006560,
630,1340,1.624849,-3.562735,0.999996,0.000226,-0.002504,0.005052,-0.000205,0.005058,-0.002510,-88.445230,0.005058,
1190,1350,0.041619,-2.235089,0.999998,0.000167,-0.001176,0.002313,0.000848,0.002508,-0.001371,77.042629,0.002512,
750,90,0.195991,-9.802351,0.999998,0.000158,-0.000681,0.004053,0.001199,0.004340,-0.000967,76.572865,0.004556,
1040,1240,0.515717,-3.321756,0.999997,0.000222,-0.003902,0.006066,0.001331,0.006241,-0.004076,82.521412,0.006338,
600,330,1.090681,-8.420562,0.999998,0.000156,-0.002432,0.004959,-0.000054,0.004959,-0.002432,-89.584170,0.004960,
1860,920,-2.005345,-5.513520,0.999998,0.000160,-0.002157,0.004508,-0.000223,0.004516,-0.002165,-88.084541,0.004517,
1230,1580,0.001083,-1.523335,0.999998,0.000149,-0.001289,0.003449,0.000020,0.003449,-0.001289,89.755533,0.003486,
1610,480,-0.687475,-8.076803,0.999997,0.000217,-0.002435,0.004977,0.000273,0.004987,-0.002445,87.896981,0.004987,
1000,320,0.257381,-8.994269,0.999998,0.000156,-0.001284,0.004054,-0.000012,0.004054,-0.001284,-89.876494,0.004144,
1240,1710,-0.009568,-1.066978,0.999999,0.000121,-0.001069,0.003511,-0.000037,0.003512,-0.001070,-89.533388,0.003600,
900,1660,0.494112,-1.522551,0.999997,0.000203,-0.002081,0.004645,0.000166,0.004649,-0.002085,88.584729,0.004658,
870,1170,1.308249,-4.246554,0.999998,0.000195,-0.002796,0.005857,-0.000715,0.005916,-0.002854,-85.306865,0.005917,
1290,1730,-0.055284,-1.007996,0.999999,0.000130,-0.000959,0.003557,0.000002,0.003557,-0.000959,89.970372,0.003681,
1130,1810,0.076655,-0.735390,0.999998,0.000152,-0.000863,0.003484,-0.000003,0.003484,-0.000863,-89.954982,0.003629,
1420,50,-0.019706,-9.984329,0.999999,0.000128,-0.000188,0.003097,-0.000242,0.003115,-0.000206,-85.811248,0.003484,
650,340,0.985919,-8.459836,0.999999,0.000154,-0.002467,0.005056,-0.000007,0.005056,-0.002467,-89.946223,0.005057,
700,1560,1.092483,-2.327349,0.999998,0.000181,-0.002537,0.005147,0.000108,0.005149,-0.002538,89.191253,0.005149,
600,1530,1.391805,-2.639670,0.999997,0.000193,-0.002528,0.005086,0.000039,0.005086,-0.002529,89.709907,0.005086,
1690,1130,-1.626599,-4.521211,0.999997,0.000195,-0.002335,0.005131,0.000478,0.005162,-0.002366,86.348159,0.005168,
1440,660,-0.383113,-7.537543,0.999997,0.000246,-0.002788,0.004907,0.001193,0.005088,-0.002968,81.386750,0.005111,
1190,30,0.002783,-10.048490,0.999999,0.000000,0.000057,0.003002,0.000021,0.003002,0.000057,89.582064,0.003500,
820,1960,0.153229,-0.275012,0.999998,0.000148,-0.000641,0.003873,-0.000903,0.004047,-0.000815,-79.093006,0.004281,
1390,1430,-0.245765,-2.247067,0.999998,0.000171,-0.002217,0.004117,-0.001213,0.004341,-0.002441,-79.521343,0.004353,
750,70,0.139250,-9.883426,0.999998,0.000171,-0.000492,0.003926,0.001239,0.004250,-0.000816,75.353634,0.004511,
1080,1780,0.131679,-0.859934,0.999998,0.000142,-0.000937,0.003714,-0.000054,0.003715,-0.000938,-89.337179,0.003864,
1270,1860,-0.023122,-0.552325,0.999998,0.000187,-0.000571,0.003351,0.000045,0.003351,-0.000572,89.341179,0.003585,
1490,1720,-0.307157,-1.173101,0.999997,0.000197,-0.001613,0.004224,-0.000121,0.004226,-0.001616,-88.817487,0.004265,
1740,270,-0.685613,-8.931318,0.999998,0.000174,-0.002231,0.005011,-0.000286,0.005023,-0.002243,-87.740015,0.005032,
1740,1250,-1.546295,-3.922955,0.999997,0.000236,-0.002662,0.005238,0.000515,0.005271,-0.002696,86.285911,0.005272,
1250,120,-0.007318,-9.771984,0.999998,0.000157,-0.000341,0.003165,-0.000009,0.003165,-0.000341,-89.853446,0.003475,
1820,360,-1.037352,-8.347131,0.999998,0.000177,-0.002478,0.005078,0.000020,0.005078,-0.002478,89.851188,0.005078,
1270,720,-0.039437,-7.815066,0.999998,0.000172,-0.001171,0.002148,0.000849,0.002352,-0.001375,76.458183,0.002363,
810,1880,0.328041,-0.612522,0.999998,0.000163,-0.001369,0.004344,-0.000685,0.004425,-0.001450,-83.261684,0.004512,
1010,460,0.324549,-8.418331,0.999998,0.000209,-0.001942,0.004293,-0.000515,0.004336,-0.001984,-85.305969,0.004341,
890,1140,1.324229,-4.406174,0.999998,0.000186,-0.002601,0.005890,-0.000712,0.005949,-0.002660,-85.240214,0.005960,
1400,310,-0.167707,-9.079061,0.999998,0.000165,-0.001186,0.003801,0.000055,0.003802,-0.001187,89.367051,0.003890,
1730,1530,-1.049612,-2.427612,0.999998,0.000174,-0.002578,0.005166,-0.000094,0.005167,-0.002579,-89.304565,0.005167,
1610,1050,-1.535496,-4.920072,0.999998,0.000193,-0.001943,0.005255,0.000199,0.005260,-0.001949,88.417407,0.005319,
1650,930,-1.542389,-5.546042,0.999997,0.000199,-0.002342,0.005346,-0.000568,0.005388,-0.002384,-85.794987,0.005400,
1870,1900,-0.693783,-0.800341,0.999997,0.000220,-0.002451,0.005114,0.000442,0.005140,-0.002477,86.667252,0.005141,
1290,1750,-0.054654,-0.935748,0.999999,0.000133,-0.000889,0.003538,-0.000009,0.003538,-0.000889,-89.888848,0.003681,
1570,790,-1.009550,-6.439392,0.999997,0.000190,-0.003410,0.006123,-0.000211,0.006128,-0.003414,-88.730318,0.006141,
1590,540,-0.698106,-7.808867,0.999997,0.000179,-0.002644,0.005056,0.000358,0.005072,-0.002661,87.342256,0.005074,
950,1190,1.004850,-4.003646,0.999997,0.000219,-0.003471,0.006550,-0.000338,0.006562,-0.003483,-88.069655,0.006566,
1480,670,-0.506691,-7.370135,0.999996,0.000221,-0.003106,0.005324,0.000948,0.005429,-0.003211,83.663956,0.005459,
1730,1460,-1.151029,-2.795640,0.999998,0.000187,-0.002720,0.005268,0.000014,0.005268,-0.002720,89.900433,0.005269,
1520,1460,-0.562726,-2.418064,0.999997,0.000219,-0.002764,0.005122,-0.000655,0.005176,-0.002818,-85.282010,0.005183,
1220,1420,0.012605,-2.035533,0.999999,0.000121,-0.001160,0.002765,0.000205,0.002776,-0.001170,87.011952,0.002787,
1740,1330,-1.399307,-3.498173,0.999998,0.000179,-0.002759,0.005299,0.000326,0.005312,-0.002772,87.684815,0.005314,
1430,1050,-1.154670,-4.813635,0.999995,0.000298,-0.004058,0.010282,-0.000691,0.010315,-0.004091,-87.246315,0.010388,
1130,1790,0.082088,-0.803787,0.999998,0.000148,-0.000925,0.003560,0.000043,0.003560,-0.000925,89.450205,0.003694,
1410,50,-0.017323,-9.984404,0.999999,0.000117,-0.000189,0.003091,-0.000227,0.003107,-0.000205,-86.062709,0.003475,
1480,1020,-1.306151,-5.089498,0.999997,0.000218,-0.002122,0.006930,-0.000041,0.006930,-0.002123,-89.743280,0.007102,
1660,690,-1.103328,-6.879260,0.999998,0.000165,-0.002980,0.005545,-0.000098,0.005546,-0.002981,-89.343896,0.005551,
1670,1540,-0.879318,-2.278932,0.999998,0.000173,-0.002592,0.005164,-0.000180,0.005169,-0.002596,-88.668709,0.005169,
780,1520,0.939959,-2.404475,0.999998,0.000166,-0.002685,0.005215,0.000161,0.005218,-0.002688,88.829771,0.005219,
840,1190,1.346355,-4.156878,0.999996,0.000224,-0.002826,0.005712,-0.000676,0.005765,-0.002879,-85.502556,0.005765,
660,900,1.856541,-5.636885,0.999998,0.000183,-0.002293,0.004739,0.000318,0.004753,-0.002308,87.417195,0.004754,
810,1840,0.407555,-0.789970,0.999997,0.000187,-0.001635,0.004489,-0.000541,0.004536,-0.001682,-84.985537,0.004586,
1350,330,-0.122761,-9.030226,0.999998,0.000157,-0.001129,0.003700,0.000132,0.003704,-0.001133,88.434811,0.003796,
1880,1330,-1.758043,-3.680570,0.999997,0.000194,-0.002444,0.004866,0.000119,0.004868,-0.002446,89.068684,0.004868,
650,820,1.759010,-6.016430,0.999998,0.000163,-0.002402,0.004870,0.000388,0.004891,-0.002423,86.951451,0.004891,
1500,1110,-1.212887,-4.503939,0.999998,0.000172,-0.002575,0.006622,0.000557,0.006656,-0.002609,86.544626,0.006708,
1700,1630,-0.838292,-1.867639,0.999999,0.000137,-0.002420,0.005047,-0.000100,0.005048,-0.002422,-89.235202,0.005049,
700,1540,1.120825,-2.430274,0.999998,0.000176,-0.002585,0.005162,0.000073,0.005163,-0.002586,89.457946,0.005163,
580,1340,1.749391,-3.635514,0.999998,0.000205,-0.002896,0.004931,0.000057,0.004931,-0.002896,89.580600,0.004956,
1690,1110,-1.648663,-4.621957,0.999998,0.000183,-0.002261,0.005127,0.000457,0.005155,-0.002289,86.477410,0.005166,
1040,1220,0.567535,-3.447891,0.999996,0.000244,-0.003889,0.006301,0.001273,0.006458,-0.004046,82.983879,0.006527,
1610,460,-0.666198,-8.175970,0.999998,0.000189,-0.002401,0.004919,0.000232,0.004926,-0.002409,88.189742,0.004926,
1190,1330,0.042593,-2.280494,0.999998,0.000158,-0.001171,0.002110,0.000911,0.002346,-0.001408,75.475663,0.002362,
1040,30,0.010392,-10.045893,0.999999,0.000000,-0.000045,0.003119,0.000226,0.003135,-0.000061,85.941001,0.003586,
870,1150,1.355195,-4.364966,0.999998,0.000192,-0.002642,0.005773,-0.000710,0.005832,-0.002702,-85.211473,0.005837,
1240,250,-0.006720,-9.343451,0.999998,0.000147,-0.000786,0.003416,0.000024,0.003416,-0.000786,89.667319,0.003578,
820,1940,0.191153,-0.354423,0.999998,0.000170,-0.000802,0.004047,-0.000890,0.004205,-0.000960,-79.917326,0.004407,
1780,300,-0.838048,-8.715830,0.999998,0.000164,-0.002392,0.005077,-0.000122,0.005079,-0.002394,-89.060826,0.005082,
1260,1570,-0.036206,-1.566640,0.999998,0.000146,-0.001215,0.003464,-0.000166,0.003470,-0.001221,-87.972299,0.003520,
1080,1760,0.143569,-0.937028,0.999999,0.000138,-0.000989,0.003725,-0.000003,0.003725,-0.000989,-89.968268,0.003860,
1410,440,-0.241216,-8.556978,0.999997,0.000216,-0.001640,0.004052,0.000422,0.004083,-0.001671,85.782201,0.004105,
1820,780,-1.706316,-6.208167,0.999998,0.000184,-0.002489,0.004961,-0.000325,0.004975,-0.002503,-87.510059,0.004975,
680,1910,0.467064,-0.583223,0.999997,0.000226,-0.001918,0.004971,-0.001040,0.005124,-0.002072,-81.596572,0.005156,
910,680,0.752934,-7.129919,0.999997,0.000196,-0.003241,0.005653,-0.000418,0.005673,-0.003261,-87.314419,0.005694,
910,750,0.865882,-6.718554,0.999997,0.000206,-0.003485,0.006080,-0.000130,0.006082,-0.003487,-89.219435,0.006104,
1740,250,-0.643672,-9.031917,0.999998,0.000168,-0.002167,0.004959,-0.000373,0.004978,-0.002187,-87.012530,0.004991,
620,800,1.799835,-6.082274,0.999998,0.000162,-0.002402,0.004805,0.000259,0.004814,-0.002411,87.943676,0.004814,
1860,900,-1.981488,-5.600727,0.999998,0.000160,-0.002154,0.004442,-0.000173,0.004447,-0.002159,-88.496518,0.004447,
980,1790,0.235644,-0.879219,0.999998,0.000168,-0.001242,0.003977,-0.000128,0.003980,-0.001245,-88.595733,0.004072,
1740,1230,-1.585060,-4.028480,0.999997,0.000209,-0.002598,0.005220,0.000540,0.005257,-0.002636,86.065348,0.005257,
740,1980,0.157603,-0.217838,0.999998,0.000150,-0.000619,0.004015,-0.001258,0.004334,-0.000939,-75.749191,0.004560,
1390,1410,-0.250555,-2.330800,0.999998,0.000172,-0.002313,0.004198,-0.001293,0.004445,-0.002560,-79.172211,0.004462,
1000,300,0.244927,-9.071226,0.999998,0.000148,-0.001209,0.003974,0.000033,0.003974,-0.001209,89.639260,0.004075,
1220,1620,0.014738,-1.383336,0.999998,0.000181,-0.001190,0.003527,0.000090,0.003528,-0.001192,88.907528,0.003590,
1080,710,0.248251,-7.494725,0.999997,0.000208,-0.002633,0.004368,-0.001700,0.004759,-0.003024,-77.051239,0.004817,
1250,1860,-0.011180,-0.551677,0.999998,0.000184,-0.000598,0.003333,-0.000002,0.003333,-0.000598,-89.966233,0.003554,
1420,1070,-1.085417,-4.571002,0.999994,0.000284,-0.004169,0.010343,-0.001771,0.010556,-0.004382,-83.140185,0.010607,
1260,190,-0.016639,-9.544065,0.999998,0.000176,-0.000577,0.003330,-0.000019,0.003330,-0.000577,-89.716440,0.003559,
720,70,0.161992,-9.872168,0.999997,0.000210,-0.000963,0.004168,0.001357,0.004505,-0.001300,76.062192,0.004637,
1270,1440,-0.045884,-1.993939,0.999998,0.000158,-0.001250,0.002961,-0.000402,0.002999,-0.001288,-84.596847,0.003009,
1520,1440,-0.577465,-2.520650,0.999997,0.000211,-0.002851,0.005202,-0.000668,0.005257,-0.002906,-85.289002,0.005267,
1130,1770,0.089438,-0.877275,0.999998,0.000147,-0.000993,0.003595,0.000064,0.003596,-0.000994,89.205370,0.003714,
1400,50,-0.015233,-9.985382,0.999999,0.000138,-0.000139,0.003084,-0.000217,0.003099,-0.000154,-86.162448,0.003493,
1610,440,-0.643098,-8.274359,0.999996,0.000221,-0.002341,0.004914,0.000215,0.004920,-0.002347,88.303703,0.004922,
1650,910,-1.506187,-5.654689,0.999997,0.000193,-0.002450,0.005423,-0.000668,0.005479,-0.002507,-85.184170,0.005486,
1610,1030,-1.546764,-5.025605,0.999998,0.000195,-0.001901,0.005307,0.000029,0.005307,-0.001901,89.770143,0.005377,
1000,1990,0.035320,-0.144152,0.999999,0.000124,-0.000163,0.003270,-0.000393,0.003314,-0.000208,-83.547749,0.003713,
1560,810,-1.019856,-6.335017,0.999997,0.000197,-0.003439,0.006229,-0.000300,0.006239,-0.003448,-88.221474,0.006250,
1520,1110,-1.262924,-4.533666,0.999997,0.000193,-0.002480,0.006316,0.000642,0.006362,-0.002526,85.850247,0.006407,
1110,1160,0.617989,-3.174235,0.999997,0.000000,-0.001082,0.003408,0.002624,0.004617,-0.002291,65.274034,0.004617,
820,1920,0.234794,-0.437597,0.999998,0.000193,-0.000964,0.004115,-0.000838,0.004250,-0.001099,-80.867189,0.004412,
1040,1200,0.631334,-3.578680,0.999996,0.000241,-0.003733,0.006540,0.001221,0.006683,-0.003876,83.316169,0.006712,
1820,800,-1.742186,-6.108333,0.999998,0.000188,-0.002475,0.004940,-0.000363,0.004958,-0.002493,-87.203910,0.004958,
910,710,0.794862,-6.958903,0.999997,0.000188,-0.003364,0.005817,-0.000333,0.005829,-0.003376,-87.925406,0.005853,
620,780,1.763766,-6.180764,0.999998,0.000174,-0.002440,0.004930,0.000274,0.004940,-0.002450,87.872469,0.004940,
1720,270,-0.644608,-8.957235,0.999998,0.000167,-0.002027,0.004920,-0.000366,0.004939,-0.002046,-86.993849,0.004963,
660,880,1.830168,-5.734373,0.999998,0.000173,-0.002340,0.004849,0.000404,0.004871,-0.002362,86.790046,0.004872,
1480,1000,-1.287987,-5.232030,0.999997,0.000216,-0.002185,0.007158,-0.000144,0.007160,-0.002187,-89.118475,0.007338,
1860,880,-1.961680,-5.688827,0.999998,0.000169,-0.002193,0.004503,-0.000172,0.004507,-0.002198,-88.531962,0.004508,
1190,1310,0.042501,-2.321603,0.999998,0.000158,-0.001187,0.001897,0.001031,0.002210,-0.001500,73.118937,0.002257,
1570,770,-0.964880,-6.561347,0.999997,0.000193,-0.003412,0.006079,-0.000103,0.006080,-0.003413,-89.380729,0.006096,
1740,1310,-1.434641,-3.605497,0.999997,0.000214,-0.002752,0.005303,0.000365,0.005320,-0.002769,87.414249,0.005321,
1780,280,-0.800856,-8.819551,0.999998,0.000177,-0.002369,0.005050,-0.000184,0.005054,-0.002373,-88.576477,0.005057,
1620,1710,-0.553724,-1.363001,0.999997,0.000186,-0.001935,0.004736,0.000085,0.004737,-0.001936,89.266452,0.004763,
960,1790,0.263073,-0.894210,0.999998,0.000174,-0.001434,0.004024,-0.000111,0.004027,-0.001436,-88.833743,0.004081,
1000,280,0.226904,-9.152707,0.999998,0.000159,-0.001129,0.003978,0.000106,0.003980,-0.001131,88.813645,0.004102,
1770,50,-0.116022,-9.953462,0.999998,0.000173,-0.000525,0.004215,-0.001674,0.004747,-0.001057,-72.379076,0.004984,
940,190,0.203593,-9.473156,0.999998,0.000153,-0.001007,0.003912,0.000390,0.003943,-0.001038,85.490247,0.004088,
910,660,0.724547,-7.242249,0.999998,0.000180,-0.003145,0.005569,-0.000457,0.005593,-0.003169,-87.007321,0.005609,
1270,1480,-0.047033,-1.872218,0.999999,0.000117,-0.001258,0.003198,-0.000294,0.003217,-0.001277,-86.244433,0.003240,
740,1960,0.214795,-0.300251,0.999998,0.000178,-0.000847,0.004172,-0.001203,0.004445,-0.001121,-77.197707,0.004623,
1390,1830,-0.112777,-0.681662,0.999998,0.000167,-0.000759,0.003590,0.000128,0.003594,-0.000763,88.309556,0.003787,
780,1940,0.234912,-0.373063,0.999998,0.000183,-0.001075,0.004261,-0.001059,0.004463,-0.001278,-79.176005,0.004597,
1560,1310,-0.881131,-3.345027,0.999996,0.000215,-0.003452,0.006013,-0.000097,0.006014,-0.003453,-89.413971,0.006036,
1350,310,-0.114087,-9.104323,0.999998,0.000166,-0.001073,0.003637,0.000089,0.003639,-0.001074,88.916315,0.003739,
590,900,2.010203,-5.591654,0.999998,0.000144,-0.002141,0.004383,0.000116,0.004386,-0.002143,88.977874,0.004386,
1080,690,0.242294,-7.580060,0.999996,0.000239,-0.002476,0.004295,-0.001556,0.004636,-0.002817,-77.659317,0.004671,
1470,1860,-0.157073,-0.601964,0.999998,0.000171,-0.000789,0.003741,0.000293,0.003759,-0.000807,86.314738,0.003958,
1420,1060,-1.099885,-4.675363,0.999992,0.000327,-0.004421,0.010958,-0.001490,0.011101,-0.004564,-84.518042,0.011159,
1520,1420,-0.595382,-2.625148,0.999997,0.000193,-0.002964,0.005278,-0.000667,0.005331,-0.003018,-85.400429,0.005347,
1020,250,0.181282,-9.278417,0.999998,0.000158,-0.001062,0.003798,0.000136,0.003801,-0.001065,88.397743,0.003922,
1080,1740,0.151926,-1.008634,0.999998,0.000160,-0.001043,0.003734,0.000032,0.003735,-0.001043,89.615672,0.003854,
1160,310,0.066435,-9.125192,0.999999,0.000136,-0.000923,0.003587,-0.000013,0.003587,-0.000923,-89.831671,0.003726,
1280,50,-0.004345,-9.989358,0.999999,0.000106,-0.000082,0.002985,-0.000045,0.002986,-0.000082,-89.167405,0.003401,
1130,1750,0.095513,-0.948445,0.999998,0.000148,-0.001070,0.003605,0.000104,0.003607,-0.001072,88.731336,0.003705,
1730,1510,-1.079211,-2.532351,0.999997,0.000189,-0.002614,0.005248,-0.000070,0.005249,-0.002614,-89.492253,0.005249,
950,1930,0.119398,-0.359502,0.999998,0.000160,-0.000664,0.003637,-0.000456,0.003685,-0.000711,-84.009045,0.003909,
870,1130,1.396191,-4.478542,0.999997,0.000205,-0.002457,0.005720,-0.000711,0.005781,-0.002519,-85.070575,0.005797,
960,1990,0.045683,-0.148932,0.999998,0.000135,-0.000319,0.003316,-0.000460,0.003374,-0.000376,-82.893787,0.003697,
1090,1580,0.191684,-1.616251,0.999998,0.000154,-0.001615,0.003924,0.000518,0.003972,-0.001663,84.698873,0.003990,
1220,500,0.014186,-8.469829,0.999998,0.000146,-0.001266,0.003410,-0.000121,0.003413,-0.001270,-88.522847,0.003450,
1190,780,0.050149,-7.699446,0.999998,0.000178,-0.001404,0.001578,-0.001170,0.001983,-0.001809,-70.942553,0.002196,
1870,240,-0.930121,-8.852819,0.999998,0.000172,-0.002444,0.004889,-0.000085,0.004890,-0.002445,-89.337657,0.004890,
1540,1090,-1.353374,-4.675841,0.999997,0.000220,-0.002176,0.005946,0.000569,0.005986,-0.002216,86.009831,0.006053,
1110,910,0.696008,-6.846052,0.999996,0.000000,-0.000955,0.003833,-0.003270,0.005492,-0.002613,-63.105196,0.005494,
1730,440,-0.933130,-8.087566,0.999997,0.000200,-0.002508,0.005063,0.000113,0.005065,-0.002509,89.146071,0.005065,
1650,890,-1.470968,-5.763365,0.999997,0.000197,-0.002578,0.005427,-0.000639,0.005477,-0.002629,-85.464825,0.005479,
1820,820,-1.776880,-6.010150,0.999998,0.000161,-0.002424,0.004820,-0.000359,0.004837,-0.002442,-87.169193,0.004838,
830,410,0.660204,-8.388566,0.999997,0.000198,-0.002278,0.004877,-0.000139,0.004880,-0.002281,-88.889468,0.004883,
660,860,1.799605,-5.831707,0.999998,0.000169,-0.002392,0.004881,0.000428,0.004906,-0.002417,86.644059,0.004906,
1190,1290,0.045676,-2.356970,0.999998,0.000182,-0.001271,0.001709,0.001136,0.002093,-0.001655,71.339718,0.002208,
1610,270,-0.432209,-9.076940,0.999997,0.000185,-0.001704,0.004483,-0.000270,0.004494,-0.001716,-87.504249,0.004536,
1040,1180,0.705907,-3.710132,0.999996,0.000224,-0.003554,0.006848,0.001215,0.006988,-0.003694,83.425113,0.006992,
1480,1420,-0.479290,-2.526462,0.999996,0.000216,-0.002871,0.005050,-0.000912,0.005154,-0.002975,-83.517040,0.005174,
1800,150,-0.516143,-9.451992,0.999998,0.000228,-0.001923,0.005143,-0.001065,0.005300,-0.002080,-81.612519,0.005340,
1800,1710,-0.961741,-1.625166,0.999998,0.000166,-0.002446,0.005057,-0.000002,0.005057,-0.002446,-89.985939,0.005058,
1680,1930,-0.256206,-0.414220,0.999998,0.000176,-0.001168,0.004249,0.000951,0.004411,-0.001330,80.330147,0.004525,
910,170,0.205947,-9.538412,0.999998,0.000179,-0.000865,0.003936,0.000492,0.003986,-0.000915,84.205005,0.004176,
620,760,1.728840,-6.280173,0.999998,0.000173,-0.002452,0.004917,0.000246,0.004925,-0.002460,88.093878,0.004925,
1520,1840,-0.232688,-0.706425,0.999998,0.000175,-0.001128,0.003957,0.000295,0.003974,-0.001145,86.691347,0.004091,
1230,1240,0.002701,-2.355694,0.999998,0.000178,-0.002151,0.001059,0.000025,0.001059,-0.002151,89.545490,0.002151,
740,1940,0.269945,-0.383384,0.999998,0.000181,-0.001016,0.004488,-0.001243,0.004755,-0.001284,-77.848142,0.004920,
910,1440,0.674395,-2.590280,0.999997,0.000217,-0.002919,0.005290,0.000522,0.005323,-0.002952,86.375844,0.005334,
1390,1850,-0.101089,-0.609143,0.999998,0.000152,-0.000699,0.003560,0.000177,0.003567,-0.000706,87.625538,0.003778,
1130,1730,0.102588,-1.020984,0.999998,0.000149,-0.001129,0.003636,0.000117,0.003639,-0.001132,88.590699,0.003725,
1420,1050,-1.106848,-4.787347,0.999993,0.000320,-0.004598,0.011422,-0.001097,0.011497,-0.004673,-86.100904,0.011564,
1450,1860,-0.141789,-0.594552,0.999999,0.000139,-0.000775,0.003696,0.000254,0.003710,-0.000789,86.756938,0.003909,
1200,250,0.025244,-9.341815,0.999998,0.000174,-0.000784,0.003456,0.000020,0.003456,-0.000784,89.732803,0.003624,
1270,50,-0.004047,-9.988536,0.999999,0.000087,-0.000077,0.002986,-0.000027,0.002986,-0.000078,-89.493836,0.003404,
1780,260,-0.760935,-8.918255,0.999998,0.000186,-0.002344,0.005018,-0.000274,0.005028,-0.002354,-87.872845,0.005032,
1340,1480,-0.148530,-1.947177,0.999998,0.000169,-0.001618,0.003644,-0.000755,0.003750,-0.001724,-81.996868,0.003754,
590,890,1.998938,-5.635229,0.999998,0.000158,-0.002145,0.004359,0.000103,0.004361,-0.002146,89.096932,0.004361,
690,540,1.183549,-7.505952,0.999998,0.000146,-0.002574,0.005186,-0.000033,0.005186,-0.002574,-89.759559,0.005186,
870,370,0.529397,-8.634779,0.999997,0.000208,-0.002090,0.004657,-0.000079,0.004658,-0.002091,-89.325665,0.004666,
1230,1370,0.001126,-2.155708,0.999998,0.000165,-0.001035,0.002271,0.000026,0.002271,-0.001035,89.545169,0.002274,
950,1280,0.769918,-3.415069,0.999997,0.000187,-0.003698,0.006295,0.000336,0.006306,-0.003710,88.078425,0.006339,
1100,710,0.198583,-7.568654,0.999997,0.000219,-0.002401,0.003972,-0.001722,0.004407,-0.002837,-75.810199,0.004468,
1000,260,0.211266,-9.230961,0.999998,0.000163,-0.001057,0.003885,0.000162,0.003890,-0.001063,88.128859,0.004021,
1870,230,-0.906581,-8.900937,0.999998,0.000146,-0.002445,0.004933,-0.000119,0.004935,-0.002447,-89.073569,0.004935,
1070,1080,0.952672,-4.229788,0.999989,0.000000,-0.003978,0.011834,0.003912,0.012748,-0.004893,76.837207,0.012863,
740,250,0.609642,-9.051643,0.999998,0.000162,-0.002001,0.004914,0.000468,0.004946,-0.002033,86.148787,0.004972,
1820,840,-1.808124,-5.916270,0.999998,0.000165,-0.002355,0.004779,-0.000351,0.004796,-0.002372,-87.189597,0.004796,
1670,500,-0.861588,-7.878033,0.999997,0.000181,-0.002581,0.005155,0.000178,0.005159,-0.002586,88.682144,0.005159,
1650,870,-1.432360,-5.873478,0.999997,0.000215,-0.002684,0.005548,-0.000669,0.005602,-0.002738,-85.380371,0.005602,
780,1960,0.181822,-0.287391,0.999998,0.000149,-0.000849,0.004044,-0.001056,0.004262,-0.001068,-78.323607,0.004436,
1080,1720,0.162042,-1.086093,0.999998,0.000153,-0.001137,0.003783,0.000059,0.003784,-0.001138,89.317376,0.003883,
1730,1930,-0.307990,-0.433113,0.999997,0.000190,-0.001297,0.004533,0.001189,0.004766,-0.001530,78.906406,0.004867,
1080,310,0.150077,-9.088531,0.999998,0.000161,-0.001038,0.003752,-0.000017,0.003752,-0.001039,-89.793587,0.003874,
830,430,0.687156,-8.289770,0.999997,0.000203,-0.002352,0.004962,-0.000161,0.004966,-0.002356,-88.743340,0.004968,
660,840,1.768104,-5.928365,0.999998,0.000167,-0.002379,0.004819,0.000390,0.004840,-0.002401,86.905226,0.004840,
1480,1440,-0.464395,-2.425835,0.999997,0.000216,-0.002729,0.004979,-0.000860,0.005073,-0.002824,-83.712238,0.005084,
1610,1010,-1.537852,-5.133017,0.999998,0.000198,-0.001891,0.005237,-0.000165,0.005240,-0.001895,-88.675195,0.005307,
1860,860,-1.932042,-5.783259,0.999998,0.000157,-0.002256,0.004660,-0.000242,0.004668,-0.002264,-87.997755,0.004669,
1190,1270,0.054006,-2.388693,0.999998,0.000189,-0.001432,0.001534,0.001188,0.001951,-0.001849,70.655273,0.002196,
1040,1160,0.789683,-3.848267,0.999997,0.000182,-0.003431,0.007007,0.001199,0.007142,-0.003567,83.532217,0.007142,
1870,1710,-1.133263,-1.746406,0.999998,0.000143,-0.002461,0.004920,-0.000059,0.004920,-0.002462,-89.544163,0.004920,
1720,1310,-1.379326,-3.582950,0.999997,0.000224,-0.002809,0.005368,0.000390,0.005387,-0.002828,87.272787,0.005389,
580,580,1.525512,-7.127093,0.999997,0.000210,-0.004104,0.004782,-0.000570,0.004819,-0.004141,-86.346646,0.005217,
1520,1860,-0.207127,-0.624198,0.999998,0.000187,-0.001025,0.003929,0.000356,0.003954,-0.001050,85.915461,0.004096,
1250,1240,-0.037664,-2.369725,0.999998,0.000165,-0.002065,0.001134,-0.000424,0.001189,-0.002120,-82.572505,0.002126,
1180,1990,0.006201,-0.137459,0.999998,0.000160,-0.000099,0.003047,-0.000072,0.003049,-0.000100,-88.691972,0.003464,
740,1920,0.332228,-0.478457,0.999998,0.000192,-0.001227,0.004523,-0.001129,0.004737,-0.001440,-79.279489,0.004857,
1680,1910,-0.300090,-0.499231,0.999997,0.000206,-0.001369,0.004350,0.000856,0.004475,-0.001494,81.667356,0.004557,
910,150,0.177264,-9.618439,0.999998,0.000170,-0.000742,0.003845,0.000548,0.003910,-0.000807,83.286350,0.004129,
620,740,1.692824,-6.378833,0.999997,0.000184,-0.002486,0.004923,0.000224,0.004930,-0.002493,88.267026,0.004930,
880,190,0.267779,-9.443514,0.999997,0.000201,-0.001330,0.004133,0.000489,0.004177,-0.001373,84.925938,0.004258,
1260,50,-0.002726,-9.988992,0.999999,0.000121,-0.000099,0.002993,-0.000008,0.002993,-0.000099,-89.850545,0.003400,
1140,200,0.053625,-9.505504,0.999998,0.000152,-0.000647,0.003414,0.000081,0.003415,-0.000648,88.861392,0.003628,
1570,750,-0.924694,-6.683077,0.999998,0.000203,-0.003390,0.006015,0.000025,0.006015,-0.003390,89.850439,0.006031,
1110,1860,0.073051,-0.566964,0.999998,0.000154,-0.000641,0.003480,-0.000107,0.003483,-0.000644,-88.509180,0.003707,
1390,1870,-0.088568,-0.538896,0.999998,0.000143,-0.000625,0.003440,0.000167,0.003446,-0.000632,87.653241,0.003670,
950,1260,0.814968,-3.542745,0.999997,0.000201,-0.003738,0.006409,0.000197,0.006413,-0.003742,88.885401,0.006442,
1670,1320,-1.216070,-3.468905,0.999998,0.000175,-0.002998,0.005585,0.000295,0.005595,-0.003008,88.036942,0.005600,
1180,250,0.040900,-9.338100,0.999998,0.000151,-0.000733,0.003464,0.000030,0.003464,-0.000733,89.588412,0.003651,
950,1890,0.166534,-0.508804,0.999998,0.000157,-0.000877,0.003775,-0.000411,0.003811,-0.000913,-84.994104,0.003979,
1230,1410,0.001289,-2.058416,0.999999,0.000124,-0.001111,0.002685,0.000049,0.002685,-0.001112,89.258851,0.002698,
1780,240,-0.717673,-9.018467,0.999998,0.000173,-0.002310,0.005019,-0.000357,0.005037,-0.002328,-87.216727,0.005041,
1850,240,-0.881239,-8.896191,0.999998,0.000166,-0.002419,0.004965,-0.000098,0.004966,-0.002420,-89.238325,0.004967,
1670,1500,-0.931460,-2.488762,0.999998,0.000162,-0.002683,0.005271,-0.000173,0.005274,-0.002687,-88.752898,0.005275,
1410,1240,-0.463154,-3.249798,0.999996,0.000254,-0.003834,0.005905,-0.001594,0.006159,-0.004088,-80.937966,0.006269,
780,1980,0.136666,-0.209654,0.999999,0.000134,-0.000676,0.003874,-0.001084,0.004119,-0.000921,-77.257371,0.004324,
770,140,0.306633,-9.596523,0.999998,0.000171,-0.001273,0.004394,0.000950,0.004549,-0.001428,80.727572,0.004653,
1070,980,0.964936,-5.782626,0.999994,0.000000,-0.003917,0.012057,-0.003443,0.012768,-0.004627,-78.339592,0.012928,
1080,670,0.238337,-7.666027,0.999997,0.000183,-0.002361,0.004211,-0.001407,0.004499,-0.002650,-78.413805,0.004523,
1870,350,-1.141329,-8.308293,0.999998,0.000183,-0.002462,0.004953,0.000059,0.004953,-0.002462,89.547477,0.004953,
660,820,1.735512,-6.023723,0.999998,0.000170,-0.002419,0.004914,0.000408,0.004937,-0.002441,86.823199,0.004937,
1480,1460,-0.451787,-2.328153,0.999997,0.000216,-0.002587,0.004898,-0.000810,0.004984,-0.002674,-83.893334,0.004989,
1610,970,-1.507966,-5.344704,0.999997,0.000202,-0.002088,0.005410,-0.000491,0.005442,-0.002120,-86.272724,0.005486,
1860,1710,-1.108519,-1.728038,0.999998,0.000164,-0.002427,0.004942,-0.000077,0.004943,-0.002428,-89.399890,0.004943,
1820,1280,-1.697462,-3.844119,0.999998,0.000176,-0.002489,0.004974,0.000336,0.004989,-0.002504,87.429941,0.004989,
1650,850,-1.392682,-5.984836,0.999997,0.000213,-0.002791,0.005597,-0.000655,0.005648,-0.002842,-85.559449,0.005648,
910,130,0.149209,-9.691000,0.999998,0.000152,-0.000641,0.003726,0.000607,0.003809,-0.000724,82.230847,0.004045,
1190,1250,0.068544,-2.413784,0.999998,0.000192,-0.001738,0.001382,0.001110,0.001736,-0.002093,72.284227,0.002239,
1350,290,-0.109668,-9.176381,0.999998,0.000150,-0.001012,0.003647,0.000046,0.003647,-0.001013,89.440141,0.003765,
620,720,1.658480,-6.477762,0.999997,0.000195,-0.002522,0.005000,0.000195,0.005006,-0.002527,88.516632,0.005006,
1270,780,-0.047837,-7.706842,0.999998,0.000191,-0.001344,0.001520,0.001114,0.001902,-0.001726,71.062952,0.002102,
830,450,0.709499,-8.189592,0.999997,0.000188,-0.002398,0.004967,-0.000192,0.004972,-0.002403,-88.505569,0.004972,
740,1900,0.384448,-0.567705,0.999997,0.000192,-0.001412,0.004645,-0.001022,0.004813,-0.001580,-80.676860,0.004906,
1110,1540,0.166000,-1.743478,0.999998,0.000161,-0.001582,0.003812,0.000547,0.003867,-0.001637,84.268175,0.003882,
1040,1140,0.873779,-3.992481,0.999997,0.000198,-0.003289,0.007239,0.001351,0.007409,-0.003459,82.802025,0.007415,
1520,1880,-0.183550,-0.550036,0.999998,0.000180,-0.000897,0.003795,0.000374,0.003824,-0.000927,85.467911,0.003990,
1140,220,0.060147,-9.436864,0.999998,0.000147,-0.000718,0.003447,0.000039,0.003447,-0.000718,89.457376,0.003638,
1100,310,0.128660,-9.099030,0.999998,0.000177,-0.001041,0.003701,-0.000044,0.003702,-0.001041,-89.465465,0.003818,
1730,1950,-0.246212,-0.343776,0.999998,0.000185,-0.001103,0.004335,0.001218,0.004595,-0.001363,77.935636,0.004720,
1080,1700,0.168846,-1.161515,0.999998,0.000156,-0.001224,0.003813,0.000116,0.003816,-0.001227,88.679344,0.003896,
1590,60,-0.063337,-9.941656,0.999998,0.000156,-0.000412,0.003551,-0.000728,0.003680,-0.000542,-79.908328,0.003974,
580,570,1.510611,-7.177834,0.999998,0.000199,-0.004242,0.004823,-0.000534,0.004855,-0.004273,-86.641787,0.005302,
930,1280,0.844973,-3.468823,0.999996,0.000220,-0.003626,0.006242,0.000156,0.006244,-0.003628,89.095369,0.006271,
1570,1320,-0.896386,-3.307065,0.999998,0.000183,-0.003370,0.005930,-0.000085,0.005931,-0.003371,-89.478318,0.005949,
870,1110,1.437128,-4.593818,0.999997,0.000205,-0.002267,0.005580,-0.000596,0.005625,-0.002313,-85.681007,0.005654,
590,1920,0.630974,-0.703219,0.999997,0.000199,-0.002569,0.005301,-0.000607,0.005348,-0.002616,-85.613403,0.005348,
1210,1580,0.028482,-1.528203,0.999999,0.000152,-0.001253,0.003481,0.000162,0.003486,-0.001259,88.048071,0.003531,
590,880,1.987829,-5.679321,0.999998,0.000159,-0.002166,0.004385,0.000112,0.004386,-0.002168,89.024714,0.004387,
1550,780,-0.915949,-6.542396,0.999998,0.000194,-0.003544,0.006207,-0.000022,0.006207,-0.003544,-89.873235,0.006227,
1780,220,-0.669800,-9.119505,0.999997,0.000193,-0.002252,0.005047,-0.000479,0.005078,-0.002284,-86.257376,0.005086,
1390,1890,-0.077913,-0.472472,0.999998,0.000139,-0.000543,0.003443,0.000182,0.003451,-0.000551,87.387389,0.003708,
1160,250,0.053527,-9.335702,0.999998,0.000143,-0.000742,0.003464,0.000034,0.003464,-0.000743,89.532508,0.003648,
1080,650,0.234878,-7.749002,0.999998,0.000167,-0.002274,0.004124,-0.001313,0.004383,-0.002533,-78.844515,0.004400,
1090,1860,0.083918,-0.570193,0.999998,0.000171,-0.000598,0.003506,-0.000173,0.003513,-0.000605,-87.587399,0.003756,
1240,1300,-0.008366,-2.291053,0.999998,0.000154,-0.001026,0.001463,-0.000222,0.001482,-0.001046,-84.940664,0.001523,
1650,830,-1.348882,-6.097027,0.999998,0.000193,-0.002872,0.005592,-0.000603,0.005635,-0.002914,-85.942420,0.005636,
1670,480,-0.836838,-7.981349,0.999998,0.000180,-0.002543,0.005071,0.000182,0.005075,-0.002547,88.632104,0.005075,
660,800,1.701390,-6.126657,0.999997,0.000185,-0.002484,0.005015,0.000417,0.005038,-0.002508,86.828552,0.005038,
790,70,0.118995,-9.893585,0.999998,0.000165,-0.000679,0.003818,0.001026,0.004041,-0.000902,77.732652,0.004243,
640,350,1.028241,-8.391571,0.999999,0.000130,-0.002484,0.005042,-0.000012,0.005042,-0.002484,-89.910170,0.005042,
1070,970,0.947594,-5.890071,0.999994,0.000000,-0.003609,0.010941,-0.003844,0.011894,-0.004562,-76.075844,0.012001,
1480,1480,-0.441793,-2.231976,0.999997,0.000220,-0.002513,0.004790,-0.000788,0.004874,-0.002597,-83.913018,0.004877,
1000,240,0.192231,-9.309594,0.999998,0.000160,-0.000995,0.003855,0.000219,0.003865,-0.001005,87.418470,0.004011,
940,1770,0.314080,-0.992884,0.999998,0.000170,-0.001456,0.004215,-0.000131,0.004218,-0.001459,-88.674445,0.004284,
1820,1260,-1.734211,-3.947292,0.999998,0.000173,-0.002464,0.004957,0.000364,0.004975,-0.002482,87.198059,0.004975,
1350,250,-0.095717,-9.319557,0.999998,0.000149,-0.000867,0.003546,-0.000017,0.003546,-0.000867,-89.775974,0.003697,
600,190,0.785807,-9.116810,0.999998,0.000167,-0.002451,0.005024,0.000268,0.005034,-0.002461,87.950016,0.005034,
740,1880,0.439091,-0.663501,0.999997,0.000187,-0.001589,0.004766,-0.000879,0.004886,-0.001708,-82.268334,0.004959,
830,470,0.731529,-8.090038,0.999998,0.000169,-0.002448,0.004989,-0.000199,0.004994,-0.002453,-88.464994,0.004994,
1140,240,0.066481,-9.367338,0.999998,0.000152,-0.000785,0.003477,0.000010,0.003477,-0.000785,89.859868,0.003647,
1070,380,0.191446,-8.815075,0.999998,0.000167,-0.001420,0.003901,-0.000230,0.003911,-0.001430,-87.526678,0.003958,
1610,950,-1.480741,-5.452348,0.999997,0.000212,-0.002236,0.005435,-0.000543,0.005473,-0.002274,-85.972847,0.005499,
1300,860,-0.313174,-7.451271,0.999996,0.000209,-0.002568,0.001409,0.000428,0.001454,-0.002614,83.932716,0.002619,
1040,1120,0.953823,-4.150393,0.999996,0.000244,-0.003294,0.007601,0.001584,0.007827,-0.003519,81.892633,0.007840,
1780,1870,-0.579785,-0.782166,0.999998,0.000190,-0.002177,0.004992,0.000691,0.005057,-0.002243,84.547130,0.005068,
910,110,0.118908,-9.768220,0.999998,0.000158,-0.000494,0.003699,0.000621,0.003789,-0.000584,81.744002,0.004080,
1860,840,-1.901013,-5.878020,0.999998,0.000160,-0.002294,0.004674,-0.000215,0.004681,-0.002301,-88.237667,0.004681,
620,700,1.624287,-6.579495,0.999997,0.000203,-0.002541,0.005059,0.000169,0.005063,-0.002545,88.723451,0.005063,
1130,1540,0.135662,-1.723873,0.999998,0.000145,-0.001467,0.003657,0.000486,0.003703,-0.001513,84.626884,0.003723,
1520,1900,-0.159361,-0.471790,0.999998,0.000171,-0.000811,0.003772,0.000454,0.003816,-0.000856,84.397832,0.004005,
630,50,0.164014,-9.922251,0.999998,0.000169,-0.001915,0.004620,0.001436,0.004921,-0.002217,78.140751,0.004929,
1190,1230,0.095982,-2.439968,0.999997,0.000198,-0.002243,0.001460,0.000747,0.001606,-0.002389,79.011081,0.002435,
720,330,0.801470,-8.625084,0.999997,0.000211,-0.002391,0.005010,0.000032,0.005010,-0.002391,89.754941,0.005012,
580,1920,0.655671,-0.728527,0.999998,0.000194,-0.003216,0.005315,-0.000564,0.005352,-0.003253,-86.237132,0.005393,
1090,190,0.081930,-9.528693,0.999998,0.000165,-0.000566,0.003464,0.000158,0.003470,-0.000572,87.758622,0.003721,
1480,570,-0.440574,-7.871849,0.999997,0.000220,-0.002472,0.004749,0.000767,0.004829,-0.002553,84.003234,0.004832,
1730,1970,-0.190135,-0.262407,0.999998,0.000178,-0.000932,0.004104,0.001221,0.004384,-0.001212,77.069193,0.004528,
590,90,0.444619,-9.620111,0.999996,0.000216,-0.002471,0.005875,0.001317,0.006078,-0.002674,81.240716,0.006092,
1140,1250,0.164134,-2.659226,0.999997,0.000197,-0.002345,0.002902,0.002109,0.003645,-0.003088,70.600330,0.003927,
1400,380,-0.201013,-8.808932,0.999998,0.000160,-0.001422,0.003946,0.000248,0.003957,-0.001434,87.361626,0.004007,
1080,590,0.225696,-7.993477,0.999998,0.000160,-0.001983,0.004014,-0.000978,0.004169,-0.002138,-80.966536,0.004170,
1240,1280,-0.010264,-2.315923,0.999998,0.000182,-0.001170,0.001237,-0.000229,0.001259,-0.001191,-84.621516,0.001416,
1330,1860,-0.056524,-0.559852,0.999999,0.000131,-0.000676,0.003409,0.000056,0.003409,-0.000677,89.208274,0.003610,
1780,200,-0.619523,-9.220352,0.999997,0.000195,-0.002217,0.005088,-0.000589,0.005135,-0.002264,-85.416031,0.005147,
650,360,1.018653,-8.357939,0.999998,0.000151,-0.002490,0.005041,-0.000004,0.005041,-0.002490,-89.969188,0.005041,
1380,250,-0.118249,-9.310362,0.999998,0.000161,-0.000820,0.003632,-0.000089,0.003634,-0.000822,-88.854255,0.003811,
1040,940,0.974718,-5.890911,0.999996,0.000222,-0.003333,0.007767,-0.001672,0.008013,-0.003580,-81.617562,0.008029,
740,1860,0.486556,-0.758429,0.999997,0.000196,-0.001701,0.004817,-0.000755,0.004903,-0.001787,-83.481679,0.004963,
870,1070,1.493149,-4.813189,0.999997,0.000200,-0.001976,0.005414,-0.000367,0.005432,-0.001994,-87.167313,0.005495,
1410,480,-0.255442,-8.394164,0.999997,0.000205,-0.001724,0.004093,0.000517,0.004139,-0.001770,84.964919,0.004153,
590,1850,0.849994,-1.059969,0.999998,0.000146,-0.002456,0.004952,-0.000216,0.004958,-0.002463,-88.330467,0.004958,
660,1000,1.935041,-5.168735,0.999998,0.000175,-0.002150,0.004643,0.000146,0.004647,-0.002153,88.770820,0.004651,
1820,1240,-1.768732,-4.046596,0.999998,0.000174,-0.002428,0.004847,0.000351,0.004864,-0.002445,87.241442,0.004864,
1320,1290,-0.118538,-2.526846,0.999998,0.000191,-0.002013,0.002900,-0.001970,0.003592,-0.002705,-70.641054,0.003743,
1900,1940,-0.618414,-0.660814,0.999997,0.000000,-0.002398,0.005571,0.000933,0.005679,-0.002505,83.413236,0.005692,
1890,320,-1.140640,-8.419447,0.999998,0.000170,-0.002413,0.004910,0.000038,0.004910,-0.002413,89.705235,0.004910,
1200,1990,0.005573,-0.136911,0.999999,0.000121,-0.000124,0.003045,-0.000040,0.003045,-0.000124,-89.268070,0.003447,
1790,1400,-1.408169,-3.196738,0.999997,0.000204,-0.002615,0.005169,0.000138,0.005171,-0.002618,88.981738,0.005172,
1090,210,0.093481,-9.456987,0.999998,0.000156,-0.000668,0.003534,0.000145,0.003539,-0.000673,88.019860,0.003759,
1070,960,0.931310,-5.996455,0.999994,0.000000,-0.003301,0.010038,-0.003872,0.011080,-0.004344,-74.931822,0.011166,
1460,1030,-1.260940,-5.021309,0.999998,0.000206,-0.002561,0.007776,-0.000024,0.007776,-0.002561,-89.867334,0.007926,
790,510,0.881082,-7.822105,0.999998,0.000161,-0.002580,0.005133,-0.000186,0.005138,-0.002584,-88.620531,0.005138,
1480,1920,-0.106537,-0.386995,0.999998,0.000157,-0.000572,0.003556,0.000380,0.003591,-0.000607,84.784272,0.003844,
1650,810,-1.305986,-6.209989,0.999998,0.000205,-0.002959,0.005688,-0.000529,0.005721,-0.002992,-86.511893,0.005723,
1190,830,0.103458,-7.631984,0.999996,0.000227,-0.002417,0.001402,-0.000617,0.001499,-0.002514,-81.050861,0.002530,
1760,730,-1.461068,-6.531713,0.999996,0.000249,-0.002685,0.005235,-0.000329,0.005249,-0.002699,-87.621929,0.005249,
1610,930,-1.446995,-5.563214,0.999997,0.000236,-0.002366,0.005578,-0.000661,0.005633,-0.002421,-85.274823,0.005651,
1570,730,-0.888116,-6.802490,0.999998,0.000205,-0.003355,0.005901,0.000123,0.005902,-0.003356,89.238821,0.005921,
950,1870,0.188258,-0.583145,0.999998,0.000160,-0.001000,0.003854,-0.000337,0.003877,-0.001024,-86.046469,0.004018,
1830,1400,-1.513108,-3.254283,0.999995,0.000247,-0.002566,0.005119,0.000130,0.005121,-0.002568,89.029029,0.005121,
910,90,0.093593,-9.838452,0.999999,0.000135,-0.000377,0.003516,0.000602,0.003607,-0.000468,81.410791,0.003923,
1440,640,-0.373549,-7.635693,0.999997,0.000219,-0.002686,0.004741,0.001132,0.004910,-0.002855,81.523247,0.004932,
1140,260,0.071982,-9.296848,0.999998,0.000141,-0.000892,0.003524,-0.000021,0.003524,-0.000892,-89.726233,0.003664,
700,330,0.848355,-8.591735,0.999998,0.000150,-0.002393,0.005047,0.000018,0.005047,-0.002393,89.865177,0.005050,
790,760,1.272666,-6.467575,0.999998,0.000180,-0.002960,0.005600,0.000398,0.005618,-0.002978,87.340800,0.005622,
1730,1990,-0.134155,-0.180607,0.999997,0.000184,-0.000629,0.004052,0.001316,0.004397,-0.000973,75.322232,0.004619,
1530,780,-0.845192,-6.587877,0.999998,0.000158,-0.003635,0.006261,0.000156,0.006263,-0.003638,89.097524,0.006290,
630,1040,2.006681,-4.981745,0.999998,0.000191,-0.002122,0.004510,-0.000103,0.004512,-0.002123,-89.108658,0.004515,
620,680,1.587517,-6.679657,0.999997,0.000200,-0.002547,0.005061,0.000173,0.005065,-0.002551,88.700423,0.005065,
1790,480,-1.140276,-7.786734,0.999998,0.000183,-0.002546,0.005109,0.000089,0.005110,-0.002547,89.335792,0.005110,
580,1850,0.874671,-1.082283,0.999998,0.000155,-0.002507,0.004970,-0.000241,0.004978,-0.002515,-88.152810,0.004978,
1240,190,-0.004697,-9.545921,0.999998,0.000199,-0.000602,0.003308,0.000005,0.003308,-0.000602,89.926465,0.003524,
810,1820,0.444972,-0.881994,0.999997,0.000205,-0.001744,0.004613,-0.000460,0.004646,-0.001777,-85.878483,0.004689,
1290,1770,-0.050778,-0.865835,0.999999,0.000144,-0.000799,0.003508,0.000033,0.003508,-0.000799,89.555197,0.003678,
830,910,1.465262,-5.663397,0.999997,0.000202,-0.002483,0.005502,0.000679,0.005559,-0.002540,85.171650,0.005566,
570,1920,0.689057,-0.756029,0.999836,0.001546,-0.003583,0.005338,-0.000501,0.005366,-0.003612,-86.793117,0.005472,
1860,820,-1.870023,-5.969346,0.999998,0.000173,-0.002309,0.004654,-0.000199,0.004660,-0.002315,-88.366140,0.004660,
1820,1220,-1.798321,-4.141025,0.999998,0.000151,-0.002388,0.004782,0.000372,0.004801,-0.002407,87.038935,0.004801,
1000,220,0.177349,-9.384845,0.999998,0.000165,-0.000899,0.003797,0.000217,0.003807,-0.000909,87.354957,0.003976,
590,190,0.810173,-9.093139,0.999998,0.000164,-0.002488,0.004985,0.000278,0.004995,-0.002499,87.875495,0.004995,
650,1190,1.830612,-4.279794,0.999998,0.000180,-0.002357,0.004841,-0.000410,0.004864,-0.002380,-86.749443,0.004864,
1210,1360,0.022230,-2.191771,0.999999,0.000130,-0.001049,0.002248,0.000430,0.002304,-0.001104,82.682878,0.002304,
870,1050,1.503792,-4.918663,0.999997,0.000203,-0.001891,0.005319,-0.000218,0.005325,-0.001898,-88.269281,0.005398,
1460,630,-0.420282,-7.627769,0.999996,0.000232,-0.002685,0.004857,0.000988,0.004984,-0.002813,82.662310,0.004998,
1730,1520,-1.063440,-2.479599,0.999998,0.000169,-0.002596,0.005213,-0.000075,0.005213,-0.002596,-89.450672,0.005213,
1530,410,-0.441088,-8.533385,0.999997,0.000216,-0.001923,0.004519,0.000225,0.004527,-0.001931,88.001846,0.004544,
1780,180,-0.566770,-9.322492,0.999998,0.000192,-0.002135,0.004989,-0.000740,0.005065,-0.002211,-84.133218,0.005079,
1900,1930,-0.657047,-0.714887,0.999997,0.000000,-0.002453,0.005434,0.000792,0.005513,-0.002532,84.321410,0.005519,
1310,1860,-0.043736,-0.555528,0.999998,0.000161,-0.000552,0.003373,0.000072,0.003374,-0.000554,88.944592,0.003619,
1790,1380,-1.442905,-3.300918,0.999997,0.000208,-0.002633,0.005171,0.000209,0.005176,-0.002638,88.469210,0.005177,
1090,230,0.104122,-9.386363,0.999998,0.000182,-0.000740,0.003549,0.000114,0.003552,-0.000743,88.481964,0.003747,
650,380,1.051903,-8.258099,0.999998,0.000148,-0.002495,0.005051,-0.000038,0.005051,-0.002495,-89.714636,0.005051,
1710,440,-0.883227,-8.119270,0.999998,0.000159,-0.002451,0.005050,0.000110,0.005052,-0.002453,89.161594,0.005053,
810,1180,1.450485,-4.237069,0.999997,0.000209,-0.002649,0.005495,-0.000649,0.005547,-0.002700,-85.469817,0.005547,
1280,1990,-0.006146,-0.135850,0.999998,0.000166,-0.000130,0.003024,0.000084,0.003026,-0.000132,88.472410,0.003420,
600,1650,1.213224,-2.032736,0.999999,0.000146,-0.002486,0.005001,0.000054,0.005002,-0.002486,89.589901,0.005002,
1480,1900,-0.125423,-0.457176,0.999998,0.000152,-0.000659,0.003616,0.000363,0.003647,-0.000689,85.177699,0.003875,
790,490,0.856381,-7.924296,0.999998,0.000172,-0.002546,0.005080,-0.000189,0.005084,-0.002551,-88.584596,0.005085,
700,1520,1.150070,-2.535120,0.999998,0.000192,-0.002617,0.005170,0.000054,0.005170,-0.002617,89.605142,0.005170,
1070,950,0.905648,-6.086778,0.999995,0.000000,-0.002952,0.009177,-0.003866,0.010305,-0.004079,-73.741412,0.010379,
1610,910,-1.408424,-5.675614,0.999998,0.000204,-0.002519,0.005610,-0.000708,0.005672,-0.002580,-85.056825,0.005679,
580,90,0.467602,-9.599432,0.999997,0.000209,-0.003054,0.006127,0.001573,0.006389,-0.003316,80.541506,0.006391,
1080,470,0.206140,-8.470395,0.999997,0.000189,-0.001659,0.003940,-0.000532,0.003990,-0.001709,-84.624863,0.004004,
1140,1230,0.211016,-2.713841,0.999998,0.000190,-0.002370,0.002781,0.001978,0.003452,-0.003041,71.239006,0.003772,
570,1340,1.774562,-3.651349,0.999934,0.000994,-0.003097,0.004920,0.000161,0.004923,-0.003100,88.847026,0.004978,
1300,850,-0.255352,-7.466024,0.999997,0.000175,-0.002461,0.001566,0.000574,0.001646,-0.002542,82.041990,0.002578,
910,70,0.064518,-9.909577,0.999998,0.000149,-0.000252,0.003479,0.000633,0.003583,-0.000356,80.631796,0.003948,
840,1170,1.390104,-4.272235,0.999997,0.000209,-0.002673,0.005645,-0.000702,0.005704,-0.002731,-85.209792,0.005706,
1650,790,-1.265509,-6.325374,0.999998,0.000210,-0.003005,0.005702,-0.000462,0.005726,-0.003030,-86.969913,0.005730,
1760,710,-1.425137,-6.635486,0.999997,0.000214,-0.002683,0.005221,-0.000287,0.005231,-0.002693,-87.922530,0.005232,
1190,70,0.007211,-9.927387,0.999999,0.000151,-0.000143,0.003056,0.000072,0.003058,-0.000145,88.714492,0.003450,
1590,620,-0.788053,-7.387451,0.999998,0.000180,-0.002928,0.005391,0.000326,0.005404,-0.002941,87.756969,0.005411,
810,760,1.213325,-6.492325,0.999998,0.000177,-0.003040,0.005710,0.000344,0.005723,-0.003054,87.752539,0.005727,
950,1850,0.214326,-0.663727,0.999997,0.000204,-0.001106,0.003914,-0.000300,0.003932,-0.001124,-86.591133,0.004050,
1570,710,-0.853222,-6.921883,0.999998,0.000196,-0.003336,0.005803,0.000211,0.005808,-0.003341,88.678435,0.005830,
1560,190,-0.238955,-9.455594,0.999998,0.000153,-0.001074,0.004009,-0.000476,0.004054,-0.001118,-84.701685,0.004187,
1140,700,0.115966,-7.739040,0.999998,0.000163,-0.001723,0.003156,-0.001492,0.003576,-0.002144,-74.273608,0.003600,
1440,620,-0.362139,-7.728244,0.999997,0.000206,-0.002575,0.004648,0.001066,0.004802,-0.002729,81.776718,0.004817,
1740,480,-1.013713,-7.866215,0.999998,0.000172,-0.002539,0.005130,0.000108,0.005132,-0.002540,89.192881,0.005132,
940,1750,0.334721,-1.077085,0.999998,0.000183,-0.001530,0.004218,-0.000033,0.004218,-0.001530,-89.666922,0.004271,
930,1920,0.144071,-0.401379,0.999998,0.000178,-0.000650,0.003725,-0.000507,0.003783,-0.000708,-83.471436,0.004022,
690,1940,0.350049,-0.427381,0.999997,0.000206,-0.001700,0.004846,-0.001253,0.005078,-0.001931,-79.521624,0.005126,
620,660,1.553042,-6.782573,0.999997,0.000208,-0.002535,0.005063,0.000132,0.005065,-0.002538,89.006710,0.005065,
1770,480,-1.089997,-7.819743,0.999998,0.000176,-0.002527,0.005119,0.000106,0.005120,-0.002528,89.206175,0.005120,
1090,60,0.017740,-9.955224,0.999998,0.000166,-0.000117,0.003115,0.000198,0.003127,-0.000129,86.504198,0.003538,
690,840,1.694483,-5.950973,0.999998,0.000165,-0.002495,0.004962,0.000442,0.004988,-0.002521,86.617918,0.004988,
1240,1260,-0.010184,-2.337409,0.999998,0.000188,-0.001501,0.001059,-0.000237,0.001081,-0.001522,-84.757647,0.001567,
1300,260,-0.053953,-9.301568,0.999998,0.000142,-0.000776,0.003475,-0.000031,0.003475,-0.000776,-89.576501,0.003648,
1680,1990,-0.110665,-0.169156,0.999999,0.000153,-0.000608,0.003805,0.001065,0.004049,-0.000852,77.117237,0.004269,
580,190,0.834841,-9.070465,0.999998,0.000174,-0.002634,0.004933,0.000287,0.004944,-0.002645,87.828221,0.004948,
830,890,1.428101,-5.772836,0.999997,0.000201,-0.002613,0.005546,0.000682,0.005603,-0.002669,85.251313,0.005605,
660,260,0.816662,-8.882351,0.999998,0.000176,-0.002338,0.005077,0.000276,0.005087,-0.002348,87.874036,0.005092,
1820,1200,-1.831568,-4.237702,0.999998,0.000158,-0.002359,0.004821,0.000401,0.004843,-0.002381,86.809021,0.004843,
1780,160,-0.508847,-9.421361,0.999997,0.000218,-0.002051,0.005056,-0.000910,0.005171,-0.002165,-82.820725,0.005193,
870,1030,1.514174,-5.025903,0.999997,0.000222,-0.001873,0.005363,-0.000044,0.005363,-0.001874,-89.651471,0.005444,
1000,200,0.156816,-9.460809,0.999998,0.000160,-0.000792,0.003736,0.000271,0.003752,-0.000808,86.582584,0.003949,
570,1660,1.265498,-2.034665,0.999977,0.000718,-0.000847,0.004589,0.000321,0.004608,-0.000866,86.634221,0.004898,
1900,1920,-0.697682,-0.768618,0.999998,0.000000,-0.002462,0.005351,0.000679,0.005410,-0.002521,85.066846,0.005414,
650,1600,1.162190,-2.202954,0.999997,0.000192,-0.002542,0.005084,0.000085,0.005085,-0.002543,89.361341,0.005085,
1690,440,-0.834482,-8.151659,0.999998,0.000162,-0.002459,0.005021,0.000116,0.005023,-0.002461,89.113164,0.005023,
1650,770,-1.225974,-6.438399,0.999997,0.000229,-0.003036,0.005722,-0.000395,0.005739,-0.003053,-87.423728,0.005743,
1260,1990,-0.004689,-0.137007,0.999998,0.000164,-0.000148,0.003036,0.000063,0.003037,-0.000149,88.858262,0.003424,
1860,800,-1.840114,-6.062064,0.999998,0.000185,-0.002351,0.004711,-0.000197,0.004717,-0.002357,-88.401722,0.004717,
1050,1200,0.598144,-3.510841,0.999996,0.000235,-0.003710,0.006300,0.001415,0.006496,-0.003906,82.104195,0.006540,
930,600,0.602166,-7.609764,0.999997,0.000207,-0.002794,0.005192,-0.000613,0.005239,-0.002841,-85.638691,0.005245,
650,120,0.431378,-9.593875,0.999997,0.000220,-0.001821,0.005241,0.001223,0.005447,-0.002026,80.450174,0.005506,
1210,1380,0.022856,-2.144977,0.999999,0.000136,-0.001107,0.002410,0.000367,0.002448,-0.001145,84.098773,0.002450,
1070,30,0.005492,-10.048328,0.999999,0.000000,-0.000088,0.003115,0.000208,0.003129,-0.000101,86.301908,0.003556,
1570,1620,-0.548325,-1.721474,0.999997,0.000219,-0.002185,0.004744,-0.000231,0.004752,-0.002193,-88.096893,0.004756,
1240,1240,-0.019797,-2.356376,0.999998,0.000169,-0.002138,0.001089,-0.000185,0.001100,-0.002148,-86.735262,0.002148,
1010,1640,0.300924,-1.469951,0.999997,0.000181,-0.001661,0.004230,0.000315,0.004247,-0.001678,86.952192,0.004278,
910,1920,0.156536,-0.407776,0.999998,0.000153,-0.000661,0.003774,-0.000579,0.003848,-0.000736,-82.677705,0.004086,
1740,460,-0.985600,-7.969939,0.999998,0.000156,-0.002529,0.005070,0.000103,0.005072,-0.002530,89.224998,0.005072,
1590,600,-0.764169,-7.493269,0.999998,0.000146,-0.002832,0.005308,0.000349,0.005323,-0.002847,87.547647,0.005327,
1530,390,-0.423658,-8.623270,0.999997,0.000195,-0.001839,0.004474,0.000173,0.004479,-0.001844,88.434394,0.004502,
1480,310,-0.271250,-9.020351,0.999998,0.000179,-0.001376,0.004102,-0.000008,0.004102,-0.001376,-89.913263,0.004175,
880,370,0.508402,-8.647279,0.999996,0.000217,-0.002094,0.004641,-0.000106,0.004642,-0.002096,-89.094946,0.004650,
1630,1120,-1.502918,-4.553713,0.999997,0.000226,-0.002290,0.005412,0.000587,0.005456,-0.002334,85.667747,0.005475,
950,1830,0.232867,-0.737930,0.999998,0.000171,-0.001217,0.003956,-0.000231,0.003966,-0.001227,-87.449942,0.004061,
1570,690,-0.821432,-7.035656,0.999998,0.000193,-0.003273,0.005698,0.000277,0.005707,-0.003282,88.230470,0.005728,
830,870,1.385356,-5.886557,0.999997,0.000198,-0.002737,0.005658,0.000687,0.005714,-0.002793,85.354727,0.005715,
830,700,1.039003,-6.863552,0.999998,0.000157,-0.003112,0.005644,0.000060,0.005644,-0.003112,89.607585,0.005654,
1020,910,0.917778,-6.004166,0.999996,0.000243,-0.003352,0.007287,-0.000510,0.007312,-0.003376,-87.263761,0.007319,
810,1740,0.577727,-1.258291,0.999997,0.000200,-0.002080,0.004778,-0.000129,0.004781,-0.002082,-88.924966,0.004794,
620,640,1.520514,-6.882488,0.999997,0.000191,-0.002515,0.005070,0.000082,0.005071,-0.002516,89.382930,0.005071,
1120,1230,0.262254,-2.854064,0.999997,0.000246,-0.002730,0.003591,0.002179,0.004269,-0.003408,72.708713,0.004516,
1750,1880,-0.486968,-0.693014,0.999998,0.000181,-0.002090,0.004868,0.000716,0.004940,-0.002163,84.183299,0.004953,
1190,810,0.074572,-7.659790,0.999998,0.000194,-0.001848,0.001397,-0.001065,0.001715,-0.002166,-73.353607,0.002286,
1710,680,-1.233260,-6.861307,0.999997,0.000226,-0.002861,0.005400,-0.000164,0.005403,-0.002864,-88.863794,0.005406,
1500,1510,-0.472835,-2.128120,0.999997,0.000204,-0.002424,0.004790,-0.000640,0.004847,-0.002480,-84.971492,0.004847,
1350,680,-0.164822,-7.727086,0.999998,0.000176,-0.002020,0.003662,0.001449,0.004010,-0.002368,76.491189,0.004032,
1780,140,-0.444365,-9.524322,0.999997,0.000221,-0.001900,0.004920,-0.001062,0.005082,-0.002062,-81.354188,0.005112,
650,1580,1.192551,-2.305594,0.999998,0.000200,-0.002525,0.005088,0.000090,0.005089,-0.002526,89.321582,0.005089,
900,1980,0.073122,-0.188993,0.999998,0.000153,-0.000378,0.003505,-0.000638,0.003608,-0.000480,-80.899360,0.003918,
1560,1010,-1.445820,-5.137107,0.999997,0.000203,-0.001792,0.005569,-0.000238,0.005577,-0.001799,-88.148935,0.005692,
1410,460,-0.249998,-8.474338,0.999998,0.000188,-0.001682,0.004065,0.000447,0.004100,-0.001717,85.576103,0.004117,
660,220,0.723082,-9.085757,0.999998,0.000190,-0.002238,0.005093,0.000485,0.005125,-0.002270,86.232284,0.005136,
1900,1910,-0.734040,-0.822985,0.999998,0.000000,-0.002485,0.005249,0.000572,0.005291,-0.002527,85.789484,0.005292,
1300,240,-0.048445,-9.370962,0.999999,0.000138,-0.000686,0.003429,-0.000057,0.003430,-0.000686,-89.206647,0.003629,
1280,1590,-0.059349,-1.502475,0.999998,0.000181,-0.001241,0.003526,-0.000142,0.003531,-0.001246,-88.291533,0.003581,
870,1010,1.505815,-5.133572,0.999997,0.000229,-0.001871,0.005357,0.000165,0.005361,-0.001875,88.692791,0.005441,
1820,1180,-1.862575,-4.335185,0.999998,0.000176,-0.002297,0.004765,0.000353,0.004783,-0.002315,87.142752,0.004784,
1230,120,0.000158,-9.773238,0.999999,0.000130,-0.000330,0.003171,-0.000012,0.003171,-0.000330,-89.810865,0.003487,
1860,780,-1.805586,-6.157702,0.999998,0.000157,-0.002405,0.004843,-0.000199,0.004848,-0.002410,-88.432053,0.004848,
790,1540,0.886991,-2.284828,0.999998,0.000134,-0.002619,0.005135,0.000178,0.005139,-0.002623,88.686085,0.005140,
590,720,1.732072,-6.434416,0.999998,0.000192,-0.002551,0.004925,0.000155,0.004928,-0.002554,88.814474,0.004929,
1550,720,-0.801904,-6.906394,0.999998,0.000213,-0.003439,0.005874,0.000309,0.005884,-0.003449,88.103587,0.005913,
690,820,1.661894,-6.052652,0.999998,0.000169,-0.002542,0.005064,0.000471,0.005093,-0.002571,86.467208,0.005093,
1240,1210,-0.039053,-2.397573,0.999995,0.000274,-0.004310,0.001568,0.000036,0.001568,-0.004310,89.649749,0.004363,
1060,2020,0.009017,-0.049517,0.999998,0.000000,-0.000124,0.003000,-0.000175,0.003010,-0.000134,-86.795599,0.003401,
1610,890,-1.367159,-5.787889,0.999998,0.000207,-0.002678,0.005714,-0.000699,0.005772,-0.002736,-85.273424,0.005775,
690,1340,1.469360,-3.486886,0.999997,0.000210,-0.002643,0.005192,-0.000294,0.005203,-0.002654,-87.856484,0.005203,
640,230,0.792092,-9.002042,0.999998,0.000178,-0.002363,0.005102,0.000295,0.005113,-0.002375,87.736773,0.005118,
900,1710,0.437644,-1.291619,0.999998,0.000208,-0.001897,0.004522,0.000021,0.004522,-0.001897,89.808353,0.004542,
790,470,0.832781,-8.023800,0.999998,0.000165,-0.002518,0.005091,-0.000171,0.005095,-0.002522,-88.714634,0.005095,
1740,440,-0.959250,-8.071225,0.999998,0.000174,-0.002524,0.005068,0.000121,0.005070,-0.002526,89.086825,0.005070,
1440,600,-0.353875,-7.823228,0.999997,0.000193,-0.002454,0.004616,0.000973,0.004747,-0.002585,82.303528,0.004754,
1140,680,0.115734,-7.802576,0.999998,0.000166,-0.001705,0.003222,-0.001326,0.003557,-0.002040,-75.854834,0.003569,
1010,1920,0.093458,-0.380561,0.999997,0.000227,-0.000495,0.003459,-0.000309,0.003483,-0.000519,-85.557180,0.003758,
790,1140,1.572273,-4.461864,0.999996,0.000236,-0.002451,0.005310,-0.000588,0.005355,-0.002496,-85.688578,0.005359,
1680,1630,-0.791183,-1.837873,0.999998,0.000151,-0.002398,0.004996,-0.000120,0.004998,-0.002400,-89.072522,0.004999,
1670,620,-1.021132,-7.245046,0.999998,0.000143,-0.002855,0.005382,0.000069,0.005382,-0.002856,89.522775,0.005386,
1380,1990,-0.020765,-0.140726,0.999998,0.000157,-0.000131,0.003131,0.000226,0.003146,-0.000147,86.055746,0.003551,
1400,360,-0.191817,-8.887977,0.999998,0.000167,-0.001356,0.003898,0.000189,0.003904,-0.001363,87.941689,0.003963,
1690,1530,-0.945273,-2.363103,0.999998,0.000164,-0.002658,0.005192,-0.000159,0.005195,-0.002661,-88.838794,0.005196,
1350,230,-0.084102,-9.393734,0.999998,0.000169,-0.000800,0.003540,-0.000053,0.003540,-0.000800,-89.302641,0.003713,
1360,250,-0.102681,-9.316111,0.999998,0.000143,-0.000822,0.003578,-0.000044,0.003579,-0.000822,-89.429860,0.003749,
1490,660,-0.529101,-7.397650,0.999996,0.000218,-0.003084,0.005315,0.000879,0.005406,-0.003175,84.091705,0.005433,
690,460,1.069217,-7.916510,0.999997,0.000189,-0.002494,0.005059,-0.000096,0.005060,-0.002495,-89.274643,0.005060,
1500,1530,-0.461169,-2.032384,0.999998,0.000184,-0.002355,0.004715,-0.000617,0.004769,-0.002408,-85.049960,0.004769,
1240,820,-0.019309,-7.717751,0.999998,0.000182,-0.002401,0.001174,0.000163,0.001181,-0.002409,87.400352,0.002409,
790,1740,0.621119,-1.283172,0.999998,0.000168,-0.002205,0.004837,-0.000102,0.004838,-0.002206,-89.166994,0.004845,
1560,990,-1.429868,-5.249757,0.999998,0.000189,-0.001893,0.005676,-0.000407,0.005697,-0.001915,-86.931912,0.005799,
900,1960,0.103137,-0.259924,0.999998,0.000176,-0.000529,0.003585,-0.000626,0.003678,-0.000622,-81.540592,0.003937,
650,1630,1.117803,-2.050566,0.999998,0.000175,-0.002517,0.005060,0.000068,0.005061,-0.002518,89.482327,0.005061,
720,970,1.793583,-5.318518,0.999998,0.000171,-0.002181,0.004866,0.000240,0.004874,-0.002189,88.051595,0.004882,
1900,1530,-1.484610,-2.697173,0.999997,0.000000,-0.002455,0.005039,0.000017,0.005039,-0.002456,89.868959,0.005040,
1650,750,-1.183218,-6.554081,0.999997,0.000222,-0.003067,0.005697,-0.000309,0.005708,-0.003078,-87.982583,0.005714,
710,1600,1.011953,-2.106125,0.999998,0.000187,-0.002481,0.005076,0.000111,0.005077,-0.002482,89.158100,0.005078,
1190,770,0.044512,-7.714751,0.999998,0.000189,-0.001324,0.001675,-0.001153,0.002067,-0.001716,-71.219665,0.002212,
770,1660,0.782275,-1.706637,0.999998,0.000149,-0.002347,0.004983,0.000052,0.004983,-0.002347,89.592592,0.004986,
1570,670,-0.792194,-7.151416,0.999997,0.000217,-0.003197,0.005636,0.000328,0.005648,-0.003209,87.878679,0.005665,
950,1810,0.258535,-0.822660,0.999998,0.000170,-0.001315,0.004060,-0.000200,0.004067,-0.001322,-87.873868,0.004149,
1480,1880,-0.144842,-0.531822,0.999998,0.000155,-0.000787,0.003687,0.000314,0.003709,-0.000809,86.005480,0.003901,
870,990,1.497841,-5.240618,0.999997,0.000225,-0.001936,0.005392,0.000305,0.005405,-0.001949,87.624857,0.005475,
940,510,0.504851,-8.075850,0.999998,0.000195,-0.002338,0.004757,-0.000490,0.004791,-0.002372,-86.065792,0.004791,
1370,1320,-0.223541,-2.641621,0.999997,0.000209,-0.002668,0.004225,-0.001893,0.004711,-0.003154,-75.607785,0.004800,
1530,370,-0.408048,-8.711859,0.999998,0.000191,-0.001750,0.004372,0.000092,0.004373,-0.001751,89.138239,0.004402,
1820,1160,-1.888268,-4.428534,0.999997,0.000208,-0.002243,0.004683,0.000274,0.004693,-0.002254,87.734817,0.004695,
1090,1400,0.213250,-2.321578,0.999998,0.000172,-0.002194,0.004013,0.001355,0.004296,-0.002477,78.204897,0.004313,
1300,220,-0.044023,-9.437845,0.999998,0.000171,-0.000616,0.003408,-0.000053,0.003409,-0.000617,-89.238815,0.003633,
610,1830,0.853727,-1.116799,0.999998,0.000157,-0.002417,0.004997,-0.000149,0.005000,-0.002420,-88.846736,0.005001,
1780,120,-0.381965,-9.619788,0.999997,0.000193,-0.001723,0.004948,-0.001275,0.005184,-0.001958,-79.539825,0.005235,
1080,1140,0.761706,-3.609296,0.999995,0.000240,-0.002091,0.005831,0.003544,0.007185,-0.003446,69.088608,0.007187,
700,1500,1.179380,-2.637467,0.999998,0.000177,-0.002636,0.005184,0.000040,0.005185,-0.002636,89.710269,0.005185,
1550,700,-0.769826,-7.022288,0.999997,0.000200,-0.003342,0.005744,0.000380,0.005760,-0.003358,87.611528,0.005787,
1130,120,0.032894,-9.767205,0.999998,0.000150,-0.000390,0.003222,0.000106,0.003226,-0.000394,88.318839,0.003519,
1350,520,-0.160853,-8.320835,0.999998,0.000165,-0.001564,0.003786,0.000581,0.003849,-0.001627,83.876261,0.003864,
1610,870,-1.320785,-5.904879,0.999997,0.000227,-0.002835,0.005789,-0.000694,0.005845,-0.002891,-85.428213,0.005845,
640,410,1.122868,-8.088990,0.999997,0.000176,-0.002521,0.005027,-0.000059,0.005027,-0.002521,-89.550430,0.005027,
1700,910,-1.630441,-5.631790,0.999998,0.000197,-0.002350,0.005220,-0.000555,0.005260,-0.002391,-85.830939,0.005268,
630,1080,1.988261,-4.803872,0.999998,0.000185,-0.002148,0.004455,-0.000075,0.004456,-0.002149,-89.351978,0.004457,
790,450,0.804542,-8.129326,0.999998,0.000153,-0.002484,0.005071,-0.000147,0.005073,-0.002487,-88.886528,0.005074,
1140,660,0.116476,-7.871190,0.999998,0.000154,-0.001670,0.003250,-0.001180,0.003518,-0.001938,-77.190256,0.003524,
990,1920,0.103592,-0.385284,0.999998,0.000156,-0.000529,0.003511,-0.000355,0.003542,-0.000560,-85.017257,0.003808,
1740,420,-0.930843,-8.174111,0.999998,0.000173,-0.002488,0.005075,0.000090,0.005076,-0.002489,89.319049,0.005077,
1490,640,-0.512649,-7.501359,0.999997,0.000220,-0.002972,0.005148,0.000883,0.005243,-0.003067,83.861772,0.005268,
700,750,1.507221,-6.423036,0.999997,0.000217,-0.002664,0.005245,0.000369,0.005263,-0.002682,87.337647,0.005263,
1670,600,-0.992800,-7.354125,0.999998,0.000151,-0.002790,0.005356,0.000092,0.005357,-0.002791,89.354708,0.005358,
1360,1990,-0.017385,-0.140002,0.999998,0.000149,-0.000140,0.003105,0.000186,0.003116,-0.000151,86.729864,0.003514,
670,1340,1.520937,-3.510612,0.999998,0.000187,-0.002639,0.005134,-0.000276,0.005143,-0.002648,-87.968006,0.005144,
1060,1080,0.985936,-4.344412,0.999994,0.000000,-0.004210,0.011363,0.003182,0.011988,-0.004836,78.885565,0.012063,
910,60,0.051954,-9.944302,0.999998,0.000159,-0.000205,0.003425,0.000627,0.003530,-0.000310,80.471242,0.003909,
1900,1900,-0.767420,-0.875191,0.999998,0.000000,-0.002525,0.005123,0.000458,0.005150,-0.002552,86.582554,0.005150,
750,1660,0.829999,-1.737213,0.999998,0.000178,-0.002390,0.005076,0.000049,0.005076,-0.002390,89.626541,0.005079,
1440,1020,-1.204143,-5.105867,0.999995,0.000278,-0.003510,0.009242,0.000136,0.009244,-0.003511,89.387381,0.009332,
590,1890,0.732483,-0.858204,0.999997,0.000189,-0.002513,0.005101,-0.000375,0.005119,-0.002531,-87.185930,0.005120,
1480,1860,-0.165047,-0.606639,0.999998,0.000163,-0.000872,0.003762,0.000300,0.003781,-0.000892,86.306362,0.003953,
1270,1280,-0.044550,-2.366749,0.999998,0.000189,-0.001318,0.001594,-0.001090,0.001957,-0.001681,-71.591326,0.002119,
1820,1140,-1.910442,-4.522263,0.999998,0.000187,-0.002223,0.004653,0.000290,0.004665,-0.002235,87.591582,0.004666,
1720,750,-1.389817,-6.470817,0.999997,0.000201,-0.002828,0.005380,-0.000403,0.005399,-0.002847,-87.195747,0.005402,
1110,1480,0.170135,-1.970742,0.999998,0.000157,-0.001767,0.003726,0.000869,0.003860,-0.001901,81.220005,0.003860,
1670,1700,-0.673415,-1.475563,0.999997,0.000176,-0.002288,0.004889,-0.000004,0.004889,-0.002288,-89.969663,0.004893,
940,490,0.489589,-8.170534,0.999997,0.000210,-0.002268,0.004728,-0.000453,0.004758,-0.002297,-86.306888,0.004759,
1750,1560,-1.058994,-2.305735,0.999998,0.000158,-0.002542,0.005120,-0.000106,0.005122,-0.002544,-89.208286,0.005122,
1530,350,-0.389594,-8.798507,0.999998,0.000175,-0.001660,0.004380,0.000021,0.004380,-0.001660,89.797552,0.004422,
870,970,1.472855,-5.349596,0.999997,0.000220,-0.002054,0.005461,0.000492,0.005494,-0.002086,86.268218,0.005546,
650,1610,1.148848,-2.152448,0.999998,0.000171,-0.002541,0.005074,0.000089,0.005075,-0.002542,89.328182,0.005075,
1070,1400,0.258799,-2.382215,0.999998,0.000172,-0.002331,0.004308,0.001339,0.004568,-0.002591,79.017425,0.004582,
620,620,1.488665,-6.986079,0.999997,0.000198,-0.002528,0.005083,0.000047,0.005083,-0.002528,89.647955,0.005083,
1430,1060,-1.143097,-4.711179,0.999996,0.000226,-0.003927,0.009939,-0.000950,0.010004,-0.003991,-86.097647,0.010072,
1860,1200,-1.924083,-4.273765,0.999998,0.000156,-0.002255,0.004673,0.000230,0.004681,-0.002263,88.100857,0.004682,
1650,730,-1.145420,-6.668870,0.999998,0.000237,-0.003052,0.005649,-0.000238,0.005655,-0.003058,-88.432205,0.005661,
1530,720,-0.733842,-6.952806,0.999998,0.000175,-0.003445,0.005853,0.000455,0.005875,-0.003468,87.204040,0.005907,
700,1480,1.208426,-2.742530,0.999998,0.000166,-0.002649,0.005190,0.000010,0.005190,-0.002649,89.925016,0.005191,
900,1940,0.131345,-0.332220,0.999998,0.000168,-0.000629,0.003738,-0.000640,0.003830,-0.000721,-81.832705,0.004071,
1610,850,-1.276030,-6.020194,0.999997,0.000215,-0.002955,0.005838,-0.000621,0.005881,-0.002999,-85.979969,0.005882,
760,130,0.296196,-9.632629,0.999998,0.000163,-0.001096,0.004404,0.001088,0.004611,-0.001303,79.204663,0.004755,
950,1790,0.277594,-0.901786,0.999998,0.000178,-0.001421,0.004057,-0.000135,0.004060,-0.001424,-88.585083,0.004120,
1570,650,-0.765866,-7.262759,0.999997,0.000209,-0.003117,0.005550,0.000391,0.005567,-0.003135,87.424686,0.005582,
1110,120,0.041298,-9.764072,0.999998,0.000142,-0.000347,0.003248,0.000178,0.003257,-0.000356,87.176020,0.003573,
940,1190,1.038709,-4.022898,0.999997,0.000190,-0.003391,0.006462,-0.000435,0.006481,-0.003410,-87.479611,0.006484,
1350,540,-0.162961,-8.244848,0.999998,0.000167,-0.001627,0.003763,0.000675,0.003846,-0.001710,82.973092,0.003854,
1000,990,1.232372,-5.330351,0.999996,0.000242,-0.002573,0.007668,-0.000027,0.007668,-0.002573,-89.851203,0.007805,
1140,640,0.117581,-7.935836,0.999998,0.000164,-0.001608,0.003296,-0.001029,0.003503,-0.001815,-78.613010,0.003504,
1190,750,0.043965,-7.749468,0.999998,0.000157,-0.001227,0.001848,-0.001051,0.002173,-0.001552,-72.820168,0.002238,
790,430,0.779337,-8.229131,0.999998,0.000167,-0.002422,0.004946,-0.000146,0.004949,-0.002425,-88.868965,0.004949,
1780,100,-0.308145,-9.721998,0.999998,0.000178,-0.001429,0.004659,-0.001390,0.004961,-0.001731,-77.730938,0.005036,
1540,1010,-1.412929,-5.136409,0.999997,0.000197,-0.001802,0.005749,-0.000193,0.005753,-0.001807,-88.537626,0.005885,
1740,400,-0.902514,-8.273143,0.999998,0.000185,-0.002448,0.005066,0.000058,0.005066,-0.002449,89.555962,0.005067,
1470,1920,-0.102150,-0.385238,0.999998,0.000144,-0.000491,0.003524,0.000378,0.003559,-0.000526,84.672939,0.003842,
700,730,1.471156,-6.527841,0.999996,0.000226,-0.002694,0.005233,0.000345,0.005248,-0.002709,87.512402,0.005249,
1060,1070,1.004485,-4.461391,0.999994,0.000000,-0.004626,0.012552,0.002625,0.012944,-0.005018,81.503516,0.013053,
590,950,2.061799,-5.370167,0.999998,0.000181,-0.002067,0.004269,0.000084,0.004271,-0.002068,89.242332,0.004271,
700,310,0.815331,-8.692957,0.999998,0.000160,-0.002385,0.005024,0.000071,0.005025,-0.002386,89.453513,0.005027,
1900,1880,-0.832105,-0.974629,0.999998,0.000000,-0.002487,0.004991,0.000303,0.005004,-0.002500,87.681745,0.005004,
1460,1170,-0.881221,-3.970503,0.999997,0.000218,-0.003687,0.007021,-0.000200,0.007025,-0.003690,-88.932202,0.007028,
1300,200,-0.038488,-9.507253,0.999998,0.000193,-0.000546,0.003411,-0.000079,0.003413,-0.000547,-88.859502,0.003666,
750,1640,0.857772,-1.839648,0.999997,0.000212,-0.002451,0.005051,0.000098,0.005053,-0.002452,89.248580,0.005053,
1090,250,0.113409,-9.313592,0.999998,0.000180,-0.000829,0.003633,0.000073,0.003634,-0.000831,89.058608,0.003808,
1440,1040,-1.202999,-4.931327,0.999994,0.000313,-0.003500,0.009324,-0.000234,0.009328,-0.003505,-88.953628,0.009424,
1820,1120,-1.933191,-4.614121,0.999998,0.000173,-0.002210,0.004673,0.000308,0.004687,-0.002224,87.446786,0.004689,
870,950,1.444476,-5.459240,0.999997,0.000223,-0.002250,0.005561,0.000577,0.005604,-0.002292,85.799484,0.005635,
1070,1540,0.234433,-1.805809,0.999998,0.000166,-0.001750,0.004002,0.000659,0.004076,-0.001824,83.547194,0.004084,
1530,330,-0.368531,-8.887660,0.999998,0.000175,-0.001597,0.004423,-0.000027,0.004423,-0.001598,-89.745589,0.004479,
1600,1530,-0.708602,-2.212254,0.999997,0.000208,-0.002582,0.005099,-0.000317,0.005112,-0.002595,-87.639986,0.005112,
980,570,0.446276,-7.865094,0.999998,0.000189,-0.002504,0.004768,-0.000754,0.004846,-0.002581,-84.145312,0.004849,
940,1790,0.291381,-0.909585,0.999998,0.000178,-0.001378,0.004089,-0.000170,0.004094,-0.001384,-88.225161,0.004165,
1480,1840,-0.185567,-0.681592,0.999998,0.000160,-0.000973,0.003821,0.000251,0.003834,-0.000986,87.010776,0.003981,
1540,850,-1.054708,-6.118652,0.999996,0.000236,-0.003410,0.006356,-0.000424,0.006374,-0.003428,-87.520258,0.006380,
1210,1300,0.022256,-2.302588,0.999998,0.000174,-0.001084,0.001540,0.000591,0.001667,-0.001211,77.886085,0.001723,
650,1590,1.176919,-2.254216,0.999997,0.000194,-0.002527,0.005093,0.000087,0.005094,-0.002528,89.343697,0.005094,
580,1890,0.757164,-0.881775,0.999997,0.000181,-0.002813,0.005015,-0.000313,0.005028,-0.002826,-87.710862,0.005041,
1860,1220,-1.894177,-4.177925,0.999998,0.000160,-0.002288,0.004663,0.000216,0.004670,-0.002295,88.220727,0.004670,
1410,920,-0.850504,-6.144868,0.999996,0.000229,-0.003077,0.007050,0.002246,0.007525,-0.003552,78.040300,0.007529,
680,1430,1.339571,-3.031034,0.999997,0.000188,-0.002669,0.005150,-0.000118,0.005152,-0.002671,-89.132052,0.005153,
1320,1990,-0.011164,-0.137735,0.999998,0.000159,-0.000145,0.003054,0.000124,0.003059,-0.000150,87.785674,0.003449,
960,870,0.986286,-6.069928,0.999997,0.000202,-0.003522,0.006663,0.000282,0.006671,-0.003530,88.415229,0.006675,
1070,120,0.052168,-9.761248,0.999999,0.000133,-0.000363,0.003327,0.000225,0.003341,-0.000376,86.520977,0.003660,
1650,710,-1.107642,-6.781193,0.999998,0.000244,-0.003017,0.005650,-0.000140,0.005652,-0.003019,-89.074962,0.005656,
620,580,1.423843,-7.189655,0.999997,0.000187,-0.002594,0.005119,0.000022,0.005119,-0.002594,89.834120,0.005119,
1650,600,-0.936525,-7.386420,0.999998,0.000184,-0.002830,0.005366,0.000153,0.005369,-0.002832,88.932543,0.005371,
760,110,0.239210,-9.722751,0.999998,0.000184,-0.000872,0.004319,0.001181,0.004575,-0.001128,77.762637,0.004767,
790,410,0.756114,-8.327209,0.999998,0.000191,-0.002367,0.004967,-0.000088,0.004968,-0.002368,-89.309762,0.004970,
700,1460,1.240166,-2.845735,0.999998,0.000165,-0.002655,0.005197,-0.000005,0.005197,-0.002655,-89.966103,0.005197,
870,930,1.407492,-5.572810,0.999997,0.000220,-0.002406,0.005687,0.000708,0.005749,-0.002468,85.040566,0.005768,
1890,1540,-1.444656,-2.630389,0.999997,0.000192,-0.002465,0.005102,-0.000008,0.005102,-0.002465,-89.940325,0.005103,
1500,990,-1.314607,-5.281995,0.999998,0.000232,-0.002088,0.006577,-0.000306,0.006587,-0.002099,-87.978247,0.006730,
1610,830,-1.230704,-6.138059,0.999997,0.000205,-0.003074,0.005855,-0.000573,0.005892,-0.003111,-86.346412,0.005895,
1190,730,0.041847,-7.789583,0.999998,0.000148,-0.001191,0.002029,-0.000946,0.002286,-0.001448,-74.783659,0.002313,
1900,1870,-0.860480,-1.025422,0.999998,0.000000,-0.002491,0.004956,0.000233,0.004964,-0.002499,88.210386,0.004964,
1820,1100,-1.953953,-4.709529,0.999998,0.000163,-0.002180,0.004621,0.000220,0.004629,-0.002187,88.148514,0.004631,
890,800,1.040982,-6.372229,0.999998,0.000193,-0.003366,0.006131,0.000276,0.006139,-0.003374,88.335580,0.006149,
1070,60,0.019222,-9.954516,0.999998,0.000167,-0.000160,0.003131,0.000227,0.003147,-0.000175,86.069151,0.003537,
1530,310,-0.349902,-8.976147,0.999998,0.000188,-0.001562,0.004253,-0.000038,0.004254,-0.001563,-89.624730,0.004303,
1060,1060,1.012201,-4.596885,0.999993,0.000000,-0.004907,0.013432,0.002077,0.013664,-0.005139,83.619103,0.013803,
1040,920,0.893260,-6.046624,0.999997,0.000206,-0.003318,0.007256,-0.001383,0.007434,-0.003495,-82.672095,0.007439,
670,760,1.603176,-6.337533,0.999997,0.000195,-0.002549,0.005082,0.000373,0.005100,-0.002568,87.211353,0.005100,
1350,500,-0.158878,-8.394129,0.999998,0.000136,-0.001506,0.003729,0.000501,0.003776,-0.001554,84.580480,0.003796,
1780,80,-0.244831,-9.808269,0.999997,0.000193,-0.001079,0.004711,-0.001734,0.005191,-0.001559,-74.538707,0.005327,
950,1770,0.300194,-0.984738,0.999998,0.000174,-0.001500,0.004168,-0.000100,0.004170,-0.001502,-88.993846,0.004224,
900,1920,0.161368,-0.408511,0.999998,0.000158,-0.000753,0.003811,-0.000596,0.003887,-0.000830,-82.686529,0.004094,
1300,180,-0.035769,-9.575265,0.999998,0.000170,-0.000486,0.003333,-0.000069,0.003334,-0.000487,-88.963582,0.003601,
1050,1540,0.268724,-1.834523,0.999998,0.000175,-0.001872,0.004130,0.000621,0.004193,-0.001935,84.150299,0.004198,
1050,900,0.776678,-6.266097,0.999997,0.000234,-0.003346,0.006773,-0.001627,0.007028,-0.003601,-81.084972,0.007029,
1000,180,0.137811,-9.533219,0.999998,0.000156,-0.000679,0.003666,0.000295,0.003686,-0.000699,86.138789,0.003916,
1810,340,-0.978440,-8.465671,0.999998,0.000188,-0.002467,0.005034,0.000011,0.005034,-0.002467,89.912452,0.005034,
1630,1200,-1.343236,-4.105635,0.999998,0.000165,-0.002860,0.005679,0.000649,0.005728,-0.002909,85.680231,0.005728,
940,1610,0.452923,-1.696948,0.999997,0.000206,-0.002080,0.004576,0.000353,0.004594,-0.002098,86.975855,0.004600,
1140,620,0.119305,-8.000743,0.999998,0.000173,-0.001547,0.003389,-0.000905,0.003549,-0.001708,-79.934617,0.003550,
1050,120,0.061779,-9.757840,0.999998,0.000168,-0.000480,0.003358,0.000254,0.003375,-0.000497,86.226876,0.003644,
650,1570,1.206974,-2.355583,0.999997,0.000204,-0.002529,0.005103,0.000091,0.005104,-0.002531,89.313682,0.005104,
1570,630,-0.740189,-7.372494,0.999997,0.000194,-0.003022,0.005437,0.000427,0.005459,-0.003044,87.116859,0.005471,
700,2010,0.095357,-0.106362,0.999998,0.000178,-0.000559,0.004167,-0.001585,0.004649,-0.001041,-73.078233,0.004880,
1830,1780,-0.909747,-1.319297,0.999998,0.000157,-0.002404,0.005038,0.000079,0.005039,-0.002405,89.389330,0.005040,
1010,560,0.369764,-7.976051,0.999998,0.000186,-0.002262,0.004502,-0.000786,0.004592,-0.002353,-83.459349,0.004592,
1550,400,-0.471115,-8.552299,0.999996,0.000216,-0.002023,0.004592,0.000209,0.004599,-0.002030,88.191291,0.004609,
1090,690,0.219590,-7.611664,0.999996,0.000226,-0.002400,0.004103,-0.001573,0.004464,-0.002760,-77.092004,0.004505,
1210,1460,0.026008,-1.926278,0.999998,0.000146,-0.001235,0.003040,0.000253,0.003055,-0.001249,86.627876,0.003072,
750,80,0.167922,-9.843122,0.999998,0.000161,-0.000613,0.003968,0.001218,0.004272,-0.000917,75.993813,0.004498,
1630,1100,-1.528844,-4.660566,0.999997,0.000201,-0.002163,0.005311,0.000506,0.005345,-0.002197,86.145451,0.005373,
1670,460,-0.811129,-8.082228,0.999998,0.000188,-0.002491,0.005037,0.000173,0.005041,-0.002495,88.682763,0.005042,
700,1440,1.270107,-2.950430,0.999998,0.000172,-0.002659,0.005196,-0.000056,0.005197,-0.002659,-89.593603,0.005197,
1380,1630,-0.187720,-1.427686,0.999997,0.000211,-0.001481,0.003888,-0.000353,0.003911,-0.001504,-86.257739,0.003946,
1140,1710,0.094336,-1.088077,0.999999,0.000149,-0.001168,0.003610,0.000126,0.003613,-0.001171,88.488292,0.003687,
960,570,0.497404,-7.825204,0.999998,0.000176,-0.002563,0.004882,-0.000675,0.004943,-0.002624,-84.861417,0.004946,
1690,1550,-0.918030,-2.258190,0.999998,0.000155,-0.002610,0.005132,-0.000155,0.005135,-0.002613,-88.854802,0.005135,
1730,540,-1.069961,-7.573574,0.999997,0.000205,-0.002666,0.005197,0.000080,0.005198,-0.002667,89.416703,0.005198,
1890,70,-0.383583,-9.715218,0.999998,0.000188,-0.001852,0.006369,-0.001888,0.006782,-0.002265,-77.661366,0.006905,
680,1410,1.374513,-3.134355,0.999997,0.000207,-0.002670,0.005191,-0.000131,0.005193,-0.002673,-89.045366,0.005194,
1010,1800,0.196813,-0.823655,0.999998,0.000179,-0.001022,0.003841,-0.000139,0.003845,-0.001026,-88.367326,0.003981,
1240,800,-0.014199,-7.738233,0.999997,0.000203,-0.001623,0.001077,0.000232,0.001097,-0.001643,85.122285,0.001673,
1480,1820,-0.203770,-0.758946,0.999998,0.000162,-0.001047,0.003896,0.000212,0.003905,-0.001056,87.545212,0.004040,
1820,340,-1.003306,-8.449067,0.999998,0.000184,-0.002465,0.005038,0.000020,0.005038,-0.002465,89.847618,0.005038,
1350,210,-0.077571,-9.461673,0.999998,0.000178,-0.000720,0.003462,-0.000056,0.003462,-0.000721,-89.237829,0.003654,
1060,1050,1.018070,-4.728462,0.999990,0.000000,-0.005129,0.013465,0.001399,0.013570,-0.005234,85.719793,0.013688,
1230,1920,0.001466,-0.353712,0.999998,0.000142,-0.000404,0.003196,-0.000004,0.003196,-0.000404,-89.930613,0.003481,
1740,380,-0.870730,-8.376006,0.999998,0.000200,-0.002446,0.005083,0.000052,0.005083,-0.002446,89.604418,0.005084,
870,800,1.107621,-6.340553,0.999998,0.000214,-0.003278,0.006034,0.000389,0.006050,-0.003294,87.610872,0.006058,
1400,340,-0.183575,-8.966474,0.999998,0.000160,-0.001286,0.003827,0.000124,0.003830,-0.001289,88.606420,0.003897,
1060,250,0.137449,-9.302911,0.999998,0.000163,-0.000966,0.003683,0.000051,0.003684,-0.000967,89.370647,0.003820,
1880,1540,-1.419996,-2.615274,0.999998,0.000186,-0.002500,0.005112,-0.000017,0.005112,-0.002500,-89.868426,0.005113,
1040,900,0.813180,-6.197693,0.999997,0.000209,-0.003411,0.007079,-0.001224,0.007220,-0.003552,-83.430859,0.007221,
690,400,0.982965,-8.221967,0.999998,0.000162,-0.002471,0.005074,-0.000077,0.005075,-0.002472,-89.415340,0.005075,
1530,290,-0.330351,-9.057680,0.999998,0.000174,-0.001487,0.004233,-0.000139,0.004236,-0.001490,-88.610488,0.004298,
900,1900,0.190975,-0.485851,0.999998,0.000173,-0.000838,0.003927,-0.000579,0.003996,-0.000907,-83.165502,0.004190,
680,790,1.631911,-6.195862,0.999998,0.000183,-0.002537,0.005079,0.000431,0.005103,-0.002561,86.773698,0.005103,
1900,1860,-0.888796,-1.074866,0.999998,0.000000,-0.002437,0.004910,0.000160,0.004913,-0.002441,88.753575,0.004913,
1500,970,-1.277916,-5.411693,0.999998,0.000209,-0.002281,0.006481,-0.000459,0.006505,-0.002305,-87.008410,0.006597,
1000,160,0.120572,-9.609574,0.999998,0.000173,-0.000593,0.003649,0.000314,0.003672,-0.000616,85.792891,0.003933,
1780,60,-0.154022,-9.910192,0.999998,0.000205,-0.000650,0.004540,-0.001831,0.005121,-0.001231,-72.394096,0.005346,
1350,580,-0.165668,-8.095565,0.999997,0.000198,-0.001741,0.003729,0.000864,0.003863,-0.001875,81.236844,0.003863,
740,1840,0.535331,-0.858276,0.999997,0.000214,-0.001837,0.004842,-0.000667,0.004908,-0.001903,-84.351207,0.004949,
1850,1180,-1.931116,-4.357672,0.999998,0.000196,-0.002232,0.004595,0.000243,0.004604,-0.002241,87.963053,0.004604,
1610,680,-0.933557,-7.015981,0.999998,0.000175,-0.003128,0.005633,0.000094,0.005634,-0.003129,89.386292,0.005645,
590,960,2.067682,-5.327288,0.999997,0.000200,-0.002045,0.004197,0.000025,0.004197,-0.002045,89.771496,0.004197,
1300,160,-0.030873,-9.640767,0.999998,0.000151,-0.000406,0.003270,-0.000090,0.003272,-0.000409,-88.600066,0.003566,
840,150,0.244782,-9.587974,0.999998,0.000166,-0.000954,0.004135,0.000751,0.004243,-0.001062,81.777103,0.004416,
1440,1060,-1.177045,-4.733166,0.999996,0.000217,-0.003390,0.009089,-0.000539,0.009112,-0.003413,-87.530521,0.009208,
700,2000,0.127711,-0.146399,0.999998,0.000213,-0.000736,0.004319,-0.001618,0.004792,-0.001209,-73.688974,0.004985,
950,1750,0.318046,-1.069166,0.999998,0.000177,-0.001569,0.004188,0.000002,0.004188,-0.001569,89.979843,0.004232,
650,1550,1.234573,-2.459133,0.999997,0.000197,-0.002547,0.005119,0.000077,0.005120,-0.002547,89.423389,0.005120,
1140,600,0.122204,-8.068343,0.999998,0.000164,-0.001525,0.003448,-0.000763,0.003562,-0.001639,-81.465265,0.003566,
750,60,0.114533,-9.920840,0.999998,0.000176,-0.000358,0.003884,0.001241,0.004220,-0.000695,74.833019,0.004526,
1410,660,-0.300088,-7.625935,0.999997,0.000185,-0.002575,0.004550,0.001337,0.004792,-0.002818,79.713013,0.004817,
1670,440,-0.785810,-8.182691,0.999997,0.000198,-0.002440,0.004987,0.000147,0.004990,-0.002443,88.867059,0.004990,
1210,1440,0.025147,-1.985010,0.999998,0.000158,-0.001208,0.002894,0.000268,0.002911,-0.001225,86.275180,0.002923,
1090,670,0.215545,-7.696145,0.999998,0.000184,-0.002292,0.004038,-0.001434,0.004348,-0.002602,-77.809732,0.004376,
1350,1660,-0.141694,-1.292206,0.999998,0.000176,-0.001307,0.003730,-0.000238,0.003741,-0.001319,-87.299983,0.003795,
1030,1040,1.175671,-4.919847,0.999997,0.000217,-0.003931,0.009918,0.000317,0.009925,-0.003939,88.689413,0.009996,
700,680,1.379695,-6.788815,0.999998,0.000195,-0.002695,0.005243,0.000220,0.005249,-0.002701,88.410738,0.005250,
1690,1570,-0.892358,-2.157352,0.999998,0.000164,-0.002536,0.005082,-0.000156,0.005085,-0.002540,-88.825639,0.005085,
1480,1800,-0.224058,-0.836960,0.999998,0.000162,-0.001155,0.003950,0.000153,0.003955,-0.001159,88.285889,0.004066,
840,1470,0.840167,-2.565086,0.999998,0.000162,-0.002822,0.005323,0.000262,0.005332,-0.002831,88.157492,0.005335,
1530,270,-0.306251,-9.144468,0.999998,0.000173,-0.001389,0.004153,-0.000163,0.004157,-0.001394,-88.319222,0.004232,
1120,1710,0.119385,-1.100046,0.999999,0.000145,-0.001172,0.003680,0.000169,0.003686,-0.001177,88.009878,0.003765,
1820,1080,-1.963878,-4.800019,0.999998,0.000171,-0.002146,0.004511,0.000088,0.004512,-0.002147,89.243079,0.004514,
580,200,0.861886,-9.021404,0.999998,0.000167,-0.002588,0.004990,0.000257,0.004999,-0.002597,88.058846,0.005000,
1060,1040,1.023061,-4.868206,0.999987,0.000000,-0.005356,0.013562,0.000825,0.013598,-0.005392,87.508479,0.013695,
1240,780,-0.010141,-7.758787,0.999998,0.000199,-0.001238,0.001168,0.000236,0.001191,-0.001261,84.443878,0.001417,
620,560,1.394184,-7.292846,0.999997,0.000196,-0.002571,0.005101,-0.000019,0.005101,-0.002571,-89.858868,0.005101,
790,390,0.729303,-8.427248,0.999998,0.000178,-0.002289,0.004942,-0.000064,0.004942,-0.002289,-89.490866,0.004947,
960,850,0.924182,-6.202841,0.999998,0.000195,-0.003661,0.006657,0.000130,0.006659,-0.003662,89.277563,0.006670,
1610,60,-0.071227,-9.941063,0.999998,0.000155,-0.000317,0.003587,-0.000821,0.003753,-0.000483,-78.597232,0.004083,
1350,190,-0.068244,-9.533012,0.999998,0.000172,-0.000639,0.003471,-0.000083,0.003473,-0.000640,-88.842593,0.003696,
1400,320,-0.173085,-9.040681,0.999998,0.000158,-0.001212,0.003810,0.000059,0.003811,-0.001213,89.325458,0.003894,
790,1280,1.302906,-3.697127,0.999998,0.000167,-0.002945,0.005575,-0.000460,0.005600,-0.002970,-86.915764,0.005604,
900,1880,0.220358,-0.565260,0.999998,0.000185,-0.000996,0.003970,-0.000509,0.004022,-0.001047,-84.205674,0.004173,
830,850,1.341683,-5.999650,0.999997,0.000193,-0.002858,0.005664,0.000634,0.005711,-0.002905,85.768967,0.005711,
1840,230,-0.834248,-8.967406,0.999998,0.000188,-0.002410,0.005029,-0.000143,0.005032,-0.002413,-88.897889,0.005034,
870,910,1.363898,-5.687264,0.999997,0.000201,-0.002579,0.005706,0.000705,0.005766,-0.002638,85.168297,0.005773,
1040,140,0.080462,-9.688053,0.999998,0.000153,-0.000586,0.003430,0.000257,0.003447,-0.000602,86.352234,0.003682,
1770,1990,-0.168954,-0.191938,0.999998,0.000165,-0.000841,0.004518,0.001714,0.005019,-0.001342,73.698027,0.005197,
1610,1200,-1.287056,-4.087320,0.999997,0.000183,-0.002922,0.005788,0.000635,0.005834,-0.002968,85.850394,0.005835,
940,1590,0.470312,-1.789718,0.999998,0.000187,-0.002168,0.004645,0.000425,0.004672,-0.002195,86.441607,0.004674,
1000,360,0.284345,-8.830956,0.999998,0.000168,-0.001465,0.004091,-0.000142,0.004095,-0.001469,-88.536193,0.004149,
1170,120,0.019495,-9.770168,0.999999,0.000153,-0.000272,0.003191,0.000080,0.003193,-0.000274,88.674492,0.003539,
700,1990,0.164165,-0.192311,0.999998,0.000178,-0.000956,0.004473,-0.001615,0.004917,-0.001400,-74.627126,0.005066,
650,1530,1.264926,-2.561627,0.999997,0.000190,-0.002561,0.005138,0.000057,0.005138,-0.002561,89.576989,0.005138,
1300,140,-0.026824,-9.707109,0.999998,0.000161,-0.000352,0.003247,-0.000078,0.003248,-0.000353,-88.755172,0.003564,
1070,500,0.230209,-8.335883,0.999998,0.000164,-0.001723,0.004034,-0.000609,0.004098,-0.001787,-84.032240,0.004109,
1670,660,-1.083546,-7.028556,0.999998,0.000182,-0.002934,0.005458,-0.000061,0.005458,-0.002935,-89.582091,0.005464,
950,1730,0.337788,-1.154477,0.999998,0.000169,-0.001627,0.004348,0.000027,0.004348,-0.001628,89.740906,0.004394,
730,1540,1.044149,-2.381950,0.999998,0.000160,-0.002607,0.005172,0.000110,0.005174,-0.002608,89.191838,0.005174,
1330,1660,-0.114949,-1.276888,0.999998,0.000157,-0.001309,0.003685,-0.000271,0.003700,-0.001323,-86.899244,0.003750,
670,540,1.235453,-7.472100,0.999998,0.000189,-0.002596,0.005157,-0.000053,0.005157,-0.002597,-89.611040,0.005157,
1140,580,0.121628,-8.135935,0.999998,0.000170,-0.001504,0.003484,-0.000671,0.003572,-0.001593,-82.469645,0.003579,
1070,1920,0.061761,-0.368313,0.999998,0.000148,-0.000444,0.003338,-0.000221,0.003351,-0.000457,-86.665286,0.003634,
1010,440,0.315542,-8.504430,0.999997,0.000207,-0.001828,0.004260,-0.000427,0.004290,-0.001858,-86.011895,0.004303,
1090,650,0.211558,-7.775902,0.999998,0.000172,-0.002166,0.003990,-0.001300,0.004254,-0.002429,-78.550727,0.004268,
1140,1290,0.127243,-2.539676,0.999997,0.000236,-0.002060,0.003001,0.001995,0.003693,-0.002752,70.875841,0.003838,
1480,1780,-0.239944,-0.915779,0.999998,0.000149,-0.001215,0.004012,0.000119,0.004015,-0.001218,88.692839,0.004117,
1030,1030,1.177953,-5.015438,0.999996,0.000261,-0.003976,0.009834,0.000036,0.009834,-0.003976,89.848929,0.009894,
1530,250,-0.286738,-9.223482,0.999998,0.000173,-0.001288,0.004142,-0.000244,0.004153,-0.001299,-87.432508,0.004248,
1780,1630,-1.036749,-1.997012,0.999998,0.000144,-0.002479,0.005053,-0.000094,0.005055,-0.002480,-89.285765,0.005055,
700,1420,1.303719,-3.054326,0.999998,0.000175,-0.002695,0.005216,-0.000130,0.005218,-0.002697,-89.055600,0.005219,
1060,1030,1.027123,-5.003523,0.999988,0.000000,-0.005376,0.013820,0.000142,0.013821,-0.005377,89.576714,0.013934,
1690,1590,-0.867284,-2.055867,0.999998,0.000171,-0.002482,0.005080,-0.000148,0.005083,-0.002485,-88.881866,0.005084,
1240,760,-0.009204,-7.781991,0.999998,0.000157,-0.001085,0.001367,0.000228,0.001388,-0.001106,84.723107,0.001467,
690,700,1.442902,-6.672182,0.999997,0.000218,-0.002671,0.005193,0.000280,0.005203,-0.002681,87.966666,0.005204,
1350,170,-0.061281,-9.599980,0.999998,0.000165,-0.000549,0.003378,-0.000114,0.003382,-0.000552,-88.337324,0.003628,
1820,1040,-1.978779,-4.982558,0.999999,0.000153,-0.002137,0.004574,0.000112,0.004576,-0.002138,89.043534,0.004579,
1230,60,-0.000015,-9.959046,0.999999,0.000137,-0.000142,0.003028,0.000009,0.003028,-0.000142,89.833426,0.003418,
1400,300,-0.161869,-9.117372,0.999998,0.000158,-0.001152,0.003795,0.000043,0.003795,-0.001153,89.497823,0.003891,
900,1860,0.249044,-0.645541,0.999997,0.000191,-0.001103,0.004077,-0.000470,0.004119,-0.001145,-84.861991,0.004252,
1460,1350,-0.476052,-2.838322,0.999997,0.000226,-0.003256,0.005416,-0.001120,0.005558,-0.003398,-82.761525,0.005604,
1130,1800,0.079684,-0.769985,0.999998,0.000154,-0.000890,0.003532,0.000021,0.003532,-0.000890,89.733272,0.003675,
690,1600,1.061507,-2.138295,0.999997,0.000195,-0.002509,0.005082,0.000086,0.005083,-0.002510,89.351340,0.005083,
1600,750,-1.026114,-6.629100,0.999998,0.000173,-0.003306,0.005916,-0.000144,0.005918,-0.003308,-89.106154,0.005932,
990,550,0.409454,-7.981132,0.999997,0.000207,-0.002361,0.004641,-0.000731,0.004716,-0.002436,-84.099140,0.004717,
1740,360,-0.843987,-8.478621,0.999998,0.000183,-0.002447,0.005057,0.000012,0.005057,-0.002447,89.905012,0.005058,
1570,380,-0.491996,-8.618573,0.999997,0.000205,-0.002069,0.004637,0.000135,0.004640,-0.002072,88.844969,0.004649,
1300,120,-0.021499,-9.771408,0.999999,0.000165,-0.000285,0.003186,-0.000097,0.003189,-0.000288,-88.408452,0.003528,
1270,120,-0.014192,-9.771242,0.999999,0.000153,-0.000316,0.003172,-0.000043,0.003173,-0.000316,-89.298845,0.003495,
1040,880,0.725823,-6.335094,0.999997,0.000215,-0.003537,0.006895,-0.001209,0.007034,-0.003676,-83.476397,0.007036,
650,1510,1.294585,-2.664598,0.999997,0.000186,-0.002563,0.005120,0.000034,0.005120,-0.002563,89.744541,0.005120,
1340,1250,-0.206400,-2.765227,0.999997,0.000220,-0.002647,0.003561,-0.002272,0.004304,-0.003389,-71.901690,0.004535,
1770,1970,-0.250585,-0.289513,0.999997,0.000173,-0.001233,0.004468,0.001451,0.004816,-0.001581,76.515361,0.004910,
640,450,1.181027,-7.886433,0.999998,0.000175,-0.002519,0.005073,-0.000093,0.005074,-0.002521,-89.295964,0.005074,
1140,560,0.122928,-8.206132,0.999998,0.000166,-0.001473,0.003521,-0.000604,0.003593,-0.001545,-83.196900,0.003605,
1760,1590,-1.044034,-2.167864,0.999998,0.000150,-0.002508,0.005119,-0.000112,0.005121,-0.002509,-89.160373,0.005121,
1350,620,-0.165586,-7.945200,0.999998,0.000175,-0.001817,0.003646,0.001062,0.003845,-0.002016,79.371880,0.003846,
710,1540,1.094678,-2.413839,0.999998,0.000143,-0.002580,0.005170,0.000087,0.005171,-0.002581,89.355390,0.005171,
1310,780,-0.110191,-7.559800,0.999997,0.000200,-0.001901,0.002582,0.001943,0.003307,-0.002625,69.539641,0.003492,
790,370,0.701268,-8.525995,0.999997,0.000192,-0.002272,0.004904,-0.000034,0.004904,-0.002272,-89.725729,0.004909,
620,540,1.363166,-7.392522,0.999997,0.000202,-0.002522,0.005108,-0.000035,0.005108,-0.002522,-89.738686,0.005108,
1030,1020,1.174713,-5.111331,0.999995,0.000312,-0.003946,0.009920,-0.000240,0.009924,-0.003950,-89.006900,0.009992,
1090,630,0.208399,-7.858916,0.999998,0.000175,-0.002065,0.003956,-0.001163,0.004173,-0.002282,-79.440760,0.004179,
1480,430,-0.359425,-8.509848,0.999997,0.000190,-0.001949,0.004402,0.000393,0.004426,-0.001974,86.472184,0.004435,
1530,230,-0.258817,-9.311430,0.999998,0.000184,-0.001182,0.004103,-0.000312,0.004122,-0.001200,-86.629079,0.004240,
1760,1630,-0.986351,-1.965319,0.999999,0.000139,-0.002487,0.005046,-0.000079,0.005047,-0.002488,-89.399431,0.005047,
1750,280,-0.729245,-8.864805,0.999998,0.000161,-0.002363,0.005021,-0.000191,0.005026,-0.002368,-88.523050,0.005029,
1060,1020,1.017928,-5.144050,0.999989,0.000000,-0.005243,0.013966,-0.000671,0.013989,-0.005267,-88.000576,0.014130,
950,1710,0.358339,-1.243441,0.999998,0.000188,-0.001708,0.004324,0.000090,0.004325,-0.001709,89.142514,0.004357,
1670,640,-1.051405,-7.137030,0.999998,0.000142,-0.002895,0.005406,0.000005,0.005406,-0.002895,89.968231,0.005410,
920,970,1.369177,-5.373244,0.999997,0.000223,-0.002086,0.005888,0.000536,0.005924,-0.002122,86.169371,0.006002,
1820,1020,-1.980334,-5.073771,0.999998,0.000170,-0.002147,0.004579,-0.000060,0.004580,-0.002148,-89.488234,0.004583,
580,450,1.331025,-7.789837,0.999997,0.000195,-0.002029,0.004968,0.000046,0.004968,-0.002030,89.625423,0.004996,
1480,1760,-0.258508,-0.999223,0.999998,0.000160,-0.001313,0.004025,0.000064,0.004025,-0.001314,89.309634,0.004105,
1140,1270,0.142118,-2.600445,0.999997,0.000186,-0.002212,0.002979,0.002131,0.003741,-0.002974,70.305176,0.003952,
830,830,1.299844,-6.112653,0.999997,0.000209,-0.002961,0.005743,0.000594,0.005784,-0.003002,86.112889,0.005785,
870,890,1.322125,-5.800908,0.999998,0.000192,-0.002726,0.005840,0.000738,0.005903,-0.002789,85.109025,0.005906,
1710,1520,-1.011269,-2.448016,0.999998,0.000172,-0.002655,0.005209,-0.000118,0.005211,-0.002657,-89.141244,0.005211,
1880,550,-1.472871,-7.286065,0.999996,0.000223,-0.002575,0.005131,-0.000009,0.005131,-0.002575,-89.932897,0.005131,
1650,60,-0.081527,-9.935782,0.999998,0.000174,-0.000395,0.003654,-0.000944,0.003863,-0.000604,-77.497475,0.004156,
1240,740,-0.008387,-7.811897,0.999999,0.000136,-0.000998,0.001643,0.000228,0.001663,-0.001018,85.093593,0.001677,
1660,370,-0.671300,-8.546210,0.999997,0.000191,-0.002307,0.004878,0.000028,0.004878,-0.002308,89.779488,0.004881,
1290,120,-0.018838,-9.771208,0.999998,0.000160,-0.000272,0.003179,-0.000092,0.003181,-0.000275,-88.478744,0.003526,
1400,280,-0.152885,-9.193254,0.999998,0.000159,-0.001079,0.003750,-0.000017,0.003750,-0.001079,-89.801552,0.003861,
900,1840,0.278097,-0.728184,0.999998,0.000166,-0.001220,0.004141,-0.000403,0.004171,-0.001250,-85.728025,0.004281,
1350,150,-0.050854,-9.669150,0.999998,0.000140,-0.000480,0.003323,-0.000137,0.003328,-0.000485,-87.938786,0.003595,
990,1570,0.376634,-1.803774,0.999997,0.000183,-0.002041,0.004428,0.000511,0.004468,-0.002081,85.510704,0.004472,
970,1920,0.113323,-0.388053,0.999999,0.000140,-0.000674,0.003602,-0.000380,0.003636,-0.000708,-84.963434,0.003855,
1040,840,0.580017,-6.600294,0.999996,0.000228,-0.003848,0.006348,-0.001228,0.006494,-0.003993,-83.228161,0.006551,
650,1490,1.324346,-2.765623,0.999997,0.000187,-0.002557,0.005126,0.000021,0.005126,-0.002557,89.840033,0.005126,
1750,2010,-0.086770,-0.104189,0.999998,0.000182,-0.000618,0.004056,0.001489,0.004490,-0.001052,73.750017,0.004697,
1700,80,-0.161965,-9.844205,0.999998,0.000161,-0.000671,0.003975,-0.001173,0.004254,-0.000950,-76.607680,0.004465,
1740,340,-0.810598,-8.578804,0.999998,0.000172,-0.002409,0.004990,-0.000038,0.004990,-0.002409,-89.709148,0.004991,
790,1260,1.343720,-3.809234,0.999997,0.000203,-0.002914,0.005578,-0.000519,0.005610,-0.002945,-86.514341,0.005612,
700,1380,1.371491,-3.263398,0.999997,0.000202,-0.002701,0.005248,-0.000206,0.005253,-0.002707,-88.515714,0.005254,
1740,1590,-0.994192,-2.135566,0.999998,0.000181,-0.002527,0.005110,-0.000113,0.005112,-0.002529,-89.154033,0.005112,
1570,400,-0.514159,-8.525022,0.999997,0.000213,-0.002116,0.004688,0.000192,0.004693,-0.002122,88.382050,0.004701,
640,430,1.151995,-7.987319,0.999998,0.000154,-0.002516,0.005059,-0.000075,0.005060,-0.002517,-89.433894,0.005060,
1520,1400,-0.614799,-2.731930,0.999997,0.000194,-0.003090,0.005437,-0.000658,0.005488,-0.003141,-85.613136,0.005507,
1770,1950,-0.307122,-0.372656,0.999997,0.000182,-0.001621,0.004685,0.001243,0.004922,-0.001857,79.240606,0.004971,
1090,610,0.208145,-7.935322,0.999998,0.000175,-0.001952,0.003917,-0.001057,0.004101,-0.002136,-80.096416,0.004102,
1300,100,-0.016144,-9.834472,0.999998,0.000171,-0.000212,0.003126,-0.000093,0.003129,-0.000215,-88.401311,0.003495,
1400,1210,-0.512340,-3.365391,0.999997,0.000209,-0.003716,0.005820,-0.001565,0.006070,-0.003966,-80.914783,0.006165,
1140,540,0.122199,-8.275984,0.999998,0.000165,-0.001492,0.003551,-0.000525,0.003605,-0.001546,-84.123034,0.003617,
950,620,0.563730,-7.549521,0.999997,0.000207,-0.002867,0.005200,-0.000712,0.005262,-0.002929,-84.996680,0.005274,
670,1600,1.112256,-2.170259,0.999998,0.000167,-0.002527,0.005086,0.000084,0.005087,-0.002527,89.368623,0.005087,
1370,1800,-0.112729,-0.784537,0.999998,0.000155,-0.000871,0.003600,0.000050,0.003601,-0.000872,89.354891,0.003757,
1820,1000,-1.971986,-5.165721,0.999998,0.000177,-0.002154,0.004553,-0.000151,0.004557,-0.002158,-88.709131,0.004559,
1220,370,0.013632,-8.923929,0.999999,0.000145,-0.001117,0.003510,-0.000076,0.003511,-0.001118,-89.056652,0.003587,
1480,1740,-0.275900,-1.078735,0.999998,0.000178,-0.001406,0.004109,-0.000014,0.004109,-0.001406,-89.856212,0.004177,
950,1910,0.139743,-0.432921,0.999998,0.000160,-0.000792,0.003714,-0.000440,0.003756,-0.000835,-84.474215,0.003945,
1640,390,-0.652729,-8.475666,0.999997,0.000179,-0.002246,0.004902,0.000071,0.004903,-0.002247,89.431320,0.004908,
580,350,1.174109,-8.286220,0.999998,0.000152,-0.002158,0.004978,-0.000085,0.004979,-0.002159,-89.315525,0.004994,
1140,1470,0.121203,-1.960608,0.999998,0.000169,-0.001518,0.003457,0.000678,0.003547,-0.001609,82.381233,0.003552,
1480,410,-0.346589,-8.597801,0.999997,0.000203,-0.001880,0.004375,0.000345,0.004394,-0.001899,86.851843,0.004408,
620,520,1.333735,-7.496870,0.999997,0.000224,-0.002503,0.005123,-0.000054,0.005123,-0.002503,-89.592730,0.005123,
1560,1330,-0.845025,-3.226705,0.999997,0.000199,-0.003404,0.005899,-0.000222,0.005905,-0.003409,-88.633300,0.005928,
1630,60,-0.076046,-9.937837,0.999999,0.000142,-0.000231,0.003614,-0.000908,0.003818,-0.000435,-77.365889,0.004180,
1350,130,-0.043661,-9.732576,0.999998,0.000155,-0.000405,0.003245,-0.000125,0.003249,-0.000409,-88.046590,0.003539,
870,1090,1.463892,-4.702838,0.999998,0.000179,-0.002091,0.005493,-0.000512,0.005528,-0.002126,-86.152786,0.005577,
750,500,0.971933,-7.808499,0.999999,0.000152,-0.002593,0.005153,-0.000136,0.005156,-0.002595,-88.993341,0.005156,
1400,260,-0.139818,-9.267621,0.999998,0.000161,-0.001003,0.003667,-0.000059,0.003668,-0.001004,-89.273288,0.003791,
900,1820,0.306806,-0.811954,0.999998,0.000164,-0.001306,0.004181,-0.000340,0.004202,-0.001327,-86.468500,0.004296,
990,1530,0.395359,-1.981735,0.999997,0.000197,-0.002186,0.004529,0.000630,0.004588,-0.002245,84.689865,0.004588,
1240,720,-0.008168,-7.847906,0.999999,0.000136,-0.000983,0.001925,0.000192,0.001938,-0.000996,86.241160,0.001938,
1860,230,-0.882343,-8.922400,0.999998,0.000158,-0.002438,0.004963,-0.000129,0.004965,-0.002441,-89.001439,0.004965,
900,970,1.409625,-5.362439,0.999996,0.000227,-0.002076,0.005673,0.000547,0.005711,-0.002114,85.983028,0.005775,
1350,600,-0.165899,-8.020536,0.999998,0.000176,-0.001787,0.003711,0.000964,0.003875,-0.001951,80.342023,0.003875,
630,700,1.598313,-6.592523,0.999997,0.000190,-0.002542,0.005060,0.000176,0.005064,-0.002546,88.670794,0.005064,
1060,1010,1.024381,-5.289001,0.999994,0.000000,-0.005121,0.013771,-0.001288,0.013859,-0.005208,-86.116277,0.014000,
1220,1670,0.012868,-1.208714,0.999999,0.000128,-0.001120,0.003526,0.000067,0.003527,-0.001121,89.176282,0.003604,
650,1470,1.354045,-2.871859,0.999997,0.000194,-0.002578,0.005127,-0.000009,0.005127,-0.002578,-89.936156,0.005127,
1040,820,0.527818,-6.727564,0.999996,0.000231,-0.003923,0.006140,-0.001314,0.006308,-0.004092,-82.679999,0.006401,
1770,1930,-0.380491,-0.477008,0.999997,0.000201,-0.001796,0.004884,0.001164,0.005081,-0.001993,80.390921,0.005120,
1780,990,-1.882742,-5.217581,0.999998,0.000153,-0.002166,0.004709,-0.000139,0.004712,-0.002169,-88.838859,0.004717,
1070,1180,0.597897,-3.497042,0.999996,0.000240,-0.003341,0.005725,0.001946,0.006125,-0.003741,78.383515,0.006175,
890,180,0.238477,-9.489230,0.999998,0.000163,-0.001153,0.004025,0.000489,0.004070,-0.001199,84.650260,0.004183,
950,640,0.580175,-7.444765,0.999997,0.000207,-0.002989,0.005294,-0.000718,0.005356,-0.003051,-85.082288,0.005373,
1090,590,0.206915,-8.013574,0.999998,0.000179,-0.001883,0.003917,-0.000956,0.004070,-0.002036,-80.872296,0.004070,
1300,80,-0.013188,-9.895662,0.999999,0.000142,-0.000168,0.003098,-0.000094,0.003100,-0.000170,-88.351665,0.003486,
1140,520,0.120950,-8.348958,0.999998,0.000173,-0.001496,0.003598,-0.000489,0.003645,-0.001542,-84.564304,0.003659,
680,550,1.224360,-7.437504,0.999998,0.000145,-0.002585,0.005177,-0.000025,0.005177,-0.002585,-89.814810,0.005177,
700,1360,1.407167,-3.369669,0.999997,0.000212,-0.002672,0.005237,-0.000236,0.005244,-0.002679,-88.290623,0.005245,
1530,210,-0.238549,-9.389031,0.999998,0.000175,-0.001070,0.003985,-0.000362,0.004010,-0.001096,-85.929364,0.004146,
1580,1610,-0.580193,-1.783034,0.999997,0.000209,-0.002229,0.004791,-0.000247,0.004800,-0.002237,-87.990519,0.004804,
1360,370,-0.147317,-8.875947,0.999999,0.000137,-0.001249,0.003790,0.000146,0.003794,-0.001254,88.340233,0.003866,
1700,60,-0.105245,-9.926270,0.999998,0.000146,-0.000456,0.003838,-0.001161,0.004132,-0.000749,-75.797592,0.004402,
950,150,0.146276,-9.630244,0.999998,0.000155,-0.000814,0.003711,0.000435,0.003752,-0.000856,84.555176,0.003933,
1480,980,-1.254010,-5.374201,0.999997,0.000201,-0.002323,0.006926,-0.000271,0.006934,-0.002331,-88.325600,0.007057,
580,340,1.157431,-8.334360,0.999998,0.000165,-0.002282,0.004931,-0.000058,0.004931,-0.002283,-89.535790,0.004936,
1820,980,-1.962752,-5.257217,0.999998,0.000167,-0.002142,0.004521,-0.000090,0.004523,-0.002144,-89.230333,0.004525,
1670,700,-1.150570,-6.807835,0.999998,0.000186,-0.002997,0.005540,-0.000157,0.005543,-0.003000,-88.946876,0.005549,
1090,1480,0.205946,-2.008583,0.999998,0.000159,-0.001832,0.003873,0.000869,0.004003,-0.001962,81.533458,0.004003,
610,1860,0.774986,-0.964617,0.999997,0.000200,-0.002429,0.005065,-0.000245,0.005073,-0.002437,-88.126276,0.005074,
1270,1460,-0.046546,-1.933519,0.999998,0.000151,-0.001265,0.003079,-0.000329,0.003103,-0.001290,-85.690784,0.003118,
880,1470,0.727757,-2.493077,0.999997,0.000181,-0.002823,0.005261,0.000400,0.005281,-0.002842,87.176489,0.005286,
850,60,0.069500,-9.939143,0.999998,0.000165,-0.000319,0.003576,0.000831,0.003746,-0.000489,78.441458,0.004073,
1240,700,-0.009240,-7.887731,0.999999,0.000145,-0.000997,0.002122,0.000185,0.002133,-0.001008,86.615373,0.002134,
1690,1520,-0.957574,-2.415687,0.999998,0.000189,-0.002671,0.005220,-0.000147,0.005222,-0.002674,-88.933445,0.005223,
870,120,0.167449,-9.716977,0.999998,0.000175,-0.000842,0.003871,0.000705,0.003975,-0.000945,81.669523,0.004153,
1400,240,-0.129298,-9.340353,0.999998,0.000161,-0.000914,0.003689,-0.000086,0.003691,-0.000915,-88.933279,0.003844,
900,1800,0.333221,-0.893604,0.999998,0.000166,-0.001421,0.004239,-0.000252,0.004250,-0.001432,-87.456701,0.004325,
1350,110,-0.033888,-9.797807,0.999998,0.000166,-0.000345,0.003233,-0.000171,0.003241,-0.000353,-87.268211,0.003556,
1800,270,-0.827985,-8.836165,0.999998,0.000155,-0.002321,0.005034,-0.000238,0.005041,-0.002329,-88.150237,0.005046,
1350,440,-0.151216,-8.620642,0.999998,0.000164,-0.001379,0.003753,0.000310,0.003772,-0.001398,86.558619,0.003813,
1730,280,-0.683066,-8.894131,0.999998,0.000149,-0.002157,0.004968,-0.000285,0.004980,-0.002168,-87.714461,0.004993,
1060,1000,1.029736,-5.431828,0.999989,0.000000,-0.004914,0.013591,-0.001998,0.013805,-0.005128,-83.908289,0.013956,
790,350,0.673974,-8.622242,0.999997,0.000200,-0.002269,0.004902,0.000010,0.004902,-0.002269,89.923590,0.004906,
990,990,1.256353,-5.315816,0.999997,0.000221,-0.002375,0.007272,0.000121,0.007274,-0.002377,89.280359,0.007418,
830,810,1.255327,-6.230333,0.999997,0.000211,-0.003046,0.005784,0.000527,0.005816,-0.003078,86.595412,0.005819,
650,1450,1.386064,-2.971994,0.999997,0.000198,-0.002589,0.005115,-0.000062,0.005116,-0.002589,-89.537142,0.005116,
1200,1670,0.035654,-1.214317,0.999998,0.000164,-0.001097,0.003558,0.000092,0.003560,-0.001099,88.866080,0.003646,
1400,1190,-0.586642,-3.483534,0.999995,0.000255,-0.003609,0.006010,-0.001662,0.006289,-0.003888,-80.469319,0.006347,
1090,570,0.205668,-8.090107,0.999998,0.000178,-0.001836,0.003875,-0.000887,0.004010,-0.001970,-81.375534,0.004010,
1040,800,0.476868,-6.849806,0.999996,0.000221,-0.003840,0.005906,-0.001403,0.006104,-0.004037,-81.971629,0.006209,
680,210,0.653305,-9.165188,0.999997,0.000198,-0.002232,0.005065,0.000552,0.005107,-0.002274,85.700912,0.005117,
1770,1910,-0.440951,-0.568146,0.999997,0.000193,-0.001948,0.004892,0.000971,0.005028,-0.002083,82.075409,0.005052,
1070,1160,0.689060,-3.614672,0.999995,0.000247,-0.002848,0.005725,0.002424,0.006363,-0.003485,75.258084,0.006373,
1290,1270,-0.077086,-2.445424,0.999997,0.000224,-0.001637,0.001912,-0.001589,0.002519,-0.002245,-69.077451,0.002764,
1130,1710,0.107187,-1.093552,0.999999,0.000144,-0.001193,0.003643,0.000164,0.003648,-0.001199,88.058427,0.003719,
1180,370,0.055954,-8.914595,0.999998,0.000146,-0.001063,0.003565,-0.000065,0.003566,-0.001064,-89.191683,0.003662,
580,300,1.086080,-8.533585,0.999997,0.000227,-0.002289,0.004883,-0.000009,0.004883,-0.002289,-89.929891,0.004886,
700,1340,1.443017,-3.474204,0.999997,0.000226,-0.002660,0.005221,-0.000295,0.005232,-0.002671,-87.855987,0.005232,
620,500,1.304185,-7.598533,0.999997,0.000204,-0.002505,0.005088,-0.000042,0.005089,-0.002506,-89.680374,0.005089,
1820,960,-1.955949,-5.348549,0.999998,0.000168,-0.002175,0.004583,-0.000150,0.004586,-0.002178,-88.728592,0.004588,
950,1920,0.129594,-0.396194,0.999998,0.000164,-0.000726,0.003668,-0.000439,0.003711,-0.000769,-84.349523,0.003918,
860,1260,1.129022,-3.723721,0.999998,0.000177,-0.003243,0.005979,-0.000378,0.005995,-0.003258,-87.659231,0.006002,
860,1470,0.784242,-2.530295,0.999997,0.000208,-0.002812,0.005280,0.000330,0.005293,-0.002826,87.669436,0.005297,
1240,680,-0.008456,-7.930336,0.999998,0.000142,-0.001034,0.002335,0.000174,0.002344,-0.001043,87.052166,0.002348,
1610,810,-1.184553,-6.255642,0.999997,0.000197,-0.003157,0.005918,-0.000477,0.005943,-0.003182,-86.997597,0.005948,
1260,1710,-0.030321,-1.071108,0.999998,0.000164,-0.001012,0.003531,-0.000072,0.003532,-0.001013,-89.092095,0.003638,
1690,1990,-0.115586,-0.170138,0.999998,0.000160,-0.000547,0.003839,0.001123,0.004110,-0.000818,76.441980,0.004351,
1670,680,-1.116667,-6.917680,0.999997,0.000190,-0.002970,0.005512,-0.000097,0.005513,-0.002971,-89.341595,0.005519,
850,120,0.181511,-9.712210,0.999997,0.000200,-0.000776,0.003932,0.000782,0.004058,-0.000903,80.808681,0.004262,
1580,750,-0.956701,-6.665383,0.999997,0.000221,-0.003364,0.005984,-0.000044,0.005985,-0.003364,-89.728329,0.006000,
1530,170,-0.187899,-9.546873,0.999998,0.000171,-0.000853,0.003832,-0.000446,0.003874,-0.000895,-84.606992,0.004057,
1740,320,-0.777782,-8.679372,0.999998,0.000180,-0.002356,0.005021,-0.000091,0.005022,-0.002357,-89.293801,0.005025,
1480,1720,-0.291333,-1.162245,0.999997,0.000177,-0.001506,0.004162,-0.000090,0.004164,-0.001507,-89.095110,0.004216,
1560,1800,-0.329318,-0.895089,0.999998,0.000178,-0.001383,0.004240,0.000280,0.004254,-0.001397,87.151339,0.004336,
1650,690,-1.073650,-6.894795,0.999998,0.000192,-0.002989,0.005572,-0.000074,0.005573,-0.002990,-89.506528,0.005578,
1040,250,0.160439,-9.290336,0.999998,0.000148,-0.001068,0.003724,0.000060,0.003725,-0.001069,89.282521,0.003836,
1060,990,1.012314,-5.555174,0.999990,0.000000,-0.004467,0.012670,-0.002460,0.013016,-0.004813,-81.990950,0.013162,
1640,1170,-1.435665,-4.283313,0.999997,0.000228,-0.002631,0.005544,0.000650,0.005595,-0.002682,85.482371,0.005597,
1520,1850,-0.221034,-0.666740,0.999998,0.000189,-0.001074,0.003959,0.000332,0.003981,-0.001096,86.243983,0.004112,
1480,1090,-1.218646,-4.604907,0.999998,0.000162,-0.002475,0.006938,0.000333,0.006950,-0.002487,87.979156,0.007043,
690,440,1.040665,-8.017535,0.999998,0.000186,-0.002467,0.005054,-0.000090,0.005055,-0.002468,-89.314644,0.005056,
1090,1600,0.186187,-1.536344,0.999997,0.000201,-0.001535,0.003906,0.000433,0.003940,-0.001569,85.481978,0.003967,
1300,1990,-0.008764,-0.137047,0.999999,0.000129,-0.000109,0.003032,0.000096,0.003035,-0.000112,88.242786,0.003442,
1860,1240,-1.861841,-4.087501,0.999998,0.000168,-0.002320,0.004671,0.000199,0.004677,-0.002326,88.368888,0.004677,
1680,790,-1.353119,-6.293196,0.999997,0.000223,-0.002870,0.005578,-0.000515,0.005609,-0.002901,-86.526776,0.005610,
900,1780,0.357813,-0.981894,0.999998,0.000174,-0.001507,0.004351,-0.000201,0.004358,-0.001514,-88.039928,0.004425,
1400,220,-0.116008,-9.413956,0.999998,0.000167,-0.000850,0.003591,-0.000109,0.003593,-0.000853,-88.592313,0.003755,
1040,780,0.441298,-6.964463,0.999996,0.000222,-0.003686,0.005693,-0.001492,0.005924,-0.003918,-81.176604,0.006026,
790,330,0.645446,-8.721653,0.999998,0.000198,-0.002229,0.004899,0.000076,0.004900,-0.002230,89.389579,0.004906,
650,1430,1.420026,-3.074657,0.999997,0.000196,-0.002576,0.005133,-0.000101,0.005135,-0.002577,-89.246052,0.005135,
1350,1920,-0.044802,-0.362412,0.999999,0.000125,-0.000428,0.003278,0.000132,0.003283,-0.000433,87.955695,0.003567,
1820,940,-1.938020,-5.441105,0.999998,0.000190,-0.002221,0.004658,-0.000300,0.004671,-0.002234,-87.503968,0.004673,
1360,310,-0.125695,-9.099578,0.999997,0.000194,-0.001056,0.003670,0.000063,0.003671,-0.001057,89.238199,0.003779,
1070,580,0.244997,-8.013355,0.999997,0.000200,-0.002030,0.004078,-0.000952,0.004223,-0.002175,-81.342896,0.004224,
1870,1170,-1.986457,-4.419682,0.999998,0.000179,-0.002147,0.004404,0.000111,0.004406,-0.002149,89.026278,0.004406,
770,120,0.259789,-9.681915,0.999998,0.000161,-0.001051,0.004354,0.001078,0.004562,-0.001258,79.121958,0.004712,
990,970,1.214883,-5.453094,0.999997,0.000203,-0.002514,0.007073,0.000195,0.007077,-0.002518,88.836493,0.007174,
870,350,0.507593,-8.724757,0.999998,0.000171,-0.002017,0.004624,-0.000027,0.004624,-0.002017,-89.765396,0.004636,
1560,1650,-0.497360,-1.565796,0.999997,0.000196,-0.002115,0.004686,-0.000222,0.004693,-0.002122,-88.128679,0.004700,
1190,710,0.042793,-7.832060,0.999998,0.000160,-0.001197,0.002274,-0.000865,0.002478,-0.001401,-76.756833,0.002485,
950,1170,1.068146,-4.133994,0.999998,0.000190,-0.003265,0.006575,-0.000496,0.006600,-0.003290,-87.122234,0.006600,
1090,550,0.204122,-8.167880,0.999998,0.000164,-0.001815,0.003916,-0.000818,0.004031,-0.001929,-82.030674,0.004032,
740,1080,1.753396,-4.779859,0.999998,0.000172,-0.002188,0.004943,-0.000227,0.004950,-0.002195,-88.176236,0.004961,
1780,380,-0.970942,-8.309606,0.999998,0.000177,-0.002434,0.005059,0.000037,0.005060,-0.002434,89.716956,0.005061,
1390,120,-0.050644,-9.760957,0.999998,0.000159,-0.000342,0.003302,-0.000232,0.003317,-0.000357,-86.372260,0.003641,
1530,150,-0.159490,-9.624470,0.999998,0.000160,-0.000756,0.003787,-0.000497,0.003841,-0.000810,-83.827125,0.004049,
1370,180,-0.074934,-9.562651,0.999999,0.000153,-0.000528,0.003465,-0.000157,0.003472,-0.000534,-87.754619,0.003739,
1300,60,-0.007937,-9.957578,0.999999,0.000142,-0.000104,0.003036,-0.000089,0.003039,-0.000107,-88.381710,0.003449,
740,1470,1.115803,-2.732332,0.999998,0.000163,-0.002717,0.005235,0.000021,0.005235,-0.002717,89.848358,0.005236,
1770,400,-0.975763,-8.226453,0.999997,0.000185,-0.002467,0.005042,0.000073,0.005043,-0.002468,89.441672,0.005043,
580,290,1.068065,-8.580995,0.999998,0.000210,-0.002269,0.004888,-0.000033,0.004888,-0.002269,-89.736463,0.004892,
1380,830,-0.390696,-6.931298,0.999997,0.000231,-0.003464,0.005226,0.002026,0.005675,-0.003913,77.498466,0.005809,
1140,500,0.119566,-8.420007,0.999998,0.000140,-0.001474,0.003626,-0.000454,0.003667,-0.001514,-84.953960,0.003685,
1480,1680,-0.320334,-1.329909,0.999998,0.000174,-0.001683,0.004260,-0.000225,0.004269,-0.001692,-87.836273,0.004299,
1740,300,-0.741099,-8.782896,0.999997,0.000193,-0.002320,0.004998,-0.000166,0.005002,-0.002324,-88.705021,0.005006,
700,1320,1.478640,-3.578569,0.999997,0.000227,-0.002659,0.005258,-0.000337,0.005272,-0.002673,-87.568995,0.005272,
830,790,1.212250,-6.343322,0.999997,0.000194,-0.003094,0.005773,0.000439,0.005794,-0.003115,87.170342,0.005800,
1610,790,-1.139903,-6.376343,0.999997,0.000185,-0.003207,0.005939,-0.000384,0.005955,-0.003223,-87.602727,0.005962,
1070,1480,0.244041,-2.044872,0.999998,0.000159,-0.001987,0.004051,0.000906,0.004184,-0.002120,81.647800,0.004184,
1480,250,-0.219322,-9.260792,0.999998,0.000163,-0.001144,0.003915,-0.000158,0.003920,-0.001149,-88.215376,0.004030,
620,480,1.274434,-7.701055,0.999998,0.000193,-0.002530,0.005095,-0.000050,0.005096,-0.002531,-89.627527,0.005096,
1570,610,-0.719051,-7.479480,0.999998,0.000196,-0.002912,0.005301,0.000477,0.005329,-0.002940,86.689438,0.005338,
590,980,2.076019,-5.243211,0.999998,0.000157,-0.002020,0.004214,0.000022,0.004214,-0.002020,89.797839,0.004215,
1860,1590,-1.296055,-2.329824,0.999998,0.000177,-0.002487,0.005075,-0.000045,0.005075,-0.002488,-89.659726,0.005075,
1690,1970,-0.168274,-0.252397,0.999998,0.000169,-0.000715,0.003967,0.001088,0.004208,-0.000955,77.537688,0.004412,
1900,1850,-0.915099,-1.122846,0.999998,0.000000,-0.002387,0.004853,0.000145,0.004856,-0.002390,88.853007,0.004857,
1650,1110,-1.561525,-4.613754,0.999997,0.000230,-0.002230,0.005261,0.000514,0.005297,-0.002265,86.096585,0.005315,
1780,930,-1.835981,-5.503677,0.999998,0.000148,-0.002264,0.004812,-0.000358,0.004830,-0.002282,-87.108105,0.004832,
1240,660,-0.008953,-7.980559,0.999999,0.000128,-0.001093,0.002549,0.000175,0.002557,-0.001102,87.256010,0.002565,
1060,980,1.001337,-5.685635,0.999994,0.000000,-0.004125,0.011528,-0.002869,0.012037,-0.004634,-79.935212,0.012143,
1180,1670,0.057506,-1.218095,0.999998,0.000144,-0.001111,0.003568,0.000070,0.003569,-0.001112,89.144913,0.003653,
1810,180,-0.630055,-9.282786,0.999998,0.000192,-0.002152,0.005144,-0.000714,0.005213,-0.002221,-84.466177,0.005232,
980,1150,1.035092,-4.195015,0.999998,0.000176,-0.003280,0.006899,-0.000297,0.006907,-0.003288,-88.330935,0.006910,
870,920,1.384772,-5.631465,0.999997,0.000216,-0.002499,0.005686,0.000716,0.005748,-0.002561,85.034854,0.005759,
650,1410,1.453316,-3.177790,0.999997,0.000192,-0.002566,0.005125,-0.000123,0.005127,-0.002568,-89.087345,0.005127,
1040,760,0.410651,-7.079064,0.999997,0.000206,-0.003517,0.005507,-0.001506,0.005752,-0.003761,-80.769128,0.005842,
1220,1990,0.002496,-0.137183,0.999998,0.000147,-0.000165,0.003054,-0.000013,0.003054,-0.000165,-89.777241,0.003435,
1660,790,-1.293626,-6.313924,0.999998,0.000206,-0.002949,0.005657,-0.000483,0.005684,-0.002976,-86.800355,0.005686,
1400,200,-0.103744,-9.485418,0.999998,0.000219,-0.000765,0.003565,-0.000161,0.003571,-0.000771,-87.873708,0.003758,
590,1860,0.823711,-1.011711,0.999998,0.000154,-0.002467,0.004972,-0.000264,0.004982,-0.002476,-87.971511,0.004982,
1510,1920,-0.126681,-0.395098,0.999998,0.000144,-0.000733,0.003627,0.000427,0.003668,-0.000775,84.460036,0.003867,
870,310,0.457309,-8.911598,0.999998,0.000178,-0.001883,0.004524,0.000078,0.004525,-0.001884,89.306255,0.004546,
1820,920,-1.916233,-5.535114,0.999998,0.000177,-0.002243,0.004687,-0.000295,0.004699,-0.002256,-87.570865,0.004701,
1840,550,-1.371389,-7.347014,0.999996,0.000219,-0.002544,0.005136,0.000014,0.005136,-0.002544,89.893025,0.005136,
990,950,1.159638,-5.597159,0.999997,0.000202,-0.002736,0.007229,0.000252,0.007235,-0.002742,88.554996,0.007305,
1370,120,-0.046903,-9.763511,0.999998,0.000159,-0.000306,0.003261,-0.000199,0.003272,-0.000317,-86.820573,0.003609,
1540,1830,-0.265452,-0.756047,0.999998,0.000186,-0.001128,0.004057,0.000358,0.004081,-0.001153,86.072432,0.004208,
780,1500,0.966225,-2.509179,0.999998,0.000180,-0.002709,0.005248,0.000160,0.005252,-0.002712,88.849976,0.005253,
1330,1360,-0.129280,-2.347167,0.999998,0.000187,-0.001823,0.003296,-0.001494,0.003700,-0.002228,-74.863398,0.003725,
1780,400,-0.999669,-8.209525,0.999998,0.000171,-0.002468,0.005053,0.000071,0.005053,-0.002469,89.456777,0.005054,
1870,1180,-1.974832,-4.375555,0.999998,0.000185,-0.002180,0.004440,0.000132,0.004443,-0.002182,88.854904,0.004443,
1880,1480,-1.510845,-2.922510,0.999997,0.000201,-0.002556,0.005094,0.000011,0.005094,-0.002556,89.914826,0.005094,
1530,130,-0.136432,-9.697685,0.999998,0.000152,-0.000638,0.003675,-0.000518,0.003736,-0.000699,-83.241111,0.003973,
930,60,0.046805,-9.945533,0.999998,0.000155,-0.000203,0.003367,0.000558,0.003452,-0.000288,81.319393,0.003831,
1350,90,-0.027274,-9.862651,0.999998,0.000165,-0.000248,0.003169,-0.000155,0.003176,-0.000255,-87.414627,0.003529,
1290,1970,-0.013348,-0.196818,0.999998,0.000157,-0.000166,0.003088,0.000085,0.003090,-0.000169,88.496860,0.003475,
580,70,0.368041,-9.728272,0.999998,0.000182,-0.001689,0.006201,0.001879,0.006626,-0.002114,77.267052,0.006769,
720,1470,1.170622,-2.763226,0.999998,0.000164,-0.002674,0.005199,0.000010,0.005199,-0.002674,89.928055,0.005200,
1480,1660,-0.337438,-1.417810,0.999998,0.000194,-0.001786,0.004320,-0.000277,0.004332,-0.001799,-87.406140,0.004353,
900,1760,0.382825,-1.069415,0.999997,0.000185,-0.001619,0.004357,-0.000153,0.004361,-0.001623,-88.536533,0.004408,
1350,180,-0.063818,-9.567000,0.999998,0.000171,-0.000598,0.003422,-0.000088,0.003423,-0.000600,-88.747052,0.003656,
1440,1080,-1.136847,-4.573392,0.999996,0.000228,-0.003203,0.008466,-0.000751,0.008514,-0.003251,-86.331040,0.008593,
1470,520,-0.388184,-8.124906,0.999997,0.000199,-0.002133,0.004517,0.000622,0.004575,-0.002191,84.701183,0.004576,
660,210,0.696663,-9.137232,0.999998,0.000186,-0.002230,0.005125,0.000545,0.005165,-0.002270,85.786934,0.005177,
640,1930,0.471844,-0.528240,0.999996,0.000236,-0.002124,0.005265,-0.000973,0.005391,-0.002250,-82.623735,0.005415,
1160,370,0.077335,-8.909656,0.999998,0.000143,-0.001110,0.003605,-0.000091,0.003607,-0.001112,-88.896586,0.003694,
1650,1130,-1.533295,-4.508121,0.999997,0.000229,-0.002350,0.005360,0.000614,0.005409,-0.002398,85.474484,0.005421,
1860,1260,-1.831734,-3.992888,0.999998,0.000171,-0.002376,0.004745,0.000212,0.004751,-0.002382,88.299917,0.004751,
1570,570,-0.675825,-7.691391,0.999997,0.000203,-0.002734,0.005194,0.000444,0.005219,-0.002758,86.804369,0.005222,
950,1130,1.193276,-4.396264,0.999998,0.000196,-0.002759,0.006463,-0.000622,0.006505,-0.002801,-86.158727,0.006526,
620,460,1.245656,-7.803108,0.999998,0.000182,-0.002502,0.005082,-0.000073,0.005083,-0.002502,-89.446969,0.005083,
1730,1490,-1.106420,-2.638109,0.999997,0.000186,-0.002659,0.005231,-0.000072,0.005232,-0.002659,-89.474571,0.005232,
1810,160,-0.567823,-9.387459,0.999998,0.000225,-0.002075,0.005219,-0.000882,0.005324,-0.002180,-83.202479,0.005353,
830,770,1.171762,-6.462193,0.999997,0.000194,-0.003142,0.005799,0.000348,0.005813,-0.003156,87.775603,0.005820,
1060,30,0.007305,-10.048549,0.999999,0.000000,-0.000134,0.003116,0.000194,0.003127,-0.000145,86.596052,0.003530,
1160,1670,0.080207,-1.225435,0.999999,0.000126,-0.001160,0.003604,0.000100,0.003606,-0.001162,88.796800,0.003682,
1630,400,-0.642323,-8.440970,0.999998,0.000163,-0.002249,0.004860,0.000111,0.004861,-0.002251,89.102519,0.004866,
1400,1150,-0.754300,-3.741440,0.999993,0.000313,-0.002831,0.006258,-0.002446,0.006874,-0.003447,-75.855362,0.006874,
1770,920,-1.802931,-5.556156,0.999998,0.000180,-0.002264,0.004825,-0.000352,0.004843,-0.002282,-87.165505,0.004845,
1900,1840,-0.938967,-1.171593,0.999998,0.000000,-0.002393,0.004821,0.000150,0.004824,-0.002396,88.809958,0.004824,
1250,440,-0.023373,-8.673905,0.999998,0.000177,-0.001206,0.003522,0.000126,0.003525,-0.001209,88.477352,0.003582,
580,280,1.048228,-8.628727,0.999998,0.000206,-0.002282,0.004871,-0.000020,0.004871,-0.002282,-89.837321,0.004875,
1090,530,0.201698,-8.245797,0.999998,0.000161,-0.001771,0.003906,-0.000743,0.004001,-0.001867,-82.669532,0.004004,
780,1090,1.658241,-4.725213,0.999997,0.000182,-0.002171,0.005104,-0.000405,0.005127,-0.002194,-86.821749,0.005145,
1090,1540,0.198811,-1.773588,0.999998,0.000150,-0.001714,0.003917,0.000693,0.004001,-0.001798,83.090151,0.004008,
1490,1380,-0.542364,-2.765067,0.999997,0.000198,-0.003152,0.005413,-0.000877,0.005502,-0.003241,-84.210069,0.005531,
1240,640,-0.010828,-8.033252,0.999999,0.000127,-0.001136,0.002684,0.000168,0.002691,-0.001143,87.482309,0.002701,
650,1390,1.485141,-3.281194,0.999997,0.000199,-0.002580,0.005103,-0.000174,0.005107,-0.002584,-88.702596,0.005107,
1190,690,0.043058,-7.880987,0.999998,0.000150,-0.001221,0.002482,-0.000761,0.002633,-0.001371,-78.833615,0.002633,
700,1300,1.514657,-3.683717,0.999997,0.000224,-0.002622,0.005237,-0.000377,0.005255,-0.002640,-87.258323,0.005255,
740,1820,0.578030,-0.953097,0.999997,0.000186,-0.001917,0.004891,-0.000532,0.004932,-0.001958,-85.557996,0.004967,
1840,570,-1.401124,-7.244828,0.999997,0.000204,-0.002568,0.005108,0.000004,0.005108,-0.002568,89.971969,0.005108,
1040,740,0.389039,-7.184698,0.999997,0.000202,-0.003336,0.005334,-0.001519,0.005592,-0.003594,-80.346248,0.005667,
1490,1920,-0.111706,-0.389329,0.999998,0.000154,-0.000653,0.003583,0.000383,0.003618,-0.000687,84.878376,0.003842,
1160,1990,0.009025,-0.137485,0.999998,0.000142,-0.000116,0.003053,-0.000103,0.003056,-0.000120,-88.141174,0.003462,
860,1700,0.533032,-1.390998,0.999996,0.000202,-0.002004,0.004658,-0.000001,0.004658,-0.002004,-89.990585,0.004673,
980,310,0.275117,-9.018829,0.999998,0.000168,-0.001402,0.004082,0.000017,0.004082,-0.001402,89.818204,0.004148,
1350,70,-0.019035,-9.924737,0.999999,0.000130,-0.000171,0.003109,-0.000173,0.003118,-0.000180,-86.988843,0.003501,
1290,1950,-0.014278,-0.259699,0.999998,0.000158,-0.000225,0.003170,0.000078,0.003172,-0.000226,88.686565,0.003539,
1530,110,-0.107271,-9.771730,0.999998,0.000160,-0.000538,0.003627,-0.000547,0.003698,-0.000608,-82.643671,0.003965,
1390,1390,-0.253773,-2.417122,0.999998,0.000179,-0.002408,0.004286,-0.001389,0.004563,-0.002684,-78.728493,0.004587,
1820,900,-1.892953,-5.628787,0.999998,0.000177,-0.002268,0.004663,-0.000274,0.004673,-0.002278,-87.742723,0.004674,
1480,1640,-0.350589,-1.504799,0.999997,0.000206,-0.001857,0.004367,-0.000335,0.004385,-0.001875,-86.928135,0.004401,
1890,1520,-1.473679,-2.733124,0.999997,0.000218,-0.002517,0.005074,0.000003,0.005074,-0.002517,89.975031,0.005074,
1650,1150,-1.495896,-4.398592,0.999997,0.000216,-0.002474,0.005441,0.000665,0.005496,-0.002529,85.233580,0.005502,
1570,120,-0.144618,-9.726823,0.999998,0.000171,-0.000723,0.003805,-0.000604,0.003884,-0.000802,-82.526921,0.004101,
990,930,1.090734,-5.743730,0.999998,0.000176,-0.003000,0.007088,0.000214,0.007092,-0.003004,88.786240,0.007120,
1660,770,-1.254318,-6.426715,0.999997,0.000229,-0.002977,0.005662,-0.000413,0.005682,-0.002997,-87.266310,0.005685,
1350,1800,-0.095257,-0.776483,0.999998,0.000170,-0.000874,0.003559,-0.000009,0.003559,-0.000874,-89.879171,0.003709,
1540,1850,-0.240656,-0.676645,0.999997,0.000213,-0.001042,0.004042,0.000429,0.004077,-0.001078,85.212353,0.004226,
830,750,1.131364,-6.578178,0.999997,0.000215,-0.003155,0.005777,0.000267,0.005785,-0.003163,88.288030,0.005793,
1140,460,0.117464,-8.567827,0.999998,0.000173,-0.001405,0.003672,-0.000374,0.003700,-0.001433,-85.814706,0.003731,
1860,1700,-1.124693,-1.776813,0.999998,0.000179,-0.002440,0.004951,-0.000058,0.004951,-0.002440,-89.548221,0.004952,
1330,1340,-0.128828,-2.411460,0.999998,0.000167,-0.001886,0.003283,-0.001660,0.003770,-0.002373,-73.645242,0.003812,
1050,2020,0.010489,-0.050716,0.999998,0.000000,-0.000148,0.003013,-0.000216,0.003027,-0.000162,-86.104160,0.003406,
1740,280,-0.705270,-8.880794,0.999998,0.000172,-0.002264,0.004999,-0.000230,0.005006,-0.002271,-88.188229,0.005013,
970,180,0.161976,-9.524965,0.999997,0.000181,-0.000953,0.003756,0.000338,0.003780,-0.000977,85.918812,0.003924,
1570,550,-0.655287,-7.794774,0.999997,0.000196,-0.002625,0.005061,0.000422,0.005084,-0.002649,86.864053,0.005086,
1610,990,-1.529724,-5.236065,0.999997,0.000214,-0.001975,0.005284,-0.000275,0.005294,-0.001985,-87.835400,0.005349,
610,1220,1.876823,-4.171715,0.999998,0.000145,-0.002339,0.004702,-0.000261,0.004711,-0.002349,-87.877746,0.004711,
1460,250,-0.199178,-9.272309,0.999998,0.000145,-0.001017,0.003877,-0.000156,0.003882,-0.001022,-88.171037,0.004024,
1790,1420,-1.375304,-3.093507,0.999998,0.000202,-0.002614,0.005148,0.000103,0.005149,-0.002616,89.238016,0.005149,
790,310,0.614089,-8.820220,0.999998,0.000200,-0.002189,0.004821,0.000123,0.004824,-0.002191,88.997683,0.004830,
1690,1950,-0.213758,-0.328831,0.999998,0.000189,-0.000921,0.004199,0.001102,0.004426,-0.001149,78.353445,0.004594,
1820,1270,-1.715484,-3.896410,0.999998,0.000173,-0.002479,0.004978,0.000356,0.004995,-0.002496,87.270779,0.004995,
1090,510,0.198401,-8.326657,0.999998,0.000161,-0.001717,0.003928,-0.000664,0.004005,-0.001794,-83.383017,0.004012,
640,490,1.238796,-7.681801,0.999997,0.000199,-0.002541,0.005091,-0.000058,0.005092,-0.002541,-89.562912,0.005092,
1060,70,0.027047,-9.922125,0.999998,0.000174,-0.000228,0.003166,0.000252,0.003184,-0.000247,85.768986,0.003543,
890,1100,1.407848,-4.637668,0.999997,0.000219,-0.002198,0.005675,-0.000591,0.005719,-0.002242,-85.727692,0.005763,
620,440,1.215647,-7.905170,0.999998,0.000168,-0.002483,0.005035,-0.000099,0.005037,-0.002484,-89.244562,0.005037,
580,60,0.319035,-9.786515,0.999996,0.000239,-0.001017,0.006366,0.002217,0.006980,-0.001631,74.508212,0.007303,
1700,1210,-1.517104,-4.103907,0.999997,0.000209,-0.002654,0.005357,0.000615,0.005404,-0.002701,85.633381,0.005404,
700,1280,1.552938,-3.790110,0.999998,0.000198,-0.002585,0.005135,-0.000415,0.005158,-0.002607,-86.931264,0.005158,
1170,1920,0.023817,-0.357556,0.999998,0.000162,-0.000340,0.003218,-0.000077,0.003220,-0.000341,-88.761427,0.003537,
960,990,1.322166,-5.278039,0.999999,0.000137,-0.002056,0.006510,0.000326,0.006523,-0.002068,87.821571,0.006667,
900,1740,0.405396,-1.156167,0.999998,0.000191,-0.001723,0.004407,-0.000047,0.004407,-0.001723,-89.564160,0.004442,
1590,1520,-0.693528,-2.245296,0.999997,0.000213,-0.002617,0.005111,-0.000364,0.005128,-0.002634,-87.307291,0.005129,
1750,260,-0.689188,-8.966672,0.999998,0.000196,-0.002320,0.005021,-0.000279,0.005031,-0.002330,-87.830109,0.005036,
690,50,0.117035,-9.951088,0.999999,0.000151,-0.000532,0.004270,0.001710,0.004817,-0.001079,72.268755,0.005055,
1900,1830,-0.966088,-1.220070,0.999998,0.000000,-0.002396,0.004816,0.000135,0.004819,-0.002399,88.931493,0.004819,
1240,620,-0.011662,-8.085676,0.999998,0.000146,-0.001165,0.002856,0.000137,0.002860,-0.001170,88.055288,0.002876,
1040,720,0.367799,-7.293819,0.999998,0.000189,-0.003158,0.005122,-0.001487,0.005381,-0.003417,-80.125170,0.005446,
860,1680,0.557064,-1.481780,0.999997,0.000190,-0.002083,0.004695,0.000075,0.004696,-0.002083,89.364975,0.004706,
1090,440,0.181607,-8.601027,0.999998,0.000186,-0.001495,0.003876,-0.000372,0.003902,-0.001521,-86.056692,0.003933,
1530,90,-0.086171,-9.842879,0.999999,0.000147,-0.000409,0.003464,-0.000547,0.003540,-0.000485,-82.114363,0.003838,
650,1370,1.520364,-3.383565,0.999997,0.000215,-0.002587,0.005114,-0.000222,0.005121,-0.002594,-88.347510,0.005121,
1290,1930,-0.020750,-0.325133,0.999998,0.000149,-0.000302,0.003207,0.000088,0.003210,-0.000304,88.559350,0.003544,
1890,1420,-1.631411,-3.243139,0.999997,0.000204,-0.002551,0.005039,0.000039,0.005039,-0.002551,89.701933,0.005039,
1550,120,-0.132764,-9.731187,0.999998,0.000180,-0.000561,0.003741,-0.000592,0.003821,-0.000641,-82.305078,0.004093,
990,910,1.021412,-5.884052,0.999997,0.000198,-0.003283,0.007028,0.000178,0.007031,-0.003286,89.013345,0.007036,
1820,880,-1.870868,-5.721418,0.999998,0.000190,-0.002306,0.004734,-0.000335,0.004750,-0.002322,-87.278651,0.004751,
1120,1990,0.015596,-0.138131,0.999998,0.000152,-0.000163,0.003083,-0.000153,0.003090,-0.000170,-87.309017,0.003474,
1650,1170,-1.462306,-4.290148,0.999997,0.000238,-0.002601,0.005484,0.000647,0.005535,-0.002652,85.450829,0.005537,
1480,1620,-0.362113,-1.591954,0.999997,0.000205,-0.001919,0.004390,-0.000388,0.004414,-0.001943,-86.493515,0.004424,
1140,310,0.085678,-9.119645,0.999999,0.000117,-0.001053,0.003595,-0.000087,0.003597,-0.001054,-88.927758,0.003698,
1050,30,0.009694,-10.047313,0.999999,0.000000,-0.000101,0.003130,0.000208,0.003144,-0.000114,86.339933,0.003566,
690,1660,0.975961,-1.833827,0.999998,0.000175,-0.002453,0.005077,0.000087,0.005078,-0.002454,89.339348,0.005079,
1400,180,-0.092992,-9.556670,0.999998,0.000186,-0.000700,0.003512,-0.000175,0.003520,-0.000707,-87.625519,0.003724,
1740,240,-0.624291,-9.083622,0.999997,0.000188,-0.002131,0.004936,-0.000414,0.004960,-0.002155,-86.659504,0.004974,
940,990,1.360937,-5.263918,0.999996,0.000232,-0.001928,0.006167,0.000396,0.006186,-0.001947,87.207775,0.006326,
810,700,1.100135,-6.833227,0.999999,0.000169,-0.003025,0.005602,0.000132,0.005604,-0.003028,89.123427,0.005610,
1570,180,-0.236204,-9.492285,0.999998,0.000205,-0.001141,0.004017,-0.000489,0.004063,-0.001187,-84.629576,0.004179,
1190,1860,0.023895,-0.552777,0.999998,0.000164,-0.000545,0.003351,-0.000062,0.003352,-0.000546,-89.081597,0.003597,
1820,1250,-1.751847,-3.997205,0.999997,0.000187,-0.002446,0.004900,0.000359,0.004918,-0.002464,87.207227,0.004918,
760,1250,1.448977,-3.891350,0.999997,0.000217,-0.002755,0.005363,-0.000534,0.005398,-0.002790,-86.255190,0.005399,
700,1260,1.588022,-3.891166,0.999998,0.000196,-0.002602,0.005136,-0.000456,0.005163,-0.002628,-86.641764,0.005163,
1450,1920,-0.092457,-0.380720,0.999999,0.000115,-0.000513,0.003496,0.000327,0.003522,-0.000539,85.369228,0.003794,
790,270,0.548455,-9.012502,0.999997,0.000195,-0.002116,0.004758,0.000276,0.004769,-0.002128,87.700787,0.004779,
870,1100,1.449979,-4.647696,0.999998,0.000182,-0.002180,0.005518,-0.000542,0.005556,-0.002218,-85.990438,0.005594,
620,420,1.186664,-8.005454,0.999998,0.000174,-0.002472,0.005008,-0.000089,0.005010,-0.002473,-89.321870,0.005010,
1020,1350,0.421777,-2.782874,0.999997,0.000209,-0.003178,0.005284,0.001268,0.005470,-0.003364,81.656675,0.005518,
1570,530,-0.636118,-7.893985,0.999997,0.000199,-0.002562,0.005009,0.000422,0.005032,-0.002586,86.818562,0.005033,
570,1220,1.967985,-4.221248,0.999998,0.000181,-0.002239,0.004587,-0.000093,0.004588,-0.002240,-89.217682,0.004589,
1440,1520,-0.331102,-1.969964,0.999998,0.000185,-0.002125,0.004381,-0.000741,0.004464,-0.002209,-83.581641,0.004464,
1260,370,-0.031284,-8.918946,0.999998,0.000146,-0.001084,0.003517,0.000104,0.003519,-0.001086,88.701118,0.003604,
690,40,0.084093,-9.992917,0.999999,0.000145,-0.000383,0.004152,0.001671,0.004701,-0.000932,71.803391,0.004978,
900,1720,0.427108,-1.245849,0.999998,0.000200,-0.001842,0.004518,0.000016,0.004518,-0.001842,89.859592,0.004544,
1080,1680,0.176869,-1.238444,0.999998,0.000167,-0.001309,0.003844,0.000162,0.003849,-0.001314,88.200444,0.003913,
860,1660,0.578396,-1.577512,0.999998,0.000169,-0.002148,0.004748,0.000113,0.004750,-0.002150,89.059096,0.004757,
1900,1820,-0.992588,-1.267746,0.999997,0.000000,-0.002402,0.004771,0.000121,0.004773,-0.002404,89.035403,0.004773,
1350,700,-0.166876,-7.654334,0.999998,0.000184,-0.002140,0.003659,0.001615,0.004078,-0.002559,75.443910,0.004122,
1240,600,-0.009755,-8.146555,0.999999,0.000140,-0.001202,0.003009,0.000116,0.003012,-0.001205,88.424287,0.003032,
650,1350,1.558173,-3.485210,0.999997,0.000213,-0.002588,0.005098,-0.000226,0.005104,-0.002594,-88.314211,0.005104,
1340,1230,-0.253438,-2.832708,0.999997,0.000181,-0.002719,0.003446,-0.002148,0.004120,-0.003394,-72.562163,0.004399,
1880,1420,-1.606106,-3.227421,0.999997,0.000221,-0.002547,0.005053,0.000052,0.005053,-0.002547,89.604286,0.005053,
1480,1600,-0.375047,-1.681378,0.999997,0.000197,-0.001951,0.004412,-0.000429,0.004441,-0.001980,-86.161803,0.004450,
1290,1910,-0.022850,-0.388360,0.999999,0.000133,-0.000357,0.003233,0.000077,0.003234,-0.000358,88.766425,0.003546,
1070,1090,0.936883,-4.129767,0.999989,0.000000,-0.003362,0.010259,0.004128,0.011413,-0.004515,74.388581,0.011495,
1530,70,-0.058797,-9.911386,0.999999,0.000136,-0.000278,0.003373,-0.000561,0.003457,-0.000362,-81.452597,0.003800,
1850,1560,-1.314585,-2.466328,0.999997,0.000190,-0.002540,0.005094,-0.000058,0.005094,-0.002540,-89.567378,0.005094,
1650,1610,-0.744126,-1.891046,0.999998,0.000176,-0.002394,0.004988,-0.000162,0.004991,-0.002398,-88.742384,0.004993,
990,890,0.948641,-6.021844,0.999997,0.000206,-0.003543,0.006954,0.000060,0.006954,-0.003543,89.672765,0.006955,
580,560,1.495476,-7.229156,0.999997,0.000211,-0.004278,0.005069,-0.000439,0.005089,-0.004298,-87.313898,0.005477,
1040,700,0.355989,-7.395156,0.999996,0.000219,-0.002962,0.004976,-0.001438,0.005229,-0.003214,-80.040949,0.005275,
830,640,0.943806,-7.198777,0.999998,0.000166,-0.002958,0.005471,-0.000135,0.005474,-0.002960,-89.081120,0.005480,
1400,140,-0.066676,-9.693994,0.999998,0.000159,-0.000516,0.003368,-0.000210,0.003380,-0.000527,-86.916224,0.003636,
830,730,1.093092,-6.693572,0.999997,0.000210,-0.003149,0.005731,0.000184,0.005735,-0.003152,88.814403,0.005744,
1820,860,-1.838266,-5.819246,0.999998,0.000178,-0.002329,0.004830,-0.000384,0.004850,-0.002350,-86.941652,0.004851,
1100,1990,0.017293,-0.138905,0.999998,0.000144,-0.000109,0.003104,-0.000190,0.003115,-0.000120,-86.629920,0.003529,
1740,220,-0.577677,-9.181384,0.999997,0.000199,-0.002094,0.004915,-0.000525,0.004954,-0.002133,-85.740081,0.004970,
1050,60,0.023483,-9.953985,0.999999,0.000147,-0.000215,0.003154,0.000277,0.003177,-0.000238,85.332868,0.003539,
1060,310,0.171471,-9.078687,0.999998,0.000172,-0.001231,0.003822,-0.000054,0.003823,-0.001231,-89.392933,0.003903,
1750,440,-0.983484,-8.054241,0.999998,0.000152,-0.002515,0.005074,0.000113,0.005075,-0.002517,89.147880,0.005075,
1430,1920,-0.080358,-0.377084,0.999998,0.000158,-0.000549,0.003438,0.000247,0.003453,-0.000564,86.470727,0.003705,
740,1250,1.502639,-3.907984,0.999997,0.000191,-0.002664,0.005273,-0.000520,0.005307,-0.002698,-86.269092,0.005308,
1240,580,-0.010375,-8.207382,0.999998,0.000159,-0.001237,0.003132,0.000130,0.003136,-0.001241,88.302241,0.003159,
1570,510,-0.616821,-7.994718,0.999997,0.000209,-0.002488,0.004967,0.000414,0.004990,-0.002511,86.834644,0.004990,
1650,1520,-0.851703,-2.349996,0.999998,0.000158,-0.002671,0.005219,-0.000218,0.005225,-0.002677,-88.418279,0.005225,
1800,1270,-1.665960,-3.876186,0.999996,0.000219,-0.002500,0.005044,0.000413,0.005067,-0.002522,86.877550,0.005067,
790,250,0.511810,-9.105957,0.999997,0.000187,-0.002030,0.004703,0.000360,0.004722,-0.002049,86.944241,0.004736,
1550,180,-0.216078,-9.499954,0.999998,0.000181,-0.000906,0.003929,-0.000458,0.003973,-0.000949,-84.632915,0.004149,
770,1840,0.481659,-0.829647,0.999998,0.000185,-0.001810,0.004679,-0.000590,0.004732,-0.001863,-84.850711,0.004768,
850,920,1.434812,-5.619092,0.999996,0.000231,-0.002430,0.005593,0.000707,0.005655,-0.002492,85.000245,0.005668,
700,1240,1.625577,-3.993002,0.999997,0.000196,-0.002602,0.005143,-0.000487,0.005174,-0.002633,-86.413228,0.005174,
860,1640,0.599511,-1.673196,0.999997,0.000182,-0.002192,0.004827,0.000147,0.004830,-0.002195,88.799123,0.004837,
900,1700,0.449066,-1.336995,0.999997,0.000213,-0.001928,0.004538,0.000038,0.004538,-0.001928,89.667269,0.004555,
1130,440,0.126559,-8.634175,0.999998,0.000192,-0.001348,0.003726,-0.000312,0.003745,-0.001367,-86.493044,0.003791,
1900,1810,-1.014504,-1.316348,0.999998,0.000000,-0.002446,0.004783,0.000088,0.004785,-0.002447,89.302914,0.004785,
1520,1980,-0.063929,-0.183457,0.999998,0.000158,-0.000329,0.003434,0.000544,0.003511,-0.000406,81.938664,0.003842,
650,1330,1.591253,-3.587771,0.999997,0.000211,-0.002553,0.005103,-0.000259,0.005112,-0.002562,-88.067173,0.005112,
1070,1100,0.918130,-4.031418,0.999993,0.000000,-0.002981,0.009498,0.004111,0.010730,-0.004214,73.310617,0.010812,
1780,420,-1.029194,-8.108709,0.999998,0.000171,-0.002480,0.005069,0.000074,0.005069,-0.002480,89.441878,0.005070,
1850,1540,-1.343720,-2.568467,0.999997,0.000201,-0.002538,0.005125,-0.000045,0.005125,-0.002539,-89.666320,0.005125,
1290,1890,-0.029657,-0.455147,0.999998,0.000162,-0.000441,0.003297,0.000073,0.003299,-0.000442,88.885044,0.003581,
880,1650,0.545897,-1.597937,0.999997,0.000220,-0.002124,0.004734,0.000173,0.004738,-0.002128,88.552179,0.004746,
1700,1270,-1.400523,-3.779119,0.999998,0.000171,-0.002809,0.005458,0.000474,0.005485,-0.002836,86.727001,0.005486,
590,1220,1.922883,-4.194732,0.999998,0.000155,-0.002264,0.004647,-0.000175,0.004652,-0.002268,-88.550690,0.004652,
580,440,1.315819,-7.840050,0.999997,0.000200,-0.002031,0.005023,0.000095,0.005024,-0.002032,89.225383,0.005054,
740,1090,1.745140,-4.730861,0.999998,0.000176,-0.002207,0.004980,-0.000316,0.004993,-0.002221,-87.487443,0.005004,
620,400,1.158678,-8.105895,0.999998,0.000169,-0.002478,0.005035,-0.000067,0.005036,-0.002479,-89.492492,0.005036,
990,870,0.877541,-6.158378,0.999997,0.000203,-0.003724,0.006885,-0.000116,0.006886,-0.003725,-89.372269,0.006894,
1480,1580,-0.386845,-1.770043,0.999997,0.000194,-0.001988,0.004443,-0.000469,0.004477,-0.002022,-85.854468,0.004484,
680,970,1.880788,-5.310647,0.999998,0.000166,-0.002212,0.004692,0.000158,0.004696,-0.002216,88.689673,0.004698,
1090,490,0.193509,-8.405227,0.999998,0.000173,-0.001641,0.003921,-0.000574,0.003980,-0.001699,-84.166811,0.003994,
1650,1590,-0.767537,-1.991978,0.999998,0.000157,-0.002475,0.005009,-0.000194,0.005014,-0.002480,-88.512872,0.005014,
810,640,1.001954,-7.164877,0.999998,0.000143,-0.002927,0.005441,-0.000056,0.005441,-0.002927,-89.619857,0.005446,
1040,680,0.344845,-7.492543,0.999996,0.000211,-0.002806,0.004835,-0.001364,0.005071,-0.003043,-80.177717,0.005105,
1750,240,-0.646703,-9.066301,0.999997,0.000192,-0.002274,0.004958,-0.000340,0.004974,-0.002289,-87.317273,0.004979,
1820,1060,-1.970563,-4.890128,0.999998,0.000168,-0.002124,0.004552,0.000118,0.004554,-0.002126,88.989079,0.004557,
1740,200,-0.529760,-9.279931,0.999997,0.000192,-0.002022,0.004923,-0.000632,0.004980,-0.002079,-84.843758,0.005003,
1400,120,-0.055344,-9.761259,0.999998,0.000160,-0.000417,0.003319,-0.000238,0.003335,-0.000432,-86.367165,0.003627,
1570,490,-0.596923,-8.093711,0.999998,0.000196,-0.002398,0.004876,0.000370,0.004895,-0.002416,87.093954,0.004895,
1370,1920,-0.053021,-0.364665,0.999999,0.000117,-0.000379,0.003311,0.000169,0.003319,-0.000387,87.376064,0.003630,
1510,640,-0.572588,-7.451687,0.999997,0.000219,-0.002991,0.005275,0.000734,0.005339,-0.003056,84.967768,0.005358,
1670,1080,-1.640115,-4.774680,0.999997,0.000223,-0.002109,0.005128,0.000323,0.005143,-0.002124,87.446867,0.005169,
1240,560,-0.011160,-8.272496,0.999998,0.000156,-0.001267,0.003186,0.000115,0.003189,-0.001270,88.525332,0.003211,
770,1820,0.522560,-0.921831,0.999998,0.000163,-0.001908,0.004764,-0.000491,0.004800,-0.001944,-85.812967,0.004829,
700,410,0.971666,-8.185579,0.999998,0.000154,-0.002462,0.005085,-0.000071,0.005085,-0.002462,-89.464126,0.005086,
1900,1800,-1.037306,-1.362571,0.999998,0.000000,-0.002460,0.004804,0.000051,0.004804,-0.002461,89.598320,0.004805,
1040,660,0.336278,-7.585809,0.999997,0.000193,-0.002672,0.004714,-0.001283,0.004931,-0.002889,-80.418685,0.004955,
1630,1520,-0.799074,-2.314803,0.999998,0.000171,-0.002633,0.005216,-0.000263,0.005225,-0.002642,-88.082944,0.005225,
910,190,0.233465,-9.460910,0.999998,0.000184,-0.000955,0.003994,0.000460,0.004037,-0.000997,84.729195,0.004205,
580,430,1.299930,-7.890201,0.999998,0.000179,-0.001994,0.004976,0.000051,0.004977,-0.001995,89.579771,0.005009,
1520,1960,-0.086054,-0.252972,0.999998,0.000162,-0.000430,0.003513,0.000507,0.003577,-0.000495,82.784537,0.003877,
1140,440,0.113846,-8.642329,0.999998,0.000181,-0.001336,0.003682,-0.000325,0.003703,-0.001357,-86.305771,0.003746,
1230,1980,0.000379,-0.167732,0.999998,0.000147,-0.000194,0.003045,0.000008,0.003045,-0.000194,89.858699,0.003409,
1150,180,0.041392,-9.573487,0.999998,0.000184,-0.000521,0.003359,0.000078,0.003360,-0.000523,88.848991,0.003616,
950,590,0.538005,-7.704851,0.999997,0.000224,-0.002740,0.005054,-0.000686,0.005113,-0.002800,-85.007722,0.005121,
1650,1570,-0.791413,-2.089272,0.999997,0.000170,-0.002529,0.005049,-0.000214,0.005055,-0.002535,-88.385882,0.005055,
1600,1330,-0.978378,-3.304835,0.999997,0.000178,-0.003271,0.005844,0.000006,0.005844,-0.003271,89.961993,0.005858,
1810,1250,-1.727535,-3.986572,0.999997,0.000184,-0.002457,0.004942,0.000397,0.004963,-0.002479,86.937447,0.004963,
860,1620,0.619818,-1.769772,0.999997,0.000210,-0.002289,0.004842,0.000231,0.004849,-0.002296,88.147397,0.004851,
740,1780,0.659336,-1.151500,0.999997,0.000184,-0.002082,0.004936,-0.000359,0.004955,-0.002100,-87.081026,0.004974,
820,1900,0.274602,-0.520438,0.999998,0.000178,-0.001079,0.004250,-0.000784,0.004363,-0.001192,-81.802020,0.004511,
730,1600,0.962008,-2.071955,0.999998,0.000148,-0.002514,0.005085,0.000112,0.005087,-0.002515,89.154261,0.005087,
1070,2020,0.007606,-0.048734,0.999998,0.000000,-0.000066,0.003027,-0.000177,0.003037,-0.000076,-86.742900,0.003464,
620,1930,0.520287,-0.574549,0.999997,0.000186,-0.002434,0.005312,-0.000707,0.005376,-0.002498,-84.827432,0.005380,
1090,450,0.182959,-8.561712,0.999998,0.000184,-0.001535,0.003894,-0.000409,0.003925,-0.001566,-85.712025,0.003951,
700,1220,1.663009,-4.096901,0.999997,0.000203,-0.002541,0.005045,-0.000476,0.005074,-0.002571,-86.425632,0.005075,
950,120,0.113139,-9.738667,0.999998,0.000158,-0.000626,0.003606,0.000465,0.003657,-0.000677,83.802971,0.003891,
1600,1160,-1.352235,-4.313884,0.999997,0.000199,-0.002655,0.005782,0.000716,0.005842,-0.002716,85.181113,0.005847,
1740,180,-0.478310,-9.375743,0.999997,0.000206,-0.001940,0.004838,-0.000743,0.004918,-0.002021,-83.820578,0.004944,
650,1310,1.628277,-3.688870,0.999998,0.000186,-0.002523,0.005024,-0.000293,0.005035,-0.002534,-87.778148,0.005035,
1670,1060,-1.650611,-4.875759,0.999998,0.000158,-0.002052,0.005041,0.000192,0.005046,-0.002057,88.449821,0.005075,
1100,370,0.150728,-8.874427,0.999998,0.000182,-0.001226,0.003813,-0.000156,0.003818,-0.001231,-88.229371,0.003898,
640,290,0.920915,-8.696932,0.999999,0.000137,-0.002393,0.005048,0.000084,0.005049,-0.002394,89.350227,0.005051,
830,1540,0.783780,-2.217844,0.999998,0.000160,-0.002599,0.005094,0.000270,0.005103,-0.002608,87.992168,0.005104,
1110,1800,0.098595,-0.776469,0.999999,0.000125,-0.000868,0.003570,-0.000015,0.003570,-0.000868,-89.800735,0.003723,
1080,450,0.200033,-8.550453,0.999998,0.000183,-0.001621,0.003940,-0.000458,0.003978,-0.001658,-85.324252,0.003996,
1440,1500,-0.338778,-2.055829,0.999998,0.000188,-0.002176,0.004415,-0.000773,0.004505,-0.002265,-83.397486,0.004505,
1500,250,-0.244909,-9.248414,0.999998,0.000157,-0.001340,0.003983,-0.000159,0.003988,-0.001345,-88.295588,0.004058,
1400,100,-0.043449,-9.827622,0.999999,0.000140,-0.000356,0.003272,-0.000237,0.003288,-0.000372,-86.277698,0.003601,
1600,470,-0.652613,-8.143144,0.999997,0.000183,-0.002436,0.004937,0.000282,0.004948,-0.002447,87.810839,0.004948,
1480,1560,-0.398205,-1.858981,0.999998,0.000197,-0.002073,0.004510,-0.000515,0.004550,-0.002113,-85.552098,0.004554,
580,1220,1.945385,-4.206997,0.999999,0.000131,-0.002241,0.004617,-0.000127,0.004619,-0.002244,-88.937295,0.004620,
1360,1710,-0.138949,-1.110227,0.999998,0.000193,-0.001134,0.003674,-0.000121,0.003677,-0.001137,-88.557393,0.003765,
620,600,1.455985,-7.086764,0.999997,0.000208,-0.002585,0.005099,0.000055,0.005100,-0.002586,89.588314,0.005100,
990,850,0.809652,-6.297355,0.999997,0.000207,-0.003828,0.006806,-0.000269,0.006812,-0.003834,-88.552139,0.006830,
1010,1000,1.220696,-5.269123,0.999995,0.000256,-0.002809,0.008384,-0.000172,0.008387,-0.002812,-89.119843,0.008537,
1290,1870,-0.031720,-0.520074,0.999999,0.000144,-0.000493,0.003320,0.000063,0.003321,-0.000494,89.060836,0.003584,
1150,1600,0.101366,-1.484975,0.999998,0.000161,-0.001373,0.003646,0.000322,0.003666,-0.001394,86.339247,0.003701,
750,1840,0.517782,-0.849389,0.999997,0.000203,-0.001772,0.004782,-0.000663,0.004849,-0.001838,-84.285108,0.004896,
630,820,1.806760,-5.998833,0.999998,0.000160,-0.002381,0.004756,0.000304,0.004769,-0.002394,87.563018,0.004769,
1780,440,-1.058862,-8.006940,0.999998,0.000150,-0.002493,0.005065,0.000095,0.005066,-0.002495,89.278423,0.005067,
1570,470,-0.579752,-8.192249,0.999997,0.000195,-0.002296,0.004843,0.000317,0.004857,-0.002310,87.462754,0.004859,
1350,270,-0.100753,-9.251851,0.999998,0.000143,-0.000940,0.003577,0.000025,0.003577,-0.000940,89.677396,0.003709,
910,210,0.261560,-9.378393,0.999998,0.000171,-0.001090,0.004075,0.000412,0.004108,-0.001122,85.465947,0.004246,
1190,670,0.044515,-7.932078,0.999999,0.000150,-0.001254,0.002624,-0.000668,0.002736,-0.001365,-80.497764,0.002736,
940,1050,1.376062,-4.906389,0.999998,0.000190,-0.001859,0.006050,-0.000236,0.006058,-0.001866,-88.291707,0.006204,
1130,180,0.053191,-9.570700,0.999998,0.000163,-0.000642,0.003370,0.000065,0.003371,-0.000643,89.069029,0.003580,
1240,540,-0.009920,-8.335467,0.999998,0.000155,-0.001281,0.003273,0.000116,0.003276,-0.001283,88.542526,0.003301,
1500,1990,-0.044284,-0.148643,0.999998,0.000198,-0.000328,0.003336,0.000467,0.003395,-0.000386,82.844405,0.003717,
880,1670,0.523822,-1.503253,0.999996,0.000263,-0.002116,0.004700,0.000141,0.004703,-0.002119,88.818515,0.004711,
1040,860,0.649512,-6.467820,0.999996,0.000223,-0.003683,0.006631,-0.001201,0.006769,-0.003821,-83.446638,0.006788,
1680,1270,-1.343608,-3.760042,0.999997,0.000196,-0.002906,0.005538,0.000489,0.005566,-0.002934,86.698121,0.005569,
1520,1940,-0.110306,-0.325747,0.999998,0.000167,-0.000582,0.003612,0.000506,0.003672,-0.000642,83.217935,0.003923,
580,420,1.284894,-7.939630,0.999998,0.000190,-0.001784,0.004857,0.000025,0.004857,-0.001784,89.788019,0.004914,
950,570,0.522174,-7.805170,0.999997,0.000203,-0.002620,0.004936,-0.000649,0.004991,-0.002675,-85.123451,0.004995,
820,690,1.051918,-6.904557,0.999999,0.000159,-0.003061,0.005571,0.000065,0.005572,-0.003062,89.570697,0.005581,
1140,420,0.110086,-8.716207,0.999998,0.000166,-0.001307,0.003678,-0.000288,0.003694,-0.001323,-86.708615,0.003743,
1650,1550,-0.815576,-2.194205,0.999998,0.000153,-0.002573,0.005121,-0.000226,0.005128,-0.002580,-88.315604,0.005128,
1840,1470,-1.424612,-2.912035,0.999997,0.000190,-0.002555,0.005104,0.000023,0.005104,-0.002555,89.826140,0.005104,
810,1600,0.764201,-1.945684,0.999998,0.000200,-0.002447,0.004985,0.000175,0.004989,-0.002451,88.652533,0.004989,
1080,370,0.173950,-8.861212,0.999998,0.000163,-0.001272,0.003857,-0.000159,0.003862,-0.001277,-88.221124,0.003935,
740,1760,0.696775,-1.252307,0.999997,0.000193,-0.002164,0.004978,-0.000256,0.004988,-0.002174,-87.950177,0.005001,
780,1930,0.259798,-0.415484,0.999998,0.000188,-0.001162,0.004270,-0.000998,0.004447,-0.001340,-79.907827,0.004563,
1610,250,-0.404013,-9.162440,0.999998,0.000182,-0.001606,0.004430,-0.000339,0.004449,-0.001625,-86.793524,0.004502,
1000,250,0.202093,-9.270113,0.999998,0.000159,-0.001034,0.003869,0.000194,0.003877,-0.001042,87.734290,0.004013,
1080,30,0.005868,-10.047353,0.999999,0.000000,-0.000037,0.003093,0.000224,0.003109,-0.000053,85.934645,0.003560,
1580,1330,-0.911225,-3.266272,0.999998,0.000148,-0.003328,0.005883,-0.000077,0.005884,-0.003329,-89.523400,0.005901,
1440,1480,-0.345709,-2.145252,0.999998,0.000194,-0.002272,0.004494,-0.000840,0.004597,-0.002375,-83.025134,0.004597,
650,1280,1.679854,-3.838455,0.999998,0.000182,-0.002520,0.005002,-0.000348,0.005018,-0.002536,-87.356175,0.005018,
1600,690,-0.919823,-6.977824,0.999998,0.000185,-0.003177,0.005677,0.000106,0.005678,-0.003179,89.311349,0.005692,
1820,320,-0.971031,-8.549834,0.999998,0.000173,-0.002426,0.005011,-0.000009,0.005011,-0.002426,-89.928868,0.005012,
1460,1590,-0.341079,-1.695351,0.999998,0.000193,-0.001968,0.004346,-0.000513,0.004387,-0.002009,-85.380429,0.004393,
610,790,1.806577,-6.120323,0.999998,0.000171,-0.002367,0.004841,0.000246,0.004850,-0.002376,88.047896,0.004850,
650,1290,1.662305,-3.788699,0.999998,0.000189,-0.002509,0.004987,-0.000312,0.005000,-0.002522,-87.616961,0.005000,
1400,80,-0.031543,-9.891402,0.999999,0.000137,-0.000264,0.003185,-0.000258,0.003204,-0.000283,-85.752167,0.003548,
1090,430,0.179825,-8.639627,0.999998,0.000180,-0.001446,0.003860,-0.000333,0.003880,-0.001467,-86.422439,0.003919,
1480,1540,-0.406395,-1.949197,0.999998,0.000192,-0.002198,0.004566,-0.000589,0.004617,-0.002249,-85.059031,0.004618,
1880,1780,-1.031294,-1.420624,0.999998,0.000216,-0.002437,0.004914,-0.000007,0.004914,-0.002437,-89.941883,0.004914,
700,1200,1.693621,-4.197553,0.999997,0.000192,-0.002470,0.005006,-0.000485,0.005037,-0.002502,-86.300303,0.005037,
610,820,1.853528,-5.977911,0.999998,0.000144,-0.002324,0.004668,0.000216,0.004675,-0.002330,88.231537,0.004675,
860,1600,0.642765,-1.867178,0.999997,0.000214,-0.002383,0.004884,0.000254,0.004893,-0.002392,88.003038,0.004893,
1780,880,-1.775672,-5.746473,0.999998,0.000188,-0.002375,0.004947,-0.000466,0.004976,-0.002405,-86.371323,0.004977,
930,120,0.124450,-9.733032,0.999998,0.000176,-0.000553,0.003687,0.000538,0.003754,-0.000620,82.882060,0.004025,
910,230,0.287653,-9.297307,0.999998,0.000169,-0.001185,0.004143,0.000353,0.004166,-0.001209,86.225099,0.004287,
670,1660,1.024618,-1.866959,0.999998,0.000172,-0.002490,0.005071,0.000056,0.005071,-0.002490,89.577527,0.005071,
1340,120,-0.035627,-9.767347,0.999998,0.000145,-0.000387,0.003219,-0.000131,0.003224,-0.000392,-87.923488,0.003518,
1740,160,-0.424307,-9.475640,0.999997,0.000223,-0.001800,0.004795,-0.000876,0.004910,-0.001915,-82.563556,0.004949,
1190,650,0.048024,-7.984572,0.999998,0.000156,-0.001258,0.002757,-0.000568,0.002836,-0.001337,-82.105326,0.002837,
1030,950,1.042099,-5.760937,0.999996,0.000222,-0.003274,0.008110,-0.001129,0.008221,-0.003385,-84.390306,0.008263,
940,1990,0.050112,-0.149321,0.999998,0.000145,-0.000266,0.003376,-0.000530,0.003451,-0.000341,-81.890177,0.003804,
590,1530,1.417361,-2.655267,0.999998,0.000175,-0.002647,0.005204,0.000051,0.005204,-0.002647,89.626112,0.005205,
640,270,0.882364,-8.798600,0.999998,0.000173,-0.002366,0.005060,0.000135,0.005062,-0.002368,88.959884,0.005066,
950,550,0.507544,-7.903095,0.999997,0.000208,-0.002490,0.004868,-0.000602,0.004917,-0.002539,-85.350525,0.004918,
1470,960,-1.178548,-5.531656,0.999997,0.000201,-0.002699,0.007234,-0.000176,0.007238,-0.002702,-88.985730,0.007315,
820,670,1.018838,-7.014500,0.999998,0.000161,-0.003026,0.005535,-0.000025,0.005535,-0.003026,-89.833659,0.005543,
1090,1800,0.114988,-0.784418,0.999998,0.000154,-0.000838,0.003604,-0.000058,0.003605,-0.000839,-89.246804,0.003773,
1240,520,-0.011768,-8.402620,0.999998,0.000172,-0.001277,0.003344,0.000106,0.003347,-0.001280,88.690854,0.003378,
1570,450,-0.562053,-8.286195,0.999998,0.000193,-0.002233,0.004782,0.000272,0.004793,-0.002244,87.781930,0.004796,
910,1560,0.562207,-1.981740,0.999998,0.000172,-0.002390,0.004835,0.000386,0.004855,-0.002411,86.953838,0.004855,
1140,400,0.107443,-8.790653,0.999998,0.000149,-0.001279,0.003645,-0.000250,0.003657,-0.001292,-87.101712,0.003710,
830,710,1.056463,-6.806462,0.999998,0.000170,-0.003125,0.005677,0.000095,0.005678,-0.003126,89.380843,0.005688,
1810,500,-1.220055,-7.651539,0.999998,0.000174,-0.002553,0.005131,0.000069,0.005131,-0.002554,89.486399,0.005131,
1110,900,0.644304,-6.890695,0.999997,0.000000,-0.001177,0.003588,-0.002886,0.004948,-0.002537,-64.767668,0.004948,
1140,1390,0.115500,-2.227702,0.999998,0.000167,-0.001666,0.003253,0.001206,0.003533,-0.001946,76.936079,0.003539,
1440,1460,-0.351991,-2.232483,0.999997,0.000205,-0.002399,0.004588,-0.000941,0.004713,-0.002524,-82.460664,0.004717,
1610,210,-0.340058,-9.338662,0.999997,0.000194,-0.001404,0.004307,-0.000492,0.004349,-0.001446,-85.115231,0.004429,
1540,310,-0.364801,-8.965805,0.999997,0.000196,-0.001540,0.004283,-0.000064,0.004284,-0.001541,-89.369062,0.004340,
1620,1210,-1.294509,-4.039950,0.999998,0.000168,-0.002940,0.005740,0.000615,0.005784,-0.002983,85.965733,0.005785,
1820,280,-0.894948,-8.754543,0.999998,0.000161,-0.002406,0.005063,-0.000133,0.005065,-0.002408,-88.983880,0.005067,
1110,180,0.066058,-9.565668,0.999999,0.000141,-0.000576,0.003388,0.000096,0.003390,-0.000579,88.618464,0.003627,
650,1270,1.698406,-3.888881,0.999998,0.000184,-0.002519,0.004992,-0.000372,0.005010,-0.002537,-87.174972,0.005010,
1600,670,-0.888061,-7.091618,0.999998,0.000174,-0.003119,0.005605,0.000163,0.005608,-0.003122,88.931380,0.005620,
790,230,0.473225,-9.200354,0.999998,0.000179,-0.001934,0.004660,0.000451,0.004690,-0.001964,86.105947,0.004711,
1690,1930,-0.269972,-0.419454,0.999997,0.000183,-0.001123,0.004312,0.001038,0.004503,-0.001315,79.542032,0.004631,
960,1150,1.099678,-4.244475,0.999997,0.000227,-0.003135,0.006677,-0.000526,0.006705,-0.003163,-86.942743,0.006709,
1860,1680,-1.159481,-1.877093,0.999998,0.000176,-0.002455,0.004998,-0.000025,0.004998,-0.002455,-89.805752,0.004999,
1040,310,0.198050,-9.062781,0.999998,0.000183,-0.001335,0.003884,-0.000090,0.003886,-0.001336,-89.013983,0.003948,
1090,410,0.173916,-8.716188,0.999998,0.000170,-0.001373,0.003801,-0.000261,0.003814,-0.001386,-87.124033,0.003861,
1780,860,-1.743870,-5.846594,0.999998,0.000184,-0.002424,0.004974,-0.000445,0.005000,-0.002451,-86.573381,0.005001,
700,1400,1.337168,-3.158946,0.999997,0.000197,-0.002721,0.005231,-0.000171,0.005234,-0.002725,-88.766880,0.005236,
1480,1520,-0.419309,-2.040880,0.999998,0.000181,-0.002339,0.004637,-0.000665,0.004700,-0.002402,-84.604821,0.004701,
610,1810,0.899827,-1.212942,0.999998,0.000160,-0.002399,0.004975,-0.000093,0.004976,-0.002400,-89.275508,0.004977,
610,840,1.885549,-5.884733,0.999997,0.000201,-0.002311,0.004689,0.000257,0.004698,-0.002321,87.902263,0.004699,
860,1580,0.664661,-1.967705,0.999997,0.000196,-0.002441,0.004949,0.000271,0.004959,-0.002451,87.906388,0.004959,
1380,1310,-0.257693,-2.730236,0.999997,0.000201,-0.002899,0.004524,-0.001906,0.004985,-0.003360,-76.408034,0.005084,
1460,1490,-0.386209,-2.139115,0.999997,0.000207,-0.002357,0.004608,-0.000815,0.004702,-0.002451,-83.411521,0.004704,
740,1740,0.730093,-1.351519,0.999998,0.000183,-0.002219,0.004955,-0.000147,0.004958,-0.002222,-88.826643,0.004967,
840,130,0.208632,-9.669813,0.999998,0.000174,-0.000827,0.003997,0.000796,0.004125,-0.000955,80.863915,0.004319,
1790,1180,-1.791189,-4.314046,0.999998,0.000163,-0.002381,0.004890,0.000467,0.004919,-0.002411,86.339845,0.004920,
1400,60,-0.018955,-9.953782,0.999999,0.000130,-0.000194,0.003123,-0.000231,0.003139,-0.000210,-86.036647,0.003510,
1740,140,-0.367618,-9.569798,0.999997,0.000225,-0.001667,0.004661,-0.001014,0.004820,-0.001826,-81.115793,0.004867,
1340,1460,-0.146446,-2.020643,0.999998,0.000173,-0.001710,0.003615,-0.000891,0.003760,-0.001855,-80.753250,0.003761,
1190,630,0.048431,-8.040748,0.999998,0.000171,-0.001268,0.002917,-0.000468,0.002968,-0.001320,-83.699138,0.002974,
1510,660,-0.591013,-7.344215,0.999997,0.000209,-0.003103,0.005416,0.000750,0.005482,-0.003168,85.008566,0.005504,
1040,120,0.067954,-9.755386,0.999998,0.000168,-0.000494,0.003369,0.000287,0.003390,-0.000515,85.767483,0.003654,
820,70,0.099725,-9.899497,0.999998,0.000153,-0.000394,0.003748,0.000963,0.003960,-0.000607,77.535355,0.004266,
1240,500,-0.009282,-8.467438,0.999998,0.000166,-0.001260,0.003411,0.000086,0.003413,-0.001261,88.945653,0.003451,
1570,430,-0.543383,-8.382406,0.999997,0.000200,-0.002181,0.004748,0.000248,0.004756,-0.002189,87.949123,0.004761,
920,1990,0.055349,-0.152413,0.999999,0.000135,-0.000194,0.003419,-0.000582,0.003511,-0.000285,-81.069339,0.003900,
770,1540,0.939950,-2.315671,0.999998,0.000177,-0.002596,0.005176,0.000150,0.005179,-0.002599,88.895420,0.005179,
1730,780,-1.474138,-6.297499,0.999997,0.000233,-0.002730,0.005332,-0.000460,0.005359,-0.002756,-86.744597,0.005359,
950,530,0.495657,-7.997847,0.999997,0.000205,-0.002423,0.004772,-0.000552,0.004814,-0.002465,-85.635956,0.004814,
1440,1440,-0.360095,-2.328400,0.999997,0.000205,-0.002525,0.004657,-0.001047,0.004806,-0.002675,-81.869595,0.004817,
1890,1720,-1.164792,-1.733922,0.999998,0.000161,-0.002411,0.004885,-0.000024,0.004885,-0.002411,-89.808555,0.004885,
1140,380,0.102529,-8.863907,0.999999,0.000141,-0.001244,0.003677,-0.000215,0.003686,-0.001253,-87.507181,0.003749,
1420,1390,-0.329719,-2.508783,0.999997,0.000202,-0.002669,0.004709,-0.001319,0.004938,-0.002898,-80.164317,0.004963,
1860,210,-0.830661,-9.024746,0.999998,0.000150,-0.002445,0.005009,-0.000198,0.005014,-0.002450,-88.481475,0.005015,
1840,1450,-1.455966,-3.013303,0.999998,0.000192,-0.002546,0.005093,0.000072,0.005094,-0.002547,89.461636,0.005094,
1420,250,-0.156216,-9.292282,0.999998,0.000185,-0.001080,0.003752,-0.000056,0.003753,-0.001081,-89.336510,0.003864,
1600,1600,-0.635373,-1.862042,0.999999,0.000180,-0.002368,0.004886,-0.000256,0.004895,-0.002377,-87.982991,0.004896,
830,670,0.989208,-7.032193,0.999998,0.000164,-0.003039,0.005553,-0.000069,0.005554,-0.003040,-89.541787,0.005562,
780,1910,0.305055,-0.500113,0.999997,0.000197,-0.001386,0.004401,-0.000884,0.004533,-0.001518,-81.506443,0.004614,
910,1540,0.579213,-2.078911,0.999997,0.000226,-0.002492,0.004892,0.000455,0.004920,-0.002520,86.489869,0.004921,
640,310,0.960657,-8.596053,0.999998,0.000188,-0.002415,0.005065,0.000045,0.005065,-0.002415,89.652118,0.005067,
1090,390,0.168395,-8.790164,0.999998,0.000150,-0.001277,0.003811,-0.000191,0.003818,-0.001284,-87.858328,0.003886,
650,1250,1.733653,-3.988111,0.999998,0.000184,-0.002462,0.004926,-0.000385,0.004946,-0.002482,-87.022617,0.004946,
1480,1500,-0.429964,-2.137458,0.999997,0.000200,-0.002449,0.004719,-0.000739,0.004795,-0.002524,-84.174885,0.004797,
1110,30,0.005018,-10.047252,0.999999,0.000000,-0.000035,0.003002,0.000139,0.003008,-0.000041,87.385174,0.003450,
1660,1330,-1.166820,-3.398394,0.999998,0.000168,-0.003060,0.005630,0.000226,0.005636,-0.003066,88.513184,0.005643,
740,1720,0.761571,-1.450144,0.999998,0.000170,-0.002304,0.005005,-0.000083,0.005006,-0.002305,-89.349586,0.005011,
950,180,0.182602,-9.516906,0.999998,0.000193,-0.000981,0.003822,0.000361,0.003849,-0.001008,85.722300,0.003992,
590,860,1.962298,-5.768785,0.999998,0.000150,-0.002216,0.004542,0.000162,0.004546,-0.002220,88.625816,0.004546,
1780,840,-1.713812,-5.948063,0.999997,0.000192,-0.002453,0.004947,-0.000450,0.004974,-0.002480,-86.534177,0.004974,
1810,1690,-1.020445,-1.741549,0.999998,0.000147,-0.002481,0.005042,-0.000014,0.005042,-0.002481,-89.895134,0.005042,
860,1560,0.685138,-2.065592,0.999998,0.000189,-0.002485,0.005001,0.000301,0.005013,-0.002497,87.701521,0.005013,
1190,610,0.050891,-8.099753,0.999998,0.000158,-0.001293,0.003044,-0.000400,0.003081,-0.001329,-84.779477,0.003091,
1460,1470,-0.397186,-2.234982,0.999997,0.000225,-0.002473,0.004711,-0.000880,0.004817,-0.002579,-83.120373,0.004821,
690,1590,1.074995,-2.189895,0.999998,0.000187,-0.002513,0.005088,0.000083,0.005088,-0.002513,89.374054,0.005089,
1560,1990,-0.060018,-0.153143,0.999998,0.000159,-0.000285,0.003456,0.000631,0.003560,-0.000388,80.680584,0.003906,
1390,1990,-0.021047,-0.141004,0.999998,0.000154,-0.000142,0.003150,0.000238,0.003167,-0.000159,85.884932,0.003568,
1530,120,-0.123063,-9.734489,0.999999,0.000139,-0.000592,0.003669,-0.000540,0.003736,-0.000659,-82.891937,0.003988,
1740,120,-0.305511,-9.661144,0.999997,0.000205,-0.001478,0.004581,-0.001143,0.004789,-0.001687,-79.666563,0.004858,
610,1770,0.985010,-1.415095,0.999998,0.000175,-0.002435,0.004951,-0.000016,0.004951,-0.002435,-89.873260,0.004951,
1730,760,-1.436978,-6.406419,0.999998,0.000210,-0.002764,0.005369,-0.000418,0.005391,-0.002786,-87.068776,0.005392,
1240,1320,-0.009842,-2.258986,0.999998,0.000148,-0.000979,0.001721,-0.000200,0.001735,-0.000994,-85.795623,0.001741,
1570,410,-0.523214,-8.477786,0.999997,0.000223,-0.002134,0.004710,0.000216,0.004716,-0.002141,88.195520,0.004723,
1340,1420,-0.148682,-2.167111,0.999998,0.000151,-0.001801,0.003528,-0.001156,0.003768,-0.002041,-78.269906,0.003772,
1210,1320,0.020934,-2.271577,0.999998,0.000152,-0.001036,0.001799,0.000532,0.001896,-0.001133,79.707517,0.001908,
950,510,0.482494,-8.093316,0.999998,0.000206,-0.002368,0.004733,-0.000534,0.004773,-0.002408,-85.720689,0.004773,
1060,1350,0.301594,-2.639613,0.999998,0.000171,-0.002847,0.004713,0.001571,0.005026,-0.003161,78.716996,0.005081,
1820,1450,-1.404552,-2.984043,0.999997,0.000193,-0.002587,0.005111,0.000051,0.005112,-0.002587,89.621384,0.005112,
1880,1720,-1.140701,-1.716925,0.999998,0.000142,-0.002418,0.004910,-0.000055,0.004910,-0.002419,-89.570229,0.004910,
700,450,1.030560,-7.983466,0.999998,0.000158,-0.002488,0.005058,-0.000082,0.005059,-0.002489,-89.377144,0.005059,
1040,80,0.041118,-9.888340,0.999998,0.000158,-0.000299,0.003243,0.000288,0.003267,-0.000322,85.375433,0.003600,
1440,1420,-0.369997,-2.423246,0.999997,0.000204,-0.002648,0.004693,-0.001116,0.004859,-0.002814,-81.541204,0.004879,
1470,1400,-0.465569,-2.603739,0.999996,0.000231,-0.002941,0.005164,-0.001014,0.005289,-0.003066,-82.972996,0.005312,
1140,360,0.097258,-8.938372,0.999998,0.000150,-0.001184,0.003650,-0.000176,0.003656,-0.001190,-87.922049,0.003730,
1090,370,0.161815,-8.868570,0.999998,0.000156,-0.001224,0.003828,-0.000146,0.003832,-0.001228,-88.350379,0.003914,
1480,1700,-0.305441,-1.243782,0.999998,0.000162,-0.001582,0.004174,-0.000162,0.004178,-0.001586,-88.393375,0.004218,
1860,190,-0.777607,-9.123798,0.999998,0.000165,-0.002455,0.005058,-0.000278,0.005068,-0.002465,-87.881486,0.005069,
1100,2020,0.007952,-0.049119,0.999999,0.000000,-0.000011,0.003005,-0.000157,0.003013,-0.000020,-87.023865,0.003468,
1860,1660,-1.191573,-1.977375,0.999998,0.000165,-0.002485,0.005000,-0.000056,0.005000,-0.002486,-89.571394,0.005000,
1540,370,-0.426005,-8.700759,0.999998,0.000185,-0.001765,0.004429,0.000067,0.004430,-0.001765,89.381600,0.004460,
1600,1580,-0.657342,-1.962456,0.999998,0.000194,-0.002432,0.004936,-0.000289,0.004947,-0.002443,-87.760690,0.004947,
790,1780,0.555619,-1.091570,0.999997,0.000182,-0.002100,0.004783,-0.000248,0.004791,-0.002109,-87.937110,0.004803,
590,850,1.946879,-5.815361,0.999999,0.000129,-0.002237,0.004617,0.000174,0.004621,-0.002241,88.548519,0.004622,
830,650,0.959543,-7.144787,0.999998,0.000167,-0.002987,0.005536,-0.000127,0.005538,-0.002989,-89.143835,0.005543,
840,570,0.820980,-7.595383,0.999997,0.000182,-0.002774,0.005272,-0.000265,0.005280,-0.002782,-88.117328,0.005283,
650,1230,1.767910,-4.087830,0.999997,0.000191,-0.002391,0.004859,-0.000365,0.004877,-0.002410,-87.125781,0.004877,
1150,1540,0.106969,-1.702572,0.999998,0.000170,-0.001436,0.003573,0.000488,0.003620,-0.001483,84.485693,0.003640,
1680,1330,-1.226796,-3.426762,0.999998,0.000173,-0.002935,0.005554,0.000288,0.005564,-0.002945,88.059818,0.005567,
920,870,1.119983,-5.986997,0.999998,0.000156,-0.003226,0.006304,0.000589,0.006341,-0.003263,86.478953,0.006341,
860,1540,0.705639,-2.167399,0.999997,0.000189,-0.002569,0.005061,0.000316,0.005075,-0.002582,87.631408,0.005075,
1810,1670,-1.050813,-1.843715,0.999998,0.000146,-0.002468,0.005078,-0.000048,0.005078,-0.002469,-89.632905,0.005079,
1440,1490,-0.342049,-2.100425,0.999998,0.000191,-0.002222,0.004443,-0.000811,0.004541,-0.002319,-83.164621,0.004541,
710,640,1.284205,-7.013485,0.999998,0.000180,-0.002729,0.005232,0.000109,0.005234,-0.002730,89.218075,0.005235,
820,1350,1.078035,-3.259933,0.999998,0.000194,-0.003094,0.005685,-0.000107,0.005686,-0.003096,-89.302090,0.005694,
1780,820,-1.678268,-6.045574,0.999997,0.000186,-0.002503,0.005015,-0.000470,0.005045,-0.002532,-86.435129,0.005045,
740,1700,0.791820,-1.551235,0.999997,0.000190,-0.002358,0.004997,-0.000040,0.004997,-0.002358,-89.688706,0.005000,
1390,1970,-0.033327,-0.203080,0.999998,0.000169,-0.000223,0.003194,0.000244,0.003211,-0.000240,85.942323,0.003577,
1540,1990,-0.054455,-0.150425,0.999998,0.000168,-0.000207,0.003408,0.000574,0.003497,-0.000296,81.190808,0.003878,
1690,1910,-0.313440,-0.504425,0.999998,0.000180,-0.001350,0.004405,0.000925,0.004550,-0.001495,81.092009,0.004638,
790,210,0.434479,-9.292848,0.999998,0.000184,-0.001811,0.004607,0.000551,0.004654,-0.001858,85.130182,0.004685,
700,1150,1.770725,-4.446154,0.999997,0.000204,-0.002357,0.004934,-0.000404,0.004957,-0.002380,-86.836263,0.004958,
610,1230,1.860766,-4.124551,0.999998,0.000159,-0.002339,0.004682,-0.000243,0.004691,-0.002347,-88.023810,0.004691,
1020,310,0.224353,-9.047454,0.999998,0.000170,-0.001299,0.003935,-0.000047,0.003936,-0.001300,-89.481835,0.004011,
1190,590,0.051335,-8.161787,0.999999,0.000139,-0.001300,0.003129,-0.000335,0.003154,-0.001325,-85.697401,0.003168,
1240,1340,-0.008045,-2.222629,0.999998,0.000141,-0.000976,0.001963,-0.000191,0.001975,-0.000988,-86.294219,0.001975,
1570,390,-0.504239,-8.571283,0.999997,0.000207,-0.002099,0.004669,0.000164,0.004673,-0.002103,88.611649,0.004681,
1500,1490,-0.486600,-2.224541,0.999997,0.000204,-0.002514,0.004847,-0.000681,0.004910,-0.002576,-84.761582,0.004912,
850,980,1.525829,-5.289707,0.999996,0.000233,-0.002025,0.005309,0.000407,0.005331,-0.002048,86.830134,0.005379,
950,490,0.467082,-8.187571,0.999998,0.000205,-0.002288,0.004682,-0.000500,0.004717,-0.002323,-85.919819,0.004717,
1340,560,-0.146960,-8.185712,0.999998,0.000153,-0.001589,0.003626,0.000692,0.003717,-0.001680,82.564597,0.003722,
700,660,1.346394,-6.894826,0.999998,0.000196,-0.002707,0.005244,0.000157,0.005247,-0.002710,88.871608,0.005248,
1440,1400,-0.378060,-2.517109,0.999997,0.000224,-0.002786,0.004865,-0.001177,0.005042,-0.002963,-81.452281,0.005068,
1630,120,-0.194421,-9.707574,0.999998,0.000188,-0.000756,0.003986,-0.000856,0.004136,-0.000906,-80.074022,0.004348,
1140,340,0.094738,-9.010214,0.999998,0.000155,-0.001135,0.003612,-0.000130,0.003615,-0.001139,-88.432030,0.003697,
1470,1380,-0.480862,-2.710156,0.999997,0.000205,-0.003099,0.005289,-0.001042,0.005416,-0.003226,-83.022623,0.005449,
1090,350,0.155251,-8.943403,0.999998,0.000168,-0.001143,0.003743,-0.000127,0.003746,-0.001146,-88.517771,0.003839,
1470,1890,-0.129954,-0.492091,0.999998,0.000164,-0.000635,0.003637,0.000333,0.003663,-0.000661,85.566682,0.003905,
1190,1460,0.050579,-1.935401,0.999998,0.000167,-0.001298,0.003123,0.000351,0.003150,-0.001326,85.485745,0.003164,
1040,1350,0.357860,-2.711159,0.999997,0.000183,-0.003016,0.005021,0.001432,0.005269,-0.003264,80.193127,0.005319,
700,430,1.002022,-8.085158,0.999998,0.000145,-0.002466,0.005062,-0.000080,0.005063,-0.002467,-89.388881,0.005063,
1740,100,-0.245600,-9.752383,0.999998,0.000191,-0.001331,0.004320,-0.001154,0.004547,-0.001557,-78.894265,0.004621,
750,820,1.504941,-6.099672,0.999997,0.000211,-0.002692,0.005297,0.000539,0.005333,-0.002728,86.157141,0.005333,
1360,1350,-0.191482,-2.481506,0.999998,0.000199,-0.002304,0.003905,-0.001689,0.004335,-0.002733,-75.723073,0.004384,
1490,1700,-0.323260,-1.256877,0.999998,0.000163,-0.001693,0.004218,-0.000187,0.004224,-0.001699,-88.186080,0.004251,
880,350,0.485713,-8.738689,0.999997,0.000183,-0.002049,0.004599,-0.000071,0.004600,-0.002049,-89.390825,0.004609,
590,840,1.931069,-5.860906,0.999999,0.000131,-0.002253,0.004642,0.000167,0.004646,-0.002257,88.613786,0.004647,
790,1760,0.589699,-1.188723,0.999997,0.000195,-0.002161,0.004789,-0.000173,0.004793,-0.002166,-88.576262,0.004800,
1670,1460,-0.985271,-2.699073,0.999998,0.000154,-0.002787,0.005312,-0.000117,0.005313,-0.002789,-89.175912,0.005316,
1600,1560,-0.678280,-2.060346,0.999998,0.000196,-0.002471,0.004997,-0.000315,0.005010,-0.002484,-87.588084,0.005011,
930,180,0.201535,-9.507073,0.999998,0.000169,-0.000902,0.003884,0.000437,0.003924,-0.000941,84.829064,0.004097,
830,630,0.928874,-7.252822,0.999998,0.000156,-0.002936,0.005418,-0.000151,0.005421,-0.002938,-88.961523,0.005427,
1100,1730,0.134484,-1.037500,0.999998,0.000185,-0.001110,0.003730,0.000073,0.003731,-0.001111,89.133369,0.003832,
740,1680,0.823933,-1.651051,0.999997,0.000211,-0.002385,0.005007,0.000004,0.005007,-0.002385,89.969112,0.005009,
1030,1490,0.327528,-2.086433,0.999997,0.000186,-0.002205,0.004396,0.000842,0.004502,-0.002311,82.844098,0.004502,
1810,1650,-1.082134,-1.944831,0.999998,0.000167,-0.002501,0.005071,-0.000066,0.005071,-0.002501,-89.500120,0.005071,
1760,1290,-1.526318,-3.734060,0.999997,0.000215,-0.002671,0.005215,0.000406,0.005236,-0.002692,87.057413,0.005237,
1780,800,-1.641317,-6.147567,0.999998,0.000170,-0.002537,0.005093,-0.000442,0.005118,-0.002562,-86.692516,0.005118,
1390,1950,-0.042888,-0.269147,0.999998,0.000160,-0.000285,0.003247,0.000237,0.003263,-0.000301,86.182028,0.003607,
1080,1990,0.020284,-0.140354,0.999999,0.000146,-0.000126,0.003129,-0.000221,0.003144,-0.000141,-86.129057,0.003552,
860,1520,0.726923,-2.268802,0.999997,0.000185,-0.002669,0.005116,0.000312,0.005128,-0.002682,87.708920,0.005130,
710,620,1.252252,-7.118188,0.999997,0.000182,-0.002704,0.005225,0.000071,0.005226,-0.002705,89.487056,0.005227,
1100,1150,0.681539,-3.325999,0.999995,0.000000,-0.001382,0.004113,0.003224,0.005601,-0.002870,65.218934,0.005602,
1690,1890,-0.365648,-0.596426,0.999998,0.000184,-0.001488,0.004517,0.000862,0.004638,-0.001609,81.994686,0.004710,
1240,1360,-0.008134,-2.182361,0.999998,0.000158,-0.001016,0.002178,-0.000193,0.002190,-0.001027,-86.551480,0.002191,
1570,590,-0.696971,-7.585823,0.999997,0.000199,-0.002824,0.005264,0.000473,0.005292,-0.002851,86.665287,0.005297,
1190,790,0.056026,-7.685224,0.999998,0.000206,-0.001511,0.001494,-0.001155,0.001887,-0.001903,-71.224923,0.002188,
1730,740,-1.398144,-6.512794,0.999998,0.000204,-0.002792,0.005341,-0.000369,0.005357,-0.002809,-87.404041,0.005359,
650,1650,1.089708,-1.948611,0.999998,0.000182,-0.002466,0.005043,0.000066,0.005043,-0.002467,89.497923,0.005044,
610,1210,1.892651,-4.218427,0.999998,0.000157,-0.002325,0.004712,-0.000282,0.004723,-0.002337,-87.710992,0.004723,
1340,540,-0.147140,-8.256596,0.999998,0.000149,-0.001527,0.003699,0.000603,0.003767,-0.001596,83.499644,0.003782,
950,470,0.452096,-8.283366,0.999998,0.000188,-0.002151,0.004658,-0.000418,0.004684,-0.002177,-86.501649,0.004688,
1440,1380,-0.389853,-2.615057,0.999996,0.000219,-0.002913,0.005010,-0.001233,0.005197,-0.003100,-81.358577,0.005229,
800,1350,1.139460,-3.289207,0.999998,0.000201,-0.002997,0.005603,-0.000164,0.005606,-0.003000,-88.911212,0.005611,
1450,1380,-0.419672,-2.646981,0.999996,0.000209,-0.002998,0.005116,-0.001198,0.005289,-0.003172,-81.771809,0.005324,
1140,320,0.088449,-9.083471,0.999998,0.000148,-0.001074,0.003633,-0.000087,0.003634,-0.001075,-88.936903,0.003734,
1210,1420,0.024984,-2.040678,0.999999,0.000123,-0.001177,0.002793,0.000301,0.002815,-0.001200,85.688656,0.002825,
600,1410,1.578803,-3.253217,0.999997,0.000209,-0.002506,0.005068,-0.000085,0.005069,-0.002507,-89.358031,0.005069,
790,190,0.393224,-9.385823,0.999998,0.000177,-0.001716,0.004549,0.000652,0.004616,-0.001783,84.123547,0.004656,
1860,1640,-1.221067,-2.077494,0.999998,0.000187,-0.002481,0.004989,-0.000062,0.004989,-0.002481,-89.523789,0.004989,
1480,960,-1.204603,-5.508089,0.999997,0.000213,-0.002566,0.006966,-0.000365,0.006979,-0.002580,-87.812767,0.007058,
730,820,1.556558,-6.084093,0.999998,0.000203,-0.002643,0.005248,0.000552,0.005286,-0.002681,86.020447,0.005286,
1090,330,0.147146,-9.017733,0.999998,0.000156,-0.001093,0.003764,-0.000070,0.003765,-0.001094,-89.178665,0.003874,
620,50,0.186062,-9.903227,0.999998,0.000162,-0.002010,0.004822,0.001513,0.005142,-0.002330,78.058913,0.005150,
1840,1570,-1.274467,-2.399112,0.999998,0.000188,-0.002546,0.005091,-0.000078,0.005091,-0.002546,-89.415859,0.005091,
780,2010,0.066035,-0.096259,0.999998,0.000150,-0.000454,0.003627,-0.000998,0.003858,-0.000685,-76.966576,0.004116,
1610,120,-0.179516,-9.712932,0.999998,0.000163,-0.000789,0.003904,-0.000777,0.004030,-0.000914,-80.840422,0.004225,
830,610,0.901002,-7.359243,0.999998,0.000162,-0.002883,0.005395,-0.000191,0.005399,-0.002888,-88.675947,0.005403,
1850,860,-1.908482,-5.793118,0.999998,0.000174,-0.002300,0.004722,-0.000296,0.004734,-0.002313,-87.592805,0.004734,
1870,1720,-1.116726,-1.696906,0.999998,0.000143,-0.002432,0.004937,-0.000075,0.004938,-0.002432,-89.417865,0.004938,
1900,1790,-1.060443,-1.412248,0.999997,0.000000,-0.002463,0.004826,0.000022,0.004826,-0.002463,89.824775,0.004827,
1750,2000,-0.118989,-0.144086,0.999998,0.000168,-0.000798,0.004179,0.001481,0.004586,-0.001206,74.619533,0.004755,
1740,1650,-0.908921,-1.830609,0.999998,0.000202,-0.002449,0.005080,-0.000095,0.005082,-0.002450,-89.277885,0.005083,
670,820,1.712494,-6.033395,0.999998,0.000173,-0.002451,0.004963,0.000415,0.004987,-0.002474,86.808062,0.004987,
1340,830,-0.267419,-7.230005,0.999997,0.000243,-0.002640,0.003454,0.002147,0.004134,-0.003320,72.414230,0.004380,
1390,1930,-0.054345,-0.335268,0.999998,0.000141,-0.000378,0.003320,0.000217,0.003333,-0.000391,86.654904,0.003644,
1600,1540,-0.697614,-2.161452,0.999998,0.000213,-0.002531,0.005038,-0.000316,0.005051,-0.002544,-87.611821,0.005051,
1210,1400,0.023152,-2.096397,0.999999,0.000139,-0.001148,0.002606,0.000326,0.002634,-0.001176,85.074161,0.002639,
740,1660,0.855212,-1.751970,0.999998,0.000181,-0.002411,0.005092,0.000044,0.005092,-0.002411,89.663045,0.005094,
1730,1840,-0.547133,-0.862751,0.999998,0.000158,-0.001945,0.004885,0.000636,0.004943,-0.002003,84.726676,0.004973,
1470,180,-0.144023,-9.534288,0.999998,0.000153,-0.000710,0.003690,-0.000327,0.003715,-0.000734,-85.773035,0.003935,
1780,780,-1.605613,-6.249671,0.999998,0.000187,-0.002552,0.005091,-0.000413,0.005114,-0.002574,-86.915793,0.005114,
760,1470,1.062760,-2.700105,0.999997,0.000215,-0.002737,0.005268,0.000068,0.005268,-0.002738,89.511807,0.005270,
1810,1630,-1.111108,-2.046773,0.999998,0.000166,-0.002528,0.005056,-0.000055,0.005056,-0.002528,-89.582296,0.005056,
1520,1920,-0.134038,-0.397606,0.999998,0.000166,-0.000693,0.003667,0.000465,0.003716,-0.000742,83.983926,0.003934,
1480,330,-0.288134,-8.938203,0.999998,0.000153,-0.001460,0.004146,0.000063,0.004147,-0.001461,89.353936,0.004207,
1440,1360,-0.402930,-2.719659,0.999997,0.000215,-0.003082,0.005155,-0.001273,0.005347,-0.003275,-81.410891,0.005392,
660,730,1.574523,-6.480286,0.999996,0.000218,-0.002566,0.005115,0.000291,0.005126,-0.002577,87.836968,0.005126,
1060,1990,0.023160,-0.140633,0.999999,0.000127,-0.000216,0.003146,-0.000254,0.003165,-0.000235,-85.700209,0.003526,
1340,520,-0.146483,-8.332570,0.999998,0.000142,-0.001477,0.003717,0.000519,0.003768,-0.001528,84.345891,0.003790,
1110,440,0.154052,-8.617455,0.999998,0.000206,-0.001366,0.003786,-0.000314,0.003805,-0.001385,-86.527873,0.003851,
1020,70,0.037210,-9.919512,0.999998,0.000169,-0.000219,0.003264,0.000358,0.003300,-0.000255,84.184519,0.003672,
1410,1220,-0.515375,-3.371034,0.999997,0.000197,-0.003811,0.006023,-0.001470,0.006237,-0.004026,-81.679834,0.006325,
990,830,0.750997,-6.435726,0.999997,0.000210,-0.003902,0.006654,-0.000430,0.006671,-0.003919,-87.673032,0.006705,
1100,1140,0.727498,-3.367933,0.999993,0.000000,-0.001529,0.004614,0.003760,0.006398,-0.003313,64.618799,0.006399,
580,390,1.239207,-8.088594,0.999998,0.000167,-0.001660,0.004954,-0.000124,0.004957,-0.001663,-88.926998,0.005045,
1720,110,-0.254642,-9.717061,0.999998,0.000167,-0.000922,0.004357,-0.001231,0.004630,-0.001195,-77.502200,0.004808,
1690,1870,-0.408706,-0.684903,0.999997,0.000191,-0.001609,0.004628,0.000731,0.004713,-0.001693,83.406161,0.004774,
1710,740,-1.341657,-6.535521,0.999997,0.000203,-0.002874,0.005421,-0.000389,0.005439,-0.002892,-87.323688,0.005443,
1180,580,0.065357,-8.187580,0.999999,0.000132,-0.001357,0.003227,-0.000422,0.003265,-0.001395,-84.787725,0.003277,
1820,1570,-1.223210,-2.366553,0.999998,0.000187,-0.002515,0.005103,-0.000067,0.005104,-0.002516,-89.495101,0.005104,
1650,1530,-0.840066,-2.297093,0.999998,0.000168,-0.002631,0.005160,-0.000221,0.005166,-0.002637,-88.373122,0.005166,
790,170,0.348432,-9.473634,0.999998,0.000182,-0.001585,0.004428,0.000740,0.004518,-0.001675,83.086801,0.004568,
1560,760,-0.910354,-6.642307,0.999998,0.000184,-0.003468,0.006090,0.000037,0.006090,-0.003468,89.780114,0.006110,
860,1350,0.952128,-3.192879,0.999998,0.000178,-0.003202,0.005758,0.000045,0.005758,-0.003202,89.714597,0.005770,
1140,300,0.082907,-9.155380,0.999999,0.000127,-0.001027,0.003553,-0.000080,0.003554,-0.001028,-89.003325,0.003658,
1240,1380,-0.009562,-2.137005,0.999998,0.000158,-0.001046,0.002378,-0.000175,0.002387,-0.001055,-87.074157,0.002392,
1090,310,0.140259,-9.094139,0.999998,0.000156,-0.001021,0.003725,-0.000029,0.003725,-0.001021,-89.649243,0.003850,
730,800,1.519124,-6.189290,0.999998,0.000207,-0.002670,0.005251,0.000523,0.005285,-0.002705,86.239147,0.005286,
610,1190,1.925419,-4.314215,0.999998,0.000182,-0.002265,0.004683,-0.000269,0.004693,-0.002275,-87.782790,0.004694,
1870,1780,-1.006794,-1.400314,0.999998,0.000208,-0.002427,0.004929,0.000019,0.004929,-0.002427,89.853298,0.004930,
650,1670,1.060080,-1.847845,0.999998,0.000172,-0.002461,0.005041,0.000054,0.005042,-0.002461,89.590045,0.005042,
1600,1520,-0.719963,-2.263278,0.999997,0.000211,-0.002638,0.005145,-0.000330,0.005159,-0.002652,-87.574839,0.005160,
1390,1910,-0.065725,-0.400784,0.999998,0.000133,-0.000447,0.003419,0.000212,0.003431,-0.000459,86.869200,0.003725,
1320,830,-0.217568,-7.372172,0.999997,0.000205,-0.002293,0.002599,0.001839,0.003214,-0.002907,71.530412,0.003547,
830,590,0.875541,-7.469719,0.999998,0.000165,-0.002844,0.005373,-0.000214,0.005379,-0.002850,-88.507957,0.005382,
650,1660,1.074634,-1.898082,0.999998,0.000187,-0.002458,0.005041,0.000063,0.005041,-0.002459,89.521085,0.005042,
1470,120,-0.086368,-9.749066,0.999998,0.000153,-0.000448,0.003489,-0.000392,0.003528,-0.000486,-84.374357,0.003824,
620,40,0.142498,-9.948342,0.999997,0.000206,-0.001825,0.004649,0.001615,0.005030,-0.002205,76.741495,0.005042,
1650,1760,-0.541185,-1.159548,0.999998,0.000191,-0.001936,0.004707,0.000218,0.004714,-0.001943,88.125824,0.004739,
1480,920,-1.078129,-5.790256,0.999997,0.000189,-0.003133,0.006953,-0.000275,0.006960,-0.003140,-88.437234,0.006972,
1740,80,-0.186298,-9.835917,0.999998,0.000169,-0.001062,0.004173,-0.001267,0.004464,-0.001353,-77.081747,0.004577,
1780,760,-1.568631,-6.352215,0.999998,0.000196,-0.002598,0.005118,-0.000369,0.005135,-0.002616,-87.265353,0.005136,
1610,400,-0.598862,-8.469561,0.999998,0.000169,-0.002171,0.004774,0.000120,0.004776,-0.002173,89.009077,0.004782,
1530,190,-0.210951,-9.470716,0.999998,0.000166,-0.000948,0.003910,-0.000408,0.003944,-0.000982,-85.228329,0.004106,
1440,1340,-0.421494,-2.824553,0.999998,0.000187,-0.003236,0.005259,-0.001308,0.005456,-0.003433,-81.441776,0.005516,
1480,370,-0.317854,-8.771291,0.999998,0.000187,-0.001637,0.004232,0.000193,0.004238,-0.001643,88.118205,0.004274,
1810,1610,-1.140562,-2.148606,0.999998,0.000162,-0.002543,0.005062,-0.000068,0.005063,-0.002543,-89.486060,0.005063,
1460,1990,-0.034617,-0.143642,0.999998,0.000163,-0.000149,0.003263,0.000386,0.003306,-0.000192,83.627641,0.003712,
740,1640,0.881090,-1.856670,0.999998,0.000183,-0.002458,0.005055,0.000086,0.005056,-0.002459,89.345947,0.005057,
1340,500,-0.144091,-8.405333,0.999998,0.000143,-0.001447,0.003663,0.000462,0.003705,-0.001489,84.874517,0.003728,
770,1480,1.020754,-2.631310,0.999997,0.000209,-0.002728,0.005251,0.000101,0.005252,-0.002729,89.277781,0.005254,
1290,180,-0.030852,-9.576121,0.999998,0.000142,-0.000464,0.003328,-0.000056,0.003329,-0.000465,-89.161271,0.003606,
1270,1300,-0.041933,-2.332203,0.999999,0.000145,-0.001205,0.001771,-0.001021,0.002088,-0.001521,-72.775753,0.002160,
1060,950,0.937027,-5.987747,0.999995,0.000272,-0.003220,0.008917,-0.003355,0.009783,-0.004085,-75.529795,0.009827,
1100,920,0.756797,-6.675516,0.999994,0.000000,-0.001015,0.004993,-0.003735,0.006782,-0.002804,-64.403102,0.006816,
990,810,0.695721,-6.568929,0.999997,0.000227,-0.003894,0.006461,-0.000576,0.006493,-0.003926,-86.825152,0.006540,
880,690,0.863235,-7.010453,0.999998,0.000157,-0.003231,0.005705,-0.000196,0.005709,-0.003235,-88.743190,0.005726,
720,730,1.415182,-6.551416,0.999997,0.000219,-0.002768,0.005280,0.000345,0.005295,-0.002783,87.549119,0.005297,
1690,1850,-0.454990,-0.783323,0.999997,0.000190,-0.001740,0.004721,0.000637,0.004784,-0.001802,84.420321,0.004832,
640,730,1.625752,-6.453630,0.999997,0.000180,-0.002527,0.005014,0.000253,0.005023,-0.002536,88.080538,0.005023,
1030,1470,0.332243,-2.174770,0.999998,0.000182,-0.002288,0.004477,0.000914,0.004599,-0.002409,82.436960,0.004601,
910,250,0.313657,-9.211910,0.999998,0.000167,-0.001281,0.004244,0.000311,0.004261,-0.001299,86.793607,0.004368,
790,150,0.304667,-9.564677,0.999997,0.000184,-0.001465,0.004398,0.000826,0.004512,-0.001580,82.130125,0.004580,
1140,280,0.078999,-9.224969,0.999998,0.000158,-0.000955,0.003563,-0.000040,0.003564,-0.000955,-89.496534,0.003689,
1070,600,0.247873,-7.930826,0.999998,0.000156,-0.002138,0.004129,-0.001074,0.004308,-0.002317,-80.538282,0.004312,
1720,90,-0.200233,-9.800606,0.999998,0.000171,-0.000758,0.004102,-0.001229,0.004395,-0.001051,-76.581690,0.004591,
920,1350,0.754855,-3.068797,0.999998,0.000197,-0.003385,0.005779,0.000393,0.005796,-0.003402,87.548122,0.005825,
1240,1820,-0.006852,-0.684514,0.999998,0.000145,-0.000732,0.003409,-0.000018,0.003409,-0.000732,-89.748275,0.003589,
1590,1580,-0.632764,-1.945030,0.999997,0.000201,-0.002430,0.004902,-0.000311,0.004915,-0.002443,-87.577570,0.004915,
610,1170,1.951204,-4.408214,0.999998,0.000163,-0.002200,0.004515,-0.000185,0.004520,-0.002205,-88.426365,0.004520,
930,1860,0.219731,-0.632832,0.999998,0.000165,-0.000983,0.003977,-0.000426,0.004013,-0.001020,-85.123037,0.004172,
1800,250,-0.784846,-8.937188,0.999998,0.000192,-0.002291,0.005074,-0.000347,0.005090,-0.002308,-87.311487,0.005098,
1290,1850,-0.036136,-0.588608,0.999998,0.000144,-0.000563,0.003392,0.000066,0.003393,-0.000564,89.050069,0.003636,
1250,1600,-0.022419,-1.459872,0.999999,0.000136,-0.001222,0.003483,-0.000140,0.003487,-0.001226,-88.292160,0.003538,
750,480,0.944669,-7.911741,0.999998,0.000170,-0.002561,0.005090,-0.000134,0.005092,-0.002563,-88.994719,0.005092,
1320,810,-0.166796,-7.425195,0.999997,0.000198,-0.002316,0.002782,0.002033,0.003493,-0.003028,70.711267,0.003794,
1600,1500,-0.741453,-2.368136,0.999997,0.000201,-0.002727,0.005177,-0.000352,0.005193,-0.002743,-87.455476,0.005196,
1400,160,-0.079060,-9.626281,0.999998,0.000174,-0.000606,0.003444,-0.000205,0.003455,-0.000616,-87.103568,0.003685,
700,620,1.278778,-7.103584,0.999997,0.000194,-0.002695,0.005204,0.000082,0.005205,-0.002696,89.408402,0.005206,
1090,290,0.131531,-9.167535,0.999999,0.000144,-0.000977,0.003688,0.000024,0.003688,-0.000977,89.702043,0.003822,
950,450,0.435768,-8.375692,0.999998,0.000193,-0.002018,0.004551,-0.000358,0.004570,-0.002037,-86.885556,0.004579,
830,570,0.847464,-7.578888,0.999998,0.000165,-0.002786,0.005283,-0.000253,0.005291,-0.002794,-88.205742,0.005294,
860,1500,0.749775,-2.374155,0.999997,0.000197,-0.002729,0.005218,0.000316,0.005231,-0.002742,87.729662,0.005233,
1340,370,-0.121888,-8.888998,0.999998,0.000147,-0.001232,0.003750,0.000207,0.003758,-0.001241,87.619385,0.003830,
1830,580,-1.390309,-7.208260,0.999997,0.000202,-0.002580,0.005109,-0.000007,0.005109,-0.002580,-89.949508,0.005109,
1810,1590,-1.169821,-2.249236,0.999998,0.000158,-0.002521,0.005063,-0.000070,0.005063,-0.002522,-89.471434,0.005063,
1060,940,0.906567,-6.068348,0.999995,0.000277,-0.002982,0.008044,-0.003235,0.008923,-0.003861,-74.795882,0.008950,
710,720,1.424210,-6.592187,0.999996,0.000213,-0.002758,0.005243,0.000325,0.005256,-0.002771,87.679737,0.005259,
1780,50,-0.124347,-9.950663,0.999999,0.000175,-0.000442,0.004266,-0.001776,0.004861,-0.001037,-71.483322,0.005120,
1100,910,0.709403,-6.733620,0.999996,0.000000,-0.001239,0.004570,-0.003299,0.006060,-0.002730,-65.681128,0.006070,
1480,380,-0.326031,-8.729140,0.999998,0.000184,-0.001709,0.004266,0.000220,0.004274,-0.001717,87.896593,0.004301,
1480,350,-0.302996,-8.854885,0.999997,0.000189,-0.001534,0.004140,0.000150,0.004144,-0.001538,88.486593,0.004189,
1010,1520,0.359465,-1.991427,0.999998,0.000164,-0.002132,0.004447,0.000687,0.004518,-0.002203,84.105290,0.004519,
740,1620,0.909630,-1.955590,0.999998,0.000172,-0.002485,0.005006,0.000105,0.005008,-0.002486,89.195426,0.005008,
990,790,0.651451,-6.696404,0.999997,0.000214,-0.003828,0.006301,-0.000717,0.006351,-0.003878,-85.971211,0.006403,
1180,1980,0.008913,-0.167981,0.999999,0.000141,-0.000126,0.003063,-0.000080,0.003065,-0.000128,-88.566649,0.003468,
1650,1510,-0.863219,-2.402434,0.999998,0.000169,-0.002704,0.005239,-0.000216,0.005245,-0.002710,-88.445870,0.005246,
1270,180,-0.021090,-9.577083,0.999999,0.000131,-0.000508,0.003310,-0.000027,0.003310,-0.000508,-89.592597,0.003566,
1060,1230,0.460214,-3.269527,0.999997,0.000218,-0.003804,0.005852,0.001641,0.006123,-0.004076,80.612016,0.006234,
1820,610,-1.413045,-7.071351,0.999997,0.000193,-0.002593,0.005079,-0.000074,0.005079,-0.002594,-89.446135,0.005080,
1520,360,-0.382082,-8.765189,0.999998,0.000185,-0.001759,0.004324,0.000107,0.004326,-0.001761,88.992734,0.004351,
1780,740,-1.534340,-6.455628,0.999997,0.000226,-0.002650,0.005172,-0.000332,0.005186,-0.002664,-87.570890,0.005187,
1600,1830,-0.346563,-0.796769,0.999998,0.000196,-0.001527,0.004310,0.000390,0.004336,-0.001553,86.193570,0.004394,
1440,580,-0.346066,-7.913954,0.999997,0.000190,-0.002311,0.004490,0.000867,0.004599,-0.002420,82.848657,0.004601,
1140,480,0.117911,-8.495129,0.999998,0.000153,-0.001442,0.003687,-0.000427,0.003723,-0.001478,-85.274299,0.003749,
790,130,0.257535,-9.648492,0.999998,0.000179,-0.001270,0.004239,0.000886,0.004378,-0.001409,81.084409,0.004470,
880,670,0.833653,-7.124967,0.999998,0.000172,-0.003171,0.005630,-0.000261,0.005638,-0.003179,-88.304102,0.005653,
1340,480,-0.142219,-8.479438,0.999998,0.000169,-0.001404,0.003741,0.000416,0.003774,-0.001438,85.410620,0.003810,
740,910,1.683772,-5.623300,0.999998,0.000168,-0.002340,0.005071,0.000497,0.005104,-0.002373,86.177288,0.005109,
610,1150,1.971342,-4.495026,0.999998,0.000152,-0.002169,0.004499,-0.000190,0.004504,-0.002174,-88.370818,0.004505,
650,1690,1.027763,-1.748220,0.999998,0.000154,-0.002466,0.005035,0.000017,0.005035,-0.002466,89.873867,0.005036,
1600,450,-0.629700,-8.241721,0.999998,0.000193,-0.002348,0.004876,0.000236,0.004883,-0.002355,88.130002,0.004884,
1440,1990,-0.031255,-0.143386,0.999999,0.000162,-0.000194,0.003236,0.000340,0.003270,-0.000227,84.401423,0.003651,
1690,1090,-1.673909,-4.726693,0.999997,0.000200,-0.002186,0.005127,0.000388,0.005148,-0.002207,86.973577,0.005165,
1390,90,-0.035783,-9.860386,0.999999,0.000140,-0.000254,0.003222,-0.000239,0.003238,-0.000270,-86.090749,0.003593,
780,1710,0.687843,-1.445687,0.999997,0.000188,-0.002231,0.004922,-0.000035,0.004922,-0.002232,-89.720030,0.004929,
1450,120,-0.080064,-9.751263,0.999999,0.000139,-0.000412,0.003444,-0.000353,0.003476,-0.000444,-84.811307,0.003783,
980,1050,1.297841,-4.888256,0.999996,0.000253,-0.002120,0.007046,-0.000123,0.007048,-0.002122,-89.233571,0.007231,
1810,580,-1.339957,-7.239729,0.999998,0.000179,-0.002566,0.005136,0.000013,0.005136,-0.002566,89.905175,0.005136,
1320,370,-0.097572,-8.903696,0.999999,0.000137,-0.001193,0.003670,0.000176,0.003677,-0.001200,87.935436,0.003750,
910,1860,0.239382,-0.640805,0.999998,0.000174,-0.001003,0.004039,-0.000476,0.004084,-0.001047,-84.650565,0.004243,
860,1480,0.773418,-2.478086,0.999997,0.000203,-0.002777,0.005255,0.000333,0.005268,-0.002790,87.632657,0.005272,
1600,1480,-0.764862,-2.471187,0.999997,0.000189,-0.002776,0.005253,-0.000351,0.005268,-0.002792,-87.502143,0.005271,
1560,1780,-0.352941,-0.978863,0.999998,0.000166,-0.001462,0.004259,0.000226,0.004268,-0.001471,87.741035,0.004336,
1060,930,0.869569,-6.143806,0.999995,0.000280,-0.002899,0.007380,-0.003012,0.008197,-0.003717,-74.814428,0.008209,
910,690,0.766517,-7.072398,0.999998,0.000188,-0.003292,0.005703,-0.000395,0.005720,-0.003310,-87.489388,0.005744,
1810,1570,-1.198747,-2.350516,0.999998,0.000193,-0.002511,0.005110,-0.000070,0.005111,-0.002512,-89.473276,0.005111,
1780,40,-0.090049,-9.990797,0.999999,0.000173,-0.000244,0.004102,-0.001750,0.004720,-0.000861,-70.574406,0.005027,
1100,30,0.004822,-10.046886,0.999999,0.000000,-0.000011,0.003020,0.000164,0.003029,-0.000020,86.908336,0.003486,
1030,740,0.421867,-7.147043,0.999997,0.000187,-0.003405,0.005462,-0.001411,0.005681,-0.003624,-81.173317,0.005753,
1310,720,-0.093748,-7.719898,0.999998,0.000168,-0.001599,0.002803,0.001511,0.003272,-0.002067,72.764276,0.003310,
950,430,0.422322,-8.465463,0.999997,0.000223,-0.001929,0.004488,-0.000316,0.004504,-0.001944,-87.190568,0.004518,
1090,270,0.120042,-9.241067,0.999998,0.000163,-0.000897,0.003636,0.000043,0.003636,-0.000898,89.462535,0.003788,
1650,1490,-0.889656,-2.506455,0.999998,0.000162,-0.002770,0.005237,-0.000203,0.005243,-0.002775,-88.549451,0.005246,
1180,1940,0.015782,-0.292473,0.999998,0.000164,-0.000249,0.003177,-0.000073,0.003178,-0.000251,-88.773298,0.003534,
1340,310,-0.105006,-9.110259,0.999998,0.000147,-0.001083,0.003618,0.000112,0.003620,-0.001086,88.634437,0.003716,
1480,360,-0.309749,-8.813657,0.999998,0.000175,-0.001582,0.004190,0.000177,0.004196,-0.001588,88.245483,0.004237,
660,230,0.745933,-9.035467,0.999998,0.000196,-0.002254,0.005073,0.000427,0.005098,-0.002279,86.672197,0.005107,
1770,1120,-1.819656,-4.595814,0.999998,0.000174,-0.002267,0.004867,0.000384,0.004888,-0.002287,86.929913,0.004891,
880,450,0.591105,-8.267823,0.999998,0.000199,-0.002270,0.004801,-0.000259,0.004810,-0.002280,-87.904000,0.004812,
830,550,0.825335,-7.683075,0.999998,0.000164,-0.002720,0.005206,-0.000240,0.005214,-0.002727,-88.264691,0.005215,
990,770,0.610920,-6.820737,0.999996,0.000229,-0.003760,0.006115,-0.000810,0.006181,-0.003826,-85.342672,0.006239,
1600,1850,-0.315129,-0.712102,0.999998,0.000187,-0.001413,0.004280,0.000462,0.004317,-0.001450,85.388423,0.004394,
1700,1330,-1.284216,-3.451143,0.999997,0.000224,-0.002890,0.005458,0.000322,0.005470,-0.002902,87.793336,0.005473,
1520,1380,-0.639032,-2.845443,0.999997,0.000214,-0.003204,0.005579,-0.000644,0.005625,-0.003251,-85.830138,0.005648,
1440,1320,-0.439327,-2.930994,0.999997,0.000194,-0.003409,0.005512,-0.001321,0.005704,-0.003601,-81.750159,0.005769,
840,70,0.092275,-9.901347,0.999998,0.000153,-0.000361,0.003689,0.000904,0.003881,-0.000554,77.977583,0.004199,
1340,460,-0.138670,-8.554998,0.999998,0.000153,-0.001376,0.003714,0.000359,0.003739,-0.001402,85.983511,0.003778,
1070,180,0.087152,-9.558033,0.999998,0.000134,-0.000622,0.003455,0.000170,0.003462,-0.000629,87.615314,0.003688,
1780,720,-1.497478,-6.559050,0.999998,0.000206,-0.002658,0.005173,-0.000296,0.005184,-0.002669,-87.841167,0.005185,
1130,330,0.104003,-9.039883,0.999998,0.000146,-0.001132,0.003652,-0.000128,0.003656,-0.001135,-88.470433,0.003742,
740,1600,0.937277,-2.055523,0.999998,0.000150,-0.002514,0.005079,0.000119,0.005081,-0.002516,89.104616,0.005081,
760,1710,0.731943,-1.474776,0.999998,0.000158,-0.002212,0.004969,-0.000076,0.004970,-0.002213,-89.393273,0.004980,
610,1130,1.994969,-4.586420,0.999998,0.000173,-0.002168,0.004532,-0.000251,0.004542,-0.002178,-87.855828,0.004543,
1390,1370,-0.257571,-2.499783,0.999997,0.000201,-0.002540,0.004364,-0.001507,0.004679,-0.002855,-78.209970,0.004716,
1590,960,-1.449438,-5.407279,0.999997,0.000205,-0.002153,0.005530,-0.000543,0.005568,-0.002191,-85.974816,0.005610,
790,110,0.211961,-9.734277,0.999998,0.000188,-0.001064,0.004169,0.001002,0.004354,-0.001249,79.522901,0.004484,
1600,430,-0.609000,-8.339917,0.999997,0.000181,-0.002260,0.004853,0.000206,0.004859,-0.002266,88.341994,0.004863,
1140,370,0.100072,-8.901067,0.999999,0.000145,-0.001207,0.003682,-0.000193,0.003689,-0.001215,-87.737664,0.003760,
1230,1600,0.001257,-1.454449,0.999997,0.000195,-0.001252,0.003482,-0.000007,0.003482,-0.001253,-89.914980,0.003527,
1490,1860,-0.175685,-0.610928,0.999998,0.000182,-0.000982,0.003796,0.000308,0.003816,-0.001002,86.330323,0.003956,
1600,1460,-0.786771,-2.576866,0.999997,0.000182,-0.002842,0.005332,-0.000309,0.005343,-0.002854,-87.837272,0.005348,
1240,1800,-0.007233,-0.753860,0.999998,0.000155,-0.000797,0.003432,-0.000023,0.003432,-0.000797,-89.687334,0.003592,
1080,850,0.468846,-6.801584,0.999996,0.000244,-0.003482,0.005310,-0.002008,0.005747,-0.003918,-77.727170,0.005872,
1430,120,-0.071680,-9.754913,0.999999,0.000148,-0.000472,0.003398,-0.000287,0.003420,-0.000493,-85.779626,0.003697,
1680,1970,-0.159244,-0.248030,0.999998,0.000192,-0.000771,0.003935,0.001031,0.004151,-0.000987,78.164919,0.004337,
1810,1550,-1.228501,-2.454821,0.999998,0.000213,-0.002517,0.005140,-0.000072,0.005140,-0.002518,-89.464513,0.005141,
860,1460,0.794631,-2.582386,0.999997,0.000191,-0.002860,0.005317,0.000318,0.005329,-0.002872,87.773932,0.005334,
1860,630,-1.547015,-6.909268,0.999997,0.000210,-0.002524,0.005079,-0.000062,0.005079,-0.002525,-89.529638,0.005079,
1560,1740,-0.402472,-1.154645,0.999998,0.000187,-0.001682,0.004453,0.000060,0.004454,-0.001682,89.441135,0.004498,
1090,2020,0.007496,-0.047597,0.999999,0.000000,0.000008,0.003008,-0.000188,0.003020,-0.000003,-86.426637,0.003485,
1120,310,0.107439,-9.108129,0.999999,0.000136,-0.001083,0.003643,-0.000090,0.003645,-0.001085,-88.909963,0.003743,
840,850,1.314291,-6.007463,0.999998,0.000172,-0.002898,0.005718,0.000631,0.005764,-0.002944,85.832868,0.005764,
1450,1280,-0.533640,-3.202628,0.999996,0.000212,-0.003768,0.006015,-0.001113,0.006140,-0.003893,-83.587900,0.006213,
1080,1290,0.282926,-2.836661,0.999998,0.000190,-0.003135,0.004772,0.001975,0.005238,-0.003600,76.728729,0.005359,
1480,340,-0.295061,-8.896925,0.999998,0.000169,-0.001495,0.004135,0.000107,0.004137,-0.001497,88.908312,0.004190,
910,670,0.738213,-7.185923,0.999998,0.000183,-0.003193,0.005618,-0.000437,0.005639,-0.003215,-87.170536,0.005658,
880,430,0.571090,-8.362864,0.999998,0.000193,-0.002191,0.004775,-0.000208,0.004781,-0.002197,-88.290738,0.004786,
1830,860,-1.862201,-5.809991,0.999998,0.000182,-0.002329,0.004802,-0.000357,0.004819,-0.002347,-87.139903,0.004820,
1030,1450,0.338214,-2.264052,0.999997,0.000204,-0.002423,0.004544,0.001004,0.004686,-0.002565,81.962778,0.004693,
830,530,0.801105,-7.785095,0.999998,0.000167,-0.002666,0.005127,-0.000244,0.005134,-0.002673,-88.205460,0.005136,
990,750,0.577076,-6.942075,0.999997,0.000204,-0.003667,0.005912,-0.000926,0.006001,-0.003756,-84.529039,0.006064,
1520,1340,-0.692881,-3.073661,0.999997,0.000210,-0.003445,0.005792,-0.000551,0.005825,-0.003477,-86.600223,0.005861,
1290,1830,-0.040252,-0.656233,0.999998,0.000158,-0.000623,0.003424,0.000052,0.003424,-0.000623,89.264005,0.003648,
1040,1990,0.028623,-0.142854,0.999999,0.000137,-0.000242,0.003183,-0.000300,0.003209,-0.000268,-85.036078,0.003562,
1780,700,-1.460178,-6.662283,0.999998,0.000199,-0.002649,0.005184,-0.000256,0.005193,-0.002657,-88.126820,0.005193,
1440,1280,-0.495466,-3.159500,0.999997,0.000209,-0.003749,0.005918,-0.001276,0.006084,-0.003914,-82.605131,0.006167,
1350,560,-0.164106,-8.170592,0.999998,0.000150,-0.001679,0.003691,0.000760,0.003796,-0.001785,82.094760,0.003799,
1700,1310,-1.322732,-3.560076,0.999997,0.000211,-0.002877,0.005444,0.000388,0.005462,-0.002895,87.338530,0.005466,
1340,440,-0.137856,-8.628152,0.999998,0.000173,-0.001363,0.003723,0.000304,0.003741,-0.001381,86.590996,0.003784,
960,1050,1.340087,-4.898213,0.999997,0.000208,-0.001963,0.006459,-0.000233,0.006465,-0.001970,-88.415049,0.006627,
610,1110,2.016781,-4.677830,0.999998,0.000177,-0.002157,0.004472,-0.000174,0.004477,-0.002161,-88.500301,0.004478,
1090,470,0.189258,-8.484903,0.999998,0.000188,-0.001573,0.003869,-0.000496,0.003914,-0.001617,-84.834928,0.003933,
1050,180,0.101408,-9.551565,0.999998,0.000159,-0.000776,0.003505,0.000179,0.003513,-0.000783,87.605508,0.003688,
640,250,0.838491,-8.900984,0.999998,0.000174,-0.002365,0.005076,0.000209,0.005082,-0.002370,88.395438,0.005086,
1690,1830,-0.496433,-0.872284,0.999998,0.000173,-0.001869,0.004674,0.000515,0.004714,-0.001910,85.528311,0.004742,
820,110,0.181798,-9.745395,0.999999,0.000158,-0.000745,0.003989,0.000906,0.004156,-0.000912,79.524941,0.004369,
1540,1910,-0.159916,-0.440648,0.999998,0.000146,-0.000704,0.003792,0.000522,0.003852,-0.000764,83.467828,0.004079,
1130,1690,0.111887,-1.168074,0.999998,0.000140,-0.001255,0.003727,0.000195,0.003735,-0.001263,87.765643,0.003799,
750,1720,0.739123,-1.437034,0.999998,0.000165,-0.002240,0.004990,-0.000093,0.004991,-0.002241,-89.265061,0.005000,
1390,1330,-0.275625,-2.682294,0.999997,0.000193,-0.002857,0.004611,-0.001758,0.005004,-0.003250,-77.395932,0.005078,
650,1710,0.994918,-1.646685,0.999998,0.000155,-0.002477,0.005054,0.000014,0.005054,-0.002477,89.894221,0.005054,
1590,820,-1.142910,-6.223584,0.999997,0.000195,-0.003213,0.006016,-0.000449,0.006038,-0.003234,-87.221254,0.006043,
1500,1850,-0.197828,-0.654361,0.999998,0.000205,-0.001112,0.003868,0.000281,0.003884,-0.001128,86.780415,0.003996,
900,1350,0.821371,-3.113349,0.999998,0.000199,-0.003327,0.005789,0.000261,0.005796,-0.003335,88.360322,0.005818,
1580,430,-0.564198,-8.367511,0.999998,0.000206,-0.002187,0.004780,0.000226,0.004787,-0.002194,88.146435,0.004793,
1810,1530,-1.257722,-2.557170,0.999998,0.000202,-0.002557,0.005129,-0.000056,0.005130,-0.002557,-89.580529,0.005130,
790,90,0.163623,-9.815570,0.999998,0.000167,-0.000834,0.003929,0.000995,0.004129,-0.001033,78.657598,0.004297,
740,1800,0.620054,-1.053852,0.999998,0.000186,-0.002024,0.004929,-0.000438,0.004957,-0.002051,-86.413104,0.004981,
1600,1440,-0.811398,-2.685373,0.999998,0.000174,-0.002949,0.005379,-0.000296,0.005389,-0.002960,-87.965633,0.005398,
1330,1380,-0.129205,-2.280615,0.999998,0.000165,-0.001775,0.003327,-0.001347,0.003660,-0.002109,-76.084640,0.003674,
1460,310,-0.246176,-9.035478,0.999998,0.000157,-0.001262,0.004003,-0.000020,0.004003,-0.001262,-89.781527,0.004093,
830,840,1.321839,-6.054964,0.999997,0.000193,-0.002910,0.005678,0.000612,0.005721,-0.002953,85.943924,0.005722,
1480,320,-0.278490,-8.978949,0.999998,0.000174,-0.001417,0.004137,0.000025,0.004137,-0.001417,89.740527,0.004205,
1240,1780,-0.008694,-0.821083,0.999999,0.000134,-0.000873,0.003468,-0.000044,0.003468,-0.000874,-89.421137,0.003608,
1290,1210,-0.204204,-2.548403,0.999997,0.000214,-0.002605,0.001497,-0.000457,0.001547,-0.002655,-83.711677,0.002667,
830,510,0.777637,-7.886598,0.999997,0.000182,-0.002605,0.005092,-0.000251,0.005101,-0.002613,-88.135019,0.005101,
1090,1140,0.743020,-3.489800,0.999995,0.000000,-0.001732,0.005311,0.003682,0.006885,-0.003305,66.862138,0.006887,
1520,1010,-1.374869,-5.143801,0.999997,0.000210,-0.001850,0.006036,-0.000182,0.006040,-0.001854,-88.681530,0.006188,
1020,1990,0.032382,-0.144629,0.999998,0.000143,-0.000182,0.003229,-0.000335,0.003262,-0.000215,-84.445274,0.003649,
1370,800,-0.288517,-7.149266,0.999997,0.000190,-0.003194,0.004673,0.002175,0.005234,-0.003756,75.527105,0.005397,
1030,120,0.072300,-9.754123,0.999998,0.000171,-0.000486,0.003380,0.000314,0.003406,-0.000511,85.385771,0.003673,
1520,800,-0.852743,-6.487819,0.999997,0.000189,-0.003685,0.006433,0.000100,0.006434,-0.003686,89.431170,0.006457,
1140,1310,0.119487,-2.478720,0.999997,0.000195,-0.001920,0.003044,0.001850,0.003657,-0.002534,71.646567,0.003747,
910,650,0.712676,-7.298890,0.999997,0.000208,-0.003092,0.005510,-0.000478,0.005536,-0.003118,-86.825981,0.005551,
1440,1260,-0.533545,-3.284304,0.999997,0.000213,-0.003844,0.006072,-0.001196,0.006214,-0.003986,-83.220341,0.006297,
1440,1930,-0.079473,-0.345836,0.999998,0.000174,-0.000474,0.003442,0.000307,0.003466,-0.000498,85.540755,0.003748,
1010,180,0.132028,-9.539144,0.999998,0.000162,-0.000676,0.003635,0.000269,0.003652,-0.000692,86.444654,0.003879,
820,90,0.142228,-9.822860,0.999999,0.000148,-0.000591,0.003845,0.000945,0.004038,-0.000784,78.460667,0.004283,
1080,360,0.170940,-8.900245,0.999998,0.000171,-0.001221,0.003813,-0.000147,0.003818,-0.001225,-88.334162,0.003899,
580,310,1.104121,-8.484209,0.999997,0.000203,-0.002318,0.004848,-0.000009,0.004848,-0.002318,-89.925239,0.004850,
1780,1590,-1.093653,-2.200171,0.999998,0.000179,-0.002532,0.005103,-0.000092,0.005104,-0.002534,-89.310941,0.005104,
1390,530,-0.231782,-8.217848,0.999998,0.000164,-0.001779,0.004039,0.000681,0.004117,-0.001858,83.407328,0.004124,
1180,1400,0.059648,-2.122818,0.999998,0.000167,-0.001310,0.002810,0.000760,0.002946,-0.001445,79.873727,0.002946,
1190,720,0.042667,-7.809596,0.999999,0.000140,-0.001193,0.002156,-0.000907,0.002386,-0.001423,-75.785115,0.002401,
1770,1890,-0.503915,-0.671799,0.999997,0.000193,-0.002081,0.004996,0.000831,0.005093,-0.002178,83.391798,0.005110,
1690,1790,-0.571728,-1.065437,0.999997,0.000189,-0.002044,0.004805,0.000337,0.004822,-0.002061,87.188804,0.004839,
950,410,0.410445,-8.555217,0.999997,0.000215,-0.001877,0.004435,-0.000272,0.004446,-0.001888,-87.537915,0.004463,
990,730,0.549495,-7.059112,0.999997,0.000218,-0.003507,0.005731,-0.000967,0.005831,-0.003607,-84.090810,0.005886,
1710,540,-1.016590,-7.604720,0.999997,0.000203,-0.002666,0.005198,0.000114,0.005200,-0.002667,89.172068,0.005200,
1650,1470,-0.915961,-2.612520,0.999998,0.000148,-0.002807,0.005332,-0.000171,0.005336,-0.002811,-88.794330,0.005338,
1130,1650,0.123058,-1.316406,0.999998,0.000178,-0.001322,0.003685,0.000290,0.003702,-0.001339,86.700340,0.003749,
1340,420,-0.132312,-8.702368,0.999998,0.000183,-0.001348,0.003722,0.000294,0.003739,-0.001365,86.692621,0.003784,
1810,1510,-1.285676,-2.660134,0.999997,0.000187,-0.002562,0.005118,-0.000040,0.005119,-0.002562,-89.703880,0.005119,
790,290,0.582559,-8.914627,0.999997,0.000196,-0.002159,0.004756,0.000203,0.004762,-0.002165,88.320568,0.004769,
1800,310,-0.905534,-8.632221,0.999998,0.000164,-0.002396,0.005070,-0.000089,0.005071,-0.002397,-89.320419,0.005073,
1730,1720,-0.778411,-1.460510,0.999998,0.000167,-0.002339,0.005016,0.000053,0.005017,-0.002339,89.588388,0.005020,
640,510,1.269927,-7.580645,0.999998,0.000201,-0.002555,0.005111,-0.000055,0.005112,-0.002556,-89.589243,0.005112,
1600,1420,-0.836617,-2.794396,0.999998,0.000170,-0.003039,0.005465,-0.000268,0.005473,-0.003047,-88.193568,0.005485,
880,1350,0.888309,-3.154946,0.999998,0.000160,-0.003259,0.005778,0.000146,0.005780,-0.003262,89.071937,0.005796,
1570,820,-1.077823,-6.254915,0.999997,0.000175,-0.003325,0.006152,-0.000396,0.006168,-0.003342,-87.608634,0.006176,
1000,310,0.250927,-9.032898,0.999999,0.000142,-0.001250,0.004003,0.000001,0.004003,-0.001250,89.994131,0.004096,
660,200,0.669810,-9.188736,0.999998,0.000189,-0.002200,0.005144,0.000614,0.005195,-0.002251,85.250097,0.005210,
1290,1200,-0.257066,-2.564508,0.999997,0.000228,-0.002912,0.001350,-0.000248,0.001364,-0.002926,-86.677076,0.002929,
1110,1150,0.670888,-3.213586,0.999995,0.000000,-0.000856,0.003531,0.003010,0.005062,-0.002387,63.041878,0.005064,
610,1090,2.029178,-4.765053,0.999998,0.000165,-0.002127,0.004353,-0.000041,0.004353,-0.002127,-89.641345,0.004354,
1480,300,-0.263447,-9.062393,0.999998,0.000184,-0.001342,0.004055,-0.000046,0.004055,-0.001342,-89.515140,0.004131,
1540,570,-0.595175,-7.748912,0.999997,0.000207,-0.002686,0.005072,0.000538,0.005109,-0.002723,86.051799,0.005112,
910,630,0.690713,-7.407267,0.999997,0.000201,-0.003013,0.005388,-0.000482,0.005415,-0.003040,-86.727749,0.005429,
730,1990,0.134376,-0.180395,0.999998,0.000175,-0.000682,0.004075,-0.001325,0.004419,-0.001026,-75.436319,0.004626,
1080,250,0.120996,-9.310510,0.999997,0.000200,-0.000817,0.003655,0.000090,0.003657,-0.000819,88.853883,0.003838,
1390,510,-0.227798,-8.300194,0.999998,0.000148,-0.001735,0.003995,0.000626,0.004063,-0.001803,83.842122,0.004072,
1520,780,-0.807829,-6.613009,0.999997,0.000185,-0.003686,0.006286,0.000254,0.006292,-0.003692,88.540432,0.006324,
1650,980,-1.601699,-5.284174,0.999997,0.000178,-0.002060,0.005158,-0.000316,0.005172,-0.002074,-87.499099,0.005206,
990,120,0.087726,-9.747956,0.999999,0.000158,-0.000420,0.003486,0.000385,0.003524,-0.000457,84.422517,0.003832,
1480,1990,-0.038728,-0.146659,0.999999,0.000154,-0.000222,0.003298,0.000411,0.003346,-0.000269,83.424276,0.003718,
1580,1550,-0.638355,-2.077127,0.999997,0.000206,-0.002505,0.004991,-0.000368,0.005009,-0.002523,-87.199608,0.005009,
990,180,0.145259,-9.530836,0.999999,0.000136,-0.000748,0.003698,0.000315,0.003720,-0.000770,85.967993,0.003927,
1280,1930,-0.017139,-0.325134,0.999998,0.000146,-0.000310,0.003194,0.000072,0.003195,-0.000311,88.831391,0.003524,
1660,90,-0.152666,-9.818676,0.999999,0.000140,-0.000760,0.003915,-0.000952,0.004102,-0.000947,-78.918248,0.004295,
580,1660,1.247875,-2.016183,0.999998,0.000179,-0.001347,0.004766,0.000159,0.004770,-0.001351,88.509929,0.004918,
1120,1310,0.161246,-2.563918,0.999997,0.000205,-0.002275,0.003558,0.001959,0.004155,-0.002871,73.054827,0.004255,
1440,1240,-0.580023,-3.404303,0.999996,0.000235,-0.003904,0.006260,-0.001088,0.006375,-0.004019,-83.959004,0.006447,
1730,560,-1.099649,-7.468905,0.999997,0.000210,-0.002678,0.005224,0.000061,0.005224,-0.002678,89.558072,0.005225,
1690,1770,-0.610289,-1.161143,0.999998,0.000186,-0.002120,0.004831,0.000263,0.004841,-0.002130,87.834995,0.004853,
580,80,0.417595,-9.662950,0.999997,0.000201,-0.002420,0.006259,0.001783,0.006612,-0.002772,78.829265,0.006640,
830,490,0.754821,-7.990941,0.999998,0.000164,-0.002517,0.005047,-0.000231,0.005054,-0.002524,-88.250664,0.005054,
1240,1760,-0.007860,-0.892155,0.999998,0.000142,-0.000937,0.003461,-0.000042,0.003461,-0.000937,-89.449130,0.003580,
580,270,1.027977,-8.678043,0.999998,0.000193,-0.002316,0.004869,0.000008,0.004869,-0.002316,89.939528,0.004871,
1370,780,-0.259234,-7.241148,0.999997,0.000206,-0.003034,0.004479,0.002147,0.005050,-0.003604,75.124018,0.005201,
860,1440,0.820421,-2.688984,0.999997,0.000195,-0.002941,0.005368,0.000306,0.005379,-0.002953,87.894989,0.005387,
1560,1200,-1.133163,-4.024348,0.999998,0.000180,-0.003231,0.006171,0.000579,0.006207,-0.003267,86.487529,0.006210,
1800,290,-0.866807,-8.734574,0.999997,0.000189,-0.002369,0.005094,-0.000160,0.005098,-0.002372,-88.770634,0.005102,
780,460,0.844390,-8.060199,0.999998,0.000162,-0.002513,0.005098,-0.000146,0.005101,-0.002516,-88.898771,0.005101,
1600,1400,-0.863921,-2.903423,0.999998,0.000155,-0.003104,0.005551,-0.000225,0.005556,-0.003110,-88.510656,0.005570,
1650,1450,-0.942885,-2.720075,0.999998,0.000149,-0.002857,0.005365,-0.000130,0.005367,-0.002859,-89.091504,0.005371,
1170,1860,0.034477,-0.554322,0.999998,0.000183,-0.000521,0.003369,-0.000074,0.003370,-0.000522,-88.908482,0.003628,
950,390,0.393641,-8.642394,0.999997,0.000192,-0.001843,0.004404,-0.000229,0.004412,-0.001851,-87.906924,0.004431,
1180,1380,0.057209,-2.178334,0.999998,0.000163,-0.001313,0.002662,0.000860,0.002840,-0.001491,78.294054,0.002841,
1780,680,-1.425876,-6.765809,0.999997,0.000211,-0.002635,0.005198,-0.000226,0.005205,-0.002641,-88.346852,0.005205,
1080,1660,0.181751,-1.311927,0.999998,0.000171,-0.001386,0.003843,0.000230,0.003853,-0.001396,87.490449,0.003902,
1130,770,0.151363,-7.476424,0.999997,0.000212,-0.002334,0.003297,-0.002113,0.004002,-0.003039,-71.555966,0.004177,
1520,760,-0.768378,-6.737039,0.999998,0.000173,-0.003610,0.006154,0.000353,0.006167,-0.003623,87.934677,0.006198,
1700,90,-0.187083,-9.805814,0.999998,0.000163,-0.000755,0.004014,-0.001137,0.004271,-0.001013,-77.252000,0.004463,
1310,320,-0.075943,-9.087722,0.999999,0.000139,-0.000989,0.003588,0.000033,0.003588,-0.000989,89.590851,0.003706,
1900,1890,-0.800077,-0.925007,0.999998,0.000000,-0.002501,0.005032,0.000367,0.005049,-0.002519,87.219672,0.005049,
1190,1800,0.033548,-0.757212,0.999999,0.000131,-0.000760,0.003462,0.000002,0.003462,-0.000760,89.971581,0.003639,
1760,750,-1.497664,-6.424854,0.999997,0.000232,-0.002660,0.005264,-0.000387,0.005283,-0.002678,-87.212899,0.005283,
1860,1620,-1.250471,-2.178818,0.999997,0.000200,-0.002477,0.004999,-0.000046,0.004999,-0.002477,-89.643961,0.004999,
1340,400,-0.129956,-8.777919,0.999998,0.000165,-0.001313,0.003671,0.000271,0.003685,-0.001328,86.892039,0.003733,
990,1460,0.435916,-2.312515,0.999997,0.000185,-0.002565,0.004871,0.000832,0.004962,-0.002657,83.692562,0.004967,
1440,1220,-0.634945,-3.530966,0.999997,0.000223,-0.003920,0.006531,-0.000976,0.006621,-0.004010,-84.711422,0.006670,
1850,1080,-2.025855,-4.808236,0.999999,0.000139,-0.002096,0.004341,0.000050,0.004342,-0.002097,89.551487,0.004343,
1810,1490,-1.316556,-2.762281,0.999998,0.000185,-0.002554,0.005138,0.000005,0.005138,-0.002554,89.966099,0.005138,
990,710,0.524384,-7.171121,0.999997,0.000209,-0.003348,0.005594,-0.001003,0.005705,-0.003459,-83.677110,0.005748,
1750,1020,-1.828494,-5.075486,0.999998,0.000168,-0.002165,0.004843,-0.000077,0.004844,-0.002166,-89.374026,0.004853,
700,80,0.224875,-9.815392,0.999997,0.000179,-0.001244,0.004406,0.001460,0.004761,-0.001599,76.331860,0.004846,
790,1600,0.813023,-1.978036,0.999998,0.000158,-0.002481,0.005029,0.000145,0.005032,-0.002484,88.891301,0.005032,
860,1420,0.846906,-2.799574,0.999998,0.000172,-0.003001,0.005493,0.000277,0.005502,-0.003011,88.134910,0.005510,
1280,1200,-0.224638,-2.512058,0.999910,0.001130,-0.003305,0.001131,-0.000086,0.001133,-0.003307,-88.885494,0.003361,
1480,280,-0.244838,-9.143691,0.999998,0.000163,-0.001259,0.004023,-0.000101,0.004025,-0.001261,-88.909718,0.004118,
1320,1730,-0.087317,-1.014263,0.999998,0.000178,-0.001078,0.003626,-0.000080,0.003628,-0.001080,-89.031978,0.003726,
1460,690,-0.462305,-7.323103,0.999997,0.000228,-0.003161,0.005332,0.001110,0.005474,-0.003303,82.674125,0.005513,
1650,1430,-0.971102,-2.827829,0.999998,0.000162,-0.002907,0.005405,-0.000104,0.005407,-0.002909,-89.284005,0.005412,
1180,1360,0.055565,-2.231223,0.999998,0.000168,-0.001290,0.002517,0.000962,0.002747,-0.001519,76.595244,0.002752,
1660,70,-0.108726,-9.896680,0.999998,0.000191,-0.000579,0.003793,-0.000974,0.004000,-0.000786,-77.992804,0.004239,
1170,720,0.067676,-7.765985,0.999999,0.000148,-0.001423,0.002496,-0.001241,0.002856,-0.001783,-73.822786,0.002885,
900,1470,0.672120,-2.453024,0.999996,0.000223,-0.002798,0.005233,0.000485,0.005262,-0.002827,86.558118,0.005267,
1780,330,-0.890405,-8.564803,0.999998,0.000189,-0.002404,0.004998,-0.000001,0.004998,-0.002404,-89.994811,0.004999,
910,610,0.667366,-7.515316,0.999997,0.000223,-0.002905,0.005297,-0.000512,0.005329,-0.002937,-86.444589,0.005338,
1740,60,-0.126052,-9.918183,0.999998,0.000166,-0.000739,0.004128,-0.001396,0.004500,-0.001111,-75.083129,0.004688,
1650,1920,-0.239155,-0.439573,0.999997,0.000201,-0.001066,0.004123,0.000843,0.004256,-0.001199,81.002690,0.004389,
610,1070,2.036709,-4.851992,0.999999,0.000152,-0.002103,0.004338,-0.000079,0.004339,-0.002104,-89.295933,0.004340,
950,370,0.377627,-8.730734,0.999998,0.000185,-0.001814,0.004336,-0.000179,0.004341,-0.001819,-88.330078,0.004360,
1650,960,-1.579445,-5.387587,0.999996,0.000231,-0.002160,0.005255,-0.000495,0.005288,-0.002192,-86.199221,0.005314,
580,250,0.983400,-8.776784,0.999999,0.000128,-0.002405,0.004870,0.000031,0.004870,-0.002405,89.758443,0.004870,
1090,1130,0.784662,-3.544839,0.999994,0.000000,-0.001740,0.005967,0.004074,0.007721,-0.003494,66.703867,0.007732,
740,610,1.154505,-7.215946,0.999998,0.000185,-0.002757,0.005303,0.000026,0.005303,-0.002757,89.818024,0.005305,
1120,370,0.125727,-8.886280,0.999998,0.000198,-0.001248,0.003777,-0.000203,0.003785,-0.001256,-87.690319,0.003855,
1900,1010,-2.143184,-5.113309,0.999998,0.000000,-0.002022,0.004069,-0.000117,0.004071,-0.002024,-88.903458,0.004071,
1030,1430,0.344313,-2.356589,0.999997,0.000226,-0.002564,0.004610,0.001097,0.004774,-0.002728,81.498757,0.004790,
1670,1520,-0.905065,-2.381923,0.999997,0.000197,-0.002644,0.005230,-0.000187,0.005234,-0.002649,-88.643642,0.005234,
1030,1860,0.129040,-0.590045,0.999998,0.000196,-0.000815,0.003648,-0.000237,0.003661,-0.000828,-86.974947,0.003840,
1390,490,-0.223414,-8.378253,0.999997,0.000183,-0.001734,0.003998,0.000592,0.004059,-0.001795,84.166291,0.004068,
1240,1740,-0.008742,-0.961197,0.999999,0.000138,-0.000994,0.003504,-0.000041,0.003505,-0.000994,-89.482016,0.003613,
1440,790,-0.524456,-6.829735,0.999997,0.000213,-0.003806,0.006056,0.001237,0.006209,-0.003959,82.961517,0.006286,
1800,770,-1.637631,-6.280372,0.999997,0.000203,-0.002547,0.005018,-0.000353,0.005034,-0.002564,-87.332804,0.005034,
1180,1470,0.064417,-1.910231,0.999998,0.000175,-0.001341,0.003194,0.000443,0.003237,-0.001384,84.471812,0.003248,
590,1410,1.604609,-3.267565,0.999998,0.000181,-0.002760,0.005086,-0.000089,0.005087,-0.002761,-89.349298,0.005093,
660,180,0.616934,-9.290909,0.999997,0.000199,-0.002125,0.005121,0.000791,0.005206,-0.002210,83.845292,0.005226,
1440,1200,-0.696349,-3.667821,0.999997,0.000211,-0.003892,0.006803,-0.000818,0.006865,-0.003954,-85.652377,0.006891,
1810,1940,-0.408921,-0.456051,0.999997,0.000203,-0.001699,0.005202,0.001324,0.005447,-0.001944,79.503836,0.005521,
1560,1180,-1.188564,-4.151563,0.999997,0.000188,-0.003074,0.006143,0.000656,0.006189,-0.003120,85.946350,0.006189,
1880,990,-2.093786,-5.198883,0.999998,0.000181,-0.002038,0.004170,-0.000073,0.004171,-0.002039,-89.322704,0.004171,
1540,1670,-0.438451,-1.446129,0.999997,0.000192,-0.001832,0.004496,-0.000138,0.004499,-0.001835,-88.749064,0.004524,
1810,1470,-1.347506,-2.865541,0.999997,0.000194,-0.002569,0.005158,0.000031,0.005159,-0.002569,89.771543,0.005159,
1260,1930,-0.010529,-0.323946,0.999999,0.000144,-0.000340,0.003178,0.000029,0.003178,-0.000340,89.520109,0.003490,
1340,380,-0.124109,-8.848843,0.999998,0.000143,-0.001262,0.003751,0.000230,0.003762,-0.001273,87.381037,0.003827,
1680,1950,-0.204575,-0.327962,0.999997,0.000190,-0.000983,0.004154,0.001037,0.004355,-0.001184,79.006241,0.004503,
1540,550,-0.576698,-7.850513,0.999997,0.000208,-0.002612,0.005013,0.000530,0.005049,-0.002648,86.045452,0.005051,
1810,1120,-1.910095,-4.610941,0.999998,0.000172,-0.002245,0.004713,0.000324,0.004728,-0.002260,87.335873,0.004729,
1410,1800,-0.148765,-0.799209,0.999999,0.000146,-0.001049,0.003735,0.000033,0.003735,-0.001049,89.607644,0.003852,
860,1400,0.873246,-2.910617,0.999998,0.000165,-0.003058,0.005522,0.000217,0.005528,-0.003064,88.553818,0.005539,
1120,1730,0.112958,-1.025787,0.999998,0.000156,-0.001116,0.003672,0.000115,0.003674,-0.001119,88.630159,0.003767,
1860,1600,-1.281915,-2.277555,0.999998,0.000187,-0.002475,0.005052,-0.000045,0.005052,-0.002475,-89.655498,0.005052,
830,690,1.021023,-6.920511,0.999998,0.000164,-0.003091,0.005598,0.000024,0.005598,-0.003091,89.842187,0.005608,
1860,850,-1.916528,-5.830746,0.999998,0.000154,-0.002280,0.004692,-0.000232,0.004699,-0.002288,-88.098705,0.004700,
700,60,0.143869,-9.912004,0.999997,0.000202,-0.000843,0.004388,0.001651,0.004866,-0.001320,73.865528,0.005033,
1650,670,-1.040221,-7.004010,0.999998,0.000172,-0.002974,0.005491,-0.000011,0.005491,-0.002974,-89.922495,0.005497,
1140,250,0.069743,-9.331720,0.999999,0.000135,-0.000829,0.003488,-0.000009,0.003488,-0.000829,-89.878337,0.003645,
1480,260,-0.227307,-9.222523,0.999998,0.000154,-0.001196,0.003954,-0.000130,0.003957,-0.001200,-88.560193,0.004058,
1190,180,0.022188,-9.577580,0.999998,0.000144,-0.000519,0.003306,0.000004,0.003306,-0.000519,89.942981,0.003556,
1340,70,-0.017483,-9.926091,0.999999,0.000132,-0.000202,0.003104,-0.000149,0.003111,-0.000209,-87.426151,0.003478,
970,120,0.098577,-9.743139,0.999998,0.000178,-0.000619,0.003537,0.000414,0.003578,-0.000660,84.371016,0.003808,
1290,1810,-0.044395,-0.725729,0.999999,0.000135,-0.000695,0.003448,0.000052,0.003449,-0.000696,89.280742,0.003648,
640,1350,1.582049,-3.498980,0.999997,0.000203,-0.002546,0.005088,-0.000214,0.005094,-0.002552,-88.392241,0.005094,
1760,330,-0.841743,-8.598382,0.999998,0.000151,-0.002407,0.005021,-0.000016,0.005021,-0.002407,-89.873743,0.005023,
1510,1980,-0.060734,-0.183516,0.999998,0.000174,-0.000366,0.003398,0.000504,0.003465,-0.000432,82.504383,0.003776,
1900,1520,-1.498913,-2.747286,0.999997,0.000000,-0.002501,0.005056,0.000023,0.005056,-0.002501,89.825677,0.005056,
1090,930,0.807612,-6.497763,0.999994,0.000000,-0.001561,0.006514,-0.004199,0.008302,-0.003349,-66.938439,0.008353,
720,610,1.209366,-7.185906,0.999998,0.000172,-0.002717,0.005265,0.000043,0.005265,-0.002718,89.692454,0.005266,
1740,260,-0.664009,-8.981686,0.999998,0.000183,-0.002203,0.004996,-0.000332,0.005012,-0.002218,-87.361267,0.005023,
1180,1340,0.054304,-2.281048,0.999998,0.000172,-0.001277,0.002350,0.001054,0.002634,-0.001561,74.910041,0.002649,
990,690,0.503268,-7.283420,0.999997,0.000196,-0.003193,0.005429,-0.000999,0.005543,-0.003308,-83.478137,0.005577,
950,350,0.360175,-8.815773,0.999997,0.000195,-0.001749,0.004330,-0.000117,0.004333,-0.001751,-88.900093,0.004359,
610,1050,2.045008,-4.939690,0.999999,0.000147,-0.002102,0.004381,-0.000131,0.004384,-0.002104,-88.840672,0.004385,
660,160,0.552189,-9.396290,0.999997,0.000209,-0.001988,0.005177,0.000947,0.005300,-0.002111,82.599074,0.005337,
580,260,1.005526,-8.728165,0.999998,0.000152,-0.002352,0.004871,0.000023,0.004871,-0.002352,89.818312,0.004872,
1740,1930,-0.322690,-0.441672,0.999997,0.000209,-0.001558,0.004612,0.001133,0.004813,-0.001759,79.918763,0.004871,
1010,1860,0.145334,-0.596586,0.999998,0.000182,-0.000766,0.003711,-0.000296,0.003731,-0.000786,-86.231920,0.003934,
1420,790,-0.448494,-6.922889,0.999996,0.000248,-0.003772,0.005764,0.001508,0.005997,-0.004005,81.226332,0.006109,
910,590,0.647191,-7.619618,0.999997,0.000215,-0.002788,0.005197,-0.000520,0.005230,-0.002822,-86.288079,0.005236,
1800,750,-1.603844,-6.379872,0.999997,0.000196,-0.002555,0.005052,-0.000314,0.005065,-0.002568,-87.637882,0.005065,
1340,360,-0.118878,-8.927800,0.999998,0.000149,-0.001208,0.003712,0.000193,0.003720,-0.001215,87.757161,0.003794,
1860,990,-2.052500,-5.203880,0.999999,0.000145,-0.002071,0.004311,-0.000080,0.004312,-0.002072,-89.279534,0.004313,
1030,820,0.567057,-6.678649,0.999996,0.000229,-0.003934,0.006255,-0.001168,0.006388,-0.004066,-83.543192,0.006467,
1810,1450,-1.379116,-2.968545,0.999997,0.000199,-0.002591,0.005123,0.000039,0.005124,-0.002592,89.709799,0.005124,
900,1210,1.117150,-3.968096,0.999998,0.000173,-0.003277,0.006179,-0.000516,0.006207,-0.003305,-86.888493,0.006211,
1440,1180,-0.766973,-3.812988,0.999997,0.000233,-0.003717,0.006981,-0.000686,0.007025,-0.003761,-86.346918,0.007030,
1390,1800,-0.129796,-0.788978,0.999998,0.000166,-0.000892,0.003658,0.000067,0.003659,-0.000893,89.151406,0.003816,
1240,1720,-0.009536,-1.031433,0.999999,0.000132,-0.001042,0.003502,-0.000035,0.003502,-0.001043,-89.562715,0.003596,
1410,1720,-0.194820,-1.104065,0.999999,0.000155,-0.001400,0.003858,-0.000163,0.003863,-0.001405,-88.229941,0.003910,
690,1990,0.171207,-0.193159,0.999998,0.000192,-0.000848,0.004602,-0.001751,0.005116,-0.001362,-73.635454,0.005299,
1860,1580,-1.310041,-2.381290,0.999998,0.000191,-0.002496,0.005083,-0.000054,0.005084,-0.002497,-89.589096,0.005084,
860,1380,0.904746,-3.022325,0.999998,0.000183,-0.003123,0.005606,0.000151,0.005608,-0.003125,89.007564,0.005621,
770,1600,0.862267,-2.008949,0.999998,0.000155,-0.002473,0.005072,0.000117,0.005074,-0.002475,89.112521,0.005074,
1660,2010,-0.054707,-0.091983,0.999999,0.000138,-0.000421,0.003590,0.000949,0.003803,-0.000634,77.343182,0.004075,
970,1340,0.599181,-2.996941,0.999998,0.000188,-0.003431,0.005719,0.000792,0.005787,-0.003499,85.087879,0.005829,
670,120,0.400108,-9.610345,0.999997,0.000195,-0.001636,0.005065,0.001374,0.005336,-0.001907,78.855098,0.005408,
1440,710,-0.416286,-7.281840,0.999997,0.000220,-0.003209,0.005274,0.001317,0.005473,-0.003408,81.377120,0.005528,
1480,240,-0.209132,-9.299686,0.999998,0.000166,-0.001077,0.003894,-0.000189,0.003901,-0.001084,-87.828120,0.004027,
1650,1410,-1.000735,-2.938158,0.999998,0.000167,-0.002949,0.005478,-0.000050,0.005479,-0.002949,-89.662276,0.005484,
820,860,1.391422,-5.935580,0.999998,0.000208,-0.002755,0.005619,0.000662,0.005671,-0.002807,85.505677,0.005671,
740,1150,1.678023,-4.430897,0.999997,0.000209,-0.002353,0.005114,-0.000528,0.005151,-0.002390,-85.976120,0.005155,
1170,180,0.032955,-9.574784,0.999998,0.000173,-0.000459,0.003341,0.000050,0.003342,-0.000459,89.249523,0.003623,
1900,1500,-1.530963,-2.849746,0.999997,0.000000,-0.002557,0.005099,0.000079,0.005100,-0.002558,89.408175,0.005100,
1780,1270,-1.615921,-3.856750,0.999998,0.000200,-0.002561,0.005075,0.000417,0.005098,-0.002583,86.880782,0.005098,
990,670,0.486453,-7.387282,0.999997,0.000187,-0.003080,0.005279,-0.000987,0.005394,-0.003195,-83.354856,0.005424,
1860,150,-0.653603,-9.329365,0.999997,0.000197,-0.002443,0.005147,-0.000471,0.005176,-0.002473,-86.461254,0.005178,
1580,70,-0.076104,-9.905772,0.999998,0.000152,-0.000463,0.003581,-0.000693,0.003697,-0.000578,-80.544389,0.003977,
1680,830,-1.433366,-6.071495,0.999996,0.000233,-0.002775,0.005437,-0.000603,0.005481,-0.002819,-85.825768,0.005482,
580,1410,1.629739,-3.282607,0.999997,0.000185,-0.003448,0.005106,-0.000144,0.005108,-0.003451,-89.036390,0.005212,
1710,80,-0.167340,-9.842979,0.999998,0.000167,-0.000615,0.004004,-0.001229,0.004311,-0.000922,-75.991230,0.004540,
950,330,0.342622,-8.902963,0.999997,0.000194,-0.001656,0.004353,-0.000041,0.004353,-0.001656,-89.606321,0.004394,
1510,1400,-0.585739,-2.708269,0.999998,0.000207,-0.003054,0.005389,-0.000734,0.005453,-0.003118,-85.070151,0.005471,
1030,1410,0.357719,-2.449057,0.999997,0.000226,-0.002677,0.004728,0.001190,0.004915,-0.002863,81.093404,0.004937,
1090,920,0.766590,-6.561148,0.999994,0.000000,-0.001503,0.005699,-0.003793,0.007328,-0.003132,-66.758336,0.007354,
1290,1790,-0.048147,-0.793855,0.999999,0.000144,-0.000744,0.003487,0.000031,0.003487,-0.000744,89.584386,0.003674,
1010,320,0.243789,-9.001485,0.999998,0.000166,-0.001314,0.004017,-0.000040,0.004018,-0.001314,-89.569358,0.004097,
750,520,0.998438,-7.705277,0.999999,0.000131,-0.002602,0.005181,-0.000133,0.005183,-0.002604,-89.017670,0.005183,
850,800,1.172854,-6.314028,0.999998,0.000180,-0.003168,0.005893,0.000438,0.005914,-0.003189,87.242151,0.005920,
870,1840,0.321234,-0.750019,0.999997,0.000206,-0.001473,0.004252,-0.000433,0.004284,-0.001506,-85.701772,0.004347,
1780,750,-1.552066,-6.403742,0.999997,0.000227,-0.002624,0.005158,-0.000350,0.005173,-0.002640,-87.429141,0.005174,
1440,1160,-0.848074,-3.955504,0.999997,0.000203,-0.003506,0.007100,-0.000623,0.007136,-0.003543,-86.649025,0.007136,
1810,1430,-1.410128,-3.070545,0.999998,0.000177,-0.002599,0.005101,0.000085,0.005102,-0.002600,89.364275,0.005103,
1390,1980,-0.027077,-0.172375,0.999998,0.000162,-0.000172,0.003180,0.000242,0.003198,-0.000189,85.887245,0.003588,
880,1270,1.039743,-3.630769,0.999997,0.000208,-0.003338,0.006030,-0.000256,0.006037,-0.003345,-88.432979,0.006049,
1170,1800,0.048864,-0.761303,0.999999,0.000126,-0.000745,0.003475,-0.000052,0.003476,-0.000745,-89.292128,0.003660,
690,1970,0.253469,-0.291821,0.999998,0.000182,-0.001225,0.004537,-0.001502,0.004905,-0.001593,-76.228586,0.005005,
750,1600,0.911299,-2.040814,0.999999,0.000133,-0.002509,0.005074,0.000122,0.005076,-0.002510,89.075570,0.005076,
1660,2000,-0.075966,-0.127865,0.999998,0.000153,-0.000501,0.003653,0.000961,0.003864,-0.000712,77.589096,0.004113,
860,1360,0.935628,-3.136272,0.999998,0.000181,-0.003174,0.005720,0.000094,0.005721,-0.003175,89.395582,0.005732,
1480,220,-0.191099,-9.379516,0.999998,0.000159,-0.000972,0.003856,-0.000235,0.003867,-0.000984,-87.221553,0.004020,
1390,470,-0.218600,-8.460075,0.999998,0.000180,-0.001707,0.004004,0.000546,0.004056,-0.001759,84.584859,0.004068,
1780,1650,-1.007745,-1.894762,0.999998,0.000182,-0.002467,0.005095,-0.000094,0.005096,-0.002468,-89.287415,0.005097,
1770,1520,-1.167920,-2.544486,0.999998,0.000156,-0.002624,0.005162,-0.000068,0.005162,-0.002625,-89.499962,0.005163,
610,1030,2.051723,-5.028919,0.999998,0.000165,-0.002094,0.004412,-0.000009,0.004412,-0.002094,-89.924251,0.004414,
1860,1560,-1.338969,-2.481528,0.999997,0.000201,-0.002519,0.005082,-0.000042,0.005082,-0.002519,-89.683424,0.005082,
940,590,0.565631,-7.682103,0.999997,0.000233,-0.002748,0.005100,-0.000644,0.005153,-0.002801,-85.338573,0.005159,
1410,880,-0.682204,-6.425856,0.999996,0.000214,-0.003503,0.006563,0.001540,0.006793,-0.003733,81.492316,0.006804,
1650,1370,-1.064659,-3.157866,0.999998,0.000180,-0.003039,0.005564,0.000066,0.005564,-0.003039,89.562752,0.005572,
1340,340,-0.114084,-9.000062,0.999998,0.000154,-0.001161,0.003666,0.000169,0.003672,-0.001167,88.002188,0.003752,
660,140,0.491372,-9.499687,0.999997,0.000217,-0.001827,0.005121,0.001151,0.005307,-0.002013,80.836451,0.005358,
940,870,1.053808,-6.023364,0.999998,0.000187,-0.003334,0.006479,0.000462,0.006500,-0.003356,87.310543,0.006501,
620,1470,1.431736,-2.916330,0.999997,0.000184,-0.002562,0.005109,-0.000013,0.005109,-0.002562,-89.899225,0.005109,
1580,310,-0.431712,-8.926701,0.999997,0.000212,-0.001890,0.004467,-0.000057,0.004467,-0.001891,-89.486656,0.004485,
1900,1230,-1.967430,-4.182821,0.999998,0.000000,-0.002226,0.004647,0.000130,0.004650,-0.002229,88.920457,0.004651,
1730,450,-0.946154,-8.035784,0.999998,0.000158,-0.002516,0.005061,0.000124,0.005063,-0.002518,89.063784,0.005063,
1710,60,-0.111802,-9.924515,0.999999,0.000138,-0.000389,0.003880,-0.001225,0.004207,-0.000716,-75.070380,0.004502,
1090,30,0.006077,-10.047619,0.999999,0.000000,-0.000012,0.003053,0.000207,0.003067,-0.000026,86.158064,0.003526,
1180,1320,0.054455,-2.325246,0.999998,0.000167,-0.001302,0.002184,0.001166,0.002538,-0.001656,73.108873,0.002577,
950,310,0.322453,-8.991157,0.999998,0.000177,-0.001598,0.004212,-0.000003,0.004212,-0.001598,-89.969462,0.004253,
1510,1380,-0.606888,-2.819732,0.999996,0.000222,-0.003192,0.005540,-0.000728,0.005600,-0.003252,-85.269469,0.005625,
910,570,0.630015,-7.723993,0.999997,0.000210,-0.002669,0.005110,-0.000501,0.005142,-0.002701,-86.330391,0.005144,
1790,1120,-1.864389,-4.602639,0.999998,0.000166,-0.002268,0.004801,0.000349,0.004819,-0.002286,87.181423,0.004821,
1860,170,-0.717023,-9.228005,0.999998,0.000186,-0.002457,0.005169,-0.000366,0.005186,-0.002474,-87.261226,0.005188,
960,70,0.051920,-9.914312,0.999999,0.000208,-0.000370,0.003370,0.000460,0.003426,-0.000426,83.087415,0.003735,
1290,1990,-0.006639,-0.136489,0.999999,0.000150,-0.000112,0.003030,0.000089,0.003032,-0.000115,88.385827,0.003437,
1630,140,-0.233696,-9.627983,0.999998,0.000201,-0.000879,0.004087,-0.000789,0.004209,-0.001002,-81.183101,0.004398,
570,710,1.767505,-6.457062,0.999917,0.001026,-0.003055,0.004646,0.000406,0.004668,-0.003076,86.993453,0.004746,
1240,1700,-0.009391,-1.101951,0.999999,0.000145,-0.001096,0.003526,-0.000049,0.003526,-0.001097,-89.393893,0.003609,
990,320,0.270321,-8.985216,0.999998,0.000163,-0.001333,0.004098,-0.000004,0.004098,-0.001333,-89.955268,0.004180,
1800,630,-1.393513,-6.999146,0.999997,0.000203,-0.002623,0.005152,-0.000088,0.005153,-0.002624,-89.350959,0.005153,
850,780,1.128768,-6.430554,0.999997,0.000205,-0.003216,0.005885,0.000359,0.005899,-0.003230,87.743002,0.005908,
1440,1140,-0.928152,-4.098770,0.999997,0.000197,-0.003292,0.007356,-0.000613,0.007392,-0.003327,-86.717525,0.007404,
870,1820,0.352033,-0.835068,0.999998,0.000166,-0.001575,0.004340,-0.000361,0.004362,-0.001597,-86.519274,0.004414,
820,1880,0.315463,-0.607993,0.999997,0.000182,-0.001231,0.004305,-0.000688,0.004390,-0.001315,-83.016324,0.004506,
990,650,0.468738,-7.495430,0.999997,0.000209,-0.002950,0.005118,-0.000971,0.005233,-0.003065,-83.230894,0.005259,
1690,1040,-1.699894,-4.977142,0.999997,0.000178,-0.002079,0.004988,0.000145,0.004991,-0.002081,88.823756,0.005013,
1540,1690,-0.420086,-1.358699,0.999997,0.000199,-0.001690,0.004406,-0.000047,0.004407,-0.001691,-89.555868,0.004446,
860,1340,0.968802,-3.250456,0.999998,0.000169,-0.003230,0.005804,-0.000006,0.005804,-0.003230,-89.964012,0.005817,
1810,1410,-1.444536,-3.174601,0.999997,0.000216,-0.002610,0.005140,0.000120,0.005142,-0.002612,89.110968,0.005142,
1480,200,-0.170567,-9.455319,0.999998,0.000165,-0.000875,0.003823,-0.000293,0.003841,-0.000894,-86.441034,0.004020,
1760,1650,-0.957747,-1.863581,0.999998,0.000157,-0.002469,0.005079,-0.000083,0.005080,-0.002470,-89.373368,0.005081,
690,1950,0.313327,-0.377046,0.999997,0.000201,-0.001585,0.004676,-0.001282,0.004928,-0.001838,-78.864492,0.004981,
610,1010,2.045274,-5.116209,0.999998,0.000162,-0.002093,0.004406,0.000129,0.004409,-0.002095,88.859835,0.004410,
1490,180,-0.158809,-9.526912,0.999998,0.000157,-0.000902,0.003748,-0.000315,0.003770,-0.000924,-86.138766,0.003930,
1860,1540,-1.368085,-2.585048,0.999997,0.000213,-0.002527,0.005121,-0.000042,0.005121,-0.002527,-89.681830,0.005122,
720,1150,1.722405,-4.437914,0.999998,0.000177,-0.002348,0.005011,-0.000474,0.005041,-0.002379,-86.331071,0.005044,
1120,1390,0.152959,-2.280817,0.999998,0.000190,-0.001875,0.003590,0.001325,0.003894,-0.002180,77.064571,0.003903,
1650,1350,-1.100081,-3.269974,0.999998,0.000194,-0.003069,0.005638,0.000143,0.005640,-0.003072,89.061600,0.005648,
920,590,0.621631,-7.641287,0.999997,0.000203,-0.002765,0.005158,-0.000559,0.005197,-0.002804,-85.981374,0.005202,
1150,1800,0.063435,-0.761573,0.999999,0.000141,-0.000793,0.003494,-0.000019,0.003494,-0.000793,-89.740601,0.003663,
1900,1220,-1.983254,-4.231423,0.999998,0.000000,-0.002249,0.004642,0.000154,0.004646,-0.002253,88.718704,0.004646,
1180,1300,0.056156,-2.365815,0.999998,0.000184,-0.001360,0.002014,0.001314,0.002465,-0.001811,71.044259,0.002554,
1730,1470,-1.134594,-2.742128,0.999997,0.000196,-0.002692,0.005252,-0.000018,0.005252,-0.002692,-89.872683,0.005252,
1790,1520,-1.219515,-2.576175,0.999998,0.000180,-0.002574,0.005144,-0.000064,0.005144,-0.002575,-89.526398,0.005144,
1030,1390,0.364544,-2.547635,0.999997,0.000233,-0.002786,0.004859,0.001256,0.005060,-0.002987,80.904145,0.005087,
1000,970,1.189402,-5.474803,0.999997,0.000203,-0.002674,0.007394,-0.000021,0.007394,-0.002674,-89.882376,0.007488,
1390,450,-0.212843,-8.539766,0.999998,0.000159,-0.001645,0.004001,0.000471,0.004040,-0.001684,85.260701,0.004059,
910,550,0.612037,-7.824620,0.999997,0.000199,-0.002613,0.005050,-0.000488,0.005081,-0.002644,-86.371513,0.005082,
1550,1680,-0.446459,-1.413303,0.999997,0.000197,-0.001865,0.004496,-0.000080,0.004497,-0.001866,-89.283978,0.004518,
990,1980,0.046757,-0.178469,0.999999,0.000110,-0.000234,0.003331,-0.000416,0.003379,-0.000282,-83.433047,0.003750,
1390,880,-0.611369,-6.580356,0.999990,0.000364,-0.003093,0.005558,0.002111,0.006046,-0.003580,76.994884,0.006080,
1040,870,0.687303,-6.403368,0.999997,0.000201,-0.003592,0.006769,-0.001219,0.006911,-0.003733,-83.381019,0.006918,
950,290,0.306050,-9.073176,0.999998,0.000179,-0.001529,0.004185,0.000069,0.004185,-0.001530,89.309989,0.004236,
1080,2020,0.007563,-0.048311,0.999999,0.000000,-0.000018,0.003023,-0.000190,0.003034,-0.000030,-86.440244,0.003486,
660,390,1.041834,-8.222701,0.999998,0.000174,-0.002472,0.005040,-0.000056,0.005040,-0.002472,-89.574809,0.005040,
940,70,0.057498,-9.912397,0.999998,0.000168,-0.000291,0.003405,0.000557,0.003487,-0.000373,81.616842,0.003830,
1340,320,-0.109190,-9.074171,0.999998,0.000152,-0.001113,0.003657,0.000125,0.003660,-0.001116,88.503382,0.003752,
660,120,0.416742,-9.602603,0.999997,0.000209,-0.001637,0.005168,0.001368,0.005433,-0.001902,79.045312,0.005514,
1780,90,-0.277972,-9.764549,0.999998,0.000169,-0.001248,0.004605,-0.001534,0.004983,-0.001626,-76.167260,0.005082,
1880,1060,-2.096183,-4.901637,0.999998,0.000156,-0.002040,0.004168,0.000088,0.004169,-0.002042,89.191763,0.004170,
730,780,1.479885,-6.294773,0.999998,0.000227,-0.002717,0.005325,0.000465,0.005351,-0.002744,86.698480,0.005352,
720,1590,1.001017,-2.140570,0.999998,0.000177,-0.002521,0.005105,0.000111,0.005107,-0.002522,89.165428,0.005107,
1470,360,-0.295517,-8.823217,0.999998,0.000158,-0.001491,0.004140,0.000145,0.004144,-0.001495,88.527342,0.004197,
780,1210,1.471012,-4.091841,0.999998,0.000183,-0.002708,0.005449,-0.000627,0.005497,-0.002756,-85.626586,0.005497,
1280,1780,-0.041464,-0.828290,0.999998,0.000156,-0.000812,0.003502,0.000026,0.003502,-0.000813,89.654406,0.003666,
1800,610,-1.361690,-7.101301,0.999997,0.000197,-0.002598,0.005124,-0.000060,0.005124,-0.002598,-89.558469,0.005124,
1240,1680,-0.009843,-1.173237,0.999998,0.000149,-0.001133,0.003529,-0.000063,0.003530,-0.001134,-89.225202,0.003605,
1430,1860,-0.126756,-0.588493,0.999998,0.000184,-0.000831,0.003630,0.000196,0.003638,-0.000839,87.494288,0.003810,
1440,1120,-1.008489,-4.244948,0.999998,0.000181,-0.003169,0.007546,-0.000680,0.007589,-0.003212,-86.384692,0.007618,
1840,610,-1.464664,-7.040396,0.999997,0.000200,-0.002571,0.005069,-0.000056,0.005070,-0.002571,-89.582919,0.005070,
1810,1390,-1.478813,-3.275932,0.999997,0.000216,-0.002604,0.005143,0.000160,0.005146,-0.002607,88.815544,0.005146,
690,1930,0.386282,-0.479316,0.999997,0.000215,-0.001785,0.004871,-0.001175,0.005072,-0.001987,-80.275693,0.005111,
990,630,0.454876,-7.596724,0.999997,0.000217,-0.002805,0.004975,-0.000945,0.005089,-0.002918,-83.169719,0.005107,
1480,180,-0.150151,-9.531757,0.999998,0.000162,-0.000792,0.003724,-0.000325,0.003747,-0.000816,-85.900845,0.003941,
860,1320,1.006413,-3.368305,0.999998,0.000177,-0.003258,0.005871,-0.000085,0.005872,-0.003259,-89.464679,0.005883,
1680,1650,-0.765988,-1.738067,0.999998,0.000166,-0.002327,0.004986,-0.000079,0.004987,-0.002328,-89.380723,0.004990,
1860,1520,-1.397679,-2.687284,0.999997,0.000214,-0.002527,0.005095,-0.000024,0.005095,-0.002527,-89.816075,0.005095,
600,1470,1.482908,-2.947103,0.999998,0.000183,-0.002546,0.005099,-0.000024,0.005099,-0.002546,-89.821518,0.005099,
1540,290,-0.344064,-9.050220,0.999998,0.000170,-0.001452,0.004275,-0.000169,0.004280,-0.001457,-88.306521,0.004352,
1650,1330,-1.135191,-3.384312,0.999997,0.000198,-0.003089,0.005660,0.000206,0.005664,-0.003094,88.649226,0.005672,
1180,1280,0.061458,-2.400889,0.999998,0.000181,-0.001468,0.001843,0.001433,0.002377,-0.002001,69.562960,0.002555,
830,500,0.766060,-7.939170,0.999998,0.000166,-0.002561,0.005067,-0.000244,0.005075,-0.002569,-88.166977,0.005075,
1900,1210,-1.999836,-4.277841,0.999998,0.000000,-0.002257,0.004589,0.000144,0.004592,-0.002260,88.795369,0.004592,
1340,300,-0.101344,-9.145996,0.999998,0.000145,-0.001045,0.003605,0.000098,0.003607,-0.001047,88.792330,0.003711,
1870,1060,-2.075614,-4.899978,0.999998,0.000156,-0.002077,0.004266,0.000088,0.004267,-0.002078,89.207093,0.004267,
610,990,2.037113,-5.206021,0.999998,0.000170,-0.002089,0.004384,0.000082,0.004385,-0.002090,89.270315,0.004387,
660,370,1.011570,-8.324896,0.999998,0.000145,-0.002467,0.005046,-0.000012,0.005046,-0.002467,-89.911373,0.005047,
1080,1120,0.844873,-3.738495,0.999994,0.000000,-0.002157,0.007512,0.004075,0.009000,-0.003646,69.936453,0.009054,
680,110,0.348087,-9.669756,0.999996,0.000225,-0.001609,0.004874,0.001327,0.005135,-0.001870,78.866522,0.005198,
1280,130,-0.016984,-9.739616,0.999998,0.000154,-0.000329,0.003197,-0.000044,0.003198,-0.000329,-89.285883,0.003518,
1310,1800,-0.060375,-0.761522,0.999999,0.000130,-0.000778,0.003488,0.000016,0.003488,-0.000778,89.791608,0.003662,
1470,340,-0.282609,-8.905791,0.999998,0.000156,-0.001396,0.004082,0.000076,0.004083,-0.001397,89.201852,0.004151,
950,270,0.282941,-9.159761,0.999998,0.000182,-0.001449,0.004105,0.000144,0.004108,-0.001452,88.515052,0.004167,
940,610,0.581988,-7.578996,0.999998,0.000193,-0.002835,0.005223,-0.000654,0.005275,-0.002887,-85.390432,0.005283,
570,1410,1.665523,-3.298324,0.999789,0.001756,-0.003858,0.005133,-0.000200,0.005137,-0.003862,-88.724947,0.005350,
1890,1440,-1.598480,-3.141021,0.999997,0.000218,-0.002555,0.005096,0.000027,0.005096,-0.002555,89.795241,0.005096,
860,1090,1.485302,-4.705198,0.999998,0.000171,-0.002071,0.005436,-0.000510,0.005470,-0.002106,-86.132524,0.005518,
1030,1370,0.374964,-2.643937,0.999997,0.000221,-0.002928,0.004987,0.001313,0.005199,-0.003140,80.821705,0.005237,
1560,70,-0.066083,-9.909339,0.999998,0.000158,-0.000301,0.003491,-0.000652,0.003600,-0.000410,-80.510926,0.003942,
730,180,0.465503,-9.385199,0.999998,0.000186,-0.001783,0.004788,0.000798,0.004883,-0.001879,83.175437,0.004926,
1550,1780,-0.339883,-0.971897,0.999998,0.000162,-0.001381,0.004234,0.000222,0.004243,-0.001390,87.739722,0.004326,
820,1840,0.391772,-0.783558,0.999998,0.000171,-0.001495,0.004450,-0.000566,0.004504,-0.001549,-84.609813,0.004576,
1860,830,-1.885553,-5.923320,0.999998,0.000172,-0.002300,0.004653,-0.000206,0.004659,-0.002306,-88.300945,0.004659,
1390,430,-0.207016,-8.621417,0.999998,0.000169,-0.001566,0.003964,0.000406,0.003993,-0.001595,85.825703,0.004020,
700,1670,0.936531,-1.767057,0.999997,0.000180,-0.002445,0.005076,0.000074,0.005077,-0.002446,89.433274,0.005078,
1470,1980,-0.046143,-0.178660,0.999999,0.000156,-0.000214,0.003313,0.000414,0.003361,-0.000262,83.393113,0.003738,
1440,1100,-1.079747,-4.397189,0.999997,0.000216,-0.003125,0.008125,-0.000775,0.008179,-0.003178,-86.080003,0.008246,
910,530,0.593548,-7.925419,0.999997,0.000196,-0.002545,0.004984,-0.000459,0.005012,-0.002573,-86.524691,0.005013,
1450,1060,-1.204572,-4.761238,0.999997,0.000201,-0.002921,0.008440,-0.000262,0.008446,-0.002927,-88.679368,0.008577,
910,920,1.285626,-5.661117,0.999997,0.000194,-0.002608,0.006016,0.000711,0.006075,-0.002666,85.317077,0.006090,
1540,1710,-0.400417,-1.268809,0.999997,0.000214,-0.001610,0.004506,0.000011,0.004506,-0.001610,89.898460,0.004567,
1840,590,-1.432684,-7.143079,0.999997,0.000189,-0.002585,0.005075,-0.000034,0.005075,-0.002586,-89.743123,0.005075,
780,1190,1.509451,-4.200641,0.999998,0.000192,-0.002599,0.005376,-0.000615,0.005423,-0.002646,-85.616680,0.005424,
1810,1370,-1.514387,-3.378198,0.999997,0.000203,-0.002589,0.005098,0.000210,0.005104,-0.002594,88.438745,0.005104,
660,100,0.345992,-9.703837,0.999997,0.000193,-0.001287,0.004985,0.001589,0.005365,-0.001667,76.560892,0.005492,
1480,160,-0.129790,-9.604786,0.999998,0.000161,-0.000679,0.003634,-0.000347,0.003662,-0.000707,-85.435495,0.003885,
690,1910,0.447479,-0.570361,0.999997,0.000215,-0.001983,0.004913,-0.000971,0.005047,-0.002117,-82.137516,0.005069,
1270,1400,-0.043933,-2.106476,0.999998,0.000176,-0.001239,0.002762,-0.000519,0.002828,-0.001305,-82.731666,0.002831,
860,1300,1.044407,-3.486965,0.999998,0.000170,-0.003280,0.005882,-0.000178,0.005885,-0.003283,-88.890223,0.005898,
1650,1310,-1.174060,-3.497549,0.999997,0.000228,-0.003086,0.005682,0.000283,0.005691,-0.003095,88.156151,0.005698,
880,290,0.412441,-9.012320,0.999998,0.000173,-0.001829,0.004428,0.000128,0.004430,-0.001831,88.828044,0.004453,
990,610,0.444446,-7.695469,0.999997,0.000227,-0.002660,0.004913,-0.000869,0.005011,-0.002758,-83.539246,0.005019,
1140,1730,0.090241,-1.015439,0.999999,0.000141,-0.001107,0.003606,0.000096,0.003607,-0.001109,88.834574,0.003696,
1860,760,-1.770914,-6.257473,0.999998,0.000161,-0.002434,0.004924,-0.000199,0.004929,-0.002440,-88.454187,0.004929,
1080,1110,0.874810,-3.826987,0.999992,0.000000,-0.002223,0.008463,0.004289,0.009972,-0.003731,70.622931,0.010076,
650,320,0.953213,-8.560825,0.999998,0.000175,-0.002425,0.005057,0.000042,0.005057,-0.002425,89.678137,0.005059,
1290,1800,-0.046172,-0.759512,0.999999,0.000120,-0.000711,0.003461,0.000035,0.003461,-0.000712,89.513348,0.003656,
820,1300,1.173645,-3.545556,0.999998,0.000204,-0.003062,0.005736,-0.000312,0.005747,-0.003073,-87.968724,0.005752,
820,250,0.453920,-9.135836,0.999997,0.000217,-0.001656,0.004585,0.000413,0.004612,-0.001683,86.234266,0.004668,
610,660,1.579056,-6.767352,0.999997,0.000214,-0.002552,0.005037,0.000125,0.005039,-0.002554,89.059044,0.005039,
1290,1250,-0.096490,-2.482604,0.999998,0.000185,-0.001865,0.001805,-0.001536,0.002363,-0.002423,-70.031447,0.002764,
1860,810,-1.854717,-6.015480,0.999998,0.000178,-0.002327,0.004664,-0.000200,0.004669,-0.002333,-88.362988,0.004669,
1450,320,-0.239967,-9.002577,0.999998,0.000156,-0.001319,0.004006,0.000036,0.004007,-0.001319,89.611982,0.004084,
1620,1130,-1.462909,-4.494478,0.999997,0.000217,-0.002382,0.005542,0.000676,0.005600,-0.002439,85.159642,0.005615,
1640,70,-0.098608,-9.900325,0.999998,0.000137,-0.000362,0.003741,-0.000957,0.003953,-0.000574,-77.488632,0.004272,
890,920,1.335343,-5.644707,0.999997,0.000195,-0.002545,0.005825,0.000723,0.005887,-0.002607,85.097191,0.005900,
1700,1230,-1.478587,-3.996844,0.999997,0.000192,-0.002724,0.005386,0.000581,0.005428,-0.002765,85.923589,0.005428,
1900,1200,-2.015808,-4.322550,0.999998,0.000000,-0.002264,0.004444,0.000100,0.004445,-0.002266,89.148207,0.004446,
1890,1430,-1.614309,-3.192798,0.999997,0.000220,-0.002558,0.005074,0.000033,0.005074,-0.002558,89.755487,0.005074,
950,250,0.261772,-9.237430,0.999998,0.000171,-0.001353,0.004032,0.000201,0.004040,-0.001361,87.862147,0.004111,
1240,1660,-0.008757,-1.242808,0.999998,0.000158,-0.001158,0.003542,-0.000074,0.003543,-0.001159,-89.094456,0.003614,
1670,760,-1.264395,-6.470961,0.999997,0.000215,-0.002957,0.005605,-0.000385,0.005622,-0.002974,-87.433381,0.005625,
660,80,0.259232,-9.804936,0.999997,0.000183,-0.000930,0.005000,0.001945,0.005581,-0.001511,73.369080,0.005773,
980,1470,0.455466,-2.285043,0.999997,0.000200,-0.002554,0.004872,0.000787,0.004955,-0.002637,84.013977,0.004958,
1420,830,-0.541266,-6.681336,0.999995,0.000264,-0.003903,0.006183,0.001346,0.006359,-0.004079,82.525304,0.006444,
1730,1430,-1.199438,-2.952678,0.999998,0.000166,-0.002749,0.005272,0.000054,0.005272,-0.002749,89.616478,0.005274,
1780,640,-1.356413,-6.975252,0.999997,0.000187,-0.002645,0.005188,-0.000130,0.005191,-0.002647,-89.049119,0.005191,
1330,440,-0.123736,-8.635001,0.999998,0.000174,-0.001365,0.003691,0.000319,0.003711,-0.001385,86.405283,0.003750,
910,510,0.571625,-8.027624,0.999998,0.000202,-0.002451,0.004896,-0.000421,0.004920,-0.002475,-86.733220,0.004921,
1430,1080,-1.102182,-4.527642,0.999995,0.000260,-0.003599,0.009066,-0.001275,0.009194,-0.003726,-84.308416,0.009248,
740,1060,1.761433,-4.879435,0.999998,0.000167,-0.002158,0.004888,-0.000155,0.004892,-0.002161,-88.737738,0.004903,
820,290,0.519559,-8.951998,0.999998,0.000187,-0.001853,0.004660,0.000261,0.004671,-0.001863,87.709796,0.004703,
1600,1380,-0.894972,-3.017054,0.999998,0.000151,-0.003156,0.005638,-0.000170,0.005642,-0.003159,-88.895793,0.005655,
1810,1350,-1.549103,-3.481746,0.999997,0.000198,-0.002560,0.005109,0.000220,0.005115,-0.002566,88.359138,0.005115,
690,1890,0.509507,-0.676306,0.999997,0.000224,-0.002111,0.005011,-0.000854,0.005112,-0.002211,-83.256940,0.005128,
610,970,2.030393,-5.294297,0.999998,0.000161,-0.002093,0.004327,0.000049,0.004328,-0.002094,89.564171,0.004328,
1390,410,-0.197847,-8.700704,0.999998,0.000169,-0.001473,0.003888,0.000319,0.003907,-0.001492,86.605100,0.003943,
1180,1260,0.072289,-2.434507,0.999998,0.000185,-0.001643,0.001671,0.001421,0.002196,-0.002169,69.694311,0.002520,
1550,1760,-0.365029,-1.058307,0.999998,0.000166,-0.001490,0.004334,0.000172,0.004339,-0.001495,88.309753,0.004409,
780,1480,0.992255,-2.613020,0.999998,0.000175,-0.002732,0.005251,0.000108,0.005252,-0.002733,89.227548,0.005254,
710,160,0.452525,-9.456208,0.999997,0.000192,-0.002076,0.004883,0.000814,0.004977,-0.002170,83.414062,0.004991,
1280,370,-0.053193,-8.914455,0.999998,0.000139,-0.001083,0.003532,0.000057,0.003533,-0.001084,89.286714,0.003620,
1160,1470,0.091486,-1.934693,0.999998,0.000146,-0.001426,0.003314,0.000643,0.003400,-0.001512,82.406084,0.003407,
1030,1350,0.389647,-2.747518,0.999997,0.000204,-0.003103,0.005168,0.001366,0.005388,-0.003323,80.859478,0.005436,
1690,1750,-0.643163,-1.258133,0.999998,0.000185,-0.002165,0.004835,0.000166,0.004839,-0.002169,88.641450,0.004848,
1340,1490,-0.147529,-1.911356,0.999998,0.000158,-0.001584,0.003636,-0.000695,0.003727,-0.001675,-82.546112,0.003734,
1620,1110,-1.495149,-4.603753,0.999997,0.000193,-0.002232,0.005398,0.000539,0.005436,-0.002270,85.979489,0.005461,
1080,1100,0.905417,-3.914601,0.999992,0.000000,-0.002484,0.009426,0.004545,0.010962,-0.004020,71.324657,0.011091,
880,330,0.462879,-8.830782,0.999997,0.000191,-0.001960,0.004608,-0.000001,0.004608,-0.001960,-89.989343,0.004625,
1580,1570,-0.618042,-1.977084,0.999998,0.000201,-0.002439,0.004903,-0.000349,0.004920,-0.002456,-87.286759,0.004920,
1340,280,-0.095309,-9.217428,0.999998,0.000139,-0.000992,0.003608,0.000048,0.003609,-0.000993,89.397819,0.003729,
990,590,0.433196,-7.790555,0.999997,0.000225,-0.002552,0.004804,-0.000844,0.004899,-0.002648,-83.534787,0.004905,
780,1170,1.544561,-4.307567,0.999998,0.000191,-0.002530,0.005318,-0.000604,0.005365,-0.002576,-85.622597,0.005366,
620,690,1.606534,-6.629598,0.999997,0.000201,-0.002546,0.005061,0.000176,0.005065,-0.002550,88.677903,0.005065,
780,230,0.492570,-9.189912,0.999997,0.000179,-0.001925,0.004696,0.000479,0.004730,-0.001960,85.887298,0.004753,
1560,1160,-1.238780,-4.273845,0.999997,0.000197,-0.002884,0.006102,0.000720,0.006160,-0.002942,85.447607,0.006162,
1650,1290,-1.213489,-3.612951,0.999997,0.000205,-0.003071,0.005693,0.000363,0.005708,-0.003086,87.634224,0.005714,
1730,1700,-0.810171,-1.561879,0.999997,0.000188,-0.002393,0.005016,0.000026,0.005017,-0.002394,89.800111,0.005018,
890,1920,0.169601,-0.411344,0.999998,0.000159,-0.000853,0.003850,-0.000601,0.003925,-0.000928,-82.829744,0.004103,
1450,1980,-0.043193,-0.177984,0.999999,0.000162,-0.000217,0.003296,0.000371,0.003335,-0.000256,84.031589,0.003712,
700,970,1.836636,-5.314974,0.999998,0.000170,-0.002204,0.004774,0.000182,0.004779,-0.002209,88.505546,0.004784,
590,650,1.613081,-6.787219,0.999997,0.000224,-0.002711,0.005131,0.000123,0.005133,-0.002713,89.101444,0.005135,
1850,1060,-2.033851,-4.894735,0.999998,0.000160,-0.002093,0.004388,0.000100,0.004389,-0.002094,89.115397,0.004391,
860,1720,0.508621,-1.296521,0.999997,0.000194,-0.001923,0.004692,-0.000058,0.004692,-0.001923,-89.494252,0.004718,
1890,1600,-1.355571,-2.325412,0.999997,0.000209,-0.002475,0.005010,-0.000065,0.005010,-0.002476,-89.501242,0.005011,
640,1370,1.546690,-3.396031,0.999997,0.000207,-0.002565,0.005093,-0.000211,0.005098,-0.002571,-88.422959,0.005098,
870,1160,1.332768,-4.306376,0.999998,0.000188,-0.002714,0.005820,-0.000722,0.005880,-0.002775,-85.194895,0.005883,
1440,1300,-0.464420,-3.044726,0.999997,0.000200,-0.003578,0.005714,-0.001305,0.005894,-0.003758,-82.154365,0.005968,
1880,1430,-1.588822,-3.176494,0.999997,0.000217,-0.002550,0.005075,0.000041,0.005075,-0.002550,89.694579,0.005075,
1580,950,-1.414941,-5.466061,0.999997,0.000217,-0.002208,0.005654,-0.000610,0.005701,-0.002255,-85.591136,0.005742,
760,1590,0.900529,-2.074722,0.999998,0.000168,-0.002493,0.005092,0.000130,0.005094,-0.002495,89.016003,0.005094,
1900,1190,-2.028832,-4.367062,0.999998,0.000000,-0.002261,0.004326,0.000047,0.004326,-0.002261,89.589750,0.004327,
660,60,0.172238,-9.905499,0.999998,0.000179,-0.000586,0.004646,0.001942,0.005288,-0.001228,71.702217,0.005535,
1520,740,-0.729256,-6.859673,0.999998,0.000176,-0.003532,0.005979,0.000464,0.006002,-0.003555,87.210948,0.006036,
1420,810,-0.492510,-6.805142,0.999997,0.000241,-0.003898,0.005993,0.001432,0.006196,-0.004101,81.922897,0.006303,
1730,890,-1.668695,-5.724302,0.999998,0.000176,-0.002424,0.005144,-0.000566,0.005186,-0.002466,-85.749845,0.005188,
1390,1160,-0.680741,-3.581192,0.999993,0.000331,-0.002642,0.005564,-0.002531,0.006282,-0.003360,-74.165073,0.006287,
740,1020,1.771552,-5.076953,0.999998,0.000165,-0.002138,0.004923,0.000079,0.004924,-0.002139,89.358715,0.004938,
790,960,1.629758,-5.383533,0.999998,0.000177,-0.002166,0.005158,0.000455,0.005186,-0.002195,86.459148,0.005206,
950,230,0.239369,-9.320000,0.999998,0.000165,-0.001257,0.004017,0.000239,0.004027,-0.001268,87.405070,0.004119,
1780,620,-1.323444,-7.078623,0.999998,0.000161,-0.002651,0.005185,-0.000082,0.005185,-0.002652,-89.397373,0.005186,
1240,1640,-0.009839,-1.314161,0.999998,0.000160,-0.001189,0.003531,-0.000070,0.003532,-0.001190,-89.155450,0.003594,
910,730,0.829835,-6.840038,0.999997,0.000214,-0.003431,0.005928,-0.000253,0.005935,-0.003438,-88.451946,0.005960,
1020,190,0.133134,-9.505528,0.999998,0.000165,-0.000754,0.003647,0.000239,0.003660,-0.000767,86.896894,0.003860,
1290,830,-0.142528,-7.555490,0.999997,0.000198,-0.002246,0.001686,0.001009,0.001930,-0.002490,76.409539,0.002613,
1480,140,-0.111137,-9.676857,0.999998,0.000167,-0.000594,0.003552,-0.000355,0.003582,-0.000624,-85.137067,0.003827,
1160,1730,0.068562,-1.009916,0.999999,0.000139,-0.000951,0.003571,0.000020,0.003571,-0.000951,89.741243,0.003699,
610,950,2.021485,-5.379087,0.999998,0.000149,-0.002128,0.004431,0.000141,0.004434,-0.002131,88.764817,0.004435,
1080,1620,0.196966,-1.469711,0.999998,0.000180,-0.001524,0.003905,0.000422,0.003937,-0.001557,85.580151,0.003966,
1400,730,-0.306531,-7.333494,0.999997,0.000213,-0.003000,0.004858,0.001704,0.005211,-0.003354,78.278560,0.005282,
1630,1400,-0.957336,-2.958975,0.999997,0.000178,-0.002993,0.005525,-0.000104,0.005527,-0.002994,-89.298212,0.005533,
1080,950,0.891477,-6.214498,0.999994,0.000000,-0.002523,0.009176,-0.004266,0.010566,-0.003913,-71.948326,0.010684,
780,1440,1.051276,-2.827700,0.999998,0.000176,-0.002826,0.005386,0.000058,0.005387,-0.002827,89.596364,0.005389,
1650,1270,-1.255182,-3.726112,0.999997,0.000208,-0.003032,0.005690,0.000453,0.005713,-0.003055,87.035323,0.005718,
580,1730,1.131422,-1.672266,0.999998,0.000169,-0.002359,0.004857,0.000038,0.004857,-0.002359,89.696551,0.004857,
1510,1580,-0.448234,-1.815632,0.999998,0.000180,-0.002205,0.004618,-0.000459,0.004649,-0.002236,-86.170303,0.004650,
1340,260,-0.088556,-9.290558,0.999998,0.000143,-0.000929,0.003514,0.000032,0.003514,-0.000929,89.591691,0.003642,
1130,750,0.141341,-7.543385,0.999997,0.000221,-0.002179,0.003299,-0.001969,0.003933,-0.002813,-72.144569,0.004053,
620,670,1.569754,-6.730851,0.999997,0.000201,-0.002544,0.005070,0.000156,0.005073,-0.002547,88.828474,0.005073,
1860,1500,-1.428644,-2.789000,0.999997,0.000192,-0.002532,0.005109,0.000012,0.005109,-0.002532,89.907573,0.005109,
880,310,0.437216,-8.923880,0.999998,0.000167,-0.001883,0.004499,0.000067,0.004500,-0.001884,89.400334,0.004520,
650,300,0.917030,-8.662789,0.999998,0.000192,-0.002397,0.005066,0.000114,0.005068,-0.002399,89.122578,0.005071,
1030,1330,0.406929,-2.852055,0.999998,0.000199,-0.003280,0.005320,0.001403,0.005543,-0.003503,80.963585,0.005607,
1870,1430,-1.564318,-3.161273,0.999997,0.000235,-0.002525,0.005086,0.000058,0.005086,-0.002525,89.560063,0.005086,
1060,1410,0.279300,-2.365894,0.999998,0.000172,-0.002384,0.004385,0.001247,0.004607,-0.002606,79.885709,0.004620,
990,1010,1.284608,-5.162141,0.999997,0.000224,-0.002285,0.007359,0.000064,0.007359,-0.002286,89.620083,0.007533,
1050,1980,0.032710,-0.174432,0.999999,0.000136,-0.000283,0.003201,-0.000280,0.003223,-0.000305,-85.432678,0.003559,
850,1160,1.386090,-4.321495,0.999997,0.000207,-0.002617,0.005663,-0.000705,0.005723,-0.002676,-85.165797,0.005727,
1610,980,-1.520052,-5.290635,0.999997,0.000221,-0.002032,0.005367,-0.000389,0.005387,-0.002053,-87.000289,0.005437,
1900,1180,-2.041494,-4.409113,0.999998,0.000000,-0.002242,0.004234,0.000014,0.004234,-0.002242,89.874946,0.004236,
860,1740,0.482308,-1.201407,0.999998,0.000192,-0.001885,0.004589,-0.000082,0.004590,-0.001886,-89.272942,0.004615,
1520,720,-0.700465,-6.976732,0.999997,0.000182,-0.003444,0.005838,0.000559,0.005872,-0.003477,86.568834,0.005905,
650,1990,0.196237,-0.198297,0.999998,0.000182,-0.001032,0.004873,-0.001826,0.005392,-0.001551,-74.134196,0.005552,
1020,130,0.084082,-9.718872,0.999998,0.000155,-0.000510,0.003415,0.000310,0.003440,-0.000535,85.518117,0.003702,
1720,1450,-1.139175,-2.832990,0.999998,0.000155,-0.002751,0.005286,0.000004,0.005286,-0.002751,89.969058,0.005287,
820,1280,1.211844,-3.661518,0.999998,0.000214,-0.003055,0.005730,-0.000381,0.005747,-0.003071,-87.524263,0.005751,
1890,1610,-1.341025,-2.275737,0.999997,0.000207,-0.002474,0.004972,-0.000042,0.004972,-0.002474,-89.679606,0.004972,
1730,870,-1.638060,-5.827353,0.999998,0.000192,-0.002482,0.005113,-0.000546,0.005152,-0.002521,-85.908537,0.005153,
950,210,0.218545,-9.398157,0.999998,0.000186,-0.001138,0.003922,0.000292,0.003939,-0.001154,86.707252,0.004050,
1390,1180,-0.587725,-3.469640,0.999993,0.000310,-0.003247,0.005559,-0.002032,0.006005,-0.003693,-77.613850,0.006058,
1230,440,0.002119,-8.678969,0.999998,0.000154,-0.001222,0.003516,-0.000007,0.003516,-0.001222,-89.911237,0.003570,
1810,1330,-1.584782,-3.583816,0.999997,0.000189,-0.002552,0.005088,0.000259,0.005097,-0.002561,88.058733,0.005097,
1110,760,0.194141,-7.414500,0.999997,0.000213,-0.002589,0.003910,-0.002085,0.004522,-0.003200,-73.655281,0.004650,
1460,1310,-0.522877,-3.062946,0.999997,0.000184,-0.003592,0.005832,-0.001087,0.005955,-0.003716,-83.502743,0.006016,
1080,940,0.854568,-6.294016,0.999994,0.000000,-0.002201,0.007924,-0.004188,0.009432,-0.003709,-70.200351,0.009503,
1340,1470,-0.147963,-1.984706,0.999998,0.000193,-0.001659,0.003635,-0.000819,0.003758,-0.001783,-81.406478,0.003760,
1780,600,-1.293273,-7.183943,0.999998,0.000160,-0.002646,0.005179,-0.000048,0.005180,-0.002646,-89.650095,0.005180,
740,480,0.970127,-7.895564,0.999998,0.000152,-0.002567,0.005099,-0.000131,0.005102,-0.002569,-89.022511,0.005102,
610,930,1.999408,-5.470260,0.999998,0.000146,-0.002164,0.004570,0.000252,0.004579,-0.002173,87.862033,0.004581,
1650,1250,-1.296608,-3.840739,0.999997,0.000217,-0.002973,0.005688,0.000526,0.005720,-0.003005,86.534994,0.005723,
770,960,1.674136,-5.379735,0.999998,0.000169,-0.002204,0.005096,0.000419,0.005120,-0.002228,86.725368,0.005134,
1240,480,-0.009972,-8.537767,0.999998,0.000161,-0.001259,0.003454,0.000087,0.003455,-0.001261,88.939270,0.003497,
910,490,0.556532,-8.122442,0.999997,0.000206,-0.002341,0.004821,-0.000383,0.004842,-0.002362,-86.946762,0.004842,
780,900,1.570577,-5.694086,0.999997,0.000214,-0.002453,0.005337,0.000639,0.005389,-0.002505,85.344696,0.005393,
1610,1400,-0.896615,-2.923143,0.999998,0.000145,-0.003085,0.005544,-0.000176,0.005548,-0.003089,-88.834764,0.005560,
1400,1510,-0.251903,-1.936533,0.999997,0.000181,-0.001897,0.004098,-0.000759,0.004193,-0.001992,-82.891485,0.004195,
1340,240,-0.082236,-9.359713,0.999998,0.000161,-0.000866,0.003528,-0.000015,0.003528,-0.000867,-89.798808,0.003677,
1800,330,-0.938465,-8.532972,0.999998,0.000153,-0.002425,0.005004,-0.000006,0.005004,-0.002425,-89.956188,0.005005,
1510,1560,-0.462470,-1.908885,0.999997,0.000206,-0.002297,0.004689,-0.000516,0.004727,-0.002335,-85.801532,0.004727,
950,840,0.931175,-6.243394,0.999998,0.000176,-0.003629,0.006554,0.000136,0.006556,-0.003631,89.236708,0.006569,
1400,250,-0.134354,-9.303669,0.999998,0.000156,-0.000958,0.003679,-0.000075,0.003681,-0.000959,-89.067684,0.003818,
1900,1170,-2.051958,-4.451082,0.999998,0.000000,-0.002206,0.004220,0.000003,0.004220,-0.002206,89.977024,0.004222,
1560,1140,-1.292746,-4.397380,0.999997,0.000196,-0.002671,0.005999,0.000714,0.006057,-0.002730,85.321698,0.006067,
830,1740,0.537948,-1.235179,0.999998,0.000179,-0.001902,0.004684,-0.000129,0.004687,-0.001904,-88.875528,0.004714,
990,1030,1.291348,-5.023680,0.999997,0.000221,-0.002238,0.007136,0.000005,0.007136,-0.002238,89.968097,0.007299,
620,1210,1.869096,-4.209582,0.999998,0.000181,-0.002342,0.004735,-0.000327,0.004750,-0.002357,-87.361172,0.004750,
1520,700,-0.669514,-7.094885,0.999998,0.000183,-0.003347,0.005725,0.000615,0.005767,-0.003388,86.139481,0.005796,
1760,1450,-1.248339,-2.892980,0.999997,0.000190,-0.002670,0.005191,0.000045,0.005191,-0.002670,89.669150,0.005192,
1840,1350,-1.625133,-3.522442,0.999997,0.000191,-0.002538,0.005061,0.000174,0.005065,-0.002542,88.691083,0.005065,
1030,1980,0.038895,-0.175683,0.999999,0.000131,-0.000249,0.003249,-0.000313,0.003277,-0.000277,-84.930486,0.003634,
860,1760,0.457235,-1.110879,0.999997,0.000196,-0.001843,0.004538,-0.000170,0.004543,-0.001847,-88.473962,0.004569,
1860,790,-1.822914,-6.109285,0.999998,0.000178,-0.002381,0.004778,-0.000198,0.004783,-0.002386,-88.420276,0.004783,
1730,850,-1.604902,-5.928247,0.999997,0.000206,-0.002549,0.005168,-0.000542,0.005206,-0.002587,-86.000429,0.005206,
1030,1310,0.425470,-2.959790,0.999997,0.000222,-0.003447,0.005452,0.001419,0.005673,-0.003667,81.157688,0.005754,
650,1970,0.288911,-0.302542,0.999997,0.000197,-0.001350,0.005127,-0.001737,0.005564,-0.001786,-75.894469,0.005681,
1850,1780,-0.957602,-1.359952,0.999998,0.000184,-0.002430,0.004985,0.000035,0.004985,-0.002431,89.731464,0.004986,
1600,1360,-0.927197,-3.130940,0.999998,0.000145,-0.003200,0.005694,-0.000104,0.005695,-0.003202,-89.329775,0.005710,
720,710,1.378512,-6.656541,0.999997,0.000201,-0.002766,0.005286,0.000286,0.005296,-0.002776,87.970272,0.005298,
1500,130,-0.115135,-9.705226,0.999999,0.000131,-0.000686,0.003568,-0.000388,0.003604,-0.000721,-84.830448,0.003814,
950,190,0.194559,-9.478180,0.999998,0.000175,-0.001039,0.003879,0.000360,0.003905,-0.001065,85.833784,0.004038,
590,500,1.379800,-7.552683,0.999997,0.000223,-0.002441,0.005082,0.000020,0.005082,-0.002441,89.848237,0.005083,
1040,1210,0.599361,-3.511910,0.999996,0.000260,-0.003815,0.006419,0.001240,0.006567,-0.003963,83.190357,0.006614,
780,880,1.536939,-5.800164,0.999997,0.000209,-0.002554,0.005281,0.000614,0.005329,-0.002601,85.546440,0.005329,
1780,580,-1.260756,-7.287043,0.999998,0.000160,-0.002626,0.005174,-0.000006,0.005174,-0.002626,-89.955607,0.005174,
1080,930,0.822892,-6.379301,0.999994,0.000000,-0.002025,0.007096,-0.003967,0.008581,-0.003509,-69.488920,0.008628,
610,910,1.977242,-5.564097,0.999998,0.000158,-0.002186,0.004513,0.000215,0.004520,-0.002193,88.166228,0.004521,
1340,220,-0.071064,-9.431368,0.999998,0.000180,-0.000786,0.003467,-0.000018,0.003468,-0.000786,-89.761150,0.003636,
1650,520,-0.833540,-7.805383,0.999998,0.000131,-0.002627,0.005125,0.000215,0.005131,-0.002633,88.412062,0.005132,
1560,430,-0.522093,-8.397768,0.999998,0.000184,-0.002189,0.004735,0.000282,0.004747,-0.002200,87.669956,0.004751,
1210,1340,0.020624,-2.234013,0.999999,0.000127,-0.001032,0.002049,0.000488,0.002125,-0.001107,81.202855,0.002125,
1410,420,-0.234741,-8.638042,0.999997,0.000190,-0.001608,0.004029,0.000382,0.004055,-0.001634,86.141629,0.004080,
740,460,0.943719,-7.996699,0.999998,0.000176,-0.002524,0.005070,-0.000128,0.005072,-0.002527,-89.031516,0.005072,
1480,120,-0.090294,-9.747728,0.999998,0.000159,-0.000512,0.003516,-0.000396,0.003554,-0.000550,-84.441679,0.003826,
1240,1620,-0.009856,-1.386200,0.999998,0.000176,-0.001194,0.003546,-0.000068,0.003547,-0.001195,-89.175827,0.003609,
1810,1310,-1.619513,-3.685370,0.999997,0.000182,-0.002536,0.005029,0.000301,0.005041,-0.002548,87.727181,0.005041,
1720,1650,-0.859930,-1.799136,0.999998,0.000170,-0.002451,0.005046,-0.000098,0.005047,-0.002453,-89.249847,0.005048,
1650,1230,-1.339923,-3.954590,0.999998,0.000196,-0.002891,0.005621,0.000600,0.005663,-0.002933,85.990384,0.005664,
910,450,0.524692,-8.313085,0.999997,0.000200,-0.002236,0.004701,-0.000342,0.004718,-0.002253,-87.183505,0.004719,
1180,1610,0.062554,-1.433600,0.999998,0.000163,-0.001227,0.003550,0.000123,0.003554,-0.001230,88.522232,0.003609,
700,1210,1.678581,-4.147026,0.999997,0.000206,-0.002506,0.005014,-0.000474,0.005043,-0.002536,-86.404621,0.005043,
1740,1450,-1.193155,-2.863728,0.999999,0.000143,-0.002715,0.005232,0.000046,0.005232,-0.002715,89.668167,0.005234,
1900,1160,-2.061766,-4.493003,0.999998,0.000000,-0.002178,0.004206,0.000030,0.004206,-0.002178,89.730835,0.004207,
990,1050,1.280056,-4.879156,0.999997,0.000229,-0.002277,0.007426,-0.000041,0.007426,-0.002278,-89.759982,0.007609,
1330,1800,-0.077246,-0.768223,0.999998,0.000142,-0.000878,0.003536,-0.000031,0.003536,-0.000878,-89.598718,0.003682,
1520,680,-0.644452,-7.208008,0.999997,0.000197,-0.003230,0.005580,0.000655,0.005628,-0.003278,85.772654,0.005654,
1280,1670,-0.055544,-1.218665,0.999998,0.000157,-0.001076,0.003549,-0.000070,0.003551,-0.001077,-89.131809,0.003641,
1210,440,0.026640,-8.673637,0.999998,0.000172,-0.001213,0.003524,-0.000127,0.003528,-0.001217,-88.460651,0.003584,
1270,1980,-0.007583,-0.166984,0.999998,0.000180,-0.000165,0.003049,0.000088,0.003051,-0.000168,88.441260,0.003431,
900,250,0.325919,-9.204954,0.999998,0.000172,-0.001381,0.004282,0.000303,0.004298,-0.001398,86.951085,0.004385,
1030,1290,0.452712,-3.072992,0.999997,0.000210,-0.003642,0.005683,0.001376,0.005882,-0.003841,81.777045,0.005973,
860,1780,0.426224,-1.019403,0.999997,0.000192,-0.001774,0.004471,-0.000243,0.004480,-0.001784,-87.771509,0.004511,
890,1160,1.276461,-4.286370,0.999997,0.000191,-0.002792,0.005980,-0.000729,0.006040,-0.002852,-85.279900,0.006043,
580,500,1.404595,-7.537438,0.999997,0.000202,-0.002134,0.005225,0.000197,0.005230,-0.002140,88.465732,0.005259,
1000,130,0.094809,-9.715458,0.999998,0.000160,-0.000457,0.003469,0.000340,0.003498,-0.000486,85.092729,0.003790,
1730,830,-1.568963,-6.034512,0.999997,0.000200,-0.002627,0.005232,-0.000559,0.005272,-0.002667,-85.953824,0.005272,
660,240,0.768426,-8.984595,0.999998,0.000180,-0.002285,0.005075,0.000380,0.005095,-0.002305,87.053593,0.005103,
1840,1330,-1.659137,-3.623141,0.999997,0.000180,-0.002511,0.004985,0.000225,0.004992,-0.002518,88.281466,0.004992,
700,1010,1.853388,-5.125050,0.999998,0.000160,-0.002164,0.004820,0.000165,0.004824,-0.002168,88.649982,0.004832,
1830,1100,-1.973973,-4.713272,0.999999,0.000149,-0.002150,0.004563,0.000190,0.004569,-0.002155,88.384333,0.004571,
780,860,1.501186,-5.905729,0.999997,0.000203,-0.002633,0.005399,0.000633,0.005449,-0.002683,85.524221,0.005449,
950,610,0.554526,-7.600398,0.999997,0.000217,-0.002830,0.005178,-0.000709,0.005240,-0.002892,-84.982517,0.005249,
1460,670,-0.446109,-7.427984,0.999995,0.000264,-0.003001,0.005181,0.001088,0.005323,-0.003143,82.552912,0.005352,
1630,520,-0.781472,-7.841291,0.999998,0.000153,-0.002633,0.005098,0.000276,0.005108,-0.002643,87.959865,0.005109,
830,1720,0.564907,-1.329852,0.999998,0.000184,-0.001999,0.004738,-0.000072,0.004738,-0.002000,-89.385635,0.004758,
1090,1120,0.825331,-3.611642,0.999994,0.000000,-0.001671,0.007102,0.004249,0.008822,-0.003391,67.956246,0.008900,
1430,1490,-0.320469,-2.081720,0.999997,0.000197,-0.002196,0.004374,-0.000845,0.004481,-0.002303,-82.786245,0.004482,
610,890,1.956382,-5.652320,0.999998,0.000166,-0.002202,0.004499,0.000178,0.004504,-0.002207,88.482373,0.004504,
1240,1580,-0.011842,-1.523442,0.999998,0.000149,-0.001245,0.003437,-0.000079,0.003438,-0.001247,-89.032174,0.003481,
1290,290,-0.051217,-9.196971,0.999998,0.000142,-0.000853,0.003541,-0.000021,0.003541,-0.000853,-89.731598,0.003696,
1070,1860,0.096268,-0.573889,0.999998,0.000207,-0.000700,0.003534,-0.000146,0.003539,-0.000705,-88.024838,0.003746,
1480,190,-0.161275,-9.493719,0.999998,0.000175,-0.000841,0.003787,-0.000314,0.003808,-0.000862,-86.140182,0.003993,
810,1540,0.835611,-2.251974,0.999999,0.000124,-0.002611,0.005124,0.000213,0.005129,-0.002617,88.421479,0.005130,
1600,1340,-0.960576,-3.246441,0.999998,0.000151,-0.003261,0.005815,-0.000026,0.005815,-0.003261,-89.835028,0.005829,
740,440,0.916252,-8.097934,0.999998,0.000164,-0.002481,0.005052,-0.000117,0.005053,-0.002483,-89.112395,0.005054,
1720,330,-0.747463,-8.657599,0.999997,0.000191,-0.002263,0.004961,-0.000094,0.004962,-0.002264,-89.252274,0.004968,
1480,100,-0.070742,-9.817616,0.999998,0.000154,-0.000403,0.003430,-0.000402,0.003472,-0.000444,-84.074765,0.003779,
1810,1290,-1.655820,-3.786457,0.999997,0.000183,-0.002514,0.005002,0.000347,0.005018,-0.002530,87.359322,0.005018,
1020,670,0.395877,-7.478727,0.999996,0.000224,-0.002866,0.005009,-0.001209,0.005191,-0.003047,-81.466938,0.005217,
1900,1150,-2.072312,-4.537185,0.999998,0.000000,-0.002137,0.004205,0.000080,0.004206,-0.002138,89.275476,0.004206,
1780,560,-1.231979,-7.391765,0.999998,0.000164,-0.002628,0.005166,0.000035,0.005166,-0.002628,89.743898,0.005167,
1340,200,-0.066381,-9.500102,0.999998,0.000171,-0.000700,0.003470,-0.000056,0.003471,-0.000701,-89.232975,0.003670,
910,430,0.507018,-8.407776,0.999997,0.000208,-0.002188,0.004693,-0.000272,0.004703,-0.002199,-87.743836,0.004707,
1800,930,-1.881552,-5.495692,0.999998,0.000161,-0.002265,0.004757,-0.000351,0.004775,-0.002283,-87.148414,0.004776,
700,1590,1.050703,-2.173184,0.999997,0.000189,-0.002499,0.005093,0.000099,0.005094,-0.002501,89.256725,0.005095,
1250,1980,-0.003572,-0.167536,0.999998,0.000165,-0.000196,0.003049,0.000036,0.003050,-0.000196,89.366605,0.003414,
990,1070,1.249771,-4.727648,0.999997,0.000201,-0.002378,0.007179,-0.000135,0.007181,-0.002380,-89.188809,0.007315,
700,710,1.433493,-6.630644,0.999996,0.000222,-0.002705,0.005210,0.000307,0.005222,-0.002717,87.785059,0.005223,
940,250,0.275997,-9.231405,0.999998,0.000173,-0.001335,0.004083,0.000234,0.004093,-0.001345,87.528609,0.004172,
1650,1210,-1.380385,-4.065550,0.999998,0.000196,-0.002833,0.005594,0.000634,0.005641,-0.002880,85.720221,0.005641,
1520,660,-0.620979,-7.319074,0.999997,0.000209,-0.003111,0.005465,0.000673,0.005518,-0.003163,85.540620,0.005538,
970,1660,0.360922,-1.434123,0.999998,0.000184,-0.001840,0.004360,0.000257,0.004371,-0.001851,87.627531,0.004388,
1730,810,-1.530994,-6.139690,0.999997,0.000213,-0.002681,0.005241,-0.000530,0.005276,-0.002716,-86.189890,0.005277,
1260,1670,-0.032407,-1.213552,0.999999,0.000143,-0.001154,0.003531,-0.000118,0.003534,-0.001157,-88.560755,0.003603,
570,500,1.427595,-7.521732,0.999903,0.001263,-0.001966,0.005379,0.000372,0.005398,-0.001985,87.105240,0.005460,
1470,1480,-0.417664,-2.210424,0.999997,0.000216,-0.002486,0.004729,-0.000826,0.004823,-0.002580,-83.548437,0.004827,
870,290,0.430619,-9.000713,0.999998,0.000178,-0.001853,0.004461,0.000139,0.004464,-0.001856,88.743824,0.004485,
650,1950,0.377481,-0.406231,0.999997,0.000207,-0.001634,0.005138,-0.001401,0.005417,-0.001913,-78.759247,0.005494,
1030,1270,0.489670,-3.188107,0.999997,0.000225,-0.003779,0.005931,0.001362,0.006118,-0.003966,82.163433,0.006207,
1460,190,-0.144931,-9.500516,0.999998,0.000192,-0.000736,0.003725,-0.000308,0.003746,-0.000757,-86.074331,0.003961,
780,840,1.461076,-6.014089,0.999997,0.000206,-0.002726,0.005450,0.000618,0.005496,-0.002772,85.699888,0.005496,
1670,860,-1.465786,-5.915082,0.999997,0.000232,-0.002663,0.005469,-0.000630,0.005518,-0.002712,-85.593419,0.005518,
980,130,0.102705,-9.710065,0.999998,0.000163,-0.000563,0.003524,0.000376,0.003559,-0.000598,84.787476,0.003811,
1160,1610,0.087120,-1.440258,0.999998,0.000157,-0.001267,0.003598,0.000234,0.003610,-0.001278,87.249374,0.003660,
1050,1860,0.113473,-0.582395,0.999998,0.000228,-0.000814,0.003589,-0.000149,0.003594,-0.000819,-88.070371,0.003767,
1560,1120,-1.335857,-4.512826,0.999997,0.000208,-0.002408,0.005890,0.000722,0.005952,-0.002470,85.063396,0.005981,
1880,70,-0.361733,-9.733343,0.999997,0.000201,-0.001950,0.006127,-0.001738,0.006485,-0.002308,-78.355879,0.006574,
1810,1100,-1.931231,-4.705979,0.999998,0.000185,-0.002216,0.004670,0.000237,0.004678,-0.002224,88.029112,0.004680,
1700,330,-0.703281,-8.686192,0.999998,0.000160,-0.002196,0.004938,-0.000100,0.004939,-0.002197,-89.193640,0.004949,
750,1540,0.991322,-2.348124,0.999997,0.000181,-0.002600,0.005186,0.000123,0.005188,-0.002602,89.095842,0.005188,
1530,860,-1.048239,-6.074461,0.999998,0.000170,-0.003397,0.006434,-0.000453,0.006455,-0.003418,-87.365327,0.006459,
950,820,0.877239,-6.373985,0.999998,0.000177,-0.003703,0.006510,-0.000021,0.006510,-0.003703,-89.882656,0.006530,
950,630,0.571208,-7.496505,0.999997,0.000205,-0.002923,0.005227,-0.000710,0.005289,-0.002985,-85.056296,0.005303,
1210,2020,0.002544,-0.046656,0.999999,0.000000,-0.000141,0.002975,0.000022,0.002975,-0.000142,89.599642,0.003357,
1900,1140,-2.082990,-4.577022,0.999998,0.000000,-0.002106,0.004251,0.000139,0.004254,-0.002109,88.750055,0.004254,
1440,560,-0.340440,-7.999348,0.999997,0.000191,-0.002222,0.004430,0.000789,0.004522,-0.002315,83.323629,0.004523,
1290,270,-0.046178,-9.269944,0.999999,0.000139,-0.000786,0.003507,-0.000010,0.003507,-0.000786,-89.867692,0.003681,
1170,440,0.074682,-8.661180,0.999998,0.000159,-0.001241,0.003584,-0.000156,0.003589,-0.001246,-88.144838,0.003645,
1700,1650,-0.811184,-1.767201,0.999998,0.000176,-0.002370,0.005025,-0.000082,0.005025,-0.002371,-89.364024,0.005028,
910,410,0.486607,-8.502274,0.999997,0.000197,-0.002108,0.004660,-0.000232,0.004668,-0.002116,-88.038631,0.004675,
610,870,1.931632,-5.742761,0.999998,0.000167,-0.002244,0.004624,0.000238,0.004633,-0.002252,88.018504,0.004633,
1600,1320,-0.997469,-3.364234,0.999998,0.000184,-0.003273,0.005851,0.000047,0.005851,-0.003273,89.704234,0.005865,
1020,650,0.385630,-7.578179,0.999997,0.000212,-0.002731,0.004863,-0.001137,0.005029,-0.002898,-81.663627,0.005049,
1340,180,-0.057347,-9.569378,0.999998,0.000168,-0.000627,0.003396,-0.000073,0.003398,-0.000628,-88.956336,0.003616,
920,250,0.301745,-9.217982,0.999998,0.000168,-0.001262,0.004193,0.000293,0.004209,-0.001278,86.932410,0.004316,
740,420,0.890402,-8.198200,0.999999,0.000168,-0.002449,0.005061,-0.000106,0.005062,-0.002451,-89.190356,0.005063,
1110,1980,0.022037,-0.169536,0.999999,0.000138,-0.000166,0.003146,-0.000179,0.003155,-0.000175,-86.916256,0.003547,
1610,580,-0.796185,-7.564315,0.999998,0.000198,-0.002802,0.005299,0.000304,0.005310,-0.002813,87.852679,0.005313,
990,1510,0.408002,-2.073632,0.999997,0.000201,-0.002323,0.004604,0.000705,0.004675,-0.002394,84.247596,0.004675,
1780,540,-1.202337,-7.494401,0.999998,0.000181,-0.002607,0.005119,0.000048,0.005119,-0.002607,89.642026,0.005119,
1840,930,-1.971308,-5.476617,0.999998,0.000210,-0.002198,0.004595,-0.000272,0.004606,-0.002209,-87.707069,0.004607,
690,60,0.151783,-9.909070,0.999998,0.000183,-0.000721,0.004478,0.001765,0.005021,-0.001264,72.914673,0.005223,
1240,1560,-0.011798,-1.593214,0.999998,0.000148,-0.001260,0.003444,-0.000101,0.003446,-0.001262,-88.772037,0.003487,
1100,1530,0.183656,-1.796660,0.999998,0.000169,-0.001691,0.003879,0.000682,0.003961,-0.001774,83.117065,0.003969,
580,110,0.556891,-9.487637,0.999997,0.000204,-0.003790,0.005312,0.000731,0.005370,-0.003848,85.438948,0.005536,
1550,1640,-0.484969,-1.597656,0.999997,0.000195,-0.002113,0.004640,-0.000248,0.004649,-0.002122,-87.901266,0.004655,
1730,790,-1.493151,-6.243668,0.999997,0.000229,-0.002711,0.005298,-0.000486,0.005327,-0.002741,-86.538114,0.005328,
1690,860,-1.519648,-5.901322,0.999997,0.000231,-0.002603,0.005344,-0.000604,0.005389,-0.002648,-85.681441,0.005389,
780,820,1.421321,-6.123798,0.999997,0.000194,-0.002799,0.005440,0.000563,0.005478,-0.002837,86.109611,0.005479,
870,270,0.402365,-9.092616,0.999997,0.000191,-0.001774,0.004427,0.000218,0.004435,-0.001781,87.991352,0.004463,
650,1910,0.523265,-0.616977,0.999997,0.000246,-0.002006,0.005167,-0.000989,0.005301,-0.002139,-82.293610,0.005334,
1000,1790,0.214532,-0.867636,0.999998,0.000162,-0.001058,0.003910,-0.000128,0.003913,-0.001062,-88.524095,0.004047,
1690,1840,-0.475746,-0.827916,0.999998,0.000184,-0.001799,0.004683,0.000567,0.004732,-0.001848,85.036492,0.004770,
1520,640,-0.601542,-7.429786,0.999997,0.000218,-0.002993,0.005346,0.000661,0.005398,-0.003045,85.494445,0.005413,
1650,1190,-1.423376,-4.179086,0.999997,0.000219,-0.002725,0.005567,0.000664,0.005620,-0.002778,85.451355,0.005620,
1720,1590,-0.941678,-2.103773,0.999998,0.000163,-0.002547,0.005088,-0.000122,0.005090,-0.002549,-89.081530,0.005090,
1900,1130,-2.092984,-4.619502,0.999998,0.000000,-0.002091,0.004282,0.000179,0.004287,-0.002096,88.389649,0.004288,
1120,880,0.515952,-7.055008,0.999996,0.000232,-0.001354,0.002652,-0.002047,0.003513,-0.002215,-67.187208,0.003552,
650,1520,1.279736,-2.613248,0.999997,0.000194,-0.002561,0.005143,0.000047,0.005144,-0.002561,89.653836,0.005144,
560,1950,0.654026,-0.584568,0.999442,0.000000,-0.004548,0.006576,-0.001750,0.006844,-0.004817,-81.267368,0.007031,
1600,510,-0.692232,-7.943715,0.999997,0.000207,-0.002537,0.005024,0.000298,0.005036,-0.002548,87.746439,0.005036,
1030,1250,0.527198,-3.310778,0.999997,0.000224,-0.003863,0.006088,0.001253,0.006244,-0.004018,82.931068,0.006329,
1620,150,-0.240814,-9.590437,0.999998,0.000180,-0.000959,0.004141,-0.000747,0.004248,-0.001066,-81.839959,0.004420,
950,650,0.589436,-7.392065,0.999997,0.000209,-0.003051,0.005363,-0.000720,0.005424,-0.003113,-85.142814,0.005443,
1340,160,-0.051523,-9.635999,0.999998,0.000134,-0.000543,0.003323,-0.000116,0.003327,-0.000546,-88.281792,0.003568,
1270,1600,-0.046850,-1.464957,0.999998,0.000178,-0.001224,0.003511,-0.000130,0.003514,-0.001227,-88.431977,0.003567,
1810,1710,-0.987941,-1.640132,0.999998,0.000182,-0.002477,0.005030,-0.000005,0.005030,-0.002477,-89.958493,0.005030,
1560,1100,-1.381434,-4.633438,0.999996,0.000217,-0.002216,0.005811,0.000622,0.005859,-0.002264,85.593928,0.005909,
1480,80,-0.051949,-9.884722,0.999999,0.000121,-0.000292,0.003337,-0.000399,0.003380,-0.000335,-83.801934,0.003725,
1150,440,0.100471,-8.650494,0.999998,0.000169,-0.001324,0.003647,-0.000291,0.003664,-0.001341,-86.661763,0.003708,
840,830,1.269263,-6.123953,0.999997,0.000186,-0.003011,0.005807,0.000593,0.005846,-0.003051,86.166777,0.005848,
1860,930,-2.015136,-5.466535,0.999998,0.000157,-0.002154,0.004498,-0.000230,0.004506,-0.002162,-88.023426,0.004507,
610,850,1.899982,-5.835655,0.999998,0.000174,-0.002294,0.004690,0.000264,0.004700,-0.002304,87.841250,0.004700,
1330,780,-0.151255,-7.458952,0.999998,0.000179,-0.002327,0.003226,0.002160,0.003968,-0.003068,71.059481,0.004161,
1440,690,-0.400011,-7.385607,0.999997,0.000227,-0.003031,0.005124,0.001280,0.005320,-0.003227,81.283598,0.005360,
1560,950,-1.370437,-5.477779,0.999998,0.000188,-0.002246,0.005836,-0.000652,0.005888,-0.002298,-85.417765,0.005935,
1660,1130,-1.556831,-4.510870,0.999997,0.000217,-0.002346,0.005298,0.000587,0.005343,-0.002391,85.638174,0.005353,
1620,70,-0.091631,-9.900863,0.999998,0.000138,-0.000340,0.003714,-0.000886,0.003899,-0.000525,-78.199044,0.004232,
780,800,1.382026,-6.234173,0.999997,0.000197,-0.002873,0.005501,0.000523,0.005534,-0.002905,86.437922,0.005536,
1590,560,-0.719478,-7.706424,0.999997,0.000197,-0.002709,0.005205,0.000377,0.005223,-0.002727,87.277185,0.005225,
1180,190,0.028824,-9.542693,0.999999,0.000127,-0.000521,0.003341,0.000026,0.003341,-0.000522,89.616232,0.003595,
910,390,0.467315,-8.596311,0.999997,0.000197,-0.001987,0.004573,-0.000175,0.004578,-0.001992,-88.475989,0.004591,
1080,1730,0.156567,-1.047294,0.999998,0.000169,-0.001089,0.003769,0.000043,0.003770,-0.001090,89.489481,0.003880,
1290,250,-0.044970,-9.337141,0.999999,0.000135,-0.000711,0.003429,-0.000043,0.003429,-0.000711,-89.406043,0.003620,
1690,880,-1.552828,-5.796165,0.999997,0.000207,-0.002505,0.005269,-0.000608,0.005316,-0.002552,-85.553114,0.005318,
560,1930,0.690071,-0.716578,0.999823,0.000000,-0.004684,0.006245,-0.000409,0.006260,-0.004699,-87.861365,0.006517,
1240,1540,-0.011162,-1.661424,0.999998,0.000143,-0.001263,0.003373,-0.000112,0.003376,-0.001266,-88.615925,0.003411,
1090,1980,0.022821,-0.171238,0.999998,0.000160,-0.000153,0.003156,-0.000213,0.003170,-0.000166,-86.331066,0.003568,
1860,1460,-1.489675,-2.991699,0.999997,0.000192,-0.002536,0.005060,0.000017,0.005060,-0.002536,89.869148,0.005060,
740,400,0.859844,-8.301314,0.999998,0.000192,-0.002430,0.005076,-0.000047,0.005076,-0.002430,-89.641321,0.005078,
1760,1850,-0.587633,-0.854936,0.999997,0.000192,-0.002249,0.004971,0.000526,0.005009,-0.002287,85.852859,0.005016,
1690,40,-0.057878,-10.000509,0.999998,0.000164,-0.000244,0.003649,-0.001111,0.003944,-0.000539,-75.144687,0.004277,
990,1490,0.419016,-2.167805,0.999997,0.000200,-0.002445,0.004709,0.000778,0.004792,-0.002529,83.864742,0.004795,
1530,880,-1.106403,-5.945258,0.999997,0.000197,-0.003216,0.006413,-0.000577,0.006447,-0.003250,-86.583745,0.006447,
1150,1860,0.045937,-0.557427,0.999998,0.000185,-0.000595,0.003384,-0.000067,0.003385,-0.000596,-89.042609,0.003614,
1430,320,-0.214328,-9.018012,0.999999,0.000194,-0.001364,0.003931,0.000099,0.003933,-0.001365,88.933428,0.003993,
1440,520,-0.326376,-8.176065,0.999998,0.000178,-0.002111,0.004355,0.000706,0.004431,-0.002187,83.841594,0.004431,
1180,1240,0.101114,-2.465182,0.999998,0.000178,-0.001926,0.001589,0.001247,0.001986,-0.002323,72.327981,0.002511,
1780,520,-1.171898,-7.595552,0.999998,0.000163,-0.002587,0.005146,0.000058,0.005146,-0.002588,89.572355,0.005146,
820,1790,0.480106,-1.011770,0.999997,0.000189,-0.001768,0.004583,-0.000351,0.004602,-0.001787,-86.849697,0.004640,
1080,800,0.332946,-7.069492,0.999997,0.000208,-0.003410,0.005077,-0.002054,0.005547,-0.003881,-77.086000,0.005693,
1260,1250,-0.046871,-2.379492,0.999998,0.000186,-0.001712,0.001179,-0.000768,0.001370,-0.001904,-76.001193,0.001964,
1600,1300,-1.034927,-3.481367,0.999997,0.000183,-0.003281,0.005903,0.000158,0.005906,-0.003283,89.016391,0.005918,
1520,620,-0.583621,-7.533395,0.999997,0.000227,-0.002880,0.005231,0.000648,0.005282,-0.002931,85.464102,0.005293,
580,1530,1.441457,-2.672213,0.999997,0.000191,-0.002918,0.005584,0.000080,0.005585,-0.002918,89.460697,0.005587,
650,1890,0.586657,-0.721359,0.999998,0.000201,-0.002111,0.005205,-0.000818,0.005296,-0.002201,-83.695616,0.005321,
650,640,1.444644,-6.928000,0.999998,0.000199,-0.002621,0.005126,0.000106,0.005127,-0.002623,89.219843,0.005128,
1900,1120,-2.104909,-4.664283,0.999999,0.000000,-0.002048,0.004277,0.000154,0.004281,-0.002051,88.605507,0.004282,
1340,580,-0.148020,-8.113445,0.999998,0.000176,-0.001655,0.003634,0.000788,0.003749,-0.001770,81.702230,0.003751,
1730,770,-1.455928,-6.352419,0.999998,0.000209,-0.002744,0.005364,-0.000440,0.005388,-0.002767,-86.901639,0.005389,
1690,1730,-0.674231,-1.355417,0.999997,0.000201,-0.002177,0.004934,0.000092,0.004935,-0.002178,89.261496,0.004946,
600,1850,0.825897,-1.038067,0.999999,0.000134,-0.002428,0.004986,-0.000207,0.004992,-0.002434,-88.400113,0.004992,
580,100,0.514493,-9.542405,0.999997,0.000210,-0.003589,0.005710,0.001190,0.005860,-0.003739,82.824221,0.005934,
760,1410,1.155055,-3.019834,0.999997,0.000207,-0.002854,0.005359,-0.000075,0.005360,-0.002855,-89.473570,0.005364,
950,670,0.613407,-7.279560,0.999997,0.000213,-0.003183,0.005508,-0.000722,0.005568,-0.003243,-85.280715,0.005593,
1390,390,-0.191905,-8.778523,0.999998,0.000147,-0.001383,0.003908,0.000260,0.003921,-0.001396,87.189847,0.003975,
1040,1410,0.330457,-2.421039,0.999997,0.000207,-0.002591,0.004623,0.001213,0.004821,-0.002790,80.708373,0.004841,
1810,1730,-0.954337,-1.539353,0.999998,0.000194,-0.002456,0.005059,0.000032,0.005059,-0.002456,89.758745,0.005060,
1010,620,0.397417,-7.694388,0.999997,0.000192,-0.002636,0.004795,-0.001018,0.004932,-0.002773,-82.335771,0.004945,
1620,130,-0.206400,-9.670502,0.999998,0.000169,-0.000820,0.003981,-0.000783,0.004105,-0.000945,-80.969720,0.004300,
1480,60,-0.034378,-9.950403,0.999999,0.000125,-0.000196,0.003253,-0.000381,0.003295,-0.000238,-83.774953,0.003675,
590,1000,2.084013,-5.158100,0.999998,0.000153,-0.002022,0.004262,0.000113,0.004264,-0.002024,88.968765,0.004266,
1520,810,-0.877574,-6.421653,0.999998,0.000162,-0.003686,0.006472,0.000022,0.006472,-0.003686,89.874851,0.006492,
890,320,0.430801,-8.889985,0.999998,0.000177,-0.001860,0.004513,0.000029,0.004514,-0.001860,89.737388,0.004537,
690,1870,0.565369,-0.772044,0.999997,0.000201,-0.002202,0.004981,-0.000688,0.005046,-0.002267,-84.578675,0.005055,
930,1220,0.989199,-3.850285,0.999998,0.000177,-0.003511,0.006422,-0.000273,0.006429,-0.003518,-88.428834,0.006439,
820,1260,1.253111,-3.776093,0.999998,0.000206,-0.003032,0.005735,-0.000475,0.005761,-0.003057,-86.910269,0.005764,
1130,730,0.133865,-7.610583,0.999997,0.000209,-0.001997,0.003305,-0.001803,0.003860,-0.002552,-72.889588,0.003926,
710,300,0.773707,-8.759798,0.999998,0.000162,-0.002377,0.005032,0.000115,0.005034,-0.002379,89.107828,0.005036,
1560,1080,-1.413561,-4.746620,0.999996,0.000228,-0.002007,0.005680,0.000532,0.005717,-0.002043,86.063259,0.005794,
780,780,1.342188,-6.344806,0.999997,0.000189,-0.002904,0.005560,0.000480,0.005588,-0.002931,86.767330,0.005590,
1160,190,0.038713,-9.540485,0.999998,0.000156,-0.000496,0.003358,0.000080,0.003359,-0.000498,88.817930,0.003626,
940,970,1.328544,-5.387154,0.999997,0.000194,-0.002164,0.006154,0.000526,0.006187,-0.002198,86.396684,0.006273,
1060,1730,0.178710,-1.059516,0.999998,0.000156,-0.001266,0.003832,0.000093,0.003834,-0.001267,88.953688,0.003907,
1340,1450,-0.148187,-2.057045,0.999999,0.000141,-0.001750,0.003596,-0.000958,0.003762,-0.001917,-80.137168,0.003762,
1290,230,-0.039620,-9.406104,0.999999,0.000142,-0.000620,0.003407,-0.000038,0.003408,-0.000620,-89.461817,0.003630,
1010,720,0.467385,-7.182812,0.999997,0.000208,-0.003369,0.005478,-0.001193,0.005636,-0.003527,-82.455379,0.005695,
870,250,0.376098,-9.177476,0.999998,0.000176,-0.001660,0.004369,0.000301,0.004384,-0.001675,87.149764,0.004424,
1240,1520,-0.010665,-1.727859,0.999998,0.000140,-0.001270,0.003285,-0.000098,0.003287,-0.001272,-88.769134,0.003315,
560,640,1.704310,-6.803827,0.999829,0.000000,-0.004377,0.005845,0.000422,0.005862,-0.004394,87.638890,0.006101,
1600,490,-0.673060,-8.043224,0.999998,0.000175,-0.002482,0.004977,0.000313,0.004990,-0.002495,87.598318,0.004990,
1860,1440,-1.523114,-3.094440,0.999997,0.000209,-0.002521,0.005090,0.000052,0.005090,-0.002522,89.609068,0.005090,
1620,1950,-0.155300,-0.310436,0.999998,0.000172,-0.000646,0.003875,0.000823,0.004020,-0.000791,80.001145,0.004260,
1180,1220,0.144500,-2.496047,0.999996,0.000214,-0.002463,0.001605,0.000682,0.001716,-0.002574,80.736003,0.002621,
990,1470,0.429010,-2.265037,0.999997,0.000199,-0.002530,0.004821,0.000821,0.004912,-0.002620,83.701205,0.004916,
920,1050,1.413101,-4.912981,0.999998,0.000187,-0.001828,0.005752,-0.000253,0.005761,-0.001836,-88.090108,0.005885,
1900,1110,-2.116100,-4.707545,0.999998,0.000000,-0.002014,0.004184,0.000062,0.004184,-0.002015,89.428989,0.004185,
1030,1230,0.580127,-3.432616,0.999996,0.000234,-0.003909,0.006327,0.001135,0.006451,-0.004033,83.745456,0.006518,
1430,1930,-0.074896,-0.342406,0.999998,0.000166,-0.000491,0.003415,0.000255,0.003432,-0.000507,86.287181,0.003705,
610,830,1.870068,-5.932547,0.999998,0.000168,-0.002313,0.004678,0.000235,0.004686,-0.002321,88.077008,0.004686,
1480,1850,-0.176047,-0.644136,0.999998,0.000152,-0.000921,0.003797,0.000286,0.003814,-0.000938,86.545318,0.003975,
1020,1470,0.354739,-2.196714,0.999997,0.000190,-0.002370,0.004573,0.000904,0.004689,-0.002486,82.701339,0.004691,
650,1870,0.652315,-0.826910,0.999998,0.000196,-0.002184,0.005152,-0.000654,0.005210,-0.002242,-84.941840,0.005226,
650,440,1.140617,-7.952815,0.999998,0.000157,-0.002548,0.005062,-0.000080,0.005063,-0.002549,-89.401116,0.005063,
1340,600,-0.147897,-8.041927,0.999998,0.000171,-0.001702,0.003625,0.000904,0.003775,-0.001852,80.625142,0.003775,
1600,1280,-1.074864,-3.601151,0.999997,0.000202,-0.003283,0.005964,0.000265,0.005971,-0.003291,88.358673,0.005982,
1690,1710,-0.705179,-1.455872,0.999997,0.000192,-0.002184,0.004937,0.000055,0.004938,-0.002185,89.556552,0.004949,
1080,780,0.298829,-7.168852,0.999997,0.000201,-0.003247,0.004859,-0.002038,0.005342,-0.003730,-76.653030,0.005480,
1730,1880,-0.447740,-0.669192,0.999998,0.000171,-0.001711,0.004771,0.000842,0.004879,-0.001818,82.720577,0.004931,
650,620,1.411110,-7.030556,0.999998,0.000186,-0.002615,0.005101,0.000070,0.005102,-0.002615,89.483697,0.005102,
1240,1250,-0.014714,-2.349130,0.999998,0.000164,-0.001759,0.001007,-0.000226,0.001025,-0.001777,-85.349335,0.001784,
1600,1130,-1.412029,-4.482982,0.999997,0.000225,-0.002440,0.005655,0.000704,0.005715,-0.002501,85.063521,0.005730,
1810,1750,-0.918607,-1.437744,0.999998,0.000179,-0.002416,0.005072,0.000092,0.005073,-0.002417,89.297323,0.005075,
910,370,0.446353,-8.685819,0.999997,0.000210,-0.001849,0.004514,-0.000067,0.004514,-0.001850,-89.399347,0.004539,
1520,600,-0.565625,-7.636887,0.999997,0.000201,-0.002796,0.005117,0.000649,0.005170,-0.002849,85.341989,0.005179,
1010,500,0.343861,-8.241834,0.999997,0.000206,-0.002066,0.004412,-0.000621,0.004471,-0.002125,-84.571601,0.004473,
1470,1000,-1.265302,-5.242298,0.999996,0.000214,-0.002384,0.007553,-0.000052,0.007553,-0.002385,-89.700668,0.007722,
1110,1400,0.170951,-2.269213,0.999998,0.000206,-0.001949,0.003725,0.001286,0.004003,-0.002227,77.805517,0.004011,
1360,1790,-0.106628,-0.815922,0.999999,0.000149,-0.000899,0.003588,0.000016,0.003588,-0.000899,89.791776,0.003734,
590,990,2.080641,-5.200536,0.999999,0.000144,-0.002021,0.004246,0.000059,0.004247,-0.002022,89.457285,0.004248,
1540,350,-0.404477,-8.788936,0.999998,0.000171,-0.001661,0.004427,-0.000007,0.004427,-0.001661,-89.932147,0.004473,
1720,970,-1.742677,-5.323352,0.999998,0.000156,-0.002167,0.004944,-0.000308,0.004958,-0.002181,-87.528089,0.004970,
950,1110,1.245612,-4.525257,0.999997,0.000205,-0.002507,0.006409,-0.000601,0.006450,-0.002547,-86.160277,0.006497,
820,1240,1.296824,-3.891490,0.999997,0.000205,-0.002983,0.005696,-0.000549,0.005731,-0.003017,-86.392095,0.005734,
1470,1990,-0.035004,-0.144903,0.999999,0.000157,-0.000164,0.003279,0.000402,0.003326,-0.000210,83.432968,0.003725,
710,320,0.809735,-8.659161,0.999998,0.000186,-0.002387,0.005032,0.000040,0.005032,-0.002387,89.692556,0.005034,
1260,1730,-0.027677,-1.001940,0.999999,0.000146,-0.000951,0.003524,-0.000058,0.003524,-0.000951,-89.255555,0.003647,
780,760,1.302267,-6.456679,0.999997,0.000196,-0.002937,0.005544,0.000410,0.005564,-0.002956,87.239722,0.005568,
1050,320,0.190924,-9.031708,0.999998,0.000172,-0.001345,0.003882,-0.000092,0.003883,-0.001346,-88.991581,0.003944,
1780,500,-1.143164,-7.699955,0.999998,0.000162,-0.002569,0.005177,0.000086,0.005178,-0.002570,89.365510,0.005178,
1380,190,-0.085783,-9.525969,0.999998,0.000174,-0.000580,0.003528,-0.000176,0.003535,-0.000588,-87.548815,0.003788,
1070,620,0.252553,-7.846113,0.999997,0.000207,-0.002231,0.004133,-0.001182,0.004346,-0.002443,-79.813656,0.004357,
560,630,1.732488,-6.932669,0.999792,0.000000,-0.004602,0.003801,-0.000008,0.003801,-0.004602,-89.944028,0.004917,
980,1630,0.361784,-1.552205,0.999998,0.000167,-0.001937,0.004408,0.000361,0.004428,-0.001958,86.757539,0.004438,
1180,820,0.110047,-7.605544,0.999997,0.000200,-0.002042,0.001596,-0.001149,0.001928,-0.002375,-73.859943,0.002524,
1140,1670,0.104283,-1.235368,0.999998,0.000152,-0.001270,0.003654,0.000208,0.003663,-0.001278,87.581888,0.003718,
1650,1390,-1.031076,-3.048225,0.999998,0.000171,-0.002988,0.005508,0.000001,0.005508,-0.002988,89.996103,0.005515,
1860,1420,-1.554987,-3.196905,0.999997,0.000211,-0.002510,0.005077,0.000071,0.005078,-0.002510,89.460735,0.005078,
740,380,0.830944,-8.403620,0.999998,0.000185,-0.002413,0.005029,-0.000023,0.005029,-0.002413,-89.824987,0.005030,
1900,1100,-2.119692,-4.747151,0.999998,0.000000,-0.001982,0.004084,-0.000051,0.004085,-0.001983,-89.514404,0.004085,
1560,1060,-1.439590,-4.858357,0.999998,0.000193,-0.001866,0.005625,0.000345,0.005641,-0.001882,87.364864,0.005744,
1500,790,-0.755579,-6.606005,0.999997,0.000217,-0.003810,0.006379,0.000383,0.006393,-0.003824,87.849457,0.006434,
1120,870,0.456990,-7.081049,0.999997,0.000215,-0.001630,0.002727,-0.001840,0.003400,-0.002303,-69.902170,0.003471,
1290,210,-0.037845,-9.474163,0.999998,0.000182,-0.000548,0.003405,-0.000052,0.003406,-0.000549,-89.250233,0.003657,
690,1850,0.617700,-0.875197,0.999997,0.000190,-0.002255,0.005053,-0.000542,0.005093,-0.002295,-85.783252,0.005102,
1430,1910,-0.087153,-0.412156,0.999998,0.000154,-0.000610,0.003479,0.000259,0.003496,-0.000626,86.395718,0.003728,
1570,1640,-0.527597,-1.626865,0.999996,0.000225,-0.002145,0.004718,-0.000209,0.004725,-0.002152,-88.253706,0.004731,
1200,1310,0.031987,-2.301366,0.999998,0.000150,-0.001113,0.001759,0.000807,0.001971,-0.001324,75.327258,0.002009,
1760,510,-1.106342,-7.679725,0.999998,0.000143,-0.002573,0.005165,0.000089,0.005166,-0.002574,89.343753,0.005166,
990,1450,0.441848,-2.360687,0.999997,0.000197,-0.002607,0.004906,0.000856,0.005002,-0.002703,83.583570,0.005007,
650,420,1.112479,-8.055027,0.999998,0.000157,-0.002536,0.005058,-0.000069,0.005059,-0.002536,-89.482157,0.005059,
1520,580,-0.549249,-7.737958,0.999997,0.000188,-0.002714,0.005016,0.000626,0.005066,-0.002764,85.398955,0.005073,
1620,1930,-0.197517,-0.391703,0.999998,0.000175,-0.000777,0.004004,0.000809,0.004138,-0.000910,80.647152,0.004349,
1340,620,-0.147176,-7.967080,0.999998,0.000177,-0.001742,0.003530,0.001036,0.003726,-0.001938,79.269016,0.003727,
1690,1690,-0.733783,-1.555783,0.999997,0.000191,-0.002227,0.004915,0.000016,0.004915,-0.002227,89.870047,0.004922,
1870,760,-1.794935,-6.242737,0.999998,0.000165,-0.002418,0.004911,-0.000161,0.004914,-0.002421,-88.743181,0.004914,
1470,980,-1.231368,-5.391188,0.999998,0.000173,-0.002487,0.007196,-0.000122,0.007198,-0.002488,-89.278795,0.007311,
1600,1260,-1.119091,-3.720303,0.999997,0.000217,-0.003256,0.006000,0.000395,0.006017,-0.003273,87.563550,0.006025,
1560,1570,-0.570892,-1.943997,0.999997,0.000219,-0.002341,0.004827,-0.000348,0.004844,-0.002357,-87.225948,0.004844,
650,1850,0.706701,-0.929752,0.999997,0.000192,-0.002259,0.005145,-0.000506,0.005179,-0.002294,-86.106746,0.005190,
580,380,1.224253,-8.137048,0.999998,0.000162,-0.001658,0.005029,-0.000193,0.005034,-0.001664,-88.346395,0.005130,
1600,70,-0.085150,-9.903710,0.999998,0.000146,-0.000468,0.003661,-0.000788,0.003806,-0.000614,-79.558185,0.004087,
1390,370,-0.182917,-8.857335,0.999998,0.000166,-0.001300,0.003877,0.000181,0.003883,-0.001306,87.995939,0.003952,
1470,1970,-0.056456,-0.212420,0.999999,0.000160,-0.000277,0.003340,0.000402,0.003384,-0.000321,83.729328,0.003737,
1600,130,-0.188294,-9.677593,0.999998,0.000173,-0.000878,0.003916,-0.000691,0.004014,-0.000975,-81.955038,0.004187,
1730,750,-1.417818,-6.460088,0.999998,0.000207,-0.002777,0.005356,-0.000390,0.005375,-0.002796,-87.258801,0.005376,
1400,830,-0.461240,-6.798526,0.999997,0.000213,-0.003751,0.005831,0.001652,0.006108,-0.004028,80.485294,0.006210,
1240,1500,-0.011122,-1.793528,0.999998,0.000154,-0.001249,0.003223,-0.000103,0.003225,-0.001251,-88.687013,0.003252,
1010,380,0.282239,-8.755659,0.999998,0.000192,-0.001527,0.004163,-0.000182,0.004169,-0.001533,-88.169030,0.004217,
1030,320,0.216939,-9.015402,0.999998,0.000149,-0.001354,0.003952,-0.000081,0.003953,-0.001356,-89.121023,0.004017,
780,740,1.263827,-6.567722,0.999997,0.000199,-0.002962,0.005553,0.000343,0.005567,-0.002976,87.697417,0.005571,
950,1090,1.296998,-4.652370,0.999997,0.000206,-0.002255,0.006300,-0.000520,0.006332,-0.002287,-86.531592,0.006412,
1720,950,-1.722683,-5.423259,0.999998,0.000158,-0.002232,0.005003,-0.000441,0.005030,-0.002259,-86.521612,0.005039,
1810,1770,-0.881107,-1.335150,0.999998,0.000182,-0.002387,0.005096,0.000149,0.005099,-0.002390,88.858183,0.005102,
1540,950,-1.323867,-5.496122,0.999997,0.000190,-0.002296,0.006040,-0.000664,0.006092,-0.002349,-85.474450,0.006145,
1180,800,0.077629,-7.637766,0.999997,0.000210,-0.001726,0.001642,-0.001395,0.002145,-0.002228,-70.185633,0.002526,
1280,250,-0.037866,-9.339286,0.999999,0.000118,-0.000702,0.003423,-0.000019,0.003423,-0.000702,-89.733982,0.003616,
560,620,1.665175,-6.898920,0.999608,0.000000,-0.004946,0.002704,-0.000008,0.002704,-0.004946,-89.936451,0.004954,
720,1270,1.518670,-3.820310,0.999997,0.000227,-0.002638,0.005205,-0.000452,0.005231,-0.002664,-86.713068,0.005231,
820,1220,1.341396,-4.005036,0.999997,0.000199,-0.002898,0.005652,-0.000598,0.005693,-0.002940,-86.018301,0.005694,
1900,1090,-2.122947,-4.788012,0.999998,0.000000,-0.001951,0.004022,-0.000096,0.004024,-0.001952,-89.080545,0.004024,
1560,1040,-1.448827,-4.970552,0.999998,0.000184,-0.001787,0.005568,0.000143,0.005570,-0.001789,88.887646,0.005688,
740,1410,1.210810,-3.049445,0.999998,0.000186,-0.002760,0.005319,-0.000087,0.005320,-0.002761,-89.381407,0.005321,
1360,190,-0.074281,-9.530145,0.999998,0.000153,-0.000601,0.003491,-0.000116,0.003494,-0.000604,-88.377960,0.003735,
1780,480,-1.114172,-7.802750,0.999998,0.000178,-0.002545,0.005104,0.000099,0.005106,-0.002546,89.261450,0.005106,
1290,190,-0.030541,-9.542851,0.999998,0.000164,-0.000481,0.003368,-0.000061,0.003369,-0.000482,-89.089181,0.003644,
1430,1890,-0.105208,-0.482774,0.999998,0.000166,-0.000692,0.003517,0.000237,0.003530,-0.000706,86.791811,0.003736,
990,1430,0.451176,-2.457835,0.999997,0.000208,-0.002734,0.004943,0.000915,0.005051,-0.002841,83.292763,0.005064,
1600,1950,-0.143252,-0.304665,0.999998,0.000151,-0.000706,0.003806,0.000735,0.003922,-0.000822,80.978987,0.004137,
1820,1350,-1.573758,-3.495017,0.999997,0.000190,-0.002536,0.005093,0.000205,0.005099,-0.002542,88.460432,0.005099,
1540,1330,-0.775798,-3.179161,0.999997,0.000180,-0.003437,0.005888,-0.000358,0.005902,-0.003451,-87.805680,0.005930,
910,350,0.425172,-8.775983,0.999997,0.000201,-0.001753,0.004520,-0.000003,0.004520,-0.001753,-89.970741,0.004558,
580,1160,2.025959,-4.475222,0.999998,0.000140,-0.002020,0.004333,-0.000069,0.004333,-0.002021,-89.375227,0.004337,
1690,1670,-0.760200,-1.651148,0.999998,0.000174,-0.002282,0.004937,-0.000048,0.004938,-0.002282,-89.617623,0.004942,
1600,1240,-1.162889,-3.841555,0.999998,0.000181,-0.003184,0.005969,0.000495,0.005995,-0.003211,86.916033,0.006000,
1340,640,-0.149465,-7.896856,0.999998,0.000192,-0.001782,0.003514,0.001161,0.003757,-0.002026,78.159466,0.003761,
1840,530,-1.340847,-7.450598,0.999997,0.000202,-0.002534,0.005133,0.000036,0.005133,-0.002534,89.729930,0.005134,
650,1830,0.757551,-1.032559,0.999998,0.000193,-0.002305,0.005101,-0.000394,0.005122,-0.002326,-86.962610,0.005129,
1240,1730,-0.008597,-0.995743,0.999999,0.000124,-0.001025,0.003506,-0.000039,0.003506,-0.001025,-89.503579,0.003605,
820,1530,0.821131,-2.286018,0.999998,0.000137,-0.002623,0.005134,0.000245,0.005142,-0.002631,88.196432,0.005142,
1520,560,-0.532087,-7.839828,0.999997,0.000191,-0.002583,0.004971,0.000599,0.005018,-0.002630,85.490140,0.005020,
580,400,1.254114,-8.039448,0.999998,0.000162,-0.001661,0.004860,-0.000058,0.004861,-0.001662,-89.488732,0.004941,
900,1750,0.395725,-1.113292,0.999997,0.000207,-0.001666,0.004364,-0.000103,0.004366,-0.001668,-89.022804,0.004406,
1340,1790,-0.089257,-0.807455,0.999999,0.000138,-0.000929,0.003566,-0.000036,0.003567,-0.000930,-89.547577,0.003700,
1470,1950,-0.071454,-0.279396,0.999998,0.000188,-0.000357,0.003431,0.000389,0.003471,-0.000396,84.204157,0.003800,
710,280,0.735988,-8.860796,0.999999,0.000150,-0.002361,0.005033,0.000190,0.005038,-0.002366,88.531211,0.005041,
760,70,0.134446,-9.885730,0.999998,0.000175,-0.000514,0.003894,0.001182,0.004191,-0.000811,75.901946,0.004446,
1300,370,-0.074740,-8.909143,0.999998,0.000136,-0.001098,0.003582,0.000070,0.003583,-0.001099,89.137674,0.003671,
780,720,1.226587,-6.678980,0.999997,0.000205,-0.002991,0.005521,0.000282,0.005531,-0.003001,88.107585,0.005537,
1390,350,-0.175266,-8.932605,0.999998,0.000157,-0.001226,0.003805,0.000127,0.003808,-0.001229,88.558470,0.003887,
1860,1400,-1.588082,-3.298846,0.999997,0.000198,-0.002537,0.005056,0.000111,0.005057,-0.002539,89.162888,0.005057,
1540,130,-0.141660,-9.695988,0.999998,0.000152,-0.000608,0.003716,-0.000546,0.003784,-0.000676,-82.918281,0.004036,
690,1830,0.666125,-0.974489,0.999997,0.000188,-0.002311,0.004984,-0.000432,0.005010,-0.002336,-86.626202,0.005013,
560,610,1.675227,-6.875241,0.999727,0.000000,-0.005095,0.002877,0.000095,0.002878,-0.005096,89.318659,0.005110,
1730,730,-1.379573,-6.566084,0.999997,0.000207,-0.002820,0.005343,-0.000345,0.005358,-0.002834,-87.580757,0.005361,
660,830,1.752685,-5.976073,0.999999,0.000152,-0.002397,0.004850,0.000387,0.004870,-0.002417,86.953052,0.004870,
890,500,0.615035,-8.039980,0.999997,0.000211,-0.002505,0.004926,-0.000377,0.004945,-0.002524,-87.105315,0.004945,
1900,1080,-2.126370,-4.829292,0.999998,0.000000,-0.001929,0.003984,-0.000032,0.003984,-0.001929,-89.687243,0.003985,
740,1390,1.243772,-3.157320,0.999998,0.000179,-0.002782,0.005345,-0.000144,0.005347,-0.002784,-88.984671,0.005349,
1180,780,0.062961,-7.670347,0.999998,0.000217,-0.001515,0.001810,-0.001439,0.002346,-0.002051,-69.559134,0.002556,
860,1030,1.531858,-5.026853,0.999996,0.000233,-0.001891,0.005316,-0.000045,0.005316,-0.001892,-89.643982,0.005389,
1820,590,-1.379888,-7.173401,0.999998,0.000166,-0.002574,0.005104,-0.000030,0.005104,-0.002574,-89.772846,0.005104,
960,650,0.559805,-7.416004,0.999997,0.000219,-0.003047,0.005319,-0.000792,0.005393,-0.003122,-84.638603,0.005415,
1480,770,-0.636196,-6.797564,0.999998,0.000224,-0.003778,0.006173,0.000723,0.006225,-0.003830,85.865417,0.006280,
1120,190,0.063536,-9.534522,0.999998,0.000159,-0.000671,0.003412,0.000066,0.003414,-0.000672,89.080595,0.003617,
1820,260,-0.852661,-8.855714,0.999998,0.000174,-0.002389,0.005066,-0.000206,0.005072,-0.002395,-88.414772,0.005075,
1690,1650,-0.789001,-1.752794,0.999998,0.000167,-0.002331,0.005004,-0.000072,0.005005,-0.002332,-89.434031,0.005008,
1720,870,-1.612550,-5.831730,0.999998,0.000200,-0.002517,0.005146,-0.000548,0.005185,-0.002556,-85.928133,0.005185,
950,1070,1.333653,-4.774539,0.999998,0.000202,-0.002032,0.006271,-0.000400,0.006290,-0.002051,-87.247899,0.006416,
1600,1220,-1.209896,-3.957413,0.999997,0.000196,-0.003083,0.005913,0.000579,0.005950,-0.003121,86.331795,0.005953,
1430,1870,-0.118740,-0.551323,0.999998,0.000161,-0.000790,0.003574,0.000193,0.003583,-0.000798,87.470189,0.003762,
650,1810,0.803855,-1.135324,0.999998,0.000166,-0.002352,0.005091,-0.000295,0.005103,-0.002364,-87.731555,0.005107,
820,1200,1.381558,-4.117916,0.999997,0.000203,-0.002825,0.005620,-0.000643,0.005668,-0.002874,-85.669964,0.005669,
1340,1400,-0.147326,-2.239146,0.999998,0.000160,-0.001809,0.003532,-0.001271,0.003819,-0.002096,-77.273048,0.003826,
1890,1060,-2.116962,-4.903186,0.999998,0.000155,-0.002022,0.004062,0.000096,0.004063,-0.002023,89.097389,0.004063,
1240,1480,-0.010907,-1.856576,0.999998,0.000156,-0.001231,0.003135,-0.000118,0.003138,-0.001234,-88.448796,0.003162,
1470,1930,-0.093416,-0.348286,0.999998,0.000171,-0.000460,0.003514,0.000384,0.003551,-0.000496,84.532713,0.003845,
1030,60,0.026081,-9.953218,0.999999,0.000140,-0.000177,0.003186,0.000320,0.003216,-0.000208,84.615135,0.003600,
1780,130,-0.414019,-9.571088,0.999997,0.000209,-0.001805,0.004921,-0.001178,0.005121,-0.002005,-80.351428,0.005161,
880,1810,0.351427,-0.870436,0.999998,0.000154,-0.001583,0.004305,-0.000287,0.004319,-0.001597,-87.218867,0.004368,
1390,320,-0.161590,-9.047056,0.999999,0.000146,-0.001102,0.003782,0.000040,0.003783,-0.001102,89.536348,0.003891,
1360,1730,-0.131745,-1.036201,0.999999,0.000143,-0.001087,0.003728,-0.000076,0.003729,-0.001088,-89.100343,0.003835,
1290,170,-0.029979,-9.608821,0.999998,0.000146,-0.000438,0.003290,-0.000064,0.003291,-0.000439,-89.010899,0.003574,
1800,1350,-1.523240,-3.468283,0.999996,0.000214,-0.002595,0.005132,0.000244,0.005139,-0.002603,88.191064,0.005140,
990,1410,0.465347,-2.557634,0.999997,0.000202,-0.002892,0.005072,0.000944,0.005182,-0.003002,83.328550,0.005204,
1520,1330,-0.707811,-3.131810,0.999997,0.000209,-0.003488,0.005857,-0.000519,0.005886,-0.003516,-86.829711,0.005923,
1190,1980,0.008042,-0.167735,0.999999,0.000119,-0.000134,0.003060,-0.000059,0.003061,-0.000135,-88.941360,0.003459,
1180,1790,0.041714,-0.793193,0.999999,0.000121,-0.000778,0.003507,-0.000024,0.003507,-0.000778,-89.678030,0.003684,
780,700,1.189476,-6.788668,0.999997,0.000209,-0.002970,0.005500,0.000195,0.005505,-0.002975,88.682488,0.005511,
1560,1020,-1.453287,-5.080724,0.999998,0.000195,-0.001767,0.005525,-0.000114,0.005527,-0.001769,-89.105766,0.005645,
910,330,0.404884,-8.866895,0.999998,0.000167,-0.001674,0.004463,0.000031,0.004463,-0.001674,89.709040,0.004509,
690,1810,0.712216,-1.076160,0.999998,0.000185,-0.002328,0.005016,-0.000316,0.005030,-0.002342,-87.538543,0.005034,
1780,460,-1.086369,-7.905314,0.999998,0.000173,-0.002519,0.005085,0.000106,0.005086,-0.002521,89.201669,0.005086,
570,1160,2.044000,-4.484389,0.999997,0.000222,-0.001963,0.004268,-0.000046,0.004268,-0.001964,-89.580732,0.004273,
1640,1390,-1.002698,-3.031074,0.999998,0.000174,-0.002996,0.005513,-0.000041,0.005514,-0.002996,-89.724236,0.005521,
1520,540,-0.519114,-7.939695,0.999997,0.000205,-0.002445,0.004853,0.000553,0.004895,-0.002487,85.690986,0.004895,
930,260,0.302248,-9.182796,0.999998,0.000176,-0.001336,0.004123,0.000213,0.004132,-0.001344,87.771444,0.004215,
1900,1070,-2.130987,-4.868685,0.999999,0.000000,-0.001944,0.003938,0.000030,0.003938,-0.001945,89.703152,0.003938,
560,600,1.662463,-6.957820,0.999658,0.000000,-0.004903,0.005354,-0.000829,0.005420,-0.004970,-85.409433,0.006016,
700,370,0.913999,-8.388577,0.999998,0.000153,-0.002431,0.005043,-0.000019,0.005043,-0.002431,-89.850885,0.005045,
1180,760,0.057529,-7.704690,0.999998,0.000183,-0.001405,0.001968,-0.001345,0.002439,-0.001876,-70.715444,0.002554,
1160,770,0.092052,-7.611494,0.999999,0.000140,-0.001725,0.002410,-0.001787,0.003075,-0.002391,-69.581516,0.003229,
1860,1380,-1.623595,-3.398046,0.999997,0.000197,-0.002519,0.005047,0.000120,0.005049,-0.002521,89.090641,0.005049,
1670,740,-1.225520,-6.583451,0.999998,0.000177,-0.002998,0.005603,-0.000316,0.005614,-0.003010,-87.895580,0.005619,
1690,1630,-0.814184,-1.852687,0.999999,0.000146,-0.002393,0.005025,-0.000103,0.005026,-0.002395,-89.204081,0.005028,
1430,1850,-0.135243,-0.626058,0.999998,0.000172,-0.000863,0.003648,0.000178,0.003655,-0.000870,87.742294,0.003818,
1100,190,0.076020,-9.530248,0.999998,0.000164,-0.000589,0.003442,0.000128,0.003446,-0.000593,88.189511,0.003685,
1600,1200,-1.257965,-4.078070,0.999997,0.000194,-0.002966,0.005860,0.000636,0.005905,-0.003012,85.899661,0.005906,
1390,330,-0.166815,-9.008510,0.999998,0.000154,-0.001147,0.003787,0.000059,0.003788,-0.001147,89.309207,0.003885,
1820,240,-0.808315,-8.958431,0.999998,0.000162,-0.002375,0.005088,-0.000266,0.005097,-0.002385,-87.960032,0.005101,
1730,1100,-1.750830,-4.684553,0.999997,0.000191,-0.002236,0.005017,0.000405,0.005040,-0.002258,86.817850,0.005049,
1480,400,-0.339352,-8.641173,0.999997,0.000195,-0.001828,0.004338,0.000308,0.004353,-0.001844,87.148918,0.004370,
650,1790,0.848761,-1.238907,0.999998,0.000155,-0.002377,0.005081,-0.000222,0.005088,-0.002383,-88.294126,0.005091,
1040,970,1.065897,-5.635613,0.999995,0.000261,-0.003752,0.009401,-0.001798,0.009642,-0.003994,-82.353748,0.009689,
860,1010,1.525436,-5.132742,0.999997,0.000223,-0.001913,0.005305,0.000171,0.005309,-0.001917,88.639987,0.005377,
1340,1380,-0.147743,-2.307790,0.999998,0.000172,-0.001852,0.003518,-0.001382,0.003853,-0.002187,-76.381026,0.003865,
1170,60,0.005989,-9.958631,0.999999,0.000148,-0.000082,0.003028,0.000087,0.003030,-0.000085,88.400145,0.003451,
820,1180,1.424262,-4.229681,0.999997,0.000206,-0.002699,0.005561,-0.000661,0.005614,-0.002751,-85.456255,0.005614,
950,1050,1.359153,-4.903748,0.999997,0.000203,-0.001891,0.006222,-0.000240,0.006229,-0.001898,-88.307296,0.006385,
790,1180,1.502107,-4.247830,0.999997,0.000208,-0.002580,0.005383,-0.000614,0.005430,-0.002627,-85.618498,0.005431,
1520,130,-0.128571,-9.700334,0.999998,0.000166,-0.000664,0.003634,-0.000479,0.003687,-0.000717,-83.714359,0.003910,
1460,1610,-0.329662,-1.607253,0.999998,0.000186,-0.001887,0.004326,-0.000456,0.004360,-0.001920,-85.821568,0.004370,
1290,150,-0.023223,-9.674126,0.999999,0.000141,-0.000381,0.003261,-0.000073,0.003262,-0.000382,-88.858657,0.003567,
1240,1460,-0.010420,-1.918056,0.999999,0.000138,-0.001193,0.003004,-0.000138,0.003008,-0.001198,-88.124120,0.003029,
1160,1790,0.057293,-0.795682,0.999999,0.000126,-0.000787,0.003511,-0.000031,0.003512,-0.000787,-89.581600,0.003685,
1710,1860,-0.464684,-0.748617,0.999997,0.000182,-0.001651,0.004765,0.000781,0.004859,-0.001745,83.155945,0.004923,
780,680,1.154997,-6.899872,0.999998,0.000183,-0.002940,0.005462,0.000119,0.005464,-0.002942,89.189447,0.005469,
1490,1840,-0.195265,-0.686779,0.999998,0.000185,-0.001081,0.003845,0.000247,0.003858,-0.001094,87.141287,0.003976,
1780,110,-0.343670,-9.672032,0.999998,0.000172,-0.001603,0.004847,-0.001328,0.005109,-0.001866,-78.810646,0.005171,
1520,520,-0.503473,-8.033732,0.999997,0.000197,-0.002354,0.004782,0.000505,0.004818,-0.002390,85.972336,0.004818,
1620,1390,-0.941956,-2.996366,0.999999,0.000132,-0.003077,0.005572,-0.000118,0.005574,-0.003079,-89.220029,0.005584,
1520,1310,-0.739888,-3.250399,0.999997,0.000179,-0.003562,0.006042,-0.000439,0.006062,-0.003582,-87.385768,0.006096,
560,590,1.639694,-7.038655,0.999578,0.000000,-0.005440,0.005624,-0.001086,0.005730,-0.005545,-84.447927,0.006512,
910,260,0.327747,-9.168587,0.999998,0.000170,-0.001332,0.004231,0.000258,0.004243,-0.001344,87.346153,0.004336,
990,1390,0.483245,-2.663729,0.999996,0.000225,-0.003043,0.005244,0.000979,0.005358,-0.003157,83.351990,0.005387,
1170,1980,0.009516,-0.168624,0.999999,0.000145,-0.000129,0.003064,-0.000104,0.003068,-0.000133,-88.130086,0.003468,
1900,1060,-2.136120,-4.906787,0.999998,0.000000,-0.001974,0.003917,0.000102,0.003919,-0.001976,89.010675,0.003919,
1180,740,0.055213,-7.743577,0.999998,0.000158,-0.001331,0.002116,-0.001218,0.002503,-0.001718,-72.373426,0.002560,
1430,1830,-0.148917,-0.696956,0.999998,0.000168,-0.000953,0.003695,0.000119,0.003698,-0.000956,88.535263,0.003840,
1860,1360,-1.657226,-3.500136,0.999997,0.000203,-0.002493,0.005058,0.000125,0.005060,-0.002495,89.049368,0.005060,
1600,1620,-0.612609,-1.764273,0.999998,0.000200,-0.002288,0.004839,-0.000212,0.004845,-0.002294,-88.293670,0.004848,
1670,720,-1.186994,-6.695869,0.999997,0.000207,-0.003015,0.005583,-0.000243,0.005590,-0.003022,-88.384257,0.005596,
690,1790,0.754812,-1.174319,0.999998,0.000184,-0.002352,0.005026,-0.000243,0.005034,-0.002360,-88.114897,0.005037,
1370,760,-0.241461,-7.327729,0.999997,0.000192,-0.002872,0.004356,0.002064,0.004904,-0.003420,75.136746,0.005029,
1820,220,-0.761533,-9.060736,0.999998,0.000179,-0.002359,0.005112,-0.000356,0.005129,-0.002376,-87.279405,0.005134,
1560,1000,-1.440786,-5.193097,0.999998,0.000196,-0.001832,0.005620,-0.000326,0.005635,-0.001846,-87.498913,0.005745,
840,410,0.638044,-8.403288,0.999997,0.000211,-0.002257,0.004835,-0.000140,0.004838,-0.002260,-88.870257,0.004841,
1370,320,-0.140641,-9.057177,0.999998,0.000173,-0.001087,0.003739,0.000049,0.003740,-0.001088,89.415795,0.003847,
820,1160,1.462573,-4.340055,0.999997,0.000199,-0.002549,0.005478,-0.000658,0.005532,-0.002602,-85.347186,0.005535,
680,370,0.961543,-8.356207,0.999999,0.000126,-0.002411,0.005051,-0.000006,0.005051,-0.002411,-89.953500,0.005053,
910,310,0.386894,-8.952908,0.999998,0.000161,-0.001576,0.004359,0.000097,0.004360,-0.001578,89.059968,0.004416,
840,1030,1.568748,-5.025816,0.999997,0.000216,-0.001941,0.005219,-0.000053,0.005220,-0.001941,-89.574873,0.005277,
1690,1610,-0.840608,-1.952712,0.999998,0.000178,-0.002455,0.005066,-0.000126,0.005068,-0.002457,-89.042488,0.005069,
1730,710,-1.342132,-6.674005,0.999997,0.000218,-0.002835,0.005344,-0.000295,0.005355,-0.002846,-87.935269,0.005359,
650,1770,0.888766,-1.340368,0.999998,0.000169,-0.002378,0.005067,-0.000139,0.005070,-0.002381,-88.934055,0.005073,
990,1370,0.499026,-2.770566,0.999996,0.000235,-0.003185,0.005386,0.001013,0.005504,-0.003303,83.352960,0.005541,
1020,970,1.131384,-5.540285,0.999993,0.000337,-0.003095,0.008273,-0.000657,0.008311,-0.003133,-86.705307,0.008394,
1480,420,-0.352674,-8.554010,0.999998,0.000188,-0.001928,0.004388,0.000371,0.004410,-0.001950,86.651520,0.004420,
1150,60,0.008778,-9.957775,0.999999,0.000137,-0.000124,0.003046,0.000106,0.003050,-0.000127,88.089025,0.003450,
1730,1040,-1.784968,-4.978611,0.999998,0.000163,-0.002104,0.004859,0.000111,0.004860,-0.002106,89.087889,0.004875,
790,1220,1.423414,-4.029394,0.999998,0.000177,-0.002761,0.005480,-0.000621,0.005526,-0.002807,-85.716185,0.005527,
1420,1710,-0.213567,-1.151090,0.999999,0.000159,-0.001481,0.003902,-0.000194,0.003909,-0.001488,-87.938254,0.003946,
1760,130,-0.375360,-9.593046,0.999998,0.000184,-0.001877,0.004732,-0.001050,0.004895,-0.002040,-81.186330,0.004918,
1340,1360,-0.146899,-2.375308,0.999997,0.000196,-0.001937,0.003490,-0.001530,0.003891,-0.002339,-75.293356,0.003918,
870,1720,0.488950,-1.284582,0.999997,0.000207,-0.001985,0.004659,-0.000014,0.004659,-0.001985,-89.883440,0.004676,
940,1470,0.561561,-2.373861,0.999997,0.000185,-0.002739,0.005083,0.000627,0.005133,-0.002789,85.442864,0.005140,
560,580,1.633727,-7.086153,0.999709,0.000000,-0.006083,0.004052,-0.001546,0.004283,-0.006313,-81.518295,0.006446,
950,1030,1.370781,-5.024620,0.999998,0.000183,-0.001846,0.006028,-0.000039,0.006028,-0.001846,-89.718922,0.006177,
650,1960,0.335625,-0.356320,0.999997,0.000203,-0.001498,0.005102,-0.001563,0.005453,-0.001849,-77.324286,0.005547,
780,660,1.121335,-7.009669,0.999998,0.000181,-0.002888,0.005425,0.000088,0.005426,-0.002889,89.391223,0.005430,
1340,1430,-0.148045,-2.130895,0.999998,0.000150,-0.001794,0.003569,-0.001097,0.003785,-0.002010,-78.878419,0.003787,
1760,1210,-1.670579,-4.144805,0.999997,0.000181,-0.002521,0.005053,0.000506,0.005087,-0.002555,86.198704,0.005087,
1520,500,-0.489949,-8.130598,0.999997,0.000183,-0.002306,0.004726,0.000491,0.004760,-0.002340,86.021179,0.004760,
1330,1260,-0.168914,-2.668837,0.999997,0.000213,-0.002400,0.003228,-0.002227,0.004002,-0.003175,-70.822468,0.004225,
1240,1440,-0.010218,-1.976754,0.999998,0.000137,-0.001163,0.002894,-0.000147,0.002899,-0.001168,-87.930701,0.002917,
1780,660,-1.390601,-6.870048,0.999997,0.000204,-0.002618,0.005204,-0.000175,0.005208,-0.002622,-88.715698,0.005208,
870,230,0.343609,-9.267027,0.999998,0.000200,-0.001546,0.004313,0.000362,0.004336,-0.001569,86.474762,0.004391,
1290,130,-0.021141,-9.739279,0.999998,0.000159,-0.000307,0.003209,-0.000068,0.003210,-0.000309,-88.894474,0.003542,
1600,1640,-0.593839,-1.667324,0.999998,0.000207,-0.002194,0.004794,-0.000144,0.004797,-0.002197,-88.817826,0.004802,
620,1910,0.594569,-0.680681,0.999997,0.000194,-0.002456,0.005235,-0.000538,0.005273,-0.002494,-86.021281,0.005275,
610,1160,1.961420,-4.451322,0.999998,0.000150,-0.002172,0.004492,-0.000172,0.004496,-0.002177,-88.521158,0.004497,
1080,1790,0.127750,-0.822956,0.999998,0.000146,-0.000906,0.003652,-0.000056,0.003653,-0.000906,-89.290624,0.003804,
1860,1340,-1.692758,-3.602149,0.999997,0.000194,-0.002475,0.004978,0.000133,0.004981,-0.002478,88.974637,0.004981,
790,920,1.580364,-5.590044,0.999997,0.000190,-0.002343,0.005269,0.000560,0.005310,-0.002384,85.817669,0.005319,
1000,1850,0.161743,-0.637930,0.999998,0.000187,-0.000788,0.003759,-0.000281,0.003776,-0.000805,-86.477601,0.003978,
950,1340,0.667510,-3.053622,0.999998,0.000175,-0.003440,0.005800,0.000627,0.005842,-0.003482,86.137117,0.005878,
1080,760,0.277946,-7.268271,0.999997,0.000209,-0.003060,0.004762,-0.001961,0.005226,-0.003524,-76.689088,0.005331,
950,260,0.272518,-9.198899,0.999998,0.000190,-0.001392,0.004038,0.000170,0.004043,-0.001397,88.211889,0.004107,
1560,1710,-0.432249,-1.289345,0.999997,0.000183,-0.001856,0.004525,-0.000017,0.004525,-0.001856,-89.848403,0.004549,
1640,1560,-0.778888,-2.126219,0.999998,0.000166,-0.002560,0.005081,-0.000224,0.005088,-0.002567,-88.323068,0.005088,
1090,320,0.143990,-9.056374,0.999998,0.000154,-0.001055,0.003761,-0.000048,0.003761,-0.001055,-89.425222,0.003880,
610,1250,1.830143,-4.032273,0.999998,0.000159,-0.002358,0.004708,-0.000228,0.004715,-0.002366,-88.154081,0.004715,
650,1750,0.927614,-1.442642,0.999998,0.000188,-0.002406,0.005082,-0.000091,0.005083,-0.002407,-89.306230,0.005086,
1380,1650,-0.181798,-1.349855,0.999998,0.000169,-0.001381,0.003841,-0.000274,0.003855,-0.001395,-87.001245,0.003904,
820,1140,1.498333,-4.449947,0.999997,0.000212,-0.002401,0.005465,-0.000664,0.005521,-0.002456,-85.209937,0.005532,
1180,720,0.055898,-7.788694,0.999999,0.000152,-0.001311,0.002311,-0.001090,0.002614,-0.001614,-74.482060,0.002638,
1030,1210,0.636358,-3.566681,0.999996,0.000240,-0.003852,0.006584,0.001044,0.006687,-0.003955,84.341569,0.006725,
830,400,0.649680,-8.436753,0.999997,0.000215,-0.002249,0.004850,-0.000128,0.004853,-0.002251,-88.964507,0.004857,
1820,200,-0.707378,-9.164370,0.999997,0.000202,-0.002300,0.005145,-0.000436,0.005171,-0.002326,-86.661281,0.005180,
1390,310,-0.157558,-9.085676,0.999998,0.000155,-0.001077,0.003777,0.000031,0.003777,-0.001077,89.634260,0.003891,
1560,980,-1.419090,-5.305381,0.999998,0.000206,-0.001964,0.005687,-0.000470,0.005716,-0.001993,-86.497557,0.005803,
1120,1170,0.547090,-3.038898,0.999985,0.000460,-0.001185,0.002796,0.002109,0.003706,-0.002094,66.673777,0.003716,
600,870,1.953636,-5.734196,0.999998,0.000178,-0.002219,0.004537,0.000192,0.004543,-0.002225,88.369696,0.004543,
1090,480,0.191732,-8.444738,0.999998,0.000182,-0.001606,0.003885,-0.000532,0.003937,-0.001657,-84.513136,0.003953,
1480,440,-0.366824,-8.465857,0.999998,0.000186,-0.001963,0.004414,0.000415,0.004441,-0.001990,86.294595,0.004449,
690,1770,0.793031,-1.276873,0.999997,0.000190,-0.002387,0.005061,-0.000177,0.005065,-0.002391,-88.638692,0.005068,
1580,1530,-0.658683,-2.177727,0.999998,0.000187,-0.002562,0.005041,-0.000385,0.005060,-0.002581,-87.108616,0.005061,
790,1200,1.463878,-4.139015,0.999998,0.000191,-0.002662,0.005479,-0.000651,0.005531,-0.002714,-85.456439,0.005531,
1710,1040,-1.742947,-4.977310,0.999998,0.000165,-0.002118,0.004918,0.000129,0.004921,-0.002120,88.946710,0.004936,
1340,1340,-0.146912,-2.444072,0.999998,0.000184,-0.002035,0.003486,-0.001715,0.003975,-0.002525,-74.072327,0.004024,
1490,60,-0.036089,-9.950037,0.999998,0.000149,-0.000260,0.003284,-0.000406,0.003330,-0.000306,-83.544691,0.003681,
910,290,0.361787,-9.041302,0.999999,0.000151,-0.001476,0.004330,0.000186,0.004336,-0.001482,88.164705,0.004407,
580,1790,1.016671,-1.376367,0.999998,0.000171,-0.002350,0.004877,-0.000030,0.004877,-0.002350,-89.765548,0.004878,
1130,710,0.133578,-7.674327,0.999998,0.000170,-0.001885,0.003356,-0.001624,0.003818,-0.002347,-74.109397,0.003852,
690,100,0.297754,-9.727061,0.999997,0.000202,-0.001528,0.004595,0.001281,0.004853,-0.001785,78.645515,0.004909,
940,1450,0.578591,-2.475536,0.999997,0.000226,-0.002825,0.005138,0.000631,0.005188,-0.002874,85.495011,0.005198,
760,1530,0.979279,-2.385161,0.999998,0.000165,-0.002613,0.005206,0.000124,0.005208,-0.002615,89.090241,0.005208,
990,1350,0.518003,-2.880104,0.999997,0.000228,-0.003344,0.005548,0.001012,0.005662,-0.003458,83.590511,0.005708,
560,570,1.640162,-7.096385,0.999661,0.000000,-0.006386,0.004097,-0.001420,0.004286,-0.006575,-82.421883,0.006675,
950,1010,1.363260,-5.142172,0.999998,0.000176,-0.001873,0.006156,0.000178,0.006160,-0.001877,88.731806,0.006315,
1330,1240,-0.200461,-2.731840,0.999997,0.000249,-0.002511,0.003105,-0.002164,0.003842,-0.003248,-71.193143,0.004136,
670,240,0.746684,-9.000068,0.999998,0.000191,-0.002309,0.005064,0.000388,0.005085,-0.002330,86.992348,0.005091,
1600,1660,-0.571314,-1.574203,0.999997,0.000224,-0.002139,0.004735,-0.000119,0.004737,-0.002141,-89.010415,0.004744,
870,210,0.314001,-9.351280,0.999998,0.000195,-0.001437,0.004237,0.000437,0.004271,-0.001470,85.619125,0.004339,
1260,1610,-0.035024,-1.427453,0.999999,0.000149,-0.001220,0.003530,-0.000125,0.003533,-0.001224,-88.492600,0.003588,
1680,1690,-0.711467,-1.539886,0.999997,0.000204,-0.002255,0.004895,-0.000006,0.004895,-0.002255,-89.952076,0.004900,
1860,1320,-1.727003,-3.699448,0.999997,0.000175,-0.002459,0.004883,0.000163,0.004887,-0.002462,88.731015,0.004887,
1650,650,-1.009008,-7.115414,0.999998,0.000175,-0.002947,0.005499,0.000026,0.005499,-0.002947,89.825482,0.005504,
780,640,1.088996,-7.118100,0.999998,0.000181,-0.002872,0.005391,0.000011,0.005391,-0.002872,89.923517,0.005395,
590,1160,2.004308,-4.466971,0.999998,0.000137,-0.002119,0.004382,-0.000120,0.004384,-0.002121,-88.939451,0.004385,
1680,370,-0.719141,-8.516060,0.999997,0.000180,-0.002299,0.004897,0.000024,0.004897,-0.002299,89.808487,0.004900,
980,1850,0.178295,-0.645632,0.999998,0.000176,-0.000964,0.003825,-0.000275,0.003841,-0.000980,-86.725346,0.003991,
1080,740,0.263288,-7.359535,0.999997,0.000196,-0.002889,0.004565,-0.001881,0.005012,-0.003337,-76.608230,0.005103,
840,1630,0.656315,-1.751319,0.999997,0.000184,-0.002353,0.004909,0.000178,0.004914,-0.002358,88.597015,0.004915,
590,1340,1.723830,-3.620586,0.999998,0.000195,-0.002533,0.004962,-0.000059,0.004962,-0.002533,-89.547669,0.004962,
650,1730,0.962398,-1.545849,0.999998,0.000173,-0.002444,0.005056,-0.000015,0.005057,-0.002444,-89.888406,0.005057,
1820,180,-0.652212,-9.268216,0.999997,0.000204,-0.002240,0.005190,-0.000588,0.005236,-0.002286,-85.506558,0.005250,
1290,110,-0.016817,-9.803170,0.999998,0.000171,-0.000228,0.003152,-0.000093,0.003154,-0.000231,-88.423295,0.003517,
830,280,0.486591,-9.008275,0.999998,0.000208,-0.001698,0.004618,0.000298,0.004632,-0.001712,87.304581,0.004685,
610,1270,1.797350,-3.937248,0.999998,0.000168,-0.002398,0.004851,-0.000239,0.004859,-0.002406,-88.110329,0.004859,
1270,320,-0.037464,-9.095171,0.999998,0.000180,-0.000964,0.003544,0.000042,0.003544,-0.000964,89.460013,0.003665,
1180,700,0.056085,-7.835677,0.999998,0.000160,-0.001312,0.002491,-0.000980,0.002728,-0.001550,-76.362501,0.002737,
1120,1190,0.424895,-2.986177,0.999997,0.000223,-0.001808,0.002880,0.001779,0.003478,-0.002406,71.403544,0.003562,
1480,460,-0.378397,-8.376099,0.999998,0.000185,-0.001994,0.004431,0.000442,0.004461,-0.002024,86.084160,0.004468,
1720,810,-1.504016,-6.147493,0.999997,0.000204,-0.002734,0.005274,-0.000532,0.005309,-0.002770,-86.215279,0.005311,
690,1750,0.830605,-1.377866,0.999998,0.000179,-0.002414,0.005048,-0.000115,0.005050,-0.002416,-89.118337,0.005052,
910,270,0.338991,-9.127018,0.999998,0.000172,-0.001370,0.004240,0.000221,0.004249,-0.001379,87.752705,0.004335,
770,1220,1.478804,-4.043765,0.999997,0.000203,-0.002729,0.005391,-0.000586,0.005433,-0.002771,-85.893244,0.005434,
690,500,1.125375,-7.711918,0.999998,0.000190,-0.002579,0.005149,-0.000078,0.005150,-0.002580,-89.420558,0.005150,
1390,290,-0.148305,-9.160009,0.999998,0.000153,-0.001018,0.003750,-0.000005,0.003750,-0.001019,-89.940204,0.003878,
600,850,1.923390,-5.826418,0.999998,0.000171,-0.002265,0.004662,0.000224,0.004669,-0.002272,88.149199,0.004669,
990,1330,0.543049,-2.992618,0.999997,0.000226,-0.003480,0.005705,0.000967,0.005806,-0.003580,84.053733,0.005858,
590,1790,0.993411,-1.356260,0.999998,0.000178,-0.002399,0.004933,-0.000042,0.004933,-0.002400,-89.673697,0.004934,
1520,480,-0.473307,-8.223559,0.999997,0.000209,-0.002267,0.004701,0.000445,0.004729,-0.002296,86.361384,0.004730,
560,560,1.661321,-7.131033,0.999556,0.000000,-0.006474,0.004921,-0.000957,0.005001,-0.006554,-85.230420,0.006849,
920,1470,0.616567,-2.414236,0.999996,0.000216,-0.002745,0.005157,0.000535,0.005193,-0.002781,86.142934,0.005197,
1650,610,-0.949950,-7.331462,0.999998,0.000173,-0.002865,0.005386,0.000145,0.005389,-0.002868,88.991447,0.005393,
1860,1300,-1.760452,-3.798045,0.999998,0.000168,-0.002431,0.004919,0.000186,0.004924,-0.002436,88.554720,0.004924,
820,1120,1.532558,-4.558157,0.999997,0.000201,-0.002282,0.005344,-0.000558,0.005385,-0.002322,-85.836559,0.005402,
1640,1590,-0.743030,-1.975807,0.999998,0.000154,-0.002444,0.004975,-0.000202,0.004981,-0.002450,-88.439340,0.004981,
780,620,1.058335,-7.224829,0.999998,0.000178,-0.002836,0.005387,-0.000048,0.005387,-0.002837,-89.668913,0.005389,
950,990,1.343632,-5.271076,0.999998,0.000175,-0.001972,0.006310,0.000367,0.006327,-0.001988,87.467878,0.006471,
1820,1890,-0.603960,-0.734470,0.999996,0.000214,-0.002200,0.005230,0.000726,0.005300,-0.002270,84.472028,0.005318,
1600,1680,-0.549830,-1.478101,0.999997,0.000203,-0.002097,0.004700,-0.000100,0.004702,-0.002098,-89.159226,0.004711,
690,80,0.235200,-9.810061,0.999997,0.000186,-0.001158,0.004570,0.001608,0.004991,-0.001578,75.348027,0.005102,
570,1150,2.056533,-4.528731,0.999995,0.000250,-0.001947,0.004341,-0.000081,0.004342,-0.001948,-89.266351,0.004349,
790,900,1.545916,-5.698242,0.999997,0.000239,-0.002477,0.005379,0.000660,0.005434,-0.002532,85.230558,0.005438,
1820,160,-0.589206,-9.374325,0.999997,0.000229,-0.002188,0.005245,-0.000723,0.005314,-0.002258,-84.498182,0.005334,
1080,720,0.252477,-7.449187,0.999997,0.000203,-0.002717,0.004416,-0.001769,0.004831,-0.003132,-76.810587,0.004901,
840,1610,0.678674,-1.850577,0.999996,0.000224,-0.002413,0.004915,0.000201,0.004920,-0.002418,88.427472,0.004921,
1170,380,0.067668,-8.876134,0.999999,0.000147,-0.001097,0.003580,-0.000077,0.003581,-0.001099,-89.051883,0.003669,
870,190,0.281081,-9.438055,0.999998,0.000200,-0.001354,0.004192,0.000514,0.004239,-0.001401,84.744541,0.004319,
1530,1520,-0.536487,-2.135648,0.999998,0.000197,-0.002483,0.004889,-0.000514,0.004925,-0.002519,-86.029399,0.004925,
1240,1610,-0.010548,-1.421425,0.999997,0.000187,-0.001218,0.003522,-0.000085,0.003523,-0.001220,-88.969587,0.003579,
1430,1810,-0.165245,-0.773147,0.999998,0.000159,-0.001037,0.003781,0.000087,0.003783,-0.001039,88.971671,0.003909,
1180,450,0.062375,-8.628283,0.999998,0.000202,-0.001200,0.003547,-0.000134,0.003551,-0.001204,-88.385965,0.003611,
650,1930,0.451105,-0.511397,0.999997,0.000235,-0.001888,0.005224,-0.001164,0.005409,-0.002074,-80.934373,0.005458,
1290,90,-0.012357,-9.864985,0.999998,0.000161,-0.000169,0.003090,-0.000077,0.003092,-0.000171,-88.647937,0.003476,
610,1290,1.761466,-3.837472,0.999998,0.000170,-0.002449,0.004908,-0.000217,0.004914,-0.002456,-88.311714,0.004914,
1590,240,-0.355612,-9.225399,0.999997,0.000196,-0.001597,0.004356,-0.000320,0.004373,-0.001614,-86.930490,0.004423,
1340,1320,-0.150631,-2.514914,0.999998,0.000201,-0.002149,0.003467,-0.001879,0.004037,-0.002720,-73.103455,0.004118,
1730,1820,-0.594526,-0.959925,0.999998,0.000176,-0.002012,0.004903,0.000523,0.004942,-0.002052,85.698929,0.004966,
1120,1180,0.486336,-3.011205,0.999996,0.000232,-0.001478,0.002758,0.001869,0.003465,-0.002185,69.285429,0.003504,
1730,920,-1.712113,-5.569823,0.999998,0.000179,-0.002344,0.004997,-0.000433,0.005023,-0.002370,-86.639766,0.005025,
1180,680,0.058328,-7.888909,0.999998,0.000162,-0.001318,0.002655,-0.000885,0.002844,-0.001506,-77.996671,0.002845,
690,1730,0.865669,-1.479302,0.999998,0.000167,-0.002414,0.005063,-0.000033,0.005063,-0.002415,-89.748201,0.005064,
1730,1020,-1.785541,-5.076537,0.999998,0.000160,-0.002120,0.004909,-0.000083,0.004910,-0.002121,-89.320306,0.004926,
1390,270,-0.136736,-9.236358,0.999998,0.000153,-0.000958,0.003671,-0.000067,0.003672,-0.000959,-89.171924,0.003809,
1250,320,-0.018051,-9.098289,0.999999,0.000127,-0.000964,0.003526,0.000051,0.003527,-0.000965,89.350642,0.003646,
690,480,1.097382,-7.814860,0.999999,0.000137,-0.002550,0.005106,-0.000103,0.005108,-0.002551,-89.227641,0.005108,
910,470,0.540887,-8.217749,0.999997,0.000221,-0.002285,0.004759,-0.000363,0.004778,-0.002304,-87.059791,0.004779,
1480,900,-1.007697,-5.929059,0.999997,0.000187,-0.003370,0.006895,-0.000223,0.006900,-0.003375,-88.754453,0.006901,
560,550,1.614230,-7.218311,0.999381,0.000000,-0.006335,0.006267,-0.000359,0.006277,-0.006345,-88.368778,0.007288,
740,360,0.800979,-8.504796,0.999997,0.000182,-0.002388,0.005031,0.000022,0.005031,-0.002388,89.826322,0.005033,
680,1770,0.816946,-1.291714,0.999998,0.000174,-0.002397,0.005066,-0.000168,0.005070,-0.002401,-88.712266,0.005072,
650,260,0.837345,-8.866983,0.999998,0.000169,-0.002338,0.005081,0.000235,0.005088,-0.002346,88.187027,0.005093,
1790,820,-1.703177,-6.036691,0.999998,0.000173,-0.002475,0.004961,-0.000451,0.004988,-0.002502,-86.540660,0.004988,
990,1550,0.387988,-1.891885,0.999997,0.000195,-0.002102,0.004493,0.000554,0.004539,-0.002148,85.234972,0.004541,
640,1390,1.511383,-3.295115,0.999998,0.000188,-0.002578,0.005077,-0.000163,0.005080,-0.002581,-88.777648,0.005080,
1860,1280,-1.795325,-3.895991,0.999998,0.000184,-0.002414,0.004863,0.000215,0.004870,-0.002421,88.311283,0.004870,
1130,690,0.134671,-7.739875,0.999998,0.000153,-0.001819,0.003378,-0.001466,0.003763,-0.002204,-75.286487,0.003781,
950,970,1.307476,-5.395932,0.999997,0.000182,-0.002205,0.006299,0.000521,0.006331,-0.002236,86.505480,0.006421,
1650,70,-0.102029,-9.900180,0.999998,0.000162,-0.000467,0.003765,-0.000959,0.003972,-0.000674,-77.814863,0.004251,
1610,190,-0.301968,-9.427934,0.999998,0.000189,-0.001300,0.004293,-0.000566,0.004349,-0.001357,-84.283232,0.004451,
1800,1890,-0.564067,-0.706571,0.999997,0.000215,-0.002028,0.005170,0.000945,0.005292,-0.002150,82.644156,0.005323,
1590,1500,-0.714642,-2.349243,0.999997,0.000219,-0.002719,0.005154,-0.000384,0.005173,-0.002737,-87.217402,0.005175,
660,1240,1.726567,-4.028654,0.999997,0.000187,-0.002441,0.004948,-0.000405,0.004970,-0.002463,-86.872327,0.004970,
1010,700,0.450114,-7.290824,0.999997,0.000221,-0.003209,0.005328,-0.001185,0.005489,-0.003370,-82.240619,0.005537,
870,380,0.539777,-8.586821,0.999997,0.000214,-0.002105,0.004696,-0.000097,0.004697,-0.002107,-89.182813,0.004705,
1080,700,0.243508,-7.538510,0.999996,0.000222,-0.002550,0.004327,-0.001623,0.004691,-0.002914,-77.363940,0.004737,
800,1530,0.873642,-2.318813,0.999999,0.000125,-0.002629,0.005145,0.000196,0.005150,-0.002634,88.559588,0.005150,
1820,140,-0.519789,-9.480042,0.999997,0.000231,-0.002119,0.005229,-0.000924,0.005344,-0.002234,-82.940091,0.005368,
1030,660,0.362817,-7.557993,0.999997,0.000193,-0.002728,0.004839,-0.001219,0.005031,-0.002920,-81.067657,0.005052,
870,170,0.249166,-9.518199,0.999998,0.000190,-0.001226,0.004082,0.000560,0.004141,-0.001284,84.044242,0.004239,
1700,1450,-1.084300,-2.801480,0.999999,0.000151,-0.002788,0.005314,-0.000046,0.005314,-0.002788,-89.673225,0.005316,
820,1750,0.542452,-1.200047,0.999997,0.000198,-0.001935,0.004731,-0.000181,0.004736,-0.001940,-88.441801,0.004762,
610,1310,1.726055,-3.738498,0.999998,0.000158,-0.002469,0.004915,-0.000197,0.004920,-0.002474,-88.471186,0.004920,
650,1220,1.783314,-4.135894,0.999997,0.000193,-0.002367,0.004815,-0.000376,0.004835,-0.002387,-87.013951,0.004835,
1290,60,-0.006401,-9.958820,0.999998,0.000165,-0.000103,0.003033,-0.000077,0.003035,-0.000105,-88.590357,0.003445,
1870,70,-0.340258,-9.751581,0.999997,0.000210,-0.002087,0.005902,-0.001581,0.006203,-0.002389,-79.205404,0.006257,
750,880,1.610514,-5.784175,0.999997,0.000195,-0.002488,0.005194,0.000578,0.005237,-0.002531,85.723649,0.005238,
690,1710,0.898055,-1.580344,0.999998,0.000177,-0.002404,0.005032,-0.000010,0.005032,-0.002404,-89.922222,0.005034,
690,1160,1.781396,-4.401909,0.999998,0.000182,-0.002362,0.004906,-0.000415,0.004929,-0.002385,-86.744067,0.004930,
580,320,1.122553,-8.434152,0.999998,0.000177,-0.002347,0.004859,-0.000018,0.004859,-0.002347,-89.857759,0.004860,
1660,1070,-1.625389,-4.823109,0.999998,0.000170,-0.002082,0.005103,0.000253,0.005112,-0.002091,87.982470,0.005140,
1180,660,0.060748,-7.943703,0.999999,0.000160,-0.001323,0.002763,-0.000772,0.002904,-0.001464,-79.654521,0.002904,
1330,1580,-0.128320,-1.572704,0.999998,0.000145,-0.001417,0.003660,-0.000385,0.003689,-0.001446,-85.692768,0.003718,
1900,1050,-2.139766,-4.946533,0.999998,0.000000,-0.001990,0.004011,0.000121,0.004014,-0.001993,88.846434,0.004014,
790,860,1.472429,-5.912674,0.999997,0.000208,-0.002673,0.005448,0.000637,0.005498,-0.002723,85.539667,0.005498,
1480,880,-0.937229,-6.066229,0.999998,0.000174,-0.003580,0.006839,-0.000090,0.006840,-0.003581,-89.503786,0.006843,
1770,820,-1.652767,-6.054565,0.999997,0.000204,-0.002531,0.005066,-0.000497,0.005099,-0.002563,-86.269248,0.005099,
740,340,0.768977,-8.606505,0.999997,0.000187,-0.002337,0.005015,0.000074,0.005016,-0.002338,89.426828,0.005020,
1430,1790,-0.176352,-0.849265,0.999998,0.000151,-0.001140,0.003784,0.000048,0.003784,-0.001140,89.444862,0.003882,
1690,1810,-0.536266,-0.968956,0.999998,0.000175,-0.001962,0.004774,0.000423,0.004801,-0.001988,86.422205,0.004824,
1390,250,-0.125307,-9.306769,0.999998,0.000160,-0.000877,0.003661,-0.000097,0.003663,-0.000879,-88.771512,0.003825,
820,630,0.958368,-7.236345,0.999998,0.000154,-0.002916,0.005409,-0.000113,0.005411,-0.002918,-89.224734,0.005417,
1730,690,-1.307708,-6.780208,0.999997,0.000205,-0.002831,0.005331,-0.000211,0.005336,-0.002837,-88.517069,0.005340,
1580,890,-1.283686,-5.815525,0.999997,0.000185,-0.002789,0.005947,-0.000720,0.006006,-0.002848,-85.319534,0.006009,
990,1310,0.567997,-3.108129,0.999997,0.000232,-0.003608,0.005853,0.000922,0.005942,-0.003696,84.487995,0.006001,
1100,1850,0.084802,-0.604547,0.999999,0.000141,-0.000659,0.003508,-0.000131,0.003512,-0.000663,-88.196777,0.003732,
1840,1070,-2.009076,-4.850244,0.999998,0.000164,-0.002087,0.004419,0.000078,0.004420,-0.002087,89.309124,0.004423,
650,240,0.792116,-8.968820,0.999998,0.000167,-0.002301,0.005074,0.000323,0.005088,-0.002315,87.495284,0.005095,
1230,320,0.000801,-9.100352,0.999998,0.000149,-0.001016,0.003519,-0.000005,0.003519,-0.001016,-89.932241,0.003622,
1440,1550,-0.319567,-1.836923,0.999998,0.000174,-0.002060,0.004338,-0.000670,0.004408,-0.002130,-84.083329,0.004408,
1860,1480,-1.460983,-2.891787,0.999997,0.000184,-0.002548,0.005092,0.000005,0.005092,-0.002548,89.964432,0.005092,
1130,670,0.135215,-7.809449,0.999999,0.000145,-0.001780,0.003399,-0.001337,0.003724,-0.002105,-76.344439,0.003735,
910,1730,0.400164,-1.190272,0.999998,0.000197,-0.001663,0.004438,-0.000022,0.004438,-0.001664,-89.793168,0.004484,
750,1780,0.638462,-1.139420,0.999997,0.000193,-0.002038,0.004915,-0.000359,0.004933,-0.002056,-87.053667,0.004956,
1820,120,-0.445365,-9.587592,0.999996,0.000217,-0.002010,0.005275,-0.001092,0.005435,-0.002170,-81.653195,0.005471,
1640,1980,-0.108085,-0.198695,0.999998,0.000163,-0.000437,0.003780,0.000968,0.003992,-0.000648,77.671365,0.004284,
1530,1400,-0.647314,-2.756398,0.999998,0.000187,-0.003125,0.005491,-0.000596,0.005532,-0.003166,-86.062042,0.005551,
1690,1320,-1.275051,-3.493978,0.999997,0.000193,-0.002902,0.005496,0.000351,0.005511,-0.002917,87.608447,0.005514,
560,540,1.569860,-7.270747,0.999174,0.000000,-0.005709,0.006462,0.000352,0.006472,-0.005719,88.344583,0.007079,
900,590,0.674817,-7.599606,0.999997,0.000220,-0.002834,0.005236,-0.000490,0.005266,-0.002864,-86.540439,0.005272,
830,320,0.545514,-8.822603,0.999998,0.000184,-0.001930,0.004713,0.000119,0.004715,-0.001932,88.977427,0.004741,
640,1080,1.966785,-4.800347,0.999998,0.000176,-0.002131,0.004509,-0.000084,0.004510,-0.002132,-89.276710,0.004513,
1080,680,0.240132,-7.623225,0.999997,0.000207,-0.002416,0.004253,-0.001475,0.004564,-0.002727,-78.068439,0.004593,
1610,170,-0.270671,-9.509604,0.999998,0.000187,-0.001144,0.004146,-0.000622,0.004218,-0.001216,-83.379280,0.004342,
950,950,1.258611,-5.523823,0.999997,0.000189,-0.002456,0.006396,0.000633,0.006441,-0.002501,85.930813,0.006495,
630,1220,1.829864,-4.152972,0.999998,0.000176,-0.002348,0.004748,-0.000346,0.004765,-0.002365,-87.212882,0.004765,
870,150,0.213868,-9.602005,0.999998,0.000191,-0.001089,0.004025,0.000635,0.004103,-0.001167,83.022722,0.004228,
750,860,1.577741,-5.887948,0.999997,0.000213,-0.002566,0.005217,0.000574,0.005259,-0.002608,85.806360,0.005259,
1370,60,-0.017000,-9.955927,0.999999,0.000133,-0.000078,0.003087,-0.000187,0.003098,-0.000090,-86.623684,0.003526,
1400,710,-0.294528,-7.429104,0.999997,0.000193,-0.002850,0.004696,0.001609,0.005025,-0.003179,78.449257,0.005084,
1900,1040,-2.144736,-4.986313,0.999998,0.000000,-0.002009,0.004150,0.000086,0.004151,-0.002010,89.196520,0.004152,
740,320,0.737891,-8.704115,0.999998,0.000175,-0.002249,0.004939,0.000122,0.004941,-0.002251,89.026343,0.004947,
1430,1770,-0.193391,-0.926202,0.999998,0.000170,-0.001246,0.003862,0.000014,0.003862,-0.001246,89.846865,0.003943,
930,1680,0.418091,-1.393957,0.999996,0.000222,-0.001749,0.004449,0.000109,0.004451,-0.001751,88.989415,0.004484,
780,1530,0.926497,-2.351785,0.999998,0.000171,-0.002655,0.005178,0.000160,0.005182,-0.002659,88.831304,0.005182,
610,1750,1.025058,-1.515963,0.999998,0.000168,-0.002415,0.004987,0.000025,0.004987,-0.002415,89.804371,0.004988,
1870,60,-0.292753,-9.809660,0.999997,0.000263,-0.001754,0.005856,-0.001929,0.006317,-0.002215,-76.556340,0.006410,
1680,1450,-1.028056,-2.769251,0.999998,0.000163,-0.002806,0.005339,-0.000083,0.005340,-0.002807,-89.418326,0.005343,
1680,1980,-0.136160,-0.209208,0.999998,0.000167,-0.000688,0.003880,0.001057,0.004113,-0.000920,77.585559,0.004317,
1730,670,-1.274158,-6.886316,0.999998,0.000172,-0.002803,0.005312,-0.000162,0.005315,-0.002806,-88.856588,0.005318,
1180,640,0.060438,-8.000537,0.999998,0.000160,-0.001332,0.002905,-0.000679,0.003012,-0.001438,-81.112608,0.003013,
990,1270,0.641351,-3.351758,0.999997,0.000217,-0.003835,0.006288,0.000757,0.006344,-0.003892,85.748743,0.006398,
770,1080,1.689172,-4.778468,0.999997,0.000220,-0.002126,0.005024,-0.000292,0.005036,-0.002138,-87.664797,0.005055,
580,460,1.345237,-7.740538,0.999997,0.000201,-0.002032,0.004919,-0.000046,0.004919,-0.002033,-89.617724,0.004944,
1480,860,-0.869146,-6.205214,0.999997,0.000207,-0.003777,0.006791,0.000082,0.006792,-0.003778,89.557892,0.006806,
1450,1540,-0.344892,-1.898909,0.999998,0.000182,-0.002108,0.004413,-0.000674,0.004482,-0.002177,-84.157141,0.004483,
800,630,1.016368,-7.202844,0.999998,0.000157,-0.002898,0.005408,-0.000054,0.005408,-0.002898,-89.624194,0.005413,
670,1160,1.827908,-4.412963,0.999998,0.000166,-0.002316,0.004822,-0.000362,0.004840,-0.002334,-87.103458,0.004841,
1660,1050,-1.634726,-4.926416,0.999997,0.000200,-0.002018,0.005094,0.000173,0.005098,-0.002022,88.606473,0.005134,
690,1690,0.930916,-1.681406,0.999998,0.000187,-0.002404,0.005040,0.000011,0.005040,-0.002404,89.917126,0.005042,
970,920,1.116761,-5.757166,0.999998,0.000159,-0.002972,0.006745,0.000442,0.006765,-0.002992,87.401137,0.006780,
1350,320,-0.118699,-9.067979,0.999998,0.000159,-0.001108,0.003679,0.000105,0.003681,-0.001110,88.746921,0.003777,
1820,1510,-1.311778,-2.674999,0.999997,0.000199,-0.002563,0.005108,-0.000036,0.005108,-0.002563,-89.728288,0.005108,
1820,1930,-0.465837,-0.523034,0.999997,0.000218,-0.002042,0.005282,0.001026,0.005423,-0.002183,82.177396,0.005457,
780,600,1.029209,-7.332770,0.999998,0.000172,-0.002800,0.005330,-0.000069,0.005331,-0.002800,-89.513117,0.005333,
1520,460,-0.458252,-8.319071,0.999997,0.000210,-0.002157,0.004638,0.000396,0.004661,-0.002180,86.672987,0.004664,
1390,230,-0.115248,-9.381654,0.999998,0.000165,-0.000787,0.003618,-0.000112,0.003620,-0.000790,-88.539985,0.003807,
1850,1670,-1.152339,-1.911497,0.999998,0.000179,-0.002476,0.005038,-0.000045,0.005039,-0.002476,-89.654714,0.005039,
710,1960,0.250186,-0.316848,0.999997,0.000213,-0.001519,0.004324,-0.001170,0.004549,-0.001745,-79.086275,0.004590,
890,1570,0.601444,-1.964792,0.999997,0.000198,-0.002426,0.004869,0.000330,0.004884,-0.002441,87.416951,0.004884,
1640,1960,-0.151664,-0.276722,0.999998,0.000167,-0.000614,0.003867,0.000906,0.004043,-0.000791,78.990479,0.004286,
830,300,0.518084,-8.914516,0.999998,0.000186,-0.001817,0.004617,0.000215,0.004624,-0.001824,88.087904,0.004659,
560,530,1.543379,-7.342981,0.999311,0.000000,-0.004471,0.005834,0.000562,0.005864,-0.004502,86.889589,0.006138,
1760,1270,-1.563841,-3.836090,0.999998,0.000186,-0.002657,0.005133,0.000441,0.005158,-0.002682,86.769303,0.005159,
1820,100,-0.367420,-9.691844,0.999997,0.000210,-0.001799,0.005119,-0.001339,0.005369,-0.002049,-79.419693,0.005419,
1610,150,-0.232223,-9.594006,0.999998,0.000174,-0.001001,0.004094,-0.000704,0.004190,-0.001097,-82.272632,0.004346,
680,1210,1.726662,-4.160090,0.999998,0.000194,-0.002437,0.004925,-0.000443,0.004951,-0.002463,-86.567826,0.004951,
950,930,1.205438,-5.650175,0.999998,0.000194,-0.002730,0.006451,0.000639,0.006495,-0.002774,86.039437,0.006518,
640,1040,1.987272,-4.982338,0.999998,0.000168,-0.002137,0.004547,-0.000111,0.004548,-0.002139,-89.045844,0.004551,
1860,40,-0.172010,-9.929074,0.999988,0.000446,-0.000940,0.005534,-0.002456,0.006360,-0.001766,-71.406596,0.006566,
1350,60,-0.014532,-9.956539,0.999999,0.000125,-0.000136,0.003078,-0.000161,0.003086,-0.000144,-87.136284,0.003484,
1180,620,0.062827,-8.062746,0.999998,0.000170,-0.001345,0.003056,-0.000596,0.003136,-0.001424,-82.427285,0.003140,
1080,660,0.236564,-7.705900,0.999998,0.000174,-0.002314,0.004161,-0.001354,0.004433,-0.002586,-78.652952,0.004453,
1620,1590,-0.694832,-1.944471,0.999998,0.000162,-0.002423,0.004949,-0.000238,0.004957,-0.002430,-88.154854,0.004957,
820,1100,1.558009,-4.663117,0.999997,0.000190,-0.002192,0.005249,-0.000495,0.005282,-0.002225,-86.213438,0.005304,
1480,840,-0.806609,-6.343111,0.999997,0.000228,-0.003877,0.006713,0.000258,0.006720,-0.003883,88.605231,0.006747,
1130,650,0.135031,-7.877179,0.999998,0.000157,-0.001759,0.003403,-0.001206,0.003671,-0.002027,-77.481752,0.003677,
1290,70,-0.008621,-9.928844,0.999998,0.000146,-0.000126,0.003071,-0.000081,0.003073,-0.000128,-88.551919,0.003477,
1330,320,-0.097184,-9.079722,0.999998,0.000157,-0.001099,0.003633,0.000114,0.003636,-0.001102,88.617429,0.003728,
870,130,0.183745,-9.678621,0.999998,0.000177,-0.000908,0.003882,0.000661,0.003972,-0.000997,82.289532,0.004133,
1800,670,-1.459734,-6.791808,0.999997,0.000211,-0.002615,0.005141,-0.000198,0.005146,-0.002620,-88.541828,0.005146,
910,1680,0.453069,-1.416460,0.999998,0.000178,-0.001897,0.004555,0.000092,0.004556,-0.001899,89.179859,0.004577,
1390,210,-0.103990,-9.451778,0.999998,0.000163,-0.000714,0.003538,-0.000146,0.003543,-0.000719,-88.040548,0.003745,
690,1670,0.961100,-1.783650,0.999998,0.000173,-0.002434,0.005084,0.000074,0.005085,-0.002435,89.432799,0.005086,
750,240,0.570792,-9.111699,0.999998,0.000167,-0.001890,0.004844,0.000546,0.004888,-0.001934,85.394643,0.004924,
940,1270,0.830280,-3.506267,0.999997,0.000176,-0.003685,0.006333,0.000174,0.006336,-0.003688,89.004976,0.006365,
750,1080,1.730262,-4.779635,0.999998,0.000177,-0.002160,0.004975,-0.000268,0.004985,-0.002170,-87.852916,0.004999,
950,920,1.175127,-5.715582,0.999998,0.000204,-0.002841,0.006496,0.000633,0.006539,-0.002883,86.137378,0.006554,
610,1730,1.056256,-1.613888,0.999998,0.000174,-0.002402,0.004994,0.000063,0.004995,-0.002402,89.513316,0.004996,
1820,1910,-0.536509,-0.630038,0.999997,0.000235,-0.002137,0.005210,0.000860,0.005310,-0.002236,83.409413,0.005332,
710,1980,0.191402,-0.234981,0.999997,0.000175,-0.001178,0.004330,-0.001388,0.004660,-0.001508,-76.625515,0.004755,
890,1530,0.639469,-2.166840,0.999997,0.000194,-0.002531,0.005020,0.000423,0.005043,-0.002555,86.806928,0.005043,
560,520,1.501381,-7.394262,0.999712,0.000000,-0.003403,0.005876,0.000677,0.005925,-0.003452,85.850519,0.005952,
1340,1850,-0.068622,-0.597601,0.999998,0.000158,-0.000717,0.003454,0.000061,0.003455,-0.000718,89.167018,0.003646,
1860,740,-1.734604,-6.356255,0.999998,0.000189,-0.002454,0.004921,-0.000173,0.004925,-0.002458,-88.658626,0.004925,
990,1250,0.683949,-3.479318,0.999996,0.000240,-0.003902,0.006423,0.000637,0.006462,-0.003941,86.484448,0.006514,
1750,1520,-1.115125,-2.511591,0.999997,0.000183,-0.002612,0.005196,-0.000070,0.005196,-0.002613,-89.489134,0.005196,
1890,1240,-1.929908,-4.124223,0.999998,0.000161,-0.002228,0.004622,0.000106,0.004623,-0.002229,89.113263,0.004624,
1450,1520,-0.351105,-1.986761,0.999998,0.000182,-0.002158,0.004423,-0.000699,0.004496,-0.002231,-84.002669,0.004496,
830,440,0.697931,-8.239841,0.999997,0.000210,-0.002373,0.004965,-0.000182,0.004969,-0.002378,-88.577257,0.004971,
1100,450,0.170238,-8.570672,0.999998,0.000173,-0.001446,0.003833,-0.000356,0.003857,-0.001470,-86.164620,0.003893,
1560,1530,-0.606623,-2.141651,0.999998,0.000205,-0.002567,0.004987,-0.000442,0.005013,-0.002593,-86.664944,0.005014,
1340,1300,-0.159925,-2.586021,0.999998,0.000195,-0.002347,0.003516,-0.002048,0.004161,-0.002991,-72.529306,0.004292,
1610,130,-0.197950,-9.673910,0.999998,0.000169,-0.000849,0.003945,-0.000739,0.004056,-0.000960,-81.434823,0.004239,
1640,1940,-0.189075,-0.353636,0.999998,0.000169,-0.000773,0.004024,0.000900,0.004187,-0.000936,79.719596,0.004395,
1880,930,-2.057272,-5.451723,0.999998,0.000202,-0.002133,0.004382,-0.000144,0.004385,-0.002136,-88.730163,0.004386,
630,410,1.146603,-8.072624,0.999998,0.000178,-0.002493,0.005028,-0.000065,0.005028,-0.002494,-89.504812,0.005028,
1480,820,-0.750021,-6.477267,0.999997,0.000220,-0.003897,0.006598,0.000400,0.006613,-0.003912,87.818300,0.006650,
1180,1420,0.060799,-2.063205,0.999998,0.000163,-0.001311,0.002951,0.000659,0.003051,-0.001410,81.403261,0.003054,
1820,80,-0.271918,-9.795678,0.999997,0.000200,-0.001565,0.005186,-0.001636,0.005561,-0.001941,-77.069839,0.005645,
1200,1450,0.037590,-1.960535,0.999998,0.000158,-0.001236,0.003004,0.000298,0.003024,-0.001257,85.994788,0.003039,
760,50,0.086374,-9.961642,0.999998,0.000179,-0.000247,0.003775,0.001193,0.004102,-0.000574,74.658307,0.004443,
1450,640,-0.400318,-7.606889,0.999997,0.000211,-0.002710,0.004830,0.001079,0.004981,-0.002861,82.014133,0.004999,
730,240,0.609437,-9.091517,0.999998,0.000165,-0.002083,0.004930,0.000476,0.004962,-0.002115,86.138468,0.004980,
1080,640,0.232198,-7.792448,0.999998,0.000175,-0.002235,0.004105,-0.001267,0.004349,-0.002479,-79.109255,0.004363,
1590,360,-0.511951,-8.683848,0.999996,0.000231,-0.002052,0.004627,0.000060,0.004628,-0.002053,89.485249,0.004638,
740,300,0.705147,-8.804043,0.999998,0.000169,-0.002166,0.004978,0.000218,0.004985,-0.002173,88.251232,0.004998,
950,1150,1.130542,-4.267237,0.999997,0.000204,-0.003038,0.006564,-0.000586,0.006600,-0.003073,-86.518522,0.006605,
780,580,1.000307,-7.438569,0.999998,0.000157,-0.002747,0.005289,-0.000095,0.005290,-0.002748,-89.321371,0.005292,
1400,1450,-0.264366,-2.188492,0.999998,0.000164,-0.002193,0.004251,-0.001095,0.004432,-0.002374,-80.616022,0.004436,
610,1710,1.091853,-1.715273,0.999998,0.000174,-0.002409,0.004997,0.000059,0.004997,-0.002409,89.545335,0.004998,
990,1230,0.734776,-3.611214,0.999997,0.000236,-0.003914,0.006618,0.000448,0.006637,-0.003933,87.569769,0.006675,
1180,1440,0.062203,-2.004401,0.999999,0.000145,-0.001325,0.003065,0.000580,0.003140,-0.001401,82.603206,0.003146,
1510,1680,-0.375778,-1.367799,0.999997,0.000202,-0.001846,0.004326,-0.000202,0.004332,-0.001852,-88.129503,0.004347,
1030,1010,1.171416,-5.212452,0.999996,0.000261,-0.003876,0.010016,-0.000474,0.010033,-0.003892,-88.047885,0.010116,
1280,1980,-0.007905,-0.166279,0.999998,0.000168,-0.000155,0.003045,0.000097,0.003048,-0.000157,88.261218,0.003432,
1340,1280,-0.170500,-2.655541,0.999998,0.000195,-0.002514,0.003544,-0.002172,0.004242,-0.003213,-72.177684,0.004425,
1130,630,0.133565,-7.948395,0.999998,0.000163,-0.001685,0.003456,-0.001050,0.003663,-0.001891,-78.892447,0.003663,
1050,800,0.440914,-6.902331,0.999997,0.000224,-0.003782,0.005751,-0.001568,0.006002,-0.004033,-80.893918,0.006119,
1030,1190,0.702049,-3.704756,0.999997,0.000222,-0.003729,0.006805,0.000948,0.006890,-0.003813,84.899604,0.006903,
860,1890,0.254366,-0.546805,0.999997,0.000216,-0.001163,0.004128,-0.000630,0.004202,-0.001237,-83.299833,0.004318,
620,850,1.877902,-5.847094,0.999998,0.000174,-0.002312,0.004720,0.000306,0.004734,-0.002326,87.512820,0.004734,
1650,580,-0.909749,-7.492743,0.999998,0.000167,-0.002771,0.005288,0.000184,0.005292,-0.002775,88.689638,0.005294,
820,1080,1.583227,-4.768205,0.999997,0.000181,-0.002114,0.005194,-0.000391,0.005214,-0.002135,-86.943440,0.005243,
1820,1090,-1.960023,-4.755123,0.999999,0.000139,-0.002160,0.004555,0.000143,0.004558,-0.002163,88.783980,0.004560,
1560,890,-1.225502,-5.839347,0.999998,0.000169,-0.002915,0.006105,-0.000698,0.006158,-0.002969,-85.598828,0.006160,
1560,960,-1.388449,-5.419815,0.999998,0.000199,-0.002156,0.005776,-0.000579,0.005818,-0.002198,-85.848623,0.005876,
1740,2000,-0.111568,-0.140778,0.999998,0.000163,-0.000684,0.004090,0.001417,0.004479,-0.001073,74.655880,0.004677,
630,390,1.117418,-8.173062,0.999998,0.000160,-0.002488,0.005043,-0.000058,0.005044,-0.002488,-89.562570,0.005044,
1340,670,-0.146862,-7.789021,0.999998,0.000158,-0.001828,0.003515,0.001357,0.003840,-0.002153,76.535823,0.003850,
1620,1650,-0.625929,-1.648085,0.999997,0.000244,-0.002239,0.004833,-0.000114,0.004835,-0.002241,-89.077935,0.004839,
1520,440,-0.443928,-8.411797,0.999997,0.000214,-0.002017,0.004561,0.000321,0.004576,-0.002033,87.217112,0.004586,
920,1270,0.901945,-3.554403,0.999997,0.000216,-0.003581,0.006248,-0.000003,0.006248,-0.003581,-89.980341,0.006270,
1750,1500,-1.144549,-2.616263,0.999998,0.000152,-0.002642,0.005222,-0.000054,0.005222,-0.002643,-89.608606,0.005222,
1820,300,-0.934081,-8.652038,0.999998,0.000171,-0.002407,0.005077,-0.000087,0.005078,-0.002408,-89.332523,0.005081,
810,840,1.378163,-6.038963,0.999998,0.000192,-0.002809,0.005571,0.000611,0.005616,-0.002853,85.848886,0.005616,
1500,1030,-1.346056,-5.023764,0.999997,0.000205,-0.001903,0.006285,0.000021,0.006285,-0.001903,89.853147,0.006446,
1240,1420,-0.009254,-2.033314,0.999999,0.000125,-0.001124,0.002752,-0.000132,0.002756,-0.001129,-88.051862,0.002771,
800,1590,0.800449,-2.012031,0.999998,0.000178,-0.002506,0.005039,0.000186,0.005044,-0.002510,88.588526,0.005044,
1730,650,-1.237779,-6.993766,0.999998,0.000185,-0.002777,0.005307,-0.000126,0.005309,-0.002779,-89.104465,0.005311,
1600,1870,-0.281834,-0.625425,0.999998,0.000189,-0.001289,0.004176,0.000539,0.004228,-0.001341,84.420119,0.004321,
1480,800,-0.699009,-6.607671,0.999997,0.000218,-0.003861,0.006423,0.000576,0.006455,-0.003893,86.803241,0.006501,
1510,940,-1.227185,-5.593368,0.999996,0.000239,-0.002596,0.006479,-0.000617,0.006521,-0.002638,-86.126398,0.006560,
580,410,1.270327,-7.989033,0.999998,0.000168,-0.001638,0.004810,-0.000026,0.004810,-0.001638,-89.765733,0.004891,
1200,1430,0.037531,-2.019071,0.999998,0.000166,-0.001213,0.002872,0.000340,0.002900,-0.001241,85.274493,0.002910,
1590,340,-0.488162,-8.776287,0.999997,0.000217,-0.001970,0.004618,-0.000008,0.004618,-0.001970,-89.928642,0.004635,
760,40,0.063190,-10.000274,0.999998,0.000180,-0.000072,0.003766,0.001230,0.004127,-0.000432,73.669471,0.004536,
1430,1750,-0.203865,-1.004026,0.999998,0.000163,-0.001316,0.003892,-0.000058,0.003893,-0.001317,-89.357585,0.003960,
1640,1920,-0.231268,-0.438142,0.999998,0.000186,-0.000923,0.004086,0.000843,0.004224,-0.001061,80.702617,0.004395,
1140,1850,0.055953,-0.592865,0.999998,0.000176,-0.000697,0.003426,-0.000048,0.003427,-0.000697,-89.334414,0.003622,
950,910,1.144973,-5.779692,0.999997,0.000201,-0.002982,0.006534,0.000596,0.006571,-0.003019,86.430545,0.006578,
1080,620,0.229919,-7.873773,0.999998,0.000179,-0.002139,0.004026,-0.001156,0.004236,-0.002349,-79.724721,0.004244,
910,760,0.884861,-6.658403,0.999997,0.000185,-0.003507,0.006138,-0.000066,0.006138,-0.003507,-89.608279,0.006159,
740,280,0.668537,-8.903799,0.999998,0.000200,-0.002083,0.004969,0.000322,0.004984,-0.002098,87.391116,0.005004,
610,1690,1.125263,-1.813993,0.999998,0.000166,-0.002453,0.004997,0.000041,0.004998,-0.002453,89.684392,0.004998,
560,510,1.461533,-7.449403,0.999903,0.000000,-0.002533,0.005707,0.000818,0.005788,-0.002613,84.388049,0.005797,
1340,1260,-0.191514,-2.726468,0.999997,0.000219,-0.002626,0.003590,-0.002295,0.004346,-0.003381,-71.780312,0.004564,
1030,1170,0.782079,-3.844624,0.999997,0.000204,-0.003552,0.007015,0.000869,0.007086,-0.003623,85.331431,0.007086,
1180,1460,0.064336,-1.940808,0.999998,0.000163,-0.001346,0.003167,0.000478,0.003217,-0.001397,84.016607,0.003227,
1130,610,0.136132,-8.017969,0.999998,0.000165,-0.001637,0.003525,-0.000931,0.003688,-0.001800,-80.079415,0.003688,
990,1210,0.795673,-3.749217,0.999997,0.000224,-0.003863,0.006742,0.000307,0.006751,-0.003872,88.343976,0.006775,
1280,1960,-0.012601,-0.228927,0.999999,0.000150,-0.000214,0.003127,0.000062,0.003128,-0.000215,88.937667,0.003495,
1400,1430,-0.268525,-2.273789,0.999998,0.000179,-0.002283,0.004229,-0.001186,0.004438,-0.002492,-79.996276,0.004450,
930,1620,0.466416,-1.665336,0.999997,0.000197,-0.002108,0.004621,0.000328,0.004637,-0.002124,87.214892,0.004643,
1010,1980,0.042191,-0.178099,0.999998,0.000155,-0.000222,0.003304,-0.000377,0.003344,-0.000262,-83.963739,0.003720,
780,560,0.971580,-7.545729,0.999998,0.000179,-0.002702,0.005286,-0.000129,0.005288,-0.002705,-89.071538,0.005288,
1400,690,-0.286402,-7.521527,0.999997,0.000207,-0.002697,0.004556,0.001507,0.004857,-0.002997,78.718118,0.004901,
720,270,0.692347,-8.927598,0.999998,0.000199,-0.002277,0.005003,0.000268,0.005013,-0.002287,87.897415,0.005019,
1600,1650,-0.582355,-1.621144,0.999997,0.000215,-0.002158,0.004760,-0.000121,0.004762,-0.002160,-89.000318,0.004769,
1630,580,-0.853430,-7.528233,0.999997,0.000182,-0.002840,0.005309,0.000247,0.005316,-0.002847,88.263170,0.005321,
1500,1010,-1.337251,-5.149223,0.999998,0.000188,-0.001962,0.006486,-0.000165,0.006489,-0.001965,-88.883484,0.006655,
630,370,1.085986,-8.274516,0.999998,0.000154,-0.002459,0.005021,-0.000027,0.005021,-0.002459,-89.795767,0.005022,
1560,940,-1.350200,-5.536455,0.999998,0.000184,-0.002355,0.005893,-0.000706,0.005953,-0.002415,-85.144305,0.005988,
700,1270,1.569859,-3.840164,0.999998,0.000182,-0.002588,0.005114,-0.000432,0.005139,-0.002612,-86.798621,0.005139,
1740,330,-0.794072,-8.629278,0.999997,0.000172,-0.002379,0.004997,-0.000055,0.004997,-0.002379,-89.575555,0.004999,
1810,1520,-1.271393,-2.608575,0.999998,0.000185,-0.002561,0.005120,-0.000046,0.005120,-0.002561,-89.657011,0.005120,
1730,630,-1.206543,-7.100158,0.999997,0.000178,-0.002760,0.005295,-0.000074,0.005295,-0.002761,-89.470812,0.005297,
780,1590,0.850593,-2.044841,0.999998,0.000148,-0.002498,0.005057,0.000138,0.005060,-0.002501,88.951596,0.005060,
1880,130,-0.628220,-9.386122,0.999997,0.000226,-0.002410,0.005395,-0.000711,0.005459,-0.002474,-84.837213,0.005467,
1740,1910,-0.383221,-0.534724,0.999996,0.000211,-0.001718,0.004734,0.000962,0.004874,-0.001858,81.697723,0.004920,
1390,190,-0.092364,-9.524250,0.999998,0.000180,-0.000640,0.003534,-0.000180,0.003542,-0.000648,-87.539346,0.003772,
1740,1210,-1.621438,-4.132896,0.999997,0.000197,-0.002502,0.005131,0.000530,0.005167,-0.002539,86.045944,0.005168,
1580,1870,-0.255396,-0.613918,0.999998,0.000188,-0.001270,0.004095,0.000491,0.004139,-0.001315,84.809242,0.004230,
1210,320,0.021644,-9.098334,0.999999,0.000124,-0.000996,0.003539,-0.000063,0.003540,-0.000996,-89.209608,0.003651,
1170,1460,0.078152,-1.953035,0.999999,0.000149,-0.001388,0.003221,0.000609,0.003300,-0.001468,82.602861,0.003306,
580,330,1.138855,-8.383815,0.999998,0.000185,-0.002353,0.004889,-0.000034,0.004889,-0.002353,-89.728385,0.004890,
1590,280,-0.411934,-9.049885,0.999997,0.000181,-0.001809,0.004487,-0.000189,0.004493,-0.001814,-88.282583,0.004521,
1820,60,-0.182765,-9.899346,0.999997,0.000219,-0.001356,0.004835,-0.001667,0.005255,-0.001777,-75.850088,0.005346,
1430,720,-0.392482,-7.265827,0.999997,0.000219,-0.003207,0.005227,0.001425,0.005461,-0.003441,80.661688,0.005523,
890,340,0.454044,-8.798615,0.999997,0.000178,-0.001989,0.004554,-0.000060,0.004554,-0.001990,-89.476066,0.004566,
1080,600,0.226393,-7.953465,0.999998,0.000167,-0.002031,0.004033,-0.001042,0.004206,-0.002205,-80.518818,0.004208,
1340,590,-0.147425,-8.076515,0.999998,0.000183,-0.001679,0.003648,0.000840,0.003777,-0.001808,81.245401,0.003779,
1690,1070,-1.685924,-4.828869,0.999997,0.000194,-0.002117,0.004998,0.000209,0.005004,-0.002123,88.315413,0.005023,
1280,1940,-0.013821,-0.292612,0.999998,0.000151,-0.000283,0.003205,0.000075,0.003206,-0.000285,88.773472,0.003549,
1340,1240,-0.224688,-2.800602,0.999997,0.000218,-0.002717,0.003500,-0.002210,0.004206,-0.003423,-72.292631,0.004473,
1480,780,-0.657671,-6.734913,0.999998,0.000216,-0.003808,0.006261,0.000681,0.006307,-0.003854,86.147169,0.006359,
1430,1730,-0.218378,-1.082364,0.999998,0.000162,-0.001381,0.003932,-0.000096,0.003934,-0.001383,-88.968036,0.003991,
880,880,1.267865,-5.871012,0.999998,0.000193,-0.002877,0.005965,0.000708,0.006022,-0.002933,85.450135,0.006022,
1540,890,-1.167659,-5.863681,0.999998,0.000207,-0.003053,0.006293,-0.000675,0.006342,-0.003101,-85.889060,0.006342,
1860,1050,-2.058386,-4.941391,0.999999,0.000141,-0.002087,0.004354,0.000116,0.004356,-0.002089,88.970071,0.004357,
820,1060,1.596379,-4.872745,0.999998,0.000176,-0.002035,0.005142,-0.000221,0.005149,-0.002041,-88.237779,0.005186,
950,870,1.021218,-6.042761,0.999998,0.000189,-0.003414,0.006564,0.000367,0.006578,-0.003427,87.898727,0.006580,
760,950,1.684686,-5.427749,0.999998,0.000169,-0.002253,0.005066,0.000464,0.005096,-0.002282,86.389106,0.005105,
1860,1650,-1.206014,-2.027843,0.999998,0.000183,-0.002484,0.004991,-0.000068,0.004991,-0.002484,-89.479621,0.004991,
1030,1150,0.865673,-3.984252,0.999997,0.000191,-0.003377,0.007253,0.000879,0.007325,-0.003449,85.302254,0.007330,
1640,1900,-0.270462,-0.518403,0.999998,0.000186,-0.001067,0.004224,0.000813,0.004346,-0.001189,81.460270,0.004492,
1120,1850,0.070536,-0.598595,0.999998,0.000154,-0.000702,0.003474,-0.000055,0.003475,-0.000702,-89.244695,0.003674,
770,200,0.447971,-9.321064,0.999997,0.000200,-0.001717,0.004730,0.000667,0.004798,-0.001785,84.156566,0.004850,
740,260,0.629878,-9.001827,0.999998,0.000188,-0.002020,0.004921,0.000404,0.004945,-0.002043,86.676868,0.004970,
610,1670,1.158253,-1.916056,0.999998,0.000158,-0.002481,0.005009,0.000062,0.005010,-0.002481,89.522895,0.005010,
970,1980,0.053390,-0.180507,0.999999,0.000109,-0.000343,0.003361,-0.000441,0.003413,-0.000395,-83.306277,0.003734,
990,1190,0.860894,-3.886545,0.999997,0.000204,-0.003761,0.006842,0.000160,0.006845,-0.003763,89.138313,0.006856,
1840,650,-1.529951,-6.837037,0.999997,0.000210,-0.002537,0.005096,-0.000103,0.005097,-0.002539,-89.226274,0.005097,
1230,1520,0.002279,-1.727061,0.999999,0.000136,-0.001272,0.003301,0.000017,0.003301,-0.001272,89.781821,0.003330,
1330,1320,-0.131321,-2.475090,0.999997,0.000197,-0.001993,0.003238,-0.001811,0.003803,-0.002558,-72.650074,0.003878,
1730,610,-1.174339,-7.205207,0.999998,0.000165,-0.002755,0.005280,-0.000042,0.005280,-0.002755,-89.700678,0.005282,
1540,770,-0.859407,-6.626769,0.999998,0.000163,-0.003575,0.006170,0.000110,0.006171,-0.003576,89.350422,0.006197,
1180,1480,0.063779,-1.877342,0.999998,0.000169,-0.001330,0.003223,0.000423,0.003262,-0.001369,84.741468,0.003276,
1560,920,-1.303271,-5.655824,0.999998,0.000192,-0.002599,0.005946,-0.000720,0.006006,-0.002659,-85.220060,0.006019,
1130,590,0.136043,-8.090497,0.999999,0.000158,-0.001589,0.003542,-0.000780,0.003658,-0.001705,-81.546311,0.003661,
1650,2010,-0.052016,-0.089986,0.999998,0.000168,-0.000270,0.003577,0.000944,0.003796,-0.000490,76.932214,0.004130,
680,1270,1.621319,-3.858603,0.999998,0.000191,-0.002560,0.005061,-0.000436,0.005086,-0.002585,-86.735755,0.005086,
630,350,1.052169,-8.375447,0.999998,0.000157,-0.002438,0.005025,-0.000034,0.005025,-0.002438,-89.736805,0.005026,
880,1210,1.182335,-3.998997,0.999998,0.000156,-0.003128,0.006059,-0.000570,0.006095,-0.003163,-86.460637,0.006096,
1890,1840,-0.917104,-1.148518,0.999998,0.000160,-0.002409,0.004869,0.000150,0.004872,-0.002412,88.815906,0.004872,
1520,420,-0.429751,-8.500923,0.999997,0.000208,-0.001906,0.004515,0.000252,0.004525,-0.001916,87.758677,0.004542,
1150,1460,0.105715,-1.981516,0.999998,0.000167,-0.001460,0.003348,0.000693,0.003446,-0.001558,81.962999,0.003451,
1480,1470,-0.446730,-2.279661,0.999997,0.000222,-0.002547,0.004847,-0.000793,0.004931,-0.002631,-83.946608,0.004935,
1340,570,-0.147699,-8.149894,0.999998,0.000173,-0.001625,0.003630,0.000746,0.003734,-0.001729,82.074011,0.003737,
1080,580,0.225505,-8.034677,0.999998,0.000185,-0.001928,0.003973,-0.000922,0.004114,-0.002069,-81.320772,0.004114,
1590,260,-0.383669,-9.139341,0.999997,0.000175,-0.001705,0.004363,-0.000237,0.004373,-0.001715,-87.770599,0.004406,
1770,60,-0.149654,-9.910986,0.999997,0.000232,-0.000752,0.004463,-0.001713,0.004975,-0.001265,-73.346630,0.005172,
1810,1970,-0.286836,-0.303242,0.999997,0.000179,-0.001223,0.005043,0.001799,0.005523,-0.001703,75.065840,0.005656,
1480,760,-0.618770,-6.858400,0.999997,0.000236,-0.003726,0.006061,0.000776,0.006123,-0.003787,85.492346,0.006180,
1650,340,-0.606944,-8.704957,0.999997,0.000203,-0.002181,0.004834,-0.000041,0.004834,-0.002182,-89.664841,0.004842,
1280,1920,-0.018098,-0.356660,0.999999,0.000126,-0.000333,0.003191,0.000064,0.003192,-0.000334,88.960353,0.003509,
1340,1220,-0.280953,-2.866269,0.999997,0.000220,-0.002584,0.003401,-0.002081,0.004054,-0.003237,-72.589678,0.004288,
1030,900,0.844929,-6.131539,0.999998,0.000170,-0.003407,0.007197,-0.000877,0.007269,-0.003479,-85.301703,0.007271,
560,500,1.433103,-7.515730,0.999903,0.000000,-0.001655,0.005718,0.000721,0.005788,-0.001725,84.467170,0.005943,
1860,1630,-1.235923,-2.127766,0.999998,0.000189,-0.002483,0.004991,-0.000054,0.004991,-0.002484,-89.589083,0.004991,
780,540,0.946764,-7.649990,0.999998,0.000167,-0.002667,0.005201,-0.000157,0.005204,-0.002670,-88.860683,0.005205,
660,510,1.216375,-7.612907,0.999998,0.000202,-0.002605,0.005125,-0.000077,0.005126,-0.002606,-89.431753,0.005126,
610,1650,1.187955,-2.016024,0.999998,0.000160,-0.002497,0.005014,0.000063,0.005015,-0.002497,89.517471,0.005015,
730,1720,0.784974,-1.464638,0.999998,0.000184,-0.002358,0.005018,-0.000054,0.005018,-0.002359,-89.578352,0.005021,
950,850,0.961067,-6.176238,0.999998,0.000181,-0.003564,0.006565,0.000231,0.006570,-0.003569,88.692293,0.006578,
1430,1710,-0.228278,-1.160293,0.999998,0.000164,-0.001454,0.003929,-0.000173,0.003934,-0.001459,-88.157891,0.003978,
730,880,1.660693,-5.773635,0.999998,0.000195,-0.002461,0.005133,0.000548,0.005172,-0.002500,85.889984,0.005173,
1070,1980,0.027252,-0.172725,0.999999,0.000147,-0.000208,0.003173,-0.000251,0.003192,-0.000227,-85.781273,0.003562,
1030,1130,0.945036,-4.134244,0.999997,0.000220,-0.003238,0.007460,0.000946,0.007543,-0.003321,84.985140,0.007561,
1820,1490,-1.341567,-2.777218,0.999998,0.000180,-0.002563,0.005124,-0.000002,0.005124,-0.002563,-89.985842,0.005124,
1520,770,-0.787605,-6.676445,0.999997,0.000186,-0.003653,0.006224,0.000304,0.006234,-0.003663,88.239149,0.006265,
1260,1290,-0.029471,-2.327089,0.999998,0.000174,-0.001176,0.001540,-0.000810,0.001763,-0.001399,-74.595378,0.001861,
1730,590,-1.143090,-7.312018,0.999998,0.000165,-0.002721,0.005244,0.000006,0.005244,-0.002721,89.956699,0.005245,
1530,320,-0.356968,-8.932635,0.999998,0.000193,-0.001583,0.004339,-0.000029,0.004339,-0.001583,-89.714992,0.004392,
990,1170,0.928355,-4.024283,0.999998,0.000181,-0.003578,0.006941,0.000006,0.006941,-0.003578,89.969723,0.006942,
1560,900,-1.253498,-5.777057,0.999998,0.000191,-0.002809,0.006070,-0.000736,0.006130,-0.002870,-85.295021,0.006135,
1830,1180,-1.886012,-4.342011,0.999998,0.000165,-0.002288,0.004716,0.000323,0.004731,-0.002302,87.365567,0.004731,
1880,1840,-0.893161,-1.124864,0.999998,0.000169,-0.002393,0.004923,0.000154,0.004926,-0.002396,88.794039,0.004927,
1530,1100,-1.313683,-4.608521,0.999997,0.000195,-0.002291,0.006129,0.000611,0.006173,-0.002335,85.871218,0.006234,
740,240,0.589179,-9.102170,0.999998,0.000164,-0.001950,0.004886,0.000541,0.004929,-0.001993,85.505910,0.004959,
630,330,1.019413,-8.477350,0.999998,0.000163,-0.002417,0.005026,-0.000038,0.005026,-0.002417,-89.704513,0.005027,
1180,1450,0.063139,-1.973818,0.999999,0.000160,-0.001342,0.003127,0.000525,0.003188,-0.001403,83.388889,0.003195,
1130,570,0.137961,-8.157422,0.999998,0.000167,-0.001558,0.003585,-0.000669,0.003671,-0.001644,-82.712678,0.003677,
1650,1880,-0.322808,-0.611245,0.999998,0.000172,-0.001388,0.004355,0.000719,0.004444,-0.001476,82.970789,0.004527,
1180,1920,0.019526,-0.356156,0.999998,0.000153,-0.000329,0.003209,-0.000041,0.003210,-0.000329,-89.341995,0.003531,
880,860,1.219228,-5.989519,0.999998,0.000191,-0.003038,0.006005,0.000641,0.006050,-0.003083,85.964734,0.006050,
580,370,1.207465,-8.185147,0.999998,0.000155,-0.001831,0.005010,-0.000166,0.005014,-0.001835,-88.613034,0.005074,
1830,1360,-1.582144,-3.458230,0.999997,0.000208,-0.002546,0.005077,0.000177,0.005081,-0.002550,88.672998,0.005081,
1840,1050,-2.015877,-4.938553,0.999999,0.000146,-0.002117,0.004463,0.000139,0.004466,-0.002120,88.790828,0.004468,
1440,1850,-0.143532,-0.630171,0.999998,0.000167,-0.000839,0.003686,0.000211,0.003696,-0.000849,87.335380,0.003871,
1640,1880,-0.311387,-0.606962,0.999997,0.000196,-0.001224,0.004307,0.000722,0.004399,-0.001316,82.686352,0.004516,
1340,510,-0.145558,-8.369723,0.999998,0.000130,-0.001463,0.003681,0.000488,0.003727,-0.001508,84.632382,0.003750,
850,260,0.423272,-9.116869,0.999997,0.000213,-0.001658,0.004453,0.000326,0.004470,-0.001675,86.956470,0.004517,
1810,1950,-0.372303,-0.403109,0.999997,0.000216,-0.001529,0.005088,0.001463,0.005397,-0.001838,78.073543,0.005487,
1080,560,0.224333,-8.109259,0.999998,0.000164,-0.001838,0.003955,-0.000823,0.004069,-0.001952,-82.064978,0.004070,
820,1040,1.605756,-4.975387,0.999997,0.000185,-0.001981,0.005138,-0.000142,0.005141,-0.001984,-88.855183,0.005186,
1520,400,-0.414490,-8.590747,0.999997,0.000204,-0.001858,0.004451,0.000199,0.004457,-0.001864,88.193182,0.004477,
1690,1030,-1.703645,-5.026820,0.999998,0.000186,-0.002073,0.005002,0.000037,0.005003,-0.002074,89.698391,0.005027,
1280,1900,-0.020771,-0.420752,0.999999,0.000141,-0.000418,0.003273,0.000066,0.003274,-0.000419,88.982613,0.003563,
1650,320,-0.578663,-8.802244,0.999997,0.000201,-0.002075,0.004769,-0.000093,0.004770,-0.002077,-89.223243,0.004783,
560,490,1.410389,-7.572727,0.999908,0.000000,-0.001170,0.005455,0.000509,0.005494,-0.001209,85.632737,0.005774,
1000,1730,0.260655,-1.107562,0.999998,0.000161,-0.001302,0.004036,0.000010,0.004036,-0.001302,89.889736,0.004119,
1030,880,0.761483,-6.271639,0.999997,0.000235,-0.003567,0.006977,-0.000903,0.007054,-0.003644,-85.139799,0.007055,
1030,1200,0.668777,-3.634336,0.999996,0.000234,-0.003809,0.006694,0.000984,0.006786,-0.003901,84.696155,0.006811,
1340,1440,-0.148116,-2.093182,0.999999,0.000147,-0.001776,0.003584,-0.001027,0.003774,-0.001966,-79.517869,0.003775,
1260,1270,-0.036610,-2.356518,0.999997,0.000205,-0.001352,0.001299,-0.000838,0.001542,-0.001595,-73.842392,0.001812,
1820,1470,-1.373361,-2.881074,0.999998,0.000194,-0.002553,0.005146,0.000030,0.005146,-0.002553,89.778324,0.005146,
1820,470,-1.201488,-7.789488,0.999998,0.000171,-0.002515,0.005100,0.000081,0.005101,-0.002516,89.393052,0.005101,
1030,1110,1.026829,-4.279887,0.999996,0.000245,-0.003226,0.007887,0.001082,0.007991,-0.003331,84.491871,0.008028,
780,520,0.918523,-7.753098,0.999998,0.000143,-0.002621,0.005149,-0.000164,0.005153,-0.002625,-88.791991,0.005153,
610,1630,1.219005,-2.116687,0.999998,0.000175,-0.002484,0.005018,0.000066,0.005018,-0.002484,89.496428,0.005018,
1730,570,-1.113709,-7.415990,0.999998,0.000186,-0.002693,0.005231,0.000048,0.005231,-0.002693,89.653236,0.005232,
1480,740,-0.588377,-6.977494,0.999997,0.000228,-0.003607,0.005856,0.000851,0.005932,-0.003683,84.903184,0.005989,
950,830,0.903193,-6.307852,0.999998,0.000173,-0.003673,0.006549,0.000063,0.006549,-0.003674,89.647063,0.006565,
830,920,1.483732,-5.607899,0.999997,0.000227,-0.002410,0.005480,0.000657,0.005535,-0.002465,85.272089,0.005546,
710,880,1.709123,-5.763273,0.999998,0.000175,-0.002433,0.005060,0.000529,0.005097,-0.002470,85.984308,0.005098,
990,1150,1.001735,-4.162780,0.999998,0.000177,-0.003349,0.007034,-0.000143,0.007036,-0.003351,-89.208464,0.007038,
1330,1980,-0.017503,-0.168539,0.999998,0.000156,-0.000204,0.003091,0.000131,0.003096,-0.000209,87.727919,0.003461,
1530,300,-0.340725,-9.016099,0.999998,0.000177,-0.001528,0.004223,-0.000079,0.004224,-0.001529,-89.217053,0.004277,
1560,880,-1.200204,-5.899861,0.999998,0.000173,-0.003007,0.006128,-0.000662,0.006175,-0.003054,-85.878270,0.006175,
900,650,0.743265,-7.277482,0.999996,0.000220,-0.003102,0.005525,-0.000420,0.005545,-0.003122,-87.218916,0.005560,
1870,1840,-0.869488,-1.100935,0.999998,0.000180,-0.002419,0.004980,0.000161,0.004983,-0.002422,88.753870,0.004984,
740,220,0.545245,-9.197112,0.999997,0.000180,-0.001880,0.004831,0.000669,0.004897,-0.001946,84.364903,0.004932,
1130,550,0.135949,-8.230205,0.999998,0.000156,-0.001502,0.003611,-0.000579,0.003676,-0.001567,-83.620829,0.003689,
940,1150,1.159808,-4.283522,0.999997,0.000194,-0.002953,0.006440,-0.000649,0.006484,-0.002997,-86.067197,0.006490,
1180,1900,0.022057,-0.421020,0.999998,0.000143,-0.000420,0.003271,-0.000060,0.003272,-0.000421,-89.065437,0.003559,
1510,1100,-1.265580,-4.583796,0.999998,0.000162,-0.002400,0.006382,0.000590,0.006421,-0.002440,86.170973,0.006483,
1810,1180,-1.839309,-4.327322,0.999998,0.000178,-0.002332,0.004804,0.000389,0.004825,-0.002353,86.885134,0.004825,
930,1500,0.562343,-2.240227,0.999997,0.000197,-0.002622,0.005041,0.000560,0.005082,-0.002662,85.844741,0.005084,
580,240,0.961542,-8.825054,0.999998,0.000151,-0.002441,0.004899,0.000037,0.004899,-0.002441,89.710717,0.004899,
630,310,0.982977,-8.576605,0.999998,0.000183,-0.002417,0.005063,0.000004,0.005063,-0.002417,89.966678,0.005065,
1430,1690,-0.240086,-1.240070,0.999998,0.000173,-0.001504,0.004070,-0.000192,0.004077,-0.001510,-88.033350,0.004122,
880,840,1.169100,-6.112565,0.999998,0.000202,-0.003175,0.006043,0.000559,0.006076,-0.003209,86.541342,0.006080,
1080,540,0.220884,-8.189711,0.999998,0.000155,-0.001783,0.003992,-0.000748,0.004087,-0.001879,-82.741194,0.004092,
1380,1850,-0.094461,-0.606673,0.999998,0.000148,-0.000653,0.003551,0.000173,0.003558,-0.000660,87.649468,0.003785,
1280,1880,-0.024891,-0.486739,0.999998,0.000155,-0.000484,0.003298,0.000041,0.003298,-0.000485,89.374321,0.003562,
1520,820,-0.903222,-6.355565,0.999997,0.000195,-0.003651,0.006488,-0.000066,0.006488,-0.003652,-89.629351,0.006505,
1640,1860,-0.349888,-0.690380,0.999997,0.000209,-0.001335,0.004416,0.000653,0.004489,-0.001408,83.603245,0.004592,
780,1730,0.658355,-1.346567,0.999998,0.000170,-0.002209,0.004923,-0.000070,0.004923,-0.002210,-89.437324,0.004932,
1180,710,0.055272,-7.811319,0.999998,0.000167,-0.001314,0.002408,-0.001038,0.002678,-0.001584,-75.427959,0.002693,
1690,490,-0.900735,-7.896975,0.999998,0.000145,-0.002524,0.005102,0.000156,0.005106,-0.002528,88.832050,0.005106,
560,480,1.382681,-7.623574,0.999913,0.000000,-0.001102,0.004951,0.000217,0.004959,-0.001110,87.953296,0.005205,
1830,1340,-1.616251,-3.559833,0.999996,0.000221,-0.002523,0.005066,0.000210,0.005072,-0.002529,88.414993,0.005072,
640,1730,0.987277,-1.562142,0.999998,0.000169,-0.002429,0.005044,-0.000007,0.005044,-0.002429,-89.950067,0.005045,
1650,300,-0.548510,-8.897430,0.999998,0.000184,-0.001985,0.004746,-0.000200,0.004752,-0.001991,-88.295525,0.004773,
1280,190,-0.026599,-9.543937,0.999998,0.000149,-0.000506,0.003350,-0.000046,0.003350,-0.000507,-89.323762,0.003612,
1810,1930,-0.446643,-0.510010,0.999997,0.000205,-0.001824,0.005240,0.001212,0.005442,-0.002027,80.530905,0.005501,
820,1020,1.607787,-5.077514,0.999997,0.000195,-0.001957,0.005165,0.000075,0.005166,-0.001957,89.396188,0.005216,
1640,1150,-1.472439,-4.393349,0.999996,0.000229,-0.002475,0.005495,0.000674,0.005551,-0.002531,85.201598,0.005559,
1180,1530,0.065104,-1.713281,0.999999,0.000131,-0.001319,0.003409,0.000270,0.003424,-0.001334,86.747396,0.003452,
1030,1180,0.741916,-3.771957,0.999996,0.000246,-0.003631,0.006921,0.000909,0.006998,-0.003709,85.112864,0.007002,
1020,1730,0.234968,-1.091803,0.999998,0.000168,-0.001360,0.003985,0.000063,0.003986,-0.001361,89.325410,0.004052,
1340,1200,-0.359226,-2.934483,0.999996,0.000252,-0.002121,0.002978,-0.001784,0.003540,-0.002684,-72.505135,0.003694,
630,1660,1.123040,-1.932255,0.999998,0.000155,-0.002473,0.005018,0.000079,0.005019,-0.002473,89.397320,0.005019,
780,500,0.894914,-7.857200,0.999998,0.000174,-0.002564,0.005124,-0.000167,0.005128,-0.002567,-88.758933,0.005128,
610,120,0.525178,-9.506925,0.999996,0.000210,-0.002388,0.005358,0.000735,0.005428,-0.002457,84.627380,0.005436,
1730,550,-1.084809,-7.521692,0.999997,0.000201,-0.002676,0.005210,0.000071,0.005210,-0.002676,89.486796,0.005211,
1520,870,-1.043771,-6.029247,0.999997,0.000205,-0.003373,0.006509,-0.000439,0.006529,-0.003392,-87.459977,0.006530,
990,1130,1.074458,-4.303234,0.999997,0.000204,-0.003101,0.007075,-0.000206,0.007080,-0.003105,-88.838646,0.007097,
950,810,0.850206,-6.440412,0.999997,0.000194,-0.003734,0.006467,-0.000110,0.006468,-0.003735,-89.381841,0.006494,
1480,720,-0.560096,-7.092353,0.999998,0.000207,-0.003468,0.005703,0.000904,0.005791,-0.003556,84.424700,0.005841,
910,1980,0.070473,-0.188124,0.999998,0.000148,-0.000290,0.003488,-0.000624,0.003588,-0.000391,-80.854726,0.003937,
810,920,1.533102,-5.597816,0.999997,0.000204,-0.002391,0.005363,0.000614,0.005411,-0.002439,85.500594,0.005420,
1030,1090,1.087924,-4.454833,0.999995,0.000319,-0.003402,0.008639,0.001171,0.008752,-0.003514,84.497543,0.008808,
840,730,1.060382,-6.708808,0.999997,0.000221,-0.003186,0.005769,0.000151,0.005772,-0.003189,89.033101,0.005782,
1560,860,-1.147247,-6.021462,0.999997,0.000183,-0.003173,0.006180,-0.000583,0.006217,-0.003209,-86.445841,0.006218,
610,1610,1.249362,-2.217357,0.999998,0.000168,-0.002487,0.005037,0.000073,0.005038,-0.002488,89.447508,0.005038,
1480,790,-0.678120,-6.671994,0.999997,0.000219,-0.003833,0.006344,0.000639,0.006384,-0.003873,86.419316,0.006432,
1610,1780,-0.439441,-1.026637,0.999997,0.000196,-0.001744,0.004504,0.000255,0.004515,-0.001755,87.667310,0.004552,
900,1270,0.973075,-3.595366,0.999997,0.000197,-0.003467,0.006153,-0.000143,0.006155,-0.003469,-89.149286,0.006172,
1530,280,-0.317976,-9.102316,0.999998,0.000177,-0.001445,0.004219,-0.000157,0.004223,-0.001449,-88.416228,0.004292,
920,1410,0.676356,-2.733063,0.999998,0.000193,-0.003048,0.005459,0.000555,0.005495,-0.003084,86.282271,0.005509,
1130,530,0.137577,-8.302482,0.999998,0.000165,-0.001503,0.003622,-0.000513,0.003673,-0.001554,-84.335775,0.003687,
740,200,0.497954,-9.297794,0.999997,0.000183,-0.001742,0.004872,0.000757,0.004957,-0.001828,83.555796,0.005014,
1510,1340,-0.657833,-3.045598,0.999997,0.000230,-0.003466,0.005776,-0.000653,0.005822,-0.003512,-85.976963,0.005863,
630,290,0.946164,-8.679519,0.999998,0.000160,-0.002411,0.005019,0.000043,0.005019,-0.002411,89.671597,0.005020,
1180,1880,0.026634,-0.486198,0.999998,0.000141,-0.000477,0.003295,-0.000052,0.003296,-0.000477,-89.215649,0.003563,
590,460,1.320018,-7.754857,0.999997,0.000191,-0.002419,0.005016,-0.000029,0.005016,-0.002419,-89.775063,0.005017,
1080,520,0.219172,-8.271547,0.999998,0.000155,-0.001750,0.003978,-0.000702,0.004063,-0.001835,-83.116683,0.004069,
1820,690,-1.547626,-6.662542,0.999996,0.000228,-0.002574,0.005086,-0.000213,0.005092,-0.002580,-88.406316,0.005092,
1280,1860,-0.028080,-0.552882,0.999998,0.000152,-0.000555,0.003354,0.000053,0.003354,-0.000556,89.229360,0.003595,
1360,1850,-0.082113,-0.602499,0.999998,0.000140,-0.000673,0.003507,0.000125,0.003510,-0.000677,88.288909,0.003724,
1520,840,-0.955545,-6.227426,0.999997,0.000214,-0.003579,0.006498,-0.000226,0.006503,-0.003584,-88.716044,0.006514,
1690,470,-0.872973,-7.997608,0.999998,0.000141,-0.002502,0.005075,0.000151,0.005078,-0.002505,88.862362,0.005078,
880,820,1.121867,-6.233047,0.999998,0.000207,-0.003255,0.006066,0.000442,0.006087,-0.003276,87.293579,0.006093,
1160,710,0.083018,-7.767643,0.999998,0.000172,-0.001529,0.002738,-0.001311,0.003109,-0.001899,-74.219600,0.003134,
1240,1670,-0.009227,-1.207826,0.999998,0.000151,-0.001159,0.003530,-0.000073,0.003531,-0.001160,-89.114246,0.003600,
1810,1910,-0.516371,-0.613851,0.999997,0.000220,-0.001952,0.005168,0.001026,0.005313,-0.002097,81.961550,0.005352,
1300,190,-0.036645,-9.541597,0.999998,0.000194,-0.000509,0.003383,-0.000073,0.003385,-0.000511,-88.924877,0.003649,
1500,1410,-0.546204,-2.630497,0.999996,0.000228,-0.002954,0.005262,-0.000800,0.005339,-0.003031,-84.491717,0.005356,
640,70,0.232637,-9.841670,0.999998,0.000181,-0.001584,0.005090,0.001594,0.005451,-0.001946,77.232207,0.005525,
1340,840,-0.294547,-7.193846,0.999996,0.000260,-0.002442,0.003357,0.002058,0.004013,-0.003098,72.316661,0.004206,
780,1330,1.235707,-3.428520,0.999997,0.000194,-0.002945,0.005551,-0.000295,0.005561,-0.002956,-88.015108,0.005565,
820,1000,1.600726,-5.181259,0.999998,0.000177,-0.001969,0.005130,0.000206,0.005136,-0.001975,88.337042,0.005182,
1520,850,-0.985196,-6.160202,0.999997,0.000216,-0.003519,0.006515,-0.000312,0.006525,-0.003528,-88.223483,0.006532,
1480,940,-1.146044,-5.650492,0.999997,0.000200,-0.002840,0.007063,-0.000355,0.007076,-0.002853,-87.951418,0.007120,
1860,1430,-1.539289,-3.146363,0.999997,0.000221,-0.002513,0.005084,0.000059,0.005084,-0.002513,89.556364,0.005084,
610,1590,1.278666,-2.319792,0.999997,0.000179,-0.002508,0.005093,0.000071,0.005094,-0.002508,89.467318,0.005094,
1660,1450,-0.971575,-2.736030,0.999998,0.000162,-0.002831,0.005361,-0.000112,0.005362,-0.002833,-89.218554,0.005365,
1330,1300,-0.137391,-2.539498,0.999997,0.000208,-0.002147,0.003224,-0.001986,0.003879,-0.002802,-71.754381,0.004005,
1730,530,-1.057038,-7.625889,0.999998,0.000193,-0.002637,0.005182,0.000100,0.005183,-0.002639,89.265452,0.005183,
1610,1760,-0.470364,-1.120353,0.999998,0.000175,-0.001825,0.004538,0.000174,0.004543,-0.001829,88.433010,0.004571,
1340,1730,-0.109451,-1.025944,0.999999,0.000137,-0.001140,0.003677,-0.000125,0.003680,-0.001144,-88.513703,0.003767,
850,1980,0.099503,-0.197115,0.999998,0.000143,-0.000417,0.003714,-0.000848,0.003881,-0.000584,-78.842218,0.004185,
1560,840,-1.095535,-6.147411,0.999998,0.000184,-0.003296,0.006210,-0.000503,0.006236,-0.003323,-86.979371,0.006241,
1030,1510,0.320788,-1.999462,0.999998,0.000175,-0.002154,0.004339,0.000777,0.004431,-0.002246,83.271914,0.004431,
930,920,1.232704,-5.685897,0.999998,0.000208,-0.002737,0.006246,0.000714,0.006303,-0.002794,85.482658,0.006316,
920,1490,0.597459,-2.311333,0.999997,0.000216,-0.002682,0.005095,0.000516,0.005130,-0.002716,86.222514,0.005133,
1080,500,0.213477,-8.351360,0.999998,0.000164,-0.001711,0.003991,-0.000638,0.004061,-0.001781,-83.694497,0.004071,
870,110,0.148662,-9.758660,0.999998,0.000168,-0.000794,0.003824,0.000724,0.003935,-0.000905,81.296864,0.004121,
590,450,1.305023,-7.805593,0.999998,0.000178,-0.002387,0.005003,-0.000025,0.005003,-0.002387,-89.802713,0.005005,
1430,1670,-0.250524,-1.322718,0.999998,0.000188,-0.001543,0.004080,-0.000238,0.004090,-0.001553,-87.579350,0.004129,
690,1650,0.989726,-1.884653,0.999998,0.000168,-0.002471,0.005056,0.000086,0.005057,-0.002472,89.346911,0.005058,
1700,40,-0.060989,-9.999004,0.999999,0.000137,-0.000169,0.003711,-0.001211,0.004058,-0.000516,-74.014856,0.004418,
1640,1840,-0.387609,-0.781196,0.999997,0.000206,-0.001470,0.004456,0.000550,0.004507,-0.001521,84.742116,0.004586,
990,1110,1.143135,-4.446417,0.999997,0.000194,-0.002820,0.007192,-0.000257,0.007199,-0.002826,-88.532010,0.007254,
740,180,0.450967,-9.392390,0.999997,0.000186,-0.001600,0.004735,0.000860,0.004850,-0.001715,82.402559,0.004918,
1560,1270,-0.961924,-3.588948,0.999998,0.000168,-0.003462,0.006194,0.000115,0.006195,-0.003463,89.315606,0.006209,
1410,900,-0.765748,-6.287005,0.999996,0.000215,-0.003254,0.006655,0.001776,0.006964,-0.003563,80.142027,0.006965,
1740,390,-0.886574,-8.324776,0.999998,0.000204,-0.002439,0.005062,0.000055,0.005062,-0.002440,89.579638,0.005063,
890,1460,0.710525,-2.527035,0.999997,0.000196,-0.002850,0.005267,0.000445,0.005291,-0.002874,86.873617,0.005298,
630,270,0.906755,-8.779573,0.999998,0.000156,-0.002418,0.005051,0.000093,0.005052,-0.002419,89.285440,0.005054,
1770,850,-1.705333,-5.905737,0.999997,0.000189,-0.002468,0.004985,-0.000461,0.005013,-0.002497,-86.473423,0.005013,
1610,110,-0.158434,-9.753114,0.999998,0.000159,-0.000722,0.003851,-0.000782,0.003981,-0.000852,-80.554101,0.004192,
840,1270,1.171281,-3.692988,0.999996,0.000227,-0.003133,0.005859,-0.000378,0.005875,-0.003149,-87.597291,0.005880,
560,470,1.378634,-7.670323,0.999915,0.000000,-0.001274,0.004622,-0.000143,0.004625,-0.001277,-88.606876,0.004777,
1060,1790,0.147485,-0.831722,0.999998,0.000153,-0.001053,0.003692,-0.000031,0.003692,-0.001053,-89.631520,0.003804,
1640,1450,-0.914698,-2.704567,0.999998,0.000144,-0.002867,0.005362,-0.000163,0.005365,-0.002870,-88.867075,0.005369,
620,830,1.846205,-5.941834,0.999998,0.000159,-0.002337,0.004709,0.000274,0.004720,-0.002348,87.774865,0.004720,
1860,700,-1.666254,-6.554025,0.999997,0.000200,-0.002482,0.005020,-0.000118,0.005022,-0.002484,-89.095691,0.005022,
1010,1200,0.748352,-3.729683,0.999997,0.000208,-0.003931,0.006861,0.000611,0.006895,-0.003966,86.769788,0.006921,
1000,1710,0.276545,-1.188892,0.999998,0.000149,-0.001383,0.004073,0.000085,0.004074,-0.001384,89.111689,0.004144,
1280,1840,-0.032495,-0.621211,0.999998,0.000165,-0.000610,0.003404,0.000031,0.003404,-0.000610,89.560654,0.003630,
1130,510,0.135302,-8.374335,0.999998,0.000160,-0.001489,0.003636,-0.000445,0.003674,-0.001527,-85.071964,0.003691,
1520,860,-1.014206,-6.093673,0.999997,0.000216,-0.003443,0.006512,-0.000381,0.006527,-0.003458,-87.811519,0.006531,
1330,1280,-0.147954,-2.605335,0.999998,0.000172,-0.002294,0.003201,-0.002120,0.003924,-0.003017,-71.169247,0.004109,
1730,510,-1.029416,-7.729087,0.999998,0.000177,-0.002600,0.005162,0.000117,0.005164,-0.002601,89.135509,0.005164,
1240,1400,-0.009025,-2.085633,0.999999,0.000132,-0.001085,0.002595,-0.000138,0.002600,-0.001090,-87.857488,0.002611,
830,1980,0.106640,-0.198942,0.999998,0.000137,-0.000406,0.003748,-0.000941,0.003951,-0.000609,-77.814817,0.004255,
1560,1870,-0.232466,-0.602736,0.999998,0.000189,-0.001033,0.004014,0.000483,0.004060,-0.001079,84.587631,0.004206,
1510,260,-0.269338,-9.200881,0.999998,0.000169,-0.001401,0.004044,-0.000120,0.004047,-0.001404,-88.733270,0.004109,
1340,550,-0.147288,-8.220064,0.999998,0.000150,-0.001552,0.003643,0.000646,0.003723,-0.001631,83.016197,0.003732,
950,790,0.803810,-6.569724,0.999997,0.000190,-0.003745,0.006378,-0.000271,0.006385,-0.003753,-88.465678,0.006418,
1810,1890,-0.583600,-0.717694,0.999997,0.000216,-0.002077,0.005210,0.000875,0.005314,-0.002180,83.248714,0.005343,
1320,130,-0.030340,-9.737848,0.999999,0.000131,-0.000378,0.003246,-0.000100,0.003249,-0.000380,-88.423710,0.003552,
900,190,0.243201,-9.454936,0.999998,0.000173,-0.001052,0.004041,0.000461,0.004082,-0.001093,84.870160,0.004226,
1500,1390,-0.564818,-2.738086,0.999997,0.000217,-0.003097,0.005433,-0.000808,0.005508,-0.003173,-84.637599,0.005530,
1340,820,-0.237352,-7.264185,0.999997,0.000224,-0.002704,0.003491,0.002185,0.004184,-0.003397,72.399222,0.004447,
1450,920,-0.982301,-5.897414,0.999996,0.000216,-0.003257,0.007263,0.000278,0.007270,-0.003265,88.486803,0.007283,
1120,1670,0.129958,-1.250600,0.999998,0.000161,-0.001276,0.003708,0.000207,0.003717,-0.001285,87.628881,0.003775,
1080,480,0.207468,-8.429623,0.999997,0.000191,-0.001677,0.003961,-0.000573,0.004019,-0.001734,-84.251024,0.004031,
1030,1530,0.312416,-1.911713,0.999997,0.000188,-0.002112,0.004320,0.000728,0.004401,-0.002193,83.619845,0.004401,
610,1570,1.307470,-2.420689,0.999998,0.000181,-0.002515,0.005080,0.000058,0.005080,-0.002515,89.563589,0.005080,
590,570,1.484644,-7.193554,0.999997,0.000197,-0.002872,0.005029,-0.000132,0.005031,-0.002875,-89.044943,0.005048,
810,680,1.065780,-6.944444,0.999998,0.000193,-0.003011,0.005517,0.000052,0.005518,-0.003012,89.651878,0.005525,
1900,1030,-2.146484,-5.029394,0.999998,0.000000,-0.002029,0.004199,0.000026,0.004199,-0.002029,89.759548,0.004200,
790,880,1.511090,-5.804936,0.999997,0.000204,-0.002572,0.005330,0.000633,0.005380,-0.002623,85.449039,0.005381,
1760,1770,-0.761714,-1.255520,0.999998,0.000177,-0.002370,0.005041,0.000159,0.005044,-0.002373,88.775032,0.005047,
1430,1650,-0.261037,-1.403539,0.999997,0.000216,-0.001598,0.004047,-0.000312,0.004064,-0.001616,-86.846984,0.004093,
1120,770,0.177133,-7.426799,0.999997,0.000212,-0.002503,0.003629,-0.002163,0.004315,-0.003189,-72.396936,0.004476,
1030,1000,1.160114,-5.312012,0.999995,0.000251,-0.003790,0.009841,-0.000693,0.009876,-0.003825,-87.098155,0.009959,
690,1630,1.020017,-1.986307,0.999998,0.000154,-0.002486,0.005048,0.000089,0.005049,-0.002487,89.324814,0.005049,
1180,1860,0.029081,-0.553169,0.999998,0.000172,-0.000537,0.003358,-0.000080,0.003360,-0.000539,-88.818939,0.003609,
1700,1250,-1.439017,-3.887773,0.999997,0.000207,-0.002764,0.005394,0.000523,0.005427,-0.002797,86.347465,0.005428,
760,1030,1.729892,-5.026839,0.999998,0.000186,-0.002100,0.004978,-0.000034,0.004978,-0.002100,-89.727955,0.004999,
650,1860,0.678093,-0.878624,0.999998,0.000189,-0.002226,0.005143,-0.000574,0.005187,-0.002270,-85.569728,0.005201,
780,920,1.605921,-5.586589,0.999997,0.000195,-0.002348,0.005217,0.000526,0.005254,-0.002384,86.042050,0.005261,
1640,1820,-0.424089,-0.869734,0.999997,0.000199,-0.001557,0.004530,0.000489,0.004569,-0.001596,85.439038,0.004638,
1770,1870,-0.557831,-0.767312,0.999998,0.000181,-0.002200,0.004946,0.000659,0.005006,-0.002260,84.771976,0.005014,
630,250,0.862342,-8.881046,0.999998,0.000174,-0.002411,0.005063,0.000138,0.005066,-0.002414,88.940045,0.005068,
610,1000,2.040777,-5.160462,0.999998,0.000161,-0.002086,0.004391,0.000119,0.004393,-0.002088,88.947052,0.004395,
1240,1600,-0.010897,-1.455102,0.999998,0.000169,-0.001231,0.003485,-0.000094,0.003486,-0.001233,-88.864191,0.003536,
830,1960,0.146965,-0.275681,0.999998,0.000142,-0.000572,0.003833,-0.000889,0.004006,-0.000745,-79.005561,0.004261,
590,350,1.148973,-8.304459,0.999998,0.000139,-0.002390,0.004941,-0.000062,0.004941,-0.002391,-89.515052,0.004942,
1740,910,-1.723788,-5.616610,0.999998,0.000164,-0.002366,0.005008,-0.000447,0.005035,-0.002393,-86.543185,0.005037,
1860,160,-0.685671,-9.279318,0.999998,0.000181,-0.002448,0.005136,-0.000399,0.005157,-0.002469,-86.993669,0.005158,
1480,700,-0.537252,-7.205996,0.999998,0.000202,-0.003337,0.005565,0.000944,0.005664,-0.003436,84.010668,0.005707,
1650,1700,-0.628009,-1.446381,0.999996,0.000212,-0.002210,0.004838,0.000010,0.004838,-0.002210,89.920008,0.004844,
570,1520,1.496399,-2.745645,0.999295,0.003176,-0.003589,0.006615,0.000229,0.006620,-0.003594,88.716141,0.006629,
1730,490,-1.002349,-7.831807,0.999998,0.000170,-0.002566,0.005143,0.000137,0.005145,-0.002568,88.983850,0.005145,
790,1660,0.735260,-1.678222,0.999997,0.000193,-0.002360,0.004930,0.000072,0.004930,-0.002361,89.437224,0.004932,
1520,880,-1.074791,-5.962707,0.999997,0.000203,-0.003270,0.006506,-0.000509,0.006532,-0.003297,-87.029380,0.006532,
560,460,1.380972,-7.714465,0.999939,0.000000,-0.001414,0.004622,-0.000215,0.004630,-0.001421,-87.962511,0.004743,
740,160,0.396389,-9.486634,0.999997,0.000187,-0.001433,0.004705,0.000992,0.004862,-0.001590,81.043529,0.004958,
1690,450,-0.848024,-8.100818,0.999998,0.000165,-0.002477,0.005048,0.000131,0.005051,-0.002479,89.004992,0.005051,
870,330,0.481537,-8.819962,0.999997,0.000178,-0.001933,0.004666,0.000039,0.004666,-0.001934,89.662971,0.004688,
1560,1910,-0.174709,-0.446077,0.999998,0.000165,-0.000768,0.003863,0.000569,0.003932,-0.000837,83.095541,0.004142,
1810,1870,-0.646410,-0.824633,0.999997,0.000205,-0.002151,0.005129,0.000686,0.005193,-0.002215,84.659764,0.005212,
1340,530,-0.147001,-8.293122,0.999998,0.000141,-0.001499,0.003736,0.000564,0.003796,-0.001559,83.918725,0.003816,
1530,380,-0.415917,-8.667309,0.999997,0.000204,-0.001798,0.004418,0.000141,0.004421,-0.001801,88.699937,0.004447,
820,980,1.586821,-5.283889,0.999998,0.000186,-0.002056,0.005187,0.000351,0.005204,-0.002073,87.230522,0.005239,
1900,1240,-1.951997,-4.137254,0.999998,0.000000,-0.002222,0.004600,0.000104,0.004601,-0.002224,89.124360,0.004602,
990,1090,1.201495,-4.592932,0.999997,0.000198,-0.002558,0.007095,-0.000221,0.007100,-0.002563,-88.691430,0.007191,
700,100,0.280685,-9.736554,0.999997,0.000184,-0.001610,0.004493,0.001186,0.004716,-0.001833,79.377293,0.004755,
1030,1550,0.305705,-1.822183,0.999997,0.000182,-0.002023,0.004287,0.000656,0.004355,-0.002090,84.131214,0.004356,
1080,460,0.202737,-8.510710,0.999998,0.000185,-0.001641,0.003940,-0.000495,0.003984,-0.001684,-84.968346,0.004000,
920,190,0.223864,-9.465209,0.999997,0.000217,-0.000938,0.003963,0.000457,0.004005,-0.000980,84.713997,0.004175,
1710,40,-0.061424,-9.998722,0.999999,0.000141,-0.000108,0.003788,-0.001307,0.004186,-0.000505,-73.072913,0.004570,
1100,1670,0.155114,-1.263412,0.999998,0.000177,-0.001219,0.003739,0.000171,0.003745,-0.001225,88.024776,0.003819,
1740,1770,-0.715008,-1.224788,0.999998,0.000171,-0.002263,0.005002,0.000217,0.005009,-0.002270,88.292657,0.005016,
590,40,0.177136,-9.920769,0.999993,0.000350,-0.000288,0.006161,0.003012,0.007349,-0.001476,68.472907,0.007775,
1870,370,-1.175786,-8.209529,0.999998,0.000170,-0.002472,0.004927,0.000067,0.004927,-0.002472,89.480018,0.004927,
610,1790,0.944626,-1.316805,0.999998,0.000172,-0.002407,0.005024,-0.000071,0.005025,-0.002407,-89.451424,0.005026,
590,560,1.469944,-7.244594,0.999997,0.000206,-0.002872,0.005109,-0.000125,0.005111,-0.002874,-89.102956,0.005124,
1430,1630,-0.267142,-1.486707,0.999997,0.000214,-0.001645,0.004111,-0.000346,0.004132,-0.001666,-86.568399,0.004158,
1560,820,-1.043603,-6.272676,0.999997,0.000189,-0.003411,0.006232,-0.000375,0.006247,-0.003425,-87.773883,0.006256,
700,990,1.844718,-5.221460,0.999998,0.000154,-0.002168,0.004740,0.000134,0.004742,-0.002171,88.892945,0.004748,
1640,1800,-0.457688,-0.965128,0.999998,0.000191,-0.001661,0.004594,0.000406,0.004620,-0.001688,86.302084,0.004675,
630,230,0.816852,-8.981524,0.999998,0.000182,-0.002421,0.005085,0.000217,0.005091,-0.002427,88.344967,0.005093,
1790,760,-1.595773,-6.341433,0.999998,0.000179,-0.002575,0.005071,-0.000347,0.005087,-0.002591,-87.405803,0.005088,
740,140,0.345081,-9.581316,0.999998,0.000172,-0.001269,0.004576,0.001101,0.004777,-0.001469,79.678418,0.004894,
700,290,0.779159,-8.794455,0.999999,0.000156,-0.002378,0.005056,0.000133,0.005058,-0.002381,88.977594,0.005061,
1520,1410,-0.604863,-2.678932,0.999997,0.000190,-0.003032,0.005352,-0.000657,0.005404,-0.003083,-85.545226,0.005422,
1230,1390,0.000431,-2.110849,0.999998,0.000143,-0.001075,0.002477,0.000042,0.002478,-0.001075,89.330555,0.002485,
590,120,0.572251,-9.457490,0.999997,0.000209,-0.002646,0.005327,0.000671,0.005383,-0.002702,85.223154,0.005383,
590,210,0.863820,-8.995832,0.999998,0.000179,-0.002464,0.004970,0.000171,0.004974,-0.002468,88.679734,0.004974,
1480,660,-0.497900,-7.424214,0.999996,0.000220,-0.003042,0.005236,0.000942,0.005341,-0.003148,83.590199,0.005370,
1120,750,0.164913,-7.497706,0.999997,0.000215,-0.002358,0.003585,-0.002006,0.004199,-0.002972,-72.985729,0.004318,
1520,1320,-0.722809,-3.190583,0.999997,0.000197,-0.003524,0.005955,-0.000481,0.005979,-0.003548,-87.104973,0.006014,
1490,720,-0.597105,-7.062465,0.999997,0.000224,-0.003460,0.005745,0.000814,0.005817,-0.003532,84.985083,0.005861,
670,1400,1.417778,-3.201570,0.999997,0.000193,-0.002625,0.005174,-0.000136,0.005177,-0.002627,-89.000417,0.005177,
1560,1890,-0.203974,-0.524564,0.999997,0.000204,-0.000908,0.003930,0.000537,0.003989,-0.000967,83.744651,0.004162,
1210,1520,0.027216,-1.733533,0.999999,0.000157,-0.001268,0.003321,0.000198,0.003329,-0.001276,87.537251,0.003360,
1880,1150,-2.029646,-4.517417,0.999998,0.000174,-0.002119,0.004391,0.000111,0.004393,-0.002121,89.019569,0.004394,
1900,1250,-1.936877,-4.091756,0.999998,0.000000,-0.002244,0.004532,0.000069,0.004532,-0.002245,89.412538,0.004532,
1690,430,-0.822183,-8.202356,0.999998,0.000163,-0.002427,0.005019,0.000100,0.005021,-0.002428,89.233488,0.005021,
870,1460,0.767053,-2.564812,0.999998,0.000165,-0.002848,0.005289,0.000342,0.005303,-0.002863,87.599180,0.005309,
870,90,0.115023,-9.832202,0.999999,0.000142,-0.000638,0.003608,0.000735,0.003732,-0.000762,80.451844,0.003944,
880,800,1.073571,-6.355537,0.999998,0.000192,-0.003315,0.006082,0.000334,0.006093,-0.003327,87.966257,0.006102,
1810,1850,-0.698289,-0.925162,0.999997,0.000206,-0.002231,0.005113,0.000542,0.005153,-0.002271,85.804993,0.005165,
820,960,1.565026,-5.390229,0.999997,0.000219,-0.002157,0.005282,0.000493,0.005315,-0.002189,86.226381,0.005342,
1080,440,0.197892,-8.591112,0.999998,0.000188,-0.001581,0.003919,-0.000423,0.003951,-0.001613,-85.629176,0.003974,
990,1290,0.602899,-3.228203,0.999997,0.000229,-0.003736,0.006075,0.000827,0.006144,-0.003805,85.216983,0.006202,
560,450,1.376614,-7.758245,0.999912,0.000000,-0.001472,0.004876,0.000175,0.004881,-0.001476,88.426500,0.005006,
700,120,0.350163,-9.635957,0.999997,0.000201,-0.001807,0.004775,0.001143,0.004968,-0.002000,80.424588,0.004999,
1300,710,-0.078244,-7.775476,0.999998,0.000163,-0.001448,0.002685,0.001278,0.003049,-0.001811,74.134413,0.003067,
1400,1490,-0.255168,-2.019285,0.999998,0.000181,-0.001993,0.004117,-0.000874,0.004239,-0.002115,-82.014123,0.004239,
1610,90,-0.127310,-9.827493,0.999998,0.000160,-0.000551,0.003707,-0.000786,0.003848,-0.000692,-79.871199,0.004102,
860,1270,1.107518,-3.663782,0.999998,0.000154,-0.003268,0.005947,-0.000321,0.005959,-0.003279,-88.010150,0.005969,
1420,870,-0.677738,-6.423614,0.999996,0.000217,-0.003594,0.006739,0.001281,0.006895,-0.003750,83.037729,0.006904,
820,330,0.577758,-8.762723,0.999998,0.000196,-0.002054,0.004790,0.000070,0.004790,-0.002055,89.412531,0.004806,
1130,1980,0.018372,-0.169046,0.999998,0.000151,-0.000222,0.003123,-0.000133,0.003129,-0.000228,-87.722094,0.003489,
1280,1850,-0.030806,-0.586984,0.999998,0.000152,-0.000581,0.003388,0.000051,0.003388,-0.000582,89.259429,0.003624,
1830,400,-1.124446,-8.127702,0.999998,0.000153,-0.002474,0.005033,0.000045,0.005033,-0.002474,89.655116,0.005033,
1030,1570,0.296278,-1.738954,0.999998,0.000165,-0.001890,0.004235,0.000564,0.004286,-0.001942,84.778741,0.004292,
1730,910,-1.700982,-5.620053,0.999998,0.000174,-0.002381,0.005071,-0.000475,0.005101,-0.002411,-86.365112,0.005104,
1340,800,-0.198186,-7.334336,0.999997,0.000217,-0.002636,0.003594,0.002259,0.004327,-0.003369,72.022391,0.004546,
610,1550,1.336345,-2.522077,0.999997,0.000188,-0.002529,0.005072,0.000033,0.005072,-0.002529,89.751686,0.005072,
1660,1650,-0.717816,-1.707432,0.999998,0.000189,-0.002343,0.004947,-0.000092,0.004948,-0.002344,-89.277648,0.004951,
1640,1780,-0.491940,-1.053903,0.999997,0.000210,-0.001747,0.004619,0.000329,0.004636,-0.001764,87.048895,0.004680,
1430,1610,-0.276179,-1.567599,0.999998,0.000185,-0.001696,0.004143,-0.000386,0.004168,-0.001721,-86.237241,0.004189,
1770,760,-1.544031,-6.363385,0.999998,0.000198,-0.002622,0.005177,-0.000396,0.005197,-0.002642,-87.102962,0.005198,
740,120,0.285710,-9.672542,0.999998,0.000165,-0.001077,0.004500,0.001250,0.004768,-0.001344,77.926610,0.004916,
710,1940,0.315736,-0.408074,0.999998,0.000196,-0.001719,0.004658,-0.001145,0.004857,-0.001918,-80.124070,0.004893,
1870,1540,-1.395350,-2.600134,0.999997,0.000202,-0.002526,0.005121,-0.000031,0.005121,-0.002527,-89.771018,0.005122,
1240,460,-0.011043,-8.607381,0.999998,0.000171,-0.001254,0.003502,0.000086,0.003504,-0.001255,88.969193,0.003550,
1410,60,-0.021928,-9.953586,0.999999,0.000110,-0.000237,0.003140,-0.000249,0.003159,-0.000255,-85.808646,0.003509,
780,940,1.627267,-5.482211,0.999997,0.000192,-0.002250,0.005108,0.000457,0.005137,-0.002279,86.457226,0.005148,
1520,1300,-0.758272,-3.311684,0.999997,0.000186,-0.003601,0.006143,-0.000393,0.006159,-0.003617,-87.691952,0.006191,
1820,1170,-1.876121,-4.382234,0.999998,0.000180,-0.002272,0.004712,0.000307,0.004725,-0.002286,87.485225,0.004726,
1770,1830,-0.658230,-0.969590,0.999997,0.000202,-0.002324,0.005025,0.000425,0.005050,-0.002349,86.700977,0.005054,
1810,1830,-0.752901,-1.028587,0.999998,0.000200,-0.002266,0.005112,0.000421,0.005136,-0.002290,86.743668,0.005146,
630,210,0.765078,-9.086365,0.999998,0.000194,-0.002416,0.005124,0.000262,0.005133,-0.002425,88.012729,0.005136,
1740,670,-1.300781,-6.873794,0.999998,0.000167,-0.002769,0.005283,-0.000179,0.005287,-0.002773,-88.726122,0.005290,
1760,910,-1.770235,-5.607610,0.999998,0.000175,-0.002303,0.004899,-0.000390,0.004921,-0.002324,-86.907821,0.004923,
1890,1620,-1.325593,-2.226252,0.999997,0.000218,-0.002471,0.004959,-0.000019,0.004959,-0.002471,-89.851426,0.004959,
560,440,1.349669,-7.809964,0.999895,0.000000,-0.001529,0.005125,0.000370,0.005145,-0.001549,86.823146,0.005279,
1520,1910,-0.145497,-0.435059,0.999998,0.000161,-0.000760,0.003719,0.000462,0.003766,-0.000807,84.177590,0.003966,
1300,770,-0.086159,-7.624786,0.999998,0.000187,-0.001684,0.002289,0.001707,0.002921,-0.002317,69.665388,0.003084,
1860,140,-0.619211,-9.379984,0.999997,0.000212,-0.002430,0.005241,-0.000569,0.005282,-0.002472,-85.783172,0.005286,
820,310,0.549992,-8.857780,0.999998,0.000184,-0.001963,0.004701,0.000160,0.004705,-0.001966,88.623018,0.004726,
1340,780,-0.173072,-7.408474,0.999997,0.000206,-0.002556,0.003562,0.002213,0.004278,-0.003272,72.057405,0.004474,
880,780,1.028992,-6.478536,0.999998,0.000145,-0.003336,0.006033,0.000219,0.006038,-0.003341,88.663279,0.006049,
1450,900,-0.902644,-6.042998,0.999997,0.000185,-0.003506,0.007141,0.000320,0.007151,-0.003516,88.281953,0.007151,
1080,420,0.190140,-8.668510,0.999998,0.000183,-0.001492,0.003891,-0.000334,0.003912,-0.001513,-86.467630,0.003945,
820,940,1.539330,-5.495622,0.999997,0.000236,-0.002288,0.005295,0.000526,0.005331,-0.002324,86.053526,0.005346,
1590,660,-0.841885,-7.166232,0.999997,0.000187,-0.003105,0.005573,0.000260,0.005581,-0.003112,88.284004,0.005593,
1040,60,0.023575,-9.954226,0.999999,0.000147,-0.000199,0.003171,0.000300,0.003197,-0.000226,84.957807,0.003568,
1710,50,-0.089554,-9.960002,0.999999,0.000147,-0.000262,0.003813,-0.001256,0.004169,-0.000617,-74.176654,0.004500,
1280,710,-0.052665,-7.818325,0.999999,0.000140,-0.001259,0.002369,0.000982,0.002618,-0.001508,75.783271,0.002628,
1730,930,-1.723763,-5.520397,0.999998,0.000186,-0.002305,0.004944,-0.000421,0.004968,-0.002329,-86.684999,0.004972,
1490,700,-0.572259,-7.177559,0.999999,0.000187,-0.003344,0.005622,0.000863,0.005705,-0.003426,84.548753,0.005743,
700,140,0.412378,-9.544151,0.999997,0.000196,-0.001965,0.004823,0.000970,0.004959,-0.002101,82.021055,0.004978,
1040,1850,0.129686,-0.623228,0.999998,0.000182,-0.000882,0.003613,-0.000156,0.003618,-0.000887,-88.012102,0.003772,
590,110,0.532697,-9.512568,0.999997,0.000185,-0.002681,0.005400,0.000834,0.005485,-0.002766,84.171053,0.005486,
890,1980,0.079273,-0.191150,0.999998,0.000155,-0.000473,0.003541,-0.000662,0.003648,-0.000579,-80.872577,0.003921,
1400,1470,-0.259884,-2.101599,0.999998,0.000184,-0.002088,0.004174,-0.000992,0.004327,-0.002241,-81.212568,0.004328,
1000,600,0.412905,-7.765877,0.999997,0.000220,-0.002569,0.004791,-0.000901,0.004900,-0.002678,-83.117483,0.004907,
1430,1590,-0.284813,-1.651376,0.999998,0.000170,-0.001777,0.004168,-0.000463,0.004204,-0.001813,-85.569721,0.004217,
1560,800,-0.997367,-6.395707,0.999997,0.000195,-0.003466,0.006211,-0.000220,0.006216,-0.003471,-88.696082,0.006231,
610,1510,1.396016,-2.726062,0.999997,0.000193,-0.002535,0.005096,0.000014,0.005096,-0.002535,89.896043,0.005096,
920,950,1.331274,-5.491549,0.999996,0.000239,-0.002278,0.005995,0.000667,0.006049,-0.002331,85.421539,0.006101,
730,1080,1.774673,-4.783071,0.999998,0.000158,-0.002199,0.004894,-0.000211,0.004900,-0.002205,-88.296902,0.004908,
1190,1520,0.052857,-1.742942,0.999999,0.000133,-0.001278,0.003348,0.000232,0.003360,-0.001290,87.138880,0.003390,
1520,1280,-0.796444,-3.437270,0.999997,0.000186,-0.003683,0.006264,-0.000293,0.006273,-0.003691,-88.313131,0.006305,
1090,840,0.399417,-6.932648,0.999997,0.000212,-0.003356,0.004945,-0.002176,0.005481,-0.003892,-76.164613,0.005640,
1240,420,-0.011250,-8.748864,0.999998,0.000176,-0.001197,0.003510,0.000049,0.003511,-0.001198,89.407994,0.003569,
560,650,1.708472,-6.736677,0.999829,0.000000,-0.004530,0.006681,0.000280,0.006688,-0.004537,88.568708,0.006828,
570,1460,1.594665,-3.049259,0.999728,0.001793,-0.004301,0.004654,-0.000375,0.004669,-0.004316,-87.607073,0.005200,
1300,1590,-0.084375,-1.511308,0.999998,0.000180,-0.001329,0.003605,-0.000287,0.003621,-0.001346,-86.684265,0.003661,
630,190,0.714007,-9.187035,0.999997,0.000189,-0.002395,0.005124,0.000369,0.005142,-0.002413,87.194025,0.005145,
1610,70,-0.088313,-9.901969,0.999998,0.000150,-0.000410,0.003686,-0.000840,0.003852,-0.000576,-78.847380,0.004156,
1670,1040,-1.659789,-4.977729,0.999998,0.000166,-0.002033,0.005058,0.000139,0.005061,-0.002036,88.879857,0.005093,
1720,1830,-0.551364,-0.903292,0.999998,0.000145,-0.001887,0.004834,0.000633,0.004894,-0.001947,84.662764,0.004927,
1810,1810,-0.796167,-1.131755,0.999998,0.000192,-0.002332,0.005091,0.000309,0.005103,-0.002345,87.619578,0.005109,
780,960,1.652150,-5.382090,0.999998,0.000180,-0.002195,0.005133,0.000435,0.005159,-0.002221,86.617372,0.005175,
800,1810,0.482785,-0.938841,0.999997,0.000189,-0.001928,0.004675,-0.000401,0.004699,-0.001952,-86.537029,0.004721,
1030,1990,0.030355,-0.143041,0.999998,0.000143,-0.000209,0.003204,-0.000311,0.003232,-0.000237,-84.843530,0.003603,
740,100,0.226599,-9.760689,0.999998,0.000154,-0.000886,0.004221,0.001220,0.004497,-0.001163,77.231056,0.004669,
1730,950,-1.744672,-5.423460,0.999998,0.000167,-0.002243,0.004973,-0.000427,0.004998,-0.002268,-86.627622,0.005005,
1070,1280,0.327890,-2.938500,0.999997,0.000205,-0.003363,0.005072,0.001887,0.005475,-0.003765,77.947608,0.005602,
1020,1850,0.147530,-0.630976,0.999998,0.000182,-0.000854,0.003681,-0.000237,0.003693,-0.000866,-87.020507,0.003862,
1080,400,0.183865,-8.747729,0.999998,0.000177,-0.001401,0.003871,-0.000259,0.003884,-0.001414,-87.189896,0.003932,
1320,450,-0.112170,-8.607481,0.999998,0.000151,-0.001389,0.003661,0.000339,0.003684,-0.001411,86.179064,0.003717,
700,160,0.474486,-9.442037,0.999997,0.000200,-0.002099,0.004942,0.000828,0.005038,-0.002195,83.378503,0.005052,
1470,700,-0.502566,-7.237105,0.999997,0.000213,-0.003305,0.005500,0.001031,0.005619,-0.003425,83.411345,0.005663,
1670,800,-1.344937,-6.246923,0.999998,0.000183,-0.002892,0.005611,-0.000529,0.005644,-0.002925,-86.450827,0.005645,
1500,190,-0.180314,-9.483477,0.999998,0.000156,-0.001054,0.003828,-0.000309,0.003847,-0.001074,-86.387241,0.003971,
570,1730,1.154761,-1.690363,0.999983,0.000492,-0.002318,0.004751,0.000011,0.004751,-0.002318,89.913123,0.004752,
1640,1760,-0.523276,-1.149434,0.999998,0.000191,-0.001847,0.004683,0.000246,0.004692,-0.001856,87.846108,0.004726,
880,760,0.988553,-6.598446,0.999998,0.000156,-0.003352,0.006028,0.000105,0.006029,-0.003353,89.357914,0.006042,
980,440,0.372632,-8.460907,0.999997,0.000224,-0.001942,0.004416,-0.000382,0.004439,-0.001965,-86.572310,0.004449,
1390,60,-0.018595,-9.955422,0.999999,0.000145,-0.000129,0.003107,-0.000212,0.003120,-0.000143,-86.261828,0.003523,
1770,1290,-1.553558,-3.744493,0.999997,0.000197,-0.002625,0.005168,0.000395,0.005188,-0.002645,87.108300,0.005188,
1430,1570,-0.290501,-1.733066,0.999998,0.000184,-0.001884,0.004212,-0.000558,0.004263,-0.001934,-84.812332,0.004269,
820,920,1.507282,-5.602088,0.999997,0.000216,-0.002410,0.005419,0.000634,0.005470,-0.002461,85.401294,0.005479,
1440,1650,-0.276759,-1.414860,0.999998,0.000225,-0.001587,0.004101,-0.000282,0.004115,-0.001601,-87.168291,0.004148,
1890,1410,-1.648318,-3.293449,0.999997,0.000197,-0.002532,0.005034,0.000048,0.005034,-0.002532,89.637744,0.005034,
1820,930,-1.926347,-5.488263,0.999998,0.000201,-0.002238,0.004678,-0.000307,0.004691,-0.002251,-87.461607,0.004693,
1850,1700,-1.101229,-1.759215,0.999997,0.000200,-0.002421,0.004975,-0.000054,0.004975,-0.002421,-89.580246,0.004976,
1660,930,-1.563736,-5.542185,0.999998,0.000193,-0.002337,0.005289,-0.000535,0.005326,-0.002375,-86.004598,0.005337,
710,1080,1.817728,-4.787842,0.999998,0.000167,-0.002182,0.004805,-0.000176,0.004810,-0.002187,-88.560400,0.004816,
1360,770,-0.220320,-7.337566,0.999998,0.000166,-0.002805,0.004112,0.002171,0.004737,-0.003430,73.939570,0.004893,
610,1490,1.427100,-2.829122,0.999997,0.000210,-0.002542,0.005114,-0.000001,0.005114,-0.002542,-89.996226,0.005114,
1520,650,-0.610514,-7.374235,0.999998,0.000206,-0.003054,0.005412,0.000672,0.005465,-0.003107,85.489439,0.005482,
940,630,0.600946,-7.474546,0.999998,0.000182,-0.002953,0.005275,-0.000649,0.005326,-0.003004,-85.516457,0.005341,
1260,1370,-0.030331,-2.173714,0.999998,0.000153,-0.001117,0.002401,-0.000516,0.002475,-0.001191,-81.820376,0.002476,
650,1420,1.437212,-3.126239,0.999998,0.000168,-0.002565,0.005134,-0.000115,0.005135,-0.002567,-89.145741,0.005135,
560,660,1.734432,-6.701071,0.999834,0.000000,-0.004000,0.005239,0.000197,0.005243,-0.004004,88.780579,0.005481,
870,1980,0.090226,-0.194894,0.999998,0.000152,-0.000504,0.003638,-0.000741,0.003767,-0.000633,-80.152278,0.004034,
1740,310,-0.760377,-8.730766,0.999998,0.000181,-0.002334,0.005006,-0.000135,0.005008,-0.002336,-88.946390,0.005012,
1440,810,-0.568399,-6.705525,0.999996,0.000237,-0.003903,0.006213,0.001135,0.006339,-0.004029,83.677955,0.006416,
1340,760,-0.162259,-7.475823,0.999998,0.000192,-0.002386,0.003507,0.002090,0.004173,-0.003052,72.327838,0.004320,
1230,1830,0.000490,-0.649923,0.999998,0.000145,-0.000721,0.003378,0.000003,0.003378,-0.000721,89.956139,0.003558,
1860,120,-0.542831,-9.490214,0.999997,0.000215,-0.002379,0.005414,-0.000762,0.005487,-0.002453,-84.469678,0.005498,
1320,1310,-0.115212,-2.468371,0.999998,0.000205,-0.001888,0.002993,-0.001818,0.003595,-0.002491,-71.659521,0.003683,
780,980,1.670686,-5.278947,0.999998,0.000186,-0.002133,0.005059,0.000243,0.005068,-0.002141,88.066207,0.005088,
800,1790,0.517997,-1.032457,0.999997,0.000188,-0.002010,0.004679,-0.000293,0.004692,-0.002023,-87.497021,0.004706,
1710,1840,-0.512766,-0.845990,0.999997,0.000194,-0.001793,0.004798,0.000683,0.004868,-0.001863,84.148051,0.004912,
1030,1970,0.046725,-0.208284,0.999999,0.000150,-0.000294,0.003271,-0.000298,0.003295,-0.000319,-85.259432,0.003635,
1520,1260,-0.840839,-3.560624,0.999997,0.000186,-0.003706,0.006366,-0.000122,0.006368,-0.003707,-89.304059,0.006396,
630,170,0.650970,-9.292354,0.999997,0.000194,-0.002392,0.005224,0.000482,0.005254,-0.002422,86.393076,0.005259,
1080,1850,0.095921,-0.607288,0.999998,0.000162,-0.000667,0.003549,-0.000155,0.003555,-0.000673,-87.896482,0.003777,
740,80,0.173176,-9.841179,0.999998,0.000163,-0.000711,0.004005,0.001237,0.004309,-0.001016,76.162679,0.004505,
1810,1790,-0.842366,-1.232720,0.999998,0.000200,-0.002366,0.005056,0.000247,0.005064,-0.002374,88.095188,0.005067,
1080,820,0.370270,-6.963242,0.999997,0.000216,-0.003480,0.005258,-0.002037,0.005709,-0.003932,-77.501116,0.005843,
1220,190,0.006969,-9.545655,0.999998,0.000169,-0.000588,0.003299,0.000014,0.003299,-0.000588,89.800784,0.003519,
1530,1260,-0.878464,-3.588270,0.999998,0.000158,-0.003641,0.006326,-0.000027,0.006326,-0.003641,-89.846631,0.006350,
1650,800,-1.286983,-6.267431,0.999998,0.000217,-0.002985,0.005709,-0.000500,0.005738,-0.003013,-86.721394,0.005740,
1770,1270,-1.589812,-3.845946,0.999998,0.000194,-0.002608,0.005103,0.000427,0.005127,-0.002632,86.838341,0.005127,
990,260,0.220831,-9.226637,0.999998,0.000167,-0.001101,0.003936,0.000165,0.003941,-0.001106,88.122239,0.004066,
680,1730,0.890158,-1.495734,0.999998,0.000167,-0.002405,0.005064,-0.000028,0.005064,-0.002405,-89.785203,0.005066,
570,1280,1.876650,-3.944090,0.999989,0.000418,-0.002532,0.004792,-0.000108,0.004794,-0.002534,-89.155681,0.004796,
1600,1980,-0.095467,-0.195523,0.999998,0.000155,-0.000483,0.003606,0.000805,0.003759,-0.000636,79.247772,0.004024,
950,1740,0.327161,-1.110875,0.999998,0.000160,-0.001598,0.004266,0.000014,0.004266,-0.001598,89.858463,0.004311,
1640,1740,-0.552044,-1.242142,0.999998,0.000198,-0.001926,0.004691,0.000145,0.004694,-0.001929,88.746303,0.004719,
880,740,0.949002,-6.719485,0.999998,0.000167,-0.003349,0.005895,-0.000005,0.005895,-0.003349,-89.967505,0.005913,
820,900,1.470974,-5.712728,0.999998,0.000201,-0.002531,0.005473,0.000664,0.005528,-0.002585,85.290766,0.005532,
1890,1400,-1.664850,-3.344042,0.999997,0.000201,-0.002505,0.005067,0.000038,0.005067,-0.002505,89.712055,0.005067,
1300,450,-0.083859,-8.623365,0.999998,0.000147,-0.001296,0.003596,0.000230,0.003607,-0.001307,87.309773,0.003652,
1640,930,-1.518023,-5.550105,0.999997,0.000196,-0.002324,0.005404,-0.000602,0.005451,-0.002371,-85.573555,0.005466,
560,670,1.762974,-6.643189,0.999836,0.000000,-0.003887,0.005042,0.000117,0.005044,-0.003889,89.246242,0.005285,
1040,1730,0.207599,-1.076947,0.999998,0.000170,-0.001413,0.003920,0.000109,0.003923,-0.001415,88.832094,0.003973,
700,600,1.247889,-7.208501,0.999998,0.000180,-0.002688,0.005204,0.000026,0.005204,-0.002689,89.811073,0.005205,
1020,430,0.291654,-8.559679,0.999998,0.000219,-0.001686,0.004165,-0.000359,0.004187,-0.001708,-86.498177,0.004210,
1730,970,-1.765757,-5.321938,0.999998,0.000165,-0.002193,0.004911,-0.000287,0.004922,-0.002204,-87.690856,0.004931,
1520,630,-0.592366,-7.482395,0.999997,0.000234,-0.002928,0.005280,0.000651,0.005331,-0.002979,85.496599,0.005344,
980,400,0.345426,-8.637646,0.999998,0.000193,-0.001848,0.004339,-0.000301,0.004353,-0.001862,-87.219581,0.004368,
1430,60,-0.026494,-9.952845,0.999998,0.000141,-0.000190,0.003155,-0.000295,0.003180,-0.000216,-84.997596,0.003554,
1210,1980,0.004540,-0.167951,0.999999,0.000148,-0.000172,0.003047,-0.000020,0.003047,-0.000173,-89.642599,0.003423,
1430,900,-0.833387,-6.152046,0.999997,0.000181,-0.003416,0.007182,0.000982,0.007272,-0.003506,84.751792,0.007274,
950,1220,0.916690,-3.802898,0.999998,0.000175,-0.003665,0.006538,-0.000107,0.006539,-0.003666,-89.396599,0.006555,
610,1470,1.456751,-2.931552,0.999997,0.000193,-0.002547,0.005101,-0.000020,0.005101,-0.002547,-89.853451,0.005101,
1230,1810,0.000348,-0.718613,0.999998,0.000157,-0.000768,0.003418,-0.000002,0.003418,-0.000768,-89.976627,0.003587,
1840,130,-0.531367,-9.484746,0.999997,0.000196,-0.002415,0.005343,-0.000668,0.005401,-0.002472,-85.112869,0.005407,
650,1400,1.469025,-3.229955,0.999997,0.000205,-0.002568,0.005106,-0.000144,0.005109,-0.002571,-88.923537,0.005109,
1430,1550,-0.298491,-1.818573,0.999998,0.000188,-0.001987,0.004255,-0.000652,0.004322,-0.002054,-84.096391,0.004324,
1790,620,-1.351371,-7.064671,0.999998,0.000159,-0.002631,0.005147,-0.000082,0.005147,-0.002632,-89.394611,0.005148,
1000,190,0.147425,-9.498071,0.999999,0.000141,-0.000729,0.003688,0.000284,0.003706,-0.000748,86.338777,0.003920,
1060,1850,0.110294,-0.614000,0.999998,0.000192,-0.000807,0.003583,-0.000121,0.003586,-0.000811,-88.422392,0.003762,
1030,1950,0.058484,-0.274400,0.999998,0.000159,-0.000403,0.003372,-0.000305,0.003396,-0.000428,-85.417546,0.003700,
660,1730,0.936914,-1.527782,0.999998,0.000172,-0.002439,0.005066,-0.000009,0.005066,-0.002439,-89.932498,0.005067,
1520,1240,-0.890082,-3.691643,0.999998,0.000159,-0.003668,0.006459,0.000014,0.006459,-0.003668,89.918667,0.006479,
590,200,0.837319,-9.044695,0.999998,0.000175,-0.002478,0.004965,0.000229,0.004972,-0.002485,88.238110,0.004972,
630,150,0.585829,-9.397773,0.999997,0.000202,-0.002390,0.005218,0.000593,0.005264,-0.002436,85.568336,0.005269,
1340,740,-0.151480,-7.546770,0.999997,0.000211,-0.002250,0.003464,0.001918,0.004048,-0.002834,73.066712,0.004155,
740,500,0.997867,-7.792497,0.999999,0.000141,-0.002581,0.005150,-0.000135,0.005152,-0.002584,-89.001960,0.005152,
1190,320,0.040284,-9.093846,0.999999,0.000149,-0.000942,0.003581,-0.000044,0.003582,-0.000943,-89.440446,0.003713,
1480,640,-0.482135,-7.528662,0.999996,0.000220,-0.002908,0.005070,0.000926,0.005176,-0.003014,83.467073,0.005200,
780,1420,1.080108,-2.937112,0.999998,0.000163,-0.002865,0.005367,-0.000004,0.005367,-0.002865,-89.972591,0.005371,
1790,600,-1.319286,-7.168633,0.999998,0.000169,-0.002627,0.005152,-0.000042,0.005152,-0.002627,-89.688857,0.005152,
1280,1820,-0.036542,-0.689528,0.999998,0.000169,-0.000693,0.003435,0.000036,0.003436,-0.000694,89.503554,0.003633,
1820,990,-1.967205,-5.211645,0.999998,0.000179,-0.002145,0.004534,-0.000118,0.004536,-0.002147,-88.990468,0.004538,
1620,1450,-0.857699,-2.668850,0.999998,0.000134,-0.002887,0.005351,-0.000245,0.005358,-0.002894,-88.297023,0.005364,
1330,1560,-0.130642,-1.646835,0.999998,0.000149,-0.001461,0.003644,-0.000429,0.003680,-0.001496,-85.226262,0.003702,
1890,1590,-1.369394,-2.376007,0.999997,0.000221,-0.002471,0.005046,-0.000052,0.005046,-0.002472,-89.606114,0.005047,
1530,460,-0.481154,-8.303017,0.999998,0.000201,-0.002241,0.004706,0.000391,0.004728,-0.002263,86.786880,0.004729,
1030,1340,0.398286,-2.798986,0.999998,0.000196,-0.003191,0.005246,0.001387,0.005468,-0.003413,80.901536,0.005524,
990,1300,0.585726,-3.168178,0.999997,0.000256,-0.003668,0.005940,0.000889,0.006022,-0.003750,84.756823,0.006082,
1540,1650,-0.455452,-1.537804,0.999997,0.000205,-0.001976,0.004558,-0.000234,0.004566,-0.001985,-87.952782,0.004579,
1690,410,-0.794410,-8.303178,0.999998,0.000177,-0.002375,0.005012,0.000084,0.005013,-0.002376,89.349568,0.005015,
1770,1250,-1.625191,-3.948353,0.999997,0.000200,-0.002600,0.005102,0.000463,0.005130,-0.002628,86.572459,0.005130,
1490,1540,-0.429935,-1.966861,0.999998,0.000179,-0.002258,0.004624,-0.000595,0.004675,-0.002309,-85.092957,0.004675,
1900,1260,-1.922569,-4.046344,0.999998,0.000000,-0.002271,0.004520,0.000044,0.004520,-0.002271,89.632135,0.004520,
1390,170,-0.079647,-9.593369,0.999998,0.000168,-0.000566,0.003454,-0.000192,0.003464,-0.000575,-87.277376,0.003712,
670,1380,1.451248,-3.305022,0.999997,0.000211,-0.002620,0.005156,-0.000188,0.005160,-0.002625,-88.618632,0.005161,
1650,780,-1.245351,-6.381584,0.999998,0.000215,-0.003018,0.005705,-0.000432,0.005727,-0.003040,-87.174502,0.005730,
880,720,0.912793,-6.835918,0.999998,0.000158,-0.003327,0.005847,-0.000068,0.005847,-0.003327,-89.575640,0.005866,
1130,490,0.133330,-8.448794,0.999998,0.000148,-0.001451,0.003709,-0.000428,0.003744,-0.001487,-85.293770,0.003770,
1230,1790,0.000687,-0.785882,0.999998,0.000150,-0.000854,0.003457,-0.000004,0.003457,-0.000854,-89.940928,0.003602,
950,680,0.623586,-7.224945,0.999996,0.000231,-0.003242,0.005563,-0.000709,0.005619,-0.003299,-85.425028,0.005648,
1470,60,-0.032969,-9.951016,0.999999,0.000112,-0.000140,0.003221,-0.000376,0.003263,-0.000181,-83.694041,0.003667,
1430,1530,-0.304903,-1.905023,0.999998,0.000183,-0.002047,0.004324,-0.000737,0.004408,-0.002131,-83.488648,0.004408,
560,680,1.762611,-6.587396,0.999786,0.000000,-0.003765,0.005197,-0.000107,0.005198,-0.003766,-89.314169,0.005370,
660,1790,0.824840,-1.223229,0.999998,0.000145,-0.002352,0.005063,-0.000258,0.005072,-0.002361,-88.008963,0.005076,
1620,410,-0.632211,-8.407333,0.999998,0.000168,-0.002251,0.004842,0.000143,0.004845,-0.002254,88.846391,0.004849,
1640,1720,-0.578040,-1.337023,0.999997,0.000205,-0.002028,0.004794,0.000075,0.004795,-0.002028,89.369115,0.004814,
820,1320,1.133274,-3.430169,0.999998,0.000213,-0.003090,0.005703,-0.000231,0.005709,-0.003096,-88.496546,0.005715,
780,670,1.138885,-6.954411,0.999998,0.000169,-0.002909,0.005439,0.000102,0.005441,-0.002910,89.302846,0.005445,
1460,130,-0.091806,-9.715457,0.999998,0.000158,-0.000465,0.003496,-0.000360,0.003529,-0.000497,-84.854708,0.003820,
1080,840,0.433920,-6.852748,0.999996,0.000224,-0.003541,0.005294,-0.001964,0.005711,-0.003958,-78.013838,0.005851,
970,260,0.244392,-9.213609,0.999998,0.000168,-0.001331,0.003992,0.000135,0.003996,-0.001335,88.546512,0.004068,
700,580,1.217520,-7.313068,0.999997,0.000188,-0.002673,0.005173,-0.000017,0.005173,-0.002673,-89.877529,0.005174,
1180,1840,0.034382,-0.621792,0.999998,0.000169,-0.000591,0.003398,-0.000039,0.003398,-0.000591,-89.441726,0.003631,
890,1120,1.368076,-4.522590,0.999997,0.000200,-0.002386,0.005811,-0.000713,0.005872,-0.002447,-85.067719,0.005899,
1320,1210,-0.270770,-2.744856,0.999996,0.000272,-0.002196,0.002326,-0.001376,0.002712,-0.002582,-74.332570,0.003059,
1800,1770,-0.856657,-1.319552,0.999998,0.000193,-0.002384,0.005096,0.000175,0.005100,-0.002389,88.658914,0.005104,
1560,1220,-1.081246,-3.904292,0.999997,0.000189,-0.003357,0.006212,0.000447,0.006233,-0.003378,87.330171,0.006240,
1600,1960,-0.125668,-0.267576,0.999998,0.000155,-0.000617,0.003703,0.000717,0.003819,-0.000733,80.821339,0.004053,
1030,1930,0.078135,-0.344029,0.999998,0.000166,-0.000495,0.003372,-0.000280,0.003392,-0.000516,-85.877301,0.003656,
970,840,0.856590,-6.299526,0.999998,0.000192,-0.003793,0.006681,-0.000090,0.006682,-0.003794,-89.509020,0.006703,
1340,720,-0.147677,-7.619676,0.999997,0.000201,-0.002117,0.003491,0.001756,0.003996,-0.002621,73.976962,0.004060,
1130,320,0.100034,-9.077095,0.999998,0.000154,-0.001109,0.003662,-0.000104,0.003665,-0.001111,-88.749550,0.003758,
950,770,0.760957,-6.697150,0.999997,0.000193,-0.003699,0.006225,-0.000402,0.006241,-0.003715,-87.686390,0.006279,
740,520,1.024770,-7.688418,0.999998,0.000148,-0.002598,0.005176,-0.000122,0.005178,-0.002600,-89.102446,0.005178,
1530,440,-0.463991,-8.396574,0.999996,0.000226,-0.002103,0.004628,0.000342,0.004645,-0.002120,87.101394,0.004651,
780,1400,1.114818,-3.042613,0.999998,0.000168,-0.002893,0.005407,-0.000064,0.005408,-0.002893,-89.558800,0.005412,
1480,620,-0.467804,-7.629314,0.999997,0.000209,-0.002768,0.004999,0.000877,0.005097,-0.002866,83.634841,0.005110,
960,1700,0.346922,-1.273873,0.999998,0.000207,-0.001805,0.004265,0.000197,0.004272,-0.001812,88.140768,0.004288,
1010,1340,0.463011,-2.870499,0.999997,0.000222,-0.003315,0.005467,0.001177,0.005622,-0.003470,82.496689,0.005673,
1290,310,-0.056718,-9.126688,0.999998,0.000153,-0.000903,0.003541,0.000013,0.003541,-0.000903,89.835890,0.003680,
750,1880,0.423877,-0.656959,0.999997,0.000185,-0.001522,0.004694,-0.000898,0.004821,-0.001649,-81.946926,0.004901,
1770,1230,-1.663017,-4.048890,0.999998,0.000172,-0.002553,0.005046,0.000484,0.005077,-0.002584,86.368831,0.005077,
1900,1270,-1.908397,-4.001369,0.999997,0.000000,-0.002299,0.004585,0.000056,0.004586,-0.002299,89.529854,0.004586,
870,940,1.427434,-5.515199,0.999997,0.000222,-0.002326,0.005648,0.000653,0.005701,-0.002379,85.346912,0.005727,
1630,1840,-0.374927,-0.776067,0.999997,0.000199,-0.001413,0.004418,0.000562,0.004472,-0.001467,84.542745,0.004559,
1640,1700,-0.605121,-1.432233,0.999997,0.000209,-0.002091,0.004806,0.000043,0.004807,-0.002091,89.639770,0.004820,
560,900,2.072168,-5.562162,0.999996,0.000000,-0.002009,0.004317,-0.000002,0.004317,-0.002009,-89.984048,0.004320,
1390,150,-0.067565,-9.661948,0.999998,0.000145,-0.000468,0.003393,-0.000205,0.003404,-0.000479,-86.962897,0.003685,
880,700,0.878559,-6.952609,0.999998,0.000163,-0.003251,0.005772,-0.000152,0.005775,-0.003254,-89.037457,0.005790,
1430,1950,-0.056930,-0.274318,0.999998,0.000175,-0.000404,0.003353,0.000298,0.003376,-0.000428,85.491259,0.003676,
1070,1600,0.217922,-1.562412,0.999998,0.000172,-0.001661,0.004002,0.000491,0.004044,-0.001703,85.085639,0.004061,
1860,470,-1.302594,-7.724832,0.999998,0.000177,-0.002512,0.005089,0.000045,0.005090,-0.002512,89.657990,0.005090,
1780,1390,-1.399259,-3.234344,0.999998,0.000197,-0.002611,0.005214,0.000160,0.005217,-0.002614,88.827641,0.005217,
1130,470,0.133297,-8.523406,0.999998,0.000161,-0.001424,0.003698,-0.000388,0.003728,-0.001453,-85.697278,0.003758,
1660,510,-0.848452,-7.842576,0.999997,0.000187,-0.002584,0.005175,0.000191,0.005180,-0.002589,88.592011,0.005180,
1440,130,-0.082872,-9.718964,0.999998,0.000163,-0.000486,0.003438,-0.000291,0.003460,-0.000507,-85.779021,0.003737,
1050,1460,0.290699,-2.174823,0.999997,0.000210,-0.002198,0.004333,0.001024,0.004490,-0.002355,81.295379,0.004492,
640,1790,0.871770,-1.255878,0.999998,0.000164,-0.002396,0.005089,-0.000169,0.005093,-0.002399,-88.705203,0.005096,
1530,1980,-0.066153,-0.184993,0.999998,0.000161,-0.000278,0.003465,0.000564,0.003548,-0.000361,81.612320,0.003905,
1690,140,-0.302774,-9.598338,0.999997,0.000209,-0.001292,0.004391,-0.000934,0.004541,-0.001442,-80.902547,0.004641,
1450,60,-0.029892,-9.951621,0.999999,0.000123,-0.000132,0.003178,-0.000353,0.003215,-0.000169,-83.980729,0.003619,
890,540,0.654311,-7.839301,0.999998,0.000165,-0.002614,0.005077,-0.000408,0.005098,-0.002635,-86.971032,0.005099,
1560,1240,-1.030272,-3.774573,0.999998,0.000188,-0.003422,0.006241,0.000308,0.006251,-0.003432,88.175871,0.006261,
1080,190,0.087327,-9.525009,0.999998,0.000176,-0.000585,0.003480,0.000169,0.003487,-0.000592,87.624037,0.003732,
950,660,0.600642,-7.335476,0.999997,0.000200,-0.003117,0.005443,-0.000718,0.005502,-0.003177,-85.237944,0.005524,
690,1460,1.266445,-2.860767,0.999998,0.000145,-0.002645,0.005194,-0.000020,0.005194,-0.002645,-89.856992,0.005195,
1690,390,-0.768438,-8.403251,0.999998,0.000175,-0.002315,0.004966,0.000081,0.004967,-0.002315,89.366488,0.004971,
860,1980,0.095086,-0.196419,0.999998,0.000158,-0.000463,0.003677,-0.000803,0.003827,-0.000614,-79.394891,0.004111,
1040,830,0.554519,-6.666367,0.999997,0.000220,-0.003906,0.006244,-0.001275,0.006402,-0.004063,-82.946762,0.006479,
1110,320,0.122568,-9.066289,0.999998,0.000152,-0.001096,0.003708,-0.000078,0.003709,-0.001097,-89.070958,0.003811,
740,540,1.051599,-7.583572,0.999998,0.000172,-0.002633,0.005200,-0.000106,0.005202,-0.002634,-89.228065,0.005202,
700,560,1.188310,-7.413783,0.999998,0.000177,-0.002648,0.005216,-0.000039,0.005216,-0.002648,-89.716615,0.005216,
1420,730,-0.369396,-7.252001,0.999997,0.000205,-0.003227,0.005192,0.001539,0.005464,-0.003499,79.961058,0.005536,
1860,100,-0.459443,-9.598498,0.999997,0.000206,-0.002333,0.005415,-0.001036,0.005551,-0.002470,-82.510898,0.005562,
1480,600,-0.455854,-7.727460,0.999997,0.000192,-0.002621,0.004917,0.000831,0.005007,-0.002712,83.786043,0.005013,
1290,330,-0.058256,-9.055567,0.999999,0.000147,-0.000976,0.003565,0.000031,0.003566,-0.000976,89.614452,0.003685,
1770,1180,-1.743536,-4.301665,0.999997,0.000235,-0.002424,0.004987,0.000511,0.005022,-0.002459,86.071868,0.005022,
1900,1490,-1.548712,-2.901343,0.999997,0.000000,-0.002540,0.005103,0.000048,0.005104,-0.002540,89.642030,0.005104,
560,890,2.061629,-5.605160,0.999995,0.000000,-0.002067,0.004224,-0.000020,0.004224,-0.002067,-89.819126,0.004224,
1640,1680,-0.633878,-1.530080,0.999997,0.000222,-0.002190,0.004861,-0.000038,0.004861,-0.002190,-89.687565,0.004869,
1740,1970,-0.202028,-0.265545,0.999997,0.000188,-0.001188,0.004155,0.001229,0.004424,-0.001457,77.651599,0.004509,
970,820,0.801813,-6.433815,0.999997,0.000200,-0.003841,0.006595,-0.000265,0.006601,-0.003848,-88.547265,0.006632,
1640,510,-0.796111,-7.874773,0.999997,0.000186,-0.002605,0.005137,0.000255,0.005146,-0.002613,88.115149,0.005146,
1340,700,-0.145717,-7.687273,0.999998,0.000172,-0.001988,0.003489,0.001555,0.003900,-0.002399,75.203726,0.003934,
620,1790,0.920321,-1.295676,0.999998,0.000165,-0.002410,0.005059,-0.000077,0.005060,-0.002411,-89.412944,0.005062,
1810,1990,-0.193104,-0.199817,0.999997,0.000197,-0.000888,0.004857,0.001859,0.005406,-0.001438,73.542859,0.005600,
1030,1910,0.088822,-0.410392,0.999998,0.000172,-0.000561,0.003479,-0.000263,0.003496,-0.000578,-86.294042,0.003748,
760,470,0.906732,-7.978360,0.999998,0.000161,-0.002514,0.005081,-0.000135,0.005083,-0.002516,-88.983713,0.005083,
820,1340,1.095714,-3.317103,0.999998,0.000224,-0.003094,0.005691,-0.000152,0.005694,-0.003096,-89.007073,0.005701,
1860,710,-1.683860,-6.503818,0.999998,0.000194,-0.002478,0.004990,-0.000132,0.004992,-0.002481,-88.989968,0.004992,
950,750,0.723727,-6.820094,0.999997,0.000192,-0.003607,0.006053,-0.000489,0.006078,-0.003631,-87.107529,0.006116,
1770,1210,-1.696596,-4.150791,0.999997,0.000193,-0.002504,0.005009,0.000471,0.005039,-0.002534,86.427146,0.005039,
1080,860,0.501649,-6.742904,0.999995,0.000255,-0.003343,0.005273,-0.002062,0.005741,-0.003811,-77.212201,0.005843,
1600,1940,-0.162550,-0.344541,0.999998,0.000163,-0.000781,0.003879,0.000742,0.003994,-0.000897,81.163179,0.004192,
1020,1590,0.306035,-1.668725,0.999998,0.000164,-0.001862,0.004285,0.000508,0.004327,-0.001903,85.304783,0.004337,
650,520,1.257904,-7.544704,0.999998,0.000199,-0.002600,0.005159,-0.000064,0.005159,-0.002600,-89.524330,0.005159,
1780,1410,-1.366182,-3.130773,0.999997,0.000202,-0.002623,0.005173,0.000123,0.005175,-0.002625,89.099893,0.005175,
960,1680,0.361972,-1.359808,0.999998,0.000201,-0.001835,0.004354,0.000218,0.004361,-0.001843,87.988625,0.004379,
780,1380,1.145810,-3.154527,0.999998,0.000175,-0.002926,0.005471,-0.000107,0.005472,-0.002927,-89.266874,0.005477,
1180,1820,0.036073,-0.690538,0.999999,0.000124,-0.000674,0.003422,-0.000030,0.003422,-0.000674,-89.583191,0.003625,
1730,1410,-1.229607,-3.060795,0.999998,0.000172,-0.002753,0.005290,0.000097,0.005291,-0.002754,89.309377,0.005292,
890,520,0.635166,-7.939418,0.999997,0.000212,-0.002572,0.005016,-0.000375,0.005035,-0.002590,-87.174339,0.005036,
850,940,1.472341,-5.505904,0.999997,0.000195,-0.002264,0.005513,0.000610,0.005561,-0.002312,85.541045,0.005587,
1060,390,0.211201,-8.766026,0.999998,0.000165,-0.001533,0.003948,-0.000299,0.003964,-0.001549,-86.889487,0.003996,
860,1960,0.128740,-0.269271,0.999998,0.000176,-0.000607,0.003718,-0.000748,0.003844,-0.000733,-80.455573,0.004082,
880,680,0.847467,-7.066952,0.999998,0.000159,-0.003211,0.005669,-0.000228,0.005674,-0.003217,-88.531359,0.005691,
1390,130,-0.057260,-9.728647,0.999998,0.000156,-0.000385,0.003306,-0.000212,0.003318,-0.000398,-86.717484,0.003624,
1430,1240,-0.542058,-3.357338,0.999996,0.000233,-0.003913,0.006139,-0.001242,0.006290,-0.004064,-83.060386,0.006379,
1280,450,-0.059715,-8.631168,0.999999,0.000139,-0.001203,0.003537,0.000137,0.003540,-0.001207,88.348517,0.003600,
1390,1920,-0.060683,-0.368136,0.999998,0.000154,-0.000409,0.003367,0.000212,0.003378,-0.000421,86.803282,0.003682,
1780,1770,-0.810034,-1.288871,0.999998,0.000166,-0.002376,0.005065,0.000165,0.005068,-0.002380,88.731954,0.005071,
1130,450,0.128944,-8.596162,0.999998,0.000183,-0.001363,0.003718,-0.000323,0.003738,-0.001383,-86.381945,0.003780,
1870,930,-2.036061,-5.459953,0.999998,0.000194,-0.002144,0.004451,-0.000187,0.004456,-0.002150,-88.379140,0.004457,
740,560,1.081024,-7.479292,0.999998,0.000176,-0.002671,0.005226,-0.000086,0.005227,-0.002672,-89.376008,0.005228,
1840,470,-1.252308,-7.756682,0.999998,0.000163,-0.002541,0.005118,0.000067,0.005118,-0.002542,89.501958,0.005118,
1170,320,0.058880,-9.090448,0.999999,0.000138,-0.000937,0.003597,-0.000012,0.003597,-0.000937,-89.848639,0.003732,
1480,580,-0.446573,-7.823497,0.999997,0.000209,-0.002517,0.004799,0.000794,0.004884,-0.002602,83.875955,0.004888,
1290,350,-0.061217,-8.984569,0.999999,0.000139,-0.001022,0.003573,0.000027,0.003574,-0.001022,89.664945,0.003681,
1430,1970,-0.045079,-0.208020,0.999998,0.000161,-0.000303,0.003257,0.000294,0.003281,-0.000327,85.307568,0.003614,
1030,1460,0.335103,-2.219164,0.999998,0.000178,-0.002353,0.004506,0.000956,0.004637,-0.002484,82.212942,0.004641,
1410,720,-0.330166,-7.343167,0.999997,0.000194,-0.003043,0.004953,0.001592,0.005258,-0.003348,79.142470,0.005323,
1900,1480,-1.562559,-2.951138,0.999997,0.000000,-0.002556,0.005098,0.000009,0.005098,-0.002556,89.932987,0.005098,
700,540,1.157688,-7.520668,0.999998,0.000160,-0.002597,0.005189,-0.000038,0.005189,-0.002597,-89.716992,0.005189,
1290,1980,-0.010243,-0.167043,0.999998,0.000161,-0.000138,0.003050,0.000101,0.003053,-0.000141,88.184251,0.003447,
790,1720,0.651315,-1.383132,0.999997,0.000222,-0.002227,0.004911,-0.000042,0.004912,-0.002227,-89.662289,0.004919,
1330,60,-0.011931,-9.957816,0.999999,0.000121,-0.000173,0.003070,-0.000129,0.003075,-0.000178,-87.730644,0.003452,
600,1730,1.081079,-1.633364,0.999998,0.000164,-0.002418,0.004974,0.000071,0.004975,-0.002418,89.446462,0.004976,
560,880,2.049678,-5.647875,0.999996,0.000000,-0.002127,0.004150,-0.000046,0.004151,-0.002127,-89.577021,0.004151,
1640,1660,-0.658515,-1.629373,0.999997,0.000221,-0.002268,0.004897,-0.000113,0.004899,-0.002270,-89.095335,0.004903,
1740,1950,-0.260453,-0.350504,0.999997,0.000190,-0.001392,0.004400,0.001185,0.004633,-0.001625,78.875289,0.004701,
1340,680,-0.147387,-7.755666,0.999998,0.000161,-0.001863,0.003486,0.001418,0.003839,-0.002216,76.034153,0.003854,
760,450,0.880086,-8.079613,0.999998,0.000159,-0.002473,0.005080,-0.000144,0.005083,-0.002476,-88.905895,0.005083,
890,880,1.238491,-5.882670,0.999998,0.000205,-0.002924,0.006035,0.000683,0.006087,-0.002975,85.662262,0.006087,
1780,1430,-1.333241,-3.026906,0.999997,0.000196,-0.002643,0.005171,0.000087,0.005172,-0.002644,89.362614,0.005173,
1670,140,-0.275571,-9.609883,0.999998,0.000202,-0.001362,0.004279,-0.000834,0.004400,-0.001482,-81.763945,0.004477,
1820,1300,-1.662560,-3.747301,0.999998,0.000169,-0.002509,0.004975,0.000303,0.004988,-0.002522,87.684120,0.004988,
970,620,0.506206,-7.596563,0.999997,0.000232,-0.002846,0.005092,-0.000836,0.005179,-0.002933,-84.050010,0.005195,
1770,1190,-1.727762,-4.251078,0.999997,0.000215,-0.002452,0.005001,0.000504,0.005035,-0.002486,86.152300,0.005035,
1580,570,-0.703360,-7.672131,0.999998,0.000184,-0.002736,0.005235,0.000404,0.005255,-0.002756,87.107912,0.005257,
1610,230,-0.369202,-9.253930,0.999998,0.000187,-0.001497,0.004393,-0.000407,0.004421,-0.001525,-86.066730,0.004491,
1030,1890,0.108126,-0.483132,0.999998,0.000210,-0.000631,0.003555,-0.000248,0.003570,-0.000645,-86.614693,0.003805,
860,1940,0.164156,-0.344704,0.999998,0.000182,-0.000770,0.003867,-0.000742,0.003983,-0.000886,-81.128216,0.004182,
1860,80,-0.365953,-9.705415,0.999997,0.000198,-0.002268,0.005760,-0.001356,0.005983,-0.002491,-80.666022,0.006011,
1400,610,-0.266635,-7.870250,0.999997,0.000192,-0.002222,0.004251,0.001125,0.004441,-0.002412,80.413791,0.004447,
880,660,0.819487,-7.181882,0.999998,0.000180,-0.003135,0.005592,-0.000298,0.005602,-0.003145,-88.045799,0.005616,
1530,360,-0.398889,-8.754851,0.999997,0.000195,-0.001702,0.004361,0.000057,0.004361,-0.001703,89.460841,0.004396,
1560,1260,-0.985169,-3.652809,0.999998,0.000186,-0.003447,0.006212,0.000182,0.006216,-0.003450,88.921974,0.006228,
610,1450,1.488190,-3.033641,0.999997,0.000205,-0.002553,0.005069,-0.000051,0.005069,-0.002554,-89.615377,0.005069,
1130,430,0.125068,-8.671417,0.999998,0.000183,-0.001335,0.003719,-0.000312,0.003739,-0.001355,-86.480332,0.003786,
740,1000,1.762845,-5.175604,0.999998,0.000169,-0.002130,0.004893,0.000177,0.004897,-0.002135,88.560003,0.004911,
1730,1390,-1.262751,-3.165288,0.999997,0.000193,-0.002775,0.005308,0.000166,0.005311,-0.002779,88.824093,0.005313,
1900,1470,-1.575310,-3.002660,0.999997,0.000000,-0.002556,0.005103,0.000009,0.005103,-0.002556,89.935786,0.005103,
1480,560,-0.434466,-7.918907,0.999997,0.000200,-0.002431,0.004724,0.000735,0.004799,-0.002506,84.192183,0.004801,
1290,370,-0.063870,-8.912242,0.999998,0.000137,-0.001083,0.003553,0.000050,0.003553,-0.001083,89.386519,0.003643,
1400,810,-0.413471,-6.916600,0.999997,0.000232,-0.003757,0.005672,0.001785,0.005999,-0.004084,79.633107,0.006128,
590,1460,1.524767,-3.013579,0.999996,0.000229,-0.002852,0.004983,-0.000093,0.004984,-0.002853,-89.321142,0.005001,
1810,1460,-1.363622,-2.917487,0.999997,0.000201,-0.002582,0.005146,0.000033,0.005146,-0.002582,89.757902,0.005146,
1060,1530,0.253699,-1.859856,0.999998,0.000172,-0.001815,0.004063,0.000669,0.004138,-0.001890,83.583781,0.004143,
1410,320,-0.186838,-9.033287,0.999998,0.000160,-0.001315,0.003846,0.000091,0.003848,-0.001317,88.985993,0.003911,
1430,1990,-0.029755,-0.142097,0.999998,0.000157,-0.000230,0.003225,0.000310,0.003252,-0.000258,84.920246,0.003616,
1040,1910,0.084067,-0.408641,0.999999,0.000149,-0.000592,0.003458,-0.000242,0.003472,-0.000607,-86.593623,0.003709,
560,870,2.041148,-5.687434,0.999997,0.000000,-0.002167,0.004177,-0.000029,0.004177,-0.002167,-89.740373,0.004178,
1200,850,0.145308,-7.637992,0.999978,0.000536,-0.003419,0.000735,-0.000119,0.000738,-0.003422,-88.364867,0.003601,
700,520,1.130175,-7.623687,0.999998,0.000180,-0.002585,0.005167,-0.000069,0.005168,-0.002586,-89.491751,0.005168,
980,190,0.163872,-9.492099,0.999998,0.000158,-0.000902,0.003750,0.000332,0.003774,-0.000926,85.943769,0.003933,
1840,1770,-0.954074,-1.388794,0.999998,0.000165,-0.002411,0.005023,0.000014,0.005023,-0.002411,89.889132,0.005024,
1690,370,-0.741806,-8.502387,0.999998,0.000163,-0.002266,0.004931,0.000006,0.004931,-0.002266,89.949250,0.004936,
960,1660,0.378634,-1.447536,0.999997,0.000193,-0.001851,0.004392,0.000231,0.004401,-0.001859,87.885599,0.004418,
1340,660,-0.145263,-7.823322,0.999998,0.000182,-0.001810,0.003537,0.001290,0.003832,-0.002105,77.121303,0.003839,
1650,140,-0.250224,-9.620334,0.999998,0.000173,-0.001085,0.004171,-0.000814,0.004294,-0.001209,-81.393985,0.004429,
1640,1640,-0.684214,-1.727993,0.999998,0.000190,-0.002315,0.004915,-0.000128,0.004918,-0.002318,-88.988320,0.004920,
1490,1520,-0.442144,-2.060737,0.999998,0.000169,-0.002374,0.004706,-0.000653,0.004766,-0.002434,-84.778552,0.004766,
1230,1770,0.001767,-0.856456,0.999999,0.000145,-0.000913,0.003470,-0.000006,0.003470,-0.000913,-89.923873,0.003597,
1310,60,-0.009334,-9.957626,0.999999,0.000136,-0.000112,0.003046,-0.000102,0.003049,-0.000115,-88.158691,0.003456,
630,130,0.514776,-9.502194,0.999996,0.000214,-0.002382,0.005301,0.000754,0.005374,-0.002456,84.449850,0.005381,
1520,1220,-0.942329,-3.819565,0.999998,0.000181,-0.003598,0.006485,0.000174,0.006488,-0.003601,89.010895,0.006501,
770,1940,0.244541,-0.377499,0.999998,0.000169,-0.001041,0.004334,-0.001127,0.004560,-0.001268,-78.628461,0.004708,
1750,1200,-1.661250,-4.189111,0.999998,0.000183,-0.002474,0.005056,0.000526,0.005092,-0.002511,86.020890,0.005093,
1840,1650,-1.155863,-1.995485,0.999998,0.000150,-0.002490,0.004998,-0.000082,0.004999,-0.002490,-89.375145,0.004999,
590,280,1.024675,-8.649682,0.999998,0.000203,-0.002390,0.004905,0.000012,0.004905,-0.002390,89.907021,0.004906,
1580,130,-0.168958,-9.684694,0.999998,0.000160,-0.000918,0.003864,-0.000611,0.003940,-0.000995,-82.832114,0.004098,
870,880,1.296342,-5.862367,0.999997,0.000193,-0.002816,0.005889,0.000722,0.005949,-0.002875,85.291887,0.005950,
1180,1800,0.041397,-0.758014,0.999999,0.000127,-0.000748,0.003466,-0.000027,0.003466,-0.000748,-89.631299,0.003648,
1740,1990,-0.143269,-0.183392,0.999997,0.000206,-0.000855,0.004148,0.001372,0.004499,-0.001206,75.624092,0.004658,
780,1360,1.180576,-3.263287,0.999998,0.000187,-0.002943,0.005489,-0.000173,0.005493,-0.002947,-88.827477,0.005498,
1800,990,-1.925145,-5.214725,0.999999,0.000138,-0.002121,0.004640,-0.000115,0.004642,-0.002123,-89.027315,0.004647,
620,1030,2.029588,-5.028138,0.999998,0.000177,-0.002102,0.004477,-0.000010,0.004477,-0.002102,-89.915974,0.004480,
1530,340,-0.380365,-8.842530,0.999999,0.000152,-0.001627,0.004429,-0.000015,0.004429,-0.001627,-89.856233,0.004480,
880,640,0.794264,-7.291008,0.999998,0.000181,-0.003050,0.005498,-0.000345,0.005512,-0.003064,-87.695217,0.005524,
860,1920,0.200862,-0.422953,0.999997,0.000196,-0.000929,0.003930,-0.000670,0.004020,-0.001019,-82.293806,0.004180,
1640,590,-0.895246,-7.457236,0.999998,0.000166,-0.002844,0.005340,0.000201,0.005345,-0.002849,88.597306,0.005348,
1560,1110,-1.359606,-4.571944,0.999997,0.000204,-0.002305,0.005858,0.000685,0.005915,-0.002362,85.237985,0.005955,
1900,1460,-1.592459,-3.054777,0.999997,0.000000,-0.002550,0.005155,0.000040,0.005155,-0.002550,89.703126,0.005155,
1560,1280,-0.941144,-3.527527,0.999998,0.000169,-0.003465,0.006152,0.000057,0.006152,-0.003465,89.659039,0.006169,
1030,1870,0.118260,-0.552544,0.999998,0.000213,-0.000755,0.003615,-0.000229,0.003627,-0.000767,-87.003542,0.003823,
1390,550,-0.235299,-8.138687,0.999998,0.000156,-0.001845,0.004002,0.000771,0.004102,-0.001945,82.612596,0.004104,
1840,710,-1.633538,-6.533259,0.999997,0.000210,-0.002492,0.005044,-0.000180,0.005048,-0.002496,-88.634886,0.005048,
740,1030,1.771633,-5.027756,0.999998,0.000167,-0.002140,0.004923,-0.000030,0.004923,-0.002140,-89.756285,0.004937,
950,730,0.689884,-6.938130,0.999997,0.000202,-0.003540,0.005874,-0.000560,0.005907,-0.003573,-86.609146,0.005950,
850,1520,0.754767,-2.284474,0.999998,0.000171,-0.002678,0.005147,0.000289,0.005158,-0.002688,87.889929,0.005159,
1770,1170,-1.760460,-4.353035,0.999997,0.000197,-0.002395,0.004966,0.000487,0.004999,-0.002427,86.227523,0.004999,
1600,1920,-0.196905,-0.422957,0.999998,0.000194,-0.000939,0.003925,0.000672,0.004016,-0.001030,82.276968,0.004172,
1130,410,0.123284,-8.746601,0.999998,0.000159,-0.001303,0.003661,-0.000291,0.003678,-0.001320,-86.660769,0.003726,
820,1360,1.060684,-3.203156,0.999998,0.000193,-0.003079,0.005637,-0.000074,0.005638,-0.003080,-89.514886,0.005646,
1400,790,-0.373088,-7.027548,0.999996,0.000235,-0.003618,0.005362,0.001820,0.005717,-0.003972,78.968392,0.005859,
1070,320,0.165180,-9.045867,0.999998,0.000171,-0.001164,0.003816,-0.000056,0.003817,-0.001164,-89.353705,0.003913,
1450,1320,-0.474342,-2.967391,0.999997,0.000187,-0.003449,0.005611,-0.001222,0.005773,-0.003611,-82.448989,0.005834,
1080,880,0.584468,-6.642322,0.999995,0.000252,-0.002840,0.005059,-0.002276,0.005668,-0.003449,-75.025913,0.005712,
880,1830,0.321064,-0.784114,0.999998,0.000151,-0.001503,0.004239,-0.000372,0.004263,-0.001527,-86.312001,0.004320,
1410,1980,-0.032120,-0.174335,0.999998,0.000173,-0.000260,0.003211,0.000260,0.003231,-0.000280,85.735800,0.003580,
580,1460,1.549764,-3.029229,0.999996,0.000218,-0.003769,0.004837,-0.000228,0.004843,-0.003775,-88.482018,0.005089,
1640,1620,-0.708515,-1.826746,0.999997,0.000186,-0.002347,0.004939,-0.000162,0.004943,-0.002350,-88.730244,0.004945,
1290,810,-0.104756,-7.587984,0.999997,0.000182,-0.001953,0.001763,0.001492,0.002288,-0.002478,70.618674,0.002758,
590,1590,1.327729,-2.350375,0.999997,0.000216,-0.002423,0.005100,0.000025,0.005100,-0.002423,89.811240,0.005102,
1480,540,-0.420118,-8.014337,0.999997,0.000196,-0.002348,0.004658,0.000691,0.004725,-0.002415,84.421366,0.004726,
960,190,0.182949,-9.482969,0.999998,0.000174,-0.001047,0.003843,0.000335,0.003866,-0.001069,86.100205,0.003992,
1010,1580,0.332181,-1.728894,0.999998,0.000145,-0.002000,0.004358,0.000546,0.004405,-0.002047,85.128931,0.004408,
560,860,2.030007,-5.729059,0.999998,0.000000,-0.002209,0.004282,0.000006,0.004282,-0.002209,89.946304,0.004282,
1200,840,0.111840,-7.650312,0.999997,0.000218,-0.002977,0.000964,-0.000177,0.000972,-0.002985,-87.432248,0.003045,
1560,130,-0.152317,-9.691096,0.999998,0.000150,-0.000690,0.003803,-0.000583,0.003878,-0.000765,-82.726817,0.004108,
1820,1650,-1.106494,-1.961678,0.999998,0.000155,-0.002509,0.005044,-0.000066,0.005045,-0.002509,-89.502641,0.005045,
700,500,1.097526,-7.728761,0.999998,0.000162,-0.002568,0.005153,-0.000077,0.005154,-0.002568,-89.430858,0.005154,
1700,130,-0.293767,-9.635821,0.999998,0.000184,-0.001123,0.004380,-0.001072,0.004581,-0.001324,-79.359918,0.004715,
700,570,1.202466,-7.363536,0.999997,0.000215,-0.002664,0.005198,-0.000026,0.005198,-0.002665,-89.812916,0.005198,
1570,1500,-0.660286,-2.311881,0.999997,0.000212,-0.002660,0.005100,-0.000430,0.005124,-0.002684,-86.837890,0.005126,
740,980,1.755475,-5.273587,0.999998,0.000163,-0.002147,0.004910,0.000207,0.004917,-0.002153,88.318712,0.004929,
960,1640,0.393338,-1.534285,0.999997,0.000198,-0.001880,0.004424,0.000298,0.004438,-0.001894,87.295673,0.004454,
1730,1200,-1.614108,-4.178092,0.999997,0.000188,-0.002504,0.005153,0.000536,0.005190,-0.002541,86.015243,0.005191,
1690,350,-0.711802,-8.599347,0.999997,0.000182,-0.002220,0.004924,-0.000054,0.004924,-0.002220,-89.563389,0.004932,
1180,1780,0.043246,-0.828731,0.999999,0.000126,-0.000797,0.003525,-0.000020,0.003526,-0.000797,-89.734340,0.003698,
780,1340,1.215568,-3.373380,0.999998,0.000197,-0.002948,0.005527,-0.000256,0.005535,-0.002956,-88.268596,0.005539,
860,1900,0.234145,-0.503634,0.999997,0.000195,-0.001105,0.004114,-0.000668,0.004198,-0.001189,-82.824246,0.004327,
880,620,0.768465,-7.400910,0.999998,0.000176,-0.002942,0.005366,-0.000371,0.005383,-0.002958,-87.449975,0.005392,
1410,260,-0.151382,-9.261488,0.999998,0.000167,-0.001074,0.003694,-0.000032,0.003695,-0.001074,-89.614848,0.003801,
1900,1450,-1.608942,-3.105523,0.999997,0.000000,-0.002558,0.005162,0.000046,0.005162,-0.002559,89.658957,0.005162,
710,2010,0.088905,-0.104274,0.999998,0.000168,-0.000628,0.004105,-0.001497,0.004538,-0.001062,-73.845945,0.004748,
1620,590,-0.836636,-7.492491,0.999997,0.000194,-0.002876,0.005334,0.000270,0.005343,-0.002885,88.119268,0.005349,
1440,60,-0.027302,-9.952017,0.999999,0.000122,-0.000147,0.003164,-0.000334,0.003198,-0.000181,-84.298916,0.003592,
1030,1850,0.139173,-0.627851,0.999998,0.000183,-0.000872,0.003642,-0.000199,0.003650,-0.000881,-87.477352,0.003810,
590,630,1.580001,-6.888475,0.999997,0.000225,-0.002713,0.004980,0.000053,0.004981,-0.002713,89.602062,0.004987,
1340,860,-0.387840,-7.134348,0.999996,0.000256,-0.001974,0.002838,0.001741,0.003402,-0.002538,72.056376,0.003537,
1560,1720,-0.420632,-1.242902,0.999997,0.000196,-0.001803,0.004508,-0.000011,0.004508,-0.001803,-89.898906,0.004538,
1770,1150,-1.786930,-4.449575,0.999998,0.000196,-0.002332,0.004866,0.000384,0.004886,-0.002352,86.954275,0.004887,
1600,1880,-0.264169,-0.585120,0.999998,0.000188,-0.001217,0.004105,0.000569,0.004165,-0.001277,83.967599,0.004268,
1130,390,0.117572,-8.818210,0.999999,0.000141,-0.001298,0.003687,-0.000256,0.003700,-0.001311,-87.071146,0.003752,
1220,710,0.011177,-7.863951,0.999999,0.000138,-0.000995,0.002049,-0.000290,0.002077,-0.001022,-84.613561,0.002077,
1020,730,0.445761,-7.164205,0.999996,0.000235,-0.003399,0.005503,-0.001296,0.005688,-0.003584,-81.881634,0.005751,
680,770,1.595530,-6.298069,0.999997,0.000194,-0.002555,0.005088,0.000394,0.005109,-0.002575,87.056987,0.005109,
590,1730,1.106479,-1.652858,0.999998,0.000159,-0.002416,0.004937,0.000071,0.004938,-0.002417,89.445126,0.004938,
1520,710,-0.684308,-7.035843,0.999997,0.000181,-0.003403,0.005780,0.000589,0.005817,-0.003441,86.344839,0.005850,
1470,460,-0.358083,-8.391448,0.999998,0.000196,-0.001995,0.004419,0.000469,0.004454,-0.002029,85.837837,0.004459,
1480,520,-0.409129,-8.108543,0.999998,0.000190,-0.002222,0.004585,0.000621,0.004641,-0.002278,84.826045,0.004641,
1290,790,-0.081485,-7.625550,0.999998,0.000185,-0.001692,0.001935,0.001586,0.002530,-0.002288,69.417495,0.002792,
1420,1230,-0.528379,-3.367564,0.999996,0.000248,-0.003914,0.006131,-0.001361,0.006312,-0.004095,-82.417315,0.006405,
1800,1140,-1.866037,-4.512147,0.999998,0.000186,-0.002265,0.004728,0.000311,0.004741,-0.002279,87.462308,0.004743,
1640,1600,-0.731778,-1.925292,0.999998,0.000173,-0.002410,0.004976,-0.000191,0.004981,-0.002415,-88.520331,0.004982,
1010,1560,0.341910,-1.816023,0.999997,0.000166,-0.002028,0.004360,0.000587,0.004413,-0.002082,84.794673,0.004416,
1080,1600,0.201240,-1.548172,0.999998,0.000182,-0.001603,0.003949,0.000473,0.003989,-0.001643,85.166834,0.004010,
1460,1410,-0.430195,-2.524756,0.999996,0.000239,-0.002833,0.004975,-0.001030,0.005109,-0.002966,-82.606743,0.005131,
580,1590,1.352790,-2.365863,0.999997,0.000204,-0.002255,0.005085,-0.000012,0.005085,-0.002255,-89.903923,0.005095,
1600,1790,-0.408157,-0.973129,0.999997,0.000203,-0.001739,0.004409,0.000245,0.004419,-0.001749,87.719379,0.004451,
1860,60,-0.268973,-9.829445,0.999997,0.000220,-0.001959,0.005567,-0.001698,0.005932,-0.002324,-77.858473,0.005979,
900,1850,0.263916,-0.687028,0.999998,0.000176,-0.001163,0.004114,-0.000439,0.004150,-0.001199,-85.274043,0.004272,
1700,110,-0.235165,-9.723755,0.999997,0.000176,-0.000936,0.004266,-0.001172,0.004518,-0.001188,-77.869016,0.004684,
560,850,2.013826,-5.773913,0.999998,0.000000,-0.002269,0.004433,0.000038,0.004433,-0.002269,89.671740,0.004433,
600,1790,0.968363,-1.336853,0.999997,0.000186,-0.002407,0.004986,-0.000061,0.004987,-0.002407,-89.530053,0.004988,
820,1380,1.027742,-3.090984,0.999998,0.000191,-0.003041,0.005515,-0.000005,0.005515,-0.003041,-89.963349,0.005525,
1900,1440,-1.625376,-3.158483,0.999997,0.000000,-0.002586,0.005119,0.000023,0.005119,-0.002586,89.829235,0.005119,
860,1880,0.269833,-0.586983,0.999997,0.000200,-0.001215,0.004121,-0.000586,0.004185,-0.001279,-83.810820,0.004289,
1080,130,0.055011,-9.728699,0.999998,0.000145,-0.000359,0.003301,0.000197,0.003312,-0.000370,86.924464,0.003629,
1130,370,0.114182,-8.893213,0.999998,0.000158,-0.001247,0.003732,-0.000218,0.003742,-0.001257,-87.503757,0.003809,
1560,1700,-0.442912,-1.334510,0.999997,0.000214,-0.001892,0.004536,-0.000032,0.004536,-0.001892,-89.711210,0.004557,
1250,260,-0.015209,-9.307926,0.999998,0.000163,-0.000829,0.003438,0.000038,0.003439,-0.000829,89.484627,0.003589,
880,600,0.745546,-7.505934,0.999997,0.000198,-0.002866,0.005292,-0.000388,0.005310,-0.002884,-87.284333,0.005317,
700,480,1.071539,-7.830771,0.999999,0.000144,-0.002533,0.005109,-0.000101,0.005111,-0.002534,-89.245331,0.005111,
1320,1620,-0.109123,-1.416470,0.999998,0.000177,-0.001347,0.003671,-0.000315,0.003690,-0.001367,-86.422527,0.003731,
790,1820,0.482624,-0.903060,0.999997,0.000208,-0.001968,0.004705,-0.000451,0.004735,-0.001999,-86.150045,0.004754,
1440,500,-0.316769,-8.264450,0.999997,0.000172,-0.002029,0.004324,0.000656,0.004391,-0.002097,84.164557,0.004393,
1690,330,-0.681845,-8.699282,0.999997,0.000197,-0.002205,0.004939,-0.000094,0.004940,-0.002207,-89.246877,0.004950,
590,1400,1.621252,-3.318534,0.999998,0.000190,-0.002768,0.005053,-0.000070,0.005054,-0.002769,-89.485163,0.005062,
1200,1330,0.031244,-2.264078,0.999998,0.000146,-0.001096,0.002017,0.000717,0.002174,-0.001253,77.637880,0.002183,
860,1330,0.987909,-3.309226,0.999998,0.000166,-0.003244,0.005848,-0.000046,0.005848,-0.003245,-89.709967,0.005860,
700,550,1.172610,-7.468218,0.999997,0.000174,-0.002617,0.005217,-0.000036,0.005217,-0.002617,-89.734359,0.005217,
1480,500,-0.398590,-8.197691,0.999997,0.000191,-0.002116,0.004505,0.000545,0.004550,-0.002161,85.326070,0.004552,
960,1620,0.407642,-1.623840,0.999997,0.000187,-0.001930,0.004472,0.000331,0.004489,-0.001947,87.050741,0.004502,
1020,710,0.426114,-7.270436,0.999997,0.000215,-0.003224,0.005304,-0.001294,0.005496,-0.003416,-81.556870,0.005550,
950,710,0.661596,-7.054972,0.999997,0.000210,-0.003446,0.005776,-0.000614,0.005817,-0.003487,-86.208874,0.005855,
630,1380,1.555280,-3.358351,0.999997,0.000192,-0.002557,0.005070,-0.000169,0.005074,-0.002561,-88.728431,0.005074,
820,470,0.756705,-8.073919,0.999997,0.000178,-0.002447,0.005023,-0.000182,0.005027,-0.002452,-88.603279,0.005028,
920,1850,0.244588,-0.677366,0.999998,0.000161,-0.001036,0.004033,-0.000434,0.004070,-0.001073,-85.142266,0.004219,
1650,90,-0.144417,-9.821925,0.999998,0.000154,-0.000669,0.003885,-0.000941,0.004071,-0.000855,-78.775925,0.004293,
1390,570,-0.236653,-8.060057,0.999998,0.000156,-0.001934,0.004032,0.000871,0.004156,-0.002059,81.863592,0.004156,
1800,1100,-1.909045,-4.703724,0.999998,0.000175,-0.002230,0.004706,0.000254,0.004715,-0.002239,87.902789,0.004717,
1600,1860,-0.300393,-0.668044,0.999998,0.000187,-0.001362,0.004250,0.000512,0.004296,-0.001408,84.830729,0.004380,
990,1140,1.038626,-4.232385,0.999997,0.000200,-0.003224,0.007048,-0.000170,0.007050,-0.003226,-89.050672,0.007059,
740,960,1.741889,-5.373562,0.999998,0.000181,-0.002208,0.005009,0.000388,0.005030,-0.002229,86.928015,0.005040,
720,1030,1.816142,-5.026455,0.999998,0.000189,-0.002153,0.004872,-0.000032,0.004872,-0.002153,-89.737126,0.004883,
1080,1130,0.804204,-3.671692,0.999994,0.000258,-0.002077,0.006555,0.003867,0.008034,-0.003556,69.069519,0.008051,
580,630,1.605037,-6.871822,0.999998,0.000184,-0.003442,0.004714,0.000062,0.004715,-0.003442,89.564928,0.004878,
710,2000,0.119536,-0.144071,0.999998,0.000156,-0.000806,0.004221,-0.001502,0.004636,-0.001221,-74.567251,0.004805,
800,1650,0.723639,-1.712733,0.999997,0.000233,-0.002334,0.004936,0.000082,0.004937,-0.002335,89.356244,0.004940,
780,1320,1.255969,-3.483957,0.999997,0.000200,-0.002944,0.005563,-0.000326,0.005576,-0.002957,-87.810544,0.005579,
1470,480,-0.369146,-8.302429,0.999997,0.000175,-0.002023,0.004413,0.000512,0.004453,-0.002064,85.475861,0.004457,
1000,1690,0.287558,-1.269927,0.999998,0.000182,-0.001478,0.004164,0.000157,0.004169,-0.001483,88.405966,0.004226,
1180,1760,0.047334,-0.900616,0.999999,0.000119,-0.000864,0.003510,-0.000002,0.003510,-0.000864,-89.972614,0.003658,
1030,1830,0.151545,-0.697599,0.999998,0.000181,-0.000975,0.003718,-0.000121,0.003721,-0.000978,-88.518260,0.003859,
1290,770,-0.068808,-7.664869,0.999997,0.000208,-0.001547,0.002021,0.001517,0.002579,-0.002104,69.814460,0.002745,
1610,1020,-1.543292,-5.080452,0.999998,0.000214,-0.001898,0.005277,-0.000091,0.005279,-0.001899,-89.277441,0.005347,
1200,710,0.031067,-7.845872,0.999998,0.000178,-0.001104,0.002180,-0.000665,0.002309,-0.001233,-78.976379,0.002311,
890,560,0.673011,-7.737627,0.999997,0.000199,-0.002692,0.005142,-0.000427,0.005165,-0.002715,-86.887339,0.005167,
1080,1580,0.208252,-1.631001,0.999998,0.000173,-0.001678,0.003991,0.000564,0.004046,-0.001734,84.377659,0.004060,
580,1580,1.367130,-2.417129,0.999998,0.000183,-0.002178,0.005185,-0.000052,0.005185,-0.002178,-89.596408,0.005207,
1560,1680,-0.465260,-1.425350,0.999997,0.000207,-0.001983,0.004558,-0.000087,0.004560,-0.001985,-89.238948,0.004572,
880,580,0.722734,-7.612586,0.999997,0.000206,-0.002802,0.005268,-0.000399,0.005287,-0.002822,-87.176165,0.005291,
1440,480,-0.307702,-8.351822,0.999997,0.000181,-0.001914,0.004270,0.000574,0.004323,-0.001967,84.745001,0.004329,
1560,1190,-1.160626,-4.089942,0.999998,0.000171,-0.003143,0.006176,0.000627,0.006218,-0.003185,86.165931,0.006218,
770,1960,0.191788,-0.290682,0.999998,0.000137,-0.000817,0.004078,-0.001112,0.004318,-0.001058,-77.783689,0.004502,
560,840,1.997980,-5.819087,0.999998,0.000000,-0.002318,0.004537,0.000021,0.004537,-0.002318,89.823282,0.004538,
600,890,1.977540,-5.644258,0.999999,0.000134,-0.002174,0.004424,0.000138,0.004427,-0.002177,88.800062,0.004427,
1690,310,-0.650025,-8.797341,0.999997,0.000201,-0.002174,0.004859,-0.000134,0.004861,-0.002177,-88.912515,0.004870,
1900,1430,-1.641362,-3.209692,0.999997,0.000000,-0.002585,0.005072,0.000019,0.005072,-0.002586,89.855016,0.005072,
860,1860,0.303660,-0.670230,0.999997,0.000201,-0.001347,0.004260,-0.000542,0.004312,-0.001399,-84.529700,0.004400,
1230,1750,0.001085,-0.925852,0.999999,0.000151,-0.000976,0.003482,0.000002,0.003482,-0.000976,89.968332,0.003593,
1710,100,-0.219211,-9.763146,0.999998,0.000146,-0.000792,0.004155,-0.001186,0.004425,-0.001062,-77.188726,0.004620,
1130,1460,0.135523,-2.008960,0.999998,0.000186,-0.001639,0.003531,0.000814,0.003656,-0.001764,81.263821,0.003657,
1890,1830,-0.943063,-1.197777,0.999998,0.000187,-0.002400,0.004872,0.000125,0.004874,-0.002403,89.014031,0.004874,
1340,770,-0.167472,-7.441090,0.999998,0.000199,-0.002466,0.003525,0.002161,0.004223,-0.003164,72.099139,0.004395,
700,460,1.044332,-7.933136,0.999998,0.000164,-0.002504,0.005061,-0.000092,0.005063,-0.002505,-89.305022,0.005063,
610,1430,1.522536,-3.134841,0.999997,0.000211,-0.002540,0.005106,-0.000071,0.005107,-0.002541,-89.466773,0.005107,
1320,1600,-0.111860,-1.491060,0.999998,0.000176,-0.001383,0.003681,-0.000361,0.003707,-0.001408,-85.943962,0.003743,
580,1400,1.646101,-3.333903,0.999998,0.000178,-0.003374,0.005135,-0.000057,0.005135,-0.003375,-89.615697,0.005219,
950,690,0.633917,-7.169139,0.999996,0.000217,-0.003316,0.005643,-0.000684,0.005695,-0.003368,-85.659061,0.005727,
1390,590,-0.238839,-7.979276,0.999998,0.000161,-0.002043,0.004091,0.000981,0.004244,-0.002196,81.133945,0.004245,
1850,1990,-0.268967,-0.260164,0.999997,0.000183,-0.002230,0.005408,0.001390,0.005653,-0.002475,79.999745,0.005667,
1130,790,0.169586,-7.412118,0.999997,0.000206,-0.002459,0.003323,-0.002223,0.004079,-0.003215,-71.217871,0.004299,
630,1360,1.590140,-3.460932,0.999997,0.000210,-0.002518,0.005084,-0.000188,0.005089,-0.002523,-88.583211,0.005089,
1650,110,-0.187318,-9.744407,0.999998,0.000189,-0.000834,0.003998,-0.000911,0.004164,-0.001000,-79.675428,0.004347,
820,450,0.732640,-8.174602,0.999998,0.000182,-0.002380,0.004987,-0.000174,0.004992,-0.002384,-88.649541,0.004993,
610,760,1.752625,-6.266680,0.999998,0.000170,-0.002441,0.004904,0.000216,0.004910,-0.002447,88.315023,0.004910,
730,380,0.854621,-8.387237,0.999998,0.000190,-0.002428,0.005058,-0.000041,0.005059,-0.002428,-89.683736,0.005060,
1480,480,-0.388809,-8.287622,0.999997,0.000179,-0.002030,0.004463,0.000482,0.004498,-0.002066,85.776942,0.004503,
1790,1440,-1.342935,-2.989900,0.999998,0.000194,-0.002620,0.005160,0.000060,0.005160,-0.002621,89.557655,0.005160,
1480,1710,-0.298986,-1.203384,0.999998,0.000155,-0.001539,0.004150,-0.000128,0.004153,-0.001542,-88.715832,0.004198,
570,650,1.667458,-6.754187,0.999829,0.001496,-0.003800,0.005894,0.000245,0.005900,-0.003806,88.555303,0.005982,
910,560,0.620771,-7.773893,0.999997,0.000206,-0.002636,0.005073,-0.000491,0.005104,-0.002667,-86.372019,0.005106,
1600,1840,-0.331173,-0.754755,0.999998,0.000195,-0.001463,0.004273,0.000417,0.004304,-0.001493,85.864619,0.004370,
1790,470,-1.125274,-7.836883,0.999998,0.000173,-0.002534,0.005093,0.000098,0.005094,-0.002535,89.263090,0.005094,
960,1600,0.421206,-1.713552,0.999998,0.000192,-0.002009,0.004513,0.000372,0.004534,-0.002031,86.741993,0.004542,
1020,1190,0.743711,-3.752708,0.999998,0.000175,-0.003843,0.006875,0.000693,0.006920,-0.003887,86.317201,0.006938,
1090,700,0.221249,-7.572006,0.999996,0.000231,-0.002461,0.004145,-0.001640,0.004529,-0.002846,-76.800423,0.004579,
590,270,1.004658,-8.698928,0.999998,0.000199,-0.002401,0.004932,0.000035,0.004932,-0.002401,89.727024,0.004933,
940,1850,0.224662,-0.668639,0.999997,0.000202,-0.001074,0.003947,-0.000345,0.003970,-0.001097,-86.085239,0.004101,
580,1570,1.381932,-2.468629,0.999997,0.000196,-0.002209,0.005226,-0.000030,0.005226,-0.002209,-89.767361,0.005247,
1360,130,-0.047788,-9.731089,0.999998,0.000169,-0.000368,0.003241,-0.000149,0.003247,-0.000374,-87.635684,0.003553,
1880,1980,-0.386803,-0.379168,0.999997,0.000191,-0.002097,0.006080,0.001631,0.006393,-0.002411,79.127597,0.006458,
560,830,1.983638,-5.864488,0.999998,0.000000,-0.002329,0.004629,0.000008,0.004629,-0.002329,89.932910,0.004629,
1080,1560,0.212085,-1.710056,0.999998,0.000160,-0.001723,0.003954,0.000647,0.004027,-0.001796,83.577160,0.004035,
780,1300,1.292974,-3.596846,0.999997,0.000192,-0.002939,0.005555,-0.000390,0.005573,-0.002957,-87.374838,0.005576,
1180,1740,0.048842,-0.969905,0.999999,0.000141,-0.000917,0.003536,0.000024,0.003536,-0.000917,89.692062,0.003670,
880,560,0.700162,-7.718691,0.999997,0.000191,-0.002714,0.005176,-0.000392,0.005195,-0.002733,-87.162315,0.005197,
930,1600,0.483948,-1.759848,0.999998,0.000194,-0.002187,0.004661,0.000386,0.004683,-0.002209,86.783361,0.004685,
1620,1190,-1.338069,-4.153741,0.999998,0.000184,-0.002825,0.005728,0.000675,0.005781,-0.002878,85.516421,0.005781,
770,2000,0.092555,-0.135760,0.999999,0.000120,-0.000444,0.003727,-0.001093,0.003996,-0.000713,-76.173435,0.004262,
860,1840,0.336776,-0.757521,0.999997,0.000208,-0.001442,0.004286,-0.000473,0.004325,-0.001481,-85.313399,0.004395,
740,940,1.719190,-5.473272,0.999997,0.000188,-0.002255,0.004996,0.000444,0.005023,-0.002282,86.509413,0.005030,
890,1020,1.475124,-5.081476,0.999997,0.000213,-0.001824,0.005484,0.000093,0.005485,-0.001825,89.270509,0.005587,
1560,1660,-0.487848,-1.519058,0.999997,0.000193,-0.002070,0.004645,-0.000191,0.004650,-0.002075,-88.368261,0.004659,
1600,1390,-0.880312,-2.960057,0.999998,0.000156,-0.003126,0.005607,-0.000205,0.005612,-0.003131,-88.657808,0.005624,
710,1460,1.212670,-2.830409,0.999998,0.000177,-0.002673,0.005192,-0.000003,0.005192,-0.002673,-89.977172,0.005193,
1320,770,-0.122247,-7.540367,0.999997,0.000208,-0.002015,0.002878,0.002007,0.003596,-0.002733,70.316164,0.003755,
950,890,1.084697,-5.911171,0.999998,0.000184,-0.003192,0.006567,0.000510,0.006593,-0.003219,87.017899,0.006594,
720,1890,0.444831,-0.634175,0.999998,0.000196,-0.001884,0.004843,-0.000833,0.004944,-0.001986,-83.045999,0.004976,
1790,580,-1.287687,-7.272147,0.999998,0.000168,-0.002610,0.005174,0.000016,0.005174,-0.002610,89.882953,0.005174,
610,1410,1.554068,-3.239456,0.999997,0.000209,-0.002536,0.005056,-0.000091,0.005058,-0.002537,-89.313692,0.005058,
1320,1580,-0.113279,-1.565724,0.999998,0.000161,-0.001415,0.003636,-0.000399,0.003668,-0.001447,-85.513287,0.003695,
700,440,1.016337,-8.032799,0.999998,0.000162,-0.002468,0.005058,-0.000081,0.005059,-0.002468,-89.381330,0.005059,
900,1910,0.176564,-0.447231,0.999998,0.000176,-0.000783,0.003872,-0.000580,0.003943,-0.000855,-83.000738,0.004149,
1420,190,-0.114947,-9.513324,0.999998,0.000203,-0.000820,0.003590,-0.000185,0.003598,-0.000828,-87.596768,0.003769,
1130,810,0.196140,-7.345469,0.999997,0.000209,-0.002523,0.003281,-0.002209,0.004026,-0.003268,-71.361919,0.004279,
1690,290,-0.618972,-8.893360,0.999997,0.000194,-0.002124,0.004865,-0.000227,0.004872,-0.002131,-88.144179,0.004885,
1850,1970,-0.367191,-0.380258,0.999997,0.000192,-0.002356,0.005544,0.001238,0.005734,-0.002545,81.298106,0.005746,
1840,690,-1.598628,-6.634007,0.999997,0.000228,-0.002521,0.005058,-0.000164,0.005062,-0.002525,-88.764716,0.005062,
1530,400,-0.432525,-8.578518,0.999997,0.000207,-0.001881,0.004492,0.000193,0.004498,-0.001887,88.262670,0.004517,
1460,1710,-0.271502,-1.186687,0.999997,0.000187,-0.001375,0.004040,-0.000081,0.004041,-0.001376,-89.146097,0.004109,
1600,1820,-0.363588,-0.840519,0.999998,0.000197,-0.001596,0.004388,0.000368,0.004410,-0.001619,86.493865,0.004462,
1650,130,-0.229748,-9.661469,0.999998,0.000189,-0.001010,0.004102,-0.000845,0.004238,-0.001146,-80.855500,0.004385,
1780,1370,-1.434809,-3.339101,0.999997,0.000217,-0.002640,0.005191,0.000222,0.005197,-0.002647,88.376978,0.005198,
1790,450,-1.098720,-7.940266,0.999998,0.000158,-0.002514,0.005082,0.000104,0.005084,-0.002515,89.216849,0.005084,
570,640,1.655573,-6.810158,0.999829,0.001523,-0.003702,0.005467,0.000322,0.005478,-0.003713,87.991512,0.005593,
1010,1240,0.631173,-3.465729,0.999996,0.000240,-0.003898,0.006392,0.000893,0.006469,-0.003975,85.075840,0.006525,
880,540,0.681451,-7.821791,0.999998,0.000182,-0.002609,0.005104,-0.000381,0.005123,-0.002627,-87.178229,0.005124,
1390,1720,-0.168261,-1.089532,0.999998,0.000139,-0.001198,0.003778,-0.000105,0.003780,-0.001201,-88.790094,0.003863,
780,1280,1.331835,-3.707321,0.999997,0.000187,-0.002916,0.005538,-0.000479,0.005565,-0.002943,-86.765765,0.005568,
1180,1960,0.012162,-0.229424,0.999999,0.000157,-0.000173,0.003099,-0.000067,0.003100,-0.000175,-88.828991,0.003483,
1540,1070,-1.388918,-4.794783,0.999998,0.000206,-0.001984,0.005881,0.000442,0.005906,-0.002009,86.795257,0.006006,
1090,460,0.186123,-8.522411,0.999998,0.000195,-0.001547,0.003887,-0.000453,0.003924,-0.001584,-85.265530,0.003948,
1470,1160,-0.954509,-4.080848,0.999998,0.000210,-0.003517,0.006988,0.000037,0.006988,-0.003517,89.795507,0.006988,
1890,1560,-1.414717,-2.527977,0.999997,0.000212,-0.002432,0.005083,-0.000014,0.005083,-0.002432,-89.889456,0.005085,
1080,1540,0.216838,-1.790560,0.999998,0.000165,-0.001743,0.003970,0.000696,0.004053,-0.001826,83.154599,0.004060,
860,1820,0.368006,-0.842510,0.999998,0.000180,-0.001562,0.004407,-0.000395,0.004433,-0.001588,-86.233036,0.004492,
1560,1640,-0.505888,-1.611353,0.999997,0.000209,-0.002141,0.004695,-0.000229,0.004702,-0.002149,-88.083575,0.004708,
930,1580,0.499626,-1.854056,0.999997,0.000203,-0.002234,0.004714,0.000431,0.004741,-0.002261,86.465409,0.004742,
1080,1470,0.225841,-2.065733,0.999998,0.000142,-0.001940,0.003994,0.000924,0.004135,-0.002081,81.351957,0.004135,
1690,270,-0.583152,-8.992761,0.999997,0.000198,-0.002066,0.004780,-0.000316,0.004795,-0.002081,-87.359220,0.004809,
880,1910,0.194577,-0.453020,0.999997,0.000184,-0.001036,0.003960,-0.000597,0.004031,-0.001106,-83.278859,0.004165,
840,230,0.389396,-9.244788,0.999997,0.000219,-0.001476,0.004444,0.000467,0.004480,-0.001512,85.519993,0.004559,
1750,1280,-1.518368,-3.775824,0.999998,0.000226,-0.002684,0.005226,0.000439,0.005250,-0.002709,86.834555,0.005251,
1020,510,0.327886,-8.215442,0.999997,0.000180,-0.002077,0.004368,-0.000661,0.004435,-0.002144,-84.203026,0.004436,
560,820,1.970355,-5.910715,0.999997,0.000000,-0.002365,0.004663,0.000000,0.004663,-0.002365,89.997214,0.004663,
1790,560,-1.257417,-7.374660,0.999998,0.000188,-0.002617,0.005163,0.000040,0.005163,-0.002617,89.704805,0.005164,
1130,830,0.249029,-7.280522,0.999997,0.000217,-0.002432,0.003178,-0.002092,0.003872,-0.003126,-71.646729,0.004109,
930,1990,0.052629,-0.149754,0.999998,0.000140,-0.000224,0.003392,-0.000555,0.003475,-0.000307,-81.465124,0.003848,
700,420,0.986538,-8.136803,0.999998,0.000156,-0.002463,0.005073,-0.000074,0.005074,-0.002463,-89.437550,0.005074,
590,340,1.132698,-8.352735,0.999998,0.000150,-0.002401,0.004941,-0.000068,0.004942,-0.002402,-89.465725,0.004942,
1310,210,-0.046760,-9.472235,0.999998,0.000194,-0.000650,0.003429,-0.000064,0.003430,-0.000651,-89.103548,0.003644,
1900,1420,-1.657607,-3.259159,0.999997,0.000000,-0.002571,0.005020,0.000012,0.005020,-0.002571,89.911879,0.005020,
1650,150,-0.270697,-9.578938,0.999998,0.000175,-0.001156,0.004266,-0.000790,0.004379,-0.001268,-81.880244,0.004506,
1340,130,-0.038731,-9.734622,0.999999,0.000131,-0.000427,0.003244,-0.000110,0.003247,-0.000430,-88.282692,0.003528,
570,630,1.650527,-6.885413,0.999792,0.001726,-0.003850,0.004405,0.000038,0.004405,-0.003850,89.734940,0.004799,
860,1590,0.654054,-1.916643,0.999997,0.000200,-0.002418,0.004931,0.000259,0.004940,-0.002428,87.982393,0.004940,
1790,430,-1.068515,-8.040916,0.999998,0.000149,-0.002495,0.005052,0.000087,0.005053,-0.002496,89.341573,0.005053,
1390,1260,-0.348017,-3.024141,0.999996,0.000226,-0.003486,0.005196,-0.001927,0.005604,-0.003895,-78.029092,0.005745,
1460,930,-1.051059,-5.785429,0.999997,0.000221,-0.003088,0.007245,0.000036,0.007245,-0.003088,89.799861,0.007271,
890,1000,1.465953,-5.191691,0.999998,0.000216,-0.001880,0.005511,0.000263,0.005520,-0.001890,87.962680,0.005611,
1600,1800,-0.393003,-0.930046,0.999997,0.000195,-0.001682,0.004405,0.000287,0.004418,-0.001696,87.302962,0.004458,
1180,1720,0.053622,-1.041024,0.999999,0.000137,-0.000992,0.003539,0.000037,0.003539,-0.000993,89.531294,0.003651,
740,920,1.695944,-5.572355,0.999997,0.000177,-0.002311,0.005007,0.000448,0.005034,-0.002338,86.506140,0.005039,
780,1260,1.372612,-3.819741,0.999997,0.000219,-0.002883,0.005522,-0.000531,0.005555,-0.002916,-86.399481,0.005558,
1890,1550,-1.428463,-2.578717,0.999998,0.000191,-0.002456,0.005107,-0.000014,0.005107,-0.002456,-89.896552,0.005108,
930,580,0.586499,-7.712363,0.999998,0.000203,-0.002727,0.005072,-0.000588,0.005117,-0.002771,-85.714345,0.005122,
1440,1690,-0.254093,-1.249588,0.999998,0.000169,-0.001482,0.004087,-0.000175,0.004092,-0.001487,-88.203551,0.004143,
1090,620,0.208703,-7.897365,0.999998,0.000160,-0.002010,0.003927,-0.001106,0.004126,-0.002209,-79.779050,0.004130,
1080,1520,0.220501,-1.867932,0.999998,0.000177,-0.001774,0.003974,0.000723,0.004064,-0.001863,82.935457,0.004069,
800,1330,1.176364,-3.403129,0.999997,0.000217,-0.003020,0.005612,-0.000251,0.005619,-0.003027,-88.338703,0.005625,
880,520,0.660433,-7.923539,0.999998,0.000205,-0.002540,0.005023,-0.000355,0.005040,-0.002557,-87.317379,0.005040,
1580,1070,-1.464609,-4.808786,0.999997,0.000207,-0.001940,0.005471,0.000404,0.005493,-0.001962,86.890696,0.005567,
1440,460,-0.298425,-8.438611,0.999997,0.000194,-0.001797,0.004256,0.000487,0.004295,-0.001836,85.426375,0.004310,
1750,1260,-1.555060,-3.878183,0.999998,0.000187,-0.002660,0.005174,0.000488,0.005204,-0.002691,86.448027,0.005205,
1690,250,-0.545661,-9.084403,0.999998,0.000185,-0.001992,0.004773,-0.000402,0.004797,-0.002016,-86.607346,0.004817,
700,270,0.739694,-8.895238,0.999999,0.000178,-0.002368,0.005030,0.000196,0.005035,-0.002374,88.485334,0.005038,
1480,680,-0.516894,-7.316797,0.999997,0.000221,-0.003186,0.005402,0.000941,0.005504,-0.003287,83.820295,0.005538,
1390,610,-0.242980,-7.894955,0.999997,0.000183,-0.002139,0.004134,0.001126,0.004330,-0.002335,80.126430,0.004335,
1060,190,0.100907,-9.519866,0.999998,0.000137,-0.000750,0.003529,0.000165,0.003535,-0.000757,87.800233,0.003723,
1020,1450,0.364114,-2.287633,0.999997,0.000197,-0.002531,0.004656,0.001006,0.004794,-0.002670,82.178280,0.004804,
1020,490,0.318896,-8.304020,0.999998,0.000193,-0.001999,0.004339,-0.000603,0.004396,-0.002056,-84.617613,0.004399,
1740,1890,-0.438771,-0.631338,0.999997,0.000188,-0.001849,0.004831,0.000835,0.004934,-0.001952,82.978573,0.004970,
1130,850,0.318023,-7.220671,0.999996,0.000236,-0.002122,0.002746,-0.001680,0.003269,-0.002645,-72.692156,0.003471,
880,1890,0.227974,-0.535954,0.999997,0.000217,-0.001162,0.004045,-0.000561,0.004105,-0.001222,-83.916325,0.004215,
1650,590,-0.923527,-7.440719,0.999998,0.000177,-0.002800,0.005326,0.000162,0.005330,-0.002803,88.861503,0.005332,
1470,1720,-0.277643,-1.153839,0.999998,0.000158,-0.001398,0.004095,-0.000053,0.004096,-0.001398,-89.449421,0.004164,
1630,900,-1.437202,-5.720212,0.999997,0.000193,-0.002544,0.005516,-0.000671,0.005572,-0.002600,-85.276723,0.005576,
700,640,1.311316,-6.999936,0.999998,0.000189,-0.002707,0.005212,0.000114,0.005214,-0.002709,89.176520,0.005215,
1310,190,-0.042297,-9.541529,0.999998,0.000201,-0.000567,0.003397,-0.000075,0.003399,-0.000568,-88.912817,0.003641,
1850,1950,-0.458460,-0.484226,0.999997,0.000204,-0.002412,0.005334,0.000924,0.005442,-0.002521,83.289128,0.005447,
610,1390,1.588454,-3.337529,0.999997,0.000208,-0.002515,0.005028,-0.000108,0.005029,-0.002516,-89.181180,0.005029,
860,1800,0.398801,-0.932728,0.999998,0.000168,-0.001656,0.004395,-0.000309,0.004410,-0.001672,-87.086577,0.004453,
960,1580,0.433802,-1.802988,0.999997,0.000195,-0.002132,0.004550,0.000456,0.004581,-0.002163,86.110592,0.004584,
1790,410,-1.039906,-8.142998,0.999998,0.000159,-0.002475,0.005053,0.000076,0.005053,-0.002476,89.423613,0.005054,
930,1970,0.081368,-0.222528,0.999998,0.000147,-0.000340,0.003466,-0.000556,0.003546,-0.000419,-81.851546,0.003875,
1560,1620,-0.526905,-1.706492,0.999997,0.000210,-0.002193,0.004725,-0.000257,0.004734,-0.002203,-87.874844,0.004738,
840,1590,0.701727,-1.948581,0.999997,0.000193,-0.002430,0.004962,0.000240,0.004970,-0.002437,88.143389,0.004970,
760,1790,0.600092,-1.080064,0.999997,0.000208,-0.002002,0.004858,-0.000360,0.004877,-0.002021,-87.002624,0.004901,
570,1400,1.687556,-3.350720,0.999853,0.001520,-0.003742,0.005221,-0.000032,0.005221,-0.003743,-89.792780,0.005382,
1390,1240,-0.387963,-3.131951,0.999996,0.000231,-0.003577,0.005438,-0.001913,0.005827,-0.003966,-78.504758,0.005952,
1740,290,-0.723347,-8.830204,0.999997,0.000205,-0.002298,0.005000,-0.000191,0.005005,-0.002303,-88.498883,0.005010,
560,810,1.953723,-5.959840,0.999996,0.000000,-0.002472,0.004573,-0.000066,0.004573,-0.002473,-89.467283,0.004578,
1320,1330,-0.112763,-2.410127,0.999998,0.000189,-0.001798,0.003037,-0.001660,0.003552,-0.002313,-72.763013,0.003606,
1900,1410,-1.673778,-3.309077,0.999997,0.000000,-0.002541,0.005030,0.000019,0.005030,-0.002541,89.853537,0.005030,
1260,250,-0.023371,-9.341759,0.999999,0.000133,-0.000763,0.003413,0.000004,0.003413,-0.000763,89.942064,0.003583,
1450,1600,-0.317243,-1.635753,0.999998,0.000182,-0.001881,0.004274,-0.000475,0.004311,-0.001918,-85.614883,0.004320,
590,330,1.115034,-8.401877,0.999997,0.000180,-0.002406,0.004945,-0.000054,0.004945,-0.002406,-89.576415,0.004946,
1090,600,0.207566,-7.973532,0.999998,0.000180,-0.001913,0.003925,-0.001008,0.004094,-0.002082,-80.476089,0.004094,
760,510,0.959251,-7.772956,0.999998,0.000152,-0.002611,0.005159,-0.000140,0.005162,-0.002614,-88.965708,0.005162,
1880,1550,-1.404556,-2.563447,0.999997,0.000193,-0.002491,0.005111,-0.000023,0.005111,-0.002491,-89.825220,0.005112,
1600,1780,-0.422547,-1.017247,0.999998,0.000184,-0.001792,0.004450,0.000212,0.004457,-0.001799,88.056625,0.004485,
1840,630,-1.497364,-6.939978,0.999997,0.000221,-0.002545,0.005086,-0.000070,0.005086,-0.002546,-89.472124,0.005086,
1080,1500,0.222421,-1.949466,0.999998,0.000167,-0.001821,0.003968,0.000796,0.004076,-0.001929,82.313133,0.004078,
1180,1680,0.055494,-1.181535,0.999998,0.000143,-0.001095,0.003570,0.000067,0.003571,-0.001096,89.171533,0.003659,
780,1240,1.412428,-3.928086,0.999997,0.000220,-0.002841,0.005431,-0.000556,0.005468,-0.002878,-86.170979,0.005471,
1600,1190,-1.280414,-4.135212,0.999997,0.000178,-0.002894,0.005856,0.000681,0.005908,-0.002947,85.575365,0.005908,
880,500,0.639667,-8.022521,0.999997,0.000211,-0.002503,0.004950,-0.000353,0.004967,-0.002519,-87.295139,0.004967,
1610,1320,-1.029836,-3.380042,0.999997,0.000203,-0.003225,0.005810,0.000104,0.005811,-0.003226,89.342309,0.005823,
1560,1070,-1.426821,-4.803230,0.999997,0.000232,-0.001931,0.005655,0.000454,0.005682,-0.001958,86.588517,0.005772,
1200,1250,0.051749,-2.386899,0.999998,0.000204,-0.001724,0.001202,0.000813,0.001413,-0.001935,75.463862,0.002002,
1040,190,0.117237,-9.512989,0.999998,0.000186,-0.000844,0.003579,0.000202,0.003588,-0.000854,87.389694,0.003749,
1080,390,0.182193,-8.784733,0.999998,0.000167,-0.001357,0.003858,-0.000226,0.003868,-0.001367,-87.525283,0.003923,
1460,50,-0.024284,-9.984474,0.999999,0.000135,-0.000083,0.003120,-0.000357,0.003159,-0.000122,-83.717380,0.003580,
1480,1940,-0.085903,-0.315392,0.999998,0.000196,-0.000479,0.003514,0.000393,0.003552,-0.000517,84.434160,0.003838,
1630,880,-1.399928,-5.831230,0.999997,0.000189,-0.002696,0.005623,-0.000690,0.005680,-0.002753,-85.291144,0.005681,
1600,1770,-0.437220,-1.063426,0.999998,0.000166,-0.001823,0.004491,0.000178,0.004496,-0.001828,88.383106,0.004523,
1690,230,-0.504467,-9.183952,0.999997,0.000192,-0.001918,0.004725,-0.000493,0.004761,-0.001954,-85.776908,0.004787,
1780,510,-1.157479,-7.647989,0.999998,0.000147,-0.002581,0.005177,0.000071,0.005178,-0.002581,89.475293,0.005178,
740,900,1.670932,-5.674231,0.999998,0.000182,-0.002384,0.005143,0.000546,0.005182,-0.002424,85.872447,0.005186,
610,1370,1.621955,-3.439248,0.999997,0.000207,-0.002501,0.005062,-0.000110,0.005064,-0.002503,-89.168803,0.005064,
1650,570,-0.895732,-7.546027,0.999998,0.000174,-0.002746,0.005281,0.000198,0.005285,-0.002751,88.587608,0.005287,
1130,1630,0.125369,-1.390637,0.999998,0.000167,-0.001365,0.003709,0.000322,0.003729,-0.001386,86.380647,0.003770,
1740,1870,-0.492657,-0.727505,0.999998,0.000177,-0.001956,0.004820,0.000706,0.004893,-0.002029,84.115997,0.004916,
930,1950,0.101729,-0.289574,0.999998,0.000167,-0.000455,0.003583,-0.000542,0.003655,-0.000527,-82.481953,0.003952,
1790,390,-1.010356,-8.243619,0.999998,0.000164,-0.002455,0.005050,0.000046,0.005050,-0.002456,89.651804,0.005050,
1490,1680,-0.338273,-1.342594,0.999998,0.000166,-0.001772,0.004298,-0.000234,0.004307,-0.001781,-87.791148,0.004329,
1370,1240,-0.316091,-3.003391,0.999997,0.000240,-0.003302,0.004735,-0.002182,0.005289,-0.003856,-75.750287,0.005471,
700,400,0.957779,-8.235393,0.999998,0.000174,-0.002467,0.005085,-0.000071,0.005086,-0.002468,-89.462507,0.005086,
1720,290,-0.680670,-8.856532,0.999998,0.000160,-0.002106,0.004951,-0.000275,0.004962,-0.002116,-87.768350,0.004980,
660,1590,1.151542,-2.237543,0.999998,0.000188,-0.002538,0.005091,0.000089,0.005092,-0.002539,89.331728,0.005092,
760,530,0.986648,-7.669489,0.999998,0.000150,-0.002634,0.005177,-0.000136,0.005179,-0.002637,-89.002639,0.005180,
560,430,1.312883,-7.866912,0.999937,0.000000,-0.001473,0.004984,0.000250,0.004993,-0.001483,87.786037,0.005129,
1600,1760,-0.451843,-1.109337,0.999998,0.000172,-0.001848,0.004501,0.000135,0.004504,-0.001851,88.781475,0.004528,
870,70,0.080455,-9.901729,0.999999,0.000135,-0.000488,0.003595,0.000781,0.003739,-0.000632,79.530422,0.004003,
630,760,1.704556,-6.293253,0.999998,0.000161,-0.002469,0.004949,0.000272,0.004959,-0.002479,87.905440,0.004959,
1180,1660,0.058265,-1.255111,0.999998,0.000152,-0.001126,0.003572,0.000073,0.003573,-0.001127,89.114437,0.003653,
1850,1930,-0.536882,-0.594067,0.999997,0.000198,-0.002435,0.005355,0.000676,0.005413,-0.002493,85.079615,0.005418,
1080,1480,0.224602,-2.026232,0.999998,0.000153,-0.001890,0.003954,0.000872,0.004082,-0.002017,81.688045,0.004082,
660,630,1.400594,-6.993297,0.999998,0.000186,-0.002617,0.005113,0.000096,0.005114,-0.002618,89.288988,0.005115,
1170,460,0.075216,-8.589819,0.999998,0.000171,-0.001266,0.003564,-0.000199,0.003572,-0.001274,-87.649879,0.003620,
1390,1310,-0.286944,-2.776267,0.999997,0.000199,-0.003020,0.004760,-0.001840,0.005174,-0.003433,-77.341878,0.005265,
1310,170,-0.037011,-9.608358,0.999998,0.000162,-0.000492,0.003283,-0.000082,0.003285,-0.000493,-88.757108,0.003543,
1450,1580,-0.326880,-1.722592,0.999997,0.000197,-0.001970,0.004312,-0.000543,0.004358,-0.002016,-85.097481,0.004363,
780,1460,1.022965,-2.719904,0.999998,0.000142,-0.002787,0.005329,0.000077,0.005330,-0.002788,89.459709,0.005332,
1580,1190,-1.222439,-4.115166,0.999998,0.000180,-0.003016,0.006012,0.000656,0.006059,-0.003063,85.864613,0.006059,
1870,1550,-1.379262,-2.548507,0.999997,0.000216,-0.002520,0.005112,-0.000033,0.005112,-0.002520,-89.751294,0.005113,
690,1400,1.364262,-3.173019,0.999996,0.000218,-0.002689,0.005212,-0.000159,0.005216,-0.002692,-88.844926,0.005217,
1200,1350,0.031587,-2.221795,0.999999,0.000137,-0.001097,0.002231,0.000648,0.002353,-0.001218,79.355397,0.002353,
1600,1970,-0.110962,-0.232206,0.999998,0.000149,-0.000545,0.003631,0.000754,0.003763,-0.000677,80.074979,0.004012,
1400,190,-0.098084,-9.521411,0.999998,0.000211,-0.000738,0.003553,-0.000172,0.003560,-0.000745,-87.705459,0.003755,
1560,1600,-0.544725,-1.802840,0.999998,0.000190,-0.002232,0.004730,-0.000310,0.004743,-0.002246,-87.459366,0.004746,
1540,690,-0.723387,-7.102043,0.999998,0.000222,-0.003313,0.005692,0.000476,0.005717,-0.003339,86.982127,0.005744,
1800,1510,-1.260336,-2.644225,0.999998,0.000183,-0.002578,0.005134,-0.000044,0.005134,-0.002578,-89.674944,0.005134,
1400,590,-0.260513,-7.956694,0.999998,0.000160,-0.002145,0.004193,0.001007,0.004349,-0.002301,81.189601,0.004352,
1730,1370,-1.298420,-3.272279,0.999997,0.000213,-0.002810,0.005349,0.000214,0.005354,-0.002816,88.495995,0.005357,
1340,250,-0.085844,-9.324448,0.999998,0.000149,-0.000897,0.003515,0.000005,0.003515,-0.000897,89.938340,0.003653,
1770,1130,-1.808477,-4.546666,0.999998,0.000190,-0.002281,0.004842,0.000370,0.004861,-0.002300,87.036713,0.004864,
1660,610,-0.978992,-7.315740,0.999998,0.000162,-0.002838,0.005377,0.000115,0.005378,-0.002839,89.198658,0.005381,
1690,210,-0.466190,-9.273976,0.999997,0.000202,-0.001818,0.004688,-0.000603,0.004743,-0.001874,-84.751805,0.004778,
880,480,0.619616,-8.120872,0.999997,0.000200,-0.002448,0.004909,-0.000338,0.004924,-0.002464,-87.371892,0.004924,
1650,550,-0.870717,-7.653294,0.999998,0.000179,-0.002697,0.005239,0.000219,0.005245,-0.002703,88.418783,0.005246,
940,1210,0.981988,-3.893130,0.999998,0.000164,-0.003538,0.006499,-0.000278,0.006507,-0.003546,-88.415845,0.006515,
1620,830,-1.260766,-6.127345,0.999997,0.000199,-0.003016,0.005799,-0.000588,0.005838,-0.003056,-86.198370,0.005840,
1600,1750,-0.463169,-1.152955,0.999998,0.000182,-0.001882,0.004525,0.000101,0.004526,-0.001884,89.098914,0.004547,
1790,370,-0.978542,-8.346145,0.999998,0.000180,-0.002415,0.005092,0.000007,0.005092,-0.002415,89.950123,0.005094,
1130,1610,0.128525,-1.463836,0.999998,0.000167,-0.001381,0.003712,0.000328,0.003733,-0.001402,86.333244,0.003772,
920,1280,0.879792,-3.489983,0.999997,0.000213,-0.003583,0.006190,0.000066,0.006191,-0.003584,89.614945,0.006216,
1720,1870,-0.457955,-0.709311,0.999997,0.000192,-0.001630,0.004736,0.000816,0.004839,-0.001733,82.812214,0.004903,
1500,1310,-0.668632,-3.194003,0.999996,0.000230,-0.003607,0.005986,-0.000611,0.006025,-0.003646,-86.368821,0.006069,
560,800,1.939405,-6.005136,0.999995,0.000000,-0.002586,0.004446,-0.000126,0.004448,-0.002589,-88.975676,0.004468,
1900,1400,-1.690151,-3.360024,0.999997,0.000000,-0.002509,0.005084,0.000016,0.005084,-0.002509,89.876970,0.005084,
1080,1460,0.227138,-2.104938,0.999998,0.000145,-0.001991,0.004042,0.000992,0.004201,-0.002150,80.895191,0.004201,
1490,1660,-0.354669,-1.429829,0.999997,0.000207,-0.001834,0.004365,-0.000266,0.004376,-0.001846,-87.546891,0.004394,
830,970,1.555630,-5.337829,0.999997,0.000213,-0.002099,0.005282,0.000451,0.005309,-0.002127,86.514356,0.005344,
760,1330,1.293591,-3.454863,0.999997,0.000199,-0.002870,0.005472,-0.000315,0.005483,-0.002882,-87.840798,0.005486,
610,1350,1.656896,-3.540521,0.999997,0.000200,-0.002481,0.005036,-0.000132,0.005038,-0.002483,-88.994348,0.005039,
700,360,0.898034,-8.441239,0.999998,0.000160,-0.002416,0.005042,-0.000011,0.005042,-0.002416,-89.911681,0.005043,
1030,1720,0.228002,-1.125086,0.999998,0.000170,-0.001433,0.003948,0.000113,0.003950,-0.001435,88.794237,0.003999,
960,1560,0.446834,-1.896166,0.999997,0.000201,-0.002251,0.004646,0.000536,0.004687,-0.002292,85.585482,0.004687,
1310,150,-0.031146,-9.672455,0.999998,0.000151,-0.000402,0.003268,-0.000089,0.003270,-0.000405,-88.611746,0.003566,
1600,1740,-0.474786,-1.196840,0.999997,0.000185,-0.001906,0.004606,0.000091,0.004608,-0.001908,89.202087,0.004630,
780,1220,1.451175,-4.035327,0.999997,0.000194,-0.002762,0.005434,-0.000606,0.005478,-0.002807,-85.792363,0.005479,
1180,1640,0.062001,-1.326727,0.999998,0.000165,-0.001169,0.003563,0.000093,0.003565,-0.001171,88.875924,0.003634,
1640,1710,-0.592258,-1.385620,0.999996,0.000221,-0.002062,0.004805,0.000056,0.004806,-0.002062,89.533470,0.004822,
620,1590,1.253001,-2.303292,0.999998,0.000173,-0.002523,0.005100,0.000076,0.005101,-0.002523,89.429258,0.005101,
1740,650,-1.266134,-6.978737,0.999997,0.000183,-0.002747,0.005283,-0.000139,0.005285,-0.002749,-89.010348,0.005286,
1460,1780,-0.219119,-0.906026,0.999998,0.000152,-0.001118,0.003950,0.000113,0.003952,-0.001121,88.724838,0.004074,
1790,1260,-1.659166,-3.917308,0.999997,0.000209,-0.002518,0.005027,0.000420,0.005050,-0.002542,86.826326,0.005050,
1800,1950,-0.356656,-0.397386,0.999997,0.000205,-0.001392,0.004994,0.001520,0.005338,-0.001735,77.270374,0.005445,
1090,680,0.218144,-7.654346,0.999997,0.000205,-0.002345,0.004061,-0.001500,0.004395,-0.002679,-77.453206,0.004430,
1200,190,0.017619,-9.545687,0.999998,0.000174,-0.000569,0.003316,0.000021,0.003316,-0.000569,89.689568,0.003546,
1540,710,-0.751783,-6.988462,0.999998,0.000186,-0.003399,0.005799,0.000413,0.005818,-0.003418,87.434220,0.005847,
1560,1580,-0.562356,-1.895797,0.999997,0.000199,-0.002300,0.004780,-0.000327,0.004795,-0.002315,-87.364853,0.004796,
1400,490,-0.239492,-8.364400,0.999997,0.000185,-0.001737,0.004038,0.000560,0.004092,-0.001791,84.508944,0.004103,
910,1400,0.718324,-2.809098,0.999998,0.000201,-0.003115,0.005511,0.000462,0.005536,-0.003140,86.943033,0.005553,
920,1210,1.049958,-3.936389,0.999997,0.000222,-0.003389,0.006335,-0.000409,0.006352,-0.003406,-87.597103,0.006358,
820,1820,0.429134,-0.871907,0.999998,0.000184,-0.001601,0.004582,-0.000485,0.004619,-0.001639,-85.545756,0.004684,
630,110,0.438749,-9.609837,0.999996,0.000225,-0.002293,0.005321,0.000934,0.005434,-0.002406,83.106614,0.005445,
1320,1350,-0.111801,-2.347873,0.999998,0.000163,-0.001728,0.003072,-0.001507,0.003506,-0.002162,-73.937292,0.003537,
1650,530,-0.846313,-7.756559,0.999998,0.000143,-0.002646,0.005123,0.000211,0.005129,-0.002651,88.444001,0.005130,
1670,920,-1.572646,-5.592176,0.999997,0.000203,-0.002397,0.005296,-0.000567,0.005337,-0.002438,-85.808450,0.005344,
1790,350,-0.944992,-8.448437,0.999998,0.000165,-0.002404,0.005081,0.000005,0.005081,-0.002404,89.964181,0.005083,
1770,1110,-1.830908,-4.645940,0.999998,0.000171,-0.002242,0.004860,0.000383,0.004881,-0.002263,86.919932,0.004885,
1440,440,-0.291921,-8.522261,0.999997,0.000186,-0.001691,0.004173,0.000376,0.004197,-0.001715,86.345039,0.004220,
1680,330,-0.659302,-8.712380,0.999997,0.000208,-0.002215,0.004931,-0.000079,0.004932,-0.002216,-89.365036,0.004941,
820,1830,0.410380,-0.828045,0.999998,0.000158,-0.001554,0.004511,-0.000517,0.004554,-0.001598,-85.162858,0.004622,
1040,100,0.050568,-9.822961,0.999999,0.000162,-0.000418,0.003302,0.000272,0.003322,-0.000438,85.840927,0.003610,
1660,1390,-1.061438,-3.064183,0.999998,0.000173,-0.002977,0.005496,0.000040,0.005496,-0.002977,89.727885,0.005503,
1630,1640,-0.661223,-1.712573,0.999998,0.000200,-0.002303,0.004893,-0.000137,0.004896,-0.002306,-88.910559,0.004899,
1500,1290,-0.703677,-3.315670,0.999996,0.000211,-0.003678,0.006186,-0.000544,0.006216,-0.003708,-86.851268,0.006254,
970,980,1.282291,-5.353693,0.999997,0.000178,-0.002239,0.006646,0.000360,0.006661,-0.002254,87.685227,0.006776,
1850,1910,-0.611161,-0.698427,0.999997,0.000195,-0.002451,0.005215,0.000510,0.005248,-0.002485,86.211321,0.005251,
1720,1770,-0.671985,-1.198636,0.999998,0.000216,-0.002112,0.004943,0.000289,0.004955,-0.002123,87.661028,0.004972,
1310,130,-0.027549,-9.739650,0.999999,0.000155,-0.000341,0.003251,-0.000090,0.003253,-0.000343,-88.557947,0.003575,
1260,130,-0.009926,-9.740846,0.999998,0.000170,-0.000350,0.003168,-0.000012,0.003168,-0.000350,-89.798306,0.003474,
1520,1200,-1.001604,-3.952861,0.999998,0.000184,-0.003485,0.006513,0.000339,0.006524,-0.003496,88.060562,0.006530,
1500,710,-0.616907,-7.091952,0.999996,0.000258,-0.003388,0.005741,0.000753,0.005803,-0.003450,85.318935,0.005837,
1390,1290,-0.305254,-2.871969,0.999997,0.000213,-0.003196,0.004920,-0.001906,0.005346,-0.003621,-77.423552,0.005457,
760,370,0.769795,-8.481399,0.999997,0.000180,-0.002281,0.004963,0.000011,0.004963,-0.002281,89.916528,0.004969,
1720,770,-1.427632,-6.362154,0.999998,0.000190,-0.002806,0.005412,-0.000451,0.005437,-0.002831,-86.868125,0.005439,
1850,560,-1.411656,-7.280041,0.999997,0.000215,-0.002543,0.005121,-0.000007,0.005121,-0.002543,-89.947145,0.005121,
1550,940,-1.324715,-5.545299,0.999998,0.000178,-0.002395,0.005989,-0.000712,0.006050,-0.002455,-85.177800,0.006085,
1080,1440,0.227342,-2.186975,0.999998,0.000159,-0.002090,0.004069,0.001118,0.004266,-0.002287,80.027148,0.004269,
850,1170,1.363637,-4.264745,0.999998,0.000203,-0.002683,0.005717,-0.000719,0.005778,-0.002744,-85.143097,0.005781,
1690,190,-0.420063,-9.372529,0.999997,0.000191,-0.001694,0.004652,-0.000701,0.004728,-0.001770,-83.774954,0.004778,
1900,1510,-1.513258,-2.797271,0.999997,0.000000,-0.002542,0.005095,0.000064,0.005095,-0.002542,89.522136,0.005095,
1740,2010,-0.080243,-0.101849,0.999998,0.000187,-0.000480,0.004019,0.001448,0.004445,-0.000906,73.615378,0.004698,
1770,1260,-1.607891,-3.897456,0.999997,0.000208,-0.002600,0.005097,0.000443,0.005122,-0.002626,86.714684,0.005123,
760,670,1.196122,-6.924657,0.999998,0.000215,-0.002863,0.005382,0.000139,0.005384,-0.002865,89.033408,0.005388,
600,1590,1.302970,-2.334797,0.999997,0.000188,-0.002493,0.005089,0.000061,0.005089,-0.002493,89.535902,0.005090,
610,1330,1.691268,-3.640731,0.999998,0.000179,-0.002476,0.004956,-0.000183,0.004960,-0.002480,-88.586894,0.004960,
1460,1740,-0.248182,-1.063882,0.999998,0.000162,-0.001271,0.004015,0.000008,0.004015,-0.001271,89.916718,0.004104,
1470,620,-0.441570,-7.652945,0.999996,0.000213,-0.002673,0.004915,0.000910,0.005023,-0.002781,83.256680,0.005032,
1340,690,-0.145553,-7.720939,0.999998,0.000166,-0.001919,0.003475,0.001480,0.003854,-0.002298,75.622726,0.003878,
970,1560,0.424510,-1.879111,0.999997,0.000197,-0.002188,0.004600,0.000532,0.004641,-0.002229,85.549162,0.004642,
590,1280,1.827735,-3.914217,0.999998,0.000166,-0.002401,0.004837,-0.000162,0.004841,-0.002404,-88.716344,0.004841,
880,900,1.317477,-5.751202,0.999998,0.000197,-0.002690,0.005858,0.000728,0.005920,-0.002752,85.167406,0.005925,
620,1730,1.034797,-1.596173,0.999998,0.000194,-0.002388,0.005011,0.000038,0.005011,-0.002388,89.704002,0.005013,
1800,1930,-0.430068,-0.501628,0.999997,0.000198,-0.001702,0.005168,0.001298,0.005405,-0.001940,79.648302,0.005477,
960,1540,0.459550,-1.991335,0.999997,0.000197,-0.002375,0.004692,0.000560,0.004736,-0.002419,85.500055,0.004737,
1440,190,-0.131571,-9.507462,0.999998,0.000245,-0.000763,0.003655,-0.000248,0.003669,-0.000777,-86.790847,0.003867,
1560,1560,-0.578041,-1.993151,0.999997,0.000207,-0.002397,0.004873,-0.000388,0.004893,-0.002418,-86.951404,0.004893,
1650,920,-1.525701,-5.600605,0.999998,0.000191,-0.002400,0.005404,-0.000639,0.005456,-0.002452,-85.351577,0.005466,
1370,1980,-0.023886,-0.171427,0.999999,0.000151,-0.000176,0.003144,0.000215,0.003158,-0.000190,86.317061,0.003542,
1160,390,0.080778,-8.838081,0.999998,0.000154,-0.001167,0.003601,-0.000123,0.003604,-0.001170,-88.517993,0.003677,
630,90,0.348025,-9.715742,0.999997,0.000207,-0.002179,0.005308,0.001238,0.005508,-0.002379,80.849102,0.005525,
1780,1170,-1.784116,-4.357510,0.999997,0.000190,-0.002378,0.004910,0.000461,0.004939,-0.002407,86.395512,0.004939,
1730,1350,-1.333320,-3.379944,0.999997,0.000233,-0.002822,0.005361,0.000290,0.005372,-0.002832,87.971963,0.005374,
920,1260,0.925155,-3.618721,0.999997,0.000199,-0.003559,0.006296,-0.000076,0.006296,-0.003560,-89.558221,0.006314,
1790,330,-0.914086,-8.548435,0.999998,0.000173,-0.002404,0.004997,-0.000002,0.004997,-0.002404,-89.988127,0.004998,
1780,190,-0.593250,-9.271981,0.999997,0.000189,-0.002184,0.005033,-0.000652,0.005092,-0.002242,-84.882894,0.005104,
1750,900,-1.734068,-5.662682,0.999998,0.000186,-0.002377,0.005029,-0.000468,0.005059,-0.002406,-86.399395,0.005061,
1290,750,-0.065836,-7.707011,0.999997,0.000196,-0.001440,0.002202,0.001418,0.002689,-0.001927,71.051259,0.002772,
1770,1090,-1.849776,-4.741692,0.999998,0.000166,-0.002215,0.004785,0.000243,0.004794,-0.002223,88.016089,0.004798,
1030,1810,0.166776,-0.777234,0.999998,0.000179,-0.001069,0.003779,-0.000115,0.003782,-0.001072,-88.637680,0.003898,
590,1650,1.238254,-2.048966,0.999998,0.000175,-0.002250,0.004954,0.000018,0.004954,-0.002250,89.859314,0.004961,
1650,510,-0.821551,-7.857502,0.999998,0.000171,-0.002599,0.005166,0.000219,0.005172,-0.002605,88.383963,0.005172,
820,1800,0.463238,-0.965680,0.999997,0.000187,-0.001728,0.004603,-0.000397,0.004628,-0.001752,-86.427124,0.004673,
950,980,1.324557,-5.335027,0.999998,0.000157,-0.002080,0.006291,0.000443,0.006315,-0.002104,86.977193,0.006431,
1430,1680,-0.246165,-1.281621,0.999999,0.000180,-0.001523,0.004098,-0.000211,0.004106,-0.001530,-87.850780,0.004150,
1500,610,-0.517614,-7.631013,0.999997,0.000203,-0.002824,0.005094,0.000774,0.005169,-0.002899,84.470184,0.005182,
1310,110,-0.020496,-9.803016,0.999999,0.000159,-0.000272,0.003146,-0.000118,0.003150,-0.000276,-88.032312,0.003489,
1500,690,-0.591201,-7.205331,0.999998,0.000185,-0.003259,0.005598,0.000786,0.005667,-0.003328,84.966237,0.005696,
850,1130,1.444865,-4.490752,0.999997,0.000215,-0.002380,0.005600,-0.000697,0.005660,-0.002441,-85.043249,0.005678,
1520,1180,-1.056798,-4.082478,0.999998,0.000180,-0.003316,0.006484,0.000487,0.006508,-0.003340,87.160633,0.006509,
1720,1130,-1.694060,-4.529563,0.999997,0.000198,-0.002303,0.005006,0.000423,0.005030,-0.002327,86.702238,0.005035,
660,410,1.071924,-8.122052,0.999998,0.000165,-0.002509,0.005072,-0.000072,0.005072,-0.002509,-89.455881,0.005072,
730,1900,0.399429,-0.575197,0.999997,0.000210,-0.001583,0.004704,-0.000962,0.004848,-0.001727,-81.491817,0.004914,
1730,680,-1.290274,-6.833673,0.999998,0.000170,-0.002813,0.005320,-0.000188,0.005324,-0.002817,-88.675743,0.005327,
1550,1320,-0.827612,-3.262899,0.999996,0.000221,-0.003471,0.005969,-0.000246,0.005975,-0.003477,-88.510935,0.006002,
1600,1720,-0.502740,-1.293437,0.999997,0.000176,-0.001954,0.004687,0.000056,0.004688,-0.001954,89.521101,0.004709,
1340,450,-0.137741,-8.591347,0.999998,0.000157,-0.001365,0.003716,0.000330,0.003737,-0.001387,86.299190,0.003778,
690,1820,0.689706,-1.024466,0.999997,0.000185,-0.002325,0.004996,-0.000370,0.005015,-0.002343,-87.117864,0.005019,
750,320,0.716405,-8.717097,0.999998,0.000177,-0.002189,0.004910,0.000132,0.004912,-0.002191,88.936838,0.004922,
1450,1110,-1.075835,-4.366495,0.999997,0.000182,-0.003014,0.007678,-0.000364,0.007690,-0.003027,-88.053564,0.007748,
1450,1360,-0.435330,-2.753457,0.999997,0.000221,-0.003136,0.005259,-0.001195,0.005426,-0.003303,-82.052230,0.005468,
1270,1380,-0.042694,-2.158388,0.999998,0.000145,-0.001220,0.002566,-0.000648,0.002674,-0.001328,-80.555744,0.002674,
1850,840,-1.878170,-5.887021,0.999998,0.000168,-0.002322,0.004693,-0.000261,0.004703,-0.002331,-87.870998,0.004703,
630,70,0.254857,-9.824741,0.999997,0.000190,-0.002039,0.005219,0.001394,0.005477,-0.002297,79.489272,0.005501,
1400,530,-0.249002,-8.203991,0.999997,0.000191,-0.001809,0.004104,0.000673,0.004180,-0.001884,83.590156,0.004186,
950,1560,0.469772,-1.913291,0.999997,0.000199,-0.002278,0.004688,0.000524,0.004727,-0.002317,85.724331,0.004727,
850,1400,0.904153,-2.928698,0.999998,0.000158,-0.003058,0.005525,0.000176,0.005529,-0.003061,88.822599,0.005539,
1340,190,-0.061789,-9.534448,0.999998,0.000185,-0.000666,0.003451,-0.000069,0.003452,-0.000667,-89.040417,0.003662,
590,640,1.596041,-6.837484,0.999997,0.000237,-0.002696,0.005094,0.000123,0.005096,-0.002698,89.095504,0.005099,
960,1520,0.474464,-2.086471,0.999998,0.000183,-0.002430,0.004753,0.000617,0.004806,-0.002483,85.127794,0.004807,
1790,310,-0.881442,-8.647982,0.999998,0.000163,-0.002397,0.005050,-0.000082,0.005050,-0.002398,-89.370797,0.005053,
1560,1540,-0.596123,-2.090837,0.999998,0.000207,-0.002522,0.004925,-0.000438,0.004950,-0.002548,-86.645335,0.004951,
820,1810,0.446119,-0.919181,0.999997,0.000202,-0.001660,0.004615,-0.000447,0.004646,-0.001691,-85.948381,0.004703,
1680,310,-0.628353,-8.810741,0.999997,0.000174,-0.002190,0.004835,-0.000125,0.004837,-0.002192,-88.979909,0.004844,
820,1780,0.495758,-1.056979,0.999997,0.000186,-0.001796,0.004623,-0.000304,0.004637,-0.001810,-87.297233,0.004674,
610,1530,1.366728,-2.625010,0.999997,0.000194,-0.002536,0.005099,0.000036,0.005099,-0.002536,89.732527,0.005099,
1850,1890,-0.676553,-0.801684,0.999998,0.000186,-0.002440,0.005181,0.000403,0.005202,-0.002461,86.982581,0.005205,
1730,900,-1.685755,-5.672710,0.999998,0.000172,-0.002401,0.005128,-0.000526,0.005164,-0.002438,-86.024022,0.005167,
1890,1770,-1.074344,-1.488859,0.999997,0.000231,-0.002404,0.004873,-0.000053,0.004873,-0.002405,-89.580933,0.004873,
1650,490,-0.796960,-7.962431,0.999998,0.000176,-0.002563,0.005122,0.000207,0.005127,-0.002569,88.460555,0.005127,
580,1650,1.263469,-2.065434,0.999998,0.000187,-0.001301,0.004883,-0.000050,0.004883,-0.001301,-89.533857,0.005058,
740,870,1.620057,-5.830896,0.999998,0.000207,-0.002513,0.005148,0.000548,0.005187,-0.002552,85.928262,0.005188,
1770,1070,-1.858122,-4.837161,0.999998,0.000153,-0.002179,0.004746,0.000130,0.004749,-0.002181,88.925291,0.004754,
1450,1220,-0.674572,-3.581068,0.999997,0.000211,-0.003920,0.006610,-0.000832,0.006675,-0.003986,-85.508023,0.006717,
1430,1660,-0.255475,-1.363555,0.999998,0.000203,-0.001564,0.004042,-0.000274,0.004056,-0.001577,-87.208145,0.004089,
1080,1420,0.231686,-2.270553,0.999998,0.000153,-0.002194,0.004050,0.001241,0.004287,-0.002431,79.159725,0.004300,
1310,90,-0.015707,-9.864604,0.999998,0.000157,-0.000209,0.003110,-0.000104,0.003114,-0.000213,-88.214808,0.003479,
1400,1330,-0.303940,-2.722491,0.999997,0.000185,-0.002969,0.004826,-0.001688,0.005176,-0.003319,-78.290768,0.005244,
1530,1320,-0.757155,-3.214710,0.999998,0.000187,-0.003499,0.005968,-0.000385,0.005983,-0.003515,-87.672845,0.006014,
1030,1770,0.195975,-0.928959,0.999998,0.000158,-0.001214,0.003878,0.000001,0.003878,-0.001214,89.986970,0.003968,
1650,180,-0.335156,-9.447573,0.999998,0.000177,-0.001367,0.004366,-0.000691,0.004448,-0.001449,-83.228293,0.004537,
1560,1170,-1.213125,-4.211213,0.999997,0.000201,-0.002993,0.006105,0.000690,0.006157,-0.003045,85.688553,0.006157,
1900,1390,-1.706716,-3.411117,0.999997,0.000000,-0.002478,0.005099,0.000008,0.005099,-0.002478,89.940287,0.005100,
900,1030,1.458087,-5.025284,0.999998,0.000202,-0.001813,0.005512,-0.000041,0.005512,-0.001814,-89.679911,0.005619,
1340,470,-0.141048,-8.517593,0.999998,0.000149,-0.001392,0.003745,0.000390,0.003775,-0.001422,85.678540,0.003813,
1600,1700,-0.526754,-1.385676,0.999997,0.000188,-0.002044,0.004633,-0.000027,0.004633,-0.002044,-89.769366,0.004643,
1450,1090,-1.138794,-4.529243,0.999997,0.000220,-0.002919,0.007937,-0.000406,0.007952,-0.002934,-87.861766,0.008043,
840,480,0.718775,-8.056205,0.999998,0.000166,-0.002461,0.005001,-0.000238,0.005009,-0.002469,-88.172023,0.005009,
1850,820,-1.846725,-5.980672,0.999998,0.000162,-0.002334,0.004685,-0.000241,0.004694,-0.002342,-88.038849,0.004694,
690,1800,0.733097,-1.125416,0.999998,0.000172,-0.002339,0.005028,-0.000276,0.005038,-0.002350,-87.856753,0.005042,
620,1980,0.302704,-0.308755,0.999997,0.000195,-0.002260,0.005461,-0.001313,0.005678,-0.002478,-80.607655,0.005693,
740,880,1.635420,-5.779066,0.999998,0.000195,-0.002477,0.005167,0.000565,0.005208,-0.002519,85.795548,0.005209,
1450,1340,-0.454631,-2.859336,0.999998,0.000203,-0.003273,0.005362,-0.001213,0.005529,-0.003440,-82.153139,0.005584,
1270,380,-0.042702,-8.881819,0.999999,0.000143,-0.001122,0.003531,0.000069,0.003532,-0.001123,89.151314,0.003609,
990,1640,0.336421,-1.494562,0.999997,0.000213,-0.001865,0.004342,0.000372,0.004364,-0.001887,86.583947,0.004377,
560,780,1.916863,-6.089834,0.999990,0.000000,-0.002764,0.004571,-0.000114,0.004573,-0.002766,-89.113202,0.004607,
820,1760,0.527061,-1.150256,0.999997,0.000189,-0.001888,0.004720,-0.000221,0.004727,-0.001896,-88.084844,0.004758,
850,860,1.307359,-5.960738,0.999997,0.000190,-0.002881,0.005783,0.000649,0.005831,-0.002929,85.738852,0.005831,
760,550,1.012962,-7.565307,0.999998,0.000178,-0.002676,0.005223,-0.000138,0.005225,-0.002679,-88.999161,0.005226,
1440,1910,-0.092942,-0.413061,0.999998,0.000136,-0.000578,0.003498,0.000295,0.003519,-0.000599,85.883390,0.003766,
1660,330,-0.615260,-8.740220,0.999998,0.000176,-0.002196,0.004859,-0.000044,0.004859,-0.002197,-89.640880,0.004866,
1130,1590,0.132651,-1.540464,0.999998,0.000175,-0.001389,0.003730,0.000376,0.003757,-0.001416,85.815828,0.003795,
1070,1320,0.288997,-2.741325,0.999998,0.000169,-0.003002,0.004722,0.001781,0.005113,-0.003393,77.621818,0.005204,
1560,1760,-0.378294,-1.065112,0.999998,0.000171,-0.001572,0.004373,0.000177,0.004378,-0.001577,88.291367,0.004435,
1320,190,-0.048490,-9.539544,0.999998,0.000200,-0.000624,0.003411,-0.000069,0.003412,-0.000625,-89.022881,0.003633,
960,1500,0.485655,-2.183934,0.999997,0.000199,-0.002485,0.004866,0.000656,0.004924,-0.002543,84.938602,0.004925,
1440,420,-0.282122,-8.604430,0.999998,0.000172,-0.001612,0.004129,0.000310,0.004146,-0.001629,86.917973,0.004178,
1790,290,-0.843313,-8.753043,0.999998,0.000172,-0.002379,0.005092,-0.000158,0.005095,-0.002382,-88.792060,0.005099,
1200,1390,0.034921,-2.127565,0.999999,0.000145,-0.001166,0.002571,0.000471,0.002630,-0.001225,82.921168,0.002632,
660,610,1.369117,-7.096450,0.999998,0.000194,-0.002610,0.005120,0.000056,0.005121,-0.002610,89.585916,0.005121,
900,1550,0.596003,-2.047958,0.999998,0.000188,-0.002483,0.004939,0.000409,0.004961,-0.002505,86.855266,0.004961,
1650,470,-0.773028,-8.064415,0.999998,0.000181,-0.002486,0.005012,0.000197,0.005017,-0.002491,88.496500,0.005017,
570,1650,1.271633,-2.075093,0.999980,0.000685,-0.000785,0.004779,-0.000062,0.004779,-0.000786,-89.363518,0.005126,
1730,880,-1.653429,-5.776358,0.999998,0.000184,-0.002462,0.005131,-0.000565,0.005173,-0.002504,-85.769955,0.005174,
600,680,1.640711,-6.653457,0.999997,0.000210,-0.002513,0.005056,0.000110,0.005057,-0.002515,89.168939,0.005057,
1310,70,-0.010793,-9.927046,0.999999,0.000126,-0.000145,0.003091,-0.000102,0.003094,-0.000148,-88.196841,0.003490,
730,2010,0.077348,-0.101118,0.999998,0.000175,-0.000368,0.003965,-0.001385,0.004370,-0.000773,-73.705589,0.004664,
830,1460,0.881849,-2.637881,0.999998,0.000168,-0.002849,0.005379,0.000216,0.005384,-0.002854,88.493919,0.005388,
1770,1050,-1.866405,-4.931343,0.999998,0.000156,-0.002178,0.004760,0.000161,0.004764,-0.002182,88.671176,0.004769,
610,1780,0.965215,-1.365825,0.999998,0.000163,-0.002421,0.004978,-0.000047,0.004979,-0.002421,-89.632362,0.004979,
1430,1220,-0.594730,-3.481816,0.999996,0.000227,-0.003910,0.006398,-0.001133,0.006521,-0.004034,-83.801803,0.006582,
1030,1750,0.208615,-1.003647,0.999998,0.000177,-0.001294,0.003870,0.000057,0.003871,-0.001295,89.362296,0.003941,
1840,1090,-2.000974,-4.760594,0.999998,0.000166,-0.002113,0.004437,0.000097,0.004438,-0.002115,89.154420,0.004440,
710,1020,1.835951,-5.075533,0.999998,0.000164,-0.002166,0.004858,0.000083,0.004859,-0.002167,89.324672,0.004869,
1450,1070,-1.188155,-4.682168,0.999997,0.000206,-0.002903,0.008105,-0.000334,0.008115,-0.002914,-88.264737,0.008222,
720,870,1.670319,-5.818745,0.999998,0.000194,-0.002451,0.005084,0.000535,0.005121,-0.002489,85.957786,0.005122,
1830,700,-1.590581,-6.597437,0.999997,0.000201,-0.002532,0.005068,-0.000209,0.005074,-0.002538,-88.425655,0.005074,
720,630,1.242216,-7.080757,0.999998,0.000154,-0.002723,0.005253,0.000087,0.005254,-0.002724,89.377308,0.005255,
1080,610,0.228366,-7.913211,0.999998,0.000171,-0.002086,0.004024,-0.001098,0.004215,-0.002277,-80.112380,0.004220,
900,130,0.154692,-9.690277,0.999999,0.000137,-0.000735,0.003769,0.000608,0.003850,-0.000816,82.441949,0.004057,
1390,1270,-0.331120,-2.973444,0.999997,0.000218,-0.003384,0.005078,-0.001924,0.005495,-0.003801,-77.770791,0.005628,
840,460,0.696209,-8.156245,0.999998,0.000171,-0.002417,0.004963,-0.000217,0.004969,-0.002424,-88.319373,0.004970,
740,860,1.604161,-5.882508,0.999997,0.000205,-0.002569,0.005169,0.000546,0.005208,-0.002607,85.980596,0.005208,
1800,1970,-0.280155,-0.300939,0.999998,0.000170,-0.001009,0.004905,0.001856,0.005439,-0.001544,73.940341,0.005606,
1070,1300,0.304947,-2.837359,0.999998,0.000178,-0.003197,0.004885,0.001859,0.005292,-0.003604,77.645655,0.005406,
1290,380,-0.064962,-8.877987,0.999999,0.000118,-0.001086,0.003560,0.000057,0.003561,-0.001087,89.292411,0.003650,
1130,1570,0.132672,-1.612661,0.999998,0.000163,-0.001401,0.003679,0.000433,0.003715,-0.001438,85.167825,0.003747,
620,1960,0.397581,-0.413607,0.999997,0.000200,-0.002342,0.005364,-0.001079,0.005513,-0.002490,-82.180830,0.005521,
870,860,1.249325,-5.980349,0.999998,0.000178,-0.002988,0.005931,0.000655,0.005979,-0.003036,85.821451,0.005979,
1850,1870,-0.740253,-0.906518,0.999997,0.000190,-0.002437,0.005083,0.000321,0.005097,-0.002450,87.556675,0.005098,
790,1920,0.269368,-0.452039,0.999998,0.000176,-0.001291,0.004260,-0.000866,0.004392,-0.001423,-81.336555,0.004482,
1720,1750,-0.707299,-1.296675,0.999998,0.000190,-0.002161,0.004934,0.000193,0.004939,-0.002167,88.446887,0.004952,
560,770,1.901441,-6.137141,0.999981,0.000000,-0.002810,0.004717,-0.000059,0.004718,-0.002811,-89.547683,0.004747,
820,1740,0.558111,-1.247660,0.999997,0.000200,-0.001985,0.004732,-0.000137,0.004735,-0.001987,-88.835454,0.004755,
880,1530,0.664567,-2.184080,0.999997,0.000192,-0.002550,0.005038,0.000392,0.005058,-0.002570,87.049666,0.005058,
1080,1640,0.189913,-1.391932,0.999998,0.000187,-0.001459,0.003925,0.000317,0.003944,-0.001477,86.639993,0.003985,
1650,450,-0.750009,-8.164457,0.999998,0.000179,-0.002419,0.004957,0.000169,0.004961,-0.002423,88.688099,0.004962,
960,1480,0.499832,-2.279193,0.999997,0.000197,-0.002589,0.004933,0.000706,0.004999,-0.002655,84.682446,0.005002,
1570,940,-1.371716,-5.531074,0.999998,0.000180,-0.002305,0.005806,-0.000693,0.005865,-0.002364,-85.148393,0.005902,
1540,190,-0.219549,-9.466201,0.999998,0.000175,-0.000919,0.003940,-0.000432,0.003978,-0.000958,-84.962037,0.004153,
1620,1510,-0.785264,-2.351193,0.999997,0.000194,-0.002659,0.005212,-0.000287,0.005223,-0.002670,-87.913112,0.005223,
1560,1520,-0.615662,-2.191938,0.999997,0.000203,-0.002602,0.005032,-0.000453,0.005059,-0.002628,-86.615100,0.005060,
1690,170,-0.377022,-9.460725,0.999998,0.000183,-0.001536,0.004530,-0.000799,0.004633,-0.001640,-82.621879,0.004699,
730,1980,0.165551,-0.221824,0.999998,0.000172,-0.000828,0.004099,-0.001274,0.004409,-0.001138,-76.325329,0.004577,
740,570,1.094884,-7.427635,0.999997,0.000187,-0.002692,0.005232,-0.000070,0.005233,-0.002693,-89.490804,0.005233,
1600,1050,-1.517064,-4.918175,0.999998,0.000201,-0.001918,0.005300,0.000209,0.005306,-0.001924,88.339545,0.005373,
1770,1030,-1.874719,-5.028450,0.999998,0.000153,-0.002182,0.004777,0.000029,0.004777,-0.002182,89.764164,0.004783,
1450,620,-0.390414,-7.700361,0.999998,0.000185,-0.002612,0.004746,0.001026,0.004887,-0.002752,82.208575,0.004900,
920,1240,0.973981,-3.744791,0.999997,0.000178,-0.003528,0.006311,-0.000201,0.006315,-0.003532,-88.828415,0.006330,
1730,1330,-1.371610,-3.488855,0.999997,0.000221,-0.002803,0.005337,0.000325,0.005350,-0.002816,87.713804,0.005353,
1590,1320,-0.962855,-3.345240,0.999998,0.000168,-0.003317,0.005885,0.000011,0.005885,-0.003317,89.929734,0.005900,
600,660,1.606140,-6.752471,0.999997,0.000208,-0.002533,0.005026,0.000098,0.005027,-0.002534,89.259076,0.005027,
1800,1450,-1.353802,-2.953417,0.999997,0.000225,-0.002597,0.005133,0.000035,0.005134,-0.002597,89.741516,0.005134,
1440,400,-0.273807,-8.684380,0.999998,0.000174,-0.001570,0.004107,0.000256,0.004119,-0.001582,87.420989,0.004156,
1290,730,-0.063330,-7.748724,0.999998,0.000170,-0.001373,0.002391,0.001263,0.002776,-0.001757,73.063056,0.002808,
1200,1370,0.033158,-2.177344,0.999999,0.000116,-0.001121,0.002408,0.000560,0.002495,-0.001208,81.190466,0.002496,
1030,1730,0.222491,-1.085274,0.999998,0.000178,-0.001396,0.003959,0.000090,0.003960,-0.001397,89.037515,0.004017,
1790,270,-0.805202,-8.852427,0.999998,0.000171,-0.002341,0.005028,-0.000231,0.005035,-0.002349,-88.203845,0.005039,
1300,1980,-0.011830,-0.167785,0.999999,0.000149,-0.000138,0.003054,0.000101,0.003057,-0.000141,88.190566,0.003451,
790,1020,1.667281,-5.078141,0.999998,0.000179,-0.002021,0.005066,0.000086,0.005067,-0.002022,89.302510,0.005101,
1000,1390,0.452488,-2.635943,0.999996,0.000227,-0.003006,0.005166,0.001049,0.005298,-0.003139,82.802047,0.005328,
1650,160,-0.292792,-9.533836,0.999998,0.000160,-0.001229,0.004323,-0.000769,0.004427,-0.001334,-82.254370,0.004542,
1800,850,-1.776769,-5.882515,0.999998,0.000162,-0.002378,0.004887,-0.000422,0.004912,-0.002402,-86.689172,0.004912,
1450,1050,-1.221705,-4.849822,0.999996,0.000248,-0.002939,0.008629,-0.000188,0.008632,-0.002942,-89.069720,0.008777,
910,1340,0.805164,-3.150588,0.999998,0.000190,-0.003415,0.005872,0.000297,0.005881,-0.003424,88.172767,0.005908,
1660,490,-0.823319,-7.945876,0.999998,0.000168,-0.002561,0.005115,0.000192,0.005120,-0.002565,88.571306,0.005120,
1390,1250,-0.365301,-3.075812,0.999996,0.000229,-0.003564,0.005327,-0.001923,0.005725,-0.003963,-78.302177,0.005864,
1800,2010,-0.112200,-0.110453,0.999998,0.000179,-0.000263,0.004357,0.001893,0.005034,-0.000939,70.328125,0.005353,
820,1720,0.583819,-1.341568,0.999997,0.000192,-0.002092,0.004769,-0.000061,0.004770,-0.002092,-89.489936,0.004782,
1130,1550,0.135179,-1.687202,0.999998,0.000145,-0.001449,0.003646,0.000451,0.003686,-0.001488,84.975013,0.003708,
1180,1620,0.062874,-1.398099,0.999998,0.000158,-0.001212,0.003554,0.000117,0.003556,-0.001215,88.589697,0.003615,
790,1900,0.314804,-0.540974,0.999997,0.000219,-0.001459,0.004424,-0.000814,0.004534,-0.001570,-82.266555,0.004605,
840,440,0.672944,-8.254118,0.999997,0.000208,-0.002379,0.004958,-0.000205,0.004964,-0.002385,-88.402586,0.004965,
560,760,1.879733,-6.188647,0.999965,0.000000,-0.002874,0.004897,-0.000109,0.004899,-0.002876,-89.194882,0.004923,
1160,450,0.088042,-8.621307,0.999998,0.000164,-0.001331,0.003608,-0.000243,0.003620,-0.001343,-87.187717,0.003660,
1650,430,-0.725198,-8.262510,0.999998,0.000178,-0.002359,0.004950,0.000154,0.004953,-0.002362,88.792063,0.004955,
1810,1500,-1.300904,-2.711205,0.999998,0.000182,-0.002562,0.005124,-0.000017,0.005124,-0.002562,-89.869721,0.005124,
1660,310,-0.585106,-8.836881,0.999998,0.000177,-0.002118,0.004770,-0.000115,0.004772,-0.002120,-89.043421,0.004782,
1230,1730,0.002063,-0.996450,0.999999,0.000133,-0.001030,0.003496,0.000010,0.003496,-0.001030,89.868654,0.003593,
700,340,0.864418,-8.541074,0.999998,0.000169,-0.002394,0.005054,0.000006,0.005054,-0.002394,89.952606,0.005057,
960,1460,0.513685,-2.379410,0.999997,0.000211,-0.002722,0.005032,0.000759,0.005106,-0.002795,84.460561,0.005114,
1520,190,-0.200974,-9.474950,0.999998,0.000164,-0.001013,0.003890,-0.000377,0.003919,-0.001042,-85.625022,0.004059,
620,1940,0.482262,-0.521365,0.999997,0.000194,-0.002407,0.005327,-0.000796,0.005408,-0.002488,-84.188115,0.005414,
1850,1380,-1.598302,-3.384914,0.999998,0.000187,-0.002539,0.005050,0.000147,0.005053,-0.002542,88.892731,0.005053,
1050,1320,0.352158,-2.826329,0.999997,0.000189,-0.003182,0.005091,0.001625,0.005399,-0.003490,79.278952,0.005476,
1900,1370,-1.738611,-3.513251,0.999998,0.000000,-0.002440,0.005042,0.000021,0.005042,-0.002440,89.839105,0.005043,
1560,1480,-0.653115,-2.393889,0.999997,0.000204,-0.002738,0.005153,-0.000476,0.005181,-0.002767,-86.558955,0.005185,
740,550,1.066267,-7.532062,0.999998,0.000185,-0.002653,0.005224,-0.000095,0.005225,-0.002654,-89.307166,0.005225,
900,790,0.984024,-6.452868,0.999997,0.000212,-0.003448,0.006152,0.000176,0.006155,-0.003451,88.952351,0.006170,
740,840,1.568772,-5.984656,0.999997,0.000205,-0.002622,0.005244,0.000552,0.005282,-0.002661,86.007959,0.005282,
1110,380,0.141129,-8.841712,0.999998,0.000211,-0.001238,0.003790,-0.000198,0.003798,-0.001246,-87.748134,0.003872,
1790,250,-0.762473,-8.952267,0.999998,0.000179,-0.002304,0.005048,-0.000335,0.005063,-0.002319,-87.398694,0.005069,
600,640,1.570109,-6.852358,0.999997,0.000218,-0.002534,0.005049,0.000064,0.005050,-0.002535,89.516400,0.005050,
1870,1440,-1.548039,-3.110208,0.999997,0.000219,-0.002530,0.005094,0.000043,0.005095,-0.002530,89.679464,0.005095,
1300,1960,-0.016567,-0.227947,0.999998,0.000159,-0.000205,0.003137,0.000072,0.003138,-0.000206,88.760453,0.003511,
1030,1380,0.370084,-2.596286,0.999997,0.000218,-0.002851,0.004916,0.001277,0.005121,-0.003056,80.895417,0.005153,
1770,1010,-1.868105,-5.123082,0.999998,0.000161,-0.002170,0.004775,-0.000136,0.004778,-0.002173,-88.882179,0.004785,
650,1780,0.869006,-1.289381,0.999998,0.000156,-0.002384,0.005057,-0.000183,0.005061,-0.002388,-88.591405,0.005064,
1600,1030,-1.525682,-5.026735,0.999997,0.000207,-0.001898,0.005356,0.000033,0.005356,-0.001898,89.736362,0.005431,
1030,1710,0.233841,-1.163002,0.999998,0.000179,-0.001461,0.003954,0.000150,0.003958,-0.001465,88.417707,0.004002,
1850,1850,-0.794120,-1.004715,0.999998,0.000183,-0.002442,0.005057,0.000210,0.005063,-0.002448,88.396836,0.005064,
780,210,0.453387,-9.282360,0.999998,0.000175,-0.001787,0.004664,0.000574,0.004715,-0.001838,84.956683,0.004753,
1450,1030,-1.234201,-5.020520,0.999995,0.000265,-0.002948,0.008422,-0.000019,0.008422,-0.002948,-89.902876,0.008548,
930,1340,0.735823,-3.104183,0.999998,0.000196,-0.003430,0.005842,0.000434,0.005862,-0.003451,87.329143,0.005893,
770,1020,1.707929,-5.076933,0.999998,0.000163,-0.002084,0.005005,0.000084,0.005005,-0.002085,89.321920,0.005029,
1660,630,-1.007408,-7.207788,0.999998,0.000173,-0.002889,0.005421,0.000069,0.005421,-0.002890,89.525660,0.005425,
780,1180,1.528034,-4.254979,0.999998,0.000195,-0.002557,0.005337,-0.000599,0.005382,-0.002602,-85.682961,0.005383,
990,1240,0.709222,-3.545528,0.999997,0.000228,-0.003915,0.006521,0.000543,0.006549,-0.003944,87.027910,0.006594,
670,220,0.699642,-9.100459,0.999998,0.000176,-0.002235,0.005059,0.000497,0.005093,-0.002268,86.121586,0.005103,
1550,1000,-1.421128,-5.194520,0.999998,0.000192,-0.001817,0.005726,-0.000323,0.005739,-0.001831,-87.552252,0.005864,
780,1870,0.397109,-0.679936,0.999997,0.000188,-0.001703,0.004539,-0.000698,0.004616,-0.001780,-83.696132,0.004656,
950,1980,0.060482,-0.183748,0.999999,0.000133,-0.000357,0.003407,-0.000503,0.003473,-0.000423,-82.520565,0.003790,
1800,2000,-0.150411,-0.153603,0.999998,0.000205,-0.000439,0.004518,0.001920,0.005175,-0.001095,71.120596,0.005454,
840,420,0.650967,-8.354566,0.999997,0.000218,-0.002297,0.004894,-0.000156,0.004898,-0.002300,-88.761246,0.004901,
1650,410,-0.701153,-8.362180,0.999998,0.000167,-0.002320,0.004948,0.000124,0.004950,-0.002322,89.022003,0.004953,
1810,1480,-1.331889,-2.813370,0.999998,0.000195,-0.002556,0.005159,0.000020,0.005159,-0.002556,89.852545,0.005159,
960,1440,0.529539,-2.483866,0.999997,0.000207,-0.002845,0.005115,0.000767,0.005189,-0.002918,84.545141,0.005202,
1390,1230,-0.410914,-3.191632,0.999996,0.000231,-0.003588,0.005509,-0.001860,0.005875,-0.003953,-78.881565,0.005991,
1440,380,-0.262734,-8.767935,0.999998,0.000169,-0.001536,0.004126,0.000207,0.004133,-0.001544,87.909782,0.004177,
1140,190,0.048767,-9.538902,0.999998,0.000177,-0.000629,0.003388,0.000078,0.003390,-0.000630,88.895068,0.003606,
1660,290,-0.553849,-8.933154,0.999998,0.000180,-0.002041,0.004774,-0.000210,0.004780,-0.002047,-88.233576,0.004797,
1560,1460,-0.671846,-2.499376,0.999997,0.000216,-0.002860,0.005245,-0.000493,0.005275,-0.002890,-86.532298,0.005283,
1850,1360,-1.632775,-3.485075,0.999997,0.000193,-0.002525,0.005065,0.000154,0.005068,-0.002529,88.840451,0.005068,
820,1700,0.611336,-1.436643,0.999997,0.000176,-0.002148,0.004801,-0.000022,0.004801,-0.002148,-89.814948,0.004810,
1420,1910,-0.082141,-0.408197,0.999998,0.000157,-0.000610,0.003471,0.000232,0.003484,-0.000623,86.752666,0.003716,
1600,1900,-0.232832,-0.503481,0.999998,0.000201,-0.001093,0.004065,0.000624,0.004139,-0.001167,83.201588,0.004268,
610,60,0.253771,-9.840165,0.999997,0.000178,-0.002087,0.005338,0.001539,0.005644,-0.002393,78.743057,0.005666,
1340,650,-0.147799,-7.860484,0.999998,0.000194,-0.001795,0.003543,0.001233,0.003814,-0.002066,77.602001,0.003819,
630,430,1.178571,-7.972261,0.999998,0.000166,-0.002485,0.005038,-0.000084,0.005039,-0.002486,-89.358882,0.005039,
950,1780,0.287890,-0.942871,0.999998,0.000176,-0.001461,0.004125,-0.000121,0.004128,-0.001464,-88.762256,0.004185,
590,260,0.980661,-8.748253,0.999998,0.000167,-0.002412,0.004935,0.000049,0.004935,-0.002412,89.621723,0.004936,
560,750,1.862564,-6.233719,0.999966,0.000000,-0.002980,0.005341,-0.000092,0.005342,-0.002981,-89.369469,0.005354,
770,1400,1.142878,-3.059048,0.999997,0.000190,-0.002884,0.005395,-0.000088,0.005396,-0.002885,-89.393277,0.005400,
630,1780,0.916925,-1.326702,0.999998,0.000169,-0.002406,0.005034,-0.000078,0.005035,-0.002406,-89.400632,0.005036,
1100,890,0.599256,-6.813354,0.999996,0.000239,-0.001614,0.003801,-0.002612,0.004855,-0.002669,-68.010212,0.004863,
1030,1400,0.360370,-2.497590,0.999997,0.000228,-0.002730,0.004800,0.001228,0.004995,-0.002925,80.969588,0.005019,
1300,1940,-0.020386,-0.292954,0.999998,0.000164,-0.000258,0.003210,0.000104,0.003213,-0.000262,88.281548,0.003568,
1720,1730,-0.739942,-1.396316,0.999998,0.000177,-0.002251,0.004973,0.000095,0.004974,-0.002252,89.242796,0.004982,
1790,230,-0.716283,-9.055306,0.999998,0.000183,-0.002265,0.005053,-0.000451,0.005081,-0.002292,-86.488375,0.005089,
1450,1010,-1.224082,-5.182371,0.999996,0.000253,-0.002914,0.008604,0.000188,0.008607,-0.002917,89.066603,0.008755,
780,390,0.751598,-8.412633,0.999998,0.000169,-0.002291,0.004953,-0.000044,0.004953,-0.002291,-89.655333,0.004958,
1130,380,0.115859,-8.855626,0.999999,0.000136,-0.001276,0.003723,-0.000235,0.003734,-0.001287,-87.317999,0.003793,
1530,1000,-1.386676,-5.200428,0.999997,0.000202,-0.001865,0.006000,-0.000289,0.006010,-0.001876,-87.895364,0.006150,
910,940,1.331364,-5.542738,0.999997,0.000231,-0.002340,0.005945,0.000705,0.006005,-0.002400,85.169932,0.006045,
1180,1600,0.064453,-1.467702,0.999998,0.000152,-0.001235,0.003538,0.000130,0.003541,-0.001238,88.440342,0.003594,
1770,990,-1.860004,-5.219340,0.999998,0.000157,-0.002174,0.004757,-0.000147,0.004760,-0.002177,-88.783266,0.004765,
1650,630,-0.977860,-7.226185,0.999998,0.000172,-0.002913,0.005427,0.000105,0.005428,-0.002914,89.279935,0.005433,
770,1860,0.437810,-0.734829,0.999997,0.000189,-0.001720,0.004672,-0.000704,0.004748,-0.001796,-83.790209,0.004795,
580,1280,1.851675,-3.928755,0.999998,0.000185,-0.002491,0.004809,-0.000119,0.004811,-0.002493,-89.068106,0.004812,
880,920,1.360638,-5.636888,0.999997,0.000207,-0.002530,0.005746,0.000721,0.005809,-0.002593,85.061264,0.005820,
1520,1160,-1.120919,-4.215213,0.999998,0.000186,-0.003091,0.006474,0.000587,0.006510,-0.003127,86.503290,0.006512,
860,130,0.191779,-9.675555,0.999998,0.000169,-0.000864,0.003918,0.000702,0.004019,-0.000965,81.823720,0.004196,
1380,1610,-0.193167,-1.505726,0.999997,0.000207,-0.001583,0.003921,-0.000430,0.003955,-0.001616,-85.563277,0.003977,
1810,920,-1.893400,-5.539682,0.999998,0.000162,-0.002254,0.004724,-0.000318,0.004738,-0.002268,-87.399242,0.004740,
1050,1180,0.672567,-3.640669,0.999996,0.000219,-0.003554,0.006628,0.001444,0.006829,-0.003755,82.080134,0.006840,
650,500,1.228961,-7.647192,0.999998,0.000178,-0.002572,0.005094,-0.000060,0.005095,-0.002573,-89.555349,0.005095,
1560,1440,-0.692821,-2.605567,0.999997,0.000205,-0.002952,0.005339,-0.000482,0.005367,-0.002980,-86.683537,0.005378,
840,210,0.355758,-9.330020,0.999998,0.000193,-0.001370,0.004382,0.000562,0.004437,-0.001424,84.474443,0.004530,
740,820,1.530112,-6.093127,0.999998,0.000202,-0.002665,0.005269,0.000546,0.005306,-0.002702,86.084111,0.005307,
1480,690,-0.526716,-7.262116,0.999998,0.000200,-0.003266,0.005481,0.000940,0.005581,-0.003366,83.936764,0.005621,
1080,1400,0.237296,-2.351445,0.999998,0.000166,-0.002274,0.004165,0.001363,0.004442,-0.002551,78.527834,0.004458,
1730,500,-1.016155,-7.780138,0.999998,0.000172,-0.002579,0.005148,0.000128,0.005151,-0.002581,89.052954,0.005151,
1080,570,0.225406,-8.071877,0.999998,0.000179,-0.001878,0.003952,-0.000873,0.004080,-0.002006,-81.663134,0.004080,
1030,1690,0.243756,-1.243812,0.999998,0.000174,-0.001492,0.004071,0.000187,0.004077,-0.001498,88.080735,0.004125,
920,1220,1.023097,-3.873465,0.999998,0.000190,-0.003432,0.006338,-0.000347,0.006351,-0.003444,-87.969856,0.006358,
1690,150,-0.327819,-9.553457,0.999997,0.000201,-0.001398,0.004503,-0.000906,0.004639,-0.001534,-81.463116,0.004727,
740,1530,1.031536,-2.417535,0.999998,0.000179,-0.002616,0.005198,0.000109,0.005200,-0.002618,89.199473,0.005200,
680,830,1.705345,-5.993406,0.999999,0.000159,-0.002483,0.004951,0.000415,0.004974,-0.002506,86.817620,0.004974,
930,1980,0.066833,-0.185741,0.999999,0.000122,-0.000290,0.003447,-0.000573,0.003533,-0.000375,-81.476038,0.003881,
1130,1530,0.135896,-1.761486,0.999998,0.000151,-0.001486,0.003673,0.000519,0.003724,-0.001538,84.311781,0.003743,
1730,1310,-1.406970,-3.594086,0.999997,0.000214,-0.002779,0.005340,0.000380,0.005358,-0.002796,87.327444,0.005360,
950,1760,0.309358,-1.027446,0.999998,0.000178,-0.001530,0.004163,-0.000049,0.004163,-0.001531,-89.503106,0.004212,
1850,1830,-0.846760,-1.109654,0.999998,0.000172,-0.002464,0.005056,0.000172,0.005060,-0.002468,88.689361,0.005061,
800,1770,0.551364,-1.127486,0.999998,0.000173,-0.002076,0.004770,-0.000215,0.004777,-0.002082,-88.204943,0.004790,
560,740,1.854462,-6.288093,0.999973,0.000000,-0.003222,0.005891,-0.000071,0.005892,-0.003223,-89.555919,0.005900,
780,1160,1.562614,-4.360998,0.999997,0.000217,-0.002506,0.005314,-0.000623,0.005363,-0.002556,-85.470835,0.005365,
630,450,1.206029,-7.870376,0.999998,0.000171,-0.002501,0.005068,-0.000095,0.005069,-0.002502,-89.277748,0.005069,
1790,210,-0.667595,-9.155219,0.999997,0.000187,-0.002235,0.005109,-0.000566,0.005153,-0.002278,-85.616512,0.005164,
1400,110,-0.049372,-9.793842,0.999999,0.000138,-0.000380,0.003305,-0.000239,0.003320,-0.000396,-86.305960,0.003627,
820,770,1.202001,-6.447776,0.999998,0.000184,-0.003091,0.005749,0.000366,0.005765,-0.003106,87.632372,0.005770,
1290,710,-0.065104,-7.796808,0.999998,0.000155,-0.001336,0.002523,0.001130,0.002830,-0.001642,74.823251,0.002842,
1270,840,-0.132329,-7.626281,0.999996,0.000223,-0.002929,0.001444,0.000151,0.001449,-0.002935,88.030140,0.002935,
840,400,0.626968,-8.452423,0.999997,0.000226,-0.002207,0.004807,-0.000123,0.004809,-0.002209,-88.992183,0.004814,
1570,870,-1.205067,-5.946341,0.999998,0.000172,-0.003027,0.006061,-0.000642,0.006106,-0.003072,-85.980345,0.006106,
1010,540,0.361285,-8.065182,0.999998,0.000190,-0.002164,0.004475,-0.000712,0.004551,-0.002239,-83.944783,0.004551,
1770,970,-1.853699,-5.313385,0.999998,0.000165,-0.002208,0.004747,-0.000196,0.004752,-0.002214,-88.388763,0.004756,
1390,1210,-0.474880,-3.303876,0.999996,0.000221,-0.003597,0.005540,-0.001779,0.005874,-0.003931,-79.360058,0.005985,
1830,620,-1.455348,-7.005221,0.999997,0.000218,-0.002589,0.005077,-0.000068,0.005078,-0.002589,-89.489383,0.005078,
890,940,1.378985,-5.529120,0.999997,0.000204,-0.002339,0.005785,0.000701,0.005845,-0.002399,85.105630,0.005876,
1650,390,-0.676396,-8.460964,0.999997,0.000182,-0.002288,0.004936,0.000079,0.004937,-0.002289,89.374740,0.004941,
1440,360,-0.253164,-8.852437,0.999998,0.000174,-0.001495,0.004040,0.000165,0.004045,-0.001500,88.291166,0.004090,
1300,1920,-0.025441,-0.358453,0.999998,0.000138,-0.000333,0.003219,0.000093,0.003222,-0.000335,88.504759,0.003542,
1100,880,0.543919,-6.847584,0.999995,0.000263,-0.001887,0.003690,-0.002362,0.004556,-0.002753,-69.866188,0.004589,
830,1400,0.967320,-2.965403,0.999998,0.000187,-0.003035,0.005490,0.000075,0.005491,-0.003035,89.497811,0.005501,
1520,1140,-1.179936,-4.344093,0.999997,0.000195,-0.002850,0.006450,0.000658,0.006497,-0.002896,85.971160,0.006509,
750,1240,1.494581,-3.953587,0.999998,0.000181,-0.002684,0.005299,-0.000542,0.005336,-0.002721,-86.134544,0.005336,
760,590,1.070034,-7.353707,0.999997,0.000186,-0.002735,0.005302,-0.000048,0.005302,-0.002735,-89.654764,0.005303,
750,1860,0.469414,-0.750810,0.999997,0.000199,-0.001651,0.004774,-0.000769,0.004865,-0.001742,-83.265095,0.004930,
650,480,1.198549,-7.749981,0.999997,0.000187,-0.002530,0.005107,-0.000069,0.005108,-0.002531,-89.482072,0.005108,
910,180,0.219943,-9.499603,0.999997,0.000183,-0.000911,0.003948,0.000471,0.003994,-0.000956,84.510724,0.004171,
1180,1580,0.063829,-1.539307,0.999998,0.000151,-0.001261,0.003541,0.000188,0.003548,-0.001268,87.757470,0.003596,
920,1200,1.078787,-4.000024,0.999998,0.000195,-0.003321,0.006332,-0.000487,0.006357,-0.003346,-87.119040,0.006360,
1790,920,-1.848424,-5.548807,0.999998,0.000138,-0.002260,0.004788,-0.000345,0.004805,-0.002277,-87.204737,0.004807,
1050,1400,0.306331,-2.439144,0.999997,0.000187,-0.002577,0.004589,0.001289,0.004814,-0.002802,80.103684,0.004835,
1570,1980,-0.077700,-0.189828,0.999998,0.000151,-0.000426,0.003522,0.000650,0.003626,-0.000530,80.883465,0.003917,
1560,1420,-0.717680,-2.713857,0.999997,0.000190,-0.003030,0.005424,-0.000454,0.005449,-0.003054,-86.934999,0.005462,
710,1720,0.832833,-1.497923,0.999998,0.000157,-0.002405,0.005047,-0.000009,0.005047,-0.002405,-89.934034,0.005049,
880,940,1.403469,-5.521228,0.999997,0.000219,-0.002347,0.005719,0.000681,0.005776,-0.002404,85.210256,0.005803,
560,730,1.842462,-6.357541,0.999958,0.000000,-0.003251,0.005685,0.000258,0.005692,-0.003259,88.348579,0.005712,
630,470,1.233357,-7.767654,0.999998,0.000187,-0.002528,0.005095,-0.000072,0.005095,-0.002528,-89.461155,0.005095,
1850,1810,-0.891828,-1.207144,0.999998,0.000161,-0.002445,0.004994,0.000100,0.004995,-0.002447,89.230112,0.004996,
1340,610,-0.147801,-8.002191,0.999998,0.000167,-0.001723,0.003574,0.000964,0.003744,-0.001893,79.997255,0.003744,
1200,110,0.008915,-9.804276,0.999998,0.000166,-0.000294,0.003177,0.000028,0.003177,-0.000294,89.532252,0.003512,
1730,1290,-1.444393,-3.700661,0.999997,0.000232,-0.002741,0.005367,0.000431,0.005390,-0.002764,86.964135,0.005391,
1290,690,-0.067420,-7.847000,0.999999,0.000156,-0.001330,0.002662,0.000999,0.002898,-0.001566,76.707701,0.002902,
1260,840,-0.101586,-7.656269,0.999996,0.000219,-0.003063,0.001349,0.000001,0.001349,-0.003063,89.983227,0.003070,
800,790,1.303727,-6.310386,0.999996,0.000222,-0.002959,0.005611,0.000486,0.005639,-0.002986,86.763398,0.005642,
1790,190,-0.615476,-9.260862,0.999998,0.000184,-0.002157,0.005070,-0.000687,0.005135,-0.002221,-84.618915,0.005150,
1770,950,-1.836426,-5.409977,0.999998,0.000161,-0.002243,0.004855,-0.000339,0.004871,-0.002259,-87.272224,0.004875,
1650,350,-0.620626,-8.656383,0.999997,0.000186,-0.002220,0.004820,-0.000017,0.004820,-0.002220,-89.858281,0.004825,
1300,1790,-0.055180,-0.795302,0.999999,0.000130,-0.000747,0.003501,0.000029,0.003501,-0.000747,89.605787,0.003688,
1590,1070,-1.485971,-4.812459,0.999997,0.000218,-0.001960,0.005410,0.000381,0.005430,-0.001979,87.048878,0.005496,
1520,1360,-0.663701,-2.958372,0.999996,0.000210,-0.003333,0.005676,-0.000591,0.005715,-0.003371,-86.265624,0.005746,
1660,730,-1.174729,-6.653529,0.999998,0.000215,-0.003025,0.005615,-0.000259,0.005623,-0.003033,-88.286613,0.005628,
1680,850,-1.473669,-5.962580,0.999996,0.000248,-0.002686,0.005448,-0.000632,0.005497,-0.002735,-85.586805,0.005497,
1300,1900,-0.029576,-0.420951,0.999998,0.000153,-0.000398,0.003273,0.000091,0.003276,-0.000400,88.582606,0.003574,
840,1670,0.609525,-1.556342,0.999997,0.000187,-0.002120,0.004812,0.000056,0.004812,-0.002121,89.533567,0.004824,
760,570,1.041034,-7.459790,0.999998,0.000172,-0.002714,0.005271,-0.000098,0.005272,-0.002715,-89.297209,0.005273,
880,1150,1.327844,-4.356085,0.999998,0.000180,-0.002672,0.005852,-0.000720,0.005912,-0.002732,-85.205377,0.005918,
1010,520,0.353699,-8.154175,0.999998,0.000184,-0.002105,0.004434,-0.000665,0.004501,-0.002172,-84.249638,0.004502,
1340,1190,-0.423757,-2.956295,0.999998,0.000191,-0.001794,0.002729,-0.001699,0.003296,-0.002361,-71.544872,0.003398,
840,450,0.684428,-8.205238,0.999998,0.000194,-0.002403,0.004956,-0.000216,0.004963,-0.002410,-88.316877,0.004963,
1560,1400,-0.740757,-2.823881,0.999998,0.000184,-0.003104,0.005555,-0.000428,0.005576,-0.003125,-87.178508,0.005590,
680,1590,1.100980,-2.205424,0.999998,0.000176,-0.002532,0.005084,0.000078,0.005085,-0.002533,89.410855,0.005085,
920,1180,1.134648,-4.125931,0.999998,0.000197,-0.003151,0.006294,-0.000606,0.006332,-0.003190,-86.346268,0.006332,
560,720,1.839782,-6.426498,0.999954,0.000000,-0.003301,0.005007,0.000553,0.005043,-0.003337,86.209307,0.005130,
1810,1260,-1.709291,-3.936152,0.999998,0.000176,-0.002483,0.005000,0.000406,0.005022,-0.002505,86.902806,0.005022,
820,1680,0.638599,-1.532495,0.999997,0.000188,-0.002210,0.004875,0.000035,0.004876,-0.002210,89.716007,0.004883,
1890,920,-2.070036,-5.489857,0.999998,0.000179,-0.002166,0.004323,-0.000157,0.004327,-0.002170,-88.618738,0.004327,
1850,1790,-0.936939,-1.311241,0.999998,0.000174,-0.002431,0.005008,0.000061,0.005009,-0.002431,89.526866,0.005010,
1730,1270,-1.484509,-3.809865,0.999998,0.000227,-0.002704,0.005296,0.000476,0.005325,-0.002733,86.608308,0.005325,
1630,920,-1.476014,-5.609589,0.999997,0.000219,-0.002399,0.005508,-0.000696,0.005569,-0.002460,-85.005000,0.005581,
800,770,1.263104,-6.423475,0.999997,0.000186,-0.002989,0.005638,0.000412,0.005658,-0.003009,87.273345,0.005662,
630,490,1.264298,-7.665474,0.999997,0.000195,-0.002533,0.005095,-0.000054,0.005096,-0.002533,-89.594197,0.005096,
740,1040,1.769476,-4.978445,0.999998,0.000168,-0.002143,0.004907,-0.000126,0.004909,-0.002146,-88.978744,0.004922,
1650,330,-0.592565,-8.755502,0.999997,0.000198,-0.002129,0.004818,-0.000062,0.004819,-0.002130,-89.488912,0.004830,
1610,1640,-0.615140,-1.682176,0.999998,0.000204,-0.002248,0.004827,-0.000145,0.004830,-0.002251,-88.827426,0.004834,
720,1530,1.083710,-2.449845,0.999998,0.000194,-0.002590,0.005188,0.000097,0.005189,-0.002592,89.288449,0.005189,
1120,250,0.087481,-9.323907,0.999999,0.000153,-0.000863,0.003547,-0.000005,0.003547,-0.000863,-89.935741,0.003700,
1690,130,-0.282217,-9.639584,0.999998,0.000189,-0.001182,0.004310,-0.001006,0.004488,-0.001360,-79.942902,0.004603,
740,470,0.955605,-7.946016,0.999998,0.000168,-0.002549,0.005085,-0.000131,0.005087,-0.002552,-89.016689,0.005087,
1250,840,-0.070471,-7.681010,0.999996,0.000222,-0.003419,0.001230,-0.000108,0.001233,-0.003422,-88.669777,0.003466,
1140,450,0.115286,-8.605246,0.999998,0.000183,-0.001373,0.003675,-0.000336,0.003697,-0.001395,-86.209216,0.003734,
1180,1560,0.063808,-1.608771,0.999999,0.000135,-0.001294,0.003518,0.000210,0.003528,-0.001303,87.502808,0.003567,
660,930,1.888373,-5.494743,0.999998,0.000184,-0.002255,0.004746,0.000350,0.004763,-0.002272,87.149128,0.004765,
1290,670,-0.066678,-7.902957,0.999998,0.000168,-0.001358,0.002767,0.000913,0.002960,-0.001551,78.066829,0.002961,
1080,1360,0.241907,-2.520189,0.999997,0.000174,-0.002492,0.004298,0.001592,0.004652,-0.002847,77.440819,0.004691,
1550,1980,-0.070060,-0.187956,0.999999,0.000131,-0.000296,0.003502,0.000617,0.003600,-0.000394,80.998457,0.003949,
1850,1960,-0.413362,-0.431595,0.999997,0.000186,-0.002387,0.005377,0.001090,0.005527,-0.002538,82.158582,0.005533,
880,960,1.436988,-5.408816,0.999997,0.000220,-0.002173,0.005565,0.000546,0.005603,-0.002211,85.981900,0.005645,
1670,1580,-0.831112,-2.075559,0.999998,0.000174,-0.002512,0.005045,-0.000191,0.005050,-0.002517,-88.551331,0.005050,
840,380,0.602594,-8.548601,0.999998,0.000226,-0.002101,0.004807,-0.000036,0.004807,-0.002101,-89.702357,0.004820,
1770,930,-1.813894,-5.508387,0.999998,0.000161,-0.002258,0.004830,-0.000358,0.004848,-0.002276,-87.119189,0.004851,
1320,1790,-0.070483,-0.800063,0.999999,0.000128,-0.000881,0.003535,-0.000021,0.003535,-0.000881,-89.725223,0.003681,
1590,1030,-1.507370,-5.027104,0.999997,0.000202,-0.001877,0.005420,0.000041,0.005420,-0.001877,89.676248,0.005505,
1520,1120,-1.237874,-4.472342,0.999997,0.000203,-0.002625,0.006344,0.000656,0.006392,-0.002673,85.838431,0.006420,
1000,1030,1.267235,-5.021170,0.999997,0.000225,-0.002478,0.007591,0.000016,0.007591,-0.002478,89.907137,0.007741,
1790,170,-0.559453,-9.357183,0.999998,0.000198,-0.002064,0.005090,-0.000877,0.005196,-0.002170,-83.111992,0.005219,
920,210,0.251215,-9.382881,0.999998,0.000189,-0.001057,0.004037,0.000404,0.004068,-0.001089,85.492820,0.004212,
840,1650,0.631868,-1.650658,0.999998,0.000170,-0.002252,0.004870,0.000131,0.004873,-0.002255,88.943436,0.004877,
1100,1170,0.571677,-3.251140,0.999996,0.000250,-0.001728,0.003752,0.002456,0.004692,-0.002667,69.064444,0.004707,
1300,1880,-0.036304,-0.488786,0.999998,0.000166,-0.000462,0.003309,0.000074,0.003311,-0.000464,88.872795,0.003585,
560,710,1.796489,-6.452644,0.999917,0.000000,-0.003393,0.004360,0.000587,0.004404,-0.003437,85.694593,0.004629,
1850,1770,-0.978721,-1.408223,0.999998,0.000193,-0.002434,0.004982,0.000005,0.004982,-0.002434,89.960582,0.004983,
630,930,1.956726,-5.482994,0.999998,0.000167,-0.002195,0.004639,0.000303,0.004653,-0.002208,87.469556,0.004655,
920,1160,1.190184,-4.249716,0.999998,0.000203,-0.002952,0.006245,-0.000699,0.006298,-0.003005,-85.679210,0.006300,
1660,710,-1.138149,-6.765763,0.999998,0.000205,-0.003008,0.005614,-0.000170,0.005617,-0.003012,-88.871945,0.005622,
650,280,0.878012,-8.764506,0.999998,0.000160,-0.002369,0.005062,0.000157,0.005065,-0.002372,88.788714,0.005069,
890,1400,0.780726,-2.851394,0.999998,0.000157,-0.003143,0.005526,0.000326,0.005538,-0.003156,87.846182,0.005556,
1440,340,-0.240180,-8.928499,0.999998,0.000164,-0.001426,0.003957,0.000115,0.003959,-0.001429,88.777405,0.004010,
1100,250,0.105990,-9.316033,0.999998,0.000137,-0.000863,0.003603,0.000044,0.003603,-0.000863,89.438499,0.003762,
1560,1380,-0.767555,-2.936633,0.999998,0.000186,-0.003195,0.005647,-0.000373,0.005663,-0.003211,-87.587838,0.005680,
1650,310,-0.563798,-8.849352,0.999997,0.000189,-0.002028,0.004732,-0.000143,0.004735,-0.002031,-88.792450,0.004751,
660,1430,1.393772,-3.060504,0.999997,0.000197,-0.002619,0.005134,-0.000117,0.005136,-0.002621,-89.133878,0.005136,
1880,920,-2.046892,-5.497367,0.999998,0.000185,-0.002154,0.004384,-0.000165,0.004388,-0.002158,-88.556240,0.004388,
740,450,0.930271,-8.047614,0.999998,0.000186,-0.002503,0.005063,-0.000123,0.005065,-0.002505,-89.070765,0.005065,
950,860,0.989765,-6.110536,0.999998,0.000178,-0.003489,0.006570,0.000312,0.006580,-0.003498,88.223157,0.006584,
940,130,0.130340,-9.699103,0.999998,0.000185,-0.000650,0.003636,0.000474,0.003688,-0.000701,83.766099,0.003917,
1470,600,-0.430295,-7.749525,0.999998,0.000172,-0.002564,0.004856,0.000878,0.004958,-0.002667,83.341011,0.004963,
840,360,0.578352,-8.642572,0.999998,0.000195,-0.001992,0.004730,0.000047,0.004730,-0.001992,89.599435,0.004750,
1290,650,-0.070480,-7.959400,0.999998,0.000168,-0.001381,0.002896,0.000830,0.003051,-0.001537,79.393259,0.003051,
1730,1250,-1.519994,-3.914883,0.999997,0.000207,-0.002670,0.005271,0.000528,0.005306,-0.002705,86.212022,0.005306,
1230,1710,0.001954,-1.064568,0.999999,0.000139,-0.001077,0.003516,0.000019,0.003516,-0.001077,89.763051,0.003603,
1210,380,0.024011,-8.886964,0.999998,0.000153,-0.001112,0.003544,-0.000110,0.003546,-0.001115,-88.651571,0.003627,
1900,1360,-1.755965,-3.564080,0.999997,0.000000,-0.002421,0.004987,0.000042,0.004987,-0.002421,89.678463,0.004988,
880,1130,1.370750,-4.471732,0.999998,0.000194,-0.002490,0.005785,-0.000718,0.005847,-0.002552,-85.078038,0.005863,
700,320,0.832880,-8.642629,0.999998,0.000158,-0.002392,0.005040,0.000037,0.005040,-0.002392,89.711872,0.005043,
1740,1110,-1.762428,-4.636316,0.999997,0.000198,-0.002266,0.004994,0.000423,0.005019,-0.002290,86.679251,0.005025,
1580,380,-0.513008,-8.604326,0.999997,0.000211,-0.002114,0.004675,0.000136,0.004677,-0.002116,88.852111,0.004684,
880,1400,0.813527,-2.871497,0.999998,0.000161,-0.003119,0.005533,0.000293,0.005543,-0.003129,88.063530,0.005558,
1790,150,-0.496022,-9.464463,0.999997,0.000230,-0.001938,0.005067,-0.001038,0.005218,-0.002088,-81.749076,0.005252,
1390,1520,-0.232395,-1.880932,0.999998,0.000159,-0.001813,0.003982,-0.000725,0.004071,-0.001902,-82.979173,0.004074,
1770,910,-1.793083,-5.603781,0.999998,0.000165,-0.002288,0.004852,-0.000373,0.004871,-0.002307,-87.015858,0.004873,
1520,1080,-1.330505,-4.721242,0.999997,0.000178,-0.002127,0.006169,0.000476,0.006196,-0.002155,86.726962,0.006291,
1120,450,0.142735,-8.588204,0.999998,0.000185,-0.001354,0.003744,-0.000313,0.003763,-0.001374,-86.497691,0.003809,
1310,1980,-0.013152,-0.167415,0.999999,0.000152,-0.000150,0.003057,0.000104,0.003061,-0.000154,88.149797,0.003449,
1180,1540,0.065293,-1.679262,0.999998,0.000142,-0.001321,0.003444,0.000240,0.003456,-0.001333,87.127461,0.003486,
660,910,1.867537,-5.590067,0.999998,0.000186,-0.002265,0.004735,0.000304,0.004748,-0.002278,87.514470,0.004749,
560,700,1.780493,-6.491723,0.999876,0.000000,-0.003456,0.004166,0.000416,0.004188,-0.003478,86.883879,0.004483,
1690,110,-0.225787,-9.729312,0.999998,0.000176,-0.000989,0.004211,-0.001117,0.004441,-0.001219,-78.378445,0.004589,
860,450,0.636201,-8.237415,0.999998,0.000251,-0.002366,0.004896,-0.000244,0.004904,-0.002374,-88.078113,0.004905,
1300,1860,-0.038023,-0.554941,0.999998,0.000147,-0.000524,0.003365,0.000072,0.003367,-0.000525,88.943164,0.003623,
1800,1990,-0.187396,-0.199907,0.999998,0.000183,-0.000608,0.004776,0.001953,0.005410,-0.001242,72.021113,0.005668,
1000,1010,1.259110,-5.172940,0.999996,0.000242,-0.002513,0.007855,-0.000021,0.007855,-0.002513,-89.885186,0.008024,
1450,960,-1.124366,-5.594758,0.999993,0.000307,-0.002903,0.007951,0.000394,0.007965,-0.002917,87.923829,0.008059,
960,1630,0.400873,-1.579525,0.999998,0.000178,-0.001898,0.004455,0.000320,0.004471,-0.001914,87.125261,0.004486,
920,1140,1.246033,-4.375341,0.999997,0.000206,-0.002706,0.006180,-0.000731,0.006239,-0.002766,-85.330239,0.006253,
1380,1790,-0.126118,-0.822942,0.999998,0.000173,-0.000899,0.003650,0.000051,0.003650,-0.000899,89.355358,0.003804,
630,910,1.933113,-5.573697,0.999998,0.000164,-0.002192,0.004591,0.000266,0.004602,-0.002203,87.758021,0.004603,
1850,1750,-1.014955,-1.510244,0.999998,0.000191,-0.002440,0.005039,-0.000013,0.005039,-0.002440,-89.901061,0.005040,
590,250,0.959254,-8.798341,0.999998,0.000163,-0.002421,0.004904,0.000057,0.004904,-0.002422,89.553737,0.004905,
770,280,0.606682,-8.938965,0.999997,0.000198,-0.002080,0.004863,0.000284,0.004875,-0.002091,87.661325,0.004891,
1890,50,-0.266152,-9.842668,0.999992,0.000365,-0.000986,0.007022,-0.003229,0.008162,-0.002126,-70.554958,0.008468,
1650,290,-0.531899,-8.944903,0.999997,0.000192,-0.001942,0.004740,-0.000247,0.004749,-0.001951,-87.883455,0.004774,
1580,810,-1.088044,-6.300825,0.999997,0.000191,-0.003288,0.006094,-0.000359,0.006108,-0.003301,-87.814597,0.006115,
660,1410,1.427511,-3.164072,0.999997,0.000200,-0.002602,0.005155,-0.000123,0.005157,-0.002604,-89.090720,0.005157,
1870,920,-2.025642,-5.505139,0.999998,0.000179,-0.002156,0.004451,-0.000193,0.004457,-0.002162,-88.329404,0.004457,
1390,1190,-0.543788,-3.414400,0.999995,0.000257,-0.003447,0.005576,-0.001904,0.005962,-0.003833,-78.557157,0.006042,
950,520,0.488496,-8.045738,0.999998,0.000211,-0.002403,0.004756,-0.000540,0.004796,-0.002444,-85.708139,0.004796,
1540,670,-0.696633,-7.216255,0.999997,0.000214,-0.003207,0.005604,0.000519,0.005634,-0.003237,86.642920,0.005655,
1290,630,-0.071361,-8.020983,0.999998,0.000154,-0.001385,0.003021,0.000738,0.003141,-0.001505,80.744120,0.003142,
760,430,0.854922,-8.180428,0.999998,0.000167,-0.002466,0.005023,-0.000139,0.005025,-0.002469,-88.937504,0.005025,
1580,1450,-0.742100,-2.593930,0.999997,0.000181,-0.002913,0.005337,-0.000408,0.005357,-0.002933,-87.178777,0.005365,
1450,990,-1.201447,-5.360517,0.999996,0.000254,-0.002908,0.008265,0.000302,0.008274,-0.002916,88.450539,0.008393,
1580,360,-0.491152,-8.698652,0.999997,0.000212,-0.002075,0.004589,0.000100,0.004591,-0.002076,89.137424,0.004598,
820,1660,0.666925,-1.633199,0.999997,0.000187,-0.002254,0.004901,0.000097,0.004902,-0.002255,89.223660,0.004908,
1560,1360,-0.797256,-3.050594,0.999998,0.000179,-0.003287,0.005722,-0.000316,0.005733,-0.003298,-87.993257,0.005754,
860,1150,1.380245,-4.371126,0.999998,0.000202,-0.002579,0.005699,-0.000701,0.005758,-0.002638,-85.192487,0.005765,
1900,1350,-1.772612,-3.613351,0.999997,0.000000,-0.002421,0.004926,0.000069,0.004927,-0.002422,89.465771,0.004927,
760,1830,0.520183,-0.885806,0.999998,0.000164,-0.001815,0.004744,-0.000563,0.004792,-0.001863,-85.130230,0.004831,
1730,1230,-1.558824,-4.019454,0.999997,0.000203,-0.002619,0.005262,0.000554,0.005301,-0.002658,85.999192,0.005301,
1230,1690,0.001170,-1.136733,0.999998,0.000152,-0.001107,0.003534,0.000001,0.003534,-0.001107,89.987910,0.003615,
1790,130,-0.433966,-9.559888,0.999997,0.000224,-0.001759,0.005025,-0.001253,0.005249,-0.001983,-79.864751,0.005301,
1490,1980,-0.050696,-0.180651,0.999999,0.000150,-0.000346,0.003343,0.000441,0.003395,-0.000398,83.276536,0.003712,
1210,1660,0.024544,-1.247072,0.999999,0.000134,-0.001132,0.003550,0.000109,0.003552,-0.001135,88.672848,0.003629,
1490,920,-1.109156,-5.764750,0.999997,0.000203,-0.003053,0.006793,-0.000408,0.006810,-0.003070,-87.633130,0.006821,
1520,1060,-1.363709,-4.845153,0.999997,0.000190,-0.001936,0.006193,0.000325,0.006206,-0.001949,87.712263,0.006347,
1590,1640,-0.571318,-1.654327,0.999997,0.000208,-0.002161,0.004759,-0.000159,0.004763,-0.002164,-88.684840,0.004769,
1770,890,-1.767745,-5.701632,0.999998,0.000181,-0.002368,0.004966,-0.000474,0.004996,-0.002399,-86.314078,0.004997,
1190,380,0.045960,-8.881213,0.999998,0.000181,-0.001077,0.003558,-0.000081,0.003559,-0.001078,-89.002246,0.003650,
1720,1350,-1.305643,-3.367280,0.999997,0.000240,-0.002858,0.005407,0.000273,0.005416,-0.002867,88.111093,0.005419,
740,800,1.493705,-6.197314,0.999998,0.000203,-0.002674,0.005295,0.000530,0.005330,-0.002709,86.211818,0.005331,
1180,1520,0.064745,-1.745709,0.999998,0.000142,-0.001318,0.003381,0.000298,0.003400,-0.001337,86.389934,0.003426,
560,690,1.776939,-6.540302,0.999824,0.000000,-0.003540,0.004782,-0.000174,0.004786,-0.003544,-88.805980,0.004967,
1080,1340,0.248676,-2.609477,0.999998,0.000175,-0.002673,0.004393,0.001721,0.004790,-0.003070,77.015938,0.004853,
1300,1840,-0.044253,-0.623108,0.999998,0.000145,-0.000595,0.003419,0.000079,0.003420,-0.000596,88.868222,0.003654,
1260,450,-0.034656,-8.636580,0.999997,0.000205,-0.001221,0.003516,0.000144,0.003521,-0.001226,88.254639,0.003574,
880,1380,0.841909,-2.980694,0.999998,0.000164,-0.003189,0.005640,0.000244,0.005647,-0.003196,88.416154,0.005663,
920,1120,1.295338,-4.497624,0.999998,0.000195,-0.002459,0.006075,-0.000723,0.006136,-0.002519,-85.193174,0.006168,
1850,1730,-1.051045,-1.609673,0.999998,0.000164,-0.002431,0.004996,-0.000052,0.004996,-0.002431,-89.599744,0.004997,
630,890,1.911721,-5.664719,0.999998,0.000184,-0.002233,0.004622,0.000257,0.004631,-0.002243,87.852933,0.004632,
1400,1790,-0.143927,-0.830865,0.999999,0.000143,-0.001005,0.003726,0.000016,0.003726,-0.001005,89.805032,0.003856,
840,340,0.552702,-8.737924,0.999997,0.000208,-0.001938,0.004764,0.000093,0.004765,-0.001939,89.208191,0.004793,
1640,370,-0.626019,-8.574368,0.999997,0.000197,-0.002184,0.004818,0.000003,0.004818,-0.002184,89.979032,0.004825,
1160,230,0.049949,-9.405328,0.999999,0.000148,-0.000677,0.003444,0.000045,0.003444,-0.000678,89.378668,0.003649,
1890,40,-0.181727,-9.917740,0.999998,0.000189,-0.000346,0.007345,-0.003820,0.008920,-0.001921,-67.594834,0.009390,
1320,250,-0.066722,-9.332955,0.999999,0.000149,-0.000833,0.003471,-0.000012,0.003471,-0.000833,-89.838825,0.003624,
1650,270,-0.501551,-9.039278,0.999997,0.000199,-0.001865,0.004624,-0.000324,0.004640,-0.001881,-87.149663,0.004667,
750,300,0.684415,-8.815553,0.999998,0.000179,-0.002127,0.004934,0.000216,0.004940,-0.002134,88.246239,0.004955,
940,1630,0.438235,-1.606000,0.999997,0.000187,-0.001977,0.004556,0.000302,0.004569,-0.001991,87.355805,0.004582,
1660,750,-1.214204,-6.541019,0.999997,0.000216,-0.003015,0.005656,-0.000325,0.005669,-0.003027,-87.858939,0.005673,
870,1400,0.843642,-2.891674,0.999998,0.000168,-0.003082,0.005526,0.000253,0.005533,-0.003089,88.318582,0.005546,
1440,320,-0.227356,-9.009737,0.999998,0.000173,-0.001339,0.003970,0.000073,0.003971,-0.001340,89.215322,0.004041,
760,410,0.826090,-8.282724,0.999998,0.000150,-0.002418,0.005036,-0.000076,0.005036,-0.002419,-89.417013,0.005038,
1290,1230,-0.132194,-2.515223,0.999996,0.000226,-0.002134,0.001719,-0.001200,0.002062,-0.002477,-74.046026,0.002653,
590,660,1.631104,-6.737019,0.999998,0.000198,-0.002634,0.005036,0.000090,0.005037,-0.002635,89.330336,0.005039,
970,320,0.299841,-8.967890,0.999997,0.000183,-0.001570,0.004203,-0.000026,0.004203,-0.001570,-89.739071,0.004248,
1880,1240,-1.908102,-4.111153,0.999998,0.000175,-0.002246,0.004626,0.000120,0.004628,-0.002248,89.002325,0.004629,
1560,1340,-0.828769,-3.168145,0.999997,0.000185,-0.003369,0.005844,-0.000264,0.005851,-0.003376,-88.358021,0.005874,
1730,1450,-1.166952,-2.848626,0.999998,0.000161,-0.002741,0.005261,0.000036,0.005261,-0.002741,89.744571,0.005262,
1390,1170,-0.631683,-3.530935,0.999994,0.000287,-0.002965,0.005522,-0.002226,0.006070,-0.003513,-76.161894,0.006095,
1850,920,-1.982710,-5.517810,0.999998,0.000165,-0.002183,0.004556,-0.000249,0.004565,-0.002192,-87.886438,0.004566,
1600,1450,-0.799868,-2.630105,0.999997,0.000192,-0.002894,0.005348,-0.000302,0.005359,-0.002905,-87.906546,0.005365,
1490,900,-1.041552,-5.901190,0.999997,0.000185,-0.003286,0.006783,-0.000366,0.006797,-0.003299,-87.919331,0.006798,
1690,90,-0.178468,-9.809612,0.999998,0.000166,-0.000771,0.003986,-0.001093,0.004225,-0.001010,-77.660531,0.004413,
1580,340,-0.470050,-8.788762,0.999997,0.000208,-0.001993,0.004581,0.000033,0.004581,-0.001993,89.710052,0.004594,
880,730,0.930847,-6.776841,0.999998,0.000167,-0.003341,0.005868,-0.000038,0.005868,-0.003341,-89.761711,0.005886,
1520,1040,-1.377539,-4.966313,0.999997,0.000196,-0.001814,0.005978,0.000125,0.005980,-0.001816,89.080069,0.006132,
1790,110,-0.356880,-9.667426,0.999998,0.000197,-0.001521,0.004945,-0.001419,0.005243,-0.001819,-78.152561,0.005324,
1730,600,-1.158636,-7.258505,0.999998,0.000167,-0.002738,0.005268,-0.000020,0.005268,-0.002738,-89.855403,0.005270,
820,1640,0.692111,-1.733076,0.999997,0.000189,-0.002315,0.004956,0.000138,0.004959,-0.002318,88.913997,0.004962,
1850,1710,-1.084527,-1.710055,0.999998,0.000179,-0.002408,0.004959,-0.000066,0.004959,-0.002409,-89.485307,0.004960,
1770,1310,-1.515873,-3.638473,0.999997,0.000209,-0.002648,0.005222,0.000358,0.005238,-0.002665,87.400395,0.005239,
1000,1130,1.042811,-4.268834,0.999996,0.000237,-0.003146,0.007202,-0.000026,0.007202,-0.003146,-89.855959,0.007221,
840,320,0.526772,-8.833730,0.999997,0.000205,-0.001900,0.004678,0.000108,0.004680,-0.001902,89.060103,0.004707,
1140,230,0.063817,-9.401189,0.999998,0.000165,-0.000751,0.003464,0.000024,0.003465,-0.000751,89.668644,0.003645,
560,790,1.930653,-6.046614,0.999992,0.000000,-0.002694,0.004409,-0.000171,0.004413,-0.002698,-88.624742,0.004449,
1190,1660,0.047431,-1.253212,0.999998,0.000170,-0.001136,0.003570,0.000080,0.003572,-0.001137,89.024559,0.003649,
880,1360,0.871711,-3.098281,0.999998,0.000166,-0.003239,0.005729,0.000195,0.005733,-0.003243,88.756665,0.005749,
1830,1640,-1.146684,-2.026838,0.999998,0.000158,-0.002493,0.005003,-0.000067,0.005004,-0.002493,-89.484985,0.005004,
1310,1220,-0.205481,-2.651615,0.999995,0.000263,-0.002196,0.002172,-0.001418,0.002592,-0.002616,-73.502244,0.003007,
920,1100,1.344078,-4.618294,0.999997,0.000204,-0.002243,0.005971,-0.000634,0.006020,-0.002291,-85.610317,0.006077,
850,1600,0.666255,-1.883423,0.999998,0.000202,-0.002402,0.004913,0.000240,0.004921,-0.002410,88.123020,0.004921,
1300,250,-0.051943,-9.335563,0.999998,0.000152,-0.000733,0.003442,-0.000044,0.003442,-0.000734,-89.397565,0.003626,
1420,1790,-0.165820,-0.842763,0.999998,0.000148,-0.001157,0.003774,0.000021,0.003774,-0.001157,89.756948,0.003867,
1300,1820,-0.047232,-0.692457,0.999998,0.000145,-0.000662,0.003434,0.000065,0.003435,-0.000663,89.087595,0.003644,
1150,1980,0.012378,-0.167317,0.999998,0.000144,-0.000187,0.003106,-0.000119,0.003111,-0.000192,-87.927361,0.003487,
630,870,1.886452,-5.761694,0.999998,0.000178,-0.002291,0.004749,0.000334,0.004764,-0.002307,87.290900,0.004765,
1140,710,0.116215,-7.707320,0.999998,0.000170,-0.001749,0.003123,-0.001561,0.003580,-0.002206,-73.673263,0.003612,
1180,1500,0.065348,-1.812900,0.999998,0.000155,-0.001308,0.003329,0.000366,0.003358,-0.001337,85.512284,0.003381,
1650,250,-0.465037,-9.131579,0.999997,0.000194,-0.001770,0.004623,-0.000405,0.004648,-0.001796,-86.387022,0.004688,
750,280,0.647786,-8.916105,0.999997,0.000237,-0.002049,0.004931,0.000331,0.004947,-0.002065,87.287725,0.004969,
1440,540,-0.333537,-8.088968,0.999997,0.000185,-0.002151,0.004396,0.000754,0.004482,-0.002237,83.513553,0.004482,
1050,380,0.221882,-8.794373,0.999998,0.000185,-0.001512,0.004000,-0.000252,0.004012,-0.001523,-87.386269,0.004051,
1610,1260,-1.151754,-3.734142,0.999997,0.000219,-0.003200,0.005932,0.000414,0.005951,-0.003219,87.408550,0.005958,
1870,990,-2.073213,-5.200571,0.999998,0.000153,-0.002065,0.004251,-0.000079,0.004252,-0.002066,-89.286037,0.004253,
1540,470,-0.512359,-8.238082,0.999998,0.000194,-0.002295,0.004758,0.000382,0.004779,-0.002315,86.905413,0.004780,
950,500,0.474724,-8.141304,0.999998,0.000210,-0.002328,0.004705,-0.000524,0.004744,-0.002367,-85.764631,0.004744,
960,130,0.116550,-9.705296,0.999998,0.000153,-0.000701,0.003583,0.000414,0.003623,-0.000740,84.530802,0.003828,
1290,610,-0.073103,-8.083097,0.999998,0.000161,-0.001407,0.003135,0.000643,0.003224,-0.001496,82.094272,0.003227,
1730,1210,-1.596874,-4.126764,0.999997,0.000200,-0.002538,0.005183,0.000545,0.005221,-0.002577,85.983728,0.005221,
1520,1020,-1.379900,-5.084449,0.999998,0.000194,-0.001811,0.005920,-0.000075,0.005921,-0.001812,-89.444610,0.006068,
1580,320,-0.444166,-8.880483,0.999997,0.000210,-0.001922,0.004526,-0.000030,0.004527,-0.001922,-89.737194,0.004544,
1790,90,-0.293265,-9.757537,0.999998,0.000185,-0.001157,0.004761,-0.001677,0.005203,-0.001599,-75.227830,0.005331,
1870,1240,-1.886047,-4.098594,0.999998,0.000149,-0.002289,0.004643,0.000158,0.004646,-0.002292,88.692174,0.004647,
600,1210,1.916353,-4.229844,0.999999,0.000122,-0.002287,0.004685,-0.000240,0.004693,-0.002295,-88.033161,0.004694,
860,730,0.997814,-6.740055,0.999998,0.000157,-0.003257,0.005835,0.000069,0.005836,-0.003258,89.568120,0.005849,
1770,1330,-1.481879,-3.535358,0.999996,0.000229,-0.002665,0.005201,0.000323,0.005214,-0.002678,87.650963,0.005215,
1330,1190,-0.404456,-2.865819,0.999998,0.000187,-0.001812,0.002250,-0.001361,0.002664,-0.002226,-73.085404,0.002857,
1540,810,-0.948850,-6.373560,0.999997,0.000199,-0.003570,0.006350,-0.000139,0.006352,-0.003572,-89.198514,0.006369,
1560,1320,-0.862193,-3.285963,0.999997,0.000205,-0.003429,0.005958,-0.000159,0.005960,-0.003431,-89.026867,0.005983,
1520,1170,-1.089515,-4.148504,0.999998,0.000191,-0.003194,0.006473,0.000555,0.006505,-0.003226,86.724963,0.006505,
1200,1290,0.033999,-2.333819,0.999997,0.000201,-0.001190,0.001534,0.000882,0.001794,-0.001451,73.536238,0.001905,
860,1870,0.284997,-0.627599,0.999998,0.000181,-0.001285,0.004183,-0.000554,0.004238,-0.001341,-84.271309,0.004333,
1430,1980,-0.038353,-0.175985,0.999998,0.000169,-0.000270,0.003257,0.000308,0.003284,-0.000297,85.039135,0.003633,
630,850,1.855165,-5.857707,0.999998,0.000165,-0.002342,0.004754,0.000348,0.004771,-0.002359,87.202404,0.004772,
1860,180,-0.747958,-9.175817,0.999998,0.000176,-0.002456,0.005138,-0.000329,0.005152,-0.002470,-87.526816,0.005154,
740,760,1.416777,-6.414237,0.999997,0.000222,-0.002763,0.005375,0.000402,0.005394,-0.002783,87.176940,0.005395,
1390,890,-0.654107,-6.520325,0.999994,0.000260,-0.002811,0.005530,0.002378,0.006160,-0.003441,75.151823,0.006174,
600,990,2.058535,-5.203424,0.999998,0.000168,-0.002081,0.004335,0.000083,0.004336,-0.002082,89.262524,0.004337,
700,300,0.797364,-8.744547,0.999998,0.000157,-0.002380,0.005039,0.000101,0.005040,-0.002381,89.216612,0.005043,
1720,1510,-1.051969,-2.516632,0.999997,0.000204,-0.002640,0.005252,-0.000092,0.005253,-0.002641,-89.330996,0.005253,
880,1340,0.905023,-3.213218,0.999998,0.000171,-0.003270,0.005842,0.000099,0.005843,-0.003271,89.379574,0.005857,
1360,1650,-0.157168,-1.337357,0.999998,0.000165,-0.001307,0.003738,-0.000245,0.003750,-0.001318,-87.224719,0.003804,
980,1910,0.116572,-0.422323,0.999998,0.000183,-0.000654,0.003600,-0.000362,0.003631,-0.000685,-85.167633,0.003859,
610,50,0.208173,-9.886419,0.999998,0.000170,-0.001764,0.005115,0.001796,0.005556,-0.002204,76.215863,0.005595,
1180,1700,0.054867,-1.112785,0.999999,0.000138,-0.001041,0.003559,0.000068,0.003560,-0.001042,89.156196,0.003661,
980,1130,1.103779,-4.332455,0.999998,0.000194,-0.003015,0.006913,-0.000351,0.006925,-0.003028,-87.979697,0.006944,
1650,230,-0.430737,-9.225643,0.999997,0.000184,-0.001668,0.004546,-0.000486,0.004584,-0.001706,-85.555796,0.004634,
1030,1670,0.254888,-1.324944,0.999998,0.000176,-0.001521,0.004074,0.000222,0.004083,-0.001530,87.734434,0.004125,
1020,230,0.163161,-9.356885,0.999998,0.000171,-0.000979,0.003794,0.000160,0.003800,-0.000985,88.086939,0.003944,
1080,1320,0.260522,-2.699247,0.999997,0.000204,-0.002867,0.004502,0.001856,0.004943,-0.003308,76.631611,0.005037,
630,80,0.302771,-9.767413,0.999998,0.000195,-0.002107,0.005362,0.001355,0.005600,-0.002345,80.026232,0.005625,
1690,510,-0.925249,-7.795360,0.999998,0.000161,-0.002581,0.005185,0.000177,0.005189,-0.002585,88.698535,0.005189,
840,300,0.498464,-8.925335,0.999998,0.000189,-0.001810,0.004565,0.000184,0.004570,-0.001815,88.344017,0.004602,
920,1080,1.377360,-4.735498,0.999997,0.000203,-0.002037,0.005870,-0.000513,0.005903,-0.002070,-86.306292,0.005990,
1020,1150,0.899616,-4.038181,0.999997,0.000199,-0.003420,0.007242,0.000521,0.007267,-0.003446,87.206672,0.007270,
1580,300,-0.419036,-8.970667,0.999997,0.000199,-0.001853,0.004442,-0.000089,0.004443,-0.001855,-89.194543,0.004463,
960,1420,0.546929,-2.587168,0.999997,0.000207,-0.002938,0.005188,0.000779,0.005262,-0.003012,84.571956,0.005280,
560,910,2.081999,-5.518425,0.999995,0.000000,-0.001960,0.004294,-0.000005,0.004294,-0.001960,-89.953389,0.004300,
1130,1510,0.136185,-1.832852,0.999998,0.000147,-0.001527,0.003597,0.000587,0.003663,-0.001594,83.546672,0.003673,
1730,1170,-1.662675,-4.330553,0.999997,0.000200,-0.002457,0.005139,0.000558,0.005180,-0.002498,85.823094,0.005181,
760,1810,0.561133,-0.982512,0.999998,0.000185,-0.001913,0.004851,-0.000459,0.004882,-0.001944,-86.137965,0.004916,
650,2010,0.113170,-0.111020,0.999998,0.000163,-0.000766,0.004449,-0.001778,0.004998,-0.001315,-72.853914,0.005182,
1280,1790,-0.040144,-0.793498,0.999998,0.000170,-0.000774,0.003478,0.000020,0.003478,-0.000774,89.725803,0.003652,
1560,1300,-0.900655,-3.405630,0.999997,0.000184,-0.003467,0.006060,-0.000051,0.006060,-0.003467,-89.694706,0.006081,
1590,1200,-1.228457,-4.066348,0.999997,0.000201,-0.003018,0.005946,0.000633,0.005990,-0.003062,85.983290,0.005991,
1440,300,-0.213958,-9.087795,0.999998,0.000171,-0.001241,0.003888,0.000016,0.003888,-0.001241,89.826211,0.003972,
1470,540,-0.397725,-8.035052,0.999998,0.000178,-0.002273,0.004586,0.000695,0.004655,-0.002343,84.271919,0.004655,
1810,1640,-1.095239,-1.998194,0.999997,0.000177,-0.002516,0.005057,-0.000064,0.005058,-0.002517,-89.516409,0.005058,
900,290,0.376375,-9.033466,0.999999,0.000160,-0.001577,0.004354,0.000170,0.004359,-0.001582,88.362551,0.004413,
1300,1800,-0.053710,-0.760587,0.999999,0.000126,-0.000718,0.003470,0.000037,0.003471,-0.000718,89.496427,0.003664,
1040,1470,0.310125,-2.152815,0.999998,0.000175,-0.002229,0.004381,0.000947,0.004513,-0.002362,82.007158,0.004515,
1140,1330,0.117350,-2.420378,0.999998,0.000172,-0.001821,0.003096,0.001692,0.003622,-0.002348,72.727981,0.003674,
1350,1980,-0.021293,-0.170046,0.999998,0.000153,-0.000188,0.003122,0.000163,0.003130,-0.000196,87.179007,0.003506,
1390,1280,-0.317871,-2.923112,0.999997,0.000209,-0.003287,0.005006,-0.001922,0.005430,-0.003711,-77.565525,0.005550,
740,740,1.378855,-6.520908,0.999997,0.000234,-0.002783,0.005364,0.000371,0.005381,-0.002800,87.394592,0.005382,
780,1140,1.598579,-4.467215,0.999997,0.000233,-0.002417,0.005250,-0.000562,0.005291,-0.002458,-85.832151,0.005296,
920,710,0.761785,-6.981656,0.999998,0.000182,-0.003379,0.005820,-0.000384,0.005836,-0.003395,-87.616700,0.005862,
630,830,1.821981,-5.951199,0.999998,0.000164,-0.002364,0.004746,0.000324,0.004760,-0.002378,87.395981,0.004760,
1860,200,-0.804804,-9.074772,0.999998,0.000152,-0.002451,0.005013,-0.000229,0.005020,-0.002458,-88.244014,0.005021,
980,1110,1.169783,-4.472428,0.999996,0.000227,-0.002730,0.006988,-0.000406,0.007005,-0.002747,-87.612784,0.007059,
860,1850,0.320653,-0.714699,0.999996,0.000239,-0.001395,0.004282,-0.000522,0.004330,-0.001442,-84.791178,0.004409,
660,350,0.976762,-8.425635,0.999998,0.000170,-0.002454,0.005057,0.000000,0.005057,-0.002454,-89.997762,0.005058,
1230,1670,0.001781,-1.206016,0.999998,0.000144,-0.001136,0.003523,0.000000,0.003523,-0.001136,-89.998417,0.003597,
1770,1350,-1.442308,-3.430952,0.999997,0.000222,-0.002677,0.005212,0.000278,0.005222,-0.002687,87.985755,0.005222,
1030,380,0.251162,-8.775281,0.999998,0.000182,-0.001504,0.004094,-0.000211,0.004102,-0.001512,-87.844346,0.004149,
1390,870,-0.565432,-6.637996,0.999995,0.000254,-0.003333,0.005578,0.001951,0.005986,-0.003741,78.177707,0.006048,
1550,1880,-0.210701,-0.560680,0.999998,0.000159,-0.000899,0.003917,0.000485,0.003966,-0.000947,84.307890,0.004142,
1520,1000,-1.370431,-5.203776,0.999997,0.000209,-0.001909,0.006151,-0.000283,0.006161,-0.001919,-87.988058,0.006305,
1900,1340,-1.789355,-3.662753,0.999997,0.000000,-0.002448,0.004847,0.000103,0.004849,-0.002449,89.193384,0.004849,
1120,710,0.152656,-7.640838,0.999998,0.000178,-0.002064,0.003551,-0.001675,0.004013,-0.002526,-74.590420,0.004058,
610,40,0.163243,-9.931591,0.999995,0.000261,-0.001369,0.005018,0.002039,0.005614,-0.001965,73.720314,0.005697,
700,280,0.760991,-8.844028,0.999999,0.000165,-0.002381,0.005049,0.000166,0.005053,-0.002385,88.719120,0.005055,
670,1720,0.928923,-1.562432,0.999998,0.000141,-0.002411,0.005062,0.000000,0.005062,-0.002411,89.996687,0.005064,
1580,280,-0.393711,-9.059788,0.999997,0.000183,-0.001764,0.004433,-0.000181,0.004438,-0.001769,-88.332522,0.004468,
1770,720,-1.470343,-6.571571,0.999998,0.000209,-0.002666,0.005191,-0.000306,0.005203,-0.002678,-87.775986,0.005204,
880,1320,0.941086,-3.331710,0.999998,0.000190,-0.003292,0.005947,0.000010,0.005947,-0.003292,89.937263,0.005959,
630,60,0.209066,-9.876256,0.999997,0.000192,-0.001987,0.004940,0.001412,0.005217,-0.002264,78.911239,0.005232,
1030,1650,0.264952,-1.407551,0.999997,0.000184,-0.001569,0.004091,0.000286,0.004106,-0.001583,87.110416,0.004141,
920,1060,1.406561,-4.855205,0.999997,0.000205,-0.001889,0.005817,-0.000341,0.005833,-0.001904,-87.469013,0.005949,
1730,1150,-1.694197,-4.435594,0.999998,0.000181,-0.002388,0.005039,0.000475,0.005069,-0.002419,86.356382,0.005071,
1000,230,0.184053,-9.347688,0.999998,0.000163,-0.000947,0.003835,0.000215,0.003845,-0.000957,87.430264,0.004003,
740,1830,0.557448,-0.905960,0.999997,0.000199,-0.001880,0.004854,-0.000600,0.004907,-0.001933,-84.952361,0.004944,
1190,1410,0.047229,-2.081480,0.999998,0.000168,-0.001244,0.002827,0.000550,0.002900,-0.001316,82.444120,0.002904,
1130,1490,0.135793,-1.903451,0.999998,0.000162,-0.001574,0.003569,0.000654,0.003651,-0.001656,82.864908,0.003656,
960,1400,0.564831,-2.690427,0.999997,0.000211,-0.003043,0.005350,0.000794,0.005424,-0.003118,84.643487,0.005444,
1450,970,-1.153424,-5.513101,0.999995,0.000293,-0.002873,0.007958,0.000375,0.007971,-0.002886,88.020507,0.008071,
1700,1510,-0.998834,-2.483493,0.999998,0.000160,-0.002695,0.005256,-0.000118,0.005257,-0.002697,-89.146486,0.005258,
1650,210,-0.392395,-9.313343,0.999997,0.000195,-0.001545,0.004502,-0.000570,0.004555,-0.001598,-84.665583,0.004622,
1320,1190,-0.387077,-2.781676,0.999998,0.000192,-0.001969,0.001924,-0.000989,0.002161,-0.002206,-76.526873,0.002522,
1080,1300,0.272747,-2.790481,0.999998,0.000190,-0.003055,0.004689,0.001940,0.005148,-0.003514,76.694510,0.005261,
1560,1500,-0.634702,-2.293218,0.999997,0.000202,-0.002659,0.005087,-0.000464,0.005114,-0.002687,-86.580326,0.005116,
780,630,1.073369,-7.171521,0.999997,0.000187,-0.002848,0.005374,-0.000020,0.005374,-0.002848,-89.858541,0.005378,
1690,530,-0.950848,-7.689542,0.999998,0.000179,-0.002621,0.005197,0.000173,0.005201,-0.002624,88.732919,0.005201,
840,280,0.469517,-9.017427,0.999997,0.000208,-0.001705,0.004586,0.000278,0.004598,-0.001717,87.470571,0.004647,
1440,770,-0.487799,-6.949006,0.999997,0.000223,-0.003692,0.005832,0.001269,0.005998,-0.003858,82.541204,0.006080,
560,420,1.309739,-7.917600,0.999960,0.000000,-0.001076,0.004546,0.000174,0.004552,-0.001081,88.231788,0.004756,
590,80,0.395542,-9.681212,0.999997,0.000178,-0.002307,0.006017,0.001492,0.006277,-0.002566,80.136938,0.006312,
1790,1640,-1.045963,-1.963471,0.999997,0.000177,-0.002476,0.005071,-0.000100,0.005073,-0.002477,-89.237246,0.005073,
700,1470,1.224543,-2.794312,0.999998,0.000160,-0.002653,0.005198,0.000003,0.005198,-0.002653,89.979442,0.005198,
1580,1970,-0.099115,-0.227798,0.999998,0.000156,-0.000569,0.003554,0.000654,0.003655,-0.000670,81.197105,0.003892,
650,2000,0.155030,-0.154736,0.999998,0.000158,-0.000911,0.004618,-0.001793,0.005149,-0.001442,-73.518766,0.005312,
630,810,1.791969,-6.046870,0.999998,0.000156,-0.002402,0.004794,0.000301,0.004806,-0.002415,87.610342,0.004806,
740,720,1.341579,-6.627740,0.999997,0.000235,-0.002786,0.005382,0.000315,0.005394,-0.002799,87.792760,0.005395,
1590,940,-1.418433,-5.517818,0.999997,0.000232,-0.002302,0.005640,-0.000636,0.005691,-0.002352,-85.448124,0.005719,
1860,220,-0.856981,-8.972148,0.999998,0.000151,-0.002438,0.005010,-0.000169,0.005014,-0.002442,-88.701385,0.005015,
870,1340,0.937309,-3.232610,0.999998,0.000154,-0.003254,0.005824,0.000045,0.005824,-0.003254,89.714619,0.005837,
1490,1640,-0.369019,-1.518757,0.999997,0.000203,-0.001872,0.004397,-0.000316,0.004412,-0.001888,-87.124975,0.004428,
800,1750,0.583700,-1.223034,0.999998,0.000174,-0.002133,0.004784,-0.000148,0.004788,-0.002136,-88.776126,0.004797,
1390,1350,-0.263142,-2.588400,0.999997,0.000210,-0.002694,0.004485,-0.001635,0.004840,-0.003048,-77.756400,0.004894,
1440,260,-0.184582,-9.243306,0.999998,0.000178,-0.001100,0.003819,-0.000085,0.003820,-0.001101,-89.008014,0.003933,
1200,1270,0.039178,-2.361525,0.999997,0.000199,-0.001372,0.001342,0.000900,0.001614,-0.001643,73.226218,0.001881,
680,530,1.192788,-7.541576,0.999998,0.000175,-0.002575,0.005171,-0.000058,0.005171,-0.002575,-89.567665,0.005171,
1550,1860,-0.236044,-0.640256,0.999998,0.000188,-0.001000,0.004036,0.000472,0.004080,-0.001044,84.694414,0.004239,
1890,1710,-1.182248,-1.782314,0.999998,0.000140,-0.002457,0.004878,0.000008,0.004878,-0.002457,89.936391,0.004878,
1790,70,-0.203873,-9.858955,0.999998,0.000204,-0.000751,0.004810,-0.001957,0.005430,-0.001371,-72.427768,0.005647,
1580,260,-0.365755,-9.148558,0.999998,0.000177,-0.001659,0.004318,-0.000231,0.004327,-0.001667,-87.786285,0.004364,
880,1300,0.978741,-3.451107,0.999998,0.000183,-0.003332,0.005977,-0.000076,0.005978,-0.003333,-89.531765,0.005991,
1540,610,-0.630439,-7.543705,0.999998,0.000192,-0.002865,0.005227,0.000568,0.005267,-0.002904,86.003271,0.005276,
650,1720,0.978697,-1.595114,0.999998,0.000166,-0.002466,0.005055,0.000005,0.005055,-0.002466,89.959796,0.005055,
1760,190,-0.549772,-9.301237,0.999997,0.000206,-0.002215,0.004964,-0.000610,0.005016,-0.002266,-85.177218,0.005023,
1770,700,-1.434241,-6.675124,0.999997,0.000215,-0.002663,0.005209,-0.000256,0.005217,-0.002672,-88.139270,0.005218,
1370,1180,-0.529753,-3.285681,0.999995,0.000272,-0.002377,0.004209,-0.002334,0.004952,-0.003120,-72.337721,0.005008,
1170,110,0.017742,-9.804117,0.999998,0.000160,-0.000229,0.003159,0.000079,0.003161,-0.000231,88.657989,0.003525,
1340,710,-0.148476,-7.653973,0.999997,0.000190,-0.002052,0.003500,0.001646,0.003951,-0.002503,74.670151,0.003998,
1730,1130,-1.717148,-4.531278,0.999997,0.000185,-0.002306,0.004969,0.000406,0.004991,-0.002328,86.815701,0.004995,
1540,1770,-0.338111,-1.007172,0.999998,0.000157,-0.001428,0.004293,0.000175,0.004299,-0.001433,88.249367,0.004377,
1690,550,-0.977934,-7.586376,0.999998,0.000188,-0.002671,0.005222,0.000122,0.005224,-0.002673,89.117450,0.005225,
1130,1470,0.136674,-1.972318,0.999998,0.000177,-0.001617,0.003560,0.000753,0.003667,-0.001725,81.885248,0.003669,
590,70,0.346647,-9.745389,0.999998,0.000168,-0.002003,0.005925,0.001625,0.006245,-0.002323,78.853245,0.006313,
840,260,0.440403,-9.108006,0.999997,0.000210,-0.001604,0.004493,0.000362,0.004514,-0.001626,86.612374,0.004573,
1900,1330,-1.807427,-3.710710,0.999997,0.000000,-0.002461,0.004817,0.000126,0.004820,-0.002464,89.006525,0.004820,
1080,1280,0.292867,-2.884414,0.999997,0.000193,-0.003220,0.004826,0.001995,0.005293,-0.003687,76.811917,0.005428,
1650,190,-0.354961,-9.405227,0.999997,0.000202,-0.001421,0.004439,-0.000652,0.004511,-0.001493,-83.727508,0.004596,
1410,1680,-0.214654,-1.262918,0.999998,0.000144,-0.001508,0.004015,-0.000243,0.004026,-0.001519,-87.487047,0.004066,
1570,830,-1.103260,-6.192832,0.999998,0.000159,-0.003284,0.006155,-0.000466,0.006178,-0.003307,-87.181587,0.006183,
630,790,1.756797,-6.143214,0.999998,0.000171,-0.002447,0.004908,0.000310,0.004921,-0.002460,87.594640,0.004921,
960,1380,0.585564,-2.799531,0.999997,0.000203,-0.003165,0.005500,0.000794,0.005572,-0.003237,84.804601,0.005597,
1030,1630,0.273677,-1.490444,0.999998,0.000163,-0.001619,0.004114,0.000325,0.004132,-0.001637,86.763409,0.004162,
680,1470,1.277028,-2.823651,0.999998,0.000174,-0.002624,0.005180,-0.000020,0.005180,-0.002624,-89.851528,0.005181,
780,1120,1.622206,-4.570972,0.999997,0.000223,-0.002307,0.005149,-0.000468,0.005178,-0.002337,-86.421162,0.005186,
920,690,0.733692,-7.095967,0.999997,0.000196,-0.003294,0.005685,-0.000457,0.005708,-0.003317,-87.094018,0.005733,
1440,240,-0.170963,-9.320904,0.999998,0.000183,-0.001020,0.003826,-0.000130,0.003830,-0.001024,-88.460165,0.003966,
1610,1660,-0.591367,-1.586453,0.999998,0.000217,-0.002168,0.004771,-0.000108,0.004773,-0.002170,-89.109093,0.004779,
1860,240,-0.905788,-8.874637,0.999998,0.000169,-0.002430,0.004924,-0.000099,0.004925,-0.002431,-89.226748,0.004926,
1390,850,-0.492870,-6.748289,0.999997,0.000212,-0.003575,0.005524,0.001795,0.005866,-0.003916,79.231373,0.005975,
810,1340,1.127244,-3.331821,0.999998,0.000220,-0.003048,0.005646,-0.000184,0.005650,-0.003052,-88.790388,0.005656,
820,1970,0.131469,-0.237749,0.999998,0.000153,-0.000557,0.003816,-0.000936,0.004008,-0.000749,-78.415479,0.004262,
830,1080,1.561632,-4.765916,0.999997,0.000196,-0.002104,0.005239,-0.000428,0.005264,-0.002128,-86.674387,0.005296,
740,700,1.304816,-6.736974,0.999997,0.000239,-0.002802,0.005364,0.000247,0.005372,-0.002809,88.266605,0.005373,
1080,1910,0.062793,-0.400325,0.999998,0.000143,-0.000427,0.003366,-0.000203,0.003377,-0.000438,-86.939477,0.003673,
1540,590,-0.613019,-7.647637,0.999997,0.000216,-0.002766,0.005144,0.000547,0.005182,-0.002804,86.064002,0.005188,
1720,1370,-1.269713,-3.258399,0.999998,0.000236,-0.002815,0.005373,0.000201,0.005378,-0.002820,88.595695,0.005380,
880,1280,1.018405,-3.571416,0.999997,0.000178,-0.003340,0.005982,-0.000197,0.005987,-0.003344,-88.787148,0.006000,
640,130,0.489720,-9.523903,0.999996,0.000233,-0.002153,0.005266,0.000929,0.005381,-0.002268,82.967827,0.005403,
1370,1260,-0.279668,-2.908323,0.999997,0.000208,-0.003204,0.004628,-0.002193,0.005200,-0.003776,-75.374756,0.005375,
1580,240,-0.339607,-9.233813,0.999997,0.000184,-0.001551,0.004311,-0.000319,0.004328,-0.001569,-86.890466,0.004382,
660,530,1.246450,-7.508242,0.999997,0.000215,-0.002612,0.005175,-0.000054,0.005175,-0.002613,-89.605614,0.005175,
1130,1450,0.134986,-2.043362,0.999998,0.000165,-0.001663,0.003506,0.000878,0.003651,-0.001809,80.618165,0.003651,
920,1040,1.418993,-4.970978,0.999997,0.000193,-0.001777,0.005675,-0.000157,0.005678,-0.001780,-88.792630,0.005809,
590,60,0.299446,-9.803920,0.999997,0.000208,-0.001558,0.005909,0.001958,0.006391,-0.002040,76.165533,0.006529,
840,240,0.407387,-9.198839,0.999997,0.000215,-0.001534,0.004494,0.000435,0.004525,-0.001566,85.889899,0.004596,
1730,1110,-1.739262,-4.634681,0.999997,0.000199,-0.002262,0.005028,0.000445,0.005056,-0.002289,86.517315,0.005063,
1540,1750,-0.360493,-1.092891,0.999998,0.000193,-0.001524,0.004281,0.000073,0.004282,-0.001525,89.278498,0.004340,
1450,950,-1.092271,-5.673698,0.999995,0.000251,-0.002948,0.007776,0.000366,0.007788,-0.002961,88.046975,0.007863,
1690,570,-1.004547,-7.480543,0.999998,0.000183,-0.002742,0.005276,0.000117,0.005277,-0.002744,89.165832,0.005279,
630,770,1.722055,-6.242964,0.999998,0.000170,-0.002467,0.004967,0.000287,0.004978,-0.002478,87.795361,0.004978,
1550,670,-0.728762,-7.193069,0.999997,0.000223,-0.003182,0.005629,0.000448,0.005652,-0.003205,87.094455,0.005669,
930,620,0.620245,-7.504318,0.999997,0.000208,-0.002906,0.005287,-0.000597,0.005330,-0.002950,-85.851360,0.005341,
920,110,0.114280,-9.769077,0.999998,0.000167,-0.000461,0.003676,0.000585,0.003758,-0.000542,82.104244,0.004062,
1810,700,-1.540519,-6.623976,0.999997,0.000201,-0.002605,0.005112,-0.000255,0.005120,-0.002613,-88.106283,0.005121,
1340,630,-0.149306,-7.932607,0.999998,0.000198,-0.001765,0.003494,0.001093,0.003712,-0.001983,78.716389,0.003715,
1050,1720,0.198027,-1.106171,0.999998,0.000162,-0.001402,0.003865,0.000146,0.003869,-0.001406,88.410690,0.003917,
1030,1610,0.282262,-1.571145,0.999998,0.000175,-0.001672,0.004145,0.000399,0.004173,-0.001699,86.092903,0.004196,
1430,1960,-0.050661,-0.240580,0.999998,0.000159,-0.000350,0.003279,0.000290,0.003302,-0.000373,85.462982,0.003617,
1590,1660,-0.550548,-1.560169,0.999997,0.000242,-0.002099,0.004717,-0.000134,0.004720,-0.002102,-88.878399,0.004729,
820,1860,0.352375,-0.694822,0.999997,0.000196,-0.001364,0.004392,-0.000636,0.004462,-0.001433,-83.771597,0.004556,
1170,70,0.007507,-9.927922,0.999999,0.000136,-0.000106,0.003074,0.000105,0.003077,-0.000110,88.117509,0.003491,
1570,1200,-1.165980,-4.040226,0.999998,0.000189,-0.003158,0.006104,0.000607,0.006144,-0.003198,86.266772,0.006145,
740,680,1.269724,-6.843797,0.999998,0.000209,-0.002792,0.005335,0.000194,0.005340,-0.002797,88.632877,0.005342,
680,1450,1.307065,-2.929369,0.999998,0.000164,-0.002643,0.005164,-0.000053,0.005164,-0.002643,-89.612677,0.005165,
780,610,1.043838,-7.278646,0.999998,0.000178,-0.002827,0.005366,-0.000056,0.005366,-0.002828,-89.605232,0.005369,
1650,170,-0.312693,-9.490383,0.999998,0.000168,-0.001306,0.004339,-0.000736,0.004433,-0.001401,-82.695696,0.004532,
1080,1260,0.323405,-2.984336,0.999997,0.000207,-0.003409,0.004992,0.002047,0.005464,-0.003881,77.010599,0.005623,
1900,1320,-1.825637,-3.758078,0.999998,0.000000,-0.002443,0.004851,0.000100,0.004853,-0.002445,89.214990,0.004853,
1040,1530,0.291302,-1.893245,0.999998,0.000192,-0.002039,0.004249,0.000714,0.004329,-0.002119,83.606431,0.004329,
1060,1910,0.072331,-0.403741,0.999998,0.000195,-0.000550,0.003409,-0.000222,0.003422,-0.000563,-86.798719,0.003670,
810,1080,1.604052,-4.770464,0.999998,0.000171,-0.002112,0.005157,-0.000358,0.005175,-0.002130,-87.183598,0.005202,
1860,680,-1.631212,-6.654996,0.999997,0.000202,-0.002508,0.005057,-0.000108,0.005058,-0.002509,-89.182713,0.005058,
1390,810,-0.374711,-6.978505,0.999997,0.000224,-0.003595,0.005416,0.001946,0.005818,-0.003997,78.321038,0.005952,
1440,220,-0.155986,-9.396853,0.999998,0.000183,-0.000911,0.003695,-0.000154,0.003700,-0.000916,-88.090253,0.003854,
1730,580,-1.128359,-7.363999,0.999998,0.000169,-0.002708,0.005226,0.000030,0.005227,-0.002708,89.783256,0.005228,
1700,1390,-1.179621,-3.123491,0.999997,0.000207,-0.002848,0.005386,0.000128,0.005388,-0.002850,89.107727,0.005391,
620,130,0.539279,-9.477878,0.999997,0.000201,-0.002454,0.005314,0.000665,0.005371,-0.002510,85.143812,0.005375,
880,1260,1.062742,-3.692407,0.999997,0.000194,-0.003333,0.006095,-0.000318,0.006106,-0.003344,-88.073011,0.006115,
1520,610,-0.574548,-7.585007,0.999997,0.000229,-0.002835,0.005174,0.000647,0.005226,-0.002887,85.408497,0.005236,
1350,1260,-0.220338,-2.788434,0.999997,0.000210,-0.002825,0.003957,-0.002321,0.004675,-0.003543,-72.808526,0.004878,
1770,1370,-1.408134,-3.325867,0.999997,0.000211,-0.002677,0.005229,0.000223,0.005235,-0.002683,88.385007,0.005236,
1230,1650,0.002970,-1.277478,0.999998,0.000153,-0.001147,0.003546,0.000011,0.003546,-0.001147,89.860596,0.003619,
1580,220,-0.309892,-9.320800,0.999998,0.000184,-0.001454,0.004207,-0.000385,0.004233,-0.001480,-86.125163,0.004296,
700,260,0.718304,-8.946289,0.999998,0.000174,-0.002349,0.005019,0.000231,0.005026,-0.002356,88.208352,0.005030,
1640,1510,-0.836460,-2.386062,0.999998,0.000158,-0.002684,0.005225,-0.000235,0.005232,-0.002691,-88.302310,0.005233,
1730,1090,-1.762392,-4.733754,0.999998,0.000181,-0.002198,0.004959,0.000320,0.004974,-0.002212,87.448072,0.004984,
1130,1670,0.116578,-1.243781,0.999998,0.000160,-0.001300,0.003685,0.000227,0.003695,-0.001310,87.397538,0.003747,
1330,380,-0.112303,-8.857861,0.999999,0.000133,-0.001260,0.003714,0.000232,0.003725,-0.001271,87.338421,0.003787,
1320,230,-0.060419,-9.402396,0.999997,0.000204,-0.000766,0.003453,-0.000041,0.003454,-0.000767,-89.440868,0.003627,
1690,1010,-1.698035,-5.127804,0.999998,0.000177,-0.002082,0.005005,-0.000157,0.005008,-0.002086,-88.733597,0.005032,
840,220,0.373740,-9.287302,0.999998,0.000198,-0.001417,0.004403,0.000513,0.004448,-0.001461,85.002641,0.004535,
1870,1150,-2.008045,-4.508626,0.999998,0.000165,-0.002124,0.004453,0.000136,0.004456,-0.002126,88.815282,0.004457,
630,750,1.686803,-6.343389,0.999997,0.000178,-0.002477,0.004940,0.000258,0.004949,-0.002486,88.008280,0.004949,
890,1760,0.400261,-1.079371,0.999998,0.000168,-0.001734,0.004399,-0.000142,0.004403,-0.001737,-88.670501,0.004435,
780,690,1.171910,-6.844338,0.999998,0.000182,-0.002960,0.005482,0.000153,0.005485,-0.002963,88.960649,0.005491,
1460,1070,-1.215246,-4.705626,0.999996,0.000222,-0.002660,0.007638,-0.000095,0.007639,-0.002661,-89.471072,0.007756,
590,1210,1.939120,-4.242001,0.999999,0.000120,-0.002245,0.004647,-0.000186,0.004652,-0.002250,-88.458827,0.004652,
1600,410,-0.588042,-8.435607,0.999996,0.000208,-0.002176,0.004768,0.000157,0.004772,-0.002179,88.703383,0.004778,
1790,700,-1.487307,-6.650079,0.999998,0.000180,-0.002634,0.005160,-0.000264,0.005169,-0.002643,-88.062083,0.005170,
1320,710,-0.109769,-7.715724,0.999998,0.000171,-0.001725,0.003055,0.001543,0.003510,-0.002180,73.573299,0.003544,
1030,1590,0.287810,-1.653624,0.999998,0.000180,-0.001755,0.004207,0.000477,0.004245,-0.001793,85.456675,0.004262,
1270,1720,-0.039606,-1.038067,0.999999,0.000164,-0.000962,0.003519,-0.000038,0.003519,-0.000962,-89.508809,0.003638,
1850,1240,-1.838244,-4.076022,0.999998,0.000173,-0.002342,0.004699,0.000242,0.004707,-0.002350,88.034095,0.004707,
1860,660,-1.598250,-6.757787,0.999997,0.000208,-0.002528,0.005060,-0.000093,0.005062,-0.002529,-89.298028,0.005062,
1790,640,-1.382704,-6.961098,0.999998,0.000179,-0.002628,0.005177,-0.000123,0.005179,-0.002630,-89.097230,0.005179,
1390,790,-0.336769,-7.083116,0.999997,0.000220,-0.003456,0.005116,0.001949,0.005538,-0.003878,77.774710,0.005684,
1550,630,-0.680415,-7.416137,0.999997,0.000211,-0.002987,0.005406,0.000517,0.005437,-0.003019,86.484781,0.005448,
560,400,1.259987,-7.992875,0.999966,0.000000,-0.000815,0.004533,0.000008,0.004533,-0.000815,89.913511,0.004834,
1010,1960,0.059417,-0.243583,0.999999,0.000150,-0.000304,0.003339,-0.000360,0.003375,-0.000339,-84.405732,0.003716,
1440,200,-0.138694,-9.469356,0.999998,0.000210,-0.000815,0.003688,-0.000232,0.003700,-0.000827,-87.058049,0.003884,
1470,580,-0.420708,-7.845648,0.999998,0.000191,-0.002498,0.004731,0.000839,0.004827,-0.002594,83.466170,0.004832,
1080,1240,0.359026,-3.086928,0.999997,0.000225,-0.003506,0.005215,0.002064,0.005679,-0.003970,77.337550,0.005827,
740,660,1.234856,-6.950330,0.999998,0.000191,-0.002779,0.005321,0.000157,0.005324,-0.002782,88.890743,0.005326,
730,700,1.332913,-6.723056,0.999997,0.000209,-0.002784,0.005332,0.000245,0.005339,-0.002791,88.269367,0.005341,
780,1100,1.646056,-4.674441,0.999997,0.000193,-0.002206,0.005127,-0.000468,0.005157,-0.002235,-86.360015,0.005172,
710,1840,0.594865,-0.894554,0.999998,0.000200,-0.002254,0.004919,-0.000477,0.004951,-0.002286,-86.216026,0.004955,
960,1360,0.607641,-2.910393,0.999998,0.000199,-0.003296,0.005649,0.000756,0.005712,-0.003359,85.201150,0.005742,
880,1240,1.110061,-3.815816,0.999998,0.000181,-0.003274,0.006071,-0.000431,0.006091,-0.003294,-87.366567,0.006098,
890,860,1.188604,-6.003632,0.999998,0.000202,-0.003079,0.006086,0.000624,0.006128,-0.003121,86.123459,0.006128,
1120,1470,0.152491,-1.990157,0.999998,0.000177,-0.001713,0.003651,0.000853,0.003784,-0.001845,81.173916,0.003784,
1550,1200,-1.100434,-4.010066,0.999998,0.000179,-0.003282,0.006252,0.000526,0.006281,-0.003311,86.852779,0.006284,
1880,1830,-0.919026,-1.175398,0.999998,0.000203,-0.002391,0.004927,0.000122,0.004929,-0.002393,89.048812,0.004930,
1560,490,-0.574972,-8.110595,0.999998,0.000183,-0.002345,0.004836,0.000391,0.004858,-0.002366,86.892276,0.004858,
1250,780,-0.022675,-7.747687,0.999998,0.000171,-0.001245,0.001236,0.000571,0.001361,-0.001370,77.629194,0.001577,
610,1720,1.074666,-1.664651,0.999998,0.000173,-0.002399,0.004995,0.000064,0.004996,-0.002399,89.503463,0.004997,
1150,650,0.101399,-7.922631,0.999999,0.000155,-0.001509,0.003150,-0.000987,0.003350,-0.001709,-78.523558,0.003351,
1320,1370,-0.111073,-2.285051,0.999998,0.000189,-0.001677,0.003127,-0.001339,0.003475,-0.002026,-75.426903,0.003491,
1130,1430,0.134394,-2.113130,0.999998,0.000167,-0.001714,0.003463,0.001020,0.003656,-0.001908,79.250090,0.003657,
1300,230,-0.046204,-9.404616,0.999999,0.000135,-0.000645,0.003411,-0.000058,0.003412,-0.000646,-89.187682,0.003625,
1770,1810,-0.704227,-1.070431,0.999997,0.000206,-0.002339,0.005036,0.000323,0.005050,-0.002353,87.493211,0.005054,
1730,1070,-1.771672,-4.831924,0.999998,0.000162,-0.002140,0.004870,0.000152,0.004873,-0.002143,88.754465,0.004885,
620,1920,0.558345,-0.627524,0.999997,0.000194,-0.002459,0.005274,-0.000620,0.005324,-0.002508,-85.448430,0.005327,
1230,1630,0.002620,-1.347460,0.999998,0.000175,-0.001179,0.003531,0.000006,0.003531,-0.001179,89.924915,0.003595,
1470,1080,-1.218362,-4.655887,0.999996,0.000225,-0.002544,0.007180,0.000124,0.007181,-0.002545,89.268452,0.007282,
1580,200,-0.279744,-9.403172,0.999998,0.000185,-0.001333,0.004170,-0.000465,0.004209,-0.001372,-85.205509,0.004293,
840,200,0.336405,-9.375509,0.999997,0.000192,-0.001305,0.004370,0.000602,0.004433,-0.001368,84.014687,0.004540,
880,1790,0.377679,-0.957776,0.999998,0.000172,-0.001688,0.004352,-0.000195,0.004358,-0.001695,-88.148900,0.004394,
700,240,0.677871,-9.044786,0.999998,0.000187,-0.002320,0.005001,0.000313,0.005015,-0.002334,87.553879,0.005019,
690,220,0.654415,-9.129463,0.999998,0.000192,-0.002291,0.004992,0.000462,0.005021,-0.002320,86.385985,0.005026,
1650,370,-0.648888,-8.561920,0.999997,0.000190,-0.002259,0.004846,0.000019,0.004847,-0.002259,89.848633,0.004850,
1670,1640,-0.755097,-1.772535,0.999998,0.000184,-0.002365,0.004969,-0.000110,0.004971,-0.002366,-89.144080,0.004973,
1690,990,-1.690032,-5.228008,0.999997,0.000209,-0.002105,0.004971,-0.000192,0.004976,-0.002111,-88.445486,0.004995,
1830,1240,-1.792682,-4.055053,0.999998,0.000163,-0.002398,0.004794,0.000319,0.004808,-0.002412,87.468765,0.004808,
1030,1790,0.182850,-0.849452,0.999998,0.000176,-0.001140,0.003790,-0.000056,0.003791,-0.001141,-89.352037,0.003890,
1510,980,-1.318312,-5.337937,0.999998,0.000208,-0.002120,0.006331,-0.000422,0.006352,-0.002141,-87.147920,0.006464,
1860,640,-1.562805,-6.858128,0.999997,0.000212,-0.002529,0.005074,-0.000069,0.005075,-0.002530,-89.479367,0.005075,
1490,1940,-0.091690,-0.318154,0.999998,0.000222,-0.000549,0.003536,0.000396,0.003574,-0.000587,84.518734,0.003833,
1390,770,-0.311228,-7.182247,0.999997,0.000205,-0.003245,0.004921,0.001941,0.005359,-0.003683,77.286601,0.005483,
690,1840,0.641966,-0.925210,0.999997,0.000183,-0.002281,0.005008,-0.000493,0.005041,-0.002314,-86.146160,0.005047,
880,1220,1.156830,-3.937984,0.999998,0.000162,-0.003193,0.006067,-0.000517,0.006095,-0.003222,-86.812612,0.006099,
1900,1310,-1.842478,-3.806814,0.999998,0.000000,-0.002434,0.004912,0.000070,0.004913,-0.002435,89.452150,0.004913,
800,250,0.490896,-9.117059,0.999997,0.000187,-0.001973,0.004658,0.000368,0.004678,-0.001993,86.829772,0.004695,
1530,1930,-0.131188,-0.364591,0.999998,0.000177,-0.000612,0.003676,0.000536,0.003742,-0.000678,82.983654,0.003988,
920,1020,1.420580,-5.082469,0.999998,0.000182,-0.001780,0.005655,0.000101,0.005656,-0.001781,89.221966,0.005784,
1000,1090,1.175359,-4.566783,0.999997,0.000197,-0.002717,0.007410,-0.000001,0.007410,-0.002717,-89.996060,0.007498,
1080,490,0.210698,-8.390988,0.999998,0.000183,-0.001690,0.003987,-0.000607,0.004052,-0.001754,-83.959742,0.004064,
1820,170,-0.620528,-9.319730,0.999997,0.000221,-0.002217,0.005238,-0.000658,0.005295,-0.002274,-84.991319,0.005313,
1870,1830,-0.893881,-1.152612,0.999998,0.000229,-0.002419,0.004973,0.000125,0.004975,-0.002422,89.035203,0.004976,
1440,1130,-0.968633,-4.171836,0.999997,0.000214,-0.003225,0.007419,-0.000633,0.007457,-0.003263,-86.610334,0.007476,
1150,630,0.105297,-7.983581,0.999998,0.000169,-0.001481,0.003222,-0.000877,0.003380,-0.001639,-79.776966,0.003381,
1440,180,-0.122435,-9.542981,0.999998,0.000234,-0.000717,0.003594,-0.000245,0.003608,-0.000731,-86.753587,0.003815,
780,1080,1.668625,-4.775962,0.999997,0.000191,-0.002133,0.005053,-0.000310,0.005067,-0.002146,-87.531703,0.005087,
930,860,1.058428,-6.067852,0.999998,0.000155,-0.003379,0.006405,0.000482,0.006429,-0.003403,87.184995,0.006432,
1080,1220,0.416720,-3.200286,0.999996,0.000247,-0.003546,0.005304,0.001942,0.005711,-0.003954,78.155023,0.005850,
710,700,1.388598,-6.696926,0.999998,0.000183,-0.002733,0.005264,0.000267,0.005273,-0.002742,88.090310,0.005275,
1770,1790,-0.745561,-1.170960,0.999998,0.000177,-0.002375,0.005023,0.000232,0.005030,-0.002383,88.207067,0.005032,
1030,860,0.687091,-6.411534,0.999996,0.000229,-0.003775,0.006778,-0.000941,0.006862,-0.003858,-84.945145,0.006879,
740,640,1.202927,-7.057050,0.999998,0.000179,-0.002787,0.005308,0.000086,0.005309,-0.002788,89.387965,0.005311,
1130,1390,0.133917,-2.255247,0.999998,0.000177,-0.001784,0.003419,0.001298,0.003725,-0.002090,76.737850,0.003734,
1880,1320,-1.774544,-3.729707,0.999998,0.000178,-0.002439,0.004854,0.000122,0.004856,-0.002441,89.041712,0.004856,
1230,1610,0.001740,-1.418417,0.999998,0.000186,-0.001226,0.003516,-0.000009,0.003516,-0.001226,-89.888317,0.003570,
630,730,1.650269,-6.441781,0.999997,0.000192,-0.002505,0.004986,0.000229,0.004993,-0.002512,88.252735,0.004993,
950,480,0.459653,-8.235013,0.999998,0.000201,-0.002225,0.004679,-0.000459,0.004709,-0.002255,-86.213174,0.004711,
1170,1660,0.069941,-1.257523,0.999999,0.000121,-0.001144,0.003587,0.000076,0.003589,-0.001145,89.084035,0.003666,
1410,520,-0.264725,-8.230632,0.999998,0.000180,-0.001854,0.004152,0.000654,0.004223,-0.001925,83.853824,0.004228,
620,1650,1.163313,-1.998708,0.999998,0.000168,-0.002511,0.005018,0.000072,0.005019,-0.002512,89.450109,0.005019,
960,1340,0.632417,-3.024792,0.999998,0.000184,-0.003439,0.005764,0.000710,0.005818,-0.003494,85.615881,0.005857,
1890,610,-1.589612,-6.964104,0.999997,0.000193,-0.002533,0.005082,-0.000019,0.005082,-0.002534,-89.853769,0.005082,
1450,930,-1.020437,-5.821702,0.999996,0.000223,-0.003127,0.007349,0.000295,0.007357,-0.003135,88.386287,0.007384,
1580,180,-0.247493,-9.487798,0.999998,0.000198,-0.001235,0.004065,-0.000491,0.004110,-0.001280,-84.756382,0.004206,
560,130,0.715095,-9.340906,0.999843,0.000000,-0.004315,0.005010,-0.000365,0.005024,-0.004329,-87.760123,0.005445,
1000,640,0.433266,-7.572381,0.999997,0.000207,-0.002796,0.004937,-0.001012,0.005068,-0.002926,-82.663198,0.005088,
1480,50,-0.025980,-9.982391,0.999999,0.000124,-0.000154,0.003174,-0.000383,0.003217,-0.000197,-83.525611,0.003607,
1690,970,-1.678906,-5.327486,0.999997,0.000192,-0.002176,0.005046,-0.000339,0.005062,-0.002192,-87.314806,0.005078,
840,180,0.301233,-9.461494,0.999997,0.000209,-0.001146,0.004249,0.000638,0.004323,-0.001221,83.347623,0.004457,
1530,1910,-0.151635,-0.437324,0.999998,0.000166,-0.000731,0.003757,0.000491,0.003811,-0.000784,83.827933,0.004024,
1730,1050,-1.780794,-4.929309,0.999998,0.000166,-0.002106,0.004841,0.000157,0.004844,-0.002110,88.701943,0.004858,
1500,110,-0.092622,-9.777242,0.999998,0.000145,-0.000576,0.003569,-0.000451,0.003617,-0.000624,-83.857936,0.003867,
820,1620,0.715188,-1.832092,0.999997,0.000192,-0.002367,0.004955,0.000156,0.004958,-0.002370,88.783670,0.004960,
1390,750,-0.290170,-7.281768,0.999997,0.000198,-0.003043,0.004802,0.001845,0.005214,-0.003455,77.407011,0.005305,
1890,1940,-0.592331,-0.636972,0.999997,0.000244,-0.002376,0.005512,0.000890,0.005611,-0.002475,83.639013,0.005624,
1280,230,-0.033428,-9.407535,0.999998,0.000139,-0.000634,0.003406,-0.000004,0.003406,-0.000634,-89.936884,0.003623,
920,1000,1.410751,-5.194819,0.999998,0.000185,-0.001867,0.005811,0.000322,0.005825,-0.001880,87.606509,0.005946,
1510,960,-1.277464,-5.463852,0.999997,0.000209,-0.002313,0.006371,-0.000551,0.006406,-0.002348,-86.384988,0.006482,
700,220,0.631681,-9.145164,0.999998,0.000188,-0.002305,0.004962,0.000434,0.004988,-0.002331,86.593920,0.004991,
880,460,0.600376,-8.220729,0.999998,0.000202,-0.002326,0.004840,-0.000287,0.004852,-0.002338,-87.711246,0.004853,
590,1780,1.013644,-1.405081,0.999998,0.000144,-0.002393,0.004909,-0.000025,0.004909,-0.002393,-89.806355,0.004910,
1540,330,-0.384854,-8.878223,0.999999,0.000161,-0.001600,0.004439,-0.000041,0.004439,-0.001600,-89.613990,0.004496,
1290,570,-0.073271,-8.211605,0.999998,0.000165,-0.001405,0.003296,0.000490,0.003347,-0.001456,84.114268,0.003356,
1650,1630,-0.719234,-1.792011,0.999998,0.000178,-0.002345,0.004941,-0.000135,0.004944,-0.002347,-88.941359,0.004946,
1020,1530,0.333851,-1.930913,0.999998,0.000172,-0.002124,0.004385,0.000706,0.004461,-0.002200,83.878853,0.004461,
740,620,1.169638,-7.162263,0.999998,0.000178,-0.002772,0.005293,0.000040,0.005293,-0.002772,89.718482,0.005295,
1840,1510,-1.363570,-2.706465,0.999997,0.000206,-0.002538,0.005093,-0.000031,0.005094,-0.002538,-89.767941,0.005094,
1270,1940,-0.011986,-0.292501,0.999998,0.000148,-0.000303,0.003187,0.000057,0.003188,-0.000304,89.061037,0.003518,
1900,1300,-1.856957,-3.857774,0.999998,0.000000,-0.002410,0.004949,0.000054,0.004949,-0.002410,89.576567,0.004950,
1150,610,0.107647,-8.049064,0.999998,0.000181,-0.001473,0.003327,-0.000774,0.003449,-0.001595,-81.064095,0.003452,
820,1470,0.897023,-2.601204,0.999998,0.000168,-0.002817,0.005337,0.000190,0.005341,-0.002821,88.665928,0.005344,
1240,450,-0.010024,-8.641837,0.999998,0.000170,-0.001247,0.003513,0.000087,0.003514,-0.001248,88.949527,0.003563,
1080,1200,0.486752,-3.308403,0.999996,0.000244,-0.003401,0.005301,0.002030,0.005751,-0.003852,77.492033,0.005860,
1440,1110,-1.044430,-4.316317,0.999998,0.000161,-0.003120,0.007817,-0.000742,0.007867,-0.003170,-86.134658,0.007916,
1320,1910,-0.034665,-0.391792,0.999998,0.000127,-0.000422,0.003270,0.000095,0.003273,-0.000425,88.520085,0.003559,
1300,1780,-0.055938,-0.830773,0.999999,0.000149,-0.000770,0.003524,0.000037,0.003525,-0.000770,89.504474,0.003706,
1410,840,-0.531235,-6.678419,0.999996,0.000218,-0.003797,0.006041,0.001459,0.006252,-0.004009,81.741581,0.006335,
1860,620,-1.530313,-6.959893,0.999998,0.000200,-0.002525,0.005077,-0.000048,0.005077,-0.002525,-89.640014,0.005077,
1150,1660,0.094137,-1.263786,0.999998,0.000145,-0.001232,0.003617,0.000188,0.003624,-0.001239,87.783515,0.003684,
1520,980,-1.340455,-5.328450,0.999998,0.000187,-0.002068,0.006183,-0.000444,0.006207,-0.002092,-86.929119,0.006316,
1440,160,-0.107853,-9.614310,0.999998,0.000190,-0.000632,0.003542,-0.000284,0.003562,-0.000651,-86.128131,0.003793,
1410,500,-0.260047,-8.311475,0.999997,0.000186,-0.001783,0.004105,0.000575,0.004160,-0.001839,84.470497,0.004170,
820,1650,0.679472,-1.683799,0.999997,0.000186,-0.002288,0.004930,0.000119,0.004932,-0.002290,89.056459,0.004936,
1230,1590,0.001003,-1.487719,0.999998,0.000168,-0.001272,0.003447,0.000009,0.003447,-0.001272,89.896020,0.003487,
630,690,1.581033,-6.642572,0.999997,0.000203,-0.002530,0.005055,0.000174,0.005059,-0.002534,88.686886,0.005059,
560,120,0.713216,-9.384303,0.999710,0.000000,-0.005122,0.004619,-0.000421,0.004637,-0.005140,-87.531006,0.005668,
880,1850,0.291498,-0.700991,0.999998,0.000172,-0.001395,0.004200,-0.000438,0.004234,-0.001429,-85.551804,0.004308,
1370,880,-0.558320,-6.776616,0.999997,0.000215,-0.002199,0.004154,0.002362,0.004936,-0.002981,71.681065,0.004971,
1450,910,-0.942304,-5.968577,0.999997,0.000204,-0.003389,0.007213,0.000285,0.007221,-0.003397,88.461148,0.007225,
1580,160,-0.218629,-9.566771,0.999998,0.000181,-0.001103,0.003975,-0.000575,0.004039,-0.001167,-83.618392,0.004158,
1810,480,-1.191437,-7.753633,0.999998,0.000183,-0.002529,0.005107,0.000069,0.005107,-0.002529,89.480540,0.005107,
1820,190,-0.680525,-9.215877,0.999997,0.000205,-0.002271,0.005152,-0.000508,0.005186,-0.002306,-86.104060,0.005197,
880,790,1.051012,-6.417976,0.999998,0.000155,-0.003331,0.006054,0.000274,0.006062,-0.003339,88.326249,0.006073,
910,860,1.125326,-6.033023,0.999998,0.000174,-0.003222,0.006229,0.000572,0.006263,-0.003257,86.551766,0.006265,
1490,780,-0.696381,-6.700597,0.999998,0.000228,-0.003804,0.006281,0.000571,0.006314,-0.003836,86.768475,0.006362,
1260,230,-0.020132,-9.410000,0.999999,0.000147,-0.000702,0.003404,0.000016,0.003404,-0.000702,89.772527,0.003595,
1390,730,-0.277338,-7.372158,0.999997,0.000196,-0.002873,0.004661,0.001770,0.005056,-0.003268,77.419166,0.005128,
950,460,0.443278,-8.330391,0.999998,0.000181,-0.002082,0.004611,-0.000384,0.004633,-0.002104,-86.728689,0.004639,
1420,130,-0.071656,-9.723691,0.999998,0.000155,-0.000550,0.003390,-0.000228,0.003403,-0.000563,-86.700242,0.003648,
880,1200,1.207607,-4.059335,0.999998,0.000180,-0.003063,0.006014,-0.000611,0.006055,-0.003104,-86.163339,0.006056,
1880,1940,-0.569371,-0.612345,0.999997,0.000214,-0.002363,0.005461,0.000860,0.005555,-0.002457,83.802730,0.005567,
1630,1470,-0.859396,-2.578725,0.999998,0.000164,-0.002825,0.005355,-0.000228,0.005361,-0.002831,-88.401243,0.005364,
1570,1460,-0.701541,-2.520054,0.999997,0.000210,-0.002873,0.005282,-0.000466,0.005309,-0.002900,-86.743657,0.005316,
960,1320,0.662034,-3.141585,0.999998,0.000177,-0.003558,0.005896,0.000653,0.005941,-0.003603,86.067409,0.005986,
1290,550,-0.074403,-8.278870,0.999998,0.000153,-0.001397,0.003361,0.000404,0.003395,-0.001431,85.183463,0.003409,
1900,1290,-1.873604,-3.907167,0.999997,0.000000,-0.002369,0.004860,0.000071,0.004861,-0.002370,89.433465,0.004861,
700,200,0.582616,-9.244458,0.999997,0.000180,-0.002267,0.005016,0.000558,0.005059,-0.002310,85.641850,0.005065,
920,980,1.385188,-5.315020,0.999997,0.000214,-0.001991,0.005876,0.000475,0.005904,-0.002020,86.554538,0.006002,
580,1780,1.037515,-1.425838,0.999997,0.000187,-0.002337,0.004866,-0.000015,0.004866,-0.002338,-89.883191,0.004867,
1890,1860,-0.864865,-1.051432,0.999998,0.000142,-0.002443,0.004934,0.000188,0.004939,-0.002448,88.540064,0.004939,
1150,590,0.106418,-8.115127,0.999999,0.000160,-0.001485,0.003377,-0.000695,0.003475,-0.001582,-82.017623,0.003479,
740,600,1.138973,-7.269529,0.999998,0.000186,-0.002734,0.005301,0.000012,0.005301,-0.002734,89.912505,0.005302,
1020,1510,0.342594,-2.017777,0.999998,0.000161,-0.002158,0.004398,0.000736,0.004479,-0.002239,83.673868,0.004479,
1340,490,-0.143451,-8.441645,0.999998,0.000168,-0.001426,0.003689,0.000441,0.003727,-0.001464,85.106581,0.003755,
1860,600,-1.500217,-7.061866,0.999997,0.000197,-0.002528,0.005057,-0.000038,0.005057,-0.002529,-89.710273,0.005057,
780,1060,1.677773,-4.876488,0.999998,0.000187,-0.002060,0.004997,-0.000173,0.005001,-0.002064,-88.596228,0.005026,
1230,1570,0.000747,-1.556931,0.999998,0.000157,-0.001293,0.003458,0.000021,0.003458,-0.001293,89.748225,0.003495,
1110,1660,0.145732,-1.293302,0.999998,0.000155,-0.001267,0.003705,0.000209,0.003713,-0.001275,87.594059,0.003773,
850,40,0.039906,-10.006844,0.999999,0.000140,-0.000126,0.003410,0.000778,0.003574,-0.000289,78.118398,0.003970,
630,670,1.545119,-6.744903,0.999997,0.000215,-0.002522,0.005092,0.000151,0.005095,-0.002525,88.861522,0.005095,
1550,1260,-0.950006,-3.632217,0.999998,0.000167,-0.003513,0.006244,0.000129,0.006246,-0.003514,89.241894,0.006262,
1300,1910,-0.027179,-0.389421,0.999999,0.000130,-0.000363,0.003248,0.000091,0.003250,-0.000365,88.560189,0.003561,
560,110,0.689161,-9.417628,0.999663,0.000000,-0.005522,0.004943,0.000477,0.004965,-0.005544,87.397237,0.006095,
1020,840,0.660810,-6.499423,0.999996,0.000219,-0.003943,0.006654,-0.000899,0.006730,-0.004019,-85.186254,0.006772,
1200,1850,0.021085,-0.586302,0.999998,0.000187,-0.000592,0.003369,-0.000021,0.003369,-0.000592,-89.691011,0.003597,
580,1210,1.961071,-4.254573,0.999999,0.000123,-0.002209,0.004605,-0.000135,0.004607,-0.002211,-88.863360,0.004609,
1350,780,-0.202104,-7.352456,0.999997,0.000236,-0.002733,0.003864,0.002234,0.004549,-0.003418,72.946109,0.004737,
1580,140,-0.184565,-9.645246,0.999998,0.000148,-0.001003,0.003917,-0.000613,0.003992,-0.001078,-83.003501,0.004130,
1450,890,-0.862849,-6.113608,0.999997,0.000206,-0.003624,0.007051,0.000361,0.007064,-0.003636,88.062788,0.007065,
860,790,1.118079,-6.385532,0.999998,0.000210,-0.003257,0.005946,0.000374,0.005961,-0.003272,87.678086,0.005971,
1390,710,-0.266001,-7.467969,0.999997,0.000179,-0.002730,0.004490,0.001663,0.004854,-0.003094,77.633697,0.004915,
1810,460,-1.161993,-7.857274,0.999998,0.000186,-0.002513,0.005096,0.000089,0.005097,-0.002514,89.330057,0.005097,
1550,1180,-1.156695,-4.137534,0.999997,0.000188,-0.003111,0.006226,0.000615,0.006266,-0.003152,86.249072,0.006266,
1690,950,-1.656605,-5.430201,0.999997,0.000203,-0.002238,0.005117,-0.000457,0.005145,-0.002267,-86.457809,0.005157,
1320,1230,-0.200441,-2.694100,0.999996,0.000249,-0.002334,0.002639,-0.001936,0.003304,-0.002998,-71.047844,0.003652,
1450,680,-0.423337,-7.407210,0.999996,0.000243,-0.003003,0.005149,0.001187,0.005318,-0.003172,81.884056,0.005351,
1630,1430,-0.912600,-2.793251,0.999998,0.000171,-0.002914,0.005421,-0.000187,0.005425,-0.002918,-88.713693,0.005430,
1890,1950,-0.551854,-0.581784,0.999997,0.000238,-0.002329,0.005713,0.001067,0.005852,-0.002468,82.568964,0.005876,
1750,420,-0.956148,-8.157113,0.999998,0.000177,-0.002485,0.005075,0.000076,0.005075,-0.002485,89.424275,0.005076,
1870,1940,-0.546257,-0.587374,0.999996,0.000214,-0.002365,0.005426,0.000823,0.005512,-0.002451,84.033304,0.005523,
950,440,0.429438,-8.420218,0.999997,0.000216,-0.001965,0.004501,-0.000344,0.004519,-0.001983,-86.961541,0.004531,
880,1160,1.305490,-4.296912,0.999998,0.000189,-0.002749,0.005897,-0.000731,0.005959,-0.002810,-85.202556,0.005962,
1900,1280,-1.890932,-3.956284,0.999997,0.000000,-0.002323,0.004704,0.000078,0.004705,-0.002323,89.367372,0.004705,
1110,1940,0.038285,-0.298782,0.999998,0.000165,-0.000346,0.003253,-0.000170,0.003261,-0.000354,-87.305375,0.003579,
1680,870,-1.511117,-5.853558,0.999998,0.000188,-0.002567,0.005343,-0.000610,0.005390,-0.002614,-85.616526,0.005391,
860,630,0.840228,-7.308656,0.999998,0.000168,-0.002981,0.005444,-0.000260,0.005452,-0.002989,-88.235356,0.005460,
1450,1460,-0.376628,-2.258085,0.999997,0.000223,-0.002498,0.004677,-0.000941,0.004799,-0.002619,-82.652472,0.004805,
1290,530,-0.073135,-8.346982,0.999998,0.000156,-0.001367,0.003446,0.000344,0.003470,-0.001392,85.926699,0.003493,
840,160,0.265295,-9.545451,0.999998,0.000190,-0.001026,0.004207,0.000728,0.004307,-0.001126,82.230488,0.004467,
920,960,1.353593,-5.430837,0.999997,0.000223,-0.002178,0.005938,0.000606,0.005983,-0.002223,85.755061,0.006048,
700,180,0.529698,-9.345443,0.999997,0.000187,-0.002191,0.004930,0.000674,0.004993,-0.002254,84.638871,0.005001,
1150,570,0.108389,-8.184684,0.999998,0.000166,-0.001466,0.003435,-0.000642,0.003518,-0.001549,-82.664729,0.003526,
1880,1710,-1.157970,-1.764916,0.999999,0.000119,-0.002461,0.004900,-0.000030,0.004900,-0.002461,-89.763285,0.004900,
1390,840,-0.458984,-6.806431,0.999997,0.000203,-0.003609,0.005518,0.001789,0.005856,-0.003947,79.298951,0.005973,
1080,1180,0.560425,-3.414573,0.999995,0.000244,-0.002987,0.005147,0.002198,0.005703,-0.003543,75.804628,0.005759,
1140,1370,0.116430,-2.293926,0.999998,0.000134,-0.001704,0.003180,0.001374,0.003540,-0.002064,75.322549,0.003556,
890,440,0.559541,-8.329664,0.999998,0.000204,-0.002193,0.004754,-0.000258,0.004763,-0.002202,-87.877145,0.004768,
1300,1760,-0.062810,-0.900837,0.999999,0.000134,-0.000862,0.003542,0.000010,0.003542,-0.000862,89.871993,0.003694,
1770,1770,-0.786353,-1.272203,0.999998,0.000171,-0.002385,0.005051,0.000150,0.005054,-0.002388,88.843668,0.005057,
1230,1550,0.001832,-1.625855,0.999998,0.000157,-0.001277,0.003407,0.000002,0.003407,-0.001277,89.971212,0.003442,
1260,710,-0.028710,-7.849867,0.999998,0.000151,-0.001096,0.002172,0.000594,0.002277,-0.001200,80.016807,0.002278,
740,580,1.108533,-7.375658,0.999997,0.000191,-0.002704,0.005252,-0.000050,0.005253,-0.002704,-89.641917,0.005254,
1080,1530,0.217776,-1.829866,0.999998,0.000179,-0.001761,0.003969,0.000708,0.004055,-0.001847,83.056664,0.004060,
1350,380,-0.136990,-8.843320,0.999999,0.000142,-0.001267,0.003779,0.000193,0.003787,-0.001275,87.811904,0.003854,
1880,610,-1.564896,-6.980442,0.999998,0.000175,-0.002532,0.005071,-0.000020,0.005071,-0.002532,-89.852164,0.005071,
1680,1810,-0.515726,-0.957845,0.999997,0.000184,-0.001980,0.004734,0.000391,0.004757,-0.002002,86.681107,0.004777,
1790,490,-1.155148,-7.736050,0.999998,0.000178,-0.002556,0.005133,0.000086,0.005134,-0.002557,89.356629,0.005134,
560,100,0.648442,-9.467511,0.999584,0.000000,-0.005141,0.006010,0.001669,0.006255,-0.005385,81.666488,0.006777,
1580,120,-0.153555,-9.723087,0.999998,0.000156,-0.000823,0.003826,-0.000628,0.003910,-0.000906,-82.439556,0.004093,
630,650,1.512371,-6.847347,0.999997,0.000200,-0.002511,0.005099,0.000108,0.005101,-0.002512,89.188766,0.005101,
1860,580,-1.467465,-7.162390,0.999997,0.000196,-0.002545,0.005073,-0.000018,0.005073,-0.002545,-89.864280,0.005073,
1090,1660,0.169873,-1.307110,0.999998,0.000163,-0.001288,0.003790,0.000201,0.003798,-0.001296,87.735845,0.003861,
1440,140,-0.089407,-9.684512,0.999998,0.000163,-0.000540,0.003474,-0.000285,0.003494,-0.000560,-85.951970,0.003753,
1390,690,-0.257432,-7.557236,0.999997,0.000189,-0.002572,0.004394,0.001532,0.004715,-0.002893,78.130364,0.004756,
1450,870,-0.789149,-6.259809,0.999997,0.000196,-0.003834,0.006958,0.000491,0.006980,-0.003857,87.399875,0.006993,
1320,1250,-0.157954,-2.641645,0.999997,0.000217,-0.002271,0.002799,-0.002094,0.003552,-0.003024,-70.221183,0.003833,
760,250,0.572975,-9.072504,0.999998,0.000176,-0.001946,0.004823,0.000460,0.004855,-0.001977,86.129579,0.004882,
1900,1380,-1.722370,-3.462780,0.999997,0.000000,-0.002455,0.005088,0.000008,0.005088,-0.002455,89.939058,0.005089,
1880,1950,-0.528725,-0.558090,0.999997,0.000211,-0.002320,0.005572,0.001037,0.005706,-0.002454,82.637589,0.005725,
840,140,0.226786,-9.631368,0.999998,0.000172,-0.000878,0.004049,0.000770,0.004166,-0.000996,81.319602,0.004351,
1010,960,1.133182,-5.581489,0.999996,0.000238,-0.002887,0.007845,-0.000287,0.007853,-0.002894,-88.471223,0.007943,
1750,400,-0.926600,-8.258896,0.999998,0.000187,-0.002468,0.005054,0.000059,0.005055,-0.002469,89.549923,0.005055,
880,1140,1.349343,-4.414683,0.999998,0.000189,-0.002593,0.005807,-0.000707,0.005866,-0.002652,-85.221544,0.005875,
1650,1720,-0.599518,-1.349873,0.999997,0.000195,-0.002139,0.004819,0.000043,0.004819,-0.002139,89.647028,0.004829,
920,940,1.307017,-5.553723,0.999997,0.000225,-0.002398,0.006040,0.000703,0.006098,-0.002457,85.272834,0.006136,
1880,1860,-0.839887,-1.027746,0.999998,0.000151,-0.002416,0.004948,0.000209,0.004953,-0.002422,88.372802,0.004954,
700,380,0.930568,-8.339897,0.999998,0.000171,-0.002444,0.005044,-0.000034,0.005045,-0.002444,-89.738309,0.005045,
1690,930,-1.633394,-5.532340,0.999997,0.000226,-0.002304,0.005136,-0.000455,0.005164,-0.002331,-86.516468,0.005172,
1530,1180,-1.091686,-4.100837,0.999998,0.000183,-0.003252,0.006409,0.000544,0.006439,-0.003282,86.786092,0.006440,
890,360,0.476386,-8.707026,0.999997,0.000214,-0.002053,0.004585,-0.000088,0.004586,-0.002054,-89.238312,0.004594,
1620,780,-1.150683,-6.419783,0.999997,0.000202,-0.003195,0.005874,-0.000356,0.005888,-0.003209,-87.754246,0.005896,
1800,190,-0.637960,-9.245583,0.999998,0.000177,-0.002159,0.005106,-0.000696,0.005172,-0.002225,-84.579363,0.005188,
1080,550,0.223158,-8.150171,0.999998,0.000153,-0.001807,0.003984,-0.000774,0.004086,-0.001909,-82.517189,0.004089,
1290,510,-0.074251,-8.416008,0.999998,0.000152,-0.001351,0.003483,0.000285,0.003499,-0.001367,86.637150,0.003527,
1150,550,0.107443,-8.252821,0.999998,0.000152,-0.001479,0.003468,-0.000567,0.003532,-0.001544,-83.541948,0.003541,
740,780,1.453385,-6.304432,0.999998,0.000239,-0.002739,0.005390,0.000469,0.005417,-0.002766,86.706049,0.005417,
1230,1530,0.002199,-1.693248,0.999998,0.000152,-0.001266,0.003330,0.000009,0.003330,-0.001266,89.893995,0.003362,
560,90,0.557153,-9.543484,0.999476,0.000000,-0.003989,0.006804,0.002561,0.007381,-0.004566,77.304175,0.007450,
900,1530,0.614669,-2.147183,0.999997,0.000204,-0.002543,0.004981,0.000454,0.005008,-0.002570,86.562693,0.005009,
1210,780,0.025812,-7.743434,0.999998,0.000185,-0.001234,0.001263,-0.000650,0.001422,-0.001393,-76.249360,0.001625,
1680,1830,-0.476150,-0.863797,0.999998,0.000179,-0.001899,0.004627,0.000479,0.004662,-0.001934,85.822920,0.004685,
1450,1480,-0.367551,-2.165124,0.999998,0.000179,-0.002347,0.004575,-0.000845,0.004677,-0.002449,-83.138404,0.004679,
1520,960,-1.302797,-5.449480,0.999997,0.000207,-0.002271,0.006243,-0.000579,0.006282,-0.002310,-86.129488,0.006355,
1790,510,-1.183111,-7.632032,0.999998,0.000164,-0.002569,0.005161,0.000064,0.005162,-0.002570,89.524328,0.005162,
1470,1780,-0.230316,-0.911316,0.999998,0.000160,-0.001131,0.003978,0.000124,0.003981,-0.001134,88.607460,0.004102,
960,1300,0.695439,-3.262272,0.999997,0.000196,-0.003643,0.006072,0.000569,0.006105,-0.003676,86.658985,0.006147,
1040,130,0.073514,-9.721741,0.999998,0.000146,-0.000535,0.003385,0.000262,0.003402,-0.000552,86.187343,0.003652,
1340,1650,-0.130637,-1.321688,0.999999,0.000153,-0.001331,0.003699,-0.000292,0.003716,-0.001348,-86.693828,0.003762,
1580,100,-0.119928,-9.799531,0.999998,0.000148,-0.000685,0.003648,-0.000655,0.003745,-0.000782,-81.587941,0.003951,
1300,1740,-0.063153,-0.973296,0.999999,0.000127,-0.000947,0.003566,-0.000009,0.003566,-0.000947,-89.886355,0.003695,
1470,440,-0.346309,-8.479567,0.999997,0.000197,-0.001948,0.004389,0.000426,0.004418,-0.001976,86.171383,0.004426,
630,630,1.479626,-6.949407,0.999998,0.000183,-0.002543,0.005072,0.000070,0.005073,-0.002544,89.472520,0.005073,
1390,670,-0.253811,-7.642782,0.999997,0.000186,-0.002406,0.004352,0.001437,0.004645,-0.002699,78.478641,0.004665,
1770,1750,-0.823949,-1.373182,0.999998,0.000162,-0.002403,0.005029,0.000102,0.005031,-0.002405,89.210916,0.005032,
1220,850,0.057925,-7.671481,0.999994,0.000000,-0.005173,0.000488,0.000201,0.000495,-0.005180,87.972919,0.005718,
1870,630,-1.572913,-6.893988,0.999997,0.000197,-0.002524,0.005075,-0.000053,0.005076,-0.002525,-89.599861,0.005076,
1450,850,-0.718121,-6.397574,0.999997,0.000204,-0.003939,0.006821,0.000718,0.006869,-0.003987,86.198037,0.006899,
1330,1460,-0.131709,-2.004355,0.999998,0.000179,-0.001606,0.003513,-0.000809,0.003638,-0.001730,-81.226545,0.003640,
1860,560,-1.436360,-7.264490,0.999997,0.000215,-0.002540,0.005123,-0.000011,0.005123,-0.002540,-89.917449,0.005123,
1870,1950,-0.505766,-0.533650,0.999997,0.000202,-0.002331,0.005467,0.000990,0.005591,-0.002455,82.874213,0.005605,
1390,900,-0.705430,-6.471082,0.999995,0.000225,-0.002552,0.005675,0.002733,0.006500,-0.003377,73.200409,0.006501,
1760,290,-0.771831,-8.799014,0.999998,0.000173,-0.002402,0.005042,-0.000133,0.005044,-0.002404,-88.973391,0.005046,
800,1470,0.952859,-2.634608,0.999998,0.000151,-0.002769,0.005303,0.000125,0.005305,-0.002770,89.114864,0.005306,
1080,1380,0.239313,-2.436757,0.999997,0.000181,-0.002365,0.004248,0.001488,0.004568,-0.002685,77.882796,0.004591,
1500,1370,-0.585551,-2.846691,0.999997,0.000217,-0.003246,0.005539,-0.000802,0.005612,-0.003318,-84.825055,0.005643,
990,980,1.236722,-5.386233,0.999997,0.000199,-0.002439,0.007099,0.000154,0.007101,-0.002442,89.075210,0.007216,
1440,120,-0.076568,-9.753526,0.999999,0.000146,-0.000441,0.003417,-0.000320,0.003443,-0.000467,-85.285174,0.003736,
880,1120,1.393008,-4.530051,0.999997,0.000211,-0.002385,0.005736,-0.000695,0.005795,-0.002444,-85.142843,0.005819,
590,290,1.044876,-8.600647,0.999998,0.000186,-0.002384,0.004898,-0.000022,0.004898,-0.002384,-89.824778,0.004898,
660,1280,1.655355,-3.827740,0.999998,0.000186,-0.002547,0.005020,-0.000373,0.005038,-0.002566,-87.183054,0.005038,
920,920,1.261478,-5.671463,0.999997,0.000204,-0.002669,0.006133,0.000718,0.006191,-0.002728,85.366142,0.006206,
1080,530,0.219246,-8.230332,0.999999,0.000138,-0.001766,0.003964,-0.000728,0.004055,-0.001857,-82.874167,0.004060,
820,1670,0.652943,-1.583534,0.999997,0.000184,-0.002232,0.004900,0.000072,0.004901,-0.002233,89.422528,0.004908,
750,110,0.247103,-9.720237,0.999998,0.000161,-0.000845,0.004353,0.001244,0.004635,-0.001128,77.211402,0.004835,
1870,340,-1.125139,-8.357777,0.999998,0.000170,-0.002450,0.004959,0.000069,0.004959,-0.002450,89.466288,0.004959,
870,360,0.518020,-8.679336,0.999997,0.000185,-0.002063,0.004622,-0.000057,0.004623,-0.002063,-89.508442,0.004632,
1230,1510,0.001809,-1.759524,0.999998,0.000155,-0.001266,0.003259,0.000029,0.003259,-0.001266,89.627509,0.003286,
1150,530,0.106322,-8.323226,0.999998,0.000168,-0.001462,0.003556,-0.000520,0.003610,-0.001515,-84.146865,0.003625,
1660,1430,-1.000523,-2.844589,0.999998,0.000150,-0.002891,0.005403,-0.000079,0.005404,-0.002891,-89.453725,0.005408,
1620,760,-1.109664,-6.539351,0.999997,0.000208,-0.003202,0.005846,-0.000273,0.005855,-0.003210,-88.274991,0.005864,
1870,1860,-0.815160,-1.003926,0.999998,0.000185,-0.002418,0.004973,0.000229,0.004980,-0.002425,88.226442,0.004981,
1290,490,-0.072683,-8.486674,0.999998,0.000148,-0.001308,0.003513,0.000235,0.003524,-0.001320,87.210393,0.003561,
610,1340,1.673985,-3.591130,0.999998,0.000195,-0.002479,0.004994,-0.000160,0.004997,-0.002483,-88.773325,0.004997,
1360,790,-0.242742,-7.254916,0.999998,0.000180,-0.002977,0.004280,0.002230,0.004910,-0.003608,74.209786,0.005088,
560,80,0.459351,-9.620514,0.999721,0.000000,-0.002639,0.006841,0.002853,0.007633,-0.003431,74.478855,0.007646,
780,1040,1.685021,-4.978044,0.999998,0.000180,-0.002043,0.005017,-0.000133,0.005020,-0.002046,-88.917826,0.005048,
840,120,0.189346,-9.709006,0.999998,0.000175,-0.000762,0.003967,0.000824,0.004106,-0.000901,80.389592,0.004316,
1840,1170,-1.921300,-4.396099,0.999998,0.000193,-0.002258,0.004595,0.000254,0.004604,-0.002267,87.881157,0.004605,
1460,1910,-0.105597,-0.417550,0.999998,0.000146,-0.000527,0.003537,0.000350,0.003567,-0.000557,85.117884,0.003838,
1090,380,0.165567,-8.829102,0.999999,0.000126,-0.001251,0.003832,-0.000163,0.003837,-0.001257,-88.167007,0.003912,
1520,940,-1.251942,-5.576308,0.999996,0.000230,-0.002523,0.006323,-0.000650,0.006370,-0.002570,-85.823005,0.006410,
1060,130,0.062831,-9.724691,0.999999,0.000109,-0.000490,0.003345,0.000214,0.003356,-0.000502,86.818245,0.003621,
1470,320,-0.266030,-8.986466,0.999998,0.000169,-0.001330,0.004086,0.000003,0.004086,-0.001330,89.969197,0.004168,
1580,80,-0.090532,-9.868782,0.999998,0.000150,-0.000519,0.003590,-0.000675,0.003699,-0.000627,-80.901924,0.003959,
1790,530,-1.212882,-7.528140,0.999998,0.000177,-0.002586,0.005111,0.000040,0.005111,-0.002587,89.701172,0.005111,
1450,1780,-0.207097,-0.898231,0.999998,0.000149,-0.001151,0.003901,0.000088,0.003903,-0.001153,88.997550,0.004011,
1390,650,-0.253049,-7.731004,0.999998,0.000158,-0.002269,0.004216,0.001341,0.004482,-0.002536,78.763978,0.004495,
670,1780,0.821553,-1.257546,0.999998,0.000179,-0.002369,0.005042,-0.000214,0.005048,-0.002375,-88.350680,0.005051,
1480,850,-0.837571,-6.274365,0.999997,0.000212,-0.003837,0.006774,0.000162,0.006776,-0.003840,89.125944,0.006796,
810,720,1.135991,-6.720069,0.999997,0.000199,-0.003026,0.005619,0.000209,0.005624,-0.003031,88.618560,0.005630,
1880,30,-0.093754,-9.996109,0.999998,0.000000,0.000377,0.007054,-0.003958,0.008893,-0.001462,-65.073780,0.009538,
1320,1650,-0.104075,-1.305829,0.999998,0.000167,-0.001285,0.003667,-0.000264,0.003681,-0.001299,-86.952125,0.003734,
630,610,1.447444,-7.050758,0.999997,0.000203,-0.002566,0.005088,0.000066,0.005088,-0.002566,89.503671,0.005088,
1440,850,-0.679911,-6.445562,0.999996,0.000232,-0.003893,0.006735,0.000875,0.006807,-0.003964,85.323584,0.006837,
1690,910,-1.606323,-5.635454,0.999997,0.000215,-0.002385,0.005266,-0.000571,0.005309,-0.002428,-85.757061,0.005315,
1860,540,-1.404692,-7.368722,0.999997,0.000199,-0.002533,0.005125,0.000014,0.005125,-0.002533,89.894083,0.005125,
1450,830,-0.659615,-6.531183,0.999996,0.000236,-0.003940,0.006564,0.000874,0.006636,-0.004012,85.276935,0.006684,
1080,890,0.639921,-6.597403,0.999997,0.000230,-0.002473,0.005060,-0.002567,0.005851,-0.003265,-72.862166,0.005864,
1180,1850,0.032912,-0.587874,0.999998,0.000192,-0.000559,0.003387,-0.000065,0.003388,-0.000560,-89.062208,0.003633,
1050,1600,0.252950,-1.589371,0.999998,0.000171,-0.001669,0.004061,0.000439,0.004095,-0.001702,85.647182,0.004114,
1520,730,-0.714829,-6.920071,0.999998,0.000172,-0.003487,0.005897,0.000520,0.005926,-0.003515,86.837495,0.005960,
630,1940,0.456567,-0.498258,0.999997,0.000177,-0.002300,0.005298,-0.000882,0.005399,-0.002401,-83.463160,0.005410,
630,580,1.397500,-7.204243,0.999998,0.000190,-0.002587,0.005141,0.000023,0.005141,-0.002587,89.826594,0.005141,
1090,710,0.222066,-7.533055,0.999997,0.000222,-0.002521,0.004199,-0.001712,0.004610,-0.002932,-76.499087,0.004667,
780,1470,1.006756,-2.666624,0.999999,0.000137,-0.002753,0.005275,0.000091,0.005276,-0.002754,89.354168,0.005278,
1500,810,-0.803065,-6.475663,0.999996,0.000244,-0.003820,0.006522,0.000236,0.006527,-0.003825,88.692955,0.006559,
880,1100,1.429979,-4.643517,0.999997,0.000202,-0.002209,0.005592,-0.000569,0.005634,-0.002250,-85.851214,0.005672,
1030,800,0.517491,-6.799603,0.999996,0.000219,-0.003880,0.006043,-0.001279,0.006206,-0.004043,-82.770200,0.006300,
1620,740,-1.070369,-6.654231,0.999998,0.000177,-0.003190,0.005790,-0.000196,0.005795,-0.003194,-88.749299,0.005805,
1310,230,-0.052121,-9.404364,0.999998,0.000166,-0.000701,0.003429,-0.000050,0.003429,-0.000701,-89.300901,0.003623,
1220,450,0.014397,-8.641349,0.999998,0.000160,-0.001238,0.003510,-0.000082,0.003512,-0.001240,-89.005007,0.003562,
1290,470,-0.071472,-8.555710,0.999998,0.000153,-0.001270,0.003566,0.000204,0.003575,-0.001278,87.582865,0.003623,
800,1670,0.698007,-1.613773,0.999997,0.000205,-0.002325,0.004947,0.000081,0.004948,-0.002326,89.359788,0.004951,
680,1480,1.261798,-2.770643,0.999998,0.000174,-0.002619,0.005161,-0.000001,0.005161,-0.002619,-89.990737,0.005161,
870,340,0.494813,-8.772075,0.999998,0.000156,-0.001964,0.004654,0.000007,0.004654,-0.001964,89.940996,0.004673,
920,900,1.203037,-5.799021,0.999998,0.000166,-0.002917,0.006249,0.000702,0.006303,-0.002970,85.643510,0.006306,
1150,510,0.105544,-8.395587,0.999998,0.000157,-0.001446,0.003578,-0.000480,0.003623,-0.001491,-84.593420,0.003642,
1770,1730,-0.858727,-1.474303,0.999998,0.000153,-0.002402,0.005028,0.000024,0.005028,-0.002402,89.814825,0.005030,
1580,60,-0.059895,-9.943086,0.999998,0.000150,-0.000402,0.003512,-0.000694,0.003631,-0.000522,-80.243348,0.003926,
1870,620,-1.556150,-6.944875,0.999998,0.000194,-0.002521,0.005079,-0.000037,0.005079,-0.002522,-89.720565,0.005079,
720,1880,0.471834,-0.681528,0.999997,0.000184,-0.001949,0.004872,-0.000758,0.004955,-0.002032,-83.738209,0.004982,
1870,330,-1.108292,-8.407631,0.999998,0.000152,-0.002430,0.004960,0.000066,0.004960,-0.002430,89.488329,0.004961,
1410,1700,-0.204280,-1.180891,0.999998,0.000179,-0.001466,0.003926,-0.000193,0.003933,-0.001473,-87.950414,0.003974,
840,630,0.899947,-7.271082,0.999998,0.000154,-0.002964,0.005420,-0.000190,0.005425,-0.002968,-88.702567,0.005433,
1870,30,-0.097057,-9.993321,0.999996,0.000000,0.000320,0.006462,-0.003568,0.008099,-0.001317,-65.360182,0.008692,
1230,1490,0.001330,-1.822810,0.999998,0.000174,-0.001259,0.003170,0.000030,0.003170,-0.001259,89.614337,0.003193,
920,1910,0.161906,-0.441580,0.999998,0.000156,-0.000679,0.003794,-0.000526,0.003855,-0.000740,-83.379543,0.004092,
590,1720,1.123008,-1.701970,0.999998,0.000151,-0.002428,0.004921,0.000059,0.004922,-0.002429,89.543583,0.004922,
1450,810,-0.606992,-6.658102,0.999996,0.000234,-0.003899,0.006314,0.000971,0.006405,-0.003991,84.616256,0.006470,
630,590,1.413081,-7.153788,0.999997,0.000204,-0.002586,0.005123,0.000050,0.005123,-0.002587,89.630795,0.005123,
1390,380,-0.187578,-8.818104,0.999998,0.000143,-0.001338,0.003909,0.000213,0.003918,-0.001347,87.673894,0.003981,
950,360,0.369842,-8.772671,0.999998,0.000191,-0.001787,0.004306,-0.000144,0.004309,-0.001790,-88.642896,0.004329,
1500,1170,-1.024021,-4.101717,0.999997,0.000198,-0.003359,0.006707,0.000380,0.006721,-0.003373,87.839107,0.006721,
1390,630,-0.247601,-7.812731,0.999998,0.000162,-0.002206,0.004113,0.001235,0.004346,-0.002439,79.323524,0.004356,
1640,1430,-0.941953,-2.810808,0.999997,0.000181,-0.002905,0.005417,-0.000139,0.005419,-0.002907,-89.042441,0.005424,
1860,520,-1.376726,-7.470145,0.999997,0.000205,-0.002521,0.005096,0.000040,0.005097,-0.002522,89.697311,0.005097,
1530,260,-0.297329,-9.184166,0.999998,0.000167,-0.001335,0.004111,-0.000196,0.004118,-0.001342,-87.937853,0.004201,
840,100,0.149572,-9.787832,0.999998,0.000150,-0.000582,0.003829,0.000819,0.003976,-0.000729,79.815155,0.004234,
1690,890,-1.569883,-5.744416,0.999997,0.000209,-0.002476,0.005278,-0.000628,0.005329,-0.002527,-85.397038,0.005331,
1190,1940,0.013314,-0.292101,0.999998,0.000165,-0.000271,0.003167,-0.000061,0.003169,-0.000272,-88.981093,0.003512,
1440,870,-0.749980,-6.305000,0.999997,0.000227,-0.003749,0.006924,0.000711,0.006971,-0.003796,86.205490,0.006980,
1440,100,-0.056522,-9.821762,0.999999,0.000153,-0.000329,0.003342,-0.000335,0.003373,-0.000360,-84.828089,0.003704,
1330,1400,-0.130108,-2.211672,0.999998,0.000181,-0.001746,0.003391,-0.001216,0.003664,-0.002019,-77.331170,0.003671,
880,1080,1.458497,-4.755360,0.999998,0.000193,-0.002033,0.005534,-0.000483,0.005565,-0.002063,-86.363132,0.005626,
1750,1300,-1.481055,-3.670135,0.999997,0.000193,-0.002725,0.005294,0.000398,0.005314,-0.002744,87.164243,0.005315,
960,1730,0.320923,-1.144140,0.999998,0.000176,-0.001669,0.004292,0.000063,0.004292,-0.001670,89.389807,0.004327,
560,70,0.371151,-9.681911,0.999921,0.000000,-0.001290,0.006837,0.002638,0.007618,-0.002071,73.501824,0.007878,
1790,550,-1.242775,-7.426561,0.999997,0.000191,-0.002607,0.005143,0.000044,0.005143,-0.002607,89.674711,0.005143,
1020,800,0.555725,-6.753189,0.999997,0.000215,-0.003901,0.006165,-0.001134,0.006291,-0.004027,-83.648238,0.006373,
960,1720,0.330843,-1.188865,0.999998,0.000183,-0.001714,0.004304,0.000103,0.004306,-0.001716,89.023500,0.004336,
1320,850,-0.295073,-7.324992,0.999996,0.000222,-0.002132,0.002172,0.001240,0.002503,-0.002464,75.028135,0.002868,
1520,920,-1.197020,-5.705308,0.999997,0.000217,-0.002753,0.006382,-0.000665,0.006430,-0.002801,-85.859160,0.006448,
570,660,1.685712,-6.708861,0.999834,0.001496,-0.003444,0.005141,0.000138,0.005143,-0.003447,89.080666,0.005241,
1040,960,1.038993,-5.729244,0.999994,0.000281,-0.003581,0.008883,-0.001851,0.009152,-0.003850,-81.727091,0.009190,
1810,1920,-0.483385,-0.562498,0.999997,0.000201,-0.001906,0.005203,0.001118,0.005375,-0.002078,81.270542,0.005421,
1310,250,-0.059708,-9.336002,0.999999,0.000142,-0.000772,0.003457,-0.000028,0.003458,-0.000772,-89.627153,0.003630,
1200,450,0.039948,-8.635055,0.999998,0.000191,-0.001200,0.003521,-0.000147,0.003526,-0.001205,-88.216657,0.003584,
800,1730,0.614254,-1.319446,0.999998,0.000188,-0.002192,0.004841,-0.000074,0.004842,-0.002192,-89.400175,0.004849,
680,1440,1.323015,-2.979877,0.999997,0.000178,-0.002655,0.005152,-0.000084,0.005153,-0.002656,-89.386377,0.005154,
920,880,1.150738,-5.922274,0.999998,0.000157,-0.003147,0.006283,0.000625,0.006324,-0.003188,86.224004,0.006324,
580,1720,1.148582,-1.721301,0.999998,0.000150,-0.002349,0.004826,0.000023,0.004826,-0.002349,89.813483,0.004826,
1130,1370,0.134388,-2.322713,0.999998,0.000151,-0.001821,0.003366,0.001429,0.003734,-0.002188,75.570973,0.003752,
1570,1990,-0.064668,-0.152865,0.999998,0.000156,-0.000344,0.003477,0.000654,0.003586,-0.000453,80.551627,0.003905,
1380,810,-0.340379,-7.038473,0.999996,0.000242,-0.003421,0.005112,0.002093,0.005598,-0.003907,76.932837,0.005743,
1060,1470,0.266650,-2.108925,0.999997,0.000172,-0.002113,0.004181,0.000997,0.004335,-0.002267,81.209492,0.004336,
1440,1670,-0.266067,-1.333042,0.999998,0.000182,-0.001512,0.004112,-0.000214,0.004120,-0.001520,-87.819205,0.004167,
630,570,1.381767,-7.255567,0.999997,0.000191,-0.002587,0.005123,-0.000001,0.005123,-0.002587,-89.989049,0.005123,
1390,830,-0.424383,-6.860282,0.999997,0.000211,-0.003616,0.005549,0.001832,0.005901,-0.003969,79.104401,0.006017,
1060,1940,0.053572,-0.303395,0.999999,0.000143,-0.000414,0.003320,-0.000237,0.003335,-0.000428,-86.380798,0.003629,
1860,1170,-1.965857,-4.410519,0.999998,0.000161,-0.002171,0.004474,0.000163,0.004478,-0.002175,88.599677,0.004478,
750,2000,0.101994,-0.138945,0.999999,0.000152,-0.000292,0.003830,-0.001237,0.004173,-0.000635,-74.517295,0.004497,
1870,610,-1.540742,-6.995319,0.999998,0.000183,-0.002519,0.005064,-0.000025,0.005065,-0.002519,-89.808913,0.005065,
1450,790,-0.563716,-6.783161,0.999997,0.000218,-0.003822,0.006156,0.001066,0.006268,-0.003934,83.969069,0.006336,
1290,450,-0.072083,-8.628437,0.999999,0.000146,-0.001226,0.003566,0.000160,0.003571,-0.001231,88.095431,0.003628,
1230,1470,0.001336,-1.885537,0.999998,0.000151,-0.001221,0.003080,0.000034,0.003080,-0.001221,89.540773,0.003102,
1480,810,-0.723964,-6.542347,0.999997,0.000211,-0.003879,0.006501,0.000489,0.006524,-0.003902,87.306179,0.006566,
1530,1890,-0.181201,-0.514859,0.999998,0.000176,-0.000842,0.003817,0.000456,0.003861,-0.000886,84.463200,0.004045,
1160,1850,0.042985,-0.589132,0.999998,0.000174,-0.000574,0.003392,-0.000062,0.003393,-0.000575,-89.104902,0.003632,
1010,1180,0.819020,-3.869142,0.999998,0.000177,-0.003805,0.006992,0.000400,0.007007,-0.003820,87.882061,0.007016,
840,80,0.113795,-9.862610,0.999998,0.000146,-0.000448,0.003738,0.000896,0.003921,-0.000631,78.415038,0.004211,
1180,40,0.004713,-10.017872,0.999999,0.000134,-0.000021,0.003006,0.000047,0.003006,-0.000021,89.110914,0.003459,
1150,490,0.103244,-8.465656,0.999998,0.000148,-0.001420,0.003614,-0.000438,0.003652,-0.001458,-85.059339,0.003677,
720,1840,0.571161,-0.877424,0.999997,0.000215,-0.002124,0.004890,-0.000530,0.004930,-0.002164,-85.704229,0.004942,
1730,1030,-1.787523,-5.026638,0.999998,0.000165,-0.002113,0.004881,0.000019,0.004881,-0.002113,89.845684,0.004896,
780,1020,1.688817,-5.077172,0.999998,0.000164,-0.002058,0.005042,0.000085,0.005043,-0.002059,89.314248,0.005071,
1030,780,0.478378,-6.920802,0.999996,0.000214,-0.003763,0.005859,-0.001358,0.006047,-0.003951,-82.120977,0.006141,
950,340,0.350937,-8.859096,0.999996,0.000226,-0.001699,0.004370,-0.000080,0.004371,-0.001700,-89.242950,0.004407,
1370,380,-0.162577,-8.831942,0.999998,0.000161,-0.001256,0.003840,0.000147,0.003844,-0.001261,88.346291,0.003919,
1370,30,-0.005390,-10.047155,0.999999,0.000000,-0.000037,0.003066,-0.000178,0.003076,-0.000047,-86.735022,0.003525,
1010,170,0.124062,-9.574154,0.999998,0.000174,-0.000644,0.003631,0.000288,0.003651,-0.000663,86.169756,0.003890,
1240,710,-0.009444,-7.865682,0.999999,0.000143,-0.000986,0.002040,0.000181,0.002051,-0.000997,86.580382,0.002051,
1480,130,-0.101605,-9.711858,0.999998,0.000163,-0.000554,0.003532,-0.000372,0.003566,-0.000588,-84.833370,0.003823,
1870,400,-1.222983,-8.061214,0.999998,0.000173,-0.002480,0.004983,0.000065,0.004984,-0.002480,89.497760,0.004984,
850,1340,1.001490,-3.268030,0.999998,0.000177,-0.003203,0.005785,-0.000047,0.005785,-0.003203,-89.697413,0.005796,
1000,1410,0.436772,-2.532699,0.999997,0.000200,-0.002831,0.004998,0.000989,0.005121,-0.002954,82.906557,0.005141,
1460,850,-0.759202,-6.351278,0.999997,0.000198,-0.003924,0.006830,0.000535,0.006857,-0.003951,87.161304,0.006883,
1620,720,-1.032408,-6.771761,0.999998,0.000176,-0.003191,0.005744,-0.000085,0.005745,-0.003192,-89.453403,0.005757,
1770,1710,-0.890673,-1.574095,0.999998,0.000158,-0.002410,0.005082,0.000011,0.005082,-0.002410,89.918605,0.005085,
1800,170,-0.578815,-9.346744,0.999998,0.000189,-0.002071,0.005140,-0.000884,0.005247,-0.002178,-83.112749,0.005272,
700,1570,1.079534,-2.275695,0.999998,0.000174,-0.002516,0.005131,0.000106,0.005132,-0.002517,89.204624,0.005132,
1850,1840,-0.820140,-1.057530,0.999998,0.000180,-0.002459,0.005077,0.000196,0.005082,-0.002464,88.511123,0.005083,
1170,1940,0.018126,-0.293150,0.999998,0.000178,-0.000264,0.003177,-0.000099,0.003180,-0.000267,-88.348670,0.003528,
1520,900,-1.135779,-5.831452,0.999998,0.000191,-0.003037,0.006448,-0.000612,0.006488,-0.003076,-86.323761,0.006490,
630,600,1.429837,-7.101831,0.999997,0.000215,-0.002584,0.005103,0.000066,0.005104,-0.002584,89.506740,0.005104,
1730,1300,-1.426214,-3.646822,0.999997,0.000214,-0.002759,0.005365,0.000409,0.005386,-0.002779,87.124401,0.005386,
1860,500,-1.347463,-7.572026,0.999997,0.000207,-0.002528,0.005072,0.000039,0.005072,-0.002528,89.709003,0.005072,
750,2010,0.076858,-0.100866,0.999998,0.000172,-0.000134,0.003795,-0.001244,0.004156,-0.000495,-73.829400,0.004540,
1130,1350,0.133719,-2.388495,0.999998,0.000156,-0.001889,0.003359,0.001589,0.003803,-0.002333,74.401875,0.003835,
1440,80,-0.044873,-9.886432,0.999999,0.000135,-0.000239,0.003274,-0.000337,0.003306,-0.000271,-84.561271,0.003671,
1400,400,-0.209756,-8.729776,0.999998,0.000169,-0.001503,0.003955,0.000317,0.003973,-0.001521,86.681895,0.004009,
1450,770,-0.524308,-6.907158,0.999997,0.000212,-0.003712,0.005952,0.001114,0.006079,-0.003839,83.506878,0.006148,
630,550,1.353056,-7.357775,0.999997,0.000201,-0.002562,0.005103,-0.000046,0.005103,-0.002562,-89.656565,0.005103,
670,810,1.693556,-6.083994,0.999997,0.000200,-0.002470,0.005017,0.000434,0.005042,-0.002495,86.694739,0.005042,
1530,800,-0.889686,-6.460554,0.999997,0.000200,-0.003639,0.006391,0.000016,0.006391,-0.003639,89.907871,0.006412,
880,1060,1.480703,-4.865269,0.999997,0.000202,-0.001938,0.005403,-0.000285,0.005414,-0.001949,-87.780466,0.005484,
1290,430,-0.069461,-8.697049,0.999999,0.000142,-0.001198,0.003552,0.000126,0.003555,-0.001201,88.481315,0.003617,
1690,870,-1.535789,-5.848025,0.999997,0.000209,-0.002552,0.005288,-0.000589,0.005332,-0.002596,-85.726358,0.005332,
1490,740,-0.624841,-6.946023,0.999996,0.000223,-0.003589,0.005890,0.000736,0.005947,-0.003645,85.586065,0.005997,
730,740,1.406157,-6.508669,0.999998,0.000213,-0.002764,0.005331,0.000368,0.005348,-0.002780,87.402202,0.005350,
960,1110,1.220954,-4.508236,0.999997,0.000197,-0.002568,0.006574,-0.000571,0.006610,-0.002603,-86.441597,0.006659,
1230,1450,0.000181,-1.944490,0.999998,0.000142,-0.001192,0.002949,0.000018,0.002949,-0.001192,89.754641,0.002967,
1530,1870,-0.202514,-0.590225,0.999998,0.000185,-0.000938,0.003899,0.000398,0.003931,-0.000971,85.322775,0.004096,
820,1580,0.760229,-2.030874,0.999997,0.000189,-0.002506,0.005024,0.000224,0.005031,-0.002512,88.299020,0.005031,
560,60,0.316853,-9.744226,0.999932,0.000000,-0.000293,0.007424,0.002734,0.008295,-0.001163,72.337869,0.008982,
900,110,0.124464,-9.765906,0.999998,0.000162,-0.000600,0.003713,0.000640,0.003806,-0.000693,81.731244,0.004054,
960,1740,0.311126,-1.100782,0.999998,0.000183,-0.001632,0.004224,0.000041,0.004225,-0.001632,89.600051,0.004261,
840,500,0.740792,-7.954072,0.999998,0.000176,-0.002544,0.005032,-0.000276,0.005042,-0.002554,-87.917956,0.005042,
1750,1580,-1.032284,-2.202278,0.999999,0.000149,-0.002506,0.005132,-0.000117,0.005134,-0.002508,-89.119036,0.005134,
1360,2020,-0.007904,-0.047942,0.999998,0.000000,-0.000019,0.003028,0.000158,0.003036,-0.000027,87.032314,0.003490,
1570,1970,-0.092097,-0.224506,0.999998,0.000154,-0.000516,0.003541,0.000638,0.003639,-0.000614,81.266426,0.003897,
940,1730,0.352997,-1.164057,0.999998,0.000165,-0.001575,0.004383,-0.000017,0.004383,-0.001575,-89.836980,0.004441,
780,1000,1.678061,-5.177941,0.999998,0.000159,-0.002073,0.004994,0.000164,0.004998,-0.002077,88.668566,0.005022,
1430,820,-0.554716,-6.691696,0.999995,0.000253,-0.003923,0.006203,0.001235,0.006352,-0.004072,83.146836,0.006435,
1530,1840,-0.243686,-0.711537,0.999998,0.000176,-0.001100,0.003992,0.000340,0.004015,-0.001122,86.194914,0.004143,
1730,1010,-1.781515,-5.125233,0.999998,0.000170,-0.002143,0.004932,-0.000151,0.004935,-0.002147,-88.774352,0.004949,
1380,790,-0.304127,-7.137973,0.999997,0.000205,-0.003287,0.004834,0.002068,0.005330,-0.003783,76.508126,0.005484,
1200,1410,0.036305,-2.075181,0.999999,0.000143,-0.001190,0.002768,0.000400,0.002808,-0.001230,84.283196,0.002815,
710,1210,1.653273,-4.140027,0.999997,0.000206,-0.002522,0.005080,-0.000492,0.005111,-0.002554,-86.315632,0.005111,
1150,470,0.104181,-8.539895,0.999998,0.000180,-0.001410,0.003639,-0.000379,0.003668,-0.001438,-85.734233,0.003696,
1250,40,-0.002324,-10.018997,0.999999,0.000158,-0.000135,0.002968,-0.000010,0.002968,-0.000135,-89.820413,0.003352,
570,1210,1.982012,-4.267061,0.999998,0.000162,-0.002192,0.004572,-0.000101,0.004573,-0.002194,-89.146972,0.004574,
1470,380,-0.308776,-8.738978,0.999998,0.000192,-0.001625,0.004234,0.000204,0.004241,-0.001632,88.003892,0.004279,
760,490,0.931993,-7.875792,0.999998,0.000165,-0.002553,0.005112,-0.000134,0.005115,-0.002555,-88.997942,0.005115,
830,1340,1.064932,-3.301237,0.999998,0.000229,-0.003124,0.005726,-0.000124,0.005728,-0.003125,-89.199793,0.005736,
1020,1210,0.677321,-3.614691,0.999996,0.000229,-0.003922,0.006700,0.000870,0.006770,-0.003993,85.349824,0.006807,
800,1710,0.643110,-1.417958,0.999997,0.000182,-0.002257,0.004844,-0.000009,0.004844,-0.002257,-89.924556,0.004847,
1620,700,-0.998692,-6.885326,0.999998,0.000178,-0.003158,0.005697,-0.000022,0.005697,-0.003158,-89.860024,0.005708,
1600,870,-1.292024,-5.914522,0.999996,0.000235,-0.002872,0.005854,-0.000685,0.005908,-0.002925,-85.538930,0.005908,
1330,1940,-0.029572,-0.295987,0.999998,0.000159,-0.000361,0.003203,0.000119,0.003207,-0.000365,88.091699,0.003511,
1770,1690,-0.922248,-1.678503,0.999998,0.000137,-0.002421,0.005022,-0.000009,0.005022,-0.002421,-89.927296,0.005023,
1540,450,-0.494478,-8.333463,0.999997,0.000214,-0.002228,0.004723,0.000359,0.004742,-0.002247,87.052685,0.004744,
1250,380,-0.020198,-8.887106,0.999998,0.000150,-0.001119,0.003528,0.000107,0.003530,-0.001122,88.687282,0.003607,
1690,2010,-0.069673,-0.099160,0.999998,0.000188,-0.000357,0.003616,0.001064,0.003883,-0.000624,75.905517,0.004170,
1520,1100,-1.290244,-4.598641,0.999998,0.000178,-0.002340,0.006251,0.000602,0.006293,-0.002382,86.008282,0.006354,
1130,1260,0.175163,-2.685561,0.999997,0.000227,-0.002458,0.003324,0.002260,0.004102,-0.003237,70.987992,0.004325,
1790,990,-1.904020,-5.216611,0.999998,0.000146,-0.002146,0.004677,-0.000120,0.004679,-0.002148,-88.996186,0.004684,
1860,720,-1.700432,-6.453877,0.999998,0.000197,-0.002475,0.004949,-0.000143,0.004952,-0.002477,-88.895934,0.004952,
1310,270,-0.064107,-9.265834,0.999998,0.000142,-0.000843,0.003514,-0.000007,0.003514,-0.000843,-89.911986,0.003669,
650,600,1.378805,-7.131965,0.999997,0.000198,-0.002582,0.005120,0.000048,0.005120,-0.002583,89.645621,0.005120,
1690,850,-1.501611,-5.954783,0.999996,0.000228,-0.002648,0.005395,-0.000624,0.005443,-0.002696,-85.587714,0.005443,
1530,1850,-0.231079,-0.672780,0.999998,0.000193,-0.001056,0.004002,0.000379,0.004031,-0.001084,85.743193,0.004172,
1130,1330,0.133181,-2.454930,0.999998,0.000183,-0.001977,0.003331,0.001756,0.003860,-0.002506,73.253844,0.003917,
880,110,0.140718,-9.760474,0.999998,0.000184,-0.000795,0.003787,0.000684,0.003887,-0.000895,81.691069,0.004072,
710,1190,1.685840,-4.240458,0.999998,0.000192,-0.002471,0.005035,-0.000533,0.005072,-0.002508,-85.960144,0.005072,
1730,990,-1.773923,-5.224565,0.999998,0.000159,-0.002161,0.004900,-0.000172,0.004904,-0.002165,-88.606770,0.004915,
780,1200,1.489984,-4.146628,0.999998,0.000192,-0.002650,0.005420,-0.000629,0.005469,-0.002698,-85.568417,0.005469,
1570,1950,-0.120526,-0.296289,0.999998,0.000170,-0.000643,0.003690,0.000636,0.003781,-0.000735,81.821336,0.004010,
1150,450,0.099889,-8.615173,0.999998,0.000177,-0.001367,0.003638,-0.000308,0.003657,-0.001386,-86.492547,0.003693,
670,790,1.656846,-6.186077,0.999997,0.000185,-0.002522,0.005057,0.000415,0.005079,-0.002545,86.875682,0.005079,
940,1710,0.373948,-1.252941,0.999998,0.000187,-0.001628,0.004362,0.000028,0.004363,-0.001628,89.736664,0.004409,
880,1040,1.491217,-4.971685,0.999997,0.000211,-0.001858,0.005395,-0.000159,0.005398,-0.001861,-88.747948,0.005484,
1290,410,-0.069388,-8.769876,0.999999,0.000131,-0.001144,0.003602,0.000109,0.003605,-0.001146,88.684621,0.003684,
1680,1410,-1.087919,-2.984968,0.999998,0.000169,-0.002889,0.005409,0.000029,0.005409,-0.002889,89.798894,0.005413,
630,530,1.323592,-7.461313,0.999997,0.000209,-0.002530,0.005143,-0.000061,0.005143,-0.002531,-89.547203,0.005143,
1830,1840,-0.770851,-1.014111,0.999998,0.000178,-0.002370,0.005128,0.000281,0.005139,-0.002381,87.856200,0.005143,
800,170,0.332959,-9.482683,0.999998,0.000177,-0.001520,0.004380,0.000717,0.004466,-0.001606,83.165913,0.004525,
560,50,0.259248,-9.829457,0.999944,0.000000,0.000222,0.008058,0.003169,0.009179,-0.000899,70.513891,0.010120,
1670,780,-1.303496,-6.359692,0.999997,0.000198,-0.002918,0.005601,-0.000470,0.005627,-0.002944,-86.849578,0.005629,
1370,1650,-0.169299,-1.343493,0.999998,0.000166,-0.001325,0.003782,-0.000248,0.003794,-0.001337,-87.230550,0.003848,
1440,280,-0.198813,-9.166040,0.999998,0.000166,-0.001173,0.003891,-0.000051,0.003892,-0.001174,-89.423278,0.003993,
1540,1110,-1.311973,-4.555145,0.999997,0.000235,-0.002378,0.006067,0.000684,0.006122,-0.002433,85.400116,0.006164,
820,1560,0.785623,-2.132382,0.999998,0.000174,-0.002561,0.005106,0.000222,0.005113,-0.002568,88.342943,0.005113,
1470,420,-0.334170,-8.567833,0.999998,0.000176,-0.001873,0.004315,0.000369,0.004337,-0.001895,86.601257,0.004348,
1450,750,-0.493285,-7.023175,0.999997,0.000215,-0.003570,0.005731,0.001189,0.005880,-0.003719,82.830239,0.005949,
890,1340,0.872409,-3.193151,0.999998,0.000186,-0.003303,0.005856,0.000158,0.005859,-0.003305,89.012486,0.005875,
1230,1430,0.002092,-2.002436,0.999999,0.000128,-0.001150,0.002818,0.000025,0.002818,-0.001150,89.640984,0.002834,
1030,40,0.015408,-10.015070,0.999999,0.000133,-0.000069,0.003092,0.000257,0.003113,-0.000090,85.375038,0.003543,
1510,1840,-0.219722,-0.699370,0.999998,0.000173,-0.001175,0.003925,0.000258,0.003938,-0.001188,87.113644,0.004040,
1230,380,0.001341,-8.891051,0.999998,0.000144,-0.001126,0.003531,-0.000013,0.003531,-0.001126,-89.844544,0.003607,
1150,1940,0.023499,-0.293566,0.999998,0.000151,-0.000296,0.003192,-0.000116,0.003196,-0.000300,-88.095568,0.003530,
790,1080,1.646523,-4.773809,0.999998,0.000167,-0.002134,0.005073,-0.000327,0.005088,-0.002149,-87.406982,0.005108,
840,520,0.762431,-7.854234,0.999997,0.000184,-0.002642,0.005092,-0.000288,0.005103,-0.002653,-87.866929,0.005104,
1480,650,-0.490525,-7.476604,0.999996,0.000219,-0.002980,0.005154,0.000937,0.005261,-0.003087,83.514259,0.005287,
1830,920,-1.938768,-5.529595,0.999998,0.000185,-0.002223,0.004649,-0.000267,0.004659,-0.002233,-87.775439,0.004661,
1130,1240,0.208033,-2.751514,0.999998,0.000205,-0.002557,0.003232,0.002165,0.003952,-0.003277,71.604747,0.004228,
1310,290,-0.069098,-9.194036,0.999998,0.000143,-0.000907,0.003554,-0.000011,0.003554,-0.000907,-89.861020,0.003693,
1700,1990,-0.120260,-0.172679,0.999998,0.000171,-0.000470,0.003876,0.001168,0.004170,-0.000764,75.870236,0.004440,
1510,270,-0.277935,-9.160314,0.999998,0.000172,-0.001459,0.004093,-0.000087,0.004094,-0.001461,-89.103904,0.004150,
1690,830,-1.460249,-6.065248,0.999996,0.000228,-0.002722,0.005395,-0.000603,0.005440,-0.002767,-85.773593,0.005440,
710,1170,1.718489,-4.342869,0.999998,0.000192,-0.002433,0.005016,-0.000527,0.005053,-0.002470,-85.975570,0.005053,
1790,970,-1.895665,-5.310673,0.999998,0.000158,-0.002180,0.004672,-0.000151,0.004675,-0.002184,-88.738691,0.004678,
1730,1190,-1.630265,-4.228353,0.999997,0.000199,-0.002489,0.005129,0.000538,0.005166,-0.002527,85.981819,0.005167,
1150,430,0.099000,-8.687500,0.999998,0.000174,-0.001300,0.003661,-0.000270,0.003675,-0.001314,-86.896247,0.003725,
1890,1570,-1.399941,-2.477793,0.999997,0.000228,-0.002420,0.005069,-0.000021,0.005069,-0.002420,-89.839326,0.005070,
770,370,0.747815,-8.494968,0.999997,0.000187,-0.002254,0.004928,-0.000002,0.004928,-0.002254,-89.986514,0.004934,
1130,1310,0.139030,-2.519249,0.999997,0.000204,-0.002092,0.003285,0.001917,0.003898,-0.002705,72.252245,0.003995,
1860,770,-1.787780,-6.207290,0.999998,0.000135,-0.002419,0.004904,-0.000196,0.004909,-0.002424,-88.466986,0.004909,
1530,1830,-0.253776,-0.749967,0.999998,0.000177,-0.001150,0.004019,0.000313,0.004038,-0.001168,86.545231,0.004156,
1570,1930,-0.152156,-0.371952,0.999998,0.000177,-0.000760,0.003799,0.000615,0.003881,-0.000841,82.449657,0.004083,
1580,1390,-0.817062,-2.921052,0.999998,0.000175,-0.003140,0.005620,-0.000281,0.005629,-0.003149,-88.164709,0.005642,
1860,480,-1.317633,-7.673098,0.999998,0.000187,-0.002514,0.005077,0.000035,0.005077,-0.002515,89.739179,0.005077,
670,770,1.621298,-6.288596,0.999997,0.000193,-0.002543,0.005061,0.000387,0.005081,-0.002563,87.090729,0.005081,
880,1020,1.492991,-5.081435,0.999997,0.000223,-0.001842,0.005435,0.000086,0.005436,-0.001843,89.319136,0.005530,
1620,680,-0.964193,-6.999540,0.999998,0.000169,-0.003116,0.005608,0.000059,0.005608,-0.003116,89.615413,0.005620,
680,1250,1.659519,-3.960743,0.999998,0.000179,-0.002528,0.005062,-0.000478,0.005092,-0.002558,-86.413601,0.005092,
1470,400,-0.321088,-8.654690,0.999997,0.000188,-0.001759,0.004279,0.000289,0.004293,-0.001773,87.262902,0.004314,
780,190,0.409165,-9.376426,0.999997,0.000180,-0.001679,0.004602,0.000672,0.004673,-0.001750,83.960867,0.004722,
840,970,1.535079,-5.340837,0.999996,0.000220,-0.002081,0.005325,0.000470,0.005355,-0.002111,86.381714,0.005395,
600,150,0.660707,-9.322996,0.999997,0.000218,-0.002437,0.005168,0.000464,0.005196,-0.002465,86.518460,0.005198,
1330,1920,-0.035727,-0.359360,0.999998,0.000133,-0.000435,0.003256,0.000098,0.003258,-0.000438,88.486544,0.003537,
1290,390,-0.066924,-8.842327,0.999999,0.000127,-0.001100,0.003582,0.000072,0.003583,-0.001101,89.123217,0.003670,
630,510,1.295422,-7.564045,0.999997,0.000216,-0.002519,0.005101,-0.000053,0.005101,-0.002519,-89.600202,0.005101,
1370,1610,-0.177575,-1.495118,0.999997,0.000214,-0.001490,0.003874,-0.000371,0.003899,-0.001515,-86.066116,0.003931,
1230,1850,0.001926,-0.583014,0.999998,0.000184,-0.000658,0.003349,-0.000008,0.003349,-0.000658,-89.890805,0.003549,
1130,1940,0.030861,-0.296344,0.999999,0.000134,-0.000360,0.003219,-0.000117,0.003223,-0.000364,-88.126330,0.003530,
1400,440,-0.225269,-8.568576,0.999998,0.000175,-0.001637,0.004031,0.000441,0.004065,-0.001671,85.581010,0.004087,
1020,40,0.017093,-10.014450,0.999999,0.000126,-0.000071,0.003102,0.000293,0.003129,-0.000097,84.760172,0.003558,
840,540,0.786836,-7.751409,0.999998,0.000163,-0.002705,0.005182,-0.000265,0.005191,-0.002714,-88.074381,0.005193,
1480,630,-0.474928,-7.578370,0.999996,0.000226,-0.002835,0.005033,0.000900,0.005134,-0.002937,83.558992,0.005152,
1880,1770,-1.050249,-1.468516,0.999998,0.000209,-0.002422,0.004893,-0.000030,0.004893,-0.002422,-89.765029,0.004893,
1420,1690,-0.225691,-1.231006,0.999998,0.000177,-0.001512,0.004033,-0.000203,0.004040,-0.001519,-87.903226,0.004081,
1680,290,-0.596784,-8.905517,0.999997,0.000191,-0.002142,0.004834,-0.000203,0.004840,-0.002148,-88.332679,0.004850,
1040,1790,0.169145,-0.844014,0.999998,0.000192,-0.001156,0.003743,-0.000035,0.003743,-0.001156,-89.596188,0.003833,
580,230,0.938513,-8.872856,0.999998,0.000156,-0.002463,0.004929,0.000083,0.004930,-0.002464,89.356415,0.004930,
1310,380,-0.086988,-8.871121,0.999998,0.000139,-0.001174,0.003629,0.000138,0.003633,-0.001178,88.357789,0.003706,
1890,1050,-2.120630,-4.944702,0.999998,0.000156,-0.002023,0.004123,0.000120,0.004125,-0.002026,88.878034,0.004125,
920,1300,0.839489,-3.369003,0.999997,0.000209,-0.003562,0.006085,0.000189,0.006089,-0.003566,88.878822,0.006118,
1060,1900,0.080808,-0.438130,0.999998,0.000206,-0.000581,0.003442,-0.000211,0.003453,-0.000592,-87.009427,0.003694,
1110,1240,0.261629,-2.887508,0.999996,0.000259,-0.002954,0.004025,0.002253,0.004689,-0.003618,73.576267,0.004914,
1450,730,-0.467739,-7.137806,0.999997,0.000209,-0.003422,0.005560,0.001212,0.005721,-0.003583,82.445749,0.005781,
1330,1540,-0.131434,-1.719353,0.999998,0.000161,-0.001462,0.003643,-0.000492,0.003690,-0.001509,-84.543615,0.003711,
860,1610,0.631737,-1.818214,0.999997,0.000231,-0.002341,0.004849,0.000249,0.004858,-0.002350,88.018552,0.004859,
1770,1670,-0.954821,-1.776557,0.999998,0.000159,-0.002449,0.005058,-0.000048,0.005058,-0.002450,-89.634289,0.005059,
1510,1020,-1.363273,-5.085122,0.999998,0.000179,-0.001848,0.006130,-0.000071,0.006131,-0.001848,-89.492493,0.006290,
820,650,0.987979,-7.126514,0.999998,0.000168,-0.002961,0.005518,-0.000084,0.005519,-0.002962,-89.432910,0.005524,
1660,1910,-0.274543,-0.485386,0.999997,0.000194,-0.001287,0.004253,0.000810,0.004369,-0.001403,81.854102,0.004461,
1510,1260,-0.804075,-3.534981,0.999997,0.000201,-0.003742,0.006380,-0.000221,0.006385,-0.003747,-88.752084,0.006417,
1740,500,-1.041553,-7.763418,0.999998,0.000171,-0.002558,0.005152,0.000117,0.005153,-0.002560,89.132054,0.005153,
1470,1040,-1.280877,-4.950906,0.999996,0.000252,-0.002349,0.007401,0.000023,0.007401,-0.002349,89.866627,0.007563,
880,1000,1.483418,-5.189388,0.999997,0.000231,-0.001883,0.005431,0.000241,0.005439,-0.001891,88.115208,0.005522,
1510,250,-0.260035,-9.240120,0.999998,0.000166,-0.001346,0.004037,-0.000178,0.004043,-0.001352,-88.106060,0.004116,
1880,1310,-1.792723,-3.776963,0.999998,0.000185,-0.002434,0.004876,0.000116,0.004878,-0.002436,89.092499,0.004878,
670,750,1.585451,-6.387264,0.999997,0.000205,-0.002556,0.005105,0.000352,0.005121,-0.002572,87.377231,0.005121,
1530,1810,-0.280038,-0.833961,0.999998,0.000188,-0.001273,0.004107,0.000262,0.004120,-0.001286,87.222586,0.004216,
1130,1290,0.149275,-2.587488,0.999997,0.000203,-0.002249,0.003303,0.002066,0.003988,-0.002933,71.672045,0.004133,
1150,410,0.095045,-8.760647,0.999998,0.000168,-0.001259,0.003636,-0.000224,0.003647,-0.001269,-87.382404,0.003702,
710,1150,1.745313,-4.441470,0.999998,0.000183,-0.002371,0.004968,-0.000444,0.004995,-0.002398,-86.552707,0.004996,
1690,1050,-1.696049,-4.927544,0.999998,0.000171,-0.002080,0.004971,0.000190,0.004976,-0.002085,88.460932,0.004997,
560,40,0.171268,-9.922298,0.999972,0.000000,0.000392,0.008514,0.003878,0.010068,-0.001162,68.161711,0.011016,
1140,1490,0.121536,-1.890849,0.999998,0.000156,-0.001500,0.003489,0.000613,0.003564,-0.001574,83.100961,0.003572,
900,1090,1.401269,-4.689232,0.999998,0.000222,-0.002102,0.005707,-0.000548,0.005746,-0.002140,-86.005777,0.005808,
1470,560,-0.409679,-7.941586,0.999997,0.000192,-0.002397,0.004666,0.000752,0.004746,-0.002476,83.986471,0.004747,
780,170,0.364937,-9.465816,0.999997,0.000186,-0.001556,0.004482,0.000780,0.004581,-0.001655,82.757946,0.004639,
1580,870,-1.234418,-5.934951,0.999998,0.000171,-0.002979,0.005984,-0.000654,0.006032,-0.003026,-85.850754,0.006032,
640,1150,1.905424,-4.476785,0.999998,0.000175,-0.002211,0.004639,-0.000254,0.004648,-0.002220,-87.879930,0.004650,
1290,590,-0.074735,-8.147111,0.999998,0.000168,-0.001405,0.003240,0.000550,0.003304,-0.001469,83.340040,0.003311,
770,350,0.718632,-8.598177,0.999997,0.000199,-0.002185,0.004958,0.000049,0.004958,-0.002185,89.604300,0.004970,
1860,440,-1.257944,-7.876819,0.999998,0.000182,-0.002474,0.004994,0.000062,0.004994,-0.002475,89.521762,0.004994,
1580,400,-0.535451,-8.511159,0.999997,0.000227,-0.002128,0.004705,0.000176,0.004709,-0.002133,88.522661,0.004716,
840,560,0.810139,-7.645640,0.999998,0.000167,-0.002747,0.005219,-0.000266,0.005228,-0.002755,-88.092294,0.005231,
580,120,0.596312,-9.432984,0.999996,0.000252,-0.003622,0.005182,0.000407,0.005201,-0.003641,87.357511,0.005338,
1230,1870,0.000634,-0.516993,0.999998,0.000176,-0.000606,0.003303,-0.000009,0.003303,-0.000606,-89.873514,0.003516,
1310,730,-0.094891,-7.692028,0.999998,0.000170,-0.001624,0.002752,0.001582,0.003264,-0.002135,72.066834,0.003315,
1370,1940,-0.043333,-0.298848,0.999998,0.000146,-0.000308,0.003258,0.000200,0.003269,-0.000319,86.795568,0.003605,
820,1540,0.809688,-2.234448,0.999998,0.000146,-0.002606,0.005109,0.000244,0.005117,-0.002614,88.187413,0.005117,
1620,660,-0.935669,-7.111239,0.999998,0.000169,-0.003072,0.005538,0.000111,0.005539,-0.003073,89.262177,0.005550,
1010,50,0.023528,-9.983444,0.999999,0.000126,-0.000092,0.003164,0.000347,0.003201,-0.000128,83.980843,0.003624,
630,710,1.615208,-6.541861,0.999997,0.000207,-0.002539,0.005059,0.000194,0.005064,-0.002544,88.536036,0.005064,
1870,1770,-1.026090,-1.448400,0.999998,0.000188,-0.002430,0.004908,-0.000002,0.004908,-0.002430,-89.982457,0.004909,
590,150,0.684669,-9.298076,0.999998,0.000200,-0.002485,0.005189,0.000448,0.005215,-0.002511,86.666459,0.005216,
1360,360,-0.142802,-8.913587,0.999998,0.000150,-0.001223,0.003740,0.000147,0.003744,-0.001227,88.304652,0.003818,
1450,710,-0.448538,-7.246705,0.999997,0.000218,-0.003253,0.005376,0.001213,0.005544,-0.003420,82.149740,0.005594,
850,1460,0.823340,-2.601506,0.999997,0.000200,-0.002861,0.005338,0.000296,0.005349,-0.002871,87.935765,0.005354,
1620,1670,-0.603761,-1.552116,0.999998,0.000248,-0.002136,0.004803,-0.000084,0.004804,-0.002137,-89.309951,0.004814,
1700,870,-1.561008,-5.843918,0.999997,0.000209,-0.002546,0.005233,-0.000571,0.005275,-0.002588,-85.822311,0.005275,
1510,230,-0.235795,-9.322517,0.999998,0.000167,-0.001267,0.004014,-0.000247,0.004026,-0.001278,-87.325780,0.004114,
1880,1050,-2.099871,-4.944682,0.999998,0.000157,-0.002036,0.004212,0.000115,0.004215,-0.002038,88.942183,0.004215,
1510,1040,-1.358665,-4.964570,0.999997,0.000205,-0.001846,0.006156,0.000115,0.006158,-0.001848,89.174652,0.006320,
1130,1270,0.164558,-2.652370,0.999997,0.000204,-0.002407,0.003328,0.002216,0.004085,-0.003164,71.152829,0.004285,
1530,1790,-0.300378,-0.913031,0.999997,0.000192,-0.001358,0.004108,0.000178,0.004113,-0.001363,88.138697,0.004190,
1790,950,-1.881459,-5.403975,0.999998,0.000161,-0.002232,0.004756,-0.000326,0.004772,-0.002247,-87.333871,0.004774,
1330,1900,-0.042300,-0.426344,0.999998,0.000142,-0.000517,0.003320,0.000101,0.003323,-0.000519,88.487095,0.003575,
670,730,1.548320,-6.492195,0.999997,0.000208,-0.002572,0.005147,0.000312,0.005160,-0.002585,87.691366,0.005160,
880,980,1.467117,-5.298467,0.999997,0.000225,-0.002000,0.005485,0.000440,0.005511,-0.002026,86.647773,0.005575,
1720,340,-0.761577,-8.608740,0.999998,0.000175,-0.002302,0.004965,-0.000079,0.004966,-0.002303,-89.373967,0.004971,
1150,390,0.091875,-8.833825,0.999998,0.000149,-0.001230,0.003622,-0.000180,0.003629,-0.001237,-87.874807,0.003690,
1860,450,-1.273766,-7.827857,0.999998,0.000166,-0.002485,0.005025,0.000060,0.005025,-0.002486,89.545128,0.005026,
1150,380,0.089992,-8.870443,0.999998,0.000151,-0.001197,0.003637,-0.000161,0.003642,-0.001202,-88.098290,0.003712,
710,1130,1.769779,-4.542088,0.999998,0.000159,-0.002300,0.004933,-0.000393,0.004954,-0.002322,-86.898992,0.004958,
1690,810,-1.421787,-6.171825,0.999997,0.000217,-0.002766,0.005436,-0.000551,0.005473,-0.002803,-86.175800,0.005473,
800,650,1.047396,-7.094161,0.999998,0.000165,-0.002940,0.005481,0.000012,0.005481,-0.002940,89.918145,0.005486,
1860,420,-1.228469,-7.975986,0.999998,0.000170,-0.002476,0.005027,0.000075,0.005028,-0.002476,89.430877,0.005028,
1580,420,-0.555020,-8.415547,0.999997,0.000224,-0.002162,0.004758,0.000215,0.004765,-0.002168,88.223392,0.004771,
770,330,0.688439,-8.694616,0.999997,0.000212,-0.002154,0.004928,0.000099,0.004930,-0.002155,89.195322,0.004943,
620,1850,0.776529,-0.990626,0.999998,0.000167,-0.002441,0.005104,-0.000212,0.005110,-0.002446,-88.393925,0.005112,
1860,1770,-1.001970,-1.428281,0.999998,0.000205,-0.002437,0.004943,0.000004,0.004943,-0.002437,89.970355,0.004943,
1010,40,0.017441,-10.014229,0.999999,0.000131,-0.000044,0.003130,0.000341,0.003166,-0.000080,83.938316,0.003611,
580,220,0.914410,-8.922832,0.999998,0.000163,-0.002486,0.004940,0.000139,0.004943,-0.002489,88.927902,0.004943,
1840,1930,-0.512539,-0.568604,0.999997,0.000191,-0.002417,0.005346,0.000705,0.005409,-0.002481,84.854290,0.005415,
1230,1890,0.001180,-0.451138,0.999998,0.000146,-0.000527,0.003268,-0.000002,0.003268,-0.000527,-89.973307,0.003509,
1880,1300,-1.810650,-3.826200,0.999997,0.000184,-0.002422,0.004901,0.000109,0.004903,-0.002424,89.149350,0.004903,
1350,1940,-0.037215,-0.298124,0.999999,0.000133,-0.000349,0.003228,0.000159,0.003236,-0.000356,87.453551,0.003549,
1360,340,-0.138031,-8.987182,0.999998,0.000165,-0.001155,0.003710,0.000139,0.003714,-0.001159,88.363340,0.003801,
590,50,0.248585,-9.854893,0.999996,0.000255,-0.000971,0.006030,0.002496,0.006829,-0.001770,72.257473,0.007088,
840,1000,1.560680,-5.184438,0.999998,0.000203,-0.001977,0.005210,0.000229,0.005217,-0.001984,88.173079,0.005267,
1480,590,-0.450846,-7.775404,0.999997,0.000213,-0.002562,0.004850,0.000814,0.004938,-0.002651,83.805787,0.004943,
590,1150,2.015172,-4.511564,0.999998,0.000153,-0.002112,0.004410,-0.000150,0.004414,-0.002115,-88.683264,0.004415,
580,150,0.710159,-9.272940,0.999998,0.000195,-0.002691,0.005271,0.000428,0.005293,-0.002714,86.935092,0.005294,
1620,640,-0.904314,-7.222714,0.999998,0.000164,-0.003006,0.005512,0.000158,0.005515,-0.003009,88.935676,0.005523,
1300,280,-0.058108,-9.231073,0.999998,0.000147,-0.000830,0.003535,-0.000027,0.003535,-0.000830,-89.650027,0.003697,
920,130,0.144152,-9.693556,0.999998,0.000161,-0.000607,0.003693,0.000569,0.003767,-0.000681,82.589713,0.004015,
1420,1260,-0.456165,-3.185899,0.999996,0.000234,-0.003777,0.005810,-0.001495,0.006038,-0.004005,-81.339185,0.006144,
630,950,1.978366,-5.388169,0.999998,0.000185,-0.002176,0.004553,0.000205,0.004560,-0.002182,88.257467,0.004561,
1450,1130,-1.001519,-4.222493,0.999997,0.000186,-0.003202,0.007324,-0.000294,0.007332,-0.003211,-88.401788,0.007351,
1770,1650,-0.981827,-1.880423,0.999998,0.000166,-0.002468,0.005092,-0.000086,0.005093,-0.002469,-89.350689,0.005093,
1600,1670,-0.559336,-1.526257,0.999997,0.000221,-0.002120,0.004722,-0.000119,0.004724,-0.002122,-89.001742,0.004732,
880,1090,1.444238,-4.698719,0.999998,0.000178,-0.002114,0.005558,-0.000533,0.005595,-0.002151,-86.043531,0.005645,
1640,950,-1.544008,-5.443602,0.999996,0.000226,-0.002194,0.005293,-0.000517,0.005329,-0.002230,-86.071671,0.005352,
1020,1170,0.817924,-3.897269,0.999997,0.000197,-0.003657,0.007022,0.000559,0.007051,-0.003686,87.014163,0.007054,
1490,1510,-0.449411,-2.109996,0.999997,0.000192,-0.002422,0.004744,-0.000677,0.004807,-0.002486,-84.650334,0.004808,
1530,1770,-0.325049,-0.998898,0.999998,0.000169,-0.001459,0.004270,0.000146,0.004274,-0.001463,88.539667,0.004344,
1870,1050,-2.079023,-4.943252,0.999999,0.000150,-0.002063,0.004297,0.000116,0.004299,-0.002066,88.958577,0.004300,
1130,1250,0.184594,-2.719377,0.999997,0.000215,-0.002509,0.003281,0.002220,0.004034,-0.003262,71.260930,0.004282,
560,30,0.082161,-9.999124,0.999972,0.000000,0.000585,0.008460,0.004619,0.010592,-0.001547,65.222670,0.011442,
1720,300,-0.698684,-8.806834,0.999997,0.000188,-0.002134,0.004956,-0.000225,0.004963,-0.002141,-88.185450,0.004978,
710,1110,1.792054,-4.639899,0.999998,0.000178,-0.002266,0.004920,-0.000389,0.004941,-0.002287,-86.911495,0.004945,
1090,1240,0.325772,-3.022352,0.999997,0.000222,-0.003334,0.004865,0.002168,0.005403,-0.003872,76.062827,0.005569,
1150,370,0.087810,-8.907333,0.999998,0.000144,-0.001164,0.003641,-0.000141,0.003645,-0.001168,-88.318871,0.003723,
1660,1410,-1.030400,-2.953461,0.999997,0.000173,-0.002933,0.005456,-0.000016,0.005456,-0.002933,-89.891868,0.005461,
1860,400,-1.197164,-8.077819,0.999998,0.000155,-0.002477,0.005011,0.000069,0.005011,-0.002478,89.470455,0.005012,
1580,440,-0.575127,-8.319480,0.999998,0.000189,-0.002218,0.004794,0.000231,0.004802,-0.002225,88.115552,0.004806,
1560,870,-1.174563,-5.960418,0.999998,0.000172,-0.003084,0.006147,-0.000625,0.006189,-0.003126,-86.142088,0.006189,
920,1320,0.801357,-3.245314,0.999998,0.000215,-0.003508,0.006004,0.000291,0.006013,-0.003517,88.251000,0.006042,
670,710,1.513831,-6.595795,0.999997,0.000207,-0.002605,0.005142,0.000266,0.005151,-0.002614,88.034235,0.005151,
1010,150,0.105561,-9.648406,0.999998,0.000151,-0.000573,0.003572,0.000314,0.003596,-0.000597,85.689421,0.003854,
880,1180,1.255702,-4.178217,0.999997,0.000194,-0.002930,0.005946,-0.000683,0.005998,-0.002982,-85.624029,0.005998,
1050,830,0.512439,-6.718245,0.999996,0.000228,-0.003860,0.006067,-0.001441,0.006272,-0.004065,-81.903274,0.006363,
1080,630,0.231174,-7.832376,0.999998,0.000177,-0.002186,0.004063,-0.001207,0.004289,-0.002411,-79.438197,0.004300,
1230,1910,0.000759,-0.384203,0.999998,0.000155,-0.000450,0.003233,-0.000009,0.003233,-0.000450,-89.855391,0.003502,
880,130,0.172375,-9.683258,0.999998,0.000174,-0.000916,0.003842,0.000618,0.003921,-0.000995,82.719659,0.004077,
1170,780,0.082040,-7.631653,0.999998,0.000213,-0.001632,0.002055,-0.001650,0.002685,-0.002263,-69.087241,0.002888,
580,50,0.260630,-9.845012,0.999995,0.000284,-0.000443,0.006686,0.002785,0.007645,-0.001402,70.999672,0.008140,
1310,710,-0.091633,-7.748708,0.999998,0.000170,-0.001579,0.002855,0.001435,0.003279,-0.002003,73.541034,0.003305,
1300,1730,-0.066323,-1.008870,0.999999,0.000112,-0.000992,0.003572,-0.000003,0.003572,-0.000992,-89.956242,0.003688,
1820,210,-0.735297,-9.110970,0.999997,0.000211,-0.002329,0.005136,-0.000396,0.005157,-0.002350,-86.972329,0.005164,
840,980,1.547317,-5.288101,0.999997,0.000216,-0.002046,0.005269,0.000393,0.005290,-0.002067,86.931144,0.005332,
1360,320,-0.129138,-9.063097,0.999998,0.000175,-0.001096,0.003707,0.000080,0.003708,-0.001097,89.050925,0.003810,
1420,1220,-0.554681,-3.430996,0.999996,0.000225,-0.003881,0.006217,-0.001311,0.006384,-0.004048,-82.722670,0.006460,
1250,1940,-0.005640,-0.291336,0.999999,0.000145,-0.000322,0.003155,0.000007,0.003155,-0.000322,89.877447,0.003472,
970,520,0.439721,-8.082753,0.999997,0.000210,-0.002347,0.004685,-0.000606,0.004737,-0.002399,-85.107844,0.004737,
1620,950,-1.501374,-5.448727,0.999997,0.000190,-0.002199,0.005384,-0.000539,0.005422,-0.002238,-85.957385,0.005450,
1380,40,-0.010522,-10.015923,0.999999,0.000114,-0.000038,0.003051,-0.000192,0.003063,-0.000050,-86.452720,0.003508,
580,1150,2.037090,-4.519172,0.999998,0.000144,-0.002008,0.004381,-0.000102,0.004382,-0.002009,-89.084404,0.004387,
1860,1930,-0.561352,-0.617404,0.999997,0.000207,-0.002410,0.005369,0.000693,0.005430,-0.002472,84.947760,0.005437,
850,1660,0.599975,-1.591338,0.999998,0.000150,-0.002154,0.004778,0.000107,0.004780,-0.002156,89.112825,0.004787,
1620,620,-0.876718,-7.331593,0.999998,0.000173,-0.002954,0.005416,0.000214,0.005421,-0.002960,88.536038,0.005429,
1220,1850,0.009051,-0.584843,0.999998,0.000209,-0.000656,0.003348,0.000006,0.003348,-0.000656,89.909752,0.003548,
1700,1190,-1.554444,-4.212224,0.999997,0.000200,-0.002575,0.005277,0.000573,0.005318,-0.002617,85.848387,0.005319,
620,1900,0.627852,-0.732526,0.999997,0.000193,-0.002448,0.005211,-0.000459,0.005239,-0.002476,-86.583411,0.005241,
1870,390,-1.207381,-8.110912,0.999998,0.000169,-0.002489,0.004955,0.000081,0.004956,-0.002490,89.380368,0.004956,
1530,940,-1.274846,-5.566077,0.999997,0.000211,-0.002460,0.006202,-0.000674,0.006254,-0.002513,-85.576265,0.006294,
750,1610,0.898045,-1.989743,0.999998,0.000155,-0.002494,0.005018,0.000120,0.005020,-0.002496,89.085770,0.005020,
1000,1190,0.822915,-3.844264,0.999997,0.000212,-0.003831,0.006911,0.000349,0.006922,-0.003842,88.142165,0.006936,
1790,930,-1.859251,-5.500405,0.999998,0.000156,-0.002265,0.004788,-0.000364,0.004807,-0.002284,-87.055231,0.004809,
820,1520,0.833484,-2.338620,0.999998,0.000166,-0.002640,0.005164,0.000239,0.005171,-0.002647,88.249639,0.005172,
1270,1310,-0.038376,-2.310991,0.999998,0.000148,-0.001178,0.001841,-0.000972,0.002127,-0.001464,-73.604802,0.002177,
570,2000,0.298827,-0.277958,0.999907,0.001104,-0.000582,0.006700,-0.002910,0.007720,-0.001601,-70.684712,0.008149,
1310,1920,-0.028538,-0.358718,0.999998,0.000135,-0.000347,0.003233,0.000088,0.003235,-0.000350,88.595198,0.003551,
1490,1490,-0.461748,-2.204748,0.999997,0.000215,-0.002489,0.004799,-0.000719,0.004870,-0.002560,-84.418271,0.004872,
580,210,0.888695,-8.973041,0.999998,0.000170,-0.002534,0.004972,0.000195,0.004977,-0.002539,88.511547,0.004977,
1020,110,0.067591,-9.787769,0.999999,0.000157,-0.000423,0.003384,0.000340,0.003414,-0.000453,84.931272,0.003708,
1070,1240,0.398125,-3.149616,0.999997,0.000207,-0.003669,0.005531,0.001883,0.005902,-0.004039,78.867794,0.006034,
1050,810,0.461816,-6.843381,0.999996,0.000233,-0.003850,0.005893,-0.001519,0.006124,-0.004081,-81.340862,0.006236,
1130,1230,0.235503,-2.782221,0.999997,0.000212,-0.002532,0.003185,0.002117,0.003884,-0.003230,71.740777,0.004159,
1020,1790,0.193243,-0.856579,0.999998,0.000157,-0.001100,0.003835,-0.000082,0.003836,-0.001101,-89.047121,0.003950,
1640,1410,-0.971244,-2.921131,0.999998,0.000175,-0.002945,0.005500,-0.000092,0.005501,-0.002946,-89.373337,0.005506,
1860,1980,-0.342331,-0.344570,0.999997,0.000195,-0.002267,0.005752,0.001416,0.005995,-0.002510,80.272246,0.006021,
1010,130,0.090121,-9.716807,0.999998,0.000157,-0.000477,0.003442,0.000322,0.003468,-0.000503,85.329956,0.003748,
710,1090,1.812520,-4.739507,0.999998,0.000188,-0.002206,0.004860,-0.000257,0.004870,-0.002215,-87.919212,0.004876,
1510,560,-0.507666,-7.859296,0.999997,0.000183,-0.002540,0.004907,0.000628,0.004959,-0.002592,85.215040,0.004961,
1080,510,0.216290,-8.310042,0.999998,0.000159,-0.001734,0.003988,-0.000671,0.004066,-0.001812,-83.402141,0.004074,
1280,1730,-0.046896,-1.005259,0.999999,0.000146,-0.000943,0.003540,-0.000021,0.003540,-0.000943,-89.737102,0.003667,
1770,1630,-1.012188,-1.979530,0.999999,0.000144,-0.002485,0.005053,-0.000086,0.005054,-0.002486,-89.344504,0.005054,
1810,860,-1.815429,-5.826822,0.999998,0.000163,-0.002348,0.004861,-0.000410,0.004884,-0.002372,-86.753958,0.004885,
1020,150,0.099483,-9.649743,0.999998,0.000142,-0.000598,0.003548,0.000310,0.003571,-0.000621,85.745339,0.003816,
1230,1940,0.000451,-0.290602,0.999999,0.000112,-0.000324,0.003146,-0.000001,0.003146,-0.000324,-89.986499,0.003461,
1240,400,-0.009294,-8.817737,0.999998,0.000150,-0.001144,0.003562,0.000067,0.003563,-0.001145,89.187453,0.003638,
1150,780,0.115235,-7.544983,0.999997,0.000191,-0.001987,0.002682,-0.001979,0.003408,-0.002713,-69.852617,0.003602,
1150,350,0.085003,-8.979159,0.999998,0.000148,-0.001122,0.003584,-0.000102,0.003586,-0.001124,-88.758582,0.003668,
1730,1580,-0.982389,-2.171248,0.999998,0.000159,-0.002554,0.005124,-0.000119,0.005126,-0.002556,-89.114599,0.005126,
1800,50,-0.130741,-9.948503,0.999998,0.000171,-0.000423,0.004393,-0.001935,0.005074,-0.001104,-70.609870,0.005337,
920,1340,0.768163,-3.128018,0.999998,0.000196,-0.003429,0.005864,0.000355,0.005877,-0.003442,87.817703,0.005906,
670,690,1.477444,-6.696932,0.999997,0.000209,-0.002642,0.005121,0.000242,0.005129,-0.002650,88.213020,0.005130,
770,1980,0.142374,-0.212349,0.999999,0.000136,-0.000646,0.003897,-0.001141,0.004167,-0.000917,-76.658892,0.004380,
850,1640,0.621420,-1.685956,0.999998,0.000172,-0.002250,0.004864,0.000145,0.004867,-0.002253,88.829258,0.004871,
1690,770,-1.341170,-6.395095,0.999998,0.000185,-0.002878,0.005502,-0.000443,0.005526,-0.002901,-86.979942,0.005528,
1450,1150,-0.922085,-4.074561,0.999997,0.000190,-0.003427,0.007163,-0.000287,0.007171,-0.003435,-88.448730,0.007173,
1540,870,-1.110132,-5.992435,0.999997,0.000209,-0.003239,0.006338,-0.000569,0.006371,-0.003273,-86.611839,0.006372,
1800,1110,-1.897802,-4.654599,0.999998,0.000172,-0.002257,0.004755,0.000319,0.004770,-0.002272,87.400839,0.004771,
1550,380,-0.452292,-8.645062,0.999997,0.000191,-0.001901,0.004536,0.000112,0.004538,-0.001903,89.005446,0.004557,
1800,210,-0.689569,-9.141371,0.999998,0.000166,-0.002242,0.005132,-0.000564,0.005175,-0.002284,-85.648789,0.005187,
840,960,1.521310,-5.395034,0.999997,0.000221,-0.002125,0.005356,0.000507,0.005391,-0.002159,86.139018,0.005426,
1860,380,-1.168104,-8.178525,0.999998,0.000155,-0.002476,0.004956,0.000078,0.004957,-0.002477,89.401284,0.004957,
1490,1470,-0.472990,-2.300122,0.999997,0.000213,-0.002581,0.004902,-0.000753,0.004977,-0.002656,-84.308750,0.004981,
1620,600,-0.849407,-7.439266,0.999998,0.000186,-0.002906,0.005347,0.000254,0.005355,-0.002914,88.236285,0.005362,
1570,1600,-0.566675,-1.816641,0.999998,0.000213,-0.002239,0.004766,-0.000286,0.004778,-0.002250,-87.665728,0.004781,
1530,1750,-0.344717,-1.084562,0.999998,0.000180,-0.001534,0.004239,0.000050,0.004240,-0.001535,89.504481,0.004293,
1310,690,-0.093543,-7.809073,0.999998,0.000158,-0.001557,0.002973,0.001260,0.003299,-0.001884,75.459888,0.003311,
1330,1520,-0.131025,-1.793191,0.999998,0.000176,-0.001476,0.003601,-0.000524,0.003654,-0.001530,-84.168584,0.003670,
1410,1110,-0.944632,-4.120801,0.999995,0.000275,-0.003339,0.008259,-0.002797,0.008898,-0.003978,-77.123669,0.008915,
620,1860,0.751522,-0.940731,0.999998,0.000189,-0.002430,0.005114,-0.000259,0.005123,-0.002438,-88.035297,0.005125,
1870,380,-1.191069,-8.161215,0.999998,0.000162,-0.002490,0.004927,0.000079,0.004928,-0.002491,89.388635,0.004928,
750,1590,0.924778,-2.091470,0.999998,0.000165,-0.002517,0.005101,0.000131,0.005104,-0.002519,89.013354,0.005104,
1630,1260,-1.213356,-3.760538,0.999997,0.000192,-0.003111,0.005807,0.000456,0.005830,-0.003135,87.081605,0.005836,
1050,790,0.420786,-6.957068,0.999997,0.000218,-0.003694,0.005626,-0.001619,0.005899,-0.003967,-80.419194,0.006015,
1770,900,-1.781229,-5.652826,0.999998,0.000165,-0.002327,0.004910,-0.000426,0.004935,-0.002352,-86.647026,0.004937,
870,1080,1.479787,-4.758452,0.999998,0.000185,-0.002022,0.005471,-0.000463,0.005499,-0.002051,-86.475191,0.005558,
1140,1350,0.116223,-2.358227,0.999998,0.000147,-0.001749,0.003143,0.001541,0.003588,-0.002194,73.896106,0.003618,
1120,110,0.032334,-9.798289,0.999999,0.000125,-0.000333,0.003242,0.000150,0.003248,-0.000339,87.602420,0.003571,
1860,1960,-0.438467,-0.457161,0.999997,0.000193,-0.002346,0.005485,0.001141,0.005647,-0.002508,81.878300,0.005659,
1480,1770,-0.250439,-0.958733,0.999998,0.000140,-0.001257,0.004015,0.000095,0.004017,-0.001259,88.973375,0.004109,
710,1070,1.821961,-4.834577,0.999998,0.000171,-0.002150,0.004778,-0.000143,0.004781,-0.002153,-88.815890,0.004789,
920,150,0.169522,-9.620906,0.999998,0.000177,-0.000727,0.003806,0.000534,0.003868,-0.000789,83.369984,0.004088,
1220,1730,0.012701,-0.998120,0.999999,0.000129,-0.001004,0.003495,0.000051,0.003496,-0.001004,89.344860,0.003600,
1790,860,-1.769083,-5.839532,0.999997,0.000199,-0.002388,0.004942,-0.000433,0.004967,-0.002414,-86.627276,0.004968,
1150,330,0.080751,-9.050467,0.999998,0.000154,-0.001056,0.003614,-0.000053,0.003615,-0.001057,-89.345172,0.003717,
1800,40,-0.089575,-9.990707,0.999998,0.000167,-0.000246,0.004244,-0.001951,0.004973,-0.000976,-69.501120,0.005270,
1130,720,0.134452,-7.641588,0.999997,0.000179,-0.001945,0.003335,-0.001715,0.003843,-0.002453,-73.494553,0.003892,
1770,1850,-0.611836,-0.868773,0.999997,0.000207,-0.002274,0.005004,0.000545,0.005045,-0.002315,85.743228,0.005050,
1010,110,0.071881,-9.785837,0.999998,0.000165,-0.000367,0.003400,0.000357,0.003434,-0.000401,84.628968,0.003755,
1570,1880,-0.228109,-0.568013,0.999998,0.000185,-0.001092,0.003997,0.000512,0.004048,-0.001143,84.315497,0.004174,
670,670,1.440747,-6.800699,0.999997,0.000211,-0.002651,0.005174,0.000181,0.005179,-0.002656,88.674567,0.005179,
1080,1490,0.223797,-1.988372,0.999998,0.000153,-0.001855,0.003952,0.000833,0.004069,-0.001972,81.994719,0.004069,
1790,1580,-1.133476,-2.267483,0.999998,0.000160,-0.002545,0.005110,-0.000066,0.005111,-0.002546,-89.507492,0.005111,
960,1760,0.295080,-1.018759,0.999998,0.000173,-0.001550,0.004125,-0.000027,0.004125,-0.001550,-89.731895,0.004168,
920,1360,0.740887,-3.010789,0.999998,0.000204,-0.003344,0.005706,0.000430,0.005727,-0.003364,87.285733,0.005756,
1560,1630,-0.516334,-1.659490,0.999997,0.000220,-0.002164,0.004702,-0.000233,0.004709,-0.002172,-88.060792,0.004714,
1860,360,-1.133763,-8.277102,0.999998,0.000172,-0.002449,0.004952,0.000070,0.004953,-0.002450,89.459729,0.004953,
1800,1090,-1.914677,-4.749990,0.999998,0.000183,-0.002208,0.004644,0.000168,0.004648,-0.002212,88.595418,0.004650,
1620,580,-0.824405,-7.546591,0.999997,0.000192,-0.002837,0.005302,0.000277,0.005311,-0.002847,88.051372,0.005316,
1050,1120,0.920680,-4.070293,0.999995,0.000250,-0.003255,0.007646,0.002334,0.008125,-0.003733,78.407927,0.008134,
720,1850,0.547613,-0.829702,0.999997,0.000200,-0.002084,0.004895,-0.000565,0.004940,-0.002130,-85.399912,0.004956,
1730,1780,-0.673927,-1.160922,0.999998,0.000184,-0.002149,0.004982,0.000303,0.004995,-0.002161,87.575171,0.005010,
970,480,0.416072,-8.268260,0.999998,0.000189,-0.002091,0.004543,-0.000472,0.004577,-0.002124,-85.952273,0.004581,
1490,1450,-0.485354,-2.399859,0.999997,0.000212,-0.002702,0.005006,-0.000803,0.005089,-0.002785,-84.114425,0.005097,
890,420,0.539535,-8.424681,0.999996,0.000221,-0.002163,0.004739,-0.000224,0.004747,-0.002170,-88.139894,0.004753,
1690,750,-1.302881,-6.502263,0.999997,0.000197,-0.002903,0.005497,-0.000381,0.005515,-0.002920,-87.407049,0.005518,
1450,1170,-0.842055,-3.930293,0.999997,0.000217,-0.003687,0.007024,-0.000380,0.007037,-0.003701,-87.971956,0.007040,
840,940,1.495406,-5.501717,0.999997,0.000211,-0.002259,0.005438,0.000585,0.005482,-0.002303,85.681857,0.005506,
1230,780,0.002069,-7.761438,0.999996,0.000230,-0.001215,0.001143,-0.000060,0.001145,-0.001216,-88.534743,0.001365,
1850,400,-1.172748,-8.095108,0.999999,0.000141,-0.002461,0.005027,0.000068,0.005028,-0.002462,89.479504,0.005028,
620,1320,1.685536,-3.676050,0.999998,0.000172,-0.002485,0.004961,-0.000216,0.004967,-0.002491,-88.342584,0.004967,
1240,380,-0.008088,-8.891658,0.999998,0.000145,-0.001126,0.003529,0.000060,0.003530,-0.001127,89.261218,0.003606,
1310,670,-0.095327,-7.866274,0.999998,0.000156,-0.001524,0.003041,0.001103,0.003294,-0.001777,77.106198,0.003297,
1170,1600,0.076015,-1.471644,0.999999,0.000144,-0.001262,0.003571,0.000175,0.003578,-0.001268,87.932798,0.003628,
1100,1470,0.189423,-2.029302,0.999998,0.000170,-0.001823,0.003827,0.000924,0.003974,-0.001970,80.946152,0.003974,
1770,1200,-1.711282,-4.201542,0.999997,0.000215,-0.002473,0.005007,0.000480,0.005037,-0.002503,86.339674,0.005037,
750,1570,0.951069,-2.194502,0.999998,0.000172,-0.002541,0.005134,0.000150,0.005137,-0.002544,88.884509,0.005137,
850,1080,1.519524,-4.763468,0.999998,0.000196,-0.002037,0.005347,-0.000459,0.005375,-0.002065,-86.454435,0.005423,
1580,460,-0.594590,-8.224932,0.999998,0.000190,-0.002316,0.004833,0.000286,0.004844,-0.002327,87.714643,0.004846,
1700,1600,-0.879448,-2.021536,0.999998,0.000174,-0.002482,0.005065,-0.000141,0.005068,-0.002484,-88.927017,0.005068,
1690,980,-1.684956,-5.278175,0.999997,0.000203,-0.002142,0.004994,-0.000251,0.005003,-0.002151,-87.986815,0.005020,
1500,1270,-0.743836,-3.442356,0.999997,0.000210,-0.003763,0.006322,-0.000418,0.006339,-0.003780,-87.631122,0.006378,
670,650,1.408308,-6.905338,0.999997,0.000207,-0.002633,0.005184,0.000132,0.005186,-0.002635,89.034609,0.005186,
1200,1730,0.031196,-1.002211,0.999999,0.000148,-0.000967,0.003516,0.000058,0.003517,-0.000968,89.257348,0.003634,
1050,770,0.388435,-7.069931,0.999997,0.000214,-0.003524,0.005438,-0.001645,0.005730,-0.003816,-79.921180,0.005835,
710,1050,1.828388,-4.930912,0.999998,0.000173,-0.002154,0.004802,-0.000170,0.004807,-0.002158,-88.603423,0.004815,
980,150,0.122869,-9.639739,0.999998,0.000163,-0.000673,0.003630,0.000355,0.003659,-0.000702,85.317887,0.003884,
1790,840,-1.736637,-5.939021,0.999998,0.000182,-0.002419,0.004900,-0.000435,0.004926,-0.002445,-86.612365,0.004926,
1410,210,-0.120325,-9.445424,0.999998,0.000225,-0.000887,0.003589,-0.000137,0.003594,-0.000891,-88.242237,0.003743,
880,1420,0.785667,-2.759847,0.999998,0.000171,-0.003042,0.005495,0.000345,0.005509,-0.003056,87.689024,0.005520,
1760,1830,-0.635365,-0.954427,0.999998,0.000194,-0.002297,0.004996,0.000408,0.005018,-0.002320,86.807006,0.005023,
1130,680,0.134514,-7.774624,0.999999,0.000138,-0.001799,0.003389,-0.001392,0.003739,-0.002149,-75.887496,0.003753,
1790,910,-1.837165,-5.596787,0.999998,0.000143,-0.002262,0.004788,-0.000342,0.004804,-0.002279,-87.227375,0.004806,
840,1710,0.558774,-1.366188,0.999997,0.000181,-0.001939,0.004724,-0.000085,0.004725,-0.001940,-89.270564,0.004750,
1620,560,-0.800811,-7.651394,0.999997,0.000191,-0.002747,0.005240,0.000298,0.005251,-0.002758,87.868941,0.005253,
1770,1610,-1.039946,-2.082007,0.999998,0.000166,-0.002484,0.005059,-0.000096,0.005060,-0.002485,-89.274024,0.005060,
700,1850,0.594264,-0.860503,0.999998,0.000175,-0.002283,0.004996,-0.000517,0.005033,-0.002320,-85.961633,0.005038,
1270,1270,-0.049313,-2.380262,0.999998,0.000198,-0.001407,0.001473,-0.001101,0.001846,-0.001780,-71.294235,0.002094,
1010,90,0.055626,-9.853082,0.999999,0.000160,-0.000259,0.003312,0.000355,0.003347,-0.000294,84.378823,0.003707,
620,1300,1.718557,-3.775626,0.999998,0.000173,-0.002475,0.004917,-0.000241,0.004925,-0.002483,-88.133965,0.004925,
1770,1580,-1.082868,-2.235895,0.999999,0.000143,-0.002547,0.005120,-0.000107,0.005122,-0.002549,-89.199256,0.005122,
1050,1920,0.071151,-0.371790,0.999999,0.000147,-0.000543,0.003377,-0.000226,0.003390,-0.000556,-86.706955,0.003636,
820,1500,0.858581,-2.440683,0.999998,0.000187,-0.002716,0.005251,0.000227,0.005257,-0.002722,88.369685,0.005258,
1230,760,0.002050,-7.784709,0.999998,0.000165,-0.001061,0.001352,-0.000043,0.001353,-0.001061,-88.982678,0.001424,
1490,1430,-0.501488,-2.501237,0.999996,0.000229,-0.002836,0.005072,-0.000858,0.005165,-0.002928,-83.876718,0.005180,
880,650,0.806974,-7.236623,0.999998,0.000182,-0.003098,0.005552,-0.000326,0.005564,-0.003110,-87.845669,0.005577,
1080,1830,0.107647,-0.679336,0.999998,0.000177,-0.000729,0.003585,-0.000118,0.003588,-0.000732,-88.438555,0.003792,
1560,690,-0.789730,-7.057158,0.999998,0.000194,-0.003279,0.005697,0.000342,0.005710,-0.003292,87.821579,0.005732,
1700,1580,-0.905529,-2.122874,0.999998,0.000166,-0.002516,0.005074,-0.000145,0.005077,-0.002518,-88.902495,0.005077,
1710,1300,-1.370781,-3.626280,0.999997,0.000219,-0.002815,0.005420,0.000416,0.005441,-0.002836,87.113289,0.005442,
1860,1940,-0.523934,-0.561698,0.999997,0.000208,-0.002394,0.005391,0.000805,0.005473,-0.002477,84.155992,0.005481,
1690,1220,-1.470471,-4.042262,0.999996,0.000216,-0.002727,0.005417,0.000611,0.005463,-0.002772,85.734479,0.005463,
1060,1490,0.261953,-2.024653,0.999998,0.000172,-0.002023,0.004144,0.000884,0.004268,-0.002148,82.003364,0.004269,
1240,360,-0.010643,-8.960453,0.999998,0.000144,-0.001090,0.003511,0.000065,0.003512,-0.001091,89.192569,0.003595,
1720,1390,-1.234673,-3.151645,0.999998,0.000200,-0.002784,0.005330,0.000152,0.005333,-0.002787,88.926204,0.005335,
1640,1830,-0.406793,-0.826147,0.999997,0.000198,-0.001514,0.004472,0.000512,0.004515,-0.001557,85.148303,0.004587,
900,170,0.212953,-9.534401,0.999998,0.000164,-0.000948,0.003967,0.000501,0.004017,-0.000999,84.239262,0.004183,
1310,650,-0.097069,-7.926828,0.999999,0.000157,-0.001493,0.003124,0.000960,0.003316,-0.001685,78.706604,0.003316,
1050,750,0.364497,-7.176295,0.999997,0.000198,-0.003345,0.005253,-0.001640,0.005555,-0.003647,-79.560613,0.005645,
1880,320,-1.116568,-8.438420,0.999998,0.000156,-0.002421,0.004951,0.000043,0.004951,-0.002421,89.668104,0.004951,
710,1030,1.839074,-5.026010,0.999998,0.000170,-0.002160,0.004840,-0.000030,0.004840,-0.002160,-89.753695,0.004849,
1670,980,-1.643148,-5.279318,0.999997,0.000195,-0.002126,0.005067,-0.000280,0.005078,-0.002137,-87.775789,0.005099,
1790,890,-1.814002,-5.692705,0.999998,0.000184,-0.002311,0.004844,-0.000415,0.004868,-0.002335,-86.689887,0.004869,
1030,1920,0.082273,-0.376245,0.999998,0.000151,-0.000521,0.003403,-0.000261,0.003420,-0.000539,-86.216117,0.003678,
1180,1730,0.050759,-1.005435,0.999999,0.000142,-0.000960,0.003543,0.000031,0.003543,-0.000960,89.608722,0.003665,
1620,540,-0.778492,-7.756420,0.999998,0.000157,-0.002677,0.005163,0.000297,0.005174,-0.002688,87.831888,0.005176,
1860,750,-1.753194,-6.306397,0.999998,0.000177,-0.002448,0.004923,-0.000188,0.004928,-0.002453,-88.536702,0.004928,
820,1480,0.883728,-2.547561,0.999998,0.000180,-0.002781,0.005302,0.000211,0.005307,-0.002786,88.508391,0.005309,
1400,1130,-0.842140,-3.869995,0.999996,0.000251,-0.002691,0.007075,-0.003109,0.007981,-0.003597,-73.757949,0.007994,
840,920,1.460337,-5.613468,0.999996,0.000222,-0.002395,0.005537,0.000684,0.005595,-0.002453,85.109804,0.005609,
870,420,0.583243,-8.397887,0.999998,0.000206,-0.002191,0.004787,-0.000175,0.004791,-0.002195,-88.566554,0.004797,
730,1020,1.792615,-5.076609,0.999998,0.000156,-0.002157,0.004908,0.000079,0.004909,-0.002158,89.358701,0.004921,
670,630,1.374108,-7.008076,0.999998,0.000192,-0.002614,0.005136,0.000101,0.005137,-0.002616,89.255095,0.005137,
1010,70,0.039155,-9.919203,0.999998,0.000166,-0.000181,0.003282,0.000383,0.003324,-0.000223,83.764770,0.003716,
620,1280,1.755236,-3.873816,0.999998,0.000173,-0.002445,0.004921,-0.000273,0.004931,-0.002456,-87.878808,0.004931,
820,1730,0.571557,-1.294229,0.999997,0.000222,-0.002036,0.004757,-0.000092,0.004758,-0.002037,-89.225380,0.004775,
1490,1410,-0.516363,-2.605258,0.999997,0.000208,-0.002956,0.005225,-0.000864,0.005315,-0.003046,-84.035977,0.005334,
1110,660,0.170917,-7.791940,0.999998,0.000161,-0.001960,0.003698,-0.001323,0.003992,-0.002254,-77.470176,0.004003,
1700,1930,-0.279137,-0.425408,0.999997,0.000197,-0.001073,0.004378,0.001114,0.004596,-0.001292,78.884599,0.004741,
1530,1730,-0.362498,-1.166786,0.999997,0.000184,-0.001592,0.004371,0.000014,0.004371,-0.001592,89.869263,0.004424,
1770,1570,-1.097505,-2.287640,0.999998,0.000148,-0.002575,0.005114,-0.000109,0.005116,-0.002576,-89.188523,0.005116,
1480,1750,-0.267533,-1.038602,0.999998,0.000174,-0.001357,0.004044,0.000022,0.004044,-0.001357,89.769508,0.004116,
880,630,0.779424,-7.345832,0.999998,0.000176,-0.002988,0.005434,-0.000357,0.005449,-0.003003,-87.574889,0.005459,
750,1550,0.978126,-2.296982,0.999998,0.000173,-0.002584,0.005145,0.000144,0.005148,-0.002587,88.936043,0.005148,
1000,1070,1.224565,-4.711355,0.999997,0.000223,-0.002585,0.007521,0.000024,0.007521,-0.002585,89.863857,0.007643,
880,440,0.580690,-8.315587,0.999998,0.000206,-0.002224,0.004789,-0.000229,0.004796,-0.002232,-88.132569,0.004800,
1410,190,-0.105558,-9.517192,0.999998,0.000234,-0.000799,0.003571,-0.000172,0.003578,-0.000805,-87.743072,0.003754,
1150,310,0.075628,-9.124071,0.999999,0.000135,-0.000986,0.003585,-0.000046,0.003585,-0.000987,-89.426138,0.003704,
1560,670,-0.761365,-7.172190,0.999996,0.000238,-0.003187,0.005637,0.000391,0.005655,-0.003204,87.469952,0.005671,
1210,760,0.021579,-7.768603,0.999998,0.000144,-0.001072,0.001471,-0.000618,0.001614,-0.001214,-77.044104,0.001681,
1390,1540,-0.229425,-1.802815,0.999998,0.000158,-0.001767,0.003992,-0.000650,0.004065,-0.001840,-83.640553,0.004071,
1700,1560,-0.931305,-2.224460,0.999998,0.000164,-0.002581,0.005123,-0.000150,0.005126,-0.002584,-88.887170,0.005126,
1250,1790,-0.015763,-0.790593,0.999998,0.000150,-0.000825,0.003453,-0.000049,0.003454,-0.000826,-89.338094,0.003607,
920,1800,0.309235,-0.883705,0.999998,0.000180,-0.001310,0.004157,-0.000271,0.004170,-0.001324,-87.171096,0.004262,
880,970,1.451879,-5.353974,0.999997,0.000224,-0.002074,0.005523,0.000514,0.005558,-0.002108,86.146662,0.005611,
630,1400,1.520385,-3.257316,0.999997,0.000207,-0.002551,0.005055,-0.000113,0.005057,-0.002553,-89.151730,0.005057,
1520,1810,-0.267186,-0.827263,0.999998,0.000176,-0.001302,0.004070,0.000232,0.004080,-0.001312,87.532380,0.004166,
1240,340,-0.009533,-9.029877,0.999999,0.000136,-0.001047,0.003504,0.000044,0.003504,-0.001047,89.448281,0.003598,
1780,1110,-1.852993,-4.647985,0.999998,0.000149,-0.002240,0.004827,0.000360,0.004845,-0.002259,87.095389,0.004849,
610,580,1.450477,-7.174136,0.999998,0.000159,-0.002585,0.005099,0.000018,0.005099,-0.002585,89.868292,0.005100,
1050,730,0.346663,-7.281113,0.999997,0.000187,-0.003141,0.005087,-0.001593,0.005384,-0.003439,-79.414842,0.005453,
1860,1920,-0.599009,-0.672105,0.999997,0.000209,-0.002424,0.005302,0.000608,0.005349,-0.002472,85.525531,0.005355,
1870,320,-1.091851,-8.457615,0.999998,0.000144,-0.002428,0.004978,0.000045,0.004978,-0.002428,89.653981,0.004979,
1880,1570,-1.374855,-2.462649,0.999997,0.000207,-0.002449,0.005063,-0.000027,0.005063,-0.002449,-89.792567,0.005064,
1600,1510,-0.729573,-2.315570,0.999997,0.000218,-0.002683,0.005164,-0.000344,0.005179,-0.002698,-87.493254,0.005181,
1310,630,-0.100503,-7.987425,0.999998,0.000145,-0.001464,0.003197,0.000870,0.003354,-0.001622,79.762853,0.003355,
710,1010,1.831856,-5.126467,0.999998,0.000158,-0.002171,0.004858,0.000165,0.004861,-0.002175,88.656592,0.004870,
1860,730,-1.717480,-6.404662,0.999997,0.000214,-0.002460,0.004928,-0.000154,0.004931,-0.002464,-88.802620,0.004931,
1620,520,-0.755245,-7.861135,0.999998,0.000175,-0.002611,0.005092,0.000288,0.005102,-0.002621,87.862871,0.005103,
600,1550,1.361930,-2.538063,0.999998,0.000178,-0.002515,0.005074,0.000034,0.005074,-0.002516,89.744804,0.005074,
1400,1120,-0.880597,-3.942436,0.999995,0.000261,-0.002776,0.007681,-0.003403,0.008692,-0.003786,-73.470142,0.008715,
1720,890,-1.644950,-5.728903,0.999998,0.000175,-0.002454,0.005186,-0.000591,0.005231,-0.002499,-85.601304,0.005233,
880,170,0.235781,-9.524170,0.999998,0.000163,-0.001197,0.004041,0.000530,0.004094,-0.001250,84.275649,0.004196,
670,940,1.877149,-5.451498,0.999998,0.000182,-0.002256,0.004784,0.000360,0.004802,-0.002274,87.082393,0.004804,
820,1710,0.597706,-1.389171,0.999997,0.000175,-0.002129,0.004767,-0.000039,0.004767,-0.002130,-89.676382,0.004776,
670,610,1.343403,-7.111677,0.999998,0.000200,-0.002607,0.005135,0.000060,0.005135,-0.002608,89.553847,0.005135,
1150,600,0.108270,-8.082483,0.999999,0.000167,-0.001477,0.003351,-0.000721,0.003456,-0.001583,-81.689616,0.003460,
1860,340,-1.101488,-8.376677,0.999998,0.000177,-0.002434,0.004981,0.000082,0.004982,-0.002435,89.365416,0.004983,
1770,1550,-1.125075,-2.389203,0.999998,0.000178,-0.002627,0.005125,-0.000098,0.005126,-0.002629,-89.277156,0.005127,
1000,1980,0.044214,-0.178357,0.999999,0.000131,-0.000216,0.003323,-0.000404,0.003368,-0.000262,-83.568572,0.003747,
1780,1710,-0.914443,-1.591371,0.999998,0.000148,-0.002394,0.005082,0.000010,0.005082,-0.002394,89.922077,0.005084,
620,1260,1.791151,-3.972928,0.999998,0.000166,-0.002408,0.004834,-0.000275,0.004845,-0.002419,-87.826727,0.004845,
1490,1390,-0.533393,-2.710016,0.999997,0.000197,-0.003079,0.005373,-0.000876,0.005463,-0.003169,-84.144404,0.005486,
1700,1910,-0.327941,-0.509415,0.999998,0.000172,-0.001315,0.004469,0.000996,0.004636,-0.001482,80.502818,0.004735,
840,900,1.420551,-5.724249,0.999997,0.000199,-0.002564,0.005548,0.000677,0.005604,-0.002620,85.260799,0.005608,
1790,870,-1.783703,-5.790993,0.999997,0.000195,-0.002369,0.004943,-0.000448,0.004970,-0.002396,-86.508020,0.004971,
1250,1920,-0.006621,-0.354049,0.999999,0.000126,-0.000405,0.003200,0.000012,0.003200,-0.000405,89.809660,0.003486,
1230,1660,0.002310,-1.242627,0.999998,0.000148,-0.001140,0.003546,0.000002,0.003546,-0.001140,89.975610,0.003620,
820,1460,0.910201,-2.655796,0.999998,0.000169,-0.002839,0.005375,0.000178,0.005379,-0.002843,88.756707,0.005381,
1130,1480,0.136727,-1.938183,0.999998,0.000176,-0.001601,0.003568,0.000704,0.003662,-0.001695,82.378900,0.003665,
1310,400,-0.090033,-8.797896,0.999998,0.000144,-0.001219,0.003638,0.000187,0.003645,-0.001226,87.802456,0.003709,
1260,1810,-0.021997,-0.722801,0.999999,0.000152,-0.000762,0.003445,0.000002,0.003445,-0.000762,89.973509,0.003619,
880,400,0.542292,-8.506177,0.999997,0.000218,-0.002131,0.004702,-0.000156,0.004705,-0.002134,-88.692190,0.004712,
1410,170,-0.093544,-9.587426,0.999998,0.000198,-0.000709,0.003482,-0.000185,0.003490,-0.000717,-87.472752,0.003686,
1050,710,0.331194,-7.380827,0.999997,0.000199,-0.002956,0.004918,-0.001519,0.005201,-0.003239,-79.450559,0.005253,
1470,680,-0.485492,-7.344847,0.999995,0.000249,-0.003146,0.005345,0.001010,0.005463,-0.003264,83.309767,0.005498,
610,560,1.419797,-7.276604,0.999997,0.000208,-0.002553,0.005102,-0.000006,0.005102,-0.002553,-89.954557,0.005102,
970,800,0.750477,-6.563031,0.999997,0.000199,-0.003832,0.006451,-0.000399,0.006466,-0.003848,-87.782947,0.006505,
1150,290,0.070376,-9.193925,0.999998,0.000146,-0.000920,0.003536,-0.000025,0.003536,-0.000920,-89.673915,0.003669,
1860,1900,-0.668961,-0.775626,0.999997,0.000196,-0.002436,0.005149,0.000440,0.005175,-0.002462,86.688009,0.005177,
1760,1110,-1.807790,-4.642116,0.999998,0.000185,-0.002248,0.004905,0.000390,0.004926,-0.002270,86.885605,0.004931,
1400,1110,-0.912534,-4.020417,0.999993,0.000310,-0.003033,0.008496,-0.003596,0.009526,-0.004063,-74.020939,0.009560,
710,990,1.823248,-5.223045,0.999998,0.000161,-0.002158,0.004777,0.000146,0.004780,-0.002161,88.793723,0.004787,
1240,320,-0.009014,-9.100381,0.999999,0.000144,-0.000985,0.003516,0.000031,0.003516,-0.000986,89.611272,0.003628,
1880,1560,-1.390204,-2.513048,0.999997,0.000194,-0.002468,0.005079,-0.000021,0.005079,-0.002468,-89.839956,0.005079,
1630,1280,-1.171785,-3.643337,0.999998,0.000158,-0.003147,0.005805,0.000375,0.005820,-0.003162,87.606703,0.005828,
1310,610,-0.102723,-8.052843,0.999998,0.000149,-0.001448,0.003282,0.000773,0.003405,-0.001571,80.955872,0.003408,
1620,500,-0.731298,-7.960491,0.999997,0.000214,-0.002538,0.005063,0.000286,0.005074,-0.002549,87.851255,0.005074,
920,1780,0.329437,-0.965587,0.999998,0.000179,-0.001377,0.004263,-0.000200,0.004270,-0.001384,-87.972396,0.004357,
860,970,1.492806,-5.347043,0.999997,0.000222,-0.002055,0.005413,0.000492,0.005445,-0.002088,86.245279,0.005494,
600,1910,0.643518,-0.730879,0.999997,0.000212,-0.002433,0.005209,-0.000511,0.005243,-0.002467,-86.189099,0.005246,
1870,360,-1.158963,-8.258580,0.999998,0.000183,-0.002463,0.004930,0.000062,0.004931,-0.002463,89.521957,0.004931,
1000,1050,1.255812,-4.866939,0.999995,0.000252,-0.002518,0.007914,0.000064,0.007915,-0.002518,89.651204,0.008087,
1250,1770,-0.017685,-0.859844,0.999998,0.000139,-0.000888,0.003466,-0.000062,0.003467,-0.000889,-89.186903,0.003602,
590,1550,1.387342,-2.554235,0.999997,0.000191,-0.002494,0.005051,0.000017,0.005051,-0.002494,89.873716,0.005051,
750,1530,1.003892,-2.401189,0.999998,0.000182,-0.002612,0.005206,0.000114,0.005207,-0.002613,89.167966,0.005207,
1700,1850,-0.472157,-0.789377,0.999997,0.000195,-0.001723,0.004769,0.000693,0.004842,-0.001796,83.971966,0.004896,
670,590,1.310244,-7.215398,0.999998,0.000189,-0.002594,0.005162,0.000034,0.005162,-0.002594,89.749871,0.005162,
1500,170,-0.157821,-9.559660,0.999998,0.000185,-0.000944,0.003735,-0.000344,0.003760,-0.000969,-85.821486,0.003904,
1700,1540,-0.958796,-2.328357,0.999998,0.000148,-0.002635,0.005165,-0.000154,0.005168,-0.002638,-88.867861,0.005169,
1800,690,-1.496109,-6.688967,0.999998,0.000214,-0.002623,0.005124,-0.000251,0.005132,-0.002631,-88.146977,0.005132,
900,990,1.438141,-5.248203,0.999997,0.000234,-0.001945,0.005646,0.000389,0.005666,-0.001965,87.070628,0.005754,
620,1240,1.822373,-4.067455,0.999998,0.000165,-0.002367,0.004729,-0.000267,0.004739,-0.002377,-87.846666,0.004739,
1770,1530,-1.154249,-2.492752,0.999998,0.000167,-0.002621,0.005165,-0.000085,0.005166,-0.002622,-89.374762,0.005166,
1150,580,0.107331,-8.149386,0.999999,0.000169,-0.001482,0.003406,-0.000663,0.003495,-0.001570,-82.410511,0.003501,
850,1860,0.315828,-0.676245,0.999997,0.000181,-0.001299,0.004292,-0.000580,0.004352,-0.001358,-84.140475,0.004453,
1000,1960,0.063413,-0.244440,0.999999,0.000144,-0.000293,0.003354,-0.000392,0.003396,-0.000334,-83.939749,0.003743,
1490,1370,-0.552506,-2.819119,0.999997,0.000200,-0.003221,0.005458,-0.000874,0.005545,-0.003308,-84.306917,0.005579,
1700,890,-1.594553,-5.738122,0.999998,0.000179,-0.002464,0.005247,-0.000622,0.005297,-0.002514,-85.419544,0.005299,
840,880,1.380915,-5.835260,0.999997,0.000201,-0.002699,0.005695,0.000705,0.005753,-0.002758,85.233622,0.005755,
1210,1920,0.008279,-0.354780,0.999998,0.000178,-0.000375,0.003186,-0.000008,0.003186,-0.000375,-89.874856,0.003482,
820,1440,0.936128,-2.762896,0.999998,0.000175,-0.002888,0.005383,0.000136,0.005385,-0.002890,89.055476,0.005390,
1130,1440,0.135145,-2.078510,0.999998,0.000160,-0.001685,0.003494,0.000941,0.003660,-0.001851,80.010880,0.003660,
1410,150,-0.079895,-9.657698,0.999998,0.000186,-0.000625,0.003443,-0.000211,0.003454,-0.000636,-87.038232,0.003677,
970,780,0.706449,-6.692172,0.999997,0.000208,-0.003775,0.006275,-0.000525,0.006303,-0.003803,-87.017959,0.006348,
1860,320,-1.067540,-8.475263,0.999998,0.000178,-0.002423,0.004988,0.000052,0.004988,-0.002423,89.601484,0.004989,
870,1810,0.367989,-0.880588,0.999998,0.000163,-0.001622,0.004362,-0.000319,0.004379,-0.001639,-86.961884,0.004425,
1250,1660,-0.021093,-1.246111,0.999998,0.000173,-0.001167,0.003533,-0.000128,0.003536,-0.001170,-88.446703,0.003603,
1250,1750,-0.018317,-0.927818,0.999998,0.000142,-0.000940,0.003482,-0.000067,0.003483,-0.000941,-89.128535,0.003604,
1790,850,-1.752664,-5.889068,0.999998,0.000183,-0.002399,0.004920,-0.000433,0.004945,-0.002424,-86.628123,0.004946,
730,1760,0.717479,-1.264105,0.999997,0.000219,-0.002231,0.005011,-0.000210,0.005017,-0.002237,-88.343502,0.005026,
580,1550,1.412675,-2.569556,0.999997,0.000187,-0.002402,0.005007,-0.000056,0.005007,-0.002403,-89.569874,0.005009,
1690,1200,-1.510588,-4.151713,0.999998,0.000176,-0.002648,0.005375,0.000596,0.005419,-0.002692,85.776293,0.005419,
1860,1880,-0.732759,-0.878019,0.999998,0.000183,-0.002426,0.005116,0.000351,0.005132,-0.002442,87.337964,0.005134,
1760,1710,-0.866242,-1.558965,0.999997,0.000196,-0.002424,0.005075,0.000007,0.005075,-0.002424,89.944057,0.005077,
640,1070,1.972074,-4.845747,0.999998,0.000185,-0.002126,0.004520,-0.000113,0.004522,-0.002128,-89.024556,0.004525,
750,1510,1.032607,-2.505280,0.999998,0.000190,-0.002647,0.005210,0.000115,0.005212,-0.002648,89.161742,0.005212,
1000,1810,0.197389,-0.790355,0.999998,0.000159,-0.000978,0.003874,-0.000191,0.003881,-0.000986,-87.748654,0.004035,
800,510,0.855667,-7.837728,0.999998,0.000154,-0.002581,0.005128,-0.000206,0.005133,-0.002586,-88.469616,0.005133,
620,1220,1.853269,-4.161199,0.999998,0.000167,-0.002351,0.004719,-0.000310,0.004732,-0.002365,-87.496211,0.004732,
1620,480,-0.711643,-8.062138,0.999997,0.000207,-0.002442,0.004992,0.000253,0.005001,-0.002451,88.051550,0.005001,
840,860,1.334977,-5.952716,0.999997,0.000193,-0.002842,0.005722,0.000655,0.005772,-0.002892,85.652244,0.005772,
1490,1350,-0.576150,-2.931993,0.999997,0.000206,-0.003369,0.005640,-0.000869,0.005723,-0.003452,-84.543737,0.005764,
1550,240,-0.297401,-9.256050,0.999997,0.000193,-0.001234,0.004218,-0.000333,0.004239,-0.001254,-86.515297,0.004355,
1560,110,-0.123790,-9.766641,0.999998,0.000169,-0.000545,0.003681,-0.000612,0.003768,-0.000632,-81.923529,0.004036,
1050,690,0.322042,-7.475998,0.999996,0.000215,-0.002802,0.004745,-0.001470,0.005021,-0.003079,-79.357101,0.005064,
670,570,1.280304,-7.318973,0.999998,0.000170,-0.002579,0.005173,0.000000,0.005173,-0.002579,-89.996753,0.005173,
1480,1170,-0.955511,-4.046395,0.999997,0.000191,-0.003525,0.006853,0.000120,0.006854,-0.003526,89.337394,0.006855,
1310,590,-0.101384,-8.118492,0.999998,0.000157,-0.001442,0.003372,0.000693,0.003470,-0.001540,81.969202,0.003477,
900,1010,1.452244,-5.136589,0.999998,0.000180,-0.001854,0.005552,0.000201,0.005557,-0.001859,88.443790,0.005657,
1360,1150,-0.673889,-3.296142,0.999995,0.000000,-0.001374,0.004160,-0.003115,0.005560,-0.002773,-65.807819,0.005560,
1240,300,-0.008143,-9.171491,0.999999,0.000152,-0.000943,0.003493,0.000024,0.003494,-0.000943,89.686297,0.003615,
1000,1940,0.078965,-0.313404,0.999998,0.000149,-0.000390,0.003464,-0.000392,0.003503,-0.000430,-84.252450,0.003821,
1490,1020,-1.323627,-5.088236,0.999998,0.000201,-0.002005,0.006598,-0.000057,0.006599,-0.002005,-89.619754,0.006766,
920,1760,0.354360,-1.054777,0.999998,0.000179,-0.001463,0.004277,-0.000134,0.004280,-0.001466,-88.661948,0.004351,
1370,40,-0.010059,-10.016357,0.999999,0.000112,-0.000048,0.003043,-0.000171,0.003053,-0.000058,-86.852818,0.003492,
1360,300,-0.123347,-9.135430,0.999998,0.000169,-0.001019,0.003664,0.000040,0.003664,-0.001019,89.510413,0.003782,
1100,730,0.204049,-7.488697,0.999998,0.000202,-0.002529,0.004046,-0.001849,0.004531,-0.003013,-75.319064,0.004612,
1860,1860,-0.792315,-0.979668,0.999998,0.000183,-0.002425,0.005000,0.000252,0.005008,-0.002434,88.056116,0.005009,
1320,1200,-0.324522,-2.764137,0.999998,0.000178,-0.002095,0.002085,-0.001081,0.002348,-0.002358,-76.324228,0.002717,
750,1490,1.060401,-2.611614,0.999998,0.000183,-0.002680,0.005255,0.000101,0.005256,-0.002682,89.271654,0.005257,
1480,750,-0.603487,-6.918467,0.999997,0.000240,-0.003667,0.005942,0.000826,0.006013,-0.003738,85.124349,0.006072,
570,1420,1.653272,-3.246603,0.999738,0.001925,-0.003836,0.005290,-0.000073,0.005290,-0.003836,-89.539580,0.005466,
610,1940,0.506570,-0.546227,0.999997,0.000192,-0.002393,0.005357,-0.000797,0.005438,-0.002474,-84.186325,0.005445,
710,970,1.816233,-5.317867,0.999998,0.000180,-0.002188,0.004822,0.000210,0.004829,-0.002195,88.285142,0.004835,
680,850,1.734434,-5.895601,0.999997,0.000187,-0.002450,0.004911,0.000433,0.004937,-0.002476,86.646603,0.004937,
1410,130,-0.065368,-9.725404,0.999998,0.000170,-0.000542,0.003357,-0.000219,0.003369,-0.000554,-86.791575,0.003613,
960,1780,0.273315,-0.935131,0.999998,0.000172,-0.001480,0.004083,-0.000096,0.004084,-0.001482,-89.010593,0.004135,
620,590,1.440333,-7.138307,0.999997,0.000217,-0.002595,0.005103,0.000048,0.005103,-0.002595,89.644768,0.005104,
1700,1520,-0.985245,-2.431815,0.999998,0.000165,-0.002675,0.005217,-0.000134,0.005219,-0.002677,-89.027963,0.005220,
1220,1270,0.014684,-2.331810,0.999998,0.000196,-0.001268,0.001157,0.000341,0.001204,-0.001315,82.155174,0.001458,
1270,580,-0.047315,-8.193450,0.999998,0.000195,-0.001266,0.003170,0.000292,0.003189,-0.001285,86.249051,0.003209,
1810,400,-1.074316,-8.160402,0.999998,0.000171,-0.002484,0.005056,0.000062,0.005057,-0.002485,89.527662,0.005057,
1820,150,-0.556803,-9.425481,0.999997,0.000255,-0.002150,0.005222,-0.000811,0.005310,-0.002238,-83.794366,0.005332,
1530,1710,-0.384608,-1.260107,0.999997,0.000190,-0.001627,0.004467,-0.000014,0.004467,-0.001627,-89.866706,0.004522,
1260,1790,-0.024129,-0.791962,0.999998,0.000163,-0.000811,0.003457,-0.000026,0.003457,-0.000811,-89.654163,0.003616,
820,1420,0.965568,-2.870697,0.999998,0.000174,-0.002940,0.005443,0.000087,0.005444,-0.002940,89.407385,0.005450,
1680,1850,-0.437299,-0.772914,0.999997,0.000198,-0.001771,0.004653,0.000600,0.004709,-0.001826,84.710234,0.004748,
1250,1730,-0.017912,-0.999422,0.999998,0.000139,-0.000987,0.003510,-0.000062,0.003511,-0.000987,-89.209101,0.003621,
1050,670,0.312974,-7.571631,0.999997,0.000186,-0.002672,0.004636,-0.001382,0.004889,-0.002924,-79.641447,0.004920,
1190,1920,0.015599,-0.355511,0.999998,0.000167,-0.000341,0.003203,-0.000028,0.003203,-0.000341,-89.551020,0.003518,
1150,270,0.065664,-9.265116,0.999998,0.000156,-0.000870,0.003524,-0.000010,0.003524,-0.000870,-89.875252,0.003672,
1580,900,-1.309279,-5.753881,0.999998,0.000186,-0.002694,0.005894,-0.000728,0.005955,-0.002755,-85.190421,0.005961,
1430,540,-0.311427,-8.108127,0.999998,0.000175,-0.002126,0.004342,0.000791,0.004438,-0.002221,83.126736,0.004438,
1130,1660,0.119323,-1.279125,0.999998,0.000178,-0.001315,0.003665,0.000260,0.003678,-0.001329,87.022168,0.003725,
980,1810,0.217327,-0.800328,0.999998,0.000152,-0.001141,0.003937,-0.000185,0.003944,-0.001148,-87.914189,0.004057,
910,580,0.639032,-7.672130,0.999997,0.000212,-0.002722,0.005143,-0.000510,0.005176,-0.002755,-86.308876,0.005179,
660,1850,0.683777,-0.916349,0.999997,0.000181,-0.002210,0.005140,-0.000586,0.005187,-0.002257,-85.470986,0.005201,
870,1790,0.394962,-0.966567,0.999998,0.000170,-0.001733,0.004373,-0.000219,0.004381,-0.001741,-87.943969,0.004411,
870,320,0.469824,-8.865137,0.999997,0.000186,-0.001904,0.004617,0.000067,0.004618,-0.001905,89.408912,0.004641,
800,490,0.831050,-7.939901,0.999997,0.000174,-0.002550,0.005067,-0.000207,0.005073,-0.002556,-88.445706,0.005073,
1180,1330,0.054476,-2.304051,0.999998,0.000171,-0.001287,0.002267,0.001095,0.002577,-0.001597,74.171447,0.002602,
1490,1330,-0.600554,-3.046033,0.999997,0.000208,-0.003515,0.005778,-0.000802,0.005847,-0.003584,-85.106449,0.005896,
650,760,1.654242,-6.316459,0.999998,0.000163,-0.002527,0.005007,0.000335,0.005022,-0.002542,87.462324,0.005022,
840,840,1.292657,-6.065069,0.999997,0.000186,-0.002951,0.005739,0.000617,0.005783,-0.002994,85.961619,0.005784,
1770,1510,-1.182773,-2.595849,0.999998,0.000161,-0.002630,0.005177,-0.000047,0.005177,-0.002630,-89.652801,0.005178,
1820,1050,-1.974358,-4.936456,0.999999,0.000142,-0.002130,0.004566,0.000136,0.004569,-0.002133,88.834303,0.004572,
620,1200,1.885452,-4.257419,0.999998,0.000189,-0.002323,0.004750,-0.000337,0.004766,-0.002339,-87.279016,0.004767,
1860,300,-1.030282,-8.578415,0.999998,0.000175,-0.002415,0.004989,0.000005,0.004989,-0.002415,89.958863,0.004990,
1440,1530,-0.326765,-1.924761,0.999998,0.000193,-0.002103,0.004383,-0.000731,0.004464,-0.002184,-83.645789,0.004465,
1360,1140,-0.726448,-3.341923,0.999995,0.000000,-0.001234,0.004449,-0.003582,0.006179,-0.002964,-64.213621,0.006181,
1000,1920,0.098979,-0.382659,0.999998,0.000175,-0.000494,0.003485,-0.000332,0.003513,-0.000521,-85.261511,0.003791,
1630,980,-1.561674,-5.285359,0.999997,0.000216,-0.002038,0.005269,-0.000364,0.005287,-0.002056,-87.156441,0.005331,
1860,1840,-0.846606,-1.077958,0.999998,0.000187,-0.002441,0.005032,0.000182,0.005037,-0.002445,88.606448,0.005037,
1210,1600,0.026582,-1.459592,0.999998,0.000162,-0.001228,0.003496,0.000138,0.003500,-0.001232,88.324528,0.003551,
1310,570,-0.103989,-8.189204,0.999998,0.000153,-0.001444,0.003418,0.000642,0.003502,-0.001527,82.608992,0.003511,
1790,830,-1.720421,-5.987390,0.999997,0.000187,-0.002441,0.004901,-0.000439,0.004927,-0.002467,-86.591735,0.004927,
1060,690,0.294394,-7.511573,0.999997,0.000193,-0.002711,0.004607,-0.001516,0.004908,-0.003013,-78.746063,0.004951,
1890,460,-1.362222,-7.728002,0.999998,0.000196,-0.002471,0.005031,0.000035,0.005031,-0.002471,89.734345,0.005031,
1240,280,-0.007008,-9.240268,0.999998,0.000147,-0.000903,0.003472,0.000019,0.003472,-0.000903,89.754723,0.003602,
750,1470,1.090017,-2.715074,0.999997,0.000182,-0.002725,0.005253,0.000042,0.005254,-0.002725,89.696829,0.005255,
1360,40,-0.009542,-10.016828,0.999999,0.000123,-0.000069,0.003038,-0.000153,0.003046,-0.000076,-87.189152,0.003474,
1360,280,-0.114029,-9.210801,0.999998,0.000148,-0.000952,0.003663,0.000001,0.003663,-0.000952,89.991041,0.003801,
950,1640,0.413174,-1.548005,0.999998,0.000205,-0.001886,0.004463,0.000277,0.004475,-0.001898,87.507498,0.004492,
1090,1340,0.223954,-2.570815,0.999998,0.000165,-0.002517,0.004206,0.001752,0.004635,-0.002946,76.238199,0.004691,
910,1480,0.634535,-2.381567,0.999996,0.000246,-0.002719,0.005160,0.000497,0.005191,-0.002750,86.404982,0.005194,
1070,930,0.844212,-6.253995,0.999994,0.000305,-0.002459,0.007292,-0.003609,0.008483,-0.003649,-71.743977,0.008510,
1130,1210,0.293622,-2.846717,0.999996,0.000250,-0.002239,0.002875,0.001788,0.003438,-0.002802,72.519819,0.003658,
1410,110,-0.053024,-9.793050,0.999999,0.000149,-0.000441,0.003324,-0.000247,0.003341,-0.000457,-86.267688,0.003622,
920,1740,0.375328,-1.136582,0.999998,0.000186,-0.001543,0.004331,-0.000059,0.004332,-0.001543,-89.428147,0.004391,
740,190,0.475012,-9.345464,0.999998,0.000170,-0.001665,0.004800,0.000803,0.004898,-0.001764,83.028097,0.004961,
710,950,1.798091,-5.415365,0.999998,0.000188,-0.002235,0.004925,0.000370,0.004944,-0.002254,87.051568,0.004950,
940,1110,1.271225,-4.538209,0.999997,0.000215,-0.002456,0.006267,-0.000638,0.006313,-0.002502,-85.839151,0.006358,
1700,1500,-1.012087,-2.535049,0.999998,0.000177,-0.002713,0.005272,-0.000105,0.005273,-0.002714,-89.248797,0.005274,
970,290,0.272657,-9.091295,0.999998,0.000169,-0.001454,0.004090,0.000051,0.004090,-0.001455,89.476474,0.004147,
1560,550,-0.629622,-7.811989,0.999997,0.000194,-0.002627,0.005048,0.000449,0.005074,-0.002653,86.665973,0.005076,
1050,650,0.305295,-7.664217,0.999997,0.000191,-0.002521,0.004524,-0.001274,0.004747,-0.002744,-80.058040,0.004767,
1580,1410,-0.790399,-2.809770,0.999998,0.000185,-0.003045,0.005490,-0.000336,0.005503,-0.003058,-87.752031,0.005514,
1270,560,-0.047157,-8.257249,0.999999,0.000166,-0.001250,0.003235,0.000273,0.003251,-0.001267,86.529723,0.003277,
820,1400,0.996630,-2.981393,0.999998,0.000178,-0.003002,0.005473,0.000035,0.005474,-0.003002,89.762045,0.005482,
1530,1690,-0.404655,-1.348311,0.999997,0.000196,-0.001705,0.004357,-0.000078,0.004358,-0.001706,-89.264085,0.004392,
870,1770,0.423553,-1.055192,0.999998,0.000179,-0.001826,0.004479,-0.000191,0.004484,-0.001832,-88.268079,0.004509,
1440,1810,-0.175362,-0.779232,0.999998,0.000154,-0.001023,0.003820,0.000118,0.003822,-0.001026,88.603196,0.003957,
1630,1860,-0.337546,-0.685060,0.999997,0.000205,-0.001268,0.004358,0.000645,0.004431,-0.001341,83.542041,0.004545,
1250,1710,-0.020760,-1.069020,0.999999,0.000144,-0.001040,0.003522,-0.000071,0.003523,-0.001042,-89.112708,0.003620,
1580,880,-1.258564,-5.874475,0.999998,0.000185,-0.002892,0.005977,-0.000692,0.006031,-0.002946,-85.564640,0.006032,
1070,1660,0.197440,-1.322287,0.999998,0.000162,-0.001485,0.003901,0.000292,0.003917,-0.001500,86.904327,0.003952,
1410,1920,-0.068667,-0.370653,0.999998,0.000127,-0.000536,0.003409,0.000218,0.003422,-0.000548,86.840561,0.003675,
840,820,1.247300,-6.181100,0.999997,0.000199,-0.003057,0.005850,0.000551,0.005884,-0.003091,86.470718,0.005887,
890,480,0.595889,-8.138758,0.999997,0.000205,-0.002402,0.004862,-0.000350,0.004878,-0.002419,-87.246513,0.004879,
1400,170,-0.086203,-9.590762,0.999998,0.000164,-0.000655,0.003469,-0.000185,0.003477,-0.000663,-87.431199,0.003692,
1490,1310,-0.633587,-3.165549,0.999996,0.000218,-0.003640,0.005966,-0.000711,0.006018,-0.003693,-85.788163,0.006070,
1860,280,-0.991887,-8.676283,0.999998,0.000152,-0.002405,0.004945,-0.000026,0.004945,-0.002405,-89.794727,0.004946,
1820,1030,-1.980639,-5.028346,0.999998,0.000163,-0.002140,0.004576,0.000030,0.004577,-0.002141,89.748281,0.004580,
620,1180,1.917167,-4.353314,0.999998,0.000189,-0.002264,0.004673,-0.000265,0.004683,-0.002274,-87.814252,0.004684,
1160,1350,0.082678,-2.298817,0.999998,0.000176,-0.001530,0.002767,0.001285,0.003122,-0.001885,74.559828,0.003144,
1360,920,-0.749546,-6.714202,0.999994,0.000000,-0.001263,0.004748,0.004023,0.006764,-0.003279,63.384707,0.006765,
1150,250,0.060420,-9.335009,0.999998,0.000142,-0.000790,0.003478,0.000017,0.003478,-0.000790,89.771811,0.003646,
1860,1820,-0.895749,-1.180844,0.999998,0.000180,-0.002447,0.004958,0.000118,0.004960,-0.002448,89.087537,0.004960,
1630,960,-1.535947,-5.394243,0.999998,0.000177,-0.002131,0.005318,-0.000523,0.005354,-0.002167,-86.004506,0.005386,
1000,1900,0.115230,-0.453310,0.999998,0.000149,-0.000595,0.003581,-0.000330,0.003607,-0.000621,-85.511462,0.003857,
980,1530,0.418733,-2.000893,0.999998,0.000205,-0.002276,0.004605,0.000635,0.004663,-0.002334,84.773142,0.004663,
1310,550,-0.103314,-8.255699,0.999998,0.000165,-0.001467,0.003481,0.000570,0.003545,-0.001532,83.509699,0.003556,
1190,1600,0.051006,-1.464903,0.999998,0.000157,-0.001217,0.003512,0.000125,0.003515,-0.001220,88.486198,0.003570,
1410,820,-0.476442,-6.799096,0.999997,0.000215,-0.003876,0.005978,0.001570,0.006222,-0.004120,81.161792,0.006330,
1790,1200,-1.759930,-4.215278,0.999996,0.000205,-0.002402,0.004936,0.000436,0.004962,-0.002428,86.609398,0.004962,
1360,730,-0.197255,-7.500561,0.999997,0.000234,-0.002485,0.004006,0.001893,0.004518,-0.002997,74.877285,0.004598,
750,1450,1.119516,-2.823604,0.999998,0.000168,-0.002747,0.005300,-0.000001,0.005300,-0.002747,-89.991169,0.005301,
1410,90,-0.041200,-9.858552,0.999999,0.000141,-0.000357,0.003242,-0.000257,0.003260,-0.000375,-85.936921,0.003568,
1130,1410,0.135351,-2.183081,0.999998,0.000180,-0.001757,0.003440,0.001183,0.003697,-0.002014,77.764156,0.003702,
1560,470,-0.557305,-8.206433,0.999998,0.000197,-0.002269,0.004798,0.000337,0.004814,-0.002285,87.279895,0.004816,
1360,260,-0.105774,-9.281983,0.999998,0.000141,-0.000854,0.003556,-0.000011,0.003556,-0.000854,-89.855302,0.003713,
750,1020,1.750510,-5.076764,0.999998,0.000162,-0.002112,0.004947,0.000086,0.004948,-0.002113,89.299760,0.004965,
1070,920,0.803773,-6.322715,0.999994,0.000286,-0.002416,0.006580,-0.003351,0.007691,-0.003527,-71.658825,0.007700,
720,190,0.511710,-9.324490,0.999998,0.000176,-0.002058,0.004897,0.000652,0.004957,-0.002119,84.691082,0.004975,
1240,260,-0.007391,-9.309442,0.999998,0.000155,-0.000833,0.003447,0.000029,0.003448,-0.000833,89.606485,0.003598,
1120,1490,0.152026,-1.916505,0.999998,0.000163,-0.001664,0.003642,0.000737,0.003743,-0.001765,82.232936,0.003745,
710,930,1.775935,-5.513939,0.999998,0.000175,-0.002275,0.004913,0.000386,0.004933,-0.002296,86.938266,0.004937,
1590,920,-1.377544,-5.632087,0.999997,0.000197,-0.002491,0.005704,-0.000695,0.005762,-0.002549,-85.188668,0.005775,
1790,810,-1.686273,-6.086859,0.999998,0.000175,-0.002505,0.005029,-0.000444,0.005055,-0.002531,-86.636258,0.005055,
970,270,0.253711,-9.173325,0.999998,0.000169,-0.001381,0.004052,0.000116,0.004055,-0.001383,88.779457,0.004123,
920,1720,0.393345,-1.227577,0.999998,0.000206,-0.001597,0.004466,-0.000035,0.004467,-0.001597,-89.668315,0.004527,
1250,1690,-0.020660,-1.140451,0.999998,0.000151,-0.001100,0.003547,-0.000090,0.003549,-0.001102,-88.894125,0.003633,
630,1920,0.533624,-0.604431,0.999998,0.000177,-0.002385,0.005268,-0.000716,0.005334,-0.002451,-84.703384,0.005340,
820,1600,0.741009,-1.929824,0.999998,0.000203,-0.002429,0.004951,0.000189,0.004956,-0.002434,88.537362,0.004956,
1350,820,-0.265227,-7.193657,0.999996,0.000247,-0.002913,0.003916,0.002215,0.004572,-0.003568,73.516224,0.004806,
1270,600,-0.046379,-8.130941,0.999999,0.000146,-0.001270,0.003068,0.000331,0.003093,-0.001295,85.661733,0.003107,
1530,1670,-0.420759,-1.434335,0.999997,0.000190,-0.001802,0.004442,-0.000155,0.004446,-0.001806,-88.580614,0.004472,
870,1750,0.449981,-1.144671,0.999998,0.000183,-0.001896,0.004512,-0.000091,0.004514,-0.001897,-89.186515,0.004533,
1110,1920,0.046460,-0.363781,0.999999,0.000146,-0.000408,0.003237,-0.000147,0.003243,-0.000413,-87.700705,0.003530,
1610,960,-1.493541,-5.399722,0.999998,0.000190,-0.002163,0.005411,-0.000527,0.005447,-0.002199,-86.040481,0.005481,
1470,1800,-0.213663,-0.832572,0.999998,0.000152,-0.001077,0.003907,0.000171,0.003913,-0.001083,88.039996,0.004041,
1290,50,-0.006031,-9.988631,0.999999,0.000138,-0.000067,0.002989,-0.000063,0.002990,-0.000068,-88.816081,0.003414,
1630,1580,-0.729797,-2.009875,0.999998,0.000138,-0.002456,0.004980,-0.000221,0.004987,-0.002462,-88.298206,0.004987,
580,1320,1.781224,-3.734427,0.999998,0.000179,-0.002675,0.004919,0.000000,0.004919,-0.002675,-89.997970,0.004925,
1700,1480,-1.040271,-2.643537,0.999998,0.000173,-0.002748,0.005259,-0.000078,0.005260,-0.002749,-89.444866,0.005261,
1860,1800,-0.939250,-1.277823,0.999998,0.000173,-0.002441,0.004982,0.000066,0.004983,-0.002442,89.486837,0.004983,
1440,170,-0.114761,-9.577570,0.999998,0.000238,-0.000670,0.003546,-0.000258,0.003561,-0.000686,-86.504254,0.003779,
1580,860,-1.210484,-5.995647,0.999998,0.000176,-0.003043,0.006025,-0.000622,0.006067,-0.003085,-86.095665,0.006068,
1360,910,-0.702936,-6.767010,0.999994,0.000000,-0.001182,0.004423,0.003388,0.006018,-0.002776,64.797485,0.006024,
960,1530,0.467277,-2.038399,0.999998,0.000181,-0.002404,0.004704,0.000582,0.004751,-0.002452,85.351467,0.004752,
1300,1720,-0.069199,-1.043525,0.999999,0.000128,-0.001031,0.003559,-0.000014,0.003559,-0.001031,-89.831267,0.003662,
1490,1290,-0.666933,-3.287255,0.999997,0.000214,-0.003724,0.006156,-0.000653,0.006199,-0.003767,-86.236536,0.006246,
1000,1880,0.134894,-0.525519,0.999998,0.000173,-0.000677,0.003646,-0.000322,0.003669,-0.000701,-85.759816,0.003896,
620,1160,1.939780,-4.443186,0.999998,0.000160,-0.002200,0.004533,-0.000197,0.004539,-0.002205,-88.326658,0.004539,
1150,670,0.098856,-7.861409,0.999998,0.000169,-0.001550,0.003120,-0.001125,0.003377,-0.001807,-77.140719,0.003380,
840,60,0.072812,-9.938353,0.999998,0.000156,-0.000266,0.003591,0.000871,0.003779,-0.000454,77.844334,0.004127,
1360,240,-0.097847,-9.353016,0.999998,0.000157,-0.000799,0.003595,-0.000070,0.003596,-0.000800,-89.083927,0.003776,
670,550,1.251071,-7.419894,0.999998,0.000171,-0.002588,0.005150,-0.000034,0.005150,-0.002588,-89.748804,0.005150,
1090,1420,0.210633,-2.244393,0.999998,0.000140,-0.002064,0.003926,0.001199,0.004158,-0.002295,79.092745,0.004165,
750,1430,1.150950,-2.928371,0.999998,0.000167,-0.002793,0.005315,-0.000034,0.005315,-0.002794,-89.759161,0.005318,
1410,70,-0.028416,-9.922540,0.999999,0.000133,-0.000269,0.003173,-0.000268,0.003194,-0.000290,-85.568430,0.003532,
1770,1220,-1.679513,-4.100805,0.999998,0.000168,-0.002529,0.005028,0.000477,0.005058,-0.002559,86.403234,0.005058,
730,1660,0.878758,-1.768777,0.999998,0.000161,-0.002428,0.005091,0.000051,0.005091,-0.002429,89.615196,0.005093,
1560,530,-0.611172,-7.912853,0.999997,0.000186,-0.002558,0.004986,0.000448,0.005013,-0.002584,86.616224,0.005013,
1410,800,-0.430063,-6.916525,0.999996,0.000247,-0.003818,0.005722,0.001644,0.005997,-0.004093,80.490830,0.006129,
1450,1190,-0.772400,-3.784319,0.999997,0.000205,-0.003870,0.006957,-0.000535,0.006984,-0.003897,-87.175933,0.007000,
1110,1850,0.078871,-0.603174,0.999998,0.000152,-0.000664,0.003495,-0.000091,0.003497,-0.000666,-88.749808,0.003714,
970,250,0.235034,-9.253033,0.999998,0.000170,-0.001274,0.003961,0.000156,0.003966,-0.001278,88.289084,0.004048,
1050,630,0.299164,-7.752287,0.999997,0.000200,-0.002377,0.004391,-0.001160,0.004585,-0.002570,-80.540511,0.004596,
1730,720,-1.362236,-6.619677,0.999997,0.000214,-0.002835,0.005349,-0.000321,0.005361,-0.002848,-87.757898,0.005365,
710,910,1.753449,-5.613540,0.999998,0.000176,-0.002348,0.004923,0.000417,0.004947,-0.002372,86.729709,0.004948,
1100,900,0.654407,-6.774234,0.999996,0.000232,-0.001411,0.004138,-0.002937,0.005404,-0.002677,-66.683313,0.005404,
1620,460,-0.689181,-8.160121,0.999998,0.000196,-0.002400,0.004926,0.000210,0.004932,-0.002406,88.361222,0.004933,
1690,220,-0.484851,-9.230096,0.999998,0.000185,-0.001864,0.004673,-0.000542,0.004718,-0.001909,-85.289606,0.004746,
1530,1650,-0.435818,-1.525626,0.999997,0.000203,-0.001906,0.004507,-0.000230,0.004516,-0.001914,-87.947208,0.004533,
1430,520,-0.304372,-8.195009,0.999998,0.000184,-0.002060,0.004293,0.000717,0.004373,-0.002140,83.640434,0.004373,
1100,1490,0.187945,-1.951566,0.999998,0.000151,-0.001794,0.003803,0.000855,0.003931,-0.001922,81.501154,0.003931,
1570,920,-1.328462,-5.648383,0.999997,0.000193,-0.002536,0.005859,-0.000713,0.005919,-0.002597,-85.181496,0.005934,
1250,1670,-0.020589,-1.210563,0.999998,0.000151,-0.001162,0.003528,-0.000117,0.003531,-0.001165,-88.574792,0.003598,
920,1700,0.413827,-1.315031,0.999998,0.000200,-0.001661,0.004437,-0.000008,0.004437,-0.001661,-89.921566,0.004483,
1120,730,0.157009,-7.570285,0.999998,0.000218,-0.002188,0.003540,-0.001850,0.004086,-0.002734,-73.569893,0.004163,
1330,820,-0.214882,-7.332072,0.999998,0.000197,-0.002510,0.003079,0.002122,0.003793,-0.003224,71.395869,0.004091,
1830,940,-1.960409,-5.436307,0.999997,0.000208,-0.002203,0.004609,-0.000269,0.004619,-0.002214,-87.742927,0.004621,
1240,240,-0.005708,-9.377377,0.999998,0.000146,-0.000753,0.003410,0.000020,0.003410,-0.000753,89.720990,0.003583,
1860,260,-0.948876,-8.776604,0.999998,0.000166,-0.002424,0.004974,-0.000067,0.004975,-0.002424,-89.479261,0.004976,
830,930,1.501589,-5.553053,0.999997,0.000231,-0.002342,0.005429,0.000608,0.005476,-0.002390,85.552630,0.005491,
1290,1920,-0.022096,-0.356997,0.999999,0.000128,-0.000326,0.003200,0.000078,0.003202,-0.000327,88.738661,0.003523,
870,1730,0.476826,-1.237127,0.999997,0.000199,-0.001959,0.004628,-0.000028,0.004628,-0.001959,-89.753377,0.004647,
1230,640,0.001499,-8.033462,0.999999,0.000125,-0.001153,0.002683,-0.000002,0.002683,-0.001153,-89.974786,0.002692,
780,2000,0.086885,-0.132967,0.999999,0.000122,-0.000505,0.003691,-0.001035,0.003932,-0.000746,-76.872535,0.004177,
1290,40,-0.004679,-10.017795,0.999999,0.000128,-0.000022,0.002960,-0.000061,0.002961,-0.000023,-88.822768,0.003406,
560,140,0.724331,-9.275607,0.999871,0.000000,-0.003533,0.005577,-0.000071,0.005577,-0.003533,-89.550860,0.005643,
1580,840,-1.160378,-6.117756,0.999998,0.000154,-0.003179,0.006073,-0.000546,0.006105,-0.003211,-86.633957,0.006108,
1800,1030,-1.937249,-5.029097,0.999998,0.000164,-0.002148,0.004660,0.000023,0.004660,-0.002148,89.808117,0.004665,
1310,530,-0.104066,-8.327345,0.999998,0.000170,-0.001461,0.003548,0.000500,0.003597,-0.001511,84.351249,0.003612,
1360,900,-0.653596,-6.810353,0.999996,0.000000,-0.001205,0.004003,0.002928,0.005318,-0.002519,65.826220,0.005320,
1780,1980,-0.221188,-0.247035,0.999997,0.000178,-0.000934,0.004689,0.001779,0.005204,-0.001449,73.838063,0.005372,
1490,1270,-0.705534,-3.412179,0.999997,0.000200,-0.003807,0.006306,-0.000558,0.006337,-0.003838,-86.851948,0.006384,
1360,220,-0.089259,-9.424082,0.999998,0.000176,-0.000729,0.003483,-0.000073,0.003484,-0.000731,-89.013787,0.003675,
1610,1580,-0.681113,-1.977219,0.999997,0.000201,-0.002441,0.004959,-0.000267,0.004968,-0.002451,-87.937381,0.004968,
1700,1460,-1.070152,-2.748401,0.999998,0.000158,-0.002766,0.005287,-0.000051,0.005288,-0.002766,-89.634722,0.005290,
1840,1730,-1.027185,-1.591939,0.999998,0.000154,-0.002422,0.005016,-0.000034,0.005016,-0.002422,-89.738898,0.005017,
1400,1980,-0.028876,-0.173100,0.999998,0.000164,-0.000214,0.003190,0.000246,0.003208,-0.000232,85.890108,0.003578,
1110,1830,0.084513,-0.671375,0.999998,0.000141,-0.000739,0.003485,-0.000055,0.003486,-0.000740,-89.259035,0.003674,
1730,700,-1.324878,-6.727166,0.999996,0.000232,-0.002839,0.005341,-0.000247,0.005348,-0.002847,-88.271273,0.005352,
1420,170,-0.100878,-9.584444,0.999998,0.000202,-0.000731,0.003505,-0.000200,0.003515,-0.000741,-87.298559,0.003706,
750,1410,1.183374,-3.033701,0.999997,0.000193,-0.002812,0.005341,-0.000079,0.005342,-0.002813,-89.444259,0.005344,
760,1770,0.636629,-1.177660,0.999997,0.000205,-0.002091,0.004915,-0.000285,0.004927,-0.002103,-87.671608,0.004944,
1080,1430,0.229332,-2.228890,0.999998,0.000164,-0.002143,0.004045,0.001172,0.004260,-0.002358,79.624705,0.004268,
970,230,0.213832,-9.332991,0.999998,0.000168,-0.001183,0.003934,0.000195,0.003941,-0.001190,87.824070,0.004043,
1000,1860,0.151512,-0.599714,0.999998,0.000187,-0.000745,0.003739,-0.000313,0.003761,-0.000766,-86.030725,0.003974,
710,890,1.726770,-5.712224,0.999998,0.000176,-0.002400,0.005028,0.000510,0.005063,-0.002435,86.092276,0.005064,
1100,1160,0.627917,-3.286488,0.999995,0.000270,-0.001499,0.003883,0.002783,0.005063,-0.002680,67.016553,0.005066,
1890,130,-0.652364,-9.361649,0.999996,0.000230,-0.002427,0.005405,-0.000723,0.005471,-0.002494,-84.772108,0.005478,
710,1660,0.925779,-1.800472,0.999998,0.000141,-0.002454,0.005076,0.000072,0.005077,-0.002454,89.455567,0.005078,
620,1140,1.960867,-4.536603,0.999998,0.000166,-0.002197,0.004557,-0.000247,0.004566,-0.002206,-87.910829,0.004567,
1530,1630,-0.449930,-1.612741,0.999997,0.000210,-0.002042,0.004571,-0.000282,0.004583,-0.002054,-87.561461,0.004591,
840,800,1.203389,-6.300547,0.999997,0.000189,-0.003111,0.005828,0.000461,0.005852,-0.003134,87.055817,0.005857,
1150,690,0.099090,-7.799467,0.999998,0.000172,-0.001593,0.003013,-0.001301,0.003355,-0.001936,-75.269078,0.003369,
1080,730,0.257584,-7.403972,0.999997,0.000193,-0.002801,0.004485,-0.001831,0.004919,-0.003235,-76.659912,0.005000,
950,880,1.052921,-5.977695,0.999997,0.000189,-0.003303,0.006575,0.000441,0.006595,-0.003323,87.446267,0.006595,
940,730,0.726282,-6.912269,0.999998,0.000191,-0.003491,0.005894,-0.000472,0.005918,-0.003515,-87.129014,0.005953,
1220,1290,0.012206,-2.308128,0.999998,0.000161,-0.001094,0.001339,0.000330,0.001383,-0.001138,82.404915,0.001476,
1240,220,-0.006539,-9.446599,0.999998,0.000167,-0.000702,0.003391,0.000015,0.003391,-0.000702,89.783673,0.003580,
870,1710,0.500627,-1.332548,0.999997,0.000209,-0.002012,0.004639,0.000006,0.004639,-0.002012,89.946496,0.004653,
920,1680,0.435850,-1.405917,0.999997,0.000203,-0.001786,0.004499,0.000088,0.004500,-0.001787,89.202076,0.004532,
850,1060,1.536773,-4.869587,0.999998,0.000179,-0.001948,0.005238,-0.000254,0.005247,-0.001957,-87.979181,0.005303,
1050,610,0.295312,-7.839247,0.999998,0.000180,-0.002276,0.004351,-0.001069,0.004519,-0.002444,-81.058983,0.004524,
1860,460,-1.288902,-7.777256,0.999998,0.000165,-0.002504,0.005078,0.000056,0.005079,-0.002505,89.573373,0.005079,
560,150,0.763744,-9.220502,0.999914,0.000000,-0.002977,0.005570,0.000321,0.005582,-0.002989,87.850875,0.005587,
1710,860,-1.569773,-5.889618,0.999997,0.000215,-0.002585,0.005219,-0.000560,0.005259,-0.002625,-85.916165,0.005259,
1450,700,-0.439396,-7.299856,0.999998,0.000223,-0.003174,0.005294,0.001209,0.005464,-0.003344,82.032194,0.005509,
810,770,1.232518,-6.434434,0.999998,0.000184,-0.003036,0.005701,0.000386,0.005718,-0.003053,87.478039,0.005722,
1750,1220,-1.627685,-4.086925,0.999997,0.000207,-0.002546,0.005143,0.000541,0.005181,-0.002584,85.995182,0.005181,
1210,640,0.025431,-8.024690,0.999999,0.000143,-0.001172,0.002714,-0.000290,0.002735,-0.001193,-85.759003,0.002742,
1310,490,-0.101463,-8.470442,0.999998,0.000165,-0.001425,0.003573,0.000387,0.003603,-0.001455,85.594290,0.003625,
1800,1010,-1.933084,-5.121946,0.999999,0.000131,-0.002133,0.004650,-0.000124,0.004652,-0.002135,-88.954811,0.004657,
1580,820,-1.110434,-6.238713,0.999998,0.000177,-0.003257,0.006077,-0.000419,0.006096,-0.003276,-87.433193,0.006102,
1360,30,-0.004654,-10.047917,0.999999,0.000000,-0.000038,0.003062,-0.000174,0.003072,-0.000048,-86.794909,0.003520,
1270,1920,-0.014823,-0.355967,0.999999,0.000113,-0.000359,0.003194,0.000051,0.003195,-0.000359,89.181211,0.003500,
1360,200,-0.080848,-9.492382,0.999998,0.000163,-0.000661,0.003507,-0.000113,0.003510,-0.000664,-88.449989,0.003729,
1390,1420,-0.248172,-2.288231,0.999998,0.000155,-0.002264,0.004150,-0.001259,0.004389,-0.002502,-79.283955,0.004403,
1700,1440,-1.098531,-2.853920,0.999998,0.000165,-0.002811,0.005322,-0.000020,0.005322,-0.002811,-89.857660,0.005324,
1820,1730,-0.978848,-1.556423,0.999998,0.000187,-0.002446,0.005052,0.000008,0.005052,-0.002446,89.941445,0.005053,
1490,1250,-0.751705,-3.540027,0.999997,0.000205,-0.003879,0.006494,-0.000421,0.006511,-0.003896,-87.681788,0.006553,
1140,170,0.044041,-9.605794,0.999998,0.000163,-0.000560,0.003332,0.000069,0.003333,-0.000562,88.983614,0.003569,
1400,1960,-0.039938,-0.236739,0.999998,0.000173,-0.000314,0.003230,0.000246,0.003247,-0.000331,86.041030,0.003574,
1250,1650,-0.021105,-1.282179,0.999998,0.000169,-0.001173,0.003538,-0.000125,0.003541,-0.001176,-88.485524,0.003607,
750,1390,1.216197,-3.143318,0.999998,0.000187,-0.002816,0.005361,-0.000130,0.005364,-0.002818,-89.089511,0.005366,
710,870,1.693866,-5.812961,0.999998,0.000197,-0.002450,0.005053,0.000525,0.005089,-0.002487,86.013984,0.005090,
740,1770,0.678357,-1.202799,0.999997,0.000181,-0.002130,0.004968,-0.000307,0.004981,-0.002143,-87.525097,0.004997,
850,1020,1.550506,-5.079632,0.999998,0.000204,-0.001935,0.005279,0.000079,0.005280,-0.001936,89.375863,0.005342,
1120,1790,0.091584,-0.807664,0.999998,0.000144,-0.000938,0.003580,0.000022,0.003580,-0.000938,89.724105,0.003713,
1390,820,-0.399292,-6.919459,0.999998,0.000198,-0.003607,0.005518,0.001901,0.005898,-0.003987,78.691377,0.006019,
870,1690,0.524994,-1.421994,0.999996,0.000213,-0.002089,0.004638,0.000075,0.004639,-0.002090,89.357607,0.004646,
1000,1840,0.172854,-0.675905,0.999998,0.000171,-0.000833,0.003774,-0.000237,0.003786,-0.000845,-87.067164,0.003975,
1090,880,0.564243,-6.745230,0.999996,0.000226,-0.002335,0.004324,-0.002388,0.005092,-0.003103,-72.175690,0.005133,
1530,1610,-0.471032,-1.708847,0.999998,0.000197,-0.002166,0.004644,-0.000373,0.004664,-0.002186,-86.874872,0.004668,
1720,1410,-1.201950,-3.045076,0.999998,0.000178,-0.002781,0.005314,0.000092,0.005315,-0.002782,89.350011,0.005317,
970,210,0.195612,-9.409769,0.999998,0.000176,-0.001092,0.003855,0.000254,0.003868,-0.001105,87.071278,0.003985,
560,160,0.796368,-9.164466,0.999941,0.000000,-0.002823,0.004840,0.000544,0.004879,-0.002861,85.956418,0.004903,
920,1230,0.999147,-3.808025,0.999998,0.000165,-0.003484,0.006339,-0.000274,0.006347,-0.003492,-88.400800,0.006358,
1530,420,-0.448219,-8.489280,0.999997,0.000209,-0.001973,0.004549,0.000266,0.004559,-0.001984,87.666099,0.004572,
1710,1240,-1.486016,-3.950924,0.999997,0.000204,-0.002701,0.005336,0.000550,0.005373,-0.002738,86.106212,0.005373,
940,710,0.695439,-7.028859,0.999997,0.000211,-0.003411,0.005785,-0.000519,0.005814,-0.003440,-86.777732,0.005846,
1210,40,0.002373,-10.018745,0.999999,0.000136,-0.000049,0.002996,-0.000011,0.002996,-0.000049,-89.791614,0.003431,
610,1920,0.582053,-0.652943,0.999997,0.000218,-0.002440,0.005272,-0.000609,0.005320,-0.002488,-85.509003,0.005323,
1640,810,-1.276687,-6.221251,0.999997,0.000206,-0.002997,0.005740,-0.000524,0.005771,-0.003029,-86.577807,0.005774,
920,1660,0.450975,-1.495090,0.999996,0.000213,-0.001926,0.004550,0.000185,0.004555,-0.001931,88.366825,0.004573,
1240,440,-0.010036,-8.677177,0.999998,0.000175,-0.001222,0.003514,0.000068,0.003515,-0.001223,89.172390,0.003569,
1060,730,0.315765,-7.321332,0.999998,0.000170,-0.003032,0.004903,-0.001681,0.005244,-0.003373,-78.517472,0.005316,
810,730,1.153924,-6.664762,0.999997,0.000192,-0.003040,0.005646,0.000242,0.005653,-0.003047,88.406137,0.005659,
1700,290,-0.640149,-8.882110,0.999997,0.000186,-0.002112,0.004904,-0.000247,0.004913,-0.002121,-87.983481,0.004928,
1790,790,-1.648594,-6.189428,0.999998,0.000188,-0.002541,0.005071,-0.000417,0.005094,-0.002564,-86.873752,0.005094,
1000,1590,0.347795,-1.699544,0.999997,0.000190,-0.002003,0.004386,0.000504,0.004425,-0.002042,85.513969,0.004430,
1860,1010,-2.061057,-5.117537,0.999998,0.000159,-0.002056,0.004369,-0.000119,0.004371,-0.002059,-88.937800,0.004374,
1150,560,0.108011,-8.219014,0.999998,0.000159,-0.001468,0.003458,-0.000610,0.003533,-0.001543,-83.041404,0.003542,
1350,2020,-0.007586,-0.047614,0.999998,0.000000,-0.000104,0.003021,0.000142,0.003028,-0.000110,87.407261,0.003434,
1110,1810,0.094583,-0.741104,0.999999,0.000131,-0.000822,0.003527,-0.000042,0.003527,-0.000822,-89.446136,0.003691,
1580,800,-1.066305,-6.362404,0.999997,0.000188,-0.003325,0.006099,-0.000303,0.006109,-0.003334,-88.159170,0.006117,
1360,180,-0.069207,-9.566188,0.999998,0.000165,-0.000549,0.003447,-0.000120,0.003451,-0.000553,-88.286179,0.003707,
1050,590,0.290534,-7.924652,0.999998,0.000173,-0.002209,0.004295,-0.000984,0.004440,-0.002355,-81.579467,0.004443,
1310,470,-0.097737,-8.542622,0.999998,0.000168,-0.001399,0.003623,0.000363,0.003649,-0.001425,85.882433,0.003678,
750,1370,1.249848,-3.248750,0.999997,0.000199,-0.002840,0.005379,-0.000189,0.005383,-0.002844,-88.686591,0.005386,
1490,1230,-0.803158,-3.671516,0.999997,0.000220,-0.003891,0.006611,-0.000258,0.006617,-0.003898,-88.592366,0.006652,
1250,1630,-0.021833,-1.352586,0.999998,0.000165,-0.001200,0.003558,-0.000100,0.003560,-0.001202,-88.793923,0.003622,
1400,1940,-0.051619,-0.301279,0.999999,0.000146,-0.000389,0.003309,0.000238,0.003325,-0.000404,86.330994,0.003628,
1060,1430,0.275788,-2.280991,0.999998,0.000168,-0.002290,0.004272,0.001150,0.004467,-0.002486,80.344348,0.004477,
620,1120,1.983986,-4.626042,0.999998,0.000176,-0.002180,0.004557,-0.000261,0.004567,-0.002190,-87.785243,0.004568,
750,1960,0.207953,-0.296593,0.999998,0.000180,-0.000742,0.004127,-0.001202,0.004408,-0.001022,-76.864952,0.004614,
1150,710,0.098277,-7.739891,0.999998,0.000170,-0.001647,0.002910,-0.001458,0.003336,-0.002073,-73.692029,0.003369,
1100,1790,0.110896,-0.816347,0.999999,0.000132,-0.000871,0.003625,-0.000016,0.003625,-0.000871,-89.796897,0.003785,
1530,1590,-0.485254,-1.802610,0.999998,0.000180,-0.002250,0.004675,-0.000423,0.004700,-0.002276,-86.519798,0.004701,
560,170,0.834712,-9.116462,0.999945,0.000000,-0.002904,0.004517,0.000473,0.004547,-0.002934,86.368057,0.004610,
870,1670,0.545372,-1.517086,0.999997,0.000211,-0.002124,0.004711,0.000124,0.004713,-0.002127,88.962699,0.004720,
1840,1560,-1.289246,-2.450580,0.999997,0.000198,-0.002545,0.005110,-0.000068,0.005111,-0.002545,-89.494401,0.005111,
1390,1400,-0.251610,-2.373586,0.999998,0.000174,-0.002358,0.004249,-0.001336,0.004508,-0.002618,-78.989226,0.004528,
1850,1520,-1.372556,-2.671775,0.999996,0.000218,-0.002527,0.005096,-0.000028,0.005096,-0.002527,-89.790237,0.005096,
1700,1410,-1.145911,-3.015888,0.999998,0.000178,-0.002847,0.005359,0.000073,0.005359,-0.002848,89.491673,0.005363,
1060,1120,0.889852,-3.973679,0.999993,0.000286,-0.002922,0.007673,0.003122,0.008525,-0.003773,74.742869,0.008544,
1240,200,-0.006331,-9.512961,0.999998,0.000194,-0.000640,0.003320,0.000003,0.003320,-0.000640,89.955641,0.003523,
1760,930,-1.791722,-5.513429,0.999998,0.000159,-0.002253,0.004841,-0.000362,0.004859,-0.002272,-87.088246,0.004863,
920,1640,0.470647,-1.587782,0.999997,0.000201,-0.002072,0.004609,0.000246,0.004618,-0.002081,87.890229,0.004626,
930,1400,0.657261,-2.763635,0.999997,0.000212,-0.003091,0.005481,0.000599,0.005523,-0.003133,86.021507,0.005540,
1790,750,-1.579183,-6.391296,0.999997,0.000206,-0.002590,0.005097,-0.000326,0.005111,-0.002603,-87.572953,0.005111,
1580,780,-1.019479,-6.482468,0.999997,0.000186,-0.003351,0.006045,-0.000219,0.006050,-0.003356,-88.664733,0.006062,
970,190,0.171996,-9.488382,0.999998,0.000174,-0.001002,0.003796,0.000327,0.003818,-0.001024,86.114528,0.003953,
1310,450,-0.097138,-8.616902,0.999999,0.000142,-0.001365,0.003630,0.000300,0.003648,-0.001383,86.573748,0.003684,
840,760,1.118815,-6.534404,0.999997,0.000205,-0.003196,0.005842,0.000285,0.005851,-0.003205,88.195018,0.005860,
920,730,0.794645,-6.864427,0.999996,0.000219,-0.003452,0.005931,-0.000323,0.005942,-0.003464,-88.032538,0.005969,
1310,1580,-0.100348,-1.555749,0.999998,0.000176,-0.001393,0.003609,-0.000371,0.003637,-0.001420,-85.777849,0.003666,
1440,1010,-1.196224,-5.200575,0.999997,0.000215,-0.003430,0.009330,0.000326,0.009338,-0.003439,88.539128,0.009446,
1690,730,-1.264578,-6.614011,0.999997,0.000202,-0.002916,0.005518,-0.000332,0.005531,-0.002929,-87.748896,0.005535,
1100,540,0.185637,-8.224979,0.999998,0.000174,-0.001753,0.003867,-0.000783,0.003974,-0.001860,-82.209614,0.003977,
590,1870,0.794843,-0.961675,0.999998,0.000181,-0.002485,0.005037,-0.000315,0.005051,-0.002498,-87.609476,0.005051,
1770,1490,-1.213039,-2.699922,0.999998,0.000170,-0.002652,0.005212,-0.000028,0.005213,-0.002652,-89.799591,0.005213,
750,1350,1.285633,-3.357936,0.999997,0.000218,-0.002845,0.005405,-0.000248,0.005413,-0.002853,-88.279252,0.005415,
1510,1940,-0.104370,-0.323765,0.999998,0.000151,-0.000611,0.003588,0.000460,0.003638,-0.000661,83.823983,0.003876,
710,850,1.661464,-5.916576,0.999997,0.000207,-0.002478,0.005048,0.000505,0.005082,-0.002512,86.174799,0.005082,
720,170,0.457211,-9.421971,0.999998,0.000168,-0.001971,0.004817,0.000782,0.004905,-0.002060,83.514151,0.004926,
1720,930,-1.700115,-5.523837,0.999997,0.000220,-0.002292,0.004990,-0.000433,0.005015,-0.002317,-86.611787,0.005020,
1140,1410,0.118333,-2.160800,0.999998,0.000197,-0.001635,0.003325,0.001058,0.003541,-0.001851,78.447911,0.003543,
1360,160,-0.061303,-9.631692,0.999998,0.000162,-0.000472,0.003382,-0.000148,0.003388,-0.000477,-87.807385,0.003667,
1840,1010,-2.019171,-5.118899,0.999998,0.000164,-0.002144,0.004488,-0.000137,0.004490,-0.002147,-88.816455,0.004492,
1700,1420,-1.129718,-2.962921,0.999998,0.000173,-0.002842,0.005349,0.000038,0.005349,-0.002842,89.731626,0.005353,
850,1000,1.540141,-5.184511,0.999997,0.000212,-0.001970,0.005255,0.000239,0.005263,-0.001978,88.108675,0.005317,
1150,730,0.101078,-7.679890,0.999998,0.000182,-0.001711,0.002820,-0.001632,0.003346,-0.002237,-72.111058,0.003409,
780,950,1.639564,-5.432178,0.999997,0.000189,-0.002226,0.005126,0.000464,0.005155,-0.002255,86.400376,0.005168,
1150,540,0.107451,-8.288255,0.999998,0.000162,-0.001477,0.003510,-0.000534,0.003567,-0.001534,-83.958750,0.003579,
1560,730,-0.854277,-6.823960,0.999997,0.000243,-0.003425,0.005927,0.000199,0.005931,-0.003429,88.782402,0.005955,
1240,40,-0.000771,-10.018173,0.999999,0.000131,-0.000135,0.002965,-0.000028,0.002966,-0.000136,-89.483102,0.003349,
620,1100,2.002219,-4.718505,0.999998,0.000184,-0.002170,0.004484,-0.000112,0.004486,-0.002172,-89.039132,0.004487,
1250,1610,-0.022334,-1.425502,0.999998,0.000155,-0.001216,0.003524,-0.000127,0.003527,-0.001219,-88.465782,0.003583,
1000,1820,0.187689,-0.751802,0.999998,0.000159,-0.000927,0.003847,-0.000199,0.003855,-0.000936,-87.619952,0.004022,
1370,1720,-0.146608,-1.079027,0.999998,0.000179,-0.001081,0.003727,-0.000077,0.003729,-0.001082,-89.086282,0.003836,
1430,580,-0.324709,-7.933173,0.999996,0.000217,-0.002250,0.004403,0.000896,0.004521,-0.002369,82.464198,0.004523,
670,530,1.218268,-7.524679,0.999998,0.000191,-0.002592,0.005167,-0.000062,0.005168,-0.002593,-89.539448,0.005168,
560,390,1.244625,-8.041871,0.999961,0.000000,-0.000747,0.004971,-0.000189,0.004978,-0.000753,-88.113617,0.005366,
1400,1920,-0.064476,-0.368713,0.999998,0.000133,-0.000485,0.003378,0.000224,0.003391,-0.000498,86.691867,0.003663,
1350,1160,-0.614990,-3.139444,0.999997,0.000000,-0.001169,0.003266,-0.002687,0.004533,-0.002435,-64.767653,0.004537,
1590,1280,-1.041928,-3.582962,0.999997,0.000171,-0.003318,0.006016,0.000215,0.006021,-0.003323,88.680270,0.006032,
1060,710,0.303451,-7.417307,0.999997,0.000196,-0.002860,0.004758,-0.001589,0.005076,-0.003178,-78.675268,0.005130,
780,650,1.105042,-7.063718,0.999997,0.000185,-0.002883,0.005418,0.000050,0.005418,-0.002883,89.655835,0.005422,
870,1650,0.567304,-1.612937,0.999997,0.000196,-0.002144,0.004763,0.000151,0.004766,-0.002148,88.750056,0.004774,
1490,1210,-0.861341,-3.805743,0.999998,0.000193,-0.003801,0.006704,-0.000073,0.006704,-0.003802,-89.602125,0.006724,
1620,440,-0.666168,-8.259831,0.999997,0.000191,-0.002368,0.004946,0.000198,0.004951,-0.002373,88.448595,0.004952,
1510,1500,-0.504579,-2.195531,0.999997,0.000220,-0.002471,0.004873,-0.000622,0.004925,-0.002524,-85.190368,0.004926,
1840,1540,-1.319333,-2.552964,0.999997,0.000208,-0.002530,0.005130,-0.000045,0.005130,-0.002531,-89.661668,0.005130,
630,1720,1.027233,-1.629176,0.999998,0.000192,-0.002397,0.005029,0.000022,0.005030,-0.002397,89.831564,0.005031,
920,1620,0.489010,-1.681515,0.999997,0.000195,-0.002185,0.004681,0.000309,0.004694,-0.002199,87.431778,0.004698,
1190,1480,0.051608,-1.872490,0.999998,0.000183,-0.001291,0.003187,0.000311,0.003209,-0.001313,86.051110,0.003226,
1160,170,0.034910,-9.608013,0.999998,0.000167,-0.000418,0.003330,0.000085,0.003332,-0.000420,88.698784,0.003630,
800,1230,1.375265,-3.966267,0.999998,0.000186,-0.002822,0.005537,-0.000604,0.005581,-0.002866,-85.887502,0.005581,
1790,730,-1.542193,-6.495054,0.999997,0.000207,-0.002616,0.005147,-0.000306,0.005159,-0.002628,-87.743742,0.005159,
1580,760,-0.977623,-6.604274,0.999997,0.000196,-0.003375,0.006033,-0.000105,0.006034,-0.003376,-89.362695,0.006048,
1310,430,-0.093742,-8.690448,0.999999,0.000140,-0.001300,0.003629,0.000252,0.003642,-0.001313,87.085940,0.003689,
1100,520,0.180821,-8.303395,0.999998,0.000172,-0.001683,0.003845,-0.000670,0.003925,-0.001763,-83.187349,0.003932,
1000,1570,0.356325,-1.788773,0.999998,0.000159,-0.002029,0.004398,0.000533,0.004442,-0.002073,85.293523,0.004445,
1770,1470,-1.242694,-2.804903,0.999998,0.000176,-0.002662,0.005187,0.000007,0.005187,-0.002662,89.947390,0.005188,
1410,1940,-0.057766,-0.303647,0.999999,0.000151,-0.000436,0.003334,0.000238,0.003349,-0.000451,86.396941,0.003635,
580,1870,0.820298,-0.984999,0.999998,0.000181,-0.002588,0.004945,-0.000329,0.004959,-0.002603,-87.501307,0.004961,
750,1330,1.322251,-3.466944,0.999998,0.000203,-0.002857,0.005428,-0.000320,0.005440,-0.002869,-87.791783,0.005443,
1160,1390,0.087438,-2.187072,0.999999,0.000151,-0.001431,0.002983,0.000978,0.003190,-0.001638,78.055472,0.003190,
1580,550,-0.682117,-7.776812,0.999997,0.000202,-0.002657,0.005091,0.000395,0.005111,-0.002677,87.091296,0.005113,
1050,570,0.285154,-8.012515,0.999998,0.000174,-0.002151,0.004261,-0.000918,0.004390,-0.002279,-82.013748,0.004391,
1240,1790,-0.007866,-0.787619,0.999998,0.000133,-0.000841,0.003451,-0.000038,0.003451,-0.000842,-89.491433,0.003599,
1360,140,-0.050679,-9.700116,0.999998,0.000152,-0.000395,0.003280,-0.000143,0.003285,-0.000400,-87.776890,0.003585,
1150,1530,0.107236,-1.738211,0.999998,0.000160,-0.001437,0.003564,0.000524,0.003619,-0.001492,84.086120,0.003637,
1270,640,-0.043948,-8.014058,0.999998,0.000150,-0.001231,0.002828,0.000476,0.002883,-0.001286,83.400403,0.002888,
1000,1800,0.207181,-0.828310,0.999998,0.000169,-0.001023,0.003880,-0.000163,0.003885,-0.001029,-88.100907,0.004026,
560,380,1.239544,-8.097836,0.999969,0.000000,-0.000721,0.005313,-0.000470,0.005349,-0.000757,-85.576990,0.005790,
620,1080,2.010748,-4.805801,0.999998,0.000172,-0.002143,0.004388,-0.000052,0.004389,-0.002144,-89.542779,0.004389,
1780,690,-1.442696,-6.714764,0.999997,0.000205,-0.002638,0.005191,-0.000240,0.005198,-0.002646,-88.246739,0.005198,
1070,1120,0.861498,-3.859875,0.999993,0.000303,-0.002477,0.007662,0.003773,0.008912,-0.003728,71.670121,0.008952,
1250,1590,-0.022897,-1.494591,0.999999,0.000141,-0.001210,0.003455,-0.000138,0.003459,-0.001214,-88.302478,0.003509,
1690,710,-1.229522,-6.725670,0.999998,0.000186,-0.002924,0.005496,-0.000257,0.005503,-0.002932,-88.254632,0.005507,
1390,1140,-0.776274,-3.691458,0.999996,0.000240,-0.002216,0.006169,-0.003271,0.007294,-0.003341,-71.019029,0.007302,
1240,160,-0.005259,-9.645503,0.999998,0.000158,-0.000457,0.003267,0.000008,0.003267,-0.000457,89.884472,0.003538,
1050,1660,0.229424,-1.344853,0.999997,0.000185,-0.001556,0.004010,0.000318,0.004028,-0.001574,86.739155,0.004060,
870,1630,0.588151,-1.707149,0.999997,0.000204,-0.002178,0.004788,0.000208,0.004794,-0.002184,88.290617,0.004801,
1620,420,-0.643354,-8.359182,0.999997,0.000176,-0.002299,0.004888,0.000174,0.004892,-0.002303,88.617433,0.004895,
1350,1150,-0.665937,-3.177782,0.999994,0.000000,-0.001098,0.003412,-0.003108,0.004997,-0.002683,-62.985254,0.005001,
1840,1520,-1.347775,-2.655667,0.999997,0.000207,-0.002529,0.005102,-0.000032,0.005102,-0.002529,-89.759332,0.005103,
670,510,1.191032,-7.628887,0.999998,0.000195,-0.002582,0.005142,-0.000083,0.005143,-0.002583,-89.387032,0.005143,
920,860,1.092010,-6.048295,0.999998,0.000163,-0.003317,0.006314,0.000534,0.006344,-0.003346,86.834778,0.006347,
1430,560,-0.318310,-8.020160,0.999998,0.000168,-0.002183,0.004361,0.000837,0.004466,-0.002289,82.823628,0.004467,
1440,1510,-0.334869,-2.013013,0.999997,0.000190,-0.002145,0.004389,-0.000747,0.004473,-0.002229,-83.562245,0.004473,
1400,1900,-0.077051,-0.438357,0.999998,0.000139,-0.000572,0.003475,0.000213,0.003486,-0.000583,86.995934,0.003735,
1490,1190,-0.921589,-3.939330,0.999998,0.000203,-0.003649,0.006757,0.000120,0.006758,-0.003650,89.340505,0.006765,
1890,1580,-1.384324,-2.426980,0.999997,0.000217,-0.002440,0.005062,-0.000025,0.005062,-0.002441,-89.811178,0.005063,
840,740,1.079577,-6.650094,0.999997,0.000208,-0.003196,0.005791,0.000196,0.005796,-0.003200,88.749032,0.005806,
780,1230,1.431387,-3.981442,0.999997,0.000215,-0.002807,0.005421,-0.000583,0.005462,-0.002848,-85.965230,0.005463,
1790,710,-1.503628,-6.598400,0.999998,0.000191,-0.002640,0.005160,-0.000273,0.005169,-0.002649,-87.998241,0.005170,
1620,1410,-0.912291,-2.886994,0.999998,0.000166,-0.003018,0.005509,-0.000161,0.005512,-0.003021,-88.918429,0.005520,
1580,740,-0.937521,-6.726132,0.999998,0.000196,-0.003345,0.005917,0.000010,0.005917,-0.003345,89.936189,0.005934,
1030,1360,0.382093,-2.694970,0.999997,0.000229,-0.003022,0.005075,0.001342,0.005292,-0.003238,80.832011,0.005336,
1430,1940,-0.066441,-0.308586,0.999998,0.000188,-0.000446,0.003395,0.000285,0.003416,-0.000467,85.775519,0.003705,
1100,500,0.179424,-8.381143,0.999998,0.000158,-0.001608,0.003843,-0.000560,0.003900,-0.001664,-84.198071,0.003914,
570,1870,0.847180,-1.004760,0.999983,0.000479,-0.002640,0.004841,-0.000323,0.004855,-0.002654,-87.534963,0.004862,
1770,1450,-1.275302,-2.908049,0.999997,0.000199,-0.002662,0.005170,0.000043,0.005170,-0.002662,89.685974,0.005171,
1310,410,-0.091929,-8.762218,0.999999,0.000142,-0.001244,0.003641,0.000206,0.003650,-0.001253,87.586300,0.003709,
750,1310,1.358981,-3.575532,0.999998,0.000188,-0.002854,0.005411,-0.000388,0.005429,-0.002872,-87.319100,0.005432,
1710,1200,-1.561731,-4.163885,0.999997,0.000206,-0.002592,0.005268,0.000575,0.005310,-0.002634,85.838337,0.005310,
1160,1370,0.085064,-2.243444,0.999999,0.000123,-0.001483,0.002876,0.001125,0.003149,-0.001756,76.350953,0.003156,
560,370,1.225527,-8.148951,0.999973,0.000000,-0.001061,0.005252,-0.000466,0.005287,-0.001095,-85.796893,0.005581,
1110,1600,0.156884,-1.518526,0.999998,0.000158,-0.001406,0.003796,0.000347,0.003819,-0.001429,86.201976,0.003859,
1150,1510,0.106770,-1.810406,0.999998,0.000155,-0.001445,0.003494,0.000579,0.003561,-0.001512,83.406559,0.003575,
970,170,0.151333,-9.561167,0.999998,0.000170,-0.000887,0.003723,0.000350,0.003749,-0.000913,85.678087,0.003910,
1530,1570,-0.501032,-1.896168,0.999998,0.000198,-0.002312,0.004735,-0.000436,0.004762,-0.002339,-86.471024,0.004762,
1060,630,0.277254,-7.778063,0.999997,0.000203,-0.002310,0.004277,-0.001199,0.004488,-0.002521,-79.997155,0.004499,
840,650,0.928702,-7.162196,0.999998,0.000159,-0.003024,0.005546,-0.000151,0.005549,-0.003027,-88.989862,0.005556,
1250,1570,-0.025125,-1.562559,0.999998,0.000147,-0.001220,0.003447,-0.000158,0.003452,-0.001225,-88.068990,0.003501,
1030,1660,0.260452,-1.366373,0.999997,0.000200,-0.001547,0.004074,0.000257,0.004086,-0.001558,87.388187,0.004124,
1270,620,-0.046080,-8.071518,0.999999,0.000141,-0.001253,0.002952,0.000405,0.002991,-0.001292,84.549176,0.003000,
770,940,1.649782,-5.480824,0.999998,0.000179,-0.002262,0.005081,0.000447,0.005108,-0.002289,86.529860,0.005118,
710,830,1.628510,-6.015211,0.999997,0.000202,-0.002562,0.005126,0.000521,0.005161,-0.002597,86.142511,0.005161,
1360,120,-0.044567,-9.763786,0.999998,0.000167,-0.000351,0.003242,-0.000182,0.003251,-0.000360,-87.101782,0.003564,
620,1060,2.019777,-4.895013,0.999999,0.000162,-0.002122,0.004407,-0.000133,0.004410,-0.002124,-88.836418,0.004411,
1720,910,-1.676451,-5.625295,0.999998,0.000180,-0.002375,0.005120,-0.000507,0.005154,-0.002409,-86.151547,0.005158,
1560,710,-0.820758,-6.942153,0.999997,0.000200,-0.003371,0.005799,0.000279,0.005807,-0.003379,88.261555,0.005833,
1620,400,-0.620009,-8.456054,0.999998,0.000165,-0.002204,0.004812,0.000114,0.004814,-0.002206,89.071917,0.004820,
1350,900,-0.647708,-6.922323,0.999988,0.000000,-0.000780,0.003399,0.002744,0.004758,-0.002139,63.646777,0.004766,
1750,140,-0.386608,-9.558639,0.999997,0.000227,-0.001857,0.004711,-0.000963,0.004849,-0.001996,-81.825678,0.004874,
1390,1130,-0.819617,-3.755461,0.999993,0.000332,-0.002229,0.006838,-0.003636,0.008116,-0.003507,-70.633694,0.008141,
870,1610,0.607861,-1.802277,0.999997,0.000226,-0.002277,0.004813,0.000256,0.004822,-0.002286,87.932755,0.004824,
1050,360,0.211815,-8.876158,0.999999,0.000169,-0.001461,0.003964,-0.000211,0.003972,-0.001470,-87.771503,0.004016,
1400,1880,-0.087437,-0.508757,0.999998,0.000146,-0.000672,0.003443,0.000171,0.003450,-0.000679,87.621495,0.003656,
1240,140,-0.003526,-9.710770,0.999998,0.000149,-0.000398,0.003199,-0.000004,0.003199,-0.000398,-89.938074,0.003487,
1830,870,-1.878282,-5.761188,0.999998,0.000186,-0.002316,0.004759,-0.000345,0.004776,-0.002333,-87.216263,0.004776,
920,1600,0.506924,-1.775920,0.999997,0.000202,-0.002234,0.004712,0.000368,0.004731,-0.002254,86.973688,0.004733,
670,490,1.163200,-7.730837,0.999998,0.000179,-0.002543,0.005116,-0.000089,0.005117,-0.002544,-89.335091,0.005117,
1580,720,-0.902255,-6.842141,0.999998,0.000168,-0.003310,0.005837,0.000108,0.005838,-0.003312,89.326078,0.005856,
1740,930,-1.746944,-5.517567,0.999998,0.000176,-0.002295,0.004898,-0.000401,0.004921,-0.002317,-86.820463,0.004923,
1790,690,-1.470308,-6.701380,0.999997,0.000203,-0.002624,0.005153,-0.000247,0.005161,-0.002631,-88.178883,0.005161,
1880,1610,-1.315048,-2.259145,0.999998,0.000202,-0.002473,0.004986,-0.000040,0.004986,-0.002473,-89.695770,0.004986,
570,1780,1.060696,-1.445756,0.999993,0.000300,-0.002303,0.004820,-0.000009,0.004820,-0.002303,-89.927704,0.004822,
1600,1410,-0.849952,-2.847476,0.999998,0.000153,-0.003080,0.005501,-0.000239,0.005508,-0.003086,-88.408540,0.005521,
1000,1780,0.220755,-0.908207,0.999998,0.000160,-0.001088,0.003951,-0.000112,0.003954,-0.001091,-88.726553,0.004084,
1340,170,-0.054771,-9.602380,0.999998,0.000142,-0.000580,0.003348,-0.000096,0.003350,-0.000582,-88.599705,0.003580,
1390,1940,-0.048417,-0.301839,0.999999,0.000136,-0.000331,0.003281,0.000231,0.003296,-0.000346,86.358533,0.003623,
750,1290,1.398798,-3.685172,0.999997,0.000202,-0.002839,0.005424,-0.000430,0.005446,-0.002861,-87.026035,0.005449,
1490,1170,-0.988617,-4.075409,0.999998,0.000188,-0.003449,0.006771,0.000265,0.006777,-0.003456,88.515105,0.006778,
1690,1260,-1.392060,-3.824415,0.999998,0.000185,-0.002838,0.005479,0.000508,0.005510,-0.002869,86.516824,0.005512,
1050,1220,0.527679,-3.388733,0.999996,0.000249,-0.003862,0.006100,0.001447,0.006306,-0.004068,81.902308,0.006394,
1150,1490,0.107286,-1.878192,0.999998,0.000153,-0.001462,0.003430,0.000609,0.003505,-0.001536,83.013073,0.003514,
1310,390,-0.087481,-8.835369,0.999998,0.000143,-0.001201,0.003631,0.000158,0.003636,-0.001206,88.132523,0.003705,
560,360,1.218308,-8.206010,0.999971,0.000000,-0.001456,0.005082,-0.000356,0.005101,-0.001475,-86.896276,0.005250,
970,150,0.130790,-9.637261,0.999998,0.000155,-0.000774,0.003650,0.000383,0.003683,-0.000807,85.087687,0.003871,
1530,1550,-0.517468,-1.992051,0.999998,0.000204,-0.002355,0.004775,-0.000479,0.004807,-0.002387,-86.171814,0.004807,
1030,1600,0.284698,-1.611657,0.999998,0.000177,-0.001711,0.004188,0.000435,0.004220,-0.001743,85.805685,0.004241,
1100,480,0.176360,-8.458261,0.999998,0.000172,-0.001527,0.003832,-0.000476,0.003874,-0.001569,-84.964773,0.003898,
1370,1640,-0.172377,-1.381386,0.999998,0.000155,-0.001363,0.003806,-0.000280,0.003821,-0.001378,-86.910939,0.003871,
1770,1430,-1.305611,-3.013227,0.999997,0.000194,-0.002676,0.005199,0.000080,0.005200,-0.002677,89.414428,0.005201,
1250,1550,-0.023324,-1.632668,0.999998,0.000145,-0.001248,0.003426,-0.000177,0.003432,-0.001255,-87.835866,0.003474,
820,130,0.224668,-9.662830,0.999998,0.000192,-0.000907,0.004095,0.000836,0.004231,-0.001043,80.758203,0.004409,
750,940,1.695571,-5.474917,0.999997,0.000212,-0.002259,0.005019,0.000451,0.005047,-0.002287,86.467485,0.005055,
1360,1810,-0.100442,-0.745381,0.999999,0.000120,-0.000864,0.003575,0.000032,0.003576,-0.000864,89.586005,0.003731,
1620,1350,-1.006722,-3.222554,0.999997,0.000187,-0.003132,0.005723,0.000034,0.005723,-0.003132,89.780352,0.005731,
1250,640,-0.021515,-8.026718,0.999999,0.000122,-0.001119,0.002692,0.000283,0.002713,-0.001140,85.779144,0.002724,
1360,710,-0.192308,-7.579577,0.999998,0.000174,-0.002340,0.003904,0.001729,0.004351,-0.002787,75.514958,0.004408,
870,1590,0.628619,-1.899468,0.999997,0.000205,-0.002383,0.004907,0.000281,0.004918,-0.002394,87.797571,0.004919,
1730,1220,-1.577582,-4.073081,0.999997,0.000222,-0.002581,0.005230,0.000553,0.005269,-0.002620,85.972359,0.005269,
1830,850,-1.846101,-5.858752,0.999998,0.000176,-0.002340,0.004791,-0.000339,0.004807,-0.002356,-87.287349,0.004808,
1350,30,-0.004916,-10.048796,0.999999,0.000000,-0.000009,0.003023,-0.000189,0.003035,-0.000021,-86.449271,0.003493,
1620,380,-0.597526,-8.551678,0.999997,0.000183,-0.002077,0.004781,0.000051,0.004782,-0.002077,89.576662,0.004795,
620,1040,2.026163,-4.982670,0.999998,0.000166,-0.002111,0.004468,-0.000100,0.004470,-0.002113,-89.128983,0.004472,
840,720,1.042256,-6.767378,0.999997,0.000194,-0.003172,0.005743,0.000108,0.005744,-0.003174,89.305311,0.005755,
1690,690,-1.191197,-6.834104,0.999998,0.000175,-0.002911,0.005474,-0.000171,0.005477,-0.002915,-88.830563,0.005481,
1400,1860,-0.101539,-0.576285,0.999998,0.000143,-0.000739,0.003520,0.000173,0.003527,-0.000746,87.673316,0.003717,
1030,360,0.240431,-8.855820,0.999998,0.000154,-0.001482,0.004023,-0.000197,0.004030,-0.001489,-87.948162,0.004075,
1360,100,-0.032722,-9.829799,0.999998,0.000166,-0.000258,0.003218,-0.000183,0.003228,-0.000268,-87.002413,0.003582,
1790,670,-1.432914,-6.804963,0.999997,0.000215,-0.002604,0.005175,-0.000194,0.005180,-0.002609,-88.570079,0.005180,
1570,1910,-0.181626,-0.449074,0.999998,0.000179,-0.000881,0.003892,0.000575,0.003960,-0.000949,83.230143,0.004135,
1880,1600,-1.330152,-2.309143,0.999997,0.000197,-0.002474,0.005027,-0.000050,0.005028,-0.002475,-89.619284,0.005028,
670,470,1.133280,-7.832924,0.999998,0.000167,-0.002527,0.005074,-0.000092,0.005075,-0.002528,-89.309090,0.005075,
920,1560,0.538164,-1.965091,0.999997,0.000201,-0.002324,0.004779,0.000402,0.004801,-0.002347,86.771081,0.004802,
1890,940,-2.089671,-5.401188,0.999998,0.000175,-0.002110,0.004264,-0.000084,0.004265,-0.002111,-89.244658,0.004265,
1600,1890,-0.249412,-0.544704,0.999998,0.000192,-0.001154,0.004083,0.000596,0.004150,-0.001220,83.593453,0.004266,
1360,810,-0.275102,-7.167739,0.999996,0.000244,-0.003070,0.004349,0.002260,0.004983,-0.003704,74.325013,0.005176,
750,1270,1.437889,-3.793212,0.999997,0.000213,-0.002784,0.005385,-0.000496,0.005415,-0.002814,-86.535916,0.005416,
1640,790,-1.235753,-6.336202,0.999998,0.000199,-0.003062,0.005754,-0.000443,0.005777,-0.003085,-87.130352,0.005781,
1450,1620,-0.306719,-1.549583,0.999998,0.000205,-0.001795,0.004246,-0.000395,0.004272,-0.001821,-86.274386,0.004287,
860,470,0.659776,-8.138095,0.999998,0.000181,-0.002437,0.004954,-0.000261,0.004963,-0.002447,-87.982692,0.004963,
1240,120,-0.003306,-9.772664,0.999999,0.000136,-0.000329,0.003163,-0.000007,0.003163,-0.000329,-89.892029,0.003478,
740,1550,1.004193,-2.313850,0.999998,0.000170,-0.002595,0.005145,0.000131,0.005147,-0.002597,89.029390,0.005147,
1000,1760,0.239449,-0.987318,0.999998,0.000144,-0.001185,0.003979,-0.000075,0.003980,-0.001186,-89.171475,0.004087,
1420,1170,-0.737244,-3.758733,0.999997,0.000193,-0.003500,0.006873,-0.001296,0.007032,-0.003659,-82.983652,0.007034,
1150,1470,0.104703,-1.949494,0.999998,0.000155,-0.001460,0.003378,0.000660,0.003467,-0.001548,82.366816,0.003473,
560,350,1.213975,-8.254289,0.999970,0.000000,-0.001763,0.005083,-0.000244,0.005091,-0.001771,-87.961764,0.005169,
1530,1530,-0.529677,-2.086423,0.999998,0.000197,-0.002435,0.004837,-0.000502,0.004871,-0.002469,-86.071220,0.004871,
970,130,0.108318,-9.708058,0.999998,0.000164,-0.000667,0.003559,0.000393,0.003596,-0.000703,84.732622,0.003811,
1760,230,-0.647694,-9.100113,0.999997,0.000198,-0.002318,0.004964,-0.000368,0.004982,-0.002337,-87.112261,0.004986,
1490,1150,-1.059155,-4.214707,0.999998,0.000171,-0.003204,0.006787,0.000368,0.006801,-0.003217,87.892276,0.006804,
1320,170,-0.042087,-9.607223,0.999998,0.000144,-0.000542,0.003306,-0.000082,0.003308,-0.000544,-88.779418,0.003547,
1390,1120,-0.856849,-3.826454,0.999993,0.000314,-0.002376,0.007615,-0.003937,0.008979,-0.003741,-70.878901,0.009021,
1290,1660,-0.067056,-1.255888,0.999998,0.000162,-0.001106,0.003564,-0.000091,0.003566,-0.001108,-88.882991,0.003650,
1310,370,-0.084813,-8.908205,0.999998,0.000139,-0.001145,0.003620,0.000123,0.003623,-0.001148,88.527958,0.003704,
750,920,1.673167,-5.576520,0.999997,0.000185,-0.002321,0.005053,0.000458,0.005081,-0.002350,86.462280,0.005086,
1620,1330,-1.043023,-3.338885,0.999997,0.000209,-0.003156,0.005764,0.000108,0.005766,-0.003157,89.305163,0.005774,
1010,1600,0.321627,-1.639457,0.999998,0.000171,-0.001910,0.004309,0.000479,0.004346,-0.001947,85.616751,0.004353,
1100,460,0.171839,-8.533390,0.999998,0.000184,-0.001458,0.003830,-0.000394,0.003859,-0.001487,-85.760535,0.003893,
710,810,1.591560,-6.120644,0.999997,0.000223,-0.002630,0.005181,0.000512,0.005214,-0.002664,86.265305,0.005215,
1770,1410,-1.340588,-3.115441,0.999997,0.000201,-0.002678,0.005194,0.000123,0.005196,-0.002680,89.102999,0.005197,
1250,1530,-0.022846,-1.699726,0.999999,0.000135,-0.001272,0.003334,-0.000178,0.003341,-0.001279,-87.794866,0.003371,
1800,1730,-0.929664,-1.522054,0.999998,0.000188,-0.002419,0.005052,0.000033,0.005052,-0.002419,89.744656,0.005053,
1620,800,-1.193795,-6.302965,0.999997,0.000197,-0.003141,0.005869,-0.000445,0.005890,-0.003163,-87.179161,0.005896,
870,1570,0.650471,-2.000286,0.999997,0.000187,-0.002449,0.004942,0.000313,0.004955,-0.002463,87.578444,0.004955,
1830,830,-1.815580,-5.953416,0.999998,0.000164,-0.002362,0.004732,-0.000314,0.004746,-0.002376,-87.473741,0.004746,
1730,140,-0.353602,-9.576310,0.999998,0.000197,-0.001421,0.004604,-0.001066,0.004787,-0.001604,-80.252762,0.004873,
1490,1360,-0.564471,-2.874510,0.999997,0.000195,-0.003292,0.005539,-0.000866,0.005623,-0.003376,-84.453470,0.005661,
1170,100,0.014917,-9.833867,0.999998,0.000169,-0.000201,0.003137,0.000073,0.003139,-0.000202,88.752266,0.003513,
1160,630,0.090395,-7.999207,0.999999,0.000160,-0.001435,0.003126,-0.000828,0.003271,-0.001581,-80.020293,0.003272,
1400,1840,-0.114377,-0.647769,0.999998,0.000153,-0.000808,0.003596,0.000137,0.003600,-0.000813,88.217686,0.003776,
1340,2020,-0.005045,-0.047620,0.999999,0.000000,-0.000156,0.003020,0.000128,0.003026,-0.000161,87.692440,0.003404,
1790,650,-1.399493,-6.909092,0.999997,0.000204,-0.002608,0.005192,-0.000151,0.005195,-0.002611,-88.892782,0.005195,
670,450,1.104105,-7.934778,0.999998,0.000160,-0.002517,0.005050,-0.000080,0.005051,-0.002518,-89.392467,0.005051,
1360,80,-0.025571,-9.893758,0.999999,0.000139,-0.000180,0.003163,-0.000185,0.003173,-0.000190,-86.844805,0.003559,
1580,700,-0.870017,-6.958812,0.999998,0.000178,-0.003269,0.005751,0.000189,0.005755,-0.003273,88.800847,0.005773,
1710,1220,-1.524738,-4.058185,0.999997,0.000194,-0.002655,0.005332,0.000593,0.005376,-0.002699,85.774815,0.005376,
920,1540,0.554438,-2.061320,0.999997,0.000212,-0.002425,0.004829,0.000464,0.004859,-0.002454,86.357231,0.004859,
1880,1590,-1.344872,-2.360389,0.999997,0.000220,-0.002470,0.005066,-0.000043,0.005067,-0.002470,-89.673844,0.005067,
1010,1940,0.076029,-0.312333,0.999999,0.000151,-0.000408,0.003438,-0.000369,0.003473,-0.000443,-84.566607,0.003781,
750,1250,1.475460,-3.899879,0.999997,0.000197,-0.002718,0.005314,-0.000526,0.005349,-0.002752,-86.266616,0.005349,
1240,100,-0.001589,-9.837753,0.999999,0.000143,-0.000288,0.003108,-0.000017,0.003108,-0.000288,-89.714205,0.003435,
1360,690,-0.187208,-7.657690,0.999998,0.000161,-0.002218,0.003819,0.001571,0.004203,-0.002602,76.253598,0.004243,
1000,1740,0.254443,-1.068183,0.999998,0.000154,-0.001255,0.004006,-0.000014,0.004006,-0.001255,-89.849097,0.004099,
1220,1310,0.010833,-2.279092,0.999998,0.000145,-0.001021,0.001601,0.000301,0.001635,-0.001055,83.544079,0.001657,
560,340,1.202266,-8.303446,0.999974,0.000000,-0.002079,0.004900,-0.000133,0.004903,-0.002081,-88.910619,0.004922,
1150,1450,0.106649,-2.014496,0.999998,0.000153,-0.001459,0.003327,0.000729,0.003436,-0.001567,81.525861,0.003440,
620,1020,2.030552,-5.073983,0.999998,0.000170,-0.002100,0.004479,0.000080,0.004480,-0.002101,89.302627,0.004483,
1430,380,-0.247252,-8.777419,0.999998,0.000164,-0.001544,0.004097,0.000230,0.004106,-0.001553,87.668560,0.004147,
1100,440,0.167674,-8.609910,0.999998,0.000183,-0.001418,0.003826,-0.000331,0.003846,-0.001439,-86.404911,0.003887,
760,1210,1.525048,-4.105473,0.999996,0.000211,-0.002642,0.005349,-0.000589,0.005392,-0.002686,-85.809981,0.005392,
1500,490,-0.437195,-8.211668,0.999997,0.000195,-0.002194,0.004606,0.000498,0.004642,-0.002230,85.836355,0.004643,
1880,940,-2.068863,-5.407746,0.999998,0.000170,-0.002107,0.004341,-0.000117,0.004343,-0.002109,-88.963246,0.004344,
840,700,1.007614,-6.880833,0.999998,0.000165,-0.003137,0.005672,0.000021,0.005672,-0.003137,89.862868,0.005683,
1690,670,-1.160027,-6.944957,0.999998,0.000181,-0.002909,0.005438,-0.000112,0.005440,-0.002910,-89.232473,0.005444,
1250,1510,-0.023984,-1.765314,0.999998,0.000143,-0.001268,0.003247,-0.000186,0.003255,-0.001275,-87.641028,0.003280,
1690,1240,-1.431889,-3.934124,0.999998,0.000181,-0.002798,0.005434,0.000545,0.005470,-0.002834,86.227654,0.005471,
870,1550,0.670662,-2.098223,0.999998,0.000186,-0.002500,0.005025,0.000340,0.005041,-0.002515,87.417533,0.005041,
1850,1640,-1.195689,-2.061843,0.999998,0.000182,-0.002487,0.004997,-0.000069,0.004998,-0.002488,-89.470261,0.004998,
1530,1950,-0.101081,-0.289891,0.999998,0.000163,-0.000473,0.003582,0.000544,0.003654,-0.000544,82.494774,0.003942,
1770,140,-0.425264,-9.534995,0.999998,0.000202,-0.001933,0.004846,-0.001003,0.004991,-0.002079,-81.761108,0.005014,
970,110,0.088408,-9.778626,0.999998,0.000176,-0.000578,0.003494,0.000425,0.003538,-0.000622,84.107222,0.003778,
1760,210,-0.599697,-9.199248,0.999997,0.000213,-0.002255,0.004989,-0.000484,0.005021,-0.002287,-86.190885,0.005027,
610,1660,1.173043,-1.966396,0.999998,0.000152,-0.002493,0.005006,0.000069,0.005006,-0.002494,89.469944,0.005006,
1490,1130,-1.124812,-4.351532,0.999998,0.000175,-0.002921,0.006805,0.000416,0.006823,-0.002939,87.555567,0.006845,
800,470,0.805918,-8.041912,0.999998,0.000161,-0.002513,0.005073,-0.000180,0.005078,-0.002518,-88.638495,0.005078,
1360,1230,-0.310542,-2.977407,0.999997,0.000223,-0.003151,0.004329,-0.002215,0.004936,-0.003757,-74.683010,0.005155,
1180,630,0.061819,-8.029933,0.999998,0.000183,-0.001338,0.002979,-0.000629,0.003069,-0.001428,-81.875770,0.003071,
690,1720,0.881444,-1.530066,0.999998,0.000160,-0.002414,0.005057,-0.000021,0.005057,-0.002414,-89.835634,0.005059,
1150,100,0.019260,-9.833727,0.999998,0.000160,-0.000245,0.003158,0.000100,0.003161,-0.000248,88.311952,0.003515,
1830,810,-1.785932,-6.048868,0.999998,0.000183,-0.002409,0.004822,-0.000324,0.004837,-0.002424,-87.442509,0.004837,
1130,1420,0.136254,-2.148533,0.999998,0.000168,-0.001737,0.003449,0.001104,0.003674,-0.001962,78.473941,0.003677,
1310,350,-0.081985,-8.980250,0.999999,0.000145,-0.001097,0.003603,0.000069,0.003604,-0.001098,89.165147,0.003695,
1580,660,-0.810415,-7.185272,0.999997,0.000197,-0.003137,0.005582,0.000313,0.005593,-0.003148,87.946951,0.005608,
1360,60,-0.015779,-9.957308,0.999999,0.000125,-0.000101,0.003077,-0.000173,0.003087,-0.000111,-86.887403,0.003502,
1780,1730,-0.883338,-1.488264,0.999999,0.000144,-0.002379,0.005033,0.000028,0.005033,-0.002379,89.779683,0.005036,
1150,1920,0.029784,-0.356291,0.999999,0.000130,-0.000369,0.003224,-0.000101,0.003227,-0.000372,-88.384523,0.003531,
1790,630,-1.366475,-7.013525,0.999998,0.000179,-0.002639,0.005166,-0.000101,0.005167,-0.002640,-89.257183,0.005168,
1770,1390,-1.373395,-3.221539,0.999998,0.000204,-0.002673,0.005230,0.000169,0.005233,-0.002677,88.777967,0.005234,
1870,1610,-1.290459,-2.243490,0.999997,0.000189,-0.002471,0.005004,-0.000038,0.005004,-0.002471,-89.705203,0.005004,
750,1230,1.513948,-4.007143,0.999997,0.000203,-0.002654,0.005313,-0.000557,0.005352,-0.002692,-86.019779,0.005352,
1630,1760,-0.504766,-1.139495,0.999998,0.000184,-0.001817,0.004640,0.000233,0.004648,-0.001825,87.935014,0.004684,
1620,820,-1.237869,-6.184868,0.999997,0.000188,-0.003062,0.005837,-0.000552,0.005872,-0.003096,-86.463707,0.005874,
920,1520,0.571089,-2.157866,0.999997,0.000202,-0.002542,0.004944,0.000533,0.004982,-0.002579,85.946362,0.004983,
1050,550,0.278245,-8.099200,0.999998,0.000167,-0.002060,0.004224,-0.000818,0.004328,-0.002165,-82.707672,0.004328,
1220,1790,0.009083,-0.788229,0.999998,0.000165,-0.000853,0.003469,0.000030,0.003469,-0.000853,89.598790,0.003615,
800,80,0.132479,-9.855872,0.999998,0.000147,-0.000707,0.003838,0.000995,0.004047,-0.000916,78.179885,0.004244,
1150,1430,0.105815,-2.079428,0.999998,0.000152,-0.001490,0.003253,0.000822,0.003391,-0.001629,80.439042,0.003392,
1100,420,0.164333,-8.684671,0.999998,0.000166,-0.001358,0.003775,-0.000277,0.003790,-0.001373,-86.920945,0.003838,
870,1530,0.689868,-2.201440,0.999997,0.000192,-0.002592,0.005060,0.000348,0.005076,-0.002607,87.403438,0.005076,
590,1660,1.223117,-1.998774,0.999998,0.000167,-0.002264,0.004914,0.000065,0.004915,-0.002265,89.479813,0.004920,
1600,530,-0.714464,-7.841267,0.999997,0.000191,-0.002622,0.005085,0.000308,0.005097,-0.002635,87.717061,0.005098,
1250,1490,-0.023064,-1.829314,0.999998,0.000146,-0.001232,0.003200,-0.000215,0.003211,-0.001242,-87.226489,0.003238,
560,330,1.184806,-8.357677,0.999978,0.000000,-0.002277,0.004729,-0.000043,0.004729,-0.002278,-89.648800,0.004730,
1580,640,-0.784877,-7.297370,0.999998,0.000174,-0.003051,0.005503,0.000362,0.005519,-0.003066,87.579129,0.005530,
670,430,1.075218,-8.034208,0.999998,0.000152,-0.002519,0.005085,-0.000084,0.005085,-0.002520,-89.369617,0.005086,
1200,530,0.039947,-8.359423,0.999999,0.000142,-0.001271,0.003334,-0.000204,0.003344,-0.001280,-87.466614,0.003374,
1000,1720,0.269181,-1.148070,0.999998,0.000161,-0.001342,0.004057,0.000042,0.004057,-0.001342,89.550549,0.004134,
1680,1090,-1.650749,-4.724154,0.999997,0.000204,-0.002153,0.005157,0.000411,0.005180,-0.002176,86.792495,0.005202,
1340,1170,-0.543436,-3.004798,0.999997,0.000000,-0.001190,0.002636,-0.002062,0.003536,-0.002090,-66.426965,0.003555,
1490,1260,-0.728463,-3.475652,0.999997,0.000193,-0.003846,0.006401,-0.000492,0.006424,-0.003870,-87.259612,0.006469,
680,690,1.450645,-6.711269,0.999996,0.000224,-0.002654,0.005160,0.000255,0.005168,-0.002662,88.133489,0.005169,
830,1020,1.588343,-5.077844,0.999998,0.000197,-0.001957,0.005187,0.000069,0.005188,-0.001958,89.445577,0.005240,
1630,1740,-0.533258,-1.231674,0.999997,0.000213,-0.001885,0.004644,0.000133,0.004647,-0.001888,88.837332,0.004674,
1830,790,-1.748452,-6.146933,0.999998,0.000187,-0.002455,0.004922,-0.000307,0.004935,-0.002468,-87.621234,0.004935,
1700,1950,-0.222841,-0.333327,0.999997,0.000206,-0.000835,0.004225,0.001152,0.004475,-0.001085,77.754905,0.004668,
1310,330,-0.075961,-9.051060,0.999999,0.000142,-0.001023,0.003596,0.000053,0.003597,-0.001024,89.341422,0.003706,
1060,490,0.244727,-8.360754,0.999997,0.000193,-0.001740,0.004082,-0.000562,0.004136,-0.001794,-84.538536,0.004148,
620,1000,2.021277,-5.161413,0.999998,0.000159,-0.002093,0.004447,0.000122,0.004449,-0.002095,88.927770,0.004451,
1790,610,-1.335552,-7.117367,0.999998,0.000167,-0.002626,0.005146,-0.000066,0.005147,-0.002627,-89.510753,0.005147,
1130,1920,0.037021,-0.361230,0.999999,0.000128,-0.000442,0.003226,-0.000096,0.003228,-0.000445,-88.502056,0.003499,
710,1230,1.617965,-4.037849,0.999997,0.000205,-0.002587,0.005157,-0.000509,0.005190,-0.002621,-86.252718,0.005190,
840,680,0.973205,-6.993658,0.999998,0.000153,-0.003090,0.005591,-0.000063,0.005591,-0.003090,-89.583164,0.005602,
1450,1630,-0.302491,-1.507362,0.999997,0.000219,-0.001731,0.004214,-0.000361,0.004236,-0.001753,-86.534298,0.004256,
1400,1270,-0.365719,-3.026452,0.999997,0.000222,-0.003509,0.005312,-0.001802,0.005666,-0.003863,-78.890422,0.005790,
840,1550,0.745972,-2.149712,0.999998,0.000200,-0.002549,0.005061,0.000259,0.005069,-0.002558,88.051082,0.005070,
940,370,0.396446,-8.718817,0.999998,0.000182,-0.001768,0.004354,-0.000135,0.004357,-0.001771,-88.735823,0.004383,
1490,1110,-1.187723,-4.488765,0.999998,0.000177,-0.002647,0.006842,0.000480,0.006866,-0.002671,87.111607,0.006922,
1430,360,-0.236917,-8.860247,0.999998,0.000188,-0.001502,0.004021,0.000186,0.004027,-0.001508,88.076317,0.004069,
570,1140,2.068270,-4.572356,0.999994,0.000266,-0.001931,0.004392,-0.000105,0.004394,-0.001933,-89.045657,0.004404,
1090,1280,0.261951,-2.833319,0.999998,0.000180,-0.003033,0.004560,0.002072,0.005089,-0.003562,75.685983,0.005223,
1580,620,-0.757287,-7.406806,0.999998,0.000180,-0.002936,0.005376,0.000399,0.005395,-0.002955,87.260461,0.005403,
1450,1560,-0.336575,-1.810055,0.999997,0.000217,-0.002043,0.004375,-0.000603,0.004431,-0.002099,-84.681310,0.004433,
870,1510,0.709385,-2.302796,0.999997,0.000190,-0.002688,0.005132,0.000354,0.005148,-0.002704,87.414423,0.005151,
1240,80,-0.001451,-9.896506,0.999999,0.000142,-0.000209,0.003048,0.000003,0.003048,-0.000209,89.948426,0.003405,
1090,1180,0.536601,-3.314643,0.999996,0.000231,-0.002506,0.004455,0.002338,0.005168,-0.003218,73.053914,0.005219,
1100,400,0.158769,-8.758638,0.999998,0.000162,-0.001291,0.003744,-0.000225,0.003754,-0.001301,-87.450536,0.003813,
880,470,0.609383,-8.171262,0.999997,0.000201,-0.002386,0.004880,-0.000313,0.004893,-0.002400,-87.540619,0.004893,
670,410,1.047457,-8.139585,0.999998,0.000171,-0.002492,0.005086,-0.000082,0.005086,-0.002493,-89.377110,0.005087,
1260,530,-0.036214,-8.359325,0.999998,0.000165,-0.001258,0.003334,0.000213,0.003344,-0.001268,87.349588,0.003376,
1710,1580,-0.929949,-2.138245,0.999998,0.000174,-0.002555,0.005092,-0.000140,0.005095,-0.002557,-88.950085,0.005095,
1580,530,-0.661388,-7.875597,0.999997,0.000200,-0.002578,0.005019,0.000386,0.005039,-0.002598,87.095637,0.005040,
1360,1210,-0.375141,-3.062106,0.999998,0.000209,-0.002908,0.004349,-0.002282,0.005007,-0.003566,-73.914494,0.005155,
1260,1590,-0.034672,-1.496984,0.999999,0.000130,-0.001206,0.003469,-0.000140,0.003473,-0.001210,-88.285377,0.003526,
1610,1000,-1.533849,-5.183980,0.999998,0.000208,-0.001922,0.005236,-0.000205,0.005242,-0.001928,-88.357305,0.005303,
730,1040,1.791241,-4.978692,0.999998,0.000192,-0.002148,0.004877,-0.000138,0.004880,-0.002150,-88.873835,0.004892,
590,1910,0.667666,-0.755578,0.999997,0.000192,-0.002537,0.005185,-0.000507,0.005218,-0.002570,-86.256810,0.005219,
1000,1700,0.282461,-1.229590,0.999998,0.000173,-0.001423,0.004115,0.000128,0.004118,-0.001426,88.681359,0.004182,
800,60,0.087562,-9.934285,0.999998,0.000152,-0.000558,0.003700,0.000992,0.003920,-0.000778,77.510001,0.004151,
1660,1090,-1.607647,-4.719878,0.999997,0.000220,-0.002150,0.005203,0.000448,0.005230,-0.002177,86.525592,0.005255,
1150,1410,0.101112,-2.141989,0.999998,0.000182,-0.001503,0.003206,0.000936,0.003385,-0.001683,79.157646,0.003386,
1310,310,-0.073638,-9.123464,0.999999,0.000139,-0.000960,0.003567,0.000016,0.003567,-0.000960,89.793738,0.003692,
1310,100,-0.018734,-9.833496,0.999998,0.000177,-0.000241,0.003121,-0.000106,0.003124,-0.000244,-88.202363,0.003475,
660,890,1.844559,-5.684864,0.999998,0.000193,-0.002318,0.004793,0.000362,0.004812,-0.002336,87.090036,0.004813,
1700,1970,-0.175380,-0.254596,0.999998,0.000156,-0.000648,0.003994,0.001133,0.004255,-0.000910,76.994137,0.004482,
1350,1990,-0.015264,-0.139622,0.999999,0.000146,-0.000149,0.003093,0.000168,0.003102,-0.000157,87.046076,0.003495,
700,690,1.397683,-6.736981,0.999998,0.000173,-0.002698,0.005247,0.000253,0.005255,-0.002706,88.174796,0.005256,
1490,1240,-0.777103,-3.605837,0.999997,0.000209,-0.003893,0.006559,-0.000344,0.006570,-0.003905,-88.119485,0.006609,
1250,1470,-0.023580,-1.893626,0.999999,0.000137,-0.001195,0.003081,-0.000231,0.003093,-0.001208,-86.911890,0.003118,
1090,1940,0.044143,-0.300437,0.999998,0.000145,-0.000285,0.003279,-0.000223,0.003293,-0.000299,-86.440211,0.003642,
1690,260,-0.564253,-9.038466,0.999997,0.000202,-0.002022,0.004749,-0.000348,0.004767,-0.002040,-87.062239,0.004783,
1530,1970,-0.079309,-0.219940,0.999998,0.000153,-0.000324,0.003492,0.000550,0.003569,-0.000402,81.962446,0.003910,
1770,1590,-1.068175,-2.184572,0.999998,0.000165,-0.002523,0.005109,-0.000104,0.005111,-0.002524,-89.217273,0.005111,
1830,770,-1.713976,-6.246710,0.999998,0.000184,-0.002479,0.004950,-0.000287,0.004961,-0.002490,-87.790937,0.004961,
1340,1160,-0.603980,-3.033240,0.999997,0.000000,-0.000879,0.002625,-0.002415,0.003857,-0.002111,-62.979568,0.003863,
1790,590,-1.303032,-7.220428,0.999998,0.000172,-0.002618,0.005153,-0.000015,0.005153,-0.002618,-89.887188,0.005153,
1450,1610,-0.311195,-1.590605,0.999998,0.000190,-0.001843,0.004261,-0.000436,0.004291,-0.001874,-85.936549,0.004303,
850,1720,0.525890,-1.306752,0.999997,0.000182,-0.001899,0.004716,-0.000088,0.004717,-0.001900,-89.238109,0.004746,
840,660,0.944155,-7.105431,0.999998,0.000155,-0.003048,0.005570,-0.000127,0.005572,-0.003050,-89.154847,0.005580,
1050,530,0.273202,-8.183320,0.999998,0.000163,-0.001952,0.004181,-0.000725,0.004265,-0.002037,-83.348856,0.004267,
710,1250,1.579852,-3.932838,0.999997,0.000211,-0.002597,0.005171,-0.000486,0.005202,-0.002628,-86.435206,0.005202,
660,1550,1.209783,-2.442963,0.999998,0.000158,-0.002564,0.005137,0.000075,0.005138,-0.002565,89.439648,0.005138,
1040,1170,0.747759,-3.777157,0.999997,0.000195,-0.003489,0.006918,0.001187,0.007052,-0.003623,83.577138,0.007053,
1740,230,-0.601960,-9.130957,0.999997,0.000197,-0.002107,0.004911,-0.000463,0.004941,-0.002137,-86.244536,0.004956,
910,360,0.436211,-8.730769,0.999996,0.000220,-0.001793,0.004512,-0.000032,0.004513,-0.001794,-89.712602,0.004544,
1580,600,-0.736322,-7.511797,0.999998,0.000173,-0.002847,0.005297,0.000411,0.005317,-0.002868,87.119203,0.005323,
1240,230,-0.006334,-9.411773,0.999998,0.000145,-0.000727,0.003403,0.000022,0.003403,-0.000727,89.692150,0.003584,
1060,430,0.227695,-8.605266,0.999998,0.000178,-0.001646,0.004008,-0.000411,0.004038,-0.001675,-85.864908,0.004057,
620,980,2.014413,-5.252695,0.999998,0.000171,-0.002108,0.004405,0.000059,0.004405,-0.002108,89.481238,0.004407,
570,1130,2.078061,-4.616218,0.999995,0.000276,-0.001982,0.004298,-0.000131,0.004301,-0.001984,-88.809608,0.004305,
1260,550,-0.035783,-8.293892,0.999998,0.000170,-0.001239,0.003244,0.000237,0.003256,-0.001251,86.987895,0.003285,
670,830,1.730480,-5.983795,0.999998,0.000166,-0.002423,0.004901,0.000389,0.004922,-0.002444,86.965937,0.004922,
1410,360,-0.206663,-8.878625,0.999998,0.000160,-0.001440,0.003958,0.000211,0.003966,-0.001448,87.762274,0.004014,
1400,1820,-0.125198,-0.720520,0.999998,0.000158,-0.000876,0.003635,0.000099,0.003637,-0.000878,88.743582,0.003796,
870,1490,0.734493,-2.406248,0.999998,0.000196,-0.002760,0.005230,0.000366,0.005247,-0.002777,87.385042,0.005250,
1230,40,0.001051,-10.017699,0.999999,0.000108,-0.000131,0.002969,-0.000021,0.002969,-0.000131,-89.603068,0.003355,
1240,60,-0.000711,-9.959301,0.999999,0.000132,-0.000150,0.003028,-0.000015,0.003029,-0.000150,-89.725152,0.003414,
1110,1420,0.173940,-2.196482,0.999998,0.000184,-0.001871,0.003701,0.001157,0.003932,-0.002102,78.720029,0.003935,
1330,1440,-0.130691,-2.073932,0.999999,0.000133,-0.001663,0.003477,-0.000937,0.003642,-0.001828,-79.985283,0.003642,
1630,1000,-1.571555,-5.183394,0.999997,0.000201,-0.001961,0.005159,-0.000198,0.005164,-0.001966,-88.411688,0.005213,
1490,1530,-0.436533,-2.012570,0.999998,0.000179,-0.002317,0.004661,-0.000636,0.004719,-0.002375,-84.835008,0.004719,
1710,960,-1.712372,-5.374755,0.999998,0.000175,-0.002187,0.005018,-0.000401,0.005041,-0.002209,-86.820524,0.005054,
1100,380,0.153932,-8.835166,0.999998,0.000165,-0.001240,0.003807,-0.000171,0.003813,-0.001246,-88.064247,0.003889,
790,1990,0.105542,-0.167630,0.999998,0.000146,-0.000587,0.003786,-0.001025,0.004014,-0.000815,-77.439463,0.004244,
890,1280,0.986231,-3.553655,0.999997,0.000181,-0.003399,0.006035,-0.000140,0.006037,-0.003401,-89.150254,0.006053,
1340,900,-0.641974,-7.028919,0.999988,0.000000,-0.000309,0.002490,0.002476,0.003934,-0.001753,59.736821,0.003942,
1460,1390,-0.443418,-2.628112,0.999997,0.000213,-0.002998,0.005145,-0.001126,0.005298,-0.003151,-82.273878,0.005329,
560,320,1.172197,-8.399839,0.999983,0.000000,-0.002296,0.004571,0.000025,0.004571,-0.002296,89.793141,0.004571,
1010,190,0.140031,-9.502886,0.999998,0.000160,-0.000720,0.003665,0.000257,0.003680,-0.000735,86.659129,0.003895,
750,1980,0.153057,-0.215596,0.999999,0.000137,-0.000547,0.003968,-0.001242,0.004286,-0.000866,-75.594518,0.004533,
1290,100,-0.014376,-9.834825,0.999998,0.000175,-0.000189,0.003124,-0.000073,0.003125,-0.000190,-88.738975,0.003504,
610,1400,1.571401,-3.288066,0.999996,0.000216,-0.002529,0.005027,-0.000104,0.005028,-0.002530,-89.212917,0.005028,
710,1270,1.544286,-3.829637,0.999998,0.000207,-0.002597,0.005160,-0.000436,0.005185,-0.002622,-86.790850,0.005185,
1340,1210,-0.315205,-2.903247,0.999996,0.000264,-0.002381,0.003247,-0.001951,0.003857,-0.002991,-72.637722,0.004048,
700,90,0.251828,-9.775598,0.999998,0.000153,-0.001439,0.004376,0.001286,0.004648,-0.001711,78.068222,0.004701,
1750,560,-1.152915,-7.436864,0.999998,0.000188,-0.002653,0.005212,0.000046,0.005212,-0.002653,89.662870,0.005212,
1080,920,0.781871,-6.442686,0.999994,0.000295,-0.001921,0.006173,-0.003685,0.007599,-0.003347,-68.842507,0.007617,
680,950,1.865471,-5.405836,0.999998,0.000179,-0.002250,0.004801,0.000321,0.004816,-0.002265,87.396931,0.004819,
1360,590,-0.183745,-8.037502,0.999998,0.000168,-0.001818,0.003816,0.000940,0.003969,-0.001970,80.771766,0.003969,
570,1120,2.087920,-4.660863,0.999996,0.000239,-0.001989,0.004210,-0.000123,0.004213,-0.001992,-88.865322,0.004215,
1830,750,-1.679402,-6.344587,0.999998,0.000179,-0.002485,0.004959,-0.000278,0.004970,-0.002495,-87.860615,0.004970,
1430,1560,-0.294999,-1.776533,0.999998,0.000179,-0.001943,0.004234,-0.000597,0.004291,-0.002000,-84.528673,0.004294,
1790,570,-1.272203,-7.323717,0.999998,0.000175,-0.002617,0.005174,0.000031,0.005174,-0.002618,89.774614,0.005174,
1140,1790,0.074085,-0.801167,0.999999,0.000140,-0.000875,0.003535,0.000034,0.003536,-0.000875,89.558994,0.003683,
1510,520,-0.481521,-8.050923,0.999997,0.000196,-0.002376,0.004753,0.000541,0.004793,-0.002417,85.685193,0.004793,
1570,1540,-0.622548,-2.109764,0.999998,0.000195,-0.002528,0.004971,-0.000404,0.004993,-0.002550,-86.922454,0.004994,
670,850,1.758148,-5.888064,0.999998,0.000184,-0.002401,0.004875,0.000414,0.004899,-0.002425,86.754077,0.004899,
1050,510,0.267920,-8.266587,0.999998,0.000173,-0.001854,0.004154,-0.000610,0.004215,-0.001916,-84.262709,0.004221,
1220,40,0.001598,-10.017957,0.999999,0.000126,-0.000080,0.002989,-0.000019,0.002989,-0.000081,-89.636339,0.003406,
840,640,0.913641,-7.217437,0.999998,0.000161,-0.002994,0.005484,-0.000164,0.005487,-0.002998,-88.892245,0.005495,
620,960,2.006298,-5.339584,0.999998,0.000152,-0.002140,0.004431,0.000096,0.004432,-0.002141,89.162977,0.004433,
1310,510,-0.102466,-8.400083,0.999998,0.000153,-0.001443,0.003565,0.000440,0.003603,-0.001481,85.018244,0.003622,
1150,1390,0.100944,-2.204395,0.999998,0.000165,-0.001527,0.003120,0.001079,0.003358,-0.001765,77.542376,0.003360,
1580,580,-0.713885,-7.617857,0.999997,0.000195,-0.002770,0.005274,0.000410,0.005295,-0.002791,87.087582,0.005298,
870,1470,0.755302,-2.511637,0.999998,0.000185,-0.002814,0.005267,0.000356,0.005283,-0.002830,87.483456,0.005287,
1350,1970,-0.025870,-0.201049,0.999999,0.000144,-0.000218,0.003142,0.000144,0.003149,-0.000224,87.543603,0.003513,
1250,1450,-0.022035,-1.954025,0.999999,0.000129,-0.001185,0.002951,-0.000259,0.002967,-0.001201,-86.434235,0.002985,
1330,1420,-0.130415,-2.142780,0.999998,0.000157,-0.001716,0.003413,-0.001080,0.003631,-0.001934,-78.584857,0.003634,
1160,610,0.091303,-8.062791,0.999998,0.000188,-0.001454,0.003240,-0.000754,0.003358,-0.001572,-81.090127,0.003361,
1310,1940,-0.022418,-0.292923,0.999998,0.000158,-0.000277,0.003214,0.000104,0.003217,-0.000280,88.290132,0.003564,
1010,360,0.270884,-8.840328,0.999998,0.000177,-0.001454,0.004052,-0.000160,0.004057,-0.001458,-88.337295,0.004110,
1230,1990,0.000691,-0.136647,0.999999,0.000144,-0.000162,0.003053,0.000000,0.003053,-0.000162,89.991986,0.003435,
1740,540,-1.096438,-7.557510,0.999998,0.000183,-0.002637,0.005192,0.000089,0.005193,-0.002638,89.351437,0.005193,
1690,240,-0.526077,-9.134287,0.999998,0.000179,-0.001963,0.004785,-0.000455,0.004816,-0.001994,-86.163260,0.004840,
790,1970,0.152239,-0.246797,0.999998,0.000144,-0.000732,0.003905,-0.000999,0.004110,-0.000938,-78.348418,0.004308,
1450,1590,-0.320935,-1.679288,0.999998,0.000184,-0.001926,0.004288,-0.000512,0.004330,-0.001968,-85.321227,0.004336,
610,720,1.683250,-6.464108,0.999997,0.000176,-0.002500,0.004963,0.000161,0.004967,-0.002503,88.765402,0.004967,
1490,1550,-0.424182,-1.919673,0.999998,0.000201,-0.002201,0.004603,-0.000552,0.004648,-0.002246,-85.388866,0.004649,
1100,360,0.147182,-8.912700,0.999998,0.000175,-0.001191,0.003758,-0.000144,0.003762,-0.001195,-88.340618,0.003845,
1700,2010,-0.074074,-0.099969,0.999998,0.000178,-0.000242,0.003677,0.001156,0.003993,-0.000558,74.736799,0.004324,
1010,210,0.159855,-9.426710,0.999998,0.000176,-0.000853,0.003733,0.000207,0.003742,-0.000863,87.423046,0.003919,
990,100,0.067690,-9.817489,0.999999,0.000173,-0.000325,0.003406,0.000393,0.003447,-0.000366,84.045043,0.003786,
610,1380,1.604495,-3.389134,0.999997,0.000197,-0.002507,0.005052,-0.000108,0.005053,-0.002509,-89.181828,0.005053,
910,1280,0.915146,-3.512606,0.999997,0.000208,-0.003543,0.006148,-0.000011,0.006148,-0.003543,-89.935949,0.006172,
700,70,0.184943,-9.863856,0.999997,0.000203,-0.001050,0.004458,0.001604,0.004891,-0.001483,74.894763,0.005016,
1490,1420,-0.509686,-2.553718,0.999996,0.000225,-0.002891,0.005127,-0.000864,0.005219,-0.002983,-83.915264,0.005237,
1340,890,-0.577788,-7.061241,0.999995,0.000000,-0.000920,0.002530,0.002118,0.003537,-0.001926,64.584811,0.003541,
1040,1150,0.832146,-3.918565,0.999998,0.000165,-0.003350,0.007101,0.001256,0.007250,-0.003499,83.242266,0.007251,
710,1290,1.509319,-3.727592,0.999997,0.000217,-0.002623,0.005247,-0.000402,0.005267,-0.002644,-87.086642,0.005267,
1880,460,-1.337692,-7.743476,0.999997,0.000195,-0.002472,0.005044,0.000040,0.005044,-0.002472,89.693298,0.005044,
1550,1540,-0.571217,-2.072840,0.999997,0.000232,-0.002490,0.004878,-0.000463,0.004907,-0.002519,-86.421862,0.004907,
1200,430,0.037986,-8.705869,0.999998,0.000175,-0.001165,0.003539,-0.000122,0.003542,-0.001169,-88.512462,0.003610,
1050,490,0.261233,-8.346631,0.999997,0.000198,-0.001775,0.004144,-0.000532,0.004191,-0.001823,-84.901418,0.004203,
570,1110,2.100065,-4.701503,0.999995,0.000297,-0.001948,0.004122,-0.000060,0.004123,-0.001948,-89.438299,0.004125,
670,870,1.790640,-5.790099,0.999998,0.000171,-0.002384,0.004912,0.000463,0.004941,-0.002413,86.386060,0.004942,
840,620,0.886253,-7.324446,0.999998,0.000152,-0.002937,0.005388,-0.000220,0.005394,-0.002942,-88.489299,0.005401,
740,750,1.396810,-6.467888,0.999997,0.000210,-0.002776,0.005360,0.000388,0.005379,-0.002794,87.274259,0.005380,
620,940,1.988836,-5.430191,0.999998,0.000162,-0.002163,0.004580,0.000238,0.004588,-0.002172,87.977628,0.004590,
950,320,0.332798,-8.947954,0.999998,0.000168,-0.001623,0.004295,-0.000013,0.004295,-0.001623,-89.874862,0.004337,
1530,1990,-0.051477,-0.149898,0.999999,0.000153,-0.000229,0.003398,0.000555,0.003481,-0.000312,81.491349,0.003852,
680,1550,1.158205,-2.410769,0.999997,0.000190,-0.002578,0.005157,0.000072,0.005157,-0.002579,89.468175,0.005157,
1150,1370,0.098828,-2.264488,0.999999,0.000145,-0.001587,0.003020,0.001256,0.003340,-0.001907,75.700789,0.003351,
1830,730,-1.643456,-6.445344,0.999998,0.000174,-0.002490,0.005034,-0.000233,0.005041,-0.002498,-88.231410,0.005041,
1330,1500,-0.132296,-1.864433,0.999998,0.000163,-0.001496,0.003566,-0.000577,0.003631,-0.001561,-83.582958,0.003643,
1350,1950,-0.031351,-0.265173,0.999999,0.000132,-0.000312,0.003203,0.000160,0.003211,-0.000319,87.393848,0.003537,
1250,1430,-0.020293,-2.012618,0.999999,0.000135,-0.001152,0.002823,-0.000262,0.002840,-0.001169,-86.241521,0.002855,
870,1450,0.778503,-2.616861,0.999998,0.000188,-0.002886,0.005306,0.000333,0.005320,-0.002900,87.674962,0.005327,
1760,740,-1.479536,-6.478766,0.999997,0.000233,-0.002675,0.005257,-0.000358,0.005274,-0.002691,-87.420471,0.005274,
1670,260,-0.523040,-9.062802,0.999997,0.000203,-0.002023,0.004667,-0.000312,0.004682,-0.002037,-87.333051,0.004695,
1790,770,-1.611950,-6.290447,0.999998,0.000194,-0.002564,0.005059,-0.000375,0.005078,-0.002582,-87.193364,0.005078,
1310,750,-0.097177,-7.635151,0.999998,0.000186,-0.001712,0.002666,0.001752,0.003281,-0.002327,70.664817,0.003376,
1580,560,-0.693028,-7.727227,0.999997,0.000195,-0.002698,0.005177,0.000402,0.005198,-0.002719,87.082147,0.005199,
1230,1970,0.000283,-0.197618,0.999998,0.000158,-0.000229,0.003045,0.000003,0.003045,-0.000229,89.951723,0.003392,
990,380,0.312550,-8.736370,0.999998,0.000195,-0.001678,0.004256,-0.000215,0.004264,-0.001686,-87.923662,0.004294,
1430,1640,-0.263844,-1.443539,0.999997,0.000214,-0.001625,0.004081,-0.000338,0.004101,-0.001645,-86.619744,0.004128,
690,800,1.625395,-6.154247,0.999997,0.000202,-0.002568,0.005110,0.000458,0.005137,-0.002596,86.597630,0.005137,
1490,1570,-0.411243,-1.829240,0.999998,0.000189,-0.002077,0.004537,-0.000477,0.004571,-0.002112,-85.897079,0.004575,
990,1940,0.083453,-0.314163,0.999998,0.000153,-0.000408,0.003484,-0.000410,0.003527,-0.000451,-84.055100,0.003839,
1700,2000,-0.094734,-0.135638,0.999998,0.000161,-0.000348,0.003763,0.001157,0.004066,-0.000651,75.317197,0.004367,
790,1950,0.197307,-0.324619,0.999998,0.000173,-0.000977,0.004109,-0.000990,0.004295,-0.001163,-79.361345,0.004443,
1180,530,0.065535,-8.351165,0.999998,0.000169,-0.001284,0.003415,-0.000294,0.003434,-0.001303,-86.428577,0.003467,
1100,340,0.142011,-8.986032,0.999998,0.000160,-0.001125,0.003704,-0.000113,0.003706,-0.001127,-88.665722,0.003800,
1550,880,-1.169165,-5.913613,0.999998,0.000182,-0.003075,0.006219,-0.000649,0.006264,-0.003120,-86.022030,0.006264,
1480,1330,-0.565321,-3.015205,0.999996,0.000229,-0.003491,0.005732,-0.000917,0.005822,-0.003582,-84.373950,0.005873,
970,100,0.077375,-9.813780,0.999998,0.000179,-0.000526,0.003446,0.000420,0.003490,-0.000570,84.028665,0.003744,
1010,230,0.172773,-9.352349,0.999998,0.000168,-0.000959,0.003817,0.000197,0.003825,-0.000967,87.646704,0.003978,
1340,30,-0.004732,-10.046794,0.999999,0.000000,-0.000021,0.003001,-0.000162,0.003010,-0.000030,-86.938086,0.003459,
960,1290,0.713563,-3.323853,0.999997,0.000212,-0.003676,0.006182,0.000493,0.006207,-0.003701,87.142772,0.006245,
580,360,1.190867,-8.234788,0.999998,0.000152,-0.002023,0.004974,-0.000121,0.004976,-0.002025,-89.007161,0.005005,
1050,1340,0.335140,-2.724308,0.999998,0.000170,-0.003017,0.004958,0.001543,0.005246,-0.003305,79.422735,0.005305,
840,600,0.860169,-7.432805,0.999998,0.000167,-0.002878,0.005391,-0.000242,0.005398,-0.002885,-88.323058,0.005403,
570,1100,2.107095,-4.742200,0.999991,0.000365,-0.001943,0.004075,0.000007,0.004075,-0.001943,89.935318,0.004077,
1080,430,0.194853,-8.629066,0.999997,0.000202,-0.001532,0.003911,-0.000383,0.003938,-0.001559,-85.997563,0.003966,
620,920,1.966892,-5.522785,0.999998,0.000147,-0.002177,0.004599,0.000262,0.004609,-0.002187,87.789557,0.004611,
710,1730,0.816637,-1.445503,0.999998,0.000161,-0.002398,0.005038,-0.000025,0.005038,-0.002398,-89.809053,0.005040,
1800,1830,-0.728697,-1.014711,0.999998,0.000207,-0.002253,0.005097,0.000461,0.005126,-0.002281,86.423331,0.005136,
950,300,0.312827,-9.031708,0.999998,0.000181,-0.001564,0.004175,0.000026,0.004175,-0.001564,89.735884,0.004219,
1050,470,0.258485,-8.430570,0.999998,0.000190,-0.001705,0.004092,-0.000490,0.004133,-0.001746,-85.205444,0.004149,
970,860,0.917582,-6.166416,0.999997,0.000214,-0.003678,0.006745,0.000122,0.006747,-0.003679,89.330271,0.006756,
1330,1480,-0.133267,-1.934080,0.999998,0.000162,-0.001540,0.003545,-0.000679,0.003634,-0.001629,-82.529249,0.003641,
1830,710,-1.609234,-6.546954,0.999997,0.000203,-0.002512,0.005071,-0.000215,0.005077,-0.002518,-88.375940,0.005077,
1450,1570,-0.332175,-1.765914,0.999997,0.000198,-0.002006,0.004334,-0.000572,0.004385,-0.002057,-84.886637,0.004388,
1440,1390,-0.384028,-2.566525,0.999995,0.000238,-0.002854,0.004941,-0.001211,0.005125,-0.003037,-81.371248,0.005154,
1790,1010,-1.912087,-5.122694,0.999999,0.000133,-0.002148,0.004688,-0.000131,0.004690,-0.002151,-88.898674,0.004695,
1250,1410,-0.020995,-2.066391,0.999999,0.000144,-0.001131,0.002706,-0.000263,0.002724,-0.001149,-86.093337,0.002735,
1090,1320,0.232804,-2.654771,0.999996,0.000252,-0.002701,0.004275,0.001899,0.004758,-0.003185,75.715085,0.004848,
1180,230,0.035140,-9.408274,0.999998,0.000158,-0.000668,0.003422,0.000008,0.003422,-0.000668,89.886848,0.003628,
570,300,1.108358,-8.511666,0.999993,0.000333,-0.002242,0.004838,0.000011,0.004838,-0.002242,89.913155,0.004843,
670,890,1.822341,-5.691425,0.999998,0.000187,-0.002335,0.004849,0.000395,0.004871,-0.002357,86.859743,0.004871,
1760,700,-1.407680,-6.687269,0.999997,0.000216,-0.002690,0.005240,-0.000258,0.005248,-0.002699,-88.137890,0.005249,
1230,1950,0.000363,-0.259124,0.999999,0.000131,-0.000293,0.003131,-0.000008,0.003132,-0.000293,-89.864487,0.003459,
1300,1700,-0.072286,-1.114576,0.999999,0.000131,-0.001042,0.003606,-0.000049,0.003606,-0.001042,-89.398839,0.003712,
1580,540,-0.670997,-7.825865,0.999997,0.000194,-0.002614,0.005027,0.000393,0.005047,-0.002634,87.065618,0.005049,
1490,1590,-0.399549,-1.740276,0.999997,0.000209,-0.001996,0.004466,-0.000420,0.004493,-0.002024,-86.297444,0.004501,
870,1430,0.804008,-2.724006,0.999998,0.000177,-0.002972,0.005428,0.000307,0.005440,-0.002983,87.906915,0.005448,
1100,320,0.132971,-9.062052,0.999998,0.000157,-0.001072,0.003735,-0.000061,0.003736,-0.001073,-89.277803,0.003847,
590,1940,0.553327,-0.596000,0.999997,0.000190,-0.002620,0.005512,-0.000873,0.005605,-0.002713,-83.941927,0.005606,
690,780,1.588636,-6.255860,0.999998,0.000179,-0.002581,0.005109,0.000427,0.005133,-0.002605,86.830934,0.005133,
790,1930,0.248097,-0.411558,0.999997,0.000194,-0.001173,0.004212,-0.000930,0.004368,-0.001329,-80.468320,0.004478,
1080,910,0.737744,-6.500331,0.999996,0.000254,-0.002004,0.005586,-0.003308,0.006825,-0.003243,-69.463632,0.006828,
640,930,1.933856,-5.487226,0.999998,0.000182,-0.002216,0.004662,0.000320,0.004677,-0.002231,87.339196,0.004678,
620,1970,0.350431,-0.362019,0.999998,0.000178,-0.002295,0.005470,-0.001227,0.005659,-0.002484,-81.228353,0.005673,
1390,100,-0.040392,-9.827352,0.999999,0.000141,-0.000284,0.003257,-0.000235,0.003272,-0.000299,-86.225343,0.003618,
990,360,0.299084,-8.820568,0.999998,0.000147,-0.001545,0.004134,-0.000148,0.004137,-0.001549,-88.505534,0.004181,
1870,460,-1.313172,-7.760151,0.999998,0.000168,-0.002493,0.005067,0.000049,0.005068,-0.002493,89.627406,0.005068,
1330,2020,-0.002863,-0.047256,0.999998,0.000000,-0.000130,0.003041,0.000112,0.003045,-0.000134,87.971113,0.003442,
1540,60,-0.049288,-9.943020,0.999998,0.000147,-0.000157,0.003359,-0.000585,0.003454,-0.000251,-80.799484,0.003851,
1010,250,0.192404,-9.273328,0.999998,0.000155,-0.001047,0.003832,0.000171,0.003838,-0.001053,87.992870,0.003966,
720,750,1.453131,-6.443877,0.999997,0.000213,-0.002757,0.005307,0.000378,0.005325,-0.002775,87.324406,0.005327,
710,1710,0.848994,-1.549158,0.999998,0.000166,-0.002422,0.005043,-0.000003,0.005043,-0.002422,-89.974148,0.005045,
960,1270,0.755757,-3.450863,0.999997,0.000185,-0.003750,0.006360,0.000374,0.006374,-0.003764,87.886426,0.006409,
1560,1930,-0.146561,-0.369668,0.999998,0.000160,-0.000653,0.003765,0.000613,0.003848,-0.000736,82.245875,0.004086,
1160,530,0.090429,-8.332200,0.999998,0.000152,-0.001408,0.003511,-0.000481,0.003558,-0.001455,-84.466315,0.003578,
840,580,0.831300,-7.542145,0.999998,0.000175,-0.002810,0.005317,-0.000252,0.005324,-0.002817,-88.225527,0.005327,
1150,1350,0.098698,-2.324815,0.999998,0.000161,-0.001646,0.002931,0.001434,0.003343,-0.002058,73.966338,0.003373,
1560,1410,-0.728518,-2.767810,0.999998,0.000182,-0.003061,0.005484,-0.000442,0.005507,-0.003083,-87.045991,0.005520,
1130,1600,0.130089,-1.501312,0.999998,0.000183,-0.001389,0.003718,0.000356,0.003742,-0.001413,86.032367,0.003780,
1550,1900,-0.182069,-0.481810,0.999998,0.000195,-0.000760,0.003882,0.000549,0.003946,-0.000824,83.350929,0.004164,
1830,690,-1.573773,-6.648604,0.999997,0.000217,-0.002546,0.005067,-0.000192,0.005072,-0.002551,-88.552741,0.005072,
1350,1930,-0.042036,-0.330263,0.999999,0.000127,-0.000381,0.003252,0.000142,0.003257,-0.000386,87.763757,0.003559,
620,1340,1.649356,-3.577225,0.999997,0.000206,-0.002497,0.005021,-0.000187,0.005026,-0.002502,-88.572814,0.005026,
1050,450,0.250976,-8.511351,0.999998,0.000175,-0.001651,0.004049,-0.000431,0.004082,-0.001684,-85.699245,0.004102,
850,880,1.351643,-5.843709,0.999997,0.000213,-0.002730,0.005769,0.000716,0.005829,-0.002790,85.215933,0.005831,
1060,470,0.240889,-8.443903,0.999997,0.000191,-0.001716,0.004052,-0.000527,0.004099,-0.001764,-84.826223,0.004113,
1230,1930,0.000355,-0.322053,0.999999,0.000127,-0.000356,0.003158,0.000008,0.003158,-0.000356,89.871086,0.003460,
1630,340,-0.564791,-8.730346,0.999998,0.000188,-0.001985,0.004770,-0.000075,0.004771,-0.001986,-89.365195,0.004793,
1090,1300,0.243555,-2.742907,0.999998,0.000193,-0.002875,0.004431,0.001998,0.004942,-0.003386,75.659520,0.005053,
1010,1680,0.279516,-1.303876,0.999998,0.000191,-0.001496,0.004145,0.000170,0.004150,-0.001501,88.275220,0.004203,
620,1150,1.950200,-4.488243,0.999998,0.000158,-0.002191,0.004536,-0.000211,0.004542,-0.002198,-88.207923,0.004543,
570,290,1.090222,-8.560492,0.999992,0.000341,-0.002210,0.004867,-0.000040,0.004867,-0.002210,-89.672701,0.004874,
1250,1390,-0.019183,-2.118713,0.999999,0.000131,-0.001101,0.002520,-0.000301,0.002545,-0.001126,-85.281323,0.002550,
590,510,1.394156,-7.502066,0.999996,0.000236,-0.002520,0.005092,0.000032,0.005092,-0.002520,89.757190,0.005092,
1780,1960,-0.293213,-0.336428,0.999997,0.000199,-0.001340,0.004601,0.001433,0.004928,-0.001667,77.124674,0.005014,
870,1410,0.830854,-2.836072,0.999998,0.000164,-0.003046,0.005530,0.000286,0.005540,-0.003055,88.094121,0.005550,
1300,1660,-0.078032,-1.257919,0.999998,0.000169,-0.001139,0.003598,-0.000112,0.003601,-0.001141,-88.652287,0.003681,
1490,560,-0.458274,-7.898492,0.999997,0.000200,-0.002460,0.004784,0.000699,0.004851,-0.002527,84.537911,0.004852,
1580,520,-0.651835,-7.926352,0.999997,0.000197,-0.002552,0.005014,0.000379,0.005033,-0.002571,87.136152,0.005034,
790,1910,0.291791,-0.494596,0.999997,0.000205,-0.001392,0.004361,-0.000836,0.004480,-0.001512,-81.894205,0.004559,
670,1330,1.539345,-3.561634,0.999997,0.000195,-0.002624,0.005144,-0.000310,0.005157,-0.002637,-87.721353,0.005157,
750,1400,1.200178,-3.088244,0.999998,0.000182,-0.002815,0.005349,-0.000102,0.005350,-0.002816,-89.286382,0.005353,
1100,300,0.126043,-9.134518,0.999998,0.000155,-0.001015,0.003672,-0.000023,0.003672,-0.001015,-89.714808,0.003793,
860,530,0.720570,-7.838134,0.999998,0.000194,-0.002600,0.005117,-0.000321,0.005130,-0.002613,-87.619811,0.005130,
1670,1860,-0.398726,-0.715989,0.999997,0.000213,-0.001721,0.004603,0.000612,0.004662,-0.001780,84.526183,0.004705,
620,1990,0.255188,-0.250370,0.999997,0.000215,-0.002199,0.005270,-0.001370,0.005514,-0.002442,-79.927389,0.005526,
1270,100,-0.010237,-9.835375,0.999998,0.000168,-0.000239,0.003133,-0.000050,0.003134,-0.000239,-89.151738,0.003489,
1450,1550,-0.340786,-1.854052,0.999997,0.000190,-0.002083,0.004404,-0.000646,0.004468,-0.002147,-84.364590,0.004469,
890,1200,1.175747,-4.045106,0.999998,0.000158,-0.003144,0.006091,-0.000593,0.006129,-0.003181,-86.343720,0.006130,
1500,80,-0.060897,-9.879391,0.999999,0.000131,-0.000406,0.003351,-0.000434,0.003401,-0.000455,-83.502457,0.003692,
1330,1170,-0.532128,-2.909978,0.999996,0.000000,-0.001317,0.002134,-0.001710,0.002838,-0.002021,-67.627459,0.002921,
1790,400,-1.025295,-8.193887,0.999998,0.000145,-0.002462,0.005053,0.000065,0.005054,-0.002463,89.503481,0.005054,
1590,880,-1.287053,-5.865705,0.999997,0.000216,-0.002836,0.005918,-0.000702,0.005974,-0.002892,-85.444238,0.005975,
940,1290,0.787135,-3.380094,0.999997,0.000180,-0.003646,0.006187,0.000318,0.006197,-0.003656,88.152032,0.006230,
1250,360,-0.020247,-8.957821,0.999998,0.000152,-0.001062,0.003514,0.000105,0.003516,-0.001064,88.680956,0.003606,
710,1690,0.882531,-1.647397,0.999998,0.000184,-0.002456,0.005043,0.000038,0.005043,-0.002456,89.706213,0.005043,
1530,1900,-0.165589,-0.476049,0.999998,0.000173,-0.000791,0.003819,0.000489,0.003870,-0.000843,84.005934,0.004071,
720,1670,0.886494,-1.734054,0.999998,0.000176,-0.002436,0.005066,0.000053,0.005067,-0.002437,89.593796,0.005068,
840,780,1.160854,-6.415914,0.999997,0.000194,-0.003160,0.005840,0.000381,0.005856,-0.003176,87.581165,0.005863,
1010,690,0.438925,-7.344688,0.999997,0.000207,-0.003132,0.005229,-0.001178,0.005391,-0.003295,-82.134305,0.005436,
620,1360,1.615142,-3.474077,0.999997,0.000208,-0.002501,0.005077,-0.000151,0.005080,-0.002504,-88.856469,0.005080,
1060,450,0.233644,-8.523487,0.999998,0.000172,-0.001677,0.004031,-0.000464,0.004068,-0.001714,-85.382685,0.004085,
1790,1320,-1.550485,-3.609632,0.999996,0.000212,-0.002589,0.005133,0.000314,0.005145,-0.002602,87.677104,0.005146,
1750,70,-0.171636,-9.868444,0.999998,0.000172,-0.001065,0.004310,-0.001411,0.004658,-0.001413,-76.154279,0.004777,
600,1150,1.993563,-4.502928,0.999998,0.000144,-0.002162,0.004457,-0.000177,0.004462,-0.002167,-88.469739,0.004463,
1240,180,-0.003899,-9.579140,0.999998,0.000169,-0.000561,0.003294,0.000008,0.003294,-0.000561,89.887713,0.003525,
1830,670,-1.538560,-6.750249,0.999997,0.000192,-0.002569,0.005061,-0.000159,0.005065,-0.002572,-88.810322,0.005065,
1050,430,0.243596,-8.592550,0.999998,0.000178,-0.001643,0.004042,-0.000389,0.004068,-0.001669,-86.101473,0.004090,
670,1310,1.577702,-3.666942,0.999998,0.000181,-0.002591,0.005123,-0.000338,0.005138,-0.002606,-87.494557,0.005138,
1150,230,0.057302,-9.402964,0.999998,0.000150,-0.000719,0.003456,0.000043,0.003456,-0.000719,89.405537,0.003647,
1350,1910,-0.047430,-0.394292,0.999998,0.000132,-0.000475,0.003333,0.000135,0.003338,-0.000480,87.967444,0.003609,
710,140,0.392336,-9.554980,0.999997,0.000191,-0.001935,0.004769,0.000949,0.004901,-0.002067,82.094834,0.004921,
790,1890,0.337199,-0.585810,0.999997,0.000194,-0.001533,0.004427,-0.000761,0.004523,-0.001629,-82.834050,0.004582,
1890,1390,-1.681394,-3.394984,0.999997,0.000211,-0.002481,0.005079,0.000029,0.005079,-0.002481,89.781818,0.005080,
1570,880,-1.229181,-5.886843,0.999998,0.000167,-0.002945,0.006048,-0.000678,0.006099,-0.002996,-85.711099,0.006099,
580,510,1.418928,-7.487577,0.999997,0.000186,-0.002519,0.005232,0.000208,0.005238,-0.002525,88.462785,0.005239,
1540,500,-0.535017,-8.094913,0.999998,0.000188,-0.002374,0.004776,0.000456,0.004805,-0.002403,86.363628,0.004805,
640,910,1.912284,-5.580021,0.999998,0.000182,-0.002218,0.004632,0.000279,0.004644,-0.002229,87.668811,0.004645,
1390,940,-0.872194,-6.216572,0.999994,0.000288,-0.002361,0.007922,0.003989,0.009288,-0.003727,71.096749,0.009348,
710,1670,0.912247,-1.750236,0.999998,0.000174,-0.002458,0.005070,0.000067,0.005071,-0.002459,89.493668,0.005071,
860,510,0.699773,-7.939164,0.999998,0.000217,-0.002535,0.004997,-0.000327,0.005011,-0.002550,-87.517831,0.005011,
1540,730,-0.782672,-6.870696,0.999999,0.000227,-0.003496,0.005935,0.000337,0.005947,-0.003508,87.955026,0.005979,
1300,760,-0.082503,-7.650249,0.999997,0.000207,-0.001618,0.002335,0.001655,0.002936,-0.002219,70.031251,0.003062,
1100,280,0.115343,-9.208751,0.999998,0.000152,-0.000947,0.003637,0.000021,0.003637,-0.000947,89.743407,0.003774,
750,1210,1.550933,-4.112334,0.999997,0.000209,-0.002597,0.005299,-0.000574,0.005340,-0.002638,-85.860218,0.005341,
1700,1400,-1.162277,-3.069925,0.999998,0.000188,-0.002847,0.005372,0.000102,0.005373,-0.002849,89.290139,0.005376,
870,1830,0.335927,-0.790527,0.999998,0.000178,-0.001531,0.004290,-0.000397,0.004317,-0.001558,-86.116506,0.004373,
1730,860,-1.621537,-5.877306,0.999998,0.000205,-0.002504,0.005125,-0.000535,0.005163,-0.002541,-86.004979,0.005163,
1220,630,0.012676,-8.058184,0.999999,0.000129,-0.001184,0.002775,-0.000174,0.002783,-0.001192,-87.484717,0.002792,
1540,1930,-0.135825,-0.366405,0.999998,0.000174,-0.000582,0.003707,0.000578,0.003784,-0.000659,82.457038,0.004043,
1690,650,-1.124664,-7.052717,0.999997,0.000183,-0.002886,0.005369,-0.000073,0.005370,-0.002887,-89.496351,0.005375,
1780,1920,-0.429856,-0.532645,0.999997,0.000208,-0.001822,0.004940,0.001120,0.005120,-0.002003,80.835950,0.005161,
750,1420,1.167426,-2.981292,0.999997,0.000196,-0.002800,0.005319,-0.000063,0.005319,-0.002801,-89.556149,0.005322,
1580,500,-0.632330,-8.026473,0.999997,0.000199,-0.002494,0.004966,0.000360,0.004984,-0.002511,87.243126,0.004984,
840,1020,1.570267,-5.079303,0.999998,0.000204,-0.001947,0.005228,0.000066,0.005228,-0.001948,89.471481,0.005285,
570,280,1.070929,-8.608533,0.999993,0.000306,-0.002225,0.004832,-0.000052,0.004832,-0.002225,-89.574696,0.004838,
1090,1920,0.053908,-0.366307,0.999998,0.000159,-0.000365,0.003293,-0.000193,0.003303,-0.000375,-86.984065,0.003617,
1490,540,-0.444521,-7.994059,0.999997,0.000214,-0.002412,0.004718,0.000667,0.004780,-0.002474,84.699815,0.004781,
1210,1210,0.090966,-2.413625,0.999995,0.000264,-0.003906,0.001549,-0.000055,0.001549,-0.003907,-89.427528,0.003934,
1250,100,-0.003722,-9.836115,0.999999,0.000147,-0.000295,0.003115,-0.000026,0.003116,-0.000295,-89.557985,0.003440,
1190,1580,0.052086,-1.536229,0.999998,0.000148,-0.001212,0.003517,0.000171,0.003523,-0.001219,87.933214,0.003578,
1250,1810,-0.014817,-0.721478,0.999998,0.000160,-0.000753,0.003433,-0.000022,0.003434,-0.000753,-89.696302,0.003609,
1010,1720,0.256110,-1.139717,0.999998,0.000169,-0.001347,0.004012,0.000060,0.004013,-0.001348,89.361220,0.004084,
1370,920,-0.759748,-6.596980,0.999996,0.000000,-0.001530,0.005552,0.003864,0.007253,-0.003230,66.250829,0.007267,
1500,60,-0.039137,-9.948647,0.999998,0.000147,-0.000308,0.003307,-0.000425,0.003356,-0.000357,-83.378051,0.003686,
1830,260,-0.876605,-8.835820,0.999998,0.000182,-0.002423,0.005058,-0.000140,0.005061,-0.002426,-88.931324,0.005062,
1600,1350,-0.943491,-3.187651,0.999998,0.000152,-0.003232,0.005757,-0.000065,0.005757,-0.003232,-89.588255,0.005772,
750,1380,1.232646,-3.196005,0.999998,0.000181,-0.002825,0.005372,-0.000156,0.005375,-0.002828,-88.911356,0.005377,
1530,1120,-1.262620,-4.483321,0.999997,0.000199,-0.002571,0.006215,0.000679,0.006267,-0.002623,85.604056,0.006295,
1830,500,-1.271542,-7.619703,0.999997,0.000201,-0.002544,0.005084,0.000050,0.005084,-0.002544,89.624506,0.005084,
1450,1530,-0.346869,-1.943692,0.999998,0.000183,-0.002132,0.004431,-0.000685,0.004502,-0.002203,-84.107655,0.004502,
1190,1450,0.049712,-1.965628,0.999998,0.000159,-0.001286,0.003063,0.000388,0.003097,-0.001320,84.937654,0.003108,
1540,480,-0.521592,-8.190742,0.999998,0.000186,-0.002317,0.004757,0.000411,0.004780,-0.002341,86.683954,0.004781,
1390,930,-0.838109,-6.289083,0.999996,0.000238,-0.002265,0.007128,0.003757,0.008446,-0.003582,70.670317,0.008478,
1740,1980,-0.172211,-0.226390,0.999997,0.000193,-0.001017,0.004157,0.001303,0.004466,-0.001327,76.636420,0.004587,
1010,670,0.424529,-7.449119,0.999997,0.000213,-0.002956,0.005121,-0.001147,0.005281,-0.003115,-82.074728,0.005309,
640,1230,1.790685,-4.096609,0.999997,0.000192,-0.002375,0.004814,-0.000345,0.004830,-0.002391,-87.258916,0.004830,
790,1870,0.379086,-0.671898,0.999997,0.000194,-0.001703,0.004489,-0.000659,0.004558,-0.001772,-83.993165,0.004595,
620,1380,1.580566,-3.373801,0.999997,0.000200,-0.002532,0.005063,-0.000138,0.005066,-0.002534,-88.963006,0.005066,
680,1150,1.816048,-4.455653,0.999998,0.000134,-0.002306,0.004832,-0.000347,0.004849,-0.002323,-87.221605,0.004850,
1040,1810,0.156174,-0.771534,0.999998,0.000170,-0.001072,0.003744,-0.000091,0.003746,-0.001074,-88.913062,0.003858,
1700,1380,-1.196772,-3.177055,0.999998,0.000204,-0.002852,0.005415,0.000151,0.005418,-0.002855,88.955727,0.005420,
920,230,0.275935,-9.302311,0.999998,0.000179,-0.001146,0.004112,0.000339,0.004134,-0.001168,86.322398,0.004262,
1390,1440,-0.245120,-2.205228,0.999998,0.000163,-0.002162,0.004134,-0.001147,0.004337,-0.002364,-79.987763,0.004343,
780,1790,0.559159,-1.055389,0.999997,0.000190,-0.002048,0.004776,-0.000301,0.004789,-0.002061,-87.475830,0.004805,
560,310,1.151428,-8.441525,0.999990,0.000000,-0.002248,0.004582,0.000058,0.004582,-0.002248,89.515123,0.004583,
750,1630,0.871499,-1.890753,0.999997,0.000187,-0.002470,0.005026,0.000109,0.005028,-0.002472,89.169036,0.005028,
1530,1940,-0.115747,-0.327212,0.999998,0.000176,-0.000547,0.003634,0.000556,0.003706,-0.000620,82.548108,0.003970,
1300,740,-0.079060,-7.698032,0.999998,0.000180,-0.001536,0.002498,0.001515,0.003003,-0.002042,71.546626,0.003067,
1050,850,0.577899,-6.600767,0.999996,0.000235,-0.003760,0.006253,-0.001396,0.006444,-0.003951,-82.211165,0.006499,
1280,40,-0.003922,-10.017554,0.999999,0.000105,-0.000054,0.002952,-0.000033,0.002952,-0.000055,-89.371790,0.003378,
1540,530,-0.559264,-7.950348,0.999997,0.000205,-0.002510,0.004917,0.000495,0.004950,-0.002542,86.206358,0.004951,
1150,1330,0.099939,-2.385130,0.999998,0.000181,-0.001701,0.002840,0.001596,0.003345,-0.002206,72.447991,0.003401,
1580,480,-0.611516,-8.127145,0.999997,0.000200,-0.002425,0.004908,0.000346,0.004925,-0.002441,87.304043,0.004925,
1360,430,-0.162261,-8.651112,0.999997,0.000196,-0.001374,0.003786,0.000300,0.003804,-0.001392,86.686496,0.003849,
570,510,1.440608,-7.471133,0.999903,0.001221,-0.002527,0.005388,0.000412,0.005409,-0.002549,87.029343,0.005412,
1360,380,-0.150106,-8.837259,0.999998,0.000149,-0.001269,0.003810,0.000163,0.003815,-0.001275,88.161439,0.003885,
1490,480,-0.409886,-8.272949,0.999997,0.000192,-0.002059,0.004522,0.000466,0.004554,-0.002092,85.967065,0.004559,
580,1910,0.692715,-0.781715,0.999998,0.000189,-0.003018,0.005172,-0.000476,0.005200,-0.003046,-86.684799,0.005225,
830,1990,0.084967,-0.160759,0.999998,0.000146,-0.000306,0.003688,-0.000924,0.003892,-0.000509,-77.584650,0.004231,
730,440,0.940598,-8.082022,0.999999,0.000141,-0.002491,0.005048,-0.000101,0.005049,-0.002492,-89.231300,0.005049,
1010,1700,0.267704,-1.220756,0.999998,0.000174,-0.001422,0.004066,0.000141,0.004070,-0.001426,88.527299,0.004130,
730,1420,1.222225,-3.012160,0.999998,0.000172,-0.002724,0.005288,-0.000081,0.005289,-0.002725,-89.419626,0.005289,
1540,650,-0.673607,-7.327205,0.999998,0.000179,-0.003076,0.005506,0.000552,0.005541,-0.003112,86.337990,0.005555,
1590,1480,-0.736236,-2.452545,0.999997,0.000210,-0.002787,0.005237,-0.000387,0.005255,-0.002806,-87.247448,0.005259,
1790,120,-0.395971,-9.612620,0.999997,0.000218,-0.001671,0.005045,-0.001347,0.005305,-0.001931,-79.074817,0.005370,
1780,1380,-1.416240,-3.287180,0.999997,0.000208,-0.002619,0.005207,0.000193,0.005212,-0.002624,88.591703,0.005212,
1150,620,0.105754,-8.015741,0.999998,0.000192,-0.001480,0.003279,-0.000834,0.003421,-0.001622,-80.347399,0.003423,
1370,930,-0.804285,-6.535458,0.999996,0.000000,-0.001586,0.006457,0.004115,0.008189,-0.003318,67.170844,0.008238,
1710,1740,-0.701918,-1.333778,0.999998,0.000203,-0.002177,0.004924,0.000147,0.004927,-0.002180,88.814274,0.004938,
1490,1990,-0.041544,-0.147116,0.999999,0.000163,-0.000289,0.003323,0.000439,0.003376,-0.000341,83.175096,0.003716,
1690,630,-1.093300,-7.159953,0.999998,0.000166,-0.002856,0.005385,-0.000013,0.005385,-0.002856,-89.911573,0.005388,
1200,1210,0.126025,-2.437416,0.999996,0.000213,-0.003536,0.001463,0.000023,0.001463,-0.003536,89.734671,0.003553,
1580,1350,-0.877570,-3.149196,0.999998,0.000138,-0.003275,0.005783,-0.000164,0.005786,-0.003278,-88.963470,0.005803,
1450,1510,-0.356345,-2.030026,0.999998,0.000185,-0.002184,0.004438,-0.000718,0.004515,-0.002261,-83.880746,0.004515,
670,1290,1.611039,-3.767568,0.999998,0.000184,-0.002579,0.005061,-0.000351,0.005078,-0.002595,-87.376240,0.005078,
1810,940,-1.915728,-5.445684,0.999998,0.000168,-0.002238,0.004709,-0.000329,0.004724,-0.002253,-87.294801,0.004726,
1390,920,-0.797897,-6.355974,0.999994,0.000276,-0.002256,0.006458,0.003464,0.007667,-0.003465,70.756374,0.007679,
1630,320,-0.539542,-8.824576,0.999997,0.000188,-0.001918,0.004669,-0.000105,0.004670,-0.001920,-89.084583,0.004695,
1220,480,0.015251,-8.537359,0.999998,0.000147,-0.001248,0.003448,-0.000092,0.003450,-0.001249,-88.875200,0.003493,
1010,650,0.411523,-7.550549,0.999997,0.000219,-0.002796,0.004961,-0.001083,0.005109,-0.002945,-82.196112,0.005129,
1540,460,-0.502929,-8.285950,0.999997,0.000204,-0.002263,0.004743,0.000369,0.004762,-0.002282,86.992572,0.004764,
1700,1360,-1.230956,-3.286594,0.999998,0.000203,-0.002874,0.005460,0.000216,0.005466,-0.002879,88.515074,0.005468,
1750,680,-1.345253,-6.806965,0.999997,0.000189,-0.002722,0.005272,-0.000203,0.005277,-0.002727,-88.548552,0.005278,
1740,1960,-0.229541,-0.306418,0.999998,0.000179,-0.001320,0.004231,0.001177,0.004471,-0.001560,78.511947,0.004538,
790,1850,0.424462,-0.765619,0.999997,0.000194,-0.001819,0.004564,-0.000576,0.004616,-0.001871,-84.882572,0.004643,
750,1260,1.457157,-3.846227,0.999997,0.000198,-0.002751,0.005341,-0.000516,0.005374,-0.002784,-86.364790,0.005375,
660,1150,1.862341,-4.465742,0.999998,0.000155,-0.002280,0.004738,-0.000304,0.004751,-0.002293,-87.526194,0.004752,
620,1400,1.546585,-3.272552,0.999997,0.000210,-0.002546,0.005032,-0.000112,0.005033,-0.002548,-89.150531,0.005033,
900,230,0.299094,-9.290939,0.999998,0.000161,-0.001296,0.004181,0.000340,0.004202,-0.001317,86.465083,0.004298,
1640,1770,-0.508322,-1.101285,0.999998,0.000210,-0.001795,0.004672,0.000296,0.004685,-0.001808,87.384029,0.004726,
560,300,1.127820,-8.489280,0.999993,0.000000,-0.002197,0.004822,0.000054,0.004823,-0.002197,89.558242,0.004829,
1250,1830,-0.011652,-0.652759,0.999999,0.000159,-0.000701,0.003397,-0.000024,0.003397,-0.000701,-89.660618,0.003587,
1340,1810,-0.082138,-0.736780,0.999998,0.000173,-0.000858,0.003540,-0.000016,0.003540,-0.000858,-89.794813,0.003693,
570,1720,1.173107,-1.738364,0.999982,0.000508,-0.002299,0.004712,0.000002,0.004712,-0.002299,89.981105,0.004712,
1580,680,-0.838418,-7.072800,0.999998,0.000179,-0.003222,0.005674,0.000239,0.005680,-0.003229,88.460938,0.005698,
1270,40,-0.004051,-10.017644,0.999999,0.000121,-0.000055,0.002945,-0.000005,0.002945,-0.000055,-89.910477,0.003369,
1670,1900,-0.310532,-0.537392,0.999997,0.000194,-0.001447,0.004381,0.000798,0.004488,-0.001555,82.339192,0.004558,
860,650,0.866878,-7.197134,0.999998,0.000154,-0.003054,0.005546,-0.000223,0.005552,-0.003060,-88.515033,0.005562,
570,1910,0.721273,-0.808386,0.999871,0.001407,-0.003284,0.005156,-0.000430,0.005177,-0.003306,-87.091469,0.005243,
830,1950,0.164480,-0.312350,0.999998,0.000157,-0.000634,0.003916,-0.000881,0.004081,-0.000799,-79.419394,0.004325,
970,1400,0.534390,-2.665010,0.999996,0.000220,-0.003048,0.005298,0.000861,0.005386,-0.003136,84.174308,0.005410,
1490,1970,-0.060421,-0.213890,0.999998,0.000170,-0.000408,0.003376,0.000435,0.003426,-0.000457,83.528330,0.003720,
1880,1190,-1.984205,-4.343544,0.999998,0.000164,-0.002225,0.004464,0.000104,0.004466,-0.002226,89.110452,0.004466,
1050,870,0.653402,-6.470800,0.999997,0.000216,-0.003609,0.006547,-0.001446,0.006749,-0.003811,-82.053147,0.006767,
1690,610,-1.063488,-7.268409,0.999998,0.000165,-0.002804,0.005334,0.000046,0.005334,-0.002804,89.677939,0.005337,
1820,130,-0.483279,-9.532037,0.999996,0.000233,-0.002088,0.005276,-0.001021,0.005415,-0.002227,-82.252539,0.005443,
1770,1460,-1.258704,-2.856553,0.999998,0.000182,-0.002662,0.005165,0.000023,0.005165,-0.002662,89.834808,0.005166,
1370,1130,-0.788960,-3.510536,0.999997,0.000000,-0.001444,0.005719,-0.004067,0.007557,-0.003282,-65.684074,0.007579,
1150,640,0.103081,-7.952488,0.999999,0.000155,-0.001489,0.003180,-0.000930,0.003358,-0.001667,-79.134419,0.003358,
1780,1360,-1.452120,-3.391435,0.999997,0.000219,-0.002650,0.005201,0.000240,0.005209,-0.002657,88.248240,0.005209,
1540,440,-0.485571,-8.380231,0.999997,0.000206,-0.002184,0.004688,0.000341,0.004704,-0.002200,87.162077,0.004708,
1730,980,-1.769159,-5.274149,0.999998,0.000156,-0.002174,0.004880,-0.000206,0.004886,-0.002180,-88.327228,0.004896,
1510,1320,-0.687448,-3.162464,0.999997,0.000214,-0.003547,0.005929,-0.000572,0.005964,-0.003582,-86.557398,0.006004,
1330,860,-0.373441,-7.224826,0.999998,0.000181,-0.001900,0.002354,0.001389,0.002768,-0.002313,73.422350,0.002969,
1150,1290,0.106604,-2.495917,0.999997,0.000217,-0.001918,0.002729,0.001906,0.003411,-0.002600,70.316301,0.003564,
1120,430,0.137461,-8.664030,0.999998,0.000197,-0.001344,0.003749,-0.000308,0.003767,-0.001363,-86.552417,0.003815,
660,650,1.435199,-6.891563,0.999996,0.000229,-0.002650,0.005162,0.000131,0.005164,-0.002652,89.041566,0.005165,
1360,400,-0.156675,-8.760472,0.999998,0.000161,-0.001314,0.003725,0.000221,0.003735,-0.001323,87.493612,0.003787,
1010,630,0.401599,-7.644808,0.999997,0.000197,-0.002677,0.004807,-0.001044,0.004950,-0.002820,-82.203500,0.004966,
970,640,0.521632,-7.492884,0.999996,0.000215,-0.002968,0.005181,-0.000862,0.005271,-0.003058,-84.027104,0.005293,
1450,1490,-0.362779,-2.119325,0.999998,0.000191,-0.002280,0.004526,-0.000800,0.004618,-0.002373,-83.386071,0.004619,
740,850,1.586246,-5.932804,0.999997,0.000209,-0.002610,0.005209,0.000553,0.005248,-0.002649,85.973587,0.005248,
1190,1210,0.157793,-2.470792,0.999996,0.000223,-0.003172,0.001423,0.000154,0.001428,-0.003177,88.088291,0.003183,
1700,1790,-0.593135,-1.077173,0.999998,0.000165,-0.002043,0.004845,0.000363,0.004864,-0.002063,86.991692,0.004882,
1700,1340,-1.264675,-3.396131,0.999997,0.000225,-0.002889,0.005475,0.000294,0.005485,-0.002899,87.988679,0.005488,
1650,1640,-0.707536,-1.743032,0.999998,0.000192,-0.002332,0.004931,-0.000118,0.004933,-0.002333,-89.069794,0.004936,
1740,1940,-0.290739,-0.395243,0.999997,0.000197,-0.001467,0.004545,0.001188,0.004771,-0.001693,79.218680,0.004837,
1630,300,-0.512867,-8.916583,0.999997,0.000191,-0.001824,0.004648,-0.000219,0.004655,-0.001831,-88.065088,0.004691,
1220,440,0.013576,-8.677194,0.999998,0.000160,-0.001236,0.003520,-0.000086,0.003522,-0.001237,-88.961997,0.003573,
560,410,1.300504,-7.953781,0.999976,0.000000,-0.000791,0.004313,0.000058,0.004313,-0.000792,89.351356,0.004592,
790,1830,0.461985,-0.855287,0.999997,0.000199,-0.001927,0.004635,-0.000485,0.004670,-0.001963,-85.794973,0.004690,
620,1840,0.803030,-1.043957,0.999998,0.000170,-0.002442,0.005090,-0.000185,0.005094,-0.002447,-88.593420,0.005096,
1640,1110,-1.539349,-4.610232,0.999997,0.000233,-0.002228,0.005296,0.000520,0.005332,-0.002264,86.061947,0.005352,
1510,1000,-1.347896,-5.209088,0.999997,0.000225,-0.001956,0.006332,-0.000263,0.006340,-0.001965,-88.187283,0.006491,
1750,660,-1.310840,-6.912129,0.999998,0.000165,-0.002728,0.005252,-0.000175,0.005256,-0.002732,-88.747343,0.005258,
1250,1850,-0.012455,-0.585347,0.999998,0.000169,-0.000631,0.003359,-0.000012,0.003359,-0.000631,-89.822879,0.003571,
1490,460,-0.397968,-8.361420,0.999998,0.000178,-0.001980,0.004463,0.000426,0.004491,-0.002008,86.232394,0.004500,
1580,1910,-0.193309,-0.452830,0.999998,0.000192,-0.001011,0.003925,0.000582,0.003993,-0.001079,83.367091,0.004131,
1390,1580,-0.219088,-1.639468,0.999998,0.000177,-0.001707,0.004020,-0.000552,0.004073,-0.001760,-84.547840,0.004085,
1060,230,0.125414,-9.377488,0.999998,0.000176,-0.000885,0.003641,0.000084,0.003643,-0.000886,88.935131,0.003799,
1260,40,-0.002645,-10.019181,0.999999,0.000149,-0.000090,0.002952,0.000008,0.002952,-0.000090,89.851207,0.003358,
950,1400,0.595791,-2.715148,0.999997,0.000198,-0.003060,0.005394,0.000709,0.005453,-0.003119,85.241265,0.005472,
1870,1190,-1.961686,-4.331030,0.999997,0.000194,-0.002218,0.004530,0.000166,0.004534,-0.002222,88.591368,0.004534,
830,1410,0.951218,-2.910926,0.999998,0.000185,-0.003012,0.005494,0.000103,0.005495,-0.003013,89.304653,0.005503,
730,420,0.914255,-8.183526,0.999999,0.000184,-0.002448,0.005056,-0.000099,0.005058,-0.002449,-89.242700,0.005058,
1710,980,-1.726794,-5.275184,0.999997,0.000196,-0.002129,0.004942,-0.000223,0.004949,-0.002136,-88.198190,0.004964,
1370,1140,-0.742822,-3.454437,0.999997,0.000000,-0.001498,0.005111,-0.003586,0.006683,-0.003070,-66.330724,0.006690,
1690,590,-1.033418,-7.373860,0.999998,0.000166,-0.002782,0.005296,0.000079,0.005297,-0.002782,89.442213,0.005299,
1490,1950,-0.082870,-0.282723,0.999998,0.000194,-0.000505,0.003477,0.000401,0.003517,-0.000545,84.313127,0.003785,
1170,640,0.074903,-7.984694,0.999999,0.000132,-0.001376,0.002990,-0.000807,0.003135,-0.001520,-79.851117,0.003135,
1050,890,0.734554,-6.335495,0.999997,0.000229,-0.003467,0.006691,-0.001509,0.006910,-0.003687,-81.727249,0.006915,
1540,490,-0.528543,-8.142994,0.999998,0.000170,-0.002337,0.004744,0.000439,0.004771,-0.002364,86.462482,0.004771,
1420,1810,-0.153633,-0.768184,0.999998,0.000161,-0.001058,0.003743,0.000067,0.003744,-0.001059,89.194758,0.003860,
1360,420,-0.160616,-8.689249,0.999998,0.000183,-0.001348,0.003746,0.000282,0.003761,-0.001363,86.837415,0.003809,
1100,430,0.165388,-8.647853,0.999998,0.000166,-0.001386,0.003808,-0.000304,0.003826,-0.001404,-86.660658,0.003871,
1780,1340,-1.488622,-3.494618,0.999996,0.000224,-0.002647,0.005163,0.000304,0.005175,-0.002659,87.774822,0.005176,
1540,420,-0.468908,-8.477132,0.999997,0.000204,-0.002069,0.004598,0.000278,0.004609,-0.002081,87.612400,0.004617,
1450,1300,-0.501006,-3.084807,0.999996,0.000206,-0.003622,0.005835,-0.001174,0.005979,-0.003765,-83.028675,0.006046,
1150,1270,0.119158,-2.547061,0.999997,0.000197,-0.002054,0.002652,0.002029,0.003406,-0.002808,69.610879,0.003637,
1450,1470,-0.371722,-2.210406,0.999997,0.000204,-0.002422,0.004625,-0.000888,0.004735,-0.002532,-82.928929,0.004739,
600,1610,1.273920,-2.233067,0.999998,0.000155,-0.002482,0.005028,0.000052,0.005029,-0.002482,89.604523,0.005029,
1010,1660,0.290856,-1.385146,0.999997,0.000201,-0.001570,0.004155,0.000230,0.004164,-0.001580,87.702078,0.004205,
1070,910,0.758516,-6.383463,0.999996,0.000228,-0.002502,0.006089,-0.003000,0.007033,-0.003446,-72.535825,0.007034,
560,290,1.108135,-8.541797,0.999992,0.000000,-0.002151,0.004894,-0.000044,0.004894,-0.002151,-89.644084,0.004906,
810,1800,0.480425,-0.975194,0.999997,0.000191,-0.001857,0.004646,-0.000366,0.004667,-0.001878,-86.787110,0.004696,
1010,610,0.391771,-7.741654,0.999997,0.000209,-0.002587,0.004770,-0.000980,0.004899,-0.002715,-82.542182,0.004908,
1740,1920,-0.352047,-0.486623,0.999997,0.000201,-0.001648,0.004650,0.001045,0.004819,-0.001817,80.820020,0.004868,
1700,1320,-1.303129,-3.505124,0.999997,0.000217,-0.002889,0.005447,0.000357,0.005463,-0.002904,87.554447,0.005466,
790,1810,0.504257,-0.951218,0.999997,0.000192,-0.002004,0.004721,-0.000408,0.004746,-0.002029,-86.542466,0.004762,
1580,920,-1.354121,-5.639720,0.999997,0.000194,-0.002504,0.005780,-0.000705,0.005840,-0.002563,-85.170795,0.005854,
1540,790,-0.903814,-6.500983,0.999997,0.000212,-0.003590,0.006300,0.000001,0.006300,-0.003590,89.993386,0.006320,
1030,1420,0.352042,-2.403176,0.999996,0.000246,-0.002624,0.004653,0.001146,0.004829,-0.002800,81.257473,0.004850,
1640,1090,-1.563203,-4.716131,0.999996,0.000228,-0.002122,0.005255,0.000479,0.005286,-0.002153,86.303863,0.005317,
1850,480,-1.291935,-7.688658,0.999998,0.000187,-0.002531,0.005088,0.000045,0.005088,-0.002531,89.661106,0.005088,
1290,1940,-0.017193,-0.292511,0.999998,0.000162,-0.000265,0.003214,0.000090,0.003216,-0.000268,88.519243,0.003569,
670,1270,1.646077,-3.869780,0.999998,0.000187,-0.002545,0.005041,-0.000426,0.005064,-0.002569,-86.792708,0.005065,
620,1820,0.854036,-1.143086,0.999998,0.000174,-0.002414,0.004989,-0.000126,0.004991,-0.002416,-89.029025,0.004992,
580,1140,2.047838,-4.562563,0.999998,0.000141,-0.001996,0.004412,-0.000127,0.004414,-0.001999,-88.867228,0.004421,
1040,230,0.144071,-9.366148,0.999998,0.000180,-0.000975,0.003733,0.000091,0.003735,-0.000977,88.899187,0.003874,
1390,1560,-0.224165,-1.722295,0.999998,0.000160,-0.001735,0.004044,-0.000594,0.004105,-0.001795,-84.192769,0.004116,
1670,1880,-0.356322,-0.623611,0.999997,0.000193,-0.001596,0.004452,0.000706,0.004533,-0.001677,83.430290,0.004584,
1740,1810,-0.635262,-1.022849,0.999997,0.000200,-0.002149,0.004970,0.000378,0.004990,-0.002169,86.968960,0.005005,
800,130,0.244776,-9.654147,0.999998,0.000172,-0.001201,0.004190,0.000852,0.004322,-0.001332,81.234571,0.004426,
830,1390,0.981604,-3.021352,0.999998,0.000194,-0.003056,0.005483,0.000053,0.005483,-0.003056,89.646905,0.005495,
1860,1190,-1.939684,-4.320078,0.999998,0.000158,-0.002232,0.004602,0.000221,0.004609,-0.002239,88.152888,0.004610,
1610,940,-1.466252,-5.506379,0.999997,0.000246,-0.002303,0.005498,-0.000592,0.005543,-0.002348,-85.682071,0.005564,
1210,520,0.026885,-8.396518,0.999999,0.000130,-0.001275,0.003346,-0.000191,0.003354,-0.001283,-87.642672,0.003384,
1690,790,-1.381714,-6.282780,0.999997,0.000212,-0.002835,0.005535,-0.000509,0.005566,-0.002866,-86.533284,0.005566,
1400,990,-0.994791,-5.576705,0.999991,0.000000,-0.004751,0.013175,0.002642,0.013557,-0.005132,81.788935,0.013689,
1780,1320,-1.525033,-3.598639,0.999996,0.000216,-0.002623,0.005163,0.000333,0.005178,-0.002637,87.555069,0.005178,
1130,100,0.025658,-9.832679,0.999999,0.000148,-0.000319,0.003189,0.000112,0.003192,-0.000323,88.175677,0.003514,
1800,1170,-1.831672,-4.367501,0.999998,0.000195,-0.002314,0.004810,0.000389,0.004831,-0.002335,86.884116,0.004832,
1850,1340,-1.667318,-3.586923,0.999997,0.000187,-0.002503,0.004998,0.000168,0.005002,-0.002507,88.718096,0.005002,
640,650,1.486620,-6.863036,0.999997,0.000196,-0.002556,0.005119,0.000116,0.005120,-0.002558,89.133950,0.005120,
1490,1930,-0.099767,-0.353818,0.999998,0.000175,-0.000599,0.003564,0.000386,0.003599,-0.000635,84.743532,0.003842,
640,1610,1.173975,-2.168547,0.999998,0.000162,-0.002549,0.005074,0.000081,0.005075,-0.002550,89.393082,0.005075,
1050,910,0.815586,-6.187321,0.999996,0.000241,-0.003254,0.006895,-0.001813,0.007209,-0.003568,-80.170999,0.007209,
1400,1810,-0.131898,-0.757362,0.999998,0.000151,-0.000914,0.003661,0.000079,0.003662,-0.000915,89.011364,0.003812,
1420,980,-1.071391,-5.559607,0.999993,0.000326,-0.004147,0.010111,0.001876,0.010353,-0.004390,82.628220,0.010393,
1770,120,-0.362842,-9.629821,0.999998,0.000171,-0.001765,0.004844,-0.001198,0.005054,-0.001976,-80.036977,0.005094,
1540,400,-0.450807,-8.566276,0.999997,0.000212,-0.001952,0.004542,0.000195,0.004548,-0.001958,88.284592,0.004563,
1010,590,0.380173,-7.838853,0.999998,0.000193,-0.002474,0.004656,-0.000919,0.004773,-0.002590,-82.772309,0.004778,
1450,1450,-0.380913,-2.307083,0.999997,0.000212,-0.002551,0.004730,-0.000982,0.004860,-0.002681,-82.450277,0.004868,
1740,1900,-0.411068,-0.580550,0.999997,0.000194,-0.001777,0.004808,0.000894,0.004927,-0.001897,82.402264,0.004970,
1200,1360,0.032903,-2.200293,0.999999,0.000141,-0.001106,0.002329,0.000611,0.002435,-0.001212,80.206562,0.002435,
1650,1980,-0.114244,-0.199860,0.999998,0.000171,-0.000525,0.003804,0.000974,0.004013,-0.000734,77.890655,0.004273,
560,270,1.073051,-8.635693,0.999995,0.000000,-0.002207,0.004718,-0.000072,0.004719,-0.002208,-89.405795,0.004722,
1520,790,-0.829912,-6.550861,0.999997,0.000191,-0.003687,0.006369,0.000185,0.006372,-0.003691,88.944735,0.006399,
670,1250,1.683810,-3.968899,0.999998,0.000183,-0.002488,0.005030,-0.000466,0.005059,-0.002516,-86.469771,0.005059,
1700,1300,-1.342611,-3.616097,0.999997,0.000208,-0.002866,0.005454,0.000416,0.005474,-0.002887,87.144336,0.005477,
790,1790,0.538582,-1.043917,0.999997,0.000185,-0.002065,0.004728,-0.000288,0.004741,-0.002077,-87.572737,0.004753,
1250,1870,-0.010603,-0.518036,0.999998,0.000173,-0.000567,0.003293,-0.000002,0.003293,-0.000567,-89.975573,0.003521,
620,1800,0.897887,-1.244429,0.999998,0.000168,-0.002410,0.005058,-0.000093,0.005059,-0.002411,-89.285799,0.005061,
1620,1090,-1.522223,-4.711036,0.999997,0.000216,-0.002100,0.005346,0.000505,0.005380,-0.002134,86.138711,0.005418,
800,110,0.201996,-9.738773,0.999998,0.000195,-0.001003,0.004123,0.000948,0.004292,-0.001173,79.855194,0.004437,
910,1940,0.126652,-0.330845,0.999998,0.000159,-0.000538,0.003715,-0.000632,0.003807,-0.000630,-81.720239,0.004081,
1560,330,-0.418237,-8.859911,0.999998,0.000189,-0.001794,0.004480,-0.000022,0.004480,-0.001794,-89.795305,0.004510,
650,1360,1.539117,-3.435075,0.999997,0.000217,-0.002590,0.005111,-0.000228,0.005118,-0.002597,-88.304197,0.005118,
1570,1890,-0.213194,-0.528643,0.999998,0.000187,-0.001014,0.003962,0.000538,0.004019,-0.001071,83.900768,0.004163,
870,1850,0.306409,-0.708549,0.999997,0.000205,-0.001420,0.004244,-0.000472,0.004283,-0.001459,-85.269116,0.004354,
1650,1260,-1.276207,-3.782629,0.999997,0.000229,-0.003006,0.005696,0.000493,0.005724,-0.003034,86.768334,0.005727,
920,1500,0.588991,-2.260538,0.999997,0.000212,-0.002644,0.005076,0.000532,0.005113,-0.002681,86.079928,0.005115,
1570,900,-1.280951,-5.765982,0.999997,0.000193,-0.002744,0.005984,-0.000731,0.006044,-0.002805,-85.245524,0.006050,
1200,1790,0.026167,-0.791078,0.999998,0.000178,-0.000818,0.003504,0.000013,0.003504,-0.000818,89.825894,0.003667,
830,1370,1.012619,-3.129582,0.999997,0.000205,-0.003091,0.005596,0.000000,0.005596,-0.003091,-89.998425,0.005607,
1750,500,-1.066448,-7.747695,0.999998,0.000170,-0.002556,0.005155,0.000104,0.005156,-0.002558,89.227098,0.005156,
1780,910,-1.814879,-5.600561,0.999998,0.000138,-0.002272,0.004813,-0.000356,0.004831,-0.002290,-87.128657,0.004833,
1870,1790,-0.986220,-1.349856,0.999998,0.000189,-0.002431,0.004954,0.000042,0.004954,-0.002431,89.677629,0.004954,
1100,260,0.109023,-9.280160,0.999998,0.000158,-0.000879,0.003613,0.000023,0.003613,-0.000879,89.705793,0.003768,
1680,2010,-0.066090,-0.096006,0.999998,0.000179,-0.000463,0.003595,0.001000,0.003829,-0.000696,76.881052,0.004079,
1390,1460,-0.240433,-2.120910,0.999998,0.000174,-0.002053,0.004118,-0.001019,0.004282,-0.002217,-80.864188,0.004283,
1110,100,0.029854,-9.830890,0.999999,0.000142,-0.000261,0.003201,0.000165,0.003209,-0.000269,87.271059,0.003560,
1140,610,0.121218,-8.034165,0.999998,0.000179,-0.001530,0.003428,-0.000832,0.003564,-0.001666,-80.722121,0.003567,
1670,1890,-0.334529,-0.580917,0.999998,0.000185,-0.001518,0.004405,0.000753,0.004499,-0.001612,82.864128,0.004559,
1870,770,-1.812578,-6.194119,0.999998,0.000167,-0.002393,0.004879,-0.000156,0.004882,-0.002396,-88.770432,0.004882,
1650,1000,-1.610979,-5.180144,0.999998,0.000166,-0.002008,0.005091,-0.000200,0.005096,-0.002014,-88.386571,0.005133,
1080,1810,0.117715,-0.751921,0.999998,0.000164,-0.000825,0.003599,-0.000097,0.003601,-0.000827,-88.743290,0.003772,
1780,1300,-1.560767,-3.703135,0.999997,0.000198,-0.002603,0.005177,0.000369,0.005194,-0.002621,87.291558,0.005194,
1050,1550,0.265840,-1.794184,0.999998,0.000166,-0.001819,0.004119,0.000581,0.004175,-0.001875,84.466179,0.004182,
1200,1340,0.030812,-2.241861,0.999998,0.000146,-0.001090,0.002130,0.000689,0.002272,-0.001232,78.411181,0.002275,
1540,380,-0.435687,-8.656646,0.999997,0.000193,-0.001829,0.004476,0.000115,0.004478,-0.001832,88.959677,0.004502,
1010,570,0.373390,-7.932624,0.999998,0.000196,-0.002331,0.004541,-0.000840,0.004642,-0.002432,-83.132235,0.004644,
1400,980,-0.988478,-5.704804,0.999991,0.000000,-0.004348,0.012177,0.003115,0.012744,-0.004915,79.671164,0.012855,
1490,1910,-0.122086,-0.423957,0.999998,0.000143,-0.000707,0.003618,0.000382,0.003652,-0.000741,84.987712,0.003861,
1740,1370,-1.326012,-3.286551,0.999998,0.000197,-0.002789,0.005321,0.000223,0.005327,-0.002796,88.425706,0.005329,
1450,690,-0.431302,-7.353366,0.999997,0.000230,-0.003088,0.005219,0.001202,0.005389,-0.003259,81.932028,0.005428,
670,40,0.090462,-9.990966,0.999998,0.000163,-0.000158,0.004233,0.001886,0.004932,-0.000858,69.665741,0.005270,
660,1890,0.568800,-0.709925,0.999998,0.000186,-0.002014,0.005174,-0.000925,0.005291,-0.002131,-82.787499,0.005324,
1090,890,0.618417,-6.704532,0.999996,0.000223,-0.001995,0.004378,-0.002643,0.005332,-0.002948,-70.160924,0.005342,
1740,1880,-0.464442,-0.678647,0.999998,0.000179,-0.001915,0.004820,0.000770,0.004907,-0.002002,83.558234,0.004935,
1720,350,-0.777777,-8.560328,0.999998,0.000155,-0.002332,0.004996,-0.000066,0.004996,-0.002333,-89.485395,0.005000,
620,1610,1.224246,-2.199849,0.999997,0.000171,-0.002504,0.005051,0.000079,0.005052,-0.002505,89.403181,0.005052,
670,1230,1.720270,-4.070298,0.999997,0.000193,-0.002431,0.004944,-0.000434,0.004969,-0.002456,-86.642188,0.004969,
890,1940,0.140485,-0.335351,0.999998,0.000171,-0.000733,0.003757,-0.000639,0.003846,-0.000822,-82.049898,0.004050,
830,1350,1.047892,-3.244194,0.999998,0.000209,-0.003121,0.005713,-0.000078,0.005713,-0.003121,-89.492936,0.005722,
1770,100,-0.293223,-9.728068,0.999998,0.000170,-0.001538,0.004555,-0.001280,0.004813,-0.001796,-78.609173,0.004864,
780,1250,1.392224,-3.874404,0.999997,0.000213,-0.002860,0.005477,-0.000539,0.005512,-0.002895,-86.316867,0.005514,
1700,1280,-1.380876,-3.722660,0.999997,0.000195,-0.002834,0.005488,0.000455,0.005512,-0.002858,86.878765,0.005514,
560,260,1.052897,-8.682286,0.999997,0.000000,-0.002274,0.004736,-0.000044,0.004737,-0.002274,-89.641008,0.004738,
1560,310,-0.395585,-8.947492,0.999998,0.000191,-0.001655,0.004373,-0.000079,0.004374,-0.001656,-89.245566,0.004417,
620,1780,0.941950,-1.346743,0.999998,0.000172,-0.002418,0.005011,-0.000049,0.005011,-0.002419,-89.619129,0.005012,
1310,50,-0.006962,-9.987947,0.999999,0.000132,-0.000089,0.002993,-0.000088,0.002996,-0.000091,-88.374452,0.003408,
790,1770,0.573414,-1.140175,0.999997,0.000185,-0.002135,0.004813,-0.000216,0.004820,-0.002141,-88.224922,0.004830,
650,1340,1.574466,-3.536204,0.999997,0.000214,-0.002571,0.005096,-0.000233,0.005103,-0.002578,-88.259114,0.005103,
1490,380,-0.343499,-8.715948,0.999998,0.000175,-0.001799,0.004305,0.000222,0.004314,-0.001807,87.922414,0.004332,
1650,1280,-1.233726,-3.669617,0.999997,0.000195,-0.003052,0.005693,0.000410,0.005713,-0.003072,87.318932,0.005718,
1260,360,-0.031180,-8.954799,0.999999,0.000138,-0.001056,0.003520,0.000104,0.003522,-0.001058,88.704054,0.003615,
730,500,1.023580,-7.776215,0.999999,0.000137,-0.002559,0.005151,-0.000123,0.005153,-0.002561,-89.085471,0.005153,
1500,1870,-0.174067,-0.576645,0.999997,0.000204,-0.001016,0.003791,0.000327,0.003813,-0.001038,86.125916,0.003943,
1570,1850,-0.271709,-0.690806,0.999998,0.000172,-0.001255,0.004137,0.000438,0.004173,-0.001291,85.381771,0.004272,
1200,1320,0.031229,-2.281669,0.999998,0.000148,-0.001099,0.001877,0.000760,0.002060,-0.001282,76.468984,0.002081,
760,1950,0.224013,-0.334214,0.999997,0.000182,-0.000869,0.004256,-0.001187,0.004518,-0.001131,-77.573007,0.004702,
1550,900,-1.224774,-5.788612,0.999997,0.000210,-0.002868,0.006160,-0.000738,0.006220,-0.002928,-85.355038,0.006223,
1060,1810,0.134959,-0.759782,0.999998,0.000166,-0.000957,0.003654,-0.000074,0.003656,-0.000958,-89.078766,0.003791,
1050,1530,0.271454,-1.875002,0.999998,0.000185,-0.001921,0.004158,0.000680,0.004233,-0.001996,83.692135,0.004236,
1540,360,-0.415093,-8.743985,0.999998,0.000177,-0.001700,0.004412,0.000025,0.004412,-0.001700,89.766342,0.004451,
1360,440,-0.164400,-8.611994,0.999998,0.000182,-0.001410,0.003804,0.000335,0.003825,-0.001431,86.343436,0.003865,
1400,970,-0.970028,-5.818854,0.999993,0.000000,-0.003780,0.011109,0.003478,0.011881,-0.004553,77.478048,0.011989,
1010,550,0.364732,-8.020037,0.999998,0.000189,-0.002209,0.004483,-0.000742,0.004564,-0.002290,-83.746041,0.004564,
1000,1110,1.113110,-4.416308,0.999998,0.000168,-0.002917,0.007383,-0.000017,0.007383,-0.002917,-89.905358,0.007437,
1740,1860,-0.519323,-0.775884,0.999997,0.000188,-0.001996,0.004859,0.000654,0.004921,-0.002058,84.598468,0.004942,
1890,1350,-1.748640,-3.597331,0.999997,0.000185,-0.002442,0.004963,0.000081,0.004963,-0.002443,89.369914,0.004964,
1450,1430,-0.391502,-2.403638,0.999997,0.000199,-0.002659,0.004750,-0.001039,0.004893,-0.002802,-82.166007,0.004910,
1670,1870,-0.377550,-0.667998,0.999997,0.000199,-0.001675,0.004548,0.000656,0.004617,-0.001743,84.051315,0.004663,
1140,590,0.121880,-8.102614,0.999999,0.000152,-0.001518,0.003457,-0.000717,0.003558,-0.001619,-81.964955,0.003563,
1670,1000,-1.651595,-5.180299,0.999998,0.000184,-0.002069,0.005043,-0.000182,0.005048,-0.002073,-88.534963,0.005074,
1870,650,-1.606548,-6.792316,0.999997,0.000228,-0.002532,0.005066,-0.000067,0.005066,-0.002533,-89.496515,0.005066,
1030,1940,0.068076,-0.309548,0.999998,0.000161,-0.000459,0.003381,-0.000305,0.003405,-0.000483,-85.491602,0.003684,
1880,150,-0.701732,-9.280355,0.999997,0.000199,-0.002439,0.005154,-0.000487,0.005185,-0.002470,-86.342623,0.005187,
1700,1260,-1.420556,-3.834984,0.999997,0.000189,-0.002785,0.005425,0.000499,0.005455,-0.002815,86.533879,0.005456,
830,1330,1.082765,-3.358905,0.999998,0.000216,-0.003122,0.005730,-0.000169,0.005733,-0.003125,-88.907575,0.005741,
1080,900,0.689901,-6.551951,0.999996,0.000239,-0.002197,0.005256,-0.002912,0.006258,-0.003199,-70.996905,0.006259,
660,1870,0.630706,-0.814076,0.999997,0.000212,-0.002112,0.005113,-0.000740,0.005188,-0.002187,-84.213928,0.005209,
640,1590,1.202259,-2.270825,0.999997,0.000195,-0.002523,0.005095,0.000079,0.005096,-0.002524,89.408483,0.005096,
870,1870,0.270963,-0.621074,0.999997,0.000198,-0.001332,0.004149,-0.000518,0.004197,-0.001380,-84.648634,0.004279,
620,2010,0.165154,-0.153512,0.999997,0.000203,-0.002002,0.004720,-0.001533,0.005053,-0.002335,-77.738598,0.005058,
560,250,1.030657,-8.732173,0.999998,0.000000,-0.002367,0.004839,-0.000033,0.004840,-0.002367,-89.735162,0.004840,
910,880,1.180897,-5.908925,0.999998,0.000167,-0.003079,0.006184,0.000642,0.006229,-0.003123,86.052463,0.006229,
670,1210,1.751710,-4.167000,0.999997,0.000190,-0.002406,0.004880,-0.000423,0.004905,-0.002430,-86.686673,0.004905,
960,1280,0.733114,-3.386347,0.999997,0.000198,-0.003712,0.006292,0.000428,0.006310,-0.003730,87.554733,0.006345,
1780,1280,-1.597215,-3.805421,0.999997,0.000199,-0.002574,0.005097,0.000401,0.005118,-0.002595,87.015236,0.005119,
620,1760,0.979562,-1.445612,0.999998,0.000172,-0.002423,0.005012,-0.000009,0.005012,-0.002423,-89.930377,0.005013,
1400,1800,-0.138199,-0.792808,0.999998,0.000152,-0.000961,0.003700,0.000048,0.003700,-0.000961,89.404787,0.003840,
1150,1250,0.140916,-2.600733,0.999997,0.000194,-0.002194,0.002533,0.001965,0.003243,-0.002904,70.125828,0.003565,
790,1750,0.605766,-1.236292,0.999998,0.000176,-0.002189,0.004790,-0.000133,0.004793,-0.002191,-88.904654,0.004799,
810,1160,1.486636,-4.344887,0.999997,0.000195,-0.002514,0.005423,-0.000649,0.005476,-0.002567,-85.354106,0.005479,
950,1480,0.525348,-2.300189,0.999997,0.000177,-0.002657,0.004986,0.000654,0.005042,-0.002712,85.145261,0.005047,
980,1770,0.252532,-0.959798,0.999998,0.000182,-0.001328,0.004038,-0.000095,0.004040,-0.001330,-88.984739,0.004117,
1300,720,-0.077721,-7.751770,0.999998,0.000167,-0.001467,0.002620,0.001357,0.003030,-0.001876,73.205691,0.003059,
1670,240,-0.487010,-9.156731,0.999998,0.000176,-0.001939,0.004700,-0.000410,0.004725,-0.001964,-86.482188,0.004748,
1670,1260,-1.334416,-3.805010,0.999997,0.000212,-0.002908,0.005579,0.000509,0.005609,-0.002939,86.579319,0.005611,
680,1790,0.777393,-1.191587,0.999997,0.000193,-0.002347,0.005035,-0.000249,0.005043,-0.002355,-88.073960,0.005047,
670,50,0.130066,-9.948999,0.999998,0.000186,-0.000350,0.004353,0.001893,0.005021,-0.001018,70.582384,0.005308,
1280,630,-0.056860,-8.033906,0.999998,0.000177,-0.001320,0.002956,0.000592,0.003037,-0.001400,82.267454,0.003040,
710,1040,1.833318,-4.978930,0.999998,0.000171,-0.002159,0.004818,-0.000124,0.004820,-0.002162,-88.985193,0.004828,
1590,1560,-0.652833,-2.044611,0.999998,0.000178,-0.002474,0.004981,-0.000334,0.004996,-0.002489,-87.439799,0.004996,
680,1230,1.695496,-4.063073,0.999997,0.000194,-0.002477,0.004993,-0.000458,0.005021,-0.002505,-86.501260,0.005021,
830,1310,1.122115,-3.474105,0.999998,0.000193,-0.003134,0.005755,-0.000251,0.005762,-0.003141,-88.386947,0.005770,
1450,1390,-0.412924,-2.596416,0.999996,0.000223,-0.002936,0.005049,-0.001178,0.005220,-0.003106,-81.777703,0.005251,
1060,670,0.286282,-7.604619,0.999998,0.000151,-0.002568,0.004493,-0.001402,0.004762,-0.002837,-79.173659,0.004791,
1540,340,-0.394924,-8.833428,0.999998,0.000165,-0.001632,0.004463,-0.000037,0.004463,-0.001632,-89.652897,0.004516,
880,270,0.385304,-9.100998,0.999998,0.000161,-0.001746,0.004376,0.000197,0.004382,-0.001752,88.163237,0.004411,
1430,700,-0.376530,-7.369614,0.999997,0.000229,-0.003028,0.005071,0.001387,0.005302,-0.003259,80.546032,0.005348,
1050,1510,0.276647,-1.958812,0.999998,0.000184,-0.002035,0.004218,0.000792,0.004317,-0.002134,82.892573,0.004317,
1860,650,-1.580873,-6.807621,0.999997,0.000210,-0.002537,0.005074,-0.000081,0.005075,-0.002538,-89.388626,0.005075,
1490,360,-0.326015,-8.801840,0.999998,0.000167,-0.001707,0.004224,0.000195,0.004230,-0.001714,88.121295,0.004256,
800,450,0.779057,-8.145794,0.999999,0.000140,-0.002452,0.005049,-0.000150,0.005052,-0.002455,-88.856654,0.005052,
730,480,0.996005,-7.878388,0.999999,0.000138,-0.002554,0.005103,-0.000125,0.005105,-0.002556,-89.066488,0.005105,
1490,1890,-0.143948,-0.498212,0.999998,0.000154,-0.000823,0.003675,0.000338,0.003701,-0.000848,85.720651,0.003877,
1480,1870,-0.155435,-0.569400,0.999998,0.000149,-0.000832,0.003718,0.000304,0.003738,-0.000853,86.195013,0.003918,
980,2000,0.029902,-0.112959,0.999998,0.000135,-0.000211,0.003198,-0.000404,0.003245,-0.000258,-83.338076,0.003607,
560,240,1.008301,-8.780146,0.999998,0.000000,-0.002433,0.004930,-0.000013,0.004930,-0.002433,-89.901304,0.004930,
1190,40,0.003460,-10.018603,0.999999,0.000110,-0.000025,0.003004,0.000021,0.003004,-0.000025,89.594733,0.003455,
1260,340,-0.030305,-9.025572,0.999999,0.000140,-0.000989,0.003534,0.000079,0.003535,-0.000991,88.996599,0.003647,
1200,1300,0.032052,-2.315671,0.999998,0.000174,-0.001140,0.001637,0.000845,0.001874,-0.001377,74.336260,0.001942,
620,2000,0.208944,-0.197696,0.999998,0.000163,-0.002110,0.004951,-0.001450,0.005237,-0.002396,-78.837977,0.005243,
1670,1850,-0.419689,-0.762920,0.999997,0.000208,-0.001772,0.004585,0.000558,0.004633,-0.001820,85.016928,0.004669,
1690,2000,-0.091887,-0.134215,0.999998,0.000161,-0.000436,0.003716,0.001093,0.003987,-0.000706,76.113437,0.004255,
970,1940,0.093462,-0.318757,0.999999,0.000132,-0.000561,0.003538,-0.000437,0.003584,-0.000607,-83.983039,0.003836,
1360,1180,-0.507692,-3.184431,0.999996,0.000258,-0.001932,0.003573,-0.002281,0.004395,-0.002755,-70.173762,0.004442,
750,1650,0.843669,-1.789072,0.999998,0.000187,-0.002419,0.005092,0.000077,0.005093,-0.002419,89.409231,0.005095,
1620,840,-1.284015,-6.068823,0.999997,0.000205,-0.002967,0.005773,-0.000610,0.005815,-0.003010,-86.029068,0.005816,
710,1650,0.940379,-1.851282,0.999998,0.000157,-0.002447,0.005070,0.000073,0.005071,-0.002448,89.441204,0.005072,
920,1480,0.607725,-2.362378,0.999997,0.000221,-0.002707,0.005128,0.000524,0.005163,-0.002742,86.189911,0.005166,
1660,850,-1.418108,-5.977887,0.999997,0.000210,-0.002752,0.005542,-0.000647,0.005592,-0.002802,-85.567813,0.005592,
640,1570,1.231433,-2.373106,0.999997,0.000209,-0.002521,0.005098,0.000084,0.005099,-0.002522,89.365782,0.005099,
1010,530,0.358164,-8.110418,0.999998,0.000190,-0.002127,0.004461,-0.000692,0.004533,-0.002199,-84.065131,0.004534,
1190,360,0.044556,-8.952832,0.999999,0.000128,-0.001020,0.003536,-0.000072,0.003537,-0.001021,-89.094688,0.003641,
970,90,0.066819,-9.848206,0.999998,0.000178,-0.000469,0.003410,0.000419,0.003455,-0.000514,83.907436,0.003728,
1780,1260,-1.635308,-3.906972,0.999997,0.000207,-0.002545,0.005056,0.000427,0.005080,-0.002569,86.798575,0.005080,
670,1190,1.783013,-4.266034,0.999997,0.000208,-0.002395,0.004901,-0.000459,0.004930,-0.002424,-86.416742,0.004930,
870,1890,0.242264,-0.542273,0.999997,0.000204,-0.001197,0.004085,-0.000587,0.004150,-0.001261,-83.735791,0.004255,
790,1730,0.636255,-1.332714,0.999997,0.000187,-0.002217,0.004891,-0.000065,0.004892,-0.002217,-89.477995,0.004899,
580,650,1.637923,-6.771271,0.999997,0.000196,-0.003400,0.005479,0.000231,0.005485,-0.003406,88.508290,0.005538,
620,1740,1.017321,-1.547306,0.999998,0.000177,-0.002388,0.005024,0.000020,0.005024,-0.002388,89.844210,0.005026,
670,60,0.167009,-9.905969,0.999998,0.000201,-0.000515,0.004594,0.001955,0.005256,-0.001177,71.288785,0.005516,
1890,1340,-1.765672,-3.646875,0.999997,0.000198,-0.002453,0.004896,0.000098,0.004897,-0.002454,89.238463,0.004897,
1100,240,0.099823,-9.353736,0.999998,0.000156,-0.000828,0.003576,0.000081,0.003577,-0.000829,88.944977,0.003745,
1400,30,-0.006071,-10.047275,0.999998,0.000000,-0.000048,0.003059,-0.000227,0.003076,-0.000064,-85.850965,0.003515,
1830,650,-1.505334,-6.852606,0.999998,0.000192,-0.002568,0.005122,-0.000106,0.005124,-0.002569,-89.209805,0.005124,
1740,1840,-0.566544,-0.873637,0.999997,0.000191,-0.002076,0.004913,0.000546,0.004955,-0.002119,85.556138,0.004972,
1870,150,-0.677628,-9.304726,0.999997,0.000200,-0.002434,0.005140,-0.000483,0.005171,-0.002465,-86.367339,0.005173,
660,1210,1.775597,-4.176249,0.999997,0.000177,-0.002382,0.004841,-0.000401,0.004863,-0.002404,-86.831216,0.004864,
1700,1240,-1.459572,-3.942922,0.999997,0.000196,-0.002750,0.005381,0.000549,0.005418,-0.002787,86.154297,0.005418,
1280,610,-0.059404,-8.093051,0.999998,0.000180,-0.001334,0.003069,0.000502,0.003125,-0.001391,83.575188,0.003132,
830,1290,1.161995,-3.589073,0.999997,0.000217,-0.003113,0.005786,-0.000319,0.005797,-0.003125,-87.951271,0.005803,
1670,220,-0.447671,-9.249653,0.999997,0.000195,-0.001850,0.004590,-0.000491,0.004627,-0.001887,-85.660943,0.004653,
1430,1600,-0.280079,-1.609713,0.999998,0.000167,-0.001727,0.004145,-0.000419,0.004175,-0.001757,-85.936910,0.004192,
1010,1360,0.444903,-2.762210,0.999998,0.000217,-0.003154,0.005285,0.001174,0.005445,-0.003314,82.226776,0.005488,
1540,320,-0.373676,-8.923040,0.999998,0.000178,-0.001568,0.004360,-0.000049,0.004361,-0.001569,-89.530311,0.004418,
1380,890,-0.634079,-6.631868,0.999996,0.000212,-0.002353,0.004849,0.002589,0.005683,-0.003187,72.140742,0.005697,
1300,700,-0.078226,-7.801498,0.999998,0.000162,-0.001426,0.002750,0.001193,0.003066,-0.001743,75.125146,0.003076,
1500,1790,-0.259348,-0.892278,0.999998,0.000165,-0.001411,0.004010,0.000108,0.004013,-0.001413,88.863079,0.004071,
1570,1310,-0.915387,-3.367350,0.999997,0.000190,-0.003387,0.005968,-0.000031,0.005968,-0.003387,-89.807858,0.005986,
1590,1540,-0.673123,-2.144389,0.999997,0.000212,-0.002527,0.005023,-0.000341,0.005039,-0.002543,-87.417715,0.005039,
1050,1490,0.283358,-2.045156,0.999998,0.000179,-0.002118,0.004236,0.000899,0.004361,-0.002243,82.102355,0.004362,
1450,1370,-0.425028,-2.698914,0.999996,0.000217,-0.003062,0.005175,-0.001199,0.005346,-0.003233,-81.886250,0.005385,
1760,950,-1.812855,-5.413096,0.999998,0.000165,-0.002246,0.004893,-0.000344,0.004909,-0.002263,-87.248735,0.004914,
1480,1370,-0.522004,-2.791255,0.999997,0.000191,-0.003193,0.005390,-0.000947,0.005493,-0.003296,-83.777407,0.005529,
1200,1280,0.035494,-2.345601,0.999998,0.000186,-0.001255,0.001451,0.000917,0.001733,-0.001537,72.929591,0.001898,
1360,860,-0.426351,-6.945887,0.999996,0.000253,-0.002508,0.003961,0.002237,0.004659,-0.003206,72.665202,0.004768,
560,230,0.988696,-8.829511,0.999998,0.000000,-0.002473,0.004943,0.000045,0.004943,-0.002473,89.655889,0.004943,
960,1770,0.285548,-0.977515,0.999998,0.000173,-0.001516,0.004124,-0.000073,0.004125,-0.001517,-89.254060,0.004173,
1850,640,-1.538416,-6.872370,0.999996,0.000222,-0.002526,0.005078,-0.000084,0.005079,-0.002527,-89.367988,0.005079,
1370,460,-0.182506,-8.526294,0.999998,0.000148,-0.001540,0.003885,0.000457,0.003923,-0.001578,85.219974,0.003948,
1240,170,-0.004411,-9.612381,0.999998,0.000148,-0.000507,0.003281,0.000011,0.003281,-0.000507,89.833929,0.003532,
950,1460,0.542303,-2.403073,0.999997,0.000216,-0.002776,0.005082,0.000701,0.005144,-0.002838,84.941381,0.005153,
1400,1780,-0.148585,-0.869177,0.999999,0.000151,-0.001045,0.003737,-0.000005,0.003737,-0.001045,-89.944592,0.003856,
1560,290,-0.372659,-9.035375,0.999997,0.000178,-0.001550,0.004368,-0.000164,0.004372,-0.001555,-88.418008,0.004433,
750,1670,0.815210,-1.685610,0.999998,0.000182,-0.002361,0.005026,0.000012,0.005026,-0.002361,89.909707,0.005029,
1730,660,-1.255852,-6.939912,0.999998,0.000166,-0.002788,0.005304,-0.000144,0.005306,-0.002791,-88.982855,0.005309,
1440,1290,-0.480442,-3.102589,0.999997,0.000188,-0.003669,0.005814,-0.001286,0.005986,-0.003841,-82.410339,0.006065,
1620,860,-1.325443,-5.953043,0.999997,0.000215,-0.002873,0.005742,-0.000657,0.005792,-0.002922,-85.663495,0.005792,
950,1940,0.106134,-0.322361,0.999998,0.000180,-0.000602,0.003591,-0.000478,0.003645,-0.000656,-83.582809,0.003886,
1290,850,-0.230558,-7.522801,0.999996,0.000214,-0.002830,0.001468,0.000290,0.001487,-0.002850,86.155654,0.002851,
1590,100,-0.127500,-9.796133,0.999999,0.000145,-0.000718,0.003677,-0.000686,0.003781,-0.000823,-81.335214,0.003977,
1780,1240,-1.670463,-4.007699,0.999998,0.000183,-0.002522,0.005029,0.000446,0.005055,-0.002549,86.631746,0.005055,
970,2000,0.032435,-0.114573,0.999999,0.000131,-0.000249,0.003212,-0.000418,0.003262,-0.000298,-83.217291,0.003607,
1790,740,-1.560642,-6.442799,0.999997,0.000223,-0.002605,0.005119,-0.000314,0.005132,-0.002617,-87.676072,0.005132,
790,1710,0.665008,-1.431907,0.999997,0.000198,-0.002250,0.004889,-0.000018,0.004889,-0.002250,-89.858551,0.004894,
960,1980,0.057502,-0.183024,0.999999,0.000131,-0.000365,0.003379,-0.000467,0.003436,-0.000422,-83.001679,0.003748,
1150,1230,0.185568,-2.647874,0.999997,0.000189,-0.002248,0.002414,0.001767,0.003008,-0.002842,71.415897,0.003381,
1200,40,0.002824,-10.019081,0.999999,0.000113,-0.000043,0.002998,0.000008,0.002998,-0.000043,89.853991,0.003437,
1390,2020,-0.008379,-0.048972,0.999998,0.000000,-0.000055,0.003029,0.000237,0.003047,-0.000073,85.633631,0.003477,
670,1170,1.814897,-4.364588,0.999997,0.000199,-0.002342,0.004851,-0.000417,0.004875,-0.002366,-86.693743,0.004876,
1260,320,-0.027077,-9.096841,0.999998,0.000152,-0.000964,0.003539,0.000054,0.003539,-0.000965,89.317189,0.003659,
620,1720,1.051708,-1.646314,0.999998,0.000186,-0.002379,0.005010,0.000044,0.005010,-0.002380,89.662277,0.005013,
1700,190,-0.437088,-9.361602,0.999997,0.000185,-0.001654,0.004708,-0.000760,0.004797,-0.001743,-83.285070,0.004857,
1690,1980,-0.142420,-0.212888,0.999998,0.000155,-0.000636,0.003915,0.001114,0.004173,-0.000894,76.958657,0.004394,
1220,1250,0.019787,-2.351921,0.999998,0.000165,-0.001729,0.001015,0.000300,0.001047,-0.001761,83.838054,0.001772,
830,1270,1.202883,-3.706077,0.999997,0.000213,-0.003095,0.005799,-0.000406,0.005818,-0.003114,-87.391020,0.005823,
1300,680,-0.079684,-7.857659,0.999998,0.000156,-0.001433,0.002876,0.001048,0.003118,-0.001675,77.031399,0.003121,
1550,680,-0.742756,-7.136651,0.999998,0.000215,-0.003238,0.005672,0.000430,0.005692,-0.003258,87.245980,0.005712,
1010,510,0.349086,-8.196959,0.999997,0.000192,-0.002086,0.004417,-0.000641,0.004480,-0.002149,-84.425561,0.004481,
1480,1250,-0.712340,-3.504721,0.999997,0.000224,-0.003907,0.006475,-0.000548,0.006503,-0.003935,-86.987727,0.006551,
880,380,0.519404,-8.599774,0.999997,0.000217,-0.002106,0.004677,-0.000118,0.004679,-0.002108,-89.000743,0.004686,
1050,1470,0.288351,-2.132600,0.999997,0.000183,-0.002175,0.004281,0.000989,0.004429,-0.002323,81.487505,0.004431,
690,1040,1.876981,-4.980155,0.999999,0.000137,-0.002178,0.004771,-0.000123,0.004773,-0.002180,-88.989570,0.004779,
650,1760,0.908617,-1.391355,0.999998,0.000186,-0.002385,0.005083,-0.000110,0.005085,-0.002387,-89.153821,0.005088,
1360,840,-0.357918,-7.039146,0.999997,0.000218,-0.003018,0.004406,0.002253,0.005036,-0.003648,74.372315,0.005202,
1450,1350,-0.445681,-2.807894,0.999997,0.000210,-0.003203,0.005318,-0.001195,0.005482,-0.003367,-82.162489,0.005530,
1890,950,-2.097072,-5.359314,0.999998,0.000173,-0.002065,0.004180,-0.000030,0.004180,-0.002065,-89.724692,0.004180,
960,1750,0.302855,-1.059117,0.999998,0.000188,-0.001593,0.004155,0.000016,0.004156,-0.001593,89.841373,0.004193,
1400,1760,-0.158108,-0.942559,0.999998,0.000159,-0.001130,0.003751,-0.000024,0.003751,-0.001130,-89.713575,0.003848,
1530,1510,-0.544749,-2.184718,0.999997,0.000202,-0.002542,0.004939,-0.000540,0.004978,-0.002581,-85.892965,0.004979,
560,220,0.966083,-8.881176,0.999998,0.000000,-0.002517,0.004921,0.000122,0.004923,-0.002519,89.059139,0.004924,
1180,650,0.060444,-7.970941,0.999999,0.000151,-0.001324,0.002827,-0.000726,0.002951,-0.001448,-80.357593,0.002951,
1780,1220,-1.704634,-4.106970,0.999998,0.000179,-0.002482,0.004980,0.000442,0.005006,-0.002508,86.623476,0.005006,
930,1480,0.580398,-2.342539,0.999997,0.000206,-0.002713,0.005096,0.000563,0.005136,-0.002753,85.895204,0.005141,
1370,480,-0.186062,-8.448843,0.999998,0.000143,-0.001612,0.003918,0.000535,0.003969,-0.001664,84.528355,0.003986,
1170,360,0.065122,-8.948402,0.999999,0.000129,-0.001051,0.003562,-0.000059,0.003562,-0.001052,-89.270236,0.003661,
1820,570,-1.349907,-7.276148,0.999997,0.000182,-0.002558,0.005133,0.000023,0.005133,-0.002558,89.832242,0.005133,
1030,1120,0.985990,-4.207172,0.999997,0.000213,-0.003216,0.007590,0.001005,0.007682,-0.003308,84.731068,0.007707,
1420,1270,-0.439055,-3.128709,0.999997,0.000215,-0.003705,0.005707,-0.001533,0.005950,-0.003948,-80.979954,0.006055,
1570,100,-0.115499,-9.802079,0.999998,0.000149,-0.000581,0.003618,-0.000641,0.003714,-0.000677,-81.517453,0.003956,
1530,1860,-0.215606,-0.630082,0.999997,0.000191,-0.001002,0.003970,0.000402,0.004002,-0.001035,85.411620,0.004155,
810,1960,0.158961,-0.277757,0.999998,0.000152,-0.000733,0.003903,-0.000922,0.004080,-0.000910,-79.149304,0.004283,
1620,1300,-1.098715,-3.512362,0.999997,0.000217,-0.003187,0.005818,0.000259,0.005826,-0.003194,88.355689,0.005835,
930,1940,0.115740,-0.326758,0.999998,0.000161,-0.000529,0.003671,-0.000556,0.003743,-0.000601,-82.589614,0.004020,
770,1100,1.667893,-4.675642,0.999998,0.000190,-0.002205,0.005097,-0.000450,0.005124,-0.002233,-86.488984,0.005138,
1150,1210,0.249033,-2.694168,0.999996,0.000224,-0.002239,0.002063,0.001153,0.002352,-0.002528,75.906982,0.002823,
1220,170,0.006338,-9.612751,0.999998,0.000163,-0.000524,0.003276,0.000001,0.003276,-0.000524,89.978088,0.003519,
960,1960,0.077419,-0.249859,0.999998,0.000165,-0.000495,0.003432,-0.000439,0.003481,-0.000543,-83.695163,0.003745,
1890,1190,-2.006472,-4.355543,0.999998,0.000138,-0.002238,0.004395,0.000065,0.004396,-0.002239,89.435364,0.004396,
1390,1110,-0.883689,-3.913349,0.999993,0.000000,-0.002746,0.008605,-0.004124,0.009945,-0.004086,-71.999525,0.009997,
670,1150,1.839328,-4.461262,0.999998,0.000146,-0.002294,0.004790,-0.000322,0.004805,-0.002309,-87.400876,0.004806,
790,1690,0.695582,-1.528512,0.999997,0.000196,-0.002303,0.004901,0.000026,0.004901,-0.002303,89.796726,0.004904,
1260,300,-0.026576,-9.166837,0.999998,0.000153,-0.000919,0.003501,0.000050,0.003501,-0.000919,89.356984,0.003630,
590,410,1.246585,-8.004960,0.999998,0.000189,-0.002205,0.004972,-0.000054,0.004973,-0.002205,-89.567820,0.004983,
1370,890,-0.612713,-6.737115,0.999996,0.000229,-0.001874,0.004178,0.002635,0.005165,-0.002861,69.474950,0.005175,
830,1250,1.244618,-3.821324,0.999997,0.000195,-0.003039,0.005772,-0.000518,0.005802,-0.003070,-86.649480,0.005805,
1660,1180,-1.469666,-4.240918,0.999997,0.000230,-0.002610,0.005463,0.000643,0.005514,-0.002661,85.478005,0.005515,
1220,1230,0.029255,-2.371179,0.999998,0.000173,-0.002700,0.001251,0.000156,0.001257,-0.002706,87.740042,0.002708,
620,1700,1.083684,-1.747677,0.999998,0.000177,-0.002424,0.005003,0.000029,0.005003,-0.002424,89.775633,0.005004,
1500,1770,-0.279081,-0.973870,0.999998,0.000163,-0.001501,0.004132,0.000076,0.004133,-0.001502,89.226686,0.004184,
880,360,0.497362,-8.693721,0.999997,0.000200,-0.002079,0.004611,-0.000092,0.004612,-0.002080,-89.209500,0.004620,
710,1630,0.970087,-1.952685,0.999998,0.000147,-0.002448,0.005059,0.000093,0.005060,-0.002449,89.292763,0.005061,
1300,660,-0.083540,-7.912867,0.999998,0.000165,-0.001416,0.002943,0.000951,0.003141,-0.001615,78.207459,0.003142,
1000,1680,0.294352,-1.312790,0.999998,0.000188,-0.001536,0.004194,0.000167,0.004199,-0.001541,88.330746,0.004248,
1200,1260,0.041517,-2.374290,0.999997,0.000200,-0.001521,0.001257,0.000853,0.001498,-0.001762,74.219527,0.001901,
1730,640,-1.221938,-7.047174,0.999997,0.000207,-0.002768,0.005304,-0.000098,0.005306,-0.002769,-89.306845,0.005307,
1360,820,-0.293326,-7.124533,0.999996,0.000235,-0.003128,0.004357,0.002231,0.004972,-0.003742,74.600160,0.005179,
1450,1330,-0.464543,-2.912715,0.999997,0.000194,-0.003360,0.005468,-0.001231,0.005636,-0.003528,-82.210296,0.005696,
750,1690,0.784034,-1.585359,0.999997,0.000199,-0.002301,0.004944,-0.000044,0.004944,-0.002302,-89.651604,0.004948,
870,300,0.443733,-8.957246,0.999998,0.000165,-0.001866,0.004466,0.000103,0.004468,-0.001868,89.068877,0.004488,
1160,650,0.088225,-7.938528,0.999999,0.000150,-0.001411,0.003027,-0.000903,0.003204,-0.001588,-78.932502,0.003204,
1670,320,-0.622191,-8.775661,0.999998,0.000149,-0.002196,0.004871,-0.000087,0.004872,-0.002197,-89.292955,0.004879,
670,80,0.252398,-9.805752,0.999998,0.000187,-0.000914,0.004876,0.001910,0.005449,-0.001487,73.292293,0.005634,
1050,1450,0.292660,-2.218548,0.999997,0.000202,-0.002225,0.004369,0.001053,0.004534,-0.002389,81.142533,0.004536,
1880,950,-2.077266,-5.366189,0.999998,0.000148,-0.002077,0.004258,-0.000064,0.004258,-0.002078,-89.419401,0.004259,
1400,1740,-0.170806,-1.018763,0.999998,0.000154,-0.001213,0.003818,-0.000049,0.003819,-0.001214,-89.438624,0.003903,
1150,1280,0.113626,-2.522844,0.999996,0.000228,-0.001999,0.002681,0.001970,0.003400,-0.002718,69.951790,0.003598,
1430,860,-0.673638,-6.428026,0.999996,0.000235,-0.003733,0.006739,0.001019,0.006837,-0.003832,84.494566,0.006853,
560,210,0.940028,-8.929808,0.999995,0.000000,-0.002622,0.005040,0.000200,0.005045,-0.002627,88.504978,0.005046,
1450,100,-0.060296,-9.820771,0.999998,0.000177,-0.000311,0.003360,-0.000358,0.003395,-0.000345,-84.484079,0.003737,
1540,300,-0.355835,-9.007243,0.999998,0.000180,-0.001498,0.004270,-0.000107,0.004272,-0.001500,-88.937465,0.004335,
1240,1750,-0.008225,-0.927206,0.999998,0.000144,-0.000966,0.003478,-0.000044,0.003478,-0.000966,-89.433327,0.003591,
1700,1220,-1.497196,-4.050120,0.999997,0.000203,-0.002687,0.005373,0.000610,0.005419,-0.002733,85.699837,0.005419,
900,1050,1.447657,-4.914822,0.999997,0.000210,-0.001841,0.005545,-0.000247,0.005553,-0.001849,-88.086978,0.005655,
1780,1200,-1.736134,-4.208417,0.999997,0.000204,-0.002442,0.004967,0.000457,0.004995,-0.002470,86.486080,0.004995,
960,1940,0.100240,-0.320133,0.999998,0.000153,-0.000609,0.003564,-0.000458,0.003613,-0.000659,-83.815483,0.003849,
810,1940,0.200837,-0.358271,0.999998,0.000191,-0.000913,0.004090,-0.000902,0.004248,-0.001070,-80.088140,0.004419,
1620,1280,-1.140967,-3.628467,0.999997,0.000191,-0.003180,0.005861,0.000352,0.005875,-0.003194,87.773414,0.005883,
830,1100,1.536112,-4.660428,0.999997,0.000209,-0.002183,0.005295,-0.000513,0.005330,-0.002218,-86.094491,0.005355,
1680,2000,-0.087297,-0.131491,0.999999,0.000160,-0.000523,0.003690,0.001033,0.003930,-0.000763,76.937657,0.004168,
570,1740,1.135207,-1.644217,0.999988,0.000420,-0.002316,0.004848,0.000037,0.004848,-0.002316,89.705082,0.004850,
1280,850,-0.201265,-7.573294,0.999996,0.000213,-0.003235,0.001541,0.000029,0.001541,-0.003235,89.655792,0.003236,
1740,1410,-1.255993,-3.074135,0.999998,0.000172,-0.002754,0.005265,0.000101,0.005266,-0.002755,89.276203,0.005268,
1040,170,0.103057,-9.582635,0.999998,0.000168,-0.000737,0.003514,0.000219,0.003526,-0.000748,87.065201,0.003715,
1730,1180,-1.645524,-4.279271,0.999997,0.000217,-0.002477,0.005132,0.000556,0.005172,-0.002518,85.842606,0.005173,
1260,280,-0.025138,-9.237442,0.999998,0.000149,-0.000866,0.003499,0.000026,0.003499,-0.000866,89.659859,0.003645,
1390,1100,-0.907969,-3.998894,0.999991,0.000000,-0.003100,0.009567,-0.004152,0.010806,-0.004339,-73.377843,0.010876,
1210,1940,0.007894,-0.291775,0.999998,0.000158,-0.000318,0.003153,-0.000027,0.003153,-0.000318,-89.561466,0.003472,
1150,830,0.195935,-7.419750,0.999996,0.000231,-0.002236,0.002370,-0.001657,0.002905,-0.002771,-72.134153,0.003279,
790,1670,0.721428,-1.630216,0.999997,0.000194,-0.002343,0.004936,0.000072,0.004937,-0.002344,89.431741,0.004939,
1770,80,-0.229921,-9.812357,0.999997,0.000201,-0.001152,0.004558,-0.001581,0.004966,-0.001561,-75.515126,0.005079,
670,390,1.017449,-8.238623,0.999998,0.000152,-0.002456,0.005033,-0.000062,0.005033,-0.002457,-89.528617,0.005034,
620,1680,1.117837,-1.847952,0.999998,0.000163,-0.002470,0.005033,0.000047,0.005033,-0.002471,89.641723,0.005034,
1880,1200,-1.969585,-4.297452,0.999998,0.000142,-0.002241,0.004566,0.000132,0.004568,-0.002243,88.891850,0.004569,
1360,800,-0.256684,-7.212164,0.999997,0.000211,-0.003025,0.004339,0.002257,0.004976,-0.003662,74.246064,0.005157,
880,340,0.475069,-8.784738,0.999998,0.000177,-0.002007,0.004610,-0.000043,0.004610,-0.002007,-89.625079,0.004623,
830,1230,1.288518,-3.936956,0.999997,0.000199,-0.002989,0.005742,-0.000579,0.005780,-0.003028,-86.223816,0.005783,
1010,490,0.338032,-8.286807,0.999997,0.000200,-0.002049,0.004398,-0.000601,0.004454,-0.002104,-84.721834,0.004456,
1300,640,-0.084677,-7.972784,0.999999,0.000149,-0.001423,0.003057,0.000857,0.003215,-0.001581,79.526300,0.003216,
1890,550,-1.498754,-7.270265,0.999996,0.000222,-0.002571,0.005127,-0.000010,0.005127,-0.002571,-89.923308,0.005127,
1280,1230,-0.111946,-2.471511,0.999997,0.000216,-0.002186,0.001541,-0.000921,0.001757,-0.002402,-76.851269,0.002486,
780,770,1.321980,-6.400696,0.999997,0.000190,-0.002918,0.005553,0.000454,0.005578,-0.002943,86.942533,0.005580,
1410,230,-0.131223,-9.373748,0.999998,0.000170,-0.000980,0.003686,-0.000083,0.003687,-0.000981,-88.986800,0.003819,
1450,1310,-0.485303,-3.024873,0.999997,0.000196,-0.003531,0.005735,-0.001201,0.005888,-0.003684,-82.736197,0.005950,
1850,1260,-1.805843,-3.981033,0.999998,0.000157,-0.002392,0.004802,0.000248,0.004810,-0.002400,88.027089,0.004810,
1660,1160,-1.504157,-4.348411,0.999997,0.000227,-0.002511,0.005406,0.000652,0.005459,-0.002564,85.324772,0.005462,
710,1610,0.997420,-2.054329,0.999998,0.000176,-0.002475,0.005068,0.000122,0.005070,-0.002477,89.071368,0.005070,
1430,100,-0.054741,-9.822799,0.999999,0.000150,-0.000360,0.003313,-0.000296,0.003337,-0.000384,-85.416743,0.003651,
1220,1750,0.011685,-0.927124,0.999999,0.000160,-0.000958,0.003482,0.000050,0.003482,-0.000958,89.350616,0.003598,
1620,1260,-1.181990,-3.747223,0.999997,0.000204,-0.003155,0.005868,0.000441,0.005889,-0.003177,87.205926,0.005895,
1280,570,-0.059791,-8.219563,0.999998,0.000171,-0.001337,0.003244,0.000370,0.003274,-0.001367,85.416913,0.003289,
1540,260,-0.311281,-9.176571,0.999998,0.000171,-0.001308,0.004143,-0.000234,0.004153,-0.001318,-87.544045,0.004244,
1870,950,-2.056464,-5.371878,0.999998,0.000166,-0.002113,0.004310,-0.000105,0.004312,-0.002115,-89.066097,0.004312,
960,1920,0.120328,-0.390901,0.999998,0.000147,-0.000734,0.003638,-0.000399,0.003675,-0.000770,-84.823145,0.003876,
1510,1860,-0.197088,-0.620293,0.999998,0.000175,-0.001065,0.003884,0.000327,0.003905,-0.001086,86.234920,0.004031,
1700,1200,-1.537828,-4.158945,0.999997,0.000198,-0.002617,0.005323,0.000594,0.005368,-0.002661,85.742310,0.005368,
1680,810,-1.394492,-6.180654,0.999997,0.000208,-0.002812,0.005502,-0.000554,0.005539,-0.002848,-86.201575,0.005540,
1050,1430,0.299170,-2.304912,0.999998,0.000185,-0.002345,0.004380,0.001114,0.004560,-0.002525,80.836895,0.004569,
1290,360,-0.062504,-8.948321,0.999998,0.000155,-0.001059,0.003563,0.000038,0.003563,-0.001059,89.530854,0.003659,
1870,1010,-2.081535,-5.115446,0.999998,0.000164,-0.002034,0.004310,-0.000123,0.004312,-0.002036,-88.889263,0.004315,
920,1110,1.319452,-4.558453,0.999998,0.000186,-0.002336,0.006028,-0.000691,0.006085,-0.002393,-85.311548,0.006131,
560,200,0.913568,-8.977198,0.999990,0.000000,-0.002755,0.005118,0.000240,0.005125,-0.002762,88.258468,0.005130,
1260,260,-0.024556,-9.307434,0.999998,0.000148,-0.000798,0.003440,0.000021,0.003440,-0.000798,89.716070,0.003601,
1370,540,-0.197314,-8.211671,0.999998,0.000156,-0.001783,0.003889,0.000784,0.003995,-0.001889,82.277573,0.003997,
1780,1180,-1.768267,-4.308386,0.999997,0.000194,-0.002409,0.004935,0.000492,0.004968,-0.002441,86.181593,0.004968,
1390,1090,-0.928591,-4.097567,0.999993,0.000000,-0.003366,0.010435,-0.004149,0.011587,-0.004517,-74.491116,0.011680,
1680,210,-0.447126,-9.284903,0.999997,0.000217,-0.001830,0.004637,-0.000555,0.004684,-0.001878,-85.131884,0.004714,
1070,1940,0.049669,-0.301183,0.999998,0.000151,-0.000342,0.003307,-0.000237,0.003322,-0.000357,-86.304506,0.003648,
1510,1420,-0.566051,-2.602493,0.999997,0.000201,-0.002916,0.005233,-0.000734,0.005299,-0.002982,-84.892594,0.005313,
1020,170,0.118253,-9.577880,0.999998,0.000155,-0.000666,0.003587,0.000269,0.003604,-0.000683,86.395093,0.003828,
930,2000,0.042674,-0.117677,0.999998,0.000156,-0.000159,0.003354,-0.000529,0.003432,-0.000237,-81.616994,0.003833,
620,1660,1.147301,-1.949152,0.999998,0.000158,-0.002505,0.005017,0.000079,0.005018,-0.002506,89.401634,0.005018,
790,1650,0.748811,-1.726804,0.999997,0.000196,-0.002373,0.004952,0.000079,0.004952,-0.002374,89.381692,0.004954,
1150,810,0.149695,-7.467435,0.999997,0.000207,-0.002234,0.002493,-0.001930,0.003182,-0.002922,-70.379200,0.003533,
670,1130,1.860536,-4.555634,0.999998,0.000147,-0.002284,0.004769,-0.000339,0.004786,-0.002300,-87.250707,0.004787,
1610,340,-0.526411,-8.753799,0.999997,0.000196,-0.001928,0.004700,-0.000059,0.004701,-0.001929,-89.493010,0.004726,
1360,780,-0.229005,-7.295606,0.999997,0.000197,-0.002890,0.004183,0.002210,0.004817,-0.003524,73.999274,0.004986,
880,320,0.451596,-8.875212,0.999998,0.000180,-0.001918,0.004568,0.000040,0.004568,-0.001918,89.649050,0.004588,
1270,850,-0.168683,-7.611893,0.999997,0.000201,-0.003517,0.001492,-0.000102,0.001494,-0.003519,-88.830392,0.003533,
830,1210,1.331650,-4.052333,0.999997,0.000200,-0.002900,0.005693,-0.000619,0.005738,-0.002944,-85.898989,0.005738,
1010,450,0.320384,-8.462225,0.999997,0.000208,-0.001893,0.004273,-0.000474,0.004310,-0.001930,-85.628377,0.004317,
1540,240,-0.284002,-9.262168,0.999998,0.000185,-0.001215,0.004188,-0.000312,0.004206,-0.001233,-86.705441,0.004324,
760,1970,0.176083,-0.253839,0.999998,0.000169,-0.000690,0.003996,-0.001174,0.004274,-0.000967,-76.692898,0.004482,
1110,1680,0.140903,-1.218973,0.999998,0.000164,-0.001228,0.003777,0.000175,0.003783,-0.001234,88.003429,0.003858,
1280,550,-0.060935,-8.284297,0.999998,0.000153,-0.001312,0.003318,0.000301,0.003338,-0.001331,86.294605,0.003360,
1890,540,-1.482801,-7.321429,0.999996,0.000225,-0.002555,0.005119,-0.000013,0.005119,-0.002555,-89.902047,0.005119,
1620,1240,-1.226662,-3.863731,0.999997,0.000183,-0.003105,0.005846,0.000534,0.005878,-0.003136,86.599302,0.005883,
1390,1080,-0.949279,-4.202223,0.999993,0.000000,-0.003707,0.011710,-0.003869,0.012626,-0.004623,-76.674603,0.012776,
960,1900,0.146001,-0.468052,0.999998,0.000155,-0.000851,0.003723,-0.000398,0.003758,-0.000886,-85.060579,0.003929,
1640,1050,-1.594699,-4.923257,0.999997,0.000214,-0.001970,0.005159,0.000176,0.005163,-0.001975,88.586927,0.005211,
1300,620,-0.086428,-8.035930,0.999999,0.000145,-0.001427,0.003160,0.000791,0.003293,-0.001560,80.492138,0.003294,
1450,1290,-0.516494,-3.144203,0.999996,0.000206,-0.003703,0.005926,-0.001139,0.006058,-0.003836,-83.346842,0.006130,
1410,250,-0.144940,-9.299585,0.999998,0.000169,-0.001038,0.003708,-0.000049,0.003708,-0.001039,-89.410953,0.003826,
830,860,1.363451,-5.944103,0.999997,0.000208,-0.002800,0.005669,0.000662,0.005721,-0.002852,85.560489,0.005721,
900,1110,1.366937,-4.574878,0.999997,0.000204,-0.002286,0.005822,-0.000679,0.005878,-0.002343,-85.246747,0.005919,
560,190,0.892118,-9.034442,0.999984,0.000000,-0.002856,0.004807,0.000238,0.004815,-0.002863,88.221669,0.004843,
1050,1410,0.302394,-2.392973,0.999998,0.000186,-0.002489,0.004513,0.001224,0.004720,-0.002697,80.366392,0.004736,
700,1610,1.022375,-2.071939,0.999997,0.000193,-0.002497,0.005081,0.000114,0.005083,-0.002499,89.137595,0.005083,
1270,360,-0.040708,-8.951803,0.999999,0.000118,-0.001055,0.003535,0.000073,0.003536,-0.001057,89.091999,0.003631,
1200,1750,0.029822,-0.930418,0.999999,0.000138,-0.000915,0.003485,0.000060,0.003486,-0.000915,89.222751,0.003614,
1050,1940,0.058157,-0.305713,0.999999,0.000141,-0.000460,0.003339,-0.000247,0.003355,-0.000476,-86.288496,0.003630,
1260,240,-0.022392,-9.375760,0.999999,0.000134,-0.000732,0.003410,0.000003,0.003410,-0.000732,89.962689,0.003590,
1780,1160,-1.798226,-4.406562,0.999998,0.000186,-0.002355,0.004877,0.000411,0.004900,-0.002378,86.755363,0.004901,
860,110,0.154274,-9.755163,0.999998,0.000167,-0.000733,0.003856,0.000756,0.003978,-0.000855,80.877846,0.004188,
1660,1350,-1.130155,-3.285238,0.999998,0.000187,-0.003041,0.005612,0.000159,0.005615,-0.003044,88.949223,0.005621,
1880,1010,-2.101279,-5.114048,0.999999,0.000137,-0.002022,0.004230,-0.000119,0.004232,-0.002025,-88.913788,0.004233,
920,2000,0.044632,-0.118520,0.999999,0.000138,-0.000129,0.003393,-0.000558,0.003479,-0.000215,-81.201600,0.003899,
1370,560,-0.199484,-8.135691,0.999999,0.000133,-0.001807,0.003834,0.000848,0.003959,-0.001932,81.630624,0.003960,
720,1410,1.265480,-3.078061,0.999998,0.000162,-0.002729,0.005264,-0.000121,0.005266,-0.002731,-89.134563,0.005267,
1860,1950,-0.481731,-0.509149,0.999997,0.000208,-0.002369,0.005391,0.000959,0.005508,-0.002486,83.056305,0.005517,
1620,350,-0.559486,-8.694641,0.999997,0.000175,-0.001945,0.004730,-0.000061,0.004731,-0.001945,-89.472219,0.004756,
880,300,0.424466,-8.969353,0.999998,0.000171,-0.001863,0.004447,0.000093,0.004448,-0.001864,89.157338,0.004467,
750,200,0.481651,-9.303574,0.999997,0.000188,-0.001684,0.004832,0.000765,0.004921,-0.001772,83.392464,0.004985,
1150,790,0.123214,-7.520631,0.999998,0.000198,-0.002040,0.002613,-0.002004,0.003358,-0.002784,-69.628014,0.003592,
1670,1200,-1.456760,-4.136933,0.999998,0.000193,-0.002689,0.005491,0.000625,0.005539,-0.002736,85.653827,0.005539,
710,1590,1.026144,-2.156873,0.999998,0.000178,-0.002497,0.005097,0.000107,0.005098,-0.002498,89.189395,0.005099,
790,1630,0.774086,-1.825979,0.999998,0.000174,-0.002408,0.004989,0.000111,0.004991,-0.002410,89.143270,0.004992,
830,1190,1.373571,-4.164517,0.999997,0.000215,-0.002789,0.005658,-0.000662,0.005709,-0.002840,-85.544305,0.005709,
1860,1790,-0.960289,-1.329685,0.999998,0.000177,-0.002426,0.004981,0.000055,0.004982,-0.002426,89.575121,0.004982,
1660,1140,-1.540402,-4.457189,0.999997,0.000209,-0.002411,0.005354,0.000636,0.005405,-0.002462,85.347915,0.005413,
1130,840,0.280053,-7.247683,0.999996,0.000237,-0.002281,0.003009,-0.001922,0.003634,-0.002906,-71.999895,0.003845,
1360,760,-0.213337,-7.380445,0.999998,0.000192,-0.002737,0.004070,0.002108,0.004670,-0.003337,74.112310,0.004811,
1080,170,0.077172,-9.593958,0.999998,0.000154,-0.000515,0.003438,0.000195,0.003448,-0.000524,87.181411,0.003716,
670,1090,1.900837,-4.747393,0.999998,0.000159,-0.002209,0.004664,-0.000182,0.004669,-0.002213,-88.481903,0.004671,
770,2010,0.071118,-0.098933,0.999998,0.000145,-0.000363,0.003671,-0.001063,0.003934,-0.000626,-76.100438,0.004228,
1780,1140,-1.820935,-4.502504,0.999998,0.000193,-0.002290,0.004806,0.000341,0.004822,-0.002306,87.255520,0.004823,
1450,760,-0.508066,-6.966064,0.999997,0.000211,-0.003646,0.005832,0.001152,0.005970,-0.003784,83.170952,0.006041,
1740,1820,-0.613847,-0.971470,0.999997,0.000191,-0.002117,0.004943,0.000434,0.004969,-0.002144,86.495625,0.004985,
1540,220,-0.260720,-9.345000,0.999998,0.000181,-0.001109,0.004063,-0.000361,0.004088,-0.001134,-86.030715,0.004220,
620,1880,0.691683,-0.838462,0.999998,0.000188,-0.002445,0.005196,-0.000366,0.005213,-0.002462,-87.266390,0.005216,
1490,1870,-0.163584,-0.571894,0.999998,0.000175,-0.000942,0.003756,0.000317,0.003777,-0.000964,86.158409,0.003925,
1620,1220,-1.272469,-3.984516,0.999998,0.000172,-0.003002,0.005781,0.000598,0.005822,-0.003043,86.125511,0.005824,
1450,1270,-0.552583,-3.265565,0.999997,0.000208,-0.003817,0.006094,-0.001077,0.006210,-0.003932,-83.871275,0.006283,
1680,1350,-1.190107,-3.314622,0.999998,0.000227,-0.002938,0.005542,0.000203,0.005547,-0.002943,88.630988,0.005550,
640,1210,1.822872,-4.192392,0.999998,0.000167,-0.002355,0.004788,-0.000375,0.004807,-0.002375,-87.005418,0.004808,
1830,630,-1.471999,-6.954516,0.999997,0.000205,-0.002581,0.005099,-0.000069,0.005100,-0.002582,-89.486102,0.005100,
960,1880,0.168721,-0.541955,0.999998,0.000155,-0.000963,0.003748,-0.000323,0.003770,-0.000985,-86.097552,0.003910,
1880,250,-0.976891,-8.783327,0.999998,0.000162,-0.002401,0.004874,-0.000053,0.004875,-0.002402,-89.579627,0.004875,
1430,40,-0.016105,-10.014451,0.999999,0.000111,-0.000116,0.003072,-0.000257,0.003093,-0.000136,-85.423547,0.003495,
580,1740,1.112669,-1.621606,0.999998,0.000170,-0.002357,0.004907,0.000061,0.004908,-0.002358,89.520501,0.004909,
1200,510,0.040657,-8.426127,0.999999,0.000125,-0.001275,0.003391,-0.000191,0.003399,-0.001282,-87.658961,0.003433,
1300,600,-0.087618,-8.100598,0.999998,0.000156,-0.001430,0.003247,0.000685,0.003345,-0.001528,81.838169,0.003349,
1360,890,-0.594428,-6.843884,0.999996,0.000232,-0.001400,0.003632,0.002526,0.004682,-0.002449,67.444487,0.004683,
1810,780,-1.682376,-6.219479,0.999998,0.000187,-0.002514,0.004994,-0.000349,0.005011,-0.002531,-87.344613,0.005011,
1100,220,0.091222,-9.423120,0.999998,0.000151,-0.000738,0.003503,0.000102,0.003506,-0.000741,88.629687,0.003695,
560,180,0.868255,-9.085978,0.999972,0.000000,-0.002886,0.004572,0.000337,0.004587,-0.002901,87.420046,0.004640,
1700,1620,-0.852117,-1.918237,0.999998,0.000156,-0.002448,0.005068,-0.000110,0.005070,-0.002449,-89.160087,0.005071,
1390,1500,-0.234216,-1.960459,0.999998,0.000183,-0.001869,0.004009,-0.000803,0.004116,-0.001977,-82.363472,0.004117,
1390,970,-0.944748,-5.932671,0.999992,0.000000,-0.003461,0.011558,0.004096,0.012602,-0.004505,75.695869,0.012771,
1570,1290,-0.956289,-3.487193,0.999998,0.000165,-0.003401,0.006055,0.000046,0.006055,-0.003401,89.722788,0.006071,
1050,680,0.317658,-7.524909,0.999996,0.000209,-0.002739,0.004678,-0.001423,0.004941,-0.003003,-79.502955,0.004979,
1730,620,-1.190274,-7.152114,0.999998,0.000164,-0.002757,0.005292,-0.000057,0.005292,-0.002757,-89.597467,0.005294,
880,280,0.399725,-9.055322,0.999998,0.000174,-0.001787,0.004414,0.000164,0.004419,-0.001791,88.486079,0.004445,
760,180,0.419873,-9.407906,0.999997,0.000196,-0.001554,0.004613,0.000813,0.004718,-0.001659,82.617783,0.004787,
910,2000,0.045772,-0.119530,0.999999,0.000136,-0.000170,0.003427,-0.000590,0.003521,-0.000264,-80.912140,0.003922,
1780,1050,-1.887869,-4.932767,0.999998,0.000159,-0.002164,0.004738,0.000144,0.004741,-0.002167,88.806752,0.004747,
750,180,0.435986,-9.399426,0.999998,0.000178,-0.001525,0.004675,0.000854,0.004790,-0.001641,82.297134,0.004869,
920,1460,0.624224,-2.466393,0.999997,0.000215,-0.002801,0.005168,0.000544,0.005204,-0.002838,86.112285,0.005212,
1260,220,-0.020121,-9.444050,0.999998,0.000173,-0.000663,0.003393,0.000019,0.003393,-0.000663,89.728446,0.003597,
830,1170,1.417479,-4.279421,0.999997,0.000204,-0.002642,0.005572,-0.000673,0.005627,-0.002697,-85.346129,0.005628,
1640,1030,-1.602248,-5.026864,0.999997,0.000201,-0.001966,0.005149,0.000008,0.005149,-0.001966,89.932381,0.005196,
1010,430,0.308206,-8.547990,0.999998,0.000206,-0.001762,0.004242,-0.000379,0.004265,-0.001786,-86.401731,0.004284,
1580,1890,-0.225640,-0.533524,0.999998,0.000188,-0.001135,0.003995,0.000534,0.004050,-0.001190,84.117261,0.004164,
1180,1750,0.048243,-0.934721,0.999999,0.000140,-0.000890,0.003514,0.000019,0.003514,-0.000890,89.751270,0.003654,
670,1070,1.907813,-4.839735,0.999998,0.000151,-0.002175,0.004646,-0.000128,0.004649,-0.002178,-88.929223,0.004652,
1450,740,-0.480413,-7.081244,0.999998,0.000204,-0.003495,0.005651,0.001212,0.005809,-0.003653,82.578440,0.005873,
1360,740,-0.198381,-7.461519,0.999997,0.000235,-0.002567,0.004033,0.001953,0.004568,-0.003101,74.687236,0.004664,
1410,270,-0.158246,-9.224519,0.999998,0.000170,-0.001115,0.003734,-0.000021,0.003734,-0.001116,-89.753323,0.003833,
620,1640,1.178920,-2.049096,0.999998,0.000173,-0.002504,0.005035,0.000067,0.005036,-0.002504,89.491986,0.005036,
1870,1730,-1.099867,-1.647647,0.999998,0.000137,-0.002422,0.004956,-0.000068,0.004956,-0.002423,-89.470229,0.004957,
610,500,1.330250,-7.582477,0.999997,0.000192,-0.002504,0.005082,-0.000034,0.005083,-0.002504,-89.746942,0.005083,
1050,1390,0.310448,-2.485861,0.999997,0.000204,-0.002651,0.004633,0.001338,0.004871,-0.002889,79.915991,0.004899,
800,100,0.177472,-9.780189,0.999998,0.000180,-0.000913,0.004004,0.000958,0.004184,-0.001093,79.354944,0.004340,
1660,810,-1.335633,-6.200042,0.999998,0.000209,-0.002917,0.005634,-0.000535,0.005668,-0.002950,-86.431654,0.005669,
1200,1240,0.062963,-2.395544,0.999997,0.000204,-0.001990,0.001236,0.000682,0.001375,-0.002128,78.538522,0.002158,
1780,1120,-1.841959,-4.598352,0.999998,0.000168,-0.002262,0.004839,0.000368,0.004858,-0.002281,87.044244,0.004861,
1660,1120,-1.570894,-4.563215,0.999997,0.000222,-0.002282,0.005246,0.000532,0.005283,-0.002319,85.981218,0.005296,
1020,850,0.691470,-6.431142,0.999997,0.000204,-0.003929,0.006786,-0.000801,0.006846,-0.003989,-85.748526,0.006877,
1840,1270,-1.764944,-3.920108,0.999998,0.000191,-0.002428,0.004907,0.000278,0.004917,-0.002439,87.835538,0.004917,
1560,270,-0.347514,-9.122124,0.999998,0.000166,-0.001453,0.004276,-0.000230,0.004285,-0.001462,-87.702804,0.004356,
570,580,1.562556,-7.108326,0.999709,0.001990,-0.004813,0.004526,-0.000914,0.004615,-0.004902,-84.461907,0.005502,
1060,170,0.087281,-9.588863,0.999998,0.000140,-0.000668,0.003471,0.000171,0.003478,-0.000675,87.633697,0.003688,
1450,1250,-0.593092,-3.388109,0.999997,0.000217,-0.003882,0.006253,-0.000976,0.006347,-0.003976,-84.547992,0.006414,
1080,1870,0.086142,-0.537367,0.999998,0.000180,-0.000586,0.003466,-0.000169,0.003473,-0.000593,-87.619720,0.003716,
1410,1460,-0.284686,-2.168175,0.999998,0.000171,-0.002201,0.004319,-0.001020,0.004475,-0.002357,-81.311041,0.004477,
740,1210,1.576580,-4.120731,0.999997,0.000212,-0.002563,0.005247,-0.000556,0.005287,-0.002602,-85.950003,0.005287,
1740,1390,-1.290393,-3.179528,0.999997,0.000197,-0.002789,0.005284,0.000180,0.005288,-0.002793,88.725292,0.005291,
1540,200,-0.233646,-9.424752,0.999998,0.000164,-0.000980,0.004008,-0.000428,0.004044,-0.001017,-85.129519,0.004208,
1740,1800,-0.655114,-1.072973,0.999997,0.000203,-0.002179,0.005000,0.000325,0.005014,-0.002194,87.411570,0.005027,
720,1390,1.299345,-3.183849,0.999997,0.000189,-0.002770,0.005288,-0.000190,0.005293,-0.002774,-88.648343,0.005295,
760,2010,0.075243,-0.100903,0.999998,0.000153,-0.000224,0.003737,-0.001151,0.004047,-0.000534,-74.914177,0.004398,
1870,540,-1.431220,-7.352402,0.999997,0.000190,-0.002560,0.005120,0.000006,0.005120,-0.002560,89.957971,0.005120,
1230,360,0.001062,-8.960437,0.999999,0.000133,-0.001104,0.003507,-0.000001,0.003507,-0.001104,-89.990425,0.003586,
1060,1550,0.249040,-1.780206,0.999998,0.000152,-0.001750,0.004054,0.000593,0.004114,-0.001810,84.227264,0.004123,
1360,880,-0.538270,-6.878119,0.999996,0.000224,-0.001743,0.003543,0.002274,0.004386,-0.002587,69.643727,0.004410,
1870,250,-0.951500,-8.805370,0.999998,0.000167,-0.002432,0.004909,-0.000065,0.004909,-0.002433,-89.492133,0.004909,
960,1860,0.188900,-0.617024,0.999998,0.000176,-0.001088,0.003871,-0.000299,0.003889,-0.001106,-86.557701,0.004007,
1490,1850,-0.185811,-0.648762,0.999998,0.000181,-0.001024,0.003826,0.000285,0.003843,-0.001041,86.649906,0.003975,
1620,1200,-1.315278,-4.096387,0.999998,0.000175,-0.002893,0.005728,0.000635,0.005774,-0.002939,85.809882,0.005775,
1150,770,0.106079,-7.569581,0.999998,0.000183,-0.001914,0.002708,-0.001930,0.003408,-0.002614,-70.067772,0.003566,
1050,660,0.308895,-7.617399,0.999998,0.000191,-0.002598,0.004593,-0.001327,0.004830,-0.002835,-79.871009,0.004854,
1390,1480,-0.238481,-2.039286,0.999998,0.000165,-0.001953,0.004039,-0.000894,0.004169,-0.002084,-81.694456,0.004169,
1830,610,-1.439248,-7.055595,0.999997,0.000198,-0.002593,0.005070,-0.000069,0.005070,-0.002594,-89.481490,0.005071,
1260,200,-0.018405,-9.511804,0.999998,0.000183,-0.000604,0.003347,-0.000021,0.003348,-0.000604,-89.692770,0.003568,
1570,1270,-0.996080,-3.609296,0.999998,0.000179,-0.003395,0.006152,0.000169,0.006155,-0.003398,88.983783,0.006166,
910,820,1.019546,-6.285953,0.999997,0.000197,-0.003453,0.006283,0.000310,0.006293,-0.003462,88.179643,0.006304,
760,160,0.371726,-9.498370,0.999997,0.000183,-0.001418,0.004608,0.000956,0.004755,-0.001566,81.201864,0.004847,
1330,890,-0.565159,-7.162764,0.999995,0.000000,-0.001255,0.002060,0.001729,0.002798,-0.001993,66.894528,0.002881,
750,1100,1.712981,-4.680509,0.999997,0.000184,-0.002207,0.005020,-0.000425,0.005045,-0.002232,-86.643112,0.005056,
1350,2000,-0.012157,-0.108384,0.999999,0.000136,-0.000120,0.003055,0.000161,0.003064,-0.000128,87.101027,0.003466,
1300,580,-0.088619,-8.166466,0.999998,0.000159,-0.001437,0.003330,0.000617,0.003408,-0.001515,82.743781,0.003415,
1100,200,0.081187,-9.493592,0.999998,0.000147,-0.000642,0.003513,0.000128,0.003517,-0.000646,88.230212,0.003744,
880,260,0.370557,-9.146028,0.999998,0.000168,-0.001696,0.004347,0.000237,0.004356,-0.001706,87.756365,0.004390,
830,1150,1.455789,-4.388092,0.999997,0.000207,-0.002490,0.005518,-0.000672,0.005574,-0.002546,-85.235411,0.005581,
1800,1050,-1.931372,-4.934971,0.999998,0.000162,-0.002166,0.004661,0.000143,0.004664,-0.002169,88.803615,0.004668,
1790,500,-1.169007,-7.684305,0.999998,0.000181,-0.002563,0.005157,0.000081,0.005158,-0.002564,89.396730,0.005158,
1060,1750,0.168569,-0.983445,0.999998,0.000151,-0.001211,0.003785,0.000062,0.003785,-0.001211,89.288837,0.003866,
1360,720,-0.195342,-7.538974,0.999998,0.000199,-0.002412,0.003971,0.001816,0.004451,-0.002892,75.180500,0.004517,
1700,1640,-0.824684,-1.817407,0.999998,0.000153,-0.002397,0.005035,-0.000089,0.005036,-0.002398,-89.310864,0.005038,
800,120,0.223838,-9.696125,0.999998,0.000176,-0.001096,0.004179,0.000908,0.004331,-0.001248,80.507042,0.004459,
1020,830,0.633202,-6.566704,0.999996,0.000233,-0.003940,0.006500,-0.000970,0.006590,-0.004030,-84.737412,0.006644,
1450,1940,-0.074499,-0.311215,0.999998,0.000174,-0.000418,0.003451,0.000366,0.003485,-0.000452,84.639928,0.003790,
1480,170,-0.139770,-9.568334,0.999998,0.000162,-0.000735,0.003666,-0.000336,0.003692,-0.000760,-85.660038,0.003899,
1660,1100,-1.595741,-4.667909,0.999997,0.000211,-0.002187,0.005231,0.000496,0.005264,-0.002221,86.189518,0.005285,
1780,1100,-1.864806,-4.697155,0.999998,0.000162,-0.002224,0.004787,0.000302,0.004800,-0.002237,87.535075,0.004804,
620,1600,1.238521,-2.251639,0.999998,0.000172,-0.002508,0.005080,0.000079,0.005081,-0.002509,89.402637,0.005081,
940,1870,0.197106,-0.587499,0.999998,0.000150,-0.000953,0.003887,-0.000384,0.003917,-0.000984,-85.494376,0.004076,
1830,480,-1.241164,-7.721826,0.999998,0.000184,-0.002540,0.005114,0.000068,0.005115,-0.002540,89.488615,0.005115,
1410,1440,-0.289773,-2.255927,0.999998,0.000184,-0.002287,0.004342,-0.001093,0.004518,-0.002463,-80.871765,0.004524,
820,1490,0.870915,-2.494604,0.999997,0.000195,-0.002748,0.005265,0.000221,0.005271,-0.002754,88.419052,0.005273,
960,1840,0.212217,-0.696565,0.999997,0.000188,-0.001177,0.003879,-0.000238,0.003890,-0.001188,-87.312367,0.003987,
1490,1090,-1.244865,-4.621721,0.999998,0.000168,-0.002382,0.006718,0.000435,0.006739,-0.002403,87.267277,0.006830,
1450,1230,-0.646932,-3.515953,0.999996,0.000238,-0.003907,0.006499,-0.000884,0.006574,-0.003982,-85.176819,0.006622,
1620,1180,-1.360465,-4.212155,0.999998,0.000188,-0.002746,0.005732,0.000708,0.005791,-0.002804,85.258553,0.005792,
1430,740,-0.412826,-7.157804,0.999997,0.000236,-0.003384,0.005432,0.001445,0.005663,-0.003615,80.928333,0.005735,
1740,1780,-0.697735,-1.173884,0.999998,0.000187,-0.002230,0.005007,0.000257,0.005016,-0.002239,87.968174,0.005026,
1430,50,-0.021229,-9.983783,0.999999,0.000131,-0.000151,0.003094,-0.000271,0.003116,-0.000173,-85.257643,0.003503,
820,150,0.264256,-9.581103,0.999997,0.000212,-0.001037,0.004209,0.000787,0.004325,-0.001152,81.651948,0.004479,
670,1050,1.916285,-4.932418,0.999999,0.000136,-0.002167,0.004686,-0.000168,0.004690,-0.002171,-88.592242,0.004694,
720,1210,1.627749,-4.133514,0.999998,0.000196,-0.002540,0.005142,-0.000525,0.005177,-0.002575,-86.111696,0.005177,
1570,1250,-1.042825,-3.734262,0.999998,0.000197,-0.003375,0.006171,0.000294,0.006180,-0.003384,88.239617,0.006189,
1540,180,-0.207131,-9.505154,0.999998,0.000180,-0.000866,0.003893,-0.000432,0.003932,-0.000905,-84.853576,0.004118,
1350,880,-0.524861,-6.982561,0.999997,0.000195,-0.001408,0.003030,0.002123,0.003882,-0.002260,68.129972,0.003899,
1390,960,-0.922934,-6.031684,0.999992,0.000000,-0.002912,0.009972,0.004185,0.011212,-0.004152,73.495448,0.011337,
760,140,0.319988,-9.590603,0.999998,0.000164,-0.001196,0.004462,0.001019,0.004639,-0.001374,80.095879,0.004766,
1180,510,0.065482,-8.419294,0.999998,0.000141,-0.001254,0.003458,-0.000245,0.003471,-0.001267,-87.036593,0.003512,
880,240,0.343267,-9.231741,0.999998,0.000177,-0.001586,0.004319,0.000308,0.004336,-0.001602,87.019057,0.004385,
1570,960,-1.409765,-5.415724,0.999997,0.000212,-0.002124,0.005681,-0.000581,0.005724,-0.002167,-85.764318,0.005780,
1100,180,0.071910,-9.563255,0.999998,0.000149,-0.000537,0.003404,0.000128,0.003408,-0.000542,88.140260,0.003663,
1340,2000,-0.011146,-0.107907,0.999999,0.000135,-0.000147,0.003046,0.000148,0.003053,-0.000154,87.342651,0.003440,
770,1300,1.321876,-3.607178,0.999997,0.000207,-0.002883,0.005509,-0.000401,0.005528,-0.002902,-87.272744,0.005530,
830,1130,1.494020,-4.500070,0.999997,0.000214,-0.002342,0.005470,-0.000641,0.005523,-0.002394,-85.340588,0.005539,
1250,420,-0.021086,-8.745150,0.999998,0.000186,-0.001191,0.003517,0.000105,0.003519,-0.001193,88.719182,0.003580,
1300,560,-0.089573,-8.234821,0.999998,0.000161,-0.001445,0.003393,0.000550,0.003454,-0.001507,83.598812,0.003464,
910,800,0.972415,-6.411233,0.999998,0.000183,-0.003498,0.006208,0.000187,0.006211,-0.003502,88.894208,0.006228,
1700,1660,-0.797811,-1.717250,0.999998,0.000164,-0.002343,0.004999,-0.000071,0.005000,-0.002344,-89.447673,0.005003,
1770,500,-1.117583,-7.715937,0.999998,0.000155,-0.002557,0.005179,0.000091,0.005180,-0.002558,89.324292,0.005180,
1360,700,-0.190184,-7.619812,0.999998,0.000174,-0.002271,0.003850,0.001654,0.004269,-0.002689,75.806894,0.004316,
1540,170,-0.195022,-9.542891,0.999998,0.000181,-0.000825,0.003872,-0.000464,0.003918,-0.000870,-84.415954,0.004114,
1740,350,-0.826863,-8.529016,0.999998,0.000172,-0.002433,0.005032,-0.000021,0.005032,-0.002433,-89.836639,0.005032,
1780,1080,-1.876446,-4.790190,0.999998,0.000156,-0.002195,0.004702,0.000136,0.004705,-0.002198,88.868377,0.004708,
1040,1750,0.196058,-0.996949,0.999998,0.000174,-0.001333,0.003852,0.000080,0.003854,-0.001334,89.111786,0.003914,
960,1820,0.232630,-0.772208,0.999998,0.000156,-0.001276,0.003995,-0.000202,0.004003,-0.001284,-87.806839,0.004088,
620,1580,1.267071,-2.353725,0.999998,0.000181,-0.002523,0.005086,0.000071,0.005087,-0.002524,89.464052,0.005087,
790,1040,1.665780,-4.975707,0.999997,0.000188,-0.002035,0.005049,-0.000133,0.005052,-0.002037,-88.926744,0.005083,
1620,1160,-1.403636,-4.325822,0.999997,0.000199,-0.002610,0.005635,0.000686,0.005692,-0.002666,85.274565,0.005696,
1490,1830,-0.204663,-0.725328,0.999998,0.000174,-0.001126,0.003887,0.000219,0.003897,-0.001136,87.500396,0.004008,
1840,1590,-1.246179,-2.297288,0.999998,0.000203,-0.002538,0.005060,-0.000072,0.005061,-0.002539,-89.457960,0.005061,
1640,1350,-1.068849,-3.255632,0.999997,0.000204,-0.003096,0.005671,0.000118,0.005673,-0.003097,89.227095,0.005681,
970,300,0.280992,-9.050914,0.999998,0.000171,-0.001498,0.004084,0.000021,0.004084,-0.001499,89.788408,0.004132,
560,280,1.089105,-8.591973,0.999993,0.000000,-0.002152,0.004800,-0.000102,0.004802,-0.002153,-89.156626,0.004810,
1710,940,-1.688900,-5.475348,0.999997,0.000201,-0.002240,0.005032,-0.000456,0.005060,-0.002269,-86.424352,0.005069,
1570,1230,-1.090161,-3.857694,0.999997,0.000211,-0.003333,0.006154,0.000420,0.006173,-0.003351,87.467214,0.006180,
1450,1210,-0.704470,-3.648379,0.999997,0.000211,-0.003942,0.006753,-0.000746,0.006805,-0.003994,-86.030432,0.006839,
1390,30,-0.006121,-10.046667,0.999999,0.000000,-0.000025,0.003066,-0.000223,0.003082,-0.000041,-85.889456,0.003536,
670,1030,1.924797,-5.027839,0.999998,0.000154,-0.002153,0.004689,-0.000027,0.004689,-0.002154,-89.772955,0.004694,
880,220,0.314120,-9.317157,0.999998,0.000187,-0.001485,0.004213,0.000363,0.004236,-0.001508,86.366978,0.004294,
1200,820,0.069077,-7.678611,0.999997,0.000214,-0.002163,0.001300,-0.000623,0.001408,-0.002271,-80.102466,0.002293,
1320,870,-0.419528,-7.289929,0.999996,0.000259,-0.001898,0.001792,0.001041,0.002066,-0.002171,75.283868,0.002448,
760,120,0.269686,-9.676659,0.999998,0.000168,-0.000986,0.004404,0.001162,0.004644,-0.001226,78.337614,0.004814,
1550,960,-1.366857,-5.425810,0.999998,0.000187,-0.002175,0.005874,-0.000588,0.005917,-0.002218,-85.841955,0.005978,
830,1110,1.523669,-4.607228,0.999997,0.000206,-0.002233,0.005339,-0.000530,0.005376,-0.002270,-86.014449,0.005398,
1050,1370,0.319795,-2.579562,0.999997,0.000195,-0.002789,0.004703,0.001429,0.004966,-0.003052,79.562313,0.005009,
1700,1680,-0.769528,-1.617822,0.999998,0.000171,-0.002291,0.004936,-0.000007,0.004936,-0.002291,-89.946904,0.004941,
1050,560,0.282202,-8.055442,0.999998,0.000179,-0.002109,0.004244,-0.000869,0.004361,-0.002226,-82.349927,0.004361,
1300,540,-0.088295,-8.305142,0.999998,0.000163,-0.001436,0.003461,0.000476,0.003507,-0.001482,84.496485,0.003521,
1330,2000,-0.009864,-0.107304,0.999999,0.000151,-0.000148,0.003042,0.000134,0.003047,-0.000154,87.589846,0.003433,
1540,160,-0.181931,-9.582833,0.999998,0.000167,-0.000779,0.003857,-0.000503,0.003911,-0.000833,-83.881066,0.004120,
770,1280,1.359857,-3.717033,0.999998,0.000183,-0.002872,0.005501,-0.000484,0.005528,-0.002900,-86.702778,0.005531,
1350,1890,-0.060035,-0.464047,0.999998,0.000149,-0.000546,0.003365,0.000115,0.003369,-0.000549,88.312885,0.003615,
1420,230,-0.142468,-9.368422,0.999998,0.000174,-0.001022,0.003719,-0.000091,0.003721,-0.001023,-88.899228,0.003844,
1410,290,-0.170357,-9.148853,0.999998,0.000161,-0.001194,0.003804,0.000038,0.003804,-0.001194,89.562611,0.003891,
1100,160,0.062049,-9.632476,0.999998,0.000139,-0.000470,0.003389,0.000168,0.003396,-0.000478,87.514519,0.003677,
1880,1730,-1.123772,-1.666295,0.999998,0.000167,-0.002390,0.004915,-0.000062,0.004915,-0.002391,-89.515542,0.004916,
570,570,1.549297,-7.144794,0.999661,0.002186,-0.005013,0.004575,-0.000848,0.004649,-0.005087,-84.985653,0.005638,
610,200,0.788546,-9.091696,0.999997,0.000201,-0.002449,0.005008,0.000217,0.005015,-0.002455,88.333093,0.005015,
960,40,0.021075,-10.013041,0.999999,0.000146,-0.000223,0.003242,0.000390,0.003286,-0.000267,83.664314,0.003650,
1410,100,-0.046685,-9.826226,0.999999,0.000139,-0.000403,0.003284,-0.000249,0.003301,-0.000420,-86.156724,0.003593,
1850,460,-1.263073,-7.792055,0.999998,0.000150,-0.002509,0.005091,0.000068,0.005092,-0.002510,89.487454,0.005092,
780,1550,0.900863,-2.249241,0.999997,0.000175,-0.002584,0.005145,0.000170,0.005149,-0.002588,88.742852,0.005149,
1560,170,-0.211671,-9.534076,0.999998,0.000173,-0.000956,0.003939,-0.000506,0.003991,-0.001008,-84.160041,0.004151,
890,820,1.088634,-6.249169,0.999997,0.000218,-0.003313,0.006141,0.000392,0.006158,-0.003330,87.630369,0.006164,
1780,1060,-1.883379,-4.886411,0.999998,0.000151,-0.002172,0.004713,0.000136,0.004716,-0.002175,88.864903,0.004720,
1200,630,0.036776,-8.045794,0.999998,0.000166,-0.001216,0.002859,-0.000353,0.002890,-0.001246,-85.089443,0.002899,
620,1560,1.296368,-2.456240,0.999997,0.000194,-0.002529,0.005072,0.000054,0.005072,-0.002529,89.590246,0.005072,
560,1940,0.682963,-0.666609,0.999739,0.000000,-0.004754,0.006837,-0.001044,0.006931,-0.004847,-84.896010,0.007112,
1490,1790,-0.245019,-0.884117,0.999998,0.000156,-0.001305,0.004012,0.000110,0.004014,-0.001308,88.820245,0.004095,
1070,1680,0.189146,-1.245887,0.999998,0.000166,-0.001398,0.003888,0.000211,0.003897,-0.001406,87.719816,0.003947,
1620,1140,-1.442944,-4.439039,0.999997,0.000216,-0.002460,0.005569,0.000694,0.005629,-0.002520,85.095373,0.005639,
930,520,0.534533,-8.011785,0.999998,0.000195,-0.002365,0.004838,-0.000469,0.004869,-0.002395,-86.289702,0.004869,
1380,2020,-0.006493,-0.048900,0.999998,0.000000,-0.000041,0.003020,0.000197,0.003033,-0.000054,86.339707,0.003471,
1570,1210,-1.140079,-3.978906,0.999997,0.000205,-0.003233,0.006122,0.000553,0.006155,-0.003266,86.629959,0.006159,
1150,750,0.101854,-7.624945,0.999998,0.000179,-0.001794,0.002759,-0.001807,0.003389,-0.002424,-70.782882,0.003492,
770,1040,1.705681,-4.977393,0.999998,0.000179,-0.002068,0.004989,-0.000134,0.004991,-0.002070,-88.914459,0.005015,
960,1800,0.254130,-0.855100,0.999998,0.000171,-0.001375,0.004009,-0.000139,0.004012,-0.001378,-88.523069,0.004077,
670,1010,1.917889,-5.121814,0.999998,0.000166,-0.002138,0.004690,0.000143,0.004693,-0.002141,88.799578,0.004699,
1870,1200,-1.947211,-4.284620,0.999998,0.000167,-0.002244,0.004622,0.000182,0.004627,-0.002249,88.483102,0.004628,
1450,1410,-0.402708,-2.496671,0.999997,0.000219,-0.002775,0.004884,-0.001103,0.005040,-0.002931,-81.963727,0.005062,
1640,1330,-1.104255,-3.369420,0.999997,0.000208,-0.003116,0.005688,0.000181,0.005692,-0.003119,88.822610,0.005701,
1700,390,-0.791750,-8.386272,0.999998,0.000157,-0.002335,0.004989,0.000071,0.004990,-0.002335,89.443852,0.004993,
1300,520,-0.087441,-8.373675,0.999998,0.000160,-0.001417,0.003496,0.000404,0.003529,-0.001450,85.327972,0.003547,
1360,680,-0.184975,-7.696392,0.999998,0.000181,-0.002189,0.003831,0.001497,0.004183,-0.002541,76.776725,0.004215,
1260,180,-0.015073,-9.577734,0.999998,0.000159,-0.000533,0.003310,-0.000012,0.003310,-0.000533,-89.825251,0.003554,
1320,860,-0.356732,-7.307400,0.999998,0.000169,-0.002000,0.001936,0.001023,0.002186,-0.002250,76.264310,0.002562,
1650,900,-1.487582,-5.709514,0.999998,0.000185,-0.002515,0.005415,-0.000653,0.005468,-0.002569,-85.326974,0.005471,
760,100,0.211039,-9.766960,0.999998,0.000177,-0.000764,0.004156,0.001156,0.004414,-0.001022,77.409177,0.004621,
1870,1620,-1.276146,-2.194806,0.999997,0.000200,-0.002473,0.004978,-0.000041,0.004979,-0.002474,-89.685279,0.004979,
830,1090,1.548625,-4.713374,0.999997,0.000194,-0.002143,0.005274,-0.000498,0.005307,-0.002176,-86.177721,0.005336,
1270,1660,-0.044498,-1.251434,0.999998,0.000161,-0.001149,0.003544,-0.000123,0.003547,-0.001153,-88.502463,0.003619,
1050,410,0.235814,-8.674092,0.999998,0.000187,-0.001601,0.004044,-0.000352,0.004066,-0.001622,-86.441453,0.004093,
750,1300,1.378789,-3.630007,0.999998,0.000189,-0.002850,0.005415,-0.000407,0.005435,-0.002870,-87.189763,0.005437,
1100,140,0.051690,-9.699490,0.999999,0.000127,-0.000378,0.003301,0.000155,0.003308,-0.000384,87.591714,0.003618,
880,200,0.283803,-9.400674,0.999998,0.000191,-0.001376,0.004182,0.000460,0.004220,-0.001414,85.297077,0.004296,
1050,540,0.275410,-8.141956,0.999998,0.000167,-0.002008,0.004202,-0.000772,0.004297,-0.002103,-83.019325,0.004297,
1890,1730,-1.147545,-1.683925,0.999998,0.000169,-0.002374,0.004871,-0.000046,0.004872,-0.002374,-89.636538,0.004872,
650,220,0.744310,-9.071324,0.999998,0.000200,-0.002286,0.005122,0.000423,0.005146,-0.002310,86.742259,0.005155,
730,520,1.050468,-7.672030,0.999998,0.000160,-0.002600,0.005186,-0.000109,0.005187,-0.002602,-89.196828,0.005187,
1010,2000,0.027339,-0.112335,0.999999,0.000118,-0.000110,0.003186,-0.000339,0.003221,-0.000145,-84.189463,0.003638,
1100,40,0.009177,-10.016882,0.999999,0.000146,-0.000065,0.003036,0.000150,0.003043,-0.000072,87.241499,0.003473,
870,820,1.152654,-6.219436,0.999998,0.000189,-0.003211,0.006004,0.000490,0.006030,-0.003237,86.967045,0.006036,
1800,870,-1.807554,-5.784570,0.999997,0.000200,-0.002356,0.004889,-0.000432,0.004915,-0.002382,-86.601163,0.004916,
1880,1350,-1.724505,-3.581829,0.999997,0.000204,-0.002449,0.004997,0.000091,0.004998,-0.002450,89.303652,0.004999,
1200,650,0.035561,-7.991900,0.999999,0.000147,-0.001186,0.002688,-0.000426,0.002735,-0.001232,-83.801439,0.002739,
1830,460,-1.212320,-7.824159,0.999998,0.000149,-0.002514,0.005097,0.000085,0.005098,-0.002515,89.362266,0.005098,
1200,800,0.046330,-7.699674,0.999998,0.000193,-0.001605,0.001250,-0.000839,0.001479,-0.001833,-74.783390,0.001944,
1780,1040,-1.893262,-4.979039,0.999998,0.000157,-0.002165,0.004743,0.000106,0.004745,-0.002167,89.119113,0.004751,
1710,190,-0.453111,-9.355856,0.999997,0.000192,-0.001611,0.004757,-0.000814,0.004860,-0.001713,-82.833088,0.004930,
1540,140,-0.154780,-9.658028,0.999998,0.000157,-0.000651,0.003755,-0.000532,0.003818,-0.000715,-83.212071,0.004060,
920,170,0.198126,-9.541641,0.999998,0.000183,-0.000843,0.003899,0.000483,0.003947,-0.000892,84.244653,0.004140,
1120,230,0.078233,-9.394324,0.999998,0.000162,-0.000805,0.003500,0.000027,0.003501,-0.000806,89.644338,0.003667,
1050,1680,0.219887,-1.265122,0.999998,0.000170,-0.001510,0.004003,0.000248,0.004014,-0.001521,87.429202,0.004053,
560,920,2.091419,-5.474311,0.999993,0.000000,-0.001934,0.004300,0.000036,0.004300,-0.001935,89.664962,0.004307,
660,870,1.814570,-5.783315,0.999999,0.000137,-0.002373,0.004883,0.000433,0.004909,-0.002399,86.597486,0.004910,
970,70,0.047752,-9.916567,0.999998,0.000175,-0.000341,0.003353,0.000425,0.003401,-0.000389,83.517040,0.003723,
1650,880,-1.452168,-5.817643,0.999997,0.000220,-0.002632,0.005482,-0.000650,0.005534,-0.002683,-85.451008,0.005535,
760,80,0.163592,-9.844730,0.999998,0.000172,-0.000608,0.003933,0.001158,0.004211,-0.000886,76.493447,0.004440,
1360,640,-0.183835,-7.850538,0.999998,0.000178,-0.001979,0.003791,0.001172,0.004020,-0.002208,78.943117,0.004026,
620,1540,1.327191,-2.557182,0.999997,0.000196,-0.002532,0.005094,0.000037,0.005094,-0.002532,89.722330,0.005094,
1040,1430,0.320824,-2.329337,0.999998,0.000200,-0.002453,0.004498,0.001091,0.004665,-0.002620,81.286565,0.004677,
1620,1120,-1.481592,-4.550529,0.999997,0.000209,-0.002310,0.005470,0.000613,0.005518,-0.002358,85.525755,0.005538,
1490,1770,-0.262200,-0.964740,0.999998,0.000154,-0.001388,0.004068,0.000080,0.004069,-0.001389,89.163342,0.004137,
630,220,0.790996,-9.033101,0.999997,0.000196,-0.002421,0.005125,0.000248,0.005133,-0.002429,88.116937,0.005136,
750,1280,1.417546,-3.739425,0.999997,0.000220,-0.002815,0.005418,-0.000471,0.005445,-0.002842,-86.738724,0.005447,
1760,1730,-0.833501,-1.458400,0.999998,0.000163,-0.002427,0.005024,0.000039,0.005024,-0.002427,89.701658,0.005025,
1380,1130,-0.803969,-3.629976,0.999997,0.000000,-0.001866,0.006421,-0.003912,0.007976,-0.003421,-68.325061,0.008003,
1700,370,-0.763397,-8.486951,0.999998,0.000150,-0.002251,0.004964,-0.000023,0.004964,-0.002251,-89.818894,0.004971,
830,1070,1.571387,-4.818850,0.999997,0.000193,-0.002061,0.005199,-0.000321,0.005213,-0.002075,-87.470672,0.005249,
1440,1030,-1.202578,-5.017343,0.999992,0.000351,-0.003514,0.009205,-0.000047,0.009206,-0.003514,-89.786827,0.009291,
1300,500,-0.086551,-8.443236,0.999998,0.000146,-0.001388,0.003532,0.000346,0.003556,-0.001412,85.993073,0.003581,
1450,1650,-0.291627,-1.425074,0.999998,0.000202,-0.001615,0.004163,-0.000267,0.004175,-0.001628,-87.355805,0.004209,
1470,1640,-0.331825,-1.491053,0.999998,0.000193,-0.001807,0.004305,-0.000341,0.004324,-0.001826,-86.812723,0.004341,
1000,2000,0.028436,-0.111624,0.999999,0.000115,-0.000107,0.003188,-0.000373,0.003230,-0.000149,-83.624042,0.003647,
1110,420,0.149501,-8.693967,0.999999,0.000172,-0.001329,0.003736,-0.000295,0.003753,-0.001346,-86.677449,0.003802,
1480,110,-0.080749,-9.782615,0.999998,0.000164,-0.000459,0.003492,-0.000409,0.003534,-0.000501,-84.148699,0.003824,
1570,1190,-1.191677,-4.103523,0.999998,0.000183,-0.003090,0.006100,0.000648,0.006146,-0.003135,85.988118,0.006146,
880,420,0.561901,-8.409895,0.999997,0.000214,-0.002173,0.004752,-0.000194,0.004758,-0.002178,-88.393914,0.004763,
1140,40,0.005348,-10.017792,0.999999,0.000150,-0.000084,0.003014,0.000097,0.003017,-0.000087,88.217470,0.003435,
1780,1020,-1.894189,-5.075989,0.999998,0.000146,-0.002163,0.004751,-0.000076,0.004751,-0.002164,-89.371749,0.004758,
810,1020,1.627339,-5.078721,0.999997,0.000183,-0.001961,0.005134,0.000088,0.005135,-0.001962,89.286448,0.005182,
930,500,0.520174,-8.106708,0.999998,0.000210,-0.002259,0.004763,-0.000426,0.004789,-0.002285,-86.538154,0.004790,
920,1190,1.106192,-4.061630,0.999998,0.000202,-0.003232,0.006315,-0.000558,0.006347,-0.003264,-86.668626,0.006348,
670,990,1.909981,-5.216667,0.999998,0.000178,-0.002162,0.004647,0.000129,0.004649,-0.002164,88.910948,0.004653,
730,200,0.516187,-9.288094,0.999997,0.000186,-0.001890,0.004901,0.000682,0.004969,-0.001957,84.324119,0.005006,
1710,170,-0.406987,-9.446602,0.999997,0.000202,-0.001470,0.004642,-0.000923,0.004778,-0.001606,-81.600963,0.004863,
1200,780,0.036646,-7.727691,0.999998,0.000188,-0.001282,0.001377,-0.000906,0.001656,-0.001562,-72.866243,0.001860,
1410,1600,-0.247743,-1.584905,0.999998,0.000167,-0.001664,0.004041,-0.000447,0.004076,-0.001699,-85.544041,0.004095,
1540,120,-0.128512,-9.733051,0.999998,0.000161,-0.000570,0.003703,-0.000563,0.003776,-0.000643,-82.618174,0.004040,
1260,650,-0.032250,-7.993646,0.999999,0.000130,-0.001139,0.002687,0.000393,0.002727,-0.001179,84.202497,0.002736,
1100,230,0.095008,-9.389165,0.999998,0.000147,-0.000785,0.003533,0.000096,0.003535,-0.000787,88.730740,0.003712,
1100,560,0.187296,-8.146106,0.999998,0.000169,-0.001800,0.003800,-0.000865,0.003930,-0.001931,-81.414311,0.003931,
560,940,2.113906,-5.389296,0.999992,0.000000,-0.001870,0.004072,0.000045,0.004072,-0.001870,89.566556,0.004077,
940,170,0.180917,-9.549297,0.999998,0.000162,-0.000894,0.003821,0.000415,0.003857,-0.000930,85.010321,0.004026,
1360,620,-0.184864,-7.923495,0.999998,0.000169,-0.001878,0.003779,0.001064,0.003972,-0.002071,79.692903,0.003973,
1750,600,-1.213916,-7.229996,0.999998,0.000182,-0.002688,0.005235,-0.000025,0.005236,-0.002688,-89.821471,0.005236,
970,310,0.289938,-9.010421,0.999998,0.000175,-0.001538,0.004135,0.000001,0.004135,-0.001538,89.991081,0.004180,
1560,1350,-0.811575,-3.108499,0.999997,0.000185,-0.003329,0.005783,-0.000294,0.005792,-0.003338,-88.150980,0.005815,
760,60,0.107589,-9.925214,0.999998,0.000172,-0.000389,0.003838,0.001177,0.004144,-0.000695,75.444088,0.004438,
1810,820,-1.752040,-6.019391,0.999998,0.000173,-0.002437,0.004862,-0.000391,0.004883,-0.002458,-86.944384,0.004883,
1380,1120,-0.834232,-3.706209,0.999993,0.000000,-0.001976,0.007197,-0.004278,0.008882,-0.003662,-68.497120,0.008928,
1620,360,-0.572027,-8.646451,0.999997,0.000179,-0.001985,0.004734,-0.000032,0.004734,-0.001985,-89.727585,0.004754,
1570,1170,-1.242090,-4.222563,0.999997,0.000213,-0.002921,0.006036,0.000730,0.006095,-0.002980,85.371537,0.006095,
990,2000,0.029439,-0.112198,0.999999,0.000131,-0.000145,0.003181,-0.000391,0.003226,-0.000191,-83.384476,0.003620,
830,1050,1.580578,-4.922829,0.999998,0.000181,-0.001986,0.005164,-0.000207,0.005170,-0.001992,-88.341737,0.005215,
1090,420,0.177197,-8.676292,0.999998,0.000168,-0.001410,0.003828,-0.000294,0.003845,-0.001426,-86.792712,0.003887,
1090,900,0.672096,-6.663430,0.999996,0.000222,-0.001756,0.004654,-0.002994,0.005835,-0.002937,-68.474816,0.005835,
620,1520,1.355392,-2.660969,0.999997,0.000190,-0.002544,0.005109,0.000027,0.005109,-0.002544,89.797024,0.005109,
1490,1750,-0.281617,-1.045535,0.999998,0.000174,-0.001479,0.004095,0.000010,0.004095,-0.001479,89.898877,0.004148,
1450,670,-0.414572,-7.459214,0.999996,0.000255,-0.002927,0.005080,0.001166,0.005247,-0.003093,81.878634,0.005275,
600,590,1.492063,-7.107635,0.999998,0.000177,-0.002541,0.005076,0.000025,0.005076,-0.002541,89.813643,0.005076,
1170,40,0.004466,-10.017489,0.999999,0.000125,-0.000030,0.002991,0.000073,0.002993,-0.000032,88.608145,0.003438,
1650,1660,-0.682108,-1.644490,0.999997,0.000203,-0.002312,0.004922,-0.000102,0.004924,-0.002313,-89.189794,0.004927,
670,970,1.901845,-5.309181,0.999998,0.000191,-0.002204,0.004660,0.000160,0.004664,-0.002208,88.666142,0.004666,
1660,1080,-1.619640,-4.774233,0.999997,0.000207,-0.002111,0.005153,0.000351,0.005170,-0.002128,87.237404,0.005196,
880,180,0.250205,-9.485008,0.999998,0.000178,-0.001275,0.004066,0.000502,0.004113,-0.001322,84.676456,0.004200,
1530,1200,-1.035342,-3.973561,0.999998,0.000152,-0.003415,0.006431,0.000400,0.006447,-0.003431,87.677276,0.006452,
760,2000,0.098018,-0.137850,0.999999,0.000137,-0.000351,0.003776,-0.001164,0.004082,-0.000657,-75.290638,0.004383,
730,1300,1.436040,-3.650902,0.999998,0.000205,-0.002775,0.005346,-0.000409,0.005367,-0.002796,-87.123596,0.005369,
1410,730,-0.337007,-7.293829,0.999997,0.000203,-0.003136,0.005033,0.001636,0.005348,-0.003451,79.088526,0.005423,
1010,410,0.298179,-8.631351,0.999998,0.000193,-0.001662,0.004192,-0.000280,0.004206,-0.001676,-87.263801,0.004235,
1830,900,-1.915949,-5.622791,0.999998,0.000177,-0.002249,0.004611,-0.000242,0.004619,-0.002258,-87.979477,0.004620,
1300,480,-0.085380,-8.516576,0.999998,0.000163,-0.001366,0.003580,0.000306,0.003599,-0.001385,86.473825,0.003630,
1490,340,-0.310734,-8.885373,0.999998,0.000176,-0.001622,0.004196,0.000127,0.004198,-0.001625,88.748121,0.004234,
800,140,0.264976,-9.612870,0.999998,0.000179,-0.001293,0.004243,0.000811,0.004359,-0.001409,81.839798,0.004449,
750,140,0.332476,-9.584110,0.999998,0.000155,-0.001160,0.004516,0.001073,0.004712,-0.001356,79.644724,0.004851,
710,1570,1.054556,-2.258950,0.999998,0.000169,-0.002525,0.005140,0.000115,0.005141,-0.002527,89.139673,0.005142,
1870,470,-1.327247,-7.708830,0.999998,0.000182,-0.002488,0.005082,0.000042,0.005082,-0.002489,89.679513,0.005083,
1150,1310,0.101925,-2.442261,0.999997,0.000196,-0.001789,0.002771,0.001756,0.003369,-0.002387,71.200027,0.003465,
1830,590,-1.405697,-7.158474,0.999997,0.000185,-0.002583,0.005087,-0.000036,0.005087,-0.002583,-89.732062,0.005087,
1250,1370,-0.019136,-2.166679,0.999998,0.000157,-0.001056,0.002324,-0.000364,0.002363,-0.001095,-83.916452,0.002365,
1640,1750,-0.538075,-1.196616,0.999998,0.000180,-0.001891,0.004670,0.000193,0.004676,-0.001897,88.313683,0.004704,
920,1440,0.644746,-2.568821,0.999997,0.000208,-0.002898,0.005265,0.000559,0.005303,-0.002936,86.100036,0.005313,
1380,1110,-0.869115,-3.779302,0.999993,0.000000,-0.002351,0.008401,-0.004581,0.010088,-0.004038,-69.783681,0.010155,
1710,150,-0.353460,-9.543191,0.999997,0.000204,-0.001284,0.004588,-0.001006,0.004756,-0.001452,-80.539629,0.004874,
1810,800,-1.717452,-6.119125,0.999998,0.000186,-0.002492,0.004992,-0.000392,0.005013,-0.002513,-87.010629,0.005013,
560,1660,1.236832,-2.043049,0.999977,0.000000,0.000063,0.004305,0.000655,0.004404,-0.000036,81.414140,0.005065,
1690,1580,-0.880140,-2.106055,0.999998,0.000166,-0.002502,0.005070,-0.000156,0.005073,-0.002505,-88.822534,0.005073,
570,560,1.552315,-7.192315,0.999556,0.002451,-0.005069,0.005020,-0.000635,0.005060,-0.005108,-86.414565,0.005871,
820,1130,1.515906,-4.504437,0.999997,0.000196,-0.002335,0.005414,-0.000619,0.005463,-0.002384,-85.464694,0.005478,
750,1990,0.125085,-0.174964,0.999999,0.000142,-0.000423,0.003901,-0.001245,0.004234,-0.000756,-75.027237,0.004516,
1400,1140,-0.799077,-3.803727,0.999996,0.000242,-0.002729,0.006620,-0.002776,0.007382,-0.003491,-74.647068,0.007386,
1410,1580,-0.253696,-1.666088,0.999997,0.000197,-0.001706,0.004088,-0.000513,0.004133,-0.001751,-84.976614,0.004149,
1620,270,-0.449450,-9.067228,0.999998,0.000182,-0.001678,0.004513,-0.000312,0.004529,-0.001694,-87.126467,0.004577,
1740,1760,-0.733034,-1.275001,0.999998,0.000177,-0.002281,0.005001,0.000179,0.005006,-0.002285,88.594363,0.005012,
1360,600,-0.184658,-7.998194,0.999998,0.000164,-0.001834,0.003789,0.000978,0.003955,-0.001999,80.406503,0.003955,
1240,650,-0.010015,-8.005598,0.999999,0.000127,-0.001116,0.002617,0.000177,0.002625,-0.001124,87.284928,0.002634,
1210,360,0.024997,-8.956802,0.999999,0.000146,-0.001084,0.003513,-0.000092,0.003515,-0.001086,-88.854613,0.003599,
1750,620,-1.244108,-7.123299,0.999998,0.000173,-0.002698,0.005253,-0.000055,0.005253,-0.002699,-89.600836,0.005254,
1890,120,-0.612828,-9.416775,0.999997,0.000210,-0.002390,0.005487,-0.000828,0.005573,-0.002477,-84.061065,0.005585,
830,1030,1.590359,-5.026131,0.999997,0.000203,-0.001956,0.005184,-0.000051,0.005184,-0.001956,-89.587499,0.005236,
1100,580,0.187925,-8.072294,0.999998,0.000173,-0.001803,0.003812,-0.000916,0.003958,-0.001949,-80.962722,0.003958,
960,1260,0.777265,-3.516629,0.999997,0.000203,-0.003780,0.006420,0.000317,0.006429,-0.003790,88.220433,0.006464,
600,570,1.459983,-7.209295,0.999997,0.000185,-0.002534,0.005100,0.000001,0.005100,-0.002534,89.989698,0.005100,
1450,630,-0.395006,-7.653469,0.999997,0.000212,-0.002665,0.004767,0.001056,0.004915,-0.002813,82.068327,0.004932,
620,1500,1.386576,-2.761564,0.999997,0.000197,-0.002544,0.005109,0.000004,0.005109,-0.002544,89.970708,0.005109,
1200,760,0.031774,-7.755075,0.999998,0.000166,-0.001143,0.001578,-0.000875,0.001835,-0.001400,-73.621221,0.001918,
1160,40,0.004397,-10.018167,0.999999,0.000132,-0.000048,0.002997,0.000081,0.002999,-0.000051,88.483619,0.003434,
1660,1060,-1.629245,-4.873507,0.999998,0.000178,-0.002046,0.005073,0.000193,0.005078,-0.002051,88.446647,0.005109,
1410,710,-0.323507,-7.391239,0.999997,0.000196,-0.002945,0.004876,0.001545,0.005170,-0.003239,79.222744,0.005225,
670,950,1.889659,-5.402277,0.999998,0.000191,-0.002241,0.004750,0.000317,0.004764,-0.002255,87.407293,0.004766,
1510,1200,-0.964277,-3.928724,0.999997,0.000222,-0.003564,0.006599,0.000249,0.006605,-0.003570,88.597805,0.006612,
1040,1550,0.284246,-1.807379,0.999997,0.000185,-0.001928,0.004206,0.000617,0.004267,-0.001990,84.311087,0.004270,
760,1990,0.120663,-0.174466,0.999998,0.000140,-0.000481,0.003860,-0.001190,0.004164,-0.000786,-75.637131,0.004425,
1790,1660,-1.018036,-1.861034,0.999998,0.000167,-0.002451,0.005097,-0.000089,0.005098,-0.002452,-89.323111,0.005100,
1540,100,-0.100591,-9.806376,0.999998,0.000164,-0.000442,0.003550,-0.000576,0.003631,-0.000523,-81.950562,0.003926,
1860,1350,-1.675359,-3.551246,0.999997,0.000208,-0.002485,0.005036,0.000129,0.005038,-0.002488,89.020770,0.005038,
1000,1150,0.967511,-4.123409,0.999998,0.000178,-0.003412,0.007120,0.000012,0.007120,-0.003412,89.936243,0.007122,
880,140,0.187609,-9.644305,0.999998,0.000175,-0.000998,0.003896,0.000597,0.003968,-0.001070,83.147434,0.004106,
920,1870,0.216812,-0.596918,0.999998,0.000177,-0.000899,0.003943,-0.000453,0.003985,-0.000941,-84.699789,0.004166,
710,1300,1.488657,-3.674135,0.999997,0.000239,-0.002648,0.005280,-0.000388,0.005299,-0.002667,-87.202688,0.005299,
1010,390,0.287468,-8.714168,0.999998,0.000185,-0.001563,0.004173,-0.000205,0.004180,-0.001570,-87.953949,0.004223,
1300,460,-0.083534,-8.587873,0.999998,0.000148,-0.001321,0.003600,0.000266,0.003614,-0.001335,86.909840,0.003655,
800,160,0.311812,-9.525311,0.999998,0.000182,-0.001439,0.004371,0.000765,0.004470,-0.001538,82.625980,0.004542,
920,1030,1.422194,-5.026427,0.999997,0.000207,-0.001768,0.005645,-0.000030,0.005645,-0.001769,-89.765724,0.005774,
1260,160,-0.013793,-9.642853,0.999998,0.000165,-0.000460,0.003286,-0.000023,0.003287,-0.000460,-89.643357,0.003559,
920,1420,0.665766,-2.678570,0.999997,0.000207,-0.003005,0.005415,0.000569,0.005453,-0.003043,86.152617,0.005465,
1620,1750,-0.501959,-1.174906,0.999998,0.000188,-0.001849,0.004563,0.000150,0.004566,-0.001852,88.656481,0.004593,
1050,1350,0.329303,-2.675268,0.999997,0.000177,-0.002936,0.004875,0.001501,0.005154,-0.003215,79.488559,0.005206,
1380,950,-0.886508,-6.254390,0.999994,0.000000,-0.002096,0.008759,0.004507,0.010386,-0.003724,70.147677,0.010524,
1450,90,-0.053232,-9.853236,0.999998,0.000153,-0.000271,0.003322,-0.000353,0.003356,-0.000305,-84.445013,0.003712,
1620,1100,-1.507694,-4.656848,0.999997,0.000205,-0.002156,0.005359,0.000520,0.005395,-0.002192,86.063298,0.005426,
560,1650,1.239323,-2.077488,0.999980,0.000000,0.000155,0.004638,-0.000079,0.004639,0.000154,-88.994785,0.005448,
710,1550,1.080963,-2.362240,0.999998,0.000170,-0.002562,0.005159,0.000100,0.005160,-0.002563,89.256852,0.005160,
750,1970,0.182720,-0.257004,0.999998,0.000160,-0.000661,0.004023,-0.001215,0.004319,-0.000957,-76.290480,0.004537,
830,1010,1.585318,-5.130325,0.999998,0.000196,-0.001961,0.005179,0.000162,0.005182,-0.001965,88.699292,0.005233,
1710,130,-0.305883,-9.631058,0.999997,0.000197,-0.001093,0.004444,-0.001132,0.004667,-0.001315,-78.877177,0.004813,
1640,770,-1.193818,-6.451957,0.999997,0.000236,-0.003087,0.005776,-0.000375,0.005792,-0.003103,-87.582845,0.005797,
1580,170,-0.232788,-9.526916,0.999998,0.000205,-0.001164,0.004003,-0.000527,0.004056,-0.001217,-84.235632,0.004163,
1270,520,-0.048769,-8.389123,0.999998,0.000152,-0.001253,0.003396,0.000185,0.003403,-0.001260,87.724351,0.003441,
1220,230,0.006397,-9.411341,0.999998,0.000151,-0.000708,0.003410,-0.000015,0.003410,-0.000708,-89.789299,0.003599,
1150,1550,0.107209,-1.665699,0.999998,0.000161,-0.001432,0.003589,0.000447,0.003628,-0.001471,84.956917,0.003650,
1430,1000,-1.148962,-5.320360,0.999996,0.000259,-0.003953,0.010116,0.000801,0.010161,-0.003998,86.751523,0.010238,
1830,570,-1.374736,-7.260025,0.999997,0.000198,-0.002563,0.005124,0.000015,0.005124,-0.002563,89.887887,0.005124,
1370,360,-0.155607,-8.907554,0.999998,0.000152,-0.001208,0.003746,0.000130,0.003750,-0.001211,88.503419,0.003827,
1570,1150,-1.296057,-4.345209,0.999997,0.000205,-0.002711,0.005976,0.000733,0.006038,-0.002773,85.210159,0.006044,
1220,1610,0.013903,-1.420661,0.999998,0.000160,-0.001214,0.003513,0.000086,0.003514,-0.001215,88.959634,0.003570,
1880,120,-0.588662,-9.440640,0.999997,0.000212,-0.002379,0.005463,-0.000812,0.005546,-0.002462,-84.148672,0.005558,
1740,1740,-0.768503,-1.375210,0.999998,0.000186,-0.002324,0.005007,0.000088,0.005008,-0.002325,89.312952,0.005012,
1660,1040,-1.640445,-4.977011,0.999997,0.000198,-0.002016,0.005096,0.000123,0.005098,-0.002018,89.011404,0.005135,
1490,320,-0.294761,-8.970697,0.999998,0.000193,-0.001532,0.004192,0.000042,0.004192,-0.001532,89.579310,0.004242,
1150,40,0.004822,-10.017924,0.999999,0.000147,-0.000070,0.003005,0.000093,0.003008,-0.000073,88.261684,0.003433,
620,1480,1.415598,-2.865929,0.999997,0.000199,-0.002563,0.005118,-0.000001,0.005118,-0.002563,-89.992185,0.005118,
1200,740,0.030154,-7.790106,0.999998,0.000152,-0.001117,0.001822,-0.000778,0.002016,-0.001311,-76.047862,0.002046,
1100,600,0.190075,-7.993239,0.999998,0.000174,-0.001835,0.003829,-0.000998,0.004000,-0.002005,-80.289306,0.004000,
900,810,1.030271,-6.329992,0.999998,0.000198,-0.003414,0.006202,0.000297,0.006211,-0.003423,88.230368,0.006222,
670,930,1.865805,-5.499658,0.999998,0.000184,-0.002275,0.004790,0.000353,0.004807,-0.002293,87.150297,0.004809,
850,1360,0.966939,-3.152751,0.999998,0.000193,-0.003148,0.005693,0.000041,0.005693,-0.003149,89.731752,0.005704,
1670,2010,-0.059956,-0.094101,0.999998,0.000154,-0.000473,0.003579,0.000962,0.003796,-0.000690,77.298761,0.004045,
880,120,0.158011,-9.720922,0.999998,0.000173,-0.000852,0.003835,0.000660,0.003926,-0.000943,82.137474,0.004099,
1700,1770,-0.630871,-1.174111,0.999998,0.000174,-0.002098,0.004868,0.000287,0.004879,-0.002110,87.647018,0.004894,
1010,370,0.276490,-8.798277,0.999998,0.000174,-0.001495,0.004127,-0.000166,0.004131,-0.001500,-88.310369,0.004183,
890,1300,0.946109,-3.433151,0.999997,0.000200,-0.003405,0.006016,-0.000005,0.006016,-0.003405,-89.970352,0.006033,
980,1170,0.964446,-4.056217,0.999998,0.000156,-0.003502,0.006838,-0.000170,0.006841,-0.003505,-89.059558,0.006841,
1300,440,-0.082700,-8.659540,0.999999,0.000144,-0.001271,0.003582,0.000194,0.003590,-0.001279,87.710191,0.003639,
1390,1600,-0.213953,-1.559277,0.999998,0.000190,-0.001682,0.003975,-0.000484,0.004016,-0.001723,-85.142005,0.004030,
960,1030,1.350333,-5.024655,0.999998,0.000171,-0.001938,0.006216,-0.000061,0.006216,-0.001939,-89.571972,0.006361,
1260,120,-0.011140,-9.772633,0.999998,0.000156,-0.000329,0.003165,-0.000022,0.003166,-0.000329,-89.638403,0.003481,
920,1400,0.687655,-2.786517,0.999998,0.000202,-0.003112,0.005507,0.000530,0.005540,-0.003144,86.494280,0.005556,
960,1220,0.880311,-3.777887,0.999998,0.000206,-0.003745,0.006603,0.000002,0.006603,-0.003745,89.986672,0.006623,
690,1780,0.774104,-1.225575,0.999997,0.000182,-0.002369,0.005035,-0.000208,0.005040,-0.002374,-88.389698,0.005043,
800,600,0.973183,-7.368116,0.999998,0.000148,-0.002827,0.005345,-0.000122,0.005347,-0.002828,-89.144721,0.005350,
1410,690,-0.315101,-7.486966,0.999997,0.000208,-0.002802,0.004710,0.001478,0.004990,-0.003082,79.258505,0.005036,
1380,940,-0.852050,-6.333398,0.999994,0.000000,-0.001932,0.007667,0.004272,0.009293,-0.003558,69.165467,0.009377,
1710,110,-0.243948,-9.721351,0.999998,0.000171,-0.000886,0.004314,-0.001215,0.004584,-0.001155,-77.478927,0.004768,
1280,1270,-0.064351,-2.409968,0.999997,0.000223,-0.001523,0.001680,-0.001365,0.002183,-0.002026,-69.773390,0.002435,
560,1640,1.241922,-2.123803,0.999972,0.000000,-0.000149,0.005154,-0.001080,0.005366,-0.000360,-78.921669,0.005999,
1050,1310,0.361385,-2.878609,0.999997,0.000198,-0.003267,0.005161,0.001645,0.005470,-0.003576,79.334033,0.005556,
830,1430,0.922793,-2.798360,0.999998,0.000188,-0.002931,0.005416,0.000166,0.005419,-0.002934,88.861537,0.005426,
580,960,2.087852,-5.323205,0.999998,0.000180,-0.001948,0.004151,-0.000027,0.004151,-0.001948,-89.745307,0.004154,
760,1490,1.032641,-2.594624,0.999998,0.000210,-0.002693,0.005249,0.000122,0.005251,-0.002695,89.117458,0.005252,
1750,640,-1.276400,-7.017411,0.999998,0.000181,-0.002711,0.005263,-0.000120,0.005265,-0.002713,-89.136080,0.005266,
1450,70,-0.036970,-9.920759,0.999999,0.000118,-0.000184,0.003250,-0.000366,0.003288,-0.000222,-83.990963,0.003675,
1180,1930,0.017985,-0.324135,0.999999,0.000142,-0.000289,0.003199,-0.000054,0.003200,-0.000290,-89.114107,0.003539,
1250,520,-0.023748,-8.397055,0.999998,0.000186,-0.001271,0.003349,0.000174,0.003356,-0.001277,87.849104,0.003388,
1470,820,-0.711901,-6.512692,0.999997,0.000202,-0.003898,0.006548,0.000541,0.006576,-0.003926,87.044250,0.006617,
1430,980,-1.115183,-5.506133,0.999993,0.000334,-0.003699,0.009271,0.001193,0.009379,-0.003807,84.785777,0.009435,
750,1950,0.233082,-0.337464,0.999998,0.000183,-0.000820,0.004291,-0.001227,0.004570,-0.001099,-77.176012,0.004771,
750,120,0.277250,-9.674854,0.999998,0.000164,-0.000962,0.004449,0.001233,0.004716,-0.001229,77.749931,0.004893,
1350,360,-0.130645,-8.920275,0.999998,0.000148,-0.001216,0.003735,0.000168,0.003740,-0.001222,88.058973,0.003815,
670,910,1.845360,-5.594488,0.999998,0.000185,-0.002280,0.004778,0.000320,0.004792,-0.002295,87.413106,0.004794,
1660,1020,-1.641004,-5.079594,0.999997,0.000183,-0.002028,0.005077,-0.000115,0.005079,-0.002030,-89.073519,0.005113,
1660,1890,-0.317813,-0.572190,0.999998,0.000153,-0.001444,0.004364,0.000751,0.004460,-0.001540,82.751862,0.004531,
790,1360,1.151090,-3.249050,0.999998,0.000183,-0.002951,0.005527,-0.000142,0.005529,-0.002953,-89.042485,0.005533,
1730,1560,-1.009364,-2.275127,0.999999,0.000140,-0.002547,0.005138,-0.000114,0.005140,-0.002548,-89.151810,0.005140,
1800,110,-0.372779,-9.658678,0.999998,0.000195,-0.001483,0.005048,-0.001469,0.005363,-0.001799,-77.885587,0.005459,
800,310,0.591963,-8.833608,0.999998,0.000209,-0.002161,0.004793,0.000126,0.004795,-0.002164,88.965213,0.004803,
1740,1720,-0.801726,-1.476408,0.999998,0.000182,-0.002363,0.005037,0.000024,0.005037,-0.002363,89.815914,0.005040,
670,1740,0.896385,-1.461224,0.999998,0.000157,-0.002413,0.005074,-0.000051,0.005074,-0.002413,-89.609706,0.005076,
1340,40,-0.007995,-10.018094,0.999999,0.000138,-0.000079,0.003001,-0.000138,0.003008,-0.000086,-87.439748,0.003425,
880,100,0.122788,-9.797866,0.999998,0.000168,-0.000725,0.003677,0.000682,0.003781,-0.000828,81.388812,0.003975,
870,1300,1.011757,-3.470051,0.999998,0.000160,-0.003294,0.005937,-0.000126,0.005939,-0.003296,-89.220940,0.005951,
1200,720,0.029763,-7.825859,0.999998,0.000155,-0.001104,0.002052,-0.000701,0.002201,-0.001253,-78.021717,0.002208,
1300,420,-0.080377,-8.730410,0.999999,0.000134,-0.001209,0.003612,0.000170,0.003618,-0.001215,87.984121,0.003682,
1880,770,-1.836468,-6.179008,0.999998,0.000191,-0.002378,0.004835,-0.000115,0.004837,-0.002380,-89.084714,0.004837,
620,1460,1.447924,-2.967976,0.999997,0.000193,-0.002563,0.005087,-0.000039,0.005087,-0.002564,-89.710729,0.005087,
1690,600,-1.048398,-7.320563,0.999998,0.000152,-0.002797,0.005321,0.000066,0.005321,-0.002797,89.531340,0.005324,
1680,390,-0.745074,-8.417299,0.999997,0.000190,-0.002330,0.004969,0.000076,0.004970,-0.002331,89.399638,0.004973,
1100,620,0.189132,-7.919431,0.999998,0.000180,-0.001895,0.003827,-0.001078,0.004024,-0.002091,-79.680684,0.004025,
1700,1750,-0.665283,-1.271072,0.999998,0.000188,-0.002142,0.004870,0.000181,0.004874,-0.002147,88.524060,0.004886,
1010,350,0.265606,-8.878371,0.999998,0.000174,-0.001411,0.004010,-0.000135,0.004013,-0.001414,-88.577056,0.004071,
960,680,0.589346,-7.251575,0.999997,0.000211,-0.003248,0.005527,-0.000799,0.005599,-0.003321,-84.838163,0.005632,
1050,1290,0.383159,-2.981746,0.999997,0.000190,-0.003483,0.005384,0.001634,0.005675,-0.003775,79.886442,0.005777,
920,1380,0.713392,-2.898855,0.999997,0.000213,-0.003237,0.005622,0.000478,0.005648,-0.003263,86.923067,0.005671,
1450,1500,-0.360008,-2.074479,0.999998,0.000185,-0.002222,0.004481,-0.000751,0.004564,-0.002305,-83.685562,0.004564,
1260,100,-0.006997,-9.835663,0.999998,0.000157,-0.000275,0.003127,-0.000038,0.003127,-0.000275,-89.359092,0.003463,
1510,1720,-0.341557,-1.194834,0.999997,0.000185,-0.001671,0.004365,-0.000052,0.004365,-0.001671,-89.501952,0.004405,
1380,930,-0.823678,-6.411921,0.999996,0.000000,-0.001877,0.006886,0.004004,0.008440,-0.003430,68.790103,0.008489,
1280,1250,-0.079662,-2.439790,0.999998,0.000195,-0.001789,0.001547,-0.001296,0.001991,-0.002233,-71.078321,0.002451,
830,1450,0.894003,-2.693251,0.999997,0.000188,-0.002873,0.005381,0.000209,0.005386,-0.002879,88.552915,0.005390,
1710,90,-0.195671,-9.802263,0.999998,0.000162,-0.000709,0.004046,-0.001193,0.004329,-0.000991,-76.675237,0.004536,
960,230,0.226904,-9.326189,0.999998,0.000166,-0.001254,0.003977,0.000207,0.003985,-0.001262,87.740582,0.004074,
710,790,1.553927,-6.224506,0.999997,0.000214,-0.002679,0.005168,0.000465,0.005195,-0.002707,86.623328,0.005197,
860,1550,0.695662,-2.116015,0.999998,0.000183,-0.002519,0.005032,0.000311,0.005045,-0.002532,87.644608,0.005045,
1540,80,-0.076222,-9.875740,0.999999,0.000131,-0.000324,0.003446,-0.000612,0.003543,-0.000421,-81.007290,0.003871,
1620,1060,-1.550679,-4.869881,0.999998,0.000196,-0.001992,0.005202,0.000235,0.005210,-0.002000,88.133563,0.005257,
1850,1200,-1.901088,-4.264485,0.999998,0.000135,-0.002280,0.004724,0.000280,0.004735,-0.002291,87.717716,0.004736,
1490,1730,-0.298205,-1.131600,0.999997,0.000188,-0.001571,0.004216,-0.000076,0.004217,-0.001572,-89.252096,0.004262,
1410,670,-0.302683,-7.581420,0.999997,0.000218,-0.002653,0.004584,0.001390,0.004842,-0.002911,79.491153,0.004875,
1620,110,-0.165857,-9.750644,0.999998,0.000138,-0.000679,0.003879,-0.000823,0.004023,-0.000823,-80.075745,0.004251,
1470,840,-0.768112,-6.377640,0.999996,0.000232,-0.003921,0.006724,0.000424,0.006741,-0.003938,87.722912,0.006773,
1780,1000,-1.886900,-5.170104,0.999998,0.000148,-0.002167,0.004731,-0.000152,0.004735,-0.002170,-88.737776,0.004740,
640,90,0.327899,-9.738244,0.999996,0.000229,-0.001815,0.005197,0.001445,0.005483,-0.002101,78.799388,0.005533,
800,580,0.945385,-7.470338,0.999998,0.000154,-0.002749,0.005290,-0.000155,0.005293,-0.002752,-88.894184,0.005295,
1360,580,-0.182897,-8.076875,0.999998,0.000170,-0.001800,0.003814,0.000909,0.003958,-0.001944,81.032925,0.003958,
1440,1980,-0.040965,-0.176976,0.999999,0.000157,-0.000242,0.003278,0.000343,0.003311,-0.000275,84.485819,0.003674,
560,1630,1.318464,-2.190099,0.999954,0.000000,-0.000831,0.005458,-0.001408,0.005759,-0.001132,-77.937572,0.006102,
850,1040,1.546468,-4.974103,0.999998,0.000202,-0.001915,0.005244,-0.000159,0.005248,-0.001918,-88.727788,0.005311,
1170,520,0.077907,-8.380096,0.999997,0.000195,-0.001318,0.003490,-0.000372,0.003518,-0.001346,-85.601367,0.003551,
1320,1930,-0.028416,-0.325162,0.999998,0.000162,-0.000358,0.003230,0.000109,0.003233,-0.000361,88.268095,0.003543,
1090,1150,0.696900,-3.438023,0.999993,0.000300,-0.001732,0.004715,0.003269,0.006083,-0.003100,67.299698,0.006083,
1610,1500,-0.769213,-2.385259,0.999998,0.000175,-0.002709,0.005186,-0.000313,0.005199,-0.002721,-87.731599,0.005201,
900,750,0.900608,-6.697218,0.999997,0.000191,-0.003447,0.006043,-0.000065,0.006043,-0.003448,-89.605237,0.006063,
750,1190,1.587451,-4.217565,0.999998,0.000199,-0.002528,0.005206,-0.000552,0.005245,-0.002567,-85.939168,0.005245,
670,1110,1.882990,-4.652885,0.999998,0.000161,-0.002262,0.004789,-0.000340,0.004805,-0.002279,-87.242891,0.004807,
600,170,0.723410,-9.221158,0.999998,0.000181,-0.002444,0.005136,0.000362,0.005153,-0.002461,87.274567,0.005155,
1290,800,-0.090580,-7.604276,0.999998,0.000157,-0.001816,0.001854,0.001546,0.002418,-0.002380,69.939840,0.002771,
990,1360,0.508210,-2.824536,0.999997,0.000230,-0.003270,0.005465,0.001018,0.005582,-0.003387,83.441664,0.005624,
1570,1130,-1.338791,-4.461675,0.999997,0.000208,-0.002482,0.005839,0.000723,0.005901,-0.002544,85.070144,0.005920,
1830,550,-1.344970,-7.361844,0.999997,0.000202,-0.002544,0.005137,0.000025,0.005138,-0.002544,89.811338,0.005138,
1660,1000,-1.630841,-5.181432,0.999998,0.000177,-0.002043,0.005066,-0.000192,0.005071,-0.002048,-88.450731,0.005103,
1630,1600,-0.707929,-1.909983,0.999998,0.000178,-0.002393,0.004954,-0.000216,0.004960,-0.002399,-88.319479,0.004961,
1070,1220,0.452096,-3.265673,0.999995,0.000248,-0.003687,0.005619,0.001717,0.005925,-0.003993,79.874108,0.006044,
1330,40,-0.006678,-10.017899,0.999999,0.000125,-0.000092,0.003000,-0.000118,0.003005,-0.000096,-87.815019,0.003416,
1200,700,0.031339,-7.869629,0.999998,0.000151,-0.001117,0.002290,-0.000618,0.002398,-0.001226,-80.034321,0.002398,
800,290,0.560403,-8.928041,0.999998,0.000190,-0.002109,0.004729,0.000207,0.004735,-0.002116,88.264310,0.004744,
1880,760,-1.818634,-6.227969,0.999998,0.000184,-0.002409,0.004895,-0.000126,0.004897,-0.002411,-89.011814,0.004898,
930,480,0.503871,-8.202345,0.999997,0.000216,-0.002229,0.004760,-0.000397,0.004782,-0.002252,-86.757815,0.004785,
880,80,0.092862,-9.867282,0.999999,0.000140,-0.000537,0.003552,0.000707,0.003670,-0.000656,80.464801,0.003915,
1300,400,-0.078247,-8.802268,0.999999,0.000131,-0.001161,0.003624,0.000127,0.003628,-0.001165,88.485837,0.003704,
620,1440,1.480046,-3.069165,0.999997,0.000205,-0.002563,0.005099,-0.000055,0.005099,-0.002563,-89.589784,0.005100,
1370,1580,-0.185762,-1.612377,0.999998,0.000177,-0.001574,0.003887,-0.000496,0.003931,-0.001618,-84.850801,0.003952,
1150,210,0.050384,-9.472718,0.999999,0.000142,-0.000643,0.003405,0.000079,0.003407,-0.000644,88.882325,0.003620,
1430,1500,-0.317118,-2.037608,0.999997,0.000185,-0.002161,0.004359,-0.000817,0.004459,-0.002262,-82.968145,0.004460,
610,1300,1.743435,-3.788720,0.999998,0.000159,-0.002461,0.004909,-0.000203,0.004915,-0.002467,-88.421188,0.004915,
1800,1790,-0.816991,-1.217745,0.999998,0.000234,-0.002351,0.005053,0.000286,0.005064,-0.002362,87.789779,0.005068,
920,1580,0.521383,-1.869244,0.999997,0.000208,-0.002257,0.004733,0.000390,0.004755,-0.002279,86.819677,0.004756,
1740,1700,-0.834881,-1.577224,0.999997,0.000195,-0.002407,0.005027,0.000004,0.005027,-0.002407,89.972580,0.005028,
1010,330,0.252204,-8.959672,0.999998,0.000165,-0.001354,0.004046,-0.000056,0.004046,-0.001354,-89.402306,0.004119,
1260,80,-0.007106,-9.898365,0.999998,0.000152,-0.000194,0.003049,-0.000037,0.003050,-0.000195,-89.342680,0.003415,
1380,30,-0.006636,-10.046424,0.999999,0.000000,-0.000031,0.003061,-0.000208,0.003075,-0.000045,-86.172093,0.003525,
1810,420,-1.104239,-8.059131,0.999998,0.000157,-0.002505,0.005048,0.000080,0.005049,-0.002506,89.395750,0.005049,
960,660,0.568781,-7.361318,0.999997,0.000211,-0.003118,0.005395,-0.000797,0.005469,-0.003192,-84.696595,0.005494,
1100,1360,0.196262,-2.452687,0.999998,0.000170,-0.002279,0.003925,0.001638,0.004331,-0.002685,76.081426,0.004372,
800,560,0.919351,-7.577126,0.999998,0.000168,-0.002694,0.005287,-0.000187,0.005291,-0.002699,-88.661345,0.005292,
830,1470,0.868712,-2.582715,0.999998,0.000169,-0.002832,0.005342,0.000222,0.005348,-0.002838,88.444955,0.005351,
1710,70,-0.137069,-9.885628,0.999998,0.000149,-0.000502,0.003952,-0.001230,0.004269,-0.000819,-75.537763,0.004532,
1440,1960,-0.053714,-0.242043,0.999998,0.000156,-0.000320,0.003310,0.000312,0.003337,-0.000347,85.124904,0.003669,
1410,650,-0.296481,-7.672177,0.999998,0.000180,-0.002496,0.004491,0.001274,0.004716,-0.002721,79.983764,0.004735,
560,1620,1.369552,-2.248016,0.999946,0.000000,-0.001418,0.005320,-0.000941,0.005449,-0.001547,-82.195818,0.005616,
1050,1270,0.410722,-3.093400,0.999997,0.000226,-0.003658,0.005592,0.001631,0.005871,-0.003937,80.288058,0.005984,
1150,520,0.105691,-8.359612,0.999998,0.000178,-0.001460,0.003577,-0.000503,0.003627,-0.001510,-84.350613,0.003644,
1000,1530,0.375761,-1.964687,0.999997,0.000197,-0.002113,0.004462,0.000646,0.004525,-0.002176,84.441228,0.004526,
1020,1930,0.081147,-0.345314,0.999998,0.000205,-0.000466,0.003406,-0.000309,0.003430,-0.000491,-85.465404,0.003710,
750,1930,0.294542,-0.429936,0.999998,0.000189,-0.001046,0.004479,-0.001197,0.004727,-0.001294,-78.291130,0.004886,
830,1040,1.585620,-4.974494,0.999997,0.000192,-0.001959,0.005172,-0.000155,0.005175,-0.001963,-88.752235,0.005225,
1080,1170,0.614684,-3.458268,0.999996,0.000220,-0.002678,0.005027,0.002397,0.005712,-0.003363,74.052904,0.005742,
1310,800,-0.128286,-7.508056,0.999997,0.000222,-0.002048,0.002491,0.001937,0.003205,-0.002762,69.757749,0.003474,
1320,40,-0.005335,-10.018076,0.999999,0.000121,-0.000074,0.002987,-0.000098,0.002990,-0.000077,-88.174676,0.003409,
670,1350,1.504023,-3.459444,0.999997,0.000217,-0.002646,0.005132,-0.000252,0.005140,-0.002655,-88.149544,0.005141,
760,1750,0.670776,-1.275746,0.999998,0.000190,-0.002146,0.004866,-0.000173,0.004870,-0.002150,-88.584052,0.004881,
1660,980,-1.622353,-5.281376,0.999997,0.000183,-0.002090,0.005111,-0.000298,0.005123,-0.002102,-87.637862,0.005151,
990,1340,0.529189,-2.935477,0.999997,0.000244,-0.003407,0.005631,0.000987,0.005738,-0.003513,83.836819,0.005786,
630,640,1.494944,-6.897982,0.999998,0.000186,-0.002525,0.005090,0.000090,0.005091,-0.002527,89.326554,0.005091,
1610,1600,-0.659913,-1.878619,0.999998,0.000179,-0.002400,0.004923,-0.000239,0.004931,-0.002407,-88.134527,0.004931,
1740,1680,-0.863884,-1.678496,0.999998,0.000202,-0.002428,0.005044,-0.000030,0.005044,-0.002428,-89.766692,0.005045,
1370,2020,-0.007064,-0.048443,0.999998,0.000000,-0.000001,0.003025,0.000169,0.003034,-0.000010,86.820074,0.003498,
1620,190,-0.316047,-9.421078,0.999998,0.000167,-0.001261,0.004326,-0.000619,0.004393,-0.001329,-83.754971,0.004506,
1010,310,0.238630,-9.040505,0.999998,0.000158,-0.001274,0.003965,-0.000023,0.003965,-0.001274,-89.743047,0.004048,
620,1420,1.513189,-3.172523,0.999997,0.000205,-0.002555,0.005088,-0.000078,0.005088,-0.002556,-89.417822,0.005088,
1620,1040,-1.561714,-4.974296,0.999998,0.000181,-0.001923,0.005247,0.000137,0.005250,-0.001926,88.902502,0.005312,
1880,750,-1.800292,-6.277785,0.999998,0.000184,-0.002426,0.004923,-0.000128,0.004925,-0.002428,-89.005584,0.004926,
710,1530,1.109890,-2.466899,0.999998,0.000188,-0.002600,0.005177,0.000076,0.005178,-0.002601,89.438196,0.005178,
630,1680,1.093065,-1.831233,0.999998,0.000170,-0.002449,0.005028,0.000044,0.005029,-0.002449,89.665300,0.005029,
940,230,0.251777,-9.314567,0.999998,0.000174,-0.001229,0.004050,0.000275,0.004065,-0.001243,87.027592,0.004165,
1830,530,-1.314737,-7.466828,0.999997,0.000193,-0.002539,0.005131,0.000038,0.005131,-0.002539,89.714411,0.005131,
650,1300,1.645271,-3.738866,0.999998,0.000192,-0.002507,0.004982,-0.000303,0.004994,-0.002520,-87.683891,0.004994,
1780,1790,-0.770308,-1.186547,0.999999,0.000159,-0.002362,0.005035,0.000257,0.005044,-0.002371,88.009564,0.005047,
1570,1110,-1.384077,-4.578718,0.999996,0.000225,-0.002286,0.005757,0.000684,0.005815,-0.002344,85.170943,0.005851,
1430,880,-0.751628,-6.291556,0.999996,0.000239,-0.003560,0.006962,0.000980,0.007053,-0.003650,84.724199,0.007054,
830,1490,0.842621,-2.476931,0.999997,0.000189,-0.002757,0.005260,0.000237,0.005267,-0.002764,88.307782,0.005269,
1460,1550,-0.361424,-1.870666,0.999998,0.000187,-0.002083,0.004447,-0.000613,0.004504,-0.002140,-84.680253,0.004506,
1300,380,-0.075896,-8.874442,0.999999,0.000131,-0.001117,0.003592,0.000079,0.003594,-0.001118,89.041955,0.003678,
880,60,0.058773,-9.940341,0.999998,0.000143,-0.000386,0.003530,0.000696,0.003650,-0.000506,80.208143,0.003955,
1200,680,0.033087,-7.916002,0.999999,0.000137,-0.001147,0.002485,-0.000532,0.002561,-0.001223,-81.829627,0.002562,
1890,370,-1.226532,-8.173923,0.999998,0.000196,-0.002476,0.004893,0.000058,0.004894,-0.002476,89.550336,0.004894,
1100,1340,0.199807,-2.531487,0.999998,0.000186,-0.002403,0.003991,0.001779,0.004453,-0.002864,75.454482,0.004513,
1700,1980,-0.148683,-0.214124,0.999998,0.000157,-0.000571,0.003944,0.001157,0.004223,-0.000850,76.434883,0.004467,
1260,60,-0.004012,-9.958303,0.999999,0.000126,-0.000125,0.003032,-0.000040,0.003033,-0.000125,-89.271528,0.003432,
560,1610,1.381072,-2.290884,0.999908,0.000000,-0.002018,0.004851,0.000061,0.004851,-0.002019,89.490568,0.004874,
1440,1940,-0.071325,-0.309702,0.999998,0.000177,-0.000429,0.003425,0.000325,0.003453,-0.000457,85.211854,0.003751,
950,40,0.023953,-10.011975,0.999999,0.000150,-0.000170,0.003257,0.000415,0.003307,-0.000219,83.191282,0.003699,
1390,760,-0.301244,-7.231893,0.999997,0.000194,-0.003142,0.004856,0.001894,0.005282,-0.003568,77.330870,0.005389,
1420,1930,-0.069109,-0.340448,0.999999,0.000145,-0.000499,0.003399,0.000223,0.003411,-0.000511,86.738491,0.003680,
920,1820,0.282066,-0.798678,0.999998,0.000173,-0.001209,0.004124,-0.000348,0.004147,-0.001232,-86.280231,0.004259,
1290,740,-0.065287,-7.726457,0.999998,0.000184,-0.001412,0.002315,0.001339,0.002746,-0.001844,72.147508,0.002800,
1000,1510,0.384842,-2.054903,0.999997,0.000200,-0.002235,0.004524,0.000699,0.004595,-0.002306,84.159694,0.004595,
800,540,0.892664,-7.684362,0.999998,0.000175,-0.002642,0.005207,-0.000196,0.005212,-0.002646,-88.572507,0.005212,
750,1890,0.398632,-0.609869,0.999997,0.000185,-0.001453,0.004686,-0.000978,0.004838,-0.001605,-81.160752,0.004929,
980,1550,0.408236,-1.908511,0.999997,0.000189,-0.002180,0.004556,0.000561,0.004603,-0.002227,85.269706,0.004604,
970,1360,0.574758,-2.882998,0.999998,0.000186,-0.003307,0.005596,0.000842,0.005675,-0.003386,84.641868,0.005710,
1050,1250,0.450556,-3.208025,0.999997,0.000233,-0.003845,0.005826,0.001550,0.006069,-0.004088,81.112069,0.006190,
1660,960,-1.601064,-5.385917,0.999997,0.000197,-0.002169,0.005216,-0.000471,0.005246,-0.002199,-86.364888,0.005268,
1270,540,-0.048459,-8.322107,0.999998,0.000150,-0.001254,0.003317,0.000237,0.003329,-0.001266,87.045298,0.003361,
1030,990,1.145741,-5.406590,0.999993,0.000313,-0.003676,0.009402,-0.000905,0.009464,-0.003738,-86.057976,0.009534,
670,370,0.986096,-8.340690,0.999998,0.000144,-0.002437,0.005043,-0.000003,0.005043,-0.002437,-89.978468,0.005044,
630,620,1.464035,-7.000769,0.999997,0.000185,-0.002549,0.005079,0.000062,0.005079,-0.002550,89.537717,0.005079,
1230,1620,0.002605,-1.383407,0.999997,0.000203,-0.001194,0.003531,0.000002,0.003531,-0.001194,89.980829,0.003592,
1880,740,-1.783963,-6.326471,0.999998,0.000205,-0.002434,0.004916,-0.000122,0.004918,-0.002436,-89.046397,0.004918,
1240,1870,-0.004852,-0.516968,0.999998,0.000174,-0.000594,0.003303,-0.000013,0.003303,-0.000594,-89.816010,0.003521,
1460,810,-0.646115,-6.617762,0.999997,0.000216,-0.003896,0.006385,0.000790,0.006445,-0.003956,85.628874,0.006501,
1740,1660,-0.895129,-1.780044,0.999998,0.000206,-0.002440,0.005080,-0.000080,0.005081,-0.002441,-89.391795,0.005082,
1390,950,-0.906652,-6.137564,0.999994,0.000000,-0.002625,0.008997,0.004137,0.010320,-0.003947,72.275334,0.010414,
1010,290,0.223102,-9.119626,0.999998,0.000151,-0.001204,0.003965,0.000054,0.003966,-0.001205,89.405278,0.004066,
960,1550,0.452593,-1.944366,0.999997,0.000220,-0.002319,0.004684,0.000553,0.004727,-0.002363,85.514091,0.004727,
560,1600,1.372626,-2.340691,0.999929,0.000000,-0.002199,0.004820,0.000229,0.004828,-0.002206,88.135068,0.004834,
1400,1930,-0.057931,-0.335397,0.999999,0.000128,-0.000437,0.003337,0.000220,0.003350,-0.000450,86.667746,0.003636,
920,840,1.038249,-6.175440,0.999998,0.000183,-0.003431,0.006353,0.000406,0.006370,-0.003448,87.625542,0.006377,
1250,1990,-0.002751,-0.137183,0.999998,0.000153,-0.000160,0.003042,0.000036,0.003042,-0.000161,89.358431,0.003424,
880,750,0.967937,-6.660317,0.999998,0.000155,-0.003359,0.005968,0.000048,0.005968,-0.003359,89.702188,0.005984,
810,1040,1.624881,-4.975857,0.999997,0.000179,-0.001999,0.005105,-0.000136,0.005108,-0.002001,-88.903553,0.005148,
1490,2000,-0.032212,-0.114380,0.999999,0.000150,-0.000243,0.003287,0.000422,0.003337,-0.000292,83.279597,0.003696,
650,1740,0.944642,-1.494921,0.999998,0.000184,-0.002425,0.005073,-0.000052,0.005073,-0.002425,-89.602689,0.005075,
1050,1230,0.502188,-3.328639,0.999996,0.000231,-0.003878,0.006032,0.001482,0.006249,-0.004095,81.675171,0.006348,
1850,420,-1.203952,-7.993611,0.999998,0.000155,-0.002462,0.005041,0.000075,0.005041,-0.002463,89.428355,0.005042,
990,1680,0.308582,-1.322160,0.999998,0.000190,-0.001635,0.004229,0.000194,0.004235,-0.001641,88.103700,0.004271,
1410,740,-0.345500,-7.241482,0.999997,0.000199,-0.003226,0.005112,0.001658,0.005430,-0.003544,79.153242,0.005513,
1150,170,0.037897,-9.607977,0.999998,0.000165,-0.000482,0.003335,0.000080,0.003337,-0.000483,88.796242,0.003606,
1300,50,-0.007212,-9.987802,0.999998,0.000143,-0.000075,0.002993,-0.000077,0.002995,-0.000077,-88.564130,0.003414,
750,1870,0.448329,-0.704050,0.999997,0.000194,-0.001580,0.004717,-0.000825,0.004823,-0.001687,-82.656683,0.004895,
1100,1320,0.205262,-2.611165,0.999997,0.000242,-0.002551,0.004056,0.001914,0.004570,-0.003066,74.959322,0.004658,
870,1990,0.072767,-0.158096,0.999998,0.000145,-0.000429,0.003594,-0.000747,0.003728,-0.000563,-79.810165,0.004019,
1880,160,-0.733846,-9.231217,0.999998,0.000165,-0.002455,0.005073,-0.000393,0.005094,-0.002476,-87.023470,0.005094,
1410,630,-0.291062,-7.758021,0.999998,0.000180,-0.002345,0.004333,0.001150,0.004526,-0.002538,80.496376,0.004537,
590,540,1.438584,-7.348333,0.999998,0.000177,-0.002838,0.005251,-0.000019,0.005251,-0.002838,-89.862540,0.005257,
1490,1710,-0.315199,-1.213922,0.999998,0.000171,-0.001654,0.004206,-0.000156,0.004210,-0.001658,-88.474003,0.004242,
820,1610,0.728847,-1.880042,0.999998,0.000200,-0.002398,0.004951,0.000166,0.004955,-0.002402,88.704601,0.004956,
620,1620,1.210108,-2.150432,0.999998,0.000162,-0.002504,0.005039,0.000077,0.005040,-0.002505,89.414624,0.005040,
1620,170,-0.280805,-9.504671,0.999997,0.000187,-0.001116,0.004197,-0.000685,0.004284,-0.001203,-82.768727,0.004419,
1510,1700,-0.359424,-1.282791,0.999997,0.000200,-0.001782,0.004315,-0.000139,0.004318,-0.001785,-88.696844,0.004340,
1230,420,0.001627,-8.748731,0.999998,0.000171,-0.001208,0.003512,-0.000020,0.003512,-0.001208,-89.756084,0.003569,
1780,980,-1.878977,-5.267128,0.999998,0.000158,-0.002175,0.004677,-0.000135,0.004680,-0.002178,-88.874135,0.004683,
870,1900,0.224011,-0.499839,0.999997,0.000180,-0.001150,0.004074,-0.000617,0.004146,-0.001222,-83.354740,0.004261,
1780,1230,-1.689251,-4.057098,0.999998,0.000159,-0.002502,0.004991,0.000449,0.005018,-0.002529,86.583577,0.005018,
1440,1920,-0.086119,-0.378570,0.999998,0.000146,-0.000515,0.003461,0.000292,0.003483,-0.000537,85.827682,0.003750,
1010,270,0.207430,-9.197867,0.999998,0.000149,-0.001114,0.003877,0.000108,0.003879,-0.001117,88.757740,0.003994,
1500,1190,-0.958704,-3.969535,0.999997,0.000221,-0.003567,0.006685,0.000221,0.006690,-0.003572,88.768308,0.006695,
590,170,0.748384,-9.195528,0.999998,0.000181,-0.002483,0.005060,0.000367,0.005078,-0.002501,87.222335,0.005078,
1250,1970,-0.004650,-0.197666,0.999999,0.000154,-0.000225,0.003056,0.000020,0.003056,-0.000225,89.658244,0.003406,
1520,1930,-0.123365,-0.361672,0.999998,0.000174,-0.000633,0.003648,0.000486,0.003703,-0.000688,83.600681,0.003939,
620,90,0.373203,-9.690720,0.999997,0.000193,-0.002341,0.005406,0.001163,0.005577,-0.002511,81.643046,0.005586,
1660,940,-1.577026,-5.490228,0.999997,0.000200,-0.002268,0.005231,-0.000485,0.005262,-0.002299,-86.317858,0.005276,
830,1930,0.205970,-0.394749,0.999998,0.000184,-0.000795,0.004039,-0.000864,0.004189,-0.000945,-80.170335,0.004394,
800,520,0.868182,-7.787562,0.999998,0.000153,-0.002610,0.005142,-0.000206,0.005148,-0.002615,-88.478129,0.005148,
1300,360,-0.072630,-8.945621,0.999998,0.000144,-0.001074,0.003579,0.000048,0.003579,-0.001074,89.413140,0.003674,
1540,280,-0.331640,-9.094690,0.999998,0.000166,-0.001402,0.004244,-0.000199,0.004251,-0.001409,-87.985785,0.004330,
1830,420,-1.154004,-8.026797,0.999998,0.000163,-0.002479,0.005047,0.000055,0.005048,-0.002479,89.582897,0.005048,
920,800,0.936443,-6.429057,0.999998,0.000173,-0.003561,0.006260,0.000106,0.006261,-0.003562,89.380564,0.006281,
1030,300,0.205773,-9.093919,0.999998,0.000162,-0.001275,0.003885,-0.000050,0.003886,-0.001276,-89.440072,0.003961,
1740,1640,-0.923069,-1.881247,0.999998,0.000185,-0.002451,0.005069,-0.000092,0.005070,-0.002452,-89.297888,0.005071,
630,1740,0.993154,-1.527950,0.999998,0.000187,-0.002394,0.005043,-0.000008,0.005043,-0.002394,-89.939495,0.005045,
1050,1210,0.559024,-3.449064,0.999996,0.000245,-0.003796,0.006182,0.001422,0.006381,-0.003995,82.045213,0.006448,
1430,620,-0.337229,-7.754406,0.999997,0.000205,-0.002508,0.004548,0.001068,0.004706,-0.002666,81.581557,0.004719,
700,610,1.262951,-7.155873,0.999997,0.000207,-0.002685,0.005205,0.000058,0.005205,-0.002685,89.581333,0.005206,
1090,1740,0.141718,-1.004517,0.999998,0.000166,-0.001054,0.003707,0.000046,0.003707,-0.001054,89.452321,0.003820,
1480,2000,-0.029350,-0.114047,0.999998,0.000160,-0.000174,0.003257,0.000394,0.003302,-0.000219,83.530546,0.003693,
580,540,1.463118,-7.332421,0.999997,0.000202,-0.003955,0.005529,-0.000041,0.005530,-0.003955,-89.753867,0.005698,
940,40,0.025848,-10.010839,0.999999,0.000119,-0.000102,0.003258,0.000461,0.003320,-0.000164,82.332691,0.003743,
1750,800,-1.564788,-6.174571,0.999997,0.000203,-0.002608,0.005186,-0.000493,0.005217,-0.002640,-86.393562,0.005217,
710,800,1.572668,-6.172522,0.999997,0.000231,-0.002662,0.005164,0.000492,0.005195,-0.002693,86.418938,0.005196,
1100,1300,0.214332,-2.692352,0.999997,0.000218,-0.002708,0.004162,0.002046,0.004725,-0.003271,74.609051,0.004840,
870,1970,0.106988,-0.230508,0.999998,0.000170,-0.000580,0.003646,-0.000719,0.003765,-0.000699,-80.602930,0.004006,
1140,1560,0.119895,-1.641198,0.999998,0.000156,-0.001426,0.003642,0.000451,0.003682,-0.001465,84.958753,0.003707,
1600,170,-0.257723,-9.515861,0.999998,0.000205,-0.001171,0.004090,-0.000569,0.004151,-0.001232,-83.895787,0.004264,
640,1060,1.976513,-4.890436,0.999998,0.000190,-0.002122,0.004528,-0.000151,0.004532,-0.002125,-88.700263,0.004534,
1210,420,0.026370,-8.744336,0.999999,0.000157,-0.001174,0.003524,-0.000117,0.003527,-0.001176,-88.577543,0.003591,
1620,1020,-1.562393,-5.080141,0.999998,0.000188,-0.001908,0.005239,-0.000098,0.005240,-0.001909,-89.216229,0.005304,
720,1790,0.683742,-1.127498,0.999998,0.000200,-0.002270,0.004988,-0.000298,0.005000,-0.002282,-87.655500,0.005007,
1490,1690,-0.331141,-1.298989,0.999998,0.000168,-0.001739,0.004259,-0.000213,0.004267,-0.001746,-87.968493,0.004290,
1760,1230,-1.635499,-4.044090,0.999998,0.000175,-0.002581,0.005113,0.000530,0.005149,-0.002617,86.081697,0.005150,
1780,1400,-1.381983,-3.181451,0.999998,0.000201,-0.002610,0.005190,0.000140,0.005192,-0.002612,88.974733,0.005192,
560,1590,1.376145,-2.386275,0.999929,0.000000,-0.001978,0.005034,-0.000023,0.005034,-0.001978,-89.814425,0.005072,
870,1880,0.256831,-0.581004,0.999997,0.000201,-0.001260,0.004085,-0.000545,0.004140,-0.001315,-84.236927,0.004230,
1010,470,0.330396,-8.374299,0.999998,0.000192,-0.001990,0.004333,-0.000548,0.004380,-0.002037,-85.084640,0.004384,
1460,950,-1.119853,-5.635424,0.999997,0.000207,-0.002865,0.007546,0.000067,0.007547,-0.002865,89.630909,0.007619,
1250,1950,-0.004106,-0.259255,0.999999,0.000138,-0.000292,0.003133,0.000006,0.003133,-0.000292,89.903651,0.003461,
750,1850,0.493042,-0.799563,0.999997,0.000203,-0.001718,0.004791,-0.000719,0.004869,-0.001797,-83.772596,0.004925,
920,260,0.316913,-9.174333,0.999998,0.000174,-0.001297,0.004176,0.000238,0.004186,-0.001307,87.512927,0.004283,
830,1910,0.245636,-0.473953,0.999998,0.000190,-0.000916,0.004142,-0.000799,0.004265,-0.001039,-81.237998,0.004448,
960,640,0.551156,-7.467658,0.999997,0.000217,-0.002977,0.005241,-0.000788,0.005316,-0.003051,-84.573889,0.005335,
1300,780,-0.093210,-7.603382,0.999998,0.000193,-0.001755,0.002268,0.001765,0.002933,-0.002420,69.367768,0.003133,
1500,1930,-0.108586,-0.356812,0.999999,0.000144,-0.000654,0.003584,0.000401,0.003622,-0.000692,84.645418,0.003846,
930,40,0.025588,-10.010158,0.999999,0.000116,-0.000048,0.003254,0.000513,0.003332,-0.000126,81.365802,0.003777,
1890,400,-1.273302,-8.027100,0.999998,0.000172,-0.002457,0.004909,0.000057,0.004909,-0.002457,89.559445,0.004909,
1430,600,-0.330733,-7.844380,0.999997,0.000191,-0.002365,0.004527,0.000980,0.004664,-0.002501,82.065224,0.004668,
570,550,1.522765,-7.255026,0.999381,0.003111,-0.004989,0.005746,-0.000331,0.005756,-0.004999,-88.234604,0.006256,
750,1740,0.708827,-1.338017,0.999997,0.000194,-0.002170,0.004924,-0.000145,0.004927,-0.002173,-88.828424,0.004938,
1410,610,-0.289112,-7.845733,0.999997,0.000193,-0.002265,0.004353,0.001079,0.004524,-0.002436,80.972193,0.004529,
1470,2000,-0.028187,-0.112857,0.999998,0.000156,-0.000119,0.003229,0.000378,0.003271,-0.000161,83.643802,0.003687,
1540,520,-0.550811,-7.999435,0.999997,0.000209,-0.002454,0.004861,0.000474,0.004892,-0.002484,86.307551,0.004892,
620,70,0.279104,-9.802669,0.999997,0.000192,-0.002267,0.005398,0.001331,0.005622,-0.002492,80.426691,0.005634,
870,1950,0.139477,-0.303663,0.999998,0.000171,-0.000750,0.003756,-0.000703,0.003863,-0.000858,-81.334177,0.004058,
580,170,0.772965,-9.171512,0.999999,0.000165,-0.002652,0.004929,0.000398,0.004949,-0.002673,87.002177,0.004955,
710,780,1.535912,-6.276073,0.999997,0.000218,-0.002684,0.005200,0.000440,0.005224,-0.002709,86.812153,0.005225,
1050,1190,0.636182,-3.575100,0.999996,0.000229,-0.003632,0.006485,0.001435,0.006684,-0.003831,82.080848,0.006708,
1740,1620,-0.951161,-1.983559,0.999998,0.000157,-0.002481,0.005043,-0.000083,0.005044,-0.002482,-89.371809,0.005044,
700,590,1.232773,-7.260709,0.999998,0.000162,-0.002687,0.005185,-0.000001,0.005185,-0.002687,-89.994044,0.005186,
1060,650,0.281171,-7.693140,0.999998,0.000177,-0.002425,0.004401,-0.001299,0.004640,-0.002664,-79.578746,0.004657,
1660,920,-1.549152,-5.596164,0.999997,0.000194,-0.002407,0.005352,-0.000602,0.005398,-0.002453,-85.591034,0.005406,
820,1590,0.750760,-1.980502,0.999997,0.000206,-0.002467,0.004985,0.000213,0.004991,-0.002473,88.364900,0.004991,
930,340,0.384461,-8.840461,0.999998,0.000171,-0.001607,0.004458,0.000023,0.004458,-0.001607,89.783829,0.004516,
1450,1640,-0.296678,-1.465953,0.999997,0.000217,-0.001673,0.004190,-0.000311,0.004207,-0.001689,-86.970950,0.004234,
1140,1540,0.120891,-1.712952,0.999998,0.000155,-0.001447,0.003618,0.000502,0.003667,-0.001496,84.397908,0.003688,
1520,170,-0.178417,-9.550215,0.999998,0.000167,-0.000909,0.003796,-0.000420,0.003833,-0.000946,-84.939753,0.003993,
710,1490,1.166971,-2.674281,0.999998,0.000175,-0.002658,0.005218,0.000040,0.005218,-0.002658,89.709864,0.005218,
630,970,1.987993,-5.298282,0.999998,0.000164,-0.002143,0.004465,0.000078,0.004466,-0.002144,89.321246,0.004467,
1100,1280,0.232963,-2.781514,0.999998,0.000181,-0.002861,0.004256,0.002130,0.004845,-0.003450,74.545771,0.004988,
760,1430,1.123002,-2.912705,0.999998,0.000149,-0.002828,0.005334,-0.000015,0.005334,-0.002828,-89.892319,0.005338,
1700,1960,-0.198999,-0.293073,0.999998,0.000176,-0.000720,0.004065,0.001129,0.004318,-0.000973,77.371427,0.004530,
1830,510,-1.287455,-7.569114,0.999997,0.000209,-0.002550,0.005091,0.000050,0.005092,-0.002550,89.628295,0.005092,
1210,1620,0.025669,-1.388257,0.999998,0.000183,-0.001195,0.003531,0.000138,0.003535,-0.001199,88.327917,0.003596,
920,1770,0.342705,-1.009432,0.999998,0.000182,-0.001427,0.004297,-0.000174,0.004303,-0.001433,-88.258415,0.004382,
1730,800,-1.512268,-6.191213,0.999996,0.000226,-0.002696,0.005268,-0.000509,0.005300,-0.002729,-86.355222,0.005301,
800,500,0.843174,-7.888776,0.999998,0.000162,-0.002558,0.005103,-0.000207,0.005109,-0.002564,-88.451024,0.005109,
560,1580,1.410743,-2.440058,0.999931,0.000000,-0.001791,0.005407,-0.000206,0.005413,-0.001797,-88.365884,0.005514,
1620,1000,-1.552964,-5.181642,0.999997,0.000204,-0.001928,0.005189,-0.000197,0.005194,-0.001934,-88.411706,0.005250,
1780,1420,-1.350007,-3.078876,0.999997,0.000201,-0.002637,0.005162,0.000110,0.005163,-0.002638,89.192858,0.005164,
1300,800,-0.106968,-7.559026,0.999998,0.000183,-0.001929,0.002153,0.001753,0.002803,-0.002579,69.673520,0.003115,
1860,1850,-0.819226,-1.028003,0.999998,0.000182,-0.002429,0.005011,0.000198,0.005016,-0.002434,88.473148,0.005017,
1250,1930,-0.006339,-0.324175,0.999999,0.000131,-0.000356,0.003165,0.000008,0.003165,-0.000356,89.872414,0.003467,
830,1890,0.286011,-0.559979,0.999998,0.000175,-0.001082,0.004246,-0.000738,0.004346,-0.001182,-82.252919,0.004494,
1890,390,-1.256385,-8.076676,0.999998,0.000170,-0.002474,0.004915,0.000064,0.004915,-0.002474,89.506798,0.004915,
1410,590,-0.282920,-7.935164,0.999997,0.000178,-0.002201,0.004294,0.000997,0.004443,-0.002351,81.469437,0.004446,
750,1830,0.539261,-0.897933,0.999997,0.000185,-0.001811,0.004794,-0.000597,0.004847,-0.001865,-84.875953,0.004890,
960,620,0.533559,-7.571468,0.999997,0.000225,-0.002870,0.005148,-0.000768,0.005220,-0.002943,-84.576972,0.005235,
1420,40,-0.014695,-10.015036,0.999999,0.000125,-0.000152,0.003076,-0.000222,0.003092,-0.000167,-86.088293,0.003477,
1130,800,0.181555,-7.378445,0.999997,0.000222,-0.002471,0.003318,-0.002240,0.004084,-0.003236,-71.133197,0.004310,
1010,710,0.458666,-7.237075,0.999997,0.000217,-0.003282,0.005407,-0.001183,0.005565,-0.003440,-82.382937,0.005616,
730,1740,0.753076,-1.365463,0.999997,0.000186,-0.002284,0.004983,-0.000115,0.004984,-0.002285,-89.094726,0.004990,
570,540,1.502527,-7.306988,0.999174,0.003531,-0.004587,0.005862,0.000083,0.005862,-0.004588,89.547312,0.006167,
1600,770,-1.065730,-6.510090,0.999998,0.000151,-0.003299,0.005946,-0.000240,0.005952,-0.003306,-88.516434,0.005964,
870,1930,0.173025,-0.381236,0.999997,0.000195,-0.000895,0.003839,-0.000659,0.003929,-0.000985,-82.226660,0.004089,
1490,1320,-0.616208,-3.104901,0.999997,0.000206,-0.003585,0.005869,-0.000753,0.005929,-0.003645,-85.473198,0.005981,
1050,1170,0.711709,-3.709691,0.999997,0.000206,-0.003475,0.006659,0.001466,0.006867,-0.003683,81.930818,0.006873,
860,870,1.300277,-5.911895,0.999998,0.000179,-0.002854,0.005844,0.000694,0.005899,-0.002909,85.466624,0.005899,
570,170,0.799323,-9.143463,0.999945,0.000857,-0.002746,0.004768,0.000428,0.004792,-0.002771,86.750426,0.004812,
1530,1490,-0.563700,-2.285940,0.999997,0.000210,-0.002664,0.005026,-0.000595,0.005071,-0.002710,-85.599075,0.005075,
1820,1870,-0.667439,-0.838588,0.999997,0.000187,-0.002238,0.005144,0.000562,0.005187,-0.002281,85.672170,0.005199,
1270,740,-0.039997,-7.774474,0.999998,0.000156,-0.001173,0.001922,0.000959,0.002195,-0.001445,74.111609,0.002232,
680,1610,1.072965,-2.102718,0.999998,0.000192,-0.002495,0.005080,0.000088,0.005081,-0.002496,89.331807,0.005081,
1450,1700,-0.263951,-1.217659,0.999998,0.000175,-0.001429,0.004045,-0.000144,0.004049,-0.001433,-88.491050,0.004106,
1660,900,-1.511730,-5.703907,0.999998,0.000188,-0.002518,0.005380,-0.000649,0.005433,-0.002571,-85.333557,0.005435,
930,360,0.404538,-8.750032,0.999998,0.000199,-0.001681,0.004384,-0.000053,0.004385,-0.001682,-89.503806,0.004424,
1490,1670,-0.346978,-1.387068,0.999998,0.000187,-0.001806,0.004338,-0.000249,0.004348,-0.001816,-87.681641,0.004368,
740,90,0.201499,-9.800996,0.999998,0.000146,-0.000806,0.004080,0.001204,0.004361,-0.001086,76.882491,0.004540,
920,240,0.287203,-9.261582,0.999998,0.000172,-0.001206,0.004178,0.000333,0.004199,-0.001226,86.477808,0.004318,
1740,1600,-0.980839,-2.084010,0.999998,0.000175,-0.002516,0.005078,-0.000097,0.005079,-0.002518,-89.270874,0.005079,
1750,740,-1.453446,-6.489967,0.999997,0.000219,-0.002693,0.005288,-0.000362,0.005305,-0.002709,-87.411227,0.005305,
1400,230,-0.123171,-9.377459,0.999998,0.000160,-0.000881,0.003646,-0.000095,0.003648,-0.000882,-88.803216,0.003806,
560,1570,1.421030,-2.491585,0.999903,0.000000,-0.001844,0.005620,-0.000152,0.005623,-0.001848,-88.832873,0.005732,
880,1430,0.773300,-2.704984,0.999998,0.000178,-0.002992,0.005423,0.000345,0.005437,-0.003006,87.658442,0.005447,
1100,1260,0.258678,-2.864198,0.999997,0.000204,-0.003049,0.004397,0.002254,0.005027,-0.003678,74.405843,0.005203,
1140,1520,0.121620,-1.786205,0.999998,0.000152,-0.001461,0.003582,0.000555,0.003642,-0.001521,83.790304,0.003659,
1570,1090,-1.416512,-4.693182,0.999996,0.000219,-0.002091,0.005667,0.000570,0.005709,-0.002133,85.816973,0.005769,
890,2000,0.050600,-0.119995,0.999999,0.000120,-0.000333,0.003471,-0.000659,0.003582,-0.000444,-80.442230,0.003906,
800,530,0.880589,-7.736531,0.999998,0.000166,-0.002623,0.005161,-0.000201,0.005166,-0.002629,-88.521180,0.005166,
1780,1440,-1.316821,-2.975015,0.999997,0.000203,-0.002648,0.005179,0.000061,0.005180,-0.002648,89.554721,0.005180,
1890,380,-1.240587,-8.125888,0.999998,0.000181,-0.002482,0.004896,0.000074,0.004896,-0.002483,89.423049,0.004897,
710,1470,1.197579,-2.778458,0.999998,0.000169,-0.002667,0.005198,0.000008,0.005198,-0.002667,89.944231,0.005199,
1240,1810,-0.007009,-0.719442,0.999998,0.000155,-0.000757,0.003422,-0.000022,0.003422,-0.000758,-89.697735,0.003595,
1890,1850,-0.890991,-1.099511,0.999998,0.000156,-0.002414,0.004889,0.000154,0.004892,-0.002418,88.793883,0.004892,
830,1870,0.322343,-0.644728,0.999997,0.000200,-0.001195,0.004293,-0.000638,0.004366,-0.001268,-83.452999,0.004492,
630,1010,2.004275,-5.120078,0.999998,0.000156,-0.002122,0.004524,0.000130,0.004527,-0.002125,88.877829,0.004530,
1300,820,-0.144422,-7.520225,0.999997,0.000179,-0.002118,0.001980,0.001577,0.002516,-0.002655,71.211976,0.002989,
1830,490,-1.256141,-7.671093,0.999997,0.000196,-0.002537,0.005097,0.000059,0.005097,-0.002537,89.560780,0.005097,
1130,780,0.160062,-7.443902,0.999998,0.000198,-0.002415,0.003309,-0.002168,0.004038,-0.003143,-71.425003,0.004242,
1350,1400,-0.165940,-2.262025,0.999998,0.000154,-0.001882,0.003677,-0.001268,0.003953,-0.002158,-77.741191,0.003958,
1250,1910,-0.006869,-0.386748,0.999998,0.000143,-0.000445,0.003238,0.000012,0.003238,-0.000445,89.813900,0.003510,
1700,1940,-0.250955,-0.378394,0.999997,0.000194,-0.000962,0.004345,0.001169,0.004591,-0.001209,78.107520,0.004759,
1410,40,-0.012397,-10.015625,0.999998,0.000146,-0.000145,0.003069,-0.000210,0.003083,-0.000158,-86.271133,0.003472,
1360,1670,-0.152459,-1.262044,0.999998,0.000168,-0.001245,0.003788,-0.000172,0.003794,-0.001251,-88.048048,0.003867,
1550,480,-0.544734,-8.174286,0.999998,0.000174,-0.002294,0.004791,0.000387,0.004812,-0.002315,86.885165,0.004813,
1580,770,-0.998589,-6.542747,0.999997,0.000193,-0.003369,0.006033,-0.000164,0.006036,-0.003372,-89.003835,0.006050,
1000,1660,0.305931,-1.393789,0.999997,0.000192,-0.001650,0.004223,0.000243,0.004233,-0.001660,87.634543,0.004265,
1530,1450,-0.596692,-2.491464,0.999997,0.000215,-0.002833,0.005188,-0.000613,0.005234,-0.002880,-85.655002,0.005243,
1270,420,-0.044648,-8.739269,0.999998,0.000168,-0.001192,0.003548,0.000118,0.003551,-0.001195,88.579892,0.003614,
750,220,0.528191,-9.206496,0.999997,0.000188,-0.001809,0.004793,0.000663,0.004859,-0.001875,84.325100,0.004901,
1050,1150,0.798159,-3.851250,0.999996,0.000200,-0.003272,0.006804,0.001700,0.007083,-0.003551,80.679222,0.007083,
870,1910,0.204259,-0.456516,0.999997,0.000198,-0.001080,0.004000,-0.000624,0.004076,-0.001156,-83.097820,0.004201,
1660,1870,-0.359616,-0.660988,0.999997,0.000189,-0.001602,0.004475,0.000656,0.004546,-0.001672,83.904555,0.004598,
590,1800,0.969875,-1.305858,0.999998,0.000171,-0.002409,0.004923,-0.000055,0.004923,-0.002409,-89.571038,0.004923,
920,220,0.264682,-9.341692,0.999998,0.000181,-0.001096,0.004055,0.000364,0.004080,-0.001122,85.981982,0.004216,
1490,1650,-0.361185,-1.473786,0.999997,0.000209,-0.001856,0.004379,-0.000290,0.004392,-0.001869,-87.341475,0.004409,
1480,1450,-0.458692,-2.377374,0.999998,0.000203,-0.002650,0.004941,-0.000831,0.005031,-0.002740,-83.824855,0.005037,
1590,900,-1.336040,-5.746148,0.999998,0.000181,-0.002663,0.005803,-0.000722,0.005864,-0.002724,-85.163591,0.005869,
1780,1460,-1.284577,-2.871406,0.999997,0.000198,-0.002651,0.005160,0.000029,0.005160,-0.002651,89.787197,0.005161,
740,70,0.145082,-9.881177,0.999998,0.000175,-0.000574,0.003979,0.001279,0.004314,-0.000909,75.333662,0.004549,
1100,1240,0.290266,-2.955637,0.999996,0.000231,-0.003149,0.004459,0.002245,0.005072,-0.003762,74.722471,0.005266,
880,2000,0.053788,-0.121119,0.999999,0.000150,-0.000388,0.003493,-0.000695,0.003614,-0.000509,-80.147370,0.003912,
720,1830,0.597021,-0.928737,0.999997,0.000215,-0.002154,0.004922,-0.000484,0.004955,-0.002187,-86.106096,0.004967,
1750,90,-0.231462,-9.786770,0.999998,0.000180,-0.001419,0.004269,-0.001186,0.004506,-0.001657,-78.677935,0.004559,
830,1420,0.935929,-2.853735,0.999998,0.000175,-0.002969,0.005459,0.000135,0.005461,-0.002972,89.080384,0.005468,
1140,1500,0.120754,-1.856783,0.999998,0.000156,-0.001486,0.003510,0.000598,0.003580,-0.001556,83.270303,0.003590,
1670,540,-0.911331,-7.671372,0.999999,0.000146,-0.002651,0.005180,0.000169,0.005183,-0.002654,88.762077,0.005184,
1880,1850,-0.865966,-1.075372,0.999999,0.000151,-0.002397,0.004920,0.000165,0.004924,-0.002401,88.708731,0.004924,
860,170,0.262316,-9.513480,0.999998,0.000205,-0.001178,0.004121,0.000592,0.004186,-0.001243,83.703961,0.004299,
640,500,1.254759,-7.630942,0.999998,0.000194,-0.002552,0.005091,-0.000053,0.005091,-0.002552,-89.605594,0.005091,
990,440,0.352295,-8.474782,0.999997,0.000214,-0.001928,0.004384,-0.000411,0.004411,-0.001954,-86.291842,0.004420,
830,1850,0.359277,-0.732238,0.999998,0.000179,-0.001342,0.004392,-0.000605,0.004456,-0.001405,-84.040088,0.004556,
1620,980,-1.541903,-5.287922,0.999997,0.000212,-0.002027,0.005318,-0.000373,0.005336,-0.002046,-87.102250,0.005385,
1300,840,-0.200064,-7.483263,0.999996,0.000216,-0.002345,0.001802,0.000931,0.002002,-0.002544,77.914721,0.002680,
1820,1590,-1.194606,-2.265145,0.999998,0.000169,-0.002527,0.005055,-0.000064,0.005056,-0.002528,-89.514937,0.005056,
1190,420,0.048346,-8.738409,0.999999,0.000175,-0.001153,0.003564,-0.000094,0.003566,-0.001155,-88.858416,0.003638,
1000,1620,0.328463,-1.569121,0.999997,0.000195,-0.001874,0.004314,0.000417,0.004342,-0.001902,86.160837,0.004353,
1400,40,-0.010792,-10.016730,0.999998,0.000151,-0.000091,0.003067,-0.000210,0.003081,-0.000105,-86.203309,0.003499,
1820,270,-0.874291,-8.804315,0.999998,0.000166,-0.002391,0.005058,-0.000171,0.005062,-0.002395,-88.684891,0.005064,
730,220,0.563574,-9.188805,0.999997,0.000185,-0.002001,0.004872,0.000593,0.004922,-0.002051,85.100996,0.004945,
1550,460,-0.526776,-8.269603,0.999997,0.000208,-0.002260,0.004756,0.000341,0.004772,-0.002277,87.227489,0.004774,
1250,1890,-0.009796,-0.453155,0.999998,0.000156,-0.000490,0.003279,-0.000003,0.003279,-0.000490,-89.948106,0.003538,
970,1640,0.374829,-1.521641,0.999997,0.000192,-0.001893,0.004403,0.000318,0.004419,-0.001909,87.115375,0.004433,
1050,1130,0.882595,-3.998134,0.999996,0.000213,-0.003188,0.007277,0.002134,0.007696,-0.003606,78.903812,0.007701,
580,1800,0.994452,-1.327319,0.999999,0.000137,-0.002377,0.004869,-0.000032,0.004869,-0.002377,-89.743911,0.004869,
920,200,0.237407,-9.425083,0.999998,0.000193,-0.000999,0.004019,0.000438,0.004057,-0.001037,85.053206,0.004215,
880,160,0.220898,-9.564775,0.999998,0.000178,-0.001128,0.004035,0.000565,0.004096,-0.001189,83.821963,0.004214,
1460,1450,-0.408397,-2.331219,0.999997,0.000200,-0.002574,0.004809,-0.000935,0.004926,-0.002691,-82.891853,0.004933,
1530,910,-1.193564,-5.754052,0.999998,0.000193,-0.002852,0.006306,-0.000695,0.006359,-0.002904,-85.686794,0.006367,
1780,1290,-1.579497,-3.754190,0.999998,0.000187,-0.002591,0.005134,0.000384,0.005153,-0.002610,87.157965,0.005154,
1400,1000,-0.995409,-5.442441,0.999985,0.000000,-0.005106,0.013817,0.001994,0.014024,-0.005314,84.048648,0.014161,
810,1100,1.579747,-4.667357,0.999998,0.000165,-0.002199,0.005206,-0.000484,0.005238,-0.002230,-86.277270,0.005257,
1060,110,0.049882,-9.793560,0.999999,0.000149,-0.000391,0.003325,0.000245,0.003341,-0.000407,86.247119,0.003646,
1380,230,-0.106768,-9.384313,0.999998,0.000189,-0.000733,0.003597,-0.000110,0.003600,-0.000736,-88.547194,0.003804,
1750,580,-1.181346,-7.332649,0.999998,0.000170,-0.002672,0.005196,0.000010,0.005196,-0.002672,89.929135,0.005197,
1660,880,-1.479027,-5.811966,0.999997,0.000201,-0.002610,0.005418,-0.000637,0.005468,-0.002660,-85.493311,0.005469,
1100,1220,0.350268,-3.039565,0.999997,0.000222,-0.003171,0.004542,0.002233,0.005142,-0.003771,74.965876,0.005325,
1780,1900,-0.491286,-0.631186,0.999997,0.000202,-0.002002,0.005026,0.000958,0.005154,-0.002130,82.377736,0.005180,
1750,110,-0.293186,-9.697841,0.999997,0.000196,-0.001632,0.004564,-0.001135,0.004766,-0.001833,-79.936594,0.004808,
1360,560,-0.181593,-8.154027,0.999998,0.000141,-0.001760,0.003755,0.000824,0.003875,-0.001881,81.678753,0.003876,
930,540,0.551895,-7.914607,0.999998,0.000201,-0.002524,0.004927,-0.000536,0.004965,-0.002562,-85.907258,0.004966,
860,1430,0.834060,-2.743587,0.999998,0.000181,-0.002972,0.005434,0.000295,0.005444,-0.002982,87.992708,0.005452,
750,1810,0.579801,-0.992665,0.999998,0.000185,-0.001908,0.004896,-0.000482,0.004930,-0.001942,-85.964929,0.004967,
560,1560,1.435767,-2.559742,0.999881,0.000000,-0.001958,0.005380,0.000125,0.005382,-0.001960,89.028016,0.005448,
1870,1850,-0.842162,-1.051307,0.999999,0.000159,-0.002414,0.004965,0.000180,0.004969,-0.002418,88.606377,0.004970,
1410,570,-0.278037,-8.018609,0.999998,0.000169,-0.002122,0.004221,0.000922,0.004353,-0.002254,81.896107,0.004354,
1670,520,-0.885875,-7.775038,0.999999,0.000119,-0.002601,0.005158,0.000179,0.005162,-0.002605,88.676507,0.005162,
1140,1480,0.122543,-1.925319,0.999998,0.000160,-0.001508,0.003474,0.000644,0.003556,-0.001590,82.754734,0.003562,
640,480,1.223858,-7.733710,0.999998,0.000190,-0.002526,0.005105,-0.000069,0.005106,-0.002526,-89.484280,0.005106,
660,1610,1.122311,-2.136233,0.999998,0.000164,-0.002514,0.005073,0.000092,0.005074,-0.002515,89.302519,0.005074,
720,1810,0.640811,-1.028689,0.999998,0.000189,-0.002228,0.004981,-0.000374,0.005000,-0.002247,-87.034708,0.005009,
960,610,0.526923,-7.622997,0.999996,0.000236,-0.002822,0.005118,-0.000755,0.005189,-0.002893,-84.613977,0.005200,
830,1830,0.396599,-0.819922,0.999998,0.000170,-0.001459,0.004470,-0.000518,0.004515,-0.001504,-85.045947,0.004598,
1460,170,-0.127983,-9.573256,0.999998,0.000159,-0.000644,0.003599,-0.000322,0.003624,-0.000668,-85.685639,0.003857,
1490,1630,-0.375872,-1.561939,0.999997,0.000218,-0.001898,0.004408,-0.000336,0.004426,-0.001916,-86.958543,0.004439,
990,420,0.340178,-8.563782,0.999998,0.000196,-0.001862,0.004350,-0.000344,0.004369,-0.001881,-86.836633,0.004383,
1300,1640,-0.079628,-1.331197,0.999998,0.000196,-0.001197,0.003620,-0.000154,0.003625,-0.001202,-88.166186,0.003693,
1620,960,-1.515196,-5.394946,0.999998,0.000186,-0.002130,0.005364,-0.000525,0.005401,-0.002167,-86.011971,0.005436,
860,750,1.034134,-6.623443,0.999998,0.000205,-0.003264,0.005888,0.000150,0.005890,-0.003267,89.064096,0.005902,
710,1740,0.799856,-1.396760,0.999998,0.000164,-0.002387,0.005038,-0.000057,0.005039,-0.002388,-89.561306,0.005041,
1390,40,-0.010088,-10.017009,0.999999,0.000134,-0.000051,0.003067,-0.000206,0.003081,-0.000064,-86.240216,0.003521,
1620,750,-1.090433,-6.595868,0.999997,0.000194,-0.003198,0.005815,-0.000237,0.005821,-0.003204,-88.497077,0.005831,
870,2000,0.057448,-0.121126,0.999998,0.000161,-0.000355,0.003515,-0.000736,0.003650,-0.000490,-79.591722,0.003962,
1690,1920,-0.291111,-0.461003,0.999998,0.000174,-0.001233,0.004332,0.000956,0.004491,-0.001393,80.522347,0.004598,
1260,140,-0.010436,-9.708964,0.999998,0.000173,-0.000376,0.003192,-0.000016,0.003192,-0.000376,-89.740467,0.003489,
1170,420,0.073139,-8.732881,0.999998,0.000177,-0.001213,0.003606,-0.000116,0.003609,-0.001216,-88.622082,0.003673,
1050,1330,0.342670,-2.774786,0.999997,0.000182,-0.003102,0.005027,0.001586,0.005326,-0.003400,79.340850,0.005393,
1410,1340,-0.326747,-2.713247,0.999997,0.000174,-0.002994,0.004911,-0.001577,0.005214,-0.003297,-79.126581,0.005275,
1800,70,-0.212396,-9.856171,0.999998,0.000202,-0.000710,0.004878,-0.001995,0.005518,-0.001349,-72.234353,0.005753,
1530,480,-0.497302,-8.207356,0.999997,0.000207,-0.002326,0.004734,0.000430,0.004760,-0.002352,86.526703,0.004761,
1490,300,-0.277048,-9.053521,0.999998,0.000197,-0.001452,0.004093,-0.000022,0.004093,-0.001452,-89.769947,0.004150,
570,1800,1.017746,-1.350162,0.999997,0.000181,-0.002353,0.004821,-0.000005,0.004821,-0.002353,-89.959310,0.004821,
890,1550,0.621156,-2.065668,0.999998,0.000195,-0.002497,0.004984,0.000391,0.005004,-0.002517,87.013983,0.005004,
880,1050,1.484609,-4.918641,0.999997,0.000195,-0.001890,0.005382,-0.000223,0.005389,-0.001897,-88.246582,0.005467,
1410,550,-0.272427,-8.106291,0.999998,0.000174,-0.002011,0.004193,0.000806,0.004296,-0.002114,82.713470,0.004296,
560,1550,1.452266,-2.610463,0.999928,0.000000,-0.002267,0.004877,-0.000285,0.004889,-0.002278,-87.721511,0.004892,
750,1790,0.620345,-1.092819,0.999997,0.000197,-0.001991,0.004896,-0.000401,0.004919,-0.002014,-86.675470,0.004946,
980,1930,0.099512,-0.352347,0.999998,0.000168,-0.000527,0.003539,-0.000404,0.003579,-0.000566,-84.375874,0.003847,
640,460,1.194887,-7.836143,0.999998,0.000175,-0.002516,0.005085,-0.000075,0.005085,-0.002517,-89.433471,0.005086,
1660,860,-1.439680,-5.921607,0.999997,0.000214,-0.002700,0.005535,-0.000654,0.005587,-0.002752,-85.486280,0.005587,
1140,1460,0.120259,-1.995140,0.999998,0.000172,-0.001529,0.003433,0.000722,0.003536,-0.001631,81.891599,0.003540,
1000,1080,1.204242,-4.640981,0.999997,0.000214,-0.002647,0.007373,0.000008,0.007373,-0.002647,89.951610,0.007470,
1650,540,-0.859078,-7.706389,0.999998,0.000168,-0.002666,0.005158,0.000209,0.005164,-0.002672,88.467519,0.005165,
820,430,0.709673,-8.273878,0.999998,0.000175,-0.002351,0.004947,-0.000157,0.004950,-0.002355,-88.770820,0.004952,
1530,890,-1.136724,-5.878130,0.999998,0.000190,-0.003105,0.006386,-0.000631,0.006428,-0.003147,-86.210924,0.006429,
990,540,0.404239,-8.028187,0.999997,0.000204,-0.002298,0.004606,-0.000689,0.004675,-0.002366,-84.358411,0.004675,
960,600,0.519715,-7.675783,0.999997,0.000228,-0.002770,0.005059,-0.000730,0.005127,-0.002837,-84.714880,0.005137,
1780,1880,-0.553709,-0.733688,0.999997,0.000200,-0.002115,0.005010,0.000781,0.005094,-0.002200,83.819622,0.005110,
800,480,0.817703,-7.992601,0.999998,0.000167,-0.002540,0.005050,-0.000200,0.005055,-0.002545,-88.494988,0.005055,
920,180,0.212040,-9.503536,0.999998,0.000188,-0.000887,0.003915,0.000467,0.003960,-0.000932,84.495149,0.004141,
1100,1200,0.414602,-3.135362,0.999996,0.000241,-0.002777,0.004292,0.002291,0.004970,-0.003454,73.523759,0.005094,
1890,1180,-2.018659,-4.397784,0.999998,0.000152,-0.002215,0.004302,0.000036,0.004303,-0.002215,89.680978,0.004303,
1350,1380,-0.165914,-2.335826,0.999997,0.000197,-0.001967,0.003679,-0.001399,0.004006,-0.002295,-76.820154,0.004020,
830,1810,0.429091,-0.910946,0.999998,0.000177,-0.001576,0.004574,-0.000449,0.004607,-0.001608,-85.845101,0.004676,
700,1830,0.642504,-0.958253,0.999997,0.000188,-0.002334,0.004971,-0.000418,0.004995,-0.002358,-86.737778,0.004998,
1260,1230,-0.068018,-2.403586,0.999998,0.000150,-0.002381,0.001331,-0.000439,0.001382,-0.002432,-83.342829,0.002440,
1490,1610,-0.388319,-1.650620,0.999997,0.000209,-0.001936,0.004428,-0.000377,0.004450,-0.001959,-86.624663,0.004461,
1620,940,-1.489740,-5.502055,0.999997,0.000221,-0.002270,0.005439,-0.000579,0.005483,-0.002313,-85.727013,0.005505,
1130,40,0.006102,-10.018274,0.999999,0.000130,-0.000088,0.003013,0.000110,0.003017,-0.000092,87.971211,0.003432,
1750,130,-0.355937,-9.604532,0.999997,0.000211,-0.001784,0.004667,-0.001046,0.004833,-0.001950,-81.019623,0.004863,
1260,380,-0.031916,-8.884305,0.999998,0.000149,-0.001126,0.003532,0.000098,0.003534,-0.001128,88.790233,0.003610,
1300,1620,-0.081685,-1.402989,0.999998,0.000180,-0.001245,0.003593,-0.000189,0.003600,-0.001253,-87.765414,0.003655,
1210,740,0.020836,-7.800162,0.999999,0.000137,-0.001033,0.001723,-0.000543,0.001826,-0.001136,-79.250501,0.001844,
1020,1130,0.977771,-4.188147,0.999996,0.000229,-0.003187,0.007428,0.000530,0.007455,-0.003214,87.151195,0.007478,
770,840,1.487009,-6.009117,0.999997,0.000208,-0.002697,0.005401,0.000611,0.005447,-0.002742,85.706296,0.005447,
1690,1940,-0.243572,-0.373365,0.999998,0.000186,-0.001027,0.004299,0.001104,0.004519,-0.001247,78.744952,0.004668,
850,2000,0.063335,-0.122723,0.999998,0.000146,-0.000240,0.003553,-0.000801,0.003715,-0.000402,-78.549377,0.004077,
840,750,1.099717,-6.592394,0.999997,0.000206,-0.003199,0.005809,0.000240,0.005815,-0.003206,88.474846,0.005825,
1090,1680,0.163892,-1.231719,0.999998,0.000158,-0.001231,0.003801,0.000147,0.003805,-0.001235,88.322469,0.003882,
1780,70,-0.197772,-9.859638,0.999998,0.000200,-0.000871,0.004726,-0.001843,0.005278,-0.001424,-73.316688,0.005461,
1440,1900,-0.103010,-0.450264,0.999998,0.000159,-0.000632,0.003536,0.000302,0.003558,-0.000653,85.883513,0.003788,
640,1170,1.884531,-4.384080,0.999998,0.000180,-0.002282,0.004694,-0.000293,0.004707,-0.002294,-87.599453,0.004707,
1200,660,0.033655,-7.966693,0.999999,0.000141,-0.001178,0.002611,-0.000466,0.002667,-0.001235,-83.098154,0.002670,
750,1770,0.657559,-1.189767,0.999997,0.000189,-0.002082,0.004942,-0.000315,0.004956,-0.002097,-87.439802,0.004976,
1660,840,-1.396972,-6.034537,0.999997,0.000212,-0.002796,0.005522,-0.000633,0.005570,-0.002844,-85.670895,0.005571,
1410,1320,-0.341414,-2.812785,0.999997,0.000200,-0.003166,0.005067,-0.001633,0.005380,-0.003478,-79.180577,0.005456,
710,1450,1.228008,-2.881934,0.999998,0.000172,-0.002671,0.005204,-0.000027,0.005204,-0.002671,-89.807096,0.005204,
1570,1070,-1.447139,-4.805761,0.999997,0.000210,-0.001919,0.005558,0.000434,0.005583,-0.001944,86.691051,0.005669,
1000,1060,1.244307,-4.788934,0.999996,0.000230,-0.002533,0.007791,0.000056,0.007792,-0.002533,89.691886,0.007949,
1340,1750,-0.102706,-0.951246,0.999999,0.000118,-0.001089,0.003624,-0.000100,0.003626,-0.001091,-88.780323,0.003721,
1050,1570,0.262497,-1.710195,0.999998,0.000157,-0.001727,0.004127,0.000513,0.004172,-0.001771,85.032916,0.004187,
1670,300,-0.591360,-8.872029,0.999997,0.000183,-0.002153,0.004804,-0.000146,0.004807,-0.002156,-88.801353,0.004815,
1160,290,0.062679,-9.195319,0.999999,0.000143,-0.000860,0.003521,0.000000,0.003521,-0.000860,89.998842,0.003672,
1780,1860,-0.605759,-0.832879,0.999997,0.000198,-0.002234,0.005020,0.000625,0.005073,-0.002287,85.113223,0.005081,
1710,1060,-1.733659,-4.879308,0.999997,0.000197,-0.002135,0.004902,0.000183,0.004907,-0.002140,88.509331,0.004920,
560,1540,1.461913,-2.652552,0.999883,0.000000,-0.002806,0.005216,-0.000473,0.005244,-0.002834,-86.639620,0.005250,
1620,250,-0.418712,-9.154321,0.999998,0.000184,-0.001595,0.004484,-0.000394,0.004509,-0.001621,-86.310010,0.004568,
1490,1810,-0.225593,-0.805167,0.999998,0.000166,-0.001206,0.003963,0.000172,0.003969,-0.001212,88.094129,0.004067,
1100,1180,0.514214,-3.215178,0.999996,0.000228,-0.002076,0.003786,0.002281,0.004569,-0.002859,71.054206,0.004617,
1890,1260,-1.900247,-4.032486,0.999998,0.000180,-0.002279,0.004584,0.000082,0.004585,-0.002280,89.317233,0.004585,
1400,1720,-0.179610,-1.095487,0.999999,0.000153,-0.001308,0.003812,-0.000136,0.003815,-0.001312,-88.484264,0.003877,
880,1440,0.761521,-2.653234,0.999997,0.000192,-0.002941,0.005339,0.000363,0.005355,-0.002957,87.496331,0.005365,
1160,110,0.020432,-9.802625,0.999999,0.000154,-0.000245,0.003170,0.000097,0.003172,-0.000248,88.377715,0.003529,
1330,880,-0.499685,-7.182950,0.999998,0.000000,-0.001488,0.002148,0.001527,0.002704,-0.002044,69.984519,0.002820,
920,160,0.183213,-9.582119,0.999998,0.000176,-0.000787,0.003882,0.000518,0.003939,-0.000843,83.744008,0.004148,
570,1360,1.748069,-3.553525,0.999891,0.001315,-0.003072,0.004956,0.000012,0.004956,-0.003072,89.915930,0.005003,
1700,1180,-1.570003,-4.263464,0.999997,0.000202,-0.002546,0.005234,0.000563,0.005275,-0.002586,85.883578,0.005275,
880,1030,1.495340,-5.026189,0.999997,0.000227,-0.001846,0.005417,-0.000043,0.005417,-0.001846,-89.662426,0.005508,
670,330,0.922922,-8.542887,0.999998,0.000178,-0.002420,0.005053,0.000015,0.005053,-0.002420,89.881640,0.005054,
870,1580,0.639975,-1.950442,0.999997,0.000186,-0.002422,0.004926,0.000293,0.004938,-0.002434,87.717979,0.004938,
1530,870,-1.076560,-6.011002,0.999997,0.000195,-0.003317,0.006423,-0.000516,0.006450,-0.003345,-86.974262,0.006452,
800,1430,1.009344,-2.850033,0.999998,0.000149,-0.002883,0.005413,0.000062,0.005413,-0.002884,89.574164,0.005417,
1120,40,0.007857,-10.017902,0.999999,0.000121,-0.000084,0.003018,0.000119,0.003022,-0.000089,87.799930,0.003440,
1750,150,-0.417762,-9.510966,0.999997,0.000227,-0.001928,0.004794,-0.000891,0.004910,-0.002044,-82.576940,0.004933,
930,680,0.686505,-7.176974,0.999997,0.000212,-0.003224,0.005605,-0.000543,0.005639,-0.003257,-86.493691,0.005661,
1620,920,-1.452225,-5.614413,0.999997,0.000219,-0.002407,0.005559,-0.000706,0.005622,-0.002470,-84.973711,0.005635,
1250,1350,-0.019316,-2.211616,0.999999,0.000142,-0.001012,0.002125,-0.000406,0.002177,-0.001064,-82.737506,0.002177,
1030,980,1.124237,-5.494693,0.999995,0.000281,-0.003534,0.009010,-0.001045,0.009096,-0.003621,-85.270943,0.009159,
1450,840,-0.689021,-6.465168,0.999997,0.000206,-0.003955,0.006691,0.000820,0.006754,-0.004018,85.622426,0.006795,
640,440,1.167064,-7.937563,0.999998,0.000160,-0.002520,0.005065,-0.000086,0.005066,-0.002521,-89.349936,0.005066,
960,1930,0.111283,-0.356646,0.999998,0.000147,-0.000671,0.003610,-0.000426,0.003652,-0.000713,-84.376554,0.003872,
750,840,1.541008,-5.993265,0.999997,0.000202,-0.002637,0.005310,0.000574,0.005351,-0.002678,85.889880,0.005351,
1300,1600,-0.083979,-1.473794,0.999998,0.000171,-0.001303,0.003612,-0.000262,0.003626,-0.001317,-86.954485,0.003671,
870,1180,1.284520,-4.187435,0.999998,0.000200,-0.002874,0.005868,-0.000692,0.005922,-0.002928,-85.504514,0.005922,
1440,1880,-0.119733,-0.520041,0.999998,0.000150,-0.000698,0.003538,0.000232,0.003551,-0.000711,86.880777,0.003758,
1570,1050,-1.462050,-4.915268,0.999998,0.000190,-0.001819,0.005502,0.000223,0.005509,-0.001825,88.256896,0.005613,
1410,1520,-0.269164,-1.912702,0.999997,0.000207,-0.001939,0.004162,-0.000724,0.004247,-0.002024,-83.326833,0.004249,
1200,640,0.036725,-8.018274,0.999998,0.000158,-0.001201,0.002784,-0.000381,0.002820,-0.001238,-84.583575,0.002827,
960,580,0.502967,-7.776675,0.999998,0.000198,-0.002633,0.004929,-0.000700,0.004993,-0.002698,-84.757519,0.004999,
690,1960,0.281951,-0.332898,0.999998,0.000181,-0.001414,0.004508,-0.001350,0.004801,-0.001707,-77.747315,0.004867,
1000,1040,1.266310,-4.946500,0.999996,0.000246,-0.002494,0.007769,0.000053,0.007770,-0.002494,89.704098,0.007934,
830,1790,0.463810,-1.003719,0.999998,0.000174,-0.001671,0.004525,-0.000361,0.004545,-0.001692,-86.680031,0.004595,
1800,90,-0.302437,-9.753869,0.999998,0.000171,-0.001115,0.004899,-0.001757,0.005374,-0.001590,-74.852512,0.005521,
940,1530,0.516540,-2.074469,0.999997,0.000180,-0.002397,0.004777,0.000517,0.004814,-0.002434,85.898576,0.004814,
840,2000,0.066127,-0.123585,0.999999,0.000140,-0.000196,0.003573,-0.000837,0.003751,-0.000373,-78.023519,0.004132,
1360,540,-0.179289,-8.229784,0.999998,0.000155,-0.001720,0.003825,0.000745,0.003923,-0.001819,82.477885,0.003927,
770,1680,0.754419,-1.608497,0.999998,0.000165,-0.002279,0.004937,-0.000010,0.004937,-0.002279,-89.921038,0.004942,
1050,390,0.226726,-8.754368,0.999998,0.000180,-0.001554,0.004002,-0.000281,0.004016,-0.001568,-87.115235,0.004048,
1500,100,-0.080174,-9.814036,0.999998,0.000153,-0.000532,0.003475,-0.000437,0.003522,-0.000579,-83.850900,0.003777,
1720,1790,-0.635220,-1.098660,0.999998,0.000185,-0.002054,0.004947,0.000394,0.004969,-0.002076,86.791377,0.004992,
1140,290,0.081260,-9.189393,0.999999,0.000137,-0.000986,0.003553,-0.000055,0.003554,-0.000986,-89.307955,0.003669,
560,1530,1.515975,-2.689540,0.999537,0.000000,-0.003346,0.006867,-0.000187,0.006870,-0.003349,-88.949530,0.006871,
940,1810,0.270846,-0.829286,0.999998,0.000168,-0.001297,0.004109,-0.000244,0.004120,-0.001308,-87.417212,0.004210,
1560,370,-0.460172,-8.679585,0.999997,0.000197,-0.001944,0.004545,0.000086,0.004546,-0.001946,89.240106,0.004561,
1830,470,-1.226897,-7.772641,0.999998,0.000167,-0.002532,0.005115,0.000076,0.005116,-0.002533,89.430214,0.005116,
1360,1750,-0.125424,-0.962140,0.999998,0.000168,-0.001019,0.003671,-0.000058,0.003672,-0.001020,-89.285785,0.003791,
1100,120,0.044707,-9.764732,0.999999,0.000135,-0.000330,0.003259,0.000197,0.003270,-0.000341,86.866394,0.003595,
1320,2020,-0.002307,-0.046526,0.999998,0.000000,-0.000045,0.003047,0.000120,0.003051,-0.000050,87.781120,0.003495,
1780,1840,-0.659394,-0.934040,0.999997,0.000207,-0.002286,0.005034,0.000507,0.005069,-0.002321,86.057416,0.005075,
1140,1440,0.120144,-2.061076,0.999998,0.000159,-0.001570,0.003396,0.000842,0.003534,-0.001709,80.637480,0.003535,
880,1480,0.716391,-2.440902,0.999997,0.000188,-0.002789,0.005234,0.000403,0.005254,-0.002809,87.131586,0.005258,
1140,110,0.025696,-9.801386,0.999999,0.000155,-0.000322,0.003198,0.000098,0.003201,-0.000325,88.398884,0.003524,
920,140,0.157353,-9.657500,0.999998,0.000168,-0.000661,0.003724,0.000542,0.003790,-0.000727,83.051911,0.004023,
1190,640,0.047645,-8.011801,0.999998,0.000176,-0.001268,0.002842,-0.000514,0.002905,-0.001331,-82.976214,0.002909,
780,1770,0.594665,-1.153440,0.999997,0.000192,-0.002125,0.004846,-0.000237,0.004854,-0.002133,-88.053112,0.004866,
1670,280,-0.557983,-8.968076,0.999997,0.000202,-0.002100,0.004761,-0.000237,0.004769,-0.002108,-88.024964,0.004780,
800,460,0.791903,-8.094060,0.999998,0.000156,-0.002485,0.005078,-0.000164,0.005081,-0.002489,-88.757301,0.005082,
630,1300,1.694643,-3.763304,0.999998,0.000174,-0.002482,0.004932,-0.000265,0.004941,-0.002492,-87.952916,0.004941,
1750,590,-1.198133,-7.282091,0.999998,0.000181,-0.002683,0.005214,-0.000009,0.005214,-0.002683,-89.938223,0.005214,
890,1580,0.590820,-1.916881,0.999998,0.000172,-0.002365,0.004833,0.000305,0.004846,-0.002378,87.576882,0.004847,
1160,1410,0.087954,-2.127506,0.999998,0.000181,-0.001430,0.003081,0.000873,0.003244,-0.001593,79.425474,0.003244,
850,1180,1.341039,-4.206580,0.999997,0.000201,-0.002762,0.005755,-0.000712,0.005814,-0.002821,-85.257157,0.005815,
1300,1580,-0.085812,-1.546482,0.999998,0.000176,-0.001355,0.003583,-0.000304,0.003602,-0.001373,-86.493810,0.003635,
1440,1860,-0.134228,-0.592350,0.999998,0.000159,-0.000804,0.003666,0.000224,0.003677,-0.000815,87.136070,0.003863,
1880,50,-0.256408,-9.849193,0.999989,0.000415,-0.001041,0.006490,-0.002851,0.007447,-0.001999,-71.434759,0.007709,
1410,530,-0.266769,-8.189583,0.999998,0.000180,-0.001899,0.004178,0.000701,0.004257,-0.001979,83.508285,0.004261,
640,890,1.889592,-5.671771,0.999998,0.000159,-0.002261,0.004698,0.000289,0.004710,-0.002273,87.627409,0.004711,
1700,1920,-0.305422,-0.467403,0.999998,0.000177,-0.001182,0.004400,0.001034,0.004585,-0.001367,79.830706,0.004708,
1650,1220,-1.359904,-4.009393,0.999998,0.000180,-0.002865,0.005592,0.000618,0.005637,-0.002910,85.840873,0.005638,
990,940,1.124675,-5.673254,0.999998,0.000177,-0.002856,0.007179,0.000236,0.007184,-0.002861,88.656211,0.007233,
930,660,0.662993,-7.288461,0.999997,0.000199,-0.003123,0.005534,-0.000576,0.005573,-0.003161,-86.207030,0.005589,
640,420,1.138146,-8.039035,0.999998,0.000171,-0.002522,0.005036,-0.000071,0.005037,-0.002522,-89.459919,0.005037,
1620,230,-0.384704,-9.245431,0.999998,0.000176,-0.001478,0.004424,-0.000457,0.004459,-0.001514,-85.597943,0.004535,
1570,1030,-1.471156,-5.026388,0.999998,0.000196,-0.001785,0.005483,0.000019,0.005483,-0.001785,89.853457,0.005593,
1200,620,0.035992,-8.074617,0.999998,0.000156,-0.001231,0.002924,-0.000328,0.002949,-0.001256,-85.516359,0.002960,
660,1720,0.952996,-1.578777,0.999998,0.000155,-0.002448,0.005055,0.000006,0.005055,-0.002448,89.955416,0.005056,
1530,850,-1.019892,-6.138770,0.999997,0.000209,-0.003480,0.006438,-0.000378,0.006452,-0.003495,-87.819206,0.006460,
1180,290,0.045679,-9.199623,0.999998,0.000141,-0.000858,0.003505,0.000009,0.003505,-0.000858,89.880720,0.003654,
960,560,0.490690,-7.873632,0.999998,0.000195,-0.002513,0.004854,-0.000652,0.004911,-0.002570,-84.979105,0.004913,
830,1770,0.494532,-1.093466,0.999997,0.000189,-0.001748,0.004658,-0.000281,0.004671,-0.001761,-87.489345,0.004718,
1000,1020,1.267872,-5.093959,0.999997,0.000231,-0.002494,0.007652,-0.000021,0.007652,-0.002494,-89.879159,0.007805,
1760,1890,-0.482193,-0.658460,0.999998,0.000182,-0.002089,0.004929,0.000791,0.005017,-0.002177,83.651164,0.005031,
1270,860,-0.206455,-7.597410,0.999997,0.000000,-0.004164,0.001453,-0.000209,0.001461,-0.004171,-87.873712,0.004233,
1100,1930,0.046830,-0.332633,0.999998,0.000176,-0.000337,0.003259,-0.000182,0.003268,-0.000346,-87.102666,0.003590,
560,1520,1.550365,-2.781815,0.999295,0.000000,-0.004123,0.007945,0.000148,0.007947,-0.004125,89.295129,0.007948,
750,1680,0.799612,-1.635884,0.999996,0.000218,-0.002327,0.004973,-0.000019,0.004973,-0.002327,-89.850525,0.004976,
1600,1090,-1.479226,-4.704345,0.999997,0.000218,-0.002114,0.005463,0.000508,0.005497,-0.002147,86.180871,0.005541,
1490,1070,-1.286301,-4.755699,0.999998,0.000174,-0.002193,0.006754,0.000329,0.006766,-0.002205,87.898808,0.006901,
1050,350,0.206556,-8.916076,0.999998,0.000186,-0.001439,0.003914,-0.000198,0.003922,-0.001446,-87.882698,0.003966,
1300,1750,-0.062165,-0.936020,0.999999,0.000125,-0.000913,0.003557,-0.000005,0.003557,-0.000913,-89.934008,0.003695,
1100,860,0.430913,-6.918929,0.999997,0.000245,-0.002592,0.004140,-0.002249,0.004823,-0.003275,-73.124811,0.004925,
920,120,0.128802,-9.730377,0.999998,0.000166,-0.000537,0.003716,0.000592,0.003796,-0.000618,82.223049,0.004074,
1780,1820,-0.705317,-1.034538,0.999997,0.000206,-0.002329,0.005049,0.000374,0.005068,-0.002347,87.107362,0.005073,
1100,110,0.037637,-9.797202,0.999998,0.000149,-0.000282,0.003248,0.000208,0.003260,-0.000294,86.640524,0.003607,
1810,140,-0.501582,-9.491496,0.999997,0.000243,-0.001943,0.005182,-0.001099,0.005348,-0.002109,-81.429720,0.005388,
890,990,1.460202,-5.247051,0.999997,0.000226,-0.001937,0.005547,0.000362,0.005564,-0.001954,87.237930,0.005645,
1750,570,-1.166387,-7.384461,0.999998,0.000182,-0.002660,0.005206,0.000035,0.005206,-0.002660,89.745181,0.005207,
1700,210,-0.483490,-9.265827,0.999997,0.000196,-0.001796,0.004748,-0.000652,0.004812,-0.001861,-84.368330,0.004853,
1290,1300,-0.066184,-2.383412,0.999998,0.000170,-0.001450,0.002179,-0.001462,0.002694,-0.001965,-70.573495,0.002787,
1360,520,-0.177084,-8.308523,0.999998,0.000158,-0.001661,0.003853,0.000647,0.003928,-0.001736,83.399928,0.003936,
800,440,0.767534,-8.194818,0.999998,0.000156,-0.002426,0.004990,-0.000150,0.004993,-0.002429,-88.839353,0.004993,
1190,520,0.053365,-8.388470,0.999999,0.000124,-0.001267,0.003388,-0.000215,0.003398,-0.001277,-87.364020,0.003433,
1830,1880,-0.658352,-0.807644,0.999996,0.000221,-0.002342,0.005194,0.000506,0.005228,-0.002376,86.177891,0.005235,
620,1170,1.928460,-4.399502,0.999998,0.000181,-0.002235,0.004570,-0.000218,0.004577,-0.002242,-88.166622,0.004577,
580,1300,1.817217,-3.831306,0.999998,0.000190,-0.002535,0.004764,-0.000008,0.004764,-0.002535,-89.935439,0.004767,
880,1730,0.456014,-1.225417,0.999997,0.000194,-0.001977,0.004587,0.000003,0.004587,-0.001977,89.974307,0.004602,
1100,870,0.488136,-6.882290,0.999997,0.000212,-0.002253,0.003836,-0.002242,0.004573,-0.002989,-71.818060,0.004644,
630,520,1.309564,-7.512679,0.999998,0.000218,-0.002518,0.005133,-0.000065,0.005133,-0.002519,-89.513991,0.005134,
920,1530,0.562805,-2.109653,0.999997,0.000209,-0.002489,0.004884,0.000512,0.004920,-0.002524,86.049412,0.004920,
1410,490,-0.256846,-8.352898,0.999997,0.000188,-0.001749,0.004092,0.000548,0.004143,-0.001800,84.687192,0.004155,
840,590,0.846082,-7.487687,0.999998,0.000174,-0.002840,0.005375,-0.000245,0.005382,-0.002848,-88.295712,0.005386,
1700,1880,-0.403909,-0.646474,0.999997,0.000185,-0.001535,0.004591,0.000835,0.004703,-0.001646,82.378373,0.004773,
1440,1840,-0.151779,-0.666964,0.999998,0.000169,-0.000884,0.003690,0.000179,0.003697,-0.000891,87.758807,0.003859,
770,880,1.561628,-5.794546,0.999996,0.000227,-0.002523,0.005246,0.000602,0.005292,-0.002569,85.597708,0.005293,
1160,1250,0.121797,-2.547896,0.999997,0.000194,-0.002036,0.002198,0.001811,0.002867,-0.002705,69.729798,0.003221,
1430,2000,-0.022945,-0.110555,0.999999,0.000141,-0.000191,0.003153,0.000284,0.003177,-0.000215,85.185483,0.003551,
1000,1000,1.249992,-5.251973,0.999996,0.000245,-0.002526,0.007868,-0.000012,0.007868,-0.002526,-89.933434,0.008034,
560,1510,1.564816,-2.895733,0.999365,0.000000,-0.004992,0.006972,0.000725,0.007016,-0.005036,86.542641,0.007235,
1270,30,-0.004018,-10.046680,0.999999,0.000000,-0.000021,0.002895,0.000010,0.002895,-0.000021,89.813297,0.003331,
640,400,1.107404,-8.138690,0.999998,0.000173,-0.002508,0.005044,-0.000065,0.005045,-0.002508,-89.508216,0.005045,
1570,1010,-1.463756,-5.137841,0.999998,0.000202,-0.001832,0.005500,-0.000218,0.005506,-0.001838,-88.298963,0.005607,
1200,600,0.038084,-8.135680,0.999998,0.000149,-0.001265,0.003032,-0.000280,0.003050,-0.001283,-86.290953,0.003063,
1300,1560,-0.087352,-1.616932,0.999998,0.000153,-0.001377,0.003548,-0.000352,0.003573,-0.001402,-85.935650,0.003601,
1490,1030,-1.327977,-5.023057,0.999997,0.000203,-0.001995,0.006528,0.000019,0.006528,-0.001995,89.870649,0.006690,
1810,200,-0.685136,-9.179446,0.999998,0.000186,-0.002235,0.005153,-0.000549,0.005194,-0.002276,-85.772626,0.005207,
1780,1800,-0.749799,-1.137829,0.999998,0.000195,-0.002353,0.005048,0.000300,0.005060,-0.002365,87.685983,0.005063,
1320,1750,-0.081641,-0.941755,0.999999,0.000113,-0.001020,0.003588,-0.000071,0.003589,-0.001021,-89.117826,0.003698,
1890,1500,-1.505976,-2.835109,0.999997,0.000210,-0.002564,0.005103,0.000051,0.005104,-0.002564,89.618901,0.005104,
830,1750,0.525406,-1.189616,0.999997,0.000191,-0.001855,0.004686,-0.000181,0.004691,-0.001860,-88.412735,0.004725,
1080,110,0.043940,-9.795472,0.999998,0.000183,-0.000278,0.003278,0.000228,0.003293,-0.000293,86.347449,0.003645,
1320,290,-0.078227,-9.192103,0.999999,0.000138,-0.000953,0.003563,0.000034,0.003564,-0.000954,89.572035,0.003690,
1040,1740,0.201148,-1.035916,0.999998,0.000173,-0.001379,0.003896,0.000100,0.003898,-0.001381,88.909184,0.003953,
890,970,1.429869,-5.358457,0.999997,0.000221,-0.002072,0.005589,0.000540,0.005626,-0.002110,85.989723,0.005685,
1340,1930,-0.037432,-0.329280,0.999999,0.000129,-0.000402,0.003241,0.000111,0.003244,-0.000405,88.255242,0.003535,
690,1680,0.945852,-1.731701,0.999998,0.000186,-0.002422,0.005072,0.000048,0.005072,-0.002422,89.634880,0.005074,
1560,350,-0.439630,-8.768705,0.999998,0.000173,-0.001878,0.004503,0.000032,0.004503,-0.001878,89.713504,0.004524,
1100,820,0.305366,-7.100420,0.999997,0.000229,-0.003205,0.004502,-0.002247,0.005110,-0.003812,-74.874732,0.005312,
960,540,0.477142,-7.968608,0.999997,0.000196,-0.002435,0.004761,-0.000612,0.004813,-0.002487,-85.173457,0.004814,
880,810,1.097618,-6.294044,0.999998,0.000207,-0.003288,0.006086,0.000392,0.006102,-0.003304,87.611870,0.006109,
1530,830,-0.966390,-6.268618,0.999997,0.000203,-0.003570,0.006428,-0.000221,0.006433,-0.003575,-88.736808,0.006446,
1360,500,-0.173343,-8.384294,0.999998,0.000147,-0.001592,0.003801,0.000556,0.003858,-0.001648,84.178165,0.003872,
1750,550,-1.138293,-7.489877,0.999998,0.000183,-0.002639,0.005200,0.000060,0.005200,-0.002639,89.560691,0.005200,
920,100,0.101338,-9.806192,0.999999,0.000142,-0.000392,0.003565,0.000571,0.003646,-0.000473,81.954597,0.003965,
680,870,1.767030,-5.794613,0.999998,0.000164,-0.002416,0.004949,0.000480,0.004980,-0.002448,86.284683,0.004980,
1730,960,-1.756172,-5.371470,0.999998,0.000177,-0.002207,0.004951,-0.000365,0.004969,-0.002226,-87.085029,0.004978,
1650,1200,-1.401738,-4.122634,0.999998,0.000232,-0.002782,0.005595,0.000652,0.005645,-0.002833,85.578129,0.005645,
880,1710,0.479660,-1.317700,0.999998,0.000213,-0.002065,0.004599,0.000049,0.004599,-0.002065,89.582052,0.004607,
1230,520,0.001865,-8.402860,0.999998,0.000156,-0.001270,0.003334,-0.000006,0.003334,-0.001270,-89.922051,0.003366,
1290,1320,-0.063371,-2.342479,0.999998,0.000175,-0.001406,0.002310,-0.001309,0.002725,-0.001820,-72.420743,0.002776,
660,1700,0.986009,-1.680317,0.999998,0.000147,-0.002468,0.005039,0.000010,0.005039,-0.002468,89.922310,0.005039,
570,1300,1.838856,-3.846348,0.999967,0.000708,-0.002593,0.004656,0.000064,0.004657,-0.002594,89.490918,0.004667,
1080,870,0.541806,-6.695161,0.999993,0.000295,-0.003134,0.005168,-0.002123,0.005679,-0.003646,-76.457101,0.005755,
1880,830,-1.931061,-5.899469,0.999998,0.000155,-0.002249,0.004622,-0.000137,0.004624,-0.002252,-88.860767,0.004625,
1440,1820,-0.166128,-0.739546,0.999998,0.000168,-0.000976,0.003789,0.000133,0.003793,-0.000980,88.403486,0.003938,
630,500,1.279291,-7.614873,0.999998,0.000198,-0.002526,0.005093,-0.000051,0.005093,-0.002526,-89.619623,0.005093,
770,900,1.595861,-5.688784,0.999997,0.000205,-0.002441,0.005287,0.000610,0.005335,-0.002489,85.515523,0.005339,
1200,580,0.037642,-8.193732,0.999999,0.000140,-0.001257,0.003139,-0.000251,0.003153,-0.001271,-86.736152,0.003173,
1810,1880,-0.615342,-0.771499,0.999997,0.000214,-0.002133,0.005175,0.000790,0.005260,-0.002217,83.901082,0.005281,
1000,980,1.214487,-5.400945,0.999996,0.000220,-0.002619,0.007429,-0.000035,0.007429,-0.002619,-89.801775,0.007536,
1260,2020,-0.001755,-0.047712,0.999999,0.000000,-0.000079,0.002994,0.000008,0.002994,-0.000079,89.842714,0.003413,
800,420,0.744969,-8.292050,0.999997,0.000191,-0.002381,0.004940,-0.000130,0.004942,-0.002383,-88.985031,0.004943,
1570,990,-1.450135,-5.246382,0.999998,0.000204,-0.001933,0.005564,-0.000379,0.005583,-0.001953,-87.112378,0.005667,
760,1550,0.952061,-2.280956,0.999998,0.000174,-0.002569,0.005141,0.000150,0.005143,-0.002572,88.887197,0.005143,
1890,1490,-1.521921,-2.886102,0.999997,0.000210,-0.002553,0.005110,0.000035,0.005110,-0.002553,89.739745,0.005110,
1150,1260,0.129972,-2.575142,0.999997,0.000210,-0.002105,0.002593,0.002025,0.003346,-0.002858,69.615385,0.003615,
560,1500,1.604750,-2.954560,0.999283,0.000000,-0.005111,0.004290,0.001329,0.004474,-0.005296,82.106800,0.005700,
1490,490,-0.415549,-8.228758,0.999997,0.000193,-0.002127,0.004548,0.000510,0.004586,-0.002166,85.656338,0.004589,
1440,2000,-0.024082,-0.111150,0.999999,0.000147,-0.000152,0.003158,0.000305,0.003186,-0.000180,84.771716,0.003580,
1530,810,-0.912521,-6.394659,0.999997,0.000185,-0.003635,0.006425,-0.000056,0.006425,-0.003635,-89.680875,0.006444,
820,350,0.604488,-8.668002,0.999997,0.000203,-0.002155,0.004804,0.000029,0.004804,-0.002155,89.765044,0.004812,
1100,800,0.265339,-7.194297,0.999997,0.000200,-0.003108,0.004453,-0.002262,0.005078,-0.003733,-74.551606,0.005262,
890,950,1.399928,-5.469918,0.999997,0.000214,-0.002258,0.005713,0.000634,0.005763,-0.002308,85.484358,0.005801,
1440,230,-0.162212,-9.359886,0.999998,0.000189,-0.000964,0.003768,-0.000136,0.003771,-0.000968,-88.353997,0.003917,
920,80,0.076766,-9.874738,0.999999,0.000140,-0.000297,0.003466,0.000598,0.003559,-0.000390,81.189355,0.003904,
1460,110,-0.074117,-9.785511,0.999999,0.000147,-0.000367,0.003427,-0.000387,0.003467,-0.000406,-84.230540,0.003790,
1750,530,-1.109274,-7.593001,0.999998,0.000183,-0.002619,0.005154,0.000088,0.005155,-0.002620,89.347837,0.005155,
1780,1780,-0.791441,-1.237849,0.999998,0.000173,-0.002370,0.005043,0.000212,0.005049,-0.002376,88.362587,0.005052,
980,1750,0.270951,-1.040556,0.999998,0.000157,-0.001415,0.004075,-0.000015,0.004075,-0.001415,-89.838591,0.004138,
1300,1540,-0.086885,-1.688821,0.999998,0.000145,-0.001396,0.003510,-0.000407,0.003544,-0.001429,-85.287381,0.003566,
1790,200,-0.641945,-9.208295,0.999997,0.000194,-0.002206,0.005116,-0.000616,0.005167,-0.002257,-85.222740,0.005181,
1040,1720,0.213404,-1.115882,0.999998,0.000172,-0.001446,0.003902,0.000136,0.003906,-0.001449,88.545528,0.003949,
1790,80,-0.251078,-9.806749,0.999997,0.000200,-0.000981,0.004846,-0.001871,0.005395,-0.001530,-73.643168,0.005561,
1700,1860,-0.447431,-0.740337,0.999997,0.000187,-0.001665,0.004728,0.000741,0.004813,-0.001750,83.475107,0.004872,
1360,480,-0.170916,-8.459882,0.999998,0.000142,-0.001529,0.003858,0.000478,0.003900,-0.001571,84.966435,0.003924,
1410,470,-0.254030,-8.433802,0.999998,0.000191,-0.001701,0.004080,0.000481,0.004120,-0.001740,85.275616,0.004137,
1300,290,-0.059791,-9.195813,0.999998,0.000156,-0.000862,0.003548,-0.000034,0.003548,-0.000862,-89.556778,0.003701,
1600,1070,-1.505301,-4.814584,0.999996,0.000226,-0.002002,0.005359,0.000359,0.005376,-0.002019,87.213370,0.005431,
1260,1220,-0.087563,-2.414971,0.999997,0.000215,-0.002928,0.001456,-0.000171,0.001463,-0.002935,-87.773546,0.002935,
1630,1220,-1.301401,-3.992342,0.999997,0.000191,-0.002963,0.005718,0.000602,0.005760,-0.003004,86.052042,0.005762,
660,1680,1.020245,-1.781058,0.999998,0.000156,-0.002461,0.005048,0.000034,0.005048,-0.002461,89.738020,0.005048,
1110,1180,0.499725,-3.112607,0.999997,0.000195,-0.001674,0.003260,0.002116,0.004044,-0.002458,69.687216,0.004075,
1670,160,-0.322735,-9.520740,0.999997,0.000212,-0.001495,0.004426,-0.000786,0.004528,-0.001598,-82.567978,0.004593,
1440,1800,-0.182397,-0.817903,0.999998,0.000143,-0.001068,0.003814,0.000092,0.003815,-0.001070,88.914845,0.003936,
1880,840,-1.946153,-5.851875,0.999998,0.000151,-0.002246,0.004651,-0.000143,0.004654,-0.002249,-88.809560,0.004655,
640,380,1.075782,-8.241254,0.999998,0.000144,-0.002504,0.005049,-0.000040,0.005049,-0.002504,-89.692933,0.005049,
1570,970,-1.424255,-5.359727,0.999997,0.000216,-0.002051,0.005619,-0.000526,0.005655,-0.002086,-86.093790,0.005720,
1000,960,1.162960,-5.547562,0.999996,0.000215,-0.002746,0.007483,0.000013,0.007483,-0.002746,89.928871,0.007571,
670,1680,0.993745,-1.764272,0.999998,0.000153,-0.002452,0.005051,0.000029,0.005051,-0.002452,89.775848,0.005052,
560,1490,1.622951,-2.956695,0.999398,0.000000,-0.004932,0.002701,0.001617,0.003030,-0.005260,78.517897,0.005280,
1060,1930,0.059840,-0.336902,0.999999,0.000138,-0.000457,0.003334,-0.000229,0.003348,-0.000470,-86.562598,0.003625,
1760,1790,-0.722115,-1.155130,0.999999,0.000184,-0.002345,0.005024,0.000224,0.005031,-0.002352,88.261254,0.005034,
1200,560,0.039043,-8.260052,0.999998,0.000160,-0.001254,0.003248,-0.000241,0.003261,-0.001267,-86.944313,0.003287,
960,520,0.463587,-8.063686,0.999997,0.000208,-0.002404,0.004725,-0.000584,0.004772,-0.002452,-85.350723,0.004773,
1530,900,-1.165559,-5.816581,0.999998,0.000167,-0.002986,0.006347,-0.000672,0.006395,-0.003034,-85.903846,0.006398,
1800,350,-0.970048,-8.431083,0.999998,0.000140,-0.002455,0.005077,0.000001,0.005077,-0.002455,89.992364,0.005078,
790,1100,1.623811,-4.671894,0.999997,0.000192,-0.002211,0.005151,-0.000483,0.005182,-0.002242,-86.262458,0.005198,
1600,830,-1.198424,-6.150575,0.999997,0.000188,-0.003127,0.005926,-0.000536,0.005957,-0.003158,-86.625798,0.005961,
1300,1520,-0.088274,-1.758507,0.999998,0.000150,-0.001406,0.003463,-0.000465,0.003507,-0.001450,-84.588349,0.003524,
1260,1200,-0.147877,-2.443924,0.999997,0.000000,-0.004390,0.001276,0.000340,0.001297,-0.004410,86.575839,0.004534,
980,1730,0.288112,-1.122985,0.999998,0.000181,-0.001484,0.004148,0.000042,0.004149,-0.001484,89.568949,0.004204,
1040,1490,0.305129,-2.066356,0.999998,0.000187,-0.002186,0.004326,0.000881,0.004443,-0.002303,82.433254,0.004444,
830,1970,0.127951,-0.237736,0.999998,0.000146,-0.000506,0.003783,-0.000922,0.003973,-0.000696,-78.364414,0.004243,
960,810,0.813605,-6.467619,0.999997,0.000216,-0.003791,0.006502,-0.000214,0.006506,-0.003796,-88.807715,0.006536,
990,520,0.395261,-8.119466,0.999997,0.000197,-0.002161,0.004545,-0.000612,0.004600,-0.002216,-84.828094,0.004601,
1490,470,-0.404007,-8.317884,0.999997,0.000189,-0.002015,0.004486,0.000435,0.004514,-0.002044,86.189287,0.004521,
1780,1760,-0.828637,-1.339450,0.999998,0.000157,-0.002372,0.005061,0.000135,0.005064,-0.002374,88.959936,0.005067,
920,60,0.049064,-9.945188,0.999998,0.000151,-0.000186,0.003392,0.000592,0.003487,-0.000282,80.837557,0.003874,
1890,1480,-1.536403,-2.936966,0.999997,0.000200,-0.002558,0.005102,0.000012,0.005102,-0.002558,89.908419,0.005102,
1100,780,0.238205,-7.278465,0.999998,0.000201,-0.002920,0.004298,-0.002194,0.004913,-0.003535,-74.353633,0.005068,
890,930,1.355444,-5.587922,0.999997,0.000200,-0.002435,0.005802,0.000734,0.005867,-0.002500,84.950422,0.005889,
1440,110,-0.065547,-9.787830,0.999999,0.000135,-0.000386,0.003386,-0.000337,0.003416,-0.000416,-84.929757,0.003728,
1750,510,-1.079968,-7.695417,0.999998,0.000167,-0.002571,0.005158,0.000099,0.005159,-0.002572,89.264299,0.005159,
1450,2000,-0.026201,-0.111536,0.999999,0.000140,-0.000102,0.003168,0.000326,0.003200,-0.000134,84.359039,0.003620,
1250,1220,-0.057858,-2.396872,0.999996,0.000237,-0.003204,0.001458,-0.000088,0.001459,-0.003205,-88.918476,0.003210,
1040,1700,0.222771,-1.193536,0.999998,0.000175,-0.001487,0.003978,0.000201,0.003986,-0.001494,87.896039,0.004027,
1260,290,-0.026489,-9.202579,0.999998,0.000147,-0.000894,0.003498,0.000034,0.003498,-0.000894,89.554722,0.003634,
1530,790,-0.867957,-6.524054,0.999997,0.000190,-0.003640,0.006337,0.000090,0.006338,-0.003641,89.484158,0.006361,
880,510,0.649939,-7.972734,0.999997,0.000218,-0.002523,0.004986,-0.000347,0.005002,-0.002539,-87.360251,0.005002,
800,350,0.650705,-8.637955,0.999997,0.000192,-0.002300,0.004862,-0.000019,0.004862,-0.002300,-89.850612,0.004864,
1660,820,-1.356057,-6.143013,0.999997,0.000207,-0.002887,0.005572,-0.000562,0.005609,-0.002925,-86.215974,0.005611,
750,1750,0.693068,-1.289023,0.999998,0.000189,-0.002139,0.004915,-0.000197,0.004921,-0.002145,-88.398953,0.004934,
1700,1840,-0.495545,-0.837046,0.999997,0.000187,-0.001783,0.004744,0.000628,0.004804,-0.001843,84.549863,0.004847,
1410,450,-0.246158,-8.515104,0.999997,0.000195,-0.001659,0.004066,0.000430,0.004099,-0.001691,85.726591,0.004119,
630,260,0.883528,-8.829881,0.999999,0.000158,-0.002408,0.005078,0.000117,0.005080,-0.002410,89.102973,0.005082,
1880,870,-1.990673,-5.714328,0.999998,0.000144,-0.002203,0.004428,-0.000120,0.004430,-0.002205,-88.965172,0.004430,
1310,1190,-0.366948,-2.705620,0.999997,0.000233,-0.002216,0.001659,-0.000669,0.001771,-0.002328,-80.478932,0.002431,
1570,950,-1.394770,-5.470573,0.999997,0.000199,-0.002210,0.005741,-0.000638,0.005792,-0.002260,-85.443829,0.005838,
640,360,1.044709,-8.340762,0.999998,0.000144,-0.002487,0.005029,-0.000013,0.005029,-0.002487,-89.898903,0.005029,
1450,1000,-1.213891,-5.275241,0.999995,0.000288,-0.002898,0.008521,0.000248,0.008526,-0.002903,88.755641,0.008670,
1440,1780,-0.195913,-0.892159,0.999998,0.000154,-0.001171,0.003854,0.000064,0.003855,-0.001172,89.274922,0.003953,
1830,890,-1.905769,-5.669073,0.999998,0.000184,-0.002274,0.004617,-0.000258,0.004627,-0.002283,-87.855050,0.004627,
920,1810,0.295677,-0.841351,0.999998,0.000186,-0.001275,0.004158,-0.000326,0.004177,-0.001295,-86.575976,0.004277,
1260,860,-0.162739,-7.617620,0.999942,0.000000,-0.003971,0.001195,-0.000157,0.001200,-0.003976,-88.263384,0.004079,
1190,740,0.043844,-7.767778,0.999999,0.000134,-0.001204,0.001937,-0.000997,0.002227,-0.001493,-73.800562,0.002269,
1140,1420,0.119050,-2.127007,0.999998,0.000175,-0.001616,0.003343,0.000982,0.003531,-0.001803,79.198556,0.003531,
1000,940,1.095244,-5.702473,0.999997,0.000182,-0.002946,0.007328,0.000034,0.007328,-0.002946,89.808820,0.007374,
1430,1740,-0.210226,-1.041849,0.999998,0.000169,-0.001350,0.003927,-0.000069,0.003928,-0.001351,-89.245866,0.003991,
1200,1380,0.033655,-2.150992,0.999999,0.000145,-0.001145,0.002486,0.000509,0.002556,-0.001215,82.171549,0.002557,
1300,1500,-0.088335,-1.829295,0.999999,0.000137,-0.001437,0.003417,-0.000525,0.003474,-0.001493,-83.897430,0.003485,
1560,650,-0.733902,-7.283562,0.999998,0.000247,-0.003098,0.005537,0.000437,0.005559,-0.003120,87.107804,0.005573,
580,660,1.654843,-6.720793,0.999997,0.000197,-0.003141,0.005075,0.000121,0.005077,-0.003143,89.159833,0.005125,
1600,810,-1.152741,-6.269102,0.999997,0.000191,-0.003201,0.005981,-0.000432,0.006001,-0.003222,-87.311101,0.006006,
1490,450,-0.393122,-8.404816,0.999998,0.000182,-0.001965,0.004436,0.000409,0.004462,-0.001991,86.359032,0.004471,
610,1360,1.640236,-3.489759,0.999997,0.000213,-0.002489,0.005059,-0.000118,0.005061,-0.002491,-89.103416,0.005061,
1780,1740,-0.867057,-1.439531,0.999998,0.000146,-0.002372,0.005021,0.000065,0.005022,-0.002372,89.500178,0.005025,
560,1480,1.603817,-2.963280,0.999694,0.000000,-0.005096,0.002818,0.001081,0.002963,-0.005241,82.361826,0.005256,
1040,1930,0.071022,-0.340593,0.999998,0.000146,-0.000517,0.003358,-0.000256,0.003374,-0.000534,-86.241834,0.003628,
1220,650,0.013732,-8.003546,0.999999,0.000139,-0.001130,0.002609,-0.000201,0.002620,-0.001141,-86.924903,0.002627,
1480,1110,-1.161660,-4.462030,0.999997,0.000181,-0.002730,0.007056,0.000369,0.007070,-0.002744,87.843270,0.007129,
660,1660,1.050087,-1.882242,0.999998,0.000170,-0.002471,0.005055,0.000052,0.005056,-0.002471,89.605759,0.005056,
960,500,0.448701,-8.160812,0.999998,0.000207,-0.002307,0.004656,-0.000560,0.004701,-0.002352,-85.429877,0.004701,
760,290,0.645680,-8.877465,0.999998,0.000177,-0.002109,0.004901,0.000268,0.004912,-0.002120,87.816276,0.004927,
890,910,1.314314,-5.701035,0.999997,0.000201,-0.002642,0.005884,0.000716,0.005944,-0.002701,85.235882,0.005952,
1770,1880,-0.530772,-0.719059,0.999998,0.000169,-0.002133,0.004957,0.000739,0.005033,-0.002209,84.113277,0.005046,
1100,760,0.219698,-7.364280,0.999997,0.000220,-0.002736,0.004199,-0.002067,0.004768,-0.003305,-74.599396,0.004885,
910,1990,0.056832,-0.154154,0.999998,0.000141,-0.000230,0.003450,-0.000609,0.003548,-0.000328,-80.843571,0.003922,
730,1100,1.756489,-4.683119,0.999998,0.000174,-0.002236,0.004947,-0.000368,0.004966,-0.002254,-87.074462,0.004973,
830,1730,0.551102,-1.281684,0.999997,0.000195,-0.001947,0.004715,-0.000093,0.004716,-0.001948,-89.198445,0.004740,
790,1610,0.799412,-1.926376,0.999998,0.000174,-0.002450,0.005023,0.000134,0.005025,-0.002453,88.976024,0.005026,
580,180,0.804786,-9.121153,0.999998,0.000177,-0.002643,0.004916,0.000338,0.004931,-0.002658,87.442035,0.004936,
1170,800,0.095745,-7.591231,0.999997,0.000199,-0.001818,0.001910,-0.001623,0.002517,-0.002426,-69.477978,0.002855,
780,1430,1.066078,-2.881942,0.999997,0.000196,-0.002846,0.005388,0.000037,0.005388,-0.002846,89.741705,0.005391,
1740,1790,-0.677034,-1.124192,0.999998,0.000202,-0.002199,0.005010,0.000287,0.005021,-0.002211,87.726428,0.005033,
640,340,1.012345,-8.444333,0.999999,0.000146,-0.002470,0.005041,-0.000021,0.005041,-0.002470,-89.837794,0.005042,
1160,1230,0.162518,-2.588141,0.999998,0.000168,-0.002156,0.002092,0.001554,0.002600,-0.002664,71.907897,0.003040,
1040,1680,0.235162,-1.275774,0.999998,0.000165,-0.001515,0.004061,0.000228,0.004070,-0.001525,87.664938,0.004112,
1690,1480,-1.012101,-2.627381,0.999997,0.000179,-0.002753,0.005256,-0.000092,0.005257,-0.002754,-89.339819,0.005259,
1700,1820,-0.534245,-0.931611,0.999998,0.000161,-0.001922,0.004779,0.000518,0.004818,-0.001962,85.601588,0.004846,
1530,770,-0.824409,-6.650502,0.999998,0.000168,-0.003622,0.006202,0.000205,0.006207,-0.003626,88.804358,0.006236,
880,1010,1.488005,-5.135345,0.999997,0.000234,-0.001852,0.005423,0.000174,0.005428,-0.001857,88.627727,0.005517,
1750,490,-1.052609,-7.800756,0.999998,0.000170,-0.002540,0.005150,0.000104,0.005151,-0.002542,89.224054,0.005151,
750,1730,0.724213,-1.387466,0.999998,0.000177,-0.002209,0.004966,-0.000114,0.004968,-0.002211,-89.088380,0.004978,
910,1970,0.085268,-0.222286,0.999998,0.000165,-0.000352,0.003511,-0.000611,0.003605,-0.000447,-81.226521,0.003930,
1450,1800,-0.192577,-0.823613,0.999999,0.000130,-0.001066,0.003853,0.000130,0.003857,-0.001069,88.491759,0.003982,
1410,430,-0.237475,-8.597516,0.999997,0.000195,-0.001627,0.004040,0.000403,0.004069,-0.001655,85.949092,0.004092,
800,330,0.622098,-8.735588,0.999998,0.000179,-0.002248,0.004868,0.000047,0.004869,-0.002248,89.622035,0.004873,
1410,1540,-0.264393,-1.829418,0.999998,0.000172,-0.001828,0.004116,-0.000605,0.004177,-0.001889,-84.242393,0.004183,
1240,290,-0.007390,-9.205303,0.999999,0.000147,-0.000922,0.003480,0.000019,0.003480,-0.000922,89.753470,0.003606,
1440,1760,-0.211848,-0.972867,0.999998,0.000162,-0.001242,0.003893,-0.000007,0.003893,-0.001242,-89.916980,0.003977,
1570,930,-1.349765,-5.590379,0.999998,0.000191,-0.002414,0.005849,-0.000722,0.005912,-0.002477,-85.042032,0.005938,
1830,910,-1.927502,-5.576086,0.999998,0.000172,-0.002236,0.004640,-0.000252,0.004650,-0.002245,-87.906563,0.004650,
1200,1400,0.035525,-2.101418,0.999998,0.000152,-0.001179,0.002668,0.000438,0.002717,-0.001229,83.588169,0.002721,
1000,920,1.025405,-5.847018,0.999997,0.000191,-0.003218,0.007118,0.000033,0.007118,-0.003218,89.817973,0.007129,
1580,830,-1.135186,-6.179948,0.999998,0.000146,-0.003229,0.006075,-0.000479,0.006100,-0.003253,-87.062206,0.006105,
1880,860,-1.976985,-5.759050,0.999998,0.000137,-0.002215,0.004545,-0.000148,0.004548,-0.002218,-88.746481,0.004549,
1420,2000,-0.021334,-0.110181,0.999999,0.000128,-0.000202,0.003141,0.000262,0.003161,-0.000222,85.537367,0.003529,
1360,460,-0.167900,-8.536890,0.999998,0.000146,-0.001461,0.003824,0.000406,0.003855,-0.001492,85.635695,0.003888,
1660,800,-1.315856,-6.257903,0.999998,0.000204,-0.002936,0.005666,-0.000513,0.005696,-0.002966,-86.597253,0.005698,
1800,1130,-1.876630,-4.559387,0.999998,0.000188,-0.002265,0.004728,0.000322,0.004743,-0.002280,87.370349,0.004744,
1220,510,0.014541,-8.434261,0.999998,0.000141,-0.001268,0.003370,-0.000125,0.003373,-0.001271,-88.462959,0.003407,
560,1470,1.608425,-3.019067,0.999817,0.000000,-0.005420,0.003510,-0.000258,0.003517,-0.005428,-88.349022,0.005507,
690,1300,1.542331,-3.695148,0.999998,0.000218,-0.002620,0.005189,-0.000364,0.005206,-0.002637,-87.339104,0.005206,
1620,900,-1.411732,-5.724881,0.999998,0.000196,-0.002579,0.005580,-0.000674,0.005636,-0.002634,-85.306468,0.005640,
1780,1720,-0.897701,-1.539806,0.999998,0.000152,-0.002386,0.005067,0.000014,0.005068,-0.002386,89.894793,0.005070,
570,380,1.240713,-8.122428,0.999969,0.000667,-0.001311,0.005112,-0.000290,0.005125,-0.001324,-87.417121,0.005320,
890,890,1.264506,-5.823928,0.999998,0.000198,-0.002823,0.006014,0.000712,0.006071,-0.002880,85.423112,0.006074,
1110,40,0.008493,-10.016922,0.999999,0.000147,-0.000079,0.003026,0.000131,0.003032,-0.000084,87.582159,0.003453,
1020,1490,0.349143,-2.105552,0.999997,0.000182,-0.002236,0.004460,0.000820,0.004559,-0.002335,83.118105,0.004560,
870,280,0.417194,-9.046556,0.999997,0.000198,-0.001818,0.004465,0.000178,0.004471,-0.001823,88.375964,0.004496,
800,400,0.718707,-8.391960,0.999997,0.000197,-0.002341,0.004940,-0.000101,0.004941,-0.002342,-89.209072,0.004943,
1150,800,0.135135,-7.491370,0.999997,0.000203,-0.002126,0.002546,-0.001974,0.003269,-0.002849,-69.899832,0.003557,
750,580,1.081702,-7.391021,0.999997,0.000188,-0.002724,0.005271,-0.000061,0.005271,-0.002724,-89.559644,0.005272,
1490,430,-0.378886,-8.494941,0.999998,0.000177,-0.001952,0.004426,0.000360,0.004446,-0.001973,86.775633,0.004456,
1120,1930,0.039250,-0.329585,0.999999,0.000130,-0.000401,0.003234,-0.000123,0.003238,-0.000405,-88.066499,0.003528,
1220,1870,0.006633,-0.517452,0.999998,0.000184,-0.000580,0.003299,0.000003,0.003299,-0.000580,89.950900,0.003522,
640,690,1.555358,-6.657077,0.999997,0.000210,-0.002544,0.005064,0.000190,0.005068,-0.002549,88.573521,0.005068,
580,670,1.671528,-6.670607,0.999997,0.000206,-0.003069,0.005036,0.000082,0.005037,-0.003070,89.418558,0.005077,
1100,740,0.207046,-7.448479,0.999997,0.000217,-0.002592,0.004076,-0.001914,0.004586,-0.003102,-75.072657,0.004680,
1760,1970,-0.233400,-0.280519,0.999998,0.000153,-0.001340,0.004336,0.001323,0.004630,-0.001633,77.501501,0.004696,
1170,740,0.067423,-7.718904,0.999998,0.000187,-0.001452,0.002324,-0.001409,0.002792,-0.001920,-71.639422,0.002857,
830,1690,0.603714,-1.470526,0.999997,0.000190,-0.002074,0.004798,-0.000029,0.004798,-0.002074,-89.759266,0.004812,
1670,1480,-0.958155,-2.593915,0.999998,0.000153,-0.002732,0.005260,-0.000154,0.005263,-0.002735,-88.895113,0.005264,
1140,1400,0.115310,-2.194015,0.999998,0.000181,-0.001659,0.003287,0.001128,0.003532,-0.001904,77.744227,0.003536,
1530,750,-0.783867,-6.772212,0.999998,0.000179,-0.003566,0.006069,0.000312,0.006079,-0.003576,88.144488,0.006110,
1700,1800,-0.575805,-1.030815,0.999998,0.000173,-0.002013,0.004826,0.000414,0.004851,-0.002038,86.545977,0.004872,
1630,720,-1.064504,-6.754836,0.999998,0.000198,-0.003144,0.005708,-0.000126,0.005710,-0.003146,-89.185875,0.005720,
1120,1750,0.106193,-0.954532,0.999999,0.000133,-0.001069,0.003612,0.000096,0.003614,-0.001071,88.831164,0.003713,
1390,1380,-0.255640,-2.458034,0.999997,0.000183,-0.002470,0.004304,-0.001440,0.004597,-0.002763,-78.484103,0.004628,
660,1640,1.079940,-1.983822,0.999998,0.000167,-0.002483,0.005046,0.000061,0.005046,-0.002484,89.533431,0.005046,
630,240,0.839663,-8.931495,0.999998,0.000179,-0.002415,0.005051,0.000169,0.005055,-0.002419,88.705282,0.005057,
1440,1740,-0.222832,-1.049469,0.999998,0.000161,-0.001305,0.003958,-0.000045,0.003958,-0.001306,-89.509134,0.004034,
1750,470,-1.025562,-7.902709,0.999998,0.000170,-0.002530,0.005091,0.000086,0.005092,-0.002531,89.355705,0.005092,
800,550,0.905993,-7.630132,0.999997,0.000196,-0.002672,0.005246,-0.000192,0.005250,-0.002676,-88.614492,0.005251,
880,1110,1.412785,-4.587493,0.999996,0.000230,-0.002297,0.005651,-0.000627,0.005700,-0.002346,-85.516386,0.005730,
1110,880,0.529406,-6.951755,0.999997,0.000214,-0.001515,0.003164,-0.002243,0.004066,-0.002417,-68.102040,0.004090,
1760,830,-1.645825,-6.011065,0.999997,0.000222,-0.002537,0.005064,-0.000524,0.005100,-0.002572,-86.076488,0.005100,
880,990,1.477162,-5.243522,0.999997,0.000231,-0.001937,0.005464,0.000330,0.005479,-0.001952,87.449394,0.005554,
1620,880,-1.374207,-5.838901,0.999997,0.000210,-0.002727,0.005693,-0.000695,0.005750,-0.002784,-85.316300,0.005751,
1200,1420,0.037268,-2.046852,0.999998,0.000148,-0.001202,0.002834,0.000373,0.002868,-0.001236,84.761707,0.002877,
1040,1660,0.244343,-1.355327,0.999998,0.000177,-0.001556,0.004047,0.000293,0.004062,-0.001571,87.018109,0.004096,
1000,900,0.950259,-5.991253,0.999997,0.000215,-0.003509,0.007088,-0.000014,0.007088,-0.003509,-89.924217,0.007088,
1360,660,-0.184568,-7.774424,0.999998,0.000192,-0.002083,0.003857,0.001346,0.004148,-0.002374,77.814907,0.004162,
660,1450,1.359992,-2.956661,0.999998,0.000181,-0.002608,0.005126,-0.000065,0.005127,-0.002609,-89.514977,0.005127,
640,320,0.977803,-8.544226,0.999998,0.000171,-0.002431,0.005053,0.000006,0.005053,-0.002431,89.953617,0.005054,
1560,830,-1.070261,-6.208890,0.999998,0.000180,-0.003356,0.006234,-0.000442,0.006254,-0.003376,-87.365057,0.006261,
1880,850,-1.961783,-5.805401,0.999998,0.000139,-0.002235,0.004633,-0.000150,0.004636,-0.002239,-88.750123,0.004637,
1830,930,-1.949388,-5.482937,0.999998,0.000201,-0.002214,0.004638,-0.000282,0.004649,-0.002226,-87.648161,0.004651,
1660,780,-1.272913,-6.369954,0.999998,0.000212,-0.002960,0.005654,-0.000451,0.005677,-0.002984,-87.011665,0.005680,
1570,910,-1.305837,-5.706259,0.999997,0.000190,-0.002646,0.005913,-0.000719,0.005973,-0.002706,-85.233088,0.005982,
670,1300,1.594545,-3.717460,0.999998,0.000172,-0.002583,0.005079,-0.000341,0.005094,-0.002598,-87.458092,0.005095,
570,370,1.226299,-8.171953,0.999973,0.000660,-0.001551,0.005082,-0.000267,0.005093,-0.001562,-87.700803,0.005218,
570,1550,1.434934,-2.587457,0.999928,0.001072,-0.002349,0.004963,-0.000132,0.004966,-0.002351,-88.966918,0.004968,
920,1790,0.319171,-0.924704,0.999998,0.000192,-0.001334,0.004192,-0.000227,0.004201,-0.001344,-87.649598,0.004291,
1780,1130,-1.830680,-4.550353,0.999998,0.000184,-0.002271,0.004814,0.000351,0.004831,-0.002288,87.167364,0.004833,
800,360,0.665017,-8.589176,0.999997,0.000190,-0.002301,0.004879,-0.000031,0.004879,-0.002301,-89.750815,0.004881,
1450,40,-0.017184,-10.013614,0.999999,0.000125,-0.000031,0.003074,-0.000331,0.003109,-0.000066,-83.978485,0.003552,
1200,1870,0.017222,-0.518898,0.999998,0.000162,-0.000513,0.003320,-0.000030,0.003320,-0.000513,-89.556538,0.003574,
1260,630,-0.032686,-8.047891,0.999999,0.000121,-0.001170,0.002821,0.000332,0.002849,-0.001198,85.272331,0.002861,
750,560,1.053612,-7.495886,0.999998,0.000167,-0.002685,0.005239,-0.000112,0.005241,-0.002686,-89.190724,0.005241,
1310,420,-0.092981,-8.725719,0.999999,0.000138,-0.001276,0.003644,0.000236,0.003655,-0.001287,87.264382,0.003708,
1780,1940,-0.362624,-0.432961,0.999997,0.000197,-0.001672,0.004951,0.001304,0.005198,-0.001920,79.252110,0.005257,
1140,1380,0.116882,-2.259779,0.999998,0.000159,-0.001674,0.003208,0.001289,0.003527,-0.001993,76.082540,0.003537,
1530,730,-0.748150,-6.893426,0.999998,0.000194,-0.003495,0.005915,0.000417,0.005933,-0.003514,87.467425,0.005967,
1290,1340,-0.063401,-2.295474,0.999998,0.000193,-0.001388,0.002491,-0.001162,0.002812,-0.001709,-74.540015,0.002834,
1100,720,0.201424,-7.528729,0.999997,0.000218,-0.002458,0.004012,-0.001785,0.004471,-0.002918,-75.553741,0.004540,
890,870,1.213884,-5.941093,0.999998,0.000194,-0.003009,0.006056,0.000652,0.006103,-0.003055,85.904172,0.006103,
1760,1950,-0.293232,-0.365055,0.999997,0.000187,-0.001670,0.004600,0.001180,0.004814,-0.001885,79.690024,0.004852,
1700,1780,-0.611396,-1.123942,0.999998,0.000184,-0.002074,0.004856,0.000323,0.004871,-0.002089,87.336432,0.004888,
1800,1610,-1.114745,-2.132036,0.999998,0.000150,-0.002520,0.005062,-0.000083,0.005063,-0.002521,-89.373335,0.005063,
820,590,0.903084,-7.451165,0.999998,0.000158,-0.002834,0.005362,-0.000185,0.005366,-0.002838,-88.708008,0.005369,
630,480,1.249287,-7.716881,0.999997,0.000203,-0.002532,0.005108,-0.000066,0.005108,-0.002533,-89.507357,0.005108,
1380,1930,-0.051832,-0.334599,0.999998,0.000146,-0.000340,0.003307,0.000214,0.003320,-0.000353,86.655815,0.003647,
1310,1200,-0.305687,-2.689082,0.999997,0.000196,-0.002219,0.001764,-0.000741,0.001897,-0.002353,-79.792230,0.002496,
1620,1080,-1.536747,-4.764705,0.999997,0.000219,-0.002058,0.005308,0.000435,0.005334,-0.002084,86.635211,0.005376,
1490,410,-0.366597,-8.583442,0.999997,0.000197,-0.001913,0.004426,0.000320,0.004443,-0.001929,87.119773,0.004455,
1440,1720,-0.239393,-1.130925,0.999998,0.000166,-0.001378,0.003968,-0.000095,0.003970,-0.001379,-88.979581,0.004031,
860,1110,1.458034,-4.597287,0.999998,0.000187,-0.002239,0.005516,-0.000573,0.005558,-0.002281,-85.797434,0.005587,
570,360,1.209056,-8.219987,0.999971,0.000661,-0.001825,0.004999,-0.000192,0.005004,-0.001831,-88.392882,0.005064,
1040,1640,0.252713,-1.438147,0.999998,0.000163,-0.001600,0.004075,0.000349,0.004097,-0.001622,86.490041,0.004126,
640,300,0.941955,-8.647803,0.999998,0.000173,-0.002401,0.005063,0.000073,0.005064,-0.002401,89.441605,0.005066,
1160,1330,0.082927,-2.352458,0.999997,0.000203,-0.001571,0.002627,0.001438,0.003072,-0.002016,72.794844,0.003122,
1820,1010,-1.975680,-5.119514,0.999998,0.000178,-0.002155,0.004571,-0.000130,0.004574,-0.002158,-88.896630,0.004576,
1100,290,0.121145,-9.171633,0.999999,0.000153,-0.000988,0.003660,0.000005,0.003660,-0.000988,89.936925,0.003787,
1660,1200,-1.429218,-4.129613,0.999998,0.000208,-0.002719,0.005544,0.000638,0.005593,-0.002768,85.610073,0.005593,
1860,1550,-1.353977,-2.533104,0.999997,0.000212,-0.002526,0.005117,-0.000045,0.005117,-0.002526,-89.661532,0.005117,
1200,1440,0.037939,-1.990030,0.999998,0.000158,-0.001225,0.002924,0.000319,0.002949,-0.001250,85.629279,0.002960,
1190,2010,0.003582,-0.077526,0.999999,0.000120,-0.000057,0.002996,-0.000030,0.002996,-0.000057,-89.438672,0.003427,
650,1680,1.043938,-1.798156,0.999998,0.000163,-0.002460,0.005037,0.000040,0.005038,-0.002460,89.690908,0.005038,
1000,880,0.873312,-6.131647,0.999997,0.000226,-0.003718,0.007013,-0.000191,0.007017,-0.003721,-88.982564,0.007021,
800,340,0.636250,-8.686580,0.999998,0.000188,-0.002281,0.004861,0.000004,0.004861,-0.002281,89.968216,0.004864,
1240,630,-0.011057,-8.059048,0.999999,0.000134,-0.001151,0.002781,0.000158,0.002787,-0.001158,87.706089,0.002801,
1600,390,-0.566615,-8.529873,0.999996,0.000217,-0.002115,0.004733,0.000117,0.004735,-0.002117,89.021350,0.004744,
710,1430,1.259744,-2.987789,0.999998,0.000164,-0.002682,0.005238,-0.000085,0.005239,-0.002683,-89.382637,0.005239,
1870,280,-1.015861,-8.655610,0.999998,0.000154,-0.002418,0.004905,-0.000006,0.004905,-0.002418,-89.951767,0.004905,
890,1360,0.838185,-3.076850,0.999998,0.000184,-0.003257,0.005728,0.000236,0.005735,-0.003263,88.498664,0.005753,
1880,1790,-1.010257,-1.370389,0.999997,0.000217,-0.002445,0.004914,0.000025,0.004914,-0.002445,89.802522,0.004914,
1650,1480,-0.903154,-2.559316,0.999998,0.000168,-0.002791,0.005273,-0.000186,0.005277,-0.002795,-88.677498,0.005280,
890,240,0.327179,-9.240266,0.999998,0.000178,-0.001475,0.004283,0.000306,0.004299,-0.001491,86.969563,0.004366,
1780,1700,-0.931486,-1.643019,0.999998,0.000141,-0.002398,0.005045,0.000007,0.005045,-0.002398,89.946672,0.005047,
830,120,0.196352,-9.706821,0.999998,0.000177,-0.000753,0.004005,0.000855,0.004154,-0.000902,80.119840,0.004369,
1570,1330,-0.877808,-3.247579,0.999998,0.000173,-0.003352,0.005896,-0.000138,0.005898,-0.003354,-89.147718,0.005917,
1830,950,-1.971676,-5.389978,0.999998,0.000189,-0.002183,0.004558,-0.000209,0.004564,-0.002189,-88.228944,0.004565,
1450,980,-1.174653,-5.437447,0.999997,0.000250,-0.002888,0.008010,0.000348,0.008021,-0.002899,88.173848,0.008124,
1860,1730,-1.075807,-1.628783,0.999998,0.000152,-0.002438,0.004977,-0.000065,0.004978,-0.002438,-89.498075,0.004978,
1880,1670,-1.225588,-1.960515,0.999999,0.000133,-0.002442,0.004947,-0.000056,0.004948,-0.002443,-89.565409,0.004948,
1290,420,-0.068892,-8.733104,0.999999,0.000134,-0.001165,0.003574,0.000125,0.003577,-0.001168,88.490738,0.003648,
1750,1340,-1.407990,-3.457436,0.999996,0.000210,-0.002744,0.005271,0.000308,0.005283,-0.002756,87.803249,0.005285,
1530,710,-0.719309,-7.011972,0.999998,0.000177,-0.003394,0.005791,0.000495,0.005817,-0.003421,86.923121,0.005847,
1140,1360,0.115702,-2.326894,0.999998,0.000144,-0.001734,0.003159,0.001463,0.003563,-0.002138,74.561887,0.003587,
1750,450,-0.997366,-8.004120,0.999998,0.000160,-0.002517,0.005066,0.000103,0.005068,-0.002518,89.223481,0.005068,
1700,1760,-0.648590,-1.223311,0.999998,0.000185,-0.002115,0.004872,0.000236,0.004880,-0.002123,88.066852,0.004893,
570,770,1.868048,-6.159593,0.999981,0.000455,-0.002654,0.004789,-0.000015,0.004789,-0.002654,-89.885851,0.004798,
1360,1930,-0.045425,-0.330810,0.999999,0.000122,-0.000364,0.003256,0.000156,0.003262,-0.000370,87.541867,0.003572,
800,590,0.958451,-7.418322,0.999998,0.000144,-0.002794,0.005312,-0.000139,0.005314,-0.002796,-89.016385,0.005317,
1780,1610,-1.065832,-2.098477,0.999998,0.000178,-0.002488,0.005063,-0.000101,0.005065,-0.002490,-89.235166,0.005065,
1810,520,-1.249248,-7.548703,0.999997,0.000190,-0.002562,0.005130,0.000051,0.005130,-0.002562,89.621371,0.005130,
1490,390,-0.350980,-8.672568,0.999997,0.000190,-0.001841,0.004349,0.000255,0.004360,-0.001851,87.641962,0.004376,
1870,870,-1.969671,-5.725228,0.999998,0.000146,-0.002198,0.004506,-0.000163,0.004509,-0.002201,-88.609948,0.004510,
1250,1310,-0.019580,-2.284671,0.999998,0.000151,-0.001024,0.001649,-0.000490,0.001736,-0.001110,-79.935595,0.001758,
570,1540,1.447259,-2.636021,0.999883,0.001381,-0.002708,0.005155,-0.000215,0.005161,-0.002714,-88.435938,0.005163,
1360,1200,-0.405414,-3.110630,0.999996,0.000270,-0.002616,0.004133,-0.002288,0.004836,-0.003318,-72.933488,0.004946,
750,1710,0.753623,-1.488182,0.999998,0.000167,-0.002261,0.004991,-0.000083,0.004992,-0.002262,-89.344447,0.004999,
890,850,1.161586,-6.065413,0.999998,0.000200,-0.003154,0.006110,0.000586,0.006147,-0.003191,86.394674,0.006149,
1260,30,-0.001901,-10.047630,0.999999,0.000000,-0.000089,0.002913,0.000033,0.002914,-0.000090,89.371680,0.003314,
1440,40,-0.016684,-10.013432,0.999999,0.000117,-0.000069,0.003061,-0.000295,0.003088,-0.000097,-84.666716,0.003512,
660,1620,1.106812,-2.084452,0.999998,0.000172,-0.002507,0.005061,0.000082,0.005062,-0.002508,89.379204,0.005062,
1660,1220,-1.387754,-4.017762,0.999998,0.000194,-0.002802,0.005546,0.000623,0.005592,-0.002849,85.753403,0.005593,
960,480,0.437165,-8.251747,0.999998,0.000196,-0.002173,0.004611,-0.000471,0.004644,-0.002206,-86.044319,0.004646,
1440,1700,-0.248699,-1.208547,0.999998,0.000170,-0.001449,0.004021,-0.000165,0.004026,-0.001454,-88.268609,0.004077,
1630,1480,-0.846889,-2.523414,0.999998,0.000177,-0.002784,0.005282,-0.000245,0.005290,-0.002791,-88.263134,0.005292,
640,280,0.901613,-8.746891,0.999998,0.000155,-0.002378,0.005047,0.000103,0.005048,-0.002379,89.208203,0.005051,
1760,1050,-1.844379,-4.931084,0.999998,0.000165,-0.002178,0.004783,0.000172,0.004787,-0.002183,88.586306,0.004793,
1880,410,-1.263299,-7.993993,0.999998,0.000190,-0.002474,0.004955,0.000059,0.004955,-0.002475,89.546475,0.004955,
860,1790,0.412407,-0.975164,0.999998,0.000170,-0.001716,0.004397,-0.000263,0.004408,-0.001727,-87.538213,0.004443,
1220,550,0.015001,-8.300747,0.999998,0.000154,-0.001256,0.003253,-0.000152,0.003259,-0.001261,-88.071516,0.003286,
700,1490,1.193504,-2.689731,0.999998,0.000170,-0.002644,0.005195,0.000022,0.005195,-0.002644,89.841635,0.005196,
1040,1620,0.261807,-1.518982,0.999998,0.000165,-0.001632,0.004076,0.000381,0.004102,-0.001657,86.201616,0.004127,
570,210,0.913551,-8.950774,0.999995,0.000271,-0.002564,0.004988,0.000200,0.004994,-0.002569,88.486271,0.004994,
870,1360,0.904123,-3.117191,0.999998,0.000157,-0.003212,0.005726,0.000149,0.005728,-0.003215,89.042623,0.005743,
800,320,0.607594,-8.785133,0.999998,0.000196,-0.002207,0.004849,0.000090,0.004850,-0.002208,89.266268,0.004856,
1000,860,0.805700,-6.268427,0.999997,0.000221,-0.003846,0.006909,-0.000380,0.006923,-0.003859,-87.978076,0.006938,
1100,700,0.196717,-7.607771,0.999997,0.000223,-0.002354,0.003942,-0.001653,0.004349,-0.002762,-76.145033,0.004402,
910,1950,0.112268,-0.293098,0.999998,0.000177,-0.000474,0.003636,-0.000622,0.003729,-0.000566,-81.578026,0.004018,
1410,410,-0.230252,-8.677724,0.999997,0.000184,-0.001580,0.004012,0.000350,0.004034,-0.001602,86.431625,0.004062,
1330,360,-0.107627,-8.933100,0.999998,0.000144,-0.001195,0.003685,0.000188,0.003692,-0.001202,87.793355,0.003766,
1780,1660,-0.993531,-1.844159,0.999998,0.000168,-0.002459,0.005100,-0.000084,0.005101,-0.002460,-89.360257,0.005102,
640,810,1.767126,-6.056748,0.999998,0.000174,-0.002412,0.004859,0.000347,0.004875,-0.002428,87.275519,0.004875,
1200,1880,0.015803,-0.488001,0.999998,0.000155,-0.000464,0.003288,-0.000013,0.003288,-0.000464,-89.798256,0.003560,
800,570,0.932518,-7.524295,0.999998,0.000155,-0.002715,0.005308,-0.000181,0.005313,-0.002719,-88.705730,0.005313,
1260,1690,-0.032065,-1.142496,0.999998,0.000160,-0.001087,0.003560,-0.000082,0.003562,-0.001089,-88.991799,0.003650,
1750,1320,-1.443552,-3.563589,0.999997,0.000224,-0.002739,0.005252,0.000340,0.005266,-0.002754,87.570478,0.005268,
1700,1740,-0.680457,-1.320222,0.999998,0.000192,-0.002162,0.004906,0.000142,0.004908,-0.002165,88.851275,0.004920,
1530,690,-0.690695,-7.126030,0.999998,0.000190,-0.003291,0.005667,0.000553,0.005701,-0.003325,86.480255,0.005727,
1620,1320,-1.060769,-3.396036,0.999997,0.000223,-0.003171,0.005770,0.000157,0.005773,-0.003174,88.995014,0.005782,
1830,1390,-1.528503,-3.306050,0.999996,0.000232,-0.002562,0.005092,0.000147,0.005095,-0.002565,88.903637,0.005095,
1300,1930,-0.022921,-0.325589,0.999998,0.000160,-0.000305,0.003219,0.000106,0.003222,-0.000308,88.281899,0.003556,
920,1750,0.364636,-1.095806,0.999998,0.000176,-0.001504,0.004272,-0.000088,0.004273,-0.001505,-89.129557,0.004335,
890,830,1.112027,-6.186370,0.999997,0.000211,-0.003279,0.006130,0.000450,0.006151,-0.003301,87.267717,0.006157,
1630,160,-0.271447,-9.543588,0.999998,0.000177,-0.001034,0.004237,-0.000770,0.004347,-0.001145,-81.861976,0.004506,
1660,1240,-1.345332,-3.908139,0.999997,0.000201,-0.002850,0.005593,0.000560,0.005630,-0.002887,86.222709,0.005631,
1570,1350,-0.845766,-3.130929,0.999998,0.000161,-0.003295,0.005782,-0.000225,0.005788,-0.003300,-88.582982,0.005807,
1140,1340,0.116077,-2.389757,0.999998,0.000160,-0.001782,0.003120,0.001619,0.003606,-0.002268,73.280953,0.003646,
770,1620,0.835292,-1.907956,0.999998,0.000144,-0.002448,0.005031,0.000131,0.005033,-0.002451,88.994257,0.005033,
1440,1680,-0.260314,-1.290858,0.999998,0.000184,-0.001496,0.004117,-0.000189,0.004124,-0.001502,-88.076631,0.004174,
570,230,0.963302,-8.850992,0.999998,0.000157,-0.002466,0.004921,0.000068,0.004921,-0.002467,89.474074,0.004921,
1050,240,0.142106,-9.333791,0.999998,0.000164,-0.001002,0.003712,0.000065,0.003713,-0.001002,89.215896,0.003842,
1870,270,-0.996678,-8.704691,0.999998,0.000160,-0.002427,0.004932,-0.000032,0.004932,-0.002427,-89.750693,0.004932,
1250,740,-0.017671,-7.802490,0.999999,0.000130,-0.001025,0.001709,0.000501,0.001798,-0.001114,79.927716,0.001815,
650,720,1.581964,-6.517754,0.999997,0.000197,-0.002545,0.005089,0.000243,0.005096,-0.002553,88.175110,0.005096,
1890,1010,-2.122177,-5.113778,0.999998,0.000145,-0.002024,0.004155,-0.000121,0.004157,-0.002026,-88.878112,0.004158,
760,1850,0.476924,-0.791851,0.999997,0.000201,-0.001728,0.004749,-0.000685,0.004820,-0.001799,-84.024276,0.004872,
1200,550,0.039222,-8.292875,0.999998,0.000174,-0.001252,0.003289,-0.000231,0.003301,-0.001263,-87.099984,0.003331,
640,260,0.860146,-8.850602,0.999998,0.000168,-0.002362,0.005081,0.000173,0.005085,-0.002366,88.670513,0.005089,
680,1490,1.246716,-2.721012,0.999998,0.000173,-0.002616,0.005165,0.000016,0.005165,-0.002616,89.885071,0.005165,
1040,1600,0.269150,-1.599985,0.999998,0.000181,-0.001663,0.004111,0.000430,0.004143,-0.001695,85.761453,0.004166,
1100,680,0.193302,-7.687229,0.999997,0.000198,-0.002228,0.003889,-0.001501,0.004237,-0.002577,-76.927153,0.004270,
1080,290,0.141183,-9.163655,0.999999,0.000152,-0.000988,0.003717,0.000037,0.003718,-0.000988,89.554599,0.003851,
570,1170,2.034261,-4.443278,0.999996,0.000224,-0.001979,0.004243,0.000007,0.004243,-0.001979,89.931924,0.004246,
800,300,0.575886,-8.882214,0.999998,0.000200,-0.002133,0.004734,0.000160,0.004738,-0.002137,88.669478,0.004745,
590,1360,1.689945,-3.520314,0.999997,0.000218,-0.002593,0.005025,-0.000078,0.005026,-0.002594,-89.414526,0.005027,
1870,410,-1.238191,-8.010283,0.999997,0.000185,-0.002484,0.004996,0.000058,0.004996,-0.002484,89.554843,0.004996,
570,1530,1.473224,-2.683117,0.999537,0.002611,-0.003071,0.006031,-0.000013,0.006031,-0.003071,-89.919197,0.006031,
660,1600,1.136730,-2.187112,0.999998,0.000178,-0.002529,0.005090,0.000092,0.005091,-0.002530,89.307288,0.005091,
930,50,0.036492,-9.978307,0.999999,0.000139,-0.000125,0.003294,0.000524,0.003372,-0.000204,81.480603,0.003782,
630,460,1.219793,-7.818919,0.999998,0.000174,-0.002512,0.005081,-0.000080,0.005082,-0.002513,-89.399767,0.005082,
1310,860,-0.336910,-7.383048,0.999997,0.000212,-0.002193,0.001655,0.000699,0.001778,-0.002316,80.017865,0.002424,
630,1100,1.979832,-4.713814,0.999998,0.000194,-0.002171,0.004532,-0.000145,0.004536,-0.002175,-88.758077,0.004537,
1780,1640,-1.021677,-1.946381,0.999998,0.000165,-0.002474,0.005065,-0.000095,0.005066,-0.002475,-89.279311,0.005067,
690,1980,0.214410,-0.244127,0.999998,0.000176,-0.001047,0.004635,-0.001662,0.005085,-0.001498,-74.832627,0.005227,
1000,840,0.740555,-6.404185,0.999997,0.000218,-0.003914,0.006728,-0.000561,0.006757,-0.003944,-86.989221,0.006789,
1620,340,-0.545421,-8.741518,0.999997,0.000190,-0.001920,0.004739,-0.000075,0.004740,-0.001921,-89.353088,0.004768,
1200,1860,0.018768,-0.551781,0.999998,0.000173,-0.000553,0.003347,-0.000040,0.003347,-0.000554,-89.413312,0.003588,
1240,1690,-0.009196,-1.138239,0.999998,0.000161,-0.001109,0.003537,-0.000057,0.003538,-0.001110,-89.295691,0.003619,
800,430,0.755470,-8.243760,0.999998,0.000170,-0.002400,0.004946,-0.000148,0.004949,-0.002403,-88.844981,0.004950,
1530,670,-0.664327,-7.239992,0.999997,0.000206,-0.003194,0.005572,0.000596,0.005612,-0.003234,86.126886,0.005634,
1700,1720,-0.710133,-1.418588,0.999997,0.000192,-0.002176,0.004963,0.000078,0.004963,-0.002177,89.373239,0.004976,
920,1730,0.384154,-1.182035,0.999998,0.000202,-0.001575,0.004419,-0.000036,0.004419,-0.001575,-89.660010,0.004479,
1350,1870,-0.065615,-0.529796,0.999998,0.000168,-0.000614,0.003400,0.000091,0.003402,-0.000616,88.696133,0.003626,
1660,1260,-1.305156,-3.793167,0.999997,0.000220,-0.002941,0.005632,0.000500,0.005661,-0.002970,86.674455,0.005663,
1830,1370,-1.563851,-3.407590,0.999997,0.000214,-0.002548,0.005065,0.000172,0.005069,-0.002552,88.706264,0.005069,
570,220,0.939681,-8.901445,0.999998,0.000172,-0.002496,0.004921,0.000134,0.004923,-0.002499,88.967943,0.004923,
830,160,0.275034,-9.542497,0.999998,0.000184,-0.001017,0.004244,0.000751,0.004350,-0.001123,82.032211,0.004516,
750,1620,0.885155,-1.939138,0.999998,0.000172,-0.002481,0.005005,0.000116,0.005006,-0.002483,89.116113,0.005006,
1570,1370,-0.814112,-3.014315,0.999998,0.000175,-0.003223,0.005685,-0.000278,0.005694,-0.003232,-88.212965,0.005711,
1220,1930,0.004460,-0.322484,0.999998,0.000142,-0.000374,0.003160,0.000006,0.003160,-0.000374,89.899058,0.003454,
890,810,1.064540,-6.310154,0.999998,0.000204,-0.003344,0.006147,0.000339,0.006159,-0.003356,87.956291,0.006168,
600,1170,1.972048,-4.415117,0.999998,0.000141,-0.002173,0.004450,-0.000150,0.004454,-0.002177,-88.705773,0.004454,
1640,1970,-0.130412,-0.238058,0.999998,0.000166,-0.000534,0.003835,0.000937,0.004028,-0.000727,78.392293,0.004293,
1230,740,0.001255,-7.812951,0.999998,0.000150,-0.000985,0.001631,-0.000030,0.001632,-0.000985,-89.332948,0.001643,
1140,1320,0.116859,-2.450974,0.999997,0.000190,-0.001867,0.003067,0.001766,0.003634,-0.002434,72.200425,0.003703,
630,720,1.632334,-6.491791,0.999997,0.000213,-0.002525,0.005035,0.000213,0.005042,-0.002531,88.385181,0.005042,
1200,610,0.037236,-8.104720,0.999998,0.000150,-0.001252,0.002986,-0.000300,0.003007,-0.001273,-85.971567,0.003018,
1740,1070,-1.793229,-4.834083,0.999998,0.000162,-0.002149,0.004838,0.000159,0.004842,-0.002153,88.700589,0.004852,
1040,1580,0.276431,-1.683190,0.999998,0.000173,-0.001727,0.004170,0.000491,0.004210,-0.001768,85.271390,0.004228,
640,240,0.816132,-8.952491,0.999998,0.000175,-0.002357,0.005070,0.000246,0.005079,-0.002366,88.103810,0.005083,
1100,660,0.189034,-7.765961,0.999998,0.000169,-0.002100,0.003853,-0.001346,0.004143,-0.002390,-77.831088,0.004160,
780,1830,0.483483,-0.865465,0.999997,0.000211,-0.001910,0.004664,-0.000507,0.004703,-0.001948,-85.616678,0.004726,
800,280,0.543281,-8.974321,0.999998,0.000192,-0.002082,0.004735,0.000247,0.004744,-0.002091,87.928828,0.004755,
580,1360,1.714937,-3.536037,0.999997,0.000226,-0.002898,0.004993,-0.000020,0.004993,-0.002898,-89.853833,0.005014,
800,1490,0.925336,-2.529749,0.999998,0.000179,-0.002708,0.005266,0.000163,0.005269,-0.002711,88.830360,0.005270,
660,1580,1.167244,-2.288788,0.999997,0.000198,-0.002544,0.005091,0.000086,0.005092,-0.002545,89.353823,0.005092,
1620,570,-0.812382,-7.599247,0.999997,0.000193,-0.002793,0.005270,0.000286,0.005280,-0.002804,87.971458,0.005284,
1880,1660,-1.240685,-2.010785,0.999998,0.000140,-0.002412,0.004961,-0.000065,0.004961,-0.002412,-89.497557,0.004962,
1780,1620,-1.051577,-2.046646,0.999998,0.000157,-0.002481,0.005045,-0.000095,0.005046,-0.002483,-89.279073,0.005046,
1810,740,-1.611044,-6.419612,0.999998,0.000170,-0.002534,0.005063,-0.000296,0.005074,-0.002546,-87.771999,0.005074,
1440,1660,-0.272304,-1.375241,0.999998,0.000199,-0.001538,0.004084,-0.000251,0.004096,-0.001550,-87.449803,0.004136,
700,630,1.295487,-7.051224,0.999997,0.000188,-0.002708,0.005204,0.000098,0.005205,-0.002710,89.289476,0.005207,
960,170,0.161426,-9.558191,0.999998,0.000170,-0.000937,0.003747,0.000354,0.003774,-0.000963,85.707691,0.003922,
1870,1350,-1.699780,-3.566697,0.999997,0.000217,-0.002462,0.005022,0.000106,0.005023,-0.002464,89.191754,0.005023,
1760,2010,-0.094821,-0.106767,0.999998,0.000160,-0.000622,0.004096,0.001563,0.004567,-0.001093,73.239994,0.004769,
1680,1610,-0.816065,-1.937607,0.999998,0.000199,-0.002449,0.005048,-0.000130,0.005051,-0.002451,-89.006400,0.005051,
1620,300,-0.494749,-8.926982,0.999997,0.000202,-0.001815,0.004593,-0.000191,0.004599,-0.001820,-88.298353,0.004632,
1490,370,-0.334840,-8.759531,0.999998,0.000180,-0.001751,0.004258,0.000208,0.004265,-0.001758,88.020539,0.004287,
1530,650,-0.644096,-7.350093,0.999998,0.000202,-0.003067,0.005473,0.000615,0.005517,-0.003111,85.902203,0.005532,
1700,1700,-0.739830,-1.519799,0.999997,0.000187,-0.002210,0.004952,0.000062,0.004952,-0.002211,89.503856,0.004962,
1000,820,0.683984,-6.538179,0.999996,0.000236,-0.003921,0.006526,-0.000671,0.006568,-0.003964,-86.340850,0.006615,
1350,1830,-0.082661,-0.669156,0.999998,0.000156,-0.000792,0.003504,0.000033,0.003505,-0.000792,89.565225,0.003676,
1660,1700,-0.650751,-1.461955,0.999997,0.000190,-0.002287,0.004865,-0.000006,0.004865,-0.002287,-89.951040,0.004868,
1290,1400,-0.070358,-2.134517,0.999998,0.000192,-0.001342,0.002925,-0.000825,0.003078,-0.001495,-79.430495,0.003079,
940,1070,1.352560,-4.783480,0.999998,0.000180,-0.002006,0.006124,-0.000411,0.006145,-0.002026,-87.113367,0.006262,
1200,1840,0.022922,-0.619931,0.999998,0.000175,-0.000630,0.003376,0.000006,0.003376,-0.000630,89.912302,0.003591,
1530,1920,-0.142354,-0.400515,0.999998,0.000184,-0.000675,0.003697,0.000502,0.003754,-0.000732,83.527978,0.003980,
1830,1350,-1.598817,-3.508923,0.999997,0.000202,-0.002532,0.005079,0.000186,0.005083,-0.002537,88.602506,0.005083,
1380,1810,-0.116621,-0.749725,0.999998,0.000158,-0.000804,0.003602,0.000098,0.003604,-0.000807,88.724782,0.003783,
680,50,0.123454,-9.950078,0.999998,0.000164,-0.000434,0.004320,0.001797,0.004923,-0.001037,71.460701,0.005190,
890,40,0.029293,-10.011009,0.999999,0.000122,-0.000227,0.003340,0.000612,0.003442,-0.000329,80.532583,0.003798,
1720,1070,-1.750895,-4.831383,0.999999,0.000163,-0.002144,0.004899,0.000170,0.004903,-0.002148,88.621139,0.004916,
1180,610,0.063309,-8.091535,0.999998,0.000173,-0.001353,0.003110,-0.000553,0.003177,-0.001421,-83.040802,0.003183,
1450,1880,-0.127063,-0.522534,0.999999,0.000142,-0.000678,0.003568,0.000265,0.003584,-0.000694,86.438503,0.003802,
780,1490,0.980195,-2.561361,0.999998,0.000186,-0.002721,0.005248,0.000135,0.005250,-0.002724,89.027798,0.005251,
800,260,0.507467,-9.071012,0.999997,0.000196,-0.002027,0.004677,0.000324,0.004693,-0.002042,87.240901,0.004706,
640,220,0.766531,-9.053528,0.999998,0.000194,-0.002365,0.005133,0.000340,0.005149,-0.002380,87.407885,0.005154,
1140,1300,0.122462,-2.506536,0.999997,0.000213,-0.001985,0.003033,0.001925,0.003686,-0.002638,71.247428,0.003799,
1870,1070,-2.071293,-4.857357,0.999998,0.000151,-0.002078,0.004231,0.000050,0.004232,-0.002078,89.545449,0.004232,
1310,850,-0.276376,-7.398866,0.999997,0.000197,-0.002219,0.001837,0.000896,0.002026,-0.002408,78.077798,0.002588,
1810,760,-1.646407,-6.318823,0.999997,0.000212,-0.002517,0.004985,-0.000316,0.004998,-0.002530,-87.593396,0.004998,
1330,420,-0.119005,-8.710566,0.999998,0.000171,-0.001353,0.003701,0.000302,0.003719,-0.001371,86.587885,0.003761,
1570,1390,-0.785015,-2.900887,0.999998,0.000182,-0.003142,0.005623,-0.000332,0.005635,-0.003155,-87.831179,0.005649,
1870,260,-0.973713,-8.755608,0.999999,0.000150,-0.002429,0.004937,-0.000047,0.004937,-0.002429,-89.636608,0.004937,
1030,240,0.162464,-9.322907,0.999998,0.000177,-0.001014,0.003786,0.000123,0.003789,-0.001017,88.528992,0.003922,
890,790,1.017639,-6.433878,0.999998,0.000177,-0.003381,0.006105,0.000214,0.006110,-0.003386,88.708601,0.006122,
1780,1600,-1.079498,-2.149581,0.999998,0.000171,-0.002507,0.005088,-0.000097,0.005089,-0.002508,-89.265146,0.005089,
590,670,1.647833,-6.687211,0.999997,0.000211,-0.002592,0.005033,0.000078,0.005034,-0.002593,89.415106,0.005035,
1060,910,0.783965,-6.273158,0.999994,0.000287,-0.002968,0.006533,-0.002447,0.007127,-0.003562,-76.372471,0.007127,
1440,1640,-0.280010,-1.454787,0.999997,0.000227,-0.001626,0.004133,-0.000313,0.004150,-0.001643,-86.896220,0.004180,
830,140,0.236578,-9.625853,0.999998,0.000168,-0.000869,0.004096,0.000795,0.004220,-0.000994,81.123075,0.004412,
1610,1710,-0.533921,-1.351545,0.999997,0.000175,-0.001959,0.004693,0.000055,0.004693,-0.001959,89.529450,0.004715,
1040,1560,0.280828,-1.764711,0.999998,0.000159,-0.001864,0.004188,0.000577,0.004242,-0.001919,84.602270,0.004248,
1490,350,-0.317767,-8.844433,0.999998,0.000175,-0.001667,0.004186,0.000171,0.004191,-0.001672,88.324084,0.004220,
710,1410,1.292358,-3.092698,0.999998,0.000175,-0.002724,0.005243,-0.000143,0.005245,-0.002726,-88.971459,0.005247,
1880,1650,-1.255553,-2.060712,0.999998,0.000174,-0.002400,0.004976,-0.000061,0.004976,-0.002401,-89.529037,0.004977,
830,1670,0.630171,-1.570496,0.999997,0.000191,-0.002169,0.004854,0.000059,0.004854,-0.002170,89.516852,0.004863,
660,1230,1.743920,-4.077791,0.999997,0.000197,-0.002411,0.004899,-0.000396,0.004921,-0.002433,-86.911931,0.004921,
1220,290,0.011119,-9.204604,0.999999,0.000124,-0.000902,0.003469,-0.000040,0.003469,-0.000903,-89.470989,0.003600,
1640,1950,-0.168777,-0.314814,0.999998,0.000164,-0.000685,0.003949,0.000901,0.004118,-0.000854,79.369690,0.004347,
1100,640,0.190346,-7.841293,0.999998,0.000175,-0.001983,0.003867,-0.001185,0.004098,-0.002214,-78.971136,0.004103,
1240,1230,-0.021546,-2.367301,0.999998,0.000167,-0.002706,0.001255,-0.000108,0.001258,-0.002709,-88.432267,0.002711,
750,1910,0.344632,-0.517251,0.999998,0.000187,-0.001243,0.004508,-0.001055,0.004695,-0.001431,-79.930674,0.004813,
1880,1260,-1.877487,-4.018628,0.999999,0.000147,-0.002303,0.004645,0.000121,0.004647,-0.002305,89.003748,0.004647,
1200,170,0.016868,-9.610990,0.999998,0.000189,-0.000504,0.003281,0.000014,0.003281,-0.000504,89.795535,0.003533,
700,650,1.328289,-6.947530,0.999998,0.000194,-0.002708,0.005226,0.000133,0.005228,-0.002710,89.041860,0.005229,
800,240,0.472572,-9.162874,0.999998,0.000187,-0.001915,0.004642,0.000416,0.004668,-0.001942,86.379917,0.004690,
590,1170,1.993241,-4.422560,0.999998,0.000144,-0.002124,0.004385,-0.000106,0.004387,-0.002125,-89.069761,0.004387,
1790,1340,-1.513934,-3.507238,0.999996,0.000215,-0.002615,0.005141,0.000285,0.005151,-0.002626,87.899171,0.005152,
910,1930,0.142122,-0.368881,0.999998,0.000160,-0.000608,0.003757,-0.000614,0.003842,-0.000693,-82.143687,0.004096,
1250,2020,-0.001478,-0.046943,0.999999,0.000000,-0.000051,0.002983,-0.000027,0.002984,-0.000051,-89.486589,0.003416,
680,40,0.088717,-9.991338,0.999998,0.000163,-0.000250,0.004193,0.001772,0.004813,-0.000870,70.712738,0.005130,
1430,500,-0.296852,-8.281509,0.999998,0.000163,-0.001951,0.004260,0.000644,0.004326,-0.002017,84.139947,0.004330,
1660,1680,-0.678635,-1.560138,0.999998,0.000182,-0.002309,0.004919,-0.000044,0.004919,-0.002309,-89.647305,0.004922,
1240,610,-0.010111,-8.116405,0.999998,0.000144,-0.001181,0.002932,0.000117,0.002935,-0.001185,88.372306,0.002953,
660,1560,1.195555,-2.389675,0.999997,0.000183,-0.002562,0.005120,0.000089,0.005121,-0.002563,89.334198,0.005121,
1140,1280,0.133230,-2.570390,0.999997,0.000208,-0.002149,0.002974,0.002072,0.003707,-0.002882,70.517481,0.003892,
1660,1610,-0.767315,-1.906324,0.999998,0.000171,-0.002425,0.005004,-0.000154,0.005007,-0.002428,-88.810902,0.005008,
1850,280,-0.968639,-8.696127,0.999998,0.000148,-0.002409,0.004986,-0.000047,0.004986,-0.002410,-89.639141,0.004987,
590,1300,1.793735,-3.816562,0.999998,0.000178,-0.002409,0.004850,-0.000120,0.004852,-0.002411,-89.056067,0.004852,
1370,520,-0.194576,-8.291266,0.999998,0.000150,-0.001737,0.003910,0.000696,0.003995,-0.001822,83.072866,0.004000,
1750,430,-0.971303,-8.105702,0.999998,0.000171,-0.002504,0.005089,0.000098,0.005090,-0.002505,89.259682,0.005090,
1570,1830,-0.300921,-0.774259,0.999998,0.000169,-0.001354,0.004189,0.000365,0.004213,-0.001378,86.245703,0.004296,
960,460,0.423184,-8.345542,0.999998,0.000187,-0.002019,0.004553,-0.000382,0.004575,-0.002041,-86.681110,0.004584,
1200,1820,0.022690,-0.686899,0.999998,0.000135,-0.000714,0.003405,0.000013,0.003405,-0.000714,89.822689,0.003592,
1090,240,0.108293,-9.351019,0.999997,0.000197,-0.000784,0.003598,0.000102,0.003600,-0.000787,88.664341,0.003785,
1830,1800,-0.866129,-1.218605,0.999998,0.000176,-0.002389,0.005064,0.000145,0.005067,-0.002392,88.886161,0.005070,
600,670,1.623174,-6.702663,0.999997,0.000220,-0.002523,0.005043,0.000100,0.005045,-0.002524,89.245244,0.005045,
1890,1070,-2.113029,-4.863085,0.999999,0.000134,-0.002001,0.004052,0.000043,0.004052,-0.002001,89.588991,0.004052,
1440,1620,-0.289266,-1.538077,0.999997,0.000213,-0.001720,0.004187,-0.000363,0.004209,-0.001742,-86.497675,0.004230,
1780,1580,-1.108387,-2.251961,0.999998,0.000151,-0.002561,0.005115,-0.000091,0.005116,-0.002562,-89.319014,0.005116,
1060,890,0.698123,-6.409147,0.999996,0.000259,-0.003307,0.006264,-0.001891,0.006624,-0.003667,-79.220789,0.006637,
770,620,1.087579,-7.208989,0.999998,0.000186,-0.002805,0.005351,-0.000030,0.005351,-0.002805,-89.789785,0.005353,
1610,1690,-0.560889,-1.445141,0.999997,0.000200,-0.002045,0.004682,-0.000025,0.004682,-0.002045,-89.790446,0.004694,
1490,330,-0.303154,-8.927600,0.999998,0.000175,-0.001578,0.004214,0.000083,0.004215,-0.001579,89.178587,0.004259,
890,770,0.975750,-6.555382,0.999998,0.000154,-0.003397,0.006073,0.000109,0.006074,-0.003398,89.340924,0.006088,
1040,1540,0.287337,-1.849267,0.999997,0.000190,-0.001985,0.004216,0.000659,0.004286,-0.002054,83.999884,0.004287,
1100,840,0.366387,-7.017435,0.999997,0.000228,-0.003100,0.004520,-0.002269,0.005144,-0.003725,-74.611000,0.005314,
1480,890,-0.970964,-5.999072,0.999998,0.000168,-0.003487,0.006859,-0.000158,0.006861,-0.003489,-89.123533,0.006861,
1870,1260,-1.855098,-4.005465,0.999998,0.000166,-0.002354,0.004701,0.000168,0.004705,-0.002358,88.633887,0.004705,
830,1650,0.655559,-1.667801,0.999997,0.000181,-0.002273,0.004903,0.000132,0.004906,-0.002275,88.944915,0.004910,
710,260,0.696079,-8.961584,0.999998,0.000179,-0.002335,0.005008,0.000242,0.005016,-0.002343,88.114762,0.005020,
1250,1200,-0.102100,-2.425683,0.999996,0.000000,-0.005039,0.001451,0.000315,0.001466,-0.005054,87.230924,0.005200,
710,1390,1.327389,-3.197690,0.999997,0.000190,-0.002745,0.005266,-0.000194,0.005270,-0.002749,-88.611136,0.005272,
1290,1500,-0.073934,-1.818790,0.999998,0.000152,-0.001375,0.003370,-0.000438,0.003410,-0.001415,-84.768387,0.003426,
580,1170,2.014744,-4.432038,0.999998,0.000143,-0.002034,0.004321,-0.000039,0.004321,-0.002034,-89.648655,0.004324,
800,220,0.434115,-9.256879,0.999998,0.000185,-0.001823,0.004590,0.000487,0.004627,-0.001860,85.683592,0.004656,
910,1910,0.169104,-0.445378,0.999998,0.000166,-0.000689,0.003829,-0.000558,0.003897,-0.000757,-83.064090,0.004132,
1750,410,-0.940815,-8.208817,0.999998,0.000177,-0.002474,0.005056,0.000065,0.005056,-0.002475,89.506558,0.005057,
1410,390,-0.220422,-8.758372,0.999998,0.000169,-0.001539,0.003993,0.000299,0.004010,-0.001555,86.912568,0.004043,
570,260,1.029264,-8.706217,0.999997,0.000202,-0.002323,0.004819,-0.000003,0.004819,-0.002323,-89.976866,0.004820,
1170,1480,0.077729,-1.888560,0.999998,0.000170,-0.001367,0.003277,0.000546,0.003341,-0.001431,83.383091,0.003352,
1660,1660,-0.705995,-1.658440,0.999997,0.000187,-0.002332,0.004936,-0.000084,0.004937,-0.002333,-89.336827,0.004940,
920,1070,1.393183,-4.794968,0.999997,0.000200,-0.001950,0.005852,-0.000433,0.005876,-0.001974,-86.834403,0.005980,
1140,1260,0.150440,-2.628906,0.999997,0.000205,-0.002264,0.002956,0.002156,0.003731,-0.003039,70.223408,0.003969,
1240,590,-0.009376,-8.175816,0.999999,0.000139,-0.001223,0.003067,0.000133,0.003071,-0.001227,88.224370,0.003092,
990,600,0.439048,-7.743443,0.999997,0.000229,-0.002604,0.004857,-0.000848,0.004952,-0.002699,-83.599322,0.004959,
1890,180,-0.821824,-9.103938,0.999998,0.000153,-0.002460,0.005010,-0.000288,0.005021,-0.002471,-87.796960,0.005021,
1810,1800,-0.818424,-1.182297,0.999998,0.000206,-0.002353,0.005078,0.000290,0.005090,-0.002364,87.766531,0.005094,
790,1300,1.263203,-3.585332,0.999998,0.000185,-0.002978,0.005614,-0.000372,0.005630,-0.002994,-87.526611,0.005634,
1360,610,-0.184692,-7.961507,0.999998,0.000156,-0.001853,0.003771,0.001013,0.003948,-0.002030,80.091319,0.003949,
960,440,0.411330,-8.433335,0.999997,0.000222,-0.001926,0.004468,-0.000342,0.004486,-0.001944,-86.950458,0.004500,
1570,1810,-0.327892,-0.858418,0.999998,0.000173,-0.001434,0.004282,0.000314,0.004299,-0.001451,86.869670,0.004374,
1780,1560,-1.138317,-2.355058,0.999998,0.000167,-0.002589,0.005115,-0.000097,0.005116,-0.002590,-89.281822,0.005117,
1480,1230,-0.762991,-3.636149,0.999996,0.000237,-0.003930,0.006624,-0.000387,0.006639,-0.003944,-87.902189,0.006678,
660,1540,1.224221,-2.495216,0.999998,0.000178,-0.002567,0.005139,0.000059,0.005139,-0.002568,89.558926,0.005139,
1510,700,-0.636722,-7.121923,0.999997,0.000207,-0.003334,0.005714,0.000693,0.005767,-0.003386,85.644070,0.005796,
1760,270,-0.734184,-8.899597,0.999998,0.000186,-0.002400,0.005036,-0.000232,0.005043,-0.002408,-88.213767,0.005045,
890,750,0.933597,-6.678738,0.999998,0.000170,-0.003402,0.005998,-0.000005,0.005998,-0.003402,-89.967806,0.006016,
1610,1670,-0.580009,-1.539117,0.999998,0.000219,-0.002124,0.004758,-0.000096,0.004759,-0.002125,-89.201116,0.004768,
1820,1130,-1.922626,-4.568144,0.999998,0.000165,-0.002223,0.004652,0.000302,0.004665,-0.002236,87.486952,0.004667,
1010,120,0.081242,-9.751068,0.999998,0.000176,-0.000426,0.003424,0.000350,0.003455,-0.000458,84.846882,0.003754,
1490,310,-0.285761,-9.012915,0.999998,0.000192,-0.001489,0.004149,0.000010,0.004149,-0.001489,89.900840,0.004203,
1180,1690,0.055011,-1.147766,0.999998,0.000145,-0.001073,0.003571,0.000067,0.003572,-0.001074,89.179766,0.003666,
1450,110,-0.069127,-9.787123,0.999999,0.000149,-0.000360,0.003406,-0.000362,0.003441,-0.000394,-84.560421,0.003766,
1230,50,-0.000260,-9.988314,0.999999,0.000097,-0.000134,0.002992,-0.000008,0.002992,-0.000134,-89.851452,0.003380,
740,1490,1.087905,-2.626902,0.999998,0.000177,-0.002695,0.005251,0.000078,0.005252,-0.002695,89.434413,0.005252,
1040,1520,0.295528,-1.935823,0.999998,0.000186,-0.002086,0.004277,0.000761,0.004367,-0.002175,83.269600,0.004367,
800,200,0.396658,-9.347167,0.999998,0.000189,-0.001709,0.004554,0.000592,0.004610,-0.001764,84.650328,0.004652,
1480,910,-1.043502,-5.861360,0.999997,0.000194,-0.003247,0.006914,-0.000251,0.006920,-0.003253,-88.584331,0.006925,
1100,1380,0.192551,-2.373670,0.999998,0.000176,-0.002195,0.003909,0.001463,0.004242,-0.002528,77.193234,0.004268,
830,1630,0.680440,-1.766629,0.999997,0.000186,-0.002354,0.004940,0.000172,0.004944,-0.002358,88.653487,0.004946,
1660,1640,-0.730494,-1.757281,0.999998,0.000186,-0.002358,0.004949,-0.000111,0.004950,-0.002360,-89.130123,0.004952,
780,1130,1.610627,-4.519699,0.999997,0.000244,-0.002366,0.005188,-0.000503,0.005221,-0.002399,-86.207131,0.005227,
1290,1360,-0.066096,-2.245450,0.999999,0.000153,-0.001361,0.002621,-0.001046,0.002879,-0.001619,-76.145617,0.002887,
1410,370,-0.212667,-8.837235,0.999998,0.000163,-0.001471,0.003988,0.000235,0.003998,-0.001481,87.535522,0.004043,
1250,860,-0.125476,-7.659842,0.999775,0.000000,-0.004343,0.000819,-0.000200,0.000827,-0.004351,-87.781209,0.004621,
1220,1470,0.013855,-1.889425,0.999999,0.000144,-0.001226,0.003085,0.000181,0.003093,-0.001234,87.604949,0.003114,
710,1370,1.363442,-3.303564,0.999997,0.000201,-0.002724,0.005278,-0.000231,0.005285,-0.002730,-88.346927,0.005286,
1580,1150,-1.321974,-4.353424,0.999997,0.000199,-0.002649,0.005885,0.000714,0.005945,-0.002708,85.250727,0.005952,
1270,1880,-0.019814,-0.486678,0.999998,0.000164,-0.000494,0.003284,0.000032,0.003284,-0.000495,89.513243,0.003541,
910,1890,0.199212,-0.524053,0.999998,0.000175,-0.000822,0.003924,-0.000531,0.003982,-0.000881,-83.695237,0.004183,
960,420,0.397268,-8.522580,0.999997,0.000227,-0.001901,0.004435,-0.000304,0.004450,-0.001916,-87.261296,0.004464,
1890,480,-1.392217,-7.627380,0.999998,0.000194,-0.002445,0.005042,0.000025,0.005042,-0.002445,89.807839,0.005043,
1740,1580,-1.007767,-2.186826,0.999998,0.000159,-0.002525,0.005128,-0.000117,0.005130,-0.002526,-89.121143,0.005130,
1140,1240,0.182929,-2.686124,0.999998,0.000192,-0.002401,0.002847,0.002065,0.003562,-0.003116,70.900124,0.003881,
640,200,0.715900,-9.159515,0.999997,0.000191,-0.002326,0.005128,0.000414,0.005151,-0.002349,86.827747,0.005157,
570,250,1.007477,-8.754586,0.999998,0.000159,-0.002393,0.004848,0.000007,0.004848,-0.002393,89.945250,0.004848,
1220,610,0.013040,-8.114988,0.999998,0.000171,-0.001191,0.002937,-0.000183,0.002945,-0.001199,-87.473304,0.002962,
1890,650,-1.655836,-6.760875,0.999997,0.000202,-0.002544,0.005056,-0.000041,0.005057,-0.002544,-89.688941,0.005057,
1830,300,-0.958976,-8.632173,0.999999,0.000147,-0.002426,0.005065,-0.000039,0.005065,-0.002426,-89.703132,0.005066,
1610,1650,-0.603381,-1.634175,0.999997,0.000220,-0.002206,0.004792,-0.000111,0.004793,-0.002208,-89.088327,0.004798,
1570,1790,-0.356064,-0.943644,0.999998,0.000171,-0.001552,0.004288,0.000235,0.004297,-0.001561,87.699907,0.004350,
1510,680,-0.613870,-7.233947,0.999997,0.000210,-0.003217,0.005550,0.000735,0.005612,-0.003278,85.243563,0.005638,
1340,730,-0.150013,-7.582090,0.999997,0.000217,-0.002181,0.003471,0.001843,0.004019,-0.002729,73.442077,0.004104,
890,730,0.895944,-6.796989,0.999998,0.000170,-0.003366,0.005892,-0.000100,0.005893,-0.003367,-89.384143,0.005913,
990,580,0.426823,-7.838733,0.999997,0.000228,-0.002511,0.004757,-0.000838,0.004852,-0.002606,-83.507499,0.004857,
1780,1540,-1.166424,-2.457113,0.999998,0.000183,-0.002595,0.005139,-0.000091,0.005140,-0.002596,-89.328343,0.005140,
1460,1230,-0.685756,-3.560770,0.999996,0.000259,-0.003903,0.006561,-0.000715,0.006609,-0.003952,-86.107067,0.006652,
790,640,1.060876,-7.132583,0.999998,0.000168,-0.002894,0.005409,-0.000001,0.005409,-0.002894,-89.993092,0.005413,
1870,1670,-1.200943,-1.943720,0.999998,0.000138,-0.002473,0.004984,-0.000041,0.004984,-0.002473,-89.687724,0.004984,
1470,300,-0.251800,-9.068074,0.999998,0.000178,-0.001248,0.004020,-0.000065,0.004020,-0.001248,-89.295120,0.004116,
1530,1220,-0.977779,-3.843620,0.999998,0.000188,-0.003512,0.006433,0.000251,0.006440,-0.003518,88.553823,0.006449,
1020,50,0.022234,-9.983985,0.999999,0.000113,-0.000121,0.003143,0.000313,0.003172,-0.000151,84.566889,0.003579,
720,1490,1.141398,-2.658847,0.999998,0.000173,-0.002662,0.005230,0.000057,0.005230,-0.002662,89.589572,0.005231,
1600,1990,-0.074093,-0.160606,0.999998,0.000168,-0.000417,0.003566,0.000813,0.003726,-0.000577,78.898323,0.004011,
1760,250,-0.690479,-9.001132,0.999998,0.000208,-0.002367,0.004989,-0.000281,0.005000,-0.002377,-87.812372,0.005002,
1160,1690,0.077177,-1.152270,0.999999,0.000126,-0.001080,0.003608,0.000080,0.003610,-0.001081,89.020010,0.003705,
660,1520,1.254192,-2.596561,0.999997,0.000190,-0.002570,0.005148,0.000049,0.005149,-0.002570,89.639511,0.005149,
800,180,0.353517,-9.439745,0.999998,0.000177,-0.001594,0.004415,0.000674,0.004489,-0.001669,83.678409,0.004538,
1450,130,-0.087511,-9.717103,0.999999,0.000160,-0.000464,0.003473,-0.000329,0.003500,-0.000492,-85.261815,0.003790,
1250,30,-0.003637,-10.047439,0.999999,0.000000,-0.000166,0.002953,0.000002,0.002953,-0.000166,89.956624,0.003318,
1490,290,-0.267070,-9.094895,0.999998,0.000183,-0.001416,0.004075,-0.000058,0.004075,-0.001416,-89.394857,0.004138,
830,1610,0.703864,-1.865493,0.999997,0.000204,-0.002415,0.004933,0.000180,0.004937,-0.002419,88.600279,0.004937,
1290,1480,-0.074015,-1.884919,0.999998,0.000152,-0.001391,0.003271,-0.000509,0.003326,-0.001446,-83.845781,0.003335,
1300,170,-0.034037,-9.608640,0.999998,0.000149,-0.000449,0.003283,-0.000077,0.003284,-0.000451,-88.822340,0.003561,
1210,1260,0.028188,-2.355042,0.999997,0.000212,-0.001489,0.001145,0.000597,0.001274,-0.001618,77.805171,0.001704,
1190,1880,0.021143,-0.487034,0.999999,0.000135,-0.000464,0.003290,-0.000035,0.003290,-0.000465,-89.459762,0.003561,
630,800,1.775337,-6.094854,0.999999,0.000143,-0.002423,0.004854,0.000303,0.004866,-0.002435,87.618829,0.004866,
910,1870,0.225556,-0.600512,0.999998,0.000182,-0.000937,0.003975,-0.000480,0.004022,-0.000984,-84.468049,0.004193,
1690,160,-0.352387,-9.506885,0.999997,0.000201,-0.001469,0.004549,-0.000876,0.004674,-0.001594,-81.886513,0.004752,
710,1350,1.396992,-3.408342,0.999997,0.000215,-0.002713,0.005252,-0.000273,0.005261,-0.002722,-88.041831,0.005262,
570,80,0.436788,-9.644757,0.999721,0.002086,-0.002483,0.006499,0.002161,0.006992,-0.002976,77.151448,0.007018,
1040,1500,0.301587,-2.023977,0.999998,0.000183,-0.002156,0.004306,0.000841,0.004414,-0.002264,82.709268,0.004414,
960,400,0.382782,-8.612113,0.999997,0.000211,-0.001877,0.004401,-0.000263,0.004412,-0.001888,-87.607253,0.004427,
1140,1220,0.236004,-2.741726,0.999997,0.000226,-0.002270,0.002667,0.001789,0.003247,-0.002850,72.031295,0.003543,
1200,1800,0.025641,-0.756464,0.999998,0.000155,-0.000780,0.003455,0.000011,0.003455,-0.000780,89.854726,0.003624,
1830,280,-0.918760,-8.735298,0.999998,0.000154,-0.002431,0.005048,-0.000083,0.005049,-0.002432,-89.360497,0.005050,
640,180,0.657870,-9.263010,0.999997,0.000185,-0.002312,0.005175,0.000566,0.005218,-0.002355,85.697563,0.005226,
1100,100,0.031981,-9.829392,0.999998,0.000147,-0.000236,0.003207,0.000189,0.003217,-0.000247,86.859103,0.003581,
1490,680,-0.548191,-7.289339,0.999997,0.000212,-0.003213,0.005456,0.000867,0.005541,-0.003298,84.343416,0.005575,
890,710,0.863090,-6.914494,0.999998,0.000169,-0.003319,0.005827,-0.000184,0.005831,-0.003323,-88.846856,0.005850,
1180,590,0.064358,-8.155385,0.999999,0.000144,-0.001353,0.003182,-0.000463,0.003229,-0.001400,-84.231977,0.003238,
1570,1770,-0.381563,-1.030603,0.999998,0.000172,-0.001635,0.004352,0.000183,0.004358,-0.001641,88.254097,0.004402,
570,240,0.986499,-8.803678,0.999998,0.000153,-0.002440,0.004894,0.000020,0.004894,-0.002440,89.841644,0.004894,
1780,1520,-1.193335,-2.559992,0.999998,0.000168,-0.002589,0.005151,-0.000062,0.005151,-0.002589,-89.542679,0.005151,
1410,350,-0.201265,-8.918782,0.999998,0.000163,-0.001409,0.003897,0.000186,0.003904,-0.001416,87.990401,0.003953,
1610,1630,-0.626743,-1.730485,0.999998,0.000207,-0.002304,0.004858,-0.000191,0.004863,-0.002309,-88.471195,0.004865,
1660,1620,-0.754584,-1.856174,0.999998,0.000170,-0.002396,0.004971,-0.000145,0.004974,-0.002399,-88.869515,0.004975,
1110,50,0.011076,-9.987633,0.999999,0.000131,-0.000107,0.003064,0.000146,0.003071,-0.000114,87.367072,0.003482,
1430,400,-0.257677,-8.696382,0.999997,0.000177,-0.001572,0.004068,0.000283,0.004082,-0.001587,87.134641,0.004116,
1590,120,-0.163640,-9.719443,0.999998,0.000155,-0.000845,0.003851,-0.000672,0.003946,-0.000940,-82.015427,0.004122,
1880,480,-1.367797,-7.643085,0.999997,0.000196,-0.002459,0.005058,0.000028,0.005058,-0.002459,89.783267,0.005058,
1860,1670,-1.176385,-1.927139,0.999998,0.000162,-0.002474,0.005007,-0.000035,0.005007,-0.002474,-89.730963,0.005007,
1240,2020,-0.001904,-0.046045,0.999999,0.000000,-0.000033,0.002986,-0.000049,0.002987,-0.000033,-89.063441,0.003430,
1550,1220,-1.047813,-3.886134,0.999998,0.000172,-0.003386,0.006286,0.000398,0.006303,-0.003403,87.645963,0.006309,
1200,290,0.028182,-9.201627,0.999998,0.000162,-0.000871,0.003473,-0.000013,0.003473,-0.000871,-89.833036,0.003614,
1060,550,0.257534,-8.118056,0.999998,0.000165,-0.001948,0.004152,-0.000777,0.004249,-0.002046,-82.850131,0.004250,
1490,270,-0.248819,-9.176200,0.999998,0.000158,-0.001354,0.004030,-0.000091,0.004032,-0.001355,-89.031618,0.004103,
1800,130,-0.449655,-9.551960,0.999997,0.000225,-0.001755,0.005129,-0.001287,0.005362,-0.001988,-79.745911,0.005421,
1450,150,-0.102520,-9.647987,0.999998,0.000164,-0.000567,0.003536,-0.000324,0.003562,-0.000593,-85.519154,0.003817,
1000,1170,0.892782,-3.982869,0.999997,0.000200,-0.003655,0.007001,0.000170,0.007003,-0.003657,89.085981,0.007006,
630,120,0.476588,-9.555161,0.999995,0.000235,-0.002346,0.005331,0.000830,0.005420,-0.002434,83.897693,0.005429,
1860,1490,-1.444124,-2.840592,0.999997,0.000187,-0.002536,0.005113,0.000015,0.005113,-0.002536,89.889294,0.005113,
660,1500,1.283344,-2.701172,0.999997,0.000186,-0.002572,0.005124,0.000033,0.005124,-0.002572,89.755782,0.005124,
1290,1460,-0.073424,-1.949473,0.999998,0.000171,-0.001392,0.003195,-0.000569,0.003265,-0.001461,-83.035110,0.003270,
1880,650,-1.630919,-6.776515,0.999997,0.000204,-0.002544,0.005057,-0.000051,0.005057,-0.002544,-89.615627,0.005057,
1750,390,-0.910994,-8.308746,0.999998,0.000189,-0.002458,0.005057,0.000065,0.005058,-0.002458,89.507999,0.005059,
660,1470,1.329104,-2.854853,0.999997,0.000187,-0.002586,0.005152,-0.000011,0.005152,-0.002586,-89.917958,0.005152,
1730,1360,-1.315407,-3.326075,0.999997,0.000225,-0.002820,0.005354,0.000250,0.005361,-0.002827,88.252612,0.005364,
910,1850,0.254548,-0.681516,0.999998,0.000168,-0.001072,0.004075,-0.000449,0.004114,-0.001111,-85.054528,0.004257,
1590,180,-0.259890,-9.481809,0.999998,0.000195,-0.001265,0.004109,-0.000502,0.004155,-0.001311,-84.711792,0.004248,
1140,840,0.252109,-7.322914,0.999996,0.000247,-0.002212,0.002578,-0.001652,0.003093,-0.002727,-72.700335,0.003380,
1170,1880,0.031557,-0.487009,0.999998,0.000144,-0.000477,0.003306,-0.000053,0.003307,-0.000478,-89.198920,0.003575,
620,1290,1.737507,-3.824862,0.999997,0.000197,-0.002461,0.004924,-0.000252,0.004933,-0.002470,-88.050246,0.004933,
1320,2000,-0.007894,-0.107349,0.999998,0.000165,-0.000115,0.003035,0.000131,0.003041,-0.000120,87.630488,0.003443,
1370,240,-0.104996,-9.350097,0.999998,0.000172,-0.000773,0.003619,-0.000084,0.003621,-0.000774,-88.903774,0.003813,
1200,1780,0.027038,-0.826117,0.999998,0.000146,-0.000854,0.003516,0.000018,0.003517,-0.000854,89.758935,0.003668,
750,160,0.384857,-9.493015,0.999998,0.000179,-0.001367,0.004658,0.000993,0.004818,-0.001527,80.883195,0.004924,
1100,60,0.015216,-9.955912,0.999998,0.000148,-0.000131,0.003111,0.000186,0.003121,-0.000142,86.729135,0.003525,
610,800,1.823211,-6.071427,0.999998,0.000181,-0.002356,0.004757,0.000226,0.004765,-0.002363,88.181213,0.004765,
1810,360,-1.011327,-8.363801,0.999998,0.000151,-0.002488,0.005092,0.000011,0.005092,-0.002488,89.916223,0.005092,
710,1330,1.434391,-3.514048,0.999996,0.000235,-0.002700,0.005262,-0.000335,0.005276,-0.002714,-87.597783,0.005277,
960,380,0.368572,-8.698233,0.999997,0.000188,-0.001849,0.004345,-0.000233,0.004354,-0.001858,-87.849746,0.004369,
1040,1480,0.307773,-2.110450,0.999998,0.000181,-0.002205,0.004345,0.000920,0.004472,-0.002332,82.151319,0.004473,
1790,60,-0.161460,-9.907116,0.999998,0.000212,-0.000533,0.004592,-0.001925,0.005235,-0.001176,-71.545813,0.005493,
1570,1750,-0.406443,-1.116986,0.999998,0.000172,-0.001740,0.004462,0.000096,0.004463,-0.001741,89.113445,0.004499,
800,380,0.693774,-8.490372,0.999998,0.000183,-0.002302,0.004924,-0.000060,0.004924,-0.002302,-89.521158,0.004928,
640,160,0.594344,-9.367165,0.999997,0.000210,-0.002247,0.005242,0.000676,0.005303,-0.002308,84.880655,0.005318,
1610,1610,-0.649026,-1.829594,0.999998,0.000195,-0.002377,0.004913,-0.000230,0.004921,-0.002384,-88.195237,0.004921,
1660,1600,-0.780190,-1.956514,0.999998,0.000154,-0.002465,0.005032,-0.000165,0.005035,-0.002469,-88.736929,0.005036,
830,1590,0.726520,-1.965059,0.999997,0.000198,-0.002449,0.004974,0.000227,0.004981,-0.002456,88.248463,0.004981,
890,690,0.830542,-7.029743,0.999998,0.000173,-0.003251,0.005706,-0.000261,0.005713,-0.003258,-88.335434,0.005732,
1100,50,0.012347,-9.986631,0.999999,0.000129,-0.000109,0.003068,0.000157,0.003076,-0.000116,87.168879,0.003487,
1160,730,0.084236,-7.711939,0.999998,0.000189,-0.001577,0.002605,-0.001483,0.003077,-0.002050,-72.322317,0.003133,
870,640,0.824195,-7.271987,0.999998,0.000157,-0.003020,0.005504,-0.000292,0.005514,-0.003030,-88.041505,0.005523,
1780,1500,-1.223525,-2.663586,0.999998,0.000162,-0.002607,0.005180,-0.000026,0.005180,-0.002607,-89.811569,0.005180,
1490,250,-0.230836,-9.255280,0.999998,0.000162,-0.001260,0.003943,-0.000154,0.003947,-0.001264,-88.309206,0.004031,
1850,880,-1.938916,-5.698135,0.999997,0.000201,-0.002238,0.004565,-0.000216,0.004572,-0.002245,-88.183561,0.004572,
660,1480,1.314401,-2.802303,0.999997,0.000187,-0.002573,0.005135,0.000004,0.005135,-0.002573,89.968284,0.005135,
1840,1490,-1.392955,-2.809085,0.999997,0.000201,-0.002572,0.005111,-0.000006,0.005111,-0.002572,-89.953902,0.005112,
1410,330,-0.192422,-8.995432,0.999998,0.000163,-0.001340,0.003854,0.000117,0.003857,-0.001343,88.705207,0.003916,
1240,1200,-0.049336,-2.418399,0.999995,0.000000,-0.005397,0.001588,0.000098,0.001590,-0.005399,89.194508,0.005549,
1260,1550,-0.035699,-1.636016,0.999998,0.000164,-0.001243,0.003428,-0.000190,0.003436,-0.001251,-87.673930,0.003478,
1180,570,0.064371,-8.218495,0.999999,0.000131,-0.001356,0.003277,-0.000395,0.003311,-0.001389,-85.163937,0.003325,
1870,480,-1.342714,-7.658225,0.999998,0.000188,-0.002494,0.005068,0.000029,0.005068,-0.002494,89.779832,0.005068,
1890,1320,-1.799711,-3.744207,0.999998,0.000164,-0.002435,0.004849,0.000112,0.004851,-0.002437,89.121706,0.004851,
1750,350,-0.850417,-8.512386,0.999997,0.000184,-0.002427,0.005058,-0.000013,0.005058,-0.002427,-89.902080,0.005060,
1450,170,-0.122328,-9.574961,0.999998,0.000209,-0.000667,0.003567,-0.000292,0.003587,-0.000687,-86.079982,0.003807,
760,200,0.463610,-9.310887,0.999997,0.000192,-0.001693,0.004783,0.000721,0.004862,-0.001772,83.725523,0.004921,
910,1360,0.774406,-3.035087,0.999998,0.000191,-0.003308,0.005706,0.000368,0.005721,-0.003323,87.663627,0.005746,
990,400,0.327303,-8.650565,0.999997,0.000199,-0.001778,0.004292,-0.000291,0.004306,-0.001792,-87.264873,0.004326,
910,1830,0.282377,-0.762784,0.999998,0.000165,-0.001176,0.004112,-0.000373,0.004138,-0.001202,-85.989851,0.004258,
1170,840,0.187965,-7.521800,0.999997,0.000229,-0.002488,0.001697,-0.000729,0.001820,-0.002612,-80.393368,0.002678,
1140,820,0.196848,-7.382185,0.999997,0.000213,-0.002397,0.002833,-0.002037,0.003533,-0.003097,-71.039403,0.003853,
1410,1880,-0.095963,-0.510977,0.999998,0.000157,-0.000732,0.003464,0.000170,0.003471,-0.000739,87.685480,0.003656,
880,1290,0.998621,-3.512485,0.999998,0.000164,-0.003340,0.005966,-0.000126,0.005968,-0.003342,-89.225007,0.005982,
840,1490,0.815487,-2.460547,0.999997,0.000186,-0.002746,0.005241,0.000258,0.005249,-0.002754,88.149906,0.005251,
1350,240,-0.090062,-9.356701,0.999998,0.000156,-0.000839,0.003563,-0.000046,0.003563,-0.000839,-89.395566,0.003725,
830,1570,0.746701,-2.064443,0.999998,0.000181,-0.002497,0.005046,0.000239,0.005054,-0.002505,88.186268,0.005054,
1140,1750,0.084437,-0.942725,0.999998,0.000151,-0.001041,0.003600,0.000079,0.003602,-0.001042,89.028566,0.003707,
1790,360,-0.962225,-8.396675,0.999998,0.000178,-0.002413,0.005097,-0.000003,0.005097,-0.002413,-89.980403,0.005100,
910,960,1.374004,-5.423695,0.999996,0.000216,-0.002162,0.005829,0.000596,0.005873,-0.002207,85.760154,0.005934,
1790,50,-0.126866,-9.949510,0.999998,0.000175,-0.000360,0.004326,-0.001886,0.004991,-0.001024,-70.585168,0.005272,
1660,1580,-0.804761,-2.057530,0.999998,0.000168,-0.002525,0.005030,-0.000206,0.005036,-0.002531,-88.440417,0.005036,
1570,1730,-0.430394,-1.209730,0.999998,0.000178,-0.001873,0.004537,0.000001,0.004537,-0.001873,89.993012,0.004560,
1490,620,-0.496652,-7.603579,0.999996,0.000219,-0.002850,0.005067,0.000845,0.005156,-0.002939,83.977798,0.005172,
1690,1000,-1.694579,-5.178114,0.999997,0.000206,-0.002081,0.004986,-0.000178,0.004990,-0.002085,-88.558947,0.005013,
890,670,0.801782,-7.144755,0.999998,0.000177,-0.003184,0.005641,-0.000302,0.005651,-0.003195,-88.040176,0.005667,
1130,50,0.008598,-9.987982,0.999999,0.000143,-0.000110,0.003038,0.000124,0.003043,-0.000115,87.756545,0.003449,
1610,1590,-0.671428,-1.928611,0.999998,0.000178,-0.002422,0.004938,-0.000252,0.004946,-0.002430,-88.040509,0.004947,
710,1310,1.470067,-3.620281,0.999997,0.000234,-0.002668,0.005291,-0.000373,0.005309,-0.002685,-87.322445,0.005309,
960,360,0.349620,-8.785671,0.999998,0.000184,-0.001799,0.004268,-0.000186,0.004274,-0.001805,-88.242836,0.004291,
570,910,2.062973,-5.529781,0.999995,0.000243,-0.002020,0.004345,0.000067,0.004346,-0.002021,89.399838,0.004350,
1040,1460,0.312335,-2.196698,0.999997,0.000194,-0.002262,0.004414,0.000975,0.004554,-0.002401,81.860451,0.004556,
1240,860,-0.093889,-7.688278,0.999775,0.000000,-0.006692,0.000419,0.000416,0.000443,-0.006716,86.659918,0.007512,
1090,1470,0.206497,-2.047132,0.999998,0.000154,-0.001862,0.003907,0.000905,0.004045,-0.002000,81.289721,0.004045,
800,620,1.001743,-7.255845,0.999998,0.000149,-0.002874,0.005416,-0.000081,0.005417,-0.002874,-89.437451,0.005421,
1230,600,0.001967,-8.147839,0.999999,0.000128,-0.001189,0.003009,-0.000036,0.003009,-0.001189,-89.503140,0.003031,
810,540,0.865825,-7.700750,0.999998,0.000173,-0.002667,0.005206,-0.000212,0.005212,-0.002673,-88.455703,0.005212,
870,620,0.797200,-7.382029,0.999998,0.000180,-0.002925,0.005371,-0.000315,0.005383,-0.002937,-87.827580,0.005391,
630,380,1.100790,-8.223992,0.999998,0.000138,-0.002476,0.005035,-0.000036,0.005035,-0.002477,-89.727776,0.005035,
1490,230,-0.211363,-9.332753,0.999998,0.000161,-0.001147,0.003922,-0.000221,0.003932,-0.001157,-87.502766,0.004041,
1150,2000,0.007765,-0.107321,0.999999,0.000137,-0.000122,0.003012,-0.000107,0.003016,-0.000126,-88.040619,0.003412,
1200,1760,0.030248,-0.896712,0.999999,0.000130,-0.000895,0.003473,0.000050,0.003474,-0.000895,89.347345,0.003607,
1670,1160,-1.530035,-4.353910,0.999998,0.000222,-0.002502,0.005369,0.000643,0.005422,-0.002554,85.358847,0.005425,
1890,1310,-1.816768,-3.792159,0.999998,0.000169,-0.002425,0.004886,0.000096,0.004887,-0.002426,89.244462,0.004887,
1140,800,0.155695,-7.434458,0.999997,0.000214,-0.002303,0.002924,-0.002121,0.003676,-0.003056,-70.469535,0.003936,
640,140,0.525673,-9.473042,0.999997,0.000215,-0.002196,0.005225,0.000845,0.005320,-0.002291,83.582907,0.005337,
1240,1550,-0.010865,-1.627812,0.999999,0.000131,-0.001265,0.003417,-0.000111,0.003419,-0.001267,-88.644852,0.003457,
1450,610,-0.385212,-7.749378,0.999997,0.000188,-0.002565,0.004732,0.000991,0.004864,-0.002697,82.405573,0.004874,
1320,430,-0.107826,-8.681700,0.999998,0.000145,-0.001344,0.003666,0.000299,0.003684,-0.001361,86.600534,0.003726,
1170,240,0.044209,-9.371557,0.999998,0.000137,-0.000694,0.003447,0.000031,0.003447,-0.000694,89.574782,0.003646,
1230,800,0.001557,-7.740318,0.999997,0.000228,-0.001639,0.001048,-0.000043,0.001049,-0.001639,-89.088074,0.001661,
750,1170,1.619841,-4.321155,0.999997,0.000197,-0.002465,0.005213,-0.000591,0.005258,-0.002511,-85.623170,0.005260,
1150,840,0.232486,-7.396371,0.999994,0.000284,-0.002216,0.002190,-0.001340,0.002565,-0.002591,-74.341663,0.002977,
1780,1480,-1.254885,-2.768397,0.999998,0.000173,-0.002640,0.005194,-0.000002,0.005194,-0.002640,-89.982600,0.005194,
1790,40,-0.089837,-9.990150,0.999999,0.000147,-0.000167,0.004182,-0.001886,0.004886,-0.000871,-69.533857,0.005212,
910,1810,0.307693,-0.846947,0.999998,0.000177,-0.001293,0.004180,-0.000325,0.004200,-0.001312,-86.612140,0.004297,
1040,1440,0.317822,-2.284306,0.999997,0.000208,-0.002371,0.004479,0.001046,0.004635,-0.002527,81.510085,0.004641,
890,1480,0.688812,-2.422275,0.999997,0.000199,-0.002766,0.005220,0.000438,0.005244,-0.002790,86.866618,0.005247,
1120,50,0.009617,-9.987921,0.999999,0.000125,-0.000107,0.003051,0.000138,0.003057,-0.000113,87.498128,0.003467,
890,650,0.776053,-7.256693,0.999997,0.000200,-0.003108,0.005540,-0.000369,0.005556,-0.003124,-87.559174,0.005570,
1390,1880,-0.083218,-0.505310,0.999998,0.000136,-0.000588,0.003425,0.000167,0.003432,-0.000595,87.621217,0.003668,
860,1290,1.065288,-3.545510,0.999997,0.000179,-0.003287,0.005891,-0.000225,0.005897,-0.003292,-88.593813,0.005910,
830,1550,0.771329,-2.166548,0.999998,0.000180,-0.002565,0.005078,0.000254,0.005086,-0.002574,88.097573,0.005086,
990,920,1.056456,-5.813176,0.999998,0.000193,-0.003143,0.007028,0.000184,0.007031,-0.003147,88.963253,0.007044,
1570,1710,-0.451746,-1.299723,0.999997,0.000189,-0.002001,0.004538,-0.000044,0.004539,-0.002001,-89.616226,0.004549,
1460,1370,-0.457597,-2.730757,0.999997,0.000215,-0.003131,0.005270,-0.001126,0.005418,-0.003279,-82.494769,0.005458,
1240,850,-0.043521,-7.669325,0.999994,0.000000,-0.005201,0.000921,0.000142,0.000924,-0.005204,88.670832,0.005553,
710,1510,1.138126,-2.570539,0.999998,0.000190,-0.002627,0.005176,0.000069,0.005176,-0.002628,89.490498,0.005176,
1490,600,-0.483232,-7.704536,0.999997,0.000205,-0.002694,0.004969,0.000799,0.005051,-0.002776,84.110227,0.005059,
560,1460,1.658968,-3.056976,0.999728,0.000000,-0.005228,0.004346,-0.000648,0.004390,-0.005271,-86.143999,0.005647,
570,1790,1.039550,-1.398114,0.999996,0.000233,-0.002314,0.004822,-0.000017,0.004822,-0.002314,-89.860754,0.004823,
960,340,0.334879,-8.870280,0.999997,0.000198,-0.001720,0.004307,-0.000121,0.004310,-0.001722,-88.848946,0.004338,
810,520,0.841864,-7.803445,0.999998,0.000154,-0.002622,0.005131,-0.000211,0.005137,-0.002627,-88.442746,0.005138,
1860,1530,-1.382771,-2.636402,0.999996,0.000236,-0.002525,0.005113,-0.000034,0.005113,-0.002525,-89.742824,0.005113,
1450,590,-0.375566,-7.846794,0.999998,0.000180,-0.002465,0.004634,0.000925,0.004753,-0.002583,82.694948,0.004759,
1000,800,0.633375,-6.669319,0.999997,0.000230,-0.003880,0.006325,-0.000809,0.006388,-0.003943,-85.495550,0.006447,
1410,310,-0.178659,-9.072328,0.999998,0.000164,-0.001285,0.003832,0.000083,0.003833,-0.001287,89.073372,0.003902,
950,1520,0.498608,-2.103954,0.999997,0.000192,-0.002420,0.004807,0.000573,0.004852,-0.002465,85.492682,0.004852,
1200,1740,0.029403,-0.965897,0.999999,0.000141,-0.000942,0.003510,0.000052,0.003511,-0.000943,89.328190,0.003634,
1300,1480,-0.088586,-1.896058,0.999998,0.000151,-0.001444,0.003318,-0.000601,0.003392,-0.001519,-82.918975,0.003399,
1190,560,0.051977,-8.256236,0.999998,0.000166,-0.001285,0.003285,-0.000282,0.003302,-0.001303,-86.482467,0.003327,
1700,1900,-0.353223,-0.554391,0.999998,0.000178,-0.001416,0.004567,0.000966,0.004719,-0.001568,81.050725,0.004807,
750,460,0.918206,-8.012496,0.999998,0.000163,-0.002515,0.005072,-0.000135,0.005075,-0.002518,-88.979581,0.005075,
790,1590,0.826412,-2.029055,0.999998,0.000159,-0.002513,0.005048,0.000159,0.005052,-0.002516,88.798018,0.005052,
640,120,0.449978,-9.580671,0.999996,0.000234,-0.002085,0.005291,0.001015,0.005429,-0.002223,82.306438,0.005458,
1190,1560,0.051605,-1.605623,0.999998,0.000139,-0.001247,0.003489,0.000186,0.003496,-0.001254,87.757966,0.003542,
1760,2000,-0.126522,-0.147414,0.999998,0.000168,-0.000776,0.004259,0.001579,0.004713,-0.001230,73.953662,0.004889,
1300,430,-0.081498,-8.694627,0.999999,0.000141,-0.001241,0.003590,0.000182,0.003597,-0.001248,87.850862,0.003652,
1530,630,-0.621241,-7.459492,0.999997,0.000212,-0.002935,0.005328,0.000607,0.005372,-0.002979,85.822610,0.005383,
1750,330,-0.817630,-8.614364,0.999998,0.000166,-0.002408,0.005014,-0.000038,0.005014,-0.002408,-89.708891,0.005015,
1150,1620,0.098089,-1.410767,0.999998,0.000141,-0.001314,0.003634,0.000282,0.003650,-0.001330,86.746078,0.003694,
690,1740,0.848416,-1.427596,0.999998,0.000180,-0.002421,0.005064,-0.000067,0.005065,-0.002421,-89.486549,0.005067,
1490,210,-0.190349,-9.412097,0.999998,0.000165,-0.001028,0.003869,-0.000261,0.003883,-0.001042,-86.958325,0.004020,
750,1040,1.747797,-4.978191,0.999998,0.000155,-0.002120,0.004943,-0.000118,0.004945,-0.002122,-89.040798,0.004961,
1600,570,-0.758114,-7.634581,0.999998,0.000202,-0.002736,0.005274,0.000346,0.005289,-0.002751,87.529646,0.005290,
660,1460,1.344213,-2.905092,0.999997,0.000185,-0.002594,0.005146,-0.000030,0.005146,-0.002595,-89.779739,0.005146,
580,640,1.621359,-6.821561,0.999998,0.000178,-0.003338,0.005266,0.000268,0.005274,-0.003346,88.215272,0.005337,
1240,30,-0.000125,-10.048508,0.999999,0.000000,-0.000176,0.002961,-0.000032,0.002961,-0.000176,-89.420390,0.003322,
1140,1580,0.118821,-1.566559,0.999998,0.000182,-0.001409,0.003686,0.000408,0.003718,-0.001442,85.451268,0.003749,
710,1750,0.782884,-1.346762,0.999998,0.000191,-0.002372,0.005027,-0.000096,0.005028,-0.002373,-89.257711,0.005031,
560,1670,1.261470,-1.997477,0.999972,0.000000,-0.000616,0.004416,0.000586,0.004483,-0.000684,83.440352,0.004831,
1140,2000,0.009347,-0.105989,0.999999,0.000119,-0.000154,0.003014,-0.000121,0.003019,-0.000159,-87.809072,0.003398,
690,1360,1.433026,-3.382250,0.999996,0.000231,-0.002652,0.005208,-0.000230,0.005215,-0.002659,-88.322737,0.005215,
960,320,0.317048,-8.958776,0.999997,0.000184,-0.001634,0.004253,-0.000038,0.004253,-0.001634,-89.628322,0.004291,
1440,1370,-0.395759,-2.666789,0.999996,0.000222,-0.002990,0.005085,-0.001252,0.005274,-0.003179,-81.388160,0.005311,
620,570,1.408009,-7.240472,0.999997,0.000181,-0.002589,0.005109,0.000000,0.005109,-0.002589,-89.996470,0.005109,
1550,1920,-0.155143,-0.405022,0.999998,0.000159,-0.000640,0.003772,0.000564,0.003843,-0.000711,82.834754,0.004090,
1610,240,-0.386438,-9.208819,0.999998,0.000186,-0.001556,0.004455,-0.000376,0.004478,-0.001579,-86.434346,0.004543,
1410,1740,-0.184476,-1.026260,0.999998,0.000166,-0.001327,0.003850,-0.000079,0.003851,-0.001328,-89.124691,0.003913,
1350,1290,-0.189911,-2.669364,0.999998,0.000190,-0.002594,0.003852,-0.002130,0.004492,-0.003234,-73.270513,0.004635,
1210,800,0.031857,-7.719595,0.999998,0.000185,-0.001591,0.001140,-0.000580,0.001258,-0.001709,-78.501228,0.001772,
630,1480,1.390209,-2.850403,0.999997,0.000206,-0.002571,0.005127,0.000003,0.005127,-0.002571,89.977780,0.005127,
570,900,2.052260,-5.574263,0.999996,0.000229,-0.002050,0.004338,0.000052,0.004339,-0.002051,89.534852,0.004341,
1250,390,-0.020742,-8.852461,0.999998,0.000147,-0.001152,0.003554,0.000105,0.003556,-0.001154,88.725167,0.003628,
1650,1860,-0.364570,-0.699244,0.999997,0.000209,-0.001507,0.004472,0.000634,0.004538,-0.001573,84.008497,0.004609,
1450,570,-0.366043,-7.936478,0.999997,0.000181,-0.002341,0.004530,0.000813,0.004624,-0.002436,83.341904,0.004627,
1890,210,-0.904597,-8.956807,0.999998,0.000147,-0.002416,0.004870,-0.000154,0.004873,-0.002419,-88.788736,0.004873,
890,630,0.750117,-7.367950,0.999997,0.000186,-0.003015,0.005422,-0.000401,0.005441,-0.003034,-87.288133,0.005453,
1210,600,0.025256,-8.139107,0.999998,0.000158,-0.001225,0.003010,-0.000260,0.003026,-0.001241,-86.495759,0.003042,
1530,1600,-0.476356,-1.754651,0.999998,0.000181,-0.002216,0.004660,-0.000408,0.004684,-0.002240,-86.615884,0.004685,
950,1500,0.510788,-2.202831,0.999996,0.000213,-0.002512,0.004934,0.000606,0.004983,-0.002561,85.376099,0.004983,
570,40,0.179639,-9.917007,0.999972,0.000609,0.000198,0.007729,0.003723,0.009259,-0.001332,67.662155,0.010011,
1000,780,0.595018,-6.794531,0.999996,0.000243,-0.003807,0.006148,-0.000907,0.006230,-0.003889,-84.837700,0.006294,
1710,210,-0.501544,-9.256502,0.999997,0.000194,-0.001771,0.004803,-0.000701,0.004876,-0.001844,-83.980046,0.004924,
920,280,0.335342,-9.092786,0.999998,0.000160,-0.001384,0.004257,0.000174,0.004262,-0.001389,88.229768,0.004347,
1300,1460,-0.088045,-1.963164,0.999998,0.000167,-0.001437,0.003264,-0.000666,0.003357,-0.001530,-82.087188,0.003361,
1830,1330,-1.633603,-3.610262,0.999997,0.000200,-0.002518,0.005016,0.000245,0.005024,-0.002526,88.141828,0.005024,
1040,1420,0.325387,-2.374799,0.999997,0.000208,-0.002523,0.004541,0.001150,0.004723,-0.002706,80.979748,0.004740,
1170,1560,0.076918,-1.614159,0.999999,0.000123,-0.001358,0.003541,0.000276,0.003557,-0.001373,86.787274,0.003587,
750,1130,1.679777,-4.529001,0.999997,0.000212,-0.002276,0.005035,-0.000440,0.005061,-0.002303,-86.569047,0.005068,
1520,1430,-0.586311,-2.572173,0.999998,0.000198,-0.002897,0.005238,-0.000670,0.005293,-0.002952,-85.326669,0.005305,
1130,1620,0.127253,-1.428063,0.999998,0.000165,-0.001375,0.003699,0.000319,0.003718,-0.001394,86.419206,0.003757,
1750,310,-0.785212,-8.714899,0.999998,0.000179,-0.002398,0.005008,-0.000094,0.005009,-0.002399,-89.273277,0.005010,
1490,190,-0.169611,-9.488813,0.999998,0.000164,-0.000956,0.003804,-0.000302,0.003823,-0.000975,-86.389560,0.003973,
1200,1720,0.032698,-1.036717,0.999999,0.000133,-0.000996,0.003522,0.000072,0.003523,-0.000997,89.091103,0.003632,
1860,1470,-1.475829,-2.942081,0.999997,0.000193,-0.002555,0.005072,0.000005,0.005072,-0.002555,89.963951,0.005072,
1230,2020,-0.001535,-0.045605,0.999999,0.000000,-0.000094,0.002990,-0.000035,0.002990,-0.000095,-89.344171,0.003399,
990,1880,0.140847,-0.528863,0.999998,0.000144,-0.000754,0.003670,-0.000316,0.003692,-0.000777,-85.929939,0.003893,
710,770,1.517019,-6.327780,0.999997,0.000215,-0.002697,0.005236,0.000421,0.005258,-0.002720,86.973349,0.005259,
650,960,1.940538,-5.351457,0.999998,0.000188,-0.002191,0.004624,0.000179,0.004628,-0.002196,88.493996,0.004630,
1450,50,-0.024209,-9.983183,0.999999,0.000129,-0.000085,0.003105,-0.000335,0.003140,-0.000119,-84.065455,0.003558,
560,1680,1.250352,-1.948595,0.999971,0.000000,-0.001267,0.004846,0.000395,0.004871,-0.001292,86.314169,0.005047,
960,300,0.296107,-9.041948,0.999998,0.000174,-0.001582,0.004133,0.000013,0.004133,-0.001582,89.868728,0.004171,
1140,1600,0.115308,-1.493518,0.999998,0.000173,-0.001400,0.003685,0.000357,0.003710,-0.001425,86.001671,0.003743,
1440,1730,-0.231283,-1.091715,0.999998,0.000154,-0.001342,0.003973,-0.000059,0.003974,-0.001343,-89.366941,0.004043,
730,720,1.369377,-6.615872,0.999997,0.000216,-0.002774,0.005334,0.000318,0.005346,-0.002787,87.754644,0.005348,
1610,220,-0.354904,-9.296973,0.999997,0.000196,-0.001443,0.004315,-0.000436,0.004348,-0.001476,-85.691548,0.004422,
1410,510,-0.261982,-8.271280,0.999998,0.000169,-0.001819,0.004121,0.000607,0.004183,-0.001880,84.226251,0.004190,
750,900,1.644867,-5.679424,0.999997,0.000188,-0.002396,0.005199,0.000569,0.005241,-0.002438,85.737560,0.005245,
1490,520,-0.432836,-8.089816,0.999999,0.000168,-0.002333,0.004656,0.000618,0.004710,-0.002387,84.987438,0.004711,
1480,1930,-0.095690,-0.350418,0.999998,0.000182,-0.000529,0.003538,0.000385,0.003574,-0.000565,84.642976,0.003843,
1740,150,-0.397735,-9.521836,0.999997,0.000259,-0.001730,0.004734,-0.000941,0.004868,-0.001864,-81.882102,0.004913,
1090,1450,0.207740,-2.126099,0.999998,0.000147,-0.001916,0.003946,0.001016,0.004118,-0.002087,80.437418,0.004118,
1350,1270,-0.205874,-2.748033,0.999997,0.000203,-0.002778,0.003908,-0.002275,0.004609,-0.003479,-72.880439,0.004804,
640,100,0.371931,-9.688128,0.999996,0.000221,-0.001907,0.005196,0.001267,0.005416,-0.002126,80.180857,0.005457,
930,1520,0.545943,-2.139320,0.999998,0.000181,-0.002487,0.004901,0.000542,0.004940,-0.002526,85.829526,0.004941,
1450,550,-0.357753,-8.026587,0.999997,0.000193,-0.002218,0.004480,0.000739,0.004561,-0.002299,83.780096,0.004561,
1890,190,-0.851524,-9.053727,0.999998,0.000157,-0.002444,0.004941,-0.000226,0.004947,-0.002451,-88.250409,0.004948,
1110,360,0.135015,-8.918504,0.999998,0.000189,-0.001200,0.003748,-0.000164,0.003754,-0.001205,-88.105680,0.003833,
1300,110,-0.018287,-9.803396,0.999999,0.000165,-0.000253,0.003147,-0.000106,0.003150,-0.000256,-88.208467,0.003499,
1530,1580,-0.493803,-1.849066,0.999998,0.000191,-0.002285,0.004711,-0.000421,0.004737,-0.002311,-86.566911,0.004737,
1190,600,0.051229,-8.130143,0.999998,0.000149,-0.001305,0.003075,-0.000366,0.003105,-0.001335,-85.255772,0.003115,
1450,660,-0.409617,-7.507990,0.999996,0.000256,-0.002841,0.005018,0.001143,0.005181,-0.003004,81.891564,0.005203,
1260,730,-0.028840,-7.809952,0.999998,0.000149,-0.001082,0.001919,0.000694,0.002072,-0.001234,77.594683,0.002085,
1680,1070,-1.666057,-4.826891,0.999998,0.000180,-0.002092,0.005038,0.000223,0.005045,-0.002099,88.212820,0.005068,
890,610,0.728622,-7.473600,0.999997,0.000194,-0.002928,0.005301,-0.000430,0.005324,-0.002951,-87.014369,0.005334,
1330,1600,-0.125158,-1.500156,0.999998,0.000194,-0.001375,0.003717,-0.000364,0.003743,-0.001401,-85.928497,0.003782,
670,1460,1.318300,-2.891290,0.999998,0.000168,-0.002617,0.005164,-0.000033,0.005164,-0.002617,-89.754517,0.005164,
1290,1540,-0.072981,-1.682001,0.999999,0.000137,-0.001332,0.003476,-0.000308,0.003495,-0.001351,-86.346118,0.003525,
830,1530,0.795492,-2.269080,0.999998,0.000168,-0.002622,0.005129,0.000268,0.005138,-0.002631,88.018991,0.005139,
1780,1680,-0.963341,-1.741838,0.999998,0.000141,-0.002426,0.005032,-0.000018,0.005032,-0.002426,-89.858361,0.005033,
1040,1400,0.333290,-2.468812,0.999997,0.000214,-0.002664,0.004696,0.001269,0.004908,-0.002877,80.490175,0.004933,
750,590,1.096537,-7.338625,0.999997,0.000187,-0.002731,0.005291,-0.000034,0.005291,-0.002732,-89.754856,0.005292,
1300,1680,-0.073637,-1.188351,0.999998,0.000143,-0.001090,0.003587,-0.000078,0.003589,-0.001091,-89.043131,0.003679,
600,1930,0.568591,-0.624814,0.999998,0.000177,-0.002396,0.005350,-0.000705,0.005414,-0.002460,-84.843680,0.005421,
1700,1160,-1.603744,-4.367979,0.999997,0.000206,-0.002469,0.005239,0.000616,0.005288,-0.002518,85.458442,0.005290,
660,1440,1.376966,-3.008781,0.999997,0.000190,-0.002622,0.005134,-0.000096,0.005135,-0.002623,-89.291161,0.005136,
1750,290,-0.747916,-8.814531,0.999997,0.000183,-0.002377,0.005018,-0.000141,0.005020,-0.002380,-88.904448,0.005022,
1200,1700,0.032417,-1.106764,0.999999,0.000126,-0.001046,0.003540,0.000088,0.003542,-0.001048,88.898012,0.003639,
710,730,1.443063,-6.540454,0.999997,0.000222,-0.002752,0.005249,0.000348,0.005264,-0.002767,87.517571,0.005267,
1400,1310,-0.318500,-2.820244,0.999997,0.000189,-0.003146,0.004954,-0.001774,0.005326,-0.003517,-78.173845,0.005416,
1530,610,-0.602043,-7.563635,0.999997,0.000206,-0.002832,0.005203,0.000596,0.005247,-0.002876,85.778400,0.005255,
970,1880,0.158411,-0.536724,0.999998,0.000152,-0.000932,0.003710,-0.000303,0.003729,-0.000951,-86.286007,0.003875,
570,890,2.041227,-5.616774,0.999995,0.000245,-0.002085,0.004262,0.000029,0.004262,-0.002085,89.741310,0.004263,
1000,760,0.554703,-6.917103,0.999997,0.000216,-0.003712,0.005954,-0.001006,0.006058,-0.003816,-84.119097,0.006126,
1250,370,-0.019756,-8.921171,0.999998,0.000149,-0.001079,0.003507,0.000109,0.003509,-0.001082,88.644371,0.003594,
1410,1500,-0.273607,-1.996271,0.999998,0.000189,-0.002045,0.004204,-0.000848,0.004317,-0.002158,-82.406633,0.004317,
640,950,1.955081,-5.393591,0.999997,0.000210,-0.002198,0.004615,0.000235,0.004623,-0.002206,88.030169,0.004625,
1490,170,-0.147548,-9.564323,0.999998,0.000173,-0.000840,0.003700,-0.000331,0.003724,-0.000864,-85.849900,0.003898,
1230,1200,0.010973,-2.411439,0.999995,0.000000,-0.005494,0.001592,-0.000059,0.001593,-0.005494,-89.521111,0.005653,
1830,1310,-1.670888,-3.709482,0.999997,0.000180,-0.002491,0.004957,0.000266,0.004966,-0.002500,87.954615,0.004966,
1140,1620,0.112501,-1.419794,0.999998,0.000156,-0.001373,0.003671,0.000322,0.003692,-0.001393,86.362037,0.003729,
790,1550,0.875084,-2.232734,0.999998,0.000161,-0.002596,0.005133,0.000177,0.005137,-0.002600,88.686760,0.005137,
1490,500,-0.420053,-8.181767,0.999997,0.000212,-0.002206,0.004572,0.000546,0.004616,-0.002250,85.421247,0.004616,
1440,50,-0.022941,-9.982761,0.999999,0.000109,-0.000109,0.003089,-0.000309,0.003119,-0.000139,-84.528033,0.003524,
1430,180,-0.115147,-9.546523,0.999998,0.000179,-0.000750,0.003570,-0.000216,0.003580,-0.000760,-87.137929,0.003773,
960,280,0.279930,-9.123570,0.999998,0.000176,-0.001505,0.004129,0.000093,0.004130,-0.001506,89.050815,0.004180,
1770,200,-0.597149,-9.235533,0.999997,0.000205,-0.002225,0.005042,-0.000567,0.005086,-0.002269,-85.565155,0.005096,
560,1690,1.230427,-1.904359,0.999974,0.000000,-0.001828,0.004994,0.000083,0.004995,-0.001829,89.307153,0.005055,
1720,1670,-0.831874,-1.697392,0.999998,0.000160,-0.002405,0.005024,-0.000039,0.005024,-0.002405,-89.696684,0.005026,
1450,530,-0.351025,-8.114589,0.999998,0.000176,-0.002129,0.004413,0.000685,0.004484,-0.002200,84.087813,0.004484,
1410,750,-0.354102,-7.188983,0.999997,0.000196,-0.003330,0.005181,0.001674,0.005499,-0.003647,79.264296,0.005596,
1130,2000,0.010812,-0.107229,0.999998,0.000156,-0.000156,0.003011,-0.000124,0.003016,-0.000161,-87.757512,0.003394,
930,720,0.744185,-6.945114,0.999998,0.000188,-0.003415,0.005856,-0.000410,0.005874,-0.003433,-87.473904,0.005902,
670,1360,1.486417,-3.407946,0.999997,0.000246,-0.002643,0.005151,-0.000237,0.005158,-0.002650,-88.256630,0.005159,
1090,1430,0.208933,-2.201812,0.999998,0.000157,-0.002000,0.003934,0.001124,0.004139,-0.002206,79.625022,0.004142,
1670,1400,-1.075609,-3.022532,0.999998,0.000165,-0.002949,0.005458,0.000040,0.005458,-0.002950,89.724476,0.005464,
1620,490,-0.721528,-8.011119,0.999997,0.000231,-0.002488,0.005036,0.000276,0.005046,-0.002498,87.904023,0.005046,
1350,1420,-0.166135,-2.189944,0.999998,0.000143,-0.001853,0.003665,-0.001164,0.003900,-0.002089,-78.558883,0.003903,
1090,360,0.158558,-8.906571,0.999998,0.000154,-0.001181,0.003777,-0.000139,0.003781,-0.001185,-88.397276,0.003868,
1290,1520,-0.074959,-1.749502,0.999998,0.000166,-0.001339,0.003415,-0.000367,0.003443,-0.001367,-85.612103,0.003467,
1700,1120,-1.660540,-4.574322,0.999998,0.000184,-0.002281,0.005083,0.000436,0.005109,-0.002307,86.624749,0.005117,
1890,60,-0.329746,-9.773589,0.999992,0.000335,-0.001436,0.006610,-0.002502,0.007325,-0.002150,-74.059550,0.007530,
1350,1250,-0.233439,-2.828327,0.999996,0.000226,-0.002840,0.003941,-0.002288,0.004641,-0.003539,-72.994219,0.004850,
1300,1440,-0.085981,-2.027591,0.999999,0.000148,-0.001421,0.003163,-0.000751,0.003283,-0.001541,-80.925451,0.003285,
990,1540,0.391877,-1.937650,0.999998,0.000193,-0.002134,0.004505,0.000592,0.004558,-0.002187,84.946728,0.004559,
710,190,0.533638,-9.309433,0.999998,0.000182,-0.002223,0.004946,0.000606,0.004997,-0.002274,85.205721,0.005004,
960,1870,0.178608,-0.579002,0.999998,0.000146,-0.001029,0.003812,-0.000304,0.003831,-0.001048,-86.422058,0.003960,
1240,730,-0.008445,-7.828125,0.999999,0.000130,-0.000992,0.001771,0.000223,0.001789,-0.001010,85.421342,0.001794,
1760,1910,-0.421579,-0.557820,0.999997,0.000188,-0.001976,0.004834,0.000919,0.004955,-0.002098,82.445344,0.004975,
1000,740,0.528599,-7.033727,0.999997,0.000215,-0.003580,0.005751,-0.001078,0.005874,-0.003703,-83.494342,0.005940,
1200,540,0.040020,-8.326216,0.999998,0.000163,-0.001259,0.003314,-0.000213,0.003324,-0.001269,-87.333053,0.003355,
1490,150,-0.125848,-9.638305,0.999998,0.000170,-0.000738,0.003624,-0.000339,0.003650,-0.000765,-85.577273,0.003850,
890,590,0.704253,-7.580109,0.999997,0.000213,-0.002845,0.005267,-0.000445,0.005291,-0.002870,-86.872313,0.005298,
920,300,0.360919,-9.005675,0.999998,0.000164,-0.001479,0.004313,0.000127,0.004316,-0.001481,88.744893,0.004386,
1790,1040,-1.913699,-4.980391,0.999998,0.000155,-0.002160,0.004698,0.000106,0.004700,-0.002162,89.113842,0.004705,
1230,850,0.009836,-7.673647,0.999993,0.000000,-0.005564,0.000563,0.000261,0.000574,-0.005575,87.562323,0.006133,
830,1510,0.819248,-2.373743,0.999997,0.000194,-0.002677,0.005210,0.000249,0.005218,-0.002685,88.191719,0.005219,
1800,1120,-1.886648,-4.606438,0.999998,0.000174,-0.002268,0.004757,0.000337,0.004774,-0.002284,87.258940,0.004775,
1410,1480,-0.278521,-2.082610,0.999998,0.000169,-0.002141,0.004229,-0.000944,0.004366,-0.002278,-81.747352,0.004367,
1750,270,-0.710548,-8.916843,0.999998,0.000179,-0.002348,0.005036,-0.000247,0.005045,-0.002356,-88.083347,0.005048,
1320,110,-0.024893,-9.801627,0.999999,0.000138,-0.000292,0.003155,-0.000118,0.003159,-0.000296,-88.034208,0.003489,
640,520,1.284671,-7.529165,0.999998,0.000204,-0.002555,0.005151,-0.000065,0.005152,-0.002555,-89.514255,0.005152,
1730,180,-0.460855,-9.388293,0.999996,0.000219,-0.001734,0.004786,-0.000813,0.004886,-0.001834,-82.998258,0.004936,
560,1700,1.222361,-1.847549,0.999969,0.000000,-0.002020,0.004981,0.000100,0.004983,-0.002021,89.177897,0.005012,
1330,180,-0.051644,-9.571607,0.999998,0.000176,-0.000624,0.003372,-0.000067,0.003373,-0.000625,-89.039465,0.003588,
1510,1600,-0.434301,-1.722664,0.999998,0.000159,-0.002095,0.004560,-0.000403,0.004584,-0.002119,-86.544263,0.004588,
1190,580,0.050881,-8.190951,0.999999,0.000125,-0.001296,0.003172,-0.000311,0.003193,-0.001318,-86.030962,0.003209,
1700,1670,-0.783441,-1.667219,0.999999,0.000151,-0.002321,0.004963,-0.000041,0.004964,-0.002321,-89.676136,0.004967,
960,700,0.612183,-7.139454,0.999997,0.000208,-0.003382,0.005697,-0.000748,0.005758,-0.003443,-85.319088,0.005795,
930,700,0.713374,-7.063198,0.999997,0.000194,-0.003323,0.005747,-0.000482,0.005772,-0.003348,-86.969074,0.005797,
840,1850,0.346525,-0.726341,0.999997,0.000182,-0.001324,0.004357,-0.000584,0.004417,-0.001384,-84.195506,0.004518,
1440,1090,-1.106253,-4.485350,0.999996,0.000251,-0.003157,0.008348,-0.000787,0.008401,-0.003210,-86.106279,0.008479,
750,570,1.067599,-7.442687,0.999998,0.000178,-0.002709,0.005253,-0.000088,0.005254,-0.002710,-89.369045,0.005255,
1040,1380,0.343068,-2.564814,0.999997,0.000213,-0.002772,0.004799,0.001325,0.005025,-0.002997,80.355456,0.005056,
1620,770,-1.130258,-6.480321,0.999997,0.000220,-0.003200,0.005867,-0.000316,0.005878,-0.003211,-88.008401,0.005886,
570,860,2.006303,-5.743401,0.999998,0.000172,-0.002187,0.004378,0.000055,0.004379,-0.002188,89.522219,0.004379,
1710,1540,-0.984681,-2.344753,0.999998,0.000154,-0.002613,0.005147,-0.000148,0.005150,-0.002616,-88.909502,0.005150,
1070,360,0.182375,-8.892705,0.999998,0.000186,-0.001320,0.003861,-0.000164,0.003866,-0.001326,-88.190199,0.003929,
1250,350,-0.019958,-8.994100,0.999998,0.000143,-0.001040,0.003527,0.000100,0.003529,-0.001042,88.744872,0.003626,
650,1540,1.249900,-2.510031,0.999997,0.000204,-0.002558,0.005136,0.000063,0.005136,-0.002559,89.529492,0.005136,
1270,1540,-0.049025,-1.673340,0.999999,0.000131,-0.001259,0.003407,-0.000187,0.003414,-0.001267,-87.711281,0.003452,
1690,620,-1.078502,-7.213974,0.999998,0.000184,-0.002822,0.005363,0.000018,0.005363,-0.002822,89.871843,0.005366,
1300,1400,-0.083050,-2.152297,0.999998,0.000178,-0.001388,0.003032,-0.000893,0.003206,-0.001561,-79.002113,0.003206,
1140,1640,0.109775,-1.345657,0.999998,0.000168,-0.001347,0.003688,0.000303,0.003706,-0.001365,86.571517,0.003749,
1760,1930,-0.360679,-0.463599,0.999997,0.000198,-0.001824,0.004785,0.001105,0.004965,-0.002004,80.759420,0.004995,
1450,510,-0.342368,-8.201939,0.999997,0.000182,-0.002079,0.004401,0.000641,0.004464,-0.002141,84.408290,0.004465,
710,170,0.480246,-9.408426,0.999997,0.000187,-0.002129,0.004870,0.000738,0.004947,-0.002206,84.046271,0.004957,
970,1540,0.436893,-1.972247,0.999998,0.000195,-0.002320,0.004647,0.000587,0.004696,-0.002369,85.216084,0.004696,
1700,580,-1.048186,-7.411794,0.999998,0.000189,-0.002746,0.005296,0.000079,0.005297,-0.002746,89.434864,0.005298,
1410,1560,-0.258598,-1.748034,0.999997,0.000183,-0.001756,0.004127,-0.000533,0.004175,-0.001803,-84.867324,0.004188,
1490,130,-0.108153,-9.708597,0.999998,0.000154,-0.000641,0.003551,-0.000374,0.003584,-0.000674,-84.941114,0.003809,
1200,1680,0.035427,-1.179102,0.999998,0.000157,-0.001080,0.003545,0.000086,0.003547,-0.001082,88.938000,0.003636,
1350,1230,-0.278089,-2.905368,0.999997,0.000206,-0.002949,0.003872,-0.002192,0.004515,-0.003593,-73.637019,0.004771,
640,540,1.312365,-7.425789,0.999997,0.000201,-0.002558,0.005118,-0.000050,0.005119,-0.002559,-89.623630,0.005119,
890,1010,1.470214,-5.135811,0.999998,0.000211,-0.001843,0.005488,0.000187,0.005493,-0.001848,88.536770,0.005590,
1000,720,0.499848,-7.149009,0.999997,0.000219,-0.003409,0.005557,-0.001090,0.005687,-0.003539,-83.166442,0.005744,
1230,30,0.003566,-10.048768,0.999999,0.000000,-0.000170,0.002971,-0.000032,0.002972,-0.000170,-89.408828,0.003337,
1680,250,-0.525412,-9.097247,0.999998,0.000173,-0.002000,0.004726,-0.000387,0.004748,-0.002023,-86.720331,0.004766,
660,1420,1.410952,-3.112410,0.999997,0.000193,-0.002610,0.005151,-0.000122,0.005153,-0.002612,-89.099385,0.005153,
1270,2000,-0.004064,-0.106651,0.999999,0.000144,-0.000106,0.003006,0.000059,0.003007,-0.000107,88.906163,0.003413,
1460,1190,-0.812209,-3.831287,0.999998,0.000188,-0.003841,0.006959,-0.000371,0.006972,-0.003854,-88.034552,0.006985,
560,1920,0.743366,-0.785571,0.999836,0.000000,-0.004231,0.005366,-0.000379,0.005381,-0.004246,-87.741270,0.005673,
1030,180,0.117542,-9.545111,0.999998,0.000158,-0.000757,0.003555,0.000239,0.003568,-0.000770,86.832186,0.003755,
1550,560,-0.612557,-7.780595,0.999997,0.000219,-0.002662,0.005083,0.000496,0.005115,-0.002693,86.347532,0.005117,
740,510,1.011246,-7.739984,0.999999,0.000144,-0.002592,0.005158,-0.000136,0.005160,-0.002595,-88.997693,0.005161,
1220,1810,0.008872,-0.719604,0.999998,0.000174,-0.000781,0.003421,0.000020,0.003421,-0.000781,89.723070,0.003585,
960,720,0.638757,-7.025493,0.999997,0.000200,-0.003489,0.005783,-0.000681,0.005833,-0.003539,-85.824886,0.005877,
1230,580,0.002622,-8.209804,0.999998,0.000184,-0.001225,0.003132,-0.000022,0.003132,-0.001225,-89.705580,0.003157,
1440,1710,-0.244042,-1.169125,0.999998,0.000170,-0.001415,0.003964,-0.000139,0.003967,-0.001418,-88.516809,0.004020,
1820,350,-1.020143,-8.398348,0.999998,0.000172,-0.002481,0.005075,0.000020,0.005075,-0.002481,89.846182,0.005076,
1410,760,-0.365584,-7.137643,0.999997,0.000195,-0.003442,0.005260,0.001686,0.005575,-0.003757,79.407747,0.005686,
1750,250,-0.666631,-9.017001,0.999998,0.000191,-0.002297,0.004980,-0.000306,0.004993,-0.002310,-87.596701,0.004997,
1420,1100,-1.013219,-4.284781,0.999993,0.000308,-0.003547,0.008689,-0.002065,0.009028,-0.003886,-80.674071,0.009057,
630,1540,1.300972,-2.541217,0.999997,0.000198,-0.002543,0.005112,0.000047,0.005113,-0.002543,89.648014,0.005113,
820,1850,0.373118,-0.739087,0.999998,0.000173,-0.001431,0.004425,-0.000606,0.004487,-0.001493,-84.150536,0.004570,
1290,1380,-0.068352,-2.192416,0.999999,0.000165,-0.001335,0.002750,-0.000938,0.002955,-0.001540,-77.662797,0.002956,
1690,1540,-0.931946,-2.311121,0.999998,0.000155,-0.002642,0.005164,-0.000159,0.005167,-0.002645,-88.833798,0.005167,
1150,150,0.031982,-9.672402,0.999998,0.000137,-0.000419,0.003268,0.000097,0.003270,-0.000422,88.498786,0.003558,
670,1440,1.350266,-2.994028,0.999997,0.000184,-0.002655,0.005137,-0.000095,0.005139,-0.002656,-89.303176,0.005140,
890,960,1.415247,-5.413412,0.999996,0.000210,-0.002169,0.005636,0.000574,0.005678,-0.002211,85.815159,0.005724,
830,1710,0.577905,-1.377870,0.999997,0.000182,-0.002031,0.004746,-0.000066,0.004746,-0.002031,-89.441920,0.004763,
1790,1030,-1.916992,-5.029025,0.999998,0.000153,-0.002155,0.004705,0.000016,0.004705,-0.002155,89.862687,0.004710,
1880,60,-0.312440,-9.791110,0.999997,0.000227,-0.001542,0.006211,-0.002216,0.006799,-0.002131,-75.122535,0.006955,
1300,1380,-0.081716,-2.210314,0.999998,0.000176,-0.001408,0.002898,-0.001015,0.003125,-0.001635,-77.381017,0.003126,
700,1290,1.533439,-3.737555,0.999998,0.000215,-0.002600,0.005188,-0.000392,0.005207,-0.002620,-87.125530,0.005208,
640,870,1.862477,-5.769036,0.999997,0.000197,-0.002334,0.004805,0.000374,0.004824,-0.002353,87.008672,0.004825,
1830,1290,-1.705334,-3.806669,0.999998,0.000170,-0.002476,0.004954,0.000272,0.004964,-0.002486,87.902684,0.004964,
1380,1370,-0.234039,-2.467707,0.999997,0.000203,-0.002431,0.004194,-0.001519,0.004526,-0.002763,-77.682129,0.004563,
920,320,0.380209,-8.920239,0.999998,0.000173,-0.001582,0.004367,0.000049,0.004368,-0.001582,89.527702,0.004423,
1700,560,-1.018760,-7.516692,0.999998,0.000196,-0.002710,0.005233,0.000104,0.005234,-0.002712,89.251544,0.005236,
1040,1360,0.352350,-2.661068,0.999997,0.000202,-0.002934,0.004938,0.001400,0.005180,-0.003176,80.210209,0.005224,
1350,1210,-0.341151,-2.983496,0.999996,0.000253,-0.002623,0.003803,-0.002147,0.004454,-0.003274,-73.124980,0.004615,
710,150,0.423550,-9.505548,0.999997,0.000185,-0.002022,0.004852,0.000880,0.004963,-0.002133,82.818127,0.004979,
1890,1530,-1.459563,-2.682367,0.999997,0.000206,-0.002478,0.005076,-0.000002,0.005076,-0.002478,-89.982045,0.005076,
1200,1640,0.037561,-1.320397,0.999998,0.000177,-0.001180,0.003533,0.000124,0.003537,-0.001183,88.489372,0.003601,
1450,490,-0.333732,-8.292166,0.999997,0.000178,-0.002031,0.004354,0.000599,0.004410,-0.002087,84.687961,0.004412,
1220,2020,0.000104,-0.045077,0.999999,0.000000,-0.000149,0.002982,-0.000002,0.002982,-0.000149,-89.958282,0.003361,
640,560,1.342049,-7.324077,0.999997,0.000194,-0.002558,0.005100,-0.000029,0.005100,-0.002558,-89.783134,0.005100,
1250,330,-0.020103,-9.062972,0.999999,0.000139,-0.000978,0.003525,0.000060,0.003526,-0.000979,89.235472,0.003640,
660,1400,1.443872,-3.216858,0.999997,0.000200,-0.002589,0.005144,-0.000140,0.005146,-0.002592,-88.964528,0.005146,
1680,230,-0.486451,-9.193549,0.999998,0.000190,-0.001926,0.004694,-0.000469,0.004727,-0.001959,-85.964350,0.004750,
1000,700,0.481159,-7.259640,0.999997,0.000213,-0.003257,0.005444,-0.001087,0.005578,-0.003391,-82.984987,0.005621,
1260,2000,-0.002888,-0.106749,0.999999,0.000124,-0.000117,0.003013,0.000043,0.003014,-0.000118,89.215124,0.003414,
750,550,1.039237,-7.548442,0.999998,0.000178,-0.002660,0.005222,-0.000122,0.005224,-0.002662,-89.115571,0.005225,
690,1540,1.147174,-2.446093,0.999998,0.000174,-0.002579,0.005159,0.000059,0.005160,-0.002579,89.563950,0.005160,
1030,1280,0.471211,-3.130186,0.999997,0.000218,-0.003718,0.005820,0.001360,0.006011,-0.003909,82.040290,0.006100,
890,1030,1.477658,-5.026039,0.999997,0.000213,-0.001825,0.005462,-0.000042,0.005462,-0.001825,-89.672272,0.005562,
1490,110,-0.085994,-9.780179,0.999998,0.000157,-0.000535,0.003532,-0.000423,0.003576,-0.000578,-84.125606,0.003839,
930,880,1.115822,-5.940436,0.999998,0.000168,-0.003192,0.006371,0.000594,0.006408,-0.003229,86.457362,0.006408,
1090,180,0.077497,-9.561692,0.999998,0.000159,-0.000526,0.003429,0.000161,0.003435,-0.000533,87.673938,0.003697,
560,1910,0.774350,-0.839901,0.999871,0.000000,-0.003762,0.005146,-0.000345,0.005159,-0.003775,-87.786286,0.005340,
960,1810,0.243888,-0.815140,0.999998,0.000169,-0.001321,0.004019,-0.000176,0.004025,-0.001327,-88.109768,0.004102,
1100,1410,0.190773,-2.257409,0.999998,0.000175,-0.002015,0.003819,0.001234,0.004070,-0.002265,78.533397,0.004078,
610,1080,2.032306,-4.808789,0.999999,0.000147,-0.002116,0.004324,-0.000044,0.004324,-0.002116,-89.609919,0.004325,
1730,460,-0.960919,-7.985887,0.999998,0.000139,-0.002522,0.005071,0.000124,0.005073,-0.002524,89.061482,0.005073,
850,1150,1.406013,-4.377439,0.999997,0.000206,-0.002546,0.005625,-0.000700,0.005685,-0.002605,-85.138840,0.005691,
680,1290,1.585879,-3.757498,0.999998,0.000179,-0.002603,0.005110,-0.000363,0.005127,-0.002620,-87.312031,0.005128,
960,740,0.670883,-6.907747,0.999997,0.000207,-0.003590,0.005934,-0.000615,0.005974,-0.003630,-86.320068,0.006020,
590,1810,0.947562,-1.257588,0.999998,0.000157,-0.002418,0.004913,-0.000066,0.004914,-0.002419,-89.487040,0.004914,
740,530,1.037819,-7.636731,0.999998,0.000157,-0.002612,0.005189,-0.000112,0.005190,-0.002614,-89.174009,0.005190,
1450,1040,-1.228552,-4.939180,0.999995,0.000273,-0.002946,0.008569,-0.000118,0.008571,-0.002947,-89.411700,0.008709,
1790,1070,-1.901183,-4.839478,0.999998,0.000166,-0.002181,0.004671,0.000111,0.004673,-0.002183,89.076002,0.004676,
1230,560,0.002090,-8.271662,0.999998,0.000161,-0.001263,0.003196,-0.000024,0.003196,-0.001264,-89.695012,0.003219,
1610,1880,-0.278049,-0.591455,0.999998,0.000204,-0.001170,0.004142,0.000612,0.004211,-0.001239,83.508100,0.004329,
920,340,0.400320,-8.830577,0.999998,0.000181,-0.001616,0.004488,0.000041,0.004488,-0.001616,89.617089,0.004547,
1420,1090,-1.042171,-4.377009,0.999996,0.000234,-0.003745,0.009268,-0.002063,0.009587,-0.004064,-81.205321,0.009624,
1700,540,-0.988769,-7.621300,0.999998,0.000197,-0.002658,0.005195,0.000135,0.005197,-0.002661,89.013860,0.005198,
1270,1220,-0.114273,-2.445991,0.999996,0.000228,-0.002731,0.001473,-0.000344,0.001501,-0.002759,-85.346485,0.002762,
1150,130,0.026272,-9.740208,0.999998,0.000145,-0.000353,0.003209,0.000080,0.003211,-0.000355,88.716601,0.003521,
1750,230,-0.624265,-9.115971,0.999997,0.000194,-0.002250,0.004937,-0.000389,0.004958,-0.002271,-86.912770,0.004964,
1390,360,-0.179120,-8.895013,0.999998,0.000178,-0.001262,0.003839,0.000157,0.003843,-0.001267,88.234555,0.003917,
1350,1520,-0.161735,-1.814875,0.999998,0.000163,-0.001604,0.003744,-0.000650,0.003822,-0.001682,-83.164935,0.003831,
1380,1350,-0.238246,-2.552818,0.999997,0.000196,-0.002566,0.004311,-0.001652,0.004688,-0.002943,-77.168473,0.004738,
1880,1390,-1.657179,-3.378334,0.999997,0.000218,-0.002500,0.005060,0.000051,0.005060,-0.002500,89.611859,0.005060,
1350,1190,-0.435649,-3.054361,0.999996,0.000259,-0.001982,0.003239,-0.001996,0.003914,-0.002658,-71.297781,0.003997,
710,130,0.361579,-9.602265,0.999997,0.000190,-0.001854,0.004700,0.001037,0.004861,-0.002014,81.220177,0.004884,
1750,760,-1.490962,-6.382510,0.999997,0.000226,-0.002679,0.005274,-0.000411,0.005295,-0.002700,-87.047168,0.005296,
1220,1200,0.065872,-2.414601,0.999994,0.000000,-0.005163,0.001545,-0.000209,0.001551,-0.005169,-88.216435,0.005305,
1450,470,-0.323276,-8.377960,0.999998,0.000184,-0.001954,0.004341,0.000544,0.004388,-0.002000,85.094342,0.004393,
1200,1620,0.036951,-1.392559,0.999998,0.000170,-0.001221,0.003535,0.000138,0.003539,-0.001225,88.341729,0.003594,
1000,680,0.463576,-7.364468,0.999997,0.000190,-0.003103,0.005275,-0.001067,0.005409,-0.003237,-82.853641,0.005444,
1300,1360,-0.079587,-2.264897,0.999998,0.000175,-0.001469,0.002783,-0.001162,0.003080,-0.001766,-75.665066,0.003091,
640,580,1.371892,-7.220303,0.999998,0.000191,-0.002562,0.005157,0.000018,0.005157,-0.002562,89.866108,0.005158,
710,820,1.609766,-6.067961,0.999997,0.000215,-0.002599,0.005173,0.000526,0.005208,-0.002634,86.144781,0.005208,
1040,1340,0.364178,-2.761671,0.999998,0.000185,-0.003097,0.005098,0.001469,0.005353,-0.003353,80.135688,0.005410,
670,1540,1.198219,-2.477864,0.999998,0.000160,-0.002572,0.005145,0.000055,0.005145,-0.002572,89.589956,0.005145,
960,760,0.704611,-6.786725,0.999997,0.000206,-0.003671,0.006110,-0.000531,0.006139,-0.003700,-86.903314,0.006182,
590,180,0.780053,-9.144142,0.999998,0.000191,-0.002489,0.005032,0.000327,0.005046,-0.002503,87.516394,0.005046,
560,1900,0.799339,-0.872996,0.999870,0.000000,-0.003593,0.004920,0.000011,0.004920,-0.003593,89.923817,0.005091,
1830,1270,-1.739847,-3.908086,0.999998,0.000175,-0.002440,0.004941,0.000312,0.004954,-0.002454,87.586288,0.004954,
890,1050,1.466002,-4.916989,0.999998,0.000205,-0.001872,0.005450,-0.000234,0.005457,-0.001879,-88.169086,0.005545,
1530,180,-0.199059,-9.509211,0.999998,0.000182,-0.000899,0.003858,-0.000417,0.003895,-0.000935,-85.034238,0.004066,
1530,590,-0.585022,-7.665893,0.999997,0.000200,-0.002758,0.005103,0.000585,0.005146,-0.002802,85.764550,0.005153,
1660,1560,-0.829383,-2.159250,0.999998,0.000160,-0.002555,0.005085,-0.000217,0.005091,-0.002561,-88.374436,0.005091,
750,530,1.012064,-7.653839,0.999998,0.000155,-0.002612,0.005181,-0.000132,0.005183,-0.002614,-89.031606,0.005183,
870,960,1.458450,-5.404459,0.999997,0.000212,-0.002149,0.005499,0.000524,0.005535,-0.002185,86.098983,0.005576,
1280,1330,-0.051158,-2.297202,0.999998,0.000163,-0.001258,0.002202,-0.001076,0.002509,-0.001565,-74.063468,0.002534,
1610,1570,-0.691226,-2.026761,0.999998,0.000186,-0.002468,0.004972,-0.000290,0.004984,-0.002479,-87.771312,0.004984,
1550,540,-0.594779,-7.881791,0.999998,0.000191,-0.002599,0.004995,0.000492,0.005027,-0.002631,86.307708,0.005028,
1600,110,-0.153006,-9.755303,0.999998,0.000165,-0.000763,0.003818,-0.000738,0.003935,-0.000879,-81.066183,0.004130,
600,1870,0.770043,-0.937381,0.999998,0.000170,-0.002433,0.005085,-0.000305,0.005097,-0.002446,-87.683839,0.005098,
1070,820,0.409845,-6.898992,0.999997,0.000189,-0.003622,0.005593,-0.001846,0.005949,-0.003979,-79.081630,0.006061,
660,1380,1.477445,-3.317731,0.999997,0.000212,-0.002590,0.005132,-0.000190,0.005137,-0.002595,-88.591217,0.005137,
1250,310,-0.017514,-9.133170,0.999999,0.000149,-0.000945,0.003517,0.000049,0.003517,-0.000945,89.369021,0.003641,
1490,1040,-1.321480,-4.957778,0.999998,0.000189,-0.002016,0.006652,0.000109,0.006653,-0.002017,89.280577,0.006823,
790,1010,1.662557,-5.130122,0.999998,0.000160,-0.002024,0.005044,0.000163,0.005048,-0.002028,88.681540,0.005081,
1700,520,-0.965064,-7.725381,0.999998,0.000172,-0.002625,0.005203,0.000167,0.005207,-0.002629,88.777391,0.005207,
1450,450,-0.314307,-8.466457,0.999997,0.000184,-0.001835,0.004284,0.000461,0.004319,-0.001869,85.711917,0.004332,
1270,1190,-0.243087,-2.464083,0.999910,0.000000,-0.004272,0.000568,0.000049,0.000569,-0.004273,89.414712,0.004640,
560,1890,0.816841,-0.931059,0.999904,0.000000,-0.003257,0.004775,-0.000097,0.004777,-0.003259,-89.308396,0.004881,
1690,1060,-1.690543,-4.878538,0.999997,0.000176,-0.002083,0.004969,0.000185,0.004974,-0.002088,88.499801,0.004995,
1210,560,0.027299,-8.264389,0.999998,0.000152,-0.001242,0.003226,-0.000235,0.003239,-0.001254,-87.001633,0.003266,
840,1040,1.565594,-4.974011,0.999998,0.000197,-0.001941,0.005204,-0.000158,0.005208,-0.001944,-88.737366,0.005263,
710,110,0.298689,-9.696230,0.999997,0.000182,-0.001685,0.004600,0.001132,0.004797,-0.001883,80.097113,0.004834,
1800,560,-1.283735,-7.358381,0.999997,0.000195,-0.002584,0.005154,0.000042,0.005154,-0.002584,89.691241,0.005154,
570,610,1.608840,-6.937676,0.999727,0.001963,-0.004160,0.003928,0.000045,0.003928,-0.004160,89.679000,0.004675,
590,1060,2.081329,-4.900680,0.999998,0.000160,-0.002019,0.004229,-0.000095,0.004230,-0.002021,-89.126541,0.004231,
640,1020,1.987017,-5.073637,0.999999,0.000149,-0.002141,0.004579,0.000075,0.004579,-0.002142,89.360605,0.004583,
1590,1880,-0.252075,-0.578863,0.999998,0.000165,-0.001251,0.004066,0.000534,0.004119,-0.001304,84.321384,0.004210,
1560,790,-0.974652,-6.458269,0.999997,0.000204,-0.003489,0.006176,-0.000157,0.006179,-0.003491,-89.069846,0.006196,
620,270,0.930083,-8.758046,0.999999,0.000142,-0.002442,0.005025,0.000068,0.005026,-0.002443,89.478654,0.005026,
1150,110,0.021786,-9.801798,0.999999,0.000152,-0.000281,0.003188,0.000103,0.003191,-0.000284,88.306640,0.003532,
1470,500,-0.378609,-8.214474,0.999997,0.000184,-0.002061,0.004445,0.000561,0.004493,-0.002109,85.107924,0.004495,
1090,1410,0.210399,-2.282103,0.999998,0.000160,-0.002131,0.003953,0.001280,0.004211,-0.002390,78.590663,0.004224,
1360,1370,-0.186656,-2.402559,0.999997,0.000237,-0.002178,0.003824,-0.001525,0.004189,-0.002543,-76.526687,0.004221,
1200,50,0.002485,-9.988248,0.999999,0.000121,-0.000085,0.003009,0.000021,0.003009,-0.000085,89.617517,0.003426,
920,780,0.891096,-6.554483,0.999998,0.000168,-0.003573,0.006223,-0.000025,0.006223,-0.003573,-89.852980,0.006246,
800,1030,1.647682,-5.026312,0.999997,0.000184,-0.002006,0.005096,-0.000024,0.005096,-0.002006,-89.803275,0.005135,
570,350,1.195003,-8.267028,0.999970,0.000629,-0.002020,0.005009,-0.000129,0.005011,-0.002023,-88.950191,0.005042,
1350,870,-0.462488,-7.011530,0.999996,0.000232,-0.001800,0.003121,0.002013,0.003840,-0.002519,70.357501,0.003902,
1000,1100,1.146455,-4.493645,0.999997,0.000205,-0.002808,0.007457,-0.000017,0.007457,-0.002808,-89.906957,0.007532,
1830,1250,-1.776969,-4.006854,0.999998,0.000166,-0.002407,0.004848,0.000325,0.004862,-0.002422,87.437945,0.004862,
1880,1530,-1.434407,-2.667437,0.999997,0.000197,-0.002506,0.005092,-0.000008,0.005093,-0.002506,-89.939788,0.005093,
1610,1550,-0.712637,-2.126700,0.999998,0.000199,-0.002532,0.005032,-0.000305,0.005044,-0.002544,-87.698139,0.005044,
1450,1020,-1.228839,-5.099756,0.999997,0.000231,-0.002944,0.008476,0.000095,0.008477,-0.002944,89.522129,0.008608,
1530,570,-0.568530,-7.768565,0.999997,0.000199,-0.002669,0.005042,0.000570,0.005084,-0.002710,85.794435,0.005088,
1230,240,0.001129,-9.378672,0.999998,0.000145,-0.000743,0.003412,0.000017,0.003413,-0.000743,89.763724,0.003589,
1080,1410,0.235149,-2.308477,0.999998,0.000151,-0.002235,0.004100,0.001302,0.004357,-0.002492,78.827617,0.004372,
900,1570,0.576449,-1.949402,0.999997,0.000216,-0.002391,0.004831,0.000351,0.004848,-0.002408,87.225818,0.004848,
590,1960,0.466948,-0.486802,0.999996,0.000232,-0.002497,0.005649,-0.001329,0.005861,-0.002708,-80.967495,0.005866,
960,110,0.094008,-9.776638,0.999998,0.000169,-0.000615,0.003530,0.000458,0.003580,-0.000665,83.767750,0.003808,
1040,1760,0.189991,-0.960020,0.999998,0.000159,-0.001284,0.003837,0.000054,0.003838,-0.001285,89.396475,0.003907,
1660,1540,-0.854477,-2.262585,0.999998,0.000164,-0.002590,0.005157,-0.000203,0.005162,-0.002595,-88.500149,0.005162,
750,510,0.984818,-7.757028,0.999999,0.000145,-0.002603,0.005160,-0.000137,0.005162,-0.002605,-88.985756,0.005163,
1270,1210,-0.149340,-2.461019,0.999996,0.000229,-0.003256,0.001256,-0.000018,0.001256,-0.003256,-89.768339,0.003285,
1020,1810,0.177357,-0.781435,0.999998,0.000170,-0.001037,0.003810,-0.000148,0.003815,-0.001041,-88.248264,0.003944,
840,870,1.357920,-5.894217,0.999997,0.000201,-0.002768,0.005726,0.000687,0.005781,-0.002823,85.402862,0.005782,
1270,1200,-0.185981,-2.476863,0.999996,0.000000,-0.003787,0.001059,0.000124,0.001062,-0.003791,88.537401,0.003911,
560,1880,0.844878,-0.986094,0.999965,0.000000,-0.002961,0.004861,-0.000260,0.004870,-0.002970,-88.094935,0.004909,
890,1070,1.452286,-4.807247,0.999998,0.000203,-0.001960,0.005560,-0.000400,0.005581,-0.001981,-86.967353,0.005659,
830,580,0.861422,-7.525114,0.999998,0.000159,-0.002817,0.005316,-0.000232,0.005322,-0.002823,-88.370290,0.005326,
590,1050,2.085752,-4.944228,0.999999,0.000140,-0.002016,0.004272,-0.000120,0.004274,-0.002018,-88.904711,0.004276,
640,1000,1.978176,-5.166851,0.999998,0.000159,-0.002161,0.004552,0.000136,0.004554,-0.002164,88.837229,0.004556,
930,400,0.437820,-8.574563,0.999997,0.000198,-0.001873,0.004520,-0.000199,0.004526,-0.001880,-88.218842,0.004548,
1750,210,-0.577218,-9.215134,0.999997,0.000200,-0.002205,0.004960,-0.000503,0.004995,-0.002240,-86.001565,0.005004,
570,600,1.594941,-7.004232,0.999658,0.002149,-0.004025,0.005220,-0.000503,0.005248,-0.004052,-86.896345,0.005501,
1450,430,-0.301923,-8.552570,0.999998,0.000174,-0.001713,0.004207,0.000365,0.004229,-0.001736,86.482789,0.004252,
1090,1390,0.216292,-2.362194,0.999998,0.000174,-0.002250,0.004075,0.001426,0.004382,-0.002557,77.866053,0.004402,
1880,1000,-2.097413,-5.156404,0.999998,0.000152,-0.002032,0.004196,-0.000112,0.004198,-0.002034,-88.968513,0.004199,
1800,540,-1.254032,-7.462086,0.999997,0.000197,-0.002572,0.005108,0.000035,0.005108,-0.002572,89.741624,0.005108,
1490,90,-0.064699,-9.849572,0.999999,0.000137,-0.000420,0.003370,-0.000410,0.003414,-0.000464,-83.901577,0.003704,
660,1360,1.513552,-3.421118,0.999997,0.000229,-0.002621,0.005126,-0.000232,0.005133,-0.002627,-88.283035,0.005133,
710,90,0.235103,-9.784429,0.999998,0.000169,-0.001455,0.004261,0.001182,0.004496,-0.001690,78.767982,0.004542,
580,1960,0.489910,-0.509233,0.999997,0.000217,-0.003129,0.005798,-0.001730,0.006122,-0.003453,-79.405009,0.006138,
920,760,0.849269,-6.680217,0.999997,0.000180,-0.003550,0.006151,-0.000155,0.006153,-0.003552,-89.086526,0.006178,
1210,240,0.015096,-9.376524,0.999998,0.000198,-0.000755,0.003421,0.000007,0.003421,-0.000755,89.908241,0.003594,
1700,350,-0.733934,-8.585417,0.999997,0.000166,-0.002203,0.004947,-0.000075,0.004948,-0.002203,-89.401995,0.004957,
1830,1230,-1.808345,-4.101959,0.999998,0.000151,-0.002386,0.004752,0.000321,0.004766,-0.002400,87.429505,0.004766,
1250,290,-0.018781,-9.203995,0.999999,0.000151,-0.000903,0.003488,0.000043,0.003488,-0.000903,89.438909,0.003621,
1220,590,0.013823,-8.174584,0.999998,0.000155,-0.001202,0.003064,-0.000172,0.003071,-0.001209,-87.698654,0.003094,
580,1810,0.972028,-1.279072,0.999998,0.000148,-0.002406,0.004879,-0.000032,0.004879,-0.002407,-89.745079,0.004879,
840,1080,1.540545,-4.765934,0.999997,0.000198,-0.002073,0.005298,-0.000446,0.005324,-0.002100,-86.551093,0.005364,
1530,550,-0.549876,-7.870847,0.999997,0.000209,-0.002567,0.004962,0.000549,0.005002,-0.002607,85.850473,0.005003,
1350,850,-0.359667,-7.074820,0.999995,0.000275,-0.002469,0.003681,0.002131,0.004347,-0.003135,72.640975,0.004487,
1260,1210,-0.116626,-2.430624,0.999997,0.000196,-0.003627,0.001360,0.000139,0.001364,-0.003631,88.405461,0.003668,
1870,880,-1.981836,-5.681256,0.999998,0.000144,-0.002174,0.004432,-0.000127,0.004434,-0.002177,-88.900631,0.004434,
1610,1530,-0.734055,-2.227820,0.999997,0.000208,-0.002615,0.005114,-0.000294,0.005125,-0.002626,-87.827036,0.005125,
1280,1370,-0.053473,-2.200449,0.999999,0.000143,-0.001282,0.002563,-0.000877,0.002753,-0.001473,-77.743308,0.002755,
1430,970,-1.091642,-5.597167,0.999996,0.000300,-0.003566,0.008973,0.001296,0.009105,-0.003698,84.161078,0.009159,
1490,1800,-0.235821,-0.844909,0.999998,0.000162,-0.001266,0.003972,0.000130,0.003975,-0.001269,88.579099,0.004061,
620,250,0.886101,-8.860725,0.999998,0.000185,-0.002426,0.005027,0.000098,0.005028,-0.002427,89.247618,0.005029,
1660,1520,-0.878159,-2.365096,0.999998,0.000182,-0.002663,0.005232,-0.000200,0.005237,-0.002668,-88.552526,0.005238,
1030,1260,0.507623,-3.248672,0.999997,0.000225,-0.003828,0.006007,0.001318,0.006180,-0.004001,82.499600,0.006269,
1610,1860,-0.311462,-0.674388,0.999997,0.000187,-0.001320,0.004292,0.000561,0.004348,-0.001376,84.346232,0.004444,
1390,1660,-0.194018,-1.321310,0.999997,0.000204,-0.001436,0.003892,-0.000285,0.003907,-0.001451,-86.941599,0.003950,
750,490,0.958965,-7.860116,0.999998,0.000154,-0.002573,0.005122,-0.000133,0.005125,-0.002576,-89.010753,0.005125,
590,1930,0.593115,-0.649521,0.999997,0.000197,-0.002620,0.005436,-0.000701,0.005497,-0.002681,-85.066059,0.005497,
1270,2020,-0.004322,-0.046264,0.999999,0.000000,-0.000070,0.002995,0.000038,0.002995,-0.000071,89.287194,0.003418,
1430,480,-0.289469,-8.366739,0.999998,0.000175,-0.001815,0.004207,0.000548,0.004256,-0.001865,84.839791,0.004267,
1000,1120,1.077775,-4.341810,0.999997,0.000202,-0.003027,0.007258,-0.000023,0.007258,-0.003027,-89.870145,0.007291,
640,980,1.970893,-5.256136,0.999998,0.000180,-0.002157,0.004514,0.000081,0.004515,-0.002157,89.305858,0.004516,
570,590,1.579955,-7.058783,0.999578,0.002286,-0.004377,0.005350,-0.000668,0.005396,-0.004423,-86.092354,0.005752,
1300,1340,-0.077187,-2.316326,0.999998,0.000198,-0.001520,0.002668,-0.001318,0.003048,-0.001900,-73.907952,0.003079,
590,1040,2.089975,-4.986108,0.999999,0.000136,-0.002008,0.004286,-0.000099,0.004287,-0.002010,-89.098118,0.004290,
1090,1370,0.217582,-2.447352,0.999998,0.000165,-0.002329,0.004091,0.001554,0.004448,-0.002685,77.083434,0.004479,
1450,650,-0.404465,-7.557406,0.999997,0.000222,-0.002760,0.004939,0.001107,0.005095,-0.002916,81.979536,0.005113,
930,380,0.421720,-8.664269,0.999997,0.000187,-0.001764,0.004404,-0.000131,0.004407,-0.001767,-88.781897,0.004436,
560,1870,0.874523,-1.021641,0.999983,0.000000,-0.002717,0.004686,-0.000296,0.004698,-0.002729,-87.717562,0.004718,
1800,520,-1.223769,-7.564079,0.999998,0.000175,-0.002566,0.005130,0.000051,0.005131,-0.002567,89.617782,0.005131,
890,1510,0.658600,-2.264591,0.999997,0.000188,-0.002604,0.005059,0.000421,0.005082,-0.002627,86.866429,0.005083,
810,580,0.917790,-7.487879,0.999998,0.000153,-0.002779,0.005297,-0.000190,0.005302,-0.002784,-88.650903,0.005304,
1750,190,-0.528154,-9.314602,0.999997,0.000197,-0.002156,0.004927,-0.000627,0.004982,-0.002212,-84.978144,0.004993,
1040,750,0.399405,-7.132706,0.999997,0.000210,-0.003428,0.005421,-0.001521,0.005675,-0.003682,-80.515919,0.005758,
1770,1040,-1.870773,-4.979493,0.999998,0.000154,-0.002183,0.004775,0.000116,0.004777,-0.002185,89.045450,0.004782,
710,70,0.175648,-9.867315,0.999997,0.000203,-0.001080,0.004310,0.001448,0.004674,-0.001444,75.878842,0.004786,
920,740,0.811723,-6.804760,0.999997,0.000219,-0.003492,0.006000,-0.000278,0.006008,-0.003500,-88.324491,0.006036,
700,1230,1.644207,-4.045870,0.999998,0.000187,-0.002576,0.005095,-0.000485,0.005126,-0.002607,-86.397912,0.005126,
570,1960,0.524428,-0.516033,0.999373,0.002810,-0.003495,0.005934,-0.002079,0.006372,-0.003933,-78.102086,0.006430,
1350,830,-0.291708,-7.156429,0.999997,0.000225,-0.002891,0.003910,0.002200,0.004559,-0.003540,73.548652,0.004786,
660,1340,1.548071,-3.523031,0.999997,0.000207,-0.002609,0.005114,-0.000252,0.005122,-0.002617,-88.136510,0.005123,
790,990,1.654843,-5.229022,0.999998,0.000171,-0.002063,0.005042,0.000202,0.005048,-0.002069,88.372632,0.005075,
1700,500,-0.937881,-7.829238,0.999998,0.000153,-0.002575,0.005151,0.000150,0.005154,-0.002578,88.885788,0.005154,
1830,1210,-1.839485,-4.196607,0.999998,0.000145,-0.002371,0.004777,0.000358,0.004795,-0.002388,87.142241,0.004795,
690,1480,1.235760,-2.757295,0.999998,0.000157,-0.002643,0.005179,0.000002,0.005179,-0.002643,89.983863,0.005179,
1040,1780,0.176770,-0.882635,0.999998,0.000169,-0.001207,0.003814,-0.000004,0.003814,-0.001207,-89.951733,0.003899,
1280,1350,-0.050963,-2.250488,0.999998,0.000164,-0.001265,0.002400,-0.000966,0.002639,-0.001504,-76.095702,0.002648,
1530,530,-0.534218,-7.968869,0.999997,0.000208,-0.002435,0.004862,0.000501,0.004896,-0.002470,86.090215,0.004896,
810,820,1.337593,-6.150303,0.999998,0.000199,-0.002888,0.005645,0.000581,0.005685,-0.002928,86.121197,0.005686,
1610,1510,-0.758923,-2.334522,0.999997,0.000198,-0.002677,0.005189,-0.000306,0.005201,-0.002689,-87.772645,0.005202,
1420,970,-1.051466,-5.656684,0.999994,0.000365,-0.003902,0.009626,0.002016,0.009920,-0.004196,81.701660,0.009959,
850,590,0.817239,-7.506637,0.999998,0.000178,-0.002832,0.005360,-0.000268,0.005369,-0.002841,-88.130561,0.005372,
1250,1210,-0.080400,-2.408939,0.999996,0.000244,-0.004053,0.001495,0.000142,0.001499,-0.004056,88.535845,0.004102,
740,110,0.255694,-9.716932,0.999998,0.000150,-0.000977,0.004404,0.001251,0.004680,-0.001253,77.533350,0.004846,
1330,240,-0.072279,-9.363657,0.999998,0.000171,-0.000846,0.003500,-0.000017,0.003500,-0.000846,-89.780572,0.003652,
580,1930,0.616941,-0.674524,0.999997,0.000205,-0.003427,0.005626,-0.000659,0.005674,-0.003474,-85.860202,0.005721,
750,470,0.930380,-7.962639,0.999998,0.000166,-0.002544,0.005084,-0.000133,0.005086,-0.002546,-89.004085,0.005086,
1250,270,-0.015478,-9.273229,0.999998,0.000156,-0.000863,0.003468,0.000039,0.003468,-0.000863,89.477623,0.003611,
1660,760,-1.233009,-6.483585,0.999997,0.000224,-0.002994,0.005670,-0.000368,0.005686,-0.003010,-87.575001,0.005689,
1220,570,0.014016,-8.237793,0.999999,0.000137,-0.001226,0.003168,-0.000168,0.003174,-0.001232,-87.813289,0.003200,
1000,1140,1.005534,-4.195812,0.999997,0.000207,-0.003277,0.007162,-0.000018,0.007162,-0.003277,-89.903107,0.007171,
1200,1810,0.024192,-0.721540,0.999998,0.000140,-0.000751,0.003427,0.000007,0.003427,-0.000751,89.901416,0.003603,
1150,90,0.017067,-9.864864,0.999998,0.000157,-0.000224,0.003115,0.000112,0.003119,-0.000228,88.085530,0.003478,
640,960,1.962347,-5.347687,0.999998,0.000181,-0.002180,0.004569,0.000159,0.004573,-0.002184,88.651004,0.004574,
610,1420,1.537261,-3.186669,0.999997,0.000213,-0.002534,0.005091,-0.000080,0.005092,-0.002535,-89.402253,0.005092,
570,270,1.050303,-8.657668,0.999995,0.000268,-0.002269,0.004808,-0.000021,0.004809,-0.002269,-89.830077,0.004811,
1280,30,-0.004588,-10.045862,0.999999,0.000000,-0.000011,0.002914,-0.000041,0.002914,-0.000012,-89.197444,0.003359,
890,1490,0.677321,-2.368931,0.999997,0.000202,-0.002708,0.005169,0.000418,0.005191,-0.002730,86.972812,0.005193,
560,1860,0.901005,-1.070468,0.999987,0.000000,-0.002623,0.004794,-0.000267,0.004804,-0.002632,-87.939540,0.004811,
1890,470,-1.377386,-7.678114,0.999998,0.000188,-0.002456,0.005047,0.000033,0.005047,-0.002456,89.744664,0.005048,
940,110,0.105721,-9.773705,0.999998,0.000162,-0.000521,0.003608,0.000519,0.003672,-0.000585,82.938631,0.003946,
1800,500,-1.195478,-7.668772,0.999998,0.000177,-0.002563,0.005146,0.000080,0.005146,-0.002563,89.405009,0.005146,
1390,1640,-0.200337,-1.398933,0.999998,0.000179,-0.001517,0.003920,-0.000352,0.003943,-0.001540,-86.314811,0.003974,
1090,1350,0.221262,-2.529405,0.999998,0.000169,-0.002437,0.004160,0.001684,0.004565,-0.002842,76.480797,0.004611,
1190,50,0.004511,-9.988391,0.999999,0.000111,-0.000059,0.003011,0.000036,0.003011,-0.000060,89.330988,0.003443,
1750,1040,-1.826382,-4.979299,0.999998,0.000160,-0.002157,0.004826,0.000119,0.004828,-0.002159,89.027945,0.004837,
1490,400,-0.359302,-8.628049,0.999997,0.000209,-0.001875,0.004389,0.000293,0.004402,-0.001889,87.331026,0.004417,
1020,750,0.468471,-7.052009,0.999997,0.000204,-0.003546,0.005664,-0.001290,0.005842,-0.003723,-82.177397,0.005915,
710,1100,1.803144,-4.689816,0.999997,0.000219,-0.002232,0.004901,-0.000343,0.004917,-0.002248,-87.250167,0.004923,
1750,170,-0.472358,-9.412668,0.999997,0.000212,-0.002061,0.004887,-0.000760,0.004970,-0.002143,-83.829098,0.004985,
700,1980,0.205842,-0.242505,0.999998,0.000174,-0.001150,0.004473,-0.001513,0.004854,-0.001532,-75.857119,0.004963,
660,1320,1.584331,-3.625918,0.999997,0.000191,-0.002573,0.005119,-0.000312,0.005132,-0.002586,-87.684657,0.005132,
810,560,0.892699,-7.594494,0.999998,0.000158,-0.002730,0.005272,-0.000227,0.005279,-0.002736,-88.372872,0.005280,
1830,450,-1.198101,-7.875536,0.999998,0.000159,-0.002513,0.005050,0.000087,0.005051,-0.002514,89.339986,0.005051,
850,570,0.794187,-7.610763,0.999997,0.000182,-0.002754,0.005258,-0.000282,0.005268,-0.002764,-87.983707,0.005270,
1450,410,-0.293657,-8.634175,0.999998,0.000172,-0.001619,0.004166,0.000281,0.004179,-0.001633,87.225641,0.004212,
920,720,0.776959,-6.922950,0.999997,0.000203,-0.003414,0.005872,-0.000351,0.005886,-0.003427,-87.836884,0.005912,
1610,1490,-0.780432,-2.437768,0.999997,0.000179,-0.002738,0.005209,-0.000320,0.005222,-0.002751,-87.699018,0.005224,
710,740,1.462345,-6.486415,0.999997,0.000230,-0.002739,0.005273,0.000365,0.005290,-0.002755,87.396826,0.005291,
1580,1090,-1.437687,-4.697169,0.999997,0.000200,-0.002098,0.005597,0.000545,0.005636,-0.002136,85.965870,0.005690,
1740,1850,-0.543249,-0.825280,0.999997,0.000205,-0.002045,0.004901,0.000598,0.004952,-0.002096,85.118589,0.004972,
1530,510,-0.519195,-8.066430,0.999997,0.000198,-0.002357,0.004785,0.000477,0.004817,-0.002389,86.195113,0.004817,
630,540,1.338225,-7.408100,0.999997,0.000209,-0.002546,0.005109,-0.000047,0.005109,-0.002546,-89.647503,0.005109,
1280,1530,-0.061760,-1.710696,0.999999,0.000136,-0.001286,0.003396,-0.000231,0.003407,-0.001297,-87.184754,0.003439,
750,450,0.905002,-8.063709,0.999998,0.000172,-0.002493,0.005068,-0.000141,0.005070,-0.002496,-88.932032,0.005070,
790,820,1.393022,-6.132720,0.999997,0.000187,-0.002815,0.005511,0.000569,0.005550,-0.002854,86.106627,0.005550,
1350,810,-0.242176,-7.230501,0.999997,0.000232,-0.002869,0.003951,0.002259,0.004631,-0.003549,73.241781,0.004845,
1150,1320,0.100380,-2.414432,0.999997,0.000187,-0.001740,0.002799,0.001668,0.003346,-0.002287,71.843290,0.003420,
1040,1800,0.162839,-0.807649,0.999998,0.000175,-0.001112,0.003713,-0.000068,0.003714,-0.001113,-89.187510,0.003812,
1700,480,-0.911324,-7.933185,0.999999,0.000137,-0.002525,0.005091,0.000143,0.005093,-0.002528,88.921465,0.005093,
790,970,1.642046,-5.331431,0.999998,0.000186,-0.002130,0.005145,0.000381,0.005165,-0.002150,87.008909,0.005189,
1420,960,-1.027300,-5.746152,0.999993,0.000387,-0.003671,0.009031,0.002083,0.009364,-0.004004,80.919252,0.009397,
1660,1500,-0.905010,-2.470956,0.999998,0.000169,-0.002717,0.005250,-0.000189,0.005255,-0.002721,-88.643694,0.005256,
1060,810,0.424323,-6.897949,0.999996,0.000232,-0.003754,0.005728,-0.001704,0.006025,-0.004051,-80.114047,0.006144,
1000,1160,0.931622,-4.052940,0.999998,0.000181,-0.003541,0.007054,0.000081,0.007055,-0.003542,89.562282,0.007055,
560,1850,0.924203,-1.122913,0.999992,0.000000,-0.002564,0.005126,-0.000253,0.005134,-0.002572,-88.120713,0.005134,
640,940,1.944790,-5.440119,0.999997,0.000198,-0.002214,0.004645,0.000293,0.004657,-0.002226,87.556403,0.004659,
1420,1190,-0.658325,-3.623167,0.999998,0.000181,-0.003615,0.006673,-0.001294,0.006833,-0.003775,-82.942071,0.006846,
570,200,0.886590,-8.998694,0.999990,0.000361,-0.002646,0.005029,0.000257,0.005038,-0.002654,88.087031,0.005040,
890,1470,0.700714,-2.474457,0.999997,0.000199,-0.002815,0.005253,0.000447,0.005278,-0.002839,86.835090,0.005283,
1320,1180,-0.449007,-2.798866,0.999998,0.000000,-0.001857,0.001867,-0.001097,0.002166,-0.002156,-74.749746,0.002496,
1320,1810,-0.065479,-0.728419,0.999998,0.000153,-0.000789,0.003487,0.000011,0.003487,-0.000789,89.853123,0.003657,
1410,1400,-0.299660,-2.430539,0.999996,0.000238,-0.002510,0.004520,-0.001301,0.004753,-0.002743,-79.845679,0.004772,
1310,240,-0.055702,-9.369663,0.999999,0.000137,-0.000729,0.003448,-0.000049,0.003448,-0.000729,-89.330606,0.003634,
1830,1000,-1.993001,-5.164936,0.999998,0.000197,-0.002154,0.004509,-0.000150,0.004512,-0.002157,-88.710793,0.004514,
570,990,2.117109,-5.194614,0.999994,0.000288,-0.001702,0.004048,-0.000042,0.004049,-0.001702,-89.583787,0.004066,
1490,440,-0.386412,-8.450835,0.999998,0.000165,-0.001960,0.004426,0.000386,0.004450,-0.001983,86.554532,0.004458,
1090,1330,0.226370,-2.611001,0.999997,0.000206,-0.002606,0.004232,0.001827,0.004690,-0.003063,75.943992,0.004762,
570,1930,0.645269,-0.698495,0.999823,0.001609,-0.003886,0.005850,-0.000576,0.005884,-0.003920,-86.626982,0.005991,
1250,250,-0.015250,-9.342255,0.999998,0.000147,-0.000789,0.003412,0.000025,0.003412,-0.000790,89.655321,0.003573,
1800,480,-1.166697,-7.770512,0.999998,0.000177,-0.002543,0.005112,0.000075,0.005113,-0.002543,89.440345,0.005113,
920,700,0.747054,-7.039814,0.999997,0.000184,-0.003341,0.005770,-0.000423,0.005789,-0.003360,-87.349000,0.005814,
1750,370,-0.882864,-8.410784,0.999998,0.000195,-0.002452,0.005093,0.000055,0.005094,-0.002453,89.579583,0.005095,
1610,1470,-0.801750,-2.542799,0.999998,0.000171,-0.002806,0.005331,-0.000301,0.005342,-0.002817,-87.884474,0.005344,
1220,730,0.010653,-7.824653,0.999998,0.000139,-0.000977,0.001770,-0.000283,0.001798,-0.001005,-84.186612,0.001803,
1050,1480,0.286117,-2.089303,0.999998,0.000175,-0.002150,0.004246,0.000943,0.004382,-0.002287,81.781412,0.004383,
1150,70,0.011089,-9.928077,0.999999,0.000138,-0.000156,0.003071,0.000119,0.003076,-0.000161,87.898219,0.003463,
660,1740,0.920139,-1.477335,0.999998,0.000178,-0.002424,0.005083,-0.000048,0.005084,-0.002424,-89.634751,0.005085,
570,1810,0.996195,-1.301488,0.999998,0.000164,-0.002390,0.004851,0.000003,0.004851,-0.002390,89.979073,0.004851,
1570,1690,-0.476370,-1.391064,0.999996,0.000214,-0.002055,0.004576,-0.000079,0.004577,-0.002056,-89.320706,0.004585,
1450,370,-0.271931,-8.800680,0.999998,0.000174,-0.001498,0.004139,0.000174,0.004145,-0.001503,88.229350,0.004196,
1780,950,-1.858162,-5.407492,0.999998,0.000165,-0.002244,0.004811,-0.000338,0.004827,-0.002260,-87.266114,0.004830,
1390,180,-0.086534,-9.558733,0.999998,0.000170,-0.000603,0.003496,-0.000184,0.003504,-0.000611,-87.439913,0.003744,
1850,120,-0.517115,-9.514585,0.999996,0.000215,-0.002406,0.005400,-0.000733,0.005468,-0.002474,-84.678576,0.005476,
1830,1190,-1.871798,-4.292794,0.999998,0.000166,-0.002314,0.004774,0.000366,0.004793,-0.002333,87.047940,0.004793,
1580,650,-0.798107,-7.241511,0.999998,0.000169,-0.003095,0.005536,0.000344,0.005550,-0.003109,87.722283,0.005563,
1820,490,-1.230976,-7.686393,0.999998,0.000175,-0.002534,0.005105,0.000062,0.005106,-0.002534,89.537457,0.005106,
1180,50,0.005924,-9.988430,0.999999,0.000140,-0.000053,0.003012,0.000058,0.003014,-0.000054,88.923565,0.003449,
1380,110,-0.042267,-9.794880,0.999999,0.000143,-0.000268,0.003285,-0.000224,0.003299,-0.000282,-86.402897,0.003657,
750,430,0.878748,-8.164736,0.999998,0.000162,-0.002469,0.005038,-0.000135,0.005040,-0.002472,-88.967076,0.005041,
1660,1460,-0.957432,-2.681878,0.999998,0.000151,-0.002803,0.005340,-0.000136,0.005342,-0.002805,-89.046950,0.005345,
1280,1510,-0.061649,-1.778978,0.999998,0.000167,-0.001302,0.003348,-0.000308,0.003368,-0.001322,-86.230885,0.003394,
960,630,0.542107,-7.519829,0.999997,0.000225,-0.002913,0.005174,-0.000774,0.005247,-0.002987,-84.581521,0.005264,
890,1450,0.720938,-2.581665,0.999997,0.000203,-0.002890,0.005277,0.000433,0.005300,-0.002913,86.972112,0.005308,
790,950,1.617331,-5.435360,0.999997,0.000198,-0.002185,0.005151,0.000474,0.005182,-0.002216,86.320228,0.005200,
1320,1170,-0.513923,-2.821591,0.999996,0.000000,-0.001684,0.001758,-0.001288,0.002187,-0.002112,-71.590728,0.002483,
1700,460,-0.887332,-8.034385,0.999998,0.000159,-0.002490,0.005068,0.000123,0.005070,-0.002492,89.065452,0.005071,
1870,1000,-2.076958,-5.158028,0.999998,0.000148,-0.002050,0.004283,-0.000118,0.004285,-0.002053,-88.934676,0.004286,
1670,1280,-1.293835,-3.693137,0.999997,0.000203,-0.002956,0.005594,0.000455,0.005618,-0.002980,86.961942,0.005622,
640,920,1.923609,-5.533140,0.999998,0.000173,-0.002216,0.004658,0.000303,0.004671,-0.002230,87.479522,0.004672,
960,790,0.765704,-6.597776,0.999998,0.000188,-0.003781,0.006382,-0.000348,0.006394,-0.003793,-88.039129,0.006431,
700,1960,0.264990,-0.324790,0.999997,0.000188,-0.001516,0.004415,-0.001241,0.004664,-0.001765,-78.649113,0.004710,
1090,1310,0.236484,-2.697601,0.999997,0.000225,-0.002794,0.004340,0.001956,0.004841,-0.003295,75.630505,0.004946,
1500,1710,-0.332909,-1.227305,0.999998,0.000172,-0.001735,0.004272,-0.000147,0.004276,-0.001739,-88.601503,0.004301,
1880,790,-1.868840,-6.083629,0.999998,0.000193,-0.002309,0.004674,-0.000121,0.004676,-0.002312,-89.004158,0.004676,
920,680,0.719844,-7.152088,0.999997,0.000194,-0.003240,0.005628,-0.000482,0.005654,-0.003266,-86.896782,0.005676,
1200,730,0.029453,-7.805421,0.999998,0.000165,-0.001111,0.001922,-0.000736,0.002091,-0.001280,-77.056778,0.002109,
570,330,1.163792,-8.368163,0.999978,0.000568,-0.002317,0.004836,-0.000030,0.004836,-0.002317,-89.757156,0.004837,
1740,1130,-1.740501,-4.536382,0.999998,0.000164,-0.002299,0.004927,0.000398,0.004948,-0.002321,86.860046,0.004952,
1410,1380,-0.306176,-2.521501,0.999997,0.000202,-0.002659,0.004597,-0.001405,0.004860,-0.002922,-79.414054,0.004893,
1300,830,-0.167834,-7.498578,0.999997,0.000195,-0.002201,0.001924,0.001306,0.002303,-0.002579,73.827716,0.002832,
1800,460,-1.137140,-7.872085,0.999998,0.000168,-0.002522,0.005094,0.000092,0.005095,-0.002523,89.308195,0.005095,
1310,360,-0.083431,-8.943753,0.999998,0.000143,-0.001125,0.003614,0.000091,0.003616,-0.001127,88.897626,0.003701,
1300,1320,-0.076861,-2.369034,0.999997,0.000200,-0.001560,0.002500,-0.001477,0.002981,-0.002041,-71.983470,0.003048,
1730,940,-1.734776,-5.472259,0.999998,0.000167,-0.002282,0.004957,-0.000440,0.004984,-0.002308,-86.535153,0.004988,
1610,1450,-0.828377,-2.649256,0.999998,0.000163,-0.002905,0.005353,-0.000275,0.005362,-0.002914,-88.098097,0.005369,
1720,150,-0.366476,-9.535887,0.999997,0.000201,-0.001324,0.004635,-0.001024,0.004806,-0.001496,-80.513202,0.004919,
1000,1600,0.341432,-1.655844,0.999998,0.000187,-0.001971,0.004372,0.000475,0.004407,-0.002007,85.744170,0.004413,
1450,350,-0.262047,-8.882375,0.999998,0.000163,-0.001434,0.003996,0.000121,0.003999,-0.001437,88.718984,0.004051,
660,1760,0.883769,-1.375794,0.999998,0.000187,-0.002394,0.005090,-0.000127,0.005093,-0.002396,-89.024368,0.005096,
1310,180,-0.039680,-9.574666,0.999998,0.000197,-0.000533,0.003338,-0.000072,0.003339,-0.000535,-88.932630,0.003587,
1750,610,-1.228331,-7.175625,0.999998,0.000174,-0.002690,0.005247,-0.000035,0.005247,-0.002690,-89.748441,0.005248,
910,1060,1.423282,-4.858032,0.999996,0.000244,-0.001868,0.005704,-0.000337,0.005719,-0.001883,-87.457714,0.005830,
820,50,0.060472,-9.971863,0.999999,0.000155,-0.000257,0.003538,0.000930,0.003754,-0.000473,76.950748,0.004089,
590,1030,2.093400,-5.029162,0.999998,0.000147,-0.002007,0.004289,-0.000013,0.004289,-0.002007,-89.877899,0.004292,
1360,110,-0.038287,-9.797864,0.999998,0.000161,-0.000313,0.003255,-0.000193,0.003265,-0.000323,-86.913701,0.003598,
1030,1480,0.329544,-2.130100,0.999998,0.000186,-0.002238,0.004428,0.000882,0.004543,-0.002353,82.587248,0.004544,
1530,930,-1.251013,-5.626659,0.999997,0.000210,-0.002589,0.006220,-0.000688,0.006274,-0.002643,-85.562570,0.006300,
1830,120,-0.468698,-9.565496,0.999996,0.000210,-0.002238,0.005323,-0.000872,0.005422,-0.002338,-83.504587,0.005439,
1110,240,0.090965,-9.357572,0.999998,0.000144,-0.000842,0.003559,0.000053,0.003560,-0.000843,89.309564,0.003721,
750,410,0.851289,-8.266600,0.999998,0.000164,-0.002435,0.005058,-0.000072,0.005058,-0.002436,-89.446551,0.005060,
1890,200,-0.878201,-9.004806,0.999998,0.000151,-0.002427,0.004888,-0.000183,0.004893,-0.002432,-88.567889,0.004893,
1140,1980,0.013783,-0.167168,0.999998,0.000147,-0.000215,0.003110,-0.000117,0.003115,-0.000219,-87.982614,0.003477,
850,550,0.771924,-7.715295,0.999998,0.000174,-0.002697,0.005192,-0.000291,0.005202,-0.002708,-87.887782,0.005204,
1320,880,-0.481922,-7.270772,0.999996,0.000000,-0.001821,0.001704,0.001240,0.002096,-0.002213,72.437143,0.002491,
1660,1440,-0.986612,-2.790699,0.999998,0.000158,-0.002862,0.005375,-0.000092,0.005376,-0.002863,-89.359139,0.005380,
1260,1530,-0.036030,-1.703546,0.999999,0.000133,-0.001270,0.003346,-0.000198,0.003354,-0.001278,-87.553007,0.003385,
1830,1150,-1.921306,-4.480636,0.999997,0.000202,-0.002215,0.004605,0.000267,0.004616,-0.002226,87.760083,0.004617,
890,1430,0.743637,-2.684786,0.999997,0.000188,-0.002994,0.005412,0.000401,0.005431,-0.003013,87.277424,0.005442,
560,1840,0.950556,-1.175186,0.999994,0.000000,-0.002525,0.005097,-0.000201,0.005103,-0.002530,-88.490075,0.005103,
980,630,0.483992,-7.570687,0.999996,0.000255,-0.002859,0.005054,-0.000911,0.005157,-0.002962,-83.516040,0.005176,
640,900,1.901650,-5.627243,0.999998,0.000176,-0.002233,0.004643,0.000268,0.004653,-0.002244,87.774680,0.004654,
790,930,1.593553,-5.537829,0.999997,0.000195,-0.002288,0.005181,0.000497,0.005214,-0.002321,86.206481,0.005225,
1700,440,-0.859413,-8.135819,0.999998,0.000165,-0.002447,0.005034,0.000109,0.005036,-0.002449,89.162421,0.005036,
1850,1000,-2.036538,-5.162308,0.999999,0.000138,-0.002100,0.004391,-0.000125,0.004393,-0.002102,-88.895460,0.004395,
820,1430,0.950805,-2.816632,0.999998,0.000185,-0.002917,0.005414,0.000113,0.005416,-0.002919,89.222083,0.005421,
1480,1790,-0.232666,-0.876573,0.999998,0.000159,-0.001187,0.003986,0.000134,0.003989,-0.001190,88.520831,0.004096,
1090,1290,0.252197,-2.788085,0.999998,0.000188,-0.002949,0.004506,0.002036,0.005026,-0.003469,75.678272,0.005146,
1510,720,-0.662978,-7.004471,0.999997,0.000201,-0.003439,0.005823,0.000654,0.005869,-0.003485,85.980453,0.005904,
700,1940,0.334548,-0.417027,0.999997,0.000193,-0.001749,0.004745,-0.001188,0.004955,-0.001960,-79.948597,0.004991,
920,660,0.693543,-7.265673,0.999997,0.000189,-0.003125,0.005554,-0.000521,0.005585,-0.003156,-86.578221,0.005601,
1800,440,-1.108806,-7.975780,0.999999,0.000157,-0.002509,0.005055,0.000087,0.005056,-0.002510,89.341686,0.005056,
1740,1830,-0.591084,-0.923583,0.999997,0.000191,-0.002099,0.004926,0.000494,0.004960,-0.002133,85.993253,0.004977,
1750,460,-1.011490,-7.954077,0.999998,0.000168,-0.002525,0.005072,0.000088,0.005073,-0.002526,89.336379,0.005073,
1320,30,-0.003970,-10.047724,0.999999,0.000000,-0.000063,0.002963,-0.000086,0.002965,-0.000065,-88.378506,0.003387,
750,390,0.822220,-8.367677,0.999998,0.000182,-0.002404,0.005028,-0.000035,0.005028,-0.002404,-89.732737,0.005030,
560,1830,0.976380,-1.226982,0.999997,0.000000,-0.002470,0.004983,-0.000104,0.004985,-0.002472,-89.204144,0.004985,
1180,730,0.054802,-7.765813,0.999998,0.000153,-0.001320,0.002207,-0.001150,0.002549,-0.001662,-73.448575,0.002588,
1200,590,0.037752,-8.164982,0.999999,0.000139,-0.001265,0.003092,-0.000262,0.003108,-0.001280,-86.571547,0.003124,
1610,1430,-0.854580,-2.757277,0.999998,0.000174,-0.002993,0.005422,-0.000253,0.005429,-0.003000,-88.277520,0.005439,
640,880,1.877648,-5.718245,0.999998,0.000179,-0.002294,0.004754,0.000334,0.004770,-0.002310,87.293362,0.004770,
1720,130,-0.314022,-9.627061,0.999997,0.000214,-0.001141,0.004493,-0.001156,0.004721,-0.001369,-78.839849,0.004858,
580,1030,2.113026,-5.029322,0.999998,0.000154,-0.001902,0.004223,-0.000015,0.004223,-0.001902,-89.859643,0.004230,
830,2000,0.067749,-0.125346,0.999998,0.000158,-0.000224,0.003591,-0.000888,0.003787,-0.000421,-77.524140,0.004152,
1280,1310,-0.052062,-2.338342,0.999999,0.000131,-0.001298,0.002027,-0.001190,0.002409,-0.001680,-72.197892,0.002471,
1090,1160,0.644676,-3.394833,0.999997,0.000196,-0.001898,0.004435,0.002844,0.005525,-0.002988,69.034851,0.005531,
1350,790,-0.212935,-7.312994,0.999997,0.000215,-0.002815,0.003938,0.002268,0.004629,-0.003506,73.053587,0.004829,
1570,1670,-0.498560,-1.484114,0.999997,0.000206,-0.002081,0.004654,-0.000134,0.004657,-0.002083,-88.860221,0.004665,
570,320,1.146653,-8.416394,0.999983,0.000466,-0.002317,0.004762,0.000005,0.004762,-0.002317,89.960414,0.004763,
760,390,0.797713,-8.382939,0.999998,0.000170,-0.002363,0.005004,-0.000035,0.005005,-0.002363,-89.728149,0.005007,
1630,740,-1.103062,-6.638574,0.999998,0.000175,-0.003155,0.005763,-0.000231,0.005769,-0.003161,-88.519021,0.005778,
810,50,0.061841,-9.970889,0.999998,0.000177,-0.000392,0.003564,0.000946,0.003779,-0.000607,77.222542,0.004058,
910,1040,1.436685,-4.970502,0.999998,0.000172,-0.001793,0.005592,-0.000167,0.005596,-0.001797,-88.708704,0.005714,
660,1780,0.846648,-1.273567,0.999998,0.000163,-0.002370,0.005048,-0.000218,0.005054,-0.002376,-88.319127,0.005057,
1450,330,-0.247738,-8.961392,0.999998,0.000163,-0.001360,0.004008,0.000054,0.004009,-0.001360,89.425368,0.004077,
1490,420,-0.372429,-8.538961,0.999997,0.000184,-0.001937,0.004426,0.000339,0.004444,-0.001955,86.960020,0.004454,
1200,1600,0.037894,-1.462737,0.999998,0.000159,-0.001218,0.003502,0.000139,0.003506,-0.001222,88.317343,0.003560,
1140,1960,0.019952,-0.231419,0.999998,0.000159,-0.000287,0.003148,-0.000110,0.003151,-0.000291,-88.173293,0.003483,
1000,1580,0.352512,-1.744486,0.999998,0.000167,-0.002025,0.004390,0.000526,0.004432,-0.002068,85.344091,0.004436,
1400,1700,-0.187689,-1.171951,0.999998,0.000171,-0.001383,0.003882,-0.000174,0.003888,-0.001388,-88.107346,0.003940,
1420,1130,-0.903876,-4.048414,0.999998,0.000154,-0.003281,0.007332,-0.001636,0.007579,-0.003527,-81.433197,0.007585,
1690,1960,-0.189539,-0.289862,0.999998,0.000174,-0.000807,0.004042,0.001085,0.004273,-0.001039,77.942959,0.004457,
1010,980,1.186009,-5.427925,0.999996,0.000235,-0.002821,0.007844,-0.000281,0.007851,-0.002828,-88.494121,0.007952,
1860,1450,-1.505999,-3.043302,0.999997,0.000200,-0.002522,0.005074,0.000037,0.005074,-0.002522,89.720663,0.005074,
1740,1560,-1.035010,-2.291449,0.999998,0.000152,-0.002531,0.005133,-0.000109,0.005134,-0.002532,-89.188181,0.005134,
1300,1300,-0.081751,-2.418185,0.999998,0.000184,-0.001593,0.002403,-0.001649,0.002995,-0.002186,-70.236589,0.003099,
1570,1780,-0.368966,-0.986321,0.999998,0.000178,-0.001589,0.004299,0.000208,0.004306,-0.001596,87.979143,0.004354,
1660,1420,-1.015191,-2.898574,0.999998,0.000165,-0.002907,0.005425,-0.000050,0.005425,-0.002907,-89.656823,0.005430,
1450,800,-0.584652,-6.721087,0.999996,0.000233,-0.003875,0.006238,0.001026,0.006340,-0.003978,84.266592,0.006409,
1830,1130,-1.944511,-4.573015,0.999998,0.000170,-0.002204,0.004615,0.000290,0.004627,-0.002217,87.568822,0.004629,
850,530,0.746581,-7.820770,0.999998,0.000180,-0.002643,0.005124,-0.000301,0.005136,-0.002654,-87.787291,0.005137,
1750,920,-1.757876,-5.563707,0.999998,0.000158,-0.002288,0.004882,-0.000384,0.004902,-0.002309,-86.941569,0.004905,
1160,1750,0.065929,-0.937356,0.999998,0.000147,-0.000894,0.003569,0.000004,0.003569,-0.000894,89.947248,0.003714,
1230,180,0.000579,-9.579263,0.999998,0.000156,-0.000561,0.003299,-0.000004,0.003299,-0.000561,-89.933602,0.003530,
750,1480,1.074604,-2.663654,0.999998,0.000169,-0.002704,0.005253,0.000074,0.005254,-0.002704,89.467913,0.005255,
1890,1200,-1.992343,-4.309771,0.999998,0.000149,-0.002250,0.004503,0.000107,0.004504,-0.002251,89.095017,0.004504,
1720,1850,-0.505326,-0.804859,0.999997,0.000185,-0.001778,0.004856,0.000739,0.004937,-0.001859,83.722994,0.004987,
890,280,0.381415,-9.067249,0.999998,0.000166,-0.001663,0.004365,0.000175,0.004370,-0.001668,88.338524,0.004411,
1040,1820,0.149408,-0.732789,0.999998,0.000182,-0.001034,0.003749,-0.000096,0.003751,-0.001036,-88.856388,0.003874,
890,1410,0.768943,-2.797387,0.999998,0.000179,-0.003100,0.005520,0.000371,0.005536,-0.003116,87.541843,0.005551,
790,780,1.312726,-6.355002,0.999997,0.000194,-0.002937,0.005588,0.000469,0.005614,-0.002963,86.861744,0.005617,
1810,1000,-1.950779,-5.167054,0.999998,0.000154,-0.002135,0.004604,-0.000150,0.004607,-0.002138,-88.726074,0.004611,
1530,950,-1.302318,-5.503654,0.999997,0.000208,-0.002330,0.006156,-0.000642,0.006204,-0.002379,-85.698849,0.006260,
1250,230,-0.013663,-9.409533,0.999998,0.000161,-0.000733,0.003407,0.000030,0.003407,-0.000734,89.583468,0.003587,
1610,1410,-0.881074,-2.866942,0.999998,0.000163,-0.003068,0.005501,-0.000192,0.005506,-0.003072,-88.713878,0.005518,
1350,1500,-0.163166,-1.888966,0.999999,0.000136,-0.001650,0.003702,-0.000741,0.003803,-0.001751,-82.258977,0.003807,
1090,1270,0.274022,-2.878756,0.999998,0.000188,-0.003144,0.004624,0.002114,0.005162,-0.003682,75.720094,0.005317,
1700,420,-0.831750,-8.236518,0.999998,0.000169,-0.002421,0.005042,0.000098,0.005044,-0.002422,89.247646,0.005045,
1090,720,0.226587,-7.490509,0.999997,0.000229,-0.002588,0.004235,-0.001781,0.004672,-0.003025,-76.215892,0.004739,
1310,2020,-0.002509,-0.044769,0.999998,0.000000,0.000018,0.003046,0.000118,0.003051,0.000013,87.765914,0.003530,
1810,1720,-0.970849,-1.590175,0.999998,0.000195,-0.002466,0.005055,0.000007,0.005055,-0.002466,89.945977,0.005055,
560,1450,1.715345,-3.082426,0.999703,0.000000,-0.005220,0.004795,-0.000200,0.004799,-0.005224,-88.854042,0.005803,
1200,570,0.039043,-8.227527,0.999998,0.000147,-0.001260,0.003187,-0.000247,0.003201,-0.001273,-86.834237,0.003223,
1800,420,-1.079281,-8.074407,0.999998,0.000154,-0.002509,0.005049,0.000080,0.005050,-0.002510,89.396229,0.005050,
570,310,1.127458,-8.463571,0.999990,0.000379,-0.002278,0.004746,0.000016,0.004746,-0.002278,89.871444,0.004748,
940,1170,1.099402,-4.154928,0.999998,0.000169,-0.003182,0.006453,-0.000566,0.006486,-0.003215,-86.650252,0.006486,
1110,890,0.587170,-6.922024,0.999997,0.000196,-0.001322,0.003290,-0.002532,0.004409,-0.002441,-66.162466,0.004418,
1280,1290,-0.055066,-2.377463,0.999998,0.000202,-0.001370,0.001905,-0.001304,0.002360,-0.001825,-70.734631,0.002475,
1610,520,-0.728440,-7.876722,0.999997,0.000192,-0.002580,0.005077,0.000285,0.005087,-0.002591,87.871140,0.005087,
1250,2000,-0.001427,-0.106393,0.999999,0.000121,-0.000120,0.003021,0.000014,0.003021,-0.000120,89.741481,0.003421,
580,1020,2.112090,-5.071680,0.999999,0.000152,-0.001868,0.004239,0.000075,0.004240,-0.001869,89.299143,0.004250,
750,370,0.792627,-8.468758,0.999998,0.000177,-0.002346,0.005006,0.000007,0.005006,-0.002346,89.948215,0.005009,
1350,770,-0.191533,-7.392713,0.999998,0.000196,-0.002644,0.003824,0.002189,0.004495,-0.003315,72.954973,0.004661,
1700,150,-0.341060,-9.548524,0.999997,0.000205,-0.001330,0.004549,-0.000960,0.004702,-0.001483,-80.954571,0.004808,
960,1200,0.938396,-3.911251,0.999997,0.000231,-0.003617,0.006669,-0.000183,0.006673,-0.003620,-88.980031,0.006681,
800,70,0.110760,-9.896001,0.999998,0.000141,-0.000625,0.003788,0.001001,0.004004,-0.000841,77.804692,0.004223,
740,390,0.845454,-8.352357,0.999998,0.000201,-0.002421,0.005055,-0.000036,0.005055,-0.002422,-89.727753,0.005056,
1820,2000,-0.162037,-0.160902,0.999996,0.000247,-0.001311,0.004679,0.001658,0.005107,-0.001740,75.512717,0.005193,
770,1920,0.295175,-0.462307,0.999997,0.000203,-0.001234,0.004347,-0.000980,0.004514,-0.001401,-80.324007,0.004621,
1660,1400,-1.045731,-3.008482,0.999998,0.000167,-0.002959,0.005480,0.000014,0.005480,-0.002959,89.907628,0.005486,
650,940,1.921912,-5.442823,0.999997,0.000195,-0.002232,0.004691,0.000321,0.004706,-0.002247,87.352122,0.004708,
660,1800,0.801804,-1.173015,0.999998,0.000166,-0.002327,0.005085,-0.000305,0.005097,-0.002340,-87.646420,0.005103,
1130,360,0.110698,-8.931464,0.999998,0.000155,-0.001219,0.003688,-0.000202,0.003697,-0.001227,-87.651094,0.003766,
1450,310,-0.233576,-9.041941,0.999998,0.000161,-0.001270,0.003960,0.000015,0.003960,-0.001271,89.837122,0.004044,
1310,1880,-0.038768,-0.488587,0.999998,0.000183,-0.000464,0.003321,0.000071,0.003322,-0.000466,88.922350,0.003598,
1300,1280,-0.088391,-2.466299,0.999997,0.000221,-0.001701,0.002268,-0.001761,0.002937,-0.002370,-69.202152,0.003116,
850,510,0.725587,-7.922440,0.999998,0.000195,-0.002556,0.005026,-0.000312,0.005039,-0.002568,-87.649769,0.005039,
640,860,1.846812,-5.817242,0.999998,0.000173,-0.002361,0.004800,0.000388,0.004821,-0.002382,86.909407,0.004821,
1000,1560,0.361544,-1.832216,0.999997,0.000180,-0.002029,0.004415,0.000549,0.004461,-0.002076,85.164093,0.004465,
1140,1940,0.027068,-0.293809,0.999998,0.000139,-0.000339,0.003203,-0.000114,0.003207,-0.000342,-88.156012,0.003522,
730,1480,1.129557,-2.695110,0.999998,0.000163,-0.002686,0.005227,0.000045,0.005227,-0.002686,89.673065,0.005228,
1280,1750,-0.045213,-0.934079,0.999999,0.000138,-0.000892,0.003524,-0.000039,0.003524,-0.000892,-89.495413,0.003665,
1250,210,-0.012891,-9.477996,0.999998,0.000193,-0.000664,0.003359,0.000015,0.003359,-0.000664,89.787534,0.003558,
1610,1390,-0.911873,-2.978508,0.999998,0.000147,-0.003101,0.005592,-0.000158,0.005595,-0.003104,-88.957438,0.005606,
1700,400,-0.804148,-8.337815,0.999998,0.000171,-0.002370,0.005026,0.000089,0.005027,-0.002371,89.312396,0.005030,
1050,330,0.197689,-8.992656,0.999998,0.000175,-0.001368,0.003881,-0.000121,0.003884,-0.001371,-88.674804,0.003939,
890,1390,0.794612,-2.906082,0.999998,0.000164,-0.003183,0.005574,0.000302,0.005584,-0.003194,88.028410,0.005603,
1310,1180,-0.428957,-2.722098,0.999997,0.000000,-0.002207,0.001484,-0.000769,0.001638,-0.002361,-78.683522,0.002419,
1090,1250,0.306932,-2.975195,0.999997,0.000215,-0.003290,0.004790,0.002185,0.005343,-0.003843,75.797046,0.005511,
1790,1020,-1.915915,-5.074929,0.999999,0.000131,-0.002148,0.004707,-0.000074,0.004708,-0.002149,-89.382760,0.004714,
1070,720,0.280952,-7.408889,0.999998,0.000180,-0.002841,0.004616,-0.001722,0.004995,-0.003220,-77.604486,0.005064,
1750,220,-0.600787,-9.166076,0.999998,0.000187,-0.002227,0.004945,-0.000449,0.004973,-0.002255,-86.428524,0.004980,
1240,550,-0.010604,-8.302842,0.999998,0.000156,-0.001279,0.003232,0.000109,0.003234,-0.001282,88.618149,0.003257,
1800,400,-1.050666,-8.178586,0.999998,0.000156,-0.002477,0.005049,0.000063,0.005050,-0.002478,89.522828,0.005050,
570,1020,2.131302,-5.071344,0.999990,0.000391,-0.001788,0.004172,0.000081,0.004173,-0.001789,89.226137,0.004187,
1110,1170,0.558396,-3.143856,0.999997,0.000211,-0.001338,0.003277,0.002322,0.004243,-0.002304,67.411934,0.004248,
570,1860,0.873993,-1.055195,0.999987,0.000411,-0.002572,0.004855,-0.000276,0.004866,-0.002583,-87.872779,0.004869,
750,350,0.760129,-8.567295,0.999997,0.000194,-0.002280,0.005021,0.000086,0.005022,-0.002281,89.324605,0.005029,
570,410,1.288941,-7.973840,0.999976,0.000602,-0.001300,0.004632,0.000002,0.004632,-0.001300,89.979756,0.004779,
1570,1920,-0.166878,-0.410766,0.999998,0.000187,-0.000820,0.003826,0.000585,0.003898,-0.000893,82.932998,0.004085,
760,1610,0.873268,-1.974377,0.999998,0.000159,-0.002475,0.005034,0.000120,0.005036,-0.002477,89.085294,0.005036,
800,50,0.066687,-9.969392,0.999999,0.000141,-0.000497,0.003588,0.000958,0.003801,-0.000711,77.436603,0.004042,
1450,290,-0.219690,-9.119855,0.999998,0.000161,-0.001196,0.003933,-0.000062,0.003934,-0.001196,-89.311253,0.004033,
1350,750,-0.180420,-7.467157,0.999997,0.000216,-0.002499,0.003793,0.002029,0.004391,-0.003096,73.587056,0.004512,
780,1750,0.627771,-1.249981,0.999998,0.000169,-0.002188,0.004804,-0.000143,0.004807,-0.002191,-88.830487,0.004814,
800,270,0.525697,-9.023779,0.999998,0.000194,-0.002057,0.004715,0.000281,0.004726,-0.002068,87.626190,0.004738,
1460,2000,-0.027048,-0.111910,0.999998,0.000152,-0.000090,0.003191,0.000354,0.003229,-0.000128,83.910040,0.003657,
640,840,1.815154,-5.913109,0.999998,0.000165,-0.002363,0.004764,0.000381,0.004785,-0.002383,86.948873,0.004785,
650,920,1.900806,-5.538359,0.999998,0.000188,-0.002243,0.004694,0.000312,0.004708,-0.002257,87.433363,0.004709,
1430,1380,-0.361743,-2.586522,0.999996,0.000209,-0.002820,0.004892,-0.001283,0.005100,-0.003028,-80.796502,0.005130,
1300,1260,-0.104714,-2.509934,0.999998,0.000195,-0.001845,0.002150,-0.001792,0.002836,-0.002531,-69.048868,0.003114,
1040,110,0.059783,-9.789820,0.999999,0.000187,-0.000456,0.003359,0.000287,0.003381,-0.000477,85.728632,0.003659,
670,310,0.887455,-8.644338,0.999998,0.000164,-0.002408,0.005037,0.000100,0.005038,-0.002410,89.233851,0.005040,
1140,1920,0.033268,-0.358196,0.999999,0.000123,-0.000425,0.003221,-0.000104,0.003224,-0.000427,-88.372379,0.003502,
830,260,0.456454,-9.099121,0.999997,0.000211,-0.001602,0.004539,0.000377,0.004562,-0.001625,86.497166,0.004624,
1210,1240,0.044842,-2.374495,0.999996,0.000242,-0.002045,0.001124,0.000462,0.001190,-0.002111,81.875273,0.002117,
1250,190,-0.011640,-9.546072,0.999998,0.000189,-0.000602,0.003315,0.000002,0.003315,-0.000602,89.964868,0.003532,
1550,340,-0.411080,-8.824289,0.999998,0.000176,-0.001721,0.004484,-0.000032,0.004484,-0.001721,-89.702273,0.004525,
1260,1750,-0.027494,-0.929608,0.999999,0.000141,-0.000918,0.003489,-0.000069,0.003490,-0.000919,-89.100397,0.003618,
1000,1540,0.372263,-1.920258,0.999997,0.000194,-0.002071,0.004446,0.000614,0.004503,-0.002129,84.666454,0.004505,
1140,1690,0.099011,-1.160883,0.999999,0.000126,-0.001211,0.003702,0.000169,0.003707,-0.001217,88.027463,0.003780,
1090,1230,0.347673,-3.070797,0.999996,0.000234,-0.003387,0.004918,0.002134,0.005435,-0.003903,76.400092,0.005604,
1700,380,-0.778152,-8.438039,0.999998,0.000160,-0.002293,0.004964,0.000023,0.004964,-0.002293,89.817692,0.004969,
1050,310,0.184633,-9.070474,0.999998,0.000181,-0.001317,0.003852,-0.000078,0.003853,-0.001318,-89.132903,0.003917,
890,1370,0.822163,-3.020889,0.999998,0.000178,-0.003231,0.005683,0.000263,0.005691,-0.003238,88.311823,0.005709,
1610,1370,-0.940920,-3.092271,0.999998,0.000149,-0.003134,0.005655,-0.000090,0.005656,-0.003134,-89.413091,0.005667,
1800,380,-1.020114,-8.278563,0.999998,0.000168,-0.002460,0.005063,0.000031,0.005063,-0.002460,89.765476,0.005064,
570,400,1.262560,-8.017454,0.999966,0.000754,-0.001330,0.004738,-0.000039,0.004738,-0.001330,-89.635727,0.004888,
570,1010,2.125016,-5.113186,0.999992,0.000353,-0.001741,0.004109,0.000130,0.004112,-0.001744,88.731587,0.004128,
1070,700,0.270936,-7.502291,0.999997,0.000212,-0.002663,0.004502,-0.001605,0.004846,-0.003006,-77.933833,0.004892,
1240,570,-0.011321,-8.239139,0.999999,0.000154,-0.001250,0.003162,0.000122,0.003166,-0.001253,88.413515,0.003188,
1750,200,-0.553262,-9.264285,0.999996,0.000204,-0.002179,0.004955,-0.000563,0.004999,-0.002223,-85.513248,0.005009,
1160,50,0.006295,-9.988191,0.999999,0.000134,-0.000078,0.003004,0.000079,0.003006,-0.000080,88.539427,0.003426,
770,1760,0.633427,-1.214882,0.999997,0.000203,-0.002140,0.004859,-0.000213,0.004865,-0.002147,-88.260585,0.004876,
900,630,0.720053,-7.387557,0.999997,0.000187,-0.003025,0.005406,-0.000443,0.005429,-0.003048,-86.999713,0.005443,
990,1800,0.216006,-0.834932,0.999998,0.000175,-0.001074,0.003919,-0.000171,0.003925,-0.001080,-88.037919,0.004055,
1080,1210,0.452289,-3.251773,0.999996,0.000231,-0.003502,0.005317,0.001966,0.005736,-0.003921,77.983703,0.005863,
1350,730,-0.172781,-7.541131,0.999997,0.000233,-0.002347,0.003738,0.001888,0.004276,-0.002885,74.089543,0.004362,
1300,1240,-0.132447,-2.549712,0.999997,0.000188,-0.002058,0.002052,-0.001698,0.002663,-0.002668,-70.221253,0.003078,
1790,1000,-1.908222,-5.170130,0.999999,0.000137,-0.002148,0.004694,-0.000140,0.004697,-0.002151,-88.831822,0.004703,
1230,2000,0.000250,-0.105369,0.999999,0.000119,-0.000138,0.003046,-0.000015,0.003046,-0.000139,-89.721979,0.003440,
740,1610,0.923533,-2.007127,0.999998,0.000156,-0.002496,0.005024,0.000118,0.005026,-0.002498,89.098297,0.005026,
1570,1900,-0.197121,-0.489508,0.999998,0.000171,-0.000944,0.003944,0.000562,0.004008,-0.001008,83.522066,0.004170,
1450,270,-0.203125,-9.200627,0.999998,0.000156,-0.001119,0.003891,-0.000098,0.003893,-0.001121,-88.881538,0.004008,
1140,1900,0.039291,-0.424456,0.999999,0.000125,-0.000486,0.003305,-0.000094,0.003307,-0.000489,-88.576698,0.003570,
670,290,0.850053,-8.745549,0.999998,0.000183,-0.002393,0.005080,0.000164,0.005084,-0.002397,88.743360,0.005087,
1250,170,-0.008054,-9.612085,0.999998,0.000162,-0.000500,0.003290,0.000005,0.003290,-0.000500,89.929117,0.003546,
1000,1520,0.380293,-2.008185,0.999997,0.000189,-0.002167,0.004495,0.000667,0.004561,-0.002233,84.340805,0.004561,
630,1980,0.279998,-0.285200,0.999998,0.000188,-0.002079,0.005307,-0.001388,0.005559,-0.002331,-79.700069,0.005583,
1540,110,-0.113931,-9.770366,0.999998,0.000174,-0.000508,0.003641,-0.000571,0.003718,-0.000585,-82.308051,0.003998,
700,1920,0.396280,-0.513416,0.999997,0.000203,-0.001920,0.004778,-0.001011,0.004927,-0.002069,-81.598959,0.004948,
1740,630,-1.233918,-7.085485,0.999998,0.000161,-0.002737,0.005272,-0.000082,0.005273,-0.002738,-89.414226,0.005274,
680,1170,1.790338,-4.358486,0.999997,0.000189,-0.002366,0.004893,-0.000446,0.004921,-0.002393,-86.495015,0.004921,
1700,360,-0.748701,-8.534500,0.999998,0.000154,-0.002217,0.004936,-0.000062,0.004937,-0.002217,-89.504923,0.004945,
640,80,0.278268,-9.790915,0.999997,0.000201,-0.001690,0.005234,0.001572,0.005574,-0.002030,77.786531,0.005642,
1090,1210,0.417062,-3.173803,0.999996,0.000228,-0.003265,0.004930,0.002201,0.005483,-0.003819,75.881159,0.005623,
1610,1350,-0.975441,-3.204295,0.999998,0.000156,-0.003182,0.005743,-0.000012,0.005743,-0.003182,-89.920499,0.005754,
890,1350,0.854275,-3.133516,0.999998,0.000182,-0.003280,0.005785,0.000197,0.005789,-0.003284,88.755243,0.005807,
1050,290,0.173827,-9.147576,0.999998,0.000174,-0.001238,0.003816,-0.000035,0.003816,-0.001238,-89.603022,0.003894,
1530,600,-0.594076,-7.615457,0.999998,0.000185,-0.002789,0.005146,0.000589,0.005189,-0.002832,85.780262,0.005196,
1800,360,-0.985820,-8.380276,0.999998,0.000160,-0.002459,0.005100,-0.000004,0.005100,-0.002459,-89.969648,0.005101,
1390,1740,-0.159507,-1.013278,0.999998,0.000153,-0.001094,0.003782,-0.000033,0.003782,-0.001094,-89.612826,0.003892,
1070,680,0.264200,-7.591536,0.999997,0.000199,-0.002511,0.004407,-0.001467,0.004705,-0.002810,-78.505876,0.004735,
860,810,1.161958,-6.265814,0.999997,0.000205,-0.003196,0.005968,0.000465,0.005991,-0.003219,87.100241,0.005997,
1150,50,0.006997,-9.987745,0.999999,0.000143,-0.000106,0.003017,0.000091,0.003020,-0.000109,88.330058,0.003426,
1180,550,0.065353,-8.284270,0.999998,0.000161,-0.001326,0.003324,-0.000339,0.003349,-0.001351,-85.848336,0.003370,
1350,710,-0.169662,-7.617939,0.999998,0.000192,-0.002218,0.003683,0.001701,0.004138,-0.002673,75.018045,0.004196,
770,1740,0.665067,-1.310896,0.999998,0.000163,-0.002186,0.004874,-0.000115,0.004876,-0.002188,-89.069955,0.004884,
810,280,0.521199,-8.987319,0.999998,0.000197,-0.001949,0.004697,0.000274,0.004708,-0.001961,87.638971,0.004730,
960,1180,1.001913,-4.044940,0.999997,0.000209,-0.003464,0.006656,-0.000339,0.006668,-0.003475,-88.080869,0.006670,
1210,1220,0.068901,-2.398672,0.999995,0.000254,-0.003142,0.001427,0.000112,0.001429,-0.003145,88.599789,0.003149,
1730,120,-0.294357,-9.668065,0.999997,0.000194,-0.001223,0.004518,-0.001187,0.004754,-0.001458,-78.769052,0.004871,
570,1000,2.120700,-5.155090,0.999995,0.000287,-0.001713,0.004027,0.000061,0.004027,-0.001713,89.389595,0.004042,
1220,2000,0.001626,-0.105701,0.999999,0.000132,-0.000152,0.003040,-0.000019,0.003040,-0.000152,-89.664757,0.003426,
1300,1220,-0.179536,-2.589535,0.999996,0.000241,-0.002230,0.001880,-0.001123,0.002166,-0.002517,-75.671226,0.002726,
1550,320,-0.391080,-8.913432,0.999998,0.000162,-0.001612,0.004387,-0.000061,0.004387,-0.001612,-89.420281,0.004438,
970,1800,0.239677,-0.847301,0.999998,0.000158,-0.001309,0.003985,-0.000151,0.003989,-0.001314,-88.364931,0.004066,
1330,1200,-0.343072,-2.846582,0.999997,0.000209,-0.002059,0.002481,-0.001454,0.002907,-0.002485,-73.678171,0.003142,
1160,790,0.104480,-7.566010,0.999998,0.000188,-0.001861,0.002288,-0.001859,0.003000,-0.002572,-69.064924,0.003245,
1130,1680,0.114302,-1.206547,0.999998,0.000150,-0.001272,0.003726,0.000207,0.003734,-0.001280,87.634612,0.003795,
1600,630,-0.830215,-7.312497,0.999997,0.000194,-0.002982,0.005475,0.000252,0.005482,-0.002989,88.293431,0.005490,
1570,1650,-0.519057,-1.580652,0.999997,0.000202,-0.002129,0.004713,-0.000203,0.004719,-0.002135,-88.304887,0.004727,
670,270,0.810754,-8.847332,0.999998,0.000178,-0.002365,0.005056,0.000227,0.005063,-0.002372,88.250588,0.005066,
1000,1500,0.388724,-2.100349,0.999997,0.000199,-0.002305,0.004588,0.000753,0.004669,-0.002387,83.835188,0.004669,
1150,190,0.043737,-9.539927,0.999998,0.000168,-0.000557,0.003369,0.000082,0.003371,-0.000559,88.801038,0.003614,
1200,1580,0.040820,-1.531326,0.999998,0.000145,-0.001224,0.003497,0.000168,0.003503,-0.001230,87.967241,0.003554,
1280,1490,-0.060315,-1.844153,0.999998,0.000141,-0.001320,0.003286,-0.000363,0.003315,-0.001349,-85.517248,0.003334,
1450,250,-0.190078,-9.276200,0.999998,0.000172,-0.001036,0.003857,-0.000139,0.003861,-0.001040,-88.371091,0.003995,
1120,290,0.102854,-9.179930,0.999998,0.000162,-0.000990,0.003597,-0.000053,0.003597,-0.000990,-89.340346,0.003716,
1620,1770,-0.472248,-1.083152,0.999998,0.000188,-0.001757,0.004591,0.000262,0.004602,-0.001768,87.638449,0.004643,
1250,150,-0.008614,-9.677522,0.999998,0.000173,-0.000428,0.003241,-0.000012,0.003242,-0.000428,-89.817810,0.003522,
700,1900,0.458120,-0.611667,0.999997,0.000213,-0.002072,0.004934,-0.000861,0.005038,-0.002176,-83.098687,0.005053,
1480,1410,-0.487722,-2.578237,0.999997,0.000180,-0.002933,0.005156,-0.000922,0.005260,-0.003036,-83.576819,0.005281,
1520,110,-0.102995,-9.773357,0.999999,0.000151,-0.000551,0.003616,-0.000528,0.003682,-0.000617,-82.890813,0.003944,
890,1330,0.889888,-3.253374,0.999998,0.000186,-0.003335,0.005924,0.000116,0.005925,-0.003336,89.279772,0.005941,
1610,1140,-1.416822,-4.432197,0.999998,0.000201,-0.002499,0.005634,0.000701,0.005694,-0.002559,85.107614,0.005704,
1700,340,-0.718557,-8.635407,0.999997,0.000181,-0.002200,0.004949,-0.000087,0.004950,-0.002201,-89.301018,0.004960,
1090,1190,0.486597,-3.275703,0.999995,0.000245,-0.002844,0.004661,0.002275,0.005297,-0.003480,74.383244,0.005383,
1420,1110,-0.979480,-4.203468,0.999992,0.000336,-0.003391,0.008097,-0.001958,0.008422,-0.003715,-80.589960,0.008441,
1610,1330,-1.011379,-3.323194,0.999997,0.000184,-0.003220,0.005805,0.000057,0.005806,-0.003220,89.637489,0.005817,
1510,600,-0.538052,-7.659578,0.999997,0.000214,-0.002779,0.005086,0.000720,0.005152,-0.002844,84.810673,0.005161,
1050,270,0.160964,-9.223576,0.999998,0.000153,-0.001157,0.003735,0.000003,0.003735,-0.001157,89.961702,0.003824,
790,910,1.562534,-5.643953,0.999997,0.000211,-0.002401,0.005350,0.000634,0.005401,-0.002453,85.358126,0.005409,
1740,750,-1.444595,-6.448247,0.999997,0.000214,-0.002729,0.005332,-0.000385,0.005350,-0.002747,-87.272327,0.005351,
660,1170,1.838153,-4.370542,0.999997,0.000203,-0.002326,0.004806,-0.000375,0.004826,-0.002346,-87.001868,0.004827,
840,810,1.224989,-6.241615,0.999997,0.000184,-0.003085,0.005836,0.000508,0.005865,-0.003113,86.754264,0.005869,
1350,720,-0.171883,-7.579165,0.999997,0.000220,-0.002284,0.003719,0.001803,0.004219,-0.002784,74.499808,0.004290,
640,820,1.783758,-6.008713,0.999998,0.000168,-0.002390,0.004817,0.000347,0.004833,-0.002406,87.253187,0.004833,
1000,1750,0.247162,-1.028287,0.999998,0.000140,-0.001220,0.003979,-0.000042,0.003980,-0.001220,-89.534374,0.004078,
1250,580,-0.022918,-8.202113,0.999999,0.000158,-0.001228,0.003135,0.000228,0.003147,-0.001239,87.010185,0.003171,
960,1160,1.067588,-4.176304,0.999998,0.000200,-0.003245,0.006693,-0.000470,0.006715,-0.003267,-87.295944,0.006716,
1140,50,0.007200,-9.987278,0.999999,0.000150,-0.000111,0.003031,0.000106,0.003035,-0.000114,88.060943,0.003440,
1200,1220,0.097263,-2.424296,0.999997,0.000188,-0.002887,0.001452,0.000251,0.001467,-0.002902,86.697963,0.002902,
1150,240,0.058690,-9.369171,0.999998,0.000147,-0.000754,0.003467,0.000032,0.003467,-0.000754,89.567908,0.003647,
810,260,0.488323,-9.081750,0.999997,0.000203,-0.001873,0.004627,0.000350,0.004646,-0.001891,86.926618,0.004673,
580,1860,0.848890,-1.034568,0.999998,0.000152,-0.002538,0.004915,-0.000281,0.004925,-0.002548,-87.840516,0.004926,
1800,340,-0.954730,-8.483559,0.999998,0.000164,-0.002439,0.005030,0.000007,0.005030,-0.002439,89.943069,0.005030,
1420,650,-0.323463,-7.643270,0.999997,0.000191,-0.002638,0.004612,0.001228,0.004815,-0.002841,80.642897,0.004841,
750,1760,0.675806,-1.239915,0.999998,0.000178,-0.002116,0.004940,-0.000259,0.004950,-0.002126,-87.901820,0.004966,
1000,1480,0.398987,-2.193823,0.999997,0.000198,-0.002447,0.004695,0.000833,0.004791,-0.002543,83.434973,0.004794,
1140,1880,0.045148,-0.490697,0.999998,0.000163,-0.000574,0.003361,-0.000081,0.003362,-0.000576,-88.826131,0.003596,
900,610,0.698602,-7.494456,0.999997,0.000218,-0.002934,0.005305,-0.000475,0.005332,-0.002961,-86.708915,0.005343,
1070,900,0.713512,-6.439424,0.999995,0.000272,-0.002694,0.005837,-0.002631,0.006583,-0.003440,-74.167313,0.006585,
700,1880,0.515660,-0.709911,0.999997,0.000214,-0.002168,0.004935,-0.000738,0.005011,-0.002244,-84.127655,0.005020,
670,250,0.770366,-8.948631,0.999998,0.000186,-0.002336,0.005074,0.000339,0.005089,-0.002351,87.383651,0.005094,
1280,1470,-0.059743,-1.908425,0.999999,0.000147,-0.001334,0.003179,-0.000407,0.003216,-0.001371,-84.888549,0.003227,
1580,110,-0.138269,-9.761341,0.999999,0.000137,-0.000748,0.003750,-0.000644,0.003841,-0.000838,-82.008943,0.004039,
570,850,1.990846,-5.788344,0.999998,0.000159,-0.002233,0.004507,0.000084,0.004508,-0.002234,89.283197,0.004508,
890,570,0.683380,-7.686322,0.999997,0.000210,-0.002743,0.005201,-0.000443,0.005225,-0.002768,-86.816794,0.005228,
1350,690,-0.164352,-7.693012,0.999998,0.000172,-0.002067,0.003645,0.001527,0.004028,-0.002449,75.932049,0.004059,
1050,250,0.148240,-9.296770,0.999998,0.000155,-0.001052,0.003703,0.000047,0.003704,-0.001053,89.438210,0.003817,
1320,1670,-0.099740,-1.232276,0.999998,0.000152,-0.001242,0.003657,-0.000201,0.003665,-0.001251,-87.654819,0.003726,
960,2000,0.035567,-0.114970,0.999998,0.000146,-0.000270,0.003236,-0.000441,0.003291,-0.000324,-82.945595,0.003627,
1300,1420,-0.084647,-2.090867,0.999998,0.000159,-0.001400,0.003067,-0.000812,0.003210,-0.001543,-80.010660,0.003211,
1530,540,-0.542732,-7.920322,0.999996,0.000227,-0.002501,0.004904,0.000533,0.004942,-0.002539,85.904737,0.004943,
1450,230,-0.170132,-9.354796,0.999998,0.000182,-0.000934,0.003783,-0.000166,0.003789,-0.000940,-87.985765,0.003946,
1480,1390,-0.503957,-2.684054,0.999997,0.000176,-0.003039,0.005302,-0.000951,0.005409,-0.003146,-83.574965,0.005433,
1610,1310,-1.047204,-3.438420,0.999997,0.000217,-0.003229,0.005828,0.000160,0.005831,-0.003232,88.990504,0.005842,
640,780,1.715023,-6.205540,0.999998,0.000171,-0.002483,0.004975,0.000334,0.004990,-0.002498,87.440703,0.004990,
1740,730,-1.408622,-6.554370,0.999997,0.000213,-0.002765,0.005310,-0.000336,0.005323,-0.002779,-87.624192,0.005325,
1250,130,-0.006529,-9.741437,0.999998,0.000159,-0.000364,0.003173,-0.000008,0.003173,-0.000364,-89.877431,0.003473,
1590,1140,-1.366054,-4.419558,0.999998,0.000195,-0.002523,0.005742,0.000690,0.005799,-0.002580,85.257682,0.005811,
1840,1850,-0.768828,-0.984005,0.999998,0.000193,-0.002442,0.005101,0.000233,0.005108,-0.002449,88.229727,0.005110,
840,790,1.181718,-6.357857,0.999997,0.000194,-0.003134,0.005826,0.000419,0.005846,-0.003153,87.325921,0.005852,
1740,1520,-1.089334,-2.495271,0.999997,0.000177,-0.002599,0.005204,-0.000067,0.005205,-0.002599,-89.506434,0.005205,
1090,1170,0.588728,-3.355852,0.999996,0.000224,-0.002165,0.004359,0.002504,0.005209,-0.003016,71.244887,0.005230,
1700,320,-0.688798,-8.736269,0.999997,0.000190,-0.002181,0.004925,-0.000115,0.004927,-0.002183,-89.069342,0.004937,
1470,1620,-0.343997,-1.579354,0.999997,0.000194,-0.001884,0.004354,-0.000415,0.004381,-0.001912,-86.208458,0.004393,
1070,480,0.224557,-8.416907,0.999997,0.000209,-0.001720,0.004024,-0.000576,0.004081,-0.001777,-84.331539,0.004093,
920,640,0.671999,-7.375150,0.999997,0.000203,-0.003020,0.005422,-0.000551,0.005458,-0.003055,-86.280806,0.005471,
1330,50,-0.008888,-9.988044,0.999999,0.000120,-0.000126,0.003023,-0.000119,0.003028,-0.000130,-87.838782,0.003424,
1800,320,-0.922709,-8.581067,0.999998,0.000158,-0.002415,0.005025,-0.000044,0.005025,-0.002415,-89.662325,0.005026,
1550,1400,-0.710104,-2.802583,0.999997,0.000200,-0.003126,0.005532,-0.000487,0.005560,-0.003153,-86.792531,0.005576,
1140,1840,0.057261,-0.626947,0.999998,0.000173,-0.000744,0.003429,-0.000022,0.003429,-0.000744,-89.703987,0.003607,
730,1400,1.254354,-3.117184,0.999998,0.000169,-0.002758,0.005300,-0.000131,0.005302,-0.002760,-89.068460,0.005304,
830,240,0.421136,-9.190249,0.999997,0.000207,-0.001546,0.004536,0.000457,0.004570,-0.001580,85.726123,0.004642,
670,230,0.723597,-9.051016,0.999998,0.000186,-0.002265,0.005049,0.000437,0.005075,-0.002291,86.596279,0.005083,
1000,1460,0.410880,-2.289238,0.999997,0.000199,-0.002552,0.004790,0.000878,0.004894,-0.002655,83.278344,0.004899,
1490,510,-0.425380,-8.136926,0.999997,0.000197,-0.002273,0.004621,0.000583,0.004670,-0.002322,85.199666,0.004670,
1570,1870,-0.241857,-0.608306,0.999998,0.000187,-0.001160,0.004054,0.000491,0.004100,-0.001206,84.666593,0.004214,
1240,530,-0.010984,-8.368537,0.999998,0.000171,-0.001283,0.003315,0.000112,0.003318,-0.001286,88.609070,0.003346,
1620,450,-0.677989,-8.209894,0.999998,0.000198,-0.002381,0.004926,0.000207,0.004931,-0.002386,88.381390,0.004932,
1200,1560,0.038903,-1.603515,0.999998,0.000150,-0.001247,0.003469,0.000188,0.003477,-0.001254,87.718673,0.003521,
1410,300,-0.174387,-9.110164,0.999998,0.000153,-0.001243,0.003814,0.000066,0.003815,-0.001243,89.247552,0.003891,
1730,1160,-1.678832,-4.383023,0.999997,0.000186,-0.002426,0.005109,0.000527,0.005146,-0.002462,86.017888,0.005147,
1400,1660,-0.207489,-1.331109,0.999998,0.000176,-0.001523,0.003932,-0.000322,0.003951,-0.001542,-86.635523,0.003983,
760,1930,0.283536,-0.425884,0.999997,0.000204,-0.001090,0.004407,-0.001135,0.004632,-0.001315,-78.779924,0.004774,
790,890,1.528950,-5.751644,0.999997,0.000219,-0.002525,0.005350,0.000647,0.005403,-0.002577,85.337184,0.005405,
1840,150,-0.603651,-9.381717,0.999998,0.000173,-0.002431,0.005213,-0.000500,0.005246,-0.002464,-86.276667,0.005249,
570,840,1.974977,-5.834266,0.999998,0.000153,-0.002275,0.004580,0.000072,0.004581,-0.002275,89.400193,0.004581,
890,1310,0.927662,-3.372030,0.999998,0.000197,-0.003382,0.006015,0.000037,0.006015,-0.003383,89.776314,0.006031,
1420,110,-0.058740,-9.790322,0.999999,0.000146,-0.000441,0.003343,-0.000266,0.003362,-0.000459,-85.994274,0.003646,
1210,1800,0.017201,-0.755392,0.999998,0.000172,-0.000805,0.003448,0.000029,0.003448,-0.000805,89.603806,0.003608,
1420,1080,-1.063895,-4.474626,0.999995,0.000251,-0.003956,0.009779,-0.001959,0.010053,-0.004230,-82.038670,0.010095,
640,760,1.678732,-6.306066,0.999998,0.000163,-0.002500,0.004989,0.000303,0.005001,-0.002512,87.688410,0.005001,
930,1560,0.516058,-1.949513,0.999997,0.000214,-0.002302,0.004750,0.000434,0.004777,-0.002329,86.492055,0.004777,
1050,230,0.135476,-9.371632,0.999998,0.000173,-0.000961,0.003684,0.000077,0.003686,-0.000962,89.056297,0.003823,
1610,1730,-0.507658,-1.255308,0.999997,0.000188,-0.001924,0.004694,0.000097,0.004695,-0.001926,89.156870,0.004720,
690,1020,1.879301,-5.076420,0.999998,0.000155,-0.002163,0.004793,0.000068,0.004794,-0.002164,89.437754,0.004801,
1740,980,-1.791142,-5.272912,0.999998,0.000152,-0.002191,0.004841,-0.000182,0.004846,-0.002195,-88.516493,0.004853,
1250,110,-0.005700,-9.804274,0.999999,0.000146,-0.000323,0.003154,-0.000017,0.003154,-0.000323,-89.722941,0.003470,
1880,1180,-1.996472,-4.386172,0.999998,0.000185,-0.002192,0.004374,0.000073,0.004375,-0.002193,89.366914,0.004375,
610,180,0.730771,-9.191928,0.999998,0.000183,-0.002429,0.005129,0.000334,0.005143,-0.002444,87.476092,0.005145,
1570,1630,-0.537946,-1.675171,0.999997,0.000217,-0.002158,0.004719,-0.000212,0.004726,-0.002164,-88.235326,0.004731,
1450,210,-0.157114,-9.427608,0.999998,0.000188,-0.000858,0.003730,-0.000215,0.003740,-0.000868,-87.322518,0.003915,
1880,730,-1.767210,-6.375744,0.999998,0.000194,-0.002435,0.004903,-0.000109,0.004904,-0.002436,-89.152787,0.004904,
1200,1540,0.039215,-1.671022,0.999998,0.000159,-0.001260,0.003382,0.000192,0.003390,-0.001268,87.640769,0.003425,
1710,820,-1.495086,-6.101986,0.999996,0.000235,-0.002732,0.005314,-0.000570,0.005354,-0.002772,-85.966902,0.005356,
560,1820,1.000050,-1.274790,0.999998,0.000000,-0.002423,0.004888,0.000007,0.004888,-0.002423,89.942828,0.004888,
850,490,0.704758,-8.021454,0.999998,0.000170,-0.002488,0.004999,-0.000286,0.005010,-0.002499,-87.815427,0.005010,
1350,670,-0.163345,-7.762293,0.999998,0.000181,-0.001974,0.003698,0.001383,0.004017,-0.002293,77.004873,0.004030,
1690,380,-0.755788,-8.453548,0.999998,0.000164,-0.002290,0.004936,0.000050,0.004936,-0.002290,89.606303,0.004941,
1130,240,0.075107,-9.363509,0.999998,0.000160,-0.000819,0.003503,0.000010,0.003503,-0.000819,89.866328,0.003664,
1610,1840,-0.346394,-0.762215,0.999997,0.000228,-0.001440,0.004336,0.000460,0.004373,-0.001477,85.472211,0.004449,
810,320,0.584810,-8.798351,0.999998,0.000198,-0.002124,0.004801,0.000090,0.004802,-0.002125,89.258489,0.004813,
1310,770,-0.103348,-7.584542,0.999997,0.000199,-0.001831,0.002594,0.001884,0.003288,-0.002524,69.796613,0.003441,
1870,1530,-1.409216,-2.652054,0.999997,0.000198,-0.002530,0.005112,-0.000021,0.005112,-0.002530,-89.841222,0.005112,
1830,1110,-1.964474,-4.666002,0.999998,0.000173,-0.002163,0.004618,0.000254,0.004628,-0.002172,87.855511,0.004631,
1870,1660,-1.216088,-1.993567,0.999998,0.000141,-0.002458,0.004987,-0.000060,0.004988,-0.002458,-89.536878,0.004988,
670,210,0.675903,-9.150837,0.999998,0.000185,-0.002217,0.005100,0.000569,0.005144,-0.002261,85.581002,0.005156,
630,2010,0.142482,-0.135060,0.999998,0.000168,-0.001896,0.004559,-0.001456,0.004872,-0.002209,-77.856495,0.004879,
1660,990,-1.627277,-5.231828,0.999997,0.000183,-0.002062,0.005078,-0.000221,0.005084,-0.002069,-88.227833,0.005114,
1220,530,0.015078,-8.367922,0.999999,0.000131,-0.001266,0.003316,-0.000125,0.003319,-0.001269,-88.433271,0.003349,
1800,300,-0.886343,-8.683587,0.999998,0.000173,-0.002383,0.005110,-0.000135,0.005112,-0.002385,-88.971476,0.005116,
700,1860,0.570595,-0.810119,0.999997,0.000190,-0.002267,0.004993,-0.000568,0.005037,-0.002311,-85.552708,0.005043,
1810,1580,-1.184475,-2.300349,0.999998,0.000157,-0.002512,0.005088,-0.000063,0.005089,-0.002513,-89.521999,0.005089,
770,980,1.691076,-5.277335,0.999997,0.000195,-0.002146,0.005025,0.000221,0.005032,-0.002153,88.240005,0.005049,
1610,1750,-0.482312,-1.163180,0.999998,0.000183,-0.001864,0.004540,0.000130,0.004542,-0.001866,88.840784,0.004566,
930,440,0.471198,-8.390828,0.999998,0.000201,-0.002160,0.004612,-0.000350,0.004630,-0.002178,-87.052553,0.004633,
1270,1620,-0.047942,-1.394547,0.999998,0.000189,-0.001220,0.003563,-0.000095,0.003565,-0.001222,-88.864351,0.003623,
1530,970,-1.343570,-5.381128,0.999998,0.000180,-0.002121,0.006051,-0.000525,0.006085,-0.002155,-86.341196,0.006170,
1740,960,-1.778546,-5.369605,0.999998,0.000175,-0.002219,0.004929,-0.000319,0.004943,-0.002233,-87.450591,0.004951,
1350,640,-0.165777,-7.872818,0.999998,0.000186,-0.001873,0.003660,0.001173,0.003898,-0.002112,78.513313,0.003902,
710,1480,1.181894,-2.726248,0.999998,0.000175,-0.002668,0.005208,0.000020,0.005208,-0.002668,89.856646,0.005208,
1320,50,-0.007745,-9.988128,0.999999,0.000123,-0.000105,0.003008,-0.000105,0.003012,-0.000109,-88.067538,0.003417,
1290,1880,-0.031222,-0.488074,0.999998,0.000161,-0.000469,0.003308,0.000062,0.003309,-0.000470,89.052706,0.003581,
1430,800,-0.507659,-6.814978,0.999996,0.000266,-0.003847,0.006030,0.001328,0.006206,-0.004023,82.475391,0.006296,
790,870,1.492025,-5.857016,0.999997,0.000207,-0.002627,0.005373,0.000628,0.005422,-0.002676,85.538170,0.005422,
950,2000,0.037437,-0.116199,0.999998,0.000145,-0.000242,0.003277,-0.000482,0.003342,-0.000307,-82.346981,0.003694,
1090,870,0.508135,-6.783025,0.999996,0.000243,-0.002692,0.004510,-0.002264,0.005162,-0.003345,-73.918710,0.005237,
1410,1100,-0.973621,-4.206841,0.999993,0.000324,-0.003531,0.008915,-0.002935,0.009572,-0.004188,-77.374425,0.009597,
1050,210,0.122821,-9.444257,0.999998,0.000174,-0.000879,0.003603,0.000110,0.003606,-0.000881,88.596453,0.003760,
1420,630,-0.316203,-7.734760,0.999997,0.000200,-0.002458,0.004456,0.001114,0.004631,-0.002633,81.065969,0.004645,
960,1140,1.131220,-4.309897,0.999998,0.000203,-0.003001,0.006639,-0.000562,0.006672,-0.003034,-86.674709,0.006681,
1140,1820,0.063295,-0.696626,0.999998,0.000162,-0.000796,0.003448,-0.000013,0.003448,-0.000796,-89.823561,0.003611,
1880,1070,-2.092759,-4.859760,0.999999,0.000142,-0.002031,0.004142,0.000040,0.004142,-0.002031,89.626427,0.004142,
1660,1380,-1.077882,-3.119108,0.999998,0.000182,-0.002997,0.005518,0.000063,0.005518,-0.002997,89.574579,0.005525,
1660,190,-0.369463,-9.396681,0.999997,0.000197,-0.001580,0.004483,-0.000629,0.004548,-0.001645,-84.140157,0.004605,
1730,1400,-1.246138,-3.112536,0.999997,0.000180,-0.002756,0.005308,0.000130,0.005310,-0.002758,89.079809,0.005311,
570,340,1.179831,-8.317099,0.999974,0.000580,-0.002206,0.004922,-0.000076,0.004923,-0.002207,-89.389543,0.004932,
570,830,1.959728,-5.881055,0.999998,0.000170,-0.002287,0.004627,0.000060,0.004628,-0.002288,89.502573,0.004628,
950,1060,1.347277,-4.839757,0.999997,0.000213,-0.001944,0.006271,-0.000332,0.006285,-0.001957,-87.692327,0.006432,
1700,300,-0.657111,-8.833262,0.999997,0.000202,-0.002142,0.004891,-0.000197,0.004896,-0.002148,-88.395435,0.004909,
560,1800,1.039257,-1.371892,0.999997,0.000000,-0.002318,0.004771,0.000030,0.004771,-0.002318,89.759337,0.004772,
1250,90,-0.004025,-9.866884,0.999998,0.000149,-0.000250,0.003057,-0.000015,0.003057,-0.000250,-89.740470,0.003395,
740,430,0.902650,-8.149342,0.999999,0.000151,-0.002463,0.005050,-0.000121,0.005052,-0.002465,-89.079033,0.005052,
1870,730,-1.742459,-6.390872,0.999997,0.000189,-0.002443,0.004907,-0.000125,0.004909,-0.002445,-89.028284,0.004909,
1000,1440,0.421262,-2.389150,0.999997,0.000200,-0.002636,0.004847,0.000931,0.004962,-0.002750,83.013763,0.004971,
1690,360,-0.726387,-8.550053,0.999998,0.000159,-0.002241,0.004904,-0.000034,0.004904,-0.002241,-89.731089,0.004910,
930,1740,0.358557,-1.127905,0.999998,0.000183,-0.001543,0.004307,-0.000044,0.004308,-0.001544,-89.572253,0.004365,
1250,240,-0.014707,-9.376144,0.999998,0.000145,-0.000756,0.003411,0.000019,0.003411,-0.000757,89.743245,0.003583,
750,330,0.731709,-8.668131,0.999997,0.000187,-0.002223,0.004934,0.000105,0.004936,-0.002224,89.160447,0.004944,
920,620,0.649399,-7.482757,0.999997,0.000212,-0.002937,0.005318,-0.000547,0.005354,-0.002973,-86.226888,0.005365,
1350,650,-0.165460,-7.837456,0.999998,0.000191,-0.001894,0.003697,0.001247,0.003963,-0.002160,77.976890,0.003968,
640,740,1.644299,-6.402835,0.999997,0.000179,-0.002519,0.004982,0.000278,0.004992,-0.002529,87.877241,0.004992,
1800,280,-0.847519,-8.785370,0.999998,0.000169,-0.002347,0.005055,-0.000190,0.005060,-0.002352,-88.532067,0.005064,
1830,1090,-1.981851,-4.758764,0.999998,0.000157,-0.002136,0.004499,0.000122,0.004501,-0.002138,88.946675,0.004503,
1160,550,0.093654,-8.265862,0.999999,0.000124,-0.001449,0.003407,-0.000533,0.003465,-0.001507,-83.808640,0.003475,
810,300,0.554195,-8.893958,0.999998,0.000194,-0.002033,0.004701,0.000187,0.004707,-0.002038,88.414329,0.004721,
630,2000,0.186349,-0.180207,0.999998,0.000177,-0.001961,0.004791,-0.001426,0.005080,-0.002250,-78.551993,0.005091,
670,190,0.621025,-9.255113,0.999998,0.000190,-0.002134,0.005090,0.000703,0.005157,-0.002202,84.489166,0.005176,
1310,790,-0.117543,-7.535886,0.999997,0.000194,-0.001957,0.002551,0.001972,0.003292,-0.002698,69.409499,0.003509,
670,1800,0.778766,-1.156498,0.999998,0.000202,-0.002319,0.005062,-0.000308,0.005075,-0.002332,-87.613519,0.005080,
1640,990,-1.587350,-5.233666,0.999997,0.000184,-0.002007,0.005160,-0.000250,0.005169,-0.002016,-88.005255,0.005210,
1370,1360,-0.212074,-2.477292,0.999998,0.000181,-0.002365,0.004057,-0.001599,0.004433,-0.002741,-76.763024,0.004474,
1250,1620,-0.022504,-1.389040,0.999998,0.000147,-0.001200,0.003558,-0.000105,0.003560,-0.001203,-88.735901,0.003622,
1400,880,-0.644076,-6.496686,0.999995,0.000254,-0.003373,0.006115,0.001825,0.006454,-0.003712,79.481853,0.006478,
1190,440,0.050925,-8.667047,0.999998,0.000200,-0.001189,0.003556,-0.000126,0.003559,-0.001192,-88.476939,0.003624,
1490,530,-0.437955,-8.041359,0.999998,0.000194,-0.002381,0.004687,0.000645,0.004745,-0.002440,84.824556,0.004746,
890,1270,1.007199,-3.614748,0.999997,0.000192,-0.003394,0.006082,-0.000204,0.006087,-0.003398,-88.766811,0.006101,
1360,50,-0.013477,-9.986023,0.999999,0.000129,-0.000088,0.003044,-0.000158,0.003052,-0.000096,-87.112141,0.003470,
1370,2000,-0.014941,-0.109347,0.999999,0.000138,-0.000098,0.003073,0.000184,0.003084,-0.000108,86.687410,0.003500,
1280,840,-0.157697,-7.587542,0.999998,0.000175,-0.002752,0.001557,0.000338,0.001583,-0.002778,85.543857,0.002787,
1790,1800,-0.772282,-1.152601,0.999998,0.000215,-0.002346,0.005064,0.000323,0.005078,-0.002360,87.508650,0.005082,
1730,1380,-1.280667,-3.219728,0.999997,0.000196,-0.002795,0.005334,0.000184,0.005338,-0.002799,88.705471,0.005340,
1530,990,-1.377954,-5.258820,0.999998,0.000186,-0.001922,0.006055,-0.000386,0.006074,-0.001941,-87.239283,0.006204,
570,670,1.704195,-6.656968,0.999836,0.001538,-0.003354,0.005042,0.000091,0.005043,-0.003355,89.376352,0.005134,
1660,1360,-1.112121,-3.228452,0.999998,0.000190,-0.003028,0.005571,0.000127,0.005573,-0.003030,89.151637,0.005580,
850,1480,0.800005,-2.495952,0.999997,0.000202,-0.002778,0.005259,0.000294,0.005270,-0.002789,87.906013,0.005273,
1730,1140,-1.706480,-4.484173,0.999998,0.000175,-0.002350,0.004972,0.000431,0.004997,-0.002376,86.644616,0.004999,
1410,1090,-1.001009,-4.297261,0.999994,0.000273,-0.003765,0.009681,-0.002912,0.010285,-0.004369,-78.289758,0.010324,
1090,850,0.433073,-6.880301,0.999996,0.000239,-0.003198,0.004901,-0.002223,0.005471,-0.003768,-75.617076,0.005599,
1050,190,0.109498,-9.516626,0.999998,0.000166,-0.000819,0.003557,0.000176,0.003564,-0.000826,87.699714,0.003731,
610,1060,2.040824,-4.895539,0.999999,0.000142,-0.002103,0.004347,-0.000115,0.004349,-0.002105,-88.981881,0.004350,
930,1060,1.386590,-4.850987,0.999998,0.000190,-0.001912,0.005965,-0.000331,0.005979,-0.001926,-87.594728,0.006104,
560,1790,1.061364,-1.419752,0.999996,0.000000,-0.002269,0.004753,-0.000012,0.004753,-0.002269,-89.898673,0.004754,
1640,190,-0.340853,-9.410353,0.999997,0.000234,-0.001289,0.004393,-0.000666,0.004470,-0.001366,-83.399306,0.004581,
960,1120,1.194053,-4.444127,0.999997,0.000196,-0.002710,0.006582,-0.000571,0.006617,-0.002745,-86.496146,0.006649,
1830,680,-1.555955,-6.699239,0.999997,0.000210,-0.002557,0.005069,-0.000177,0.005073,-0.002561,-88.672018,0.005073,
1140,1800,0.071126,-0.764828,0.999998,0.000149,-0.000845,0.003509,0.000017,0.003509,-0.000845,89.781986,0.003663,
1670,380,-0.708567,-8.481361,0.999997,0.000195,-0.002321,0.004934,0.000061,0.004934,-0.002321,89.519368,0.004937,
1250,70,-0.003491,-9.926833,0.999999,0.000141,-0.000179,0.003041,-0.000029,0.003041,-0.000179,-89.476818,0.003413,
930,1720,0.378098,-1.218004,0.999997,0.000211,-0.001564,0.004437,-0.000031,0.004437,-0.001565,-89.704462,0.004501,
1610,200,-0.321398,-9.383114,0.999997,0.000203,-0.001364,0.004318,-0.000546,0.004370,-0.001416,-84.559804,0.004459,
1350,630,-0.167131,-7.908243,0.999998,0.000184,-0.001843,0.003624,0.001107,0.003840,-0.002058,78.971357,0.003843,
640,720,1.606852,-6.504983,0.999997,0.000201,-0.002538,0.005060,0.000229,0.005066,-0.002545,88.277404,0.005066,
1640,970,-1.571200,-5.336501,0.999996,0.000209,-0.002096,0.005259,-0.000462,0.005288,-0.002125,-86.422948,0.005322,
1800,260,-0.807225,-8.886178,0.999998,0.000174,-0.002302,0.005042,-0.000297,0.005054,-0.002314,-87.685893,0.005060,
1290,240,-0.041831,-9.372513,0.999999,0.000128,-0.000668,0.003419,-0.000045,0.003420,-0.000669,-89.369980,0.003625,
1260,590,-0.034396,-8.166404,0.999998,0.000173,-0.001225,0.003095,0.000266,0.003111,-0.001241,86.492249,0.003132,
1830,1070,-1.987965,-4.847797,0.999998,0.000175,-0.002107,0.004475,0.000085,0.004476,-0.002108,89.256938,0.004478,
1080,830,0.400467,-6.908525,0.999996,0.000221,-0.003502,0.005264,-0.001978,0.005689,-0.003928,-77.852791,0.005825,
920,600,0.629124,-7.589944,0.999997,0.000221,-0.002808,0.005219,-0.000569,0.005259,-0.002848,-85.967922,0.005265,
1760,1990,-0.162490,-0.190252,0.999998,0.000176,-0.000968,0.004388,0.001572,0.004815,-0.001395,74.793601,0.004955,
1490,550,-0.451918,-7.946025,0.999997,0.000196,-0.002433,0.004745,0.000683,0.004810,-0.002498,84.613811,0.004811,
890,1250,1.053168,-3.737918,0.999997,0.000188,-0.003360,0.006153,-0.000344,0.006165,-0.003373,-87.929331,0.006174,
790,850,1.453275,-5.969354,0.999997,0.000207,-0.002716,0.005493,0.000632,0.005541,-0.002764,85.624957,0.005541,
1350,1460,-0.165597,-2.040628,0.999998,0.000179,-0.001781,0.003711,-0.000949,0.003871,-0.001940,-80.467177,0.003871,
1310,810,-0.142179,-7.484687,0.999997,0.000194,-0.002175,0.002419,0.001885,0.003093,-0.002849,70.316256,0.003439,
1770,1800,-0.725450,-1.120560,0.999998,0.000179,-0.002352,0.005030,0.000284,0.005041,-0.002363,87.802261,0.005044,
670,170,0.565279,-9.354020,0.999997,0.000204,-0.002047,0.005110,0.000878,0.005216,-0.002154,83.107140,0.005243,
1070,460,0.220552,-8.497282,0.999998,0.000173,-0.001704,0.003997,-0.000508,0.004042,-0.001749,-84.945030,0.004054,
1660,1340,-1.149545,-3.341383,0.999998,0.000175,-0.003054,0.005626,0.000188,0.005630,-0.003058,88.759477,0.005637,
1280,790,-0.065086,-7.660485,0.999997,0.000198,-0.001568,0.001685,0.001375,0.002188,-0.002071,69.898968,0.002462,
1400,1390,-0.277584,-2.445173,0.999998,0.000162,-0.002484,0.004418,-0.001380,0.004683,-0.002750,-79.105656,0.004707,
1700,280,-0.621189,-8.931190,0.999997,0.000188,-0.002088,0.004872,-0.000293,0.004885,-0.002101,-87.591554,0.004900,
560,1780,1.082836,-1.465428,0.999993,0.000000,-0.002267,0.004747,-0.000020,0.004747,-0.002267,-89.838113,0.004749,
740,410,0.876047,-8.249609,0.999998,0.000185,-0.002439,0.005070,-0.000073,0.005071,-0.002440,-89.444798,0.005072,
1710,1400,-1.191015,-3.084396,0.999998,0.000188,-0.002817,0.005347,0.000111,0.005349,-0.002819,89.218919,0.005351,
1480,510,-0.403698,-8.153829,0.999998,0.000191,-0.002166,0.004557,0.000581,0.004607,-0.002216,85.100199,0.004608,
1360,2000,-0.013459,-0.108519,0.999999,0.000144,-0.000102,0.003065,0.000172,0.003075,-0.000112,86.900357,0.003487,
570,980,2.114305,-5.234035,0.999992,0.000326,-0.001743,0.004101,-0.000084,0.004102,-0.001744,-89.180422,0.004117,
1090,830,0.364825,-6.982362,0.999997,0.000222,-0.003397,0.004918,-0.002147,0.005440,-0.003919,-76.340927,0.005613,
650,1800,0.825513,-1.189257,0.999998,0.000155,-0.002365,0.005096,-0.000263,0.005105,-0.002375,-87.987592,0.005109,
960,1100,1.248857,-4.572825,0.999997,0.000203,-0.002409,0.006517,-0.000547,0.006551,-0.002442,-86.505172,0.006621,
1140,1780,0.076266,-0.836712,0.999998,0.000145,-0.000913,0.003557,0.000045,0.003558,-0.000914,89.422174,0.003696,
1740,570,-1.141030,-7.400085,0.999998,0.000180,-0.002680,0.005210,0.000047,0.005211,-0.002680,89.661279,0.005211,
1000,1420,0.430192,-2.484111,0.999996,0.000216,-0.002746,0.004905,0.000974,0.005027,-0.002868,82.859263,0.005044,
830,1480,0.855308,-2.530223,0.999998,0.000179,-0.002802,0.005303,0.000231,0.005310,-0.002808,88.369553,0.005313,
1270,1800,-0.030911,-0.757797,0.999998,0.000156,-0.000775,0.003457,0.000016,0.003457,-0.000775,89.780612,0.003628,
700,1170,1.742511,-4.347345,0.999998,0.000188,-0.002418,0.004968,-0.000487,0.005000,-0.002450,-86.241654,0.005000,
1350,610,-0.166497,-7.982807,0.999998,0.000168,-0.001807,0.003667,0.001010,0.003847,-0.001987,79.875031,0.003848,
1530,1430,-0.616025,-2.594282,0.999997,0.000203,-0.002950,0.005285,-0.000607,0.005329,-0.002994,-85.807978,0.005343,
1240,1980,-0.001684,-0.168372,0.999998,0.000160,-0.000202,0.003045,0.000016,0.003045,-0.000202,89.719426,0.003406,
1250,180,-0.009706,-9.579258,0.999998,0.000173,-0.000553,0.003301,0.000007,0.003301,-0.000553,89.899520,0.003536,
1400,860,-0.565822,-6.629268,0.999997,0.000208,-0.003622,0.005938,0.001626,0.006207,-0.003891,80.608833,0.006273,
1450,240,-0.179836,-9.316075,0.999998,0.000196,-0.000995,0.003842,-0.000154,0.003846,-0.001000,-88.180285,0.003992,
1050,170,0.094736,-9.584276,0.999998,0.000160,-0.000720,0.003494,0.000181,0.003501,-0.000728,87.550945,0.003695,
1730,340,-0.786400,-8.593818,0.999998,0.000174,-0.002369,0.004969,-0.000055,0.004969,-0.002369,-89.569322,0.004971,
1410,1080,-1.021042,-4.398542,0.999995,0.000259,-0.004045,0.010620,-0.002737,0.011114,-0.004539,-79.766837,0.011176,
580,680,1.687826,-6.619616,0.999997,0.000207,-0.003003,0.005097,0.000031,0.005097,-0.003003,89.783527,0.005124,
870,600,0.773341,-7.487516,0.999997,0.000195,-0.002842,0.005306,-0.000334,0.005320,-0.002855,-87.654845,0.005324,
1070,440,0.213992,-8.576897,0.999998,0.000180,-0.001650,0.003968,-0.000451,0.004004,-0.001686,-85.437308,0.004021,
1830,1050,-1.995060,-4.937309,0.999999,0.000156,-0.002124,0.004513,0.000140,0.004516,-0.002127,88.789386,0.004519,
1800,240,-0.760981,-8.988332,0.999998,0.000179,-0.002283,0.005080,-0.000393,0.005101,-0.002303,-86.950903,0.005109,
1600,970,-1.487003,-5.347890,0.999997,0.000211,-0.002099,0.005454,-0.000491,0.005485,-0.002131,-86.299207,0.005531,
1380,1390,-0.230753,-2.386376,0.999997,0.000196,-0.002341,0.004135,-0.001409,0.004429,-0.002635,-78.241660,0.004455,
920,820,0.985342,-6.303690,0.999998,0.000179,-0.003532,0.006349,0.000244,0.006355,-0.003538,88.585715,0.006369,
1060,830,0.474167,-6.779951,0.999996,0.000230,-0.003775,0.005858,-0.001586,0.006112,-0.004029,-80.889488,0.006215,
1260,570,-0.036645,-8.229505,0.999999,0.000170,-0.001223,0.003187,0.000256,0.003202,-0.001238,86.693588,0.003229,
1350,1540,-0.160865,-1.740523,0.999998,0.000175,-0.001537,0.003761,-0.000573,0.003822,-0.001598,-83.899529,0.003839,
1660,1150,-1.522023,-4.403094,0.999998,0.000202,-0.002466,0.005392,0.000655,0.005446,-0.002520,85.269963,0.005451,
1660,1320,-1.184681,-3.454785,0.999997,0.000197,-0.003053,0.005623,0.000268,0.005631,-0.003061,88.232254,0.005638,
1890,1330,-1.782774,-3.695684,0.999997,0.000195,-0.002449,0.004845,0.000117,0.004847,-0.002451,89.080412,0.004847,
570,920,2.073987,-5.486368,0.999993,0.000297,-0.002000,0.004372,0.000093,0.004373,-0.002001,89.164457,0.004378,
1350,50,-0.012164,-9.986447,0.999999,0.000136,-0.000099,0.003027,-0.000154,0.003034,-0.000107,-87.192153,0.003444,
560,1770,1.102542,-1.514517,0.999992,0.000000,-0.002260,0.004801,0.000010,0.004801,-0.002261,89.920504,0.004804,
1000,810,0.657922,-6.605489,0.999996,0.000254,-0.003903,0.006405,-0.000737,0.006457,-0.003955,-85.928901,0.006512,
1440,750,-0.458492,-7.064121,0.999998,0.000199,-0.003524,0.005623,0.001310,0.005807,-0.003707,82.011034,0.005881,
790,830,1.413419,-6.076821,0.999997,0.000196,-0.002781,0.005493,0.000595,0.005536,-0.002824,85.905944,0.005536,
690,1000,1.871404,-5.171234,0.999998,0.000144,-0.002167,0.004750,0.000149,0.004753,-0.002170,88.765200,0.004759,
1750,1800,-0.678630,-1.088686,0.999997,0.000230,-0.002261,0.005016,0.000278,0.005027,-0.002272,87.813730,0.005035,
670,150,0.501249,-9.459392,0.999997,0.000221,-0.001892,0.005086,0.001043,0.005239,-0.002045,81.674845,0.005280,
1490,570,-0.464138,-7.851215,0.999997,0.000205,-0.002498,0.004813,0.000728,0.004885,-0.002569,84.371881,0.004887,
1840,1250,-1.799322,-4.016952,0.999998,0.000160,-0.002385,0.004796,0.000289,0.004808,-0.002397,87.695427,0.004808,
1530,1410,-0.635513,-2.703879,0.999997,0.000191,-0.003076,0.005403,-0.000601,0.005445,-0.003118,-85.964748,0.005464,
640,700,1.571963,-6.606806,0.999997,0.000208,-0.002550,0.005072,0.000193,0.005076,-0.002554,88.550995,0.005076,
1350,590,-0.164908,-8.057037,0.999998,0.000181,-0.001765,0.003737,0.000911,0.003884,-0.001912,80.839737,0.003884,
1700,260,-0.585419,-9.026730,0.999997,0.000204,-0.002016,0.004790,-0.000388,0.004812,-0.002038,-86.749923,0.004830,
1240,1960,-0.003015,-0.227984,0.999999,0.000146,-0.000261,0.003081,0.000007,0.003081,-0.000261,89.879058,0.003417,
1880,720,-1.749656,-6.424468,0.999998,0.000181,-0.002450,0.004907,-0.000095,0.004908,-0.002452,-89.257290,0.004908,
1850,1720,-1.067958,-1.660535,0.999998,0.000188,-0.002415,0.004967,-0.000068,0.004968,-0.002416,-89.473415,0.004969,
1320,680,-0.110011,-7.811601,0.999998,0.000151,-0.001654,0.003144,0.001313,0.003480,-0.001990,75.651552,0.003492,
1130,1740,0.099266,-0.984223,0.999998,0.000145,-0.001099,0.003616,0.000105,0.003619,-0.001101,88.729559,0.003710,
1090,810,0.318823,-7.080429,0.999997,0.000214,-0.003324,0.004867,-0.002181,0.005412,-0.003868,-75.979612,0.005576,
1000,110,0.075572,-9.784516,0.999998,0.000170,-0.000341,0.003426,0.000381,0.003465,-0.000379,84.287167,0.003801,
1060,370,0.201547,-8.844623,0.999998,0.000175,-0.001430,0.003947,-0.000221,0.003956,-0.001439,-87.655324,0.004004,
1140,1760,0.081356,-0.907272,0.999998,0.000158,-0.000992,0.003586,0.000066,0.003587,-0.000993,89.169220,0.003704,
1400,840,-0.493173,-6.739084,0.999997,0.000209,-0.003726,0.005798,0.001589,0.006056,-0.003984,80.774389,0.006156,
1410,180,-0.099572,-9.553044,0.999998,0.000200,-0.000752,0.003524,-0.000172,0.003531,-0.000759,-87.695284,0.003718,
1000,1640,0.316462,-1.480352,0.999997,0.000200,-0.001765,0.004277,0.000351,0.004297,-0.001786,86.684970,0.004318,
960,1080,1.295159,-4.703887,0.999998,0.000212,-0.002164,0.006420,-0.000456,0.006445,-0.002188,-86.967394,0.006554,
890,1230,1.100929,-3.861852,0.999998,0.000160,-0.003307,0.006145,-0.000441,0.006165,-0.003327,-87.335221,0.006172,
700,210,0.607562,-9.194755,0.999998,0.000169,-0.002284,0.004987,0.000499,0.005021,-0.002318,86.093141,0.005026,
1470,240,-0.199501,-9.305999,0.999998,0.000171,-0.000999,0.003873,-0.000185,0.003880,-0.001006,-87.833143,0.004027,
1330,720,-0.127867,-7.652046,0.999998,0.000176,-0.001938,0.003271,0.001692,0.003772,-0.002440,73.499085,0.003825,
910,900,1.233125,-5.784674,0.999998,0.000166,-0.002851,0.006152,0.000711,0.006207,-0.002906,85.508724,0.006212,
1050,150,0.081914,-9.655660,0.999998,0.000160,-0.000619,0.003452,0.000215,0.003463,-0.000630,86.983964,0.003689,
1600,950,-1.457124,-5.457765,0.999997,0.000220,-0.002257,0.005501,-0.000545,0.005539,-0.002295,-86.001921,0.005566,
1800,220,-0.715034,-9.089168,0.999998,0.000178,-0.002259,0.005099,-0.000508,0.005134,-0.002294,-86.071689,0.005144,
1050,880,0.693679,-6.405585,0.999997,0.000214,-0.003547,0.006635,-0.001459,0.006840,-0.003752,-82.003991,0.006851,
780,890,1.553517,-5.747113,0.999998,0.000198,-0.002511,0.005312,0.000628,0.005362,-0.002561,85.438344,0.005364,
1830,1030,-2.002869,-5.028211,0.999998,0.000165,-0.002136,0.004535,0.000028,0.004535,-0.002137,89.756752,0.004537,
1850,1580,-1.285200,-2.365104,0.999997,0.000187,-0.002529,0.005081,-0.000070,0.005081,-0.002529,-89.472346,0.005081,
920,580,0.612705,-7.692635,0.999997,0.000204,-0.002720,0.005106,-0.000546,0.005144,-0.002758,-86.030272,0.005149,
1100,1190,0.462781,-3.176359,0.999996,0.000235,-0.002458,0.004011,0.002250,0.004717,-0.003163,72.588902,0.004807,
580,1540,1.427291,-2.620525,0.999998,0.000175,-0.002659,0.005116,-0.000076,0.005116,-0.002660,-89.439483,0.005118,
1030,50,0.021025,-9.984102,0.999999,0.000139,-0.000118,0.003134,0.000290,0.003160,-0.000144,84.935315,0.003568,
1350,1560,-0.159799,-1.665427,0.999998,0.000154,-0.001473,0.003744,-0.000486,0.003789,-0.001518,-84.725807,0.003814,
1160,590,0.092106,-8.128485,0.999999,0.000152,-0.001461,0.003316,-0.000680,0.003411,-0.001555,-82.058129,0.003415,
560,1760,1.122771,-1.562494,0.999993,0.000000,-0.002216,0.004989,0.000109,0.004991,-0.002218,89.133985,0.005001,
690,1100,1.849364,-4.696264,0.999998,0.000189,-0.002238,0.004828,-0.000317,0.004842,-0.002252,-87.437666,0.004846,
1660,1300,-1.224995,-3.568425,0.999997,0.000208,-0.003034,0.005649,0.000341,0.005662,-0.003047,87.751597,0.005667,
1880,520,-1.427348,-7.438490,0.999997,0.000195,-0.002518,0.005091,0.000016,0.005091,-0.002518,89.877428,0.005091,
700,1030,1.858215,-5.027607,0.999998,0.000158,-0.002165,0.004812,-0.000028,0.004812,-0.002165,-89.767518,0.004820,
1350,1310,-0.177667,-2.595015,0.999998,0.000203,-0.002417,0.003771,-0.001984,0.004353,-0.002998,-73.666905,0.004455,
640,680,1.538428,-6.708193,0.999997,0.000213,-0.002547,0.005080,0.000182,0.005085,-0.002551,88.634870,0.005085,
1070,800,0.367119,-7.011756,0.999996,0.000233,-0.003545,0.005340,-0.001898,0.005728,-0.003934,-78.434846,0.005860,
1240,1940,-0.002146,-0.289725,0.999999,0.000124,-0.000324,0.003147,0.000002,0.003147,-0.000324,89.966699,0.003462,
1700,240,-0.544633,-9.123957,0.999997,0.000191,-0.001962,0.004820,-0.000489,0.004855,-0.001997,-85.898225,0.004881,
980,110,0.083225,-9.781157,0.999999,0.000178,-0.000457,0.003469,0.000403,0.003510,-0.000498,84.201394,0.003798,
810,500,0.817759,-7.907182,0.999998,0.000142,-0.002570,0.005096,-0.000213,0.005102,-0.002576,-88.408927,0.005102,
1490,240,-0.221354,-9.293613,0.999998,0.000164,-0.001199,0.003937,-0.000193,0.003944,-0.001206,-87.850474,0.004042,
1090,790,0.281626,-7.177379,0.999997,0.000197,-0.003203,0.004672,-0.002152,0.005222,-0.003753,-75.671026,0.005386,
670,130,0.438109,-9.557881,0.999996,0.000220,-0.001734,0.005050,0.001285,0.005285,-0.001970,79.622751,0.005342,
1320,660,-0.113192,-7.877073,0.999998,0.000163,-0.001629,0.003208,0.001149,0.003467,-0.001888,77.294970,0.003472,
700,1840,0.617467,-0.909698,0.999998,0.000187,-0.002310,0.004972,-0.000476,0.005003,-0.002341,-86.275552,0.005007,
790,810,1.373082,-6.188974,0.999997,0.000193,-0.002855,0.005540,0.000541,0.005575,-0.002889,86.329364,0.005576,
1450,190,-0.137654,-9.504243,0.999998,0.000232,-0.000753,0.003689,-0.000278,0.003706,-0.000771,-86.426856,0.003912,
1000,1400,0.443944,-2.583027,0.999997,0.000213,-0.002919,0.005088,0.001018,0.005215,-0.003046,82.866424,0.005240,
1400,820,-0.435044,-6.857208,0.999997,0.000215,-0.003759,0.005794,0.001732,0.006098,-0.004063,80.034402,0.006209,
1700,1710,-0.724919,-1.469380,0.999997,0.000185,-0.002189,0.004966,0.000071,0.004967,-0.002189,89.430342,0.004978,
1270,1740,-0.035841,-0.967518,0.999999,0.000143,-0.000925,0.003531,-0.000058,0.003531,-0.000926,-89.259074,0.003662,
750,980,1.733432,-5.273550,0.999998,0.000166,-0.002159,0.004954,0.000214,0.004960,-0.002166,88.281257,0.004974,
1590,1080,-1.472446,-4.756625,0.999997,0.000219,-0.002016,0.005476,0.000471,0.005506,-0.002046,86.414939,0.005566,
1610,1770,-0.456364,-1.073661,0.999998,0.000181,-0.001785,0.004543,0.000225,0.004551,-0.001793,87.966104,0.004585,
1530,1390,-0.659756,-2.811557,0.999997,0.000198,-0.003176,0.005555,-0.000591,0.005595,-0.003216,-86.145490,0.005616,
1000,410,0.315401,-8.619850,0.999997,0.000189,-0.001756,0.004244,-0.000305,0.004260,-0.001771,-87.093505,0.004280,
1150,1400,0.101715,-2.174249,0.999998,0.000179,-0.001522,0.003160,0.001003,0.003366,-0.001728,78.407517,0.003366,
1740,940,-1.758427,-5.469886,0.999998,0.000167,-0.002279,0.004936,-0.000418,0.004960,-0.002303,-86.698478,0.004965,
1710,800,-1.457166,-6.209097,0.999997,0.000216,-0.002775,0.005365,-0.000509,0.005397,-0.002807,-86.438931,0.005398,
1880,710,-1.732824,-6.473477,0.999998,0.000199,-0.002463,0.004935,-0.000091,0.004936,-0.002464,-89.292430,0.004936,
1800,200,-0.663701,-9.194796,0.999997,0.000181,-0.002208,0.005139,-0.000621,0.005191,-0.002260,-85.203391,0.005206,
1050,370,0.217193,-8.834704,0.999998,0.000180,-0.001477,0.004000,-0.000230,0.004010,-0.001487,-87.599056,0.004054,
1880,40,-0.181046,-9.917718,0.999998,0.000175,-0.000361,0.006718,-0.003385,0.008076,-0.001719,-68.136451,0.008509,
1830,1010,-1.997465,-5.120611,0.999998,0.000179,-0.002161,0.004530,-0.000136,0.004533,-0.002164,-88.839354,0.004535,
710,1680,0.898130,-1.699251,0.999997,0.000199,-0.002460,0.005059,0.000055,0.005060,-0.002460,89.578560,0.005060,
590,1540,1.402417,-2.604901,0.999998,0.000170,-0.002567,0.005088,0.000007,0.005088,-0.002567,89.947415,0.005088,
1050,860,0.616208,-6.537028,0.999996,0.000223,-0.003678,0.006395,-0.001422,0.006592,-0.003875,-82.119595,0.006626,
1040,50,0.018804,-9.984905,0.999999,0.000155,-0.000138,0.003134,0.000269,0.003156,-0.000160,85.337701,0.003555,
920,540,0.576976,-7.893782,0.999997,0.000202,-0.002560,0.004978,-0.000519,0.005014,-0.002596,-86.078759,0.005015,
780,870,1.518201,-5.852983,0.999997,0.000209,-0.002595,0.005321,0.000615,0.005368,-0.002642,85.587109,0.005368,
1110,720,0.176811,-7.566281,0.999997,0.000221,-0.002313,0.003766,-0.001785,0.004251,-0.002799,-74.788519,0.004322,
1830,1580,-1.234747,-2.331891,0.999998,0.000173,-0.002537,0.005076,-0.000073,0.005077,-0.002538,-89.453261,0.005077,
1830,1720,-1.019718,-1.625096,0.999998,0.000150,-0.002430,0.005011,-0.000025,0.005011,-0.002430,-89.807797,0.005012,
1660,1280,-1.263883,-3.682050,0.999997,0.000206,-0.002993,0.005646,0.000435,0.005668,-0.003015,87.128040,0.005672,
1160,570,0.093773,-8.197945,0.999998,0.000146,-0.001445,0.003379,-0.000617,0.003456,-0.001523,-82.826556,0.003464,
560,1750,1.139587,-1.611746,0.999990,0.000000,-0.002213,0.004889,0.000085,0.004890,-0.002214,89.315887,0.004898,
1500,1430,-0.530264,-2.527453,0.999996,0.000241,-0.002859,0.005138,-0.000798,0.005217,-0.002938,-84.359720,0.005231,
1350,1330,-0.171918,-2.521195,0.999998,0.000198,-0.002262,0.003712,-0.001844,0.004236,-0.002786,-74.156232,0.004305,
640,660,1.504351,-6.810135,0.999997,0.000215,-0.002546,0.005121,0.000135,0.005123,-0.002548,88.993479,0.005123,
1240,1920,-0.002799,-0.353501,0.999999,0.000133,-0.000414,0.003199,-0.000003,0.003199,-0.000414,-89.952747,0.003480,
700,850,1.685483,-5.908922,0.999997,0.000209,-0.002470,0.005013,0.000482,0.005044,-0.002501,86.326127,0.005044,
1700,220,-0.504384,-9.220075,0.999997,0.000199,-0.001841,0.004728,-0.000584,0.004780,-0.001892,-84.959206,0.004814,
1180,110,0.014785,-9.804241,0.999998,0.000163,-0.000260,0.003174,0.000065,0.003175,-0.000261,88.921944,0.003526,
780,1030,1.689149,-5.027542,0.999998,0.000168,-0.002047,0.005042,-0.000032,0.005043,-0.002047,-89.740776,0.005072,
1090,1490,0.205416,-1.970581,0.999998,0.000156,-0.001817,0.003878,0.000842,0.003999,-0.001939,81.764704,0.004000,
1070,780,0.334014,-7.114953,0.999997,0.000194,-0.003374,0.005115,-0.001912,0.005526,-0.003784,-77.877388,0.005650,
780,1810,0.523319,-0.962087,0.999997,0.000191,-0.001988,0.004765,-0.000425,0.004792,-0.002015,-86.411108,0.004812,
670,350,0.953168,-8.442778,0.999998,0.000169,-0.002421,0.005057,0.000003,0.005057,-0.002421,89.977341,0.005059,
1130,1400,0.134335,-2.220100,0.999998,0.000181,-0.001775,0.003435,0.001241,0.003716,-0.002056,77.268611,0.003723,
1000,1360,0.476436,-2.792622,0.999997,0.000233,-0.003221,0.005392,0.001092,0.005528,-0.003357,82.883509,0.005570,
970,240,0.224955,-9.292731,0.999998,0.000172,-0.001222,0.003961,0.000185,0.003968,-0.001229,87.956559,0.004062,
1000,170,0.129437,-9.571114,0.999998,0.000187,-0.000643,0.003662,0.000308,0.003684,-0.000665,85.922241,0.003926,
1400,800,-0.391951,-6.972390,0.999997,0.000234,-0.003719,0.005519,0.001802,0.005859,-0.004059,79.343096,0.006002,
790,790,1.333531,-6.298367,0.999997,0.000204,-0.002919,0.005574,0.000496,0.005603,-0.002948,86.668431,0.005606,
1320,640,-0.111502,-7.940393,0.999998,0.000167,-0.001571,0.003279,0.000996,0.003475,-0.001768,78.840690,0.003475,
1570,1080,-1.431875,-4.749840,0.999996,0.000215,-0.001992,0.005600,0.000522,0.005636,-0.002028,86.086274,0.005709,
1880,700,-1.715287,-6.523384,0.999997,0.000207,-0.002488,0.004976,-0.000076,0.004977,-0.002489,-89.415463,0.004977,
730,1680,0.846102,-1.666968,0.999998,0.000188,-0.002432,0.005031,0.000020,0.005031,-0.002432,89.845266,0.005032,
1400,920,-0.822193,-6.243371,0.999995,0.000251,-0.002704,0.006810,0.002934,0.007642,-0.003536,74.165024,0.007649,
1690,1400,-1.133696,-3.054381,0.999998,0.000179,-0.002872,0.005396,0.000080,0.005397,-0.002873,89.442415,0.005400,
1830,990,-1.989019,-5.210423,0.999998,0.000192,-0.002146,0.004493,-0.000121,0.004495,-0.002148,-88.953681,0.004496,
1040,2000,0.021697,-0.110712,0.999998,0.000139,-0.000203,0.003125,-0.000278,0.003148,-0.000226,-85.263602,0.003512,
1800,180,-0.609804,-9.295674,0.999998,0.000184,-0.002108,0.005098,-0.000791,0.005184,-0.002194,-83.806788,0.005204,
1330,1740,-0.095114,-0.982915,0.999999,0.000126,-0.001111,0.003641,-0.000121,0.003644,-0.001115,-88.543953,0.003734,
1050,130,0.067995,-9.723468,0.999998,0.000142,-0.000529,0.003359,0.000231,0.003373,-0.000543,86.610588,0.003622,
1210,50,0.001478,-9.988895,0.999999,0.000120,-0.000096,0.003006,0.000003,0.003006,-0.000096,89.940792,0.003417,
1640,1130,-1.509414,-4.503302,0.999996,0.000236,-0.002338,0.005425,0.000641,0.005477,-0.002391,85.312148,0.005492,
770,1720,0.695232,-1.410873,0.999997,0.000175,-0.002207,0.004974,-0.000058,0.004974,-0.002208,-89.540812,0.004985,
1000,390,0.302846,-8.704784,0.999998,0.000178,-0.001636,0.004231,-0.000217,0.004239,-0.001644,-87.887504,0.004274,
960,1450,0.521615,-2.430959,0.999997,0.000215,-0.002786,0.005078,0.000764,0.005151,-0.002859,84.504339,0.005162,
1350,1350,-0.167658,-2.443769,0.999997,0.000204,-0.002141,0.003678,-0.001675,0.004126,-0.002589,-75.037462,0.004170,
1660,1480,-0.931674,-2.576819,0.999998,0.000156,-0.002750,0.005262,-0.000174,0.005265,-0.002754,-88.755537,0.005267,
1790,100,-0.324759,-9.713830,0.999998,0.000201,-0.001342,0.004794,-0.001506,0.005144,-0.001692,-76.928190,0.005243,
810,1420,0.995565,-2.888090,0.999998,0.000153,-0.002922,0.005429,0.000052,0.005430,-0.002922,89.641816,0.005435,
1200,1520,0.040079,-1.739219,0.999998,0.000155,-0.001264,0.003330,0.000209,0.003339,-0.001273,87.400005,0.003371,
1700,200,-0.460422,-9.313360,0.999997,0.000194,-0.001736,0.004770,-0.000712,0.004847,-0.001813,-83.823999,0.004898,
750,310,0.700427,-8.766249,0.999998,0.000187,-0.002154,0.004912,0.000169,0.004916,-0.002158,88.630631,0.004928,
1460,1790,-0.211551,-0.867363,0.999998,0.000146,-0.001085,0.003904,0.000136,0.003907,-0.001088,88.441480,0.004033,
1530,1370,-0.681202,-2.923857,0.999997,0.000204,-0.003275,0.005645,-0.000550,0.005679,-0.003309,-86.481989,0.005705,
640,640,1.470815,-6.913895,0.999998,0.000190,-0.002570,0.005112,0.000096,0.005113,-0.002571,89.286087,0.005113,
980,1490,0.443668,-2.188760,0.999997,0.000204,-0.002476,0.004770,0.000753,0.004847,-0.002553,84.126361,0.004850,
1450,390,-0.283281,-8.716758,0.999998,0.000172,-0.001553,0.004162,0.000215,0.004170,-0.001561,87.845147,0.004213,
1470,1360,-0.497881,-2.815592,0.999997,0.000220,-0.003230,0.005423,-0.001029,0.005543,-0.003351,-83.312442,0.005584,
1250,410,-0.021007,-8.779721,0.999998,0.000167,-0.001166,0.003550,0.000106,0.003552,-0.001169,88.715596,0.003621,
600,1030,2.072847,-5.028939,0.999998,0.000157,-0.002068,0.004344,-0.000012,0.004344,-0.002068,-89.895239,0.004346,
1060,570,0.263146,-8.034144,0.999998,0.000178,-0.002060,0.004166,-0.000914,0.004297,-0.002191,-81.820287,0.004297,
1490,1010,-1.319034,-5.154773,0.999997,0.000206,-0.002034,0.006765,-0.000152,0.006768,-0.002037,-89.013885,0.006944,
560,1740,1.152921,-1.666774,0.999988,0.000000,-0.002254,0.004760,0.000006,0.004760,-0.002254,89.947781,0.004762,
1280,110,-0.014492,-9.803580,0.999998,0.000185,-0.000250,0.003158,-0.000069,0.003159,-0.000251,-88.842355,0.003512,
1890,1250,-1.914820,-4.078039,0.999998,0.000165,-0.002253,0.004583,0.000090,0.004584,-0.002255,89.245695,0.004584,
1610,760,-1.077284,-6.553410,0.999998,0.000171,-0.003249,0.005891,-0.000223,0.005896,-0.003254,-88.602935,0.005907,
890,1210,1.150325,-3.984255,0.999998,0.000156,-0.003204,0.006122,-0.000542,0.006153,-0.003236,-86.683414,0.006156,
920,520,0.557582,-7.994988,0.999997,0.000205,-0.002418,0.004890,-0.000452,0.004918,-0.002446,-86.472496,0.004918,
1320,620,-0.115825,-8.005042,0.999998,0.000154,-0.001538,0.003336,0.000869,0.003486,-0.001688,80.192738,0.003487,
980,170,0.143353,-9.565077,0.999998,0.000173,-0.000792,0.003709,0.000337,0.003734,-0.000817,85.740641,0.003926,
1570,1590,-0.573961,-1.863445,0.999997,0.000194,-0.002278,0.004784,-0.000301,0.004797,-0.002291,-87.563075,0.004799,
960,430,0.404317,-8.478625,0.999996,0.000240,-0.001910,0.004453,-0.000319,0.004469,-0.001926,-87.139673,0.004483,
790,770,1.292789,-6.411581,0.999997,0.000187,-0.002943,0.005588,0.000437,0.005611,-0.002965,87.075241,0.005614,
1610,1790,-0.426192,-0.982210,0.999997,0.000194,-0.001696,0.004458,0.000287,0.004471,-0.001710,87.332921,0.004512,
1140,1740,0.086493,-0.979285,0.999998,0.000147,-0.001075,0.003605,0.000082,0.003606,-0.001077,88.994755,0.003702,
1000,1340,0.493786,-2.900837,0.999997,0.000231,-0.003375,0.005553,0.001085,0.005683,-0.003505,83.169945,0.005734,
1740,920,-1.735491,-5.566218,0.999998,0.000169,-0.002324,0.004935,-0.000407,0.004958,-0.002347,-86.800146,0.004960,
670,110,0.362563,-9.664441,0.999997,0.000202,-0.001475,0.004985,0.001432,0.005288,-0.001778,78.050106,0.005382,
960,1060,1.330751,-4.833461,0.999997,0.000230,-0.002002,0.006497,-0.000320,0.006509,-0.002014,-87.846283,0.006665,
1220,1450,0.013045,-1.950543,0.999999,0.000133,-0.001204,0.002945,0.000177,0.002953,-0.001212,87.555793,0.002968,
1610,1820,-0.378475,-0.848123,0.999998,0.000204,-0.001572,0.004415,0.000411,0.004443,-0.001600,86.086544,0.004501,
640,1290,1.687317,-3.800172,0.999998,0.000192,-0.002488,0.004962,-0.000291,0.004973,-0.002499,-87.766158,0.004973,
1260,790,-0.036874,-7.718591,0.999997,0.000202,-0.001374,0.001288,0.000842,0.001532,-0.001618,73.850342,0.001821,
1770,220,-0.646739,-9.133821,0.999997,0.000207,-0.002275,0.005008,-0.000454,0.005036,-0.002304,-86.445680,0.005042,
1800,160,-0.547498,-9.399507,0.999998,0.000215,-0.002010,0.005172,-0.000975,0.005302,-0.002140,-82.407228,0.005334,
1740,610,-1.201903,-7.191373,0.999998,0.000166,-0.002731,0.005271,-0.000044,0.005271,-0.002731,-89.681403,0.005272,
1480,1190,-0.885978,-3.907756,0.999998,0.000194,-0.003713,0.006809,-0.000017,0.006809,-0.003713,-89.909960,0.006818,
1030,2000,0.023489,-0.110592,0.999998,0.000158,-0.000168,0.003147,-0.000295,0.003173,-0.000194,-84.962482,0.003557,
1090,1620,0.182388,-1.459571,0.999997,0.000204,-0.001463,0.003844,0.000368,0.003869,-0.001489,86.055354,0.003904,
750,100,0.220299,-9.762476,0.999999,0.000145,-0.000760,0.004186,0.001214,0.004468,-0.001042,76.923144,0.004675,
1350,1370,-0.165866,-2.369968,0.999997,0.000212,-0.002020,0.003666,-0.001484,0.004030,-0.002384,-76.218818,0.004052,
730,2000,0.106332,-0.140754,0.999997,0.000201,-0.000552,0.004009,-0.001349,0.004378,-0.000921,-74.701221,0.004617,
1090,1510,0.203621,-1.893121,0.999998,0.000170,-0.001774,0.003915,0.000788,0.004022,-0.001881,82.261720,0.004025,
1620,990,-1.547776,-5.233967,0.999996,0.000225,-0.001980,0.005232,-0.000257,0.005242,-0.001989,-87.959829,0.005292,
1700,180,-0.415134,-9.409457,0.999997,0.000186,-0.001569,0.004606,-0.000802,0.004709,-0.001671,-82.721093,0.004774,
1440,1790,-0.188400,-0.854109,0.999999,0.000137,-0.001115,0.003816,0.000075,0.003817,-0.001116,89.134318,0.003925,
1050,1040,1.075501,-4.891333,0.999987,0.000509,-0.005034,0.012161,0.000636,0.012185,-0.005057,87.885353,0.012243,
890,460,0.577651,-8.235899,0.999997,0.000206,-0.002272,0.004796,-0.000309,0.004809,-0.002286,-87.499492,0.004811,
1530,1440,-0.605812,-2.543181,0.999997,0.000222,-0.002886,0.005237,-0.000613,0.005283,-0.002932,-85.710311,0.005294,
1350,1220,-0.311170,-2.942757,0.999997,0.000196,-0.002845,0.003880,-0.002174,0.004522,-0.003487,-73.560897,0.004738,
870,1760,0.437002,-1.100177,0.999998,0.000164,-0.001862,0.004490,-0.000141,0.004493,-0.001866,-88.729282,0.004515,
1220,50,0.000467,-9.988734,0.999999,0.000100,-0.000104,0.002999,-0.000007,0.002999,-0.000104,-89.869324,0.003405,
1270,1260,-0.054981,-2.395551,0.999998,0.000177,-0.001543,0.001381,-0.001070,0.001731,-0.001893,-71.896896,0.002098,
1530,1350,-0.712756,-3.039574,0.999997,0.000191,-0.003370,0.005759,-0.000473,0.005784,-0.003394,-87.039920,0.005813,
750,290,0.667107,-8.865731,0.999998,0.000189,-0.002094,0.004954,0.000279,0.004965,-0.002105,87.733023,0.004984,
640,620,1.436842,-7.015190,0.999998,0.000189,-0.002582,0.005086,0.000071,0.005087,-0.002582,89.467404,0.005087,
760,1130,1.657055,-4.525731,0.999998,0.000217,-0.002307,0.005076,-0.000458,0.005105,-0.002335,-86.460554,0.005111,
1260,110,-0.009162,-9.804270,0.999999,0.000143,-0.000303,0.003158,-0.000031,0.003158,-0.000303,-89.487273,0.003484,
1250,430,-0.023133,-8.709540,0.999998,0.000189,-0.001199,0.003511,0.000117,0.003514,-0.001202,88.577398,0.003572,
670,1100,1.893067,-4.700901,0.999998,0.000157,-0.002236,0.004741,-0.000272,0.004752,-0.002247,-87.772038,0.004754,
890,1190,1.201858,-4.106215,0.999998,0.000174,-0.003076,0.006047,-0.000630,0.006090,-0.003120,-86.069797,0.006090,
1460,1760,-0.236964,-0.985805,0.999998,0.000156,-0.001202,0.003962,0.000045,0.003963,-0.001203,89.500172,0.004064,
1050,90,0.040650,-9.857690,0.999999,0.000156,-0.000365,0.003234,0.000244,0.003250,-0.000382,86.144693,0.003553,
940,430,0.441373,-8.452130,0.999997,0.000226,-0.001992,0.004538,-0.000323,0.004553,-0.002008,-87.177946,0.004564,
1320,600,-0.117401,-8.071815,0.999998,0.000155,-0.001497,0.003427,0.000753,0.003540,-0.001610,81.496679,0.003545,
1120,170,0.057076,-9.601580,0.999998,0.000142,-0.000583,0.003358,0.000089,0.003360,-0.000585,88.701479,0.003590,
1590,760,-1.011380,-6.586268,0.999998,0.000161,-0.003345,0.006000,-0.000153,0.006003,-0.003348,-89.061919,0.006016,
1490,990,-1.295499,-5.291976,0.999997,0.000219,-0.002130,0.006819,-0.000262,0.006827,-0.002138,-88.326575,0.006984,
920,500,0.543888,-8.090916,0.999998,0.000205,-0.002318,0.004811,-0.000406,0.004834,-0.002341,-86.754302,0.004834,
1140,1720,0.093069,-1.051110,0.999999,0.000146,-0.001139,0.003593,0.000104,0.003596,-0.001141,88.746861,0.003675,
670,70,0.205959,-9.858633,0.999998,0.000177,-0.000704,0.004810,0.001997,0.005457,-0.001351,72.039714,0.005684,
1280,730,-0.051386,-7.771899,0.999998,0.000162,-0.001263,0.002190,0.001091,0.002506,-0.001579,73.856804,0.002534,
960,1040,1.349097,-4.962419,0.999998,0.000198,-0.001947,0.006328,-0.000135,0.006331,-0.001950,-89.063655,0.006484,
560,1730,1.176382,-1.707051,0.999983,0.000000,-0.002242,0.004576,-0.000041,0.004576,-0.002242,-89.657235,0.004576,
1590,1340,-0.926964,-3.226406,0.999999,0.000128,-0.003294,0.005829,-0.000070,0.005830,-0.003295,-89.557335,0.005846,
790,750,1.253140,-6.523620,0.999997,0.000189,-0.002977,0.005607,0.000366,0.005622,-0.002993,87.566156,0.005626,
1240,790,-0.010936,-7.746510,0.999997,0.000227,-0.001408,0.001104,0.000235,0.001125,-0.001430,84.709929,0.001506,
1570,1570,-0.593323,-1.959101,0.999997,0.000204,-0.002381,0.004865,-0.000352,0.004882,-0.002398,-87.229305,0.004882,
880,1930,0.164412,-0.378229,0.999998,0.000165,-0.000879,0.003814,-0.000632,0.003897,-0.000963,-82.464297,0.004060,
1800,580,-1.314507,-7.256074,0.999997,0.000185,-0.002583,0.005154,0.000022,0.005154,-0.002584,89.834117,0.005154,
1660,1590,-0.792963,-2.007936,0.999998,0.000145,-0.002501,0.005035,-0.000186,0.005039,-0.002506,-88.584369,0.005039,
1200,1470,0.037494,-1.899901,0.999998,0.000172,-0.001258,0.003122,0.000272,0.003139,-0.001275,86.462942,0.003157,
1200,1500,0.040193,-1.804666,0.999998,0.000184,-0.001260,0.003241,0.000240,0.003253,-0.001273,86.959258,0.003279,
570,1290,1.856247,-3.895290,0.999975,0.000605,-0.002567,0.004759,-0.000065,0.004760,-0.002567,-89.488116,0.004765,
1710,1160,-1.627990,-4.372382,0.999997,0.000200,-0.002457,0.005199,0.000591,0.005245,-0.002502,85.614437,0.005247,
570,180,0.831976,-9.101421,0.999972,0.000589,-0.002732,0.004778,0.000343,0.004794,-0.002747,87.391232,0.004811,
1620,280,-0.464006,-9.020943,0.999997,0.000200,-0.001738,0.004584,-0.000284,0.004596,-0.001751,-87.430631,0.004640,
680,1850,0.639830,-0.888515,0.999997,0.000218,-0.002238,0.005087,-0.000567,0.005131,-0.002282,-85.598072,0.005141,
1740,900,-1.711646,-5.667724,0.999998,0.000173,-0.002390,0.005078,-0.000493,0.005111,-0.002423,-86.236268,0.005113,
1030,1620,0.278040,-1.531429,0.999998,0.000166,-0.001639,0.004115,0.000358,0.004137,-0.001661,86.449038,0.004164,
1700,600,-1.075604,-7.304652,0.999998,0.000166,-0.002781,0.005308,0.000048,0.005309,-0.002781,89.659953,0.005311,
1350,1810,-0.091129,-0.740064,0.999998,0.000151,-0.000859,0.003557,0.000005,0.003557,-0.000859,89.935931,0.003713,
1790,1720,-0.921226,-1.556985,0.999998,0.000162,-0.002394,0.005069,0.000011,0.005069,-0.002394,89.914853,0.005072,
1340,110,-0.030297,-9.799121,0.999999,0.000146,-0.000350,0.003209,-0.000143,0.003215,-0.000356,-87.699047,0.003524,
640,600,1.405020,-7.116314,0.999997,0.000203,-0.002572,0.005105,0.000058,0.005105,-0.002573,89.568817,0.005105,
1450,1670,-0.280980,-1.342435,0.999998,0.000195,-0.001516,0.004158,-0.000198,0.004165,-0.001523,-88.001976,0.004215,
1090,1530,0.200720,-1.815172,0.999998,0.000170,-0.001744,0.003921,0.000727,0.004013,-0.001836,82.800082,0.004018,
800,90,0.153970,-9.816858,0.999998,0.000151,-0.000807,0.003897,0.000974,0.004090,-0.001001,78.750177,0.004264,
870,460,0.623501,-8.204403,0.999998,0.000200,-0.002373,0.004878,-0.000270,0.004889,-0.002383,-87.868400,0.004889,
1270,1240,-0.076423,-2.419550,0.999998,0.000180,-0.001964,0.001362,-0.000911,0.001595,-0.002197,-75.650547,0.002271,
660,1980,0.238272,-0.250289,0.999998,0.000181,-0.000883,0.004978,-0.001971,0.005580,-0.001484,-73.036366,0.005780,
790,1420,1.053047,-2.920521,0.999998,0.000133,-0.002873,0.005385,0.000014,0.005385,-0.002873,89.904632,0.005389,
1660,1720,-0.621693,-1.363774,0.999997,0.000193,-0.002232,0.004852,0.000020,0.004852,-0.002232,89.835034,0.004857,
650,1100,1.937705,-4.707177,0.999998,0.000158,-0.002174,0.004648,-0.000205,0.004654,-0.002180,-88.277426,0.004657,
1100,170,0.068061,-9.595730,0.999999,0.000131,-0.000502,0.003390,0.000148,0.003396,-0.000508,87.818759,0.003663,
1200,830,0.083983,-7.662767,0.999995,0.000251,-0.002601,0.001328,-0.000381,0.001364,-0.002638,-84.516333,0.002638,
890,1170,1.250104,-4.226526,0.999997,0.000196,-0.002896,0.006005,-0.000714,0.006062,-0.002953,-85.443926,0.006062,
610,740,1.717859,-6.365123,0.999997,0.000173,-0.002480,0.004900,0.000200,0.004905,-0.002485,88.452371,0.004905,
1320,580,-0.115761,-8.140323,0.999998,0.000152,-0.001474,0.003460,0.000680,0.003552,-0.001566,82.294491,0.003561,
1140,1700,0.096539,-1.123385,0.999999,0.000139,-0.001191,0.003661,0.000153,0.003665,-0.001196,88.193630,0.003738,
1510,1460,-0.533402,-2.395201,0.999996,0.000227,-0.002738,0.005082,-0.000712,0.005146,-0.002802,-84.842817,0.005153,
1250,450,-0.021652,-8.639598,0.999998,0.000185,-0.001237,0.003520,0.000137,0.003524,-0.001241,88.347571,0.003575,
750,270,0.628881,-8.965845,0.999997,0.000201,-0.002002,0.004894,0.000377,0.004915,-0.002022,86.879568,0.004940,
1530,1330,-0.741653,-3.156049,0.999997,0.000192,-0.003456,0.005874,-0.000426,0.005893,-0.003475,-87.393883,0.005925,
720,1550,1.055690,-2.346274,0.999998,0.000158,-0.002573,0.005151,0.000110,0.005153,-0.002575,89.184501,0.005153,
1800,600,-1.344523,-7.151639,0.999997,0.000184,-0.002593,0.005129,-0.000038,0.005129,-0.002593,-89.721235,0.005129,
1570,1340,-0.862345,-3.188893,0.999998,0.000162,-0.003326,0.005848,-0.000186,0.005852,-0.003330,-88.840326,0.005870,
1680,1890,-0.349078,-0.590104,0.999997,0.000201,-0.001505,0.004451,0.000799,0.004557,-0.001610,82.486717,0.004622,
920,1930,0.136833,-0.368157,0.999997,0.000182,-0.000572,0.003743,-0.000580,0.003819,-0.000649,-82.473458,0.004087,
1420,550,-0.293536,-8.084646,0.999998,0.000169,-0.002108,0.004287,0.000832,0.004393,-0.002215,82.706537,0.004393,
1690,1160,-1.578817,-4.363149,0.999997,0.000226,-0.002484,0.005288,0.000635,0.005340,-0.002536,85.359870,0.005342,
790,730,1.215084,-6.635643,0.999998,0.000178,-0.002994,0.005589,0.000292,0.005599,-0.003004,88.050665,0.005604,
1000,1320,0.522053,-3.018256,0.999997,0.000217,-0.003528,0.005707,0.001070,0.005829,-0.003650,83.473821,0.005891,
1770,1720,-0.874097,-1.523839,0.999998,0.000152,-0.002416,0.005062,0.000013,0.005062,-0.002416,89.900181,0.005064,
1350,1790,-0.097871,-0.812035,0.999999,0.000151,-0.000899,0.003572,-0.000008,0.003572,-0.000899,-89.893413,0.003715,
1740,590,-1.170216,-7.295909,0.999997,0.000184,-0.002715,0.005229,-0.000006,0.005229,-0.002715,-89.954410,0.005231,
1620,260,-0.434730,-9.109843,0.999998,0.000177,-0.001628,0.004476,-0.000348,0.004496,-0.001648,-86.749646,0.004549,
580,1290,1.834409,-3.880305,0.999998,0.000190,-0.002522,0.004812,-0.000086,0.004813,-0.002523,-89.324880,0.004815,
1450,1710,-0.258231,-1.177920,0.999998,0.000178,-0.001389,0.004001,-0.000105,0.004003,-0.001391,-88.879738,0.004065,
1350,1360,-0.167681,-2.407631,0.999997,0.000241,-0.002081,0.003661,-0.001578,0.004066,-0.002486,-75.605934,0.004100,
1570,1550,-0.614107,-2.059808,0.999998,0.000199,-0.002485,0.004948,-0.000400,0.004970,-0.002506,-86.930539,0.004970,
640,800,1.750763,-6.106317,0.999998,0.000168,-0.002441,0.004904,0.000350,0.004921,-0.002458,87.275415,0.004921,
660,1960,0.326838,-0.351691,0.999998,0.000196,-0.001261,0.004965,-0.001680,0.005389,-0.001685,-75.821773,0.005514,
1700,620,-1.106135,-7.198116,0.999998,0.000176,-0.002809,0.005341,0.000001,0.005341,-0.002809,89.995662,0.005343,
670,200,0.648455,-9.203139,0.999998,0.000181,-0.002186,0.005120,0.000630,0.005174,-0.002240,85.103711,0.005189,
1740,880,-1.676590,-5.770844,0.999998,0.000178,-0.002441,0.005106,-0.000539,0.005144,-0.002480,-85.934765,0.005145,
1080,770,0.288577,-7.219008,0.999997,0.000211,-0.003153,0.004816,-0.002009,0.005294,-0.003631,-76.619014,0.005414,
1640,50,-0.060374,-9.971696,0.999998,0.000161,-0.000216,0.003546,-0.000925,0.003761,-0.000431,-76.911370,0.004116,
1860,1390,-1.606075,-3.348747,0.999997,0.000196,-0.002527,0.005051,0.000117,0.005052,-0.002528,89.118209,0.005052,
580,860,1.984016,-5.755928,0.999998,0.000154,-0.002197,0.004461,0.000093,0.004462,-0.002198,89.198214,0.004462,
1510,1440,-0.549240,-2.498139,0.999997,0.000213,-0.002829,0.005161,-0.000729,0.005227,-0.002895,-84.832638,0.005237,
1140,1680,0.100953,-1.197925,0.999998,0.000141,-0.001232,0.003690,0.000187,0.003697,-0.001239,87.823908,0.003763,
1280,170,-0.025007,-9.609245,0.999998,0.000165,-0.000456,0.003294,-0.000053,0.003295,-0.000457,-89.191004,0.003570,
890,1150,1.301944,-4.346901,0.999998,0.000188,-0.002695,0.005943,-0.000725,0.006004,-0.002755,-85.237869,0.006010,
1320,560,-0.117836,-8.209221,0.999998,0.000149,-0.001463,0.003503,0.000629,0.003581,-0.001542,82.895209,0.003592,
1240,110,-0.002091,-9.805462,0.999999,0.000137,-0.000308,0.003149,-0.000013,0.003149,-0.000308,-89.788219,0.003473,
1550,420,-0.490681,-8.459633,0.999997,0.000183,-0.002134,0.004655,0.000277,0.004666,-0.002145,87.665863,0.004671,
920,480,0.524465,-8.186956,0.999997,0.000221,-0.002254,0.004770,-0.000376,0.004790,-0.002274,-86.947809,0.004792,
1490,970,-1.258190,-5.424643,0.999997,0.000214,-0.002326,0.006665,-0.000416,0.006685,-0.002346,-87.355089,0.006783,
1250,470,-0.022950,-8.568705,0.999998,0.000168,-0.001256,0.003487,0.000140,0.003491,-0.001260,88.314723,0.003536,
700,1550,1.106472,-2.378496,0.999998,0.000189,-0.002562,0.005161,0.000092,0.005162,-0.002563,89.316500,0.005162,
1530,1310,-0.774711,-3.275394,0.999997,0.000181,-0.003548,0.006050,-0.000343,0.006062,-0.003560,-87.958066,0.006093,
750,250,0.592462,-9.061720,0.999998,0.000164,-0.001942,0.004872,0.000485,0.004907,-0.001977,85.945598,0.004938,
790,710,1.176799,-6.747567,0.999997,0.000218,-0.003000,0.005539,0.000215,0.005544,-0.003006,88.557211,0.005551,
1800,620,-1.378940,-7.050596,0.999997,0.000187,-0.002610,0.005124,-0.000073,0.005125,-0.002611,-89.461792,0.005125,
1150,1340,0.098611,-2.356237,0.999998,0.000164,-0.001674,0.002890,0.001522,0.003351,-0.002135,73.147807,0.003393,
1760,1130,-1.785688,-4.543572,0.999997,0.000199,-0.002277,0.004874,0.000385,0.004895,-0.002298,86.927735,0.004898,
1420,530,-0.287169,-8.171120,0.999998,0.000178,-0.002020,0.004249,0.000743,0.004336,-0.002107,83.333630,0.004336,
1550,1080,-1.391637,-4.741288,0.999997,0.000231,-0.002044,0.005773,0.000527,0.005808,-0.002079,86.159064,0.005886,
1350,1770,-0.108620,-0.884169,0.999998,0.000169,-0.000985,0.003629,-0.000016,0.003629,-0.000985,-89.807096,0.003754,
590,1950,0.511585,-0.540679,0.999997,0.000205,-0.002564,0.005517,-0.001084,0.005660,-0.002707,-82.488096,0.005662,
900,1930,0.148404,-0.370731,0.999998,0.000145,-0.000699,0.003779,-0.000625,0.003865,-0.000785,-82.203166,0.004086,
1620,240,-0.401196,-9.200451,0.999998,0.000181,-0.001541,0.004494,-0.000429,0.004524,-0.001572,-85.957361,0.004594,
1790,1540,-1.191453,-2.473591,0.999998,0.000196,-0.002572,0.005131,-0.000095,0.005133,-0.002573,-89.296018,0.005133,
590,690,1.681403,-6.584883,0.999998,0.000211,-0.002551,0.005053,0.000085,0.005054,-0.002552,89.362602,0.005054,
1430,1800,-0.171092,-0.811732,0.999998,0.000150,-0.001082,0.003776,0.000064,0.003777,-0.001083,89.240387,0.003890,
590,1290,1.810835,-3.865527,0.999998,0.000184,-0.002416,0.004865,-0.000144,0.004868,-0.002419,-88.865473,0.004868,
1570,1530,-0.632499,-2.160330,0.999998,0.000194,-0.002558,0.005021,-0.000410,0.005043,-0.002580,-86.913432,0.005043,
1460,1200,-0.775412,-3.762634,0.999997,0.000200,-0.003877,0.006881,-0.000466,0.006901,-0.003897,-87.524792,0.006920,
1440,990,-1.169008,-5.387598,0.999996,0.000250,-0.003329,0.008904,0.000579,0.008932,-0.003356,87.294902,0.009023,
630,990,1.996411,-5.209352,0.999998,0.000170,-0.002114,0.004489,0.000095,0.004490,-0.002115,89.176259,0.004493,
560,1720,1.198155,-1.752852,0.999982,0.000000,-0.002208,0.004520,-0.000037,0.004520,-0.002209,-89.689013,0.004520,
1050,70,0.031652,-9.921014,0.999999,0.000157,-0.000265,0.003187,0.000277,0.003209,-0.000287,85.437638,0.003551,
1700,640,-1.137636,-7.090354,0.999998,0.000172,-0.002850,0.005343,-0.000049,0.005344,-0.002850,-89.659763,0.005348,
660,1940,0.397566,-0.450486,0.999997,0.000204,-0.001602,0.005124,-0.001398,0.005403,-0.001881,-78.713373,0.005486,
1140,1660,0.106890,-1.271171,0.999998,0.000161,-0.001295,0.003631,0.000241,0.003643,-0.001307,87.200845,0.003691,
1630,50,-0.059501,-9.972740,0.999998,0.000156,-0.000159,0.003519,-0.000888,0.003722,-0.000362,-77.115793,0.004105,
1840,1390,-1.554897,-3.319800,0.999997,0.000232,-0.002550,0.005080,0.000145,0.005083,-0.002553,88.914415,0.005083,
1740,860,-1.645528,-5.872238,0.999998,0.000193,-0.002476,0.005081,-0.000517,0.005116,-0.002511,-86.104576,0.005117,
960,310,0.305513,-9.000529,0.999998,0.000176,-0.001609,0.004181,-0.000013,0.004181,-0.001610,-89.869784,0.004217,
1260,170,-0.014543,-9.610384,0.999998,0.000156,-0.000491,0.003298,-0.000013,0.003298,-0.000491,-89.803842,0.003559,
1320,540,-0.118551,-8.280832,0.999998,0.000161,-0.001461,0.003569,0.000564,0.003632,-0.001523,83.678064,0.003648,
1220,110,0.003957,-9.804785,0.999998,0.000151,-0.000302,0.003167,-0.000003,0.003167,-0.000302,-89.945428,0.003496,
890,1130,1.345112,-4.464375,0.999997,0.000196,-0.002494,0.005858,-0.000722,0.005920,-0.002556,-85.093025,0.005938,
1530,1290,-0.812974,-3.400310,0.999997,0.000174,-0.003618,0.006205,-0.000242,0.006211,-0.003624,-88.591637,0.006239,
750,230,0.547965,-9.159369,0.999998,0.000176,-0.001844,0.004807,0.000605,0.004862,-0.001898,84.847696,0.004901,
1010,680,0.431995,-7.397033,0.999997,0.000207,-0.003046,0.005172,-0.001158,0.005333,-0.003206,-82.129139,0.005369,
820,1550,0.798004,-2.183352,0.999998,0.000165,-0.002582,0.005105,0.000233,0.005112,-0.002589,88.266401,0.005112,
960,1020,1.349445,-5.085119,0.999998,0.000178,-0.001939,0.006232,0.000033,0.006233,-0.001939,89.768476,0.006379,
1800,640,-1.409565,-6.947734,0.999997,0.000190,-0.002625,0.005166,-0.000114,0.005167,-0.002627,-89.164261,0.005168,
1300,730,-0.078936,-7.723341,0.999998,0.000179,-0.001494,0.002563,0.001428,0.003015,-0.001947,72.423105,0.003058,
600,830,1.892723,-5.919885,0.999998,0.000170,-0.002281,0.004659,0.000200,0.004664,-0.002287,88.348311,0.004665,
1530,1080,-1.350728,-4.728547,0.999997,0.000214,-0.002097,0.006019,0.000492,0.006048,-0.002126,86.542926,0.006137,
860,2000,0.061817,-0.121026,0.999999,0.000140,-0.000301,0.003536,-0.000775,0.003687,-0.000452,-79.008235,0.004022,
1880,1250,-1.892954,-4.064408,0.999998,0.000162,-0.002272,0.004620,0.000115,0.004622,-0.002274,89.040531,0.004622,
580,690,1.705195,-6.568681,0.999998,0.000189,-0.002907,0.004994,0.000023,0.004994,-0.002907,89.834110,0.005016,
1770,1540,-1.139654,-2.440813,0.999998,0.000178,-0.002629,0.005143,-0.000099,0.005144,-0.002630,-89.273697,0.005144,
1250,1290,-0.017705,-2.312359,0.999998,0.000163,-0.001117,0.001433,-0.000531,0.001539,-0.001224,-78.685627,0.001626,
790,690,1.141517,-6.859676,0.999998,0.000191,-0.002984,0.005503,0.000135,0.005505,-0.002987,89.088146,0.005511,
1570,1520,-0.641866,-2.209738,0.999998,0.000188,-0.002593,0.005059,-0.000422,0.005082,-0.002616,-86.854651,0.005083,
1350,1750,-0.114306,-0.957229,0.999998,0.000145,-0.001064,0.003644,-0.000088,0.003646,-0.001065,-88.933871,0.003749,
580,1950,0.535225,-0.565221,0.999997,0.000202,-0.003333,0.005791,-0.001332,0.005981,-0.003524,-81.860306,0.006013,
1620,220,-0.369828,-9.289390,0.999997,0.000193,-0.001426,0.004360,-0.000489,0.004401,-0.001467,-85.205407,0.004481,
1380,370,-0.171855,-8.863830,0.999998,0.000169,-0.001244,0.003832,0.000143,0.003836,-0.001248,88.387483,0.003914,
1490,1780,-0.253883,-0.924267,0.999999,0.000136,-0.001341,0.004052,0.000103,0.004054,-0.001343,88.910759,0.004130,
930,1360,0.706808,-2.987972,0.999998,0.000203,-0.003346,0.005701,0.000501,0.005728,-0.003374,86.838350,0.005759,
1700,660,-1.171082,-6.983421,0.999997,0.000198,-0.002871,0.005375,-0.000102,0.005376,-0.002872,-89.294564,0.005381,
1570,1510,-0.651289,-2.261384,0.999997,0.000198,-0.002627,0.005070,-0.000428,0.005094,-0.002651,-86.828295,0.005095,
640,60,0.186575,-9.896273,0.999997,0.000204,-0.001512,0.004824,0.001591,0.005201,-0.001889,76.668865,0.005266,
1460,1180,-0.846984,-3.901285,0.999997,0.000206,-0.003777,0.007020,-0.000282,0.007028,-0.003784,-88.502380,0.007035,
660,1920,0.471422,-0.556893,0.999997,0.000254,-0.001799,0.005124,-0.001206,0.005328,-0.002003,-80.392300,0.005382,
1740,840,-1.612618,-5.974240,0.999997,0.000200,-0.002555,0.005147,-0.000547,0.005185,-0.002594,-85.957250,0.005185,
1620,50,-0.057817,-9.973036,0.999998,0.000151,-0.000167,0.003493,-0.000829,0.003672,-0.000346,-77.808320,0.004055,
1840,1370,-1.590308,-3.421335,0.999997,0.000208,-0.002545,0.005053,0.000172,0.005057,-0.002549,88.700409,0.005057,
740,490,0.984723,-7.843693,0.999999,0.000130,-0.002573,0.005124,-0.000127,0.005126,-0.002575,-89.052195,0.005126,
1440,970,-1.120907,-5.552349,0.999993,0.000379,-0.003175,0.008430,0.000750,0.008478,-0.003223,86.315469,0.008559,
1140,1860,0.053719,-0.559239,0.999998,0.000174,-0.000645,0.003405,-0.000067,0.003406,-0.000646,-89.057751,0.003618,
1380,170,-0.074633,-9.594689,0.999998,0.000183,-0.000508,0.003430,-0.000192,0.003439,-0.000517,-87.210112,0.003709,
890,1110,1.390850,-4.581691,0.999997,0.000213,-0.002286,0.005736,-0.000661,0.005790,-0.002340,-85.321881,0.005825,
1480,490,-0.394130,-8.242495,0.999997,0.000175,-0.002066,0.004482,0.000516,0.004523,-0.002107,85.522590,0.004526,
570,70,0.377148,-9.705086,0.999921,0.001182,-0.001507,0.006464,0.002179,0.007021,-0.002063,75.664964,0.007217,
800,1550,0.849254,-2.216905,0.999998,0.000163,-0.002596,0.005123,0.000194,0.005128,-0.002601,88.563783,0.005128,
1320,520,-0.117359,-8.352838,0.999998,0.000153,-0.001455,0.003601,0.000497,0.003650,-0.001503,84.444640,0.003669,
1530,1270,-0.856012,-3.526591,0.999998,0.000170,-0.003647,0.006288,-0.000112,0.006290,-0.003649,-89.354880,0.006316,
750,210,0.506955,-9.254586,0.999997,0.000188,-0.001757,0.004828,0.000720,0.004906,-0.001835,83.830032,0.004957,
1800,1080,-1.920036,-4.795029,0.999998,0.000184,-0.002195,0.004614,0.000107,0.004616,-0.002197,89.097474,0.004618,
1870,1250,-1.870844,-4.051605,0.999998,0.000167,-0.002321,0.004658,0.000157,0.004662,-0.002324,88.712874,0.004662,
570,1950,0.581274,-0.579356,0.999442,0.002720,-0.003774,0.006089,-0.001490,0.006309,-0.003995,-81.594158,0.006383,
590,830,1.914758,-5.907553,0.999998,0.000165,-0.002257,0.004643,0.000154,0.004646,-0.002260,88.719341,0.004647,
1080,1930,0.052217,-0.334066,0.999998,0.000180,-0.000337,0.003300,-0.000221,0.003314,-0.000350,-86.531779,0.003641,
560,1710,1.209635,-1.797077,0.999974,0.000000,-0.002123,0.004895,0.000085,0.004896,-0.002124,89.302164,0.004911,
1350,1300,-0.183605,-2.632341,0.999998,0.000187,-0.002520,0.003814,-0.002048,0.004419,-0.003125,-73.552329,0.004543,
1040,1980,0.036696,-0.174375,0.999999,0.000134,-0.000280,0.003227,-0.000292,0.003251,-0.000304,-85.265376,0.003591,
1490,1760,-0.272308,-1.005715,0.999998,0.000177,-0.001437,0.004075,0.000049,0.004075,-0.001437,89.492856,0.004134,
1350,1730,-0.122309,-1.032551,0.999999,0.000136,-0.001120,0.003704,-0.000104,0.003707,-0.001122,-88.766286,0.003802,
1420,590,-0.305713,-7.910295,0.999997,0.000205,-0.002226,0.004376,0.000959,0.004512,-0.002363,81.903004,0.004514,
1610,1220,-1.241791,-3.971158,0.999998,0.000151,-0.003038,0.005849,0.000587,0.005887,-0.003076,86.234486,0.005889,
1060,1870,0.099415,-0.541729,0.999998,0.000214,-0.000717,0.003522,-0.000146,0.003527,-0.000722,-88.026602,0.003727,
1620,200,-0.334846,-9.376895,0.999997,0.000189,-0.001329,0.004369,-0.000589,0.004429,-0.001390,-84.161675,0.004530,
1460,1160,-0.918444,-4.041886,0.999997,0.000204,-0.003580,0.007039,-0.000117,0.007041,-0.003581,-89.370741,0.007041,
990,680,0.494618,-7.336207,0.999998,0.000167,-0.003137,0.005350,-0.000982,0.005462,-0.003249,-83.482677,0.005495,
1430,990,-1.138439,-5.413946,0.999994,0.000294,-0.003821,0.009707,0.001025,0.009784,-0.003899,85.690313,0.009851,
1740,510,-1.054308,-7.713420,0.999998,0.000172,-0.002574,0.005159,0.000111,0.005160,-0.002575,89.177301,0.005160,
1250,1270,-0.023026,-2.337244,0.999998,0.000180,-0.001328,0.001204,-0.000570,0.001326,-0.001451,-77.872725,0.001608,
790,670,1.109858,-6.968161,0.999998,0.000183,-0.002949,0.005465,0.000092,0.005466,-0.002950,89.370530,0.005472,
650,200,0.692432,-9.175289,0.999997,0.000192,-0.002252,0.005142,0.000527,0.005179,-0.002289,85.945789,0.005191,
1700,1100,-1.683279,-4.677204,0.999998,0.000186,-0.002227,0.005112,0.000440,0.005138,-0.002253,86.583088,0.005151,
1620,1970,-0.123238,-0.235504,0.999998,0.000154,-0.000493,0.003743,0.000851,0.003907,-0.000657,79.052936,0.004184,
660,1900,0.538865,-0.657596,0.999998,0.000215,-0.001933,0.005155,-0.001019,0.005298,-0.002076,-81.975177,0.005339,
960,1240,0.827135,-3.647625,0.999997,0.000211,-0.003794,0.006497,0.000163,0.006500,-0.003797,89.091405,0.006530,
1160,430,0.085825,-8.693462,0.999998,0.000182,-0.001269,0.003629,-0.000201,0.003637,-0.001277,-87.656767,0.003690,
630,1600,1.213121,-2.236687,0.999997,0.000169,-0.002527,0.005084,0.000083,0.005085,-0.002527,89.378391,0.005085,
1220,1390,0.011589,-2.115631,0.999999,0.000139,-0.001100,0.002483,0.000224,0.002497,-0.001114,86.438212,0.002502,
1530,1060,-1.380312,-4.849877,0.999997,0.000206,-0.001941,0.006020,0.000326,0.006034,-0.001954,87.656649,0.006157,
570,690,1.732787,-6.555598,0.999824,0.001496,-0.003129,0.004916,-0.000038,0.004916,-0.003129,-89.732835,0.004977,
1570,1490,-0.670112,-2.361709,0.999997,0.000206,-0.002708,0.005132,-0.000437,0.005157,-0.002732,-86.817837,0.005160,
890,1090,1.422523,-4.693195,0.999997,0.000205,-0.002105,0.005626,-0.000543,0.005664,-0.002143,-86.003780,0.005720,
1360,170,-0.066430,-9.598074,0.999998,0.000185,-0.000506,0.003405,-0.000134,0.003410,-0.000511,-88.046046,0.003678,
1320,500,-0.116511,-8.424386,0.999998,0.000155,-0.001435,0.003603,0.000438,0.003640,-0.001472,85.071644,0.003662,
570,120,0.634569,-9.409167,0.999710,0.002187,-0.004173,0.004990,0.000130,0.004992,-0.004175,89.184682,0.005355,
630,1970,0.326364,-0.336901,0.999997,0.000204,-0.002134,0.005353,-0.001308,0.005575,-0.002356,-80.369326,0.005597,
720,530,1.090888,-7.604258,0.999998,0.000166,-0.002633,0.005189,-0.000084,0.005190,-0.002634,-89.381671,0.005191,
1460,490,-0.354263,-8.275069,0.999997,0.000177,-0.002035,0.004396,0.000572,0.004446,-0.002085,84.957553,0.004449,
1800,1060,-1.927258,-4.888304,0.999998,0.000171,-0.002173,0.004647,0.000128,0.004650,-0.002176,88.925227,0.004653,
1000,1300,0.548112,-3.133115,0.999997,0.000237,-0.003669,0.005868,0.001016,0.005975,-0.003776,83.983463,0.006044,
580,850,1.968690,-5.802426,0.999999,0.000134,-0.002235,0.004555,0.000114,0.004557,-0.002237,89.037578,0.004557,
1350,1280,-0.197774,-2.708900,0.999998,0.000203,-0.002679,0.003864,-0.002207,0.004539,-0.003354,-72.996502,0.004708,
570,1940,0.617665,-0.638743,0.999739,0.001992,-0.003927,0.006189,-0.001015,0.006290,-0.004027,-84.327316,0.006372,
1170,90,0.013850,-9.864989,0.999998,0.000153,-0.000171,0.003103,0.000091,0.003105,-0.000173,88.409155,0.003490,
1250,1800,-0.015598,-0.755739,0.999998,0.000168,-0.000787,0.003442,-0.000035,0.003443,-0.000787,-89.532481,0.003608,
1530,1250,-0.901465,-3.651469,0.999998,0.000165,-0.003625,0.006374,0.000036,0.006374,-0.003625,89.793802,0.006394,
570,60,0.324742,-9.764070,0.999932,0.000977,-0.000719,0.006825,0.002473,0.007564,-0.001457,73.377126,0.008026,
1200,1930,0.012926,-0.323765,0.999998,0.000169,-0.000320,0.003176,-0.000029,0.003176,-0.000321,-89.528609,0.003497,
750,190,0.458127,-9.353378,0.999997,0.000183,-0.001602,0.004745,0.000808,0.004846,-0.001704,82.855388,0.004917,
1350,1710,-0.127449,-1.105543,0.999998,0.000152,-0.001161,0.003657,-0.000156,0.003662,-0.001166,-88.145038,0.003742,
1860,1250,-1.846977,-4.040350,0.999998,0.000192,-0.002351,0.004700,0.000199,0.004706,-0.002356,88.386495,0.004706,
1620,180,-0.299050,-9.463827,0.999998,0.000186,-0.001185,0.004239,-0.000648,0.004315,-0.001262,-83.284146,0.004438,
1500,1470,-0.497611,-2.322337,0.999997,0.000198,-0.002653,0.004964,-0.000726,0.005032,-0.002722,-84.604394,0.005038,
560,1810,1.018649,-1.322847,0.999998,0.000000,-0.002368,0.004817,0.000059,0.004818,-0.002369,89.533131,0.004818,
1740,820,-1.576384,-6.077991,0.999997,0.000204,-0.002604,0.005208,-0.000538,0.005245,-0.002640,-86.080334,0.005245,
1250,50,-0.001776,-9.989223,0.999999,0.000128,-0.000130,0.002999,-0.000012,0.002999,-0.000130,-89.778272,0.003390,
1040,1960,0.048887,-0.239441,0.999999,0.000146,-0.000375,0.003304,-0.000265,0.003323,-0.000394,-85.898946,0.003631,
1420,570,-0.299847,-7.997896,0.999998,0.000161,-0.002177,0.004303,0.000914,0.004430,-0.002303,82.122139,0.004431,
960,1000,1.338316,-5.210954,0.999998,0.000174,-0.001999,0.006492,0.000244,0.006499,-0.002006,88.354699,0.006656,
770,1360,1.210364,-3.277297,0.999997,0.000193,-0.002925,0.005457,-0.000199,0.005462,-0.002930,-88.637856,0.005467,
1320,730,-0.111221,-7.655135,0.999998,0.000177,-0.001790,0.003016,0.001697,0.003555,-0.002328,72.386843,0.003611,
1200,2010,0.003380,-0.076740,0.999999,0.000107,-0.000084,0.003004,-0.000009,0.003004,-0.000084,-89.835220,0.003421,
1800,1040,-1.935282,-4.982560,0.999998,0.000158,-0.002160,0.004656,0.000110,0.004658,-0.002162,89.075872,0.004662,
1310,880,-0.462417,-7.352071,0.999996,0.000000,-0.002223,0.001480,0.000881,0.001679,-0.002422,77.276338,0.002482,
1220,1370,0.011690,-2.162306,0.999998,0.000138,-0.001053,0.002282,0.000231,0.002298,-0.001069,86.051591,0.002300,
570,110,0.595459,-9.450574,0.999663,0.002323,-0.004422,0.005210,0.000646,0.005253,-0.004465,86.182944,0.005666,
1170,620,0.076437,-8.046298,0.999998,0.000165,-0.001417,0.003120,-0.000731,0.003235,-0.001532,-81.064122,0.003236,
1510,1120,-1.212506,-4.454861,0.999997,0.000208,-0.002670,0.006483,0.000627,0.006526,-0.002713,86.098996,0.006557,
750,610,1.127370,-7.231114,0.999998,0.000179,-0.002752,0.005327,0.000001,0.005327,-0.002752,89.989902,0.005328,
1490,950,-1.203852,-5.557889,0.999997,0.000206,-0.002611,0.006827,-0.000485,0.006852,-0.002635,-87.067706,0.006913,
640,630,1.454428,-6.964108,0.999998,0.000180,-0.002579,0.005088,0.000080,0.005089,-0.002580,89.403348,0.005089,
1460,1140,-0.996120,-4.184579,0.999997,0.000195,-0.003311,0.007141,-0.000022,0.007141,-0.003311,-89.877052,0.007147,
940,390,0.412007,-8.630064,0.999998,0.000179,-0.001806,0.004428,-0.000193,0.004434,-0.001812,-88.225753,0.004458,
1250,1250,-0.030834,-2.358529,0.999998,0.000170,-0.001725,0.001064,-0.000520,0.001158,-0.001819,-79.772946,0.001841,
610,1600,1.263334,-2.268596,0.999997,0.000173,-0.002493,0.005072,0.000073,0.005072,-0.002494,89.447146,0.005072,
1620,1030,-1.562566,-5.027285,0.999999,0.000177,-0.001916,0.005262,0.000025,0.005262,-0.001916,89.799390,0.005326,
1830,200,-0.731916,-9.142809,0.999997,0.000205,-0.002364,0.005124,-0.000326,0.005138,-0.002378,-87.515472,0.005143,
850,470,0.684784,-8.122254,0.999998,0.000169,-0.002442,0.004967,-0.000236,0.004975,-0.002449,-88.179412,0.004975,
1060,1670,0.209027,-1.293985,0.999998,0.000166,-0.001511,0.003940,0.000293,0.003955,-0.001527,86.926878,0.003989,
700,1820,0.666309,-1.007473,0.999998,0.000183,-0.002350,0.004995,-0.000360,0.005013,-0.002367,-87.197596,0.005016,
1320,480,-0.114938,-8.497468,0.999998,0.000190,-0.001419,0.003661,0.000401,0.003692,-0.001451,85.513002,0.003721,
1690,500,-0.912404,-7.846559,0.999998,0.000169,-0.002556,0.005147,0.000165,0.005151,-0.002560,88.775883,0.005151,
1590,300,-0.438722,-8.959593,0.999998,0.000192,-0.001882,0.004466,-0.000106,0.004468,-0.001884,-89.041301,0.004486,
920,460,0.509548,-8.282512,0.999998,0.000206,-0.002255,0.004715,-0.000376,0.004736,-0.002275,-86.925012,0.004737,
1870,170,-0.741122,-9.204193,0.999998,0.000173,-0.002453,0.005114,-0.000358,0.005131,-0.002470,-87.295163,0.005132,
1050,1030,1.080457,-5.010164,0.999988,0.000411,-0.005066,0.012277,0.000109,0.012277,-0.005067,89.640142,0.012340,
780,1850,0.442564,-0.774324,0.999997,0.000192,-0.001818,0.004619,-0.000609,0.004676,-0.001875,-84.641921,0.004707,
790,650,1.076118,-7.078351,0.999998,0.000179,-0.002918,0.005449,0.000039,0.005450,-0.002918,89.732102,0.005454,
1530,1470,-0.580262,-2.388715,0.999997,0.000220,-0.002740,0.005104,-0.000597,0.005149,-0.002785,-85.671336,0.005155,
890,1290,0.965496,-3.494073,0.999997,0.000179,-0.003407,0.006009,-0.000063,0.006009,-0.003407,-89.617327,0.006027,
660,1880,0.601058,-0.762630,0.999997,0.000209,-0.002064,0.005140,-0.000826,0.005234,-0.002158,-83.543256,0.005260,
580,840,1.952489,-5.848594,0.999999,0.000125,-0.002261,0.004601,0.000105,0.004603,-0.002263,89.126061,0.004603,
690,980,1.862071,-5.264931,0.999998,0.000152,-0.002175,0.004688,0.000115,0.004690,-0.002177,89.040855,0.004694,
1190,1740,0.039360,-0.967963,0.999999,0.000127,-0.000936,0.003521,0.000040,0.003522,-0.000936,89.492125,0.003648,
560,930,2.101379,-5.433641,0.999993,0.000000,-0.001915,0.004203,0.000080,0.004204,-0.001916,89.252958,0.004210,
1620,160,-0.261214,-9.546990,0.999998,0.000180,-0.001044,0.004189,-0.000728,0.004288,-0.001143,-82.227218,0.004441,
1040,1940,0.063468,-0.308773,0.999998,0.000149,-0.000478,0.003360,-0.000277,0.003380,-0.000498,-85.896362,0.003650,
630,1430,1.470493,-3.105504,0.999997,0.000209,-0.002553,0.005114,-0.000066,0.005114,-0.002554,-89.508738,0.005114,
1660,740,-1.196150,-6.597906,0.999998,0.000210,-0.003031,0.005635,-0.000295,0.005645,-0.003041,-88.052000,0.005651,
1310,870,-0.397849,-7.367643,0.999997,0.000000,-0.002204,0.001533,0.000735,0.001673,-0.002343,79.267957,0.002413,
1400,780,-0.356259,-7.078961,0.999997,0.000218,-0.003504,0.005254,0.001834,0.005622,-0.003872,78.637055,0.005754,
1830,970,-1.981293,-5.299539,0.999998,0.000171,-0.002157,0.004486,-0.000081,0.004487,-0.002158,-89.298009,0.004488,
1010,100,0.063173,-9.820290,0.999999,0.000155,-0.000307,0.003355,0.000351,0.003388,-0.000340,84.573338,0.003731,
1090,1550,0.197531,-1.730812,0.999998,0.000152,-0.001693,0.003897,0.000659,0.003974,-0.001770,83.362443,0.003981,
570,100,0.565079,-9.507929,0.999584,0.002595,-0.004151,0.005871,0.001350,0.006050,-0.004330,82.461373,0.006234,
740,1930,0.302136,-0.432368,0.999998,0.000182,-0.001134,0.004536,-0.001203,0.004781,-0.001378,-78.505122,0.004922,
1090,2000,0.015133,-0.109422,0.999999,0.000131,-0.000087,0.003059,-0.000184,0.003070,-0.000097,-86.670036,0.003490,
870,440,0.602553,-8.301421,0.999998,0.000228,-0.002260,0.004826,-0.000223,0.004833,-0.002267,-88.202454,0.004836,
1490,930,-1.140786,-5.694762,0.999997,0.000198,-0.002911,0.006816,-0.000439,0.006836,-0.002931,-87.418760,0.006859,
1350,1690,-0.132978,-1.178666,0.999998,0.000167,-0.001221,0.003765,-0.000172,0.003771,-0.001227,-88.028662,0.003847,
1190,540,0.052839,-8.321707,0.999998,0.000165,-0.001271,0.003345,-0.000247,0.003358,-0.001284,-86.950069,0.003389,
750,1360,1.267437,-3.303138,0.999997,0.000217,-0.002844,0.005398,-0.000222,0.005404,-0.002850,-88.457270,0.005407,
1000,1280,0.582903,-3.254041,0.999997,0.000214,-0.003793,0.006122,0.000927,0.006208,-0.003879,84.704660,0.006272,
1050,1420,0.300973,-2.349258,0.999998,0.000179,-0.002412,0.004423,0.001162,0.004615,-0.002604,80.610975,0.004627,
640,610,1.421012,-7.065188,0.999997,0.000206,-0.002581,0.005087,0.000068,0.005087,-0.002582,89.491724,0.005088,
1620,1010,-1.557533,-5.131422,0.999998,0.000183,-0.001901,0.005197,-0.000171,0.005201,-0.001905,-88.622498,0.005263,
1460,1120,-1.068347,-4.332807,0.999998,0.000169,-0.003064,0.007311,-0.000040,0.007311,-0.003064,-89.778564,0.007343,
1200,1480,0.037838,-1.867969,0.999998,0.000183,-0.001261,0.003156,0.000260,0.003171,-0.001276,86.642712,0.003191,
1360,630,-0.184979,-7.886747,0.999998,0.000174,-0.001922,0.003763,0.001108,0.003972,-0.002130,79.347603,0.003975,
960,960,1.261902,-5.471836,0.999997,0.000180,-0.002377,0.006487,0.000532,0.006519,-0.002409,86.576737,0.006592,
660,550,1.276664,-7.405108,0.999997,0.000190,-0.002592,0.005128,-0.000029,0.005128,-0.002592,-89.783312,0.005129,
640,670,1.520830,-6.758662,0.999996,0.000228,-0.002547,0.005118,0.000159,0.005121,-0.002550,88.815136,0.005121,
850,450,0.658874,-8.220391,0.999998,0.000201,-0.002406,0.004938,-0.000234,0.004945,-0.002413,-88.180385,0.004946,
1080,1670,0.179827,-1.275643,0.999998,0.000171,-0.001347,0.003830,0.000193,0.003837,-0.001354,87.872114,0.003892,
1830,180,-0.674607,-9.245318,0.999997,0.000200,-0.002340,0.005202,-0.000450,0.005229,-0.002366,-86.597099,0.005237,
1590,840,-1.191197,-6.104613,0.999997,0.000175,-0.003127,0.005995,-0.000561,0.006030,-0.003162,-86.492550,0.006032,
1240,50,-0.000929,-9.988262,0.999999,0.000106,-0.000136,0.002993,-0.000020,0.002993,-0.000136,-89.641099,0.003380,
1320,460,-0.113862,-8.571406,0.999998,0.000157,-0.001400,0.003653,0.000366,0.003680,-0.001426,85.880432,0.003710,
920,440,0.494571,-8.374874,0.999998,0.000195,-0.002208,0.004669,-0.000336,0.004686,-0.002225,-87.207658,0.004688,
1870,160,-0.709504,-9.255305,0.999998,0.000172,-0.002446,0.005094,-0.000399,0.005115,-0.002467,-86.976025,0.005117,
700,1800,0.709803,-1.109539,0.999998,0.000187,-0.002362,0.005009,-0.000267,0.005019,-0.002372,-87.924802,0.005021,
1610,180,-0.285750,-9.469583,0.999998,0.000179,-0.001219,0.004202,-0.000583,0.004264,-0.001282,-83.929406,0.004375,
1430,1040,-1.160015,-4.917689,0.999993,0.000394,-0.004150,0.010295,-0.000402,0.010306,-0.004162,-88.406080,0.010370,
1530,1230,-0.951210,-3.780964,0.999998,0.000160,-0.003561,0.006425,0.000168,0.006428,-0.003563,89.035788,0.006441,
790,630,1.045437,-7.187408,0.999998,0.000169,-0.002873,0.005394,-0.000037,0.005395,-0.002874,-89.743982,0.005398,
590,750,1.785439,-6.288707,0.999998,0.000162,-0.002482,0.004882,0.000121,0.004884,-0.002484,89.062329,0.004884,
1040,1920,0.077219,-0.373125,0.999998,0.000148,-0.000549,0.003390,-0.000242,0.003405,-0.000564,-86.490840,0.003650,
560,1440,1.682563,-3.150752,0.999601,0.000000,-0.005395,0.005154,0.000192,0.005157,-0.005399,88.958407,0.006099,
1620,140,-0.222484,-9.631719,0.999998,0.000180,-0.000877,0.004050,-0.000754,0.004163,-0.000990,-81.490004,0.004350,
1310,30,-0.002922,-10.048222,0.999999,0.000000,-0.000042,0.002950,-0.000078,0.002952,-0.000044,-88.509542,0.003384,
1660,700,-1.120251,-6.822857,0.999998,0.000196,-0.002991,0.005578,-0.000126,0.005580,-0.002993,-89.158218,0.005585,
580,830,1.936953,-5.895560,0.999998,0.000155,-0.002271,0.004630,0.000097,0.004632,-0.002272,89.198693,0.004632,
660,1860,0.657011,-0.866040,0.999997,0.000194,-0.002169,0.005128,-0.000656,0.005187,-0.002228,-84.902881,0.005204,
1230,100,0.000292,-9.837238,0.999999,0.000143,-0.000270,0.003106,0.000002,0.003106,-0.000270,89.967998,0.003442,
1530,2000,-0.041429,-0.116920,0.999999,0.000139,-0.000167,0.003314,0.000521,0.003390,-0.000243,81.672118,0.003782,
1090,1990,0.017846,-0.138823,0.999998,0.000145,-0.000119,0.003116,-0.000202,0.003129,-0.000131,-86.449466,0.003539,
1490,910,-1.078648,-5.830719,0.999997,0.000199,-0.003177,0.006790,-0.000387,0.006805,-0.003192,-87.780011,0.006809,
1830,1170,-1.899417,-4.389051,0.999997,0.000192,-0.002271,0.004658,0.000283,0.004670,-0.002282,87.666027,0.004670,
1470,1340,-0.519484,-2.925681,0.999997,0.000234,-0.003369,0.005551,-0.001041,0.005671,-0.003489,-83.433282,0.005721,
1690,1880,-0.387638,-0.640181,0.999997,0.000192,-0.001547,0.004539,0.000792,0.004641,-0.001648,82.708359,0.004705,
630,1410,1.503112,-3.206798,0.999997,0.000199,-0.002557,0.005084,-0.000093,0.005085,-0.002558,-89.304821,0.005085,
680,70,0.199893,-9.859628,0.999998,0.000159,-0.000828,0.004731,0.001881,0.005307,-0.001405,72.956630,0.005500,
1460,1100,-1.138693,-4.486482,0.999997,0.000204,-0.002853,0.007597,-0.000073,0.007598,-0.002854,-89.601216,0.007676,
870,560,0.727682,-7.699229,0.999997,0.000181,-0.002719,0.005202,-0.000366,0.005219,-0.002736,-87.359443,0.005221,
1400,760,-0.333979,-7.183080,0.999997,0.000188,-0.003292,0.005055,0.001808,0.005430,-0.003667,78.287810,0.005540,
960,940,1.208069,-5.603202,0.999998,0.000178,-0.002651,0.006576,0.000589,0.006614,-0.002689,86.360753,0.006652,
1570,1760,-0.394211,-1.073652,0.999998,0.000176,-0.001689,0.004413,0.000147,0.004417,-0.001692,88.619831,0.004457,
1340,430,-0.135685,-8.665354,0.999998,0.000197,-0.001356,0.003734,0.000293,0.003750,-0.001372,86.716436,0.003795,
1170,540,0.078228,-8.309739,0.999998,0.000148,-0.001357,0.003407,-0.000414,0.003443,-0.001392,-85.075380,0.003464,
1170,1740,0.058916,-0.971780,0.999999,0.000155,-0.000900,0.003551,0.000010,0.003551,-0.000900,89.873930,0.003692,
1800,510,-1.209455,-7.615654,0.999998,0.000169,-0.002563,0.005149,0.000063,0.005149,-0.002564,89.533624,0.005149,
1570,1220,-1.115311,-3.918784,0.999996,0.000226,-0.003299,0.006134,0.000486,0.006159,-0.003324,87.058604,0.006166,
770,160,0.357708,-9.505119,0.999998,0.000177,-0.001471,0.004550,0.000898,0.004681,-0.001602,81.691572,0.004758,
850,430,0.639256,-8.320098,0.999997,0.000229,-0.002324,0.004900,-0.000202,0.004906,-0.002330,-88.396517,0.004908,
730,1220,1.585282,-4.073620,0.999996,0.000218,-0.002580,0.005230,-0.000547,0.005268,-0.002618,-86.010776,0.005268,
960,50,0.029661,-9.980037,0.999999,0.000162,-0.000259,0.003264,0.000411,0.003311,-0.000306,83.427808,0.003659,
1000,1260,0.622551,-3.379438,0.999996,0.000231,-0.003872,0.006298,0.000846,0.006368,-0.003942,85.279589,0.006428,
1570,840,-1.127877,-6.131536,0.999998,0.000134,-0.003229,0.006147,-0.000537,0.006178,-0.003259,-86.733127,0.006181,
1300,2020,-0.002936,-0.046030,0.999999,0.000000,0.000048,0.003054,0.000096,0.003057,0.000045,88.177592,0.003556,
1780,1210,-1.720238,-4.157658,0.999997,0.000207,-0.002461,0.004973,0.000441,0.004999,-0.002487,86.618689,0.004999,
920,420,0.473802,-8.468645,0.999997,0.000197,-0.002096,0.004626,-0.000258,0.004636,-0.002106,-87.803141,0.004643,
920,930,1.284746,-5.612191,0.999997,0.000229,-0.002542,0.006081,0.000710,0.006139,-0.002600,85.326628,0.006163,
590,740,1.767963,-6.337275,0.999998,0.000175,-0.002536,0.004916,0.000127,0.004918,-0.002539,89.027336,0.004919,
1640,890,-1.445379,-5.768302,0.999998,0.000190,-0.002584,0.005492,-0.000650,0.005544,-0.002636,-85.429802,0.005546,
790,610,1.016039,-7.294148,0.999998,0.000161,-0.002840,0.005381,-0.000075,0.005382,-0.002840,-89.480580,0.005384,
1180,170,0.027150,-9.608888,0.999998,0.000169,-0.000458,0.003311,0.000041,0.003311,-0.000459,89.372802,0.003588,
880,1460,0.739287,-2.546563,0.999997,0.000185,-0.002846,0.005275,0.000391,0.005294,-0.002865,87.252011,0.005300,
700,1780,0.750558,-1.210456,0.999997,0.000188,-0.002377,0.005024,-0.000195,0.005029,-0.002382,-88.488270,0.005031,
1350,1670,-0.139548,-1.255143,0.999998,0.000177,-0.001278,0.003770,-0.000201,0.003778,-0.001286,-87.722395,0.003841,
1360,870,-0.482221,-6.911164,0.999997,0.000214,-0.002138,0.003668,0.002211,0.004414,-0.002884,71.353375,0.004483,
1320,440,-0.109398,-8.642996,0.999998,0.000151,-0.001361,0.003652,0.000315,0.003672,-0.001380,86.418702,0.003709,
560,1420,1.705240,-3.248540,0.999738,0.000000,-0.004531,0.005427,-0.000042,0.005428,-0.004531,-89.760926,0.005819,
1660,160,-0.306243,-9.528133,0.999998,0.000182,-0.001391,0.004369,-0.000768,0.004470,-0.001492,-82.535774,0.004552,
1040,1900,0.092108,-0.444388,0.999998,0.000199,-0.000625,0.003508,-0.000234,0.003521,-0.000638,-86.768220,0.003752,
1620,120,-0.186800,-9.710347,0.999998,0.000165,-0.000761,0.003938,-0.000817,0.004076,-0.000899,-80.409022,0.004283,
1200,1460,0.037935,-1.931645,0.999998,0.000161,-0.001251,0.003075,0.000279,0.003093,-0.001269,86.320592,0.003110,
1470,1320,-0.544487,-3.039206,0.999998,0.000186,-0.003549,0.005781,-0.001009,0.005888,-0.003657,-83.899375,0.005946,
1490,890,-1.004705,-5.969706,0.999998,0.000178,-0.003398,0.006759,-0.000305,0.006768,-0.003407,-88.283425,0.006768,
1100,90,0.029379,-9.861467,0.999999,0.000141,-0.000217,0.003172,0.000180,0.003181,-0.000227,86.974107,0.003549,
660,1840,0.710593,-0.967041,0.999997,0.000189,-0.002235,0.005120,-0.000540,0.005159,-0.002274,-85.824210,0.005171,
1460,1080,-1.194772,-4.633114,0.999997,0.000210,-0.002712,0.007510,-0.000112,0.007511,-0.002714,-89.370932,0.007607,
1530,1190,-1.062304,-4.037602,0.999998,0.000175,-0.003340,0.006439,0.000475,0.006462,-0.003363,87.222839,0.006464,
720,230,0.609825,-9.128252,0.999998,0.000173,-0.002194,0.004919,0.000450,0.004948,-0.002223,86.396891,0.004956,
1070,240,0.122568,-9.344041,0.999998,0.000162,-0.000827,0.003647,0.000091,0.003649,-0.000829,88.831629,0.003826,
820,1910,0.255012,-0.478871,0.999997,0.000190,-0.001018,0.004184,-0.000811,0.004307,-0.001142,-81.342861,0.004463,
1090,1970,0.029196,-0.204116,0.999999,0.000148,-0.000180,0.003183,-0.000213,0.003197,-0.000193,-86.392907,0.003585,
1400,740,-0.311749,-7.285679,0.999997,0.000195,-0.003084,0.004931,0.001741,0.005293,-0.003446,78.258012,0.005373,
630,1390,1.537646,-3.308149,0.999997,0.000201,-0.002556,0.005054,-0.000139,0.005056,-0.002559,-88.956343,0.005056,
960,920,1.144366,-5.736631,0.999998,0.000182,-0.002901,0.006619,0.000560,0.006652,-0.002934,86.644552,0.006667,
1240,430,-0.011197,-8.712492,0.999997,0.000199,-0.001207,0.003504,0.000056,0.003505,-0.001208,89.315233,0.003561,
1810,1400,-1.461258,-3.225780,0.999996,0.000246,-0.002610,0.005151,0.000141,0.005154,-0.002613,88.961614,0.005154,
1830,1410,-1.495767,-3.201291,0.999996,0.000222,-0.002578,0.005116,0.000106,0.005118,-0.002579,89.208474,0.005118,
1260,610,-0.034902,-8.106252,0.999999,0.000131,-0.001201,0.002970,0.000280,0.002989,-0.001220,86.178156,0.003005,
710,1220,1.636425,-4.089111,0.999997,0.000226,-0.002556,0.005127,-0.000497,0.005159,-0.002588,-86.312713,0.005159,
850,410,0.615755,-8.418475,0.999997,0.000214,-0.002234,0.004800,-0.000143,0.004803,-0.002237,-88.832923,0.004806,
880,610,0.756749,-7.454142,0.999997,0.000178,-0.002901,0.005311,-0.000380,0.005329,-0.002919,-87.354677,0.005337,
1330,30,-0.005103,-10.045131,0.999999,0.000000,-0.000057,0.002985,-0.000123,0.002990,-0.000062,-87.684864,0.003418,
710,1340,1.416161,-3.461067,0.999996,0.000252,-0.002707,0.005254,-0.000303,0.005265,-0.002718,-87.825330,0.005266,
1890,410,-1.288200,-7.977812,0.999998,0.000181,-0.002460,0.004900,0.000067,0.004901,-0.002461,89.479164,0.004901,
1070,1420,0.254899,-2.295861,0.999998,0.000156,-0.002270,0.004177,0.001234,0.004405,-0.002498,79.522223,0.004418,
850,580,0.804888,-7.558516,0.999998,0.000186,-0.002791,0.005306,-0.000268,0.005315,-0.002800,-88.106445,0.005317,
1320,420,-0.105952,-8.719186,0.999998,0.000155,-0.001332,0.003674,0.000282,0.003690,-0.001348,86.787240,0.003735,
1040,1880,0.105601,-0.514423,0.999998,0.000199,-0.000704,0.003536,-0.000183,0.003544,-0.000712,-87.539343,0.003750,
1350,1650,-0.144290,-1.329630,0.999998,0.000167,-0.001327,0.003714,-0.000266,0.003728,-0.001341,-86.983868,0.003776,
790,1030,1.669492,-5.026664,0.999998,0.000180,-0.002026,0.005070,-0.000031,0.005070,-0.002026,-89.748721,0.005104,
700,1760,0.787422,-1.310847,0.999997,0.000199,-0.002384,0.005044,-0.000138,0.005047,-0.002387,-88.934067,0.005050,
1620,100,-0.147309,-9.789646,0.999998,0.000150,-0.000585,0.003794,-0.000821,0.003943,-0.000734,-79.727503,0.004193,
950,50,0.032404,-9.979366,0.999999,0.000181,-0.000211,0.003278,0.000443,0.003334,-0.000267,82.878007,0.003705,
1740,800,-1.538652,-6.182984,0.999997,0.000223,-0.002654,0.005222,-0.000507,0.005254,-0.002687,-86.332636,0.005255,
860,890,1.347974,-5.794574,0.999998,0.000193,-0.002696,0.005761,0.000729,0.005823,-0.002758,85.112096,0.005826,
1490,870,-0.939222,-6.105704,0.999997,0.000195,-0.003596,0.006741,-0.000144,0.006743,-0.003598,-89.199314,0.006748,
1310,1660,-0.089408,-1.262945,0.999998,0.000166,-0.001201,0.003631,-0.000171,0.003637,-0.001207,-87.971050,0.003705,
560,1150,2.074040,-4.539849,0.999995,0.000000,-0.001823,0.004310,-0.000037,0.004310,-0.001823,-89.657153,0.004327,
1410,950,-0.959277,-5.918223,0.999992,0.000350,-0.003361,0.008584,0.002892,0.009247,-0.004024,77.081115,0.009273,
1820,1990,-0.205522,-0.210578,0.999995,0.000249,-0.001388,0.004950,0.001654,0.005356,-0.001794,76.217244,0.005452,
660,1820,0.758517,-1.068863,0.999998,0.000174,-0.002279,0.005077,-0.000403,0.005099,-0.002301,-86.874178,0.005107,
1640,870,-1.404484,-5.880107,0.999997,0.000223,-0.002732,0.005609,-0.000686,0.005665,-0.002788,-85.328075,0.005665,
930,1700,0.398358,-1.306534,0.999998,0.000184,-0.001631,0.004378,0.000022,0.004379,-0.001631,89.793987,0.004426,
1600,90,-0.119004,-9.829335,0.999998,0.000163,-0.000605,0.003658,-0.000734,0.003781,-0.000727,-80.504412,0.004013,
920,400,0.456078,-8.563419,0.999997,0.000191,-0.001957,0.004573,-0.000202,0.004579,-0.001964,-88.233540,0.004594,
1470,1880,-0.139573,-0.528921,0.999998,0.000148,-0.000690,0.003655,0.000302,0.003675,-0.000710,86.043924,0.003899,
1460,1060,-1.235747,-4.786043,0.999996,0.000227,-0.002597,0.007903,-0.000074,0.007903,-0.002598,-89.597120,0.008056,
760,230,0.529401,-9.168824,0.999997,0.000191,-0.001854,0.004764,0.000557,0.004811,-0.001900,85.225593,0.004846,
1660,140,-0.262940,-9.615329,0.999998,0.000188,-0.001265,0.004224,-0.000817,0.004343,-0.001384,-81.709127,0.004438,
1780,1190,-1.751472,-4.258173,0.999997,0.000188,-0.002427,0.004961,0.000485,0.004993,-0.002459,86.256648,0.004993,
1590,420,-0.576431,-8.401551,0.999997,0.000222,-0.002188,0.004789,0.000196,0.004795,-0.002193,88.392175,0.004800,
1000,1240,0.670342,-3.509807,0.999996,0.000239,-0.003911,0.006465,0.000715,0.006514,-0.003960,86.076850,0.006565,
1090,1950,0.038339,-0.267553,0.999999,0.000141,-0.000241,0.003249,-0.000219,0.003262,-0.000255,-86.427345,0.003629,
630,1370,1.573709,-3.409153,0.999997,0.000200,-0.002539,0.005078,-0.000186,0.005083,-0.002544,-88.604184,0.005083,
1880,780,-1.852994,-6.131312,0.999998,0.000180,-0.002345,0.004750,-0.000111,0.004752,-0.002347,-89.100059,0.004752,
1250,540,-0.024420,-8.330369,0.999998,0.000156,-0.001260,0.003273,0.000203,0.003282,-0.001269,87.435514,0.003310,
1830,430,-1.168955,-7.975408,0.999998,0.000165,-0.002490,0.005041,0.000066,0.005042,-0.002491,89.497114,0.005042,
1300,1190,-0.342072,-2.638812,0.999997,0.000000,-0.002691,0.001470,-0.000443,0.001516,-0.002738,-83.992777,0.002743,
660,950,1.911560,-5.399866,0.999998,0.000202,-0.002213,0.004704,0.000302,0.004717,-0.002226,87.507260,0.004719,
960,900,1.083573,-5.868780,0.999998,0.000185,-0.003179,0.006677,0.000473,0.006700,-0.003202,87.256411,0.006702,
1150,1740,0.076092,-0.976543,0.999998,0.000150,-0.001000,0.003592,0.000039,0.003593,-0.001001,89.507635,0.003708,
1810,1380,-1.495641,-3.327420,0.999997,0.000199,-0.002603,0.005107,0.000190,0.005111,-0.002607,88.586599,0.005112,
1870,420,-1.253725,-7.959588,0.999998,0.000187,-0.002490,0.005000,0.000061,0.005001,-0.002491,89.534046,0.005001,
890,550,0.663273,-7.788452,0.999998,0.000184,-0.002650,0.005097,-0.000420,0.005120,-0.002673,-86.907181,0.005121,
1220,430,0.014190,-8.711434,0.999998,0.000154,-0.001224,0.003508,-0.000087,0.003509,-0.001225,-88.942082,0.003562,
820,1890,0.295959,-0.565898,0.999998,0.000154,-0.001157,0.004288,-0.000744,0.004387,-0.001257,-82.358463,0.004519,
1530,1170,-1.122514,-4.166430,0.999998,0.000175,-0.003157,0.006386,0.000599,0.006423,-0.003195,86.421796,0.006423,
1200,1660,0.035885,-1.250118,0.999998,0.000161,-0.001131,0.003567,0.000095,0.003569,-0.001133,88.847304,0.003647,
850,390,0.593761,-8.513545,0.999998,0.000221,-0.002117,0.004782,-0.000086,0.004784,-0.002119,-89.285415,0.004794,
1490,850,-0.877616,-6.241796,0.999997,0.000234,-0.003754,0.006747,0.000024,0.006747,-0.003754,89.871010,0.006761,
560,1140,2.086487,-4.583744,0.999994,0.000000,-0.001810,0.004379,-0.000063,0.004379,-0.001810,-89.412179,0.004401,
690,1220,1.687420,-4.104913,0.999997,0.000195,-0.002506,0.004983,-0.000461,0.005012,-0.002534,-86.489024,0.005012,
830,200,0.349335,-9.369960,0.999998,0.000209,-0.001329,0.004411,0.000630,0.004479,-0.001398,83.811236,0.004584,
700,1740,0.823654,-1.412824,0.999998,0.000172,-0.002408,0.005058,-0.000056,0.005058,-0.002408,-89.571170,0.005060,
1320,400,-0.103979,-8.793199,0.999998,0.000158,-0.001275,0.003645,0.000243,0.003657,-0.001287,87.180618,0.003710,
1810,1280,-1.673218,-3.835795,0.999997,0.000180,-0.002502,0.005013,0.000375,0.005031,-0.002521,87.148234,0.005031,
960,1850,0.201438,-0.656964,0.999997,0.000213,-0.001127,0.003877,-0.000278,0.003892,-0.001142,-86.825470,0.004001,
1350,1630,-0.145610,-1.403237,0.999998,0.000188,-0.001346,0.003750,-0.000286,0.003766,-0.001362,-86.793579,0.003813,
1400,950,-0.926241,-6.020320,0.999992,0.000350,-0.002976,0.008855,0.003674,0.009903,-0.004024,74.076324,0.009961,
1620,870,-1.349302,-5.895400,0.999996,0.000227,-0.002807,0.005730,-0.000690,0.005785,-0.002862,-85.408574,0.005785,
1690,280,-0.600684,-8.943307,0.999997,0.000192,-0.002097,0.004833,-0.000274,0.004844,-0.002108,-87.741852,0.004857,
830,1360,1.030231,-3.186644,0.999998,0.000211,-0.003105,0.005662,-0.000038,0.005662,-0.003105,-89.752207,0.005671,
740,230,0.567622,-9.149912,0.999998,0.000161,-0.001909,0.004844,0.000604,0.004898,-0.001963,84.929437,0.004930,
620,430,1.203533,-7.955377,0.999998,0.000160,-0.002474,0.005015,-0.000094,0.005016,-0.002475,-89.281395,0.005017,
1460,1040,-1.259377,-4.945158,0.999996,0.000253,-0.002580,0.007941,-0.000053,0.007942,-0.002581,-89.710446,0.008102,
1820,1970,-0.296551,-0.314041,0.999997,0.000205,-0.001617,0.005165,0.001600,0.005524,-0.001975,77.370283,0.005598,
1430,240,-0.160309,-9.324726,0.999998,0.000164,-0.001046,0.003803,-0.000100,0.003805,-0.001048,-88.822958,0.003931,
920,380,0.439065,-8.652998,0.999997,0.000197,-0.001805,0.004461,-0.000115,0.004464,-0.001807,-88.953084,0.004490,
1400,720,-0.299612,-7.382898,0.999997,0.000197,-0.002921,0.004785,0.001656,0.005126,-0.003262,78.367835,0.005189,
1580,90,-0.104950,-9.834045,0.999998,0.000159,-0.000598,0.003593,-0.000660,0.003695,-0.000700,-81.264475,0.003925,
670,90,0.298759,-9.754134,0.999997,0.000193,-0.001094,0.004817,0.001730,0.005286,-0.001563,74.831545,0.005431,
1040,1860,0.120340,-0.586147,0.999998,0.000199,-0.000830,0.003616,-0.000188,0.003624,-0.000838,-87.585230,0.003794,
1620,320,-0.520672,-8.836222,0.999998,0.000189,-0.001890,0.004637,-0.000087,0.004638,-0.001891,-89.234108,0.004664,
940,50,0.035096,-9.978922,0.999999,0.000139,-0.000163,0.003290,0.000485,0.003356,-0.000230,82.159973,0.003750,
1630,1140,-1.466943,-4.442935,0.999996,0.000231,-0.002409,0.005523,0.000687,0.005582,-0.002469,85.084047,0.005594,
1570,420,-0.532465,-8.430381,0.999997,0.000213,-0.002161,0.004734,0.000231,0.004741,-0.002169,88.080793,0.004747,
1300,870,-0.370493,-7.437560,0.999996,0.000000,-0.002641,0.001166,0.000485,0.001227,-0.002701,82.850056,0.002705,
630,1350,1.606754,-3.511875,0.999997,0.000214,-0.002510,0.005074,-0.000194,0.005079,-0.002515,-88.535061,0.005079,
990,1520,0.401978,-2.027465,0.999998,0.000194,-0.002256,0.004565,0.000666,0.004630,-0.002320,84.472241,0.004630,
1830,390,-1.108654,-8.178424,0.999998,0.000172,-0.002470,0.005026,0.000041,0.005026,-0.002470,89.687907,0.005026,
1090,1930,0.049387,-0.333373,0.999998,0.000165,-0.000326,0.003281,-0.000211,0.003293,-0.000338,-86.670171,0.003624,
1860,1910,-0.634673,-0.724562,0.999997,0.000221,-0.002434,0.005197,0.000517,0.005232,-0.002469,86.144704,0.005234,
1740,690,-1.335240,-6.767161,0.999997,0.000211,-0.002786,0.005305,-0.000214,0.005311,-0.002792,-88.483888,0.005313,
1370,1740,-0.137943,-1.002853,0.999998,0.000168,-0.001018,0.003727,-0.000038,0.003728,-0.001018,-89.536138,0.003853,
1190,620,0.049738,-8.069586,0.999998,0.000160,-0.001274,0.002987,-0.000436,0.003031,-0.001318,-84.220830,0.003040,
760,1730,0.702952,-1.373392,0.999997,0.000192,-0.002191,0.004951,-0.000094,0.004952,-0.002192,-89.243157,0.004963,
790,1050,1.661378,-4.925942,0.999998,0.000183,-0.002046,0.005035,-0.000172,0.005039,-0.002050,-88.609466,0.005068,
850,370,0.572271,-8.608766,0.999998,0.000195,-0.002028,0.004706,-0.000020,0.004706,-0.002028,-89.828970,0.004721,
1660,120,-0.218504,-9.697934,0.999998,0.000191,-0.001052,0.004105,-0.000888,0.004254,-0.001201,-80.496920,0.004386,
1000,1220,0.725730,-3.642304,0.999997,0.000239,-0.003909,0.006685,0.000593,0.006718,-0.003942,86.807146,0.006752,
1060,530,0.254637,-8.198832,0.999998,0.000160,-0.001840,0.004092,-0.000700,0.004173,-0.001922,-83.358218,0.004178,
1490,1120,-1.154776,-4.420957,0.999997,0.000199,-0.002771,0.006819,0.000458,0.006841,-0.002793,87.270242,0.006879,
740,1170,1.643313,-4.326716,0.999998,0.000178,-0.002453,0.005160,-0.000567,0.005202,-0.002495,-85.761375,0.005203,
1250,1230,-0.044845,-2.376858,0.999998,0.000180,-0.002546,0.001283,-0.000264,0.001301,-0.002564,-86.070260,0.002564,
1690,640,-1.108874,-7.106099,0.999998,0.000164,-0.002878,0.005369,-0.000042,0.005369,-0.002879,-89.709162,0.005374,
830,340,0.570899,-8.726878,0.999997,0.000203,-0.002004,0.004769,0.000080,0.004770,-0.002005,89.323332,0.004790,
940,530,0.519131,-7.980972,0.999998,0.000197,-0.002426,0.004824,-0.000520,0.004861,-0.002464,-85.917342,0.004861,
1150,1570,0.105372,-1.596006,0.999998,0.000166,-0.001433,0.003625,0.000411,0.003658,-0.001466,85.388374,0.003682,
1570,1470,-0.689719,-2.466585,0.999997,0.000211,-0.002823,0.005247,-0.000461,0.005273,-0.002849,-86.743617,0.005279,
1350,1850,-0.075745,-0.600311,0.999998,0.000152,-0.000700,0.003481,0.000093,0.003483,-0.000702,88.720515,0.003684,
960,880,1.018133,-6.002232,0.999998,0.000183,-0.003415,0.006677,0.000360,0.006690,-0.003428,87.960229,0.006691,
700,1720,0.856643,-1.515140,0.999998,0.000162,-0.002418,0.005058,-0.000011,0.005058,-0.002418,-89.913028,0.005060,
590,870,1.976602,-5.722333,0.999998,0.000173,-0.002195,0.004457,0.000137,0.004460,-0.002198,88.816844,0.004460,
560,1130,2.095219,-4.627856,0.999995,0.000000,-0.001890,0.004206,-0.000098,0.004207,-0.001892,-89.081891,0.004214,
670,1220,1.735026,-4.118389,0.999997,0.000189,-0.002414,0.004888,-0.000421,0.004912,-0.002438,-86.713720,0.004912,
1320,380,-0.099807,-8.866326,0.999998,0.000141,-0.001228,0.003669,0.000191,0.003677,-0.001236,87.770353,0.003742,
890,510,0.626061,-7.989099,0.999997,0.000209,-0.002544,0.004975,-0.000370,0.004993,-0.002562,-87.193115,0.004993,
1490,830,-0.817196,-6.376665,0.999997,0.000228,-0.003850,0.006649,0.000207,0.006653,-0.003855,88.869701,0.006681,
1400,940,-0.897294,-6.102108,0.999996,0.000240,-0.002761,0.007932,0.003511,0.008982,-0.003811,73.354567,0.009016,
1530,1150,-1.178630,-4.292514,0.999998,0.000181,-0.002933,0.006353,0.000670,0.006401,-0.002981,85.896681,0.006406,
680,1460,1.292071,-2.877203,0.999998,0.000163,-0.002633,0.005183,-0.000036,0.005184,-0.002633,-89.736325,0.005184,
1200,1900,0.014792,-0.419628,0.999998,0.000148,-0.000406,0.003275,-0.000028,0.003276,-0.000406,-89.557498,0.003571,
1830,1260,-1.758735,-3.956391,0.999998,0.000155,-0.002420,0.004916,0.000322,0.004931,-0.002434,87.489467,0.004931,
920,360,0.419788,-8.740484,0.999997,0.000209,-0.001684,0.004446,-0.000026,0.004446,-0.001684,-89.753997,0.004490,
1730,100,-0.235225,-9.756969,0.999998,0.000196,-0.001038,0.004268,-0.001197,0.004526,-0.001295,-77.861781,0.004662,
1460,1020,-1.258935,-5.096230,0.999996,0.000239,-0.002560,0.007843,0.000033,0.007843,-0.002560,89.820710,0.007999,
1220,1350,0.011104,-2.205258,0.999999,0.000153,-0.001005,0.002089,0.000267,0.002112,-0.001028,85.105049,0.002113,
980,810,0.736336,-6.533555,0.999997,0.000213,-0.003880,0.006508,-0.000454,0.006528,-0.003900,-87.502649,0.006569,
1820,2010,-0.117402,-0.115744,0.999997,0.000230,-0.001208,0.004506,0.001679,0.004963,-0.001664,74.781208,0.005052,
910,240,0.299865,-9.255141,0.999998,0.000156,-0.001231,0.004218,0.000349,0.004240,-0.001254,86.348844,0.004356,
1260,90,-0.007405,-9.867073,0.999998,0.000171,-0.000236,0.003065,-0.000033,0.003065,-0.000236,-89.429721,0.003411,
750,630,1.156854,-7.124141,0.999998,0.000174,-0.002793,0.005317,0.000040,0.005317,-0.002793,89.716560,0.005320,
890,580,0.694034,-7.632818,0.999997,0.000217,-0.002796,0.005238,-0.000446,0.005263,-0.002820,-86.828872,0.005268,
1400,700,-0.289982,-7.474577,0.999997,0.000193,-0.002778,0.004621,0.001565,0.004938,-0.003095,78.536204,0.004990,
570,190,0.861787,-9.051005,0.999984,0.000444,-0.002714,0.004875,0.000278,0.004885,-0.002724,87.907640,0.004896,
1740,780,-1.501993,-6.287954,0.999998,0.000225,-0.002683,0.005271,-0.000446,0.005296,-0.002708,-86.800097,0.005296,
1030,1540,0.309504,-1.867252,0.999997,0.000210,-0.002071,0.004298,0.000690,0.004372,-0.002145,83.888264,0.004372,
1710,1920,-0.317425,-0.470555,0.999998,0.000164,-0.001131,0.004453,0.001104,0.004663,-0.001341,79.215848,0.004801,
1500,1590,-0.419401,-1.753771,0.999997,0.000203,-0.002063,0.004532,-0.000416,0.004559,-0.002089,-86.405438,0.004564,
890,1040,1.471624,-4.970655,0.999998,0.000209,-0.001838,0.005447,-0.000162,0.005450,-0.001842,-88.727474,0.005545,
1820,1780,-0.886516,-1.299719,0.999998,0.000169,-0.002404,0.005065,0.000139,0.005067,-0.002406,88.930790,0.005070,
740,1730,0.745654,-1.401048,0.999998,0.000156,-0.002264,0.004981,-0.000107,0.004982,-0.002265,-89.150179,0.004989,
1350,1740,-0.117400,-0.992759,0.999999,0.000124,-0.001099,0.003684,-0.000100,0.003686,-0.001101,-88.804368,0.003784,
1620,80,-0.114082,-9.862241,0.999998,0.000145,-0.000431,0.003765,-0.000874,0.003939,-0.000606,-78.689566,0.004242,
1300,30,-0.002735,-10.047889,0.999999,0.000000,0.000018,0.002945,-0.000099,0.002948,0.000014,-88.065190,0.003412,
1090,1910,0.058755,-0.397579,0.999998,0.000147,-0.000398,0.003341,-0.000189,0.003350,-0.000408,-87.110217,0.003656,
1040,1840,0.136546,-0.658908,0.999998,0.000178,-0.000945,0.003627,-0.000118,0.003630,-0.000948,-88.523780,0.003766,
820,830,1.329561,-6.104023,0.999996,0.000232,-0.002907,0.005674,0.000602,0.005716,-0.002949,86.003703,0.005717,
720,1170,1.694022,-4.337441,0.999998,0.000196,-0.002426,0.005063,-0.000551,0.005103,-0.002466,-85.816158,0.005104,
1790,420,-1.054171,-8.091945,0.999998,0.000149,-0.002488,0.005051,0.000081,0.005052,-0.002489,89.383653,0.005052,
1840,1910,-0.585694,-0.672922,0.999998,0.000195,-0.002434,0.005229,0.000555,0.005269,-0.002474,85.875976,0.005272,
850,350,0.545670,-8.701555,0.999997,0.000182,-0.001944,0.004696,0.000054,0.004697,-0.001944,89.532851,0.004720,
1800,650,-1.426038,-6.895371,0.999997,0.000190,-0.002625,0.005180,-0.000143,0.005183,-0.002628,-88.950105,0.005183,
810,340,0.613427,-8.701400,0.999998,0.000172,-0.002222,0.004826,0.000007,0.004826,-0.002222,89.945534,0.004831,
1320,360,-0.094924,-8.940142,0.999998,0.000146,-0.001169,0.003658,0.000144,0.003662,-0.001173,88.292470,0.003740,
710,210,0.583431,-9.209528,0.999997,0.000196,-0.002250,0.004953,0.000489,0.004986,-0.002283,86.136082,0.004992,
1330,1220,-0.255093,-2.793824,0.999996,0.000240,-0.002391,0.002946,-0.001935,0.003573,-0.003019,-72.025526,0.003846,
560,1120,2.106112,-4.670768,0.999996,0.000000,-0.001905,0.004079,-0.000094,0.004080,-0.001907,-89.099726,0.004083,
1490,1050,-1.316230,-4.892662,0.999997,0.000186,-0.002047,0.006794,0.000203,0.006799,-0.002052,88.685376,0.006975,
570,440,1.335574,-7.825446,0.999895,0.001222,-0.001843,0.005054,0.000206,0.005060,-0.001849,88.289757,0.005121,
1350,1610,-0.151247,-1.480114,0.999998,0.000202,-0.001369,0.003767,-0.000312,0.003786,-0.001388,-86.534891,0.003831,
910,1220,1.058944,-3.890392,0.999997,0.000196,-0.003377,0.006265,-0.000414,0.006283,-0.003395,-87.547528,0.006290,
1460,1000,-1.244692,-5.256169,0.999995,0.000251,-0.002585,0.008002,0.000079,0.008003,-0.002585,89.574323,0.008168,
880,1900,0.212291,-0.495286,0.999997,0.000188,-0.001112,0.004026,-0.000590,0.004093,-0.001179,-83.528969,0.004213,
630,420,1.162648,-8.022262,0.999997,0.000197,-0.002488,0.005023,-0.000080,0.005024,-0.002489,-89.387030,0.005024,
1000,1200,0.787030,-3.775750,0.999997,0.000216,-0.003883,0.006856,0.000431,0.006873,-0.003900,87.704693,0.006894,
1290,2020,-0.003093,-0.046009,0.999999,0.000000,0.000039,0.003050,0.000081,0.003052,0.000037,88.456706,0.003545,
1400,930,-0.862192,-6.174667,0.999996,0.000214,-0.002687,0.007271,0.003241,0.008233,-0.003649,73.470024,0.008251,
1230,540,0.002369,-8.336960,0.999999,0.000137,-0.001281,0.003277,-0.000010,0.003277,-0.001281,-89.875109,0.003302,
960,860,0.955596,-6.136421,0.999998,0.000197,-0.003594,0.006674,0.000221,0.006679,-0.003599,88.765253,0.006686,
630,1330,1.642892,-3.613538,0.999997,0.000205,-0.002489,0.005026,-0.000223,0.005032,-0.002496,-88.304776,0.005032,
1500,1450,-0.514414,-2.424280,0.999997,0.000219,-0.002779,0.005067,-0.000769,0.005142,-0.002854,-84.455028,0.005152,
670,1370,1.469379,-3.356229,0.999997,0.000222,-0.002634,0.005162,-0.000224,0.005169,-0.002640,-88.355537,0.005169,
1170,50,0.005704,-9.988440,0.999999,0.000139,-0.000054,0.003001,0.000076,0.003003,-0.000056,88.578338,0.003436,
1700,1080,-1.703834,-4.779245,0.999997,0.000204,-0.002186,0.005024,0.000266,0.005034,-0.002195,87.891396,0.005048,
1620,1150,-1.422843,-4.381836,0.999997,0.000214,-0.002540,0.005593,0.000689,0.005651,-0.002598,85.194352,0.005657,
790,1070,1.652595,-4.825284,0.999998,0.000184,-0.002100,0.005044,-0.000223,0.005051,-0.002107,-88.212803,0.005074,
940,90,0.082737,-9.843102,0.999998,0.000155,-0.000395,0.003451,0.000520,0.003520,-0.000464,82.438867,0.003825,
920,560,0.594033,-7.793396,0.999997,0.000205,-0.002640,0.005048,-0.000540,0.005086,-0.002677,-86.004032,0.005088,
1250,830,-0.048943,-7.695008,0.999997,0.000201,-0.002880,0.001362,0.000149,0.001368,-0.002885,87.996554,0.002887,
1820,1760,-0.924520,-1.402961,0.999998,0.000172,-0.002418,0.005087,0.000070,0.005087,-0.002418,89.465916,0.005089,
1480,470,-0.383985,-8.332051,0.999998,0.000172,-0.002009,0.004435,0.000454,0.004467,-0.002041,85.990320,0.004473,
800,830,1.385501,-6.086062,0.999998,0.000182,-0.002803,0.005546,0.000595,0.005589,-0.002845,85.941666,0.005589,
1820,1110,-1.943103,-4.662258,0.999998,0.000177,-0.002201,0.004674,0.000281,0.004686,-0.002213,87.663583,0.004688,
1060,510,0.250032,-8.279820,0.999997,0.000181,-0.001770,0.004080,-0.000617,0.004144,-0.001834,-84.046892,0.004153,
1610,1990,-0.078154,-0.158459,0.999998,0.000163,-0.000393,0.003600,0.000877,0.003784,-0.000577,78.148106,0.004077,
1460,980,-1.207266,-5.409460,0.999997,0.000221,-0.002662,0.007545,0.000085,0.007545,-0.002663,89.523864,0.007653,
850,330,0.518828,-8.796929,0.999997,0.000204,-0.001912,0.004733,0.000091,0.004735,-0.001913,89.214922,0.004763,
1830,880,-1.893062,-5.714877,0.999998,0.000183,-0.002298,0.004682,-0.000300,0.004695,-0.002311,-87.542720,0.004695,
1010,240,0.182333,-9.312852,0.999999,0.000149,-0.001011,0.003835,0.000198,0.003843,-0.001019,87.658630,0.003982,
1220,1330,0.011219,-2.245698,0.999998,0.000141,-0.000999,0.001866,0.000284,0.001894,-0.001027,84.393919,0.001896,
710,230,0.631305,-9.111562,0.999998,0.000190,-0.002286,0.004946,0.000379,0.004966,-0.002306,87.005728,0.004970,
1740,760,-1.463771,-6.394692,0.999998,0.000213,-0.002717,0.005324,-0.000409,0.005345,-0.002737,-87.098551,0.005345,
940,1930,0.125360,-0.361770,0.999998,0.000150,-0.000619,0.003676,-0.000492,0.003732,-0.000675,-83.554120,0.003977,
1550,1340,-0.793690,-3.143964,0.999997,0.000195,-0.003393,0.005841,-0.000344,0.005854,-0.003406,-87.870381,0.005880,
1090,1890,0.070551,-0.468547,0.999998,0.000173,-0.000499,0.003417,-0.000180,0.003425,-0.000507,-87.369037,0.003697,
1150,1610,0.099287,-1.447315,0.999998,0.000153,-0.001349,0.003637,0.000298,0.003655,-0.001366,86.587046,0.003694,
1570,1450,-0.713416,-2.573856,0.999997,0.000202,-0.002907,0.005323,-0.000464,0.005349,-0.002933,-86.781381,0.005358,
1050,110,0.055166,-9.792507,0.999999,0.000166,-0.000445,0.003343,0.000260,0.003361,-0.000463,86.092944,0.003643,
1520,1570,-0.479136,-1.879544,0.999998,0.000195,-0.002311,0.004709,-0.000470,0.004740,-0.002342,-86.183244,0.004740,
890,1220,1.125552,-3.921897,0.999998,0.000137,-0.003268,0.006129,-0.000485,0.006154,-0.003293,-87.055895,0.006159,
1400,680,-0.280681,-7.568210,0.999996,0.000220,-0.002607,0.004491,0.001462,0.004780,-0.002897,78.804725,0.004816,
1710,1900,-0.367397,-0.561274,0.999997,0.000194,-0.001354,0.004622,0.000999,0.004784,-0.001517,80.757303,0.004890,
750,650,1.190882,-7.018268,0.999998,0.000187,-0.002813,0.005339,0.000110,0.005341,-0.002814,89.230543,0.005344,
1840,1890,-0.650918,-0.778558,0.999997,0.000215,-0.002434,0.005208,0.000449,0.005235,-0.002460,86.648780,0.005238,
880,1880,0.243630,-0.575196,0.999997,0.000206,-0.001238,0.004050,-0.000520,0.004101,-0.001289,-84.435066,0.004194,
1210,540,0.027202,-8.331079,0.999998,0.000173,-0.001258,0.003299,-0.000197,0.003307,-0.001267,-87.535310,0.003337,
1050,1110,0.956243,-4.148985,0.999994,0.000312,-0.003402,0.008187,0.002543,0.008721,-0.003936,78.151285,0.008735,
960,840,0.893552,-6.268206,0.999998,0.000186,-0.003715,0.006625,0.000024,0.006625,-0.003715,89.866855,0.006641,
570,430,1.313226,-7.874169,0.999937,0.001047,-0.001793,0.004980,0.000134,0.004982,-0.001796,88.871128,0.005047,
1320,340,-0.090138,-9.012244,0.999998,0.000153,-0.001122,0.003617,0.000107,0.003620,-0.001125,88.712841,0.003705,
1490,810,-0.762220,-6.506684,0.999997,0.000230,-0.003864,0.006534,0.000370,0.006547,-0.003878,87.964439,0.006584,
1000,1180,0.857569,-3.915481,0.999997,0.000201,-0.003757,0.006978,0.000244,0.006983,-0.003762,88.696362,0.006990,
750,600,1.111950,-7.284291,0.999998,0.000155,-0.002738,0.005317,-0.000010,0.005317,-0.002738,-89.931647,0.005317,
630,1310,1.677790,-3.714791,0.999998,0.000175,-0.002485,0.004955,-0.000254,0.004964,-0.002494,-88.050051,0.004964,
1290,1190,-0.311976,-2.580862,0.999997,0.000000,-0.003210,0.001168,-0.000245,0.001182,-0.003223,-86.807441,0.003261,
1230,1540,0.001937,-1.660979,0.999998,0.000169,-0.001266,0.003358,0.000003,0.003358,-0.001266,89.960412,0.003392,
1600,1150,-1.372234,-4.368699,0.999998,0.000200,-0.002581,0.005725,0.000692,0.005782,-0.002639,85.270412,0.005790,
910,1100,1.364829,-4.626409,0.999997,0.000195,-0.002204,0.005862,-0.000632,0.005911,-0.002253,-85.547966,0.005967,
790,1090,1.636617,-4.722556,0.999998,0.000175,-0.002172,0.005120,-0.000425,0.005145,-0.002196,-86.672918,0.005163,
920,1840,0.259728,-0.718660,0.999998,0.000159,-0.001097,0.004041,-0.000391,0.004071,-0.001126,-85.675101,0.004204,
1480,450,-0.371937,-8.420374,0.999998,0.000192,-0.001980,0.004419,0.000431,0.004448,-0.002009,86.168162,0.004454,
1250,810,-0.037120,-7.717538,0.999998,0.000186,-0.001845,0.001113,0.000470,0.001186,-0.001918,81.177194,0.001936,
920,90,0.089401,-9.840529,0.999999,0.000124,-0.000347,0.003490,0.000573,0.003573,-0.000431,81.687122,0.003901,
670,1410,1.401171,-3.149410,0.999997,0.000201,-0.002646,0.005178,-0.000122,0.005180,-0.002648,-89.108721,0.005181,
1700,1060,-1.712344,-4.878080,0.999997,0.000193,-0.002123,0.004926,0.000181,0.004931,-0.002127,88.527416,0.004946,
850,310,0.493923,-8.891883,0.999998,0.000190,-0.001868,0.004555,0.000125,0.004557,-0.001870,88.886231,0.004581,
940,930,1.231786,-5.636001,0.999997,0.000204,-0.002691,0.006309,0.000670,0.006358,-0.002740,85.762833,0.006378,
1890,520,-1.452402,-7.424345,0.999997,0.000210,-0.002512,0.005093,-0.000005,0.005093,-0.002512,-89.964652,0.005093,
1400,660,-0.274840,-7.656887,0.999997,0.000182,-0.002429,0.004416,0.001361,0.004677,-0.002690,79.154982,0.004695,
930,240,0.276053,-9.266168,0.999998,0.000186,-0.001258,0.004133,0.000303,0.004150,-0.001275,86.798115,0.004251,
1690,1900,-0.339341,-0.549836,0.999998,0.000166,-0.001431,0.004493,0.000908,0.004629,-0.001567,81.481726,0.004709,
600,1350,1.681577,-3.555927,0.999998,0.000176,-0.002491,0.005010,-0.000116,0.005012,-0.002493,-89.110828,0.005012,
1740,740,-1.426462,-6.500537,0.999997,0.000213,-0.002739,0.005319,-0.000364,0.005335,-0.002755,-87.419251,0.005336,
1160,1460,0.091988,-1.966794,0.999999,0.000148,-0.001431,0.003280,0.000679,0.003376,-0.001527,81.965288,0.003381,
710,250,0.677137,-9.011633,0.999998,0.000186,-0.002305,0.005000,0.000272,0.005010,-0.002315,87.873990,0.005015,
1570,1430,-0.734670,-2.680139,0.999997,0.000192,-0.002981,0.005391,-0.000441,0.005414,-0.003004,-86.994203,0.005425,
1000,1930,0.089879,-0.348386,0.999998,0.000157,-0.000441,0.003478,-0.000365,0.003512,-0.000475,-84.729606,0.003811,
1460,960,-1.153836,-5.555919,0.999996,0.000237,-0.002790,0.007586,0.000081,0.007587,-0.002790,89.551737,0.007675,
1560,1030,-1.452200,-5.026359,0.999998,0.000197,-0.001760,0.005520,0.000027,0.005520,-0.001760,89.791074,0.005640,
1360,570,-0.182075,-8.115044,0.999998,0.000154,-0.001782,0.003789,0.000868,0.003921,-0.001914,81.344170,0.003921,
1090,1870,0.079171,-0.535164,0.999998,0.000177,-0.000552,0.003459,-0.000165,0.003466,-0.000559,-87.651369,0.003721,
880,1860,0.276022,-0.658261,0.999997,0.000199,-0.001351,0.004178,-0.000467,0.004218,-0.001390,-85.201735,0.004298,
570,420,1.299408,-7.925877,0.999960,0.000801,-0.001505,0.004747,0.000084,0.004748,-0.001506,89.229145,0.004852,
1610,1060,-1.530581,-4.867674,0.999997,0.000204,-0.001986,0.005251,0.000250,0.005259,-0.001995,88.025445,0.005310,
630,1290,1.712301,-3.811512,0.999998,0.000183,-0.002474,0.004941,-0.000276,0.004951,-0.002485,-87.868960,0.004951,
960,820,0.840858,-6.400015,0.999997,0.000194,-0.003769,0.006558,-0.000136,0.006559,-0.003770,-89.243651,0.006584,
1050,1100,0.982483,-4.234387,0.999994,0.000332,-0.003618,0.008843,0.002731,0.009415,-0.004191,78.166976,0.009434,
1060,1920,0.065636,-0.370144,0.999998,0.000157,-0.000507,0.003362,-0.000224,0.003374,-0.000520,-86.702862,0.003634,
1530,1340,-0.727495,-3.097658,0.999997,0.000192,-0.003411,0.005810,-0.000453,0.005832,-0.003433,-87.195972,0.005863,
1530,1130,-1.237902,-4.422583,0.999997,0.000205,-0.002691,0.006258,0.000688,0.006310,-0.002743,85.628420,0.006328,
1250,620,-0.022249,-8.081801,0.999999,0.000139,-0.001151,0.002874,0.000248,0.002889,-0.001166,86.488523,0.002907,
1490,770,-0.674226,-6.763503,0.999997,0.000227,-0.003760,0.006206,0.000616,0.006244,-0.003798,86.473754,0.006293,
1000,1380,0.459269,-2.687834,0.999996,0.000240,-0.003090,0.005236,0.001076,0.005373,-0.003226,82.756956,0.005409,
1250,1540,-0.024193,-1.666681,0.999999,0.000134,-0.001263,0.003387,-0.000177,0.003394,-0.001269,-87.823566,0.003430,
690,260,0.742935,-8.929133,0.999999,0.000161,-0.002350,0.005030,0.000252,0.005039,-0.002358,88.044276,0.005042,
1800,830,-1.744495,-5.979706,0.999997,0.000192,-0.002419,0.004854,-0.000417,0.004878,-0.002443,-86.727209,0.004878,
1700,1040,-1.721654,-4.977258,0.999998,0.000179,-0.002108,0.004945,0.000143,0.004948,-0.002111,88.839185,0.004966,
1820,1740,-0.960892,-1.505143,0.999998,0.000187,-0.002430,0.005073,0.000030,0.005073,-0.002431,89.773688,0.005075,
640,530,1.299258,-7.477531,0.999998,0.000198,-0.002560,0.005158,-0.000062,0.005158,-0.002560,-89.538850,0.005158,
1660,100,-0.175861,-9.780131,0.999998,0.000166,-0.000873,0.003985,-0.000946,0.004162,-0.001051,-79.359867,0.004329,
1320,320,-0.085097,-9.084425,0.999998,0.000151,-0.001062,0.003604,0.000069,0.003605,-0.001063,89.151669,0.003705,
1250,790,-0.023559,-7.737627,0.999998,0.000195,-0.001388,0.001172,0.000568,0.001292,-0.001508,78.043710,0.001631,
900,90,0.096221,-9.837510,0.999999,0.000139,-0.000463,0.003530,0.000623,0.003625,-0.000558,81.338532,0.003903,
1290,870,-0.346043,-7.502860,0.999996,0.000000,-0.003346,0.001036,0.000245,0.001050,-0.003360,86.810896,0.003438,
1200,370,0.034818,-8.919579,0.999998,0.000157,-0.001064,0.003547,-0.000092,0.003549,-0.001066,-88.852354,0.003641,
680,900,1.811643,-5.647965,0.999998,0.000182,-0.002326,0.004847,0.000373,0.004866,-0.002345,87.028648,0.004867,
850,290,0.468467,-8.979112,0.999998,0.000189,-0.001795,0.004552,0.000205,0.004559,-0.001802,88.148470,0.004592,
750,670,1.226009,-6.910211,0.999998,0.000204,-0.002828,0.005348,0.000164,0.005351,-0.002831,88.851128,0.005354,
1460,940,-1.086335,-5.710824,0.999996,0.000219,-0.002955,0.007389,0.000056,0.007390,-0.002955,89.689115,0.007439,
920,1860,0.228275,-0.635868,0.999998,0.000169,-0.000960,0.004006,-0.000459,0.004048,-0.001002,-84.760246,0.004217,
1820,1850,-0.721123,-0.942098,0.999997,0.000202,-0.002285,0.005129,0.000424,0.005153,-0.002309,86.734497,0.005162,
1160,1440,0.090593,-2.033397,0.999999,0.000130,-0.001444,0.003209,0.000761,0.003331,-0.001565,80.943179,0.003333,
1630,1960,-0.145822,-0.274650,0.999998,0.000152,-0.000559,0.003819,0.000866,0.003984,-0.000724,79.211431,0.004245,
570,390,1.249634,-8.069121,0.999961,0.000754,-0.001315,0.004948,-0.000146,0.004951,-0.001319,-88.661917,0.005128,
1570,1410,-0.759007,-2.790167,0.999998,0.000188,-0.003042,0.005490,-0.000392,0.005508,-0.003060,-87.376241,0.005519,
710,270,0.715924,-8.911265,0.999998,0.000176,-0.002355,0.005023,0.000215,0.005029,-0.002361,88.328483,0.005032,
1740,720,-1.389622,-6.607804,0.999997,0.000219,-0.002784,0.005303,-0.000310,0.005315,-0.002796,-87.811133,0.005317,
1590,640,-0.814615,-7.277084,0.999997,0.000178,-0.003029,0.005514,0.000299,0.005525,-0.003039,87.998670,0.005534,
880,1840,0.305684,-0.742039,0.999998,0.000175,-0.001452,0.004215,-0.000407,0.004244,-0.001481,-85.916899,0.004308,
1090,1850,0.089983,-0.606086,0.999998,0.000161,-0.000640,0.003531,-0.000162,0.003537,-0.000646,-87.772403,0.003768,
1540,1030,-1.416558,-5.027403,0.999997,0.000195,-0.001809,0.005651,0.000048,0.005651,-0.001809,89.630781,0.005772,
660,1290,1.637383,-3.777378,0.999997,0.000192,-0.002546,0.005016,-0.000337,0.005031,-0.002561,-87.452230,0.005031,
790,1530,0.900050,-2.334825,0.999998,0.000143,-0.002657,0.005157,0.000176,0.005161,-0.002661,88.712288,0.005162,
890,980,1.446025,-5.302708,0.999997,0.000222,-0.001995,0.005560,0.000472,0.005590,-0.002024,86.440631,0.005660,
630,1270,1.747154,-3.911861,0.999998,0.000176,-0.002462,0.004935,-0.000302,0.004947,-0.002474,-87.663080,0.004947,
1480,610,-0.462026,-7.679781,0.999997,0.000178,-0.002698,0.004966,0.000855,0.005061,-0.002792,83.713967,0.005070,
1050,1090,1.012078,-4.323922,0.999993,0.000356,-0.003852,0.009615,0.002727,0.010146,-0.004383,78.976619,0.010178,
960,800,0.788498,-6.532048,0.999997,0.000200,-0.003793,0.006449,-0.000272,0.006456,-0.003800,-88.479729,0.006490,
1610,1040,-1.541491,-4.972618,0.999998,0.000181,-0.001911,0.005294,0.000144,0.005297,-0.001914,88.855243,0.005364,
1050,1590,0.255733,-1.629609,0.999998,0.000174,-0.001683,0.004095,0.000460,0.004132,-0.001720,85.481389,0.004151,
1210,1540,0.026820,-1.666604,0.999998,0.000177,-0.001258,0.003370,0.000183,0.003377,-0.001266,87.744692,0.003412,
670,1420,1.383493,-3.097644,0.999997,0.000205,-0.002659,0.005169,-0.000122,0.005171,-0.002661,-89.109222,0.005172,
1490,750,-0.642650,-6.885202,0.999997,0.000231,-0.003656,0.005987,0.000707,0.006038,-0.003707,85.825764,0.006090,
1540,1210,-1.040448,-3.930264,0.999998,0.000168,-0.003394,0.006348,0.000398,0.006364,-0.003410,87.666396,0.006370,
1780,830,-1.695783,-5.995614,0.999997,0.000200,-0.002474,0.004961,-0.000458,0.004989,-0.002502,-86.488218,0.004989,
1020,820,0.605066,-6.630647,0.999996,0.000228,-0.003930,0.006358,-0.001028,0.006459,-0.004032,-84.351053,0.006525,
730,680,1.297609,-6.829278,0.999997,0.000199,-0.002773,0.005321,0.000200,0.005326,-0.002778,88.587498,0.005328,
1320,300,-0.079985,-9.157199,0.999999,0.000142,-0.000989,0.003558,0.000046,0.003559,-0.000989,89.421714,0.003674,
1250,770,-0.019481,-7.760212,0.999998,0.000165,-0.001160,0.001336,0.000563,0.001457,-0.001281,77.864672,0.001591,
980,790,0.689351,-6.661111,0.999998,0.000184,-0.003816,0.006343,-0.000593,0.006377,-0.003850,-86.668870,0.006423,
710,900,1.740359,-5.661830,0.999998,0.000163,-0.002378,0.004982,0.000473,0.005012,-0.002409,86.341656,0.005013,
1230,620,-0.000379,-8.087833,0.999998,0.000166,-0.001182,0.002847,-0.000026,0.002847,-0.001182,-89.634087,0.002861,
1700,1020,-1.723286,-5.077376,0.999998,0.000178,-0.002086,0.004991,-0.000068,0.004992,-0.002087,-89.447348,0.005014,
1800,1020,-1.937448,-5.074316,0.999998,0.000147,-0.002139,0.004664,-0.000067,0.004665,-0.002140,-89.439153,0.004670,
680,880,1.782475,-5.745263,0.999997,0.000191,-0.002392,0.004942,0.000466,0.004971,-0.002422,86.374965,0.004972,
1020,90,0.052653,-9.853931,0.999999,0.000146,-0.000307,0.003295,0.000326,0.003324,-0.000336,84.876082,0.003659,
850,270,0.438776,-9.073535,0.999997,0.000215,-0.001703,0.004505,0.000280,0.004518,-0.001715,87.424256,0.004561,
1400,640,-0.271802,-7.743537,0.999998,0.000164,-0.002302,0.004282,0.001249,0.004511,-0.002531,79.610633,0.004522,
1290,860,-0.288723,-7.516571,0.999996,0.000000,-0.003135,0.001344,0.000197,0.001353,-0.003143,87.481210,0.003154,
1360,550,-0.180563,-8.190820,0.999999,0.000126,-0.001744,0.003765,0.000785,0.003875,-0.001854,82.047530,0.003876,
1550,300,-0.370596,-8.999793,0.999998,0.000178,-0.001513,0.004322,-0.000116,0.004325,-0.001515,-88.860182,0.004389,
860,1630,0.609975,-1.722056,0.999997,0.000196,-0.002232,0.004834,0.000185,0.004839,-0.002237,88.498654,0.004844,
1460,920,-1.014505,-5.857671,0.999997,0.000200,-0.003229,0.007150,0.000021,0.007150,-0.003229,89.881611,0.007161,
920,1880,0.205197,-0.558807,0.999998,0.000185,-0.000853,0.003903,-0.000460,0.003947,-0.000897,-84.531943,0.004138,
1410,1960,-0.043421,-0.238580,0.999998,0.000170,-0.000353,0.003247,0.000247,0.003264,-0.000370,86.085635,0.003575,
1570,1610,-0.559542,-1.768140,0.999997,0.000211,-0.002213,0.004757,-0.000264,0.004766,-0.002223,-87.837504,0.004770,
1160,1420,0.087503,-2.097168,0.999998,0.000157,-0.001437,0.003115,0.000828,0.003261,-0.001582,80.009416,0.003262,
790,1510,0.925105,-2.439401,0.999998,0.000164,-0.002707,0.005237,0.000169,0.005241,-0.002710,88.781043,0.005242,
820,1290,1.193305,-3.604134,0.999998,0.000225,-0.003050,0.005737,-0.000339,0.005750,-0.003064,-87.793188,0.005755,
710,710,1.405984,-6.643141,0.999997,0.000205,-0.002745,0.005245,0.000294,0.005256,-0.002755,87.892735,0.005258,
1740,700,-1.353337,-6.714184,0.999997,0.000219,-0.002793,0.005307,-0.000246,0.005314,-0.002801,-88.264767,0.005317,
880,1820,0.336568,-0.827865,0.999998,0.000155,-0.001545,0.004272,-0.000331,0.004291,-0.001564,-86.750015,0.004343,
960,780,0.742877,-6.662956,0.999997,0.000200,-0.003759,0.006290,-0.000415,0.006307,-0.003776,-87.637952,0.006348,
1700,230,-0.524061,-9.173108,0.999996,0.000213,-0.001903,0.004764,-0.000526,0.004805,-0.001944,-85.519502,0.004834,
1050,1630,0.242182,-1.466352,0.999998,0.000164,-0.001622,0.004059,0.000385,0.004085,-0.001648,86.139765,0.004111,
1090,1830,0.099513,-0.676054,0.999998,0.000167,-0.000709,0.003544,-0.000107,0.003546,-0.000712,-88.560652,0.003752,
1400,910,-0.778690,-6.310527,0.999992,0.000309,-0.002779,0.006423,0.002595,0.007104,-0.003460,75.290765,0.007105,
1680,990,-1.668346,-5.228583,0.999997,0.000206,-0.002114,0.005002,-0.000194,0.005008,-0.002119,-88.437104,0.005027,
1610,1970,-0.118303,-0.234534,0.999998,0.000159,-0.000533,0.003677,0.000811,0.003828,-0.000684,79.468476,0.004083,
820,1090,1.570109,-4.716449,0.999997,0.000180,-0.002155,0.005228,-0.000468,0.005258,-0.002184,-86.385915,0.005283,
1150,1480,0.106483,-1.914397,0.999999,0.000140,-0.001459,0.003398,0.000635,0.003479,-0.001540,82.674058,0.003487,
1530,1110,-1.287914,-4.545423,0.999997,0.000205,-0.002421,0.006182,0.000660,0.006233,-0.002471,85.638032,0.006277,
780,1610,0.823887,-1.942794,0.999998,0.000147,-0.002465,0.005037,0.000122,0.005039,-0.002467,89.068592,0.005039,
1520,1590,-0.463191,-1.785277,0.999998,0.000169,-0.002207,0.004632,-0.000441,0.004660,-0.002236,-86.327387,0.004661,
1570,640,-0.753304,-7.317895,0.999998,0.000177,-0.003073,0.005506,0.000406,0.005525,-0.003092,87.295899,0.005538,
1480,550,-0.427490,-7.967078,0.999998,0.000190,-0.002390,0.004685,0.000715,0.004757,-0.002462,84.286941,0.004758,
1490,730,-0.607645,-7.003968,0.999997,0.000215,-0.003520,0.005802,0.000773,0.005865,-0.003584,85.288964,0.005913,
1250,750,-0.018706,-7.787854,0.999998,0.000149,-0.001055,0.001577,0.000523,0.001677,-0.001155,79.168185,0.001717,
1250,560,-0.023386,-8.266783,0.999998,0.000154,-0.001250,0.003192,0.000207,0.003202,-0.001260,87.336758,0.003226,
630,1250,1.783152,-4.009808,0.999998,0.000179,-0.002410,0.004820,-0.000295,0.004832,-0.002422,-87.669348,0.004832,
1320,280,-0.075602,-9.228034,0.999998,0.000144,-0.000922,0.003557,0.000029,0.003557,-0.000922,89.629112,0.003692,
1540,1190,-1.095581,-4.056573,0.999997,0.000186,-0.003269,0.006355,0.000525,0.006384,-0.003298,86.887029,0.006385,
1010,730,0.479259,-7.127271,0.999997,0.000222,-0.003455,0.005576,-0.001194,0.005732,-0.003610,-82.591978,0.005796,
690,2010,0.102034,-0.107027,0.999998,0.000195,-0.000459,0.004216,-0.001695,0.004766,-0.001009,-72.032062,0.005023,
1880,810,-1.900748,-5.991145,0.999998,0.000187,-0.002263,0.004587,-0.000140,0.004590,-0.002266,-88.825680,0.004590,
730,660,1.262537,-6.936835,0.999997,0.000185,-0.002748,0.005298,0.000162,0.005301,-0.002752,88.847259,0.005302,
650,1440,1.402702,-3.023375,0.999997,0.000199,-0.002586,0.005141,-0.000081,0.005142,-0.002587,-89.397426,0.005142,
1700,1000,-1.714699,-5.177490,0.999998,0.000192,-0.002081,0.004977,-0.000177,0.004981,-0.002085,-88.565496,0.005003,
680,860,1.751937,-5.845699,0.999997,0.000189,-0.002431,0.004933,0.000462,0.004962,-0.002460,86.428181,0.004962,
850,250,0.407560,-9.160502,0.999997,0.000210,-0.001617,0.004454,0.000376,0.004478,-0.001640,86.472688,0.004531,
1340,90,-0.023691,-9.862657,0.999998,0.000174,-0.000268,0.003152,-0.000130,0.003157,-0.000273,-87.827091,0.003499,
930,1410,0.645683,-2.708417,0.999998,0.000202,-0.003027,0.005425,0.000614,0.005470,-0.003071,85.866613,0.005484,
1160,1400,0.088980,-2.158283,0.999998,0.000163,-0.001431,0.003032,0.000920,0.003214,-0.001613,78.799772,0.003214,
1470,1940,-0.082002,-0.313647,0.999998,0.000191,-0.000410,0.003494,0.000395,0.003534,-0.000449,84.287054,0.003847,
710,690,1.370306,-6.749807,0.999998,0.000186,-0.002733,0.005287,0.000239,0.005294,-0.002740,88.294049,0.005295,
1460,900,-0.938792,-6.002332,0.999997,0.000195,-0.003495,0.007082,0.000077,0.007083,-0.003496,89.581667,0.007083,
1290,30,-0.003383,-10.047063,0.999999,0.000000,0.000039,0.002930,-0.000081,0.002932,0.000037,-88.388428,0.003408,
880,1800,0.364729,-0.913186,0.999998,0.000162,-0.001634,0.004314,-0.000233,0.004323,-0.001643,-87.761465,0.004365,
620,170,0.675506,-9.268789,0.999998,0.000199,-0.002444,0.005205,0.000410,0.005227,-0.002466,86.942706,0.005230,
1400,620,-0.268022,-7.825438,0.999998,0.000179,-0.002247,0.004237,0.001177,0.004444,-0.002454,80.026419,0.004452,
1740,680,-1.317852,-6.820142,0.999997,0.000184,-0.002771,0.005296,-0.000198,0.005301,-0.002776,-88.596142,0.005303,
1590,1050,-1.498532,-4.918364,0.999998,0.000203,-0.001881,0.005358,0.000214,0.005365,-0.001887,88.308488,0.005443,
840,50,0.058064,-9.973213,0.999998,0.000166,-0.000168,0.003484,0.000851,0.003672,-0.000357,77.511683,0.004050,
800,1290,1.252814,-3.628654,0.999998,0.000192,-0.003013,0.005644,-0.000384,0.005661,-0.003030,-87.465585,0.005665,
790,1490,0.953085,-2.546292,0.999998,0.000174,-0.002725,0.005258,0.000146,0.005261,-0.002728,88.955518,0.005262,
1260,430,-0.034862,-8.707162,0.999998,0.000195,-0.001198,0.003519,0.000127,0.003522,-0.001201,88.460518,0.003581,
750,1110,1.701792,-4.629422,0.999997,0.000194,-0.002225,0.005016,-0.000440,0.005043,-0.002252,-86.532885,0.005052,
840,1090,1.526489,-4.712054,0.999997,0.000191,-0.002116,0.005329,-0.000512,0.005365,-0.002151,-86.081019,0.005400,
1620,1470,-0.830516,-2.560399,0.999998,0.000173,-0.002812,0.005341,-0.000267,0.005350,-0.002821,-88.122844,0.005352,
630,1230,1.814417,-4.104962,0.999998,0.000180,-0.002361,0.004759,-0.000325,0.004774,-0.002376,-87.393743,0.004774,
890,260,0.354627,-9.154348,0.999998,0.000165,-0.001587,0.004315,0.000236,0.004324,-0.001597,87.713862,0.004373,
1630,1940,-0.183696,-0.352352,0.999998,0.000145,-0.000711,0.003993,0.000875,0.004151,-0.000868,79.797838,0.004378,
1480,530,-0.415041,-8.060773,0.999997,0.000203,-0.002286,0.004624,0.000655,0.004686,-0.002348,84.635244,0.004686,
1820,1720,-0.996136,-1.607195,0.999998,0.000182,-0.002464,0.005031,-0.000007,0.005031,-0.002464,-89.945841,0.005031,
1090,1810,0.110230,-0.748653,0.999998,0.000160,-0.000804,0.003571,-0.000080,0.003573,-0.000806,-88.950804,0.003748,
960,980,1.302457,-5.345120,0.999998,0.000160,-0.002158,0.006465,0.000412,0.006484,-0.002178,87.269973,0.006600,
1700,990,-1.710810,-5.227090,0.999997,0.000223,-0.002096,0.004959,-0.000184,0.004964,-0.002101,-88.506514,0.004984,
1250,730,-0.017612,-7.819891,0.999999,0.000135,-0.001021,0.001828,0.000474,0.001905,-0.001098,80.789071,0.001912,
1710,340,-0.739658,-8.622537,0.999997,0.000180,-0.002226,0.004957,-0.000090,0.004958,-0.002227,-89.280474,0.004966,
1610,1950,-0.147682,-0.307341,0.999998,0.000155,-0.000688,0.003845,0.000778,0.003975,-0.000817,80.527846,0.004198,
1010,770,0.535502,-6.895052,0.999996,0.000237,-0.003754,0.005968,-0.001079,0.006086,-0.003872,-83.742704,0.006161,
1050,1020,1.078877,-5.127908,0.999989,0.000391,-0.004966,0.012383,-0.000504,0.012397,-0.004981,-88.338515,0.012477,
1060,1360,0.296154,-2.592979,0.999997,0.000187,-0.002765,0.004626,0.001532,0.004931,-0.003070,78.739144,0.004980,
1170,600,0.077474,-8.110167,0.999998,0.000165,-0.001408,0.003202,-0.000637,0.003288,-0.001495,-82.279801,0.003293,
1150,1300,0.104799,-2.468997,0.999997,0.000212,-0.001849,0.002764,0.001834,0.003404,-0.002489,70.751219,0.003524,
1700,980,-1.706567,-5.275681,0.999997,0.000209,-0.002124,0.004966,-0.000237,0.004974,-0.002132,-88.091290,0.004991,
1880,800,-1.884742,-6.037189,0.999998,0.000199,-0.002281,0.004613,-0.000135,0.004615,-0.002284,-88.875260,0.004615,
1180,1810,0.038340,-0.724144,0.999999,0.000130,-0.000711,0.003440,-0.000031,0.003440,-0.000712,-89.568428,0.003632,
1220,1430,0.013660,-2.008075,0.999999,0.000123,-0.001179,0.002829,0.000186,0.002838,-0.001187,87.342264,0.002850,
680,840,1.719426,-5.945445,0.999998,0.000173,-0.002468,0.004910,0.000413,0.004933,-0.002491,86.808336,0.004933,
1530,1090,-1.334984,-4.669914,0.999997,0.000198,-0.002203,0.006061,0.000553,0.006097,-0.002239,86.190777,0.006168,
1000,590,0.407449,-7.814480,0.999998,0.000206,-0.002519,0.004734,-0.000896,0.004843,-0.002628,-83.059890,0.004849,
1250,1740,-0.017822,-0.963523,0.999998,0.000140,-0.000965,0.003506,-0.000061,0.003507,-0.000965,-89.212275,0.003623,
660,990,1.931719,-5.214868,0.999998,0.000178,-0.002159,0.004607,0.000120,0.004609,-0.002161,88.984945,0.004612,
720,1730,0.792946,-1.429394,0.999998,0.000162,-0.002364,0.005016,-0.000039,0.005016,-0.002364,-89.700856,0.005019,
1280,2020,-0.004234,-0.045318,0.999998,0.000000,-0.000028,0.003013,0.000063,0.003015,-0.000029,88.821919,0.003465,
1490,710,-0.584005,-7.119375,0.999998,0.000219,-0.003401,0.005692,0.000844,0.005770,-0.003479,84.740848,0.005810,
1320,700,-0.110656,-7.747568,0.999998,0.000162,-0.001718,0.003082,0.001464,0.003493,-0.002129,74.311774,0.003521,
930,1390,0.668140,-2.818596,0.999997,0.000207,-0.003155,0.005553,0.000575,0.005591,-0.003193,86.241710,0.005610,
850,230,0.373377,-9.252440,0.999997,0.000220,-0.001505,0.004398,0.000439,0.004431,-0.001538,85.774919,0.004499,
1460,880,-0.863034,-6.144588,0.999997,0.000199,-0.003728,0.007012,0.000227,0.007017,-0.003732,88.792010,0.007021,
1660,80,-0.130515,-9.858003,0.999998,0.000155,-0.000661,0.003868,-0.000971,0.004068,-0.000860,-78.397894,0.004287,
640,470,1.209131,-7.785059,0.999998,0.000173,-0.002521,0.005096,-0.000071,0.005096,-0.002522,-89.469167,0.005096,
1460,830,-0.700840,-6.486025,0.999995,0.000260,-0.003933,0.006617,0.000687,0.006661,-0.003977,86.290256,0.006703,
710,670,1.334821,-6.856634,0.999998,0.000203,-0.002737,0.005270,0.000188,0.005275,-0.002742,88.654563,0.005276,
1160,1380,0.085336,-2.214605,0.999999,0.000146,-0.001451,0.002930,0.001049,0.003169,-0.001689,77.203468,0.003171,
1740,660,-1.284751,-6.925404,0.999998,0.000170,-0.002759,0.005272,-0.000159,0.005275,-0.002763,-88.863264,0.005277,
1580,940,-1.395636,-5.524076,0.999997,0.000207,-0.002286,0.005718,-0.000669,0.005774,-0.002341,-85.253433,0.005808,
1850,1860,-0.767068,-0.955395,0.999998,0.000178,-0.002443,0.005037,0.000264,0.005046,-0.002452,87.983133,0.005047,
1320,90,-0.018091,-9.864756,0.999999,0.000149,-0.000235,0.003119,-0.000101,0.003122,-0.000238,-88.270735,0.003476,
930,740,0.776987,-6.827528,0.999997,0.000208,-0.003507,0.006002,-0.000355,0.006015,-0.003520,-87.864002,0.006044,
1570,560,-0.665199,-7.743314,0.999997,0.000195,-0.002678,0.005139,0.000433,0.005163,-0.002702,86.842223,0.005165,
880,1780,0.391923,-1.001180,0.999998,0.000177,-0.001737,0.004410,-0.000186,0.004416,-0.001742,-88.270672,0.004448,
730,920,1.718287,-5.570037,0.999998,0.000171,-0.002306,0.004973,0.000435,0.004999,-0.002332,86.590502,0.005002,
1800,1000,-1.929636,-5.170075,0.999999,0.000140,-0.002125,0.004655,-0.000139,0.004658,-0.002128,-88.829377,0.004664,
980,420,0.359192,-8.549638,0.999997,0.000214,-0.001900,0.004399,-0.000334,0.004416,-0.001918,-86.974686,0.004429,
1390,50,-0.014547,-9.986632,0.999999,0.000135,-0.000089,0.003073,-0.000201,0.003086,-0.000102,-86.379158,0.003506,
1630,1660,-0.635840,-1.613918,0.999997,0.000233,-0.002244,0.004862,-0.000116,0.004864,-0.002246,-89.062512,0.004868,
1610,1930,-0.190851,-0.387586,0.999998,0.000169,-0.000824,0.003963,0.000755,0.004079,-0.000941,81.244326,0.004272,
1020,260,0.188855,-9.242125,0.999998,0.000145,-0.001097,0.003790,0.000101,0.003792,-0.001099,88.813335,0.003902,
630,1210,1.845883,-4.200273,0.999998,0.000179,-0.002346,0.004759,-0.000361,0.004778,-0.002365,-87.096626,0.004778,
1420,990,-1.096473,-5.455417,0.999993,0.000320,-0.004369,0.010658,0.001600,0.010827,-0.004538,83.989010,0.010874,
1700,960,-1.690830,-5.377052,0.999998,0.000189,-0.002193,0.005054,-0.000406,0.005077,-0.002215,-86.802694,0.005090,
1600,1470,-0.775182,-2.524697,0.999997,0.000186,-0.002803,0.005311,-0.000333,0.005324,-0.002817,-87.654334,0.005327,
980,1350,0.553690,-2.911648,0.999998,0.000213,-0.003371,0.005604,0.000921,0.005698,-0.003464,84.202982,0.005742,
750,1090,1.724157,-4.730059,0.999997,0.000185,-0.002178,0.005013,-0.000357,0.005030,-0.002196,-87.161599,0.005044,
1530,1070,-1.368008,-4.788384,0.999997,0.000201,-0.001999,0.006026,0.000425,0.006048,-0.002021,86.977416,0.006158,
1820,1700,-1.028789,-1.707859,0.999998,0.000168,-0.002471,0.005019,-0.000016,0.005019,-0.002471,-89.875189,0.005019,
1690,340,-0.697146,-8.648348,0.999996,0.000217,-0.002214,0.004946,-0.000072,0.004947,-0.002215,-89.420608,0.004956,
590,910,2.020837,-5.547087,0.999998,0.000162,-0.002141,0.004437,0.000144,0.004440,-0.002145,88.742296,0.004441,
820,1930,0.212977,-0.395857,0.999998,0.000177,-0.000893,0.004086,-0.000875,0.004236,-0.001042,-80.323058,0.004414,
1100,80,0.025467,-9.892477,0.999999,0.000142,-0.000197,0.003157,0.000188,0.003168,-0.000207,86.805640,0.003544,
590,760,1.802162,-6.240748,0.999998,0.000174,-0.002455,0.004867,0.000114,0.004869,-0.002457,89.107830,0.004869,
1400,600,-0.263768,-7.914039,0.999997,0.000180,-0.002190,0.004241,0.001073,0.004416,-0.002364,80.770160,0.004420,
1880,1340,-1.741703,-3.631501,0.999997,0.000199,-0.002450,0.004927,0.000102,0.004928,-0.002451,89.206449,0.004928,
1740,640,-1.249041,-7.032314,0.999997,0.000183,-0.002742,0.005282,-0.000108,0.005284,-0.002744,-89.228734,0.005285,
930,1370,0.692829,-2.931488,0.999997,0.000213,-0.003292,0.005644,0.000520,0.005675,-0.003322,86.679640,0.005702,
710,650,1.300952,-6.961522,0.999998,0.000192,-0.002738,0.005243,0.000133,0.005245,-0.002741,89.047927,0.005247,
1160,1360,0.084186,-2.270573,0.999998,0.000152,-0.001508,0.002828,0.001208,0.003142,-0.001822,75.433750,0.003156,
1580,980,-1.459231,-5.298362,0.999997,0.000211,-0.002013,0.005524,-0.000450,0.005551,-0.002040,-86.596670,0.005616,
620,710,1.640950,-6.528860,0.999997,0.000212,-0.002534,0.005034,0.000178,0.005039,-0.002538,88.650780,0.005039,
1460,860,-0.791943,-6.282342,0.999997,0.000191,-0.003884,0.006905,0.000427,0.006922,-0.003901,87.735740,0.006941,
1170,580,0.077814,-8.174687,0.999999,0.000129,-0.001415,0.003290,-0.000550,0.003353,-0.001478,-83.425000,0.003361,
1240,90,-0.001376,-9.866683,0.999998,0.000145,-0.000249,0.003060,-0.000002,0.003060,-0.000249,-89.965663,0.003398,
1250,1330,-0.017905,-2.250006,0.999998,0.000145,-0.000987,0.001872,-0.000437,0.001937,-0.001052,-81.493761,0.001939,
1280,1190,-0.273763,-2.518798,0.999910,0.000000,-0.003665,0.000751,-0.000158,0.000757,-0.003670,-87.954868,0.003876,
1870,1510,-1.438329,-2.752590,0.999997,0.000203,-0.002547,0.005086,0.000007,0.005086,-0.002547,89.948428,0.005086,
1680,150,-0.314047,-9.559298,0.999998,0.000189,-0.001436,0.004442,-0.000856,0.004564,-0.001558,-81.878156,0.004640,
680,820,1.687921,-6.042891,0.999998,0.000183,-0.002509,0.005018,0.000441,0.005044,-0.002535,86.657076,0.005044,
1060,1340,0.306125,-2.686210,0.999998,0.000172,-0.002926,0.004800,0.001611,0.005122,-0.003249,78.679615,0.005183,
850,210,0.342478,-9.336050,0.999998,0.000188,-0.001381,0.004337,0.000512,0.004383,-0.001427,84.919572,0.004471,
880,1760,0.418564,-1.090767,0.999998,0.000171,-0.001829,0.004442,-0.000133,0.004445,-0.001832,-88.786718,0.004468,
860,1810,0.384031,-0.888541,0.999998,0.000171,-0.001610,0.004431,-0.000357,0.004452,-0.001631,-86.631516,0.004504,
790,1470,0.979016,-2.650184,0.999998,0.000145,-0.002759,0.005284,0.000102,0.005285,-0.002761,89.275034,0.005287,
1160,1810,0.053233,-0.725843,0.999998,0.000150,-0.000717,0.003453,-0.000064,0.003454,-0.000718,-89.122284,0.003645,
1610,1340,-0.992413,-3.263650,0.999998,0.000147,-0.003204,0.005785,0.000028,0.005785,-0.003204,89.821606,0.005796,
630,1190,1.877686,-4.295681,0.999998,0.000194,-0.002319,0.004784,-0.000349,0.004801,-0.002336,-87.191281,0.004801,
870,540,0.706346,-7.803699,0.999998,0.000187,-0.002621,0.005139,-0.000355,0.005155,-0.002638,-87.385325,0.005155,
1490,690,-0.558706,-7.233670,0.999998,0.000196,-0.003282,0.005531,0.000861,0.005614,-0.003366,84.470012,0.005651,
780,1290,1.311709,-3.651814,0.999998,0.000177,-0.002927,0.005536,-0.000438,0.005559,-0.002950,-87.046649,0.005562,
1660,60,-0.085655,-9.934791,0.999998,0.000169,-0.000502,0.003689,-0.000962,0.003899,-0.000712,-77.667367,0.004153,
600,90,0.420972,-9.642854,0.999997,0.000195,-0.002317,0.005664,0.001243,0.005853,-0.002506,81.348551,0.005873,
1230,1740,0.001166,-0.961146,0.999999,0.000142,-0.001002,0.003504,0.000005,0.003504,-0.001002,89.930089,0.003609,
1610,1680,-0.570768,-1.492270,0.999998,0.000191,-0.002081,0.004726,-0.000066,0.004727,-0.002081,-89.446812,0.004738,
1320,720,-0.110624,-7.684988,0.999998,0.000173,-0.001753,0.003033,0.001624,0.003532,-0.002252,72.916764,0.003576,
700,1730,0.840724,-1.462736,0.999998,0.000163,-0.002411,0.005058,-0.000026,0.005058,-0.002411,-89.798109,0.005060,
1200,520,0.040728,-8.392328,0.999999,0.000130,-0.001276,0.003358,-0.000203,0.003367,-0.001284,-87.496293,0.003398,
1280,860,-0.244893,-7.558092,0.999996,0.000000,-0.003778,0.001500,-0.000127,0.001503,-0.003781,-88.617463,0.003807,
750,1070,1.734571,-4.830436,0.999998,0.000175,-0.002146,0.004933,-0.000195,0.004938,-0.002151,-88.419613,0.004952,
900,50,0.040748,-9.977475,0.999999,0.000123,-0.000204,0.003372,0.000621,0.003477,-0.000309,80.420386,0.003849,
970,330,0.309071,-8.926094,0.999997,0.000184,-0.001616,0.004236,-0.000075,0.004237,-0.001617,-89.267676,0.004277,
1610,1910,-0.222908,-0.466012,0.999998,0.000193,-0.000970,0.004014,0.000687,0.004107,-0.001063,82.290207,0.004264,
1000,570,0.397612,-7.909114,0.999997,0.000218,-0.002408,0.004629,-0.000841,0.004728,-0.002507,-83.276634,0.004731,
1530,1050,-1.390228,-4.910653,0.999997,0.000203,-0.001884,0.005950,0.000216,0.005956,-0.001890,88.423876,0.006087,
1840,1870,-0.715264,-0.882808,0.999997,0.000210,-0.002433,0.005112,0.000356,0.005128,-0.002450,87.301989,0.005130,
560,1110,2.121116,-4.706452,0.999995,0.000000,-0.001863,0.003979,-0.000030,0.003979,-0.001863,-89.702953,0.003982,
680,800,1.650030,-6.144663,0.999997,0.000205,-0.002527,0.005078,0.000441,0.005104,-0.002553,86.692785,0.005104,
1360,530,-0.178402,-8.268344,0.999998,0.000170,-0.001692,0.003880,0.000698,0.003966,-0.001778,82.967034,0.003973,
1800,980,-1.920694,-5.260312,0.999998,0.000148,-0.002133,0.004618,-0.000104,0.004619,-0.002135,-89.115736,0.004624,
1750,160,-0.446222,-9.460743,0.999997,0.000206,-0.001992,0.004865,-0.000825,0.004963,-0.002090,-83.236648,0.004984,
1420,1000,-1.103521,-5.346538,0.999993,0.000344,-0.004595,0.011185,0.001257,0.011284,-0.004695,85.475638,0.011337,
1250,710,-0.019147,-7.856728,0.999999,0.000143,-0.001016,0.002097,0.000392,0.002146,-0.001064,82.930922,0.002146,
1000,90,0.059346,-9.851296,0.999999,0.000157,-0.000233,0.003339,0.000382,0.003379,-0.000274,83.969124,0.003754,
910,740,0.847316,-6.780352,0.999997,0.000233,-0.003464,0.005989,-0.000197,0.005993,-0.003468,-88.803742,0.006018,
880,1990,0.069036,-0.156210,0.999999,0.000131,-0.000452,0.003555,-0.000698,0.003673,-0.000570,-80.396766,0.003953,
1350,1570,-0.159211,-1.627989,0.999998,0.000161,-0.001451,0.003740,-0.000430,0.003775,-0.001486,-85.297406,0.003804,
940,470,0.474255,-8.266253,0.999998,0.000174,-0.002188,0.004711,-0.000404,0.004734,-0.002212,-86.661975,0.004738,
1020,240,0.172109,-9.317569,0.999998,0.000164,-0.001027,0.003811,0.000164,0.003817,-0.001033,88.057644,0.003949,
1820,1680,-1.060366,-1.807566,0.999998,0.000144,-0.002485,0.005076,-0.000041,0.005076,-0.002485,-89.690018,0.005076,
1620,970,-1.528002,-5.341399,0.999998,0.000186,-0.002075,0.005363,-0.000481,0.005394,-0.002106,-86.314476,0.005437,
880,1740,0.443871,-1.177798,0.999998,0.000189,-0.001931,0.004524,-0.000037,0.004525,-0.001931,-89.667354,0.004541,
1030,1160,0.822717,-3.912318,0.999998,0.000178,-0.003468,0.007114,0.000863,0.007184,-0.003538,85.369652,0.007184,
960,1170,1.033916,-4.108618,0.999998,0.000183,-0.003355,0.006686,-0.000413,0.006703,-0.003372,-87.649526,0.006703,
1400,580,-0.258460,-7.999603,0.999998,0.000159,-0.002096,0.004152,0.000950,0.004293,-0.002237,81.546250,0.004294,
850,190,0.306299,-9.425920,0.999997,0.000193,-0.001256,0.004285,0.000572,0.004344,-0.001314,84.164033,0.004455,
1090,1790,0.118737,-0.819106,0.999998,0.000147,-0.000866,0.003642,-0.000043,0.003642,-0.000867,-89.447901,0.003806,
1460,840,-0.728138,-6.416464,0.999996,0.000224,-0.003942,0.006728,0.000632,0.006766,-0.003979,86.624432,0.006801,
1590,490,-0.648124,-8.059240,0.999997,0.000193,-0.002501,0.004959,0.000337,0.004974,-0.002516,87.420266,0.004974,
1870,1990,-0.314846,-0.300666,0.999997,0.000177,-0.001978,0.005827,0.001736,0.006196,-0.002347,78.012877,0.006256,
1610,280,-0.447137,-9.029523,0.999997,0.000207,-0.001752,0.004558,-0.000246,0.004567,-0.001762,-87.769278,0.004607,
1860,1510,-1.413328,-2.738627,0.999997,0.000189,-0.002532,0.005089,-0.000005,0.005089,-0.002532,-89.959755,0.005089,
660,970,1.923474,-5.306534,0.999997,0.000224,-0.002177,0.004616,0.000141,0.004619,-0.002180,88.813292,0.004621,
1880,190,-0.827167,-9.077043,0.999998,0.000158,-0.002450,0.004983,-0.000241,0.004990,-0.002457,-88.147228,0.004991,
1790,1280,-1.622323,-3.816033,0.999996,0.000225,-0.002546,0.005068,0.000391,0.005088,-0.002566,87.069739,0.005088,
630,1170,1.907003,-4.392601,0.999998,0.000175,-0.002265,0.004630,-0.000250,0.004639,-0.002274,-87.924478,0.004640,
1120,1810,0.086228,-0.737993,0.999998,0.000146,-0.000855,0.003503,-0.000027,0.003503,-0.000855,-89.640712,0.003653,
1160,1340,0.081057,-2.323976,0.999998,0.000178,-0.001555,0.002702,0.001367,0.003103,-0.001956,73.637782,0.003138,
1690,720,-1.245383,-6.669455,0.999998,0.000193,-0.002923,0.005507,-0.000292,0.005517,-0.002934,-88.018810,0.005521,
1650,1990,-0.092273,-0.161099,0.999998,0.000171,-0.000444,0.003721,0.000964,0.003933,-0.000656,77.577255,0.004214,
1530,240,-0.272712,-9.267429,0.999998,0.000179,-0.001240,0.004151,-0.000290,0.004167,-0.001255,-86.928302,0.004275,
1580,1130,-1.363321,-4.470336,0.999997,0.000217,-0.002446,0.005763,0.000720,0.005825,-0.002508,85.025883,0.005844,
1490,670,-0.538168,-7.344921,0.999997,0.000215,-0.003142,0.005390,0.000876,0.005479,-0.003231,84.195380,0.005509,
1210,1740,0.021310,-0.964296,0.999999,0.000153,-0.000961,0.003508,0.000056,0.003509,-0.000962,89.279461,0.003626,
1400,1590,-0.234810,-1.612135,0.999998,0.000161,-0.001700,0.004023,-0.000508,0.004067,-0.001744,-84.967559,0.004081,
1320,740,-0.111501,-7.626948,0.999998,0.000173,-0.001836,0.002990,0.001784,0.003578,-0.002424,71.759410,0.003652,
780,1890,0.353919,-0.592853,0.999998,0.000179,-0.001551,0.004494,-0.000813,0.004602,-0.001659,-82.468824,0.004661,
710,630,1.268170,-7.064840,0.999998,0.000176,-0.002716,0.005227,0.000093,0.005228,-0.002717,89.327741,0.005229,
1200,480,0.040311,-8.530113,0.999998,0.000162,-0.001225,0.003457,-0.000169,0.003464,-0.001232,-87.931304,0.003511,
1040,370,0.231340,-8.825610,0.999998,0.000190,-0.001492,0.004051,-0.000221,0.004060,-0.001501,-87.725125,0.004106,
760,1090,1.701949,-4.728284,0.999997,0.000204,-0.002169,0.005037,-0.000374,0.005057,-0.002188,-87.038986,0.005072,
860,1950,0.145385,-0.306087,0.999998,0.000169,-0.000693,0.003802,-0.000742,0.003922,-0.000812,-80.862993,0.004140,
1530,1030,-1.399411,-5.026725,0.999997,0.000194,-0.001809,0.005745,0.000042,0.005745,-0.001810,89.682599,0.005874,
1610,1890,-0.262042,-0.550044,0.999998,0.000193,-0.001111,0.004129,0.000645,0.004207,-0.001189,83.088127,0.004338,
560,1100,2.124865,-4.748354,0.999991,0.000000,-0.001863,0.003972,0.000040,0.003973,-0.001863,89.607087,0.003975,
1870,1340,-1.716875,-3.616810,0.999997,0.000206,-0.002456,0.004964,0.000113,0.004965,-0.002458,89.128845,0.004965,
1090,1750,0.139170,-0.968462,0.999999,0.000144,-0.001016,0.003673,0.000038,0.003674,-0.001016,89.533802,0.003794,
1350,1600,-0.152547,-1.516693,0.999998,0.000190,-0.001388,0.003763,-0.000335,0.003784,-0.001409,-86.295366,0.003825,
690,140,0.432570,-9.532810,0.999997,0.000207,-0.001908,0.004888,0.001030,0.005041,-0.002061,81.567098,0.005069,
1140,1550,0.120858,-1.676425,0.999998,0.000147,-0.001435,0.003624,0.000465,0.003667,-0.001477,84.795225,0.003690,
680,780,1.613844,-6.247093,0.999997,0.000186,-0.002547,0.005074,0.000415,0.005097,-0.002570,86.889774,0.005097,
900,1990,0.060332,-0.154220,0.999998,0.000144,-0.000319,0.003473,-0.000632,0.003576,-0.000422,-80.788216,0.003908,
1590,470,-0.627824,-8.159664,0.999997,0.000196,-0.002430,0.004908,0.000307,0.004921,-0.002443,87.608074,0.004921,
1400,560,-0.253592,-8.082714,0.999998,0.000169,-0.001973,0.004102,0.000833,0.004214,-0.002085,82.332604,0.004214,
1460,820,-0.673906,-6.550657,0.999996,0.000231,-0.003914,0.006493,0.000729,0.006544,-0.003965,86.013896,0.006593,
1350,1550,-0.160658,-1.703152,0.999998,0.000161,-0.001501,0.003761,-0.000532,0.003814,-0.001554,-84.284191,0.003836,
930,1350,0.721601,-3.045745,0.999998,0.000199,-0.003389,0.005767,0.000468,0.005791,-0.003413,87.080984,0.005822,
1060,1320,0.319667,-2.783279,0.999998,0.000178,-0.003091,0.004917,0.001706,0.005266,-0.003439,78.459471,0.005347,
980,1330,0.577903,-3.025627,0.999997,0.000217,-0.003496,0.005756,0.000866,0.005836,-0.003576,84.695938,0.005885,
1170,560,0.077763,-8.241891,0.999999,0.000134,-0.001401,0.003349,-0.000481,0.003397,-0.001450,-84.276543,0.003409,
1610,260,-0.417896,-9.119554,0.999998,0.000177,-0.001650,0.004429,-0.000297,0.004443,-0.001665,-87.210364,0.004490,
650,1380,1.503284,-3.331348,0.999997,0.000202,-0.002587,0.005106,-0.000201,0.005112,-0.002593,-88.501521,0.005112,
1700,940,-1.667200,-5.479492,0.999997,0.000220,-0.002240,0.005074,-0.000456,0.005103,-0.002268,-86.447604,0.005113,
890,50,0.042090,-9.977790,0.999999,0.000133,-0.000264,0.003403,0.000620,0.003505,-0.000365,80.658989,0.003854,
1250,670,-0.018491,-7.948102,0.999999,0.000136,-0.001078,0.002468,0.000329,0.002499,-0.001109,84.744218,0.002504,
1440,1230,-0.607134,-3.467124,0.999996,0.000245,-0.003914,0.006407,-0.001033,0.006510,-0.004017,-84.339240,0.006569,
980,90,0.061530,-9.849871,0.999998,0.000206,-0.000375,0.003394,0.000404,0.003437,-0.000418,83.946175,0.003751,
1800,960,-1.913635,-5.353191,0.999998,0.000156,-0.002190,0.004666,-0.000201,0.004672,-0.002196,-88.319958,0.004675,
630,1150,1.928203,-4.481398,0.999998,0.000168,-0.002202,0.004586,-0.000235,0.004595,-0.002210,-88.020222,0.004596,
1740,620,-1.217899,-7.138316,0.999998,0.000166,-0.002733,0.005274,-0.000061,0.005275,-0.002733,-89.564761,0.005276,
1100,1810,0.102400,-0.744675,0.999999,0.000136,-0.000804,0.003549,-0.000058,0.003550,-0.000805,-89.243103,0.003723,
1750,1920,-0.372441,-0.498505,0.999997,0.000199,-0.001851,0.004704,0.000994,0.004851,-0.001998,81.564748,0.004876,
1020,220,0.154996,-9.394307,0.999998,0.000173,-0.000923,0.003740,0.000151,0.003745,-0.000928,88.146458,0.003900,
580,600,1.557640,-7.024881,0.999997,0.000208,-0.003553,0.005151,-0.000319,0.005163,-0.003564,-87.905478,0.005286,
800,1210,1.416760,-4.076553,0.999998,0.000204,-0.002734,0.005544,-0.000655,0.005596,-0.002786,-85.501336,0.005596,
970,370,0.341220,-8.756709,0.999998,0.000183,-0.001791,0.004288,-0.000215,0.004296,-0.001799,-87.975739,0.004315,
1510,240,-0.247955,-9.280170,0.999998,0.000169,-0.001307,0.004036,-0.000228,0.004046,-0.001317,-87.559320,0.004127,
1320,760,-0.116407,-7.569777,0.999998,0.000197,-0.001943,0.002909,0.001942,0.003590,-0.002624,70.664123,0.003716,
1490,650,-0.520255,-7.449543,0.999997,0.000218,-0.003030,0.005234,0.000886,0.005327,-0.003124,83.949693,0.005354,
780,1270,1.352640,-3.763267,0.999997,0.000220,-0.002899,0.005540,-0.000505,0.005571,-0.002929,-86.586326,0.005573,
1650,860,-1.412272,-5.929653,0.999997,0.000207,-0.002738,0.005596,-0.000670,0.005649,-0.002792,-85.435253,0.005650,
710,610,1.235341,-7.171576,0.999998,0.000183,-0.002699,0.005231,0.000048,0.005231,-0.002699,89.652342,0.005232,
1530,1010,-1.393302,-5.141752,0.999997,0.000204,-0.001822,0.005880,-0.000184,0.005885,-0.001826,-88.630627,0.006024,
1820,1660,-1.091689,-1.910691,0.999998,0.000157,-0.002489,0.005072,-0.000068,0.005073,-0.002489,-89.488379,0.005073,
860,1930,0.182698,-0.384813,0.999998,0.000198,-0.000846,0.003880,-0.000700,0.003982,-0.000948,-81.754027,0.004160,
560,1090,2.124619,-4.788078,0.999990,0.000000,-0.001876,0.004074,0.000087,0.004075,-0.001877,89.159651,0.004080,
1020,370,0.261262,-8.807009,0.999998,0.000158,-0.001500,0.004101,-0.000183,0.004107,-0.001506,-88.133982,0.004155,
1610,1870,-0.294318,-0.630934,0.999998,0.000191,-0.001245,0.004206,0.000588,0.004269,-0.001308,83.911851,0.004374,
1400,1570,-0.238778,-1.693991,0.999997,0.000193,-0.001724,0.004077,-0.000543,0.004127,-0.001774,-84.703035,0.004141,
1650,1970,-0.134167,-0.239122,0.999998,0.000171,-0.000624,0.003867,0.000947,0.004059,-0.000815,78.568239,0.004294,
1420,1730,-0.204079,-1.073307,0.999998,0.000162,-0.001402,0.003891,-0.000120,0.003893,-0.001405,-88.699936,0.003944,
1090,1730,0.146203,-1.042140,0.999998,0.000175,-0.001095,0.003754,0.000051,0.003755,-0.001095,89.402875,0.003862,
680,760,1.576680,-6.347803,0.999997,0.000207,-0.002562,0.005128,0.000375,0.005146,-0.002580,87.212469,0.005146,
760,1910,0.332015,-0.511625,0.999997,0.000188,-0.001292,0.004474,-0.000999,0.004643,-0.001460,-80.443854,0.004748,
1460,800,-0.621818,-6.679980,0.999997,0.000223,-0.003878,0.006311,0.000853,0.006382,-0.003949,85.247920,0.006442,
1120,1550,0.150037,-1.696388,0.999998,0.000149,-0.001488,0.003709,0.000454,0.003748,-0.001528,85.044678,0.003770,
1190,1890,0.020304,-0.454071,0.999998,0.000142,-0.000438,0.003279,-0.000044,0.003280,-0.000438,-89.317965,0.003561,
1350,1530,-0.159944,-1.777122,0.999998,0.000168,-0.001574,0.003755,-0.000610,0.003824,-0.001643,-83.557946,0.003837,
1400,540,-0.252062,-8.163085,0.999998,0.000171,-0.001859,0.004098,0.000716,0.004183,-0.001943,83.242649,0.004186,
1250,650,-0.020942,-7.998391,0.999999,0.000126,-0.001107,0.002633,0.000304,0.002658,-0.001131,85.377128,0.002668,
960,750,0.687670,-6.847518,0.999997,0.000211,-0.003627,0.006019,-0.000572,0.006053,-0.003661,-86.616684,0.006097,
1480,1350,-0.542851,-2.902231,0.999997,0.000220,-0.003344,0.005576,-0.000951,0.005676,-0.003445,-83.979580,0.005719,
880,50,0.044487,-9.976588,0.999998,0.000157,-0.000306,0.003428,0.000648,0.003538,-0.000415,80.436181,0.003867,
1610,1980,-0.099671,-0.197167,0.999998,0.000167,-0.000473,0.003650,0.000871,0.003827,-0.000650,78.552660,0.004095,
1250,600,-0.022570,-8.140869,0.999998,0.000148,-0.001201,0.003021,0.000214,0.003032,-0.001212,87.107387,0.003052,
1160,1320,0.082592,-2.376964,0.999997,0.000190,-0.001598,0.002559,0.001514,0.003052,-0.002091,71.959739,0.003121,
870,180,0.264120,-9.479151,0.999998,0.000186,-0.001296,0.004114,0.000529,0.004165,-0.001347,84.471477,0.004251,
1590,450,-0.605602,-8.258894,0.999998,0.000182,-0.002314,0.004838,0.000246,0.004846,-0.002322,88.034001,0.004848,
1360,450,-0.166812,-8.574143,0.999998,0.000166,-0.001434,0.003812,0.000377,0.003839,-0.001461,85.916059,0.003876,
1800,940,-1.893294,-5.449043,0.999998,0.000164,-0.002247,0.004746,-0.000356,0.004764,-0.002265,-87.096821,0.004766,
1120,1410,0.154050,-2.208481,0.999998,0.000174,-0.001834,0.003576,0.001230,0.003842,-0.002100,77.776742,0.003848,
630,1130,1.949834,-4.575557,0.999998,0.000184,-0.002195,0.004618,-0.000295,0.004631,-0.002208,-87.524549,0.004633,
1740,600,-1.186305,-7.243937,0.999998,0.000175,-0.002722,0.005262,-0.000026,0.005262,-0.002722,-89.810054,0.005263,
1350,1580,-0.156870,-1.592856,0.999998,0.000173,-0.001430,0.003745,-0.000388,0.003774,-0.001459,-85.740604,0.003806,
940,450,0.456005,-8.361192,0.999998,0.000188,-0.002114,0.004598,-0.000365,0.004618,-0.002134,-86.899023,0.004622,
1420,1010,-1.113437,-5.233589,0.999989,0.000467,-0.004759,0.011451,0.000814,0.011492,-0.004800,87.133323,0.011543,
1560,90,-0.096316,-9.838637,0.999998,0.000150,-0.000432,0.003540,-0.000639,0.003640,-0.000532,-81.083108,0.003932,
1880,1500,-1.479871,-2.819816,0.999997,0.000210,-0.002555,0.005106,0.000043,0.005106,-0.002555,89.675541,0.005106,
680,990,1.888189,-5.217365,0.999998,0.000177,-0.002163,0.004679,0.000131,0.004681,-0.002166,88.904929,0.004686,
1880,200,-0.853859,-9.027959,0.999998,0.000146,-0.002442,0.004935,-0.000199,0.004941,-0.002447,-88.452354,0.004941,
1300,1810,-0.050778,-0.726729,0.999999,0.000123,-0.000693,0.003453,0.000053,0.003454,-0.000694,89.264830,0.003654,
1020,200,0.143253,-9.469061,0.999998,0.000173,-0.000821,0.003695,0.000212,0.003705,-0.000831,87.321003,0.003888,
800,1190,1.458155,-4.188443,0.999997,0.000200,-0.002644,0.005485,-0.000648,0.005537,-0.002695,-85.472884,0.005537,
1490,630,-0.504177,-7.551632,0.999996,0.000222,-0.002910,0.005106,0.000866,0.005198,-0.003002,83.901665,0.005219,
1320,1560,-0.115920,-1.638042,0.999998,0.000156,-0.001454,0.003614,-0.000440,0.003652,-0.001492,-85.069363,0.003672,
1550,280,-0.346321,-9.087710,0.999998,0.000154,-0.001402,0.004285,-0.000217,0.004293,-0.001410,-87.816023,0.004377,
1610,1850,-0.329440,-0.720176,0.999997,0.000205,-0.001385,0.004342,0.000507,0.004387,-0.001429,84.975911,0.004475,
740,1270,1.464362,-3.803508,0.999997,0.000229,-0.002731,0.005321,-0.000489,0.005351,-0.002761,-86.535022,0.005352,
1530,1210,-1.007275,-3.907735,0.999998,0.000173,-0.003467,0.006431,0.000333,0.006442,-0.003478,88.077419,0.006449,
560,1080,2.129950,-4.829328,0.999991,0.000000,-0.001872,0.004008,0.000012,0.004008,-0.001872,89.887219,0.004011,
1650,1950,-0.176617,-0.316301,0.999998,0.000188,-0.000789,0.004001,0.000916,0.004170,-0.000958,79.535751,0.004369,
920,1150,1.216766,-4.312315,0.999997,0.000218,-0.002826,0.006228,-0.000735,0.006288,-0.002885,-85.387492,0.006295,
1400,1410,-0.273408,-2.356860,0.999997,0.000201,-0.002382,0.004341,-0.001264,0.004571,-0.002612,-79.699340,0.004587,
1690,680,-1.175001,-6.889890,0.999998,0.000163,-0.002908,0.005477,-0.000136,0.005479,-0.002910,-89.074230,0.005483,
710,590,1.204979,-7.275863,0.999998,0.000179,-0.002703,0.005209,-0.000010,0.005209,-0.002703,-89.931184,0.005210,
1860,1870,-0.763540,-0.929969,0.999997,0.000186,-0.002419,0.005054,0.000308,0.005067,-0.002432,87.646405,0.005068,
680,740,1.541340,-6.451377,0.999996,0.000215,-0.002579,0.005179,0.000335,0.005193,-0.002594,87.532025,0.005193,
1090,1710,0.153513,-1.118179,0.999998,0.000165,-0.001162,0.003761,0.000095,0.003763,-0.001163,88.893779,0.003854,
1400,1730,-0.175298,-1.056850,0.999998,0.000148,-0.001256,0.003821,-0.000093,0.003823,-0.001258,-88.947118,0.003897,
600,1050,2.065491,-4.941670,0.999999,0.000150,-0.002065,0.004333,-0.000123,0.004335,-0.002067,-88.898852,0.004337,
1420,390,-0.235985,-8.747697,0.999998,0.000166,-0.001565,0.004036,0.000285,0.004050,-0.001580,87.095644,0.004083,
1820,1640,-1.121721,-2.012047,0.999998,0.000160,-0.002521,0.005030,-0.000060,0.005031,-0.002522,-89.546016,0.005031,
1590,1980,-0.089214,-0.194452,0.999998,0.000137,-0.000489,0.003566,0.000730,0.003693,-0.000616,80.105885,0.003957,
1800,920,-1.870755,-5.544235,0.999998,0.000150,-0.002258,0.004761,-0.000334,0.004776,-0.002274,-87.279277,0.004778,
1250,630,-0.022374,-8.053248,0.999999,0.000129,-0.001135,0.002786,0.000268,0.002804,-0.001153,86.101032,0.002819,
1450,1080,-1.165299,-4.604032,0.999997,0.000195,-0.002900,0.007943,-0.000390,0.007957,-0.002914,-87.941209,0.008051,
760,1890,0.384243,-0.604973,0.999997,0.000204,-0.001475,0.004623,-0.000939,0.004765,-0.001616,-81.439291,0.004846,
1540,90,-0.088954,-9.840433,0.999999,0.000133,-0.000390,0.003493,-0.000592,0.003582,-0.000478,-81.522121,0.003889,
630,1110,1.972979,-4.668862,0.999998,0.000180,-0.002179,0.004573,-0.000231,0.004581,-0.002187,-88.044651,0.004582,
1590,430,-0.586685,-8.353967,0.999997,0.000196,-0.002226,0.004822,0.000211,0.004829,-0.002232,88.286458,0.004833,
960,1350,0.619715,-2.967864,0.999997,0.000202,-0.003372,0.005709,0.000732,0.005768,-0.003431,85.421971,0.005802,
930,1330,0.750653,-3.163112,0.999998,0.000203,-0.003470,0.005916,0.000401,0.005933,-0.003487,87.555340,0.005964,
1060,1300,0.337053,-2.883995,0.999997,0.000186,-0.003285,0.005074,0.001767,0.005432,-0.003643,78.543683,0.005536,
1700,920,-1.643646,-5.579925,0.999998,0.000213,-0.002305,0.005147,-0.000488,0.005178,-0.002337,-86.270351,0.005187,
1400,520,-0.246526,-8.244711,0.999998,0.000165,-0.001774,0.004083,0.000633,0.004151,-0.001842,83.898971,0.004160,
1350,1510,-0.163015,-1.851784,0.999998,0.000147,-0.001627,0.003717,-0.000699,0.003807,-0.001717,-82.672575,0.003813,
1690,1340,-1.236881,-3.382916,0.999997,0.000205,-0.002898,0.005513,0.000276,0.005522,-0.002907,88.120307,0.005525,
1190,1870,0.021800,-0.519022,0.999998,0.000152,-0.000509,0.003321,-0.000055,0.003322,-0.000510,-89.181633,0.003577,
1460,1220,-0.712738,-3.629470,0.999996,0.000230,-0.003899,0.006651,-0.000659,0.006692,-0.003940,-86.437782,0.006727,
1280,1810,-0.037447,-0.724693,0.999998,0.000147,-0.000723,0.003448,0.000042,0.003449,-0.000724,89.426305,0.003637,
1550,260,-0.322680,-9.170268,0.999998,0.000177,-0.001324,0.004182,-0.000261,0.004195,-0.001337,-87.287502,0.004286,
960,1230,0.852698,-3.710968,0.999997,0.000214,-0.003776,0.006563,0.000073,0.006563,-0.003777,89.596948,0.006588,
1320,1540,-0.116781,-1.710167,0.999998,0.000159,-0.001465,0.003607,-0.000502,0.003656,-0.001515,-84.402565,0.003674,
1880,1490,-1.495676,-2.870741,0.999998,0.000191,-0.002547,0.005109,0.000034,0.005109,-0.002547,89.745275,0.005109,
1550,650,-0.703132,-7.304702,0.999998,0.000212,-0.003073,0.005515,0.000485,0.005543,-0.003100,86.776199,0.005556,
1490,610,-0.489142,-7.655935,0.999997,0.000201,-0.002779,0.005028,0.000822,0.005113,-0.002865,84.054259,0.005126,
560,1070,2.135463,-4.871152,0.999989,0.000000,-0.001875,0.003967,-0.000057,0.003968,-0.001876,-89.442051,0.003969,
1610,1830,-0.361737,-0.804122,0.999998,0.000210,-0.001504,0.004353,0.000435,0.004385,-0.001536,85.777791,0.004450,
1800,1590,-1.144313,-2.233381,0.999998,0.000148,-0.002517,0.005072,-0.000076,0.005072,-0.002518,-89.428720,0.005073,
1430,1720,-0.224828,-1.121765,0.999999,0.000161,-0.001410,0.003926,-0.000135,0.003930,-0.001414,-88.547504,0.003981,
680,720,1.504449,-6.557080,0.999997,0.000208,-0.002607,0.005160,0.000305,0.005172,-0.002619,87.752315,0.005172,
1630,1820,-0.408443,-0.863869,0.999997,0.000189,-0.001502,0.004501,0.000493,0.004541,-0.001542,85.336848,0.004619,
690,300,0.820789,-8.726778,0.999998,0.000150,-0.002377,0.005043,0.000111,0.005044,-0.002379,89.146760,0.005047,
1650,1930,-0.218050,-0.398035,0.999998,0.000190,-0.000985,0.004087,0.000880,0.004235,-0.001133,80.430531,0.004385,
580,590,1.541915,-7.075857,0.999996,0.000211,-0.003794,0.005216,-0.000434,0.005237,-0.003814,-87.246034,0.005416,
720,1290,1.482613,-3.716018,0.999998,0.000204,-0.002681,0.005296,-0.000415,0.005317,-0.002702,-87.032113,0.005317,
1420,370,-0.227273,-8.827784,0.999998,0.000161,-0.001524,0.004047,0.000231,0.004056,-0.001534,87.631114,0.004096,
970,1810,0.229737,-0.806772,0.999998,0.000157,-0.001262,0.003984,-0.000182,0.003991,-0.001268,-88.015559,0.004078,
1580,1990,-0.067181,-0.156651,0.999998,0.000155,-0.000399,0.003495,0.000682,0.003611,-0.000515,80.342262,0.003907,
1650,940,-1.554473,-5.493167,0.999997,0.000217,-0.002274,0.005276,-0.000506,0.005310,-0.002308,-86.184022,0.005325,
1800,900,-1.848946,-5.639427,0.999998,0.000163,-0.002289,0.004757,-0.000340,0.004774,-0.002305,-87.243712,0.004775,
1070,1620,0.212436,-1.484103,0.999998,0.000156,-0.001605,0.003963,0.000456,0.004000,-0.001642,85.350854,0.004022,
1680,1470,-0.998422,-2.663704,0.999998,0.000138,-0.002766,0.005261,-0.000113,0.005263,-0.002768,-89.191350,0.005265,
1090,1690,0.160826,-1.193513,0.999998,0.000165,-0.001209,0.003793,0.000127,0.003797,-0.001213,88.541109,0.003878,
1250,610,-0.022211,-8.111327,0.999998,0.000141,-0.001170,0.002951,0.000221,0.002963,-0.001181,86.940396,0.002983,
1820,1620,-1.152281,-2.111689,0.999998,0.000163,-0.002545,0.005054,-0.000052,0.005055,-0.002545,-89.606790,0.005055,
630,1090,1.984784,-4.758726,0.999998,0.000184,-0.002157,0.004476,-0.000078,0.004477,-0.002158,-89.324791,0.004478,
960,730,0.654873,-6.966367,0.999996,0.000219,-0.003549,0.005845,-0.000644,0.005889,-0.003593,-86.097238,0.005936,
850,180,0.289146,-9.467341,0.999997,0.000206,-0.001186,0.004198,0.000590,0.004262,-0.001250,83.815521,0.004381,
1590,410,-0.566160,-8.449590,0.999997,0.000228,-0.002154,0.004740,0.000176,0.004744,-0.002159,88.537720,0.004751,
1490,1340,-0.588635,-2.988522,0.999997,0.000202,-0.003444,0.005706,-0.000842,0.005783,-0.003521,-84.783888,0.005829,
1350,1490,-0.162719,-1.924590,0.999998,0.000153,-0.001673,0.003712,-0.000790,0.003825,-0.001787,-81.819596,0.003828,
870,1480,0.745303,-2.458980,0.999998,0.000187,-0.002782,0.005248,0.000366,0.005265,-0.002799,87.396861,0.005269,
740,1950,0.242740,-0.341111,0.999998,0.000177,-0.000921,0.004334,-0.001226,0.004606,-0.001193,-77.496828,0.004781,
1380,90,-0.033255,-9.860714,0.999999,0.000142,-0.000207,0.003217,-0.000219,0.003231,-0.000221,-86.347734,0.003610,
710,570,1.174434,-7.378652,0.999997,0.000185,-0.002684,0.005197,-0.000038,0.005197,-0.002684,-89.720600,0.005198,
1020,180,0.125631,-9.542658,0.999998,0.000160,-0.000701,0.003598,0.000253,0.003613,-0.000716,86.641589,0.003826,
630,1860,0.725571,-0.917176,0.999997,0.000192,-0.002392,0.005134,-0.000321,0.005147,-0.002405,-87.560065,0.005151,
1610,1810,-0.395916,-0.894777,0.999998,0.000193,-0.001620,0.004457,0.000381,0.004481,-0.001644,86.426085,0.004534,
1190,1850,0.027378,-0.588081,0.999998,0.000179,-0.000573,0.003382,-0.000043,0.003382,-0.000574,-89.382769,0.003620,
1460,1240,-0.657566,-3.496475,0.999996,0.000236,-0.003904,0.006450,-0.000762,0.006506,-0.003960,-85.815001,0.006557,
1400,500,-0.243138,-8.325270,0.999998,0.000163,-0.001741,0.004045,0.000573,0.004101,-0.001797,84.394201,0.004112,
1160,1300,0.087050,-2.430436,0.999997,0.000202,-0.001678,0.002479,0.001687,0.003078,-0.002277,70.466770,0.003193,
960,1210,0.909668,-3.844210,0.999997,0.000226,-0.003687,0.006646,-0.000086,0.006647,-0.003688,-89.522586,0.006660,
950,240,0.250944,-9.278299,0.999998,0.000158,-0.001314,0.004053,0.000236,0.004064,-0.001324,87.491068,0.004145,
1540,540,-0.568150,-7.900784,0.999997,0.000208,-0.002569,0.004962,0.000522,0.004998,-0.002605,86.057545,0.005000,
1490,590,-0.476217,-7.755930,0.999997,0.000212,-0.002614,0.004900,0.000776,0.004979,-0.002693,84.166756,0.004984,
1320,1520,-0.117813,-1.781655,0.999998,0.000160,-0.001467,0.003557,-0.000530,0.003612,-0.001522,-84.040198,0.003627,
560,1060,2.142114,-4.907860,0.999990,0.000000,-0.001889,0.003931,-0.000038,0.003931,-0.001889,-89.630399,0.003932,
1890,1000,-2.118043,-5.155104,0.999998,0.000155,-0.002029,0.004115,-0.000116,0.004117,-0.002031,-88.916942,0.004118,
1060,1280,0.361383,-2.990088,0.999997,0.000200,-0.003477,0.005295,0.001769,0.005639,-0.003821,79.016117,0.005756,
1630,1800,-0.443814,-0.955136,0.999998,0.000180,-0.001596,0.004545,0.000405,0.004572,-0.001622,86.240080,0.004636,
680,700,1.469266,-6.660023,0.999997,0.000217,-0.002649,0.005162,0.000267,0.005171,-0.002658,88.043724,0.005172,
930,1310,0.785852,-3.284277,0.999998,0.000197,-0.003559,0.006040,0.000346,0.006052,-0.003571,87.936057,0.006085,
1430,1700,-0.233340,-1.199929,0.999999,0.000164,-0.001483,0.003997,-0.000187,0.004003,-0.001490,-88.050633,0.004046,
1650,1910,-0.260182,-0.480139,0.999997,0.000194,-0.001141,0.004183,0.000828,0.004309,-0.001266,81.363335,0.004429,
1700,1140,-1.638385,-4.474680,0.999997,0.000201,-0.002364,0.005147,0.000524,0.005183,-0.002400,86.025323,0.005188,
1580,1210,-1.172587,-3.993990,0.999997,0.000224,-0.003157,0.006050,0.000583,0.006086,-0.003194,86.391146,0.006089,
1210,620,0.024101,-8.080575,0.999998,0.000146,-0.001216,0.002885,-0.000269,0.002903,-0.001234,-86.266686,0.002913,
1220,790,0.015193,-7.743005,0.999998,0.000174,-0.001380,0.001118,-0.000337,0.001163,-0.001425,-82.446607,0.001517,
820,1170,1.443141,-4.285633,0.999997,0.000197,-0.002625,0.005505,-0.000654,0.005557,-0.002677,-85.431088,0.005558,
690,280,0.783474,-8.828346,0.999998,0.000175,-0.002378,0.005051,0.000178,0.005055,-0.002382,88.628526,0.005058,
1090,1670,0.167019,-1.269727,0.999998,0.000167,-0.001251,0.003779,0.000167,0.003784,-0.001256,88.097097,0.003855,
630,1070,1.992194,-4.848563,0.999998,0.000184,-0.002141,0.004467,-0.000111,0.004469,-0.002143,-89.036072,0.004470,
1740,580,-1.154827,-7.348126,0.999998,0.000176,-0.002699,0.005202,0.000019,0.005202,-0.002699,89.863046,0.005203,
970,1790,0.247327,-0.884979,0.999998,0.000166,-0.001364,0.003998,-0.000120,0.004001,-0.001366,-88.715879,0.004067,
1870,720,-1.724865,-6.439030,0.999998,0.000179,-0.002459,0.004928,-0.000114,0.004929,-0.002461,-89.116073,0.004929,
1250,590,-0.022302,-8.170765,0.999998,0.000155,-0.001220,0.003074,0.000236,0.003087,-0.001233,86.858884,0.003108,
940,750,0.759695,-6.791695,0.999997,0.000179,-0.003576,0.006088,-0.000400,0.006105,-0.003593,-87.631603,0.006137,
1440,1250,-0.556271,-3.342933,0.999996,0.000225,-0.003875,0.006145,-0.001140,0.006273,-0.004003,-83.593055,0.006352,
1820,1600,-1.179584,-2.215103,0.999998,0.000171,-0.002539,0.005067,-0.000067,0.005067,-0.002539,-89.495029,0.005067,
1610,1960,-0.132082,-0.270526,0.999998,0.000164,-0.000601,0.003735,0.000760,0.003864,-0.000730,80.338417,0.004106,
1590,390,-0.545076,-8.543508,0.999997,0.000218,-0.002126,0.004717,0.000136,0.004719,-0.002128,88.865451,0.004727,
670,1480,1.288046,-2.787061,0.999997,0.000192,-0.002596,0.005150,0.000004,0.005150,-0.002596,89.968151,0.005150,
1750,1980,-0.187949,-0.230925,0.999997,0.000188,-0.001168,0.004275,0.001363,0.004598,-0.001490,76.701010,0.004691,
1800,140,-0.485738,-9.502012,0.999997,0.000235,-0.001831,0.005106,-0.001176,0.005300,-0.002025,-80.637641,0.005349,
1400,1550,-0.244206,-1.775710,0.999998,0.000161,-0.001743,0.004061,-0.000574,0.004118,-0.001799,-84.408924,0.004129,
810,460,0.768189,-8.109506,0.999998,0.000159,-0.002445,0.005046,-0.000170,0.005050,-0.002449,-88.702460,0.005051,
1880,1440,-1.572901,-3.125242,0.999997,0.000228,-0.002555,0.005094,0.000030,0.005094,-0.002555,89.776488,0.005094,
1350,1470,-0.165946,-2.003015,0.999998,0.000178,-0.001738,0.003730,-0.000892,0.003872,-0.001880,-80.970674,0.003873,
720,510,1.062435,-7.709001,0.999998,0.000167,-0.002568,0.005171,-0.000101,0.005172,-0.002570,-89.254345,0.005172,
1190,1830,0.028849,-0.654119,0.999999,0.000137,-0.000648,0.003393,0.000012,0.003393,-0.000649,89.835310,0.003602,
1320,1500,-0.117163,-1.853041,0.999998,0.000151,-0.001474,0.003515,-0.000571,0.003580,-0.001539,-83.552605,0.003591,
710,550,1.145809,-7.483855,0.999998,0.000161,-0.002651,0.005221,-0.000053,0.005221,-0.002651,-89.613688,0.005221,
1020,160,0.109623,-9.612381,0.999998,0.000164,-0.000633,0.003592,0.000289,0.003612,-0.000653,86.108409,0.003850,
560,1050,2.143751,-4.947602,0.999990,0.000000,-0.001901,0.003923,-0.000075,0.003924,-0.001901,-89.266735,0.003924,
1160,1280,0.094334,-2.478977,0.999997,0.000190,-0.001812,0.002371,0.001823,0.003054,-0.002495,69.464221,0.003252,
1540,580,-0.603513,-7.698129,0.999997,0.000216,-0.002729,0.005095,0.000533,0.005131,-0.002765,86.119284,0.005136,
680,680,1.432219,-6.762661,0.999997,0.000211,-0.002645,0.005171,0.000221,0.005177,-0.002651,88.378592,0.005178,
1650,1890,-0.302038,-0.566903,0.999998,0.000178,-0.001311,0.004321,0.000772,0.004425,-0.001415,82.335264,0.004520,
1400,480,-0.237113,-8.405957,0.999997,0.000194,-0.001732,0.004049,0.000538,0.004099,-0.001781,84.732866,0.004111,
1620,60,-0.072024,-9.939795,0.999998,0.000146,-0.000251,0.003602,-0.000864,0.003787,-0.000435,-77.925232,0.004144,
1490,790,-0.717570,-6.636680,0.999997,0.000223,-0.003833,0.006374,0.000513,0.006400,-0.003859,87.131485,0.006445,
630,1840,0.779427,-1.021385,0.999998,0.000180,-0.002414,0.005119,-0.000241,0.005127,-0.002422,-88.172101,0.005130,
1190,240,0.030486,-9.375056,0.999998,0.000182,-0.000730,0.003444,0.000029,0.003444,-0.000730,89.602873,0.003630,
1460,1260,-0.610674,-3.367573,0.999997,0.000210,-0.003880,0.006261,-0.000887,0.006338,-0.003957,-85.037692,0.006403,
1870,710,-1.708161,-6.489801,0.999998,0.000186,-0.002463,0.004971,-0.000106,0.004972,-0.002465,-89.180626,0.004972,
790,1450,1.008641,-2.757603,0.999998,0.000138,-0.002821,0.005376,0.000078,0.005376,-0.002822,89.455077,0.005379,
1090,1650,0.173333,-1.344012,0.999998,0.000173,-0.001338,0.003832,0.000240,0.003843,-0.001349,87.347200,0.003900,
1750,1060,-1.818297,-4.882462,0.999998,0.000162,-0.002155,0.004796,0.000165,0.004800,-0.002159,88.641685,0.004808,
750,1050,1.744273,-4.928105,0.999998,0.000166,-0.002117,0.004922,-0.000161,0.004926,-0.002121,-88.687020,0.004942,
810,440,0.744512,-8.209489,0.999998,0.000172,-0.002372,0.004973,-0.000158,0.004976,-0.002376,-88.768291,0.004978,
910,1520,0.598100,-2.178545,0.999997,0.000203,-0.002585,0.004982,0.000496,0.005015,-0.002617,86.264610,0.005016,
1880,210,-0.880745,-8.980189,0.999998,0.000149,-0.002433,0.004922,-0.000172,0.004926,-0.002437,-88.661654,0.004926,
1160,1550,0.091842,-1.656724,0.999998,0.000167,-0.001410,0.003543,0.000387,0.003573,-0.001440,85.561896,0.003595,
1540,1450,-0.625367,-2.511002,0.999997,0.000220,-0.002829,0.005219,-0.000562,0.005258,-0.002868,-86.022184,0.005265,
1060,50,0.016132,-9.984848,0.999999,0.000153,-0.000158,0.003120,0.000233,0.003136,-0.000174,85.960253,0.003525,
1590,370,-0.524637,-8.637523,0.999997,0.000214,-0.002079,0.004668,0.000093,0.004670,-0.002081,89.209358,0.004679,
1420,1990,-0.028050,-0.142254,0.999999,0.000155,-0.000243,0.003203,0.000279,0.003225,-0.000265,85.398587,0.003581,
1820,1580,-1.209266,-2.315139,0.999998,0.000171,-0.002518,0.005079,-0.000063,0.005079,-0.002519,-89.521155,0.005079,
600,100,0.467166,-9.589497,0.999997,0.000196,-0.002344,0.005457,0.001062,0.005599,-0.002486,82.386455,0.005610,
1420,510,-0.280124,-8.256132,0.999998,0.000176,-0.001921,0.004195,0.000644,0.004263,-0.001988,84.052511,0.004266,
1350,1440,-0.167522,-2.115569,0.999998,0.000164,-0.001830,0.003701,-0.001060,0.003897,-0.002026,-79.515633,0.003898,
1300,1870,-0.036183,-0.521291,0.999999,0.000149,-0.000491,0.003326,0.000070,0.003327,-0.000493,88.948896,0.003592,
1110,680,0.169754,-7.718221,0.999998,0.000183,-0.002072,0.003732,-0.001465,0.004081,-0.002421,-76.610740,0.004104,
1680,1590,-0.842835,-2.039895,0.999998,0.000157,-0.002487,0.005080,-0.000156,0.005083,-0.002491,-88.816648,0.005083,
800,1170,1.494114,-4.296485,0.999997,0.000201,-0.002553,0.005387,-0.000626,0.005436,-0.002602,-85.521910,0.005438,
1420,90,-0.044743,-9.856392,0.999999,0.000138,-0.000340,0.003250,-0.000262,0.003269,-0.000359,-85.846110,0.003585,
680,1030,1.902123,-5.028528,0.999998,0.000160,-0.002168,0.004739,-0.000034,0.004740,-0.002169,-89.714828,0.004745,
630,1050,2.002878,-4.937328,0.999998,0.000181,-0.002122,0.004489,-0.000148,0.004492,-0.002125,-88.714277,0.004494,
1500,1350,-0.608782,-2.959804,0.999997,0.000204,-0.003389,0.005692,-0.000774,0.005757,-0.003455,-85.160354,0.005796,
1700,900,-1.613433,-5.684762,0.999998,0.000199,-0.002405,0.005259,-0.000602,0.005306,-0.002452,-85.537034,0.005311,
1800,880,-1.822854,-5.735707,0.999997,0.000193,-0.002324,0.004835,-0.000408,0.004858,-0.002347,-86.746523,0.004859,
1310,1740,-0.074258,-0.974150,0.999999,0.000134,-0.000989,0.003583,-0.000032,0.003584,-0.000989,-89.600968,0.003701,
1350,1450,-0.167424,-2.077779,0.999998,0.000161,-0.001815,0.003697,-0.001007,0.003875,-0.001993,-79.967467,0.003876,
560,1040,2.145175,-4.987662,0.999989,0.000000,-0.001890,0.004044,-0.000074,0.004045,-0.001891,-89.289097,0.004048,
1020,140,0.091254,-9.687531,0.999998,0.000143,-0.000554,0.003472,0.000307,0.003496,-0.000577,85.666262,0.003748,
1250,570,-0.023505,-8.233464,0.999999,0.000159,-0.001236,0.003168,0.000221,0.003179,-0.001247,87.135291,0.003204,
940,1230,0.927370,-3.763022,0.999997,0.000183,-0.003628,0.006473,-0.000117,0.006475,-0.003629,-89.335584,0.006490,
1060,590,0.268180,-7.949112,0.999998,0.000173,-0.002159,0.004207,-0.001022,0.004367,-0.002319,-81.095690,0.004370,
1610,1800,-0.411298,-0.939556,0.999998,0.000190,-0.001653,0.004451,0.000334,0.004469,-0.001671,86.876274,0.004516,
1410,240,-0.139336,-9.335924,0.999998,0.000168,-0.001007,0.003723,-0.000068,0.003724,-0.001008,-89.180074,0.003853,
1290,820,-0.123960,-7.570439,0.999998,0.000166,-0.002066,0.001699,0.001315,0.002113,-0.002480,72.529883,0.002677,
1400,900,-0.729863,-6.364618,0.999995,0.000247,-0.002968,0.006221,0.002284,0.006757,-0.003505,76.783693,0.006758,
710,530,1.117317,-7.587586,0.999998,0.000167,-0.002627,0.005172,-0.000069,0.005173,-0.002628,-89.495292,0.005173,
880,1720,0.467730,-1.272211,0.999998,0.000200,-0.002027,0.004619,0.000028,0.004620,-0.002027,89.760577,0.004631,
1060,1260,0.393737,-3.097142,0.999997,0.000234,-0.003675,0.005501,0.001765,0.005828,-0.004003,79.479997,0.005962,
1740,1000,-1.799745,-5.175314,0.999998,0.000166,-0.002165,0.004895,-0.000165,0.004899,-0.002169,-88.660084,0.004910,
920,830,1.010998,-6.240243,0.999997,0.000194,-0.003481,0.006367,0.000332,0.006378,-0.003493,88.069369,0.006388,
1880,1470,-1.526521,-2.973927,0.999997,0.000193,-0.002553,0.005080,0.000010,0.005080,-0.002553,89.928303,0.005080,
1320,1480,-0.119229,-1.921373,0.999999,0.000156,-0.001487,0.003449,-0.000646,0.003532,-0.001570,-82.660147,0.003539,
1630,1450,-0.886965,-2.687248,0.999998,0.000151,-0.002876,0.005352,-0.000205,0.005357,-0.002882,-88.572715,0.005362,
1690,660,-1.142089,-6.999301,0.999997,0.000197,-0.002904,0.005399,-0.000097,0.005400,-0.002905,-89.330543,0.005406,
1590,350,-0.500679,-8.730155,0.999997,0.000217,-0.002017,0.004606,0.000027,0.004606,-0.002017,89.769151,0.004618,
970,1770,0.268649,-0.968127,0.999998,0.000168,-0.001439,0.004076,-0.000071,0.004077,-0.001440,-89.258198,0.004135,
1720,1470,-1.107852,-2.726557,0.999997,0.000213,-0.002693,0.005261,-0.000031,0.005261,-0.002693,-89.774660,0.005262,
910,1500,0.616084,-2.280349,0.999997,0.000220,-0.002651,0.005092,0.000494,0.005124,-0.002682,86.360937,0.005126,
1300,1180,-0.405430,-2.648527,0.999997,0.000000,-0.002732,0.001234,-0.000547,0.001308,-0.002806,-82.292568,0.002808,
1050,50,0.017516,-9.984887,0.999999,0.000143,-0.000164,0.003131,0.000250,0.003150,-0.000183,85.681677,0.003536,
1650,1870,-0.343235,-0.653268,0.999997,0.000195,-0.001451,0.004417,0.000676,0.004494,-0.001528,83.508242,0.004570,
1190,1810,0.031672,-0.723437,0.999999,0.000127,-0.000727,0.003437,0.000000,0.003437,-0.000727,89.997355,0.003622,
1550,90,-0.093143,-9.839064,0.999999,0.000148,-0.000391,0.003519,-0.000625,0.003616,-0.000488,-81.132179,0.003924,
1460,1280,-0.572057,-3.244316,0.999996,0.000218,-0.003801,0.006075,-0.000976,0.006170,-0.003897,-84.408007,0.006241,
590,1480,1.491623,-2.911365,0.999997,0.000205,-0.002840,0.004950,0.000145,0.004953,-0.002842,88.935097,0.004971,
1400,1990,-0.023354,-0.140901,0.999999,0.000145,-0.000178,0.003166,0.000244,0.003184,-0.000196,85.849851,0.003568,
1620,690,-0.981394,-6.942300,0.999998,0.000172,-0.003145,0.005652,0.000018,0.005652,-0.003145,89.884620,0.005664,
1520,1450,-0.569986,-2.469170,0.999997,0.000212,-0.002812,0.005159,-0.000665,0.005214,-0.002867,-85.265850,0.005223,
600,70,0.323554,-9.763391,0.999997,0.000186,-0.002198,0.005753,0.001483,0.006021,-0.002466,79.771361,0.006054,
1280,1870,-0.026126,-0.519350,0.999998,0.000139,-0.000521,0.003310,0.000043,0.003311,-0.000522,89.353720,0.003560,
1000,550,0.386817,-8.001284,0.999997,0.000201,-0.002272,0.004568,-0.000744,0.004648,-0.002352,-83.864275,0.004648,
930,1290,0.823598,-3.407589,0.999997,0.000197,-0.003612,0.006164,0.000220,0.006169,-0.003617,88.711758,0.006200,
1050,1620,0.245257,-1.506846,0.999998,0.000163,-0.001641,0.004042,0.000406,0.004070,-0.001670,85.935109,0.004092,
1500,120,-0.106023,-9.739353,0.999998,0.000147,-0.000623,0.003574,-0.000425,0.003617,-0.000665,-84.271689,0.003850,
1290,1740,-0.053655,-0.971654,0.999999,0.000138,-0.000923,0.003553,-0.000008,0.003553,-0.000923,-89.900401,0.003687,
600,80,0.372982,-9.698920,0.999997,0.000186,-0.002289,0.005844,0.001371,0.006069,-0.002514,80.683629,0.006099,
1830,1440,-1.447989,-3.049957,0.999998,0.000181,-0.002578,0.005080,0.000072,0.005080,-0.002578,89.458240,0.005081,
1400,90,-0.038030,-9.859288,0.999999,0.000142,-0.000315,0.003231,-0.000246,0.003248,-0.000332,-86.043342,0.003574,
850,610,0.842534,-7.397882,0.999998,0.000162,-0.002928,0.005370,-0.000266,0.005379,-0.002937,-88.164216,0.005387,
560,1030,2.150442,-5.026864,0.999992,0.000000,-0.001780,0.004087,0.000020,0.004087,-0.001780,89.805274,0.004099,
630,1030,2.009768,-5.027599,0.999998,0.000173,-0.002116,0.004524,-0.000014,0.004524,-0.002116,-89.876450,0.004527,
1820,1560,-1.237740,-2.418210,0.999998,0.000203,-0.002522,0.005126,-0.000067,0.005127,-0.002522,-89.496040,0.005127,
1350,1430,-0.166256,-2.154581,0.999998,0.000160,-0.001841,0.003686,-0.001117,0.003903,-0.002058,-78.998753,0.003905,
1020,120,0.076981,-9.752369,0.999998,0.000165,-0.000474,0.003399,0.000336,0.003428,-0.000503,85.071736,0.003702,
1160,860,0.320463,-7.430664,0.999997,0.000208,-0.002465,0.001490,-0.000533,0.001561,-0.002536,-82.460905,0.002558,
1700,860,-1.544571,-5.895540,0.999997,0.000214,-0.002589,0.005281,-0.000581,0.005323,-0.002631,-85.800493,0.005323,
1280,590,-0.059417,-8.156057,0.999998,0.000185,-0.001330,0.003178,0.000425,0.003218,-0.001369,84.666044,0.003230,
1870,700,-1.690631,-6.539244,0.999998,0.000201,-0.002476,0.005006,-0.000096,0.005007,-0.002478,-89.265385,0.005007,
1360,510,-0.175359,-8.346413,0.999998,0.000147,-0.001630,0.003814,0.000599,0.003879,-0.001695,83.793858,0.003889,
680,660,1.397790,-6.866660,0.999997,0.000200,-0.002642,0.005213,0.000153,0.005216,-0.002645,88.882216,0.005216,
620,1050,2.023546,-4.939166,0.999999,0.000140,-0.002115,0.004437,-0.000140,0.004440,-0.002118,-88.774067,0.004441,
1290,840,-0.181560,-7.540634,0.999996,0.000224,-0.002525,0.001623,0.000629,0.001717,-0.002618,81.568764,0.002660,
1390,240,-0.119832,-9.343733,0.999998,0.000158,-0.000825,0.003663,-0.000104,0.003666,-0.000827,-88.675232,0.003845,
710,750,1.480570,-6.432942,0.999997,0.000218,-0.002735,0.005280,0.000378,0.005297,-0.002752,87.308588,0.005299,
1640,1270,-1.223923,-3.714171,0.999997,0.000192,-0.003086,0.005748,0.000429,0.005769,-0.003107,87.227339,0.005775,
1650,1850,-0.382912,-0.744029,0.999997,0.000215,-0.001555,0.004501,0.000583,0.004557,-0.001611,84.553228,0.004621,
1380,50,-0.014500,-9.985422,0.999999,0.000119,-0.000061,0.003060,-0.000185,0.003071,-0.000072,-86.621868,0.003505,
1740,1020,-1.806789,-5.075469,0.999998,0.000169,-0.002149,0.004878,-0.000085,0.004879,-0.002150,-89.310857,0.004891,
1250,550,-0.024037,-8.299045,0.999998,0.000159,-0.001255,0.003229,0.000199,0.003237,-0.001263,87.459469,0.003263,
1320,1460,-0.115435,-1.990216,0.999998,0.000163,-0.001509,0.003417,-0.000745,0.003527,-0.001619,-81.582897,0.003531,
1800,840,-1.761002,-5.930581,0.999998,0.000179,-0.002396,0.004857,-0.000419,0.004881,-0.002420,-86.701615,0.004881,
1590,330,-0.476099,-8.821693,0.999997,0.000211,-0.001941,0.004615,-0.000038,0.004616,-0.001941,-89.668698,0.004635,
970,1750,0.286218,-1.048006,0.999998,0.000177,-0.001535,0.004119,0.000017,0.004119,-0.001535,89.823574,0.004163,
1060,1240,0.435184,-3.211577,0.999997,0.000224,-0.003799,0.005790,0.001707,0.006085,-0.004094,80.204226,0.006205,
1550,70,-0.062752,-9.910909,0.999998,0.000144,-0.000239,0.003439,-0.000637,0.003546,-0.000346,-80.445179,0.003910,
1710,460,-0.911749,-8.018589,0.999998,0.000167,-0.002502,0.005069,0.000129,0.005071,-0.002504,89.026416,0.005071,
610,1540,1.351882,-2.573799,0.999997,0.000203,-0.002530,0.005086,0.000033,0.005087,-0.002530,89.749143,0.005087,
1880,170,-0.765358,-9.179876,0.999998,0.000176,-0.002463,0.005073,-0.000345,0.005089,-0.002479,-87.387002,0.005090,
1620,1340,-1.023968,-3.281576,0.999998,0.000185,-0.003139,0.005746,0.000075,0.005746,-0.003139,89.517414,0.005755,
1520,1990,-0.050774,-0.149710,0.999999,0.000144,-0.000278,0.003380,0.000536,0.003457,-0.000355,81.826666,0.003804,
680,1010,1.897173,-5.123077,0.999999,0.000144,-0.002154,0.004732,0.000139,0.004735,-0.002156,88.844210,0.004741,
1190,1790,0.034032,-0.791506,0.999998,0.000144,-0.000796,0.003507,0.000001,0.003507,-0.000796,89.985722,0.003677,
600,1950,0.488149,-0.516899,0.999996,0.000214,-0.002335,0.005408,-0.000969,0.005528,-0.002454,-82.975753,0.005539,
1700,1470,-1.055231,-2.694922,0.999998,0.000166,-0.002754,0.005263,-0.000059,0.005264,-0.002755,-89.577520,0.005266,
880,1700,0.492067,-1.362949,0.999997,0.000215,-0.002098,0.004589,0.000076,0.004590,-0.002099,89.346848,0.004596,
580,1680,1.215660,-1.917934,0.999998,0.000178,-0.001937,0.004909,0.000122,0.004912,-0.001939,88.978774,0.004948,
1570,1680,-0.487319,-1.439426,0.999996,0.000216,-0.002071,0.004618,-0.000098,0.004620,-0.002072,-89.163036,0.004628,
1340,1870,-0.059199,-0.528768,0.999998,0.000169,-0.000651,0.003383,0.000070,0.003385,-0.000652,89.006217,0.003591,
560,1020,2.148322,-5.070443,0.999990,0.000000,-0.001683,0.004090,0.000109,0.004092,-0.001685,88.914584,0.004114,
1420,610,-0.310576,-7.822408,0.999998,0.000200,-0.002320,0.004449,0.001035,0.004604,-0.002475,81.502510,0.004608,
1350,1410,-0.166127,-2.225076,0.999998,0.000150,-0.001864,0.003661,-0.001218,0.003918,-0.002121,-78.102382,0.003922,
1850,1440,-1.497999,-3.079183,0.999997,0.000197,-0.002519,0.005088,0.000066,0.005088,-0.002519,89.499587,0.005088,
860,90,0.121443,-9.830256,0.999999,0.000135,-0.000586,0.003653,0.000770,0.003788,-0.000721,80.010132,0.004023,
600,60,0.276088,-9.823908,0.999997,0.000200,-0.001909,0.005591,0.001744,0.005977,-0.002294,77.531604,0.006031,
1020,100,0.058886,-9.821835,0.999999,0.000150,-0.000360,0.003337,0.000329,0.003366,-0.000389,84.947719,0.003683,
1500,140,-0.124197,-9.671213,0.999998,0.000151,-0.000756,0.003602,-0.000364,0.003632,-0.000786,-85.256292,0.003822,
1160,1260,0.107247,-2.523699,0.999998,0.000186,-0.001936,0.002253,0.001872,0.002967,-0.002651,69.105685,0.003259,
1150,860,0.342549,-7.360945,0.999998,0.000195,-0.002167,0.001732,-0.000807,0.001892,-0.002328,-78.752172,0.002475,
1140,630,0.118601,-7.967704,0.999998,0.000169,-0.001571,0.003335,-0.000961,0.003516,-0.001753,-79.298065,0.003516,
1700,840,-1.507487,-6.002952,0.999997,0.000213,-0.002661,0.005369,-0.000615,0.005416,-0.002707,-85.647892,0.005416,
1370,50,-0.014004,-9.985364,0.999999,0.000112,-0.000066,0.003055,-0.000171,0.003065,-0.000075,-86.865940,0.003496,
1460,1720,-0.264747,-1.146015,0.999998,0.000172,-0.001344,0.004050,-0.000036,0.004050,-0.001344,-89.616078,0.004126,
1550,360,-0.432289,-8.734185,0.999998,0.000158,-0.001778,0.004466,0.000027,0.004466,-0.001778,89.747865,0.004496,
710,510,1.087488,-7.693423,0.999998,0.000169,-0.002574,0.005173,-0.000080,0.005173,-0.002575,-89.407220,0.005173,
1620,1380,-0.956427,-3.053500,0.999998,0.000151,-0.003091,0.005608,-0.000089,0.005609,-0.003091,-89.416651,0.005619,
1540,1980,-0.068226,-0.185991,0.999998,0.000152,-0.000260,0.003480,0.000585,0.003570,-0.000350,81.311469,0.003935,
1140,730,0.117737,-7.645264,0.999997,0.000201,-0.001830,0.003072,-0.001725,0.003618,-0.002376,-72.431532,0.003677,
680,640,1.365960,-6.971385,0.999998,0.000194,-0.002637,0.005179,0.000116,0.005180,-0.002639,89.150179,0.005181,
1320,1440,-0.115400,-2.057050,0.999999,0.000135,-0.001545,0.003365,-0.000841,0.003505,-0.001685,-80.540213,0.003506,
630,1450,1.438016,-3.002434,0.999997,0.000201,-0.002572,0.005084,-0.000056,0.005084,-0.002572,-89.579439,0.005084,
1850,700,-1.640735,-6.568717,0.999997,0.000219,-0.002489,0.005034,-0.000144,0.005037,-0.002492,-88.905229,0.005037,
1820,1540,-1.266801,-2.521640,0.999998,0.000203,-0.002543,0.005130,-0.000058,0.005131,-0.002543,-89.565069,0.005131,
580,930,2.065568,-5.450495,0.999998,0.000163,-0.002041,0.004383,0.000135,0.004386,-0.002044,88.800002,0.004389,
860,1990,0.076988,-0.157125,0.999999,0.000136,-0.000387,0.003629,-0.000799,0.003783,-0.000540,-79.146326,0.004092,
1650,1830,-0.421272,-0.831690,0.999998,0.000206,-0.001644,0.004519,0.000487,0.004557,-0.001682,85.513295,0.004609,
1740,1040,-1.806313,-4.979347,0.999998,0.000164,-0.002129,0.004841,0.000111,0.004843,-0.002131,89.091361,0.004854,
1290,300,-0.054188,-9.162072,0.999998,0.000147,-0.000889,0.003526,-0.000004,0.003526,-0.000889,-89.944739,0.003667,
1590,310,-0.451712,-8.916621,0.999997,0.000206,-0.001912,0.004498,-0.000074,0.004499,-0.001913,-89.338982,0.004516,
1880,1580,-1.360185,-2.411834,0.999997,0.000234,-0.002456,0.005072,-0.000032,0.005072,-0.002456,-89.756266,0.005073,
1710,1940,-0.259023,-0.381983,0.999997,0.000187,-0.000903,0.004379,0.001226,0.004650,-0.001174,77.552123,0.004836,
880,1680,0.513261,-1.456185,0.999997,0.000228,-0.002112,0.004655,0.000121,0.004657,-0.002114,88.972658,0.004663,
560,1010,2.137734,-5.110319,0.999992,0.000000,-0.001608,0.003988,0.000150,0.003992,-0.001612,88.461042,0.004016,
1190,1770,0.037899,-0.864691,0.999999,0.000122,-0.000855,0.003505,0.000008,0.003505,-0.000855,89.895072,0.003655,
1060,1220,0.486926,-3.328774,0.999996,0.000238,-0.003800,0.005886,0.001570,0.006134,-0.004048,81.020711,0.006238,
870,1540,0.680222,-2.150890,0.999997,0.000207,-0.002543,0.005053,0.000343,0.005068,-0.002558,87.422587,0.005068,
570,1680,1.238175,-1.934936,0.999971,0.000706,-0.001704,0.004875,0.000209,0.004881,-0.001711,88.177978,0.004954,
1750,540,-1.122727,-7.541410,0.999998,0.000177,-0.002627,0.005175,0.000075,0.005176,-0.002628,89.447344,0.005176,
1280,1390,-0.056258,-2.145818,0.999998,0.000155,-0.001295,0.002747,-0.000759,0.002885,-0.001432,-79.712128,0.002885,
1750,1900,-0.432030,-0.594781,0.999997,0.000197,-0.001981,0.004851,0.000845,0.004954,-0.002084,83.055115,0.004975,
1850,1460,-1.464848,-2.976991,0.999998,0.000183,-0.002541,0.005076,0.000034,0.005076,-0.002541,89.744356,0.005076,
1350,1390,-0.164845,-2.300025,0.999998,0.000176,-0.001920,0.003693,-0.001324,0.003989,-0.002216,-77.373936,0.003997,
1820,290,-0.914768,-8.702440,0.999998,0.000159,-0.002405,0.005075,-0.000107,0.005076,-0.002406,-89.180745,0.005079,
1320,1870,-0.047032,-0.523789,0.999998,0.000181,-0.000584,0.003360,0.000061,0.003361,-0.000585,89.113068,0.003591,
1010,640,0.406155,-7.598283,0.999997,0.000220,-0.002729,0.004851,-0.001068,0.004999,-0.002876,-82.133393,0.005018,
1370,1150,-0.694429,-3.406796,0.999995,0.000254,-0.001626,0.004665,-0.003153,0.005973,-0.002934,-67.465357,0.005973,
840,110,0.167974,-9.748847,0.999998,0.000150,-0.000670,0.003917,0.000825,0.004061,-0.000813,80.112621,0.004297,
1020,80,0.046076,-9.886541,0.999998,0.000165,-0.000270,0.003290,0.000349,0.003324,-0.000304,84.450644,0.003675,
1700,820,-1.467694,-6.110653,0.999997,0.000227,-0.002728,0.005356,-0.000581,0.005397,-0.002769,-85.908042,0.005398,
1500,160,-0.146269,-9.596614,0.999998,0.000173,-0.000882,0.003715,-0.000364,0.003744,-0.000911,-85.502136,0.003905,
1160,1240,0.139223,-2.566258,0.999998,0.000174,-0.002116,0.002144,0.001745,0.002768,-0.002740,70.340545,0.003180,
1240,490,-0.009855,-8.502787,0.999998,0.000162,-0.001262,0.003429,0.000090,0.003431,-0.001264,88.906742,0.003470,
1400,1160,-0.707279,-3.683741,0.999995,0.000281,-0.003059,0.006129,-0.002146,0.006606,-0.003535,-77.479023,0.006611,
1630,890,-1.419824,-5.774516,0.999998,0.000190,-0.002610,0.005559,-0.000672,0.005614,-0.002665,-85.326689,0.005616,
1320,1420,-0.112778,-2.120728,0.999998,0.000154,-0.001591,0.003308,-0.000969,0.003493,-0.001776,-79.212494,0.003493,
1740,1060,-1.796830,-4.882690,0.999998,0.000162,-0.002134,0.004820,0.000160,0.004824,-0.002138,88.683326,0.004834,
830,50,0.060349,-9.971855,0.999999,0.000143,-0.000180,0.003508,0.000903,0.003717,-0.000389,76.960082,0.004087,
1590,290,-0.426565,-9.003672,0.999997,0.000188,-0.001850,0.004481,-0.000152,0.004485,-0.001853,-88.622975,0.004507,
710,470,1.033008,-7.898020,0.999998,0.000159,-0.002515,0.005093,-0.000107,0.005095,-0.002516,-89.190715,0.005095,
1150,850,0.282922,-7.376803,0.999997,0.000198,-0.002192,0.001965,-0.000996,0.002191,-0.002419,-77.196610,0.002671,
1650,1810,-0.456335,-0.924547,0.999998,0.000196,-0.001740,0.004612,0.000424,0.004640,-0.001768,86.201832,0.004683,
1730,1500,-1.093056,-2.585652,0.999997,0.000197,-0.002640,0.005245,-0.000073,0.005246,-0.002640,-89.470451,0.005246,
1190,1750,0.038945,-0.932290,0.999999,0.000132,-0.000907,0.003497,0.000041,0.003497,-0.000907,89.467793,0.003630,
1210,1280,0.024168,-2.330392,0.999998,0.000168,-0.001198,0.001333,0.000653,0.001492,-0.001356,76.347558,0.001650,
1620,1270,-1.160967,-3.688658,0.999997,0.000213,-0.003168,0.005870,0.000396,0.005888,-0.003185,87.495672,0.005894,
1760,1470,-1.215678,-2.789805,0.999998,0.000174,-0.002678,0.005204,0.000007,0.005204,-0.002678,89.947555,0.005205,
730,1160,1.685267,-4.384770,0.999998,0.000164,-0.002379,0.005090,-0.000544,0.005130,-0.002419,-85.855797,0.005133,
1360,670,-0.184305,-7.734776,0.999997,0.000197,-0.002144,0.003864,0.001430,0.004187,-0.002467,77.276846,0.004209,
680,620,1.333340,-7.074267,0.999998,0.000200,-0.002640,0.005159,0.000079,0.005160,-0.002641,89.418751,0.005161,
870,1780,0.409019,-1.010311,0.999997,0.000177,-0.001783,0.004440,-0.000210,0.004447,-0.001790,-88.069090,0.004475,
580,940,2.075222,-5.405178,0.999998,0.000163,-0.002006,0.004289,0.000103,0.004291,-0.002007,89.062939,0.004294,
1310,300,-0.071027,-9.159008,0.999999,0.000133,-0.000932,0.003553,0.000000,0.003553,-0.000932,-89.997780,0.003684,
1570,1660,-0.509428,-1.532123,0.999997,0.000190,-0.002101,0.004678,-0.000175,0.004682,-0.002105,-88.525958,0.004690,
1540,1960,-0.095116,-0.257249,0.999998,0.000147,-0.000366,0.003547,0.000569,0.003628,-0.000448,81.890644,0.003956,
1240,1990,-0.001076,-0.136851,0.999998,0.000162,-0.000161,0.003048,0.000014,0.003048,-0.000161,89.756241,0.003430,
1410,1020,-1.062442,-5.129965,0.999983,0.000522,-0.005169,0.012875,0.000414,0.012885,-0.005178,88.686417,0.012967,
1690,1860,-0.432068,-0.732971,0.999997,0.000185,-0.001681,0.004704,0.000692,0.004778,-0.001755,83.886925,0.004833,
970,940,1.180787,-5.620542,0.999998,0.000181,-0.002687,0.006770,0.000501,0.006796,-0.002713,86.974296,0.006842,
560,1000,2.133350,-5.150122,0.999995,0.000000,-0.001556,0.003846,0.000031,0.003846,-0.001556,89.672436,0.003870,
1060,1200,0.560066,-3.441661,0.999996,0.000233,-0.003694,0.006000,0.001552,0.006242,-0.003937,81.124031,0.006313,
1120,90,0.025009,-9.863205,0.999998,0.000149,-0.000232,0.003139,0.000134,0.003145,-0.000237,87.732299,0.003502,
1400,750,-0.322869,-7.234353,0.999998,0.000167,-0.003177,0.004987,0.001771,0.005355,-0.003545,78.270901,0.005448,
1800,820,-1.727836,-6.028211,0.999997,0.000182,-0.002447,0.004906,-0.000424,0.004930,-0.002471,-86.708539,0.004930,
1850,1480,-1.435353,-2.875926,0.999998,0.000168,-0.002557,0.005098,0.000010,0.005098,-0.002557,89.928548,0.005098,
1500,1620,-0.401303,-1.620183,0.999997,0.000224,-0.001936,0.004438,-0.000339,0.004456,-0.001954,-86.963299,0.004467,
1160,1220,0.185633,-2.608441,0.999996,0.000211,-0.002237,0.001990,0.001216,0.002315,-0.002562,75.037447,0.002827,
1350,1590,-0.153760,-1.555385,0.999998,0.000179,-0.001409,0.003755,-0.000359,0.003780,-0.001434,-86.042860,0.003816,
880,1660,0.535046,-1.550009,0.999997,0.000231,-0.002122,0.004720,0.000150,0.004724,-0.002126,88.747455,0.004731,
1460,1700,-0.278134,-1.226507,0.999998,0.000179,-0.001415,0.004084,-0.000125,0.004087,-0.001418,-88.696509,0.004150,
1220,490,0.014795,-8.502782,0.999998,0.000145,-0.001254,0.003434,-0.000104,0.003436,-0.001256,-88.727123,0.003478,
1630,870,-1.376823,-5.887234,0.999997,0.000216,-0.002774,0.005671,-0.000694,0.005728,-0.002831,-85.333860,0.005728,
1400,1180,-0.625764,-3.549249,0.999995,0.000254,-0.003479,0.006077,-0.001764,0.006392,-0.003794,-79.869608,0.006429,
1250,530,-0.024342,-8.363686,0.999998,0.000169,-0.001269,0.003321,0.000194,0.003329,-0.001278,87.589766,0.003359,
1700,800,-1.428227,-6.217742,0.999997,0.000216,-0.002784,0.005430,-0.000517,0.005462,-0.002816,-86.410434,0.005463,
1820,1520,-1.297787,-2.624182,0.999997,0.000193,-0.002568,0.005115,-0.000039,0.005116,-0.002568,-89.711533,0.005116,
630,1470,1.405772,-2.900912,0.999997,0.000196,-0.002567,0.005116,-0.000006,0.005116,-0.002567,-89.952392,0.005116,
1650,1790,-0.490331,-1.017588,0.999998,0.000205,-0.001833,0.004646,0.000333,0.004663,-0.001850,87.066779,0.004696,
1740,1500,-1.118925,-2.601725,0.999998,0.000170,-0.002637,0.005234,-0.000065,0.005235,-0.002638,-89.528289,0.005235,
1020,60,0.026979,-9.953937,0.999999,0.000144,-0.000169,0.003202,0.000339,0.003236,-0.000203,84.314935,0.003625,
1590,270,-0.397095,-9.095728,0.999997,0.000179,-0.001763,0.004426,-0.000210,0.004433,-0.001770,-88.062446,0.004463,
710,450,1.005479,-8.000512,0.999998,0.000157,-0.002503,0.005066,-0.000091,0.005067,-0.002504,-89.309453,0.005067,
1600,1270,-1.097452,-3.659491,0.999997,0.000238,-0.003277,0.005986,0.000327,0.005997,-0.003288,87.979613,0.006006,
970,1730,0.302850,-1.133229,0.999998,0.000189,-0.001615,0.004219,0.000071,0.004220,-0.001616,89.303433,0.004259,
1690,480,-0.886605,-7.947918,0.999999,0.000125,-0.002511,0.005085,0.000158,0.005088,-0.002515,88.808308,0.005088,
1320,1400,-0.111727,-2.185331,0.999998,0.000167,-0.001619,0.003256,-0.001104,0.003495,-0.001857,-77.812003,0.003497,
610,1680,1.142609,-1.864332,0.999998,0.000154,-0.002470,0.005007,0.000047,0.005008,-0.002470,89.638740,0.005008,
830,720,1.074192,-6.750502,0.999998,0.000188,-0.003134,0.005700,0.000137,0.005702,-0.003136,89.109246,0.005712,
950,940,1.233003,-5.587395,0.999997,0.000188,-0.002612,0.006422,0.000640,0.006467,-0.002657,85.970890,0.006501,
560,990,2.128549,-5.186221,0.999994,0.000000,-0.001539,0.003922,-0.000130,0.003925,-0.001542,-88.641119,0.003954,
1730,1340,-1.352153,-3.434562,0.999997,0.000239,-0.002813,0.005349,0.000309,0.005361,-0.002824,87.832541,0.005363,
1190,1730,0.041167,-1.003416,0.999999,0.000138,-0.000976,0.003528,0.000042,0.003528,-0.000976,89.462933,0.003644,
1710,1780,-0.632267,-1.136464,0.999997,0.000206,-0.002058,0.004890,0.000345,0.004907,-0.002075,87.165765,0.004926,
1440,90,-0.050723,-9.854439,0.999999,0.000151,-0.000277,0.003305,-0.000330,0.003335,-0.000308,-84.775580,0.003686,
1410,1030,-1.063479,-5.007448,0.999990,0.000367,-0.005130,0.012852,-0.000193,0.012854,-0.005132,-89.386001,0.012941,
1390,1320,-0.280985,-2.729188,0.999997,0.000190,-0.002936,0.004675,-0.001807,0.005082,-0.003343,-77.299687,0.005166,
1540,1940,-0.120668,-0.329113,0.999998,0.000168,-0.000506,0.003659,0.000605,0.003745,-0.000592,81.896519,0.004026,
1370,1630,-0.174650,-1.419129,0.999998,0.000189,-0.001401,0.003836,-0.000303,0.003854,-0.001418,-86.699341,0.003898,
610,1740,1.041086,-1.566128,0.999998,0.000165,-0.002406,0.004997,0.000047,0.004997,-0.002407,89.634446,0.004998,
1160,840,0.206905,-7.463759,0.999996,0.000228,-0.002308,0.001907,-0.001022,0.002141,-0.002543,-77.068970,0.002734,
1140,1990,0.011577,-0.135489,0.999998,0.000133,-0.000189,0.003064,-0.000119,0.003069,-0.000194,-87.900684,0.003437,
1000,1670,0.300546,-1.354505,0.999997,0.000188,-0.001595,0.004208,0.000194,0.004214,-0.001601,88.085099,0.004254,
1420,490,-0.275669,-8.340583,0.999998,0.000176,-0.001800,0.004166,0.000565,0.004219,-0.001853,84.638489,0.004230,
730,1840,0.551818,-0.866213,0.999997,0.000246,-0.001972,0.004875,-0.000609,0.004929,-0.002026,-84.959103,0.004955,
1060,1180,0.636156,-3.569349,0.999996,0.000228,-0.003505,0.006223,0.001676,0.006504,-0.003786,80.493014,0.006533,
1750,520,-1.095197,-7.644843,0.999998,0.000184,-0.002596,0.005148,0.000096,0.005149,-0.002597,89.290902,0.005149,
920,1570,0.530006,-1.916743,0.999997,0.000207,-0.002287,0.004755,0.000391,0.004777,-0.002308,86.834402,0.004778,
1120,570,0.152474,-8.145393,0.999998,0.000160,-0.001644,0.003656,-0.000749,0.003760,-0.001748,-82.110583,0.003763,
1360,650,-0.184858,-7.812873,0.999998,0.000189,-0.002030,0.003830,0.001266,0.004092,-0.002292,78.315170,0.004102,
680,600,1.299688,-7.178285,0.999998,0.000193,-0.002627,0.005165,0.000045,0.005165,-0.002627,89.668730,0.005165,
1400,1200,-0.548459,-3.420900,0.999996,0.000229,-0.003691,0.005905,-0.001590,0.006162,-0.003947,-80.835131,0.006242,
1700,780,-1.390254,-6.328982,0.999997,0.000207,-0.002848,0.005482,-0.000469,0.005508,-0.002875,-86.784540,0.005510,
1800,800,-1.692000,-6.128597,0.999998,0.000187,-0.002502,0.005034,-0.000413,0.005056,-0.002525,-86.875940,0.005056,
1500,1600,-0.414454,-1.708412,0.999997,0.000198,-0.002017,0.004510,-0.000387,0.004532,-0.002040,-86.615204,0.004540,
1090,300,0.135823,-9.130338,0.999999,0.000134,-0.001000,0.003698,-0.000008,0.003698,-0.001000,-89.904626,0.003826,
700,830,1.652642,-6.007961,0.999998,0.000179,-0.002539,0.005058,0.000489,0.005090,-0.002571,86.335423,0.005090,
880,1640,0.557465,-1.645449,0.999997,0.000213,-0.002132,0.004746,0.000202,0.004752,-0.002138,88.319434,0.004760,
990,240,0.202038,-9.304879,0.999998,0.000170,-0.001020,0.003884,0.000217,0.003894,-0.001029,87.465503,0.004035,
1010,1990,0.033723,-0.144486,0.999998,0.000135,-0.000166,0.003256,-0.000363,0.003294,-0.000204,-84.009824,0.003691,
980,1650,0.350264,-1.465807,0.999997,0.000198,-0.001862,0.004348,0.000326,0.004365,-0.001879,87.005008,0.004379,
1740,1480,-1.147149,-2.705393,0.999997,0.000181,-0.002674,0.005232,-0.000040,0.005232,-0.002674,-89.706606,0.005232,
1590,250,-0.370303,-9.181439,0.999997,0.000183,-0.001652,0.004345,-0.000278,0.004358,-0.001664,-87.349324,0.004399,
710,430,0.977289,-8.100872,0.999998,0.000157,-0.002459,0.005059,-0.000087,0.005060,-0.002460,-89.336428,0.005061,
710,1160,1.732833,-4.392416,0.999998,0.000179,-0.002404,0.004994,-0.000489,0.005026,-0.002436,-86.233000,0.005027,
1320,1380,-0.111166,-2.251874,0.999998,0.000176,-0.001656,0.003168,-0.001254,0.003474,-0.001962,-76.264454,0.003484,
1650,1770,-0.526609,-1.110364,0.999998,0.000204,-0.001899,0.004706,0.000260,0.004716,-0.001909,87.746864,0.004745,
1630,850,-1.334034,-6.002604,0.999997,0.000209,-0.002891,0.005702,-0.000639,0.005750,-0.002938,-85.769403,0.005750,
1890,100,-0.529803,-9.526804,0.999997,0.000191,-0.002290,0.005811,-0.001173,0.005978,-0.002457,-81.925853,0.006009,
1710,1340,-1.295007,-3.409063,0.999997,0.000239,-0.002877,0.005437,0.000291,0.005447,-0.002887,88.000404,0.005450,
1860,270,-0.972147,-8.725037,0.999998,0.000150,-0.002416,0.004965,-0.000055,0.004965,-0.002416,-89.573010,0.004966,
1560,1210,-1.106791,-3.963638,0.999998,0.000183,-0.003306,0.006189,0.000515,0.006217,-0.003333,86.905311,0.006222,
900,40,0.027647,-10.011037,0.999999,0.000120,-0.000160,0.003313,0.000620,0.003421,-0.000268,80.174341,0.003805,
1390,1300,-0.295611,-2.823517,0.999997,0.000214,-0.003102,0.004836,-0.001872,0.005255,-0.003522,-77.374330,0.005356,
560,980,2.128956,-5.224754,0.999992,0.000000,-0.001598,0.004060,-0.000184,0.004066,-0.001604,-88.140418,0.004096,
1140,90,0.019505,-9.865093,0.999998,0.000174,-0.000246,0.003130,0.000109,0.003133,-0.000250,88.156572,0.003483,
1460,1680,-0.289959,-1.310019,0.999998,0.000197,-0.001516,0.004197,-0.000166,0.004202,-0.001521,-88.341044,0.004255,
960,1410,0.555525,-2.638050,0.999997,0.000233,-0.002992,0.005266,0.000794,0.005342,-0.003068,84.559945,0.005362,
570,2010,0.220897,-0.207664,0.999966,0.000714,0.000119,0.006869,-0.003386,0.008275,-0.001287,-67.451960,0.008905,
1380,1730,-0.153296,-1.046995,0.999998,0.000166,-0.001070,0.003761,-0.000061,0.003762,-0.001071,-89.282316,0.003876,
1540,1920,-0.149205,-0.402985,0.999998,0.000166,-0.000646,0.003731,0.000539,0.003796,-0.000712,83.079121,0.004036,
630,1490,1.376046,-2.797420,0.999997,0.000200,-0.002565,0.005123,0.000011,0.005123,-0.002565,89.921633,0.005123,
1250,510,-0.023618,-8.430788,0.999998,0.000177,-0.001265,0.003387,0.000163,0.003393,-0.001271,87.996924,0.003428,
1820,1500,-1.326485,-2.726718,0.999997,0.000193,-0.002568,0.005113,-0.000020,0.005113,-0.002568,-89.848641,0.005113,
590,1740,1.088463,-1.602552,0.999998,0.000154,-0.002411,0.004951,0.000073,0.004952,-0.002412,89.430928,0.004952,
970,1860,0.177883,-0.611546,0.999998,0.000158,-0.001042,0.003833,-0.000278,0.003848,-0.001058,-86.743771,0.003976,
1160,820,0.150725,-7.504852,0.999997,0.000197,-0.002120,0.002111,-0.001652,0.002680,-0.002689,-71.009800,0.003099,
1360,1220,-0.342638,-3.016484,0.999997,0.000238,-0.003105,0.004381,-0.002236,0.004998,-0.003722,-74.574173,0.005194,
1120,550,0.151868,-8.219214,0.999998,0.000155,-0.001579,0.003698,-0.000658,0.003779,-0.001659,-82.999829,0.003788,
1190,1710,0.042883,-1.073884,0.999999,0.000130,-0.001024,0.003540,0.000068,0.003541,-0.001025,89.140991,0.003644,
1700,760,-1.350616,-6.436439,0.999998,0.000191,-0.002876,0.005464,-0.000430,0.005486,-0.002898,-87.058837,0.005489,
1300,790,-0.100518,-7.580688,0.999998,0.000166,-0.001828,0.002236,0.001789,0.002911,-0.002503,69.320199,0.003152,
1500,1580,-0.425478,-1.798669,0.999997,0.000194,-0.002113,0.004560,-0.000444,0.004589,-0.002142,-86.211750,0.004592,
870,520,0.685912,-7.906219,0.999998,0.000196,-0.002531,0.005032,-0.000339,0.005047,-0.002546,-87.439525,0.005047,
970,1710,0.320612,-1.217645,0.999998,0.000191,-0.001714,0.004222,0.000161,0.004226,-0.001718,88.446792,0.004251,
1690,460,-0.861338,-8.049417,0.999998,0.000146,-0.002486,0.005060,0.000136,0.005062,-0.002489,88.968939,0.005062,
1320,260,-0.068943,-9.297968,0.999999,0.000143,-0.000867,0.003499,0.000006,0.003499,-0.000867,89.927074,0.003644,
850,1540,0.731609,-2.183272,0.999998,0.000187,-0.002580,0.005076,0.000296,0.005087,-0.002591,87.787971,0.005087,
1010,1970,0.051029,-0.211238,0.999998,0.000154,-0.000263,0.003307,-0.000369,0.003345,-0.000301,-84.156306,0.003701,
560,970,2.126914,-5.269783,0.999992,0.000000,-0.001699,0.004148,-0.000227,0.004156,-0.001708,-87.778848,0.004178,
1730,520,-1.043275,-7.677548,0.999998,0.000165,-0.002614,0.005167,0.000118,0.005169,-0.002616,89.134384,0.005169,
910,50,0.039742,-9.977376,0.999999,0.000137,-0.000145,0.003347,0.000611,0.003451,-0.000249,80.359080,0.003849,
710,410,0.948710,-8.201814,0.999998,0.000178,-0.002442,0.005072,-0.000067,0.005073,-0.002442,-89.487131,0.005074,
790,1430,1.037920,-2.865495,0.999998,0.000163,-0.002857,0.005411,0.000049,0.005411,-0.002857,89.658835,0.005414,
700,810,1.617071,-6.111971,0.999996,0.000222,-0.002606,0.005145,0.000498,0.005177,-0.002638,86.340214,0.005177,
1070,300,0.154659,-9.121316,0.999998,0.000162,-0.001080,0.003764,-0.000013,0.003764,-0.001080,-89.851333,0.003876,
1360,490,-0.172802,-8.420936,0.999998,0.000152,-0.001556,0.003820,0.000517,0.003870,-0.001605,84.555236,0.003888,
1060,1160,0.718483,-3.710255,0.999996,0.000230,-0.003193,0.006261,0.001975,0.006657,-0.003589,78.661391,0.006664,
1740,1460,-1.178540,-2.810680,0.999998,0.000167,-0.002710,0.005245,0.000026,0.005245,-0.002710,89.816334,0.005246,
1730,1060,-1.776404,-4.880784,0.999998,0.000157,-0.002119,0.004842,0.000154,0.004845,-0.002122,88.736416,0.004858,
910,720,0.812783,-6.898585,0.999996,0.000223,-0.003397,0.005869,-0.000294,0.005878,-0.003406,-88.183687,0.005903,
1400,1640,-0.216184,-1.411298,0.999998,0.000170,-0.001588,0.003981,-0.000379,0.004007,-0.001613,-86.122945,0.004032,
1730,1600,-0.954435,-2.068196,0.999998,0.000196,-0.002530,0.005070,-0.000103,0.005071,-0.002532,-89.225651,0.005071,
1480,1950,-0.077805,-0.281324,0.999998,0.000187,-0.000436,0.003452,0.000394,0.003492,-0.000476,84.270500,0.003787,
1860,250,-0.926804,-8.826424,0.999998,0.000181,-0.002425,0.004954,-0.000081,0.004955,-0.002426,-89.368403,0.004955,
1590,230,-0.340218,-9.270752,0.999997,0.000190,-0.001548,0.004317,-0.000350,0.004338,-0.001569,-86.593328,0.004393,
900,830,1.079624,-6.203983,0.999998,0.000190,-0.003335,0.006210,0.000414,0.006228,-0.003353,87.519604,0.006234,
1280,1610,-0.059736,-1.431764,0.999998,0.000192,-0.001210,0.003540,-0.000124,0.003543,-0.001213,-88.500206,0.003601,
880,1620,0.577137,-1.740917,0.999997,0.000219,-0.002188,0.004762,0.000249,0.004770,-0.002197,87.953315,0.004775,
1460,1660,-0.301054,-1.391665,0.999998,0.000187,-0.001623,0.004207,-0.000240,0.004217,-0.001632,-87.651326,0.004253,
1340,1990,-0.014761,-0.138417,0.999999,0.000145,-0.000167,0.003077,0.000153,0.003084,-0.000174,87.308575,0.003465,
1800,780,-1.656600,-6.230290,0.999997,0.000201,-0.002545,0.005027,-0.000377,0.005046,-0.002563,-87.160250,0.005046,
750,1030,1.752136,-5.027516,0.999998,0.000167,-0.002119,0.004955,-0.000025,0.004955,-0.002119,-89.796966,0.004972,
880,1170,1.279441,-4.236687,0.999997,0.000198,-0.002842,0.005931,-0.000717,0.005989,-0.002900,-85.356584,0.005990,
590,1470,1.508739,-2.962570,0.999997,0.000205,-0.002874,0.004967,-0.000034,0.004968,-0.002875,-89.749307,0.004988,
1140,790,0.146708,-7.465249,0.999998,0.000210,-0.002261,0.002958,-0.002118,0.003709,-0.003013,-70.466954,0.003943,
870,1220,1.188757,-3.949372,0.999997,0.000184,-0.003126,0.005998,-0.000550,0.006031,-0.003159,-86.560502,0.006033,
1890,340,-1.174074,-8.322797,0.999998,0.000169,-0.002454,0.004909,0.000016,0.004909,-0.002454,89.876960,0.004909,
1120,510,0.150408,-8.364199,0.999998,0.000168,-0.001500,0.003701,-0.000476,0.003744,-0.001543,-84.818523,0.003763,
1540,1900,-0.173295,-0.479297,0.999998,0.000173,-0.000764,0.003856,0.000525,0.003915,-0.000823,83.595338,0.004128,
940,1410,0.615022,-2.685092,0.999998,0.000192,-0.003013,0.005372,0.000654,0.005422,-0.003064,85.564878,0.005438,
940,210,0.231001,-9.393183,0.999997,0.000207,-0.001111,0.003966,0.000331,0.003988,-0.001132,86.280759,0.004110,
1650,1750,-0.556557,-1.207428,0.999998,0.000192,-0.001989,0.004711,0.000171,0.004715,-0.001993,88.536929,0.004734,
1880,100,-0.505908,-9.549159,0.999997,0.000198,-0.002307,0.005663,-0.001135,0.005821,-0.002465,-82.049189,0.005844,
1890,1780,-1.055213,-1.440633,0.999997,0.000209,-0.002427,0.004886,-0.000022,0.004886,-0.002427,-89.826428,0.004887,
680,580,1.269614,-7.280344,0.999998,0.000169,-0.002593,0.005156,0.000014,0.005156,-0.002593,89.897629,0.005156,
810,480,0.792917,-8.007922,0.999998,0.000165,-0.002523,0.005040,-0.000205,0.005045,-0.002529,-88.450202,0.005045,
1010,1950,0.066931,-0.277234,0.999999,0.000151,-0.000350,0.003403,-0.000372,0.003439,-0.000387,-84.387762,0.003768,
850,630,0.870301,-7.290728,0.999998,0.000158,-0.002991,0.005427,-0.000232,0.005433,-0.002997,-88.424759,0.005443,
1870,2020,-0.154293,-0.134980,0.999988,0.000000,-0.000163,0.005670,0.002983,0.006926,-0.001419,67.177337,0.007317,
1190,1690,0.044557,-1.145507,0.999998,0.000141,-0.001074,0.003555,0.000076,0.003556,-0.001076,89.058650,0.003648,
970,1690,0.336009,-1.303530,0.999998,0.000209,-0.001777,0.004281,0.000236,0.004290,-0.001786,87.773097,0.004310,
1320,1360,-0.111574,-2.316109,0.999998,0.000179,-0.001707,0.003095,-0.001425,0.003486,-0.002098,-74.650645,0.003510,
1050,300,0.180018,-9.109102,0.999998,0.000197,-0.001279,0.003825,-0.000070,0.003826,-0.001280,-89.209146,0.003896,
560,960,2.123396,-5.312758,0.999992,0.000000,-0.001803,0.004090,-0.000159,0.004094,-0.001808,-88.454423,0.004103,
1750,1960,-0.246032,-0.314028,0.999998,0.000167,-0.001508,0.004287,0.001158,0.004510,-0.001731,79.106889,0.004550,
1750,1120,-1.775150,-4.588952,0.999997,0.000196,-0.002276,0.004930,0.000392,0.004951,-0.002297,86.892722,0.004955,
990,1700,0.296411,-1.238393,0.999998,0.000185,-0.001504,0.004163,0.000146,0.004167,-0.001508,88.520480,0.004220,
680,810,1.668941,-6.093671,0.999997,0.000230,-0.002524,0.005066,0.000451,0.005093,-0.002551,86.609209,0.005093,
1060,900,0.737455,-6.336658,0.999995,0.000263,-0.003126,0.006351,-0.002134,0.006809,-0.003584,-77.875973,0.006813,
1500,1560,-0.437529,-1.890054,0.999998,0.000198,-0.002228,0.004632,-0.000524,0.004672,-0.002268,-85.655929,0.004673,
630,1510,1.344522,-2.697207,0.999997,0.000190,-0.002556,0.005093,0.000023,0.005093,-0.002556,89.828351,0.005093,
1360,1260,-0.249525,-2.845138,0.999997,0.000208,-0.003017,0.004318,-0.002278,0.004968,-0.003667,-74.077742,0.005152,
1160,800,0.111778,-7.543399,0.999997,0.000197,-0.001959,0.002214,-0.001823,0.002898,-0.002643,-69.428510,0.003209,
1650,40,-0.042185,-10.007513,0.999999,0.000142,-0.000250,0.003543,-0.000939,0.003763,-0.000470,-76.822227,0.004101,
1360,470,-0.169835,-8.497430,0.999999,0.000122,-0.001497,0.003852,0.000434,0.003887,-0.001532,85.395348,0.003915,
890,740,0.914848,-6.738390,0.999998,0.000170,-0.003383,0.005924,-0.000058,0.005924,-0.003384,-89.642698,0.005944,
1740,1440,-1.210116,-2.915913,0.999998,0.000158,-0.002714,0.005233,0.000053,0.005233,-0.002714,89.620374,0.005235,
1710,1600,-0.904302,-2.037780,0.999998,0.000166,-0.002514,0.005073,-0.000135,0.005075,-0.002517,-88.980950,0.005075,
1840,270,-0.923770,-8.764472,0.999998,0.000176,-0.002428,0.005026,-0.000087,0.005027,-0.002429,-89.332707,0.005028,
1090,1630,0.179102,-1.419643,0.999997,0.000191,-0.001420,0.003864,0.000322,0.003884,-0.001440,86.529133,0.003927,
1400,960,-0.952588,-5.928329,0.999992,0.000368,-0.003262,0.009830,0.003666,0.010787,-0.004219,75.374591,0.010872,
1220,1410,0.012466,-2.063345,0.999999,0.000127,-0.001143,0.002695,0.000218,0.002707,-0.001155,86.762866,0.002717,
1630,1900,-0.261545,-0.515324,0.999998,0.000167,-0.000968,0.004192,0.000777,0.004306,-0.001082,81.623723,0.004480,
1400,1620,-0.224326,-1.491901,0.999998,0.000166,-0.001635,0.004037,-0.000431,0.004069,-0.001668,-85.683689,0.004091,
1590,210,-0.309703,-9.353399,0.999998,0.000181,-0.001433,0.004218,-0.000430,0.004250,-0.001465,-85.676783,0.004318,
1460,1640,-0.311910,-1.477059,0.999998,0.000198,-0.001734,0.004239,-0.000328,0.004257,-0.001752,-86.865829,0.004279,
960,1650,0.385664,-1.490102,0.999997,0.000218,-0.001866,0.004400,0.000269,0.004412,-0.001877,87.543185,0.004428,
880,1600,0.593175,-1.834545,0.999997,0.000226,-0.002291,0.004837,0.000281,0.004848,-0.002302,87.745700,0.004850,
790,1410,1.068670,-2.973733,0.999998,0.000143,-0.002880,0.005396,-0.000009,0.005396,-0.002880,-89.939522,0.005400,
600,1290,1.785788,-3.850913,0.999998,0.000159,-0.002427,0.004892,-0.000181,0.004896,-0.002432,-88.583969,0.004896,
1790,520,-1.197940,-7.579516,0.999998,0.000159,-0.002578,0.005137,0.000052,0.005137,-0.002578,89.617367,0.005137,
620,610,1.472385,-7.036216,0.999997,0.000205,-0.002555,0.005096,0.000051,0.005096,-0.002556,89.614991,0.005096,
860,1170,1.335195,-4.255664,0.999998,0.000194,-0.002730,0.005788,-0.000716,0.005847,-0.002790,-85.231537,0.005849,
1700,740,-1.313092,-6.547391,0.999997,0.000211,-0.002885,0.005470,-0.000380,0.005487,-0.002902,-87.400014,0.005490,
710,390,0.918296,-8.303974,0.999998,0.000197,-0.002450,0.005076,-0.000062,0.005077,-0.002451,-89.525583,0.005078,
1000,490,0.359773,-8.269650,0.999997,0.000204,-0.002058,0.004437,-0.000566,0.004486,-0.002107,-85.056002,0.004489,
1890,360,-1.210354,-8.221974,0.999998,0.000171,-0.002471,0.004907,0.000032,0.004907,-0.002471,89.755015,0.004907,
1430,1180,-0.731145,-3.755071,0.999997,0.000236,-0.003599,0.006934,-0.000997,0.007028,-0.003692,-84.642036,0.007031,
1480,230,-0.200350,-9.339715,0.999998,0.000168,-0.001024,0.003868,-0.000212,0.003877,-0.001033,-87.518601,0.004015,
1540,1880,-0.202214,-0.557346,0.999998,0.000173,-0.000872,0.003877,0.000452,0.003919,-0.000915,84.611938,0.004101,
1120,490,0.147762,-8.439861,0.999998,0.000158,-0.001462,0.003753,-0.000428,0.003788,-0.001497,-85.334331,0.003816,
1010,1930,0.085582,-0.347377,0.999998,0.000185,-0.000453,0.003445,-0.000340,0.003475,-0.000482,-85.052867,0.003765,
850,650,0.897434,-7.178416,0.999998,0.000154,-0.003050,0.005548,-0.000179,0.005552,-0.003053,-88.806980,0.005561,
1190,1670,0.046825,-1.217139,0.999998,0.000162,-0.001104,0.003559,0.000079,0.003561,-0.001105,89.027648,0.003645,
1320,1320,-0.113036,-2.437820,0.999997,0.000200,-0.001842,0.003003,-0.001733,0.003559,-0.002397,-72.211859,0.003630,
830,220,0.388737,-9.280100,0.999998,0.000198,-0.001447,0.004445,0.000538,0.004494,-0.001496,84.829780,0.004577,
560,950,2.122231,-5.351162,0.999991,0.000000,-0.001839,0.004046,-0.000033,0.004046,-0.001839,-89.677278,0.004052,
1060,880,0.655733,-6.474363,0.999996,0.000239,-0.003474,0.006204,-0.001720,0.006500,-0.003771,-80.218214,0.006528,
770,1800,0.561906,-1.020577,0.999997,0.000204,-0.001978,0.004800,-0.000382,0.004821,-0.001999,-86.782269,0.004844,
590,1350,1.706521,-3.570731,0.999998,0.000185,-0.002561,0.004980,-0.000078,0.004981,-0.002562,-89.404818,0.004981,
970,580,0.477336,-7.796753,0.999998,0.000186,-0.002584,0.004866,-0.000723,0.004935,-0.002654,-84.507144,0.004940,
1570,540,-0.645724,-7.845388,0.999997,0.000193,-0.002591,0.005010,0.000423,0.005034,-0.002614,86.823011,0.005035,
1630,830,-1.290245,-6.116252,0.999997,0.000184,-0.002968,0.005734,-0.000599,0.005775,-0.003009,-86.080227,0.005777,
630,1960,0.373703,-0.390721,0.999997,0.000208,-0.002191,0.005290,-0.001161,0.005466,-0.002367,-81.377173,0.005483,
1770,1280,-1.571526,-3.795190,0.999998,0.000183,-0.002618,0.005126,0.000412,0.005148,-0.002640,86.962886,0.005149,
750,680,1.243033,-6.856925,0.999998,0.000208,-0.002827,0.005363,0.000187,0.005367,-0.002831,88.695958,0.005370,
1800,760,-1.622319,-6.330313,0.999997,0.000198,-0.002547,0.005026,-0.000331,0.005040,-0.002561,-87.500893,0.005041,
750,1010,1.746427,-5.127300,0.999998,0.000170,-0.002113,0.004932,0.000161,0.004936,-0.002116,88.688351,0.004953,
1650,1730,-0.585639,-1.300539,0.999997,0.000200,-0.002081,0.004789,0.000084,0.004790,-0.002082,89.302448,0.004803,
1420,1020,-1.116701,-5.118897,0.999989,0.000429,-0.004855,0.011505,0.000330,0.011512,-0.004862,88.844840,0.011558,
990,1720,0.281399,-1.156055,0.999998,0.000164,-0.001406,0.004108,0.000049,0.004108,-0.001407,89.491388,0.004176,
1400,1010,-1.005944,-5.298484,0.999988,0.000000,-0.005331,0.014326,0.001245,0.014405,-0.005410,86.389864,0.014552,
1500,1540,-0.454282,-1.985543,0.999998,0.000196,-0.002319,0.004689,-0.000593,0.004738,-0.002369,-85.197567,0.004738,
630,1950,0.417365,-0.443945,0.999997,0.000208,-0.002246,0.005282,-0.001012,0.005416,-0.002380,-82.472687,0.005430,
840,1890,0.275392,-0.554707,0.999997,0.000177,-0.001083,0.004212,-0.000704,0.004304,-0.001175,-82.556699,0.004450,
1740,1470,-1.162820,-2.758240,0.999997,0.000181,-0.002695,0.005240,-0.000007,0.005240,-0.002695,-89.949697,0.005240,
1820,1480,-1.357165,-2.828101,0.999998,0.000192,-0.002551,0.005140,0.000015,0.005140,-0.002551,89.889402,0.005140,
930,1270,0.866672,-3.532501,0.999997,0.000198,-0.003631,0.006293,0.000086,0.006294,-0.003631,89.501654,0.006319,
1630,1880,-0.300616,-0.601371,0.999997,0.000204,-0.001128,0.004246,0.000700,0.004336,-0.001218,82.698887,0.004473,
1650,1600,-0.755827,-1.940991,0.999998,0.000164,-0.002438,0.005009,-0.000175,0.005013,-0.002442,-88.651271,0.005014,
1090,1610,0.183782,-1.497652,0.999997,0.000193,-0.001503,0.003865,0.000400,0.003894,-0.001532,85.763556,0.003924,
680,430,1.050702,-8.052044,0.999998,0.000154,-0.002495,0.005082,-0.000080,0.005083,-0.002496,-89.393627,0.005083,
1280,430,-0.057775,-8.699524,0.999998,0.000142,-0.001194,0.003529,0.000112,0.003532,-0.001196,88.644180,0.003592,
1740,1420,-1.239962,-3.021923,0.999998,0.000172,-0.002740,0.005257,0.000084,0.005258,-0.002741,89.398272,0.005259,
1370,770,-0.249554,-7.283560,0.999997,0.000194,-0.002950,0.004414,0.002117,0.004980,-0.003515,75.051452,0.005119,
1820,1950,-0.388285,-0.415509,0.999995,0.000272,-0.001839,0.005188,0.001274,0.005412,-0.002062,80.034795,0.005463,
710,370,0.889522,-8.405835,0.999998,0.000186,-0.002437,0.005057,-0.000028,0.005057,-0.002437,-89.783359,0.005058,
1460,1620,-0.325071,-1.563837,0.999998,0.000196,-0.001844,0.004305,-0.000416,0.004333,-0.001872,-86.145731,0.004346,
1590,190,-0.276071,-9.439460,0.999998,0.000193,-0.001330,0.004193,-0.000495,0.004237,-0.001374,-84.918571,0.004323,
1880,240,-0.954700,-8.830928,0.999998,0.000174,-0.002413,0.004854,-0.000076,0.004855,-0.002414,-89.399660,0.004855,
1230,1420,0.001295,-2.032861,0.999999,0.000112,-0.001133,0.002754,0.000040,0.002755,-0.001133,89.407223,0.002769,
1620,90,-0.132175,-9.825853,0.999998,0.000148,-0.000513,0.003750,-0.000840,0.003910,-0.000672,-79.245525,0.004181,
1250,490,-0.022571,-8.499909,0.999998,0.000162,-0.001268,0.003436,0.000156,0.003441,-0.001273,88.107620,0.003480,
580,920,2.053755,-5.494472,0.999998,0.000154,-0.002052,0.004434,0.000121,0.004436,-0.002054,88.931571,0.004440,
790,1390,1.101178,-3.083907,0.999998,0.000162,-0.002917,0.005456,-0.000054,0.005456,-0.002918,-89.631301,0.005461,
1540,1860,-0.225295,-0.634832,0.999998,0.000193,-0.000977,0.004002,0.000451,0.004042,-0.001017,84.867314,0.004205,
1890,350,-1.191248,-8.272568,0.999998,0.000169,-0.002471,0.004922,0.000005,0.004922,-0.002471,89.963304,0.004922,
970,1670,0.353623,-1.389460,0.999998,0.000189,-0.001817,0.004349,0.000242,0.004359,-0.001827,87.759257,0.004378,
880,1580,0.614894,-1.933259,0.999997,0.000188,-0.002406,0.004881,0.000303,0.004894,-0.002418,87.624285,0.004894,
1400,1600,-0.231323,-1.572791,0.999998,0.000169,-0.001694,0.004011,-0.000473,0.004050,-0.001733,-85.290658,0.004065,
640,750,1.661614,-6.354878,0.999998,0.000166,-0.002508,0.004979,0.000288,0.004990,-0.002519,87.802276,0.004990,
1850,620,-1.506759,-6.975484,0.999998,0.000200,-0.002532,0.005077,-0.000055,0.005077,-0.002532,-89.584198,0.005077,
1380,770,-0.280219,-7.234040,0.999997,0.000212,-0.003105,0.004677,0.002043,0.005181,-0.003609,76.151156,0.005312,
560,1160,2.058996,-4.495519,0.999997,0.000000,-0.001848,0.004214,-0.000003,0.004214,-0.001848,-89.970570,0.004225,
1770,520,-1.146685,-7.612125,0.999998,0.000173,-0.002588,0.005145,0.000065,0.005145,-0.002589,89.518736,0.005145,
580,1350,1.733081,-3.585919,0.999998,0.000209,-0.002876,0.004906,-0.000008,0.004906,-0.002876,-89.942154,0.004930,
1060,860,0.579492,-6.607405,0.999996,0.000236,-0.003668,0.006069,-0.001581,0.006319,-0.003918,-81.006933,0.006379,
1300,670,-0.081744,-7.884436,0.999998,0.000169,-0.001427,0.002903,0.000995,0.003120,-0.001645,77.663237,0.003122,
950,580,0.529503,-7.755463,0.999997,0.000215,-0.002682,0.004985,-0.000667,0.005042,-0.002740,-85.068138,0.005049,
1010,1910,0.099497,-0.414094,0.999998,0.000180,-0.000532,0.003510,-0.000305,0.003533,-0.000555,-85.707618,0.003800,
850,670,0.927026,-7.067838,0.999999,0.000139,-0.003091,0.005589,-0.000127,0.005591,-0.003093,-89.164801,0.005601,
1320,1300,-0.115816,-2.496204,0.999998,0.000193,-0.001947,0.002957,-0.001902,0.003608,-0.002598,-71.098266,0.003723,
1200,230,0.020825,-9.409810,0.999998,0.000208,-0.000729,0.003410,-0.000009,0.003410,-0.000729,-89.874483,0.003592,
1710,1660,-0.821446,-1.732281,0.999999,0.000161,-0.002395,0.005024,-0.000073,0.005025,-0.002396,-89.433011,0.005027,
1170,1620,0.074127,-1.400303,0.999998,0.000159,-0.001194,0.003577,0.000152,0.003582,-0.001198,88.178003,0.003647,
770,700,1.219927,-6.774859,0.999998,0.000199,-0.002937,0.005464,0.000225,0.005470,-0.002943,88.465694,0.005476,
1670,1340,-1.178529,-3.356339,0.999998,0.000164,-0.002996,0.005601,0.000213,0.005606,-0.003001,88.581013,0.005611,
820,210,0.381987,-9.318833,0.999998,0.000193,-0.001491,0.004469,0.000587,0.004526,-0.001548,84.428950,0.004601,
1550,1740,-0.386395,-1.145081,0.999998,0.000187,-0.001592,0.004376,0.000055,0.004377,-0.001592,89.476113,0.004431,
1190,1650,0.047901,-1.288851,0.999998,0.000171,-0.001170,0.003559,0.000094,0.003561,-0.001172,88.856063,0.003630,
1650,1580,-0.779190,-2.041586,0.999998,0.000168,-0.002504,0.005019,-0.000209,0.005025,-0.002510,-88.412739,0.005025,
1610,1900,-0.242345,-0.507284,0.999998,0.000191,-0.001047,0.004105,0.000673,0.004191,-0.001134,82.677529,0.004336,
630,1930,0.494694,-0.550417,0.999997,0.000194,-0.002351,0.005294,-0.000789,0.005375,-0.002431,-84.165911,0.005383,
1500,1520,-0.465865,-2.079639,0.999998,0.000190,-0.002393,0.004754,-0.000622,0.004808,-0.002447,-85.061967,0.004808,
1750,1940,-0.309134,-0.404761,0.999997,0.000195,-0.001680,0.004648,0.001154,0.004852,-0.001884,79.984057,0.004892,
1600,610,-0.803874,-7.422265,0.999998,0.000178,-0.002899,0.005340,0.000293,0.005351,-0.002909,87.966820,0.005358,
1230,1440,0.001430,-1.975475,0.999998,0.000157,-0.001168,0.002886,0.000021,0.002886,-0.001168,89.701853,0.002903,
1080,1550,0.215305,-1.749601,0.999998,0.000163,-0.001731,0.003962,0.000674,0.004041,-0.001810,83.340000,0.004048,
710,350,0.857902,-8.507647,0.999998,0.000187,-0.002390,0.005064,-0.000003,0.005064,-0.002391,-89.973721,0.005067,
1460,1600,-0.336048,-1.650841,0.999998,0.000185,-0.001929,0.004335,-0.000486,0.004373,-0.001967,-85.592508,0.004380,
610,1980,0.325433,-0.329254,0.999997,0.000198,-0.002276,0.005630,-0.001353,0.005855,-0.002501,-80.551889,0.005876,
1590,170,-0.246172,-9.522412,0.999998,0.000198,-0.001195,0.004038,-0.000535,0.004092,-0.001249,-84.226612,0.004194,
1140,430,0.111461,-8.679536,0.999998,0.000179,-0.001320,0.003692,-0.000311,0.003711,-0.001339,-86.464480,0.003759,
1740,1400,-1.272724,-3.126049,0.999998,0.000183,-0.002771,0.005282,0.000141,0.005284,-0.002774,88.996307,0.005286,
790,1370,1.135508,-3.193473,0.999998,0.000171,-0.002936,0.005508,-0.000098,0.005509,-0.002937,-89.332537,0.005513,
580,870,1.997713,-5.711722,0.999998,0.000148,-0.002171,0.004376,0.000062,0.004376,-0.002172,89.457251,0.004376,
680,90,0.283632,-9.762965,0.999997,0.000204,-0.001221,0.004659,0.001568,0.005051,-0.001613,75.967338,0.005160,
680,410,1.022407,-8.154931,0.999997,0.000192,-0.002486,0.005087,-0.000084,0.005088,-0.002487,-89.362877,0.005089,
1630,540,-0.804537,-7.738424,0.999998,0.000160,-0.002680,0.005164,0.000275,0.005174,-0.002689,87.992973,0.005175,
1540,1840,-0.254033,-0.717784,0.999998,0.000194,-0.001082,0.004035,0.000391,0.004065,-0.001112,85.650846,0.004202,
880,1560,0.636661,-2.031827,0.999998,0.000190,-0.002482,0.004954,0.000347,0.004970,-0.002498,87.333642,0.004970,
1420,670,-0.332156,-7.548710,0.999997,0.000227,-0.002749,0.004723,0.001340,0.004956,-0.002982,80.138089,0.004990,
1400,1580,-0.237944,-1.652737,0.999998,0.000182,-0.001707,0.004057,-0.000532,0.004106,-0.001755,-84.769012,0.004120,
620,750,1.710530,-6.329333,0.999997,0.000190,-0.002468,0.004911,0.000237,0.004918,-0.002476,88.165790,0.004918,
970,1650,0.368176,-1.478125,0.999997,0.000198,-0.001868,0.004374,0.000296,0.004387,-0.001882,87.294233,0.004402,
750,990,1.737835,-5.224112,0.999998,0.000176,-0.002139,0.004907,0.000168,0.004911,-0.002143,88.638872,0.004925,
560,1170,2.052060,-4.455914,0.999996,0.000000,-0.001883,0.004174,0.000073,0.004175,-0.001884,89.309259,0.004182,
1790,940,-1.870121,-5.451910,0.999998,0.000177,-0.002254,0.004790,-0.000370,0.004810,-0.002273,-87.003170,0.004812,
1680,1790,-0.552233,-1.052963,0.999997,0.000210,-0.002064,0.004767,0.000311,0.004781,-0.002079,87.396798,0.004794,
1060,840,0.504785,-6.722010,0.999996,0.000232,-0.003768,0.005880,-0.001530,0.006117,-0.004005,-81.200124,0.006214,
930,1250,0.912877,-3.658955,0.999997,0.000183,-0.003615,0.006364,-0.000057,0.006364,-0.003615,-89.674016,0.006384,
1070,220,0.112534,-9.415833,0.999998,0.000174,-0.000763,0.003567,0.000120,0.003570,-0.000766,88.408789,0.003759,
1820,1460,-1.390251,-2.933720,0.999997,0.000197,-0.002572,0.005136,0.000041,0.005136,-0.002572,89.698100,0.005136,
1850,600,-1.474060,-7.076986,0.999998,0.000194,-0.002551,0.005059,-0.000047,0.005059,-0.002552,-89.649405,0.005059,
1160,780,0.098721,-7.589417,0.999998,0.000183,-0.001793,0.002367,-0.001846,0.003068,-0.002494,-69.207364,0.003262,
1570,520,-0.627456,-7.943629,0.999997,0.000218,-0.002529,0.004991,0.000421,0.005014,-0.002553,86.802088,0.005015,
1300,650,-0.083525,-7.942984,0.999998,0.000166,-0.001425,0.002997,0.000901,0.003173,-0.001602,78.912747,0.003173,
1630,810,-1.246421,-6.232728,0.999997,0.000188,-0.003054,0.005802,-0.000509,0.005831,-0.003083,-86.718778,0.005834,
570,1350,1.760993,-3.604022,0.999910,0.001232,-0.003051,0.004833,0.000045,0.004833,-0.003051,89.674841,0.004888,
1800,740,-1.585545,-6.430448,0.999998,0.000194,-0.002570,0.005090,-0.000305,0.005102,-0.002582,-87.721306,0.005102,
1400,1030,-1.011815,-5.002260,0.999990,0.000000,-0.005270,0.014560,-0.000230,0.014563,-0.005273,-89.334448,0.014746,
1250,690,-0.017678,-7.901862,0.999998,0.000139,-0.001037,0.002259,0.000341,0.002294,-0.001072,84.151069,0.002296,
730,320,0.760451,-8.690591,0.999998,0.000179,-0.002323,0.004975,0.000092,0.004976,-0.002324,89.281219,0.004980,
1870,1650,-1.230867,-2.043442,0.999998,0.000169,-0.002451,0.004983,-0.000068,0.004984,-0.002452,-89.472528,0.004984,
1650,1340,-1.117861,-3.327228,0.999998,0.000181,-0.003080,0.005646,0.000170,0.005650,-0.003083,88.885308,0.005657,
1350,300,-0.111608,-9.140079,0.999998,0.000163,-0.001038,0.003628,0.000070,0.003629,-0.001039,89.141007,0.003738,
1010,1890,0.119065,-0.487752,0.999998,0.000185,-0.000640,0.003592,-0.000311,0.003614,-0.000663,-85.814724,0.003848,
1880,1910,-0.683690,-0.774295,0.999998,0.000208,-0.002459,0.005208,0.000541,0.005246,-0.002497,85.983216,0.005248,
820,230,0.419320,-9.229049,0.999998,0.000194,-0.001574,0.004533,0.000489,0.004572,-0.001613,85.455060,0.004637,
850,1110,1.480093,-4.602164,0.999998,0.000193,-0.002234,0.005446,-0.000559,0.005487,-0.002275,-85.860244,0.005513,
1710,140,-0.328788,-9.587442,0.999998,0.000194,-0.001184,0.004504,-0.001053,0.004693,-0.001373,-79.836835,0.004826,
1190,1630,0.050218,-1.358419,0.999998,0.000164,-0.001216,0.003551,0.000118,0.003554,-0.001219,88.579462,0.003612,
1600,590,-0.780720,-7.528540,0.999997,0.000200,-0.002803,0.005316,0.000316,0.005328,-0.002815,87.773882,0.005331,
940,1950,0.097727,-0.287870,0.999998,0.000178,-0.000490,0.003554,-0.000498,0.003614,-0.000550,-83.084729,0.003895,
1760,1870,-0.535416,-0.755144,0.999998,0.000172,-0.002198,0.004909,0.000647,0.004967,-0.002256,84.844056,0.004974,
610,1960,0.420675,-0.438348,0.999997,0.000194,-0.002336,0.005438,-0.001107,0.005593,-0.002490,-82.053085,0.005604,
890,1720,0.446970,-1.258448,0.999998,0.000187,-0.001968,0.004565,0.000038,0.004566,-0.001968,89.665908,0.004580,
1770,1600,-1.054201,-2.133083,0.999997,0.000188,-0.002499,0.005089,-0.000100,0.005090,-0.002500,-89.243121,0.005090,
1460,1580,-0.345764,-1.738751,0.999997,0.000190,-0.002000,0.004369,-0.000533,0.004414,-0.002044,-85.249783,0.004417,
1320,1610,-0.109922,-1.453453,0.999998,0.000165,-0.001367,0.003689,-0.000336,0.003711,-0.001390,-86.210660,0.003750,
850,1100,1.492548,-4.656384,0.999998,0.000176,-0.002155,0.005393,-0.000533,0.005430,-0.002192,-85.980484,0.005463,
1400,1560,-0.241173,-1.734949,0.999998,0.000174,-0.001731,0.004084,-0.000550,0.004136,-0.001783,-84.641297,0.004149,
880,1540,0.654950,-2.132674,0.999997,0.000191,-0.002521,0.005041,0.000380,0.005061,-0.002540,87.130760,0.005061,
1280,1410,-0.056380,-2.088991,0.999998,0.000199,-0.001311,0.002893,-0.000632,0.002986,-0.001403,-81.636556,0.002988,
1230,1400,0.001465,-2.085131,0.999999,0.000126,-0.001095,0.002585,0.000043,0.002586,-0.001095,89.326823,0.002596,
1610,540,-0.751704,-7.773966,0.999998,0.000163,-0.002672,0.005147,0.000309,0.005159,-0.002685,87.743309,0.005160,
1590,150,-0.211769,-9.602320,0.999998,0.000162,-0.001085,0.004003,-0.000631,0.004080,-0.001162,-83.036458,0.004204,
560,1180,2.042698,-4.414459,0.999996,0.000000,-0.001943,0.004234,0.000099,0.004235,-0.001945,89.082187,0.004240,
970,1630,0.381200,-1.566625,0.999997,0.000181,-0.001916,0.004431,0.000336,0.004449,-0.001933,86.976102,0.004462,
1540,1820,-0.278174,-0.796094,0.999998,0.000191,-0.001184,0.004127,0.000337,0.004149,-0.001206,86.383712,0.004268,
1180,430,0.061277,-8.700169,0.999998,0.000156,-0.001188,0.003580,-0.000100,0.003582,-0.001190,-88.795051,0.003649,
1020,630,0.374912,-7.671988,0.999997,0.000194,-0.002635,0.004715,-0.001102,0.004877,-0.002797,-81.656716,0.004894,
1060,820,0.446433,-6.838251,0.999996,0.000222,-0.003767,0.005849,-0.001654,0.006126,-0.004044,-80.508646,0.006230,
1740,1380,-1.307787,-3.234532,0.999997,0.000203,-0.002796,0.005310,0.000195,0.005315,-0.002801,88.623345,0.005318,
1550,1700,-0.425230,-1.324715,0.999996,0.000231,-0.001736,0.004500,-0.000001,0.004500,-0.001736,-89.992715,0.004539,
1860,870,-1.947028,-5.735277,0.999998,0.000158,-0.002228,0.004582,-0.000215,0.004589,-0.002235,-88.192225,0.004590,
660,90,0.305486,-9.751851,0.999997,0.000187,-0.001117,0.004952,0.001780,0.005435,-0.001600,74.805456,0.005587,
1630,790,-1.203579,-6.347710,0.999997,0.000204,-0.003136,0.005812,-0.000420,0.005832,-0.003156,-87.317227,0.005838,
1550,520,-0.576197,-7.981969,0.999997,0.000209,-0.002500,0.004902,0.000459,0.004930,-0.002528,86.464691,0.004931,
1770,940,-1.824713,-5.459273,0.999998,0.000156,-0.002254,0.004868,-0.000367,0.004887,-0.002273,-87.054302,0.004891,
1300,630,-0.085987,-8.003931,0.999999,0.000128,-0.001417,0.003107,0.000826,0.003254,-0.001563,79.967206,0.003254,
1650,1320,-1.154207,-3.440687,0.999996,0.000237,-0.003092,0.005667,0.000248,0.005674,-0.003099,88.377071,0.005682,
1870,1640,-1.246426,-2.093721,0.999998,0.000193,-0.002467,0.004983,-0.000062,0.004984,-0.002468,-89.525360,0.004984,
1330,300,-0.090448,-9.151517,0.999998,0.000145,-0.001023,0.003576,0.000092,0.003578,-0.001024,88.848546,0.003685,
840,1350,1.016486,-3.227158,0.999997,0.000203,-0.003145,0.005724,-0.000046,0.005724,-0.003145,-89.706049,0.005734,
750,970,1.729637,-5.322411,0.999998,0.000173,-0.002187,0.005013,0.000310,0.005026,-0.002200,87.536393,0.005039,
860,590,0.788886,-7.523210,0.999997,0.000187,-0.002812,0.005326,-0.000300,0.005337,-0.002823,-87.892744,0.005340,
1160,760,0.086330,-7.638513,0.999998,0.000160,-0.001655,0.002452,-0.001720,0.003077,-0.002281,-70.023086,0.003194,
850,1090,1.505984,-4.709604,0.999998,0.000183,-0.002082,0.005378,-0.000519,0.005414,-0.002118,-86.037054,0.005457,
870,240,0.359614,-9.222502,0.999998,0.000163,-0.001599,0.004361,0.000334,0.004380,-0.001617,86.806144,0.004429,
930,1230,0.963717,-3.786860,0.999998,0.000175,-0.003558,0.006416,-0.000195,0.006420,-0.003562,-88.880829,0.006433,
1730,2020,-0.047967,-0.060643,0.999998,0.000000,-0.000151,0.003902,0.001445,0.004364,-0.000613,72.256047,0.004725,
1270,1290,-0.043277,-2.350730,0.999998,0.000178,-0.001250,0.001700,-0.001053,0.002037,-0.001587,-72.238996,0.002140,
1890,1910,-0.709364,-0.798685,0.999998,0.000175,-0.002470,0.005223,0.000555,0.005263,-0.002510,85.894268,0.005265,
1800,720,-1.549127,-6.533156,0.999998,0.000188,-0.002606,0.005142,-0.000286,0.005152,-0.002616,-87.891409,0.005152,
880,1950,0.132151,-0.301053,0.999998,0.000152,-0.000744,0.003718,-0.000668,0.003816,-0.000842,-81.667552,0.004010,
1620,470,-0.700442,-8.111402,0.999997,0.000197,-0.002417,0.004954,0.000224,0.004960,-0.002424,88.261344,0.004961,
1710,120,-0.274624,-9.675884,0.999997,0.000195,-0.001007,0.004413,-0.001194,0.004664,-0.001258,-78.113958,0.004826,
1010,1870,0.135525,-0.559209,0.999998,0.000218,-0.000706,0.003664,-0.000297,0.003685,-0.000726,-86.124829,0.003904,
1820,1440,-1.419101,-3.035829,0.999998,0.000185,-0.002595,0.005088,0.000064,0.005089,-0.002595,89.523318,0.005089,
1840,1990,-0.246472,-0.243554,0.999997,0.000196,-0.002213,0.005241,0.001360,0.005481,-0.002453,79.972301,0.005491,
1400,1540,-0.246609,-1.818187,0.999998,0.000164,-0.001773,0.004040,-0.000603,0.004102,-0.001835,-84.141987,0.004110,
800,390,0.705426,-8.442421,0.999997,0.000188,-0.002313,0.004931,-0.000084,0.004932,-0.002314,-89.339295,0.004935,
1750,1600,-1.005409,-2.100707,0.999998,0.000158,-0.002488,0.005095,-0.000094,0.005097,-0.002489,-89.290970,0.005097,
1190,1610,0.050458,-1.431371,0.999998,0.000158,-0.001227,0.003530,0.000117,0.003533,-0.001230,88.596226,0.003587,
580,970,2.092362,-5.282311,0.999998,0.000155,-0.001895,0.004163,-0.000056,0.004164,-0.001896,-89.472023,0.004169,
1490,1460,-0.478414,-2.349264,0.999997,0.000206,-0.002631,0.004955,-0.000775,0.005033,-0.002709,-84.227885,0.005038,
880,1520,0.673619,-2.234235,0.999997,0.000187,-0.002594,0.005050,0.000398,0.005070,-0.002614,87.024694,0.005071,
1690,700,-1.211343,-6.779457,0.999998,0.000171,-0.002920,0.005471,-0.000212,0.005477,-0.002926,-88.552754,0.005481,
1540,1800,-0.305147,-0.881930,0.999997,0.000202,-0.001284,0.004131,0.000240,0.004141,-0.001295,87.466186,0.004237,
970,1610,0.394791,-1.655418,0.999997,0.000183,-0.001970,0.004453,0.000359,0.004473,-0.001990,86.806980,0.004482,
1700,1430,-1.113756,-2.908125,0.999998,0.000167,-0.002824,0.005340,0.000003,0.005340,-0.002824,89.979943,0.005343,
560,1190,2.033309,-4.370865,0.999997,0.000000,-0.002028,0.004394,0.000004,0.004394,-0.002028,89.960921,0.004398,
1000,630,0.428749,-7.620363,0.999998,0.000183,-0.002732,0.004889,-0.000985,0.005014,-0.002857,-82.754349,0.005031,
1460,1560,-0.356983,-1.826592,0.999997,0.000201,-0.002048,0.004419,-0.000582,0.004471,-0.002100,-84.900456,0.004474,
1590,130,-0.178541,-9.680544,0.999998,0.000159,-0.000926,0.003894,-0.000644,0.003978,-0.001011,-82.513601,0.004136,
890,1700,0.470852,-1.349863,0.999997,0.000214,-0.002050,0.004563,0.000075,0.004564,-0.002051,89.346903,0.004572,
1060,610,0.272782,-7.863180,0.999998,0.000179,-0.002237,0.004237,-0.001112,0.004423,-0.002423,-80.518099,0.004429,
1060,800,0.402715,-6.954984,0.999997,0.000224,-0.003694,0.005561,-0.001739,0.005877,-0.004010,-79.702776,0.006006,
1620,370,-0.584693,-8.599310,0.999997,0.000188,-0.002031,0.004749,0.000014,0.004749,-0.002031,89.884274,0.004766,
1840,870,-1.901955,-5.753386,0.999998,0.000182,-0.002302,0.004713,-0.000311,0.004727,-0.002316,-87.468677,0.004727,
1120,610,0.153100,-7.998173,0.999998,0.000171,-0.001748,0.003623,-0.001014,0.003808,-0.001933,-79.659042,0.003808,
1740,1360,-1.344451,-3.339486,0.999997,0.000212,-0.002780,0.005327,0.000252,0.005335,-0.002788,88.224592,0.005337,
1630,770,-1.162021,-6.466690,0.999997,0.000233,-0.003166,0.005820,-0.000351,0.005834,-0.003180,-87.765906,0.005842,
750,950,1.706248,-5.426187,0.999998,0.000184,-0.002245,0.005048,0.000463,0.005077,-0.002274,86.383966,0.005087,
1150,1240,0.161993,-2.624802,0.999998,0.000176,-0.002261,0.002474,0.001902,0.003144,-0.002930,70.612115,0.003513,
1430,1120,-0.976906,-4.189720,0.999997,0.000196,-0.003281,0.007588,-0.001153,0.007709,-0.003401,-84.013129,0.007727,
1450,300,-0.226997,-9.080796,0.999998,0.000152,-0.001230,0.003926,-0.000024,0.003926,-0.001230,-89.737759,0.004017,
1160,740,0.082988,-7.688965,0.999998,0.000175,-0.001601,0.002520,-0.001581,0.003056,-0.002137,-71.247755,0.003136,
1460,1530,-0.369188,-1.961522,0.999998,0.000174,-0.002158,0.004476,-0.000656,0.004541,-0.002222,-84.405798,0.004541,
1730,30,-0.031274,-10.038988,0.999998,0.000000,-0.000261,0.003947,-0.001466,0.004407,-0.000721,-72.568065,0.004728,
780,450,0.830619,-8.112442,0.999998,0.000166,-0.002507,0.005085,-0.000148,0.005088,-0.002510,-88.883592,0.005088,
850,1070,1.530451,-4.818161,0.999997,0.000197,-0.001990,0.005293,-0.000352,0.005310,-0.002007,-87.238899,0.005362,
950,220,0.228477,-9.360000,0.999998,0.000164,-0.001190,0.003952,0.000249,0.003964,-0.001202,87.239220,0.004065,
1540,1950,-0.106294,-0.292078,0.999998,0.000163,-0.000437,0.003607,0.000589,0.003691,-0.000521,81.881231,0.003995,
1620,730,-1.049912,-6.714289,0.999998,0.000170,-0.003191,0.005771,-0.000139,0.005773,-0.003193,-89.111075,0.005784,
1370,1220,-0.375654,-3.096917,0.999994,0.000324,-0.003316,0.004822,-0.002184,0.005371,-0.003865,-75.889874,0.005541,
590,1020,2.091939,-5.072004,0.999999,0.000144,-0.002012,0.004301,0.000081,0.004302,-0.002013,89.267076,0.004305,
1540,1780,-0.324650,-0.963256,0.999998,0.000175,-0.001373,0.004208,0.000192,0.004215,-0.001379,88.034445,0.004298,
880,1500,0.695376,-2.334466,0.999997,0.000188,-0.002703,0.005157,0.000395,0.005177,-0.002723,87.131293,0.005180,
1060,780,0.367617,-7.062606,0.999997,0.000213,-0.003506,0.005336,-0.001782,0.005681,-0.003852,-79.022644,0.005800,
1770,420,-1.005573,-8.124823,0.999997,0.000197,-0.002465,0.005081,0.000074,0.005082,-0.002466,89.439790,0.005082,
1190,1680,0.045576,-1.180689,0.999998,0.000168,-0.001086,0.003554,0.000078,0.003555,-0.001088,89.041266,0.003643,
1010,1850,0.155590,-0.634676,0.999998,0.000180,-0.000813,0.003719,-0.000260,0.003734,-0.000828,-86.725339,0.003922,
1570,720,-0.870466,-6.861823,0.999998,0.000201,-0.003346,0.005847,0.000166,0.005850,-0.003349,88.965065,0.005871,
1460,1540,-0.366084,-1.916586,0.999998,0.000181,-0.002121,0.004457,-0.000636,0.004518,-0.002182,-84.530832,0.004518,
1800,700,-1.514782,-6.638039,0.999998,0.000197,-0.002627,0.005133,-0.000271,0.005143,-0.002636,-88.000305,0.005143,
970,1590,0.406211,-1.745740,0.999998,0.000177,-0.002034,0.004460,0.000408,0.004486,-0.002059,86.416487,0.004491,
1750,780,-1.528239,-6.278344,0.999997,0.000230,-0.002646,0.005217,-0.000440,0.005241,-0.002670,-86.806645,0.005241,
1320,1280,-0.122553,-2.555688,0.999998,0.000193,-0.002073,0.002876,-0.002027,0.003600,-0.002798,-70.338400,0.003780,
1220,1490,0.014489,-1.827273,0.999998,0.000199,-0.001259,0.003164,0.000170,0.003170,-0.001265,87.801432,0.003192,
850,1050,1.540715,-4.921190,0.999998,0.000190,-0.001920,0.005221,-0.000210,0.005227,-0.001927,-88.313553,0.005287,
1150,1220,0.211685,-2.674958,0.999997,0.000221,-0.002230,0.002285,0.001505,0.002741,-0.002686,73.151252,0.003133,
1590,110,-0.146591,-9.757780,0.999999,0.000151,-0.000788,0.003781,-0.000684,0.003881,-0.000888,-81.666628,0.004067,
1720,1710,-0.770169,-1.496284,0.999997,0.000187,-0.002329,0.005012,0.000066,0.005012,-0.002329,89.487556,0.005016,
1680,1710,-0.682388,-1.442072,0.999998,0.000181,-0.002229,0.004920,0.000033,0.004920,-0.002229,89.736269,0.004927,
620,1230,1.837705,-4.114204,0.999998,0.000167,-0.002356,0.004716,-0.000292,0.004728,-0.002368,-87.643282,0.004728,
1300,1610,-0.083263,-1.439003,0.999998,0.000171,-0.001278,0.003606,-0.000223,0.003616,-0.001288,-87.394157,0.003666,
1050,220,0.129339,-9.408982,0.999998,0.000170,-0.000920,0.003629,0.000084,0.003631,-0.000922,88.939280,0.003775,
1600,370,-0.545206,-8.625649,0.999997,0.000199,-0.002056,0.004694,0.000064,0.004695,-0.002057,89.457403,0.004707,
730,900,1.693350,-5.669434,0.999998,0.000186,-0.002375,0.005086,0.000527,0.005123,-0.002413,85.976213,0.005126,
1150,360,0.086432,-8.942553,0.999999,0.000138,-0.001145,0.003618,-0.000125,0.003622,-0.001148,-88.497141,0.003702,
1700,720,-1.275517,-6.656915,0.999998,0.000194,-0.002863,0.005466,-0.000303,0.005477,-0.002874,-87.918020,0.005480,
1140,1810,0.067687,-0.730812,0.999998,0.000163,-0.000822,0.003470,-0.000005,0.003470,-0.000822,-89.929269,0.003627,
710,330,0.824977,-8.607825,0.999998,0.000183,-0.002388,0.005032,0.000016,0.005032,-0.002388,89.880127,0.005034,
1370,1200,-0.443246,-3.196717,0.999997,0.000245,-0.002968,0.004684,-0.002302,0.005323,-0.003607,-74.481525,0.005434,
1410,1180,-0.662573,-3.620481,0.999997,0.000211,-0.003560,0.006520,-0.001530,0.006747,-0.003787,-81.556501,0.006764,
1630,750,-1.121254,-6.581371,0.999997,0.000205,-0.003170,0.005785,-0.000274,0.005793,-0.003179,-88.252271,0.005803,
1460,1510,-0.378061,-2.049357,0.999997,0.000185,-0.002253,0.004506,-0.000724,0.004583,-0.002330,-83.950572,0.004583,
1430,300,-0.202517,-9.095986,0.999998,0.000198,-0.001273,0.003862,0.000050,0.003863,-0.001274,89.445933,0.003937,
1010,1830,0.171552,-0.708100,0.999998,0.000164,-0.000889,0.003777,-0.000182,0.003784,-0.000896,-87.771267,0.003955,
1830,160,-0.611375,-9.352608,0.999997,0.000214,-0.002329,0.005243,-0.000555,0.005284,-0.002369,-85.833447,0.005293,
1050,1050,1.074786,-4.765902,0.999990,0.000456,-0.004860,0.012103,0.001118,0.012176,-0.004934,86.246372,0.012249,
1490,1100,-1.216321,-4.553972,0.999998,0.000156,-0.002513,0.006795,0.000472,0.006819,-0.002537,87.105477,0.006893,
1820,1420,-1.453539,-3.135506,0.999997,0.000199,-0.002610,0.005105,0.000100,0.005107,-0.002611,89.254887,0.005107,
1260,400,-0.033268,-8.812800,0.999998,0.000163,-0.001174,0.003572,0.000112,0.003574,-0.001177,88.651225,0.003643,
880,1920,0.178222,-0.414745,0.999997,0.000185,-0.000948,0.003876,-0.000606,0.003951,-0.001023,-82.953486,0.004101,
1060,760,0.343393,-7.167626,0.999997,0.000198,-0.003341,0.005176,-0.001783,0.005535,-0.003699,-78.639418,0.005638,
780,430,0.804949,-8.213772,0.999998,0.000167,-0.002446,0.004971,-0.000145,0.004974,-0.002449,-88.882313,0.004974,
1400,1520,-0.249807,-1.896037,0.999998,0.000178,-0.001859,0.004069,-0.000704,0.004151,-0.001941,-83.315488,0.004154,
1650,1710,-0.613976,-1.397927,0.999997,0.000206,-0.002185,0.004826,0.000020,0.004827,-0.002185,89.837331,0.004834,
1460,780,-0.583341,-6.804786,0.999997,0.000209,-0.003790,0.006156,0.000934,0.006243,-0.003877,84.682717,0.006303,
1740,1340,-1.380465,-3.445843,0.999997,0.000214,-0.002764,0.005311,0.000307,0.005322,-0.002775,87.828365,0.005324,
1370,750,-0.232496,-7.372677,0.999997,0.000216,-0.002793,0.004302,0.002002,0.004828,-0.003319,75.278504,0.004940,
870,50,0.048183,-9.975209,0.999998,0.000155,-0.000306,0.003442,0.000684,0.003563,-0.000427,79.974137,0.003891,
1320,1260,-0.144283,-2.611654,0.999997,0.000212,-0.002194,0.002848,-0.002115,0.003618,-0.002963,-70.001036,0.003856,
1800,680,-1.477226,-6.740357,0.999997,0.000213,-0.002616,0.005128,-0.000227,0.005135,-0.002622,-88.319315,0.005135,
1120,1510,0.151622,-1.844611,0.999999,0.000136,-0.001615,0.003672,0.000638,0.003748,-0.001691,83.213745,0.003754,
1540,1490,-0.589978,-2.305601,0.999997,0.000209,-0.002686,0.005062,-0.000542,0.005100,-0.002724,-86.021426,0.005104,
1130,1220,0.263038,-2.814781,0.999998,0.000205,-0.002416,0.003089,0.002002,0.003740,-0.003067,71.983417,0.003988,
850,1030,1.552090,-5.026991,0.999997,0.000214,-0.001923,0.005266,-0.000046,0.005267,-0.001923,-89.630019,0.005330,
970,1570,0.420175,-1.832555,0.999997,0.000190,-0.002131,0.004542,0.000494,0.004578,-0.002168,85.790320,0.004580,
1740,550,-1.111696,-7.505407,0.999998,0.000177,-0.002653,0.005212,0.000073,0.005212,-0.002654,89.464895,0.005213,
630,1910,0.569861,-0.655964,0.999997,0.000204,-0.002405,0.005240,-0.000632,0.005292,-0.002457,-85.306072,0.005297,
600,1230,1.884742,-4.136713,0.999998,0.000167,-0.002302,0.004654,-0.000200,0.004659,-0.002308,-88.356172,0.004660,
1600,350,-0.520162,-8.717817,0.999997,0.000210,-0.001972,0.004642,-0.000014,0.004642,-0.001972,-89.876935,0.004659,
1680,490,-0.874477,-7.913536,0.999998,0.000163,-0.002532,0.005097,0.000172,0.005101,-0.002536,88.712067,0.005101,
890,1860,0.262257,-0.651569,0.999997,0.000214,-0.001236,0.004128,-0.000462,0.004167,-0.001275,-85.108879,0.004270,
1570,1000,-1.457899,-5.192045,0.999998,0.000201,-0.001878,0.005521,-0.000296,0.005533,-0.001890,-87.715933,0.005625,
1660,1710,-0.636494,-1.412853,0.999997,0.000196,-0.002267,0.004851,-0.000001,0.004851,-0.002267,-89.992763,0.004854,
1500,1500,-0.480680,-2.175948,0.999997,0.000210,-0.002461,0.004819,-0.000656,0.004878,-0.002520,-84.895870,0.004879,
1190,1620,0.049582,-1.395720,0.999998,0.000155,-0.001234,0.003539,0.000123,0.003542,-0.001237,88.520851,0.003595,
1590,90,-0.111999,-9.832653,0.999998,0.000156,-0.000627,0.003623,-0.000685,0.003731,-0.000735,-81.064334,0.003953,
1700,700,-1.240158,-6.764985,0.999998,0.000179,-0.002872,0.005439,-0.000229,0.005445,-0.002878,-88.421717,0.005448,
1300,90,-0.014588,-9.864422,0.999998,0.000169,-0.000187,0.003106,-0.000093,0.003109,-0.000189,-88.382217,0.003485,
930,1210,1.016799,-3.916798,0.999998,0.000183,-0.003463,0.006420,-0.000349,0.006432,-0.003475,-87.980637,0.006439,
750,930,1.684661,-5.525107,0.999997,0.000196,-0.002279,0.005010,0.000434,0.005036,-0.002305,86.601312,0.005042,
790,1350,1.166763,-3.304046,0.999998,0.000200,-0.002962,0.005557,-0.000188,0.005561,-0.002966,-88.736726,0.005565,
1810,1600,-1.154749,-2.198642,0.999998,0.000157,-0.002532,0.005064,-0.000071,0.005065,-0.002533,-89.463675,0.005065,
710,1820,0.643319,-0.993069,0.999998,0.000173,-0.002310,0.004995,-0.000373,0.005014,-0.002329,-87.081158,0.005018,
1000,610,0.418842,-7.718573,0.999996,0.000243,-0.002618,0.004847,-0.000923,0.004960,-0.002731,-83.056800,0.004968,
710,310,0.792864,-8.709872,0.999998,0.000171,-0.002382,0.005019,0.000078,0.005020,-0.002383,89.393247,0.005022,
1810,1660,-1.066846,-1.893304,0.999998,0.000150,-0.002477,0.005084,-0.000062,0.005085,-0.002478,-89.527728,0.005085,
1830,140,-0.545173,-9.457265,0.999998,0.000192,-0.002310,0.005262,-0.000723,0.005331,-0.002378,-84.591386,0.005341,
890,220,0.299159,-9.325312,0.999998,0.000183,-0.001380,0.004168,0.000357,0.004191,-0.001403,86.332100,0.004266,
1350,1200,-0.384782,-3.022526,0.999993,0.000345,-0.002341,0.003548,-0.002063,0.004198,-0.002992,-72.491312,0.004323,
1410,1160,-0.743570,-3.757989,0.999996,0.000240,-0.003346,0.006594,-0.001720,0.006883,-0.003635,-80.457162,0.006887,
1470,1100,-1.165020,-4.512000,0.999997,0.000206,-0.002720,0.007282,0.000186,0.007285,-0.002724,88.936849,0.007362,
1300,150,-0.027630,-9.673544,0.999998,0.000166,-0.000381,0.003262,-0.000083,0.003264,-0.000383,-88.689041,0.003568,
1630,730,-1.082617,-6.697348,0.999998,0.000195,-0.003145,0.005742,-0.000177,0.005745,-0.003148,-88.856799,0.005754,
1460,1520,-0.372100,-2.004483,0.999998,0.000182,-0.002199,0.004483,-0.000685,0.004552,-0.002269,-84.206084,0.004552,
1010,1810,0.188067,-0.785818,0.999998,0.000164,-0.000989,0.003850,-0.000172,0.003856,-0.000995,-87.971296,0.004004,
1740,1320,-1.415667,-3.552652,0.999997,0.000206,-0.002753,0.005287,0.000343,0.005302,-0.002768,87.564152,0.005303,
1410,1050,-1.058210,-4.750106,0.999990,0.000369,-0.004874,0.012657,-0.001400,0.012768,-0.004985,-85.464166,0.012870,
1370,730,-0.222119,-7.460925,0.999998,0.000201,-0.002599,0.004219,0.001871,0.004699,-0.003079,75.623436,0.004774,
1830,1280,-1.722957,-3.857217,0.999997,0.000183,-0.002459,0.004945,0.000291,0.004957,-0.002471,87.750238,0.004957,
1260,440,-0.036091,-8.671941,0.999998,0.000184,-0.001202,0.003524,0.000135,0.003528,-0.001206,88.369356,0.003586,
1060,740,0.321862,-7.273455,0.999997,0.000196,-0.003133,0.004976,-0.001730,0.005330,-0.003486,-78.448503,0.005413,
850,1010,1.544820,-5.131890,0.999997,0.000209,-0.001943,0.005268,0.000174,0.005273,-0.001947,88.614735,0.005332,
1320,1240,-0.173882,-2.667407,0.999997,0.000225,-0.002341,0.002731,-0.002048,0.003454,-0.003065,-70.537685,0.003784,
1800,660,-1.442395,-6.844060,0.999997,0.000209,-0.002620,0.005169,-0.000171,0.005173,-0.002624,-88.741150,0.005173,
880,1940,0.150035,-0.339080,0.999998,0.000168,-0.000815,0.003779,-0.000660,0.003872,-0.000908,-81.988009,0.004050,
1100,1510,0.185855,-1.875374,0.999998,0.000158,-0.001744,0.003832,0.000780,0.003939,-0.001851,82.187124,0.003942,
1820,1400,-1.487335,-3.239904,0.999996,0.000234,-0.002591,0.005136,0.000138,0.005138,-0.002594,88.976486,0.005138,
1660,180,-0.348036,-9.441209,0.999997,0.000185,-0.001531,0.004402,-0.000663,0.004475,-0.001604,-83.700704,0.004534,
620,650,1.537497,-6.832287,0.999997,0.000202,-0.002520,0.005070,0.000107,0.005072,-0.002521,89.195311,0.005072,
1570,1940,-0.137590,-0.334855,0.999998,0.000170,-0.000698,0.003755,0.000635,0.003844,-0.000787,82.041431,0.004061,
1880,390,-1.232396,-8.094121,0.999998,0.000170,-0.002478,0.004942,0.000070,0.004943,-0.002478,89.462004,0.004943,
1620,1050,-1.555993,-4.922240,0.999998,0.000187,-0.001957,0.005210,0.000188,0.005215,-0.001962,88.501587,0.005268,
1210,1860,0.013386,-0.551256,0.999998,0.000178,-0.000582,0.003330,-0.000014,0.003330,-0.000582,-89.794992,0.003558,
1690,1700,-0.719232,-1.505623,0.999997,0.000192,-0.002199,0.004930,0.000046,0.004930,-0.002199,89.631075,0.004940,
1590,510,-0.668223,-7.961400,0.999997,0.000192,-0.002542,0.005016,0.000329,0.005030,-0.002557,87.512731,0.005030,
730,300,0.726307,-8.790458,0.999998,0.000161,-0.002253,0.005005,0.000194,0.005011,-0.002259,88.473409,0.005019,
750,1150,1.653570,-4.426722,0.999997,0.000211,-0.002369,0.005157,-0.000564,0.005199,-0.002411,-85.735643,0.005203,
790,1570,0.850746,-2.129342,0.999998,0.000168,-0.002555,0.005107,0.000184,0.005111,-0.002560,88.623308,0.005111,
1340,1670,-0.125784,-1.247824,0.999998,0.000180,-0.001302,0.003736,-0.000234,0.003747,-0.001313,-87.343396,0.003803,
1700,680,-1.204299,-6.875082,0.999997,0.000191,-0.002871,0.005445,-0.000153,0.005448,-0.002873,-88.948573,0.005451,
1280,150,-0.019858,-9.675841,0.999999,0.000123,-0.000411,0.003257,-0.000062,0.003258,-0.000412,-89.033727,0.003549,
970,1060,1.310239,-4.825001,0.999996,0.000273,-0.002077,0.006761,-0.000267,0.006769,-0.002085,-88.272689,0.006933,
870,500,0.665977,-8.005806,0.999998,0.000225,-0.002508,0.004960,-0.000331,0.004975,-0.002523,-87.467395,0.004975,
970,1550,0.428923,-1.925434,0.999997,0.000200,-0.002263,0.004633,0.000561,0.004679,-0.002308,85.375727,0.004679,
630,1800,0.874104,-1.223724,0.999998,0.000176,-0.002412,0.005090,-0.000134,0.005092,-0.002414,-88.976743,0.005094,
1460,1480,-0.390651,-2.186672,0.999997,0.000207,-0.002412,0.004654,-0.000854,0.004756,-0.002514,-83.205453,0.004758,
740,1290,1.425985,-3.694590,0.999998,0.000200,-0.002800,0.005382,-0.000440,0.005405,-0.002823,-86.928601,0.005407,
1580,1270,-1.029800,-3.627336,0.999997,0.000179,-0.003339,0.006103,0.000220,0.006108,-0.003345,88.664718,0.006118,
1840,90,-0.367822,-9.698941,0.999997,0.000188,-0.002299,0.005312,-0.001172,0.005488,-0.002475,-81.441823,0.005497,
710,290,0.755262,-8.810055,0.999998,0.000161,-0.002372,0.005044,0.000150,0.005047,-0.002375,88.843307,0.005050,
1690,320,-0.666035,-8.748824,0.999997,0.000203,-0.002189,0.004915,-0.000111,0.004917,-0.002191,-89.102101,0.004926,
1110,300,0.115743,-9.140343,0.999998,0.000155,-0.001017,0.003636,-0.000048,0.003636,-0.001018,-89.409433,0.003752,
1020,280,0.203345,-9.165659,0.999999,0.000143,-0.001188,0.003893,0.000053,0.003893,-0.001188,89.405262,0.003991,
1400,1500,-0.252482,-1.977521,0.999998,0.000184,-0.001940,0.004111,-0.000819,0.004219,-0.002049,-82.430441,0.004220,
880,1960,0.114919,-0.264411,0.999998,0.000158,-0.000682,0.003632,-0.000667,0.003732,-0.000783,-81.410205,0.003936,
1240,1470,-0.011208,-1.888509,0.999998,0.000156,-0.001208,0.003074,-0.000124,0.003078,-0.001212,-88.338573,0.003101,
1060,720,0.309444,-7.369754,0.999997,0.000178,-0.002947,0.004833,-0.001635,0.005162,-0.003276,-78.601043,0.005224,
610,1480,1.441441,-2.880264,0.999997,0.000206,-0.002546,0.005116,-0.000006,0.005116,-0.002546,-89.954783,0.005116,
1420,470,-0.269887,-8.421165,0.999997,0.000199,-0.001712,0.004134,0.000476,0.004173,-0.001751,85.371445,0.004191,
1410,1040,-1.060144,-4.882986,0.999992,0.000323,-0.005037,0.012788,-0.000845,0.012828,-0.005077,-87.292434,0.012921,
1820,1380,-1.521771,-3.342863,0.999997,0.000217,-0.002580,0.005085,0.000171,0.005089,-0.002584,88.724682,0.005089,
850,990,1.534685,-5.236747,0.999997,0.000214,-0.002001,0.005267,0.000305,0.005280,-0.002014,87.602775,0.005329,
1270,350,-0.038766,-8.987693,0.999999,0.000129,-0.001022,0.003553,0.000074,0.003554,-0.001023,89.079756,0.003659,
1800,860,-1.793541,-5.833406,0.999998,0.000181,-0.002373,0.004907,-0.000428,0.004932,-0.002398,-86.645076,0.004933,
1660,200,-0.389406,-9.351269,0.999997,0.000199,-0.001629,0.004552,-0.000589,0.004608,-0.001685,-84.605812,0.004663,
1320,1220,-0.226354,-2.720906,0.999996,0.000256,-0.002259,0.002527,-0.001705,0.003073,-0.002805,-72.263404,0.003404,
1370,710,-0.215175,-7.543016,0.999998,0.000170,-0.002445,0.004139,0.001713,0.004558,-0.002864,76.255216,0.004608,
620,630,1.503678,-6.935123,0.999998,0.000183,-0.002520,0.005066,0.000057,0.005066,-0.002521,89.572023,0.005066,
860,50,0.052417,-9.974278,0.999998,0.000148,-0.000270,0.003452,0.000743,0.003595,-0.000413,79.116239,0.003934,
1550,1940,-0.125740,-0.330680,0.999998,0.000159,-0.000504,0.003688,0.000637,0.003783,-0.000599,81.544415,0.004067,
930,1190,1.072535,-4.042979,0.999998,0.000188,-0.003301,0.006389,-0.000508,0.006415,-0.003327,-87.004523,0.006417,
1520,1490,-0.536035,-2.264970,0.999998,0.000190,-0.002605,0.004985,-0.000631,0.005037,-0.002657,-85.278702,0.005040,
1870,860,-1.955044,-5.771038,0.999998,0.000140,-0.002221,0.004597,-0.000190,0.004603,-0.002226,-88.401734,0.004604,
1880,380,-1.215923,-8.143173,0.999998,0.000174,-0.002486,0.004912,0.000075,0.004913,-0.002487,89.416016,0.004913,
630,1890,0.635369,-0.760885,0.999997,0.000200,-0.002400,0.005234,-0.000503,0.005267,-0.002433,-86.245092,0.005272,
1500,1480,-0.491531,-2.274004,0.999997,0.000210,-0.002588,0.004896,-0.000711,0.004963,-0.002655,-84.620814,0.004967,
750,910,1.661019,-5.626730,0.999997,0.000188,-0.002356,0.005127,0.000514,0.005163,-0.002391,86.085772,0.005167,
790,1330,1.206450,-3.416612,0.999997,0.000209,-0.002988,0.005580,-0.000275,0.005589,-0.002996,-88.160399,0.005593,
1630,710,-1.048733,-6.811143,0.999998,0.000211,-0.003129,0.005687,-0.000085,0.005688,-0.003130,-89.447900,0.005697,
1870,940,-2.048124,-5.415485,0.999998,0.000184,-0.002128,0.004401,-0.000163,0.004405,-0.002132,-88.571003,0.004406,
1740,710,-1.371058,-6.660343,0.999997,0.000215,-0.002788,0.005298,-0.000282,0.005308,-0.002798,-88.006332,0.005311,
1700,880,-1.577161,-5.791473,0.999997,0.000196,-0.002505,0.005227,-0.000597,0.005273,-0.002550,-85.613942,0.005274,
1740,1540,-1.060955,-2.392249,0.999998,0.000171,-0.002553,0.005124,-0.000104,0.005125,-0.002554,-89.224290,0.005125,
930,900,1.173281,-5.813318,0.999998,0.000176,-0.002982,0.006343,0.000679,0.006392,-0.003031,85.859561,0.006395,
970,1530,0.443753,-2.018853,0.999998,0.000189,-0.002362,0.004660,0.000618,0.004714,-0.002416,85.010690,0.004715,
1460,1460,-0.403096,-2.283153,0.999997,0.000220,-0.002528,0.004758,-0.000914,0.004871,-0.002641,-82.958953,0.004876,
810,1300,1.202734,-3.559287,0.999998,0.000200,-0.003032,0.005708,-0.000328,0.005720,-0.003045,-87.851044,0.005724,
610,1800,0.921415,-1.264951,0.999998,0.000174,-0.002401,0.005018,-0.000084,0.005019,-0.002402,-89.347804,0.005020,
1590,530,-0.687505,-7.857164,0.999997,0.000188,-0.002602,0.005047,0.000343,0.005062,-0.002617,87.436685,0.005063,
1840,70,-0.272549,-9.806350,0.999996,0.000216,-0.002231,0.005363,-0.001338,0.005592,-0.002460,-80.295018,0.005605,
850,520,0.736530,-7.871875,0.999998,0.000189,-0.002601,0.005065,-0.000315,0.005078,-0.002614,-87.651470,0.005079,
1880,1170,-2.007445,-4.429028,0.999998,0.000185,-0.002162,0.004344,0.000056,0.004344,-0.002162,89.511244,0.004344,
1420,450,-0.262983,-8.503620,0.999997,0.000213,-0.001658,0.004098,0.000410,0.004127,-0.001688,85.947148,0.004149,
1710,1720,-0.732066,-1.433163,0.999998,0.000188,-0.002231,0.004988,0.000081,0.004989,-0.002232,89.354543,0.004998,
930,460,0.486615,-8.298250,0.999998,0.000185,-0.002221,0.004697,-0.000387,0.004718,-0.002243,-86.807069,0.004720,
1790,1050,-1.909409,-4.933497,0.999998,0.000159,-0.002164,0.004699,0.000146,0.004702,-0.002167,88.785402,0.004707,
730,280,0.689463,-8.891233,0.999998,0.000180,-0.002183,0.004992,0.000284,0.005003,-0.002194,87.737093,0.005016,
1790,1600,-1.104448,-2.165682,0.999999,0.000140,-0.002519,0.005083,-0.000092,0.005084,-0.002520,-89.307855,0.005084,
1110,1440,0.172005,-2.122453,0.999999,0.000142,-0.001834,0.003718,0.001055,0.003912,-0.002028,79.599546,0.003913,
1400,1480,-0.258227,-2.059484,0.999998,0.000175,-0.002045,0.004136,-0.000931,0.004273,-0.002182,-81.617262,0.004274,
1320,840,-0.242414,-7.347052,0.999996,0.000241,-0.002205,0.002423,0.001567,0.002904,-0.002685,72.944716,0.003234,
850,970,1.514161,-5.343390,0.999996,0.000225,-0.002057,0.005363,0.000488,0.005395,-0.002089,86.250505,0.005441,
1350,1480,-0.165773,-1.964379,0.999998,0.000165,-0.001704,0.003734,-0.000839,0.003861,-0.001831,-81.423204,0.003863,
1020,300,0.219349,-9.086060,0.999998,0.000158,-0.001267,0.003910,-0.000025,0.003910,-0.001268,-89.718196,0.003990,
1710,260,-0.605178,-9.015478,0.999997,0.000220,-0.001999,0.004847,-0.000423,0.004873,-0.002025,-86.474217,0.004896,
1590,1920,-0.186831,-0.418660,0.999998,0.000194,-0.000989,0.003895,0.000628,0.003975,-0.001068,82.791154,0.004114,
930,1800,0.295796,-0.877358,0.999998,0.000169,-0.001325,0.004114,-0.000238,0.004125,-0.001336,-87.495819,0.004209,
1240,1450,-0.010369,-1.947750,0.999999,0.000139,-0.001186,0.002949,-0.000149,0.002955,-0.001191,-87.944099,0.002973,
1060,1380,0.286847,-2.500198,0.999997,0.000201,-0.002603,0.004516,0.001433,0.004794,-0.002881,79.036984,0.004826,
1340,150,-0.046939,-9.670869,0.999999,0.000116,-0.000508,0.003301,-0.000119,0.003305,-0.000512,-88.205261,0.003558,
930,1170,1.131887,-4.172872,0.999998,0.000189,-0.003120,0.006357,-0.000617,0.006397,-0.003160,-86.292883,0.006397,
1270,330,-0.039747,-9.058629,0.999998,0.000152,-0.000986,0.003547,0.000049,0.003548,-0.000986,89.374560,0.003662,
880,1980,0.085608,-0.193028,0.999998,0.000146,-0.000522,0.003595,-0.000693,0.003708,-0.000636,-80.697633,0.003966,
1820,1800,-0.843024,-1.199338,0.999998,0.000182,-0.002388,0.005068,0.000214,0.005074,-0.002394,88.353459,0.005077,
1880,370,-1.201346,-8.191202,0.999998,0.000190,-0.002475,0.004908,0.000059,0.004908,-0.002475,89.544529,0.004908,
710,490,1.060715,-7.794234,0.999999,0.000144,-0.002540,0.005114,-0.000103,0.005116,-0.002542,-89.230682,0.005116,
1370,690,-0.210963,-7.621431,0.999998,0.000173,-0.002340,0.004014,0.001571,0.004381,-0.002708,76.841168,0.004422,
750,870,1.593447,-5.836296,0.999997,0.000207,-0.002515,0.005174,0.000565,0.005216,-0.002557,85.817937,0.005216,
1660,220,-0.427535,-9.259808,0.999997,0.000187,-0.001755,0.004545,-0.000498,0.004585,-0.001794,-85.508014,0.004621,
1630,690,-1.013184,-6.926830,0.999998,0.000182,-0.003103,0.005626,-0.000022,0.005626,-0.003103,-89.853217,0.005636,
790,1290,1.282363,-3.641238,0.999998,0.000180,-0.002972,0.005589,-0.000414,0.005609,-0.002992,-87.236319,0.005613,
900,1230,1.067058,-3.843818,0.999998,0.000148,-0.003375,0.006216,-0.000396,0.006232,-0.003391,-87.641032,0.006240,
950,900,1.113812,-5.846732,0.999997,0.000205,-0.003101,0.006552,0.000551,0.006584,-0.003133,86.743890,0.006586,
970,1510,0.455817,-2.114119,0.999997,0.000188,-0.002433,0.004755,0.000681,0.004819,-0.002497,84.636125,0.004820,
1740,790,-1.520425,-6.235694,0.999997,0.000232,-0.002668,0.005241,-0.000476,0.005270,-0.002696,-86.568998,0.005270,
1660,170,-0.327465,-9.484377,0.999997,0.000177,-0.001467,0.004371,-0.000715,0.004457,-0.001553,-83.114898,0.004525,
830,1300,1.141848,-3.531691,0.999998,0.000193,-0.003131,0.005769,-0.000286,0.005779,-0.003140,-88.162748,0.005786,
1190,1590,0.051104,-1.500996,0.999998,0.000152,-0.001214,0.003512,0.000154,0.003517,-0.001219,88.134975,0.003571,
1670,1800,-0.514763,-0.993669,0.999997,0.000199,-0.002008,0.004710,0.000336,0.004727,-0.002025,87.140528,0.004743,
1430,1030,-1.167219,-5.018016,0.999994,0.000312,-0.004188,0.010203,-0.000079,0.010204,-0.004188,-89.686094,0.010258,
1740,1300,-1.453562,-3.657077,0.999997,0.000211,-0.002743,0.005331,0.000400,0.005351,-0.002763,87.171294,0.005352,
680,560,1.239097,-7.385957,0.999998,0.000152,-0.002593,0.005174,-0.000019,0.005174,-0.002593,-89.860093,0.005174,
1590,550,-0.708134,-7.758836,0.999997,0.000192,-0.002683,0.005122,0.000369,0.005139,-0.002700,87.298272,0.005142,
1710,240,-0.563948,-9.113690,0.999997,0.000188,-0.001938,0.004857,-0.000526,0.004897,-0.001978,-85.602291,0.004927,
1720,320,-0.731730,-8.707322,0.999997,0.000193,-0.002219,0.004983,-0.000130,0.004986,-0.002221,-88.968611,0.004996,
1020,320,0.229834,-9.007775,0.999998,0.000162,-0.001338,0.003988,-0.000063,0.003989,-0.001339,-89.320562,0.004060,
850,950,1.487338,-5.450797,0.999997,0.000212,-0.002182,0.005441,0.000551,0.005480,-0.002221,85.888091,0.005513,
880,1770,0.405025,-1.045147,0.999998,0.000170,-0.001777,0.004431,-0.000175,0.004436,-0.001782,-88.386859,0.004464,
1600,50,-0.052110,-9.974736,0.999998,0.000172,-0.000279,0.003447,-0.000746,0.003591,-0.000423,-79.086856,0.003925,
1460,1440,-0.412624,-2.379920,0.999997,0.000200,-0.002623,0.004838,-0.000953,0.004958,-0.002743,-82.832882,0.004967,
1590,1900,-0.220661,-0.498163,0.999998,0.000203,-0.001128,0.004021,0.000587,0.004087,-0.001194,83.577420,0.004203,
1800,120,-0.411230,-9.604532,0.999997,0.000211,-0.001650,0.005133,-0.001381,0.005404,-0.001920,-78.924188,0.005478,
1000,470,0.350223,-8.358430,0.999998,0.000199,-0.002021,0.004380,-0.000527,0.004423,-0.002064,-85.327492,0.004426,
860,670,0.896823,-7.085429,0.999998,0.000140,-0.003113,0.005603,-0.000174,0.005607,-0.003117,-88.858501,0.005619,
1670,1600,-0.805410,-1.973256,0.999999,0.000137,-0.002465,0.005051,-0.000149,0.005054,-0.002468,-88.867443,0.005054,
1870,850,-1.939590,-5.818460,0.999998,0.000137,-0.002247,0.004661,-0.000185,0.004666,-0.002252,-88.470629,0.004667,
1660,1470,-0.944636,-2.628731,0.999998,0.000148,-0.002773,0.005302,-0.000158,0.005305,-0.002776,-88.881218,0.005307,
790,1880,0.358543,-0.628004,0.999997,0.000186,-0.001624,0.004423,-0.000705,0.004504,-0.001705,-83.440008,0.004548,
1270,310,-0.035817,-9.131263,0.999998,0.000162,-0.000932,0.003526,0.000043,0.003527,-0.000932,89.453480,0.003655,
1820,1820,-0.797541,-1.095010,0.999998,0.000186,-0.002336,0.005089,0.000273,0.005099,-0.002346,87.896635,0.005105,
860,1490,0.761728,-2.425440,0.999997,0.000214,-0.002755,0.005231,0.000326,0.005244,-0.002769,87.663582,0.005247,
1170,1500,0.078708,-1.822435,0.999999,0.000134,-0.001369,0.003382,0.000476,0.003429,-0.001416,84.338493,0.003447,
950,1800,0.268236,-0.862288,0.999998,0.000183,-0.001370,0.004043,-0.000158,0.004047,-0.001374,-88.330305,0.004116,
1820,410,-1.115664,-8.093698,0.999998,0.000149,-0.002487,0.005059,0.000061,0.005059,-0.002487,89.539821,0.005059,
630,1870,0.698405,-0.865813,0.999997,0.000196,-0.002403,0.005160,-0.000393,0.005181,-0.002423,-87.035883,0.005184,
1890,1170,-2.029449,-4.439719,0.999998,0.000144,-0.002187,0.004280,0.000028,0.004280,-0.002187,89.748586,0.004280,
1690,1660,-0.774626,-1.701909,0.999998,0.000170,-0.002301,0.004973,-0.000063,0.004973,-0.002302,-89.501909,0.004978,
1840,2010,-0.157878,-0.147493,0.999998,0.000189,-0.002020,0.004629,0.001429,0.004923,-0.002314,78.369414,0.004926,
1320,820,-0.190880,-7.400663,0.999997,0.000192,-0.002357,0.002691,0.001985,0.003378,-0.003044,70.906488,0.003723,
1500,1460,-0.504792,-2.371389,0.999997,0.000213,-0.002718,0.005022,-0.000745,0.005093,-0.002789,-84.548110,0.005100,
1720,2020,-0.047535,-0.060643,0.999998,0.000000,0.000057,0.003835,0.001382,0.004287,-0.000395,71.906299,0.004738,
850,500,0.715120,-7.970921,0.999998,0.000168,-0.002519,0.005004,-0.000302,0.005016,-0.002531,-87.701857,0.005016,
620,1090,2.006697,-4.761773,0.999998,0.000184,-0.002152,0.004418,-0.000052,0.004419,-0.002153,-89.547143,0.004419,
1060,1400,0.280974,-2.410005,0.999997,0.000185,-0.002446,0.004457,0.001312,0.004698,-0.002687,79.595381,0.004714,
890,490,0.604805,-8.089891,0.999997,0.000202,-0.002458,0.004887,-0.000374,0.004906,-0.002477,-87.095326,0.004906,
930,1150,1.188280,-4.297317,0.999997,0.000204,-0.002880,0.006333,-0.000709,0.006387,-0.002934,-85.626128,0.006394,
720,1860,0.523260,-0.780938,0.999997,0.000185,-0.002042,0.004909,-0.000611,0.004962,-0.002096,-85.013619,0.004982,
1630,670,-0.980930,-7.036322,0.999998,0.000174,-0.003056,0.005543,0.000055,0.005543,-0.003056,89.633689,0.005553,
1590,1160,-1.326427,-4.303769,0.999997,0.000212,-0.002691,0.005862,0.000728,0.005924,-0.002752,85.171029,0.005929,
1370,670,-0.207404,-7.705590,0.999998,0.000183,-0.002271,0.004036,0.001472,0.004363,-0.002598,77.490967,0.004389,
1320,150,-0.035751,-9.671087,0.999999,0.000122,-0.000450,0.003280,-0.000095,0.003283,-0.000453,-88.540468,0.003558,
1660,240,-0.467536,-9.167080,0.999997,0.000184,-0.001850,0.004649,-0.000412,0.004675,-0.001876,-86.390712,0.004705,
750,850,1.560287,-5.940672,0.999997,0.000212,-0.002611,0.005274,0.000580,0.005317,-0.002654,85.814336,0.005317,
970,900,1.051093,-5.893434,0.999998,0.000186,-0.003239,0.006771,0.000366,0.006785,-0.003253,87.907549,0.006787,
970,1490,0.468132,-2.210227,0.999997,0.000201,-0.002488,0.004834,0.000723,0.004905,-0.002559,84.414596,0.004906,
880,1230,1.133218,-3.876307,0.999997,0.000169,-0.003240,0.006072,-0.000476,0.006096,-0.003264,-87.084055,0.006101,
850,930,1.455056,-5.561536,0.999997,0.000218,-0.002350,0.005575,0.000672,0.005631,-0.002407,85.187662,0.005651,
1390,300,-0.153221,-9.122437,0.999999,0.000149,-0.001051,0.003766,0.000019,0.003766,-0.001051,89.779977,0.003887,
1720,790,-1.466257,-6.252726,0.999996,0.000224,-0.002769,0.005361,-0.000489,0.005391,-0.002798,-86.572299,0.005392,
1420,1030,-1.117345,-5.014259,0.999996,0.000230,-0.004831,0.011483,-0.000138,0.011484,-0.004832,-89.515061,0.011532,
1740,1260,-1.528822,-3.869821,0.999997,0.000213,-0.002685,0.005218,0.000491,0.005249,-0.002716,86.456752,0.005250,
610,600,1.482324,-7.072265,0.999998,0.000194,-0.002571,0.005086,0.000040,0.005086,-0.002571,89.703480,0.005086,
680,540,1.209197,-7.489112,0.999998,0.000164,-0.002578,0.005178,-0.000043,0.005178,-0.002578,-89.684810,0.005178,
1430,1100,-1.047840,-4.347401,0.999997,0.000216,-0.003361,0.008390,-0.001335,0.008540,-0.003510,-83.601162,0.008585,
1460,1420,-0.422847,-2.476706,0.999997,0.000214,-0.002757,0.004875,-0.000989,0.005001,-0.002883,-82.738786,0.005021,
1590,570,-0.730135,-7.653128,0.999997,0.000197,-0.002732,0.005263,0.000375,0.005281,-0.002750,87.320361,0.005283,
730,600,1.166763,-7.254105,0.999998,0.000185,-0.002719,0.005284,0.000020,0.005284,-0.002719,89.857556,0.005285,
1270,290,-0.035055,-9.200621,0.999998,0.000139,-0.000859,0.003516,0.000006,0.003516,-0.000859,89.920916,0.003666,
880,1750,0.431592,-1.134159,0.999998,0.000182,-0.001880,0.004473,-0.000085,0.004474,-0.001881,-89.237883,0.004493,
1820,1840,-0.746430,-0.993215,0.999998,0.000196,-0.002295,0.005128,0.000384,0.005148,-0.002315,87.043111,0.005157,
1190,1570,0.051109,-1.571219,0.999998,0.000139,-0.001220,0.003503,0.000179,0.003509,-0.001227,87.834952,0.003562,
790,1270,1.324949,-3.753671,0.999997,0.000201,-0.002927,0.005583,-0.000491,0.005611,-0.002955,-86.708284,0.005614,
1020,340,0.245844,-8.926884,0.999998,0.000168,-0.001399,0.003993,-0.000115,0.003995,-0.001402,-88.780770,0.004054,
1120,1210,0.320779,-2.927343,0.999997,0.000228,-0.002399,0.003395,0.002022,0.004030,-0.003035,72.542741,0.004199,
1710,230,-0.544825,-9.162925,0.999997,0.000201,-0.001879,0.004806,-0.000572,0.004855,-0.001928,-85.145980,0.004889,
750,960,1.718389,-5.374435,0.999998,0.000178,-0.002217,0.005041,0.000404,0.005064,-0.002240,86.823352,0.005075,
710,1800,0.685792,-1.094091,0.999998,0.000201,-0.002347,0.004997,-0.000284,0.005007,-0.002358,-87.787848,0.005010,
1520,2000,-0.039695,-0.116591,0.999999,0.000153,-0.000220,0.003310,0.000501,0.003379,-0.000290,82.081596,0.003746,
1840,2000,-0.201598,-0.192073,0.999998,0.000169,-0.002119,0.004884,0.001395,0.005152,-0.002386,79.140339,0.005157,
1670,1660,-0.728138,-1.672922,0.999998,0.000176,-0.002314,0.004948,-0.000070,0.004949,-0.002315,-89.447421,0.004952,
1370,220,-0.095730,-9.422650,0.999998,0.000165,-0.000703,0.003499,-0.000099,0.003501,-0.000705,-88.647502,0.003703,
1800,1190,-1.799976,-4.271664,0.999998,0.000173,-0.002369,0.004879,0.000438,0.004906,-0.002395,86.555782,0.004906,
840,670,0.957824,-7.048957,0.999999,0.000146,-0.003068,0.005572,-0.000097,0.005573,-0.003069,-89.359574,0.005583,
1240,1390,-0.009458,-2.112618,0.999999,0.000127,-0.001072,0.002488,-0.000153,0.002495,-0.001078,-87.548487,0.002502,
920,1950,0.106550,-0.292131,0.999998,0.000166,-0.000446,0.003606,-0.000585,0.003689,-0.000529,-81.943129,0.003990,
1320,800,-0.147511,-7.452422,0.999997,0.000206,-0.002214,0.002850,0.002082,0.003596,-0.002960,70.286094,0.003839,
1270,1680,-0.044333,-1.181355,0.999998,0.000193,-0.001087,0.003554,-0.000076,0.003555,-0.001088,-89.058227,0.003644,
890,470,0.585590,-8.188726,0.999997,0.000205,-0.002338,0.004834,-0.000329,0.004849,-0.002353,-87.381472,0.004850,
1060,1420,0.278052,-2.322632,0.999998,0.000169,-0.002333,0.004306,0.001192,0.004513,-0.002541,80.125371,0.004525,
1640,1470,-0.887638,-2.595045,0.999998,0.000139,-0.002825,0.005355,-0.000190,0.005360,-0.002829,-88.666890,0.005363,
1660,680,-1.086966,-6.932660,0.999998,0.000178,-0.002977,0.005521,-0.000074,0.005521,-0.002978,-89.503896,0.005527,
1480,150,-0.120557,-9.640783,0.999998,0.000169,-0.000630,0.003591,-0.000348,0.003619,-0.000659,-85.322433,0.003855,
850,170,0.273845,-9.509319,0.999997,0.000205,-0.001135,0.004171,0.000639,0.004247,-0.001211,83.226051,0.004376,
590,1230,1.907498,-4.148492,0.999998,0.000162,-0.002276,0.004633,-0.000156,0.004636,-0.002280,-88.709987,0.004637,
990,860,0.843480,-6.230011,0.999997,0.000197,-0.003783,0.006846,-0.000196,0.006849,-0.003786,-88.941870,0.006862,
1460,1400,-0.435979,-2.574492,0.999997,0.000228,-0.002907,0.005072,-0.001086,0.005217,-0.003052,-82.386880,0.005242,
1870,840,-1.923725,-5.865046,0.999998,0.000147,-0.002268,0.004660,-0.000173,0.004664,-0.002272,-88.567234,0.004665,
1400,1460,-0.260801,-2.143572,0.999998,0.000174,-0.002137,0.004219,-0.001044,0.004386,-0.002304,-80.910460,0.004388,
1800,80,-0.259712,-9.804171,0.999998,0.000187,-0.000932,0.004962,-0.001938,0.005542,-0.001512,-73.334966,0.005729,
1630,650,-0.950189,-7.148630,0.999998,0.000183,-0.002999,0.005540,0.000098,0.005541,-0.003000,89.344453,0.005548,
1270,270,-0.032720,-9.270993,0.999999,0.000141,-0.000781,0.003487,0.000012,0.003487,-0.000781,89.842505,0.003660,
700,1310,1.497464,-3.631331,0.999997,0.000225,-0.002644,0.005267,-0.000361,0.005284,-0.002660,-87.389510,0.005284,
1020,780,0.515709,-6.877883,0.999996,0.000226,-0.003800,0.005989,-0.001212,0.006137,-0.003947,-83.047212,0.006220,
680,520,1.178319,-7.593387,0.999998,0.000186,-0.002575,0.005167,-0.000068,0.005167,-0.002576,-89.495662,0.005167,
1320,780,-0.128027,-7.512839,0.999997,0.000194,-0.002093,0.002889,0.002074,0.003639,-0.002843,70.111425,0.003826,
1120,590,0.154344,-8.071834,0.999999,0.000153,-0.001683,0.003632,-0.000862,0.003769,-0.001819,-81.013816,0.003770,
770,1880,0.392537,-0.644006,0.999997,0.000192,-0.001594,0.004542,-0.000812,0.004648,-0.001700,-82.585289,0.004704,
870,1800,0.381778,-0.923133,0.999998,0.000163,-0.001672,0.004350,-0.000264,0.004361,-0.001684,-87.490378,0.004399,
580,880,2.008946,-5.669537,0.999998,0.000146,-0.002138,0.004311,0.000043,0.004312,-0.002138,89.617350,0.004312,
560,1410,1.713382,-3.306119,0.999789,0.000000,-0.004562,0.005158,-0.000312,0.005168,-0.004572,-88.164012,0.005655,
890,1500,0.667917,-2.316025,0.999997,0.000198,-0.002652,0.005122,0.000417,0.005145,-0.002675,86.941424,0.005146,
710,1770,0.745959,-1.245572,0.999997,0.000194,-0.002356,0.005052,-0.000155,0.005055,-0.002359,-88.798043,0.005059,
590,600,1.533441,-7.040967,0.999997,0.000217,-0.002708,0.005102,-0.000067,0.005103,-0.002709,-89.507999,0.005106,
590,1680,1.191565,-1.900717,0.999998,0.000191,-0.002385,0.004950,0.000063,0.004951,-0.002385,89.507738,0.004952,
1470,1460,-0.428372,-2.305782,0.999997,0.000233,-0.002565,0.004836,-0.000856,0.004934,-0.002662,-83.488006,0.004939,
1000,450,0.338956,-8.446393,0.999998,0.000198,-0.001944,0.004349,-0.000470,0.004384,-0.001979,-85.753687,0.004391,
1620,1730,-0.528136,-1.266439,0.999997,0.000205,-0.001912,0.004708,0.000102,0.004710,-0.001914,89.113936,0.004737,
1530,820,-0.939396,-6.332648,0.999997,0.000179,-0.003604,0.006430,-0.000135,0.006432,-0.003606,-89.230727,0.006447,
750,830,1.522280,-6.046787,0.999997,0.000202,-0.002667,0.005315,0.000555,0.005353,-0.002706,86.043803,0.005354,
970,1470,0.480900,-2.305774,0.999997,0.000203,-0.002599,0.004931,0.000761,0.005007,-0.002676,84.288941,0.005011,
790,1250,1.362921,-3.865014,0.999997,0.000211,-0.002886,0.005539,-0.000536,0.005573,-0.002920,-86.372440,0.005575,
1500,1440,-0.522144,-2.476861,0.999997,0.000223,-0.002826,0.005108,-0.000784,0.005184,-0.002903,-84.412614,0.005197,
1740,770,-1.482720,-6.341080,0.999998,0.000204,-0.002695,0.005301,-0.000428,0.005324,-0.002718,-86.947870,0.005324,
710,600,1.220182,-7.223484,0.999998,0.000170,-0.002704,0.005235,0.000022,0.005235,-0.002704,89.842082,0.005236,
930,1130,1.246260,-4.426347,0.999998,0.000190,-0.002646,0.006232,-0.000705,0.006287,-0.002702,-85.489336,0.006308,
710,1780,0.726724,-1.194722,0.999997,0.000179,-0.002357,0.005015,-0.000204,0.005020,-0.002362,-88.415776,0.005023,
1510,2000,-0.036713,-0.115666,0.999999,0.000171,-0.000255,0.003311,0.000466,0.003371,-0.000315,82.677665,0.003724,
1370,650,-0.206844,-7.786968,0.999998,0.000176,-0.002171,0.003960,0.001305,0.004227,-0.002437,78.470052,0.004243,
1880,350,-1.166688,-8.289547,0.999998,0.000188,-0.002471,0.004936,0.000032,0.004936,-0.002471,89.754849,0.004936,
1150,420,0.097733,-8.723408,0.999998,0.000165,-0.001282,0.003653,-0.000242,0.003665,-0.001293,-87.203236,0.003717,
1740,1240,-1.565333,-3.976127,0.999997,0.000213,-0.002634,0.005236,0.000532,0.005271,-0.002670,86.153057,0.005271,
1720,30,-0.031277,-10.038644,0.999999,0.000000,-0.000021,0.003913,-0.001478,0.004407,-0.000515,-71.540567,0.004819,
1250,1680,-0.021399,-1.175198,0.999999,0.000136,-0.001130,0.003536,-0.000099,0.003538,-0.001132,-88.779183,0.003614,
890,450,0.569141,-8.282270,0.999998,0.000205,-0.002220,0.004764,-0.000284,0.004775,-0.002231,-87.673738,0.004778,
1280,90,-0.010728,-9.865992,0.999998,0.000160,-0.000180,0.003087,-0.000060,0.003089,-0.000181,-88.955197,0.003467,
1760,350,-0.874797,-8.496738,0.999997,0.000194,-0.002399,0.005072,-0.000004,0.005072,-0.002399,-89.966923,0.005074,
1590,1010,-1.501351,-5.134219,0.999997,0.000198,-0.001914,0.005360,-0.000167,0.005364,-0.001918,-88.688617,0.005436,
1540,1760,-0.350898,-1.049942,0.999998,0.000171,-0.001478,0.004308,0.000135,0.004311,-0.001482,88.661028,0.004381,
1400,1680,-0.200288,-1.251217,0.999998,0.000160,-0.001455,0.003970,-0.000232,0.003980,-0.001465,-87.560422,0.004026,
1870,750,-1.777881,-6.292115,0.999998,0.000168,-0.002434,0.004916,-0.000158,0.004920,-0.002437,-88.768643,0.004920,
1460,150,-0.110336,-9.644304,0.999998,0.000156,-0.000555,0.003555,-0.000343,0.003583,-0.000583,-85.263409,0.003846,
1820,1190,-1.847623,-4.286001,0.999997,0.000180,-0.002330,0.004813,0.000392,0.004835,-0.002352,86.868538,0.004835,
630,1850,0.751397,-0.967615,0.999997,0.000188,-0.002405,0.005130,-0.000268,0.005140,-0.002414,-87.969416,0.005143,
1790,1490,-1.265271,-2.731161,0.999998,0.000175,-0.002595,0.005170,-0.000005,0.005170,-0.002595,-89.961604,0.005170,
1450,1680,-0.274697,-1.300560,0.999997,0.000203,-0.001495,0.004147,-0.000173,0.004152,-0.001500,-88.242772,0.004205,
1210,1500,0.026881,-1.799706,0.999998,0.000185,-0.001269,0.003218,0.000234,0.003230,-0.001281,87.020224,0.003253,
610,2010,0.186466,-0.169994,0.999996,0.000242,-0.001688,0.004975,-0.001778,0.005420,-0.002133,-75.956683,0.005461,
1190,1550,0.052403,-1.641085,0.999998,0.000146,-0.001267,0.003448,0.000185,0.003455,-0.001274,87.755875,0.003495,
1580,490,-0.621944,-8.076507,0.999998,0.000201,-0.002467,0.004926,0.000354,0.004942,-0.002484,87.266794,0.004943,
1710,270,-0.622574,-8.967381,0.999997,0.000190,-0.002020,0.004866,-0.000367,0.004886,-0.002039,-86.956963,0.004908,
1630,630,-0.918791,-7.258686,0.999998,0.000164,-0.002952,0.005445,0.000162,0.005449,-0.002956,88.892471,0.005455,
1320,1340,-0.110983,-2.381558,0.999998,0.000177,-0.001757,0.003048,-0.001589,0.003526,-0.002235,-73.256813,0.003568,
1520,50,-0.035380,-9.977484,0.999999,0.000130,-0.000202,0.003288,-0.000474,0.003351,-0.000265,-82.407480,0.003726,
680,500,1.152639,-7.695292,0.999998,0.000186,-0.002573,0.005133,-0.000082,0.005134,-0.002573,-89.388903,0.005134,
1270,250,-0.030884,-9.339869,0.999999,0.000125,-0.000722,0.003416,-0.000012,0.003416,-0.000722,-89.836451,0.003601,
1620,1170,-1.382701,-4.269324,0.999998,0.000185,-0.002671,0.005692,0.000705,0.005751,-0.002730,85.214397,0.005754,
1020,760,0.482536,-6.993892,0.999996,0.000209,-0.003643,0.005756,-0.001252,0.005920,-0.003807,-82.543811,0.006000,
1780,1350,-1.470259,-3.442983,0.999996,0.000235,-0.002652,0.005187,0.000272,0.005197,-0.002661,88.014563,0.005197,
1090,1590,0.188801,-1.574939,0.999998,0.000172,-0.001575,0.003941,0.000471,0.003981,-0.001615,85.154573,0.004005,
590,590,1.517426,-7.091449,0.999997,0.000209,-0.002752,0.005090,-0.000085,0.005091,-0.002753,-89.377633,0.005097,
1280,1430,-0.057261,-2.031169,0.999997,0.000199,-0.001316,0.002949,-0.000576,0.003025,-0.001392,-82.442733,0.003028,
1350,220,-0.080670,-9.427660,0.999998,0.000190,-0.000759,0.003476,-0.000044,0.003476,-0.000759,-89.403328,0.003655,
660,810,1.718541,-6.075021,0.999997,0.000191,-0.002444,0.004978,0.000427,0.005003,-0.002469,86.720576,0.005003,
1010,300,0.231946,-9.079532,0.999999,0.000155,-0.001242,0.003942,0.000007,0.003942,-0.001242,89.928167,0.004031,
560,1400,1.735410,-3.376330,0.999853,0.000000,-0.004368,0.005373,0.000008,0.005373,-0.004368,89.950828,0.005713,
1780,1830,-0.682621,-0.984432,0.999998,0.000188,-0.002308,0.005046,0.000434,0.005071,-0.002334,86.636060,0.005077,
1510,820,-0.866075,-6.381315,0.999996,0.000228,-0.003727,0.006527,0.000023,0.006527,-0.003727,89.869191,0.006549,
1060,1440,0.273395,-2.239132,0.999998,0.000182,-0.002244,0.004291,0.001113,0.004475,-0.002428,80.594876,0.004480,
870,1500,0.721959,-2.354300,0.999998,0.000196,-0.002733,0.005197,0.000359,0.005214,-0.002749,87.412154,0.005216,
1790,1780,-0.815623,-1.253689,0.999998,0.000181,-0.002366,0.005064,0.000227,0.005071,-0.002373,88.248659,0.005074,
710,1810,0.664722,-1.043505,0.999998,0.000188,-0.002327,0.004993,-0.000323,0.005007,-0.002342,-87.478778,0.005011,
750,810,1.486019,-6.152270,0.999998,0.000201,-0.002700,0.005302,0.000534,0.005338,-0.002735,86.198604,0.005338,
1300,610,-0.087250,-8.067595,0.999999,0.000146,-0.001435,0.003203,0.000737,0.003318,-0.001549,81.182426,0.003320,
670,880,1.806203,-5.739917,0.999998,0.000193,-0.002359,0.004896,0.000438,0.004923,-0.002385,86.554575,0.004924,
1490,1740,-0.290954,-1.088899,0.999998,0.000174,-0.001525,0.004160,-0.000030,0.004160,-0.001525,-89.694108,0.004209,
1370,630,-0.203239,-7.865334,0.999998,0.000167,-0.002040,0.003874,0.001144,0.004087,-0.002254,79.424924,0.004094,
790,1230,1.403767,-3.974031,0.999997,0.000197,-0.002807,0.005477,-0.000592,0.005519,-0.002849,-85.933605,0.005520,
1740,1220,-1.603475,-4.080152,0.999997,0.000209,-0.002548,0.005183,0.000538,0.005221,-0.002586,86.038923,0.005221,
1050,520,0.270813,-8.224582,0.999998,0.000159,-0.001899,0.004165,-0.000667,0.004238,-0.001972,-83.796510,0.004241,
970,1450,0.492671,-2.407284,0.999997,0.000212,-0.002742,0.005018,0.000809,0.005101,-0.002826,84.109974,0.005111,
1310,1680,-0.085197,-1.191085,0.999998,0.000152,-0.001157,0.003620,-0.000133,0.003623,-0.001161,-88.405186,0.003700,
850,910,1.415457,-5.674799,0.999997,0.000208,-0.002514,0.005579,0.000701,0.005640,-0.002575,85.083071,0.005647,
1160,720,0.083141,-7.740782,0.999998,0.000170,-0.001550,0.002681,-0.001397,0.003101,-0.001970,-73.277928,0.003138,
700,1970,0.236978,-0.283926,0.999998,0.000167,-0.001329,0.004397,-0.001357,0.004702,-0.001634,-77.314540,0.004775,
1630,280,-0.480269,-9.012020,0.999997,0.000187,-0.001735,0.004614,-0.000310,0.004629,-0.001750,-87.207148,0.004675,
1540,1740,-0.370736,-1.134796,0.999998,0.000188,-0.001558,0.004315,0.000034,0.004315,-0.001558,89.665740,0.004370,
1750,1540,-1.086653,-2.408359,0.999998,0.000179,-0.002577,0.005128,-0.000096,0.005129,-0.002578,-89.283099,0.005129,
1630,610,-0.892826,-7.366383,0.999998,0.000170,-0.002918,0.005361,0.000214,0.005367,-0.002924,88.520280,0.005374,
560,1390,1.768453,-3.409851,0.999867,0.000000,-0.004021,0.005275,0.000331,0.005286,-0.004033,87.962995,0.005525,
1160,90,0.015698,-9.865007,0.999999,0.000158,-0.000195,0.003109,0.000107,0.003112,-0.000199,88.144232,0.003484,
590,1010,2.088098,-5.115204,0.999998,0.000155,-0.002022,0.004286,0.000133,0.004289,-0.002025,88.791587,0.004291,
1870,740,-1.759507,-6.341975,0.999998,0.000184,-0.002437,0.004908,-0.000145,0.004911,-0.002440,-88.868321,0.004911,
1400,1440,-0.267266,-2.232356,0.999998,0.000172,-0.002243,0.004235,-0.001145,0.004431,-0.002439,-80.265324,0.004438,
930,1110,1.295868,-4.548933,0.999997,0.000199,-0.002399,0.006141,-0.000672,0.006193,-0.002452,-85.526622,0.006238,
1090,1570,0.193260,-1.655155,0.999998,0.000154,-0.001655,0.003884,0.000571,0.003943,-0.001713,84.170529,0.003954,
1710,2020,-0.048343,-0.062919,0.999998,0.000000,0.000022,0.003760,0.001337,0.004189,-0.000407,72.203758,0.004620,
890,1420,0.755634,-2.741166,0.999997,0.000181,-0.003046,0.005483,0.000395,0.005502,-0.003065,87.352667,0.005513,
1460,1380,-0.451327,-2.679184,0.999997,0.000210,-0.003077,0.005212,-0.001136,0.005364,-0.003230,-82.336538,0.005402,
1790,1470,-1.296358,-2.836079,0.999998,0.000191,-0.002612,0.005164,0.000018,0.005164,-0.002612,89.866075,0.005164,
1270,230,-0.026665,-9.408999,0.999998,0.000142,-0.000664,0.003403,0.000001,0.003403,-0.000664,89.986112,0.003607,
1470,1600,-0.355790,-1.666903,0.999998,0.000180,-0.001941,0.004388,-0.000466,0.004422,-0.001975,-85.812564,0.004431,
1070,1110,0.894870,-3.940529,0.999992,0.000355,-0.002638,0.008515,0.003973,0.009786,-0.003909,72.264953,0.009851,
580,1230,1.929777,-4.161107,0.999998,0.000161,-0.002279,0.004620,-0.000104,0.004621,-0.002280,-89.140320,0.004622,
1030,1100,1.057815,-4.362224,0.999996,0.000278,-0.003303,0.008287,0.001165,0.008403,-0.003419,84.316486,0.008451,
590,580,1.501002,-7.142420,0.999997,0.000199,-0.002846,0.004987,-0.000130,0.004989,-0.002848,-89.048657,0.005006,
890,430,0.549790,-8.376310,0.999997,0.000211,-0.002171,0.004748,-0.000238,0.004756,-0.002179,-88.031872,0.004762,
1600,1170,-1.327750,-4.253644,0.999997,0.000197,-0.002729,0.005827,0.000743,0.005891,-0.002793,85.076663,0.005894,
720,1610,0.972899,-2.037417,0.999998,0.000163,-0.002482,0.005057,0.000116,0.005059,-0.002484,89.119899,0.005060,
1030,1440,0.341044,-2.310283,0.999997,0.000228,-0.002495,0.004584,0.001048,0.004736,-0.002647,81.750121,0.004747,
1510,800,-0.815604,-6.514519,0.999997,0.000202,-0.003751,0.006445,0.000195,0.006449,-0.003754,88.902436,0.006478,
690,1900,0.478843,-0.623131,0.999997,0.000216,-0.002061,0.004994,-0.000911,0.005110,-0.002177,-82.759979,0.005129,
1820,1860,-0.696131,-0.889229,0.999997,0.000196,-0.002257,0.005125,0.000478,0.005156,-0.002288,86.311448,0.005167,
1710,1710,-0.746049,-1.481566,0.999997,0.000188,-0.002251,0.005002,0.000078,0.005003,-0.002252,89.382294,0.005011,
680,920,1.832938,-5.551598,0.999998,0.000183,-0.002282,0.004808,0.000326,0.004823,-0.002297,87.374160,0.004825,
1780,1850,-0.633530,-0.883556,0.999996,0.000222,-0.002260,0.005039,0.000571,0.005084,-0.002304,85.557675,0.005091,
1020,740,0.455582,-7.110054,0.999997,0.000209,-0.003466,0.005579,-0.001297,0.005761,-0.003648,-82.000494,0.005829,
870,400,0.562922,-8.492310,0.999997,0.000216,-0.002136,0.004725,-0.000125,0.004728,-0.002138,-88.960871,0.004735,
1300,590,-0.087729,-8.133195,0.999998,0.000158,-0.001435,0.003301,0.000643,0.003387,-0.001521,82.405393,0.003393,
720,1300,1.463131,-3.663057,0.999997,0.000221,-0.002703,0.005313,-0.000396,0.005333,-0.002722,-87.175469,0.005333,
1590,990,-1.490971,-5.241975,0.999997,0.000196,-0.001985,0.005396,-0.000311,0.005409,-0.001998,-87.593258,0.005470,
650,900,1.879034,-5.632480,0.999998,0.000186,-0.002256,0.004694,0.000287,0.004705,-0.002267,87.640651,0.004706,
1740,1200,-1.636523,-4.183901,0.999998,0.000188,-0.002474,0.005096,0.000527,0.005132,-0.002511,86.038816,0.005133,
1880,180,-0.797112,-9.127688,0.999998,0.000172,-0.002455,0.005054,-0.000299,0.005066,-0.002467,-87.723264,0.005066,
1320,240,-0.062968,-9.367875,0.999998,0.000165,-0.000793,0.003469,-0.000036,0.003469,-0.000793,-89.517008,0.003635,
1580,470,-0.603338,-8.176198,0.999997,0.000209,-0.002371,0.004878,0.000313,0.004891,-0.002384,87.529419,0.004892,
1230,1860,0.001284,-0.549764,0.999998,0.000197,-0.000636,0.003330,-0.000015,0.003330,-0.000637,-89.778878,0.003536,
750,790,1.446613,-6.259786,0.999998,0.000222,-0.002727,0.005406,0.000514,0.005439,-0.002760,86.398909,0.005439,
790,1210,1.443092,-4.084345,0.999998,0.000189,-0.002712,0.005502,-0.000647,0.005552,-0.002763,-85.522858,0.005552,
1370,610,-0.202753,-7.942080,0.999998,0.000167,-0.001922,0.003883,0.001032,0.004061,-0.002100,80.215493,0.004061,
1510,1540,-0.476700,-2.005163,0.999998,0.000201,-0.002339,0.004732,-0.000572,0.004778,-0.002385,-85.408483,0.004778,
1290,1680,-0.064506,-1.185383,0.999998,0.000145,-0.001049,0.003572,-0.000050,0.003573,-0.001049,-89.385514,0.003673,
1610,160,-0.251844,-9.551112,0.999998,0.000177,-0.001073,0.004137,-0.000674,0.004223,-0.001159,-82.746061,0.004364,
1540,1720,-0.390019,-1.222789,0.999997,0.000200,-0.001603,0.004484,0.000019,0.004484,-0.001603,89.825307,0.004545,
1370,580,-0.200937,-8.057237,0.999998,0.000159,-0.001837,0.003896,0.000908,0.004037,-0.001977,81.208612,0.004037,
560,1380,1.746147,-3.468684,0.999896,0.000000,-0.003995,0.005282,0.000401,0.005299,-0.004012,87.529859,0.005528,
1070,1360,0.267917,-2.555610,0.999997,0.000193,-0.002638,0.004468,0.001564,0.004797,-0.002967,78.123119,0.004842,
770,640,1.117724,-7.101686,0.999998,0.000183,-0.002844,0.005371,0.000026,0.005372,-0.002844,89.817344,0.005375,
1090,1770,0.128103,-0.894964,0.999999,0.000137,-0.000941,0.003721,-0.000030,0.003721,-0.000942,-89.631365,0.003870,
1280,1450,-0.059232,-1.971035,0.999998,0.000171,-0.001317,0.003084,-0.000491,0.003139,-0.001372,-83.711411,0.003147,
1630,590,-0.866212,-7.474679,0.999997,0.000178,-0.002876,0.005340,0.000240,0.005347,-0.002883,88.327943,0.005352,
1770,160,-0.487246,-9.435056,0.999997,0.000217,-0.002063,0.004998,-0.000865,0.005102,-0.002168,-83.114604,0.005121,
970,1430,0.509308,-2.510617,0.999997,0.000207,-0.002883,0.005083,0.000850,0.005173,-0.002973,83.978576,0.005192,
620,1070,2.014694,-4.850622,0.999999,0.000173,-0.002134,0.004399,-0.000094,0.004400,-0.002135,-89.172945,0.004401,
580,1980,0.392536,-0.385137,0.999996,0.000230,-0.002154,0.005871,-0.001984,0.006335,-0.002618,-76.843477,0.006366,
1450,1660,-0.286848,-1.383689,0.999998,0.000185,-0.001559,0.004143,-0.000239,0.004153,-0.001569,-87.603227,0.004194,
990,300,0.255173,-9.065367,0.999999,0.000138,-0.001249,0.004003,0.000040,0.004003,-0.001249,89.559020,0.004096,
1800,1850,-0.677188,-0.911839,0.999997,0.000208,-0.002219,0.005090,0.000600,0.005139,-0.002268,85.337492,0.005151,
690,1880,0.538131,-0.724150,0.999997,0.000221,-0.002156,0.004971,-0.000779,0.005055,-0.002240,-83.834719,0.005066,
850,420,0.627479,-8.370163,0.999997,0.000236,-0.002274,0.004855,-0.000171,0.004859,-0.002278,-88.629408,0.004862,
680,940,1.853790,-5.454237,0.999998,0.000175,-0.002267,0.004831,0.000361,0.004850,-0.002285,87.094863,0.004852,
760,1310,1.331015,-3.564419,0.999998,0.000173,-0.002858,0.005465,-0.000375,0.005482,-0.002875,-87.425054,0.005484,
1460,990,-1.226601,-5.336463,0.999997,0.000227,-0.002626,0.007793,0.000093,0.007793,-0.002626,89.487753,0.007930,
630,1160,1.917129,-4.437580,0.999998,0.000153,-0.002225,0.004587,-0.000223,0.004595,-0.002233,-88.129118,0.004595,
890,410,0.529777,-8.472456,0.999997,0.000217,-0.002151,0.004721,-0.000211,0.004728,-0.002158,-88.239098,0.004734,
1710,1690,-0.777931,-1.582857,0.999998,0.000177,-0.002306,0.004966,0.000036,0.004966,-0.002306,89.715273,0.004970,
1400,1400,-0.275120,-2.399827,0.999997,0.000194,-0.002428,0.004395,-0.001318,0.004641,-0.002674,-79.439578,0.004659,
1300,510,-0.087962,-8.408652,0.999998,0.000145,-0.001404,0.003519,0.000379,0.003548,-0.001433,85.621279,0.003570,
590,1500,1.462323,-2.808711,0.999997,0.000217,-0.002862,0.005050,0.000219,0.005056,-0.002868,88.419158,0.005071,
1020,720,0.435153,-7.217246,0.999997,0.000212,-0.003318,0.005400,-0.001296,0.005588,-0.003507,-81.720087,0.005649,
1270,210,-0.026968,-9.476312,0.999998,0.000179,-0.000588,0.003387,-0.000021,0.003387,-0.000588,-89.695831,0.003620,
1740,1180,-1.670422,-4.285329,0.999998,0.000191,-0.002439,0.005102,0.000558,0.005143,-0.002480,85.794218,0.005145,
1790,1450,-1.326231,-2.938010,0.999997,0.000213,-0.002624,0.005151,0.000045,0.005151,-0.002625,89.664818,0.005152,
1320,220,-0.057672,-9.437523,0.999998,0.000195,-0.000738,0.003444,-0.000039,0.003445,-0.000739,-89.464496,0.003627,
720,1280,1.500651,-3.768109,0.999998,0.000214,-0.002658,0.005252,-0.000439,0.005276,-0.002682,-86.830629,0.005276,
1440,1870,-0.126436,-0.555141,0.999998,0.000147,-0.000754,0.003598,0.000222,0.003609,-0.000765,87.086250,0.003804,
750,770,1.407872,-6.369398,0.999997,0.000239,-0.002778,0.005442,0.000451,0.005467,-0.002802,86.870174,0.005467,
850,870,1.329150,-5.900782,0.999997,0.000196,-0.002803,0.005789,0.000692,0.005844,-0.002859,85.425371,0.005844,
790,1190,1.483930,-4.193901,0.999998,0.000198,-0.002616,0.005434,-0.000631,0.005483,-0.002665,-85.547249,0.005483,
1160,700,0.082363,-7.795102,0.999998,0.000162,-0.001493,0.002792,-0.001238,0.003124,-0.001825,-74.991423,0.003139,
650,880,1.854126,-5.726529,0.999998,0.000168,-0.002320,0.004811,0.000365,0.004830,-0.002338,87.076358,0.004831,
1580,450,-0.584415,-8.272229,0.999998,0.000177,-0.002262,0.004807,0.000257,0.004817,-0.002271,87.917326,0.004819,
1700,1530,-0.971511,-2.379519,0.999998,0.000140,-0.002650,0.005194,-0.000145,0.005197,-0.002653,-88.938889,0.005197,
1370,590,-0.201616,-8.017610,0.999998,0.000160,-0.001857,0.003906,0.000942,0.004056,-0.002007,80.952376,0.004056,
1590,160,-0.230770,-9.561161,0.999998,0.000187,-0.001137,0.004019,-0.000589,0.004085,-0.001203,-83.567907,0.004198,
930,1090,1.341406,-4.671910,0.999997,0.000208,-0.002206,0.006001,-0.000559,0.006039,-0.002244,-86.124225,0.006105,
640,710,1.589581,-6.555504,0.999997,0.000213,-0.002548,0.005073,0.000210,0.005078,-0.002553,88.426134,0.005078,
1540,1700,-0.410120,-1.314849,0.999997,0.000208,-0.001638,0.004455,-0.000008,0.004455,-0.001638,-89.920668,0.004507,
1510,1520,-0.490373,-2.099392,0.999997,0.000203,-0.002376,0.004790,-0.000586,0.004838,-0.002424,-85.352606,0.004838,
1630,570,-0.840877,-7.581830,0.999998,0.000179,-0.002795,0.005283,0.000255,0.005291,-0.002803,88.197096,0.005294,
840,90,0.133346,-9.825019,0.999998,0.000150,-0.000516,0.003761,0.000846,0.003923,-0.000678,79.204678,0.004194,
560,1370,1.754535,-3.525773,0.999885,0.000000,-0.003802,0.005362,0.000310,0.005372,-0.003813,88.066419,0.005527,
1100,1400,0.189057,-2.293107,0.999998,0.000187,-0.002079,0.003858,0.001313,0.004135,-0.002356,78.068861,0.004149,
1690,200,-0.443216,-9.322742,0.999996,0.000210,-0.001763,0.004708,-0.000661,0.004775,-0.001830,-84.231308,0.004818,
620,810,1.815025,-6.035864,0.999998,0.000147,-0.002387,0.004739,0.000251,0.004748,-0.002396,87.988640,0.004748,
1200,1550,0.038824,-1.637186,0.999998,0.000165,-0.001256,0.003425,0.000183,0.003432,-0.001263,87.759626,0.003472,
1170,1680,0.066984,-1.186154,0.999999,0.000115,-0.001100,0.003585,0.000059,0.003585,-0.001100,89.281955,0.003673,
990,1960,0.065332,-0.246064,0.999999,0.000157,-0.000325,0.003382,-0.000402,0.003426,-0.000368,-83.875589,0.003761,
1460,970,-1.180959,-5.483303,0.999997,0.000234,-0.002706,0.007504,0.000080,0.007505,-0.002707,89.550702,0.007601,
840,1310,1.090259,-3.459225,0.999997,0.000189,-0.003192,0.005793,-0.000218,0.005798,-0.003197,-88.612009,0.005809,
590,1980,0.371120,-0.366399,0.999997,0.000208,-0.002167,0.005933,-0.001591,0.006234,-0.002468,-79.279106,0.006279,
970,1410,0.525320,-2.613195,0.999997,0.000213,-0.003002,0.005210,0.000865,0.005300,-0.003092,84.052635,0.005325,
1300,490,-0.086586,-8.480146,0.999998,0.000141,-0.001377,0.003542,0.000319,0.003562,-0.001398,86.301973,0.003590,
990,1740,0.265998,-1.074669,0.999998,0.000146,-0.001320,0.004054,-0.000018,0.004054,-0.001320,-89.806120,0.004135,
1590,970,-1.464933,-5.350657,0.999997,0.000208,-0.002080,0.005504,-0.000507,0.005538,-0.002114,-86.193339,0.005589,
1070,1340,0.277685,-2.647257,0.999998,0.000167,-0.002819,0.004596,0.001671,0.004955,-0.003178,77.869200,0.005021,
1620,670,-0.949321,-7.055374,0.999998,0.000163,-0.003090,0.005562,0.000086,0.005563,-0.003091,89.429530,0.005575,
1020,700,0.416964,-7.322476,0.999997,0.000213,-0.003143,0.005212,-0.001294,0.005408,-0.003339,-81.393358,0.005458,
1880,1460,-1.541674,-3.024317,0.999997,0.000203,-0.002539,0.005081,0.000017,0.005081,-0.002539,89.874164,0.005081,
650,1160,1.872791,-4.424276,0.999998,0.000179,-0.002275,0.004708,-0.000291,0.004720,-0.002287,-87.613695,0.004721,
1400,1380,-0.279148,-2.488063,0.999997,0.000185,-0.002559,0.004433,-0.001434,0.004716,-0.002842,-78.851933,0.004749,
680,960,1.876749,-5.356140,0.999998,0.000181,-0.002240,0.004757,0.000241,0.004765,-0.002248,88.030971,0.004768,
1740,1160,-1.704234,-4.387513,0.999998,0.000191,-0.002389,0.005074,0.000513,0.005109,-0.002424,86.084381,0.005111,
850,400,0.605009,-8.465784,0.999997,0.000226,-0.002174,0.004778,-0.000115,0.004780,-0.002176,-89.052021,0.004786,
1790,1430,-1.359813,-3.042102,0.999998,0.000188,-0.002615,0.005153,0.000087,0.005154,-0.002616,89.361438,0.005155,
720,1260,1.537140,-3.872241,0.999997,0.000219,-0.002620,0.005183,-0.000477,0.005212,-0.002649,-86.514352,0.005212,
580,1500,1.487660,-2.824860,0.999997,0.000215,-0.003741,0.004872,0.000655,0.004922,-0.003790,85.678405,0.005156,
790,1170,1.519020,-4.302593,0.999997,0.000209,-0.002558,0.005347,-0.000612,0.005395,-0.002605,-85.600443,0.005396,
1270,300,-0.035797,-9.165050,0.999998,0.000149,-0.000900,0.003510,0.000031,0.003510,-0.000900,89.600800,0.003646,
1270,190,-0.021496,-9.544155,0.999998,0.000157,-0.000545,0.003341,-0.000035,0.003341,-0.000545,-89.482960,0.003585,
1820,510,-1.259923,-7.583901,0.999997,0.000209,-0.002553,0.005111,0.000052,0.005111,-0.002553,89.614984,0.005111,
890,390,0.509327,-8.566504,0.999997,0.000210,-0.002115,0.004668,-0.000156,0.004672,-0.002118,-88.680974,0.004679,
1370,570,-0.200630,-8.097170,0.999998,0.000150,-0.001821,0.003866,0.000882,0.003999,-0.001955,81.381332,0.004000,
1560,450,-0.539600,-8.302408,0.999997,0.000207,-0.002242,0.004760,0.000302,0.004773,-0.002255,87.535548,0.004775,
1460,1870,-0.140595,-0.562031,0.999998,0.000148,-0.000703,0.003655,0.000275,0.003672,-0.000720,86.409535,0.003892,
1320,200,-0.052415,-9.505430,0.999998,0.000190,-0.000655,0.003430,-0.000062,0.003431,-0.000656,-89.132362,0.003642,
850,600,0.830226,-7.451483,0.999998,0.000167,-0.002882,0.005371,-0.000267,0.005380,-0.002891,-88.146735,0.005385,
850,850,1.286048,-6.018112,0.999997,0.000187,-0.002938,0.005792,0.000623,0.005836,-0.002982,85.937634,0.005837,
1160,1480,0.091253,-1.902352,0.999998,0.000154,-0.001417,0.003338,0.000620,0.003417,-0.001497,82.686979,0.003426,
1630,550,-0.816805,-7.686184,0.999998,0.000170,-0.002711,0.005219,0.000271,0.005229,-0.002720,88.042519,0.005230,
560,1360,1.795956,-3.584945,0.999891,0.000000,-0.003376,0.004906,0.000058,0.004906,-0.003377,89.599595,0.005021,
750,640,1.173696,-7.072041,0.999998,0.000174,-0.002801,0.005331,0.000071,0.005332,-0.002801,89.498954,0.005334,
970,1830,0.209922,-0.728015,0.999998,0.000159,-0.001188,0.003896,-0.000211,0.003905,-0.001197,-87.627644,0.004001,
1060,410,0.218946,-8.684627,0.999998,0.000180,-0.001598,0.004003,-0.000369,0.004027,-0.001622,-86.244433,0.004052,
600,810,1.861826,-6.012357,0.999998,0.000155,-0.002289,0.004653,0.000179,0.004658,-0.002294,88.523073,0.004658,
1540,1680,-0.430135,-1.401436,0.999997,0.000196,-0.001754,0.004429,-0.000092,0.004431,-0.001755,-89.152243,0.004462,
1110,1740,0.118825,-0.994515,0.999998,0.000154,-0.001086,0.003662,0.000087,0.003664,-0.001087,88.954097,0.003763,
600,1970,0.395678,-0.409187,0.999997,0.000191,-0.002269,0.005746,-0.001305,0.005954,-0.002476,-80.983750,0.005981,
1280,490,-0.060837,-8.488961,0.999998,0.000148,-0.001264,0.003490,0.000179,0.003496,-0.001270,87.849052,0.003540,
1050,1360,0.324720,-2.627524,0.999997,0.000185,-0.002860,0.004780,0.001470,0.005053,-0.003133,79.473850,0.005101,
1390,1960,-0.038064,-0.235922,0.999998,0.000179,-0.000258,0.003210,0.000241,0.003226,-0.000275,86.038707,0.003577,
780,1310,1.273848,-3.541104,0.999997,0.000200,-0.002941,0.005558,-0.000356,0.005573,-0.002956,-87.605785,0.005576,
1740,1140,-1.730249,-4.489408,0.999998,0.000179,-0.002329,0.004919,0.000410,0.004942,-0.002352,86.768931,0.004944,
1020,680,0.400698,-7.428538,0.999996,0.000212,-0.002957,0.005057,-0.001231,0.005242,-0.003142,-81.463684,0.005276,
780,1350,1.197876,-3.318182,0.999998,0.000202,-0.002945,0.005513,-0.000214,0.005518,-0.002951,-88.553782,0.005523,
1180,1550,0.065593,-1.644392,0.999999,0.000134,-0.001314,0.003483,0.000221,0.003494,-0.001324,87.372454,0.003527,
1380,1330,-0.247866,-2.639930,0.999997,0.000217,-0.002728,0.004402,-0.001802,0.004832,-0.003157,-76.594504,0.004907,
680,980,1.884160,-5.264139,0.999998,0.000168,-0.002176,0.004661,0.000119,0.004664,-0.002178,89.002790,0.004667,
570,1500,1.535694,-2.878557,0.999283,0.003056,-0.004249,0.004668,0.000908,0.004759,-0.004341,84.246723,0.005270,
790,1150,1.554005,-4.407530,0.999997,0.000234,-0.002501,0.005340,-0.000627,0.005390,-0.002551,-85.454172,0.005392,
720,1240,1.573557,-3.977617,0.999997,0.000209,-0.002599,0.005204,-0.000520,0.005239,-0.002634,-86.201992,0.005239,
1670,940,-1.599589,-5.487349,0.999998,0.000188,-0.002269,0.005190,-0.000468,0.005219,-0.002299,-86.426030,0.005231,
1400,1360,-0.288996,-2.580667,0.999996,0.000221,-0.002715,0.004592,-0.001550,0.004907,-0.003030,-78.501787,0.004952,
1370,550,-0.198372,-8.172343,0.999998,0.000142,-0.001798,0.003841,0.000820,0.003958,-0.001915,81.895083,0.003959,
1630,260,-0.451642,-9.100863,0.999998,0.000165,-0.001641,0.004515,-0.000384,0.004539,-0.001665,-86.444072,0.004593,
890,370,0.487699,-8.660586,0.999997,0.000217,-0.002073,0.004607,-0.000108,0.004608,-0.002074,-89.077205,0.004616,
820,1030,1.608802,-5.027642,0.999997,0.000206,-0.001971,0.005156,-0.000039,0.005156,-0.001971,-89.689546,0.005204,
1790,1410,-1.392090,-3.144492,0.999997,0.000209,-0.002614,0.005157,0.000121,0.005159,-0.002616,89.109853,0.005159,
1270,170,-0.021228,-9.609494,0.999998,0.000154,-0.000471,0.003291,-0.000033,0.003292,-0.000471,-89.498111,0.003560,
1620,1530,-0.760592,-2.246016,0.999997,0.000205,-0.002619,0.005145,-0.000280,0.005155,-0.002629,-87.939723,0.005156,
630,1830,0.805024,-1.073426,0.999997,0.000198,-0.002405,0.005073,-0.000209,0.005079,-0.002411,-88.402441,0.005081,
1190,1500,0.052721,-1.808516,0.999998,0.000173,-0.001275,0.003275,0.000276,0.003291,-0.001292,86.545400,0.003316,
1660,660,-1.054846,-7.044283,0.999998,0.000171,-0.002945,0.005478,-0.000031,0.005478,-0.002946,-89.787899,0.005483,
1190,1530,0.053161,-1.709010,0.999999,0.000140,-0.001279,0.003375,0.000212,0.003385,-0.001289,87.397778,0.003417,
1310,1610,-0.095913,-1.444847,0.999998,0.000175,-0.001334,0.003642,-0.000292,0.003659,-0.001351,-86.657345,0.003701,
930,1070,1.373700,-4.791426,0.999998,0.000186,-0.001988,0.005983,-0.000415,0.006005,-0.002010,-87.030041,0.006113,
1550,1660,-0.466491,-1.504657,0.999997,0.000198,-0.001999,0.004599,-0.000192,0.004604,-0.002005,-88.331281,0.004617,
1000,370,0.291082,-8.788829,0.999998,0.000172,-0.001528,0.004165,-0.000165,0.004170,-0.001533,-88.340606,0.004218,
1100,1420,0.191299,-2.218934,0.999998,0.000166,-0.001946,0.003812,0.001159,0.004036,-0.002170,79.038988,0.004040,
1710,1670,-0.808095,-1.682084,0.999998,0.000159,-0.002371,0.004994,-0.000036,0.004994,-0.002371,-89.720108,0.004996,
1540,1660,-0.446248,-1.491333,0.999997,0.000195,-0.001897,0.004543,-0.000184,0.004549,-0.001902,-88.366976,0.004569,
990,840,0.779128,-6.367027,0.999998,0.000200,-0.003870,0.006724,-0.000359,0.006736,-0.003883,-88.061625,0.006762,
1620,650,-0.919946,-7.167137,0.999998,0.000159,-0.003039,0.005532,0.000132,0.005534,-0.003042,89.116397,0.005544,
650,400,1.081423,-8.156270,0.999997,0.000189,-0.002503,0.005046,-0.000061,0.005047,-0.002504,-89.540075,0.005047,
1400,1870,-0.095133,-0.541917,0.999998,0.000135,-0.000706,0.003467,0.000170,0.003474,-0.000713,87.673768,0.003669,
1770,1660,-0.968334,-1.828576,0.999998,0.000168,-0.002464,0.005096,-0.000076,0.005097,-0.002464,-89.423431,0.005097,
580,910,2.041992,-5.539235,0.999998,0.000149,-0.002067,0.004392,0.000095,0.004393,-0.002068,89.159732,0.004396,
560,1350,1.803239,-3.622863,0.999910,0.000000,-0.003365,0.004698,0.000117,0.004699,-0.003367,89.171888,0.004844,
750,750,1.369820,-6.477997,0.999997,0.000230,-0.002809,0.005397,0.000388,0.005415,-0.002828,87.301878,0.005417,
760,1290,1.370482,-3.673686,0.999997,0.000202,-0.002848,0.005460,-0.000434,0.005482,-0.002871,-87.017382,0.005484,
1630,530,-0.793282,-7.789733,0.999998,0.000147,-0.002656,0.005122,0.000278,0.005132,-0.002666,87.954211,0.005133,
930,1780,0.315915,-0.958121,0.999998,0.000171,-0.001397,0.004211,-0.000165,0.004216,-0.001402,-88.313745,0.004294,
1530,1280,-0.833638,-3.461876,0.999998,0.000162,-0.003640,0.006233,-0.000188,0.006237,-0.003644,-88.908151,0.006266,
1180,670,0.059496,-7.915655,0.999998,0.000169,-0.001322,0.002717,-0.000832,0.002882,-0.001487,-78.808828,0.002882,
1480,90,-0.061929,-9.851214,0.999999,0.000134,-0.000345,0.003370,-0.000395,0.003411,-0.000386,-83.994257,0.003736,
1010,1220,0.686159,-3.595975,0.999997,0.000227,-0.003922,0.006654,0.000789,0.006713,-0.003981,85.756337,0.006752,
1500,1420,-0.538476,-2.579104,0.999997,0.000224,-0.002895,0.005182,-0.000800,0.005260,-0.002973,-84.396930,0.005275,
1590,950,-1.434546,-5.462311,0.999997,0.000219,-0.002233,0.005573,-0.000578,0.005616,-0.002275,-85.789554,0.005649,
1020,660,0.390193,-7.529268,0.999997,0.000215,-0.002796,0.004960,-0.001169,0.005133,-0.002969,-81.612178,0.005154,
800,1610,0.774531,-1.911928,0.999998,0.000204,-0.002419,0.005001,0.000140,0.005004,-0.002422,88.917758,0.005005,
1740,1120,-1.751703,-4.584750,0.999997,0.000190,-0.002282,0.004968,0.000408,0.004991,-0.002304,86.790693,0.004996,
1070,2000,0.016750,-0.109330,0.999998,0.000157,-0.000132,0.003083,-0.000205,0.003096,-0.000145,-86.372880,0.003494,
790,1130,1.588878,-4.515933,0.999997,0.000236,-0.002396,0.005248,-0.000535,0.005285,-0.002433,-86.017774,0.005291,
1680,630,-1.065402,-7.176023,0.999998,0.000148,-0.002861,0.005400,0.000013,0.005400,-0.002861,89.912628,0.005403,
720,1220,1.610826,-4.081239,0.999997,0.000211,-0.002571,0.005194,-0.000530,0.005230,-0.002607,-86.109239,0.005230,
890,350,0.463778,-8.753674,0.999997,0.000193,-0.002028,0.004568,-0.000073,0.004569,-0.002029,-89.366925,0.004578,
1430,220,-0.146783,-9.400937,0.999998,0.000186,-0.000938,0.003667,-0.000131,0.003670,-0.000941,-88.367425,0.003813,
1830,370,-1.078350,-8.279176,0.999998,0.000179,-0.002475,0.005050,0.000049,0.005050,-0.002476,89.623683,0.005051,
1060,1880,0.091307,-0.507199,0.999998,0.000195,-0.000668,0.003483,-0.000160,0.003489,-0.000674,-87.798719,0.003702,
1520,1190,-1.028883,-4.017355,0.999998,0.000179,-0.003414,0.006513,0.000413,0.006530,-0.003431,87.622928,0.006533,
1870,800,-1.863142,-6.050959,0.999998,0.000200,-0.002316,0.004661,-0.000162,0.004665,-0.002320,-88.671503,0.004665,
1790,1390,-1.424393,-3.249419,0.999997,0.000200,-0.002623,0.005184,0.000167,0.005188,-0.002627,88.771574,0.005188,
1740,530,-1.083194,-7.609121,0.999998,0.000173,-0.002618,0.005167,0.000101,0.005168,-0.002619,89.256319,0.005168,
1510,50,-0.032302,-9.979093,0.999998,0.000142,-0.000246,0.003271,-0.000432,0.003323,-0.000298,-83.094661,0.003677,
1270,150,-0.015624,-9.677089,0.999998,0.000156,-0.000421,0.003251,-0.000043,0.003251,-0.000421,-89.323819,0.003536,
1820,230,-0.785559,-9.008916,0.999998,0.000154,-0.002366,0.005086,-0.000305,0.005098,-0.002379,-87.663204,0.005102,
1370,530,-0.197058,-8.250992,0.999998,0.000158,-0.001765,0.003936,0.000741,0.004030,-0.001860,82.709607,0.004034,
1310,1590,-0.100715,-1.518942,0.999998,0.000175,-0.001369,0.003633,-0.000349,0.003657,-0.001394,-86.023723,0.003691,
970,1850,0.188618,-0.650391,0.999998,0.000181,-0.001078,0.003847,-0.000265,0.003861,-0.001093,-86.925216,0.003980,
680,1420,1.356571,-3.082419,0.999997,0.000194,-0.002677,0.005181,-0.000126,0.005183,-0.002679,-89.082708,0.005184,
1710,200,-0.477332,-9.306978,0.999997,0.000184,-0.001698,0.004821,-0.000761,0.004909,-0.001786,-83.429160,0.004969,
1340,790,-0.186472,-7.372473,0.999997,0.000212,-0.002617,0.003605,0.002250,0.004333,-0.003346,72.061476,0.004542,
810,220,0.417408,-9.265727,0.999998,0.000185,-0.001685,0.004551,0.000509,0.004593,-0.001727,85.363483,0.004639,
890,1620,0.555652,-1.725670,0.999997,0.000212,-0.002181,0.004743,0.000253,0.004752,-0.002190,87.907035,0.004757,
630,1810,0.851619,-1.172692,0.999998,0.000178,-0.002414,0.005059,-0.000148,0.005061,-0.002417,-88.867275,0.005063,
930,1050,1.395234,-4.909806,0.999998,0.000193,-0.001846,0.005892,-0.000239,0.005899,-0.001854,-88.233955,0.006034,
1410,1010,-1.062950,-5.263720,0.999988,0.000454,-0.005116,0.012732,0.001017,0.012790,-0.005174,86.750418,0.012867,
1250,300,-0.018510,-9.168960,0.999999,0.000161,-0.000920,0.003497,0.000048,0.003498,-0.000921,89.381898,0.003626,
1040,430,0.259410,-8.580912,0.999998,0.000185,-0.001628,0.004066,-0.000361,0.004088,-0.001651,-86.389108,0.004114,
850,830,1.239660,-6.134821,0.999997,0.000191,-0.003055,0.005867,0.000583,0.005905,-0.003093,86.278337,0.005907,
1240,1430,-0.009307,-2.005540,0.999999,0.000121,-0.001142,0.002820,-0.000141,0.002825,-0.001148,-87.959770,0.002842,
1710,30,-0.030980,-10.038578,0.999999,0.000000,0.000080,0.003837,-0.001424,0.004316,-0.000399,-71.411616,0.004770,
1420,1870,-0.110532,-0.548142,0.999998,0.000158,-0.000810,0.003540,0.000173,0.003547,-0.000817,87.721811,0.003715,
1160,1500,0.092844,-1.833389,0.999998,0.000151,-0.001425,0.003428,0.000561,0.003492,-0.001489,83.496998,0.003505,
570,1980,0.411361,-0.402475,0.999848,0.001402,-0.002141,0.005782,-0.002339,0.006421,-0.002780,-74.723907,0.006440,
1750,1660,-0.919735,-1.796260,0.999998,0.000203,-0.002453,0.005090,-0.000078,0.005090,-0.002454,-89.409022,0.005091,
570,1490,1.545454,-2.908583,0.999398,0.002877,-0.004119,0.003833,0.001051,0.003970,-0.004256,82.597352,0.004758,
1400,1340,-0.297216,-2.675470,0.999997,0.000194,-0.002888,0.004747,-0.001649,0.005088,-0.003229,-78.319856,0.005149,
1370,1960,-0.034044,-0.235804,0.999998,0.000149,-0.000235,0.003209,0.000194,0.003220,-0.000246,86.781303,0.003584,
1150,1680,0.089342,-1.191995,0.999999,0.000135,-0.001168,0.003646,0.000139,0.003650,-0.001172,88.345800,0.003727,
1100,1440,0.189670,-2.142513,0.999998,0.000152,-0.001860,0.003848,0.001057,0.004038,-0.002049,79.843008,0.004038,
1660,1530,-0.866432,-2.313324,0.999997,0.000179,-0.002626,0.005184,-0.000200,0.005189,-0.002631,-88.534249,0.005190,
1710,1650,-0.834187,-1.782707,0.999998,0.000163,-0.002419,0.005040,-0.000092,0.005041,-0.002420,-89.291015,0.005043,
1300,550,-0.088738,-8.268951,0.999998,0.000164,-0.001450,0.003420,0.000506,0.003472,-0.001502,84.126415,0.003483,
1540,1640,-0.463702,-1.583196,0.999997,0.000205,-0.002045,0.004579,-0.000252,0.004589,-0.002054,-87.824508,0.004597,
1500,1400,-0.554761,-2.683612,0.999997,0.000213,-0.003028,0.005364,-0.000808,0.005441,-0.003105,-84.552113,0.005459,
1060,2000,0.016874,-0.109987,0.999999,0.000133,-0.000178,0.003084,-0.000223,0.003099,-0.000193,-86.109383,0.003472,
1460,1360,-0.464860,-2.785003,0.999997,0.000221,-0.003189,0.005353,-0.001120,0.005497,-0.003334,-82.650668,0.005539,
570,1230,1.952887,-4.174863,0.999997,0.000192,-0.002290,0.004598,-0.000063,0.004599,-0.002290,-89.479047,0.004599,
1870,810,-1.878572,-6.004352,0.999998,0.000191,-0.002295,0.004616,-0.000163,0.004620,-0.002298,-88.647091,0.004620,
940,1350,0.687241,-3.022235,0.999997,0.000200,-0.003366,0.005753,0.000562,0.005787,-0.003400,86.487757,0.005816,
1060,1860,0.104470,-0.577970,0.999998,0.000210,-0.000757,0.003558,-0.000137,0.003563,-0.000762,-88.180376,0.003752,
1790,1370,-1.461172,-3.353185,0.999997,0.000208,-0.002643,0.005159,0.000236,0.005167,-0.002650,88.266611,0.005167,
1190,1510,0.052515,-1.775595,0.999998,0.000163,-0.001273,0.003321,0.000251,0.003334,-0.001286,86.881725,0.003363,
560,1340,1.811982,-3.664685,0.999934,0.000000,-0.003466,0.004876,0.000306,0.004887,-0.003477,87.905278,0.005031,
1100,1550,0.180144,-1.718065,0.999998,0.000151,-0.001624,0.003842,0.000587,0.003904,-0.001687,83.943854,0.003916,
1470,1140,-1.028900,-4.220181,0.999997,0.000194,-0.003249,0.007070,0.000129,0.007071,-0.003251,89.286366,0.007079,
790,1110,1.612116,-4.619402,0.999997,0.000205,-0.002260,0.005173,-0.000485,0.005205,-0.002291,-86.279580,0.005217,
720,1200,1.644529,-4.185577,0.999998,0.000192,-0.002514,0.005098,-0.000526,0.005135,-0.002550,-86.062811,0.005135,
1370,510,-0.192422,-8.331087,0.999998,0.000152,-0.001709,0.003876,0.000655,0.003951,-0.001785,83.400171,0.003958,
1880,1510,-1.464115,-2.768650,0.999996,0.000231,-0.002556,0.005084,0.000024,0.005085,-0.002556,89.817166,0.005085,
1270,130,-0.015056,-9.739427,0.999998,0.000161,-0.000337,0.003181,-0.000024,0.003182,-0.000337,-89.613088,0.003496,
790,100,0.187289,-9.777161,0.999998,0.000188,-0.000947,0.004044,0.000997,0.004236,-0.001139,79.109242,0.004385,
960,1070,1.311906,-4.767632,0.999997,0.000224,-0.002072,0.006454,-0.000382,0.006471,-0.002089,-87.442668,0.006605,
1800,230,-0.738725,-9.039829,0.999998,0.000184,-0.002276,0.005079,-0.000448,0.005106,-0.002303,-86.529032,0.005114,
680,1400,1.391277,-3.186713,0.999997,0.000208,-0.002660,0.005191,-0.000143,0.005194,-0.002663,-88.958535,0.005194,
1710,220,-0.524002,-9.209660,0.999997,0.000202,-0.001826,0.004780,-0.000633,0.004840,-0.001886,-84.577434,0.004880,
930,1030,1.406396,-5.026237,0.999998,0.000191,-0.001757,0.005729,-0.000010,0.005729,-0.001757,-89.921571,0.005870,
1310,1570,-0.099588,-1.592227,0.999998,0.000162,-0.001417,0.003587,-0.000394,0.003618,-0.001448,-85.526306,0.003642,
630,1790,0.896735,-1.275629,0.999998,0.000168,-0.002409,0.005081,-0.000109,0.005083,-0.002410,-89.164768,0.005085,
970,1870,0.167146,-0.573317,0.999998,0.000153,-0.000996,0.003772,-0.000283,0.003788,-0.001013,-86.619882,0.003923,
810,200,0.378396,-9.355942,0.999998,0.000186,-0.001568,0.004506,0.000611,0.004567,-0.001629,84.314626,0.004629,
1320,790,-0.138630,-7.482415,0.999997,0.000187,-0.002150,0.002888,0.002105,0.003651,-0.002913,70.056653,0.003861,
1630,510,-0.769543,-7.892246,0.999997,0.000191,-0.002597,0.005102,0.000277,0.005112,-0.002607,87.944236,0.005112,
1020,640,0.379192,-7.625367,0.999997,0.000207,-0.002679,0.004766,-0.001122,0.004931,-0.002845,-81.612174,0.004951,
1680,610,-1.034275,-7.284352,0.999998,0.000133,-0.002814,0.005363,0.000066,0.005364,-0.002815,89.538040,0.005366,
1040,410,0.252355,-8.663243,0.999997,0.000207,-0.001579,0.004066,-0.000319,0.004084,-0.001597,-86.771982,0.004116,
750,730,1.332698,-6.586027,0.999997,0.000237,-0.002821,0.005417,0.000334,0.005430,-0.002835,87.678747,0.005432,
1410,1000,-1.055990,-5.393579,0.999985,0.000480,-0.004915,0.012408,0.001590,0.012553,-0.005060,84.798756,0.012631,
1590,930,-1.399702,-5.573866,0.999997,0.000216,-0.002392,0.005701,-0.000686,0.005758,-0.002450,-85.186893,0.005780,
870,1620,0.599013,-1.754722,0.999997,0.000212,-0.002224,0.004792,0.000238,0.004800,-0.002232,88.055748,0.004804,
1600,650,-0.857319,-7.201784,0.999997,0.000186,-0.003055,0.005544,0.000212,0.005549,-0.003060,88.591119,0.005559,
890,330,0.443232,-8.844267,0.999998,0.000181,-0.001930,0.004543,-0.000022,0.004543,-0.001930,-89.803068,0.004560,
1070,1740,0.161334,-1.015584,0.999998,0.000164,-0.001116,0.003764,0.000045,0.003765,-0.001116,89.469709,0.003867,
1460,1340,-0.486695,-2.892428,0.999997,0.000215,-0.003323,0.005457,-0.001132,0.005600,-0.003466,-82.771380,0.005653,
850,810,1.194094,-6.253212,0.999997,0.000193,-0.003136,0.005895,0.000481,0.005921,-0.003162,86.957042,0.005925,
1050,2000,0.019686,-0.110344,0.999999,0.000120,-0.000205,0.003098,-0.000256,0.003117,-0.000224,-85.592815,0.003477,
1700,2020,-0.051817,-0.062750,0.999998,0.000000,-0.000061,0.003666,0.001216,0.004027,-0.000423,73.433383,0.004427,
1870,820,-1.893803,-5.958521,0.999997,0.000182,-0.002282,0.004618,-0.000162,0.004621,-0.002286,-88.653598,0.004621,
1240,1410,-0.009343,-2.060446,0.999999,0.000132,-0.001102,0.002688,-0.000130,0.002692,-0.001107,-88.042161,0.002706,
1230,1680,0.001789,-1.172173,0.999998,0.000148,-0.001120,0.003516,0.000002,0.003516,-0.001120,89.980793,0.003592,
1430,1260,-0.495675,-3.236715,0.999996,0.000231,-0.003825,0.005957,-0.001349,0.006140,-0.004008,-82.290021,0.006234,
1840,1790,-0.912707,-1.289435,0.999998,0.000171,-0.002407,0.005027,0.000082,0.005028,-0.002407,89.371297,0.005030,
1300,530,-0.087764,-8.337900,0.999998,0.000173,-0.001424,0.003494,0.000437,0.003532,-0.001463,84.956305,0.003550,
1640,1530,-0.813279,-2.280947,0.999998,0.000169,-0.002641,0.005157,-0.000237,0.005164,-0.002648,-88.258310,0.005165,
1540,1620,-0.484230,-1.677522,0.999998,0.000202,-0.002157,0.004675,-0.000314,0.004689,-0.002172,-87.375874,0.004694,
1230,300,0.001321,-9.171002,0.999998,0.000142,-0.000965,0.003484,-0.000012,0.003484,-0.000965,-89.851595,0.003597,
970,1890,0.148879,-0.499962,0.999998,0.000169,-0.000870,0.003694,-0.000347,0.003720,-0.000896,-85.677280,0.003883,
560,1330,1.830115,-3.719372,0.999960,0.000000,-0.003240,0.005148,0.000193,0.005152,-0.003245,88.684448,0.005210,
1110,1270,0.216901,-2.765233,0.999997,0.000196,-0.002795,0.003997,0.002257,0.004679,-0.003477,73.197022,0.004860,
1160,1520,0.092796,-1.761485,0.999998,0.000152,-0.001410,0.003478,0.000498,0.003528,-0.001461,84.239673,0.003546,
1710,1630,-0.862843,-1.883476,0.999998,0.000150,-0.002458,0.005053,-0.000099,0.005055,-0.002459,-89.247738,0.005055,
570,150,0.733993,-9.246389,0.999914,0.001180,-0.002801,0.005378,0.000396,0.005397,-0.002820,87.234757,0.005399,
660,1350,1.531683,-3.472113,0.999997,0.000218,-0.002626,0.005109,-0.000237,0.005116,-0.002633,-88.248245,0.005117,
1030,1560,0.301003,-1.781057,0.999998,0.000155,-0.001959,0.004247,0.000612,0.004307,-0.002019,84.421469,0.004310,
1500,1380,-0.574385,-2.792902,0.999997,0.000213,-0.003168,0.005492,-0.000810,0.005567,-0.003243,-84.702899,0.005592,
680,1380,1.426201,-3.291180,0.999997,0.000210,-0.002652,0.005184,-0.000189,0.005188,-0.002657,-88.617668,0.005189,
1470,1120,-1.099345,-4.362426,0.999998,0.000174,-0.002965,0.007189,0.000169,0.007192,-0.002968,89.046882,0.007229,
1630,240,-0.416393,-9.192388,0.999998,0.000179,-0.001538,0.004533,-0.000471,0.004569,-0.001574,-85.590815,0.004642,
630,1770,0.936195,-1.376638,0.999998,0.000170,-0.002410,0.005027,-0.000042,0.005027,-0.002411,-89.676098,0.005028,
1310,1550,-0.102711,-1.662756,0.999998,0.000154,-0.001442,0.003581,-0.000449,0.003621,-0.001482,-84.926615,0.003640,
930,1010,1.397958,-5.139233,0.999998,0.000173,-0.001798,0.005835,0.000216,0.005841,-0.001804,88.381293,0.005981,
720,1180,1.677966,-4.286087,0.999998,0.000198,-0.002460,0.005070,-0.000552,0.005110,-0.002500,-85.831856,0.005111,
1000,430,0.327382,-8.533126,0.999998,0.000191,-0.001844,0.004309,-0.000390,0.004333,-0.001869,-86.390176,0.004347,
1370,490,-0.188413,-8.409242,0.999998,0.000159,-0.001643,0.003881,0.000573,0.003940,-0.001702,84.142946,0.003952,
1890,330,-1.157462,-8.370873,0.999998,0.000155,-0.002422,0.004900,0.000034,0.004900,-0.002422,89.732921,0.004900,
750,710,1.295244,-6.695432,0.999997,0.000234,-0.002835,0.005404,0.000281,0.005413,-0.002845,88.051120,0.005416,
790,1310,1.244414,-3.529004,0.999997,0.000197,-0.002987,0.005610,-0.000339,0.005623,-0.003000,-87.744836,0.005627,
1050,1740,0.188074,-1.028505,0.999999,0.000145,-0.001347,0.003855,0.000099,0.003857,-0.001349,88.907577,0.003915,
1590,910,-1.356457,-5.689368,0.999998,0.000192,-0.002582,0.005734,-0.000698,0.005792,-0.002640,-85.232001,0.005800,
1450,820,-0.633205,-6.595925,0.999995,0.000248,-0.003918,0.006424,0.000917,0.006504,-0.003998,84.973368,0.006561,
1060,1840,0.116260,-0.649165,0.999998,0.000172,-0.000858,0.003608,-0.000110,0.003611,-0.000861,-88.586395,0.003772,
890,310,0.417493,-8.936069,0.999998,0.000172,-0.001809,0.004466,0.000066,0.004467,-0.001810,89.396927,0.004494,
910,1660,0.471989,-1.509058,0.999997,0.000186,-0.002022,0.004592,0.000177,0.004597,-0.002027,88.466264,0.004608,
680,310,0.862599,-8.659793,0.999998,0.000154,-0.002408,0.005035,0.000086,0.005036,-0.002409,89.341877,0.005038,
1270,110,-0.011792,-9.804430,0.999998,0.000162,-0.000276,0.003160,-0.000050,0.003161,-0.000276,-89.161980,0.003501,
1790,1350,-1.496496,-3.455046,0.999996,0.000219,-0.002633,0.005157,0.000263,0.005166,-0.002642,88.068013,0.005166,
1240,410,-0.009440,-8.782604,0.999998,0.000147,-0.001172,0.003544,0.000053,0.003545,-0.001172,89.352126,0.003612,
850,790,1.150193,-6.371283,0.999997,0.000197,-0.003196,0.005886,0.000399,0.005904,-0.003213,87.486954,0.005911,
1410,990,-1.043777,-5.512039,0.999991,0.000337,-0.004619,0.011916,0.002130,0.012186,-0.004890,82.775141,0.012265,
1550,580,-0.630073,-7.679313,0.999997,0.000224,-0.002743,0.005137,0.000504,0.005169,-0.002775,86.357498,0.005174,
1210,1680,0.024034,-1.176139,0.999998,0.000166,-0.001098,0.003540,0.000091,0.003542,-0.001100,88.872959,0.003625,
1570,1020,-1.468008,-5.082289,0.999997,0.000201,-0.001798,0.005484,-0.000110,0.005485,-0.001799,-89.137987,0.005592,
1030,940,1.005170,-5.836558,0.999998,0.000171,-0.003242,0.007698,-0.001056,0.007799,-0.003343,-84.535067,0.007826,
890,900,1.289678,-5.762013,0.999998,0.000205,-0.002728,0.005960,0.000722,0.006019,-0.002788,85.281821,0.006025,
1120,670,0.152374,-7.782378,0.999998,0.000141,-0.001872,0.003567,-0.001367,0.003891,-0.002196,-76.660229,0.003902,
560,1320,1.848921,-3.779194,0.999953,0.000000,-0.003077,0.005017,0.000174,0.005021,-0.003081,88.769139,0.005064,
650,50,0.133712,-9.946692,0.999998,0.000168,-0.000848,0.004466,0.001800,0.005018,-0.001400,72.941249,0.005179,
930,1430,0.625024,-2.601016,0.999997,0.000210,-0.002927,0.005298,0.000609,0.005343,-0.002971,85.790472,0.005354,
630,1990,0.230928,-0.230776,0.999997,0.000196,-0.002026,0.005099,-0.001405,0.005366,-0.002293,-79.240011,0.005385,
680,1350,1.476903,-3.447687,0.999997,0.000217,-0.002647,0.005161,-0.000261,0.005170,-0.002655,-88.088652,0.005171,
1170,300,0.057160,-9.161641,0.999999,0.000136,-0.000871,0.003533,0.000010,0.003533,-0.000871,89.872087,0.003681,
1310,1530,-0.102206,-1.736541,0.999998,0.000149,-0.001454,0.003528,-0.000496,0.003576,-0.001503,-84.373052,0.003592,
1110,1250,0.240326,-2.846805,0.999997,0.000233,-0.002892,0.004057,0.002302,0.004750,-0.003586,73.234366,0.004952,
980,380,0.330550,-8.725539,0.999998,0.000183,-0.001772,0.004291,-0.000232,0.004300,-0.001781,-87.808887,0.004321,
1030,1740,0.214343,-1.044190,0.999998,0.000202,-0.001349,0.003922,0.000077,0.003923,-0.001350,89.159319,0.003986,
1410,2000,-0.019953,-0.109647,0.999999,0.000148,-0.000185,0.003133,0.000257,0.003153,-0.000205,85.592756,0.003528,
1710,1610,-0.891146,-1.987045,0.999998,0.000171,-0.002500,0.005079,-0.000123,0.005081,-0.002502,-89.070966,0.005081,
810,750,1.194749,-6.548980,0.999997,0.000199,-0.003045,0.005702,0.000307,0.005712,-0.003056,87.991464,0.005717,
1160,1540,0.092959,-1.693198,0.999998,0.000163,-0.001414,0.003523,0.000426,0.003559,-0.001450,85.106408,0.003580,
1590,890,-1.312343,-5.804876,0.999998,0.000194,-0.002751,0.005874,-0.000726,0.005934,-0.002812,-85.223294,0.005937,
590,1420,1.588376,-3.216228,0.999998,0.000190,-0.002752,0.005144,-0.000100,0.005146,-0.002753,-89.272749,0.005150,
1370,470,-0.183892,-8.487723,0.999998,0.000146,-0.001578,0.003910,0.000492,0.003954,-0.001622,84.919006,0.003975,
1500,1360,-0.597024,-2.902305,0.999997,0.000207,-0.003320,0.005602,-0.000781,0.005670,-0.003387,-85.033391,0.005705,
1400,1320,-0.309417,-2.771312,0.999997,0.000191,-0.003051,0.004887,-0.001730,0.005248,-0.003411,-78.224626,0.005326,
570,1480,1.551776,-2.942086,0.999694,0.001924,-0.004221,0.003898,0.000692,0.003956,-0.004279,85.164696,0.004766,
1720,1330,-1.342997,-3.476117,0.999997,0.000260,-0.002845,0.005374,0.000320,0.005386,-0.002857,87.772887,0.005390,
1630,220,-0.383203,-9.282957,0.999997,0.000203,-0.001429,0.004410,-0.000533,0.004458,-0.001477,-84.828246,0.004542,
1000,530,0.378562,-8.091700,0.999998,0.000195,-0.002153,0.004510,-0.000671,0.004577,-0.002220,-84.303094,0.004577,
1210,1960,0.004722,-0.228698,0.999998,0.000163,-0.000255,0.003087,-0.000032,0.003087,-0.000255,-89.442845,0.003427,
1000,750,0.541123,-6.976136,0.999997,0.000198,-0.003649,0.005860,-0.001054,0.005975,-0.003764,-83.752472,0.006042,
1700,30,-0.034150,-10.036496,0.999999,0.000000,0.000055,0.003745,-0.001323,0.004171,-0.000370,-72.174182,0.004617,
1820,1790,-0.865204,-1.249936,0.999998,0.000168,-0.002404,0.005053,0.000182,0.005057,-0.002408,88.602973,0.005059,
1080,410,0.187209,-8.707720,0.999998,0.000186,-0.001454,0.003876,-0.000291,0.003891,-0.001469,-86.887821,0.003930,
1060,1820,0.127582,-0.721668,0.999998,0.000171,-0.000921,0.003670,-0.000084,0.003671,-0.000922,-88.953359,0.003820,
680,290,0.826475,-8.761085,0.999998,0.000167,-0.002382,0.005072,0.000150,0.005075,-0.002385,88.845887,0.005078,
1790,1330,-1.531821,-3.557872,0.999996,0.000207,-0.002603,0.005135,0.000298,0.005147,-0.002615,87.797899,0.005147,
1270,90,-0.010483,-9.867162,0.999998,0.000165,-0.000207,0.003081,-0.000053,0.003082,-0.000208,-89.072583,0.003445,
890,1680,0.492378,-1.442835,0.999997,0.000222,-0.002084,0.004639,0.000122,0.004641,-0.002086,88.964617,0.004649,
1550,1020,-1.434476,-5.080955,0.999998,0.000180,-0.001773,0.005587,-0.000094,0.005588,-0.001774,-89.264945,0.005711,
870,900,1.343774,-5.743646,0.999998,0.000187,-0.002646,0.005763,0.000723,0.005825,-0.002708,85.120566,0.005830,
1890,2010,-0.226219,-0.202408,0.999997,0.000190,-0.000381,0.006882,0.003412,0.008233,-0.001732,68.393711,0.008681,
680,1050,1.894670,-4.932981,0.999999,0.000133,-0.002177,0.004723,-0.000167,0.004727,-0.002181,-88.613701,0.004732,
1460,1320,-0.509531,-3.002928,0.999997,0.000188,-0.003503,0.005699,-0.001123,0.005834,-0.003638,-83.143403,0.005893,
850,770,1.107342,-6.489600,0.999997,0.000199,-0.003239,0.005904,0.000305,0.005914,-0.003249,88.090890,0.005923,
680,1360,1.459408,-3.395124,0.999997,0.000223,-0.002650,0.005181,-0.000237,0.005188,-0.002658,-88.267630,0.005189,
1120,650,0.154202,-7.852302,0.999998,0.000155,-0.001834,0.003551,-0.001244,0.003825,-0.002107,-77.599111,0.003831,
1220,1550,0.014112,-1.629092,0.999998,0.000174,-0.001264,0.003404,0.000118,0.003407,-0.001267,88.547948,0.003444,
1510,1140,-1.150924,-4.324600,0.999998,0.000192,-0.002918,0.006579,0.000596,0.006617,-0.002955,86.421181,0.006629,
650,40,0.090420,-9.989149,0.999999,0.000159,-0.000704,0.004325,0.001837,0.004925,-0.001304,71.925998,0.005103,
1860,1070,-2.050219,-4.853548,0.999998,0.000166,-0.002092,0.004307,0.000056,0.004308,-0.002092,89.494534,0.004308,
1110,1230,0.289209,-2.926517,0.999997,0.000236,-0.002991,0.004035,0.002227,0.004681,-0.003638,73.812040,0.004915,
720,1160,1.708430,-4.387485,0.999998,0.000179,-0.002388,0.005040,-0.000524,0.005077,-0.002425,-85.983236,0.005078,
930,1450,0.606036,-2.496685,0.999997,0.000209,-0.002828,0.005160,0.000582,0.005203,-0.002870,85.853581,0.005212,
980,360,0.315243,-8.809845,0.999998,0.000167,-0.001663,0.004184,-0.000176,0.004190,-0.001668,-88.278306,0.004219,
630,1750,0.973547,-1.477083,0.999998,0.000173,-0.002398,0.005052,-0.000027,0.005052,-0.002398,-89.792474,0.005055,
1310,1510,-0.103919,-1.804764,0.999998,0.000144,-0.001452,0.003501,-0.000553,0.003562,-0.001512,-83.709790,0.003575,
1210,300,0.020639,-9.168796,0.999999,0.000128,-0.000916,0.003497,-0.000048,0.003497,-0.000917,-89.371296,0.003627,
1160,1980,0.011032,-0.168466,0.999998,0.000148,-0.000147,0.003088,-0.000118,0.003092,-0.000151,-87.917281,0.003487,
1850,1660,-1.166720,-1.961853,0.999998,0.000175,-0.002495,0.005012,-0.000064,0.005013,-0.002495,-89.510299,0.005013,
1500,1340,-0.621681,-3.017053,0.999997,0.000207,-0.003459,0.005749,-0.000751,0.005810,-0.003519,-85.368111,0.005853,
1710,1590,-0.917007,-2.087811,0.999998,0.000165,-0.002530,0.005080,-0.000140,0.005083,-0.002533,-88.948991,0.005083,
1370,450,-0.179868,-8.565859,0.999998,0.000170,-0.001510,0.003880,0.000422,0.003912,-0.001543,85.550113,0.003941,
1690,2020,-0.046683,-0.064134,0.999998,0.000000,-0.000248,0.003587,0.001068,0.003864,-0.000525,75.442091,0.004192,
980,750,0.614949,-6.907276,0.999997,0.000199,-0.003655,0.005959,-0.000797,0.006025,-0.003721,-85.290558,0.006080,
560,1430,1.681822,-3.215417,0.999591,0.000000,-0.005139,0.005520,0.000342,0.005531,-0.005150,88.162236,0.006178,
1610,50,-0.056041,-9.974316,0.999998,0.000175,-0.000219,0.003463,-0.000791,0.003626,-0.000382,-78.370624,0.003985,
1010,1500,0.366930,-2.080904,0.999997,0.000196,-0.002234,0.004508,0.000764,0.004593,-0.002319,83.613894,0.004593,
1570,160,-0.206047,-9.570865,0.999998,0.000187,-0.001004,0.003940,-0.000565,0.004004,-0.001068,-83.559175,0.004146,
1000,510,0.369922,-8.180615,0.999997,0.000199,-0.002086,0.004453,-0.000600,0.004508,-0.002140,-84.798109,0.004510,
1400,2000,-0.017705,-0.108762,0.999999,0.000148,-0.000149,0.003119,0.000248,0.003138,-0.000168,85.677524,0.003530,
1040,530,0.292691,-8.165219,0.999998,0.000166,-0.002057,0.004270,-0.000741,0.004356,-0.002143,-83.408231,0.004356,
1560,1790,-0.341745,-0.937333,0.999998,0.000166,-0.001426,0.004246,0.000250,0.004257,-0.001437,87.476920,0.004331,
1790,1310,-1.569038,-3.662973,0.999997,0.000206,-0.002578,0.005140,0.000333,0.005154,-0.002592,87.532149,0.005154,
1060,1800,0.141614,-0.795852,0.999998,0.000154,-0.001008,0.003652,-0.000051,0.003652,-0.001009,-89.373201,0.003772,
890,1660,0.515330,-1.536089,0.999997,0.000237,-0.002110,0.004691,0.000160,0.004695,-0.002113,88.656848,0.004703,
1580,990,-1.469330,-5.244622,0.999997,0.000202,-0.001972,0.005465,-0.000344,0.005481,-0.001988,-87.357704,0.005549,
800,640,1.031187,-7.147848,0.999998,0.000159,-0.002914,0.005429,-0.000019,0.005429,-0.002914,-89.866151,0.005434,
1780,250,-0.739268,-8.968073,0.999998,0.000169,-0.002329,0.005025,-0.000318,0.005038,-0.002343,-87.527542,0.005042,
1410,980,-1.032320,-5.626023,0.999991,0.000344,-0.004313,0.011191,0.002540,0.011597,-0.004718,80.928578,0.011664,
1590,870,-1.263834,-5.924598,0.999997,0.000204,-0.002926,0.005918,-0.000667,0.005968,-0.002976,-85.710558,0.005968,
1270,70,-0.005540,-9.926237,0.999999,0.000141,-0.000136,0.003057,-0.000068,0.003059,-0.000138,-88.778800,0.003455,
680,1340,1.494315,-3.498415,0.999997,0.000203,-0.002647,0.005161,-0.000290,0.005172,-0.002657,-87.875299,0.005172,
1490,1140,-1.092673,-4.282085,0.999998,0.000151,-0.003073,0.006801,0.000393,0.006816,-0.003088,87.723202,0.006826,
1130,1560,0.134566,-1.650647,0.999998,0.000141,-0.001424,0.003661,0.000441,0.003699,-0.001462,85.084711,0.003726,
1200,490,0.040257,-8.495074,0.999998,0.000170,-0.001242,0.003453,-0.000173,0.003459,-0.001249,-87.887700,0.003503,
620,970,2.009952,-5.296485,0.999998,0.000151,-0.002121,0.004391,0.000055,0.004392,-0.002122,89.515076,0.004392,
850,750,1.067191,-6.607394,0.999998,0.000201,-0.003229,0.005846,0.000204,0.005850,-0.003234,88.713188,0.005861,
1110,1210,0.347265,-3.008118,0.999996,0.000239,-0.002689,0.003958,0.002206,0.004624,-0.003354,73.213565,0.004778,
650,160,0.573007,-9.383864,0.999997,0.000215,-0.002097,0.005222,0.000845,0.005319,-0.002194,83.497049,0.005346,
1310,1490,-0.103480,-1.876560,0.999999,0.000140,-0.001473,0.003428,-0.000603,0.003501,-0.001546,-83.082580,0.003509,
930,1470,0.589778,-2.393869,0.999997,0.000201,-0.002744,0.005126,0.000575,0.005167,-0.002786,85.843168,0.005173,
980,340,0.299575,-8.895050,0.999998,0.000167,-0.001565,0.004176,-0.000107,0.004178,-0.001567,-88.930615,0.004222,
1860,1110,-2.030753,-4.681756,0.999999,0.000139,-0.002153,0.004416,0.000148,0.004419,-0.002156,88.713847,0.004419,
630,1710,1.043108,-1.679291,0.999998,0.000188,-0.002404,0.005037,0.000015,0.005037,-0.002404,89.880767,0.005039,
1630,1040,-1.579753,-4.974396,0.999998,0.000180,-0.001939,0.005200,0.000130,0.005202,-0.001942,88.960836,0.005258,
1710,1570,-0.943343,-2.189765,0.999998,0.000180,-0.002574,0.005106,-0.000143,0.005109,-0.002577,-88.931093,0.005109,
1500,1320,-0.651398,-3.133524,0.999996,0.000211,-0.003570,0.005897,-0.000658,0.005942,-0.003616,-86.043964,0.005989,
1830,1660,-1.116727,-1.927823,0.999998,0.000163,-0.002493,0.005059,-0.000079,0.005060,-0.002494,-89.398613,0.005060,
1370,430,-0.176064,-8.642655,0.999997,0.000192,-0.001422,0.003847,0.000337,0.003868,-0.001444,86.355079,0.003910,
1420,410,-0.246055,-8.665798,0.999998,0.000176,-0.001593,0.004041,0.000338,0.004062,-0.001613,86.578804,0.004090,
1190,300,0.038696,-9.166337,0.999999,0.000132,-0.000892,0.003517,-0.000013,0.003517,-0.000892,-89.826939,0.003657,
1850,100,-0.435394,-9.621936,0.999997,0.000208,-0.002364,0.005323,-0.000997,0.005450,-0.002492,-82.729150,0.005457,
560,1310,1.858207,-3.824380,0.999960,0.000000,-0.002891,0.004677,0.000296,0.004689,-0.002903,87.761090,0.004733,
1160,1960,0.015618,-0.229702,0.999998,0.000167,-0.000204,0.003124,-0.000114,0.003128,-0.000208,-88.044760,0.003498,
1610,40,-0.039640,-10.007857,0.999998,0.000163,-0.000139,0.003385,-0.000785,0.003552,-0.000307,-77.989748,0.003937,
1790,1290,-1.604540,-3.763221,0.999997,0.000207,-0.002563,0.005094,0.000371,0.005112,-0.002581,87.229563,0.005112,
1060,1780,0.153278,-0.868945,0.999998,0.000146,-0.001092,0.003758,-0.000016,0.003758,-0.001092,-89.814204,0.003867,
830,420,0.673688,-8.339078,0.999997,0.000196,-0.002314,0.004927,-0.000148,0.004930,-0.002317,-88.833202,0.004933,
1580,970,-1.443768,-5.355451,0.999997,0.000217,-0.002067,0.005562,-0.000523,0.005597,-0.002103,-86.094958,0.005655,
1390,2000,-0.016909,-0.108966,0.999999,0.000150,-0.000122,0.003097,0.000232,0.003114,-0.000138,85.902323,0.003518,
1020,620,0.370702,-7.719063,0.999997,0.000194,-0.002585,0.004695,-0.001069,0.004849,-0.002739,-81.814070,0.004863,
1630,490,-0.746714,-7.996009,0.999997,0.000199,-0.002509,0.005073,0.000259,0.005082,-0.002518,88.047664,0.005082,
800,680,1.097898,-6.929301,0.999998,0.000189,-0.002992,0.005499,0.000088,0.005500,-0.002993,89.408188,0.005507,
1170,1300,0.069956,-2.395003,0.999997,0.000215,-0.001518,0.002235,0.001508,0.002766,-0.002048,70.605341,0.002870,
1690,300,-0.634621,-8.845587,0.999997,0.000208,-0.002157,0.004852,-0.000180,0.004857,-0.002162,-88.526557,0.004867,
1040,510,0.287234,-8.251150,0.999998,0.000169,-0.001953,0.004226,-0.000625,0.004289,-0.002016,-84.284027,0.004291,
1260,1980,-0.006513,-0.166946,0.999999,0.000165,-0.000176,0.003053,0.000064,0.003054,-0.000178,88.856969,0.003429,
670,1860,0.634772,-0.850337,0.999997,0.000196,-0.002174,0.005098,-0.000663,0.005158,-0.002234,-84.834906,0.005173,
1190,1490,0.052027,-1.840889,0.999998,0.000176,-0.001280,0.003226,0.000298,0.003245,-0.001299,86.235477,0.003267,
1590,850,-1.215952,-6.042995,0.999997,0.000187,-0.003056,0.005987,-0.000601,0.006027,-0.003096,-86.214565,0.006028,
850,730,1.028814,-6.723865,0.999998,0.000189,-0.003209,0.005806,0.000116,0.005808,-0.003210,89.263180,0.005819,
580,1420,1.612904,-3.231897,0.999997,0.000204,-0.003437,0.005206,-0.000084,0.005207,-0.003438,-89.444866,0.005295,
1660,640,-1.022522,-7.152922,0.999998,0.000163,-0.002916,0.005441,0.000030,0.005441,-0.002916,89.795487,0.005446,
1310,1470,-0.102186,-1.944102,0.999998,0.000165,-0.001467,0.003344,-0.000671,0.003436,-0.001559,-82.210360,0.003441,
930,1490,0.571040,-2.292027,0.999997,0.000201,-0.002678,0.005071,0.000555,0.005110,-0.002717,85.924475,0.005114,
1110,1190,0.440112,-3.080781,0.999996,0.000234,-0.002072,0.003414,0.002062,0.004102,-0.002761,71.531669,0.004183,
930,1760,0.339713,-1.045671,0.999998,0.000167,-0.001478,0.004246,-0.000109,0.004248,-0.001480,-88.909979,0.004313,
1410,970,-1.010704,-5.734308,0.999993,0.000332,-0.003916,0.010392,0.002826,0.010930,-0.004454,79.221755,0.010993,
580,900,2.031019,-5.583985,0.999999,0.000150,-0.002082,0.004363,0.000072,0.004364,-0.002083,89.363822,0.004366,
980,320,0.283168,-8.976721,0.999998,0.000172,-0.001449,0.004148,-0.000007,0.004148,-0.001449,-89.927823,0.004210,
700,110,0.315425,-9.686418,0.999997,0.000196,-0.001722,0.004695,0.001171,0.004902,-0.001929,79.975112,0.004939,
630,1690,1.076978,-1.780352,0.999998,0.000178,-0.002440,0.005030,0.000020,0.005030,-0.002440,89.850254,0.005031,
770,680,1.184335,-6.885189,0.999997,0.000217,-0.002916,0.005432,0.000137,0.005434,-0.002918,89.058053,0.005439,
1500,1300,-0.685684,-3.254216,0.999996,0.000217,-0.003639,0.006101,-0.000579,0.006136,-0.003673,-86.608668,0.006175,
1460,90,-0.056760,-9.852213,0.999998,0.000157,-0.000281,0.003337,-0.000375,0.003376,-0.000320,-84.138590,0.003727,
1120,530,0.151957,-8.292908,0.999998,0.000154,-0.001543,0.003687,-0.000560,0.003746,-0.001603,-83.952105,0.003759,
1730,1660,-0.870749,-1.764187,0.999998,0.000200,-0.002447,0.005054,-0.000080,0.005054,-0.002448,-89.387369,0.005055,
1710,1550,-0.972162,-2.293402,0.999998,0.000165,-0.002602,0.005136,-0.000141,0.005139,-0.002604,-88.956370,0.005139,
1070,1960,0.038219,-0.235919,0.999998,0.000153,-0.000284,0.003229,-0.000239,0.003245,-0.000300,-86.121255,0.003587,
1150,300,0.073591,-9.158020,0.999999,0.000125,-0.000958,0.003537,-0.000039,0.003537,-0.000959,-89.500076,0.003658,
1400,1300,-0.327122,-2.870002,0.999997,0.000198,-0.003246,0.005027,-0.001809,0.005405,-0.003625,-78.189510,0.005509,
1410,340,-0.196828,-8.957035,0.999998,0.000163,-0.001376,0.003859,0.000158,0.003864,-0.001381,88.273296,0.003916,
1370,410,-0.171020,-8.718897,0.999998,0.000170,-0.001352,0.003761,0.000263,0.003774,-0.001365,87.065163,0.003822,
1860,1090,-2.042913,-4.768464,0.999998,0.000174,-0.002120,0.004295,0.000034,0.004296,-0.002120,89.700339,0.004296,
560,1290,1.878422,-3.910963,0.999975,0.000000,-0.002702,0.004685,-0.000037,0.004685,-0.002702,-89.710502,0.004703,
620,950,1.998970,-5.384207,0.999998,0.000168,-0.002158,0.004500,0.000162,0.004504,-0.002162,88.606861,0.004505,
1160,1940,0.020410,-0.293867,0.999998,0.000163,-0.000269,0.003176,-0.000116,0.003180,-0.000273,-88.078613,0.003525,
1790,1270,-1.640627,-3.867719,0.999997,0.000213,-0.002537,0.005053,0.000411,0.005075,-0.002559,86.912752,0.005075,
680,730,1.522956,-6.504506,0.999997,0.000194,-0.002593,0.005173,0.000323,0.005186,-0.002607,87.624935,0.005186,
1060,1760,0.163849,-0.944470,0.999998,0.000148,-0.001179,0.003780,0.000033,0.003780,-0.001179,89.613511,0.003868,
720,1140,1.735941,-4.489081,0.999998,0.000170,-0.002302,0.004987,-0.000430,0.005012,-0.002327,-86.637315,0.005016,
710,340,0.841177,-8.557062,0.999997,0.000185,-0.002384,0.005046,0.000006,0.005046,-0.002384,89.950459,0.005048,
1780,230,-0.693929,-9.069112,0.999998,0.000174,-0.002284,0.005017,-0.000418,0.005041,-0.002308,-86.734951,0.005047,
1820,670,-1.512955,-6.764074,0.999998,0.000168,-0.002604,0.005092,-0.000167,0.005096,-0.002608,-88.757156,0.005096,
1630,1020,-1.581686,-5.078699,0.999998,0.000178,-0.001933,0.005182,-0.000106,0.005184,-0.001935,-89.148977,0.005239,
1460,1300,-0.537280,-3.123050,0.999997,0.000205,-0.003681,0.005928,-0.001059,0.006044,-0.003796,-83.786753,0.006109,
810,190,0.357380,-9.402044,0.999998,0.000185,-0.001514,0.004449,0.000647,0.004518,-0.001583,83.878057,0.004585,
1590,830,-1.166225,-6.164684,0.999997,0.000176,-0.003184,0.006004,-0.000504,0.006032,-0.003211,-86.867869,0.006036,
1310,2000,-0.008116,-0.107423,0.999999,0.000151,-0.000088,0.003028,0.000116,0.003032,-0.000092,87.867128,0.003450,
1040,590,0.312125,-7.903353,0.999998,0.000175,-0.002235,0.004386,-0.000936,0.004516,-0.002365,-82.105716,0.004517,
1690,30,-0.033490,-10.036950,0.999998,0.000000,-0.000041,0.003663,-0.001192,0.004013,-0.000391,-73.619524,0.004426,
1260,1960,-0.007032,-0.228769,0.999999,0.000142,-0.000237,0.003099,0.000022,0.003099,-0.000237,89.618239,0.003449,
1310,1450,-0.101401,-2.009101,0.999999,0.000147,-0.001466,0.003293,-0.000750,0.003408,-0.001581,-81.257810,0.003411,
930,1930,0.131721,-0.365510,0.999998,0.000168,-0.000587,0.003720,-0.000537,0.003786,-0.000653,-83.004916,0.004047,
810,420,0.720161,-8.308501,0.999998,0.000180,-0.002356,0.004933,-0.000140,0.004935,-0.002359,-88.902236,0.004937,
600,120,0.548955,-9.482252,0.999997,0.000204,-0.002385,0.005378,0.000754,0.005450,-0.002458,84.501324,0.005459,
1500,1280,-0.722767,-3.379558,0.999997,0.000209,-0.003722,0.006253,-0.000490,0.006277,-0.003746,-87.191885,0.006317,
910,1420,0.695282,-2.700191,0.999997,0.000222,-0.003013,0.005448,0.000519,0.005479,-0.003045,86.505854,0.005491,
1550,110,-0.119371,-9.768601,0.999998,0.000175,-0.000494,0.003658,-0.000597,0.003742,-0.000578,-81.972990,0.004029,
1880,230,-0.931492,-8.880801,0.999998,0.000160,-0.002412,0.004888,-0.000110,0.004889,-0.002413,-89.133004,0.004889,
660,1010,1.938856,-5.121079,0.999998,0.000172,-0.002142,0.004664,0.000145,0.004667,-0.002145,88.781528,0.004672,
1740,1510,-1.104557,-2.548144,0.999997,0.000187,-0.002615,0.005236,-0.000061,0.005236,-0.002616,-89.558462,0.005236,
1560,1770,-0.366245,-1.022454,0.999999,0.000157,-0.001517,0.004319,0.000210,0.004326,-0.001524,87.945016,0.004388,
1170,1280,0.076300,-2.437361,0.999998,0.000175,-0.001621,0.002080,0.001630,0.002696,-0.002237,69.312356,0.002885,
980,300,0.265884,-9.059784,0.999998,0.000158,-0.001357,0.004039,0.000037,0.004039,-0.001358,89.608117,0.004111,
870,260,0.388902,-9.135508,0.999998,0.000178,-0.001717,0.004382,0.000262,0.004394,-0.001728,87.543091,0.004427,
1020,600,0.360957,-7.816801,0.999998,0.000188,-0.002457,0.004625,-0.000954,0.004751,-0.002583,-82.464045,0.004757,
1710,1700,-0.761912,-1.532844,0.999997,0.000192,-0.002276,0.004983,0.000065,0.004984,-0.002277,89.487096,0.004990,
1630,910,-1.455405,-5.665249,0.999997,0.000204,-0.002481,0.005503,-0.000699,0.005564,-0.002542,-85.036910,0.005571,
690,340,0.889502,-8.524288,0.999998,0.000168,-0.002412,0.005043,-0.000003,0.005043,-0.002412,-89.974304,0.005045,
1840,1110,-1.986216,-4.670548,0.999997,0.000186,-0.002156,0.004563,0.000223,0.004570,-0.002163,88.103083,0.004572,
1790,1250,-1.677901,-3.967705,0.999997,0.000196,-0.002487,0.004998,0.000422,0.005022,-0.002511,86.779517,0.005022,
560,1280,1.904034,-3.959877,0.999989,0.000000,-0.002635,0.004785,-0.000113,0.004787,-0.002637,-89.129303,0.004795,
1260,490,-0.035115,-8.496655,0.999999,0.000143,-0.001263,0.003454,0.000168,0.003460,-0.001269,87.959924,0.003501,
990,800,0.672944,-6.633999,0.999997,0.000220,-0.003858,0.006379,-0.000651,0.006420,-0.003899,-86.377498,0.006469,
1130,300,0.094236,-9.149648,0.999999,0.000129,-0.001055,0.003577,-0.000097,0.003579,-0.001057,-88.797494,0.003677,
600,140,0.625212,-9.374407,0.999997,0.000213,-0.002420,0.005247,0.000575,0.005290,-0.002463,85.737285,0.005294,
680,1320,1.533076,-3.602743,0.999998,0.000194,-0.002638,0.005185,-0.000337,0.005199,-0.002652,-87.535381,0.005200,
1310,1430,-0.098712,-2.075922,0.999999,0.000143,-0.001471,0.003225,-0.000829,0.003367,-0.001613,-80.275659,0.003368,
1260,1940,-0.009495,-0.291990,0.999999,0.000144,-0.000310,0.003168,0.000023,0.003168,-0.000310,89.613978,0.003493,
680,1370,1.442304,-3.343281,0.999998,0.000198,-0.002655,0.005193,-0.000218,0.005199,-0.002661,-88.409691,0.005199,
1460,1500,-0.382336,-2.093091,0.999997,0.000192,-0.002303,0.004561,-0.000766,0.004645,-0.002388,-83.713016,0.004646,
890,530,0.644687,-7.889938,0.999998,0.000187,-0.002593,0.005047,-0.000389,0.005066,-0.002612,-87.090386,0.005067,
1040,570,0.306885,-7.991163,0.999998,0.000177,-0.002195,0.004339,-0.000890,0.004458,-0.002314,-82.381502,0.004459,
1520,90,-0.080062,-9.844372,0.999999,0.000153,-0.000434,0.003432,-0.000502,0.003496,-0.000498,-82.717140,0.003782,
1610,1520,-0.746208,-2.280943,0.999997,0.000205,-0.002646,0.005172,-0.000297,0.005183,-0.002658,-87.824220,0.005184,
750,690,1.257979,-6.803986,0.999998,0.000225,-0.002830,0.005387,0.000212,0.005392,-0.002835,88.524715,0.005395,
1160,1920,0.025929,-0.357673,0.999998,0.000157,-0.000345,0.003225,-0.000098,0.003228,-0.000348,-88.430582,0.003544,
1170,1210,0.211734,-2.567111,0.999997,0.000173,-0.002533,0.001625,0.000537,0.001693,-0.002601,82.756378,0.002640,
1660,1490,-0.917422,-2.523349,0.999998,0.000155,-0.002736,0.005241,-0.000184,0.005245,-0.002740,-88.675840,0.005247,
810,160,0.296120,-9.532523,0.999997,0.000189,-0.001276,0.004317,0.000766,0.004420,-0.001379,82.344125,0.004523,
580,890,2.020404,-5.626434,0.999998,0.000152,-0.002106,0.004316,0.000053,0.004316,-0.002107,89.529594,0.004316,
1740,1100,-1.774298,-4.685643,0.999998,0.000181,-0.002239,0.004980,0.000380,0.004999,-0.002259,86.998803,0.005007,
1550,130,-0.147017,-9.693081,0.999998,0.000160,-0.000609,0.003764,-0.000575,0.003838,-0.000684,-82.631405,0.004095,
1770,1080,-1.854470,-4.789508,0.999998,0.000158,-0.002193,0.004752,0.000160,0.004755,-0.002197,88.682812,0.004760,
710,1060,1.825775,-4.881145,0.999998,0.000175,-0.002141,0.004787,-0.000156,0.004791,-0.002145,-88.708490,0.004799,
720,1120,1.758101,-4.589041,0.999998,0.000161,-0.002272,0.004944,-0.000401,0.004966,-0.002294,-86.832034,0.004971,
1710,1280,-1.409835,-3.735129,0.999997,0.000228,-0.002788,0.005444,0.000450,0.005469,-0.002813,86.879215,0.005470,
1000,650,0.439698,-7.522219,0.999997,0.000213,-0.002870,0.005041,-0.001029,0.005172,-0.003001,-82.710915,0.005194,
1060,1740,0.172423,-1.021765,0.999998,0.000154,-0.001236,0.003805,0.000075,0.003806,-0.001238,89.144143,0.003883,
1660,530,-0.871744,-7.739225,0.999999,0.000134,-0.002627,0.005131,0.000188,0.005135,-0.002632,88.610392,0.005136,
1660,620,-0.992694,-7.260925,0.999998,0.000164,-0.002869,0.005390,0.000097,0.005391,-0.002870,89.323938,0.005395,
1830,350,-1.044728,-8.380599,0.999998,0.000193,-0.002468,0.005050,0.000033,0.005051,-0.002468,89.751784,0.005051,
1740,1490,-1.132633,-2.653730,0.999998,0.000145,-0.002656,0.005226,-0.000067,0.005226,-0.002657,-89.511752,0.005227,
1680,2020,-0.045837,-0.061491,0.999998,0.000000,-0.000431,0.003561,0.000963,0.003781,-0.000651,77.127138,0.004043,
950,1160,1.099686,-4.198947,0.999998,0.000191,-0.003153,0.006575,-0.000537,0.006605,-0.003183,-86.849628,0.006606,
1540,1790,-0.315474,-0.922126,0.999998,0.000193,-0.001329,0.004148,0.000205,0.004156,-0.001337,87.854456,0.004243,
790,420,0.767813,-8.278116,0.999998,0.000191,-0.002398,0.004950,-0.000117,0.004952,-0.002400,-89.089821,0.004953,
1790,1230,-1.713293,-4.068385,0.999998,0.000172,-0.002436,0.004940,0.000405,0.004962,-0.002458,86.866256,0.004962,
690,320,0.855926,-8.626291,0.999999,0.000138,-0.002411,0.005046,0.000040,0.005046,-0.002411,89.689614,0.005048,
1730,1120,-1.727905,-4.581239,0.999997,0.000201,-0.002279,0.005002,0.000420,0.005026,-0.002303,86.710176,0.005032,
1880,220,-0.906631,-8.930745,0.999998,0.000152,-0.002419,0.004919,-0.000149,0.004922,-0.002422,-88.835533,0.004923,
1060,1830,0.121576,-0.685440,0.999998,0.000174,-0.000896,0.003650,-0.000092,0.003652,-0.000898,-88.836238,0.003806,
990,780,0.631120,-6.759305,0.999997,0.000230,-0.003798,0.006212,-0.000765,0.006270,-0.003856,-85.657030,0.006325,
1370,300,-0.133749,-9.131790,0.999998,0.000165,-0.001019,0.003704,0.000021,0.003704,-0.001019,89.749594,0.003827,
560,1270,1.928890,-4.010860,0.999993,0.000000,-0.002599,0.004647,-0.000095,0.004649,-0.002600,-89.247097,0.004659,
1120,630,0.153174,-7.924620,0.999998,0.000167,-0.001791,0.003593,-0.001102,0.003809,-0.002008,-78.871176,0.003811,
1500,1260,-0.765710,-3.507728,0.999997,0.000199,-0.003795,0.006396,-0.000346,0.006408,-0.003807,-88.056344,0.006445,
810,170,0.315877,-9.489417,0.999997,0.000187,-0.001369,0.004347,0.000725,0.004437,-0.001459,82.881630,0.004523,
980,280,0.248436,-9.139539,0.999998,0.000163,-0.001272,0.004047,0.000095,0.004048,-0.001274,88.980967,0.004140,
1630,930,-1.496286,-5.553911,0.999997,0.000216,-0.002324,0.005465,-0.000631,0.005515,-0.002375,-85.401224,0.005533,
1010,1790,0.203921,-0.862015,0.999998,0.000163,-0.001062,0.003870,-0.000106,0.003872,-0.001065,-88.773620,0.004001,
650,1460,1.370318,-2.921064,0.999997,0.000205,-0.002580,0.005114,-0.000030,0.005114,-0.002580,-89.776730,0.005114,
1540,1410,-0.667792,-2.725824,0.999997,0.000204,-0.003091,0.005439,-0.000553,0.005475,-0.003126,-86.308688,0.005493,
1310,1630,-0.092835,-1.371318,0.999998,0.000186,-0.001272,0.003631,-0.000239,0.003643,-0.001283,-87.215188,0.003695,
890,290,0.393579,-9.024317,0.999998,0.000169,-0.001712,0.004397,0.000148,0.004401,-0.001716,88.617083,0.004436,
680,1300,1.568040,-3.707480,0.999998,0.000189,-0.002622,0.005137,-0.000354,0.005153,-0.002638,-87.396577,0.005153,
1260,1920,-0.011123,-0.354900,0.999999,0.000131,-0.000374,0.003202,0.000033,0.003202,-0.000375,89.475704,0.003501,
1450,1690,-0.269984,-1.258757,0.999998,0.000184,-0.001469,0.004105,-0.000161,0.004110,-0.001473,-88.348653,0.004164,
600,160,0.692778,-9.272448,0.999998,0.000191,-0.002446,0.005147,0.000397,0.005167,-0.002466,87.016988,0.005169,
1500,90,-0.070006,-9.847900,0.999998,0.000140,-0.000468,0.003386,-0.000425,0.003432,-0.000514,-83.784545,0.003702,
1160,1900,0.030703,-0.422600,0.999998,0.000146,-0.000415,0.003277,-0.000087,0.003279,-0.000417,-88.657431,0.003570,
750,890,1.628487,-5.732051,0.999997,0.000195,-0.002450,0.005222,0.000591,0.005267,-0.002495,85.617622,0.005269,
1380,590,-0.219876,-7.998328,0.999998,0.000158,-0.001936,0.003997,0.000950,0.004146,-0.002084,81.119759,0.004146,
1170,1200,0.264670,-2.580559,0.999997,0.000193,-0.002851,0.001516,0.000275,0.001533,-0.002868,86.409980,0.002870,
1690,1600,-0.853655,-2.004079,0.999998,0.000204,-0.002473,0.005074,-0.000135,0.005076,-0.002475,-88.977159,0.005077,
790,160,0.326202,-9.517209,0.999997,0.000199,-0.001520,0.004428,0.000799,0.004533,-0.001625,82.482361,0.004594,
1830,540,-1.329728,-7.413848,0.999997,0.000194,-0.002543,0.005136,0.000027,0.005136,-0.002543,89.796049,0.005136,
1710,1260,-1.447194,-3.844676,0.999997,0.000193,-0.002745,0.005378,0.000483,0.005406,-0.002774,86.609154,0.005407,
1550,150,-0.174020,-9.618799,0.999998,0.000163,-0.000717,0.003858,-0.000546,0.003922,-0.000781,-83.292962,0.004152,
720,1100,1.780596,-4.686887,0.999998,0.000184,-0.002228,0.004923,-0.000350,0.004940,-0.002245,-87.200651,0.004947,
1060,1720,0.184606,-1.096727,0.999998,0.000150,-0.001296,0.003844,0.000121,0.003846,-0.001299,88.648650,0.003913,
1560,1750,-0.391209,-1.109823,0.999998,0.000185,-0.001620,0.004407,0.000116,0.004409,-0.001623,88.894461,0.004460,
660,1050,1.938247,-4.934971,0.999999,0.000129,-0.002162,0.004645,-0.000162,0.004649,-0.002166,-88.637994,0.004653,
1340,1530,-0.146260,-1.767283,0.999998,0.000157,-0.001504,0.003680,-0.000539,0.003736,-0.001559,-84.125531,0.003752,
1740,1080,-1.790290,-4.786445,0.999998,0.000176,-0.002175,0.004864,0.000217,0.004871,-0.002182,88.233171,0.004879,
1790,1210,-1.744516,-4.164107,0.999997,0.000197,-0.002400,0.004937,0.000412,0.004960,-0.002423,86.797364,0.004961,
1680,90,-0.169241,-9.811521,0.999998,0.000157,-0.000790,0.003957,-0.001034,0.004172,-0.001006,-78.226351,0.004355,
1120,150,0.047729,-9.668056,0.999999,0.000119,-0.000495,0.003313,0.000127,0.003317,-0.000499,88.092592,0.003577,
560,1260,1.935959,-4.054092,0.999993,0.000000,-0.002652,0.004508,0.000058,0.004509,-0.002652,89.533513,0.004532,
1020,1290,0.491090,-3.114133,0.999997,0.000210,-0.003695,0.005816,0.001232,0.005973,-0.003852,82.736510,0.006056,
1580,730,-0.920589,-6.783667,0.999998,0.000166,-0.003326,0.005873,0.000062,0.005874,-0.003326,89.612841,0.005891,
680,1280,1.602621,-3.807729,0.999998,0.000186,-0.002584,0.005085,-0.000398,0.005106,-0.002604,-87.035499,0.005106,
960,90,0.073243,-9.845682,0.999999,0.000150,-0.000493,0.003424,0.000452,0.003476,-0.000544,83.502183,0.003739,
920,1690,0.425312,-1.360584,0.999998,0.000196,-0.001721,0.004468,0.000034,0.004468,-0.001721,89.681076,0.004508,
1500,1240,-0.816361,-3.638316,0.999997,0.000197,-0.003819,0.006526,-0.000203,0.006530,-0.003823,-88.877068,0.006562,
970,220,0.203945,-9.372211,0.999998,0.000162,-0.001147,0.003885,0.000212,0.003894,-0.001156,87.588279,0.004000,
810,150,0.273227,-9.575635,0.999998,0.000187,-0.001193,0.004257,0.000788,0.004368,-0.001305,81.934958,0.004485,
1830,330,-1.012279,-8.482636,0.999998,0.000191,-0.002446,0.005016,0.000034,0.005016,-0.002447,89.738991,0.005017,
1160,1880,0.036125,-0.488313,0.999998,0.000153,-0.000494,0.003324,-0.000061,0.003324,-0.000495,-89.084202,0.003587,
1660,600,-0.964164,-7.370428,0.999998,0.000172,-0.002793,0.005358,0.000117,0.005360,-0.002795,89.176273,0.005361,
1290,680,-0.067140,-7.874697,0.999999,0.000152,-0.001354,0.002722,0.000952,0.002933,-0.001565,77.484503,0.002935,
1510,540,-0.494664,-7.956212,0.999997,0.000184,-0.002433,0.004811,0.000579,0.004857,-0.002479,85.458851,0.004857,
1460,760,-0.543912,-6.928124,0.999997,0.000226,-0.003695,0.005923,0.001027,0.006032,-0.003803,83.974507,0.006100,
890,250,0.340528,-9.197197,0.999998,0.000171,-0.001524,0.004306,0.000277,0.004319,-0.001537,87.281903,0.004379,
760,220,0.510709,-9.215303,0.999997,0.000192,-0.001798,0.004749,0.000609,0.004805,-0.001855,84.730782,0.004846,
980,260,0.231228,-9.221291,0.999998,0.000167,-0.001214,0.003973,0.000142,0.003977,-0.001218,88.435838,0.004075,
1630,950,-1.521203,-5.446505,0.999997,0.000197,-0.002196,0.005338,-0.000530,0.005376,-0.002233,-85.999233,0.005401,
1140,750,0.121221,-7.586463,0.999997,0.000229,-0.001987,0.003045,-0.001892,0.003677,-0.002619,-71.527685,0.003786,
1880,1360,-1.707567,-3.530859,0.999997,0.000207,-0.002449,0.005037,0.000072,0.005038,-0.002449,89.447482,0.005038,
600,180,0.756094,-9.168135,0.999998,0.000180,-0.002445,0.005093,0.000322,0.005107,-0.002459,87.559469,0.005108,
870,740,0.983481,-6.700954,0.999998,0.000176,-0.003318,0.005878,0.000045,0.005878,-0.003319,89.720325,0.005895,
1260,1900,-0.015005,-0.420566,0.999998,0.000152,-0.000429,0.003275,0.000032,0.003275,-0.000429,89.499476,0.003560,
1310,1410,-0.097187,-2.137025,0.999999,0.000161,-0.001477,0.003169,-0.000902,0.003338,-0.001646,-79.389910,0.003338,
1430,1580,-0.287808,-1.692325,0.999998,0.000175,-0.001833,0.004195,-0.000513,0.004238,-0.001877,-85.167494,0.004247,
1020,580,0.353172,-7.906527,0.999998,0.000186,-0.002312,0.004520,-0.000881,0.004632,-0.002424,-82.772633,0.004634,
1550,1360,-0.763276,-3.028681,0.999997,0.000197,-0.003324,0.005731,-0.000384,0.005747,-0.003340,-87.576829,0.005773,
610,2000,0.231409,-0.215559,0.999998,0.000177,-0.001950,0.005197,-0.001635,0.005553,-0.002306,-77.708400,0.005580,
1830,520,-1.300997,-7.517517,0.999997,0.000208,-0.002545,0.005112,0.000046,0.005113,-0.002545,89.652919,0.005113,
1550,170,-0.203262,-9.537327,0.999998,0.000176,-0.000856,0.003905,-0.000488,0.003954,-0.000905,-84.211979,0.004144,
1560,1730,-0.411726,-1.198625,0.999997,0.000209,-0.001744,0.004485,0.000014,0.004485,-0.001744,89.867222,0.004522,
790,1700,0.680145,-1.480334,0.999997,0.000201,-0.002279,0.004888,0.000006,0.004888,-0.002279,89.949292,0.004891,
560,1250,1.948902,-4.096649,0.999995,0.000000,-0.002601,0.004445,0.000110,0.004446,-0.002602,89.106594,0.004468,
1790,1190,-1.775366,-4.265018,0.999997,0.000182,-0.002396,0.004924,0.000467,0.004954,-0.002426,86.367748,0.004954,
1680,70,-0.121897,-9.890399,0.999998,0.000150,-0.000640,0.003861,-0.001064,0.004100,-0.000879,-77.354640,0.004317,
1340,1550,-0.146542,-1.693117,0.999998,0.000143,-0.001467,0.003702,-0.000475,0.003745,-0.001510,-84.791539,0.003769,
810,130,0.231832,-9.659869,0.999998,0.000179,-0.001056,0.004139,0.000843,0.004272,-0.001189,81.009569,0.004410,
1710,1530,-0.998213,-2.395810,0.999998,0.000162,-0.002632,0.005181,-0.000132,0.005183,-0.002634,-89.034346,0.005183,
1500,1220,-0.868839,-3.770350,0.999997,0.000206,-0.003780,0.006599,-0.000038,0.006599,-0.003780,-89.788221,0.006623,
730,1380,1.289300,-3.223807,0.999997,0.000182,-0.002802,0.005316,-0.000195,0.005320,-0.002807,-88.626593,0.005323,
1160,1860,0.039215,-0.555290,0.999998,0.000177,-0.000541,0.003375,-0.000065,0.003377,-0.000542,-89.047868,0.003627,
1140,150,0.037358,-9.672172,0.999998,0.000129,-0.000493,0.003279,0.000083,0.003281,-0.000495,88.735557,0.003538,
1720,1150,-1.668956,-4.430095,0.999998,0.000175,-0.002402,0.005096,0.000516,0.005131,-0.002438,86.084325,0.005133,
660,1030,1.944841,-5.028368,0.999998,0.000149,-0.002158,0.004654,-0.000016,0.004654,-0.002158,-89.865030,0.004658,
1010,1740,0.241161,-1.059554,0.999998,0.000168,-0.001269,0.003981,0.000020,0.003981,-0.001269,89.785222,0.004067,
640,1850,0.728954,-0.947554,0.999997,0.000212,-0.002333,0.005137,-0.000382,0.005156,-0.002352,-87.081700,0.005163,
1630,970,-1.551295,-5.339430,0.999997,0.000197,-0.002086,0.005308,-0.000474,0.005338,-0.002116,-86.350535,0.005377,
680,1260,1.641191,-3.909351,0.999998,0.000186,-0.002544,0.005064,-0.000459,0.005091,-0.002572,-86.561991,0.005091,
1360,90,-0.028853,-9.862450,0.999998,0.000158,-0.000217,0.003193,-0.000178,0.003202,-0.000226,-87.018075,0.003574,
1190,1910,0.016008,-0.387427,0.999998,0.000150,-0.000379,0.003232,-0.000036,0.003232,-0.000380,-89.433557,0.003534,
980,240,0.211382,-9.299146,0.999998,0.000173,-0.001105,0.003922,0.000197,0.003930,-0.001113,87.759183,0.004051,
1580,710,-0.885971,-6.901991,0.999998,0.000165,-0.003293,0.005809,0.000151,0.005811,-0.003296,89.051510,0.005829,
630,1670,1.107576,-1.882646,0.999998,0.000164,-0.002462,0.005023,0.000067,0.005024,-0.002462,89.487599,0.005024,
1460,720,-0.491733,-7.158482,0.999997,0.000206,-0.003397,0.005544,0.001123,0.005683,-0.003536,82.947594,0.005739,
890,230,0.312769,-9.283858,0.999998,0.000179,-0.001433,0.004230,0.000326,0.004248,-0.001452,86.711262,0.004319,
760,240,0.551011,-9.121482,0.999997,0.000182,-0.001899,0.004795,0.000514,0.004834,-0.001938,85.637632,0.004866,
680,1630,1.044267,-2.002665,0.999998,0.000150,-0.002488,0.005045,0.000080,0.005046,-0.002489,89.391815,0.005046,
600,620,1.538801,-6.953959,0.999997,0.000227,-0.002534,0.005090,0.000020,0.005090,-0.002534,89.847515,0.005090,
1680,30,-0.032844,-10.036836,0.999998,0.000000,-0.000232,0.003597,-0.001044,0.003863,-0.000498,-75.704484,0.004203,
1050,1960,0.044653,-0.238294,0.999998,0.000144,-0.000374,0.003284,-0.000244,0.003300,-0.000390,-86.206836,0.003606,
1550,1100,-1.358240,-4.625574,0.999997,0.000207,-0.002234,0.005916,0.000634,0.005965,-0.002283,85.576021,0.006019,
1550,610,-0.659228,-7.522573,0.999997,0.000214,-0.002899,0.005258,0.000548,0.005294,-0.002936,86.173127,0.005305,
580,1000,2.104217,-5.156899,0.999998,0.000148,-0.001833,0.004145,0.000077,0.004146,-0.001834,89.263022,0.004155,
1280,1690,-0.052814,-1.147827,0.999998,0.000165,-0.001037,0.003586,-0.000054,0.003587,-0.001037,-89.336572,0.003691,
1000,290,0.235589,-9.111973,0.999998,0.000157,-0.001169,0.003990,0.000077,0.003991,-0.001170,89.141865,0.004103,
1280,750,-0.052662,-7.730443,0.999998,0.000158,-0.001300,0.001992,0.001227,0.002399,-0.001707,71.649816,0.002469,
1020,540,0.339672,-8.084211,0.999998,0.000177,-0.002146,0.004420,-0.000731,0.004500,-0.002227,-83.723298,0.004500,
1530,1360,-0.697242,-2.981775,0.999997,0.000187,-0.003324,0.005690,-0.000505,0.005718,-0.003352,-86.804703,0.005746,
1160,1200,0.290792,-2.640862,0.999997,0.000191,-0.002510,0.001600,0.000530,0.001667,-0.002578,82.769681,0.002614,
1640,530,-0.819892,-7.771804,0.999998,0.000140,-0.002650,0.005118,0.000250,0.005126,-0.002658,88.160353,0.005127,
930,1160,1.160279,-4.234764,0.999997,0.000198,-0.003008,0.006349,-0.000665,0.006396,-0.003055,-85.956723,0.006398,
1340,1390,-0.147270,-2.273220,0.999998,0.000152,-0.001828,0.003532,-0.001317,0.003839,-0.002134,-76.911901,0.003847,
1650,240,-0.449697,-9.178254,0.999997,0.000197,-0.001714,0.004610,-0.000447,0.004642,-0.001746,-85.977383,0.004689,
1310,1370,-0.094142,-2.256795,0.999998,0.000179,-0.001551,0.002974,-0.001212,0.003278,-0.001855,-75.911620,0.003287,
1540,1730,-0.380167,-1.178746,0.999998,0.000187,-0.001594,0.004399,0.000020,0.004399,-0.001594,89.807573,0.004454,
790,80,0.141164,-9.853078,0.999998,0.000158,-0.000743,0.003862,0.001019,0.004077,-0.000959,78.065163,0.004264,
1260,1880,-0.014565,-0.485782,0.999998,0.000169,-0.000489,0.003269,0.000013,0.003269,-0.000489,89.800638,0.003527,
1790,1170,-1.807881,-4.361223,0.999998,0.000179,-0.002345,0.004859,0.000429,0.004885,-0.002370,86.603804,0.004885,
1060,1700,0.194312,-1.173989,0.999998,0.000153,-0.001367,0.003904,0.000178,0.003910,-0.001373,88.067646,0.003967,
720,1080,1.797236,-4.786928,0.999998,0.000164,-0.002181,0.004845,-0.000190,0.004851,-0.002186,-88.454930,0.004858,
780,470,0.857472,-8.008544,0.999998,0.000167,-0.002520,0.005097,-0.000154,0.005100,-0.002524,-88.840617,0.005100,
1820,330,-0.987115,-8.499337,0.999998,0.000175,-0.002436,0.005016,0.000010,0.005016,-0.002436,89.920090,0.005017,
690,1060,1.868876,-4.886291,0.999998,0.000150,-0.002177,0.004724,-0.000155,0.004727,-0.002180,-88.711549,0.004732,
1740,1280,-1.490986,-3.766808,0.999997,0.000228,-0.002711,0.005286,0.000449,0.005311,-0.002736,86.799115,0.005312,
1500,1640,-0.387964,-1.531775,0.999997,0.000218,-0.001888,0.004405,-0.000300,0.004420,-0.001902,-87.276176,0.004434,
680,1240,1.678290,-4.013741,0.999997,0.000188,-0.002501,0.005039,-0.000475,0.005069,-0.002530,-86.409450,0.005069,
880,90,0.107450,-9.833252,0.999998,0.000162,-0.000633,0.003574,0.000687,0.003683,-0.000742,80.958170,0.003896,
560,1240,1.962736,-4.142915,0.999997,0.000000,-0.002435,0.004541,0.000017,0.004541,-0.002435,89.859668,0.004545,
1630,1410,-0.942437,-2.904050,0.999998,0.000172,-0.002963,0.005509,-0.000129,0.005511,-0.002965,-89.130063,0.005516,
1560,510,-0.592166,-8.013112,0.999997,0.000213,-0.002462,0.004918,0.000434,0.004944,-0.002488,86.648208,0.004944,
700,1350,1.423975,-3.421464,0.999997,0.000204,-0.002658,0.005218,-0.000263,0.005227,-0.002667,-88.086944,0.005227,
1160,1840,0.046381,-0.623077,0.999998,0.000175,-0.000604,0.003411,-0.000044,0.003411,-0.000604,-89.366770,0.003640,
760,260,0.592827,-9.024830,0.999998,0.000176,-0.001986,0.004833,0.000400,0.004856,-0.002009,86.658017,0.004880,
1690,1280,-1.352742,-3.712804,0.999998,0.000178,-0.002886,0.005520,0.000460,0.005545,-0.002912,86.874150,0.005547,
890,210,0.283956,-9.365849,0.999998,0.000172,-0.001318,0.004151,0.000399,0.004180,-0.001347,85.847239,0.004267,
1170,680,0.072102,-7.869120,0.999998,0.000170,-0.001366,0.002783,-0.000992,0.003008,-0.001591,-77.221507,0.003010,
1780,1750,-0.847065,-1.390065,0.999998,0.000158,-0.002369,0.005035,0.000113,0.005036,-0.002371,89.129432,0.005039,
1460,180,-0.135824,-9.537208,0.999998,0.000195,-0.000685,0.003658,-0.000312,0.003681,-0.000707,-85.915882,0.003906,
1660,580,-0.937445,-7.476383,0.999998,0.000172,-0.002741,0.005290,0.000151,0.005292,-0.002743,88.920584,0.005294,
810,110,0.190606,-9.742802,0.999998,0.000176,-0.000872,0.004053,0.000922,0.004220,-0.001039,79.735810,0.004398,
980,220,0.193241,-9.377429,0.999998,0.000162,-0.001038,0.003847,0.000227,0.003858,-0.001049,87.344170,0.003989,
1600,1590,-0.647253,-1.912735,0.999999,0.000172,-0.002401,0.004909,-0.000273,0.004919,-0.002412,-87.864493,0.004919,
1550,590,-0.639178,-7.628243,0.999997,0.000214,-0.002795,0.005184,0.000522,0.005218,-0.002829,86.269983,0.005224,
1410,860,-0.604801,-6.558185,0.999996,0.000226,-0.003656,0.006286,0.001460,0.006496,-0.003866,81.815885,0.006535,
1020,520,0.332384,-8.171470,0.999998,0.000188,-0.002108,0.004388,-0.000696,0.004461,-0.002182,-83.951630,0.004462,
1790,1300,-1.586811,-3.713834,0.999997,0.000209,-0.002571,0.005128,0.000354,0.005144,-0.002587,87.371083,0.005144,
1830,310,-0.976684,-8.582859,0.999998,0.000174,-0.002430,0.005032,-0.000012,0.005032,-0.002430,-89.907501,0.005033,
980,290,0.258359,-9.098317,0.999998,0.000157,-0.001308,0.004046,0.000067,0.004047,-0.001309,89.279608,0.004130,
1570,260,-0.349428,-9.157311,0.999998,0.000173,-0.001545,0.004271,-0.000238,0.004281,-0.001555,-87.661637,0.004334,
600,600,1.507436,-7.057227,0.999997,0.000205,-0.002534,0.005082,0.000020,0.005082,-0.002534,89.849582,0.005082,
1870,1360,-1.682024,-3.515781,0.999997,0.000223,-0.002467,0.005047,0.000097,0.005048,-0.002468,89.260458,0.005049,
1160,750,0.086291,-7.661850,0.999998,0.000157,-0.001624,0.002484,-0.001661,0.003072,-0.002212,-70.517359,0.003170,
1000,1870,0.143546,-0.562428,0.999998,0.000195,-0.000708,0.003691,-0.000311,0.003713,-0.000730,-85.979256,0.003934,
1340,1370,-0.147875,-2.341749,0.999998,0.000173,-0.001890,0.003487,-0.001453,0.003855,-0.002257,-75.803941,0.003874,
1310,1350,-0.093465,-2.315376,0.999998,0.000183,-0.001618,0.002879,-0.001384,0.003271,-0.002010,-74.193167,0.003299,
1270,370,-0.042553,-8.916337,0.999999,0.000137,-0.001089,0.003525,0.000073,0.003526,-0.001091,89.090985,0.003610,
1440,830,-0.620693,-6.581228,0.999996,0.000230,-0.003930,0.006462,0.001034,0.006564,-0.004032,84.373436,0.006621,
1650,260,-0.483349,-9.084239,0.999997,0.000197,-0.001827,0.004598,-0.000358,0.004618,-0.001847,-86.824983,0.004648,
780,510,0.906949,-7.805303,0.999998,0.000172,-0.002586,0.005133,-0.000163,0.005136,-0.002589,-88.793230,0.005136,
1060,700,0.298635,-7.464261,0.999997,0.000208,-0.002777,0.004682,-0.001556,0.004994,-0.003088,-78.675274,0.005040,
990,50,0.024506,-9.983913,0.999999,0.000150,-0.000104,0.003207,0.000397,0.003254,-0.000151,83.254917,0.003673,
1300,1290,-0.085978,-2.444213,0.999998,0.000191,-0.001634,0.002327,-0.001714,0.002966,-0.002272,-69.561205,0.003103,
1670,2020,-0.039886,-0.058237,0.999998,0.000000,-0.000430,0.003551,0.000927,0.003756,-0.000636,77.521523,0.004021,
1790,1150,-1.832894,-4.460133,0.999998,0.000184,-0.002302,0.004794,0.000331,0.004809,-0.002317,87.334210,0.004810,
680,480,1.122235,-7.800133,0.999998,0.000160,-0.002555,0.005101,-0.000106,0.005103,-0.002557,-89.210555,0.005103,
560,1230,1.977022,-4.189180,0.999997,0.000000,-0.002331,0.004582,-0.000002,0.004582,-0.002331,-89.984515,0.004582,
720,410,0.924363,-8.218486,0.999998,0.000196,-0.002436,0.005067,-0.000070,0.005068,-0.002437,-89.465867,0.005069,
1540,510,-0.542479,-8.048052,0.999997,0.000219,-0.002411,0.004819,0.000468,0.004849,-0.002442,86.308156,0.004849,
670,1060,1.912670,-4.886194,0.999998,0.000141,-0.002173,0.004669,-0.000151,0.004672,-0.002177,-88.734589,0.004676,
630,1650,1.138339,-1.981953,0.999998,0.000182,-0.002484,0.005021,0.000076,0.005021,-0.002485,89.418705,0.005021,
1630,1390,-0.972574,-3.013365,0.999998,0.000160,-0.003025,0.005539,-0.000080,0.005539,-0.003026,-89.462095,0.005547,
1160,1820,0.049865,-0.690821,0.999998,0.000151,-0.000667,0.003429,-0.000066,0.003430,-0.000668,-89.084005,0.003637,
1470,1280,-0.609935,-3.279127,0.999997,0.000217,-0.003814,0.006133,-0.000852,0.006206,-0.003886,-85.140435,0.006271,
930,1910,0.154893,-0.436568,0.999998,0.000174,-0.000714,0.003763,-0.000494,0.003817,-0.000768,-83.776796,0.004038,
1460,160,-0.119616,-9.608719,0.999999,0.000151,-0.000601,0.003583,-0.000334,0.003610,-0.000628,-85.469574,0.003857,
1020,1270,0.526758,-3.233215,0.999997,0.000197,-0.003804,0.006053,0.001210,0.006199,-0.003951,83.105505,0.006277,
890,190,0.253163,-9.449357,0.999998,0.000179,-0.001205,0.004084,0.000473,0.004126,-0.001247,84.928586,0.004233,
1590,70,-0.081271,-9.904361,0.999998,0.000152,-0.000496,0.003626,-0.000732,0.003753,-0.000622,-80.226940,0.004022,
1430,1400,-0.351447,-2.488709,0.999997,0.000220,-0.002706,0.004750,-0.001227,0.004947,-0.002902,-80.891984,0.004971,
1190,1930,0.015060,-0.324680,0.999998,0.000161,-0.000304,0.003191,-0.000040,0.003191,-0.000304,-89.349573,0.003523,
1500,1660,-0.371318,-1.442404,0.999997,0.000207,-0.001869,0.004395,-0.000250,0.004404,-0.001879,-87.722049,0.004420,
810,90,0.146861,-9.821762,0.999998,0.000156,-0.000706,0.003875,0.000963,0.004069,-0.000900,78.599803,0.004275,
1120,1830,0.077546,-0.668024,0.999998,0.000153,-0.000792,0.003464,-0.000027,0.003465,-0.000793,-89.630946,0.003631,
760,1720,0.717321,-1.423891,0.999998,0.000173,-0.002201,0.004985,-0.000077,0.004986,-0.002202,-89.384486,0.004997,
630,1760,0.955346,-1.426574,0.999998,0.000161,-0.002411,0.005050,-0.000031,0.005050,-0.002411,-89.758126,0.005051,
1020,500,0.323186,-8.259692,0.999997,0.000192,-0.002038,0.004360,-0.000632,0.004422,-0.002100,-84.411679,0.004424,
1710,1510,-1.024511,-2.500728,0.999998,0.000179,-0.002678,0.005250,-0.000107,0.005251,-0.002679,-89.228606,0.005252,
980,200,0.173528,-9.454283,0.999998,0.000167,-0.000937,0.003788,0.000316,0.003809,-0.000958,86.189664,0.003963,
1770,1300,-1.534628,-3.690625,0.999997,0.000201,-0.002636,0.005212,0.000382,0.005230,-0.002655,87.216684,0.005231,
780,1670,0.745365,-1.642773,0.999997,0.000183,-0.002330,0.004946,0.000046,0.004947,-0.002330,89.635431,0.004949,
1450,280,-0.210844,-9.160174,0.999998,0.000150,-0.001164,0.003927,-0.000085,0.003929,-0.001165,-89.044533,0.004036,
1550,570,-0.622207,-7.730682,0.999997,0.000220,-0.002703,0.005108,0.000501,0.005140,-0.002735,86.347421,0.005144,
1390,860,-0.528396,-6.696999,0.999997,0.000206,-0.003487,0.005548,0.001857,0.005915,-0.003854,78.825650,0.006005,
600,1810,0.923056,-1.235193,0.999998,0.000164,-0.002405,0.004945,-0.000085,0.004946,-0.002406,-89.339874,0.004947,
1650,220,-0.411806,-9.268211,0.999997,0.000188,-0.001612,0.004503,-0.000529,0.004548,-0.001657,-85.094538,0.004604,
720,250,0.652031,-9.027763,0.999997,0.000191,-0.002231,0.004981,0.000327,0.004995,-0.002245,87.409971,0.005004,
1790,1130,-1.853025,-4.555282,0.999998,0.000179,-0.002268,0.004776,0.000331,0.004791,-0.002283,87.318689,0.004793,
1310,1330,-0.094360,-2.374411,0.999997,0.000198,-0.001680,0.002794,-0.001550,0.003279,-0.002164,-72.644861,0.003334,
1270,390,-0.043302,-8.846645,0.999999,0.000148,-0.001156,0.003555,0.000073,0.003556,-0.001157,89.108569,0.003628,
560,1220,1.990010,-4.235216,0.999998,0.000000,-0.002257,0.004553,-0.000037,0.004554,-0.002257,-89.688802,0.004554,
600,580,1.476337,-7.157567,0.999997,0.000180,-0.002542,0.005090,0.000009,0.005090,-0.002542,89.934960,0.005090,
980,1870,0.157335,-0.568869,0.999999,0.000155,-0.000896,0.003741,-0.000281,0.003758,-0.000913,-86.549076,0.003920,
1340,410,-0.130966,-8.740262,0.999999,0.000175,-0.001334,0.003680,0.000283,0.003696,-0.001350,86.784137,0.003740,
680,1220,1.711325,-4.111809,0.999997,0.000193,-0.002456,0.004942,-0.000442,0.004968,-0.002482,-86.591922,0.004968,
1460,140,-0.100721,-9.680945,0.999998,0.000167,-0.000500,0.003517,-0.000346,0.003547,-0.000530,-85.113666,0.003826,
1160,1800,0.056319,-0.760799,0.999999,0.000136,-0.000757,0.003484,-0.000047,0.003484,-0.000758,-89.371371,0.003665,
820,610,0.929018,-7.344674,0.999998,0.000169,-0.002864,0.005403,-0.000144,0.005405,-0.002866,-89.005267,0.005409,
930,1890,0.184507,-0.515514,0.999998,0.000180,-0.000829,0.003838,-0.000467,0.003885,-0.000875,-84.339067,0.004076,
1640,110,-0.180361,-9.745848,0.999997,0.000186,-0.000717,0.003963,-0.000894,0.004128,-0.000882,-79.548290,0.004348,
1630,1370,-1.003703,-3.126051,0.999998,0.000168,-0.003078,0.005611,-0.000006,0.005611,-0.003078,-89.959429,0.005620,
630,1630,1.169771,-2.083469,0.999998,0.000170,-0.002507,0.005055,0.000060,0.005055,-0.002507,89.543075,0.005055,
1660,560,-0.911174,-7.581954,0.999998,0.000179,-0.002696,0.005293,0.000186,0.005297,-0.002700,88.666297,0.005298,
720,1060,1.803575,-4.881869,0.999998,0.000170,-0.002135,0.004826,-0.000151,0.004829,-0.002139,-88.755068,0.004840,
1270,1960,-0.009938,-0.229089,0.999999,0.000141,-0.000229,0.003119,0.000047,0.003120,-0.000230,89.203243,0.003477,
1020,1250,0.567036,-3.356454,0.999996,0.000241,-0.003863,0.006201,0.001123,0.006325,-0.003986,83.710845,0.006396,
1590,810,-1.120581,-6.282177,0.999997,0.000197,-0.003239,0.006043,-0.000396,0.006059,-0.003256,-87.562365,0.006065,
810,70,0.104500,-9.899111,0.999999,0.000142,-0.000508,0.003768,0.000979,0.003981,-0.000721,77.702140,0.004243,
1500,1680,-0.357895,-1.355219,0.999997,0.000185,-0.001842,0.004322,-0.000227,0.004330,-0.001850,-87.897534,0.004345,
880,1310,0.960490,-3.391376,0.999998,0.000206,-0.003314,0.005983,-0.000034,0.005983,-0.003314,-89.791921,0.005994,
890,170,0.222492,-9.529174,0.999998,0.000164,-0.001077,0.004002,0.000510,0.004053,-0.001128,84.323765,0.004183,
1150,480,0.104115,-8.504199,0.999998,0.000171,-0.001420,0.003639,-0.000412,0.003672,-0.001454,-85.373437,0.003698,
790,1680,0.709307,-1.579544,0.999997,0.000196,-0.002323,0.004922,0.000055,0.004923,-0.002323,89.566483,0.004925,
1100,1830,0.091564,-0.673684,0.999999,0.000135,-0.000720,0.003508,-0.000082,0.003509,-0.000722,-88.886462,0.003706,
1190,1950,0.011093,-0.259068,0.999999,0.000157,-0.000237,0.003137,-0.000068,0.003138,-0.000238,-88.841921,0.003494,
760,1700,0.747457,-1.523582,0.999998,0.000164,-0.002234,0.004940,-0.000071,0.004941,-0.002235,-89.430466,0.004948,
1710,1490,-1.053414,-2.606263,0.999998,0.000180,-0.002702,0.005248,-0.000090,0.005249,-0.002703,-89.353313,0.005250,
760,1670,0.791922,-1.671820,0.999998,0.000134,-0.002337,0.004996,0.000006,0.004996,-0.002337,89.953652,0.005000,
610,1760,1.004224,-1.464647,0.999998,0.000179,-0.002427,0.004976,0.000003,0.004976,-0.002427,89.979986,0.004976,
1550,550,-0.603456,-7.830485,0.999997,0.000203,-0.002629,0.005040,0.000488,0.005070,-0.002660,86.375096,0.005072,
1470,1260,-0.650022,-3.403045,0.999997,0.000212,-0.003895,0.006319,-0.000752,0.006374,-0.003950,-85.813873,0.006434,
600,560,1.443807,-7.261169,0.999997,0.000200,-0.002525,0.005110,0.000001,0.005110,-0.002525,89.993023,0.005110,
1430,280,-0.187831,-9.172821,0.999998,0.000183,-0.001184,0.003855,-0.000019,0.003855,-0.001184,-89.788546,0.003949,
1780,310,-0.856482,-8.664904,0.999998,0.000151,-0.002405,0.005037,-0.000078,0.005038,-0.002406,-89.398531,0.005039,
860,1830,0.350998,-0.798888,0.999998,0.000190,-0.001500,0.004337,-0.000429,0.004368,-0.001532,-85.818596,0.004432,
1750,30,-0.042601,-10.034607,0.999998,0.000000,-0.000474,0.003959,-0.001471,0.004402,-0.000918,-73.217237,0.004645,
1790,1110,-1.875885,-4.650442,0.999998,0.000162,-0.002250,0.004793,0.000338,0.004809,-0.002267,87.258968,0.004812,
620,930,1.978043,-5.476648,0.999998,0.000142,-0.002170,0.004614,0.000277,0.004626,-0.002181,87.665515,0.004628,
720,590,1.178215,-7.291015,0.999998,0.000178,-0.002704,0.005231,-0.000010,0.005231,-0.002704,-89.925872,0.005232,
1310,1310,-0.095681,-2.432324,0.999997,0.000197,-0.001735,0.002707,-0.001717,0.003293,-0.002322,-71.144527,0.003384,
1270,410,-0.045776,-8.774246,0.999998,0.000164,-0.001187,0.003580,0.000113,0.003583,-0.001190,88.642072,0.003650,
1470,660,-0.468703,-7.451423,0.999996,0.000222,-0.002981,0.005166,0.001003,0.005288,-0.003103,83.084209,0.005314,
1010,1480,0.374861,-2.171470,0.999997,0.000198,-0.002369,0.004607,0.000859,0.004711,-0.002473,83.085430,0.004713,
580,990,2.100285,-5.199201,0.999999,0.000139,-0.001827,0.004143,0.000001,0.004143,-0.001827,89.988887,0.004153,
1650,50,-0.062151,-9.971176,0.999998,0.000152,-0.000327,0.003572,-0.000934,0.003784,-0.000540,-77.195710,0.004094,
970,1390,0.543183,-2.718233,0.999997,0.000213,-0.003108,0.005383,0.000858,0.005469,-0.003194,84.290231,0.005494,
900,1170,1.221551,-4.214705,0.999997,0.000214,-0.002947,0.006077,-0.000694,0.006130,-0.003000,-85.629092,0.006131,
1060,1680,0.203844,-1.254018,0.999998,0.000166,-0.001468,0.003938,0.000246,0.003949,-0.001479,87.404204,0.003990,
670,1500,1.258056,-2.684804,0.999998,0.000199,-0.002588,0.005143,0.000033,0.005144,-0.002588,89.752292,0.005144,
850,710,0.993179,-6.841289,0.999998,0.000180,-0.003171,0.005754,0.000031,0.005754,-0.003171,89.800901,0.005764,
1020,480,0.314295,-8.347917,0.999998,0.000179,-0.001955,0.004302,-0.000565,0.004353,-0.002006,-84.882373,0.004357,
1160,680,0.085919,-7.851391,0.999998,0.000175,-0.001433,0.002931,-0.001082,0.003185,-0.001687,-76.806749,0.003187,
1460,120,-0.083730,-9.749637,0.999999,0.000149,-0.000419,0.003466,-0.000381,0.003503,-0.000456,-84.449476,0.003810,
1640,290,-0.514665,-8.954834,0.999997,0.000191,-0.001838,0.004706,-0.000270,0.004717,-0.001849,-87.644706,0.004753,
990,620,0.449677,-7.645536,0.999997,0.000219,-0.002727,0.004943,-0.000905,0.005049,-0.002832,-83.360170,0.005061,
620,1810,0.876017,-1.192856,0.999998,0.000159,-0.002414,0.005012,-0.000106,0.005013,-0.002416,-89.185835,0.005014,
1370,390,-0.166187,-8.792767,0.999998,0.000152,-0.001276,0.003819,0.000186,0.003826,-0.001283,87.914502,0.003895,
1570,240,-0.323344,-9.242221,0.999998,0.000172,-0.001448,0.004271,-0.000321,0.004289,-0.001465,-86.802211,0.004360,
1760,720,-1.443096,-6.584029,0.999997,0.000227,-0.002683,0.005222,-0.000310,0.005234,-0.002696,-87.756584,0.005235,
760,1680,0.776707,-1.620974,0.999997,0.000172,-0.002296,0.004945,-0.000029,0.004945,-0.002296,-89.769039,0.004949,
1640,90,-0.140320,-9.822139,0.999998,0.000141,-0.000556,0.003840,-0.000931,0.004029,-0.000745,-78.517617,0.004287,
1800,410,-1.064731,-8.126017,0.999998,0.000161,-0.002494,0.005052,0.000071,0.005053,-0.002495,89.458488,0.005053,
1110,870,0.470879,-6.980621,0.999997,0.000228,-0.001858,0.003264,-0.002074,0.003998,-0.002592,-70.498229,0.004057,
680,1180,1.774201,-4.309742,0.999997,0.000207,-0.002397,0.004919,-0.000478,0.004950,-0.002428,-86.278881,0.004951,
1660,540,-0.885773,-7.689667,0.999998,0.000156,-0.002652,0.005161,0.000185,0.005165,-0.002656,88.641338,0.005166,
810,1360,1.092071,-3.218206,0.999998,0.000172,-0.003037,0.005605,-0.000095,0.005606,-0.003038,-89.369461,0.005613,
860,1310,1.025474,-3.426886,0.999998,0.000161,-0.003269,0.005886,-0.000132,0.005888,-0.003271,-89.172465,0.005900,
1630,1350,-1.038406,-3.240645,0.999998,0.000195,-0.003112,0.005700,0.000078,0.005701,-0.003113,89.493239,0.005709,
800,610,0.987733,-7.311796,0.999999,0.000130,-0.002849,0.005381,-0.000096,0.005382,-0.002850,-89.329333,0.005386,
1300,2000,-0.008021,-0.107369,0.999999,0.000132,-0.000071,0.003024,0.000090,0.003026,-0.000073,88.335926,0.003453,
720,1040,1.812891,-4.979441,0.999998,0.000185,-0.002151,0.004853,-0.000133,0.004856,-0.002154,-88.912549,0.004866,
1160,410,0.083097,-8.766765,0.999998,0.000193,-0.001222,0.003622,-0.000164,0.003628,-0.001227,-88.058197,0.003690,
620,910,1.954712,-5.568551,0.999998,0.000154,-0.002182,0.004550,0.000247,0.004559,-0.002191,87.898750,0.004560,
1830,290,-0.939543,-8.683587,0.999998,0.000162,-0.002431,0.005057,-0.000056,0.005057,-0.002431,-89.571298,0.005059,
930,1870,0.206218,-0.592189,0.999998,0.000174,-0.000920,0.003915,-0.000421,0.003952,-0.000956,-85.060246,0.004123,
890,150,0.193884,-9.610425,0.999998,0.000168,-0.000964,0.003935,0.000561,0.003999,-0.001027,83.555676,0.004153,
1130,480,0.132464,-8.485271,0.999998,0.000160,-0.001434,0.003710,-0.000405,0.003742,-0.001465,-85.525104,0.003771,
630,1610,1.198775,-2.184289,0.999998,0.000163,-0.002528,0.005070,0.000079,0.005071,-0.002529,89.408086,0.005071,
1710,1470,-1.082039,-2.711086,0.999998,0.000175,-0.002714,0.005266,-0.000046,0.005266,-0.002715,-89.673076,0.005267,
1590,770,-1.031444,-6.525335,0.999998,0.000166,-0.003328,0.005987,-0.000208,0.005992,-0.003333,-88.720208,0.006005,
1260,1870,-0.015267,-0.518905,0.999998,0.000177,-0.000532,0.003294,0.000023,0.003295,-0.000532,89.650234,0.003537,
1500,1700,-0.340998,-1.270638,0.999998,0.000179,-0.001782,0.004268,-0.000188,0.004274,-0.001787,-88.220941,0.004293,
1790,1090,-1.894702,-4.746173,0.999998,0.000168,-0.002207,0.004686,0.000193,0.004692,-0.002213,88.395816,0.004694,
1470,640,-0.454253,-7.553681,0.999996,0.000214,-0.002814,0.004988,0.000961,0.005105,-0.002931,83.081668,0.005123,
1670,30,-0.030001,-10.038439,0.999998,0.000000,-0.000322,0.003582,-0.000958,0.003804,-0.000544,-76.925573,0.004115,
730,1860,0.504717,-0.769303,0.999997,0.000180,-0.001856,0.004866,-0.000683,0.004935,-0.001925,-84.253628,0.004975,
1310,1290,-0.101001,-2.485212,0.999998,0.000188,-0.001823,0.002619,-0.001874,0.003304,-0.002508,-69.922015,0.003448,
640,390,1.091773,-8.189810,0.999998,0.000158,-0.002503,0.005050,-0.000063,0.005051,-0.002503,-89.519975,0.005051,
1780,290,-0.820488,-8.767623,0.999998,0.000175,-0.002379,0.005078,-0.000152,0.005081,-0.002383,-88.836102,0.005085,
870,1420,0.817072,-2.779420,0.999998,0.000153,-0.003008,0.005496,0.000303,0.005507,-0.003018,87.963607,0.005515,
1190,1970,0.009592,-0.198771,0.999999,0.000135,-0.000158,0.003061,-0.000054,0.003061,-0.000159,-89.046183,0.003447,
1010,1460,0.384462,-2.265759,0.999997,0.000203,-0.002519,0.004711,0.000927,0.004828,-0.002636,82.809835,0.004834,
580,980,2.096730,-5.241323,0.999998,0.000161,-0.001847,0.004151,-0.000034,0.004151,-0.001847,-89.676550,0.004159,
850,690,0.959172,-6.955741,0.999998,0.000151,-0.003132,0.005644,-0.000062,0.005644,-0.003133,-89.592926,0.005656,
1270,430,-0.046228,-8.703118,0.999998,0.000166,-0.001205,0.003519,0.000116,0.003522,-0.001208,88.592917,0.003579,
1530,50,-0.038071,-9.976299,0.999999,0.000141,-0.000140,0.003305,-0.000523,0.003383,-0.000218,-81.556856,0.003787,
1400,1280,-0.352048,-2.975758,0.999997,0.000214,-0.003421,0.005233,-0.001815,0.005599,-0.003786,-78.620919,0.005713,
980,180,0.153258,-9.528729,0.999998,0.000162,-0.000853,0.003730,0.000334,0.003754,-0.000877,85.859072,0.003927,
1630,1320,-1.092197,-3.411078,0.999997,0.000228,-0.003146,0.005734,0.000194,0.005738,-0.003151,88.751812,0.005747,
1690,1360,-1.201312,-3.272846,0.999998,0.000188,-0.002895,0.005485,0.000194,0.005490,-0.002899,88.677000,0.005492,
1060,1640,0.221965,-1.413981,0.999998,0.000176,-0.001588,0.004035,0.000377,0.004061,-0.001614,86.182369,0.004089,
1810,680,-1.502838,-6.727070,0.999997,0.000218,-0.002611,0.005111,-0.000213,0.005117,-0.002617,-88.423006,0.005117,
760,1660,0.805831,-1.721793,0.999998,0.000158,-0.002371,0.005031,0.000054,0.005032,-0.002372,89.581672,0.005035,
1510,360,-0.363510,-8.777253,0.999998,0.000179,-0.001805,0.004288,0.000159,0.004292,-0.001809,88.504437,0.004310,
750,620,1.142684,-7.177806,0.999998,0.000174,-0.002772,0.005313,0.000019,0.005313,-0.002773,89.863687,0.005314,
1060,1570,0.244981,-1.698448,0.999998,0.000164,-0.001712,0.004082,0.000542,0.004132,-0.001763,84.698815,0.004147,
680,1160,1.805124,-4.407199,0.999998,0.000168,-0.002334,0.004869,-0.000392,0.004890,-0.002355,-86.894363,0.004891,
1250,1960,-0.004426,-0.228268,0.999999,0.000137,-0.000257,0.003084,0.000008,0.003084,-0.000257,89.865016,0.003422,
1160,1780,0.059401,-0.830556,0.999999,0.000133,-0.000812,0.003526,-0.000018,0.003526,-0.000812,-89.759967,0.003693,
1460,100,-0.064863,-9.819227,0.999998,0.000159,-0.000311,0.003380,-0.000383,0.003419,-0.000350,-84.135417,0.003762,
1620,290,-0.480034,-8.973656,0.999996,0.000225,-0.001782,0.004618,-0.000246,0.004627,-0.001792,-87.806032,0.004666,
1020,460,0.303073,-8.434370,0.999998,0.000187,-0.001859,0.004239,-0.000496,0.004279,-0.001899,-85.382551,0.004288,
990,460,0.364568,-8.386663,0.999998,0.000183,-0.001975,0.004395,-0.000463,0.004429,-0.002008,-85.866753,0.004435,
1820,1670,-1.076180,-1.859757,0.999998,0.000159,-0.002479,0.005081,-0.000059,0.005082,-0.002479,-89.549298,0.005082,
720,1020,1.815739,-5.074782,0.999998,0.000165,-0.002164,0.004890,0.000083,0.004891,-0.002165,89.327904,0.004902,
600,540,1.413870,-7.362647,0.999997,0.000194,-0.002512,0.005124,-0.000001,0.005124,-0.002512,-89.995318,0.005125,
990,220,0.183920,-9.381182,0.999998,0.000145,-0.000942,0.003817,0.000234,0.003828,-0.000954,87.194084,0.003986,
1140,410,0.109070,-8.753552,0.999998,0.000159,-0.001289,0.003652,-0.000268,0.003667,-0.001304,-86.904283,0.003717,
1540,150,-0.167512,-9.621072,0.999998,0.000165,-0.000717,0.003825,-0.000521,0.003884,-0.000777,-83.537406,0.004110,
1080,2000,0.016500,-0.108940,0.999998,0.000153,-0.000094,0.003071,-0.000197,0.003083,-0.000106,-86.445384,0.003500,
1660,520,-0.858533,-7.789027,0.999998,0.000143,-0.002603,0.005142,0.000190,0.005146,-0.002608,88.597991,0.005147,
630,1590,1.228135,-2.286282,0.999997,0.000180,-0.002526,0.005094,0.000081,0.005095,-0.002526,89.391873,0.005095,
1710,1450,-1.111742,-2.818055,0.999998,0.000161,-0.002766,0.005300,-0.000024,0.005300,-0.002766,-89.826164,0.005301,
1790,1510,-1.234875,-2.628225,0.999998,0.000174,-0.002584,0.005149,-0.000045,0.005149,-0.002584,-89.665217,0.005149,
890,130,0.161922,-9.687393,0.999998,0.000157,-0.000854,0.003807,0.000605,0.003885,-0.000931,82.728503,0.004056,
1890,660,-1.671770,-6.709913,0.999997,0.000206,-0.002543,0.005081,-0.000058,0.005081,-0.002543,-89.563157,0.005081,
1510,210,-0.214938,-9.401064,0.999998,0.000180,-0.001157,0.003923,-0.000295,0.003941,-0.001174,-86.686745,0.004046,
1760,790,-1.572179,-6.217637,0.999998,0.000205,-0.002588,0.005151,-0.000452,0.005177,-0.002614,-86.667906,0.005177,
1200,460,0.039229,-8.599113,0.999998,0.000179,-0.001205,0.003499,-0.000161,0.003504,-0.001210,-88.038224,0.003560,
1270,680,-0.040024,-7.909014,0.999998,0.000180,-0.001210,0.002507,0.000644,0.002615,-0.001319,80.437054,0.002615,
740,1310,1.389040,-3.586827,0.999998,0.000201,-0.002834,0.005377,-0.000400,0.005397,-0.002853,-87.216440,0.005400,
1760,310,-0.808448,-8.697627,0.999998,0.000171,-0.002419,0.005017,-0.000075,0.005018,-0.002419,-89.425345,0.005019,
850,1420,0.875893,-2.818089,0.999997,0.000186,-0.003001,0.005500,0.000241,0.005507,-0.003008,88.375650,0.005515,
1310,1270,-0.112414,-2.531362,0.999997,0.000208,-0.001943,0.002540,-0.001964,0.003279,-0.002682,-69.389097,0.003493,
1590,750,-0.991349,-6.647720,0.999998,0.000185,-0.003339,0.005957,-0.000096,0.005958,-0.003340,-89.405883,0.005972,
690,560,1.213414,-7.400673,0.999998,0.000157,-0.002619,0.005192,-0.000021,0.005192,-0.002619,-89.847863,0.005192,
850,890,1.374387,-5.786298,0.999997,0.000200,-0.002669,0.005685,0.000712,0.005745,-0.002730,85.163109,0.005747,
1810,1340,-1.566214,-3.533732,0.999997,0.000189,-0.002557,0.005106,0.000229,0.005113,-0.002564,88.289559,0.005113,
1190,850,0.178067,-7.602001,0.999996,0.000233,-0.003351,0.001027,-0.000201,0.001036,-0.003360,-87.373005,0.003441,
1660,2020,-0.034141,-0.055600,0.999999,0.000000,-0.000386,0.003565,0.000927,0.003772,-0.000592,77.434160,0.004057,
580,950,2.083071,-5.364092,0.999998,0.000186,-0.001974,0.004200,0.000044,0.004200,-0.001974,89.594914,0.004203,
620,1950,0.440484,-0.467853,0.999996,0.000220,-0.002373,0.005318,-0.000930,0.005429,-0.002484,-83.199051,0.005436,
1160,1740,0.068105,-0.973757,0.999999,0.000148,-0.000925,0.003571,0.000006,0.003571,-0.000925,89.919486,0.003707,
1460,80,-0.048380,-9.887026,0.999999,0.000128,-0.000240,0.003305,-0.000383,0.003346,-0.000280,-83.907688,0.003712,
1510,340,-0.346984,-8.862730,0.999998,0.000183,-0.001717,0.004331,0.000076,0.004332,-0.001718,89.282990,0.004362,
1040,1570,0.278842,-1.724099,0.999998,0.000147,-0.001792,0.004179,0.000532,0.004226,-0.001839,84.945047,0.004238,
980,140,0.112089,-9.675235,0.999998,0.000155,-0.000620,0.003556,0.000362,0.003587,-0.000651,85.083770,0.003822,
1580,50,-0.044634,-9.977503,0.999999,0.000132,-0.000324,0.003395,-0.000677,0.003514,-0.000444,-79.991930,0.003828,
760,1640,0.833087,-1.824143,0.999998,0.000182,-0.002427,0.005029,0.000108,0.005030,-0.002429,89.167008,0.005031,
720,1000,1.806017,-5.174147,0.999998,0.000159,-0.002146,0.004863,0.000185,0.004868,-0.002151,88.485741,0.004879,
1030,100,0.055574,-9.822392,0.999999,0.000141,-0.000390,0.003321,0.000303,0.003346,-0.000414,85.360614,0.003648,
680,1140,1.827168,-4.504952,0.999998,0.000146,-0.002289,0.004802,-0.000332,0.004817,-0.002305,-87.325696,0.004819,
1790,680,-1.451823,-6.753046,0.999997,0.000211,-0.002615,0.005160,-0.000226,0.005167,-0.002622,-88.338759,0.005167,
1060,1620,0.228362,-1.495684,0.999998,0.000165,-0.001639,0.004003,0.000439,0.004037,-0.001673,85.580230,0.004056,
1400,770,-0.345221,-7.131344,0.999997,0.000194,-0.003400,0.005150,0.001833,0.005526,-0.003776,78.396342,0.005649,
930,1850,0.235273,-0.674081,0.999998,0.000171,-0.001054,0.003986,-0.000394,0.004016,-0.001085,-85.554282,0.004155,
960,710,0.625127,-7.082312,0.999997,0.000208,-0.003436,0.005750,-0.000710,0.005804,-0.003491,-85.608440,0.005844,
1020,440,0.297080,-8.518184,0.999997,0.000207,-0.001745,0.004190,-0.000396,0.004216,-0.001771,-86.195683,0.004234,
1450,1720,-0.251904,-1.138668,0.999998,0.000179,-0.001356,0.004014,-0.000058,0.004014,-0.001357,-89.382006,0.004084,
1410,1640,-0.232086,-1.421922,0.999998,0.000177,-0.001594,0.004030,-0.000367,0.004054,-0.001618,-86.280088,0.004081,
1630,1330,-1.073684,-3.353647,0.999997,0.000210,-0.003131,0.005728,0.000145,0.005730,-0.003133,89.064355,0.005738,
1400,1260,-0.382101,-3.079686,0.999996,0.000233,-0.003608,0.005432,-0.001785,0.005772,-0.003948,-79.222691,0.005901,
1320,750,-0.114727,-7.598529,0.999998,0.000187,-0.001891,0.002951,0.001869,0.003589,-0.002528,71.164880,0.003688,
1780,410,-1.015005,-8.158927,0.999998,0.000182,-0.002471,0.005058,0.000076,0.005059,-0.002472,89.423611,0.005059,
1110,850,0.362812,-7.048581,0.999996,0.000253,-0.002513,0.003851,-0.002172,0.004522,-0.003184,-72.841288,0.004646,
1420,710,-0.353062,-7.354155,0.999997,0.000199,-0.003031,0.004996,0.001484,0.005262,-0.003296,79.856607,0.005317,
800,1980,0.123380,-0.204350,0.999998,0.000159,-0.000615,0.003824,-0.000989,0.004034,-0.000825,-77.990494,0.004262,
1520,150,-0.151946,-9.627031,0.999998,0.000165,-0.000811,0.003743,-0.000455,0.003788,-0.000856,-84.350396,0.003974,
1370,370,-0.159601,-8.870630,0.999998,0.000155,-0.001238,0.003800,0.000131,0.003804,-0.001242,88.512957,0.003879,
1130,220,0.067250,-9.433084,0.999998,0.000152,-0.000743,0.003464,0.000022,0.003464,-0.000743,89.702507,0.003648,
1510,190,-0.190580,-9.479385,0.999998,0.000166,-0.001075,0.003858,-0.000340,0.003881,-0.001098,-86.074504,0.004001,
1290,2000,-0.005843,-0.106204,0.999999,0.000145,-0.000074,0.003023,0.000072,0.003025,-0.000075,88.666682,0.003450,
1880,660,-1.647076,-6.725470,0.999997,0.000205,-0.002540,0.005074,-0.000062,0.005075,-0.002540,-89.534402,0.005075,
1250,680,-0.018837,-7.923341,0.999998,0.000143,-0.001053,0.002354,0.000332,0.002386,-0.001085,84.486023,0.002389,
1590,730,-0.953408,-6.764203,0.999998,0.000161,-0.003316,0.005851,0.000009,0.005851,-0.003316,89.944637,0.005868,
990,880,0.912647,-6.091784,0.999997,0.000219,-0.003638,0.006923,-0.000021,0.006923,-0.003638,-89.884930,0.006926,
670,560,1.264863,-7.370092,0.999998,0.000159,-0.002578,0.005159,-0.000018,0.005159,-0.002578,-89.863698,0.005159,
630,1570,1.255868,-2.390166,0.999997,0.000199,-0.002528,0.005087,0.000076,0.005087,-0.002528,89.426207,0.005087,
1160,1720,0.070846,-1.045194,0.999999,0.000139,-0.000978,0.003563,0.000025,0.003563,-0.000978,89.687795,0.003681,
1660,500,-0.836348,-7.894237,0.999997,0.000179,-0.002572,0.005170,0.000193,0.005175,-0.002577,88.570342,0.005175,
1710,1430,-1.141862,-2.924063,0.999998,0.000172,-0.002818,0.005318,0.000022,0.005319,-0.002818,89.845188,0.005322,
1680,1870,-0.393410,-0.677704,0.999997,0.000202,-0.001647,0.004602,0.000689,0.004677,-0.001722,83.785732,0.004731,
1790,1530,-1.205217,-2.524456,0.999998,0.000191,-0.002570,0.005147,-0.000083,0.005148,-0.002571,-89.384703,0.005148,
1460,60,-0.030900,-9.952665,0.999999,0.000119,-0.000126,0.003193,-0.000371,0.003234,-0.000167,-83.701355,0.003641,
1170,1240,0.120204,-2.515090,0.999998,0.000158,-0.001991,0.001840,0.001522,0.002370,-0.002522,70.766137,0.002829,
1310,1250,-0.135221,-2.583862,0.999997,0.000196,-0.002113,0.002433,-0.001944,0.003151,-0.002831,-69.731263,0.003468,
1190,840,0.138412,-7.615208,0.999996,0.000231,-0.002827,0.001182,-0.000360,0.001214,-0.002859,-84.914481,0.002870,
930,1830,0.256085,-0.752765,0.999998,0.000160,-0.001172,0.004033,-0.000317,0.004053,-0.001191,-86.524171,0.004166,
1160,1870,0.037813,-0.521838,0.999998,0.000165,-0.000518,0.003354,-0.000062,0.003355,-0.000519,-89.085512,0.003612,
720,1630,0.945909,-1.937456,0.999999,0.000143,-0.002454,0.005057,0.000082,0.005058,-0.002454,89.376204,0.005059,
980,120,0.092493,-9.746017,0.999998,0.000169,-0.000503,0.003508,0.000396,0.003546,-0.000542,84.411585,0.003821,
1390,1760,-0.149008,-0.938023,0.999999,0.000142,-0.001021,0.003731,-0.000001,0.003731,-0.001021,-89.991043,0.003857,
1410,1620,-0.239797,-1.504004,0.999998,0.000171,-0.001613,0.004073,-0.000404,0.004102,-0.001642,-85.956650,0.004129,
1880,340,-1.149638,-8.339907,0.999998,0.000186,-0.002455,0.004931,0.000042,0.004931,-0.002455,89.673126,0.004931,
1720,1430,-1.170402,-2.939013,0.999998,0.000174,-0.002781,0.005292,0.000035,0.005292,-0.002781,89.748518,0.005294,
1740,810,-1.557067,-6.130249,0.999996,0.000231,-0.002632,0.005208,-0.000526,0.005243,-0.002667,-86.178999,0.005244,
1520,950,-1.276903,-5.514489,0.999996,0.000239,-0.002391,0.006284,-0.000624,0.006329,-0.002435,-85.905062,0.006384,
840,1060,1.556185,-4.870172,0.999997,0.000189,-0.001993,0.005209,-0.000248,0.005217,-0.002002,-88.032962,0.005264,
800,1960,0.164909,-0.282047,0.999998,0.000154,-0.000813,0.003951,-0.000942,0.004130,-0.000993,-79.215591,0.004311,
580,1010,2.108094,-5.114289,0.999999,0.000148,-0.001848,0.004200,0.000120,0.004202,-0.001851,88.868578,0.004212,
1110,830,0.302354,-7.132072,0.999997,0.000224,-0.002967,0.004062,-0.002254,0.004722,-0.003628,-73.663433,0.004944,
1380,150,-0.063741,-9.663737,0.999998,0.000140,-0.000414,0.003372,-0.000200,0.003382,-0.000424,-86.988931,0.003685,
1660,30,-0.024625,-10.042157,0.999999,0.000000,-0.000315,0.003566,-0.000930,0.003778,-0.000526,-77.191425,0.004092,
760,1620,0.860620,-1.923482,0.999998,0.000166,-0.002459,0.005020,0.000126,0.005022,-0.002461,89.038041,0.005023,
1510,170,-0.168661,-9.553655,0.999998,0.000172,-0.000962,0.003767,-0.000381,0.003798,-0.000992,-85.417987,0.003939,
680,1120,1.848071,-4.600235,0.999998,0.000156,-0.002272,0.004839,-0.000374,0.004859,-0.002291,-87.001361,0.004861,
1590,50,-0.047305,-9.976014,0.999999,0.000142,-0.000319,0.003420,-0.000711,0.003550,-0.000449,-79.585856,0.003866,
1180,90,0.012091,-9.865243,0.999998,0.000163,-0.000191,0.003091,0.000071,0.003093,-0.000192,88.765158,0.003465,
1590,710,-0.919341,-6.881670,0.999998,0.000158,-0.003265,0.005791,0.000099,0.005792,-0.003266,89.376270,0.005808,
1020,420,0.287359,-8.600965,0.999998,0.000215,-0.001626,0.004167,-0.000317,0.004185,-0.001643,-86.877460,0.004217,
720,980,1.798114,-5.271214,0.999998,0.000166,-0.002162,0.004821,0.000174,0.004825,-0.002167,88.570663,0.004834,
1630,1310,-1.111139,-3.469973,0.999997,0.000232,-0.003150,0.005758,0.000239,0.005765,-0.003156,88.462031,0.005773,
600,510,1.369461,-7.516757,0.999997,0.000220,-0.002508,0.005079,-0.000029,0.005079,-0.002508,-89.781980,0.005080,
990,500,0.385330,-8.209488,0.999998,0.000164,-0.002079,0.004496,-0.000554,0.004542,-0.002125,-85.212527,0.004545,
1510,220,-0.225058,-9.362211,0.999998,0.000171,-0.001207,0.003964,-0.000266,0.003978,-0.001221,-87.067038,0.004075,
1060,1600,0.235352,-1.576375,0.999998,0.000169,-0.001685,0.004041,0.000466,0.004078,-0.001723,85.379166,0.004095,
1370,790,-0.270983,-7.196553,0.999997,0.000195,-0.003124,0.004573,0.002155,0.005135,-0.003687,75.377760,0.005295,
1820,310,-0.952517,-8.600382,0.999998,0.000196,-0.002421,0.005036,-0.000051,0.005036,-0.002421,-89.611271,0.005037,
1300,750,-0.081499,-7.672997,0.999997,0.000200,-0.001577,0.002409,0.001594,0.002968,-0.002135,70.675003,0.003062,
1630,940,-1.508773,-5.499536,0.999998,0.000194,-0.002264,0.005388,-0.000562,0.005429,-0.002305,-85.824781,0.005449,
1750,2020,-0.055735,-0.064469,0.999998,0.000000,-0.000535,0.003984,0.001477,0.004424,-0.000975,73.413225,0.004649,
1400,1240,-0.424094,-3.193919,0.999996,0.000242,-0.003715,0.005723,-0.001745,0.006036,-0.004028,-79.854275,0.006147,
1860,1990,-0.292384,-0.281902,0.999997,0.000190,-0.002123,0.005597,0.001539,0.005892,-0.002419,79.128534,0.005924,
590,1670,1.207248,-1.949206,0.999998,0.000189,-0.002338,0.004918,0.000082,0.004919,-0.002339,89.351946,0.004921,
1880,1450,-1.557881,-3.074710,0.999997,0.000234,-0.002540,0.005096,0.000023,0.005096,-0.002540,89.824244,0.005096,
1550,530,-0.585802,-7.932115,0.999997,0.000198,-0.002555,0.004957,0.000478,0.004987,-0.002585,86.377294,0.004989,
1160,1700,0.075188,-1.116106,0.999999,0.000140,-0.001043,0.003587,0.000067,0.003588,-0.001044,89.166026,0.003691,
1750,630,-1.259588,-7.071329,0.999998,0.000177,-0.002706,0.005252,-0.000087,0.005253,-0.002707,-89.375294,0.005254,
1200,1830,0.022578,-0.653062,0.999998,0.000142,-0.000673,0.003378,0.000024,0.003378,-0.000673,89.661029,0.003576,
1790,1550,-1.176965,-2.421159,0.999998,0.000196,-0.002562,0.005126,-0.000085,0.005127,-0.002563,-89.363851,0.005127,
1200,2000,0.003312,-0.106666,0.999999,0.000103,-0.000098,0.003019,-0.000028,0.003020,-0.000098,-89.477001,0.003432,
1370,1760,-0.132052,-0.930400,0.999998,0.000168,-0.000962,0.003684,0.000005,0.003684,-0.000962,89.937168,0.003821,
1450,1990,-0.033456,-0.143928,0.999999,0.000157,-0.000161,0.003250,0.000363,0.003288,-0.000199,83.995535,0.003687,
1240,1290,-0.008669,-2.305127,0.999998,0.000164,-0.001091,0.001348,-0.000224,0.001369,-0.001111,-84.802527,0.001455,
910,1080,1.397774,-4.742080,0.999997,0.000220,-0.001997,0.005778,-0.000511,0.005811,-0.002031,-86.258024,0.005899,
1620,850,-1.304226,-6.011448,0.999997,0.000203,-0.002917,0.005764,-0.000629,0.005809,-0.002963,-85.874271,0.005810,
1230,680,0.001483,-7.933409,0.999998,0.000151,-0.001031,0.002343,-0.000028,0.002343,-0.001031,-89.518117,0.002349,
980,100,0.070793,-9.816004,0.999998,0.000184,-0.000418,0.003429,0.000400,0.003470,-0.000459,84.126387,0.003770,
1650,2020,-0.030861,-0.053921,0.999998,0.000000,-0.000192,0.003572,0.000947,0.003797,-0.000417,76.645100,0.004164,
1000,1250,0.645398,-3.442976,0.999995,0.000242,-0.003892,0.006362,0.000791,0.006423,-0.003953,85.616860,0.006480,
1360,150,-0.054525,-9.666420,0.999998,0.000141,-0.000433,0.003340,-0.000156,0.003346,-0.000440,-87.633516,0.003637,
850,150,0.235693,-9.592942,0.999998,0.000183,-0.001001,0.004101,0.000717,0.004200,-0.001100,82.148588,0.004356,
680,1100,1.871810,-4.697949,0.999998,0.000173,-0.002250,0.004790,-0.000295,0.004802,-0.002263,-87.608220,0.004805,
860,40,0.038364,-10.008738,0.999999,0.000134,-0.000183,0.003380,0.000707,0.003515,-0.000319,79.170203,0.003888,
700,1630,0.995105,-1.968813,0.999998,0.000144,-0.002469,0.005050,0.000098,0.005052,-0.002470,89.252453,0.005052,
1020,690,0.408735,-7.376549,0.999997,0.000202,-0.003057,0.005114,-0.001266,0.005305,-0.003249,-81.388640,0.005350,
1510,150,-0.144205,-9.630229,0.999998,0.000159,-0.000845,0.003704,-0.000404,0.003739,-0.000880,-84.962276,0.003910,
720,430,0.952215,-8.116848,0.999999,0.000157,-0.002461,0.005047,-0.000093,0.005048,-0.002462,-89.292654,0.005048,
1570,280,-0.376059,-9.070256,0.999998,0.000174,-0.001634,0.004384,-0.000189,0.004390,-0.001640,-88.199633,0.004437,
1630,1290,-1.151538,-3.584136,0.999997,0.000184,-0.003159,0.005791,0.000332,0.005803,-0.003171,87.880361,0.005812,
1020,400,0.277872,-8.682573,0.999998,0.000193,-0.001552,0.004117,-0.000246,0.004127,-0.001563,-87.524969,0.004168,
650,660,1.478265,-6.824840,0.999996,0.000220,-0.002612,0.005145,0.000146,0.005148,-0.002615,88.919026,0.005148,
1110,780,0.209916,-7.334532,0.999998,0.000202,-0.002758,0.003955,-0.002234,0.004631,-0.003434,-73.174600,0.004807,
1830,270,-0.898480,-8.785465,0.999998,0.000170,-0.002424,0.005047,-0.000122,0.005049,-0.002426,-89.065908,0.005051,
1620,710,-1.016353,-6.828764,0.999998,0.000178,-0.003172,0.005722,-0.000047,0.005722,-0.003172,-89.696945,0.005733,
720,960,1.785589,-5.368090,0.999997,0.000189,-0.002206,0.004918,0.000325,0.004933,-0.002221,87.389539,0.004941,
1060,1580,0.243271,-1.656148,0.999998,0.000171,-0.001712,0.004083,0.000513,0.004128,-0.001757,84.983912,0.004143,
1860,2020,-0.147889,-0.136192,0.999991,0.000000,-0.000950,0.005078,0.002277,0.005841,-0.001714,71.462037,0.006005,
630,1820,0.828980,-1.123539,0.999997,0.000209,-0.002410,0.005042,-0.000168,0.005046,-0.002413,-88.710781,0.005048,
1190,2000,0.003449,-0.107540,0.999998,0.000135,-0.000070,0.003014,-0.000044,0.003015,-0.000071,-89.175714,0.003441,
640,370,1.060257,-8.291737,0.999999,0.000131,-0.002490,0.005037,-0.000024,0.005037,-0.002490,-89.820108,0.005037,
1160,1680,0.078277,-1.189091,0.999999,0.000125,-0.001126,0.003608,0.000087,0.003609,-0.001128,88.945129,0.003693,
1450,1970,-0.052112,-0.211346,0.999999,0.000150,-0.000263,0.003310,0.000347,0.003343,-0.000296,84.507715,0.003702,
990,900,0.983918,-5.953198,0.999998,0.000177,-0.003422,0.007005,0.000130,0.007007,-0.003423,89.288508,0.007008,
1590,690,-0.888570,-6.996790,0.999998,0.000170,-0.003217,0.005689,0.000166,0.005692,-0.003220,88.932923,0.005708,
1710,1410,-1.173320,-3.030864,0.999998,0.000176,-0.002826,0.005342,0.000085,0.005343,-0.002827,89.407279,0.005346,
1790,1570,-1.148131,-2.319458,0.999998,0.000167,-0.002557,0.005113,-0.000073,0.005114,-0.002557,-89.452207,0.005114,
1650,30,-0.021608,-10.044220,0.999999,0.000000,-0.000217,0.003552,-0.000962,0.003784,-0.000448,-76.477695,0.004135,
1660,720,-1.154186,-6.709920,0.999998,0.000223,-0.003015,0.005613,-0.000216,0.005618,-0.003021,-88.566553,0.005624,
940,1650,0.424621,-1.515978,0.999998,0.000191,-0.001880,0.004458,0.000222,0.004466,-0.001887,87.994905,0.004484,
1170,1220,0.168421,-2.548731,0.999995,0.000259,-0.002292,0.001774,0.000944,0.001983,-0.002500,77.544155,0.002640,
980,80,0.052291,-9.884037,0.999998,0.000170,-0.000319,0.003374,0.000410,0.003419,-0.000364,83.743854,0.003756,
1190,480,0.051521,-8.526146,0.999998,0.000173,-0.001228,0.003472,-0.000145,0.003477,-0.001232,-88.230978,0.003525,
850,110,0.160603,-9.753351,0.999998,0.000167,-0.000696,0.003889,0.000786,0.004020,-0.000827,80.536738,0.004245,
630,1550,1.286345,-2.490835,0.999997,0.000211,-0.002538,0.005096,0.000056,0.005096,-0.002539,89.581186,0.005096,
1010,800,0.595455,-6.709402,0.999997,0.000222,-0.003893,0.006264,-0.000973,0.006356,-0.003985,-84.578129,0.006424,
1310,1230,-0.176270,-2.628732,0.999996,0.000227,-0.002183,0.002285,-0.001725,0.002873,-0.002771,-71.167029,0.003260,
1380,490,-0.205952,-8.393978,0.999997,0.000187,-0.001706,0.003939,0.000601,0.004002,-0.001770,83.985893,0.004011,
1850,940,-2.003256,-5.425758,0.999998,0.000177,-0.002160,0.004519,-0.000232,0.004527,-0.002168,-88.011465,0.004528,
680,1080,1.882819,-4.791461,0.999998,0.000166,-0.002200,0.004670,-0.000141,0.004673,-0.002203,-88.824864,0.004676,
680,330,0.897824,-8.560161,0.999998,0.000183,-0.002409,0.005043,0.000015,0.005043,-0.002409,89.881395,0.005045,
1400,1220,-0.474683,-3.309831,0.999997,0.000213,-0.003724,0.005805,-0.001599,0.006066,-0.003985,-80.724062,0.006165,
1100,150,0.055933,-9.666016,0.999998,0.000132,-0.000425,0.003362,0.000165,0.003369,-0.000432,87.514743,0.003666,
1040,1870,0.112089,-0.549978,0.999998,0.000190,-0.000776,0.003586,-0.000186,0.003594,-0.000784,-87.567461,0.003779,
1510,130,-0.122297,-9.702407,0.999998,0.000151,-0.000689,0.003595,-0.000428,0.003637,-0.000731,-84.346789,0.003848,
1390,1620,-0.207001,-1.479377,0.999998,0.000177,-0.001606,0.003978,-0.000428,0.004010,-0.001638,-85.644191,0.004032,
930,100,0.097228,-9.808233,0.999999,0.000132,-0.000420,0.003538,0.000543,0.003611,-0.000493,82.327438,0.003916,
580,1670,1.231030,-1.966153,0.999998,0.000187,-0.001657,0.004788,0.000169,0.004792,-0.001661,88.500963,0.004867,
570,820,1.945051,-5.927646,0.999997,0.000204,-0.002314,0.004644,0.000054,0.004645,-0.002315,89.555948,0.004645,
1240,1310,-0.008830,-2.276194,0.999998,0.000152,-0.000992,0.001582,-0.000217,0.001600,-0.001010,-85.217689,0.001618,
1880,330,-1.133219,-8.388922,0.999998,0.000158,-0.002429,0.004931,0.000050,0.004931,-0.002429,89.609780,0.004931,
1840,510,-1.311655,-7.553125,0.999997,0.000217,-0.002541,0.005085,0.000053,0.005086,-0.002541,89.601022,0.005086,
1060,1560,0.246606,-1.740985,0.999998,0.000158,-0.001725,0.004069,0.000567,0.004124,-0.001780,84.460997,0.004136,
800,1940,0.212491,-0.363702,0.999997,0.000193,-0.001011,0.004138,-0.000921,0.004298,-0.001170,-80.153605,0.004444,
720,940,1.764120,-5.467813,0.999998,0.000178,-0.002271,0.004945,0.000412,0.004969,-0.002295,86.739433,0.004973,
1550,510,-0.566487,-8.031731,0.999997,0.000205,-0.002443,0.004862,0.000452,0.004890,-0.002471,86.472753,0.004890,
1750,670,-1.327302,-6.860721,0.999998,0.000177,-0.002724,0.005261,-0.000190,0.005266,-0.002728,-88.639751,0.005267,
1180,1830,0.035431,-0.655983,0.999999,0.000128,-0.000631,0.003402,-0.000021,0.003402,-0.000631,-89.706852,0.003619,
1330,220,-0.064687,-9.433571,0.999998,0.000203,-0.000776,0.003458,-0.000020,0.003458,-0.000776,-89.729722,0.003629,
1650,1140,-1.515684,-4.453236,0.999998,0.000205,-0.002415,0.005410,0.000659,0.005465,-0.002470,85.220030,0.005473,
990,1160,0.965553,-4.091738,0.999998,0.000153,-0.003477,0.006980,-0.000068,0.006981,-0.003478,-89.626365,0.006981,
1100,1570,0.176502,-1.642445,0.999998,0.000149,-0.001568,0.003804,0.000489,0.003848,-0.001612,84.841122,0.003865,
1000,690,0.471278,-7.312908,0.999997,0.000199,-0.003178,0.005346,-0.001081,0.005481,-0.003313,-82.885386,0.005521,
760,1600,0.886598,-2.024950,0.999998,0.000154,-0.002487,0.005077,0.000119,0.005079,-0.002489,89.098090,0.005080,
1640,2020,-0.030371,-0.053462,0.999998,0.000000,-0.000014,0.003553,0.000944,0.003787,-0.000248,76.055817,0.004237,
1170,480,0.076673,-8.519151,0.999998,0.000162,-0.001288,0.003549,-0.000242,0.003561,-0.001300,-87.147211,0.003605,
1850,1680,-1.134600,-1.860197,0.999998,0.000187,-0.002451,0.005034,-0.000032,0.005034,-0.002451,-89.757208,0.005035,
1450,1950,-0.064677,-0.275199,0.999998,0.000176,-0.000364,0.003393,0.000352,0.003425,-0.000396,84.699762,0.003748,
1160,1660,0.081489,-1.259538,0.999999,0.000136,-0.001180,0.003610,0.000123,0.003613,-0.001184,88.531456,0.003684,
1590,670,-0.855871,-7.109644,0.999998,0.000178,-0.003148,0.005618,0.000221,0.005623,-0.003154,88.558845,0.005637,
800,1690,0.671858,-1.514094,0.999997,0.000195,-0.002306,0.004895,0.000041,0.004895,-0.002306,89.672856,0.004898,
1660,40,-0.045540,-10.006077,0.999999,0.000151,-0.000353,0.003564,-0.000933,0.003775,-0.000564,-77.260132,0.004072,
830,1700,0.591063,-1.424379,0.999997,0.000188,-0.002041,0.004770,-0.000054,0.004770,-0.002042,-89.542893,0.004787,
1010,780,0.556180,-6.833963,0.999995,0.000277,-0.003806,0.006079,-0.001052,0.006189,-0.003917,-83.989685,0.006262,
680,1060,1.890831,-4.886225,0.999998,0.000145,-0.002185,0.004699,-0.000153,0.004702,-0.002189,-88.724670,0.004706,
840,1500,0.804333,-2.407114,0.999997,0.000189,-0.002710,0.005235,0.000262,0.005243,-0.002718,88.110752,0.005244,
1710,1390,-1.207685,-3.137584,0.999998,0.000207,-0.002816,0.005350,0.000141,0.005352,-0.002819,89.010868,0.005355,
1800,60,-0.169701,-9.905946,0.999998,0.000189,-0.000526,0.004641,-0.001964,0.005302,-0.001187,-71.378893,0.005565,
980,60,0.034782,-9.952040,0.999999,0.000156,-0.000214,0.003268,0.000417,0.003318,-0.000263,83.273049,0.003688,
760,690,1.230193,-6.816578,0.999998,0.000195,-0.002873,0.005420,0.000202,0.005425,-0.002878,88.602920,0.005428,
1380,470,-0.201086,-8.474060,0.999998,0.000171,-0.001646,0.003962,0.000539,0.004013,-0.001697,84.564262,0.004029,
880,830,1.145162,-6.173180,0.999998,0.000212,-0.003221,0.006047,0.000498,0.006074,-0.003248,86.936213,0.006079,
570,680,1.719463,-6.602795,0.999786,0.001644,-0.003267,0.005131,-0.000014,0.005131,-0.003267,-89.901191,0.005195,
1630,1270,-1.192268,-3.702255,0.999997,0.000189,-0.003127,0.005808,0.000415,0.005827,-0.003146,87.347434,0.005833,
1200,150,0.013855,-9.676030,0.999998,0.000146,-0.000431,0.003217,0.000047,0.003217,-0.000432,89.261348,0.003492,
1010,660,0.417474,-7.499855,0.999996,0.000232,-0.002876,0.005060,-0.001114,0.005214,-0.003029,-82.158422,0.005237,
1470,1060,-1.258083,-4.799613,0.999997,0.000202,-0.002398,0.007468,0.000075,0.007469,-0.002399,89.563995,0.007627,
1400,1420,-0.271024,-2.315733,0.999998,0.000178,-0.002331,0.004281,-0.001225,0.004501,-0.002551,-79.833293,0.004514,
1510,110,-0.098157,-9.775220,0.999998,0.000154,-0.000577,0.003599,-0.000491,0.003656,-0.000634,-83.380640,0.003907,
850,280,0.453338,-9.026723,0.999997,0.000207,-0.001755,0.004550,0.000239,0.004559,-0.001764,87.834611,0.004597,
1160,1640,0.083447,-1.331861,0.999998,0.000156,-0.001208,0.003623,0.000176,0.003629,-0.001215,87.911965,0.003695,
630,1530,1.315573,-2.593316,0.999997,0.000185,-0.002548,0.005125,0.000041,0.005125,-0.002548,89.691032,0.005125,
1060,1540,0.251624,-1.819718,0.999998,0.000166,-0.001781,0.004045,0.000622,0.004111,-0.001846,83.976448,0.004118,
1230,1960,0.000465,-0.227994,0.999998,0.000153,-0.000258,0.003078,-0.000002,0.003078,-0.000258,-89.957346,0.003415,
950,1440,0.558369,-2.505275,0.999997,0.000203,-0.002869,0.005168,0.000689,0.005227,-0.002927,85.132117,0.005240,
1450,1930,-0.085021,-0.347974,0.999998,0.000157,-0.000469,0.003477,0.000350,0.003508,-0.000500,84.964473,0.003795,
1830,1680,-1.084840,-1.825429,0.999998,0.000143,-0.002475,0.005076,-0.000048,0.005076,-0.002476,-89.632627,0.005077,
600,520,1.383325,-7.466075,0.999997,0.000217,-0.002504,0.005112,-0.000018,0.005112,-0.002504,-89.863235,0.005112,
590,820,1.899521,-5.954006,0.999998,0.000164,-0.002256,0.004631,0.000143,0.004634,-0.002259,88.812193,0.004635,
930,1810,0.283004,-0.835437,0.999998,0.000172,-0.001293,0.004140,-0.000291,0.004155,-0.001308,-86.945725,0.004249,
770,1500,0.993900,-2.525107,0.999998,0.000185,-0.002689,0.005233,0.000155,0.005236,-0.002692,88.880828,0.005237,
1310,1210,-0.246215,-2.670042,0.999996,0.000232,-0.002227,0.002016,-0.001040,0.002257,-0.002468,-76.942550,0.002736,
1600,40,-0.037459,-10.008370,0.999998,0.000155,-0.000215,0.003357,-0.000733,0.003501,-0.000360,-78.836496,0.003852,
910,100,0.106125,-9.804324,0.999999,0.000145,-0.000436,0.003593,0.000603,0.003682,-0.000524,81.669890,0.003983,
1370,810,-0.305185,-7.100742,0.999996,0.000231,-0.003255,0.004751,0.002193,0.005313,-0.003816,75.645166,0.005479,
1640,30,-0.021453,-10.042677,0.999998,0.000000,-0.000046,0.003538,-0.000983,0.003790,-0.000298,-75.625356,0.004215,
1860,30,-0.106832,-9.992199,0.999988,0.000000,-0.000053,0.005833,-0.003019,0.007106,-0.001326,-67.134866,0.007557,
1310,580,-0.101986,-8.153194,0.999998,0.000154,-0.001440,0.003388,0.000664,0.003478,-0.001530,82.306570,0.003486,
1590,650,-0.828364,-7.221135,0.999998,0.000180,-0.003069,0.005537,0.000280,0.005547,-0.003078,88.136345,0.005558,
970,1990,0.042422,-0.147467,0.999999,0.000126,-0.000294,0.003303,-0.000435,0.003355,-0.000346,-83.205086,0.003691,
770,1900,0.343371,-0.551570,0.999998,0.000183,-0.001440,0.004529,-0.000925,0.004669,-0.001580,-81.392872,0.004749,
1830,250,-0.854265,-8.886977,0.999998,0.000174,-0.002420,0.005081,-0.000150,0.005084,-0.002423,-88.851581,0.005086,
820,1870,0.335248,-0.650319,0.999997,0.000219,-0.001297,0.004341,-0.000652,0.004416,-0.001371,-83.492402,0.004520,
1110,810,0.249167,-7.212861,0.999997,0.000215,-0.002934,0.004091,-0.002286,0.004770,-0.003612,-73.469593,0.004976,
840,1480,0.826900,-2.512799,0.999998,0.000182,-0.002789,0.005280,0.000259,0.005288,-0.002797,88.164488,0.005291,
1080,1570,0.210275,-1.670634,0.999998,0.000169,-0.001704,0.003966,0.000611,0.004031,-0.001769,83.915158,0.004041,
680,1040,1.898945,-4.980273,0.999999,0.000143,-0.002173,0.004727,-0.000128,0.004730,-0.002175,-88.939341,0.004735,
720,920,1.741188,-5.567021,0.999998,0.000173,-0.002302,0.004926,0.000413,0.004950,-0.002325,86.742050,0.004953,
1180,150,0.021618,-9.674887,0.999998,0.000151,-0.000384,0.003235,0.000089,0.003238,-0.000386,88.589025,0.003537,
690,1760,0.811740,-1.327443,0.999997,0.000202,-0.002401,0.005056,-0.000148,0.005059,-0.002404,-88.864091,0.005061,
630,1730,1.011866,-1.577584,0.999998,0.000186,-0.002400,0.005025,0.000015,0.005025,-0.002400,89.880844,0.005027,
1160,1620,0.085183,-1.402739,0.999998,0.000153,-0.001230,0.003604,0.000221,0.003614,-0.001240,87.390832,0.003673,
630,660,1.528788,-6.795997,0.999996,0.000217,-0.002514,0.005098,0.000125,0.005100,-0.002517,89.062687,0.005100,
1180,810,0.093785,-7.619649,0.999998,0.000197,-0.001876,0.001597,-0.001325,0.002045,-0.002323,-71.328363,0.002537,
840,890,1.400462,-5.779197,0.999997,0.000203,-0.002635,0.005611,0.000697,0.005669,-0.002693,85.202356,0.005672,
760,1580,0.913671,-2.127023,0.999998,0.000173,-0.002502,0.005118,0.000147,0.005121,-0.002505,88.897014,0.005121,
1020,1870,0.128339,-0.556188,0.999998,0.000271,-0.000741,0.003639,-0.000268,0.003655,-0.000757,-86.508599,0.003859,
570,1670,1.250586,-1.981614,0.999972,0.000752,-0.001291,0.004643,0.000307,0.004659,-0.001307,87.048249,0.004806,
1420,1240,-0.502360,-3.305691,0.999996,0.000246,-0.003906,0.006020,-0.001417,0.006219,-0.004104,-82.029895,0.006324,
1550,490,-0.553230,-8.126753,0.999998,0.000177,-0.002327,0.004790,0.000416,0.004814,-0.002352,86.667474,0.004815,
1780,350,-0.922574,-8.463731,0.999998,0.000168,-0.002382,0.005082,0.000000,0.005082,-0.002382,-89.996452,0.005085,
1660,480,-0.810995,-7.998158,0.999998,0.000178,-0.002538,0.005070,0.000188,0.005075,-0.002543,88.583142,0.005075,
1770,1680,-0.939053,-1.726627,0.999999,0.000130,-0.002436,0.005031,-0.000025,0.005031,-0.002436,-89.811953,0.005032,
1380,450,-0.195469,-8.553804,0.999998,0.000162,-0.001583,0.003946,0.000456,0.003983,-0.001620,85.319140,0.004006,
660,790,1.682205,-6.175518,0.999998,0.000165,-0.002514,0.005030,0.000399,0.005052,-0.002535,86.981288,0.005052,
1630,2020,-0.031397,-0.054260,0.999999,0.000000,0.000068,0.003537,0.000882,0.003748,-0.000143,76.530135,0.004248,
1110,1960,0.028784,-0.233206,0.999999,0.000146,-0.000251,0.003198,-0.000159,0.003205,-0.000258,-87.358335,0.003561,
1270,1250,-0.062053,-2.405896,0.999998,0.000184,-0.001724,0.001336,-0.001038,0.001654,-0.002043,-72.929451,0.002170,
1020,380,0.267126,-8.765095,0.999998,0.000182,-0.001508,0.004124,-0.000192,0.004131,-0.001515,-88.052343,0.004180,
1060,1520,0.255591,-1.900370,0.999998,0.000180,-0.001868,0.004110,0.000717,0.004195,-0.001953,83.253186,0.004198,
1870,100,-0.482568,-9.573665,0.999997,0.000211,-0.002328,0.005532,-0.001080,0.005678,-0.002473,-82.316618,0.005694,
600,500,1.355835,-7.567401,0.999997,0.000213,-0.002509,0.005069,-0.000033,0.005069,-0.002509,-89.753277,0.005069,
720,1310,1.444022,-3.609006,0.999997,0.000236,-0.002717,0.005319,-0.000380,0.005337,-0.002735,-87.297178,0.005337,
890,1240,1.076412,-3.799722,0.999997,0.000187,-0.003333,0.006140,-0.000397,0.006157,-0.003349,-87.601709,0.006165,
640,110,0.413580,-9.633317,0.999996,0.000248,-0.001998,0.005264,0.001122,0.005433,-0.002167,81.411075,0.005470,
1760,160,-0.467479,-9.447150,0.999997,0.000212,-0.002076,0.004937,-0.000826,0.005033,-0.002172,-83.371701,0.005048,
1630,1250,-1.234897,-3.818237,0.999997,0.000197,-0.003090,0.005805,0.000501,0.005833,-0.003118,86.783933,0.005838,
1810,1300,-1.638071,-3.736347,0.999997,0.000181,-0.002530,0.004999,0.000322,0.005013,-0.002543,87.556080,0.005013,
1830,230,-0.809795,-8.989852,0.999998,0.000171,-0.002399,0.005069,-0.000209,0.005074,-0.002405,-88.397492,0.005077,
1450,1910,-0.098936,-0.414660,0.999998,0.000144,-0.000563,0.003521,0.000324,0.003546,-0.000589,85.494726,0.003801,
1160,490,0.090141,-8.476277,0.999998,0.000158,-0.001368,0.003563,-0.000369,0.003591,-0.001395,-85.746588,0.003620,
760,310,0.678661,-8.780141,0.999997,0.000221,-0.002157,0.004889,0.000154,0.004892,-0.002161,88.748739,0.004903,
1800,1390,-1.450676,-3.263135,0.999998,0.000191,-0.002630,0.005158,0.000165,0.005161,-0.002634,88.788853,0.005161,
970,1970,0.062546,-0.214260,0.999998,0.000138,-0.000404,0.003373,-0.000428,0.003421,-0.000452,-83.620796,0.003717,
1310,830,-0.189049,-7.439747,0.999996,0.000210,-0.002214,0.002234,0.001588,0.002743,-0.002722,72.236549,0.003155,
1530,40,-0.027570,-10.010167,0.999999,0.000144,-0.000083,0.003304,-0.000519,0.003381,-0.000161,-81.479826,0.003815,
1470,1180,-0.883636,-3.942152,0.999997,0.000210,-0.003696,0.006944,-0.000123,0.006945,-0.003697,-89.335210,0.006950,
800,1920,0.255520,-0.446067,0.999998,0.000202,-0.001233,0.004230,-0.000835,0.004354,-0.001358,-81.498539,0.004456,
800,1870,0.363161,-0.664171,0.999997,0.000214,-0.001600,0.004438,-0.000655,0.004509,-0.001671,-83.876922,0.004559,
1590,630,-0.800639,-7.332952,0.999998,0.000181,-0.002976,0.005469,0.000311,0.005481,-0.002988,87.890774,0.005488,
1780,850,-1.728317,-5.897628,0.999998,0.000187,-0.002434,0.004951,-0.000446,0.004978,-0.002461,-86.556384,0.004978,
840,1460,0.852904,-2.620214,0.999998,0.000184,-0.002854,0.005359,0.000259,0.005367,-0.002862,88.195222,0.005371,
1760,450,-1.022354,-7.988088,0.999998,0.000177,-0.002501,0.005063,0.000103,0.005064,-0.002503,89.222572,0.005064,
1370,830,-0.355912,-7.006620,0.999996,0.000224,-0.003327,0.004849,0.002160,0.005385,-0.003863,76.072415,0.005552,
1110,790,0.221187,-7.293866,0.999997,0.000199,-0.002850,0.004026,-0.002291,0.004719,-0.003543,-73.160214,0.004913,
850,300,0.480736,-8.935495,0.999998,0.000170,-0.001829,0.004527,0.000164,0.004531,-0.001834,88.519509,0.004559,
1710,1370,-1.240458,-3.245196,0.999998,0.000215,-0.002833,0.005406,0.000193,0.005411,-0.002838,88.659091,0.005413,
1850,2020,-0.132657,-0.123045,0.999997,0.000000,-0.001614,0.004665,0.001724,0.005107,-0.002056,75.613800,0.005139,
670,1760,0.860195,-1.358717,0.999997,0.000190,-0.002403,0.005078,-0.000132,0.005081,-0.002406,-88.988712,0.005083,
1190,800,0.064049,-7.670387,0.999998,0.000196,-0.001663,0.001433,-0.001121,0.001796,-0.002026,-72.045638,0.002219,
1710,160,-0.380501,-9.493934,0.999997,0.000216,-0.001392,0.004635,-0.000977,0.004789,-0.001547,-81.015173,0.004888,
720,900,1.716445,-5.665907,0.999998,0.000171,-0.002373,0.005035,0.000509,0.005070,-0.002408,86.086590,0.005072,
820,870,1.412562,-5.878917,0.999997,0.000197,-0.002700,0.005592,0.000676,0.005647,-0.002755,85.371067,0.005647,
1160,1600,0.088349,-1.476636,0.999998,0.000154,-0.001306,0.003604,0.000254,0.003617,-0.001319,87.049832,0.003661,
1790,1990,-0.181182,-0.195617,0.999998,0.000181,-0.000611,0.004705,0.001947,0.005342,-0.001247,71.890209,0.005589,
670,1690,0.977491,-1.713685,0.999998,0.000161,-0.002441,0.005038,0.000011,0.005038,-0.002441,89.915019,0.005038,
1140,1870,0.048638,-0.524872,0.999998,0.000176,-0.000611,0.003380,-0.000076,0.003381,-0.000613,-88.916124,0.003603,
930,1790,0.305003,-0.917101,0.999998,0.000177,-0.001349,0.004134,-0.000192,0.004140,-0.001356,-87.993009,0.004222,
1410,770,-0.377968,-7.084840,0.999997,0.000197,-0.003540,0.005350,0.001698,0.005663,-0.003853,79.548078,0.005784,
1660,440,-0.760942,-8.198377,0.999998,0.000191,-0.002404,0.004965,0.000159,0.004969,-0.002407,88.765281,0.004969,
1060,1500,0.259073,-1.982600,0.999998,0.000177,-0.001976,0.004152,0.000831,0.004262,-0.002087,82.413138,0.004263,
1060,1610,0.231813,-1.535570,0.999998,0.000170,-0.001661,0.004012,0.000456,0.004048,-0.001698,85.432146,0.004066,
1550,470,-0.535663,-8.220839,0.999998,0.000193,-0.002275,0.004776,0.000359,0.004794,-0.002293,87.094975,0.004795,
1520,1550,-0.493997,-1.974941,0.999998,0.000203,-0.002336,0.004754,-0.000508,0.004791,-0.002373,-85.920157,0.004791,
1310,560,-0.103617,-8.222376,0.999998,0.000158,-0.001457,0.003457,0.000606,0.003531,-0.001531,83.072596,0.003542,
1420,150,-0.086566,-9.654674,0.999998,0.000184,-0.000643,0.003472,-0.000232,0.003485,-0.000656,-86.789256,0.003704,
1800,950,-1.904113,-5.401517,0.999998,0.000150,-0.002218,0.004707,-0.000299,0.004720,-0.002231,-87.532129,0.004722,
1380,710,-0.240000,-7.505152,0.999998,0.000161,-0.002574,0.004316,0.001690,0.004708,-0.002966,76.933000,0.004761,
610,100,0.442879,-9.613375,0.999997,0.000196,-0.002362,0.005375,0.001026,0.005508,-0.002496,82.575534,0.005516,
1300,1510,-0.088965,-1.793364,0.999999,0.000141,-0.001418,0.003451,-0.000500,0.003502,-0.001469,-84.195241,0.003517,
650,1900,0.557260,-0.669906,0.999998,0.000223,-0.002059,0.005186,-0.000903,0.005297,-0.002170,-83.002373,0.005326,
610,1500,1.411357,-2.777862,0.999997,0.000201,-0.002535,0.005105,0.000007,0.005105,-0.002535,89.947046,0.005105,
900,1950,0.116343,-0.295423,0.999998,0.000197,-0.000580,0.003671,-0.000636,0.003764,-0.000673,-81.676776,0.004015,
1740,30,-0.035872,-10.038314,0.999998,0.000000,-0.000437,0.003950,-0.001446,0.004383,-0.000871,-73.305376,0.004641,
760,1560,0.938821,-2.228718,0.999998,0.000169,-0.002545,0.005108,0.000154,0.005111,-0.002548,88.846394,0.005111,
1750,1080,-1.810934,-4.787367,0.999997,0.000196,-0.002185,0.004829,0.000195,0.004835,-0.002190,88.412828,0.004842,
600,480,1.324612,-7.670068,0.999997,0.000212,-0.002506,0.005078,-0.000029,0.005078,-0.002506,-89.780752,0.005078,
740,310,0.721598,-8.753600,0.999998,0.000173,-0.002203,0.004945,0.000167,0.004949,-0.002207,88.659100,0.004959,
1520,40,-0.026253,-10.010301,0.999999,0.000142,-0.000150,0.003272,-0.000463,0.003333,-0.000212,-82.431707,0.003733,
970,1950,0.081682,-0.281560,0.999998,0.000153,-0.000518,0.003485,-0.000441,0.003533,-0.000566,-83.791647,0.003796,
1310,1390,-0.096421,-2.198712,0.999998,0.000174,-0.001497,0.003099,-0.001055,0.003329,-0.001728,-77.670019,0.003330,
840,1440,0.879807,-2.729397,0.999997,0.000202,-0.002919,0.005378,0.000234,0.005385,-0.002926,88.388307,0.005392,
1830,210,-0.759153,-9.090791,0.999997,0.000188,-0.002382,0.005114,-0.000294,0.005126,-0.002394,-87.755602,0.005130,
840,1870,0.310119,-0.638661,0.999998,0.000192,-0.001184,0.004250,-0.000608,0.004318,-0.001251,-83.696434,0.004443,
1760,430,-0.995200,-8.089137,0.999998,0.000156,-0.002483,0.005090,0.000092,0.005091,-0.002484,89.301928,0.005092,
1850,30,-0.102035,-9.992056,0.999991,0.000000,-0.000758,0.005247,-0.002413,0.006096,-0.001608,-70.603165,0.006319,
610,1820,0.877259,-1.165144,0.999998,0.000144,-0.002402,0.004955,-0.000114,0.004957,-0.002404,-89.111955,0.004957,
890,110,0.131570,-9.763152,0.999998,0.000171,-0.000722,0.003746,0.000659,0.003841,-0.000817,81.788714,0.004047,
730,1120,1.735264,-4.585308,0.999998,0.000167,-0.002254,0.004968,-0.000406,0.004991,-0.002277,-86.795278,0.004997,
1510,90,-0.074667,-9.846943,0.999999,0.000147,-0.000464,0.003407,-0.000461,0.003461,-0.000518,-83.296978,0.003734,
720,1570,1.028476,-2.242789,0.999998,0.000153,-0.002556,0.005144,0.000118,0.005146,-0.002558,89.122009,0.005146,
1450,1890,-0.119741,-0.487603,0.999998,0.000165,-0.000648,0.003562,0.000301,0.003583,-0.000669,85.932480,0.003810,
820,1050,1.600569,-4.923571,0.999998,0.000164,-0.002002,0.005130,-0.000193,0.005135,-0.002007,-88.450983,0.005176,
740,690,1.286719,-6.790473,0.999997,0.000236,-0.002797,0.005356,0.000213,0.005361,-0.002802,88.501551,0.005363,
980,510,0.410711,-8.148378,0.999997,0.000228,-0.002174,0.004584,-0.000572,0.004632,-0.002222,-85.193439,0.004633,
1160,1580,0.090205,-1.547941,0.999998,0.000163,-0.001373,0.003615,0.000326,0.003636,-0.001395,86.275843,0.003669,
670,1670,1.010157,-1.814711,0.999998,0.000160,-0.002470,0.005064,0.000044,0.005065,-0.002471,89.667121,0.005065,
1570,1280,-0.975379,-3.547926,0.999998,0.000159,-0.003399,0.006111,0.000108,0.006112,-0.003400,89.350636,0.006125,
1590,610,-0.775499,-7.440588,0.999998,0.000167,-0.002883,0.005331,0.000345,0.005346,-0.002897,87.598294,0.005352,
1380,1690,-0.168619,-1.196651,0.999998,0.000154,-0.001221,0.003851,-0.000117,0.003854,-0.001224,-88.683376,0.003938,
580,620,1.588922,-6.923446,0.999997,0.000229,-0.003595,0.004434,0.000024,0.004434,-0.003595,89.827412,0.004711,
1040,1610,0.265766,-1.560121,0.999998,0.000184,-0.001644,0.004084,0.000410,0.004114,-0.001674,85.922488,0.004137,
840,770,1.139442,-6.476112,0.999997,0.000186,-0.003187,0.005858,0.000334,0.005870,-0.003200,87.886379,0.005878,
1410,810,-0.452469,-6.859132,0.999997,0.000234,-0.003870,0.005869,0.001616,0.006130,-0.004131,80.822062,0.006253,
1540,630,-0.651258,-7.437043,0.999997,0.000184,-0.002961,0.005371,0.000564,0.005409,-0.002999,86.144574,0.005420,
1110,770,0.201521,-7.375854,0.999997,0.000207,-0.002664,0.003934,-0.002169,0.004583,-0.003313,-73.336447,0.004732,
1300,210,-0.042185,-9.472703,0.999998,0.000193,-0.000587,0.003417,-0.000069,0.003418,-0.000588,-89.019910,0.003655,
720,1320,1.425759,-3.555945,0.999997,0.000223,-0.002732,0.005310,-0.000360,0.005326,-0.002748,-87.444858,0.005327,
1060,1480,0.263689,-2.065842,0.999998,0.000169,-0.002072,0.004142,0.000937,0.004280,-0.002210,81.608554,0.004281,
1550,450,-0.517111,-8.318265,0.999997,0.000206,-0.002249,0.004749,0.000334,0.004765,-0.002265,87.271049,0.004767,
1550,160,-0.189450,-9.579042,0.999998,0.000169,-0.000792,0.003881,-0.000523,0.003938,-0.000849,-83.692020,0.004145,
1380,730,-0.249624,-7.416603,0.999998,0.000183,-0.002737,0.004438,0.001826,0.004876,-0.003175,76.510695,0.004950,
930,1770,0.329205,-1.002222,0.999998,0.000173,-0.001441,0.004261,-0.000147,0.004265,-0.001445,-88.526966,0.004338,
910,1820,0.294851,-0.804614,0.999998,0.000184,-0.001231,0.004145,-0.000355,0.004169,-0.001254,-86.233244,0.004278,
1640,1070,-1.585325,-4.820783,0.999998,0.000190,-0.002024,0.005175,0.000282,0.005186,-0.002035,87.758862,0.005226,
1370,850,-0.422494,-6.907804,0.999996,0.000233,-0.003120,0.004758,0.002248,0.005355,-0.003716,75.141824,0.005487,
1090,1960,0.034343,-0.235409,0.999999,0.000127,-0.000204,0.003212,-0.000213,0.003225,-0.000217,-86.453083,0.003606,
740,290,0.687782,-8.853382,0.999998,0.000164,-0.002131,0.004999,0.000273,0.005009,-0.002141,87.807916,0.005027,
650,1880,0.621007,-0.775089,0.999998,0.000184,-0.002148,0.005186,-0.000733,0.005259,-0.002221,-84.345207,0.005280,
590,100,0.490861,-9.565635,0.999997,0.000204,-0.002610,0.005590,0.001084,0.005731,-0.002751,82.596070,0.005733,
630,1500,1.360299,-2.746770,0.999997,0.000195,-0.002556,0.005102,0.000019,0.005102,-0.002556,89.857600,0.005102,
1830,190,-0.704604,-9.194635,0.999997,0.000198,-0.002352,0.005150,-0.000390,0.005170,-0.002372,-87.029510,0.005176,
1840,2020,-0.113793,-0.103416,0.999998,0.000000,-0.001934,0.004443,0.001456,0.004759,-0.002250,77.730028,0.004762,
1700,1150,-1.621646,-4.421171,0.999998,0.000202,-0.002415,0.005210,0.000586,0.005255,-0.002460,85.628055,0.005258,
800,1900,0.299485,-0.533198,0.999997,0.000208,-0.001368,0.004360,-0.000783,0.004465,-0.001473,-82.354925,0.004550,
1450,1870,-0.132945,-0.558142,0.999998,0.000144,-0.000723,0.003624,0.000255,0.003639,-0.000738,86.653978,0.003848,
670,1650,1.039034,-1.917911,0.999998,0.000161,-0.002486,0.005059,0.000060,0.005060,-0.002486,89.546857,0.005060,
600,460,1.295400,-7.770600,0.999998,0.000184,-0.002506,0.005057,-0.000046,0.005057,-0.002506,-89.648884,0.005058,
840,1420,0.905992,-2.836446,0.999997,0.000187,-0.002987,0.005485,0.000192,0.005489,-0.002991,88.705311,0.005497,
830,1680,0.617106,-1.521551,0.999996,0.000215,-0.002126,0.004833,0.000008,0.004833,-0.002126,89.930594,0.004844,
1740,450,-0.971430,-8.019347,0.999998,0.000144,-0.002526,0.005063,0.000116,0.005065,-0.002528,89.124652,0.005065,
1160,1560,0.091580,-1.620970,0.999998,0.000152,-0.001403,0.003574,0.000361,0.003600,-0.001429,85.874836,0.003625,
980,550,0.434550,-7.960183,0.999997,0.000195,-0.002428,0.004707,-0.000699,0.004774,-0.002496,-84.454911,0.004776,
1760,140,-0.405913,-9.547714,0.999997,0.000207,-0.001957,0.004775,-0.000958,0.004909,-0.002091,-82.056314,0.004926,
1630,1230,-1.278526,-3.934614,0.999997,0.000191,-0.003009,0.005767,0.000586,0.005806,-0.003047,86.198147,0.005809,
1510,40,-0.023276,-10.011502,0.999999,0.000138,-0.000199,0.003242,-0.000424,0.003293,-0.000251,-83.078916,0.003666,
1550,1840,-0.265642,-0.721701,0.999998,0.000198,-0.001109,0.004068,0.000413,0.004101,-0.001141,85.469461,0.004233,
1440,1540,-0.323357,-1.880398,0.999998,0.000189,-0.002083,0.004354,-0.000713,0.004432,-0.002161,-83.752188,0.004432,
1740,2020,-0.050007,-0.063111,0.999998,0.000000,-0.000377,0.003977,0.001462,0.004422,-0.000822,73.055476,0.004704,
1420,520,-0.283235,-8.214800,0.999998,0.000180,-0.001967,0.004223,0.000694,0.004300,-0.002043,83.675949,0.004301,
1790,140,-0.464363,-9.513064,0.999997,0.000244,-0.001849,0.005008,-0.001132,0.005190,-0.002031,-80.863350,0.005231,
1190,680,0.044571,-7.904551,0.999999,0.000146,-0.001240,0.002565,-0.000716,0.002695,-0.001370,-79.681538,0.002695,
1590,590,-0.753102,-7.546576,0.999997,0.000185,-0.002783,0.005304,0.000359,0.005320,-0.002799,87.465628,0.005323,
760,1540,0.966004,-2.332394,0.999998,0.000174,-0.002594,0.005180,0.000133,0.005182,-0.002597,89.023274,0.005182,
820,1310,1.152635,-3.487698,0.999998,0.000197,-0.003081,0.005720,-0.000278,0.005729,-0.003090,-88.190196,0.005735,
970,1930,0.104587,-0.354976,0.999998,0.000147,-0.000613,0.003576,-0.000407,0.003615,-0.000653,-84.504294,0.003854,
1110,750,0.186463,-7.453362,0.999997,0.000226,-0.002515,0.003882,-0.001993,0.004452,-0.003085,-74.035342,0.004561,
1280,210,-0.032043,-9.474879,0.999998,0.000199,-0.000558,0.003392,-0.000029,0.003392,-0.000559,-89.576854,0.003637,
590,1820,0.925162,-1.208711,0.999998,0.000159,-0.002426,0.004918,-0.000086,0.004919,-0.002427,-89.328443,0.004919,
930,1750,0.350215,-1.086199,0.999998,0.000177,-0.001510,0.004244,-0.000063,0.004245,-0.001511,-89.377546,0.004304,
720,1340,1.388731,-3.449075,0.999997,0.000214,-0.002767,0.005299,-0.000309,0.005311,-0.002779,-87.807407,0.005313,
1300,1490,-0.088158,-1.864369,0.999999,0.000122,-0.001445,0.003378,-0.000560,0.003442,-0.001510,-83.463772,0.003451,
1400,150,-0.072122,-9.660280,0.999999,0.000151,-0.000556,0.003418,-0.000208,0.003429,-0.000567,-87.016487,0.003676,
1890,220,-0.930911,-8.908312,0.999998,0.000156,-0.002399,0.004866,-0.000132,0.004868,-0.002402,-88.956000,0.004868,
1550,430,-0.499990,-8.412487,0.999997,0.000188,-0.002177,0.004697,0.000308,0.004711,-0.002191,87.442869,0.004715,
1380,610,-0.222476,-7.921079,0.999998,0.000186,-0.002030,0.004000,0.001079,0.004188,-0.002217,80.157610,0.004190,
620,1670,1.132565,-1.899257,0.999998,0.000157,-0.002487,0.005026,0.000068,0.005026,-0.002488,89.478247,0.005026,
1060,1460,0.268545,-2.151307,0.999997,0.000182,-0.002157,0.004238,0.001050,0.004405,-0.002325,80.913512,0.004408,
1360,1690,-0.144789,-1.184651,0.999999,0.000165,-0.001196,0.003790,-0.000133,0.003793,-0.001199,-88.469760,0.003878,
570,620,1.616971,-6.909368,0.999608,0.002410,-0.004068,0.003845,0.000014,0.003845,-0.004068,89.896380,0.004574,
1620,1070,-1.544770,-4.817487,0.999998,0.000194,-0.002024,0.005248,0.000325,0.005263,-0.002038,87.446712,0.005307,
950,100,0.088291,-9.809830,0.999998,0.000157,-0.000513,0.003492,0.000486,0.003550,-0.000571,83.183686,0.003812,
1150,1960,0.018547,-0.230097,0.999998,0.000168,-0.000251,0.003132,-0.000116,0.003136,-0.000255,-88.044485,0.003484,
1830,410,-1.140523,-8.076878,0.999998,0.000154,-0.002478,0.005047,0.000055,0.005047,-0.002478,89.581047,0.005047,
1370,1590,-0.183565,-1.572248,0.999997,0.000202,-0.001541,0.003878,-0.000437,0.003913,-0.001576,-85.417791,0.003937,
1550,1500,-0.607630,-2.274893,0.999997,0.000196,-0.002676,0.005059,-0.000494,0.005090,-0.002708,-86.362647,0.005094,
1630,1340,-1.056318,-3.297712,0.999998,0.000196,-0.003116,0.005715,0.000110,0.005716,-0.003117,89.283368,0.005724,
1540,1570,-0.523615,-1.911991,0.999998,0.000198,-0.002294,0.004747,-0.000402,0.004770,-0.002317,-86.746799,0.004771,
840,1400,0.936042,-2.947496,0.999998,0.000180,-0.003053,0.005514,0.000123,0.005516,-0.003055,89.174552,0.005526,
1680,1150,-1.571432,-4.412273,0.999997,0.000238,-0.002447,0.005312,0.000621,0.005361,-0.002497,85.450405,0.005365,
1450,1850,-0.151770,-0.633307,0.999998,0.000157,-0.000824,0.003719,0.000242,0.003732,-0.000837,86.960874,0.003916,
800,1880,0.342223,-0.619282,0.999997,0.000189,-0.001527,0.004380,-0.000687,0.004459,-0.001606,-83.449078,0.004517,
1560,40,-0.026227,-10.010572,0.999999,0.000147,-0.000112,0.003328,-0.000637,0.003442,-0.000226,-79.836289,0.003851,
1840,30,-0.091306,-10.001179,0.999998,0.000000,-0.001410,0.004810,-0.001885,0.005336,-0.001936,-74.391620,0.005403,
1720,450,-0.922200,-8.052977,0.999998,0.000149,-0.002486,0.005061,0.000125,0.005063,-0.002488,89.051016,0.005064,
600,440,1.265344,-7.871929,0.999998,0.000169,-0.002484,0.005002,-0.000075,0.005003,-0.002484,-89.425685,0.005003,
980,530,0.422594,-8.055728,0.999998,0.000177,-0.002311,0.004648,-0.000643,0.004707,-0.002370,-84.762925,0.004707,
810,1680,0.661457,-1.549252,0.999997,0.000186,-0.002285,0.004915,0.000056,0.004916,-0.002285,89.553732,0.004920,
710,1120,1.780609,-4.591566,0.999998,0.000150,-0.002291,0.004922,-0.000396,0.004944,-0.002312,-86.867026,0.004947,
1630,470,-0.724243,-8.095860,0.999998,0.000191,-0.002424,0.004971,0.000211,0.004977,-0.002430,88.366225,0.004978,
1760,120,-0.345229,-9.640011,0.999998,0.000188,-0.001800,0.004740,-0.001131,0.004931,-0.001990,-80.461908,0.004961,
890,600,0.716287,-7.527120,0.999997,0.000209,-0.002893,0.005274,-0.000438,0.005297,-0.002916,-86.938657,0.005306,
1590,790,-1.075219,-6.406780,0.999998,0.000179,-0.003287,0.006017,-0.000307,0.006028,-0.003297,-88.110709,0.006036,
1830,1380,-1.546677,-3.356610,0.999996,0.000220,-0.002554,0.005062,0.000159,0.005065,-0.002557,88.801695,0.005065,
1310,1650,-0.090969,-1.298383,0.999998,0.000182,-0.001232,0.003647,-0.000199,0.003655,-0.001240,-87.663112,0.003718,
1550,620,-0.669615,-7.469686,0.999996,0.000237,-0.002947,0.005334,0.000546,0.005369,-0.002983,86.242547,0.005380,
1110,730,0.180335,-7.527050,0.999997,0.000218,-0.002372,0.003799,-0.001851,0.004312,-0.002885,-74.517329,0.004393,
1000,210,0.167142,-9.422877,0.999998,0.000165,-0.000856,0.003766,0.000243,0.003779,-0.000869,86.994077,0.003958,
1040,710,0.360737,-7.345574,0.999997,0.000204,-0.003061,0.005039,-0.001458,0.005294,-0.003315,-80.099675,0.005350,
680,1020,1.901798,-5.076527,0.999998,0.000156,-0.002158,0.004739,0.000070,0.004739,-0.002159,89.416269,0.004745,
1550,1820,-0.290029,-0.802772,0.999998,0.000190,-0.001185,0.004162,0.000351,0.004185,-0.001208,86.259279,0.004308,
1890,240,-0.978199,-8.809376,0.999998,0.000165,-0.002386,0.004839,-0.000068,0.004839,-0.002387,-89.460711,0.004840,
930,990,1.379555,-5.258874,0.999997,0.000210,-0.001913,0.006019,0.000397,0.006038,-0.001933,87.144297,0.006167,
720,1360,1.352847,-3.343362,0.999997,0.000203,-0.002783,0.005294,-0.000256,0.005302,-0.002791,-88.188029,0.005305,
890,90,0.099739,-9.836075,0.999998,0.000155,-0.000563,0.003543,0.000651,0.003644,-0.000663,81.203321,0.003882,
1390,280,-0.142696,-9.198187,0.999998,0.000150,-0.000990,0.003720,-0.000038,0.003721,-0.000990,-89.538343,0.003854,
1300,1470,-0.087978,-1.929957,0.999998,0.000171,-0.001445,0.003282,-0.000633,0.003365,-0.001528,-82.506789,0.003370,
580,1820,0.949706,-1.230194,0.999998,0.000163,-0.002432,0.004906,-0.000060,0.004906,-0.002432,-89.531360,0.004906,
1790,2020,-0.071092,-0.067368,0.999998,0.000000,0.000027,0.004153,0.001890,0.004888,-0.000708,68.751166,0.005283,
1420,500,-0.277450,-8.298810,0.999997,0.000175,-0.001864,0.004185,0.000605,0.004245,-0.001924,84.347183,0.004251,
1350,1960,-0.027828,-0.233394,0.999999,0.000128,-0.000260,0.003181,0.000143,0.003187,-0.000266,87.627184,0.003536,
1830,170,-0.642556,-9.298861,0.999997,0.000211,-0.002331,0.005249,-0.000500,0.005281,-0.002364,-86.243693,0.005291,
1240,150,-0.004789,-9.678363,0.999998,0.000166,-0.000424,0.003234,-0.000001,0.003234,-0.000424,-89.989974,0.003516,
1530,1500,-0.554523,-2.234800,0.999997,0.000212,-0.002608,0.004979,-0.000577,0.005023,-0.002652,-85.673296,0.005025,
670,1630,1.069577,-2.017824,0.999998,0.000166,-0.002495,0.005045,0.000073,0.005046,-0.002496,89.448152,0.005046,
910,1760,0.368109,-1.062213,0.999997,0.000191,-0.001509,0.004320,-0.000158,0.004324,-0.001513,-88.453261,0.004388,
1370,1570,-0.187537,-1.651833,0.999998,0.000168,-0.001601,0.003898,-0.000549,0.003952,-0.001655,-84.358168,0.003970,
1160,1760,0.062889,-0.901021,0.999998,0.000140,-0.000866,0.003552,-0.000012,0.003552,-0.000866,-89.850488,0.003704,
1450,1830,-0.166856,-0.706402,0.999998,0.000169,-0.000921,0.003744,0.000191,0.003752,-0.000929,87.658324,0.003908,
1610,1620,-0.638740,-1.780206,0.999998,0.000216,-0.002344,0.004882,-0.000220,0.004888,-0.002351,-88.261490,0.004889,
1060,1660,0.214176,-1.333859,0.999998,0.000172,-0.001544,0.003959,0.000331,0.003979,-0.001564,86.569271,0.004009,
1600,1210,-1.234163,-4.018012,0.999997,0.000216,-0.003027,0.005885,0.000606,0.005926,-0.003069,86.126704,0.005927,
1550,40,-0.026826,-10.010864,0.999999,0.000130,-0.000044,0.003334,-0.000611,0.003441,-0.000151,-80.051226,0.003889,
1630,1360,-1.020219,-3.183016,0.999998,0.000191,-0.003106,0.005660,0.000039,0.005661,-0.003106,89.744022,0.005670,
840,1570,0.723681,-2.048252,0.999998,0.000184,-0.002464,0.005010,0.000254,0.005019,-0.002473,88.058342,0.005019,
1510,70,-0.054533,-9.911940,0.999998,0.000137,-0.000370,0.003342,-0.000470,0.003401,-0.000428,-82.898700,0.003704,
840,1380,0.966417,-3.056985,0.999997,0.000198,-0.003098,0.005552,0.000070,0.005553,-0.003098,89.533951,0.005565,
800,1860,0.384059,-0.709344,0.999997,0.000197,-0.001667,0.004499,-0.000623,0.004561,-0.001729,-84.289937,0.004605,
1760,690,-1.390340,-6.740029,0.999997,0.000218,-0.002693,0.005258,-0.000225,0.005264,-0.002699,-88.382041,0.005264,
1730,80,-0.176890,-9.838701,0.999998,0.000146,-0.000832,0.004099,-0.001265,0.004405,-0.001137,-76.420655,0.004573,
1830,2020,-0.091272,-0.085188,0.999998,0.000000,-0.001700,0.004376,0.001514,0.004732,-0.002057,76.752046,0.004746,
1270,480,-0.048088,-8.526654,0.999999,0.000129,-0.001245,0.003490,0.000160,0.003496,-0.001251,88.062283,0.003543,
1410,960,-0.986452,-5.830196,0.999992,0.000368,-0.003569,0.009415,0.002957,0.010057,-0.004211,77.756297,0.010101,
1310,1690,-0.083552,-1.154154,0.999999,0.000137,-0.001132,0.003629,-0.000120,0.003632,-0.001135,-88.551505,0.003717,
970,1910,0.123187,-0.424009,0.999998,0.000159,-0.000739,0.003643,-0.000372,0.003675,-0.000770,-85.176048,0.003876,
930,1730,0.368024,-1.173017,0.999998,0.000191,-0.001556,0.004400,-0.000038,0.004400,-0.001556,-89.638465,0.004462,
1290,400,-0.068466,-8.805625,0.999999,0.000125,-0.001127,0.003605,0.000095,0.003607,-0.001129,88.855709,0.003690,
760,1520,0.993710,-2.438292,0.999998,0.000180,-0.002627,0.005219,0.000127,0.005221,-0.002629,89.072639,0.005221,
800,1310,1.213195,-3.515000,0.999998,0.000189,-0.003018,0.005658,-0.000314,0.005670,-0.003029,-87.933134,0.005674,
1630,1210,-1.323247,-4.049482,0.999998,0.000173,-0.002913,0.005683,0.000627,0.005728,-0.002959,85.849676,0.005729,
610,1120,2.005466,-4.631648,0.999998,0.000182,-0.002162,0.004503,-0.000241,0.004512,-0.002171,-87.927538,0.004513,
1440,630,-0.368228,-7.681663,0.999997,0.000220,-0.002640,0.004673,0.001105,0.004836,-0.002803,81.591340,0.004857,
1550,600,-0.650413,-7.575524,0.999998,0.000201,-0.002848,0.005213,0.000534,0.005248,-0.002883,86.225803,0.005257,
1420,480,-0.273580,-8.381656,0.999997,0.000189,-0.001749,0.004153,0.000519,0.004199,-0.001794,85.015780,0.004213,
690,2000,0.133732,-0.147676,0.999998,0.000209,-0.000621,0.004403,-0.001743,0.004949,-0.001167,-72.620621,0.005174,
1760,100,-0.276790,-9.736183,0.999998,0.000180,-0.001630,0.004472,-0.001179,0.004692,-0.001850,-79.437333,0.004727,
870,1600,0.617033,-1.850768,0.999997,0.000221,-0.002333,0.004861,0.000271,0.004871,-0.002343,87.845339,0.004872,
740,210,0.522541,-9.246959,0.999997,0.000187,-0.001828,0.004863,0.000716,0.004938,-0.001904,83.956295,0.004981,
720,1380,1.317704,-3.237590,0.999997,0.000190,-0.002778,0.005299,-0.000217,0.005305,-0.002784,-88.464079,0.005307,
1830,130,-0.506394,-9.511611,0.999997,0.000208,-0.002290,0.005315,-0.000804,0.005399,-0.002374,-84.032506,0.005412,
1220,150,0.004160,-9.676541,0.999998,0.000150,-0.000465,0.003214,-0.000001,0.003214,-0.000465,-89.977092,0.003475,
1300,1450,-0.087019,-1.995612,0.999998,0.000151,-0.001425,0.003223,-0.000712,0.003330,-0.001532,-81.481349,0.003333,
1710,1020,-1.743983,-5.076947,0.999998,0.000170,-0.002101,0.004966,-0.000076,0.004967,-0.002102,-89.382310,0.004987,
600,1670,1.182697,-1.932720,0.999998,0.000167,-0.002473,0.004982,0.000059,0.004983,-0.002474,89.543846,0.004983,
1640,750,-1.153493,-6.568416,0.999997,0.000202,-0.003115,0.005742,-0.000298,0.005752,-0.003125,-88.077496,0.005759,
1450,1810,-0.183508,-0.786461,0.999998,0.000147,-0.001025,0.003850,0.000154,0.003855,-0.001030,88.190606,0.003992,
1330,1960,-0.022326,-0.231104,0.999998,0.000157,-0.000285,0.003161,0.000103,0.003164,-0.000288,88.296444,0.003499,
1540,40,-0.027938,-10.010081,0.999999,0.000129,-0.000029,0.003323,-0.000565,0.003416,-0.000121,-80.679771,0.003877,
1180,1430,0.061483,-2.034759,0.999999,0.000150,-0.001316,0.003004,0.000622,0.003092,-0.001404,81.962637,0.003096,
1210,100,0.005827,-9.836332,0.999999,0.000142,-0.000278,0.003120,0.000013,0.003120,-0.000278,89.775093,0.003453,
1150,1590,0.104446,-1.519625,0.999998,0.000171,-0.001392,0.003660,0.000354,0.003684,-0.001417,86.014775,0.003717,
670,1610,1.097049,-2.119143,0.999998,0.000176,-0.002501,0.005075,0.000087,0.005076,-0.002502,89.342734,0.005076,
1050,1610,0.249799,-1.549230,0.999998,0.000172,-0.001654,0.004036,0.000426,0.004068,-0.001686,85.746207,0.004088,
1590,1620,-0.591663,-1.750163,0.999998,0.000174,-0.002237,0.004797,-0.000209,0.004803,-0.002243,-88.297568,0.004806,
1540,1600,-0.498499,-1.770616,0.999998,0.000184,-0.002235,0.004696,-0.000375,0.004717,-0.002255,-86.910624,0.004718,
1790,30,-0.047061,-10.032718,0.999999,0.000000,0.000048,0.004170,-0.001990,0.004974,-0.000756,-67.997572,0.005360,
1700,450,-0.873778,-8.084501,0.999998,0.000176,-0.002471,0.005060,0.000123,0.005062,-0.002473,89.064284,0.005062,
910,1740,0.390806,-1.147263,0.999998,0.000181,-0.001612,0.004362,-0.000056,0.004362,-0.001612,-89.460861,0.004411,
1830,30,-0.070349,-10.015783,0.999998,0.000000,-0.001468,0.004519,-0.001658,0.004947,-0.001897,-75.512461,0.004992,
1120,1870,0.060593,-0.528332,0.999998,0.000171,-0.000629,0.003433,-0.000079,0.003434,-0.000630,-88.884655,0.003656,
1490,1180,-0.955569,-4.007115,0.999998,0.000201,-0.003553,0.006771,0.000199,0.006774,-0.003557,88.893793,0.006777,
1550,1280,-0.905527,-3.507094,0.999998,0.000169,-0.003538,0.006180,0.000001,0.006180,-0.003538,89.995370,0.006202,
1320,180,-0.044757,-9.574133,0.999998,0.000179,-0.000584,0.003354,-0.000069,0.003355,-0.000585,-88.998171,0.003585,
600,420,1.238306,-7.971234,0.999998,0.000175,-0.002457,0.004992,-0.000075,0.004993,-0.002458,-89.419614,0.004993,
1150,1200,0.311727,-2.709724,0.999997,0.000193,-0.002185,0.001770,0.000846,0.001943,-0.002359,78.418681,0.002518,
570,1820,0.974990,-1.252617,0.999998,0.000175,-0.002430,0.004900,-0.000036,0.004900,-0.002430,-89.715707,0.004900,
1370,1550,-0.191417,-1.729542,0.999998,0.000169,-0.001681,0.003902,-0.000669,0.003981,-0.001760,-83.261327,0.003990,
1370,280,-0.123233,-9.205400,0.999999,0.000144,-0.000941,0.003683,-0.000031,0.003683,-0.000942,-89.618969,0.003827,
920,1290,0.859262,-3.429458,0.999997,0.000209,-0.003572,0.006126,0.000128,0.006127,-0.003573,89.240990,0.006155,
800,1840,0.424531,-0.798338,0.999997,0.000188,-0.001791,0.004533,-0.000525,0.004576,-0.001834,-85.287868,0.004606,
1830,110,-0.430480,-9.620744,0.999996,0.000216,-0.002179,0.005272,-0.000981,0.005399,-0.002306,-82.622716,0.005418,
1760,80,-0.220166,-9.816295,0.999997,0.000180,-0.001245,0.004411,-0.001419,0.004747,-0.001581,-76.677186,0.004834,
1870,1910,-0.659410,-0.749708,0.999996,0.000250,-0.002443,0.005192,0.000531,0.005229,-0.002479,86.043770,0.005231,
930,1690,0.409140,-1.350162,0.999997,0.000199,-0.001689,0.004415,0.000062,0.004415,-0.001689,89.419909,0.004456,
1200,440,0.040179,-8.670758,0.999998,0.000185,-0.001186,0.003538,-0.000134,0.003542,-0.001190,-88.380799,0.003605,
1580,960,-1.429036,-5.411735,0.999997,0.000213,-0.002128,0.005604,-0.000569,0.005646,-0.002170,-85.813044,0.005696,
980,160,0.132052,-9.603627,0.999998,0.000167,-0.000732,0.003685,0.000348,0.003712,-0.000759,85.520979,0.003922,
760,1500,1.019483,-2.542051,0.999998,0.000189,-0.002673,0.005230,0.000138,0.005232,-0.002675,88.998220,0.005233,
880,1570,0.626186,-1.982435,0.999997,0.000180,-0.002450,0.004908,0.000323,0.004922,-0.002464,87.491499,0.004922,
1640,40,-0.040611,-10.007227,0.999998,0.000166,-0.000121,0.003511,-0.000933,0.003736,-0.000347,-76.400839,0.004129,
1550,100,-0.107023,-9.804610,0.999999,0.000175,-0.000437,0.003568,-0.000606,0.003658,-0.000527,-81.587815,0.003955,
840,1360,0.999279,-3.169404,0.999997,0.000200,-0.003127,0.005674,0.000001,0.005674,-0.003127,89.995511,0.005684,
680,1000,1.892600,-5.169912,0.999998,0.000161,-0.002161,0.004711,0.000149,0.004714,-0.002164,88.759789,0.004720,
1160,810,0.130920,-7.522708,0.999998,0.000197,-0.002072,0.002158,-0.001766,0.002798,-0.002712,-70.072616,0.003182,
1110,710,0.174309,-7.605540,0.999997,0.000208,-0.002255,0.003738,-0.001713,0.004193,-0.002710,-75.121851,0.004253,
1270,1230,-0.087785,-2.430429,0.999997,0.000194,-0.002287,0.001420,-0.000663,0.001535,-0.002402,-80.160170,0.002432,
1060,680,0.290176,-7.559227,0.999997,0.000188,-0.002647,0.004532,-0.001459,0.004817,-0.002932,-78.936239,0.004855,
1870,830,-1.908969,-5.911957,0.999998,0.000173,-0.002276,0.004633,-0.000169,0.004637,-0.002280,-88.603020,0.004637,
1790,1970,-0.273949,-0.299916,0.999997,0.000197,-0.001045,0.004776,0.001773,0.005273,-0.001543,74.325391,0.005422,
1380,750,-0.262926,-7.326397,0.999997,0.000229,-0.002929,0.004574,0.001930,0.005041,-0.003396,76.389241,0.005141,
1450,1790,-0.199896,-0.859596,0.999998,0.000141,-0.001103,0.003867,0.000106,0.003869,-0.001105,88.777120,0.003986,
670,1590,1.126859,-2.221025,0.999998,0.000183,-0.002550,0.005086,0.000082,0.005087,-0.002550,89.383702,0.005087,
890,70,0.070710,-9.906767,0.999998,0.000142,-0.000381,0.003541,0.000676,0.003654,-0.000494,80.494740,0.003966,
1420,460,-0.267084,-8.462489,0.999997,0.000202,-0.001683,0.004113,0.000436,0.004146,-0.001716,85.722909,0.004166,
1290,1700,-0.061924,-1.113740,0.999998,0.000139,-0.001020,0.003592,-0.000036,0.003592,-0.001020,-89.555114,0.003702,
980,210,0.184081,-9.415190,0.999998,0.000165,-0.000984,0.003821,0.000271,0.003836,-0.000999,86.787176,0.003980,
690,120,0.367667,-9.627157,0.999996,0.000221,-0.001764,0.004876,0.001220,0.005093,-0.001981,79.914687,0.005135,
1160,1430,0.089485,-2.065259,0.999999,0.000121,-0.001446,0.003153,0.000794,0.003286,-0.001579,80.481230,0.003287,
620,1350,1.632343,-3.525752,0.999997,0.000217,-0.002493,0.005057,-0.000161,0.005060,-0.002496,-88.776086,0.005060,
1550,410,-0.480162,-8.506319,0.999996,0.000211,-0.002091,0.004614,0.000249,0.004623,-0.002100,87.876723,0.004630,
1780,2020,-0.070671,-0.068938,0.999998,0.000000,-0.000141,0.004115,0.001746,0.004739,-0.000766,70.315359,0.005088,
770,1420,1.109196,-2.951856,0.999998,0.000163,-0.002858,0.005345,-0.000029,0.005345,-0.002858,-89.797762,0.005350,
600,380,1.175282,-8.172743,0.999998,0.000154,-0.002435,0.004957,-0.000055,0.004957,-0.002436,-89.573506,0.004957,
1420,1750,-0.190952,-0.995469,0.999999,0.000163,-0.001335,0.003850,-0.000075,0.003851,-0.001336,-89.174447,0.003911,
1100,1870,0.073379,-0.534072,0.999998,0.000172,-0.000590,0.003453,-0.000128,0.003457,-0.000594,-88.192724,0.003697,
1870,1460,-1.516528,-3.008663,0.999998,0.000192,-0.002531,0.005060,0.000008,0.005060,-0.002531,89.939098,0.005060,
630,320,1.001407,-8.526519,0.999998,0.000173,-0.002411,0.005045,-0.000025,0.005045,-0.002411,-89.809677,0.005046,
1370,1530,-0.194604,-1.808431,0.999998,0.000159,-0.001746,0.003865,-0.000742,0.003962,-0.001842,-82.592732,0.003965,
900,150,0.185129,-9.613809,0.999998,0.000170,-0.000832,0.003887,0.000553,0.003950,-0.000896,83.406689,0.004142,
1840,1970,-0.343085,-0.355152,0.999997,0.000190,-0.002324,0.005399,0.001249,0.005596,-0.002521,81.039396,0.005605,
1320,160,-0.039617,-9.639465,0.999999,0.000135,-0.000493,0.003289,-0.000097,0.003292,-0.000496,-88.535582,0.003549,
1160,660,0.085737,-7.907957,0.999999,0.000157,-0.001409,0.002998,-0.000949,0.003193,-0.001605,-78.349639,0.003193,
1830,90,-0.341864,-9.724302,0.999997,0.000202,-0.002066,0.005221,-0.001298,0.005445,-0.002291,-80.191901,0.005468,
1190,280,0.035244,-9.235425,0.999998,0.000156,-0.000837,0.003483,-0.000001,0.003483,-0.000837,-89.987727,0.003636,
800,1820,0.462926,-0.891845,0.999997,0.000193,-0.001888,0.004656,-0.000445,0.004686,-0.001918,-86.129813,0.004711,
720,210,0.560044,-9.225271,0.999996,0.000218,-0.002128,0.004921,0.000546,0.004963,-0.002170,85.597898,0.004976,
1580,1980,-0.084014,-0.191936,0.999998,0.000150,-0.000473,0.003527,0.000673,0.003637,-0.000583,80.700572,0.003907,
1760,60,-0.141013,-9.913943,0.999998,0.000185,-0.000885,0.004361,-0.001580,0.004800,-0.001325,-74.464881,0.004958,
720,1820,0.620698,-0.978375,0.999997,0.000193,-0.002189,0.004968,-0.000429,0.004994,-0.002214,-86.584294,0.005004,
1590,40,-0.034182,-10.008996,0.999999,0.000131,-0.000255,0.003336,-0.000702,0.003468,-0.000387,-79.327898,0.003801,
1340,1510,-0.147715,-1.839349,0.999999,0.000133,-0.001535,0.003644,-0.000604,0.003714,-0.001605,-83.430474,0.003725,
880,1550,0.645236,-2.082127,0.999998,0.000176,-0.002499,0.005014,0.000367,0.005032,-0.002517,87.206316,0.005032,
840,1770,0.477269,-1.084326,0.999997,0.000213,-0.001748,0.004620,-0.000271,0.004632,-0.001759,-87.571295,0.004676,
1060,640,0.278850,-7.735645,0.999997,0.000190,-0.002362,0.004348,-0.001245,0.004571,-0.002585,-79.820795,0.004584,
1790,1950,-0.340196,-0.387771,0.999997,0.000199,-0.001430,0.004886,0.001453,0.005204,-0.001748,77.646923,0.005297,
1270,830,-0.098057,-7.644832,0.999997,0.000200,-0.002454,0.001410,0.000509,0.001476,-0.002520,82.627175,0.002533,
1110,690,0.170213,-7.683097,0.999998,0.000196,-0.002135,0.003735,-0.001550,0.004119,-0.002519,-76.081960,0.004153,
1140,810,0.173297,-7.407512,0.999997,0.000219,-0.002382,0.002878,-0.002080,0.003602,-0.003105,-70.829755,0.003904,
1450,1770,-0.216344,-0.938555,0.999998,0.000157,-0.001193,0.003927,0.000062,0.003927,-0.001194,89.305332,0.004027,
1240,210,-0.005968,-9.479722,0.999998,0.000186,-0.000672,0.003358,0.000008,0.003358,-0.000672,89.886644,0.003553,
1590,1600,-0.611851,-1.846884,0.999999,0.000163,-0.002330,0.004851,-0.000275,0.004862,-0.002341,-87.810203,0.004863,
1420,440,-0.258431,-8.543677,0.999997,0.000205,-0.001636,0.004075,0.000397,0.004102,-0.001664,86.039724,0.004127,
1710,1350,-1.277104,-3.354705,0.999997,0.000229,-0.002876,0.005448,0.000259,0.005457,-0.002884,88.217547,0.005460,
1090,100,0.036160,-9.828203,0.999998,0.000154,-0.000228,0.003214,0.000207,0.003227,-0.000240,86.574474,0.003595,
1660,420,-0.737814,-8.297198,0.999998,0.000173,-0.002346,0.004969,0.000120,0.004971,-0.002348,89.063785,0.004974,
920,1310,0.821126,-3.306944,0.999997,0.000248,-0.003545,0.006059,0.000251,0.006066,-0.003552,88.504813,0.006095,
1820,2020,-0.072418,-0.072986,0.999997,0.000000,-0.001133,0.004367,0.001734,0.004868,-0.001634,73.887934,0.004955,
1320,140,-0.031980,-9.704548,0.999999,0.000137,-0.000418,0.003273,-0.000098,0.003276,-0.000421,-88.475697,0.003564,
1100,1450,0.189765,-2.105906,0.999998,0.000145,-0.001840,0.003826,0.001011,0.004001,-0.002015,80.184404,0.004001,
1400,1750,-0.164953,-0.981609,0.999999,0.000150,-0.001174,0.003779,-0.000032,0.003779,-0.001174,-89.626455,0.003868,
600,360,1.140550,-8.272165,0.999998,0.000161,-0.002443,0.004975,-0.000060,0.004976,-0.002444,-89.536220,0.004976,
690,740,1.516355,-6.463589,0.999996,0.000223,-0.002624,0.005222,0.000339,0.005236,-0.002638,87.531147,0.005236,
1370,1510,-0.198061,-1.887692,0.999998,0.000167,-0.001798,0.003855,-0.000817,0.003970,-0.001914,-81.937084,0.003971,
1360,1870,-0.071266,-0.532155,0.999998,0.000173,-0.000567,0.003405,0.000113,0.003408,-0.000570,88.369138,0.003651,
1750,1990,-0.153739,-0.186405,0.999998,0.000184,-0.000996,0.004273,0.001449,0.004645,-0.001369,75.591752,0.004774,
1830,70,-0.247820,-9.829637,0.999997,0.000211,-0.001940,0.005204,-0.001452,0.005488,-0.002224,-78.938449,0.005521,
1580,1940,-0.146415,-0.339320,0.999998,0.000183,-0.000796,0.003800,0.000649,0.003890,-0.000885,82.113420,0.004077,
1250,480,-0.022885,-8.534604,0.999999,0.000167,-0.001262,0.003468,0.000151,0.003473,-0.001267,88.171193,0.003515,
670,1570,1.155654,-2.323362,0.999998,0.000188,-0.002571,0.005114,0.000081,0.005114,-0.002572,89.397032,0.005114,
1780,30,-0.046332,-10.033324,0.999999,0.000000,0.000033,0.004084,-0.001845,0.004799,-0.000682,-68.838031,0.005192,
1630,1170,-1.409672,-4.276310,0.999997,0.000205,-0.002639,0.005614,0.000673,0.005669,-0.002694,85.371949,0.005671,
1570,60,-0.056925,-9.944012,0.999998,0.000158,-0.000334,0.003472,-0.000663,0.003584,-0.000446,-80.402648,0.003906,
800,1800,0.500392,-0.984746,0.999997,0.000188,-0.001965,0.004672,-0.000345,0.004690,-0.001983,-87.030195,0.004709,
1510,1180,-1.025683,-4.061779,0.999998,0.000166,-0.003407,0.006591,0.000396,0.006606,-0.003422,87.737017,0.006608,
1020,360,0.255563,-8.848390,0.999998,0.000164,-0.001470,0.004031,-0.000183,0.004037,-0.001476,-88.095668,0.004086,
1530,620,-0.611738,-7.512191,0.999997,0.000217,-0.002883,0.005263,0.000605,0.005308,-0.002928,85.772538,0.005317,
1130,280,0.088747,-9.220603,0.999998,0.000167,-0.000984,0.003576,-0.000047,0.003577,-0.000985,-89.413333,0.003695,
1550,370,-0.442436,-8.690145,0.999998,0.000183,-0.001844,0.004490,0.000067,0.004490,-0.001844,89.390093,0.004514,
860,1570,0.674336,-2.017257,0.999997,0.000204,-0.002457,0.004967,0.000289,0.004978,-0.002468,87.773962,0.004979,
1060,100,0.043585,-9.827153,0.999999,0.000150,-0.000360,0.003265,0.000233,0.003280,-0.000375,86.334616,0.003591,
740,50,0.090803,-9.958436,0.999998,0.000170,-0.000317,0.003898,0.001344,0.004290,-0.000709,73.738208,0.004600,
880,150,0.204373,-9.605806,0.999998,0.000178,-0.001066,0.003986,0.000587,0.004053,-0.001134,83.463077,0.004183,
1110,670,0.169856,-7.755210,0.999998,0.000165,-0.002012,0.003718,-0.001394,0.004038,-0.002333,-77.030202,0.004055,
1270,810,-0.066879,-7.666053,0.999997,0.000195,-0.001816,0.001323,0.001000,0.001614,-0.002107,73.745184,0.002204,
950,1420,0.576813,-2.609228,0.999997,0.000202,-0.002952,0.005240,0.000691,0.005298,-0.003010,85.210123,0.005315,
1450,1750,-0.230669,-1.017350,0.999998,0.000160,-0.001251,0.003939,-0.000012,0.003939,-0.001251,-89.866150,0.004025,
1440,610,-0.358261,-7.775715,0.999997,0.000214,-0.002512,0.004642,0.001017,0.004783,-0.002653,82.066920,0.004793,
1210,2000,0.003207,-0.106070,0.999999,0.000125,-0.000132,0.003028,-0.000017,0.003029,-0.000132,-89.700709,0.003423,
660,1630,1.093732,-2.033845,0.999998,0.000177,-0.002499,0.005055,0.000069,0.005055,-0.002500,89.476690,0.005055,
1790,1930,-0.415182,-0.494117,0.999997,0.000206,-0.001713,0.005072,0.001299,0.005312,-0.001953,79.522457,0.005373,
760,1480,1.047027,-2.647854,0.999997,0.000201,-0.002714,0.005253,0.000091,0.005254,-0.002715,89.345575,0.005255,
970,350,0.324227,-8.840667,0.999998,0.000174,-0.001716,0.004205,-0.000176,0.004210,-0.001721,-88.298869,0.004233,
600,1110,2.037138,-4.683006,0.999998,0.000169,-0.002127,0.004412,-0.000147,0.004416,-0.002130,-88.716316,0.004416,
1420,420,-0.250233,-8.624113,0.999997,0.000181,-0.001614,0.004048,0.000364,0.004072,-0.001638,86.332259,0.004098,
770,380,0.759432,-8.448620,0.999998,0.000177,-0.002298,0.004932,-0.000022,0.004932,-0.002298,-89.826371,0.004936,
1710,1000,-1.735280,-5.176879,0.999998,0.000168,-0.002096,0.004960,-0.000174,0.004964,-0.002100,-88.585096,0.004984,
1170,1700,0.065443,-1.114294,0.999998,0.000148,-0.001026,0.003567,0.000052,0.003568,-0.001026,89.349007,0.003674,
1160,620,0.091622,-8.029963,0.999998,0.000176,-0.001452,0.003191,-0.000799,0.003325,-0.001585,-80.509478,0.003326,
1080,1450,0.228066,-2.146003,0.999999,0.000142,-0.002042,0.004060,0.001063,0.004240,-0.002222,80.391487,0.004242,
1220,210,0.008091,-9.480408,0.999998,0.000169,-0.000649,0.003355,-0.000024,0.003356,-0.000649,-89.653373,0.003560,
1820,30,-0.054500,-10.030621,0.999996,0.000000,-0.001106,0.004383,-0.001732,0.004884,-0.001607,-73.868629,0.004978,
1180,840,0.165904,-7.573691,0.999997,0.000213,-0.002679,0.001496,-0.000505,0.001557,-0.002739,-83.194729,0.002748,
1370,1490,-0.198452,-1.964594,0.999998,0.000159,-0.001816,0.003858,-0.000854,0.003983,-0.001942,-81.626438,0.003984,
930,1670,0.425594,-1.439134,0.999996,0.000224,-0.001809,0.004466,0.000160,0.004470,-0.001813,88.537694,0.004497,
600,340,1.107474,-8.371664,0.999998,0.000155,-0.002435,0.004946,-0.000068,0.004947,-0.002436,-89.471284,0.004947,
1750,1970,-0.217989,-0.273026,0.999998,0.000174,-0.001344,0.004232,0.001247,0.004498,-0.001610,77.948080,0.004558,
1200,420,0.037654,-8.740954,0.999999,0.000172,-0.001145,0.003545,-0.000111,0.003548,-0.001148,-88.645262,0.003621,
1320,120,-0.027119,-9.769886,0.999999,0.000138,-0.000323,0.003192,-0.000113,0.003195,-0.000326,-88.163626,0.003516,
570,1880,0.814464,-0.958020,0.999965,0.000682,-0.002792,0.004968,-0.000334,0.004983,-0.002806,-87.541040,0.004996,
1580,1400,-0.802807,-2.865450,0.999998,0.000176,-0.003091,0.005550,-0.000315,0.005561,-0.003102,-87.916716,0.005574,
820,1770,0.512222,-1.103643,0.999997,0.000179,-0.001838,0.004686,-0.000262,0.004697,-0.001849,-87.705550,0.004732,
940,670,0.643419,-7.255915,0.999997,0.000220,-0.003186,0.005551,-0.000633,0.005596,-0.003231,-85.877059,0.005619,
1890,1650,-1.280151,-2.077930,0.999998,0.000185,-0.002367,0.004957,-0.000053,0.004957,-0.002368,-89.587766,0.004959,
970,1080,1.271863,-4.693415,0.999997,0.000227,-0.002240,0.006598,-0.000410,0.006617,-0.002259,-87.350702,0.006727,
970,1000,1.313894,-5.221620,0.999997,0.000194,-0.002074,0.006757,0.000205,0.006762,-0.002079,88.671578,0.006927,
1060,80,0.032293,-9.890629,0.999999,0.000158,-0.000265,0.003196,0.000237,0.003212,-0.000281,86.097492,0.003558,
1380,1870,-0.082473,-0.537431,0.999998,0.000163,-0.000568,0.003416,0.000156,0.003422,-0.000574,87.763809,0.003665,
1570,50,-0.042095,-9.977764,0.999998,0.000158,-0.000270,0.003371,-0.000644,0.003482,-0.000381,-80.252767,0.003819,
800,1780,0.535493,-1.080862,0.999997,0.000187,-0.002045,0.004728,-0.000248,0.004737,-0.002054,-87.901640,0.004750,
1820,1980,-0.247915,-0.259374,0.999997,0.000200,-0.001493,0.005128,0.001672,0.005526,-0.001891,76.605906,0.005617,
1450,1730,-0.243560,-1.098538,0.999998,0.000164,-0.001315,0.004019,-0.000020,0.004019,-0.001316,-89.784507,0.004098,
1790,1910,-0.480344,-0.590735,0.999997,0.000209,-0.001865,0.005019,0.001090,0.005188,-0.002034,81.217180,0.005228,
1630,1150,-1.446960,-4.387086,0.999997,0.000221,-0.002494,0.005543,0.000676,0.005599,-0.002550,85.226175,0.005607,
740,1350,1.313024,-3.370668,0.999997,0.000239,-0.002834,0.005369,-0.000259,0.005378,-0.002842,-88.196984,0.005381,
680,1570,1.129287,-2.307155,0.999998,0.000178,-0.002565,0.005121,0.000082,0.005122,-0.002565,89.390006,0.005122,
1270,790,-0.049819,-7.692808,0.999997,0.000197,-0.001445,0.001465,0.001110,0.001840,-0.001820,71.331343,0.002113,
1360,750,-0.206154,-7.421286,0.999997,0.000227,-0.002657,0.004057,0.002025,0.004620,-0.003220,74.453260,0.004738,
720,1800,0.660967,-1.078541,0.999998,0.000193,-0.002258,0.004988,-0.000332,0.005003,-0.002274,-87.380035,0.005010,
1550,350,-0.420169,-8.779560,0.999998,0.000170,-0.001742,0.004468,-0.000004,0.004468,-0.001742,-89.961950,0.004504,
600,750,1.760269,-6.302191,0.999998,0.000166,-0.002449,0.004874,0.000180,0.004879,-0.002454,88.595786,0.004879,
1020,560,0.347909,-7.995142,0.999998,0.000186,-0.002206,0.004425,-0.000791,0.004518,-0.002299,-83.293660,0.004518,
1440,590,-0.350009,-7.867570,0.999997,0.000192,-0.002381,0.004551,0.000919,0.004671,-0.002500,82.574009,0.004675,
1110,650,0.171882,-7.829554,0.999998,0.000163,-0.001915,0.003708,-0.001243,0.003971,-0.002178,-78.072522,0.003977,
940,890,1.115056,-5.892510,0.999998,0.000177,-0.003125,0.006449,0.000583,0.006484,-0.003161,86.526615,0.006485,
670,1550,1.184243,-2.426334,0.999998,0.000170,-0.002575,0.005152,0.000070,0.005152,-0.002576,89.480328,0.005152,
1440,150,-0.097807,-9.649813,0.999998,0.000157,-0.000590,0.003525,-0.000295,0.003546,-0.000611,-85.922219,0.003792,
1770,2020,-0.068180,-0.068133,0.999998,0.000000,-0.000399,0.004051,0.001619,0.004578,-0.000926,71.973020,0.004841,
1420,400,-0.241305,-8.708179,0.999998,0.000176,-0.001576,0.004034,0.000308,0.004051,-0.001593,86.867092,0.004081,
1150,1700,0.085387,-1.118988,0.999998,0.000151,-0.001109,0.003628,0.000106,0.003630,-0.001111,88.715577,0.003720,
930,1650,0.442050,-1.527337,0.999997,0.000214,-0.001913,0.004519,0.000214,0.004526,-0.001920,88.093394,0.004544,
1200,400,0.036937,-8.811737,0.999998,0.000172,-0.001120,0.003564,-0.000091,0.003566,-0.001121,-88.881928,0.003647,
1320,100,-0.021652,-9.833013,0.999998,0.000152,-0.000271,0.003130,-0.000103,0.003133,-0.000274,-88.267420,0.003470,
750,380,0.807037,-8.418521,0.999998,0.000188,-0.002372,0.004998,-0.000015,0.004998,-0.002372,-89.883190,0.005001,
1580,1370,-0.845612,-3.034904,0.999998,0.000163,-0.003221,0.005696,-0.000227,0.005701,-0.003226,-88.545374,0.005718,
1750,1950,-0.276864,-0.356031,0.999997,0.000185,-0.001614,0.004487,0.001149,0.004697,-0.001823,79.678771,0.004736,
930,1420,0.635064,-2.654417,0.999997,0.000210,-0.002983,0.005367,0.000613,0.005412,-0.003028,85.823732,0.005424,
600,320,1.074978,-8.470093,0.999998,0.000156,-0.002431,0.004993,-0.000043,0.004994,-0.002431,-89.664947,0.004994,
1370,1470,-0.201663,-2.042232,0.999998,0.000161,-0.001852,0.003907,-0.000915,0.004048,-0.001994,-81.183516,0.004049,
740,40,0.061155,-9.998599,0.999998,0.000152,-0.000161,0.003876,0.001391,0.004309,-0.000594,72.715082,0.004670,
1210,2010,0.002460,-0.075802,0.999999,0.000123,-0.000119,0.003013,-0.000003,0.003013,-0.000119,-89.944687,0.003413,
760,1460,1.077132,-2.753121,0.999997,0.000192,-0.002755,0.005300,0.000047,0.005301,-0.002755,89.663722,0.005302,
1030,280,0.191697,-9.171978,0.999998,0.000153,-0.001196,0.003850,0.000029,0.003850,-0.001196,89.670703,0.003941,
970,1370,0.563207,-2.827289,0.999998,0.000204,-0.003232,0.005517,0.000859,0.005600,-0.003315,84.447881,0.005632,
1630,30,-0.020690,-10.041981,0.999998,0.000000,0.000024,0.003504,-0.000956,0.003750,-0.000222,-75.608480,0.004208,
970,1760,0.277814,-1.008704,0.999999,0.000154,-0.001483,0.004088,-0.000025,0.004088,-0.001483,-89.744952,0.004139,
1570,40,-0.028483,-10.010625,0.999999,0.000147,-0.000195,0.003319,-0.000635,0.003430,-0.000306,-80.062832,0.003796,
1060,60,0.021409,-9.953883,0.999999,0.000160,-0.000193,0.003140,0.000255,0.003160,-0.000212,85.644187,0.003533,
970,760,0.668592,-6.816071,0.999996,0.000219,-0.003691,0.006087,-0.000634,0.006128,-0.003732,-86.306998,0.006177,
1200,210,0.022067,-9.478507,0.999998,0.000188,-0.000636,0.003361,-0.000011,0.003361,-0.000636,-89.840247,0.003570,
800,1760,0.567132,-1.175162,0.999998,0.000183,-0.002103,0.004772,-0.000184,0.004777,-0.002108,-88.469438,0.004788,
1580,1380,-0.830333,-2.977382,0.999998,0.000172,-0.003181,0.005664,-0.000250,0.005671,-0.003188,-88.385333,0.005685,
720,1350,1.370863,-3.396845,0.999997,0.000197,-0.002779,0.005285,-0.000275,0.005294,-0.002789,-88.049924,0.005297,
1270,770,-0.044344,-7.722013,0.999998,0.000169,-0.001273,0.001594,0.001079,0.001955,-0.001634,71.511999,0.002097,
1790,1890,-0.544998,-0.695834,0.999997,0.000216,-0.002039,0.005119,0.000927,0.005237,-0.002157,82.739540,0.005264,
1160,80,0.014203,-9.896066,0.999999,0.000137,-0.000167,0.003089,0.000117,0.003093,-0.000171,87.939081,0.003477,
1180,1870,0.027101,-0.519688,0.999998,0.000148,-0.000507,0.003326,-0.000070,0.003327,-0.000509,-88.961426,0.003585,
980,490,0.401110,-8.238431,0.999998,0.000181,-0.002074,0.004507,-0.000521,0.004548,-0.002115,-85.503436,0.004552,
1110,630,0.172506,-7.901839,0.999998,0.000178,-0.001859,0.003736,-0.001110,0.003948,-0.002072,-79.180068,0.003950,
1080,150,0.064833,-9.662979,0.999999,0.000120,-0.000434,0.003386,0.000194,0.003396,-0.000444,87.093601,0.003691,
670,1530,1.212638,-2.529694,0.999998,0.000175,-0.002570,0.005132,0.000054,0.005132,-0.002571,89.600211,0.005132,
1630,100,-0.154119,-9.786340,0.999999,0.000141,-0.000571,0.003839,-0.000868,0.004004,-0.000736,-79.258816,0.004263,
1460,200,-0.156108,-9.462143,0.999998,0.000191,-0.000791,0.003761,-0.000289,0.003780,-0.000810,-86.379636,0.003980,
1820,1960,-0.344281,-0.359792,0.999996,0.000218,-0.001728,0.005146,0.001431,0.005432,-0.002014,78.694770,0.005492,
1130,1700,0.109684,-1.129965,0.999999,0.000128,-0.001229,0.003686,0.000188,0.003693,-0.001236,87.816901,0.003759,
1420,380,-0.232444,-8.786453,0.999998,0.000163,-0.001552,0.004051,0.000257,0.004063,-0.001563,87.380355,0.004099,
1550,330,-0.402065,-8.868950,0.999998,0.000172,-0.001671,0.004454,-0.000045,0.004455,-0.001671,-89.580726,0.004501,
1770,30,-0.048458,-10.033398,0.999998,0.000000,-0.000109,0.004015,-0.001706,0.004630,-0.000723,-70.200454,0.004981,
1840,1190,-1.893947,-4.302285,0.999998,0.000167,-0.002297,0.004726,0.000327,0.004741,-0.002312,87.340919,0.004742,
660,1570,1.181658,-2.339748,0.999997,0.000204,-0.002553,0.005106,0.000089,0.005108,-0.002554,89.335156,0.005108,
1750,1930,-0.341193,-0.452416,0.999997,0.000200,-0.001762,0.004698,0.001094,0.004878,-0.001942,80.647806,0.004911,
630,440,1.192283,-7.921576,0.999999,0.000155,-0.002489,0.005050,-0.000093,0.005052,-0.002490,-89.295960,0.005052,
1320,80,-0.015174,-9.896588,0.999999,0.000132,-0.000197,0.003118,-0.000106,0.003122,-0.000200,-88.176023,0.003495,
1100,750,0.213618,-7.406600,0.999996,0.000245,-0.002652,0.004132,-0.001979,0.004667,-0.003187,-74.866686,0.004770,
800,1510,0.898673,-2.423515,0.999998,0.000166,-0.002681,0.005233,0.000181,0.005238,-0.002685,88.690583,0.005238,
1370,1450,-0.202826,-2.119239,0.999998,0.000166,-0.001893,0.003916,-0.001001,0.004084,-0.002060,-80.494761,0.004084,
1010,280,0.215808,-9.158484,0.999998,0.000147,-0.001162,0.003945,0.000086,0.003947,-0.001163,89.037458,0.004056,
900,1150,1.274684,-4.336717,0.999997,0.000196,-0.002721,0.006032,-0.000727,0.006092,-0.002781,-85.285347,0.006099,
970,1740,0.295031,-1.090268,0.999997,0.000209,-0.001573,0.004172,0.000043,0.004173,-0.001574,89.568452,0.004214,
600,300,1.039336,-8.570334,0.999998,0.000174,-0.002447,0.004965,-0.000018,0.004965,-0.002447,-89.859633,0.004966,
1160,210,0.044569,-9.472575,0.999999,0.000144,-0.000606,0.003385,0.000078,0.003387,-0.000607,88.880250,0.003611,
1050,1990,0.025612,-0.141553,0.999999,0.000130,-0.000245,0.003157,-0.000284,0.003181,-0.000269,-85.264874,0.003528,
1580,1360,-0.861107,-3.092122,0.999998,0.000151,-0.003247,0.005731,-0.000192,0.005735,-0.003251,-88.777643,0.005752,
780,50,0.077166,-9.964924,0.999999,0.000133,-0.000422,0.003660,0.001033,0.003906,-0.000668,76.577547,0.004179,
920,890,1.176147,-5.859588,0.999999,0.000138,-0.003048,0.006264,0.000653,0.006310,-0.003093,86.007031,0.006310,
1470,1240,-0.697631,-3.534437,0.999997,0.000235,-0.003931,0.006521,-0.000602,0.006556,-0.003965,-86.713281,0.006604,
1010,750,0.503620,-7.012656,0.999997,0.000208,-0.003602,0.005776,-0.001166,0.005919,-0.003745,-83.015404,0.005988,
1410,2010,-0.014172,-0.078974,0.999998,0.000168,-0.000139,0.003088,0.000248,0.003107,-0.000158,85.638736,0.003500,
1270,750,-0.038836,-7.755615,0.999998,0.000155,-0.001186,0.001801,0.001005,0.002108,-0.001493,73.025804,0.002168,
1790,1870,-0.601972,-0.797385,0.999997,0.000202,-0.002140,0.005043,0.000722,0.005115,-0.002212,84.320190,0.005130,
1810,2020,-0.067763,-0.067483,0.999998,0.000000,-0.000429,0.004316,0.001901,0.004984,-0.001096,70.651304,0.005238,
800,1740,0.599050,-1.270162,0.999997,0.000182,-0.002167,0.004814,-0.000111,0.004815,-0.002169,-89.089211,0.004823,
1670,1140,-1.564261,-4.461485,0.999997,0.000210,-0.002410,0.005301,0.000607,0.005348,-0.002458,85.523367,0.005354,
1660,400,-0.710886,-8.396430,0.999998,0.000190,-0.002318,0.004963,0.000096,0.004964,-0.002319,89.247108,0.004967,
1710,1330,-1.313639,-3.463348,0.999997,0.000241,-0.002874,0.005414,0.000316,0.005426,-0.002886,87.819430,0.005429,
840,1830,0.382212,-0.812011,0.999997,0.000187,-0.001443,0.004417,-0.000499,0.004459,-0.001485,-85.164590,0.004541,
760,1440,1.108839,-2.860773,0.999998,0.000174,-0.002804,0.005340,0.000013,0.005340,-0.002804,89.910077,0.005342,
970,1330,0.610889,-3.054512,0.999997,0.000194,-0.003494,0.005778,0.000771,0.005842,-0.003557,85.281613,0.005888,
940,650,0.620665,-7.367571,0.999997,0.000209,-0.003070,0.005415,-0.000649,0.005464,-0.003119,-85.651226,0.005482,
910,1300,0.875148,-3.391653,0.999997,0.000200,-0.003547,0.006075,0.000121,0.006077,-0.003549,89.282048,0.006105,
1110,610,0.170319,-7.977859,0.999998,0.000176,-0.001811,0.003719,-0.001047,0.003911,-0.002002,-79.631496,0.003911,
1160,60,0.007310,-9.958765,0.999999,0.000139,-0.000094,0.003030,0.000089,0.003032,-0.000097,88.360211,0.003447,
1460,220,-0.174777,-9.385822,0.999998,0.000170,-0.000886,0.003764,-0.000208,0.003774,-0.000896,-87.449345,0.003943,
1220,810,0.022234,-7.723196,0.999998,0.000194,-0.001920,0.001069,-0.000278,0.001095,-0.001946,-84.723552,0.001951,
1750,1910,-0.402511,-0.544766,0.999997,0.000199,-0.001927,0.004781,0.000910,0.004902,-0.002049,82.407435,0.004924,
1820,1940,-0.427444,-0.467464,0.999996,0.000222,-0.001942,0.005262,0.001129,0.005435,-0.002114,81.298887,0.005479,
1330,1700,-0.106089,-1.128416,0.999999,0.000135,-0.001209,0.003658,-0.000195,0.003666,-0.001217,-87.708835,0.003734,
1370,1430,-0.204005,-2.196644,0.999998,0.000175,-0.001986,0.003913,-0.001145,0.004128,-0.002201,-79.391960,0.004131,
670,1510,1.242275,-2.632752,0.999998,0.000191,-0.002582,0.005147,0.000043,0.005147,-0.002582,89.678983,0.005147,
1550,1520,-0.590667,-2.173557,0.999996,0.000223,-0.002606,0.004997,-0.000480,0.005027,-0.002636,-86.404418,0.005029,
1420,360,-0.220615,-8.868812,0.999998,0.000171,-0.001495,0.004002,0.000212,0.004010,-0.001503,87.797647,0.004051,
1760,2020,-0.062851,-0.065026,0.999998,0.000000,-0.000544,0.003991,0.001533,0.004461,-0.001014,72.970814,0.004677,
1060,150,0.075121,-9.660671,0.999998,0.000136,-0.000574,0.003417,0.000193,0.003427,-0.000583,87.243928,0.003667,
780,1510,0.953305,-2.456610,0.999998,0.000187,-0.002695,0.005241,0.000163,0.005244,-0.002698,88.822124,0.005245,
1610,100,-0.141008,-9.791327,0.999998,0.000171,-0.000635,0.003755,-0.000774,0.003888,-0.000768,-80.288163,0.004118,
1550,310,-0.380636,-8.956876,0.999998,0.000182,-0.001561,0.004322,-0.000083,0.004323,-0.001563,-89.190161,0.004378,
1490,1280,-0.686093,-3.349354,0.999997,0.000212,-0.003765,0.006228,-0.000612,0.006265,-0.003803,-86.507078,0.006313,
1080,1510,0.221906,-1.908415,0.999998,0.000179,-0.001792,0.003978,0.000754,0.004075,-0.001889,82.675968,0.004079,
600,280,1.001024,-8.670182,0.999998,0.000196,-0.002447,0.004930,0.000029,0.004930,-0.002447,89.776997,0.004930,
780,40,0.056556,-10.001225,0.999999,0.000163,-0.000321,0.003619,0.001021,0.003868,-0.000570,76.304561,0.004176,
720,1780,0.702851,-1.177583,0.999997,0.000187,-0.002276,0.004995,-0.000254,0.005004,-0.002285,-88.005251,0.005010,
1580,1340,-0.893995,-3.205945,0.999998,0.000144,-0.003307,0.005842,-0.000125,0.005843,-0.003309,-89.214683,0.005860,
1050,1970,0.039748,-0.205537,0.999999,0.000137,-0.000324,0.003234,-0.000255,0.003252,-0.000342,-85.925081,0.003574,
1450,1260,-0.572265,-3.326820,0.999997,0.000193,-0.003856,0.006178,-0.001032,0.006283,-0.003961,-84.188959,0.006354,
1080,750,0.270132,-7.314124,0.999998,0.000192,-0.002975,0.004661,-0.001911,0.005112,-0.003426,-76.705443,0.005210,
900,1130,1.321030,-4.456483,0.999997,0.000203,-0.002514,0.005940,-0.000722,0.006001,-0.002575,-85.152386,0.006022,
1790,1850,-0.655918,-0.897769,0.999997,0.000203,-0.002238,0.005066,0.000591,0.005114,-0.002286,85.406702,0.005123,
1320,60,-0.010744,-9.958058,0.999999,0.000122,-0.000139,0.003060,-0.000120,0.003064,-0.000143,-87.846114,0.003459,
1270,730,-0.039654,-7.794979,0.999998,0.000160,-0.001164,0.002020,0.000897,0.002255,-0.001399,75.297206,0.002277,
1420,2010,-0.016004,-0.079468,0.999999,0.000164,-0.000173,0.003086,0.000239,0.003104,-0.000191,85.835974,0.003479,
1010,1770,0.217972,-0.942595,0.999998,0.000148,-0.001147,0.003946,-0.000058,0.003946,-0.001147,-89.347688,0.004060,
930,1630,0.457460,-1.619474,0.999997,0.000197,-0.002048,0.004606,0.000305,0.004620,-0.002062,87.385176,0.004629,
1670,340,-0.651682,-8.675968,0.999997,0.000184,-0.002242,0.004892,-0.000028,0.004892,-0.002242,-89.772006,0.004898,
1460,240,-0.189126,-9.311724,0.999998,0.000171,-0.000977,0.003861,-0.000174,0.003867,-0.000983,-87.947874,0.004020,
1200,380,0.034889,-8.884394,0.999998,0.000163,-0.001083,0.003554,-0.000098,0.003556,-0.001085,-88.793536,0.003644,
1140,210,0.057400,-9.471494,0.999999,0.000132,-0.000678,0.003435,0.000066,0.003436,-0.000680,89.085443,0.003639,
1660,380,-0.684542,-8.496877,0.999997,0.000191,-0.002315,0.004925,0.000061,0.004926,-0.002316,89.515290,0.004929,
1800,2020,-0.067300,-0.067523,0.999998,0.000000,0.000004,0.004228,0.001963,0.005000,-0.000767,68.545574,0.005385,
1730,60,-0.119991,-9.920227,0.999998,0.000161,-0.000556,0.004011,-0.001335,0.004372,-0.000918,-74.850173,0.004611,
1710,1310,-1.351084,-3.571307,0.999997,0.000223,-0.002836,0.005403,0.000388,0.005421,-0.002854,87.310597,0.005424,
1110,590,0.173530,-8.051143,0.999998,0.000160,-0.001758,0.003730,-0.000928,0.003883,-0.001910,-80.656774,0.003883,
1070,280,0.144910,-9.196851,0.999998,0.000176,-0.001015,0.003726,0.000037,0.003726,-0.001015,89.556544,0.003852,
800,1720,0.629020,-1.368520,0.999997,0.000194,-0.002220,0.004859,-0.000039,0.004859,-0.002220,-89.683346,0.004865,
760,1420,1.138446,-2.966137,0.999998,0.000179,-0.002839,0.005332,-0.000053,0.005332,-0.002839,-89.626256,0.005336,
1460,1210,-0.742789,-3.694840,0.999997,0.000229,-0.003890,0.006763,-0.000570,0.006794,-0.003920,-86.948170,0.006821,
970,790,0.727845,-6.627772,0.999997,0.000195,-0.003810,0.006370,-0.000469,0.006392,-0.003831,-87.367654,0.006434,
1150,1760,0.072366,-0.903636,0.999998,0.000167,-0.000923,0.003565,0.000023,0.003565,-0.000923,89.705683,0.003700,
930,1880,0.195529,-0.554156,0.999998,0.000204,-0.000875,0.003864,-0.000427,0.003902,-0.000914,-84.892880,0.004081,
1150,1990,0.009206,-0.137102,0.999998,0.000139,-0.000160,0.003062,-0.000113,0.003066,-0.000163,-87.998492,0.003450,
1420,340,-0.211520,-8.948072,0.999998,0.000168,-0.001433,0.003884,0.000170,0.003889,-0.001439,88.170768,0.003933,
1370,1410,-0.203707,-2.272995,0.999998,0.000164,-0.002110,0.003942,-0.001273,0.004199,-0.002367,-78.588111,0.004210,
1750,1890,-0.460191,-0.643989,0.999997,0.000187,-0.002036,0.004873,0.000783,0.004961,-0.002123,83.615096,0.004978,
1820,1920,-0.500280,-0.575163,0.999997,0.000211,-0.002113,0.005250,0.000948,0.005370,-0.002233,82.776638,0.005395,
1670,1840,-0.438443,-0.807731,0.999998,0.000198,-0.001824,0.004551,0.000496,0.004589,-0.001862,85.580298,0.004616,
1680,1110,-1.627504,-4.620884,0.999997,0.000198,-0.002237,0.005158,0.000471,0.005188,-0.002267,86.371317,0.005202,
600,260,0.956560,-8.769433,0.999998,0.000185,-0.002435,0.004975,0.000065,0.004976,-0.002436,89.495090,0.004976,
1200,810,0.057828,-7.687101,0.999998,0.000185,-0.001841,0.001232,-0.000788,0.001423,-0.002031,-76.430452,0.002085,
800,730,1.184520,-6.650350,0.999998,0.000149,-0.003008,0.005618,0.000271,0.005626,-0.003016,88.201317,0.005631,
990,40,0.016476,-10.015308,0.999999,0.000127,-0.000059,0.003184,0.000402,0.003234,-0.000108,83.038000,0.003673,
1050,1950,0.050288,-0.272476,0.999999,0.000144,-0.000425,0.003324,-0.000246,0.003340,-0.000441,-86.257852,0.003629,
1620,1370,-0.972563,-3.109184,0.999998,0.000163,-0.003102,0.005640,-0.000049,0.005641,-0.003102,-89.676550,0.005650,
1310,1700,-0.082681,-1.117678,0.999999,0.000120,-0.001096,0.003627,-0.000096,0.003629,-0.001098,-88.838778,0.003722,
1580,1320,-0.929041,-3.325500,0.999998,0.000171,-0.003344,0.005905,-0.000032,0.005905,-0.003344,-89.803155,0.005922,
1550,290,-0.359165,-9.042612,0.999998,0.000170,-0.001455,0.004324,-0.000176,0.004329,-0.001461,-88.254041,0.004405,
670,1490,1.273199,-2.736372,0.999997,0.000186,-0.002590,0.005154,0.000024,0.005154,-0.002590,89.823455,0.005154,
680,1200,1.743806,-4.209213,0.999997,0.000202,-0.002422,0.004932,-0.000459,0.004960,-0.002451,-86.445109,0.004960,
1110,600,0.172674,-8.014473,0.999998,0.000156,-0.001787,0.003733,-0.000990,0.003905,-0.001959,-80.134422,0.003905,
1310,1990,-0.008762,-0.136653,0.999999,0.000148,-0.000117,0.003039,0.000110,0.003043,-0.000121,88.012379,0.003446,
720,1760,0.740427,-1.277700,0.999997,0.000206,-0.002300,0.005030,-0.000161,0.005034,-0.002304,-88.743752,0.005040,
960,150,0.139231,-9.632799,0.999998,0.000144,-0.000824,0.003680,0.000408,0.003717,-0.000860,84.860398,0.003891,
1460,260,-0.208332,-9.232564,0.999998,0.000146,-0.001052,0.003891,-0.000132,0.003895,-0.001055,-88.474029,0.004029,
1790,1830,-0.706281,-0.999518,0.999997,0.000199,-0.002282,0.005074,0.000450,0.005102,-0.002309,86.509456,0.005110,
890,270,0.367205,-9.111243,0.999998,0.000166,-0.001633,0.004329,0.000197,0.004335,-0.001640,88.110239,0.004378,
1060,1510,0.257494,-1.941247,0.999998,0.000179,-0.001926,0.004142,0.000768,0.004237,-0.002021,82.901029,0.004239,
1530,100,-0.095408,-9.807760,0.999998,0.000174,-0.000476,0.003534,-0.000542,0.003606,-0.000548,-82.443264,0.003887,
1760,30,-0.048004,-10.033589,0.999998,0.000000,-0.000308,0.003986,-0.001574,0.004501,-0.000823,-71.877568,0.004794,
1110,570,0.168211,-8.129700,0.999998,0.000161,-0.001733,0.003729,-0.000836,0.003854,-0.001858,-81.491046,0.003855,
930,1610,0.475214,-1.711952,0.999997,0.000200,-0.002150,0.004629,0.000357,0.004647,-0.002169,86.991324,0.004651,
840,1340,1.034321,-3.284688,0.999998,0.000199,-0.003160,0.005754,-0.000090,0.005755,-0.003161,-89.421607,0.005764,
810,210,0.397167,-9.310745,0.999998,0.000192,-0.001630,0.004522,0.000564,0.004573,-0.001681,84.802509,0.004626,
710,1360,1.380183,-3.356420,0.999997,0.000205,-0.002717,0.005269,-0.000251,0.005277,-0.002725,-88.200911,0.005278,
1200,360,0.035089,-8.954303,0.999999,0.000144,-0.001043,0.003525,-0.000086,0.003527,-0.001044,-88.917041,0.003623,
1140,1570,0.119168,-1.604516,0.999998,0.000176,-0.001421,0.003656,0.000440,0.003693,-0.001459,85.084478,0.003720,
1500,1980,-0.055493,-0.182550,0.999998,0.000175,-0.000384,0.003361,0.000468,0.003418,-0.000441,82.980897,0.003719,
1530,500,-0.512496,-8.111339,0.999997,0.000181,-0.002343,0.004745,0.000468,0.004776,-0.002374,86.239704,0.004776,
1150,1970,0.014468,-0.198284,0.999998,0.000158,-0.000222,0.003118,-0.000123,0.003122,-0.000227,-87.900892,0.003482,
1550,270,-0.333934,-9.130206,0.999998,0.000165,-0.001356,0.004220,-0.000238,0.004230,-0.001366,-87.564670,0.004317,
1710,1730,-0.717433,-1.384319,0.999998,0.000189,-0.002203,0.004958,0.000104,0.004960,-0.002205,89.164672,0.004970,
1310,280,-0.067251,-9.229638,0.999998,0.000147,-0.000875,0.003536,-0.000005,0.003536,-0.000875,-89.935718,0.003684,
1670,200,-0.407487,-9.341091,0.999997,0.000202,-0.001738,0.004600,-0.000588,0.004655,-0.001792,-84.741125,0.004695,
1730,40,-0.062240,-9.998761,0.999998,0.000179,-0.000298,0.003921,-0.001419,0.004354,-0.000731,-73.030256,0.004663,
700,870,1.717584,-5.808204,0.999997,0.000212,-0.002440,0.005025,0.000509,0.005060,-0.002475,86.119148,0.005060,
1800,30,-0.046787,-10.033469,0.999998,0.000000,-0.000115,0.004258,-0.002052,0.005070,-0.000927,-68.413639,0.005399,
570,810,1.929811,-5.973864,0.999996,0.000228,-0.002393,0.004585,0.000018,0.004585,-0.002393,89.854485,0.004587,
1670,1820,-0.477008,-0.899731,0.999997,0.000195,-0.001923,0.004652,0.000415,0.004678,-0.001949,86.405326,0.004700,
670,1470,1.303031,-2.838746,0.999998,0.000180,-0.002605,0.005169,-0.000016,0.005169,-0.002605,-89.878709,0.005169,
870,40,0.036249,-10.008859,0.999999,0.000137,-0.000242,0.003368,0.000648,0.003481,-0.000355,80.129160,0.003831,
1210,1700,0.022795,-1.105923,0.999999,0.000123,-0.001056,0.003542,0.000087,0.003544,-0.001058,88.915911,0.003638,
950,1880,0.177524,-0.545175,0.999998,0.000159,-0.000928,0.003787,-0.000359,0.003814,-0.000956,-85.668542,0.003969,
1370,350,-0.152434,-8.944977,0.999998,0.000156,-0.001176,0.003720,0.000122,0.003723,-0.001179,88.567744,0.003806,
910,1800,0.320923,-0.889555,0.999998,0.000172,-0.001338,0.004194,-0.000272,0.004207,-0.001352,-87.193102,0.004296,
1160,2010,0.005385,-0.077615,0.999998,0.000140,-0.000048,0.002987,-0.000076,0.002989,-0.000050,-88.557564,0.003423,
1810,1680,-1.036169,-1.792516,0.999999,0.000133,-0.002475,0.005066,-0.000031,0.005066,-0.002475,-89.768000,0.005066,
600,1250,1.853203,-4.043098,0.999998,0.000155,-0.002316,0.004666,-0.000182,0.004671,-0.002321,-88.506298,0.004671,
670,1390,1.433799,-3.252648,0.999997,0.000205,-0.002613,0.005166,-0.000155,0.005169,-0.002616,-88.859515,0.005170,
600,240,0.912863,-8.868017,0.999998,0.000189,-0.002425,0.004946,0.000070,0.004947,-0.002425,89.453616,0.004947,
1630,1130,-1.487785,-4.499344,0.999997,0.000227,-0.002340,0.005484,0.000659,0.005539,-0.002395,85.220200,0.005556,
940,150,0.154563,-9.627354,0.999999,0.000151,-0.000781,0.003735,0.000467,0.003783,-0.000828,84.153314,0.003977,
970,770,0.686813,-6.755244,0.999996,0.000219,-0.003738,0.006178,-0.000577,0.006212,-0.003772,-86.678486,0.006259,
1460,700,-0.470529,-7.268546,0.999997,0.000221,-0.003238,0.005399,0.001124,0.005542,-0.003381,82.706807,0.005587,
1580,1300,-0.968564,-3.444306,0.999998,0.000158,-0.003355,0.005975,0.000055,0.005975,-0.003356,89.659354,0.005991,
720,1740,0.777465,-1.379662,0.999998,0.000181,-0.002341,0.005014,-0.000077,0.005015,-0.002341,-89.401382,0.005019,
910,1750,0.380282,-1.105063,0.999997,0.000189,-0.001553,0.004317,-0.000105,0.004319,-0.001555,-88.974705,0.004375,
1490,960,-1.230281,-5.491566,0.999997,0.000227,-0.002457,0.006739,-0.000460,0.006762,-0.002480,-87.143745,0.006841,
1310,1970,-0.015760,-0.199394,0.999999,0.000154,-0.000191,0.003093,0.000091,0.003096,-0.000194,88.411651,0.003468,
610,1320,1.709049,-3.689989,0.999998,0.000158,-0.002475,0.004930,-0.000190,0.004935,-0.002480,-88.531959,0.004935,
1110,580,0.171009,-8.090177,0.999998,0.000158,-0.001741,0.003728,-0.000877,0.003865,-0.001878,-81.112712,0.003866,
1050,1930,0.064701,-0.338158,0.999999,0.000143,-0.000498,0.003347,-0.000233,0.003361,-0.000512,-86.538481,0.003622,
1510,100,-0.086033,-9.811810,0.999998,0.000165,-0.000524,0.003498,-0.000477,0.003553,-0.000580,-83.327546,0.003813,
1800,100,-0.340130,-9.707017,0.999998,0.000185,-0.001280,0.004927,-0.001589,0.005310,-0.001663,-76.446278,0.005432,
840,1320,1.071320,-3.402050,0.999998,0.000191,-0.003184,0.005788,-0.000178,0.005791,-0.003188,-88.862777,0.005801,
930,1590,0.492127,-1.806235,0.999998,0.000198,-0.002214,0.004686,0.000411,0.004710,-0.002238,86.599375,0.004712,
1110,1290,0.195994,-2.684036,0.999997,0.000199,-0.002585,0.003926,0.002112,0.004551,-0.003210,73.517437,0.004677,
1200,340,0.033716,-9.024727,0.999999,0.000147,-0.000999,0.003509,-0.000060,0.003509,-0.001000,-89.232728,0.003616,
1160,1510,0.092602,-1.798437,0.999998,0.000156,-0.001417,0.003451,0.000530,0.003508,-0.001474,83.859126,0.003523,
1150,1950,0.020724,-0.260937,0.999998,0.000153,-0.000272,0.003162,-0.000115,0.003165,-0.000276,-88.083165,0.003507,
1810,30,-0.047498,-10.035154,0.999998,0.000000,-0.000511,0.004308,-0.001927,0.004984,-0.001187,-70.673206,0.005207,
1520,830,-0.928749,-6.292185,0.999997,0.000211,-0.003611,0.006485,-0.000148,0.006487,-0.003613,-89.160908,0.006501,
810,230,0.435790,-9.221966,0.999998,0.000188,-0.001722,0.004583,0.000473,0.004618,-0.001758,85.734440,0.004662,
1550,250,-0.310764,-9.213102,0.999998,0.000181,-0.001283,0.004212,-0.000297,0.004228,-0.001299,-86.911965,0.004332,
630,300,0.964731,-8.628601,0.999998,0.000174,-0.002412,0.005047,0.000035,0.005047,-0.002413,89.732616,0.005049,
1120,1570,0.147462,-1.623015,0.999998,0.000152,-0.001425,0.003702,0.000417,0.003736,-0.001459,85.379577,0.003766,
1110,280,0.107357,-9.212673,0.999998,0.000163,-0.000938,0.003615,-0.000006,0.003615,-0.000938,-89.926641,0.003752,
1680,110,-0.217860,-9.730674,0.999998,0.000173,-0.001023,0.004166,-0.001051,0.004371,-0.001227,-78.971468,0.004508,
910,1780,0.344216,-0.973710,0.999998,0.000169,-0.001407,0.004310,-0.000218,0.004318,-0.001415,-87.814417,0.004403,
700,890,1.749775,-5.707369,0.999997,0.000203,-0.002392,0.004971,0.000477,0.005001,-0.002423,86.309827,0.005002,
630,960,1.983554,-5.342564,0.999998,0.000157,-0.002161,0.004499,0.000137,0.004502,-0.002164,88.826088,0.004503,
1570,500,-0.606624,-8.044327,0.999997,0.000216,-0.002444,0.004923,0.000390,0.004943,-0.002464,86.975601,0.004943,
1460,680,-0.454118,-7.376489,0.999996,0.000246,-0.003078,0.005262,0.001099,0.005405,-0.003220,82.619739,0.005438,
1580,1280,-1.008288,-3.566373,0.999998,0.000163,-0.003351,0.006067,0.000160,0.006070,-0.003354,89.026949,0.006081,
1630,1110,-1.516361,-4.607556,0.999997,0.000213,-0.002229,0.005345,0.000523,0.005380,-0.002265,86.070777,0.005403,
720,1720,0.808756,-1.479766,0.999998,0.000168,-0.002391,0.005027,-0.000021,0.005027,-0.002391,-89.837966,0.005029,
670,1450,1.333383,-2.942666,0.999998,0.000174,-0.002635,0.005140,-0.000061,0.005141,-0.002636,-89.551058,0.005141,
1710,1750,-0.686668,-1.284191,0.999998,0.000193,-0.002144,0.004900,0.000195,0.004906,-0.002150,88.419260,0.004918,
1730,160,-0.408537,-9.483135,0.999997,0.000200,-0.001589,0.004741,-0.000943,0.004879,-0.001726,-81.704981,0.004948,
680,460,1.093566,-7.901124,0.999998,0.000171,-0.002505,0.005063,-0.000092,0.005064,-0.002506,-89.301590,0.005064,
1670,1780,-0.549340,-1.090052,0.999997,0.000200,-0.002080,0.004762,0.000256,0.004772,-0.002090,87.856375,0.004784,
1260,1890,-0.015456,-0.453105,0.999998,0.000181,-0.000455,0.003275,0.000021,0.003275,-0.000455,89.671374,0.003549,
1460,30,-0.009700,-10.044365,0.999999,0.000000,0.000036,0.003054,-0.000378,0.003100,-0.000010,-82.968104,0.003574,
1190,1700,0.043657,-1.109745,0.999999,0.000124,-0.001050,0.003551,0.000081,0.003553,-0.001051,88.994604,0.003650,
780,530,0.933158,-7.701500,0.999999,0.000115,-0.002648,0.005175,-0.000162,0.005178,-0.002651,-88.814619,0.005179,
1340,1590,-0.141192,-1.546204,0.999998,0.000165,-0.001404,0.003713,-0.000360,0.003738,-0.001429,-85.992170,0.003772,
910,1770,0.354618,-1.018583,0.999998,0.000179,-0.001464,0.004333,-0.000196,0.004340,-0.001470,-88.064625,0.004414,
1450,1240,-0.618999,-3.451096,0.999996,0.000238,-0.003899,0.006359,-0.000929,0.006443,-0.003982,-84.865742,0.006502,
1310,600,-0.102667,-8.085712,0.999998,0.000157,-0.001443,0.003330,0.000728,0.003438,-0.001552,81.517303,0.003444,
1790,1810,-0.750361,-1.101664,0.999997,0.000210,-0.002339,0.005067,0.000349,0.005084,-0.002356,87.308554,0.005088,
1310,1950,-0.019774,-0.261272,0.999998,0.000167,-0.000237,0.003176,0.000086,0.003178,-0.000239,88.552482,0.003540,
1110,1310,0.184063,-2.608860,0.999997,0.000237,-0.002450,0.003854,0.001972,0.004420,-0.003016,73.985837,0.004517,
930,1570,0.508012,-1.902853,0.999997,0.000201,-0.002265,0.004739,0.000430,0.004765,-0.002292,86.496377,0.004767,
1200,320,0.030454,-9.095524,0.999999,0.000140,-0.000968,0.003565,-0.000055,0.003566,-0.000969,-89.307610,0.003687,
840,1300,1.109533,-3.516604,0.999997,0.000196,-0.003190,0.005798,-0.000258,0.005806,-0.003197,-88.359241,0.005816,
1500,1960,-0.076497,-0.249843,0.999998,0.000180,-0.000493,0.003459,0.000443,0.003508,-0.000542,83.680073,0.003777,
1150,1930,0.026199,-0.324733,0.999999,0.000146,-0.000335,0.003213,-0.000113,0.003216,-0.000339,-88.183769,0.003534,
970,750,0.651360,-6.875498,0.999997,0.000209,-0.003643,0.005993,-0.000679,0.006040,-0.003690,-85.987595,0.006090,
590,1250,1.876604,-4.055463,0.999998,0.000162,-0.002330,0.004622,-0.000127,0.004624,-0.002332,-88.950801,0.004624,
1140,1510,0.121118,-1.821581,0.999998,0.000155,-0.001474,0.003537,0.000584,0.003605,-0.001541,83.438256,0.003617,
1050,1910,0.077828,-0.405722,0.999998,0.000186,-0.000596,0.003435,-0.000224,0.003448,-0.000609,-86.835650,0.003680,
1370,1390,-0.206271,-2.354107,0.999997,0.000194,-0.002225,0.003976,-0.001410,0.004282,-0.002531,-77.770043,0.004306,
1830,820,-1.801771,-6.000678,0.999998,0.000161,-0.002384,0.004770,-0.000320,0.004784,-0.002398,-87.440334,0.004784,
1750,1870,-0.514488,-0.740997,0.999998,0.000179,-0.002135,0.004867,0.000658,0.004928,-0.002197,84.678089,0.004938,
1400,1020,-1.007958,-5.147309,0.999983,0.000000,-0.005363,0.014599,0.000513,0.014612,-0.005376,88.529002,0.014781,
1550,230,-0.284600,-9.297993,0.999998,0.000187,-0.001190,0.004177,-0.000357,0.004201,-0.001214,-86.210889,0.004324,
1660,110,-0.197298,-9.738791,0.999998,0.000187,-0.000965,0.004051,-0.000929,0.004218,-0.001132,-79.834631,0.004366,
1530,1240,-0.926951,-3.715344,0.999999,0.000143,-0.003601,0.006413,0.000091,0.006414,-0.003602,89.480591,0.006430,
810,250,0.471011,-9.127510,0.999997,0.000200,-0.001822,0.004613,0.000398,0.004637,-0.001846,86.472777,0.004669,
1660,360,-0.658687,-8.594886,0.999997,0.000178,-0.002297,0.004834,0.000014,0.004834,-0.002297,89.886965,0.004836,
1790,1680,-0.986550,-1.759327,0.999998,0.000154,-0.002428,0.005039,-0.000021,0.005039,-0.002428,-89.837377,0.005040,
1880,510,-1.412267,-7.490579,0.999997,0.000200,-0.002491,0.005086,0.000020,0.005086,-0.002491,89.852258,0.005086,
720,890,1.700620,-5.717379,0.999998,0.000163,-0.002399,0.005074,0.000538,0.005113,-0.002437,85.903578,0.005115,
630,280,0.926425,-8.728534,0.999998,0.000151,-0.002418,0.005021,0.000063,0.005022,-0.002418,89.514154,0.005023,
1160,2000,0.007272,-0.107200,0.999999,0.000135,-0.000083,0.003010,-0.000093,0.003013,-0.000086,-88.288429,0.003431,
1090,280,0.125311,-9.204894,0.999999,0.000135,-0.000938,0.003667,0.000043,0.003667,-0.000938,89.462429,0.003810,
1570,480,-0.588279,-8.143337,0.999998,0.000183,-0.002343,0.004866,0.000351,0.004883,-0.002360,87.221814,0.004884,
1450,2020,-0.015342,-0.050815,0.999999,0.000000,0.000012,0.003067,0.000289,0.003094,-0.000015,84.650470,0.003564,
1630,1090,-1.542786,-4.713917,0.999997,0.000224,-0.002112,0.005294,0.000485,0.005326,-0.002144,86.268961,0.005360,
1460,660,-0.438583,-7.479690,0.999996,0.000234,-0.002912,0.005103,0.001080,0.005246,-0.003055,82.461859,0.005270,
1580,1260,-1.052625,-3.689134,0.999998,0.000196,-0.003334,0.006118,0.000277,0.006126,-0.003342,88.323524,0.006135,
1490,1000,-1.309521,-5.223899,0.999997,0.000224,-0.002078,0.006857,-0.000210,0.006862,-0.002083,-88.656478,0.007037,
1710,1770,-0.650498,-1.186631,0.999998,0.000197,-0.002086,0.004903,0.000300,0.004915,-0.002099,87.544922,0.004933,
720,1700,0.842298,-1.581983,0.999998,0.000175,-0.002435,0.005025,0.000004,0.005025,-0.002435,89.969071,0.005026,
1860,1810,-0.917525,-1.228591,0.999998,0.000168,-0.002443,0.004949,0.000089,0.004950,-0.002444,89.307866,0.004950,
1860,1570,-1.325343,-2.431249,0.999998,0.000188,-0.002506,0.005072,-0.000052,0.005072,-0.002507,-89.607950,0.005073,
1690,1720,-0.689588,-1.406142,0.999997,0.000208,-0.002173,0.004941,0.000064,0.004942,-0.002174,89.481012,0.004954,
600,220,0.865429,-8.968394,0.999998,0.000183,-0.002440,0.005006,0.000137,0.005009,-0.002442,88.949229,0.005009,
680,420,1.035957,-8.102137,0.999998,0.000167,-0.002496,0.005090,-0.000073,0.005091,-0.002497,-89.452381,0.005091,
1600,1370,-0.910498,-3.073686,0.999998,0.000142,-0.003178,0.005661,-0.000135,0.005663,-0.003180,-89.125544,0.005677,
590,1320,1.758709,-3.718418,0.999998,0.000177,-0.002444,0.004895,-0.000092,0.004896,-0.002445,-89.283882,0.004896,
1420,320,-0.200262,-9.026500,0.999998,0.000175,-0.001372,0.003883,0.000107,0.003885,-0.001374,88.834618,0.003940,
1310,640,-0.098529,-7.956486,0.999999,0.000145,-0.001474,0.003166,0.000906,0.003337,-0.001645,79.336869,0.003337,
930,1550,0.523245,-1.996266,0.999997,0.000210,-0.002333,0.004770,0.000450,0.004799,-0.002361,86.391441,0.004799,
860,830,1.208009,-6.147073,0.999997,0.000184,-0.003114,0.005921,0.000564,0.005956,-0.003149,86.443398,0.005959,
1690,820,-1.440820,-6.119241,0.999997,0.000226,-0.002743,0.005400,-0.000583,0.005441,-0.002784,-85.926070,0.005442,
1110,1330,0.178540,-2.532122,0.999997,0.000209,-0.002334,0.003776,0.001849,0.004293,-0.002850,74.405905,0.004369,
840,1280,1.151345,-3.633027,0.999997,0.000222,-0.003162,0.005850,-0.000334,0.005863,-0.003174,-87.880512,0.005869,
1790,1770,-0.833660,-1.303248,0.999998,0.000172,-0.002378,0.005082,0.000175,0.005086,-0.002382,88.658899,0.005090,
1160,150,0.028910,-9.675175,0.999998,0.000133,-0.000365,0.003266,0.000113,0.003269,-0.000368,88.226173,0.003582,
1010,1730,0.248012,-1.099204,0.999998,0.000166,-0.001312,0.004007,0.000034,0.004007,-0.001313,89.634365,0.004086,
590,1970,0.419717,-0.429917,0.999997,0.000206,-0.002380,0.005870,-0.001488,0.006130,-0.002640,-80.082325,0.006149,
670,1430,1.366792,-3.046568,0.999997,0.000193,-0.002660,0.005138,-0.000122,0.005140,-0.002662,-89.105417,0.005141,
1300,1430,-0.084608,-2.059586,0.999998,0.000162,-0.001412,0.003111,-0.000785,0.003244,-0.001545,-80.435788,0.003245,
1200,300,0.029902,-9.167628,0.999999,0.000141,-0.000902,0.003503,-0.000027,0.003503,-0.000902,-89.650886,0.003638,
730,1780,0.680698,-1.163550,0.999997,0.000182,-0.002174,0.004967,-0.000312,0.004981,-0.002188,-87.501108,0.004993,
1350,100,-0.028937,-9.830404,0.999998,0.000181,-0.000299,0.003189,-0.000161,0.003196,-0.000306,-87.360665,0.003527,
1310,1670,-0.086845,-1.225769,0.999998,0.000152,-0.001175,0.003621,-0.000143,0.003625,-0.001179,-88.297323,0.003698,
1620,2020,-0.032848,-0.055358,0.999998,0.000000,0.000030,0.003529,0.000799,0.003703,-0.000144,77.730199,0.004196,
970,730,0.619036,-6.994519,0.999997,0.000201,-0.003530,0.005809,-0.000741,0.005868,-0.003589,-85.494702,0.005916,
1050,1890,0.093152,-0.475253,0.999998,0.000217,-0.000652,0.003482,-0.000187,0.003490,-0.000661,-87.419369,0.003708,
580,1250,1.898664,-4.069317,0.999999,0.000156,-0.002424,0.004578,-0.000046,0.004578,-0.002425,-89.620736,0.004581,
1880,360,-1.185213,-8.239206,0.999998,0.000175,-0.002466,0.004915,0.000044,0.004915,-0.002466,89.657517,0.004915,
930,210,0.241517,-9.387586,0.999998,0.000195,-0.001082,0.004005,0.000375,0.004033,-0.001109,85.802916,0.004166,
1150,1910,0.032226,-0.389524,0.999999,0.000133,-0.000404,0.003249,-0.000095,0.003251,-0.000407,-88.511003,0.003543,
630,360,1.069269,-8.324793,0.999998,0.000164,-0.002445,0.005022,-0.000031,0.005022,-0.002445,-89.763098,0.005023,
1550,500,-0.560049,-8.078808,0.999998,0.000180,-0.002384,0.004824,0.000437,0.004851,-0.002410,86.541883,0.004851,
950,1540,0.484127,-2.009479,0.999997,0.000192,-0.002367,0.004720,0.000528,0.004759,-0.002406,85.760294,0.004760,
1660,50,-0.065638,-9.970200,0.999998,0.000160,-0.000423,0.003602,-0.000942,0.003812,-0.000633,-77.455767,0.004085,
1550,210,-0.257701,-9.380334,0.999998,0.000177,-0.001086,0.004069,-0.000417,0.004102,-0.001119,-85.409718,0.004241,
1340,1570,-0.143664,-1.619404,0.999998,0.000167,-0.001435,0.003677,-0.000397,0.003708,-0.001466,-85.585855,0.003735,
720,1680,0.871251,-1.683541,0.999998,0.000187,-0.002448,0.005049,0.000040,0.005049,-0.002448,89.695594,0.005050,
1580,1240,-1.100209,-3.812610,0.999998,0.000200,-0.003286,0.006083,0.000405,0.006101,-0.003303,87.528217,0.006108,
810,270,0.503414,-9.035512,0.999998,0.000198,-0.001913,0.004668,0.000306,0.004682,-0.001927,87.340235,0.004706,
1630,1070,-1.567840,-4.818654,0.999997,0.000209,-0.002026,0.005213,0.000299,0.005225,-0.002039,87.640271,0.005267,
1460,640,-0.426418,-7.578632,0.999996,0.000213,-0.002746,0.004913,0.001017,0.005046,-0.002879,82.563836,0.005062,
860,2010,0.046556,-0.087513,0.999999,0.000148,-0.000239,0.003462,-0.000749,0.003608,-0.000385,-78.980324,0.003963,
1710,1790,-0.614880,-1.088579,0.999998,0.000182,-0.002027,0.004894,0.000391,0.004917,-0.002049,86.773569,0.004939,
1730,1680,-0.840559,-1.662052,0.999998,0.000176,-0.002418,0.005033,-0.000013,0.005033,-0.002418,-89.901404,0.005034,
1500,1200,-0.927595,-3.902119,0.999998,0.000205,-0.003651,0.006687,0.000139,0.006689,-0.003652,89.227726,0.006698,
930,1530,0.538908,-2.090943,0.999997,0.000193,-0.002427,0.004830,0.000516,0.004867,-0.002464,85.954107,0.004867,
660,70,0.212902,-9.854677,0.999998,0.000161,-0.000741,0.004892,0.001991,0.005525,-0.001374,72.371746,0.005753,
1170,1960,0.013908,-0.230365,0.999998,0.000190,-0.000185,0.003112,-0.000090,0.003115,-0.000187,-88.432577,0.003493,
670,1830,0.712070,-1.005359,0.999998,0.000188,-0.002262,0.005054,-0.000492,0.005087,-0.002295,-86.169696,0.005095,
1200,280,0.026544,-9.236634,0.999998,0.000159,-0.000845,0.003469,-0.000015,0.003469,-0.000845,-89.803416,0.003618,
1310,620,-0.101302,-8.020145,0.999998,0.000150,-0.001460,0.003243,0.000827,0.003384,-0.001601,80.307864,0.003386,
790,540,0.919989,-7.666491,0.999998,0.000167,-0.002654,0.005205,-0.000174,0.005209,-0.002658,-88.733493,0.005210,
670,1850,0.661306,-0.902741,0.999997,0.000199,-0.002220,0.005117,-0.000600,0.005166,-0.002268,-85.352020,0.005179,
1830,800,-1.767009,-6.097748,0.999997,0.000216,-0.002435,0.004882,-0.000322,0.004896,-0.002449,-87.485296,0.004896,
1790,1750,-0.870192,-1.407509,0.999999,0.000142,-0.002366,0.005036,0.000117,0.005038,-0.002368,89.096612,0.005041,
1510,1240,-0.853973,-3.665745,0.999998,0.000169,-0.003726,0.006489,-0.000074,0.006489,-0.003726,-89.583854,0.006513,
1300,1410,-0.084600,-2.121117,0.999998,0.000174,-0.001393,0.003052,-0.000837,0.003204,-0.001545,-79.686195,0.003205,
1490,980,-1.277290,-5.359218,0.999998,0.000209,-0.002224,0.006703,-0.000343,0.006716,-0.002237,-87.801046,0.006839,
1210,280,0.019110,-9.237442,0.999998,0.000154,-0.000858,0.003471,-0.000032,0.003471,-0.000858,-89.579095,0.003616,
1370,1350,-0.213747,-2.517890,0.999997,0.000196,-0.002431,0.004125,-0.001665,0.004523,-0.002830,-76.534074,0.004571,
630,340,1.035936,-8.426094,0.999998,0.000152,-0.002431,0.005021,-0.000038,0.005021,-0.002431,-89.705175,0.005022,
840,1260,1.191770,-3.752838,0.999997,0.000198,-0.003101,0.005853,-0.000434,0.005874,-0.003122,-87.230167,0.005878,
1110,1350,0.175182,-2.455113,0.999998,0.000181,-0.002216,0.003736,0.001696,0.004185,-0.002665,75.162488,0.004237,
1450,30,-0.009494,-10.044696,0.999999,0.000000,0.000036,0.003044,-0.000349,0.003084,-0.000004,-83.466934,0.003559,
1470,780,-0.620694,-6.770001,0.999998,0.000195,-0.003797,0.006217,0.000797,0.006280,-0.003860,85.478655,0.006335,
1870,1030,-2.086958,-5.029156,0.999998,0.000166,-0.002044,0.004310,0.000024,0.004310,-0.002044,89.781465,0.004312,
1610,2020,-0.033173,-0.053496,0.999999,0.000000,-0.000096,0.003518,0.000717,0.003655,-0.000234,79.174308,0.004092,
970,710,0.590129,-7.110364,0.999997,0.000193,-0.003398,0.005706,-0.000808,0.005777,-0.003469,-84.966680,0.005816,
590,1760,1.053366,-1.503385,0.999998,0.000185,-0.002377,0.004932,0.000035,0.004932,-0.002377,89.726330,0.004933,
1150,1890,0.037898,-0.456552,0.999998,0.000145,-0.000488,0.003314,-0.000083,0.003316,-0.000489,-88.753869,0.003580,
930,410,0.445410,-8.528835,0.999997,0.000195,-0.001937,0.004541,-0.000233,0.004549,-0.001946,-87.945167,0.004565,
1820,1900,-0.572764,-0.679413,0.999997,0.000223,-0.002155,0.005220,0.000782,0.005302,-0.002237,84.015002,0.005323,
1690,800,-1.400766,-6.227308,0.999998,0.000208,-0.002802,0.005498,-0.000528,0.005532,-0.002835,-86.376117,0.005532,
1750,1850,-0.563989,-0.839954,0.999997,0.000199,-0.002179,0.004938,0.000539,0.004979,-0.002220,85.692034,0.004988,
1550,190,-0.228357,-9.461529,0.999998,0.000169,-0.000959,0.003971,-0.000457,0.004013,-0.001001,-84.747261,0.004177,
1810,1740,-0.936577,-1.487982,0.999998,0.000206,-0.002436,0.005061,0.000056,0.005061,-0.002437,89.574775,0.005063,
1370,100,-0.034876,-9.828824,0.999998,0.000162,-0.000221,0.003241,-0.000197,0.003253,-0.000233,-86.757566,0.003629,
720,1660,0.902226,-1.785250,0.999998,0.000159,-0.002437,0.005084,0.000060,0.005085,-0.002437,89.540015,0.005086,
1580,1220,-1.148663,-3.933865,0.999997,0.000229,-0.003221,0.006049,0.000523,0.006079,-0.003250,86.779099,0.006084,
1630,1050,-1.574688,-4.922161,0.999998,0.000195,-0.001954,0.005176,0.000182,0.005180,-0.001959,88.538563,0.005231,
1500,1940,-0.099799,-0.321140,0.999998,0.000174,-0.000601,0.003564,0.000416,0.003605,-0.000642,84.357441,0.003846,
1320,1590,-0.113155,-1.529328,0.999998,0.000169,-0.001397,0.003666,-0.000380,0.003695,-0.001425,-85.730507,0.003727,
600,200,0.812783,-9.067513,0.999998,0.000182,-0.002453,0.004975,0.000212,0.004981,-0.002459,88.369474,0.004981,
810,710,1.118051,-6.776567,0.999998,0.000189,-0.003020,0.005617,0.000175,0.005621,-0.003023,88.841015,0.005626,
1580,40,-0.031377,-10.010657,0.999999,0.000130,-0.000262,0.003324,-0.000665,0.003443,-0.000381,-79.828194,0.003775,
1460,620,-0.416322,-7.675060,0.999997,0.000202,-0.002627,0.004833,0.000965,0.004955,-0.002750,82.750699,0.004965,
1660,340,-0.630025,-8.690953,0.999997,0.000183,-0.002239,0.004863,-0.000018,0.004863,-0.002239,-89.853665,0.004868,
1870,510,-1.386943,-7.505486,0.999996,0.000221,-0.002517,0.005086,0.000030,0.005086,-0.002517,89.775794,0.005086,
1770,960,-1.846638,-5.360323,0.999998,0.000159,-0.002232,0.004797,-0.000272,0.004807,-0.002242,-87.788277,0.004811,
1050,1870,0.107063,-0.546063,0.999998,0.000210,-0.000774,0.003554,-0.000150,0.003559,-0.000779,-88.020685,0.003742,
1720,280,-0.662416,-8.907301,0.999998,0.000160,-0.002061,0.004929,-0.000317,0.004943,-0.002075,-87.411345,0.004964,
1550,740,-0.837630,-6.787388,0.999998,0.000235,-0.003515,0.005999,0.000216,0.006003,-0.003520,88.698881,0.006033,
1140,1890,0.042919,-0.457190,0.999998,0.000144,-0.000525,0.003332,-0.000083,0.003334,-0.000527,-88.767694,0.003585,
1420,300,-0.189455,-9.103365,0.999998,0.000173,-0.001285,0.003840,0.000069,0.003840,-0.001286,89.233177,0.003910,
760,190,0.440950,-9.360680,0.999997,0.000195,-0.001629,0.004694,0.000761,0.004785,-0.001719,83.233959,0.004847,
1760,1410,-1.313018,-3.102052,0.999998,0.000198,-0.002735,0.005211,0.000128,0.005213,-0.002737,89.074676,0.005215,
670,1810,0.757725,-1.105534,0.999998,0.000181,-0.002299,0.005069,-0.000357,0.005086,-0.002316,-87.231517,0.005093,
850,2010,0.048095,-0.088452,0.999998,0.000156,-0.000159,0.003477,-0.000770,0.003633,-0.000315,-78.522153,0.004025,
1310,1930,-0.024876,-0.324402,0.999998,0.000154,-0.000322,0.003231,0.000103,0.003234,-0.000324,88.340009,0.003562,
1180,1370,0.057452,-2.205745,0.999999,0.000165,-0.001300,0.002593,0.000913,0.002796,-0.001504,77.438366,0.002799,
1830,1860,-0.718885,-0.910652,0.999997,0.000193,-0.002363,0.005113,0.000360,0.005130,-0.002380,87.246982,0.005135,
930,1510,0.552363,-2.188347,0.999998,0.000192,-0.002552,0.004976,0.000559,0.005017,-0.002594,85.779988,0.005018,
1300,570,-0.089150,-8.200691,0.999999,0.000157,-0.001436,0.003360,0.000589,0.003432,-0.001508,83.099043,0.003440,
1010,1760,0.227332,-0.982066,0.999999,0.000135,-0.001195,0.003944,-0.000031,0.003944,-0.001195,-89.652076,0.004045,
1200,500,0.040699,-8.460179,0.999998,0.000150,-0.001261,0.003429,-0.000177,0.003436,-0.001268,-87.837557,0.003475,
790,520,0.893669,-7.770649,0.999998,0.000140,-0.002614,0.005142,-0.000187,0.005147,-0.002618,-88.617459,0.005147,
670,1870,0.609146,-0.799248,0.999997,0.000214,-0.002111,0.005065,-0.000751,0.005142,-0.002189,-84.087338,0.005161,
1790,1730,-0.905811,-1.504590,0.999998,0.000156,-0.002386,0.005040,0.000030,0.005041,-0.002386,89.765572,0.005043,
1440,2020,-0.015423,-0.051592,0.999999,0.000000,-0.000113,0.003052,0.000242,0.003070,-0.000132,85.646095,0.003472,
1250,280,-0.016793,-9.238175,0.999998,0.000151,-0.000887,0.003486,0.000040,0.003486,-0.000887,89.471207,0.003623,
1220,1570,0.014438,-1.560328,0.999998,0.000174,-0.001287,0.003470,0.000129,0.003474,-0.001291,88.445003,0.003512,
1010,1190,0.782736,-3.798766,0.999997,0.000193,-0.003880,0.006927,0.000508,0.006951,-0.003904,87.315674,0.006969,
580,1970,0.441354,-0.449578,0.999997,0.000219,-0.002728,0.005830,-0.001949,0.006253,-0.003151,-77.754800,0.006253,
840,1240,1.236198,-3.867193,0.999997,0.000192,-0.003060,0.005804,-0.000534,0.005836,-0.003092,-86.563182,0.005840,
1110,1790,0.101661,-0.811925,0.999999,0.000135,-0.000912,0.003601,0.000002,0.003601,-0.000912,89.980129,0.003745,
920,670,0.705857,-7.209533,0.999998,0.000170,-0.003183,0.005600,-0.000501,0.005628,-0.003211,-86.747675,0.005647,
1510,1220,-0.906743,-3.796262,0.999998,0.000212,-0.003676,0.006538,0.000091,0.006539,-0.003677,89.490250,0.006556,
1550,390,-0.461838,-8.599814,0.999997,0.000198,-0.001957,0.004585,0.000157,0.004589,-0.001960,88.623811,0.004605,
1470,760,-0.580861,-6.892993,0.999997,0.000234,-0.003729,0.005994,0.000902,0.006077,-0.003812,84.745746,0.006142,
1150,1870,0.041826,-0.523550,0.999998,0.000173,-0.000570,0.003362,-0.000072,0.003364,-0.000571,-88.952363,0.003600,
1480,30,-0.009001,-10.044053,0.999999,0.000000,-0.000083,0.003098,-0.000417,0.003151,-0.000136,-82.660091,0.003563,
1250,1700,-0.020325,-1.104421,0.999998,0.000147,-0.001071,0.003539,-0.000080,0.003541,-0.001073,-89.003461,0.003631,
1820,1880,-0.634882,-0.785503,0.999997,0.000209,-0.002230,0.005194,0.000653,0.005251,-0.002287,85.010120,0.005266,
1720,260,-0.626838,-9.005730,0.999997,0.000192,-0.002012,0.004912,-0.000427,0.004938,-0.002039,-86.486148,0.004963,
1580,1200,-1.198478,-4.054868,0.999998,0.000199,-0.003079,0.006027,0.000629,0.006070,-0.003122,86.066035,0.006071,
910,40,0.026687,-10.010502,0.999999,0.000135,-0.000078,0.003301,0.000614,0.003409,-0.000186,80.009310,0.003833,
1630,1030,-1.583784,-5.027321,0.999998,0.000184,-0.001938,0.005199,0.000020,0.005199,-0.001938,89.842160,0.005255,
930,190,0.212474,-9.469047,0.999998,0.000186,-0.000964,0.003940,0.000427,0.003976,-0.001001,85.066057,0.004136,
810,690,1.082560,-6.889370,0.999998,0.000180,-0.003019,0.005547,0.000091,0.005548,-0.003020,89.391807,0.005555,
1510,1740,-0.323242,-1.107839,0.999998,0.000177,-0.001606,0.004233,-0.000015,0.004233,-0.001606,-89.854733,0.004274,
1110,820,0.273339,-7.170249,0.999996,0.000249,-0.002981,0.004071,-0.002251,0.004729,-0.003639,-73.722136,0.004952,
970,690,0.567345,-7.225052,0.999997,0.000206,-0.003282,0.005556,-0.000859,0.005639,-0.003364,-84.499436,0.005674,
1460,1950,-0.068594,-0.278003,0.999998,0.000203,-0.000345,0.003412,0.000380,0.003450,-0.000383,84.286930,0.003782,
1660,320,-0.600307,-8.789375,0.999998,0.000176,-0.002151,0.004823,-0.000074,0.004823,-0.002151,-89.393750,0.004833,
1750,1830,-0.612603,-0.938185,0.999997,0.000198,-0.002211,0.004962,0.000425,0.004987,-0.002236,86.617321,0.004996,
1530,740,-0.765428,-6.833356,0.999997,0.000203,-0.003532,0.005992,0.000364,0.006006,-0.003546,87.814069,0.006038,
670,1790,0.800465,-1.207135,0.999998,0.000180,-0.002344,0.005045,-0.000260,0.005054,-0.002353,-87.986091,0.005058,
870,2010,0.043041,-0.087293,0.999998,0.000153,-0.000308,0.003441,-0.000723,0.003575,-0.000442,-79.447599,0.003898,
830,740,1.112281,-6.636279,0.999997,0.000221,-0.003157,0.005759,0.000227,0.005765,-0.003163,88.539948,0.005774,
1460,600,-0.404721,-7.773303,0.999998,0.000177,-0.002555,0.004781,0.000935,0.004898,-0.002673,82.847826,0.004905,
720,1640,0.931966,-1.886298,0.999998,0.000149,-0.002436,0.005066,0.000076,0.005067,-0.002437,89.422501,0.005068,
1470,100,-0.068098,-9.817711,0.999998,0.000156,-0.000337,0.003401,-0.000396,0.003443,-0.000378,-84.024527,0.003776,
1450,1740,-0.235974,-1.057024,0.999998,0.000160,-0.001279,0.003984,-0.000009,0.003984,-0.001279,-89.901683,0.004068,
1200,260,0.026678,-9.307137,0.999998,0.000161,-0.000805,0.003480,-0.000009,0.003480,-0.000805,-89.876301,0.003644,
670,1890,0.551581,-0.699070,0.999997,0.000216,-0.002009,0.005128,-0.000937,0.005249,-0.002130,-82.642674,0.005280,
790,500,0.869410,-7.872814,0.999997,0.000177,-0.002559,0.005119,-0.000189,0.005123,-0.002564,-88.594065,0.005123,
1050,1850,0.120309,-0.619184,0.999998,0.000195,-0.000863,0.003599,-0.000130,0.003602,-0.000866,-88.331908,0.003761,
1180,490,0.064357,-8.488779,0.999999,0.000144,-0.001245,0.003483,-0.000170,0.003489,-0.001251,-87.941104,0.003535,
780,1570,0.876197,-2.146030,0.999998,0.000154,-0.002533,0.005106,0.000173,0.005109,-0.002537,88.701670,0.005110,
1580,1810,-0.345734,-0.866992,0.999998,0.000183,-0.001578,0.004323,0.000299,0.004338,-0.001593,87.105743,0.004388,
1750,1000,-1.821347,-5.173535,0.999998,0.000175,-0.002168,0.004860,-0.000150,0.004863,-0.002171,-88.774792,0.004872,
1720,240,-0.583328,-9.103747,0.999997,0.000193,-0.001925,0.004888,-0.000532,0.004929,-0.001967,-85.563019,0.004963,
1790,1710,-0.937538,-1.609646,0.999998,0.000158,-0.002413,0.005074,0.000005,0.005074,-0.002413,89.963928,0.005076,
920,650,0.683089,-7.320181,0.999997,0.000205,-0.003072,0.005488,-0.000546,0.005522,-0.003107,-86.367517,0.005537,
930,1710,0.387094,-1.262349,0.999998,0.000196,-0.001582,0.004405,-0.000014,0.004405,-0.001582,-89.861390,0.004463,
1680,470,-0.848990,-8.013734,0.999998,0.000144,-0.002520,0.005063,0.000168,0.005067,-0.002524,88.735234,0.005067,
1580,1180,-1.246451,-4.175051,0.999998,0.000197,-0.002948,0.006001,0.000700,0.006056,-0.003003,85.552562,0.006056,
1470,2020,-0.012884,-0.049504,0.999998,0.000000,0.000014,0.003177,0.000391,0.003225,-0.000033,83.053187,0.003705,
610,80,0.348444,-9.722729,0.999997,0.000185,-0.002322,0.005680,0.001309,0.005889,-0.002530,80.943046,0.005908,
1310,1890,-0.035740,-0.454823,0.999998,0.000175,-0.000431,0.003301,0.000079,0.003302,-0.000432,88.785460,0.003590,
1110,1770,0.110491,-0.885850,0.999999,0.000131,-0.000996,0.003665,0.000013,0.003666,-0.000996,89.836849,0.003791,
640,1630,1.143867,-2.067518,0.999998,0.000179,-0.002518,0.005061,0.000062,0.005061,-0.002519,89.532691,0.005061,
1270,710,-0.040330,-7.838622,0.999998,0.000156,-0.001183,0.002259,0.000798,0.002435,-0.001359,77.562344,0.002441,
1530,840,-0.992410,-6.204001,0.999997,0.000214,-0.003535,0.006433,-0.000297,0.006442,-0.003544,-88.293974,0.006452,
1440,30,-0.010260,-10.044373,0.999999,0.000000,-0.000020,0.003043,-0.000313,0.003075,-0.000051,-84.230500,0.003521,
670,1910,0.486394,-0.595038,0.999997,0.000239,-0.001833,0.005043,-0.001103,0.005216,-0.002006,-81.103454,0.005262,
1700,270,-0.602674,-8.979952,0.999997,0.000208,-0.002057,0.004822,-0.000344,0.004839,-0.002074,-87.145537,0.004855,
1630,1010,-1.576316,-5.131561,0.999998,0.000188,-0.001935,0.005156,-0.000177,0.005160,-0.001939,-88.572063,0.005213,
1200,220,0.020286,-9.444121,0.999998,0.000182,-0.000679,0.003391,-0.000029,0.003391,-0.000679,-89.597867,0.003589,
720,880,1.685246,-5.768227,0.999998,0.000182,-0.002424,0.005098,0.000544,0.005137,-0.002463,85.887856,0.005139,
810,670,1.048192,-6.997466,0.999998,0.000182,-0.003002,0.005510,0.000019,0.005510,-0.003002,89.871863,0.005518,
1870,790,-1.846013,-6.097059,0.999998,0.000181,-0.002344,0.004730,-0.000157,0.004734,-0.002347,-88.731664,0.004734,
1830,780,-1.731502,-6.196385,0.999998,0.000176,-0.002468,0.004933,-0.000297,0.004944,-0.002480,-87.707659,0.004944,
1210,680,0.022274,-7.922760,0.999999,0.000133,-0.001067,0.002413,-0.000381,0.002454,-0.001109,-83.818555,0.002458,
1460,580,-0.396206,-7.868972,0.999998,0.000179,-0.002473,0.004648,0.000874,0.004754,-0.002579,83.102332,0.004759,
1630,40,-0.040673,-10.006949,0.999998,0.000163,-0.000064,0.003473,-0.000898,0.003687,-0.000279,-76.544179,0.004107,
1320,1950,-0.022360,-0.261738,0.999998,0.000174,-0.000286,0.003176,0.000100,0.003179,-0.000289,88.351108,0.003516,
1540,560,-0.585432,-7.799878,0.999997,0.000206,-0.002647,0.005058,0.000539,0.005095,-0.002684,86.020823,0.005098,
810,1500,0.885274,-2.458629,0.999998,0.000176,-0.002700,0.005253,0.000197,0.005258,-0.002704,88.580809,0.005259,
1640,730,-1.114821,-6.682654,0.999998,0.000237,-0.003088,0.005699,-0.000211,0.005704,-0.003093,-88.625122,0.005711,
580,1880,0.788695,-0.933174,0.999997,0.000188,-0.002689,0.005037,-0.000355,0.005054,-0.002706,-87.378406,0.005058,
1010,1170,0.854703,-3.940717,0.999997,0.000192,-0.003695,0.007018,0.000326,0.007028,-0.003705,88.257934,0.007031,
1890,1030,-2.126883,-5.029167,0.999998,0.000153,-0.002033,0.004215,0.000025,0.004215,-0.002033,89.770026,0.004216,
930,150,0.162120,-9.624640,0.999998,0.000168,-0.000749,0.003762,0.000503,0.003817,-0.000804,83.715113,0.004025,
1270,1700,-0.040276,-1.108848,0.999998,0.000173,-0.001029,0.003556,-0.000058,0.003557,-0.001030,-89.279922,0.003660,
970,670,0.546501,-7.336172,0.999997,0.000203,-0.003157,0.005411,-0.000870,0.005498,-0.003245,-84.257547,0.005528,
1680,670,-1.130133,-6.959110,0.999998,0.000167,-0.002927,0.005456,-0.000097,0.005457,-0.002929,-89.334700,0.005462,
930,970,1.349270,-5.379639,0.999997,0.000213,-0.002128,0.006013,0.000532,0.006048,-0.002163,86.276073,0.006129,
1870,1450,-1.532615,-3.059552,0.999998,0.000201,-0.002524,0.005078,0.000022,0.005078,-0.002524,89.830495,0.005078,
1370,1330,-0.219022,-2.599361,0.999997,0.000210,-0.002580,0.004198,-0.001822,0.004656,-0.003039,-75.869126,0.004728,
980,390,0.338889,-8.680502,0.999998,0.000169,-0.001814,0.004329,-0.000266,0.004340,-0.001825,-87.523589,0.004358,
1500,1900,-0.143145,-0.465783,0.999998,0.000151,-0.000841,0.003691,0.000377,0.003723,-0.000872,85.273071,0.003894,
780,150,0.317034,-9.556450,0.999997,0.000180,-0.001436,0.004453,0.000872,0.004579,-0.001563,81.751191,0.004655,
1470,30,-0.008504,-10.044424,0.999999,0.000000,-0.000013,0.003070,-0.000408,0.003123,-0.000066,-82.592486,0.003569,
1050,1830,0.132057,-0.689253,0.999998,0.000179,-0.000975,0.003672,-0.000087,0.003673,-0.000977,-88.932775,0.003805,
1420,280,-0.176550,-9.180665,0.999998,0.000176,-0.001189,0.003814,0.000006,0.003814,-0.001189,89.935294,0.003903,
670,1770,0.840631,-1.307514,0.999998,0.000179,-0.002394,0.005068,-0.000172,0.005072,-0.002398,-88.682714,0.005075,
1230,280,0.002093,-9.240538,0.999998,0.000136,-0.000905,0.003465,-0.000012,0.003465,-0.000905,-89.845482,0.003594,
1830,150,-0.581117,-9.406327,0.999998,0.000209,-0.002321,0.005229,-0.000630,0.005281,-0.002373,-85.265404,0.005290,
1010,160,0.115010,-9.610937,0.999998,0.000190,-0.000608,0.003630,0.000298,0.003651,-0.000629,86.002240,0.003904,
1330,100,-0.023184,-9.832469,0.999999,0.000147,-0.000308,0.003151,-0.000109,0.003155,-0.000312,-88.195644,0.003477,
1750,1680,-0.889441,-1.694011,0.999997,0.000224,-0.002446,0.005040,-0.000041,0.005040,-0.002446,-89.683526,0.005041,
600,400,1.206183,-8.071948,0.999998,0.000169,-0.002448,0.005005,-0.000072,0.005006,-0.002449,-89.450023,0.005006,
840,1220,1.280454,-3.984101,0.999997,0.000197,-0.002989,0.005789,-0.000590,0.005829,-0.003028,-86.174764,0.005830,
1750,1810,-0.658027,-1.039545,0.999997,0.000210,-0.002242,0.005000,0.000320,0.005014,-0.002256,87.476621,0.005022,
570,1970,0.469533,-0.465980,0.999660,0.002065,-0.002927,0.005770,-0.002360,0.006369,-0.003526,-75.757632,0.006381,
830,880,1.407178,-5.827787,0.999997,0.000187,-0.002679,0.005618,0.000694,0.005676,-0.002736,85.253902,0.005677,
860,370,0.550583,-8.621142,0.999997,0.000216,-0.002063,0.004668,-0.000050,0.004668,-0.002063,-89.572056,0.004679,
1090,820,0.339097,-7.032253,0.999996,0.000243,-0.003356,0.004898,-0.002168,0.005432,-0.003891,-76.142804,0.005599,
1510,840,-0.920388,-6.250063,0.999997,0.000213,-0.003633,0.006569,-0.000122,0.006570,-0.003635,-89.316888,0.006583,
760,1570,0.926216,-2.177965,0.999998,0.000172,-0.002523,0.005121,0.000154,0.005124,-0.002526,88.844806,0.005124,
1580,1790,-0.372493,-0.953678,0.999998,0.000175,-0.001691,0.004326,0.000214,0.004333,-0.001699,87.968217,0.004367,
1430,2020,-0.013357,-0.049152,0.999999,0.000000,-0.000187,0.003045,0.000221,0.003060,-0.000202,86.100038,0.003423,
1040,630,0.323281,-7.726513,0.999997,0.000205,-0.002467,0.004505,-0.001138,0.004686,-0.002648,-80.960158,0.004699,
760,1400,1.171883,-3.073608,0.999998,0.000197,-0.002859,0.005376,-0.000097,0.005377,-0.002860,-89.327881,0.005381,
1790,1690,-0.970341,-1.707992,0.999998,0.000146,-0.002420,0.005034,-0.000008,0.005034,-0.002420,-89.935286,0.005035,
1630,990,-1.567261,-5.233752,0.999997,0.000206,-0.002000,0.005201,-0.000253,0.005210,-0.002009,-87.991113,0.005256,
1200,200,0.020905,-9.512130,0.999998,0.000188,-0.000606,0.003331,0.000019,0.003332,-0.000606,89.725551,0.003549,
620,1630,1.194192,-2.099813,0.999998,0.000155,-0.002501,0.005037,0.000067,0.005037,-0.002502,89.490383,0.005037,
930,130,0.137588,-9.695537,0.999998,0.000177,-0.000618,0.003665,0.000514,0.003726,-0.000679,83.256366,0.003969,
810,650,1.017150,-7.109939,0.999998,0.000162,-0.002951,0.005499,-0.000036,0.005500,-0.002951,-89.753100,0.005504,
1370,2010,-0.010836,-0.078982,0.999998,0.000154,-0.000061,0.003056,0.000172,0.003065,-0.000070,86.841930,0.003500,
1680,270,-0.561697,-9.004623,0.999997,0.000190,-0.002085,0.004737,-0.000294,0.004750,-0.002098,-87.533323,0.004761,
1310,1870,-0.041630,-0.522578,0.999998,0.000169,-0.000507,0.003343,0.000071,0.003344,-0.000508,88.947121,0.003604,
1460,560,-0.384104,-7.962385,0.999997,0.000187,-0.002347,0.004592,0.000763,0.004675,-0.002430,83.799725,0.004676,
1140,570,0.122877,-8.170546,0.999998,0.000190,-0.001486,0.003506,-0.000642,0.003588,-0.001568,-82.794323,0.003597,
1010,1150,0.933557,-4.084951,0.999997,0.000195,-0.003447,0.007184,0.000215,0.007189,-0.003451,88.841986,0.007191,
790,1800,0.521857,-0.997245,0.999998,0.000182,-0.002027,0.004713,-0.000351,0.004731,-0.002045,-87.022885,0.004745,
720,1620,0.959537,-1.986965,0.999998,0.000163,-0.002472,0.005041,0.000099,0.005042,-0.002473,89.245149,0.005042,
1180,1350,0.054674,-2.256463,0.999998,0.000174,-0.001284,0.002436,0.001012,0.002693,-0.001541,75.723300,0.002703,
660,750,1.610537,-6.377690,0.999997,0.000182,-0.002558,0.005049,0.000337,0.005064,-0.002573,87.466480,0.005064,
1750,980,-1.812287,-5.270394,0.999998,0.000142,-0.002198,0.004798,-0.000155,0.004802,-0.002201,-88.734185,0.004807,
680,400,1.008460,-8.207690,0.999998,0.000161,-0.002470,0.005070,-0.000084,0.005071,-0.002471,-89.361128,0.005072,
1110,1750,0.116503,-0.958439,0.999999,0.000141,-0.001049,0.003627,0.000073,0.003628,-0.001050,89.108605,0.003733,
1270,690,-0.039729,-7.886636,0.999998,0.000159,-0.001203,0.002423,0.000679,0.002546,-0.001326,79.727726,0.002546,
1880,400,-1.248355,-8.044135,0.999998,0.000176,-0.002465,0.004957,0.000058,0.004958,-0.002465,89.550689,0.004958,
930,950,1.308948,-5.500264,0.999997,0.000213,-0.002349,0.006101,0.000661,0.006153,-0.002400,85.551904,0.006202,
1500,1880,-0.164309,-0.539267,0.999998,0.000175,-0.000957,0.003748,0.000329,0.003771,-0.000980,86.017978,0.003913,
1460,2020,-0.014762,-0.049791,0.999998,0.000000,0.000059,0.003105,0.000346,0.003144,0.000021,83.591126,0.003642,
760,150,0.344427,-9.546254,0.999998,0.000166,-0.001314,0.004559,0.000980,0.004718,-0.001473,80.771796,0.004828,
1050,1810,0.145158,-0.765532,0.999998,0.000168,-0.001040,0.003697,-0.000078,0.003699,-0.001041,-89.062638,0.003815,
1750,1790,-0.701162,-1.138812,0.999998,0.000201,-0.002291,0.005022,0.000244,0.005030,-0.002299,88.089863,0.005036,
1020,770,0.499070,-6.936074,0.999996,0.000208,-0.003727,0.005871,-0.001224,0.006025,-0.003881,-82.846564,0.006108,
1440,1750,-0.217320,-1.011046,0.999998,0.000160,-0.001271,0.003920,-0.000040,0.003921,-0.001271,-89.558144,0.004001,
1050,1010,1.074590,-5.256021,0.999994,0.000311,-0.004836,0.012303,-0.000989,0.012359,-0.004893,-86.707738,0.012448,
1230,1700,0.000662,-1.101112,0.999999,0.000153,-0.001099,0.003533,0.000006,0.003533,-0.001099,89.920896,0.003616,
1440,510,-0.321273,-8.220233,0.999998,0.000175,-0.002073,0.004358,0.000678,0.004429,-0.002144,84.045758,0.004429,
1790,1670,-1.002171,-1.809850,0.999998,0.000155,-0.002446,0.005060,-0.000045,0.005060,-0.002446,-89.659371,0.005061,
1540,1580,-0.516740,-1.865953,0.999998,0.000194,-0.002285,0.004729,-0.000384,0.004750,-0.002306,-86.872364,0.004750,
1240,1950,-0.002179,-0.258801,0.999999,0.000129,-0.000290,0.003131,0.000003,0.003131,-0.000290,89.951777,0.003460,
1720,220,-0.542496,-9.199801,0.999997,0.000204,-0.001841,0.004829,-0.000654,0.004892,-0.001904,-84.451133,0.004932,
1560,910,-1.279078,-5.716133,0.999997,0.000190,-0.002697,0.006006,-0.000735,0.006067,-0.002758,-85.205571,0.006076,
1650,1180,-1.442333,-4.234613,0.999997,0.000241,-0.002665,0.005528,0.000659,0.005581,-0.002717,85.427366,0.005581,
1190,160,0.020321,-9.643952,0.999998,0.000165,-0.000459,0.003268,0.000054,0.003269,-0.000460,89.172399,0.003539,
1830,1430,-1.464538,-3.101240,0.999997,0.000193,-0.002589,0.005085,0.000081,0.005086,-0.002590,89.396577,0.005086,
670,1750,0.879509,-1.410821,0.999998,0.000175,-0.002406,0.005079,-0.000099,0.005080,-0.002407,-89.245790,0.005082,
1880,1030,-2.107048,-5.029083,0.999998,0.000166,-0.002027,0.004261,0.000028,0.004261,-0.002028,89.744701,0.004262,
1430,30,-0.010048,-10.044512,0.999999,0.000000,-0.000069,0.003068,-0.000274,0.003092,-0.000093,-85.043492,0.003518,
960,1890,0.157325,-0.504914,0.999998,0.000163,-0.000905,0.003729,-0.000367,0.003758,-0.000934,-85.500802,0.003914,
1380,670,-0.231105,-7.673384,0.999998,0.000157,-0.002340,0.004207,0.001465,0.004520,-0.002653,77.946659,0.004543,
930,110,0.108450,-9.770406,0.999998,0.000159,-0.000481,0.003644,0.000548,0.003716,-0.000552,82.559768,0.004010,
1120,2010,0.009525,-0.077903,0.999998,0.000149,-0.000098,0.002971,-0.000114,0.002976,-0.000103,-87.875107,0.003378,
810,630,0.987926,-7.219197,0.999998,0.000151,-0.002912,0.005408,-0.000077,0.005408,-0.002913,-89.467876,0.005414,
770,1780,0.597522,-1.116034,0.999997,0.000196,-0.002071,0.004855,-0.000289,0.004867,-0.002083,-87.610676,0.004884,
1680,1490,-0.970641,-2.558715,0.999998,0.000170,-0.002706,0.005266,-0.000133,0.005268,-0.002708,-89.043408,0.005269,
970,650,0.530063,-7.441002,0.999997,0.000215,-0.003033,0.005270,-0.000859,0.005358,-0.003121,-84.154656,0.005382,
970,1160,1.032854,-4.152142,0.999997,0.000198,-0.003332,0.006777,-0.000381,0.006792,-0.003347,-87.843574,0.006792,
1180,1390,0.058500,-2.151414,0.999999,0.000157,-0.001319,0.002735,0.000813,0.002892,-0.001476,79.071389,0.002892,
910,640,0.701886,-7.353380,0.999996,0.000225,-0.003040,0.005447,-0.000482,0.005474,-0.003068,-86.763066,0.005487,
590,1070,2.077278,-4.857862,0.999998,0.000168,-0.002026,0.004204,-0.000056,0.004205,-0.002026,-89.484874,0.004205,
840,710,1.025161,-6.823660,0.999998,0.000172,-0.003159,0.005716,0.000064,0.005717,-0.003159,89.588782,0.005727,
1080,1370,0.240481,-2.479050,0.999997,0.000180,-0.002420,0.004268,0.001541,0.004606,-0.002758,77.626544,0.004636,
1880,290,-1.060013,-8.587758,0.999998,0.000167,-0.002411,0.004851,0.000022,0.004851,-0.002411,89.825318,0.004851,
1140,490,0.118115,-8.457435,0.999999,0.000133,-0.001455,0.003664,-0.000447,0.003703,-0.001494,-85.043771,0.003726,
1460,540,-0.375708,-8.054236,0.999998,0.000178,-0.002199,0.004515,0.000693,0.004585,-0.002270,84.167511,0.004585,
720,1580,1.015908,-2.191080,0.999998,0.000160,-0.002543,0.005142,0.000120,0.005144,-0.002545,89.107554,0.005144,
930,930,1.259396,-5.623388,0.999997,0.000211,-0.002626,0.006184,0.000699,0.006239,-0.002681,85.488717,0.006260,
1400,1040,-1.007349,-4.852721,0.999992,0.000000,-0.005151,0.014405,-0.001025,0.014459,-0.005204,-87.008792,0.014647,
730,1820,0.598552,-0.963896,0.999997,0.000195,-0.002046,0.004930,-0.000489,0.004964,-0.002080,-86.011760,0.004985,
740,590,1.123688,-7.322657,0.999997,0.000218,-0.002715,0.005278,-0.000020,0.005278,-0.002715,-89.857289,0.005279,
1500,1860,-0.186613,-0.615919,0.999998,0.000192,-0.001067,0.003835,0.000312,0.003854,-0.001087,86.372662,0.003975,
800,970,1.619440,-5.333326,0.999998,0.000194,-0.002124,0.005183,0.000402,0.005205,-0.002146,86.856532,0.005232,
1010,1130,1.011408,-4.235586,0.999996,0.000225,-0.003179,0.007304,0.000213,0.007308,-0.003184,88.837864,0.007328,
1490,220,-0.200734,-9.373031,0.999998,0.000167,-0.001092,0.003899,-0.000240,0.003911,-0.001104,-87.248060,0.004032,
1730,1000,-1.778203,-5.174453,0.999998,0.000169,-0.002154,0.004927,-0.000172,0.004931,-0.002159,-88.605545,0.004944,
1050,1790,0.157840,-0.837296,0.999998,0.000165,-0.001125,0.003714,-0.000025,0.003714,-0.001125,-89.705555,0.003809,
1050,1000,1.071958,-5.380945,0.999989,0.000393,-0.004662,0.012164,-0.001558,0.012307,-0.004805,-84.752454,0.012405,
1070,100,0.041287,-9.827774,0.999999,0.000148,-0.000285,0.003241,0.000230,0.003256,-0.000300,86.278102,0.003599,
760,1380,1.205465,-3.181161,0.999997,0.000192,-0.002856,0.005404,-0.000140,0.005406,-0.002858,-89.030444,0.005409,
1220,1950,0.003639,-0.260129,0.999999,0.000131,-0.000310,0.003125,-0.000021,0.003125,-0.000311,-89.657608,0.003443,
1790,1650,-1.033261,-1.910945,0.999998,0.000178,-0.002459,0.005095,-0.000101,0.005096,-0.002460,-89.234468,0.005097,
1870,110,-0.525243,-9.519907,0.999996,0.000224,-0.002358,0.005442,-0.000907,0.005546,-0.002462,-83.451000,0.005557,
1750,1770,-0.736249,-1.240395,0.999998,0.000178,-0.002336,0.005024,0.000185,0.005028,-0.002341,88.558537,0.005032,
1710,1620,-0.877397,-1.935180,0.999998,0.000175,-0.002476,0.005071,-0.000104,0.005072,-0.002477,-89.213852,0.005073,
1420,2020,-0.009991,-0.048336,0.999999,0.000000,-0.000176,0.003041,0.000213,0.003055,-0.000190,86.234549,0.003423,
1040,1310,0.393306,-2.920129,0.999997,0.000233,-0.003345,0.005324,0.001533,0.005587,-0.003608,80.263582,0.005665,
1540,1540,-0.547219,-2.056440,0.999998,0.000211,-0.002418,0.004838,-0.000472,0.004869,-0.002449,-86.292791,0.004869,
630,980,1.992564,-5.253612,0.999998,0.000180,-0.002123,0.004473,0.000074,0.004474,-0.002123,89.354632,0.004476,
1630,1190,-1.364765,-4.162275,0.999997,0.000186,-0.002803,0.005678,0.000673,0.005731,-0.002856,85.488018,0.005731,
860,930,1.430926,-5.567626,0.999997,0.000227,-0.002381,0.005637,0.000695,0.005696,-0.002441,85.084696,0.005716,
670,1730,0.913588,-1.510750,0.999998,0.000159,-0.002414,0.005067,-0.000011,0.005067,-0.002414,-89.914047,0.005068,
940,1890,0.175210,-0.511607,0.999998,0.000163,-0.000846,0.003810,-0.000449,0.003853,-0.000889,-84.538692,0.004034,
810,610,0.958346,-7.328642,0.999998,0.000148,-0.002855,0.005394,-0.000114,0.005396,-0.002857,-89.207792,0.005399,
1200,180,0.015322,-9.578472,0.999998,0.000171,-0.000530,0.003300,0.000005,0.003300,-0.000530,89.918792,0.003545,
1500,1650,-0.380105,-1.486448,0.999997,0.000217,-0.001872,0.004397,-0.000274,0.004409,-0.001884,-87.500302,0.004424,
1120,2000,0.011537,-0.107722,0.999998,0.000154,-0.000128,0.003015,-0.000132,0.003021,-0.000133,-87.602873,0.003413,
840,1430,0.893191,-2.781547,0.999997,0.000193,-0.002944,0.005428,0.000217,0.005434,-0.002950,88.514518,0.005441,
910,620,0.678769,-7.461517,0.999997,0.000198,-0.002970,0.005344,-0.000495,0.005373,-0.003000,-86.606131,0.005385,
740,1630,0.895536,-1.905909,0.999997,0.000179,-0.002475,0.005029,0.000093,0.005030,-0.002476,89.291446,0.005030,
1150,1850,0.047522,-0.590908,0.999998,0.000180,-0.000641,0.003407,-0.000056,0.003408,-0.000641,-89.205796,0.003622,
970,630,0.513462,-7.545087,0.999996,0.000232,-0.002903,0.005116,-0.000853,0.005206,-0.002993,-83.993403,0.005226,
1870,290,-1.035042,-8.607401,0.999998,0.000158,-0.002411,0.004904,0.000008,0.004904,-0.002411,89.937812,0.004904,
1720,200,-0.493111,-9.299401,0.999997,0.000195,-0.001712,0.004846,-0.000762,0.004933,-0.001799,-83.457351,0.004993,
720,1560,1.041845,-2.295123,0.999998,0.000163,-0.002566,0.005138,0.000117,0.005140,-0.002568,89.129557,0.005140,
1480,2020,-0.013524,-0.048785,0.999998,0.000000,-0.000042,0.003216,0.000403,0.003265,-0.000091,83.054677,0.003718,
1730,50,-0.092481,-9.959108,0.999998,0.000155,-0.000442,0.003959,-0.001372,0.004351,-0.000835,-74.024304,0.004619,
580,1070,2.098214,-4.860132,0.999998,0.000154,-0.001971,0.004127,-0.000056,0.004128,-0.001971,-89.472768,0.004129,
1460,520,-0.367845,-8.141357,0.999997,0.000185,-0.002093,0.004451,0.000633,0.004512,-0.002153,84.529485,0.004513,
1280,670,-0.053623,-7.920754,0.999998,0.000170,-0.001289,0.002678,0.000781,0.002827,-0.001437,79.259709,0.002827,
930,390,0.429754,-8.618307,0.999997,0.000190,-0.001818,0.004470,-0.000167,0.004475,-0.001823,-88.480902,0.004500,
1830,1450,-1.430789,-2.999284,0.999997,0.000192,-0.002580,0.005095,0.000063,0.005096,-0.002581,89.531153,0.005096,
1370,160,-0.065780,-9.630510,0.999998,0.000161,-0.000455,0.003393,-0.000175,0.003401,-0.000463,-87.400722,0.003689,
730,1800,0.638015,-1.065292,0.999998,0.000181,-0.002138,0.004957,-0.000391,0.004979,-0.002159,-86.852784,0.004993,
800,950,1.595828,-5.438150,0.999997,0.000224,-0.002193,0.005189,0.000480,0.005220,-0.002224,86.296430,0.005239,
1500,1840,-0.206695,-0.692016,0.999998,0.000189,-0.001172,0.003886,0.000239,0.003897,-0.001184,87.297123,0.003996,
920,1170,1.162330,-4.187785,0.999998,0.000197,-0.003070,0.006260,-0.000642,0.006304,-0.003114,-86.079003,0.006304,
660,1370,1.494755,-3.369817,0.999996,0.000234,-0.002604,0.005137,-0.000221,0.005143,-0.002610,-88.366234,0.005143,
930,90,0.086992,-9.842844,0.999999,0.000141,-0.000369,0.003466,0.000551,0.003544,-0.000446,81.990550,0.003860,
1000,40,0.017433,-10.014731,0.999999,0.000135,-0.000020,0.003146,0.000380,0.003191,-0.000065,83.250195,0.003648,
1040,670,0.340458,-7.538409,0.999997,0.000193,-0.002739,0.004776,-0.001329,0.005004,-0.002967,-80.259283,0.005033,
1410,1060,-1.049920,-4.625535,0.999992,0.000332,-0.004625,0.012286,-0.001979,0.012515,-0.004853,-83.413572,0.012619,
1010,1110,1.083969,-4.382276,0.999996,0.000210,-0.002986,0.007577,0.000264,0.007584,-0.002993,88.569933,0.007640,
1860,110,-0.501497,-9.544464,0.999997,0.000216,-0.002356,0.005398,-0.000870,0.005494,-0.002453,-83.678254,0.005505,
1050,100,0.046606,-9.824513,0.999999,0.000159,-0.000415,0.003285,0.000249,0.003301,-0.000432,86.160555,0.003589,
760,1360,1.239702,-3.290389,0.999997,0.000204,-0.002874,0.005423,-0.000219,0.005429,-0.002879,-88.488111,0.005432,
1040,1290,0.416957,-3.028313,0.999998,0.000189,-0.003561,0.005540,0.001495,0.005779,-0.003800,80.907298,0.005874,
670,1710,0.944174,-1.613425,0.999998,0.000159,-0.002417,0.005049,0.000007,0.005049,-0.002417,89.947285,0.005050,
650,1820,0.780847,-1.084141,0.999998,0.000178,-0.002331,0.005087,-0.000331,0.005102,-0.002346,-87.453098,0.005107,
1050,1770,0.171245,-0.914519,0.999998,0.000151,-0.001219,0.003810,0.000024,0.003810,-0.001219,89.731101,0.003892,
1790,1630,-1.059767,-2.015344,0.999998,0.000166,-0.002484,0.005057,-0.000098,0.005059,-0.002485,-89.253887,0.005059,
870,220,0.328741,-9.309117,0.999998,0.000197,-0.001490,0.004254,0.000390,0.004281,-0.001516,86.133632,0.004341,
1810,960,-1.934454,-5.350579,0.999998,0.000167,-0.002189,0.004628,-0.000176,0.004633,-0.002193,-88.520681,0.004635,
1750,1750,-0.775995,-1.339906,0.999998,0.000184,-0.002376,0.005019,0.000107,0.005020,-0.002377,89.170344,0.005023,
1500,1630,-0.394966,-1.576189,0.999997,0.000229,-0.001914,0.004421,-0.000319,0.004437,-0.001930,-87.126522,0.004450,
1580,1750,-0.425525,-1.129229,0.999998,0.000159,-0.001845,0.004492,0.000072,0.004493,-0.001846,89.344922,0.004517,
590,480,1.349917,-7.653999,0.999996,0.000242,-0.002394,0.005068,0.000010,0.005068,-0.002394,89.926017,0.005071,
1670,1720,-0.644890,-1.378788,0.999998,0.000176,-0.002248,0.004895,0.000031,0.004895,-0.002248,89.753759,0.004901,
720,1540,1.069145,-2.397489,0.999998,0.000164,-0.002580,0.005172,0.000101,0.005173,-0.002582,89.255130,0.005173,
1760,1490,-1.186455,-2.684572,0.999997,0.000198,-0.002655,0.005219,-0.000035,0.005219,-0.002655,-89.745569,0.005219,
1840,1610,-1.215924,-2.196473,0.999998,0.000181,-0.002506,0.005064,-0.000069,0.005064,-0.002507,-89.480819,0.005065,
1620,1360,-0.988586,-3.164629,0.999998,0.000170,-0.003121,0.005683,-0.000007,0.005683,-0.003121,-89.952082,0.005692,
810,590,0.930506,-7.435745,0.999998,0.000150,-0.002812,0.005342,-0.000166,0.005346,-0.002815,-88.835730,0.005348,
1420,30,-0.008296,-10.045389,0.999999,0.000000,-0.000115,0.003072,-0.000232,0.003089,-0.000132,-85.850684,0.003493,
1830,1470,-1.398837,-2.896207,0.999998,0.000195,-0.002561,0.005127,0.000026,0.005127,-0.002561,89.809651,0.005127,
1890,1740,-1.130282,-1.635407,0.999998,0.000184,-0.002360,0.004877,-0.000051,0.004877,-0.002360,-89.594566,0.004878,
1170,660,0.073188,-7.925454,0.999999,0.000168,-0.001356,0.002865,-0.000878,0.003041,-0.001532,-78.703470,0.003041,
1500,1820,-0.229257,-0.771536,0.999998,0.000175,-0.001273,0.003986,0.000198,0.003994,-0.001280,87.851642,0.004079,
1460,740,-0.517448,-7.043926,0.999997,0.000224,-0.003553,0.005731,0.001106,0.005861,-0.003682,83.299521,0.005925,
1410,160,-0.086761,-9.622362,0.999998,0.000226,-0.000664,0.003462,-0.000208,0.003472,-0.000674,-87.125368,0.003682,
1200,160,0.017435,-9.643680,0.999998,0.000166,-0.000473,0.003257,0.000034,0.003258,-0.000473,89.479597,0.003520,
1760,410,-0.965643,-8.191879,0.999998,0.000177,-0.002464,0.005047,0.000068,0.005047,-0.002464,89.479256,0.005048,
930,370,0.414387,-8.706559,0.999997,0.000193,-0.001722,0.004385,-0.000093,0.004387,-0.001723,-89.128210,0.004420,
970,610,0.498327,-7.647382,0.999997,0.000229,-0.002780,0.005053,-0.000807,0.005136,-0.002863,-84.176747,0.005147,
630,200,0.739435,-9.137356,0.999998,0.000184,-0.002407,0.005105,0.000300,0.005117,-0.002419,87.718601,0.005119,
1640,650,-0.978807,-7.130892,0.999997,0.000207,-0.002968,0.005524,0.000065,0.005525,-0.002969,89.562644,0.005530,
870,1020,1.511369,-5.079520,0.999997,0.000218,-0.001871,0.005375,0.000084,0.005376,-0.001872,89.338862,0.005457,
1490,30,-0.010748,-10.045725,0.999999,0.000000,-0.000155,0.003146,-0.000419,0.003198,-0.000208,-82.874867,0.003579,
1370,1310,-0.228280,-2.682975,0.999997,0.000211,-0.002743,0.004269,-0.001947,0.004773,-0.003247,-75.475681,0.004876,
1580,1160,-1.299673,-4.294348,0.999997,0.000218,-0.002736,0.005948,0.000743,0.006011,-0.002799,85.146194,0.006016,
1480,970,-1.232417,-5.441744,0.999997,0.000209,-0.002432,0.006883,-0.000326,0.006894,-0.002444,-87.996793,0.006991,
1040,650,0.331771,-7.635048,0.999997,0.000194,-0.002608,0.004638,-0.001234,0.004843,-0.002813,-80.594409,0.004864,
1040,1080,1.076549,-4.491112,0.999994,0.000331,-0.003934,0.009646,0.001722,0.009861,-0.004149,82.885687,0.009902,
1020,1310,0.462220,-2.999884,0.999998,0.000217,-0.003545,0.005582,0.001299,0.005763,-0.003727,82.058201,0.005845,
1180,2010,0.004801,-0.076496,0.999999,0.000136,-0.000045,0.002993,-0.000050,0.002994,-0.000046,-89.048751,0.003431,
1010,1090,1.149159,-4.539515,0.999996,0.000254,-0.002875,0.007802,0.000285,0.007810,-0.002882,88.474362,0.007899,
1380,1230,-0.378192,-3.122010,0.999996,0.000245,-0.003454,0.005162,-0.002045,0.005622,-0.003914,-77.304546,0.005765,
1050,1750,0.182213,-0.989320,0.999999,0.000155,-0.001310,0.003827,0.000084,0.003828,-0.001311,89.066241,0.003891,
1300,1770,-0.059092,-0.866387,0.999998,0.000151,-0.000805,0.003523,0.000029,0.003523,-0.000805,89.611712,0.003692,
830,1500,0.831427,-2.424890,0.999997,0.000197,-0.002715,0.005244,0.000245,0.005251,-0.002723,88.237747,0.005252,
1610,880,-1.343864,-5.846963,0.999997,0.000237,-0.002751,0.005768,-0.000706,0.005826,-0.002809,-85.296658,0.005827,
1330,840,-0.272248,-7.270767,0.999995,0.000263,-0.002271,0.002859,0.001844,0.003453,-0.002865,72.144940,0.003695,
1720,180,-0.447099,-9.396094,0.999997,0.000204,-0.001574,0.004734,-0.000868,0.004851,-0.001692,-82.307647,0.004925,
1540,1000,-1.403608,-5.196088,0.999997,0.000195,-0.001829,0.005851,-0.000304,0.005863,-0.001841,-87.740241,0.005997,
1830,740,-1.660798,-6.394670,0.999998,0.000149,-0.002486,0.005003,-0.000255,0.005011,-0.002494,-88.050137,0.005011,
920,50,0.038322,-9.977749,0.999999,0.000140,-0.000120,0.003313,0.000568,0.003405,-0.000212,80.847018,0.003815,
1410,2020,-0.008439,-0.048209,0.999998,0.000000,-0.000110,0.003045,0.000242,0.003064,-0.000129,85.633217,0.003466,
1790,960,-1.890081,-5.356488,0.999999,0.000151,-0.002207,0.004709,-0.000235,0.004717,-0.002214,-88.060014,0.004720,
680,120,0.384208,-9.616674,0.999996,0.000218,-0.001729,0.004967,0.001296,0.005209,-0.001971,79.418665,0.005260,
1880,1520,-1.448406,-2.717537,0.999996,0.000223,-0.002534,0.005080,-0.000001,0.005080,-0.002534,-89.995354,0.005080,
760,1340,1.275829,-3.399541,0.999998,0.000198,-0.002873,0.005458,-0.000279,0.005467,-0.002882,-88.084944,0.005470,
1190,100,0.011426,-9.835671,0.999999,0.000137,-0.000240,0.003134,0.000043,0.003135,-0.000240,89.276570,0.003489,
1630,450,-0.701880,-8.194865,0.999998,0.000185,-0.002381,0.004933,0.000189,0.004938,-0.002385,88.517280,0.004938,
1840,840,-1.854607,-5.896651,0.999998,0.000176,-0.002333,0.004711,-0.000293,0.004723,-0.002345,-87.623312,0.004723,
930,70,0.059634,-9.911252,0.999998,0.000157,-0.000269,0.003430,0.000582,0.003519,-0.000358,81.269396,0.003874,
810,570,0.905764,-7.541530,0.999998,0.000154,-0.002749,0.005308,-0.000226,0.005314,-0.002755,-88.393426,0.005316,
1150,660,0.099921,-7.890163,0.999999,0.000142,-0.001528,0.003128,-0.001053,0.003354,-0.001755,-77.835543,0.003356,
1750,1730,-0.808998,-1.441432,0.999998,0.000183,-0.002393,0.005020,0.000039,0.005020,-0.002394,89.694860,0.005022,
1030,1700,0.238957,-1.202048,0.999998,0.000188,-0.001482,0.004010,0.000176,0.004016,-0.001488,88.161407,0.004061,
720,1520,1.097656,-2.501865,0.999998,0.000197,-0.002613,0.005188,0.000094,0.005189,-0.002614,89.308640,0.005189,
1500,1800,-0.249186,-0.852930,0.999998,0.000167,-0.001362,0.003974,0.000134,0.003977,-0.001366,88.559892,0.004042,
1780,1490,-1.238816,-2.715664,0.999998,0.000157,-0.002626,0.005192,-0.000017,0.005192,-0.002626,-89.871788,0.005192,
1600,1730,-0.488749,-1.244606,0.999997,0.000200,-0.001926,0.004677,0.000080,0.004678,-0.001927,89.301961,0.004702,
1390,160,-0.073660,-9.627621,0.999998,0.000158,-0.000521,0.003428,-0.000203,0.003439,-0.000531,-87.062995,0.003702,
1840,980,-2.006547,-5.252268,0.999998,0.000180,-0.002141,0.004412,-0.000070,0.004412,-0.002142,-89.384643,0.004413,
1200,140,0.011537,-9.707619,0.999998,0.000140,-0.000391,0.003186,0.000038,0.003186,-0.000391,89.396969,0.003476,
610,1880,0.715158,-0.861125,0.999998,0.000169,-0.002429,0.005172,-0.000347,0.005188,-0.002445,-87.393321,0.005191,
1580,1290,-0.988670,-3.505090,0.999998,0.000142,-0.003356,0.006014,0.000098,0.006015,-0.003357,89.398535,0.006029,
1640,310,-0.545175,-8.859807,0.999997,0.000195,-0.001922,0.004685,-0.000164,0.004689,-0.001926,-88.581144,0.004714,
970,590,0.483142,-7.749105,0.999997,0.000217,-0.002647,0.004925,-0.000739,0.004997,-0.002719,-84.475320,0.005003,
930,350,0.395190,-8.795203,0.999998,0.000190,-0.001633,0.004431,-0.000004,0.004431,-0.001633,-89.957907,0.004481,
1490,2020,-0.015183,-0.047567,0.999998,0.000000,-0.000146,0.003246,0.000404,0.003293,-0.000193,83.304880,0.003696,
1580,1730,-0.451229,-1.222644,0.999998,0.000157,-0.001946,0.004594,0.000005,0.004594,-0.001946,89.957766,0.004612,
1680,450,-0.823024,-8.116707,0.999998,0.000175,-0.002490,0.005042,0.000146,0.005045,-0.002493,88.888252,0.005045,
1460,500,-0.359091,-8.230536,0.999997,0.000184,-0.002048,0.004407,0.000589,0.004461,-0.002102,84.833541,0.004463,
1500,1210,-0.897963,-3.835333,0.999998,0.000179,-0.003730,0.006650,0.000045,0.006651,-0.003730,89.750262,0.006667,
620,450,1.230216,-7.854266,0.999998,0.000182,-0.002493,0.005063,-0.000092,0.005065,-0.002494,-89.305174,0.005065,
1640,630,-0.948529,-7.242388,0.999998,0.000160,-0.002929,0.005428,0.000137,0.005430,-0.002931,89.061863,0.005436,
850,1500,0.776977,-2.390607,0.999998,0.000180,-0.002717,0.005226,0.000285,0.005236,-0.002727,87.946113,0.005238,
1660,950,-1.588382,-5.438101,0.999997,0.000202,-0.002214,0.005219,-0.000480,0.005250,-0.002245,-86.322430,0.005268,
1040,490,0.280003,-8.334284,0.999998,0.000196,-0.001834,0.004206,-0.000542,0.004254,-0.001882,-84.910809,0.004264,
1410,30,-0.006944,-10.046799,0.999998,0.000000,-0.000107,0.003056,-0.000221,0.003072,-0.000123,-86.016906,0.003478,
870,1000,1.501505,-5.187641,0.999996,0.000243,-0.001897,0.005360,0.000221,0.005366,-0.001903,88.260369,0.005442,
1040,1070,1.099302,-4.589190,0.999995,0.000285,-0.004150,0.010147,0.001526,0.010309,-0.004311,83.973144,0.010355,
1280,1770,-0.043086,-0.863439,0.999999,0.000141,-0.000836,0.003498,0.000012,0.003498,-0.000836,89.836163,0.003653,
1180,2000,0.004641,-0.106414,0.999998,0.000165,-0.000068,0.003012,-0.000061,0.003013,-0.000069,-88.874555,0.003440,
1870,1520,-1.423485,-2.701829,0.999997,0.000212,-0.002542,0.005093,-0.000014,0.005093,-0.002542,-89.894981,0.005093,
1010,1070,1.200065,-4.688975,0.999996,0.000243,-0.002844,0.007959,0.000226,0.007964,-0.002849,88.801840,0.008071,
1040,1110,0.995247,-4.223936,0.999995,0.000296,-0.003358,0.008028,0.001729,0.008284,-0.003615,81.555211,0.008306,
760,1320,1.311216,-3.510245,0.999998,0.000189,-0.002863,0.005469,-0.000345,0.005483,-0.002878,-87.632303,0.005485,
680,100,0.314000,-9.718974,0.999997,0.000206,-0.001417,0.004712,0.001406,0.005019,-0.001724,77.678998,0.005100,
810,550,0.879728,-7.648873,0.999998,0.000175,-0.002705,0.005234,-0.000220,0.005240,-0.002711,-88.413449,0.005242,
850,320,0.505610,-8.845311,0.999998,0.000199,-0.001895,0.004657,0.000105,0.004658,-0.001897,89.080777,0.004685,
1830,720,-1.626880,-6.496500,0.999997,0.000208,-0.002495,0.005053,-0.000218,0.005059,-0.002501,-88.344950,0.005059,
920,40,0.026256,-10.010487,0.999999,0.000131,-0.000039,0.003269,0.000565,0.003363,-0.000132,80.572968,0.003809,
1030,1680,0.249479,-1.284441,0.999998,0.000163,-0.001500,0.004086,0.000197,0.004093,-0.001507,87.980965,0.004140,
850,820,1.216103,-6.193218,0.999997,0.000202,-0.003105,0.005899,0.000530,0.005930,-0.003136,86.640321,0.005933,
1050,1730,0.192726,-1.068249,0.999998,0.000159,-0.001375,0.003872,0.000113,0.003875,-0.001378,88.762588,0.003928,
1500,30,-0.013075,-10.044743,0.999999,0.000000,-0.000172,0.003206,-0.000431,0.003260,-0.000226,-82.843964,0.003641,
1750,1710,-0.841913,-1.542937,0.999997,0.000194,-0.002405,0.005065,-0.000001,0.005065,-0.002405,-89.995712,0.005068,
1840,1810,-0.868613,-1.187761,0.999998,0.000168,-0.002420,0.005040,0.000112,0.005042,-0.002422,89.138632,0.005043,
920,1980,0.068335,-0.186712,0.999998,0.000141,-0.000266,0.003469,-0.000601,0.003563,-0.000361,-81.086934,0.003923,
1840,960,-1.999218,-5.340385,0.999998,0.000177,-0.002156,0.004459,-0.000098,0.004461,-0.002157,-89.149478,0.004461,
1470,160,-0.124955,-9.607099,0.999999,0.000123,-0.000610,0.003609,-0.000345,0.003637,-0.000638,-85.352493,0.003884,
1840,820,-1.824766,-5.991485,0.999998,0.000173,-0.002356,0.004716,-0.000277,0.004727,-0.002367,-87.756343,0.004727,
1540,980,-1.379799,-5.315728,0.999998,0.000183,-0.001940,0.005894,-0.000478,0.005923,-0.001969,-86.518036,0.006033,
1500,1780,-0.269833,-0.932054,0.999998,0.000160,-0.001459,0.004083,0.000095,0.004084,-0.001461,89.017050,0.004139,
1200,120,0.011718,-9.771337,0.999998,0.000161,-0.000318,0.003195,0.000020,0.003195,-0.000318,89.670450,0.003520,
1190,660,0.047290,-7.957002,0.999999,0.000153,-0.001258,0.002687,-0.000615,0.002781,-0.001352,-81.341082,0.002781,
650,1500,1.308906,-2.716412,0.999997,0.000178,-0.002558,0.005112,0.000032,0.005112,-0.002558,89.764612,0.005112,
1490,100,-0.075509,-9.815682,0.999998,0.000162,-0.000481,0.003453,-0.000415,0.003496,-0.000525,-84.050115,0.003771,
1580,1670,-0.518966,-1.499136,0.999997,0.000229,-0.002090,0.004698,-0.000132,0.004701,-0.002092,-88.886107,0.004711,
1730,1280,-1.464762,-3.756413,0.999997,0.000244,-0.002723,0.005349,0.000457,0.005375,-0.002749,86.768211,0.005375,
720,1500,1.127218,-2.606050,0.999998,0.000181,-0.002638,0.005211,0.000072,0.005212,-0.002639,89.473607,0.005212,
590,1630,1.268437,-2.150284,0.999998,0.000187,-0.002330,0.005019,-0.000075,0.005020,-0.002331,-89.417979,0.005024,
1800,1750,-0.894320,-1.421551,0.999999,0.000132,-0.002387,0.005048,0.000112,0.005050,-0.002389,89.139267,0.005052,
1560,1150,-1.266869,-4.335294,0.999998,0.000188,-0.002772,0.006069,0.000729,0.006129,-0.002832,85.318654,0.006135,
1880,680,-1.681374,-6.624416,0.999998,0.000191,-0.002521,0.005066,-0.000061,0.005067,-0.002522,-89.536011,0.005067,
1620,630,-0.889777,-7.277797,0.999998,0.000164,-0.002979,0.005470,0.000190,0.005474,-0.002984,88.712997,0.005482,
770,780,1.370630,-6.334553,0.999998,0.000174,-0.002860,0.005526,0.000485,0.005554,-0.002888,86.699207,0.005555,
1890,960,-2.102806,-5.318977,0.999998,0.000178,-0.002017,0.004092,0.000008,0.004092,-0.002017,89.926590,0.004092,
1260,410,-0.033061,-8.777031,0.999998,0.000187,-0.001178,0.003560,0.000117,0.003563,-0.001181,88.587778,0.003630,
1310,1850,-0.045980,-0.589242,0.999998,0.000145,-0.000598,0.003404,0.000074,0.003406,-0.000600,88.941861,0.003636,
970,570,0.471226,-7.844251,0.999998,0.000184,-0.002529,0.004825,-0.000701,0.004891,-0.002595,-84.604163,0.004894,
1810,1840,-0.725180,-0.977957,0.999998,0.000211,-0.002247,0.005112,0.000486,0.005143,-0.002279,86.237794,0.005155,
1170,280,0.051559,-9.232803,0.999999,0.000143,-0.000808,0.003510,0.000014,0.003511,-0.000808,89.814441,0.003677,
1150,1830,0.052923,-0.658002,0.999998,0.000170,-0.000698,0.003436,-0.000028,0.003436,-0.000698,-89.617763,0.003632,
1720,160,-0.393728,-9.488825,0.999997,0.000203,-0.001425,0.004694,-0.000984,0.004848,-0.001580,-81.085769,0.004945,
1460,460,-0.338378,-8.406383,0.999998,0.000182,-0.001964,0.004386,0.000502,0.004426,-0.002003,85.505158,0.004432,
1420,260,-0.163218,-9.254819,0.999998,0.000183,-0.001110,0.003740,-0.000029,0.003740,-0.001110,-89.662833,0.003842,
1610,900,-1.386371,-5.731167,0.999998,0.000208,-0.002606,0.005655,-0.000691,0.005712,-0.002664,-85.251177,0.005717,
840,1200,1.325160,-4.099463,0.999997,0.000220,-0.002890,0.005730,-0.000646,0.005778,-0.002939,-85.740094,0.005778,
720,1370,1.334935,-3.290922,0.999997,0.000205,-0.002781,0.005297,-0.000234,0.005303,-0.002788,-88.344760,0.005306,
1660,300,-0.568836,-8.885488,0.999998,0.000181,-0.002083,0.004778,-0.000162,0.004782,-0.002086,-88.650006,0.004795,
1110,1730,0.122498,-1.031118,0.999998,0.000167,-0.001107,0.003698,0.000097,0.003700,-0.001109,88.839768,0.003798,
680,380,0.978094,-8.305744,0.999999,0.000134,-0.002431,0.005041,-0.000027,0.005041,-0.002432,-89.791438,0.005042,
1630,410,-0.655155,-8.392322,0.999998,0.000167,-0.002288,0.004889,0.000142,0.004892,-0.002291,88.869159,0.004895,
1140,1610,0.113809,-1.456404,0.999998,0.000152,-0.001389,0.003679,0.000332,0.003700,-0.001411,86.267482,0.003735,
1420,1040,-1.112288,-4.901178,0.999990,0.000378,-0.004753,0.011501,-0.000642,0.011526,-0.004778,-87.743086,0.011582,
620,350,1.076063,-8.358091,0.999998,0.000183,-0.002400,0.005002,-0.000052,0.005002,-0.002400,-89.594189,0.005004,
1050,1710,0.203097,-1.144491,0.999998,0.000163,-0.001428,0.003883,0.000189,0.003890,-0.001434,87.967304,0.003934,
1660,570,-0.923865,-7.528877,0.999998,0.000170,-0.002715,0.005282,0.000169,0.005286,-0.002719,88.788865,0.005287,
1020,1110,1.054401,-4.333156,0.999997,0.000192,-0.003024,0.007748,0.000600,0.007782,-0.003057,86.824248,0.007841,
1840,940,-1.982910,-5.430971,0.999998,0.000197,-0.002190,0.004571,-0.000248,0.004580,-0.002199,-87.902050,0.004581,
1580,1140,-1.342097,-4.412734,0.999997,0.000203,-0.002556,0.005812,0.000703,0.005871,-0.002615,85.234559,0.005882,
730,400,0.885570,-8.285499,0.999998,0.000213,-0.002424,0.005090,-0.000049,0.005090,-0.002424,-89.622622,0.005092,
1200,1770,0.028701,-0.862560,0.999999,0.000113,-0.000877,0.003496,0.000026,0.003496,-0.000877,89.655952,0.003638,
1810,720,-1.575723,-6.521587,0.999998,0.000180,-0.002574,0.005123,-0.000267,0.005132,-0.002583,-88.012718,0.005132,
850,540,0.758656,-7.768243,0.999998,0.000181,-0.002673,0.005183,-0.000297,0.005194,-0.002684,-87.840218,0.005195,
1120,790,0.195388,-7.354603,0.999997,0.000193,-0.002653,0.003671,-0.002278,0.004407,-0.003388,-72.114587,0.004614,
1840,800,-1.791153,-6.087406,0.999998,0.000191,-0.002413,0.004820,-0.000279,0.004831,-0.002424,-87.793208,0.004831,
1760,180,-0.522399,-9.350473,0.999997,0.000203,-0.002187,0.004930,-0.000675,0.004993,-0.002251,-84.627547,0.005001,
1500,50,-0.029862,-9.980456,0.999998,0.000148,-0.000249,0.003239,-0.000415,0.003288,-0.000297,-83.305188,0.003637,
1370,1290,-0.245436,-2.774299,0.999997,0.000207,-0.002908,0.004430,-0.002064,0.004971,-0.003449,-75.320392,0.005094,
1670,1620,-0.779169,-1.872247,0.999998,0.000159,-0.002406,0.004987,-0.000135,0.004989,-0.002408,-88.951235,0.004990,
1440,1210,-0.665975,-3.598763,0.999997,0.000210,-0.003924,0.006668,-0.000900,0.006744,-0.003999,-85.178636,0.006783,
830,820,1.276853,-6.172399,0.999996,0.000225,-0.003006,0.005787,0.000563,0.005823,-0.003042,86.349752,0.005825,
1870,680,-1.656273,-6.639714,0.999997,0.000214,-0.002501,0.005055,-0.000082,0.005056,-0.002502,-89.380313,0.005056,
1500,1760,-0.287300,-1.014996,0.999998,0.000170,-0.001537,0.004140,0.000038,0.004140,-0.001537,89.615699,0.004186,
1540,960,-1.346958,-5.433538,0.999998,0.000189,-0.002184,0.005978,-0.000600,0.006022,-0.002228,-85.816156,0.006089,
1130,600,0.137443,-8.053490,0.999998,0.000160,-0.001617,0.003535,-0.000856,0.003673,-0.001755,-80.806041,0.003674,
1730,1260,-1.502161,-3.862049,0.999997,0.000211,-0.002685,0.005264,0.000494,0.005295,-0.002715,86.456619,0.005295,
1040,470,0.274331,-8.417823,0.999998,0.000169,-0.001726,0.004156,-0.000472,0.004193,-0.001763,-85.437164,0.004211,
720,1480,1.156044,-2.711335,0.999998,0.000169,-0.002678,0.005219,0.000033,0.005220,-0.002678,89.759927,0.005220,
1880,280,-1.040334,-8.635322,0.999998,0.000158,-0.002417,0.004863,0.000011,0.004863,-0.002417,89.913583,0.004863,
1820,1810,-0.820198,-1.148758,0.999998,0.000180,-0.002362,0.005078,0.000232,0.005085,-0.002369,88.219208,0.005089,
580,1630,1.292841,-2.164571,0.999998,0.000203,-0.001745,0.005114,-0.000423,0.005140,-0.001771,-86.481697,0.005222,
920,1960,0.096529,-0.256749,0.999998,0.000169,-0.000376,0.003527,-0.000572,0.003610,-0.000458,-81.826754,0.003930,
1160,1830,0.047289,-0.657718,0.999998,0.000158,-0.000628,0.003416,-0.000047,0.003417,-0.000629,-89.339191,0.003637,
1310,1830,-0.052952,-0.657890,0.999998,0.000148,-0.000678,0.003431,0.000062,0.003432,-0.000679,89.133996,0.003635,
650,1480,1.339618,-2.818130,0.999997,0.000190,-0.002566,0.005122,0.000003,0.005122,-0.002566,89.976650,0.005122,
1200,100,0.007576,-9.835758,0.999999,0.000152,-0.000259,0.003130,0.000031,0.003130,-0.000259,89.472677,0.003474,
1560,1130,-1.314499,-4.454691,0.999997,0.000192,-0.002547,0.005926,0.000713,0.005985,-0.002606,85.221538,0.006002,
1880,960,-2.083001,-5.324638,0.999998,0.000159,-0.002044,0.004181,-0.000012,0.004181,-0.002044,-89.893396,0.004182,
1460,440,-0.326170,-8.494554,0.999998,0.000181,-0.001878,0.004327,0.000429,0.004356,-0.001908,86.067725,0.004367,
810,530,0.853766,-7.752188,0.999998,0.000163,-0.002639,0.005146,-0.000211,0.005152,-0.002644,-88.450593,0.005152,
770,760,1.331479,-6.446197,0.999997,0.000210,-0.002904,0.005498,0.000419,0.005518,-0.002925,87.153517,0.005522,
970,550,0.460599,-7.941419,0.999998,0.000189,-0.002458,0.004759,-0.000666,0.004820,-0.002519,-84.768471,0.004822,
1110,1710,0.130620,-1.107313,0.999998,0.000163,-0.001157,0.003707,0.000148,0.003711,-0.001162,88.253419,0.003797,
680,360,0.945018,-8.407213,0.999998,0.000147,-0.002402,0.005045,0.000010,0.005045,-0.002402,89.923116,0.005047,
1150,280,0.068162,-9.229327,0.999998,0.000179,-0.000891,0.003548,-0.000017,0.003548,-0.000891,-89.781649,0.003692,
760,1740,0.687388,-1.324202,0.999998,0.000185,-0.002169,0.004893,-0.000129,0.004895,-0.002171,-88.953531,0.004906,
1660,280,-0.537281,-8.982066,0.999997,0.000202,-0.002007,0.004720,-0.000255,0.004730,-0.002017,-87.828645,0.004747,
1790,1840,-0.681804,-0.949254,0.999998,0.000196,-0.002265,0.005065,0.000529,0.005103,-0.002303,85.892073,0.005111,
1150,1810,0.059757,-0.725522,0.999998,0.000155,-0.000764,0.003464,-0.000037,0.003464,-0.000764,-89.493610,0.003640,
1060,870,0.617265,-6.541688,0.999996,0.000227,-0.003588,0.006179,-0.001635,0.006446,-0.003854,-80.746894,0.006487,
1620,390,-0.608484,-8.503869,0.999998,0.000159,-0.002139,0.004814,0.000083,0.004815,-0.002140,89.318402,0.004824,
1060,1110,0.922570,-4.051060,0.999993,0.000315,-0.003074,0.008349,0.003362,0.009265,-0.003990,74.760385,0.009294,
840,1180,1.368251,-4.215065,0.999997,0.000209,-0.002745,0.005694,-0.000702,0.005752,-0.002803,-85.278680,0.005753,
1340,1410,-0.148173,-2.202105,0.999998,0.000153,-0.001803,0.003523,-0.001216,0.003788,-0.002067,-77.724860,0.003793,
1110,2010,0.009858,-0.078271,0.999999,0.000132,-0.000074,0.002995,-0.000131,0.003000,-0.000080,-87.562581,0.003419,
1050,1690,0.214814,-1.224257,0.999998,0.000165,-0.001480,0.003987,0.000223,0.003997,-0.001489,87.663842,0.004040,
1370,1270,-0.264314,-2.862997,0.999998,0.000196,-0.003095,0.004543,-0.002161,0.005112,-0.003664,-75.248589,0.005269,
1580,1120,-1.386693,-4.527957,0.999996,0.000231,-0.002349,0.005718,0.000720,0.005782,-0.002413,84.936920,0.005808,
650,1120,1.917183,-4.611602,0.999998,0.000182,-0.002231,0.004704,-0.000322,0.004719,-0.002246,-87.346493,0.004721,
730,460,0.969302,-7.980933,0.999998,0.000187,-0.002539,0.005076,-0.000117,0.005078,-0.002541,-89.116214,0.005078,
1530,220,-0.249170,-9.349715,0.999997,0.000187,-0.001126,0.004022,-0.000325,0.004042,-0.001146,-86.398559,0.004167,
610,220,0.840792,-8.990638,0.999998,0.000189,-0.002444,0.005053,0.000156,0.005057,-0.002447,88.806107,0.005057,
1420,240,-0.149488,-9.329710,0.999998,0.000173,-0.001057,0.003766,-0.000073,0.003767,-0.001058,-89.128671,0.003886,
1840,780,-1.757281,-6.184424,0.999998,0.000170,-0.002468,0.004912,-0.000264,0.004921,-0.002478,-87.954435,0.004921,
1720,140,-0.341372,-9.581236,0.999997,0.000201,-0.001227,0.004554,-0.001085,0.004751,-0.001424,-79.710231,0.004876,
940,690,0.666849,-7.144362,0.999996,0.000215,-0.003296,0.005651,-0.000589,0.005689,-0.003335,-86.249436,0.005717,
640,990,1.974503,-5.211647,0.999998,0.000175,-0.002155,0.004522,0.000102,0.004524,-0.002157,89.124184,0.004525,
1500,40,-0.021111,-10.012586,0.999999,0.000131,-0.000207,0.003196,-0.000410,0.003244,-0.000256,-83.231568,0.003608,
1130,580,0.136463,-8.123447,0.999998,0.000168,-0.001574,0.003566,-0.000715,0.003664,-0.001672,-82.225678,0.003668,
1540,940,-1.299381,-5.557036,0.999997,0.000191,-0.002423,0.006096,-0.000703,0.006153,-0.002480,-85.314420,0.006192,
1500,1740,-0.307263,-1.096761,0.999998,0.000177,-0.001604,0.004201,-0.000033,0.004202,-0.001604,-89.674514,0.004241,
1440,490,-0.312516,-8.308107,0.999998,0.000162,-0.001977,0.004297,0.000618,0.004358,-0.002037,84.428865,0.004361,
1760,200,-0.576052,-9.250606,0.999997,0.000207,-0.002236,0.004986,-0.000545,0.005027,-0.002277,-85.710639,0.005034,
710,1400,1.309710,-3.145192,0.999997,0.000184,-0.002743,0.005245,-0.000168,0.005248,-0.002747,-88.795689,0.005250,
1870,960,-2.062050,-5.328541,0.999998,0.000165,-0.002096,0.004249,-0.000041,0.004249,-0.002096,-89.628524,0.004249,
1000,1830,0.180105,-0.712998,0.999999,0.000162,-0.000882,0.003806,-0.000210,0.003816,-0.000891,-87.442686,0.003992,
1460,420,-0.315127,-8.581913,0.999998,0.000170,-0.001767,0.004242,0.000345,0.004262,-0.001787,86.729284,0.004280,
1580,1470,-0.718873,-2.486861,0.999997,0.000213,-0.002837,0.005280,-0.000417,0.005301,-0.002859,-87.070252,0.005307,
680,1310,1.550503,-3.655072,0.999998,0.000185,-0.002633,0.005174,-0.000344,0.005189,-0.002648,-87.482886,0.005189,
970,530,0.446353,-8.035695,0.999998,0.000192,-0.002394,0.004702,-0.000633,0.004758,-0.002450,-84.945556,0.004759,
1100,1770,0.119549,-0.889902,0.999999,0.000130,-0.000959,0.003698,-0.000013,0.003698,-0.000959,-89.841118,0.003838,
700,1370,1.389558,-3.316334,0.999997,0.000209,-0.002686,0.005250,-0.000216,0.005256,-0.002692,-88.440647,0.005257,
1620,1800,-0.428667,-0.948130,0.999998,0.000186,-0.001610,0.004496,0.000373,0.004519,-0.001633,86.520059,0.004576,
920,1940,0.120145,-0.330046,0.999998,0.000167,-0.000513,0.003690,-0.000597,0.003773,-0.000596,-82.065330,0.004057,
1720,410,-0.867663,-8.255187,0.999998,0.000165,-0.002459,0.005045,0.000081,0.005046,-0.002459,89.380061,0.005046,
1290,280,-0.048471,-9.233139,0.999998,0.000143,-0.000813,0.003536,-0.000016,0.003536,-0.000814,-89.791006,0.003704,
1660,260,-0.502089,-9.073440,0.999997,0.000202,-0.001946,0.004641,-0.000325,0.004657,-0.001962,-87.183461,0.004676,
1110,1690,0.136526,-1.180974,0.999998,0.000158,-0.001206,0.003776,0.000163,0.003782,-0.001211,88.127179,0.003862,
680,340,0.914594,-8.508154,0.999998,0.000174,-0.002406,0.005046,-0.000007,0.005046,-0.002406,-89.946703,0.005048,
1150,1790,0.065713,-0.797806,0.999999,0.000135,-0.000821,0.003515,-0.000001,0.003515,-0.000821,-89.985996,0.003678,
630,1120,1.961629,-4.621554,0.999998,0.000174,-0.002186,0.004600,-0.000282,0.004612,-0.002198,-87.622817,0.004614,
1840,920,-1.960309,-5.523022,0.999998,0.000182,-0.002208,0.004600,-0.000261,0.004610,-0.002218,-87.807285,0.004611,
1570,220,-0.295510,-9.326893,0.999998,0.000189,-0.001360,0.004180,-0.000391,0.004207,-0.001387,-85.984270,0.004287,
1580,1100,-1.423685,-4.641655,0.999997,0.000219,-0.002192,0.005636,0.000596,0.005682,-0.002237,85.670970,0.005724,
1370,1250,-0.297182,-2.956137,0.999997,0.000228,-0.003279,0.004694,-0.002195,0.005258,-0.003843,-75.581723,0.005442,
880,1870,0.259729,-0.615575,0.999997,0.000204,-0.001305,0.004108,-0.000491,0.004152,-0.001349,-84.861962,0.004237,
1650,1620,-0.731837,-1.841273,0.999998,0.000173,-0.002367,0.004954,-0.000153,0.004957,-0.002370,-88.804804,0.004958,
1040,1060,1.112261,-4.688532,0.999993,0.000356,-0.004367,0.010676,0.001241,0.010777,-0.004469,85.316572,0.010829,
970,880,0.983164,-6.029610,0.999998,0.000178,-0.003491,0.006758,0.000269,0.006766,-0.003498,88.496643,0.006767,
1110,2000,0.012137,-0.107844,0.999998,0.000142,-0.000086,0.003034,-0.000153,0.003042,-0.000094,-87.191693,0.003460,
1750,60,-0.135554,-9.914607,0.999998,0.000163,-0.000881,0.004247,-0.001472,0.004639,-0.001274,-75.069745,0.004794,
1890,110,-0.573278,-9.471026,0.999998,0.000180,-0.002342,0.005578,-0.000979,0.005697,-0.002461,-83.057978,0.005715,
1640,570,-0.868654,-7.563619,0.999998,0.000168,-0.002784,0.005287,0.000224,0.005293,-0.002790,88.410098,0.005295,
1420,220,-0.136699,-9.406229,0.999998,0.000191,-0.000972,0.003647,-0.000120,0.003650,-0.000975,-88.512138,0.003779,
1770,800,-1.615273,-6.156869,0.999998,0.000180,-0.002555,0.005122,-0.000461,0.005150,-0.002583,-86.574872,0.005150,
1050,1670,0.225149,-1.306332,0.999998,0.000170,-0.001537,0.004004,0.000287,0.004019,-0.001552,87.040157,0.004053,
1080,90,0.033319,-9.860149,0.999999,0.000147,-0.000221,0.003188,0.000222,0.003203,-0.000236,86.282643,0.003570,
1080,1890,0.074725,-0.468845,0.999998,0.000172,-0.000522,0.003425,-0.000198,0.003435,-0.000532,-87.140456,0.003698,
1100,1610,0.170068,-1.489538,0.999998,0.000193,-0.001438,0.003825,0.000341,0.003847,-0.001460,86.312667,0.003884,
1720,120,-0.283305,-9.672722,0.999997,0.000192,-0.001041,0.004458,-0.001214,0.004714,-0.001297,-78.085238,0.004870,
1460,400,-0.304033,-8.666734,0.999998,0.000176,-0.001660,0.004209,0.000263,0.004221,-0.001672,87.442648,0.004251,
600,550,1.428472,-7.311816,0.999996,0.000201,-0.002521,0.005124,-0.000002,0.005124,-0.002521,-89.985036,0.005125,
1850,680,-1.606367,-6.670914,0.999997,0.000191,-0.002517,0.005064,-0.000129,0.005067,-0.002520,-89.024563,0.005067,
1490,50,-0.026994,-9.982442,0.999999,0.000125,-0.000214,0.003214,-0.000403,0.003260,-0.000260,-83.385214,0.003624,
1380,410,-0.183959,-8.709353,0.999998,0.000181,-0.001407,0.003821,0.000283,0.003836,-0.001422,86.909587,0.003878,
1020,1830,0.160928,-0.703531,0.999998,0.000176,-0.000936,0.003746,-0.000152,0.003751,-0.000941,-88.140594,0.003903,
1580,1170,-1.271827,-4.234499,0.999997,0.000229,-0.002846,0.005966,0.000745,0.006028,-0.002908,85.200140,0.006030,
1310,1810,-0.058372,-0.726389,0.999998,0.000142,-0.000740,0.003465,0.000036,0.003465,-0.000740,89.507887,0.003649,
1620,1780,-0.456370,-1.035953,0.999997,0.000196,-0.001704,0.004543,0.000298,0.004557,-0.001718,87.273033,0.004603,
1730,1240,-1.538395,-3.966816,0.999998,0.000186,-0.002648,0.005267,0.000548,0.005305,-0.002686,86.055778,0.005305,
1110,1670,0.143863,-1.256871,0.999998,0.000164,-0.001241,0.003723,0.000183,0.003730,-0.001248,87.889932,0.003797,
720,1460,1.185848,-2.814456,0.999998,0.000171,-0.002685,0.005195,-0.000006,0.005195,-0.002685,-89.957652,0.005196,
1600,1490,-0.753286,-2.418930,0.999997,0.000191,-0.002756,0.005198,-0.000356,0.005214,-0.002772,-87.442193,0.005217,
1720,390,-0.839071,-8.357664,0.999997,0.000188,-0.002406,0.005036,0.000047,0.005037,-0.002406,89.640818,0.005038,
1690,1020,-1.701404,-5.077040,0.999998,0.000185,-0.002082,0.005010,-0.000074,0.005010,-0.002083,-89.402556,0.005034,
1840,760,-1.720772,-6.283490,0.999998,0.000174,-0.002476,0.004946,-0.000262,0.004955,-0.002486,-87.981146,0.004955,
1660,460,-0.784712,-8.098138,0.999998,0.000186,-0.002476,0.005009,0.000179,0.005013,-0.002480,88.632151,0.005013,
1610,1740,-0.493730,-1.207234,0.999998,0.000188,-0.001899,0.004608,0.000109,0.004610,-0.001901,89.041065,0.004634,
1500,870,-0.975269,-6.076479,0.999997,0.000213,-0.003519,0.006677,-0.000239,0.006682,-0.003525,-88.656861,0.006686,
760,1760,0.654903,-1.227538,0.999997,0.000194,-0.002123,0.004898,-0.000233,0.004906,-0.002131,-88.097403,0.004920,
1550,220,-0.271171,-9.339243,0.999998,0.000173,-0.001144,0.004104,-0.000383,0.004132,-0.001171,-85.850680,0.004259,
1840,900,-1.938612,-5.616340,0.999998,0.000177,-0.002231,0.004546,-0.000214,0.004553,-0.002237,-88.189354,0.004553,
1150,1770,0.069764,-0.866575,0.999998,0.000148,-0.000888,0.003542,0.000013,0.003542,-0.000888,89.833897,0.003686,
800,1700,0.658009,-1.465071,0.999997,0.000188,-0.002293,0.004856,0.000019,0.004856,-0.002293,89.846926,0.004859,
1580,1080,-1.451283,-4.752861,0.999997,0.000210,-0.001999,0.005527,0.000496,0.005560,-0.002032,86.242408,0.005627,
840,1160,1.410481,-4.328656,0.999997,0.000206,-0.002602,0.005591,-0.000686,0.005648,-0.002659,-85.243419,0.005651,
680,320,0.880895,-8.610831,0.999998,0.000161,-0.002411,0.005044,0.000045,0.005045,-0.002411,89.656416,0.005046,
1050,980,1.042256,-5.601792,0.999993,0.000311,-0.004070,0.010718,-0.002346,0.011081,-0.004433,-81.199455,0.011154,
1560,1470,-0.662106,-2.447118,0.999997,0.000215,-0.002799,0.005202,-0.000487,0.005231,-0.002828,-86.525863,0.005237,
1370,1230,-0.340663,-3.048209,0.999996,0.000258,-0.003329,0.004783,-0.002170,0.005327,-0.003873,-75.926756,0.005507,
1420,200,-0.123513,-9.475980,0.999998,0.000235,-0.000879,0.003611,-0.000172,0.003617,-0.000885,-87.808750,0.003771,
570,1760,1.099784,-1.543284,0.999993,0.000337,-0.002272,0.004941,0.000085,0.004942,-0.002273,89.324022,0.004947,
1050,1650,0.233047,-1.385814,0.999998,0.000173,-0.001574,0.004049,0.000345,0.004070,-0.001595,86.501790,0.004101,
1460,380,-0.293290,-8.749393,0.999998,0.000180,-0.001548,0.004205,0.000193,0.004211,-0.001554,88.083409,0.004259,
1060,90,0.038004,-9.858844,0.999999,0.000143,-0.000319,0.003219,0.000227,0.003233,-0.000333,86.339168,0.003557,
1060,1890,0.085568,-0.472991,0.999998,0.000204,-0.000619,0.003458,-0.000191,0.003467,-0.000628,-87.324345,0.003694,
590,550,1.454206,-7.295831,0.999997,0.000195,-0.002879,0.005226,-0.000100,0.005227,-0.002880,-89.290370,0.005236,
950,2010,0.029014,-0.084571,0.999998,0.000139,-0.000203,0.003230,-0.000462,0.003291,-0.000264,-82.460710,0.003658,
1750,50,-0.102650,-9.956616,0.999998,0.000157,-0.000695,0.004099,-0.001483,0.004521,-0.001116,-74.129996,0.004710,
1120,1610,0.141958,-1.472248,0.999998,0.000170,-0.001372,0.003742,0.000319,0.003762,-0.001392,86.444218,0.003804,
1890,700,-1.740310,-6.507498,0.999998,0.000204,-0.002500,0.004950,-0.000055,0.004950,-0.002500,-89.576406,0.004950,
1680,690,-1.162765,-6.848325,0.999998,0.000189,-0.002964,0.005500,-0.000154,0.005503,-0.002967,-88.955450,0.005508,
1880,110,-0.548640,-9.495501,0.999997,0.000201,-0.002348,0.005506,-0.000949,0.005619,-0.002461,-83.206446,0.005633,
1520,1790,-0.286934,-0.905395,0.999997,0.000198,-0.001388,0.004065,0.000158,0.004070,-0.001392,88.341146,0.004137,
1110,1280,0.207754,-2.725787,0.999998,0.000188,-0.002677,0.003940,0.002172,0.004590,-0.003327,73.356740,0.004742,
1310,1790,-0.061212,-0.796539,0.999999,0.000136,-0.000807,0.003521,0.000003,0.003521,-0.000807,89.954079,0.003689,
1080,1770,0.137556,-0.898917,0.999999,0.000139,-0.000963,0.003747,-0.000040,0.003747,-0.000964,-89.511167,0.003892,
970,510,0.432588,-8.131289,0.999997,0.000215,-0.002287,0.004643,-0.000582,0.004692,-0.002336,-85.236673,0.004692,
760,1370,1.222154,-3.236172,0.999997,0.000202,-0.002867,0.005405,-0.000181,0.005409,-0.002870,-88.749505,0.005412,
1490,40,-0.018668,-10.014181,0.999999,0.000105,-0.000169,0.003165,-0.000404,0.003214,-0.000218,-83.184317,0.003592,
1110,1650,0.148462,-1.330517,0.999998,0.000169,-0.001292,0.003714,0.000238,0.003725,-0.001304,87.289588,0.003781,
920,1920,0.151524,-0.405199,0.999998,0.000167,-0.000627,0.003751,-0.000548,0.003819,-0.000694,-82.974357,0.004068,
1870,580,-1.493267,-7.147770,0.999998,0.000187,-0.002544,0.005072,-0.000016,0.005072,-0.002544,-89.877480,0.005072,
1040,450,0.267485,-8.500791,0.999998,0.000170,-0.001649,0.004086,-0.000414,0.004116,-0.001678,-85.894840,0.004139,
1720,100,-0.227281,-9.760649,0.999998,0.000170,-0.000826,0.004207,-0.001218,0.004486,-0.001105,-77.090478,0.004674,
1770,780,-1.580532,-6.259330,0.999998,0.000193,-0.002567,0.005118,-0.000430,0.005142,-0.002591,-86.808125,0.005142,
720,1440,1.217166,-2.919214,0.999998,0.000160,-0.002686,0.005264,-0.000046,0.005264,-0.002687,-89.668013,0.005265,
1640,1490,-0.862062,-2.490028,0.999998,0.000158,-0.002764,0.005226,-0.000223,0.005233,-0.002770,-88.399484,0.005236,
1670,1020,-1.661143,-5.079094,0.999998,0.000161,-0.002048,0.005047,-0.000091,0.005049,-0.002049,-89.269194,0.005078,
1700,410,-0.817420,-8.287358,0.999998,0.000175,-0.002402,0.005031,0.000088,0.005033,-0.002403,89.318181,0.005034,
1620,1760,-0.487067,-1.129815,0.999998,0.000184,-0.001815,0.004583,0.000204,0.004590,-0.001822,88.172093,0.004622,
1560,570,-0.648590,-7.710211,0.999997,0.000230,-0.002721,0.005148,0.000475,0.005177,-0.002750,86.555225,0.005180,
1840,740,-1.686151,-6.382499,0.999998,0.000166,-0.002468,0.004974,-0.000230,0.004981,-0.002475,-88.233967,0.004981,
1480,870,-0.903994,-6.136699,0.999998,0.000167,-0.003681,0.006816,-0.000002,0.006816,-0.003681,-89.988533,0.006823,
1570,320,-0.424422,-8.892567,0.999997,0.000205,-0.001831,0.004479,-0.000032,0.004479,-0.001832,-89.713216,0.004504,
1580,1060,-1.475003,-4.863293,0.999997,0.000207,-0.001890,0.005430,0.000294,0.005442,-0.001902,87.702085,0.005524,
1370,1210,-0.406710,-3.146081,0.999996,0.000257,-0.003180,0.004826,-0.002261,0.005420,-0.003775,-75.269056,0.005558,
1840,880,-1.916408,-5.706176,0.999998,0.000186,-0.002277,0.004629,-0.000257,0.004639,-0.002287,-87.873685,0.004639,
1050,970,1.023815,-5.706591,0.999995,0.000247,-0.003868,0.009963,-0.002588,0.010432,-0.004336,-79.742823,0.010481,
680,300,0.845357,-8.708806,0.999998,0.000163,-0.002390,0.005054,0.000121,0.005056,-0.002392,89.069740,0.005058,
1060,120,0.056087,-9.759883,0.999999,0.000140,-0.000432,0.003348,0.000234,0.003362,-0.000447,86.463879,0.003652,
1460,360,-0.281003,-8.832906,0.999998,0.000166,-0.001456,0.004097,0.000139,0.004101,-0.001460,88.570551,0.004157,
1150,1750,0.074926,-0.939141,0.999998,0.000154,-0.000964,0.003586,0.000036,0.003587,-0.000965,89.551821,0.003712,
810,510,0.830348,-7.853964,0.999998,0.000154,-0.002598,0.005119,-0.000214,0.005125,-0.002604,-88.410745,0.005125,
1660,1740,-0.592920,-1.265614,0.999998,0.000199,-0.002148,0.004790,0.000105,0.004792,-0.002150,89.135632,0.004800,
760,1780,0.617541,-1.128655,0.999997,0.000201,-0.002049,0.004890,-0.000321,0.004905,-0.002064,-87.360526,0.004925,
1560,1450,-0.682548,-2.552023,0.999997,0.000222,-0.002904,0.005296,-0.000490,0.005325,-0.002933,-86.592718,0.005334,
1420,180,-0.108135,-9.550265,0.999998,0.000196,-0.000777,0.003547,-0.000184,0.003554,-0.000784,-87.568447,0.003735,
1270,280,-0.033235,-9.235854,0.999998,0.000138,-0.000816,0.003515,0.000004,0.003515,-0.000816,89.943101,0.003680,
1770,1620,-1.026194,-2.030815,0.999999,0.000135,-0.002483,0.005045,-0.000087,0.005046,-0.002484,-89.337502,0.005046,
1040,90,0.045466,-9.855806,0.999998,0.000162,-0.000360,0.003249,0.000264,0.003268,-0.000379,85.831902,0.003575,
580,550,1.479268,-7.281178,0.999997,0.000195,-0.004228,0.005464,-0.000287,0.005472,-0.004236,-88.302827,0.005740,
840,1140,1.449008,-4.439919,0.999997,0.000215,-0.002435,0.005560,-0.000693,0.005620,-0.002494,-85.085491,0.005632,
740,890,1.652747,-5.727076,0.999998,0.000185,-0.002440,0.005178,0.000570,0.005220,-0.002482,85.743061,0.005222,
1510,1820,-0.242088,-0.777621,0.999998,0.000182,-0.001302,0.004032,0.000222,0.004042,-0.001311,87.620366,0.004124,
1750,40,-0.071998,-9.995927,0.999998,0.000163,-0.000549,0.003991,-0.001473,0.004427,-0.000985,-73.508381,0.004649,
1420,1890,-0.098648,-0.478877,0.999998,0.000187,-0.000709,0.003487,0.000209,0.003497,-0.000719,87.150128,0.003694,
1110,1260,0.229874,-2.805054,0.999997,0.000207,-0.002865,0.004046,0.002313,0.004749,-0.003568,73.102385,0.004945,
950,1600,0.442059,-1.727340,0.999998,0.000200,-0.002064,0.004567,0.000373,0.004587,-0.002085,86.790180,0.004594,
1490,2010,-0.023336,-0.081166,0.999998,0.000156,-0.000186,0.003263,0.000410,0.003311,-0.000234,83.313357,0.003695,
1540,640,-0.662474,-7.381040,0.999997,0.000194,-0.003014,0.005452,0.000559,0.005488,-0.003051,86.235325,0.005500,
1620,1830,-0.376521,-0.812484,0.999997,0.000211,-0.001467,0.004397,0.000494,0.004438,-0.001508,85.218243,0.004514,
1110,1630,0.150108,-1.405535,0.999998,0.000173,-0.001340,0.003759,0.000280,0.003775,-0.001356,86.866995,0.003824,
1770,560,-1.205437,-7.406942,0.999998,0.000151,-0.002636,0.005181,0.000032,0.005181,-0.002636,89.766656,0.005181,
1480,40,-0.017320,-10.013899,0.999999,0.000118,-0.000107,0.003131,-0.000393,0.003178,-0.000154,-83.180190,0.003584,
1710,1290,-1.390429,-3.681192,0.999997,0.000224,-0.002805,0.005439,0.000435,0.005462,-0.002828,86.985930,0.005464,
600,730,1.725905,-6.400462,0.999997,0.000197,-0.002468,0.004898,0.000157,0.004901,-0.002471,88.782877,0.004902,
1380,690,-0.234238,-7.589452,0.999998,0.000165,-0.002444,0.004215,0.001553,0.004559,-0.002789,77.493823,0.004597,
1620,1740,-0.514376,-1.219634,0.999998,0.000198,-0.001878,0.004617,0.000121,0.004619,-0.001880,88.936068,0.004646,
1400,850,-0.529794,-6.686396,0.999997,0.000201,-0.003679,0.005827,0.001577,0.006082,-0.003934,80.824483,0.006169,
1370,1190,-0.477775,-3.246831,0.999996,0.000261,-0.002707,0.004433,-0.002299,0.005109,-0.003384,-73.611616,0.005198,
1040,980,1.086806,-5.540674,0.999995,0.000266,-0.003907,0.009785,-0.001647,0.009980,-0.004102,-83.236822,0.010033,
1620,1490,-0.807278,-2.454595,0.999997,0.000182,-0.002723,0.005204,-0.000285,0.005214,-0.002733,-87.944296,0.005216,
1820,550,-1.319252,-7.378792,0.999997,0.000193,-0.002547,0.005141,0.000030,0.005141,-0.002547,89.774570,0.005141,
720,1420,1.249269,-3.026880,0.999998,0.000164,-0.002713,0.005272,-0.000095,0.005273,-0.002714,-89.320532,0.005274,
920,1900,0.176362,-0.479126,0.999998,0.000172,-0.000734,0.003848,-0.000518,0.003906,-0.000792,-83.630874,0.004129,
1570,300,-0.400072,-8.981582,0.999997,0.000200,-0.001732,0.004411,-0.000095,0.004413,-0.001734,-89.116397,0.004447,
1580,1040,-1.484867,-4.971795,0.999998,0.000194,-0.001830,0.005459,0.000134,0.005462,-0.001832,88.944880,0.005559,
570,1040,2.127716,-4.986410,0.999989,0.000371,-0.001921,0.004129,-0.000096,0.004131,-0.001923,-89.092209,0.004134,
1840,720,-1.650821,-6.483331,0.999997,0.000197,-0.002481,0.005016,-0.000189,0.005021,-0.002486,-88.558219,0.005021,
1060,140,0.067922,-9.692626,0.999998,0.000132,-0.000540,0.003374,0.000201,0.003384,-0.000550,87.062012,0.003632,
1750,720,-1.416613,-6.595067,0.999996,0.000236,-0.002719,0.005262,-0.000309,0.005274,-0.002731,-87.783713,0.005275,
1500,560,-0.482286,-7.878703,0.999997,0.000187,-0.002496,0.004845,0.000654,0.004902,-0.002554,84.947342,0.004904,
1780,370,-0.954018,-8.361514,0.999998,0.000182,-0.002405,0.005095,0.000015,0.005095,-0.002405,89.884644,0.005098,
720,490,1.035641,-7.810671,0.999999,0.000148,-0.002531,0.005114,-0.000109,0.005115,-0.002532,-89.186201,0.005115,
1180,1770,0.045940,-0.865054,0.999999,0.000105,-0.000826,0.003518,-0.000020,0.003518,-0.000826,-89.730204,0.003679,
970,490,0.420463,-8.223915,0.999998,0.000195,-0.002162,0.004566,-0.000522,0.004606,-0.002202,-85.591782,0.004607,
740,1370,1.278114,-3.263983,0.999997,0.000197,-0.002819,0.005347,-0.000200,0.005352,-0.002824,-88.600603,0.005355,
1840,860,-1.885383,-5.802067,0.999998,0.000179,-0.002322,0.004775,-0.000334,0.004791,-0.002337,-87.310678,0.004791,
1660,1760,-0.559532,-1.170187,0.999998,0.000188,-0.002049,0.004736,0.000186,0.004741,-0.002054,88.433975,0.004755,
1150,1730,0.077519,-1.011699,0.999999,0.000143,-0.001029,0.003589,0.000055,0.003589,-0.001029,89.311910,0.003696,
1420,160,-0.094074,-9.618697,0.999998,0.000203,-0.000679,0.003488,-0.000224,0.003500,-0.000691,-86.928090,0.003707,
1110,1700,0.132805,-1.142195,0.999998,0.000158,-0.001184,0.003735,0.000161,0.003741,-0.001189,88.123813,0.003822,
750,1940,0.262869,-0.382390,0.999997,0.000193,-0.000933,0.004441,-0.001241,0.004714,-0.001205,-77.606923,0.004898,
1890,510,-1.437289,-7.475239,0.999997,0.000207,-0.002484,0.005081,0.000007,0.005081,-0.002484,89.947551,0.005082,
590,680,1.664413,-6.636272,0.999997,0.000229,-0.002572,0.005065,0.000078,0.005066,-0.002572,89.415858,0.005066,
1490,1820,-0.215887,-0.765728,0.999999,0.000158,-0.001161,0.003937,0.000203,0.003945,-0.001169,87.726256,0.004053,
680,280,0.807111,-8.813093,0.999998,0.000172,-0.002390,0.005061,0.000181,0.005066,-0.002394,88.606044,0.005068,
1480,2010,-0.021539,-0.081405,0.999998,0.000164,-0.000112,0.003229,0.000391,0.003274,-0.000157,83.407839,0.003694,
1090,1260,0.291229,-2.925951,0.999997,0.000203,-0.003232,0.004696,0.002159,0.005246,-0.003782,75.714109,0.005414,
780,970,1.662547,-5.329558,0.999998,0.000185,-0.002162,0.005111,0.000348,0.005128,-0.002178,87.263322,0.005147,
1540,620,-0.639776,-7.491966,0.999997,0.000208,-0.002917,0.005295,0.000575,0.005335,-0.002957,86.010569,0.005345,
950,1580,0.454854,-1.820357,0.999997,0.000213,-0.002178,0.004622,0.000463,0.004653,-0.002209,86.125785,0.004655,
760,1800,0.582166,-1.032017,0.999997,0.000201,-0.001957,0.004852,-0.000409,0.004877,-0.001981,-86.574449,0.004905,
1110,1610,0.155692,-1.480895,0.999998,0.000170,-0.001383,0.003782,0.000310,0.003801,-0.001402,86.573256,0.003844,
1480,1890,-0.135911,-0.494867,0.999998,0.000159,-0.000722,0.003656,0.000339,0.003682,-0.000748,85.599550,0.003892,
1370,870,-0.501983,-6.811484,0.999996,0.000226,-0.002569,0.004311,0.002277,0.004996,-0.003254,73.250227,0.005072,
1620,1810,-0.410100,-0.901563,0.999998,0.000184,-0.001566,0.004502,0.000418,0.004530,-0.001595,86.074191,0.004596,
1660,1110,-1.582731,-4.615705,0.999997,0.000213,-0.002224,0.005221,0.000506,0.005255,-0.002258,86.132112,0.005272,
1470,40,-0.017406,-10.013990,0.999999,0.000121,-0.000046,0.003109,-0.000387,0.003156,-0.000093,-83.108825,0.003592,
990,280,0.237695,-9.146610,0.999998,0.000160,-0.001165,0.004008,0.000110,0.004010,-0.001167,88.780751,0.004125,
830,800,1.233563,-6.286646,0.999997,0.000199,-0.003075,0.005779,0.000483,0.005806,-0.003101,86.886346,0.005810,
720,1400,1.281755,-3.131159,0.999998,0.000176,-0.002753,0.005266,-0.000151,0.005269,-0.002755,-88.922265,0.005271,
590,730,1.749975,-6.386067,0.999997,0.000198,-0.002554,0.004925,0.000147,0.004928,-0.002556,88.874632,0.004929,
1060,960,0.963348,-5.894516,0.999994,0.000282,-0.003518,0.009706,-0.003371,0.010516,-0.004328,-76.492511,0.010571,
1060,160,0.081335,-9.624490,0.999998,0.000146,-0.000617,0.003452,0.000181,0.003460,-0.000625,87.453213,0.003688,
1380,850,-0.458254,-6.823423,0.999996,0.000239,-0.003375,0.005178,0.002060,0.005648,-0.003845,77.137755,0.005770,
910,1600,0.528687,-1.792053,0.999997,0.000202,-0.002248,0.004734,0.000345,0.004751,-0.002265,87.177758,0.004752,
1040,610,0.317369,-7.816888,0.999998,0.000169,-0.002330,0.004461,-0.001036,0.004615,-0.002484,-81.516471,0.004620,
850,360,0.558519,-8.655453,0.999998,0.000177,-0.001976,0.004675,0.000012,0.004675,-0.001976,89.898355,0.004693,
1840,700,-1.615418,-6.582979,0.999997,0.000214,-0.002504,0.005050,-0.000172,0.005054,-0.002508,-88.697166,0.005054,
1720,80,-0.172200,-9.840745,0.999998,0.000159,-0.000658,0.004049,-0.001268,0.004369,-0.000978,-75.843364,0.004586,
720,470,1.007883,-7.913626,0.999998,0.000175,-0.002528,0.005102,-0.000116,0.005103,-0.002530,-89.128928,0.005103,
1200,80,0.007694,-9.897793,0.999999,0.000165,-0.000195,0.003061,0.000046,0.003062,-0.000195,89.182439,0.003428,
1500,540,-0.470011,-7.974113,0.999997,0.000193,-0.002439,0.004770,0.000618,0.004822,-0.002491,85.134023,0.004823,
1130,1200,0.347541,-2.872246,0.999996,0.000279,-0.002022,0.002594,0.001537,0.003059,-0.002487,73.168137,0.003253,
1580,1020,-1.486406,-5.082118,0.999997,0.000207,-0.001847,0.005446,-0.000089,0.005447,-0.001848,-89.301549,0.005541,
1240,1490,-0.010456,-1.825063,0.999998,0.000149,-0.001241,0.003184,-0.000112,0.003187,-0.001244,-88.555960,0.003212,
1400,2020,-0.009401,-0.048457,0.999998,0.000000,-0.000070,0.003038,0.000256,0.003059,-0.000091,85.328765,0.003481,
610,380,1.150203,-8.189969,0.999998,0.000159,-0.002430,0.004995,-0.000042,0.004996,-0.002430,-89.678194,0.004996,
810,470,0.781024,-8.058703,0.999998,0.000166,-0.002481,0.005049,-0.000182,0.005053,-0.002485,-88.615801,0.005054,
1160,1770,0.061671,-0.866244,0.999998,0.000140,-0.000843,0.003529,-0.000022,0.003529,-0.000843,-89.713757,0.003686,
840,1120,1.488469,-4.551134,0.999997,0.000212,-0.002294,0.005465,-0.000610,0.005513,-0.002342,-85.531493,0.005534,
1790,540,-1.227991,-7.478024,0.999997,0.000194,-0.002594,0.005108,0.000039,0.005108,-0.002594,89.709103,0.005109,
760,970,1.707107,-5.324839,0.999998,0.000173,-0.002190,0.005048,0.000318,0.005062,-0.002204,87.486198,0.005077,
1010,1050,1.228987,-4.855816,0.999996,0.000255,-0.002828,0.008447,0.000174,0.008450,-0.002831,89.114326,0.008602,
1750,700,-1.380246,-6.701488,0.999997,0.000217,-0.002727,0.005272,-0.000257,0.005280,-0.002735,-88.159620,0.005282,
970,470,0.409724,-8.313217,0.999998,0.000186,-0.002037,0.004520,-0.000425,0.004548,-0.002065,-86.307785,0.004554,
1700,1170,-1.586508,-4.315279,0.999998,0.000195,-0.002517,0.005228,0.000589,0.005273,-0.002561,85.674622,0.005273,
1880,540,-1.456834,-7.337604,0.999997,0.000197,-0.002562,0.005116,-0.000001,0.005116,-0.002562,-89.994513,0.005116,
680,260,0.766917,-8.912172,0.999998,0.000177,-0.002365,0.005040,0.000275,0.005051,-0.002375,87.878731,0.005054,
930,330,0.373691,-8.885068,0.999998,0.000174,-0.001604,0.004414,0.000023,0.004414,-0.001604,89.783341,0.004469,
1150,1710,0.082529,-1.083031,0.999999,0.000144,-0.001088,0.003590,0.000079,0.003591,-0.001090,89.027791,0.003682,
1420,750,-0.388667,-7.144958,0.999997,0.000223,-0.003412,0.005361,0.001551,0.005627,-0.003678,80.263691,0.005715,
930,170,0.189639,-9.544635,0.999998,0.000168,-0.000859,0.003862,0.000458,0.003906,-0.000903,84.504928,0.004090,
1840,1040,-2.020047,-4.982998,0.999999,0.000150,-0.002128,0.004484,0.000116,0.004486,-0.002130,88.998780,0.004488,
850,340,0.533466,-8.748596,0.999997,0.000195,-0.001928,0.004745,0.000081,0.004746,-0.001929,89.308320,0.004774,
720,1600,0.986296,-2.088677,0.999998,0.000169,-0.002497,0.005079,0.000110,0.005081,-0.002498,89.165706,0.005081,
590,620,1.564666,-6.939708,0.999997,0.000217,-0.002747,0.004952,0.000036,0.004952,-0.002747,89.735555,0.004962,
1110,550,0.169269,-8.204945,0.999998,0.000171,-0.001681,0.003769,-0.000760,0.003873,-0.001785,-82.208628,0.003877,
1050,960,1.001216,-5.803646,0.999995,0.000243,-0.003649,0.009220,-0.002663,0.009750,-0.004178,-78.760285,0.009783,
1370,1370,-0.209957,-2.435837,0.999997,0.000202,-0.002312,0.003998,-0.001533,0.004351,-0.002665,-77.038347,0.004387,
1500,520,-0.457301,-8.070259,0.999997,0.000193,-0.002387,0.004713,0.000581,0.004760,-0.002434,85.353597,0.004761,
680,80,0.246922,-9.808092,0.999997,0.000184,-0.001047,0.004732,0.001762,0.005227,-0.001541,74.310174,0.005371,
1450,160,-0.113177,-9.611447,0.999998,0.000165,-0.000621,0.003559,-0.000311,0.003582,-0.000644,-85.768684,0.003819,
1060,180,0.093520,-9.554730,0.999998,0.000143,-0.000713,0.003484,0.000169,0.003490,-0.000720,87.697435,0.003686,
580,1940,0.576503,-0.619852,0.999997,0.000195,-0.003448,0.005824,-0.000981,0.005927,-0.003550,-84.024224,0.005966,
1400,1080,-0.979092,-4.316207,0.999995,0.000000,-0.004034,0.011309,-0.003304,0.011990,-0.004715,-78.349357,0.012081,
1620,1720,-0.541209,-1.314731,0.999997,0.000189,-0.001926,0.004755,0.000100,0.004756,-0.001927,89.145631,0.004784,
580,730,1.773937,-6.370680,0.999997,0.000190,-0.002808,0.005087,0.000207,0.005092,-0.002814,88.498708,0.005101,
1840,680,-1.581887,-6.685396,0.999997,0.000206,-0.002533,0.005065,-0.000151,0.005068,-0.002536,-88.858376,0.005068,
980,1290,0.639993,-3.262108,0.999997,0.000242,-0.003726,0.006124,0.000705,0.006174,-0.003777,85.924262,0.006225,
1240,1370,-0.008488,-2.160050,0.999998,0.000178,-0.001032,0.002279,-0.000190,0.002290,-0.001043,-86.722113,0.002293,
840,1100,1.513594,-4.659332,0.999997,0.000193,-0.002164,0.005339,-0.000526,0.005376,-0.002201,-86.006160,0.005405,
1360,1890,-0.064017,-0.465794,0.999999,0.000134,-0.000501,0.003392,0.000133,0.003397,-0.000506,88.049051,0.003665,
1460,1690,-0.283906,-1.267719,0.999998,0.000187,-0.001466,0.004147,-0.000151,0.004151,-0.001470,-88.464701,0.004209,
610,360,1.116214,-8.289990,0.999998,0.000180,-0.002416,0.004994,-0.000054,0.004994,-0.002416,-89.584339,0.004995,
990,1580,0.372623,-1.758617,0.999998,0.000176,-0.002030,0.004410,0.000497,0.004448,-0.002068,85.610037,0.004452,
1410,280,-0.164550,-9.186818,0.999998,0.000165,-0.001154,0.003782,0.000003,0.003782,-0.001154,89.970028,0.003876,
810,450,0.756722,-8.160248,0.999998,0.000163,-0.002400,0.005019,-0.000163,0.005022,-0.002404,-88.745070,0.005024,
1580,1000,-1.476590,-5.190572,0.999998,0.000197,-0.001928,0.005424,-0.000263,0.005433,-0.001937,-87.953241,0.005507,
1420,140,-0.077704,-9.690174,0.999998,0.000170,-0.000608,0.003427,-0.000224,0.003440,-0.000620,-86.827402,0.003667,
1110,1220,0.320638,-2.966280,0.999997,0.000233,-0.002898,0.004050,0.002224,0.004701,-0.003548,73.688631,0.004900,
1010,1030,1.243166,-5.020267,0.999996,0.000248,-0.002830,0.008205,0.000012,0.008205,-0.002830,89.935448,0.008336,
1220,90,0.002581,-9.867245,0.999999,0.000134,-0.000232,0.003063,0.000012,0.003063,-0.000232,89.790299,0.003411,
1830,2010,-0.135501,-0.129619,0.999998,0.000188,-0.001745,0.004538,0.001492,0.004874,-0.002081,77.300910,0.004891,
1680,590,-1.005533,-7.390633,0.999998,0.000163,-0.002775,0.005303,0.000093,0.005304,-0.002776,89.339391,0.005306,
680,240,0.723541,-9.015626,0.999998,0.000191,-0.002334,0.005036,0.000370,0.005055,-0.002353,87.136793,0.005059,
970,450,0.397746,-8.403361,0.999997,0.000208,-0.001956,0.004459,-0.000377,0.004481,-0.001978,-86.650824,0.004491,
1090,1700,0.157337,-1.154770,0.999998,0.000178,-0.001185,0.003773,0.000122,0.003776,-0.001188,88.591851,0.003862,
1770,540,-1.176315,-7.509926,0.999997,0.000189,-0.002609,0.005129,0.000055,0.005129,-0.002610,89.595908,0.005129,
1740,1170,-1.687187,-4.336975,0.999998,0.000193,-0.002420,0.005115,0.000551,0.005155,-0.002460,85.842093,0.005156,
1380,650,-0.229752,-7.758688,0.999998,0.000166,-0.002243,0.004089,0.001338,0.004360,-0.002514,78.544264,0.004377,
1600,1810,-0.380147,-0.886216,0.999998,0.000195,-0.001641,0.004422,0.000340,0.004441,-0.001660,86.798007,0.004488,
1890,640,-1.639957,-6.811755,0.999997,0.000193,-0.002535,0.005032,-0.000028,0.005032,-0.002535,-89.785812,0.005032,
930,310,0.354410,-8.972501,0.999998,0.000186,-0.001545,0.004280,0.000047,0.004280,-0.001545,89.536021,0.004335,
1150,1690,0.086781,-1.153062,0.999999,0.000135,-0.001133,0.003659,0.000125,0.003662,-0.001137,88.505685,0.003749,
570,490,1.408305,-7.577194,0.999908,0.001218,-0.001652,0.005260,0.000281,0.005271,-0.001664,87.673397,0.005389,
1840,1060,-2.012805,-4.894273,0.999998,0.000162,-0.002097,0.004443,0.000113,0.004445,-0.002099,89.012545,0.004447,
1210,340,0.022850,-9.027314,0.999999,0.000129,-0.001046,0.003507,-0.000064,0.003508,-0.001047,-89.198820,0.003602,
1360,1240,-0.279916,-2.937217,0.999996,0.000234,-0.003124,0.004313,-0.002236,0.004933,-0.003744,-74.488458,0.005149,
1400,1090,-0.962773,-4.204851,0.999993,0.000304,-0.003656,0.010206,-0.003578,0.011075,-0.004526,-76.346562,0.011137,
1040,1260,0.468650,-3.201135,0.999997,0.000236,-0.003806,0.005867,0.001433,0.006075,-0.004014,81.745756,0.006179,
1170,160,0.029016,-9.640982,0.999998,0.000155,-0.000390,0.003292,0.000093,0.003295,-0.000393,88.550976,0.003599,
1710,1990,-0.123625,-0.174507,0.999998,0.000163,-0.000412,0.003924,0.001223,0.004245,-0.000733,75.290916,0.004538,
710,1790,0.706290,-1.143443,0.999998,0.000192,-0.002358,0.004999,-0.000248,0.005008,-0.002366,-88.073512,0.005010,
1540,410,-0.460281,-8.520377,0.999996,0.000236,-0.002017,0.004562,0.000238,0.004571,-0.002025,87.933774,0.004580,
1060,620,0.274278,-7.820603,0.999997,0.000195,-0.002270,0.004239,-0.001160,0.004440,-0.002471,-80.190335,0.004449,
1380,2010,-0.012199,-0.078411,0.999998,0.000157,-0.000072,0.003057,0.000202,0.003070,-0.000085,86.314871,0.003497,
770,310,0.656507,-8.794356,0.999997,0.000210,-0.002157,0.004863,0.000140,0.004865,-0.002160,88.859809,0.004876,
1620,1700,-0.567130,-1.410215,0.999997,0.000201,-0.001975,0.004710,0.000058,0.004710,-0.001975,89.504728,0.004730,
930,1640,0.449980,-1.573213,0.999996,0.000216,-0.001976,0.004564,0.000259,0.004574,-0.001986,87.737441,0.004587,
840,1520,0.779951,-2.301966,0.999997,0.000185,-0.002660,0.005163,0.000268,0.005172,-0.002669,88.040629,0.005173,
1840,890,-1.927474,-5.661383,0.999998,0.000180,-0.002251,0.004560,-0.000219,0.004567,-0.002258,-88.156624,0.004567,
900,890,1.235185,-5.834624,0.999998,0.000188,-0.002890,0.006084,0.000686,0.006136,-0.002942,85.652761,0.006138,
1500,500,-0.442698,-8.164362,0.999997,0.000204,-0.002264,0.004636,0.000536,0.004678,-0.002305,85.582919,0.004678,
990,1560,0.381945,-1.847802,0.999997,0.000206,-0.002068,0.004462,0.000527,0.004504,-0.002110,85.413212,0.004507,
980,1270,0.680207,-3.387583,0.999998,0.000211,-0.003813,0.006329,0.000630,0.006368,-0.003852,86.460626,0.006414,
1110,1590,0.158712,-1.557856,0.999998,0.000144,-0.001432,0.003809,0.000376,0.003836,-0.001458,85.914000,0.003873,
1420,120,-0.066397,-9.756054,0.999998,0.000155,-0.000491,0.003376,-0.000251,0.003392,-0.000507,-86.307859,0.003660,
720,50,0.096694,-9.956828,0.999999,0.000152,-0.000640,0.004049,0.001467,0.004470,-0.001061,73.987793,0.004671,
1110,1200,0.391705,-3.045879,0.999995,0.000284,-0.002429,0.003711,0.002119,0.004371,-0.003090,72.689259,0.004494,
1890,1630,-1.309023,-2.176490,0.999998,0.000196,-0.002451,0.004961,-0.000019,0.004961,-0.002451,-89.853983,0.004961,
810,430,0.732426,-8.258156,0.999998,0.000174,-0.002366,0.004944,-0.000152,0.004947,-0.002369,-88.808962,0.004949,
1200,90,0.008640,-9.866710,0.999999,0.000164,-0.000221,0.003075,0.000035,0.003076,-0.000221,89.399844,0.003431,
1740,1430,-1.226189,-2.968370,0.999998,0.000175,-0.002724,0.005257,0.000063,0.005257,-0.002725,89.550466,0.005258,
680,60,0.157200,-9.908876,0.999998,0.000177,-0.000608,0.004550,0.001870,0.005156,-0.001214,72.030062,0.005391,
1830,2000,-0.179396,-0.174189,0.999998,0.000202,-0.001826,0.004764,0.001474,0.005078,-0.002141,77.952482,0.005099,
1840,660,-1.546129,-6.785967,0.999997,0.000199,-0.002536,0.005073,-0.000120,0.005075,-0.002537,-89.100338,0.005075,
1720,1170,-1.637584,-4.325800,0.999997,0.000205,-0.002491,0.005164,0.000565,0.005206,-0.002532,85.802964,0.005206,
1000,1890,0.124630,-0.489027,0.999999,0.000127,-0.000642,0.003615,-0.000336,0.003641,-0.000668,-85.516004,0.003877,
1400,1070,-0.993131,-4.430963,0.999991,0.000000,-0.004381,0.012673,-0.002904,0.013154,-0.004862,-80.595826,0.013302,
740,1750,0.714064,-1.301981,0.999997,0.000196,-0.002188,0.004959,-0.000198,0.004964,-0.002194,-88.415924,0.004975,
620,890,1.934517,-5.659708,0.999997,0.000209,-0.002215,0.004561,0.000226,0.004568,-0.002223,88.093341,0.004569,
680,220,0.677877,-9.115039,0.999998,0.000186,-0.002253,0.005024,0.000480,0.005056,-0.002285,86.241456,0.005064,
1510,380,-0.380268,-8.690717,0.999998,0.000177,-0.001826,0.004359,0.000187,0.004365,-0.001832,88.273338,0.004383,
1230,340,0.001356,-9.031064,0.999999,0.000120,-0.001075,0.003498,-0.000002,0.003498,-0.001075,-89.969999,0.003584,
1620,1890,-0.271513,-0.554152,0.999998,0.000185,-0.001064,0.004183,0.000699,0.004274,-0.001156,82.538049,0.004422,
620,1250,1.806764,-4.020833,0.999998,0.000154,-0.002388,0.004760,-0.000265,0.004770,-0.002398,-87.878297,0.004770,
1410,1070,-1.037549,-4.506768,0.999991,0.000348,-0.004349,0.011542,-0.002405,0.011898,-0.004705,-81.578367,0.011984,
1840,1500,-1.378387,-2.758062,0.999997,0.000205,-0.002556,0.005101,-0.000022,0.005101,-0.002556,-89.835953,0.005101,
930,290,0.334525,-9.055821,0.999998,0.000166,-0.001469,0.004278,0.000129,0.004281,-0.001472,88.710545,0.004351,
1150,1670,0.091567,-1.228965,0.999998,0.000140,-0.001207,0.003623,0.000158,0.003628,-0.001212,88.131353,0.003694,
1660,590,-0.950774,-7.424644,0.999998,0.000188,-0.002765,0.005317,0.000126,0.005319,-0.002767,89.110433,0.005320,
930,430,0.461369,-8.437947,0.999997,0.000206,-0.002094,0.004591,-0.000316,0.004606,-0.002109,-87.297225,0.004612,
1710,1970,-0.181721,-0.256624,0.999998,0.000158,-0.000602,0.004021,0.001175,0.004302,-0.000883,76.521681,0.004545,
1370,330,-0.145705,-9.019141,0.999998,0.000168,-0.001123,0.003752,0.000074,0.003754,-0.001124,89.134663,0.003853,
1580,1420,-0.776930,-2.754891,0.999998,0.000188,-0.003006,0.005440,-0.000366,0.005456,-0.003022,-87.520001,0.005466,
590,490,1.364875,-7.602946,0.999996,0.000236,-0.002390,0.005088,0.000018,0.005088,-0.002390,89.862521,0.005092,
1820,890,-1.882254,-5.675482,0.999997,0.000195,-0.002290,0.004676,-0.000296,0.004688,-0.002303,-87.569176,0.004689,
1500,230,-0.223303,-9.327329,0.999998,0.000147,-0.001245,0.003971,-0.000230,0.003981,-0.001255,-87.481818,0.004070,
1010,1010,1.235018,-5.179028,0.999996,0.000242,-0.002815,0.008440,-0.000124,0.008441,-0.002817,-89.369695,0.008596,
1060,600,0.271482,-7.905484,0.999998,0.000172,-0.002199,0.004221,-0.001069,0.004394,-0.002372,-80.788087,0.004399,
720,860,1.653467,-5.869824,0.999997,0.000197,-0.002470,0.005073,0.000522,0.005109,-0.002506,86.060364,0.005109,
840,1540,0.757981,-2.200692,0.999998,0.000180,-0.002591,0.005088,0.000279,0.005098,-0.002602,87.920327,0.005098,
770,290,0.625252,-8.889189,0.999998,0.000194,-0.002107,0.004861,0.000244,0.004869,-0.002115,88.000401,0.004883,
1380,2000,-0.016961,-0.109596,0.999998,0.000154,-0.000104,0.003083,0.000207,0.003096,-0.000117,86.300007,0.003509,
1620,1680,-0.593389,-1.504841,0.999998,0.000232,-0.002081,0.004771,-0.000040,0.004771,-0.002081,-89.663136,0.004784,
1550,1140,-1.265054,-4.384808,0.999997,0.000200,-0.002711,0.006107,0.000708,0.006163,-0.002768,85.435900,0.006174,
820,1690,0.625339,-1.484666,0.999998,0.000165,-0.002174,0.004840,0.000000,0.004840,-0.002174,-89.999996,0.004848,
1340,750,-0.156912,-7.511223,0.999998,0.000195,-0.002315,0.003481,0.002000,0.004104,-0.002938,72.691961,0.004230,
1830,1480,-1.382964,-2.844479,0.999997,0.000197,-0.002569,0.005128,0.000013,0.005128,-0.002569,89.899597,0.005128,
980,830,0.789005,-6.401062,0.999998,0.000187,-0.003870,0.006676,-0.000291,0.006684,-0.003878,-88.418429,0.006713,
1150,160,0.035342,-9.640926,0.999998,0.000147,-0.000448,0.003305,0.000095,0.003307,-0.000450,88.557826,0.003587,
970,430,0.385387,-8.491501,0.999997,0.000235,-0.001918,0.004438,-0.000340,0.004456,-0.001936,-86.947521,0.004469,
1170,1320,0.067760,-2.348715,0.999998,0.000182,-0.001455,0.002379,0.001342,0.002802,-0.001878,72.505749,0.002856,
820,170,0.304447,-9.494603,0.999997,0.000195,-0.001208,0.004303,0.000733,0.004399,-0.001304,82.549072,0.004518,
1500,480,-0.430217,-8.257795,0.999997,0.000206,-0.002120,0.004576,0.000454,0.004607,-0.002151,86.136267,0.004611,
1480,1550,-0.402985,-1.903659,0.999997,0.000226,-0.002133,0.004542,-0.000544,0.004586,-0.002177,-85.370853,0.004588,
1400,1060,-1.004343,-4.564989,0.999992,0.000000,-0.004710,0.013682,-0.002412,0.013993,-0.005021,-82.651369,0.014177,
1600,1430,-0.824512,-2.739061,0.999998,0.000168,-0.002991,0.005420,-0.000288,0.005430,-0.003001,-88.038212,0.005440,
810,410,0.708039,-8.358304,0.999997,0.000196,-0.002342,0.004921,-0.000125,0.004923,-0.002344,-89.017358,0.004925,
980,1890,0.139196,-0.495711,0.999998,0.000184,-0.000788,0.003665,-0.000339,0.003691,-0.000813,-85.666255,0.003878,
1030,840,0.621354,-6.548589,0.999996,0.000227,-0.003898,0.006523,-0.001043,0.006626,-0.004002,-84.340189,0.006674,
600,1370,1.647772,-3.454742,0.999997,0.000225,-0.002502,0.005048,-0.000096,0.005049,-0.002504,-89.272416,0.005049,
670,1990,0.185282,-0.196239,0.999998,0.000194,-0.000613,0.004757,-0.001977,0.005406,-0.001262,-71.818398,0.005656,
1400,1100,-0.939840,-4.106903,0.999991,0.000370,-0.003342,0.009315,-0.003655,0.010294,-0.004322,-74.996262,0.010338,
680,440,1.065975,-8.002454,0.999998,0.000167,-0.002493,0.005060,-0.000090,0.005061,-0.002494,-89.316138,0.005061,
960,1090,1.273737,-4.639750,0.999998,0.000208,-0.002274,0.006449,-0.000509,0.006479,-0.002303,-86.671585,0.006568,
1270,340,-0.039761,-9.023724,0.999999,0.000134,-0.000997,0.003549,0.000061,0.003550,-0.000998,89.226142,0.003662,
1420,540,-0.288744,-8.127845,0.999998,0.000173,-0.002073,0.004269,0.000794,0.004367,-0.002171,82.967344,0.004367,
1150,1650,0.095429,-1.299316,0.999998,0.000154,-0.001258,0.003637,0.000221,0.003647,-0.001268,87.421582,0.003703,
930,270,0.310313,-9.143111,0.999998,0.000174,-0.001371,0.004170,0.000173,0.004175,-0.001377,88.208935,0.004255,
1580,1440,-0.754061,-2.646771,0.999997,0.000183,-0.002937,0.005374,-0.000401,0.005393,-0.002957,-87.245450,0.005402,
1840,1480,-1.409054,-2.860607,0.999997,0.000189,-0.002562,0.005110,0.000012,0.005110,-0.002562,89.908846,0.005110,
1410,1660,-0.223779,-1.341994,0.999998,0.000183,-0.001561,0.003981,-0.000319,0.003999,-0.001580,-86.717786,0.004028,
930,470,0.496334,-8.250474,0.999998,0.000204,-0.002226,0.004743,-0.000394,0.004766,-0.002248,-86.777660,0.004768,
1370,290,-0.128193,-9.167959,0.999998,0.000153,-0.000983,0.003712,-0.000008,0.003712,-0.000983,-89.898725,0.003846,
840,1560,0.734492,-2.098697,0.999998,0.000193,-0.002500,0.005041,0.000248,0.005050,-0.002508,88.115562,0.005050,
1110,1550,0.164313,-1.705994,0.999998,0.000150,-0.001552,0.003786,0.000502,0.003833,-0.001599,84.677622,0.003850,
720,40,0.066308,-9.995855,0.999999,0.000141,-0.000509,0.003977,0.001488,0.004425,-0.000958,73.224520,0.004656,
1620,1660,-0.612912,-1.599885,0.999997,0.000235,-0.002192,0.004818,-0.000107,0.004820,-0.002194,-89.123772,0.004827,
1360,2010,-0.010605,-0.078070,0.999998,0.000169,-0.000075,0.003047,0.000158,0.003055,-0.000083,87.102442,0.003481,
770,270,0.588119,-8.987696,0.999997,0.000192,-0.002051,0.004824,0.000321,0.004839,-0.002066,87.329532,0.004856,
1710,1950,-0.229489,-0.336859,0.999998,0.000186,-0.000773,0.004243,0.001202,0.004516,-0.001046,77.200288,0.004728,
1130,160,0.047085,-9.637178,0.999999,0.000134,-0.000555,0.003324,0.000099,0.003326,-0.000558,88.540171,0.003563,
710,1180,1.702044,-4.291460,0.999998,0.000204,-0.002454,0.005029,-0.000541,0.005068,-0.002493,-85.882325,0.005068,
1360,410,-0.158478,-8.725239,0.999998,0.000165,-0.001335,0.003718,0.000257,0.003731,-0.001348,87.101106,0.003779,
1750,960,-1.800735,-5.367001,0.999998,0.000185,-0.002237,0.004895,-0.000284,0.004907,-0.002248,-87.726336,0.004912,
1620,1870,-0.307068,-0.636865,0.999997,0.000186,-0.001210,0.004237,0.000631,0.004309,-0.001282,83.479779,0.004425,
990,1760,0.250484,-0.992776,0.999998,0.000150,-0.001256,0.004011,-0.000094,0.004013,-0.001258,-88.982016,0.004105,
1060,580,0.264872,-7.991525,0.999998,0.000178,-0.002118,0.004180,-0.000972,0.004327,-0.002265,-81.421282,0.004328,
670,700,1.495757,-6.646669,0.999997,0.000203,-0.002625,0.005134,0.000250,0.005142,-0.002633,88.153143,0.005142,
1840,640,-1.513787,-6.888416,0.999997,0.000211,-0.002544,0.005093,-0.000090,0.005094,-0.002545,-89.328028,0.005094,
1180,1410,0.061091,-2.094104,0.999998,0.000188,-0.001310,0.002893,0.000703,0.003008,-0.001425,80.747841,0.003009,
1550,1120,-1.312601,-4.505307,0.999997,0.000217,-0.002460,0.005991,0.000717,0.006052,-0.002521,85.187102,0.006080,
810,390,0.682105,-8.456507,0.999997,0.000203,-0.002331,0.004914,-0.000089,0.004915,-0.002332,-89.296836,0.004917,
910,440,0.516635,-8.360382,0.999997,0.000193,-0.002219,0.004697,-0.000310,0.004711,-0.002233,-87.440704,0.004713,
1160,1890,0.033072,-0.455856,0.999999,0.000139,-0.000454,0.003302,-0.000072,0.003304,-0.000456,-88.899776,0.003581,
980,850,0.848700,-6.264744,0.999998,0.000202,-0.003782,0.006768,-0.000092,0.006769,-0.003783,-89.498467,0.006785,
1350,1180,-0.494975,-3.081509,0.999997,0.000218,-0.001595,0.003037,-0.002094,0.003843,-0.002401,-68.940807,0.003883,
940,1570,0.485278,-1.886354,0.999997,0.000183,-0.002251,0.004716,0.000469,0.004747,-0.002282,86.165718,0.004748,
680,200,0.626866,-9.217225,0.999998,0.000185,-0.002207,0.005086,0.000611,0.005136,-0.002258,85.242349,0.005149,
590,1370,1.672839,-3.470053,0.999997,0.000216,-0.002651,0.005053,-0.000050,0.005054,-0.002652,-89.630990,0.005056,
1460,650,-0.432995,-7.530279,0.999997,0.000195,-0.002819,0.005017,0.001054,0.005156,-0.002959,82.473101,0.005174,
790,1060,1.656731,-4.875791,0.999998,0.000184,-0.002066,0.005039,-0.000170,0.005043,-0.002070,-88.631498,0.005070,
670,1970,0.275259,-0.301893,0.999998,0.000197,-0.001049,0.004859,-0.001822,0.005376,-0.001566,-74.170142,0.005530,
930,250,0.290791,-9.224338,0.999998,0.000176,-0.001304,0.004135,0.000264,0.004148,-0.001317,87.226940,0.004239,
810,660,1.032927,-7.053785,0.999998,0.000172,-0.002982,0.005510,-0.000008,0.005510,-0.002982,-89.947056,0.005516,
1010,990,1.206679,-5.352635,0.999996,0.000238,-0.002806,0.008098,-0.000231,0.008103,-0.002811,-88.786568,0.008228,
1620,530,-0.766763,-7.808613,0.999998,0.000136,-0.002647,0.005123,0.000296,0.005134,-0.002658,87.821064,0.005135,
1030,220,0.146545,-9.398769,0.999998,0.000157,-0.000924,0.003715,0.000119,0.003718,-0.000927,88.535806,0.003870,
720,820,1.583334,-6.075512,0.999997,0.000210,-0.002613,0.005220,0.000538,0.005257,-0.002650,86.086050,0.005257,
1840,1460,-1.438837,-2.962478,0.999998,0.000191,-0.002555,0.005099,0.000046,0.005099,-0.002555,89.657970,0.005099,
970,460,0.403388,-8.358586,0.999998,0.000185,-0.001995,0.004481,-0.000397,0.004506,-0.002019,-86.508300,0.004514,
1500,460,-0.416525,-8.348082,0.999997,0.000194,-0.002000,0.004519,0.000409,0.004544,-0.002025,86.423389,0.004553,
1150,1630,0.096491,-1.374696,0.999998,0.000153,-0.001301,0.003638,0.000272,0.003653,-0.001316,86.861362,0.003700,
1580,1430,-0.764236,-2.700598,0.999997,0.000188,-0.002973,0.005402,-0.000387,0.005420,-0.002991,-87.360361,0.005429,
1360,1680,-0.148583,-1.223865,0.999998,0.000166,-0.001223,0.003812,-0.000145,0.003816,-0.001228,-88.350428,0.003896,
840,1580,0.712901,-1.996927,0.999998,0.000189,-0.002443,0.004979,0.000252,0.004988,-0.002451,88.055070,0.004988,
1400,1050,-1.007939,-4.709598,0.999990,0.000000,-0.004987,0.014165,-0.001706,0.014316,-0.005138,-84.948065,0.014505,
930,910,1.202855,-5.750688,0.999998,0.000194,-0.002857,0.006304,0.000710,0.006359,-0.002912,85.592485,0.006366,
810,370,0.657668,-8.554834,0.999998,0.000179,-0.002291,0.004893,-0.000033,0.004893,-0.002291,-89.740021,0.004897,
1880,1620,-1.300319,-2.210027,0.999997,0.000214,-0.002473,0.004966,-0.000032,0.004967,-0.002473,-89.752410,0.004967,
1060,560,0.259894,-8.076482,0.999998,0.000169,-0.002000,0.004155,-0.000842,0.004269,-0.002114,-82.348342,0.004269,
970,410,0.369044,-8.579863,0.999997,0.000216,-0.001884,0.004383,-0.000306,0.004398,-0.001899,-87.209422,0.004412,
1830,1940,-0.449810,-0.489454,0.999997,0.000195,-0.002212,0.005323,0.000925,0.005434,-0.002324,83.105812,0.005453,
690,1180,1.750874,-4.303347,0.999998,0.000184,-0.002419,0.004961,-0.000495,0.004994,-0.002452,-86.181974,0.004994,
1530,1140,-1.208430,-4.358256,0.999998,0.000205,-0.002803,0.006324,0.000696,0.006377,-0.002856,85.666525,0.006389,
880,1490,0.705756,-2.387755,0.999997,0.000186,-0.002750,0.005203,0.000395,0.005223,-0.002769,87.160104,0.005226,
1830,1460,-1.415016,-2.948162,0.999997,0.000200,-0.002572,0.005118,0.000044,0.005118,-0.002573,89.673145,0.005118,
610,300,1.013764,-8.590081,0.999998,0.000184,-0.002468,0.005007,-0.000019,0.005007,-0.002468,-89.854882,0.005007,
1110,1530,0.167406,-1.779986,0.999998,0.000164,-0.001619,0.003819,0.000607,0.003886,-0.001686,83.703995,0.003897,
1030,160,0.102071,-9.614827,0.999998,0.000167,-0.000666,0.003552,0.000281,0.003571,-0.000684,86.205038,0.003790,
1260,850,-0.131228,-7.639846,0.999942,0.000833,-0.003562,0.001350,-0.000142,0.001354,-0.003566,-88.348761,0.003600,
1580,1460,-0.730253,-2.540510,0.999997,0.000199,-0.002878,0.005309,-0.000413,0.005330,-0.002898,-87.122082,0.005336,
1040,990,1.106030,-5.443117,0.999991,0.000342,-0.004118,0.010311,-0.001445,0.010454,-0.004261,-84.337346,0.010514,
1400,1890,-0.082898,-0.472968,0.999998,0.000155,-0.000625,0.003461,0.000189,0.003470,-0.000634,87.353513,0.003695,
680,160,0.514614,-9.418467,0.999997,0.000217,-0.002012,0.005081,0.000918,0.005198,-0.002128,82.740091,0.005226,
580,1370,1.696822,-3.485908,0.999997,0.000213,-0.003094,0.005124,0.000057,0.005125,-0.003095,89.602860,0.005162,
880,890,1.292921,-5.811674,0.999998,0.000195,-0.002780,0.005931,0.000735,0.005992,-0.002841,85.207501,0.005995,
770,1060,1.698014,-4.877113,0.999998,0.000182,-0.002070,0.004973,-0.000172,0.004977,-0.002074,-88.599386,0.005000,
1680,650,-1.095852,-7.067738,0.999997,0.000180,-0.002901,0.005394,-0.000059,0.005395,-0.002902,-89.593675,0.005400,
1010,970,1.162633,-5.501716,0.999995,0.000253,-0.002848,0.007809,-0.000306,0.007818,-0.002857,-88.355970,0.007911,
1270,820,-0.082484,-7.653993,0.999998,0.000184,-0.002083,0.001334,0.000801,0.001513,-0.002262,77.444813,0.002304,
850,440,0.649818,-8.269812,0.999998,0.000200,-0.002375,0.004925,-0.000226,0.004932,-0.002382,-88.228255,0.004933,
720,280,0.711617,-8.877952,0.999998,0.000176,-0.002286,0.005011,0.000237,0.005019,-0.002294,88.139146,0.005025,
930,230,0.263379,-9.308942,0.999998,0.000179,-0.001191,0.004078,0.000311,0.004097,-0.001209,86.633144,0.004210,
800,1130,1.563500,-4.512331,0.999997,0.000245,-0.002374,0.005307,-0.000566,0.005349,-0.002416,-85.805682,0.005357,
1500,440,-0.406243,-8.436093,0.999997,0.000183,-0.001951,0.004454,0.000348,0.004473,-0.001970,86.900762,0.004483,
1840,620,-1.481839,-6.990380,0.999997,0.000210,-0.002556,0.005081,-0.000060,0.005081,-0.002556,-89.553154,0.005081,
650,700,1.546918,-6.621112,0.999997,0.000218,-0.002564,0.005089,0.000206,0.005095,-0.002570,88.455760,0.005095,
670,1950,0.345683,-0.391143,0.999998,0.000209,-0.001420,0.004908,-0.001504,0.005247,-0.001759,-77.287456,0.005341,
790,660,1.092602,-7.024319,0.999997,0.000197,-0.002932,0.005456,0.000076,0.005457,-0.002933,89.480235,0.005462,
1560,30,-0.014534,-10.044081,0.999999,0.000000,-0.000072,0.003316,-0.000622,0.003427,-0.000183,-79.915819,0.003856,
1240,1350,-0.008329,-2.204020,0.999999,0.000138,-0.000996,0.002081,-0.000195,0.002093,-0.001008,-86.385937,0.002093,
850,90,0.129375,-9.827868,0.999999,0.000144,-0.000541,0.003707,0.000803,0.003853,-0.000688,79.644891,0.004110,
930,890,1.145407,-5.874566,0.999998,0.000165,-0.003092,0.006355,0.000636,0.006397,-0.003135,86.163477,0.006398,
970,1680,0.344336,-1.346960,0.999998,0.000202,-0.001796,0.004328,0.000238,0.004338,-0.001806,87.777054,0.004358,
1360,1660,-0.155496,-1.299801,0.999998,0.000171,-0.001274,0.003747,-0.000207,0.003755,-0.001283,-87.644907,0.003818,
810,350,0.627058,-8.654327,0.999997,0.000189,-0.002260,0.004829,-0.000013,0.004829,-0.002261,-89.897340,0.004832,
1840,1440,-1.475241,-3.064573,0.999997,0.000189,-0.002541,0.005083,0.000077,0.005084,-0.002542,89.418196,0.005084,
1160,100,0.017783,-9.834861,0.999998,0.000160,-0.000215,0.003147,0.000091,0.003149,-0.000217,88.455112,0.003518,
1060,540,0.255606,-8.159337,0.999998,0.000166,-0.001893,0.004132,-0.000738,0.004222,-0.001982,-83.113980,0.004224,
1850,1940,-0.498246,-0.538325,0.999997,0.000205,-0.002422,0.005366,0.000782,0.005443,-0.002500,84.325646,0.005449,
1380,1170,-0.606677,-3.427532,0.999996,0.000266,-0.002557,0.004866,-0.002422,0.005587,-0.003277,-73.433482,0.005614,
1700,1110,-1.671456,-4.625468,0.999998,0.000174,-0.002263,0.005102,0.000451,0.005130,-0.002290,86.509217,0.005140,
790,1500,0.938526,-2.493281,0.999998,0.000162,-0.002719,0.005255,0.000167,0.005259,-0.002722,88.797896,0.005260,
930,1180,1.102032,-4.107361,0.999998,0.000192,-0.003216,0.006369,-0.000566,0.006402,-0.003250,-86.634422,0.006402,
680,140,0.452278,-9.521119,0.999996,0.000228,-0.001861,0.004956,0.001094,0.005127,-0.002032,81.101878,0.005164,
1340,1350,-0.147223,-2.410298,0.999997,0.000182,-0.001984,0.003494,-0.001617,0.003936,-0.002426,-74.727219,0.003971,
670,580,1.295496,-7.266510,0.999998,0.000195,-0.002586,0.005171,0.000018,0.005171,-0.002586,89.865793,0.005171,
1350,160,-0.056478,-9.634492,0.999998,0.000161,-0.000513,0.003357,-0.000132,0.003362,-0.000517,-88.053461,0.003620,
1380,1890,-0.073010,-0.470231,0.999998,0.000135,-0.000494,0.003416,0.000165,0.003423,-0.000501,87.592847,0.003697,
1440,1270,-0.514019,-3.221133,0.999997,0.000204,-0.003806,0.005994,-0.001241,0.006149,-0.003961,-82.895944,0.006233,
1510,740,-0.694632,-6.888754,0.999997,0.000181,-0.003536,0.005957,0.000554,0.005990,-0.003568,86.672999,0.006026,
1510,440,-0.425023,-8.424476,0.999997,0.000207,-0.001957,0.004497,0.000315,0.004513,-0.001972,87.208969,0.004525,
1110,1510,0.167540,-1.857347,0.999998,0.000148,-0.001692,0.003746,0.000722,0.003840,-0.001786,82.561800,0.003843,
1490,1200,-0.891644,-3.871613,0.999998,0.000197,-0.003730,0.006746,0.000028,0.006746,-0.003730,89.848455,0.006758,
1660,830,-1.376806,-6.088956,0.999998,0.000194,-0.002845,0.005533,-0.000604,0.005577,-0.002888,-85.895921,0.005578,
1250,820,-0.042639,-7.703409,0.999997,0.000206,-0.002280,0.001198,0.000346,0.001232,-0.002314,84.368727,0.002316,
720,260,0.671836,-8.977867,0.999998,0.000197,-0.002262,0.004990,0.000291,0.005001,-0.002273,87.708367,0.005008,
1680,750,-1.273949,-6.515364,0.999998,0.000182,-0.002936,0.005547,-0.000365,0.005562,-0.002952,-87.538250,0.005566,
1500,420,-0.391101,-8.524586,0.999998,0.000185,-0.001914,0.004444,0.000303,0.004459,-0.001928,87.277607,0.004472,
1580,1480,-0.707947,-2.434528,0.999997,0.000207,-0.002790,0.005215,-0.000424,0.005237,-0.002812,-86.979187,0.005242,
670,1930,0.419735,-0.497524,0.999997,0.000235,-0.001694,0.005067,-0.001309,0.005311,-0.001939,-79.418271,0.005376,
720,450,0.980392,-8.015322,0.999998,0.000162,-0.002518,0.005067,-0.000103,0.005068,-0.002520,-89.225528,0.005068,
930,610,0.610009,-7.557490,0.999997,0.000215,-0.002844,0.005250,-0.000605,0.005295,-0.002889,-85.751290,0.005302,
970,390,0.357097,-8.667425,0.999998,0.000189,-0.001860,0.004365,-0.000257,0.004375,-0.001870,-87.636112,0.004391,
1890,1640,-1.293977,-2.126829,0.999998,0.000179,-0.002401,0.004963,-0.000034,0.004963,-0.002401,-89.732103,0.004964,
930,870,1.085546,-6.005321,0.999998,0.000166,-0.003283,0.006394,0.000547,0.006425,-0.003313,86.775060,0.006426,
900,470,0.563621,-8.202604,0.999997,0.000206,-0.002309,0.004789,-0.000352,0.004806,-0.002326,-87.170839,0.004807,
850,70,0.087947,-9.902087,0.999998,0.000149,-0.000410,0.003655,0.000873,0.003835,-0.000589,78.375426,0.004130,
820,1210,1.361262,-4.061616,0.999998,0.000194,-0.002865,0.005640,-0.000622,0.005685,-0.002910,-85.838518,0.005685,
1840,600,-1.448377,-7.092339,0.999997,0.000191,-0.002581,0.005064,-0.000052,0.005064,-0.002581,-89.612093,0.005064,
1010,950,1.101372,-5.659094,0.999997,0.000204,-0.002940,0.007713,-0.000257,0.007720,-0.002946,-88.617895,0.007791,
1550,30,-0.014391,-10.044965,0.999999,0.000000,0.000006,0.003345,-0.000608,0.003453,-0.000101,-79.986837,0.003930,
1160,120,0.022463,-9.770061,0.999999,0.000147,-0.000283,0.003197,0.000094,0.003200,-0.000286,88.460208,0.003541,
1810,1620,-1.126342,-2.096377,0.999998,0.000169,-0.002542,0.005050,-0.000054,0.005050,-0.002543,-89.589554,0.005050,
1340,1330,-0.149356,-2.480291,0.999998,0.000192,-0.002085,0.003480,-0.001798,0.004010,-0.002615,-73.562843,0.004072,
1060,520,0.252405,-8.238005,0.999998,0.000163,-0.001802,0.004084,-0.000658,0.004157,-0.001875,-83.702001,0.004164,
1360,1640,-0.158725,-1.373419,0.999998,0.000170,-0.001326,0.003763,-0.000262,0.003776,-0.001339,-87.065839,0.003829,
1830,1980,-0.271784,-0.277959,0.999998,0.000190,-0.001968,0.005265,0.001455,0.005547,-0.002250,79.038867,0.005580,
810,330,0.599722,-8.748838,0.999998,0.000186,-0.002175,0.004830,0.000045,0.004830,-0.002175,89.631750,0.004838,
1240,1330,-0.008385,-2.242836,0.999999,0.000139,-0.000976,0.001841,-0.000196,0.001854,-0.000990,-86.034522,0.001856,
1090,340,0.152015,-8.979962,0.999998,0.000164,-0.001120,0.003743,-0.000101,0.003745,-0.001122,-88.813600,0.003844,
1370,1170,-0.583373,-3.323095,0.999995,0.000274,-0.002057,0.004182,-0.002491,0.005055,-0.002929,-70.694264,0.005076,
1670,1680,-0.703115,-1.575419,0.999997,0.000191,-0.002290,0.004909,-0.000037,0.004909,-0.002290,-89.702279,0.004913,
1570,460,-0.572092,-8.239369,0.999998,0.000190,-0.002265,0.004807,0.000294,0.004819,-0.002277,87.625840,0.004822,
1750,1240,-1.592545,-3.984189,0.999997,0.000221,-0.002619,0.005193,0.000529,0.005229,-0.002655,86.143336,0.005229,
990,1440,0.446880,-2.409873,0.999997,0.000199,-0.002663,0.004925,0.000889,0.005027,-0.002766,83.403728,0.005036,
1840,1420,-1.504292,-3.165715,0.999997,0.000201,-0.002555,0.005088,0.000075,0.005088,-0.002556,89.438491,0.005088,
1170,1340,0.067551,-2.302067,0.999998,0.000169,-0.001420,0.002531,0.001204,0.002869,-0.001758,74.321932,0.002893,
1660,1780,-0.528040,-1.076791,0.999997,0.000205,-0.001994,0.004720,0.000272,0.004731,-0.002005,87.684848,0.004749,
1410,1260,-0.419598,-3.133850,0.999996,0.000239,-0.003702,0.005629,-0.001658,0.005915,-0.003988,-80.217006,0.006034,
1580,1920,-0.176341,-0.414032,0.999998,0.000191,-0.000944,0.003863,0.000596,0.003936,-0.001017,83.041846,0.004086,
1400,1830,-0.120212,-0.684324,0.999999,0.000150,-0.000843,0.003609,0.000111,0.003612,-0.000846,88.575178,0.003778,
1260,1860,-0.017186,-0.552096,0.999998,0.000182,-0.000573,0.003344,0.000025,0.003344,-0.000573,89.639997,0.003576,
1710,1930,-0.291215,-0.427794,0.999997,0.000179,-0.001020,0.004432,0.001183,0.004677,-0.001266,78.265446,0.004839,
1600,790,-1.108152,-6.390513,0.999998,0.000160,-0.003248,0.005980,-0.000346,0.005992,-0.003261,-87.854087,0.006000,
720,240,0.631873,-9.078709,0.999998,0.000182,-0.002213,0.004955,0.000388,0.004976,-0.002234,86.910665,0.004985,
930,2010,0.033064,-0.084815,0.999998,0.000159,-0.000095,0.003328,-0.000524,0.003406,-0.000174,-81.491976,0.003837,
1540,2020,-0.021088,-0.053040,0.999998,0.000000,-0.000027,0.003252,0.000526,0.003334,-0.000109,81.104147,0.003789,
1680,730,-1.236233,-6.626312,0.999997,0.000198,-0.002972,0.005554,-0.000311,0.005566,-0.002983,-87.911413,0.005570,
1500,620,-0.525890,-7.578706,0.999996,0.000218,-0.002885,0.005124,0.000786,0.005200,-0.002961,84.449800,0.005217,
1650,1780,-0.508718,-1.064252,0.999997,0.000225,-0.001871,0.004672,0.000296,0.004686,-0.001884,87.418443,0.004716,
730,120,0.297519,-9.666388,0.999998,0.000176,-0.001316,0.004550,0.001200,0.004786,-0.001552,78.876315,0.004884,
770,250,0.552863,-9.081518,0.999997,0.000181,-0.001972,0.004773,0.000428,0.004801,-0.001999,86.381029,0.004823,
690,1120,1.825480,-4.596476,0.999998,0.000164,-0.002270,0.004870,-0.000384,0.004891,-0.002291,-86.931000,0.004894,
710,1860,0.546888,-0.796377,0.999997,0.000201,-0.002204,0.004948,-0.000564,0.004992,-0.002248,-85.515980,0.005000,
1420,560,-0.297140,-8.041660,0.999998,0.000172,-0.002140,0.004281,0.000871,0.004397,-0.002256,82.409032,0.004398,
1700,1090,-1.695370,-4.728738,0.999997,0.000202,-0.002201,0.005085,0.000364,0.005103,-0.002220,87.144109,0.005118,
1610,30,-0.021893,-10.042837,0.999998,0.000000,-0.000005,0.003402,-0.000824,0.003591,-0.000194,-77.088553,0.004039,
1840,1130,-1.966078,-4.578650,0.999998,0.000167,-0.002199,0.004581,0.000268,0.004591,-0.002210,87.742243,0.004592,
1620,1640,-0.637934,-1.696977,0.999997,0.000214,-0.002281,0.004860,-0.000145,0.004863,-0.002284,-88.836733,0.004866,
1360,1620,-0.162873,-1.449772,0.999998,0.000206,-0.001382,0.003811,-0.000295,0.003828,-0.001398,-86.760832,0.003874,
780,1150,1.580373,-4.413964,0.999997,0.000244,-0.002470,0.005293,-0.000613,0.005341,-0.002518,-85.514488,0.005344,
930,300,0.344963,-9.014079,0.999998,0.000182,-0.001503,0.004270,0.000090,0.004272,-0.001505,89.104657,0.004333,
890,1060,1.460396,-4.862325,0.999998,0.000204,-0.001915,0.005489,-0.000303,0.005502,-0.001927,-87.663605,0.005583,
1050,160,0.088975,-9.620434,0.999998,0.000172,-0.000670,0.003490,0.000199,0.003499,-0.000680,87.265542,0.003711,
1040,550,0.301037,-8.077660,0.999998,0.000159,-0.002143,0.004294,-0.000815,0.004395,-0.002245,-82.897889,0.004396,
1760,220,-0.625144,-9.149825,0.999997,0.000201,-0.002285,0.004975,-0.000428,0.005000,-0.002310,-86.640258,0.005005,
1210,500,0.027478,-8.465076,0.999998,0.000147,-0.001271,0.003419,-0.000178,0.003425,-0.001278,-87.829387,0.003462,
1790,1620,-1.075193,-2.065001,0.999998,0.000171,-0.002487,0.005044,-0.000096,0.005045,-0.002488,-89.268146,0.005045,
910,1580,0.544484,-1.885782,0.999997,0.000217,-0.002297,0.004753,0.000361,0.004772,-0.002315,87.075506,0.004772,
840,1980,0.103399,-0.196911,0.999998,0.000138,-0.000388,0.003735,-0.000894,0.003921,-0.000574,-78.274182,0.004235,
930,590,0.594969,-7.661967,0.999997,0.000212,-0.002758,0.005131,-0.000606,0.005177,-0.002804,-85.635994,0.005183,
1010,930,1.030420,-5.808752,0.999997,0.000182,-0.003133,0.007309,-0.000215,0.007314,-0.003137,-88.819465,0.007339,
830,760,1.150786,-6.520260,0.999996,0.000216,-0.003148,0.005793,0.000306,0.005804,-0.003158,88.043231,0.005811,
1110,1490,0.169348,-1.931667,0.999998,0.000151,-0.001742,0.003718,0.000819,0.003838,-0.001862,81.647616,0.003839,
1770,1340,-1.461412,-3.483445,0.999996,0.000231,-0.002674,0.005193,0.000307,0.005205,-0.002686,87.768151,0.005206,
1540,600,-0.623516,-7.596740,0.999998,0.000199,-0.002809,0.005181,0.000552,0.005219,-0.002847,86.066362,0.005226,
740,1570,0.976640,-2.211673,0.999998,0.000154,-0.002565,0.005142,0.000144,0.005144,-0.002567,88.931530,0.005144,
1160,140,0.026498,-9.707033,0.999999,0.000135,-0.000337,0.003213,0.000105,0.003216,-0.000341,88.309563,0.003533,
680,180,0.572216,-9.319094,0.999998,0.000190,-0.002101,0.005017,0.000752,0.005096,-0.002180,84.036143,0.005113,
810,310,0.568947,-8.847957,0.999998,0.000196,-0.002076,0.004747,0.000138,0.004750,-0.002078,88.838434,0.004762,
720,220,0.584229,-9.177887,0.999997,0.000196,-0.002163,0.004911,0.000500,0.004946,-0.002198,85.976182,0.004957,
1270,670,-0.041013,-7.934711,0.999998,0.000158,-0.001213,0.002597,0.000607,0.002691,-0.001308,81.165854,0.002691,
1320,2010,-0.005312,-0.076661,0.999998,0.000191,-0.000070,0.003036,0.000119,0.003040,-0.000074,87.816326,0.003468,
1200,60,0.003276,-9.957764,0.999999,0.000138,-0.000132,0.003026,0.000042,0.003026,-0.000133,89.235749,0.003420,
1710,1910,-0.340643,-0.513667,0.999998,0.000174,-0.001244,0.004525,0.001048,0.004709,-0.001429,80.012457,0.004829,
1670,1310,-1.235717,-3.525333,0.999997,0.000186,-0.003002,0.005579,0.000339,0.005592,-0.003016,87.742315,0.005598,
1540,30,-0.015345,-10.043145,0.999999,0.000000,0.000044,0.003359,-0.000583,0.003459,-0.000056,-80.304447,0.003962,
960,1490,0.492901,-2.231149,0.999997,0.000200,-0.002525,0.004903,0.000682,0.004965,-0.002587,84.800864,0.004966,
1630,1780,-0.473800,-1.045685,0.999997,0.000209,-0.001690,0.004579,0.000331,0.004597,-0.001707,86.981904,0.004647,
610,440,1.240250,-7.888431,0.999998,0.000177,-0.002480,0.005022,-0.000098,0.005023,-0.002482,-89.248050,0.005023,
670,1120,1.871649,-4.604100,0.999998,0.000165,-0.002275,0.004794,-0.000363,0.004812,-0.002294,-87.070279,0.004814,
1680,710,-1.198527,-6.738735,0.999998,0.000203,-0.002988,0.005538,-0.000227,0.005544,-0.002994,-88.478260,0.005550,
1380,1830,-0.106760,-0.679380,0.999998,0.000194,-0.000709,0.003572,0.000132,0.003576,-0.000714,88.235682,0.003785,
1020,1890,0.113498,-0.485727,0.999998,0.000247,-0.000647,0.003575,-0.000284,0.003594,-0.000666,-86.173593,0.003823,
1580,790,-1.042134,-6.423642,0.999998,0.000187,-0.003342,0.006072,-0.000263,0.006079,-0.003349,-88.401698,0.006090,
1420,580,-0.303203,-7.954398,0.999997,0.000184,-0.002205,0.004331,0.000937,0.004463,-0.002337,82.004787,0.004464,
1850,660,-1.571480,-6.771875,0.999997,0.000198,-0.002529,0.005066,-0.000106,0.005067,-0.002530,-89.199139,0.005067,
1360,1170,-0.566537,-3.217183,0.999995,0.000259,-0.001627,0.003602,-0.002479,0.004590,-0.002615,-68.259465,0.004605,
690,1860,0.591665,-0.823221,0.999997,0.000183,-0.002233,0.005043,-0.000603,0.005093,-0.002283,-85.294115,0.005102,
1880,580,-1.518430,-7.132218,0.999997,0.000205,-0.002550,0.005079,-0.000011,0.005079,-0.002550,-89.914009,0.005079,
1500,1720,-0.324414,-1.184765,0.999997,0.000184,-0.001682,0.004288,-0.000107,0.004290,-0.001684,-88.968761,0.004323,
1290,1220,-0.161719,-2.533894,0.999994,0.000293,-0.002364,0.001678,-0.000831,0.001842,-0.002528,-78.825373,0.002615,
930,850,1.031158,-6.129705,0.999998,0.000174,-0.003449,0.006416,0.000405,0.006432,-0.003465,87.653049,0.006439,
1840,1400,-1.538962,-3.269010,0.999997,0.000221,-0.002548,0.005104,0.000124,0.005106,-0.002550,89.068471,0.005106,
1580,1900,-0.209171,-0.493579,0.999998,0.000188,-0.001068,0.003977,0.000561,0.004038,-0.001130,83.733312,0.004167,
1620,1620,-0.661471,-1.796065,0.999998,0.000201,-0.002359,0.004911,-0.000209,0.004917,-0.002365,-88.357305,0.004918,
1010,910,0.952824,-5.954846,0.999997,0.000215,-0.003387,0.007190,-0.000181,0.007193,-0.003390,-89.022240,0.007197,
1750,1620,-0.976271,-1.998935,0.999999,0.000150,-0.002478,0.005040,-0.000082,0.005041,-0.002479,-89.377713,0.005041,
890,1600,0.573292,-1.820561,0.999997,0.000231,-0.002256,0.004794,0.000290,0.004806,-0.002268,87.644455,0.004808,
1380,630,-0.225042,-7.839512,0.999998,0.000157,-0.002146,0.003989,0.001201,0.004216,-0.002373,79.307248,0.004227,
1640,830,-1.319253,-6.106085,0.999997,0.000185,-0.002914,0.005662,-0.000605,0.005705,-0.002957,-85.987494,0.005706,
1500,400,-0.378668,-8.616091,0.999997,0.000203,-0.001867,0.004420,0.000262,0.004431,-0.001878,87.614727,0.004448,
840,1960,0.141231,-0.272138,0.999998,0.000154,-0.000553,0.003790,-0.000847,0.003950,-0.000712,-79.345863,0.004210,
1540,920,-1.251019,-5.676437,0.999997,0.000197,-0.002692,0.006161,-0.000723,0.006220,-0.002750,-85.363395,0.006233,
1360,1600,-0.166054,-1.524339,0.999997,0.000206,-0.001421,0.003821,-0.000345,0.003843,-0.001444,-86.249116,0.003883,
1190,500,0.053205,-8.456665,0.999998,0.000157,-0.001253,0.003440,-0.000166,0.003446,-0.001258,-87.977581,0.003487,
1160,160,0.031277,-9.642487,0.999998,0.000151,-0.000391,0.003301,0.000107,0.003304,-0.000395,88.339332,0.003609,
930,570,0.575646,-7.761914,0.999998,0.000202,-0.002696,0.005037,-0.000583,0.005081,-0.002739,-85.709861,0.005086,
1450,940,-1.056344,-5.751634,0.999996,0.000236,-0.003015,0.007529,0.000326,0.007539,-0.003025,88.231574,0.007588,
1110,1470,0.172322,-2.010861,0.999998,0.000165,-0.001782,0.003740,0.000918,0.003889,-0.001931,80.802106,0.003889,
770,740,1.293719,-6.555177,0.999997,0.000216,-0.002930,0.005504,0.000357,0.005519,-0.002945,87.577227,0.005523,
760,1150,1.628599,-4.423216,0.999997,0.000207,-0.002396,0.005210,-0.000594,0.005256,-0.002442,-85.560163,0.005260,
1540,1020,-1.417105,-5.081446,0.999998,0.000195,-0.001796,0.005668,-0.000071,0.005668,-0.001797,-89.458096,0.005794,
1190,1990,0.005755,-0.137803,0.999999,0.000134,-0.000104,0.003049,-0.000055,0.003050,-0.000105,-89.004940,0.003463,
960,1470,0.506813,-2.329504,0.999997,0.000208,-0.002661,0.004984,0.000736,0.005054,-0.002732,84.554205,0.005060,
1330,160,-0.045269,-9.637028,0.999999,0.000119,-0.000545,0.003306,-0.000103,0.003309,-0.000548,-88.474149,0.003547,
1670,1290,-1.273252,-3.637116,0.999997,0.000195,-0.002975,0.005600,0.000420,0.005620,-0.002995,87.204906,0.005624,
1300,1830,-0.046211,-0.657389,0.999998,0.000149,-0.000630,0.003426,0.000072,0.003428,-0.000631,88.978596,0.003649,
1600,2020,-0.031328,-0.054066,0.999998,0.000000,-0.000230,0.003505,0.000653,0.003616,-0.000341,80.365407,0.003993,
830,1860,0.339619,-0.687909,0.999997,0.000196,-0.001272,0.004355,-0.000627,0.004424,-0.001341,-83.722085,0.004537,
1530,2020,-0.021449,-0.051782,0.999999,0.000000,-0.000049,0.003245,0.000480,0.003314,-0.000118,81.874927,0.003760,
1760,1390,-1.346611,-3.207026,0.999997,0.000209,-0.002741,0.005253,0.000184,0.005257,-0.002746,88.681945,0.005259,
1420,600,-0.309193,-7.866125,0.999997,0.000198,-0.002265,0.004438,0.000995,0.004583,-0.002410,81.733686,0.004585,
970,1520,0.449757,-2.066548,0.999998,0.000175,-0.002400,0.004708,0.000652,0.004768,-0.002459,84.805780,0.004768,
660,1310,1.603450,-3.677317,0.999998,0.000179,-0.002549,0.005073,-0.000321,0.005087,-0.002563,-87.590838,0.005087,
770,230,0.511410,-9.180454,0.999997,0.000191,-0.001897,0.004729,0.000514,0.004769,-0.001937,85.588471,0.004797,
1740,370,-0.857665,-8.426992,0.999998,0.000192,-0.002449,0.005083,0.000045,0.005083,-0.002449,89.661440,0.005084,
920,1010,1.414899,-5.138479,0.999998,0.000170,-0.001817,0.005721,0.000220,0.005727,-0.001823,88.332066,0.005852,
610,420,1.211593,-7.988146,0.999998,0.000171,-0.002469,0.005000,-0.000091,0.005001,-0.002471,-89.301312,0.005001,
820,1630,0.703578,-1.782390,0.999997,0.000185,-0.002336,0.004947,0.000150,0.004950,-0.002339,88.820747,0.004953,
1730,1620,-0.927055,-1.967371,0.999999,0.000144,-0.002495,0.005064,-0.000082,0.005065,-0.002496,-89.375745,0.005065,
1510,1080,-1.308525,-4.710694,0.999998,0.000157,-0.002163,0.006330,0.000454,0.006354,-0.002187,86.945501,0.006456,
880,1070,1.471122,-4.810340,0.999997,0.000206,-0.001984,0.005481,-0.000384,0.005501,-0.002004,-87.059497,0.005568,
1040,730,0.379516,-7.240477,0.999997,0.000198,-0.003249,0.005236,-0.001505,0.005495,-0.003508,-80.233678,0.005565,
1580,1880,-0.239412,-0.572392,0.999998,0.000182,-0.001210,0.004029,0.000514,0.004079,-0.001260,84.454586,0.004177,
1500,360,-0.343910,-8.790129,0.999998,0.000176,-0.001789,0.004252,0.000192,0.004259,-0.001795,88.183027,0.004276,
1840,1380,-1.573215,-3.370392,0.999997,0.000212,-0.002540,0.005050,0.000161,0.005054,-0.002543,88.785340,0.005054,
930,550,0.559125,-7.864424,0.999997,0.000206,-0.002591,0.004972,-0.000569,0.005014,-0.002634,-85.723010,0.005016,
840,1940,0.177791,-0.351932,0.999998,0.000172,-0.000708,0.003962,-0.000846,0.004110,-0.000857,-80.043385,0.004337,
1660,270,-0.520392,-9.027713,0.999996,0.000214,-0.001986,0.004671,-0.000294,0.004684,-0.001999,-87.472520,0.004700,
1830,1960,-0.365804,-0.383105,0.999997,0.000210,-0.002112,0.005233,0.001232,0.005434,-0.002313,80.725674,0.005454,
700,1640,0.979619,-1.918773,0.999998,0.000155,-0.002462,0.005052,0.000090,0.005053,-0.002463,89.316119,0.005054,
1160,600,0.092857,-8.096156,0.999998,0.000168,-0.001451,0.003270,-0.000716,0.003376,-0.001557,-81.566153,0.003379,
1010,890,0.871640,-6.101015,0.999997,0.000222,-0.003641,0.007041,-0.000283,0.007049,-0.003648,-88.485557,0.007050,
1390,910,-0.752948,-6.418252,0.999995,0.000241,-0.002353,0.005963,0.003093,0.006987,-0.003377,71.677418,0.006988,
1070,2010,0.011904,-0.078242,0.999998,0.000164,-0.000085,0.003044,-0.000194,0.003056,-0.000097,-86.469867,0.003475,
810,290,0.537587,-8.940834,0.999998,0.000192,-0.001992,0.004701,0.000236,0.004710,-0.002000,87.985400,0.004728,
1500,1920,-0.118113,-0.392474,0.999998,0.000144,-0.000727,0.003597,0.000399,0.003634,-0.000763,84.769695,0.003832,
750,1180,1.603136,-4.269765,0.999997,0.000199,-0.002499,0.005200,-0.000562,0.005241,-0.002540,-85.846250,0.005242,
570,460,1.367646,-7.724569,0.999939,0.000958,-0.001815,0.004815,-0.000094,0.004817,-0.001816,-89.183721,0.004865,
1540,900,-1.194373,-5.802156,0.999998,0.000196,-0.002928,0.006251,-0.000719,0.006307,-0.002984,-85.548402,0.006310,
1270,630,-0.043762,-8.042845,0.999999,0.000147,-0.001244,0.002893,0.000436,0.002939,-0.001290,84.051925,0.002946,
1710,1890,-0.395100,-0.609003,0.999997,0.000191,-0.001438,0.004654,0.000943,0.004797,-0.001581,81.403185,0.004889,
720,200,0.536249,-9.275503,0.999997,0.000192,-0.002094,0.004935,0.000594,0.004985,-0.002144,85.205094,0.005001,
1530,30,-0.015471,-10.044512,0.999999,0.000000,0.000002,0.003344,-0.000552,0.003432,-0.000086,-80.860834,0.003915,
1360,1580,-0.171044,-1.601705,0.999998,0.000172,-0.001485,0.003814,-0.000430,0.003849,-0.001520,-85.387265,0.003877,
930,830,0.975539,-6.260395,0.999998,0.000179,-0.003549,0.006440,0.000258,0.006447,-0.003555,88.523821,0.006458,
1110,1450,0.172130,-2.084359,0.999998,0.000148,-0.001817,0.003712,0.001018,0.003894,-0.001998,79.892355,0.003894,
940,1490,0.544991,-2.271112,0.999997,0.000186,-0.002634,0.005031,0.000583,0.005075,-0.002678,85.671500,0.005077,
810,1860,0.367300,-0.700880,0.999997,0.000196,-0.001512,0.004443,-0.000627,0.004508,-0.001577,-84.053353,0.004575,
1200,240,0.023198,-9.375489,0.999998,0.000191,-0.000761,0.003434,0.000022,0.003434,-0.000762,89.698646,0.003607,
1600,30,-0.023150,-10.044009,0.999998,0.000000,-0.000106,0.003363,-0.000759,0.003522,-0.000265,-78.175984,0.003922,
1270,660,-0.042495,-7.960244,0.999999,0.000143,-0.001215,0.002683,0.000566,0.002764,-0.001295,81.902945,0.002766,
1310,160,-0.034783,-9.640318,0.999998,0.000157,-0.000439,0.003268,-0.000095,0.003270,-0.000442,-88.527645,0.003549,
1670,1270,-1.314781,-3.748852,0.999997,0.000207,-0.002939,0.005580,0.000484,0.005608,-0.002967,86.760863,0.005611,
1820,370,-1.053198,-8.295697,0.999998,0.000186,-0.002481,0.005059,0.000032,0.005059,-0.002481,89.755738,0.005059,
930,1540,0.530264,-2.043847,0.999997,0.000202,-0.002375,0.004784,0.000477,0.004816,-0.002406,86.206299,0.004816,
1620,1600,-0.684142,-1.894430,0.999998,0.000174,-0.002401,0.004943,-0.000228,0.004950,-0.002408,-88.220028,0.004950,
1540,1040,-1.413943,-4.971351,0.999997,0.000194,-0.001836,0.005720,0.000144,0.005722,-0.001839,88.908320,0.005843,
1280,1830,-0.033494,-0.655178,0.999998,0.000186,-0.000650,0.003424,0.000024,0.003424,-0.000650,89.660253,0.003637,
800,1630,0.750171,-1.811966,0.999997,0.000184,-0.002368,0.004966,0.000106,0.004967,-0.002370,89.170401,0.004969,
1070,1700,0.181001,-1.167297,0.999999,0.000145,-0.001286,0.003859,0.000139,0.003863,-0.001290,88.451937,0.003933,
860,1670,0.567136,-1.529600,0.999998,0.000161,-0.002119,0.004727,0.000102,0.004728,-0.002120,89.143570,0.004737,
1420,1200,-0.621277,-3.558956,0.999997,0.000213,-0.003708,0.006514,-0.001275,0.006671,-0.003864,-82.995044,0.006699,
960,1250,0.801448,-3.580010,0.999997,0.000214,-0.003795,0.006459,0.000252,0.006465,-0.003802,88.593073,0.006498,
1500,340,-0.329847,-8.873498,0.999998,0.000177,-0.001717,0.004269,0.000119,0.004272,-0.001719,88.865814,0.004299,
1580,1860,-0.272194,-0.656325,0.999998,0.000177,-0.001322,0.004153,0.000467,0.004193,-0.001361,85.156285,0.004278,
840,1920,0.217427,-0.431236,0.999998,0.000181,-0.000849,0.004016,-0.000778,0.004137,-0.000970,-81.131171,0.004327,
570,450,1.355645,-7.773652,0.999912,0.001130,-0.001825,0.004930,0.000100,0.004931,-0.001827,89.153166,0.004986,
750,1060,1.739725,-4.879095,0.999998,0.000171,-0.002132,0.004919,-0.000169,0.004923,-0.002136,-88.630224,0.004938,
1380,430,-0.190919,-8.632181,0.999998,0.000189,-0.001498,0.003910,0.000376,0.003936,-0.001524,86.041693,0.003969,
1840,1360,-1.607442,-3.472194,0.999997,0.000200,-0.002545,0.005065,0.000171,0.005069,-0.002549,88.713848,0.005069,
660,150,0.521556,-9.448572,0.999998,0.000203,-0.001905,0.005144,0.001032,0.005292,-0.002052,81.842462,0.005336,
1520,2020,-0.020448,-0.051151,0.999999,0.000000,-0.000128,0.003236,0.000449,0.003295,-0.000187,82.529603,0.003702,
930,530,0.542272,-7.964322,0.999998,0.000199,-0.002437,0.004883,-0.000493,0.004916,-0.002470,-86.161871,0.004916,
1010,870,0.801107,-6.244855,0.999997,0.000222,-0.003842,0.006986,-0.000450,0.007005,-0.003861,-87.624762,0.007017,
620,390,1.142079,-8.156584,0.999998,0.000174,-0.002464,0.005034,-0.000056,0.005034,-0.002465,-89.570531,0.005034,
1790,720,-1.522959,-6.546514,0.999998,0.000195,-0.002632,0.005158,-0.000289,0.005169,-0.002642,-87.878520,0.005169,
1770,440,-1.034210,-8.023665,0.999998,0.000142,-0.002483,0.005068,0.000098,0.005069,-0.002485,89.257475,0.005069,
770,210,0.471256,-9.272103,0.999997,0.000191,-0.001765,0.004724,0.000610,0.004781,-0.001822,84.671734,0.004826,
750,1160,1.636126,-4.374066,0.999997,0.000216,-0.002420,0.005200,-0.000605,0.005248,-0.002467,-85.491472,0.005251,
1590,2020,-0.027745,-0.053677,0.999999,0.000000,-0.000306,0.003474,0.000655,0.003584,-0.000416,80.437623,0.003920,
1250,160,-0.009096,-9.644449,0.999998,0.000172,-0.000460,0.003277,-0.000006,0.003277,-0.000460,-89.900436,0.003548,
1160,580,0.091874,-8.162297,0.999999,0.000149,-0.001461,0.003349,-0.000642,0.003433,-0.001545,-82.524425,0.003439,
1010,1420,0.404866,-2.458532,0.999996,0.000246,-0.002699,0.004817,0.001042,0.004959,-0.002841,82.252841,0.004976,
930,810,0.924021,-6.388807,0.999998,0.000174,-0.003610,0.006366,0.000083,0.006367,-0.003610,89.525336,0.006386,
1360,1560,-0.172713,-1.675593,0.999998,0.000163,-0.001540,0.003818,-0.000541,0.003872,-0.001594,-84.293533,0.003892,
1770,1060,-1.862164,-4.884393,0.999998,0.000147,-0.002178,0.004736,0.000155,0.004739,-0.002182,88.714569,0.004744,
1110,1430,0.173136,-2.160786,0.999998,0.000167,-0.001845,0.003706,0.001103,0.003917,-0.002056,79.159464,0.003919,
1220,460,0.015568,-8.606528,0.999998,0.000158,-0.001244,0.003496,-0.000090,0.003498,-0.001246,-88.911367,0.003546,
870,1940,0.155601,-0.341823,0.999998,0.000185,-0.000824,0.003818,-0.000701,0.003921,-0.000928,-81.598905,0.004098,
580,1560,1.396990,-2.519328,0.999997,0.000191,-0.002266,0.005145,0.000057,0.005145,-0.002266,89.559770,0.005157,
1250,660,-0.020040,-7.973103,0.999999,0.000124,-0.001098,0.002573,0.000317,0.002600,-0.001125,85.101769,0.002608,
1060,1090,0.973634,-4.233785,0.999989,0.000402,-0.003752,0.010108,0.003500,0.010942,-0.004586,76.602015,0.010990,
830,2010,0.050067,-0.090035,0.999999,0.000134,-0.000122,0.003530,-0.000868,0.003726,-0.000318,-77.289895,0.004131,
1070,340,0.174537,-8.968702,0.999998,0.000169,-0.001245,0.003811,-0.000106,0.003813,-0.001247,-88.798856,0.003888,
1650,1680,-0.656905,-1.545029,0.999998,0.000178,-0.002275,0.004899,-0.000048,0.004899,-0.002275,-89.614403,0.004904,
1500,1180,-0.992794,-4.037116,0.999998,0.000196,-0.003477,0.006698,0.000303,0.006707,-0.003486,88.297014,0.006709,
1670,1250,-1.354444,-3.860441,0.999997,0.000201,-0.002866,0.005568,0.000533,0.005601,-0.002899,86.398444,0.005602,
1840,1290,-1.730700,-3.821640,0.999998,0.000164,-0.002452,0.004934,0.000239,0.004941,-0.002460,88.147615,0.004941,
1540,1060,-1.401346,-4.853553,0.999998,0.000200,-0.001921,0.005862,0.000339,0.005876,-0.001935,87.509968,0.005989,
1540,880,-1.138289,-5.928018,0.999997,0.000199,-0.003150,0.006319,-0.000627,0.006360,-0.003191,-86.225580,0.006360,
860,1650,0.589164,-1.626399,0.999998,0.000163,-0.002171,0.004794,0.000124,0.004796,-0.002173,88.983810,0.004803,
1500,320,-0.310962,-8.960863,0.999998,0.000187,-0.001626,0.004245,0.000042,0.004245,-0.001626,89.594053,0.004284,
1760,1750,-0.799333,-1.357078,0.999998,0.000184,-0.002425,0.005024,0.000104,0.005025,-0.002427,89.200751,0.005026,
1800,370,-1.003423,-8.329028,0.999998,0.000173,-0.002455,0.005088,0.000009,0.005088,-0.002455,89.931315,0.005089,
1050,1700,0.208763,-1.184570,0.999998,0.000160,-0.001451,0.003943,0.000207,0.003951,-0.001459,87.800370,0.003996,
590,470,1.334950,-7.704735,0.999997,0.000212,-0.002411,0.005032,-0.000022,0.005032,-0.002411,-89.830137,0.005034,
780,1630,0.798298,-1.841064,0.999998,0.000149,-0.002426,0.005002,0.000118,0.005004,-0.002428,89.093240,0.005005,
680,750,1.559541,-6.398314,0.999996,0.000215,-0.002569,0.005160,0.000355,0.005176,-0.002585,87.373273,0.005176,
840,1900,0.253889,-0.511569,0.999998,0.000179,-0.001002,0.004185,-0.000741,0.004289,-0.001106,-82.023390,0.004453,
730,1060,1.782496,-4.881235,0.999998,0.000161,-0.002154,0.004862,-0.000152,0.004865,-0.002158,-88.760687,0.004875,
1380,530,-0.214143,-8.234748,0.999998,0.000155,-0.001780,0.003992,0.000727,0.004082,-0.001870,82.929098,0.004087,
1270,610,-0.046203,-8.100317,0.999999,0.000150,-0.001263,0.003011,0.000365,0.003042,-0.001294,85.156740,0.003053,
720,180,0.484377,-9.375409,0.999998,0.000179,-0.002024,0.004835,0.000714,0.004909,-0.002098,84.118876,0.004926,
1710,1870,-0.441691,-0.700491,0.999997,0.000186,-0.001578,0.004699,0.000812,0.004802,-0.001681,82.750195,0.004873,
940,1250,0.875861,-3.633652,0.999997,0.000198,-0.003683,0.006411,0.000029,0.006411,-0.003683,89.836084,0.006434,
1840,1340,-1.642132,-3.573200,0.999997,0.000195,-0.002523,0.005039,0.000197,0.005044,-0.002528,88.506586,0.005044,
1580,1840,-0.301006,-0.738314,0.999998,0.000163,-0.001432,0.004191,0.000384,0.004217,-0.001458,86.109192,0.004283,
810,490,0.805175,-7.958480,0.999998,0.000161,-0.002551,0.005067,-0.000213,0.005073,-0.002557,-88.396910,0.005073,
1520,30,-0.015368,-10.044651,0.999999,0.000000,-0.000065,0.003305,-0.000494,0.003376,-0.000136,-81.836419,0.003822,
1010,850,0.732635,-6.385347,0.999997,0.000222,-0.003935,0.006851,-0.000641,0.006889,-0.003973,-86.610942,0.006916,
1530,960,-1.325020,-5.441288,0.999997,0.000191,-0.002223,0.006106,-0.000588,0.006147,-0.002265,-85.983661,0.006218,
1860,1130,-2.010116,-4.591428,0.999998,0.000138,-0.002165,0.004502,0.000205,0.004509,-0.002171,88.239253,0.004510,
610,280,0.974730,-8.689374,0.999998,0.000194,-0.002460,0.004963,0.000032,0.004963,-0.002460,89.755819,0.004963,
1690,580,-1.018959,-7.427629,0.999998,0.000185,-0.002764,0.005289,0.000099,0.005290,-0.002765,89.298122,0.005292,
1470,280,-0.233382,-9.148237,0.999998,0.000158,-0.001156,0.003989,-0.000123,0.003992,-0.001159,-88.630305,0.004107,
770,190,0.424331,-9.369197,0.999997,0.000194,-0.001664,0.004645,0.000707,0.004723,-0.001743,83.683823,0.004777,
930,510,0.528071,-8.059063,0.999998,0.000203,-0.002307,0.004792,-0.000447,0.004820,-0.002335,-86.413561,0.004821,
1360,1540,-0.175857,-1.753019,0.999998,0.000166,-0.001623,0.003818,-0.000649,0.003894,-0.001699,-83.290025,0.003905,
1590,30,-0.020343,-10.040454,0.999999,0.000000,-0.000167,0.003327,-0.000704,0.003464,-0.000303,-79.022476,0.003837,
930,790,0.878976,-6.513191,0.999998,0.000170,-0.003631,0.006289,-0.000072,0.006289,-0.003631,-89.584625,0.006314,
1160,560,0.093519,-8.232262,0.999998,0.000141,-0.001448,0.003396,-0.000578,0.003464,-0.001516,-83.286106,0.003473,
1110,1410,0.173416,-2.232255,0.999998,0.000185,-0.001912,0.003707,0.001219,0.003960,-0.002165,78.271632,0.003966,
990,740,0.563396,-7.000977,0.999997,0.000217,-0.003600,0.005820,-0.000952,0.005915,-0.003695,-84.287370,0.005976,
1230,660,0.001688,-7.982592,0.999999,0.000121,-0.001088,0.002539,-0.000022,0.002539,-0.001088,-89.657572,0.002548,
870,1920,0.189607,-0.419091,0.999996,0.000231,-0.000975,0.003904,-0.000624,0.003983,-0.001053,-82.822732,0.004127,
1200,1920,0.012464,-0.354940,0.999998,0.000166,-0.000344,0.003192,-0.000026,0.003192,-0.000344,-89.581319,0.003504,
1670,1230,-1.394043,-3.971869,0.999997,0.000192,-0.002805,0.005517,0.000597,0.005560,-0.002848,85.916356,0.005561,
640,1490,1.349877,-2.781595,0.999997,0.000201,-0.002560,0.005124,0.000017,0.005124,-0.002560,89.872713,0.005124,
1500,300,-0.292610,-9.043531,0.999998,0.000197,-0.001549,0.004121,-0.000015,0.004121,-0.001549,-89.848954,0.004163,
580,470,1.359588,-7.689830,0.999997,0.000205,-0.001975,0.004936,-0.000012,0.004936,-0.001975,-89.898503,0.004969,
1540,1080,-1.370293,-4.734823,0.999997,0.000218,-0.002075,0.005884,0.000511,0.005916,-0.002107,86.342538,0.005997,
1380,910,-0.733753,-6.534591,0.999995,0.000257,-0.001917,0.005468,0.003340,0.006755,-0.003203,68.937537,0.006758,
570,1560,1.420648,-2.535891,0.999881,0.001287,-0.002155,0.005223,0.000080,0.005224,-0.002156,89.380689,0.005251,
1270,590,-0.045422,-8.162581,0.999998,0.000175,-0.001266,0.003125,0.000312,0.003147,-0.001287,85.961479,0.003165,
720,160,0.430372,-9.470392,0.999997,0.000181,-0.001902,0.004823,0.000852,0.004929,-0.002008,82.894403,0.004957,
840,1880,0.295339,-0.597920,0.999997,0.000191,-0.001128,0.004214,-0.000648,0.004292,-0.001205,-83.186290,0.004427,
600,1630,1.244501,-2.135000,0.999997,0.000198,-0.002481,0.005000,0.000050,0.005000,-0.002481,89.616721,0.005000,
1380,510,-0.210690,-8.315567,0.999998,0.000157,-0.001739,0.003943,0.000662,0.004019,-0.001815,83.440802,0.004025,
1620,1580,-0.705460,-1.992479,0.999998,0.000164,-0.002446,0.004974,-0.000246,0.004982,-0.002454,-88.105206,0.004982,
1550,1600,-0.522489,-1.787210,0.999998,0.000170,-0.002228,0.004713,-0.000339,0.004729,-0.002244,-87.208325,0.004731,
820,1250,1.275061,-3.833903,0.999997,0.000203,-0.003011,0.005719,-0.000521,0.005750,-0.003042,-86.599495,0.005753,
1420,1180,-0.695594,-3.691509,0.999997,0.000205,-0.003553,0.006817,-0.001290,0.006975,-0.003711,-83.014973,0.006979,
1770,660,-1.364982,-6.884905,0.999998,0.000172,-0.002648,0.005215,-0.000172,0.005219,-0.002652,-88.748741,0.005219,
1510,2020,-0.019371,-0.050510,0.999999,0.000000,-0.000171,0.003265,0.000410,0.003314,-0.000220,83.286697,0.003706,
620,550,1.379285,-7.342873,0.999997,0.000189,-0.002547,0.005107,-0.000031,0.005107,-0.002547,-89.768853,0.005107,
1840,1320,-1.677008,-3.671630,0.999997,0.000188,-0.002491,0.004944,0.000236,0.004951,-0.002499,88.185961,0.004951,
1580,2020,-0.024275,-0.052176,0.999999,0.000000,-0.000250,0.003425,0.000644,0.003535,-0.000360,80.350108,0.003891,
930,490,0.511812,-8.154586,0.999997,0.000211,-0.002230,0.004752,-0.000415,0.004777,-0.002255,-86.608686,0.004779,
1430,1540,-0.302599,-1.862210,0.999997,0.000206,-0.002016,0.004285,-0.000704,0.004363,-0.002093,-83.699848,0.004364,
960,1310,0.678251,-3.201261,0.999998,0.000178,-0.003603,0.005976,0.000616,0.006015,-0.003643,86.336934,0.006060,
1580,1820,-0.331217,-0.823196,0.999998,0.000183,-0.001526,0.004301,0.000331,0.004319,-0.001545,86.755487,0.004377,
930,770,0.834453,-6.640148,0.999998,0.000164,-0.003599,0.006222,-0.000198,0.006226,-0.003603,-88.842540,0.006252,
1360,1520,-0.178524,-1.830510,0.999998,0.000166,-0.001693,0.003808,-0.000736,0.003905,-0.001790,-82.510421,0.003910,
970,740,0.635457,-6.936647,0.999996,0.000208,-0.003585,0.005905,-0.000714,0.005958,-0.003638,-85.723783,0.006007,
1160,540,0.092539,-8.298852,0.999998,0.000146,-0.001432,0.003460,-0.000502,0.003512,-0.001483,-84.195762,0.003526,
1840,350,-1.069275,-8.363338,0.999998,0.000198,-0.002434,0.005025,0.000052,0.005025,-0.002434,89.601259,0.005026,
1010,830,0.670894,-6.517402,0.999996,0.000228,-0.003936,0.006583,-0.000804,0.006644,-0.003997,-85.654734,0.006690,
1110,1390,0.169728,-2.305641,0.999998,0.000193,-0.001996,0.003753,0.001341,0.004051,-0.002293,77.496876,0.004062,
820,990,1.594183,-5.232022,0.999998,0.000161,-0.002007,0.005140,0.000265,0.005150,-0.002017,87.882058,0.005190,
610,260,0.932822,-8.789611,0.999998,0.000194,-0.002441,0.005007,0.000077,0.005008,-0.002442,89.404101,0.005008,
1580,1510,-0.677011,-2.278793,0.999997,0.000200,-0.002640,0.005090,-0.000406,0.005111,-0.002661,-87.003806,0.005113,
1210,660,0.023008,-7.971873,0.999999,0.000134,-0.001115,0.002557,-0.000353,0.002591,-0.001149,-84.560485,0.002596,
1050,1080,1.030248,-4.421386,0.999994,0.000302,-0.004139,0.010527,0.002496,0.010940,-0.004552,80.600522,0.010991,
1200,1960,0.007743,-0.229058,0.999999,0.000153,-0.000228,0.003095,-0.000048,0.003095,-0.000228,-89.167703,0.003450,
840,2010,0.049921,-0.088557,0.999999,0.000137,-0.000099,0.003502,-0.000814,0.003677,-0.000274,-77.841067,0.004097,
1710,1850,-0.488795,-0.797860,0.999997,0.000189,-0.001720,0.004815,0.000740,0.004898,-0.001803,83.622205,0.004955,
630,560,1.367164,-7.308520,0.999997,0.000206,-0.002579,0.005100,-0.000029,0.005100,-0.002579,-89.782984,0.005100,
800,660,1.062913,-7.038529,0.999997,0.000184,-0.002966,0.005488,0.000046,0.005489,-0.002966,89.685539,0.005495,
710,1560,1.068001,-2.311142,0.999998,0.000190,-0.002544,0.005148,0.000113,0.005149,-0.002546,89.161655,0.005149,
640,1470,1.379288,-2.886231,0.999997,0.000195,-0.002574,0.005118,-0.000004,0.005118,-0.002574,-89.972382,0.005118,
1670,1210,-1.437057,-4.081933,0.999997,0.000200,-0.002735,0.005509,0.000634,0.005557,-0.002783,85.626124,0.005557,
1540,1520,-0.562581,-2.152827,0.999997,0.000205,-0.002550,0.004949,-0.000492,0.004981,-0.002582,-86.262379,0.004982,
1530,980,-1.359656,-5.321778,0.999998,0.000152,-0.002004,0.006027,-0.000461,0.006054,-0.002030,-86.727472,0.006162,
1500,280,-0.274002,-9.125480,0.999998,0.000172,-0.001474,0.004106,-0.000065,0.004107,-0.001475,-89.334954,0.004161,
1540,860,-1.082835,-6.054608,0.999997,0.000202,-0.003331,0.006350,-0.000502,0.006376,-0.003357,-87.040727,0.006379,
730,1180,1.652310,-4.281443,0.999997,0.000196,-0.002467,0.005111,-0.000545,0.005150,-0.002506,-85.910089,0.005151,
1770,640,-1.331335,-6.989563,0.999998,0.000186,-0.002654,0.005214,-0.000132,0.005216,-0.002657,-89.040395,0.005217,
1120,410,0.135068,-8.738154,0.999998,0.000167,-0.001309,0.003671,-0.000296,0.003689,-0.001327,-86.611627,0.003737,
1230,160,0.000507,-9.645246,0.999998,0.000148,-0.000471,0.003262,0.000000,0.003262,-0.000471,-89.997650,0.003526,
800,1250,1.334697,-3.853982,0.999997,0.000217,-0.002935,0.005600,-0.000534,0.005634,-0.002969,-86.436364,0.005636,
930,690,0.699154,-7.120533,0.999997,0.000204,-0.003270,0.005661,-0.000518,0.005691,-0.003300,-86.693748,0.005715,
970,1300,0.659582,-3.233068,0.999996,0.000234,-0.003639,0.006048,0.000650,0.006092,-0.003682,86.177500,0.006136,
1710,1960,-0.204985,-0.296163,0.999998,0.000166,-0.000676,0.004089,0.001168,0.004359,-0.000947,76.939738,0.004586,
1580,30,-0.018373,-10.042800,0.999999,0.000000,-0.000222,0.003305,-0.000651,0.003421,-0.000338,-79.869074,0.003770,
1550,1580,-0.539773,-1.881548,0.999998,0.000207,-0.002285,0.004749,-0.000348,0.004766,-0.002303,-87.177709,0.004767,
1380,900,-0.687505,-6.584564,0.999995,0.000254,-0.002103,0.005084,0.002953,0.006141,-0.003161,70.292529,0.006142,
1500,1160,-1.057385,-4.169122,0.999998,0.000190,-0.003230,0.006705,0.000437,0.006724,-0.003249,87.483377,0.006725,
840,1860,0.327093,-0.680609,0.999997,0.000188,-0.001254,0.004321,-0.000603,0.004385,-0.001318,-83.897480,0.004500,
1560,1510,-0.624948,-2.242300,0.999997,0.000195,-0.002635,0.005056,-0.000462,0.005084,-0.002663,-86.576239,0.005086,
1160,520,0.090071,-8.369991,0.999998,0.000172,-0.001396,0.003533,-0.000464,0.003576,-0.001439,-84.662810,0.003599,
1360,1500,-0.179339,-1.907013,0.999998,0.000155,-0.001743,0.003776,-0.000820,0.003895,-0.001862,-81.725143,0.003896,
930,750,0.794571,-6.765668,0.999997,0.000190,-0.003550,0.006096,-0.000309,0.006106,-0.003560,-88.166818,0.006134,
770,180,0.403288,-9.414461,0.999996,0.000201,-0.001600,0.004560,0.000758,0.004652,-0.001692,83.084010,0.004709,
1560,1090,-1.396814,-4.689435,0.999996,0.000235,-0.002106,0.005752,0.000575,0.005794,-0.002148,85.834997,0.005858,
1060,500,0.247287,-8.319767,0.999997,0.000180,-0.001751,0.004088,-0.000575,0.004144,-0.001807,-84.424640,0.004155,
1560,390,-0.482804,-8.585414,0.999997,0.000194,-0.002032,0.004632,0.000162,0.004636,-0.002036,88.607081,0.004647,
1840,330,-1.036725,-8.464347,0.999998,0.000205,-0.002432,0.005008,0.000060,0.005009,-0.002433,89.539413,0.005009,
1840,560,-1.386760,-7.296547,0.999997,0.000210,-0.002553,0.005128,0.000006,0.005128,-0.002553,89.956148,0.005128,
890,660,0.787875,-7.200849,0.999998,0.000187,-0.003151,0.005592,-0.000341,0.005605,-0.003164,-87.766855,0.005621,
1110,1370,0.171370,-2.380393,0.999998,0.000172,-0.002108,0.003734,0.001507,0.004099,-0.002474,76.353376,0.004129,
820,970,1.576483,-5.336774,0.999998,0.000193,-0.002112,0.005248,0.000433,0.005274,-0.002137,86.645835,0.005305,
1170,850,0.238541,-7.507400,0.999996,0.000227,-0.002761,0.001531,-0.000394,0.001567,-0.002797,-84.793819,0.002803,
1580,1800,-0.358932,-0.911274,0.999998,0.000178,-0.001642,0.004316,0.000248,0.004326,-0.001653,87.622115,0.004366,
1720,1490,-1.080050,-2.621770,0.999997,0.000197,-0.002672,0.005244,-0.000086,0.005245,-0.002673,-89.376291,0.005246,
1840,1220,-1.847875,-4.158791,0.999998,0.000147,-0.002343,0.004712,0.000304,0.004725,-0.002356,87.538563,0.004725,
1010,810,0.617851,-6.644706,0.999996,0.000231,-0.003911,0.006328,-0.000913,0.006409,-0.003992,-84.944111,0.006473,
810,1440,0.964852,-2.780069,0.999998,0.000138,-0.002882,0.005386,0.000106,0.005387,-0.002883,89.265494,0.005392,
830,1060,1.575916,-4.871346,0.999997,0.000190,-0.002019,0.005177,-0.000241,0.005185,-0.002027,-88.081607,0.005227,
1780,150,-0.476155,-9.474948,0.999996,0.000229,-0.001990,0.004999,-0.000977,0.005133,-0.002124,-82.186407,0.005158,
1540,1500,-0.580673,-2.254761,0.999997,0.000202,-0.002655,0.005020,-0.000533,0.005056,-0.002692,-86.046958,0.005060,
770,170,0.381892,-9.458234,0.999997,0.000194,-0.001533,0.004544,0.000836,0.004657,-0.001646,82.306514,0.004724,
1430,1520,-0.309211,-1.949783,0.999998,0.000176,-0.002084,0.004333,-0.000760,0.004422,-0.002172,-83.338484,0.004422,
1840,580,-1.416615,-7.192927,0.999997,0.000200,-0.002583,0.005087,-0.000009,0.005087,-0.002583,-89.929462,0.005087,
720,140,0.371977,-9.567706,0.999997,0.000185,-0.001760,0.004721,0.000979,0.004866,-0.001904,81.595816,0.004904,
1760,240,-0.669363,-9.050329,0.999998,0.000192,-0.002351,0.004977,-0.000314,0.004991,-0.002364,-87.550737,0.004993,
1500,260,-0.255327,-9.208622,0.999998,0.000163,-0.001392,0.004005,-0.000107,0.004007,-0.001394,-88.862562,0.004068,
1270,570,-0.048149,-8.225359,0.999999,0.000175,-0.001262,0.003207,0.000285,0.003225,-0.001280,86.369112,0.003248,
1420,1160,-0.780010,-3.827829,0.999996,0.000224,-0.003448,0.006920,-0.001335,0.007090,-0.003618,-82.780785,0.007090,
1050,620,0.296745,-7.796364,0.999997,0.000190,-0.002317,0.004363,-0.001117,0.004545,-0.002499,-80.755925,0.004552,
1160,510,0.091891,-8.407474,0.999998,0.000163,-0.001372,0.003533,-0.000434,0.003572,-0.001411,-84.982330,0.003598,
1210,1850,0.015203,-0.585339,0.999998,0.000193,-0.000624,0.003352,0.000003,0.003352,-0.000624,89.961367,0.003565,
670,1560,1.169579,-2.374882,0.999998,0.000170,-0.002576,0.005135,0.000085,0.005136,-0.002577,89.368275,0.005136,
870,1390,0.857349,-2.946713,0.999998,0.000163,-0.003121,0.005561,0.000225,0.005567,-0.003127,88.516227,0.005581,
1040,910,0.853748,-6.125366,0.999997,0.000224,-0.003351,0.007164,-0.001294,0.007321,-0.003508,-83.084541,0.007324,
1670,180,-0.364663,-9.433289,0.999997,0.000189,-0.001626,0.004448,-0.000671,0.004521,-0.001700,-83.770475,0.004568,
840,1840,0.365749,-0.770271,0.999997,0.000183,-0.001379,0.004363,-0.000544,0.004414,-0.001430,-84.636543,0.004504,
1040,690,0.350489,-7.444663,0.999996,0.000228,-0.002881,0.004892,-0.001409,0.005140,-0.003129,-80.036338,0.005180,
1070,50,0.014710,-9.984923,0.999999,0.000158,-0.000132,0.003119,0.000216,0.003133,-0.000146,86.214741,0.003536,
970,810,0.774699,-6.497795,0.999997,0.000207,-0.003844,0.006517,-0.000340,0.006528,-0.003855,-88.123386,0.006564,
1540,390,-0.443034,-8.611550,0.999997,0.000190,-0.001890,0.004530,0.000156,0.004533,-0.001894,88.612430,0.004554,
1570,2020,-0.021878,-0.053128,0.999999,0.000000,-0.000154,0.003369,0.000650,0.003485,-0.000270,79.873454,0.003878,
1160,500,0.091488,-8.442677,0.999998,0.000151,-0.001361,0.003538,-0.000398,0.003570,-0.001393,-85.387124,0.003598,
1670,1190,-1.474546,-4.192134,0.999998,0.000206,-0.002632,0.005448,0.000614,0.005494,-0.002678,85.676582,0.005495,
1380,1950,-0.040613,-0.268311,0.999999,0.000158,-0.000258,0.003237,0.000223,0.003251,-0.000272,86.370989,0.003607,
1050,1070,1.051170,-4.527342,0.999994,0.000288,-0.004424,0.011366,0.002125,0.011647,-0.004705,82.468243,0.011718,
1430,1010,-1.159990,-5.215887,0.999993,0.000341,-0.004083,0.010286,0.000543,0.010306,-0.004103,87.840494,0.010378,
800,1680,0.684596,-1.564722,0.999997,0.000196,-0.002316,0.004925,0.000068,0.004926,-0.002317,89.459008,0.004929,
1710,1830,-0.532352,-0.895745,0.999998,0.000165,-0.001848,0.004777,0.000624,0.004836,-0.001906,84.669723,0.004872,
590,1880,0.763653,-0.909959,0.999998,0.000187,-0.002503,0.005107,-0.000358,0.005123,-0.002519,-87.314497,0.005124,
1450,360,-0.267004,-8.842767,0.999998,0.000174,-0.001473,0.004065,0.000154,0.004070,-0.001477,88.409311,0.004120,
1540,840,-1.027066,-6.181468,0.999997,0.000222,-0.003455,0.006364,-0.000362,0.006377,-0.003469,-87.891761,0.006385,
1620,1560,-0.727181,-2.094876,0.999998,0.000175,-0.002518,0.005028,-0.000272,0.005038,-0.002528,-87.934657,0.005038,
1600,1110,-1.451970,-4.595188,0.999997,0.000214,-0.002263,0.005509,0.000602,0.005555,-0.002310,85.600464,0.005581,
620,1490,1.401574,-2.813430,0.999997,0.000198,-0.002556,0.005117,0.000001,0.005117,-0.002556,89.994635,0.005117,
1060,480,0.242810,-8.402776,0.999997,0.000203,-0.001729,0.004064,-0.000554,0.004116,-0.001781,-84.581192,0.004129,
1770,300,-0.813934,-8.731277,0.999998,0.000170,-0.002397,0.005058,-0.000120,0.005060,-0.002399,-89.079299,0.005062,
930,730,0.760184,-6.887421,0.999997,0.000202,-0.003458,0.005917,-0.000390,0.005933,-0.003475,-87.622528,0.005962,
770,1260,1.400972,-3.828150,0.999996,0.000242,-0.002832,0.005460,-0.000533,0.005495,-0.002866,-86.337981,0.005496,
760,630,1.131026,-7.139640,0.999998,0.000174,-0.002806,0.005332,0.000015,0.005332,-0.002806,89.891865,0.005335,
1160,850,0.262692,-7.446411,0.999997,0.000197,-0.002397,0.001665,-0.000685,0.001777,-0.002510,-80.684714,0.002581,
1360,1480,-0.183003,-1.983063,0.999998,0.000160,-0.001788,0.003818,-0.000886,0.003954,-0.001924,-81.231185,0.003955,
730,980,1.776707,-5.271902,0.999998,0.000158,-0.002165,0.004865,0.000200,0.004870,-0.002171,88.375121,0.004880,
1110,1570,0.161330,-1.632063,0.999998,0.000141,-0.001485,0.003742,0.000426,0.003777,-0.001519,85.375801,0.003801,
1480,1570,-0.392524,-1.814377,0.999998,0.000183,-0.002023,0.004464,-0.000488,0.004501,-0.002059,-85.723460,0.004506,
1840,1300,-1.712891,-3.771087,0.999998,0.000174,-0.002455,0.004913,0.000236,0.004920,-0.002462,88.170951,0.004920,
1700,1490,-1.026170,-2.590430,0.999998,0.000179,-0.002734,0.005257,-0.000088,0.005257,-0.002735,-89.366620,0.005259,
1540,1480,-0.598247,-2.357684,0.999997,0.000209,-0.002708,0.005098,-0.000540,0.005135,-0.002745,-86.058551,0.005140,
1010,790,0.575985,-6.770618,0.999996,0.000232,-0.003854,0.006181,-0.001018,0.006284,-0.003957,-84.264456,0.006354,
1840,1200,-1.878754,-4.253462,0.999998,0.000152,-0.002325,0.004768,0.000334,0.004784,-0.002341,87.313289,0.004784,
1580,1780,-0.386434,-0.996213,0.999998,0.000176,-0.001732,0.004347,0.000184,0.004352,-0.001738,88.263921,0.004382,
1710,1980,-0.152204,-0.215413,0.999998,0.000147,-0.000521,0.003984,0.001205,0.004286,-0.000823,75.928563,0.004549,
810,1060,1.615594,-4.872935,0.999998,0.000174,-0.002039,0.005113,-0.000201,0.005119,-0.002045,-88.389623,0.005153,
1840,1000,-2.015486,-5.163690,0.999998,0.000174,-0.002138,0.004455,-0.000150,0.004458,-0.002141,-88.700268,0.004459,
790,1440,1.023156,-2.812282,0.999998,0.000175,-0.002841,0.005406,0.000067,0.005406,-0.002841,89.531903,0.005409,
1760,150,-0.436481,-9.498390,0.999997,0.000214,-0.002016,0.004867,-0.000889,0.004980,-0.002129,-82.754186,0.004997,
770,150,0.329891,-9.551744,0.999998,0.000173,-0.001390,0.004503,0.000922,0.004644,-0.001531,81.311784,0.004733,
580,1760,1.076393,-1.523560,0.999998,0.000174,-0.002313,0.004929,0.000070,0.004930,-0.002314,89.449133,0.004933,
720,120,0.312966,-9.659642,0.999998,0.000177,-0.001576,0.004612,0.001137,0.004815,-0.001778,79.907928,0.004869,
1210,1830,0.015229,-0.652194,0.999998,0.000162,-0.000707,0.003373,0.000038,0.003374,-0.000707,89.460665,0.003558,
1140,510,0.119958,-8.384261,0.999998,0.000159,-0.001492,0.003607,-0.000462,0.003649,-0.001533,-84.868010,0.003664,
910,520,0.583503,-7.976178,0.999997,0.000213,-0.002496,0.004946,-0.000439,0.004971,-0.002522,-86.635489,0.004972,
1020,1610,0.299103,-1.582577,0.999998,0.000174,-0.001748,0.004200,0.000419,0.004230,-0.001778,85.989613,0.004247,
1270,550,-0.047854,-8.289214,0.999998,0.000160,-0.001245,0.003277,0.000251,0.003291,-0.001259,86.832617,0.003321,
1420,1140,-0.862252,-3.976110,0.999996,0.000219,-0.003318,0.007154,-0.001498,0.007365,-0.003528,-82.015437,0.007367,
1500,1140,-1.121208,-4.303654,0.999998,0.000177,-0.002985,0.006677,0.000510,0.006704,-0.003012,86.985670,0.006715,
1450,340,-0.253978,-8.919866,0.999998,0.000161,-0.001394,0.003984,0.000084,0.003985,-0.001396,89.104965,0.004044,
1400,1950,-0.046610,-0.269042,0.999998,0.000168,-0.000346,0.003282,0.000246,0.003299,-0.000363,86.139913,0.003618,
1670,1170,-1.510939,-4.299750,0.999997,0.000229,-0.002540,0.005369,0.000620,0.005417,-0.002588,85.543525,0.005419,
850,130,0.200319,-9.673271,0.999998,0.000181,-0.000842,0.003955,0.000744,0.004067,-0.000955,81.378080,0.004254,
1050,1060,1.064776,-4.645073,0.999993,0.000343,-0.004689,0.012010,0.001661,0.012174,-0.004853,84.375411,0.012257,
1160,1290,0.090240,-2.455276,0.999998,0.000193,-0.001735,0.002433,0.001757,0.003075,-0.002377,69.929047,0.003224,
980,1830,0.198325,-0.722292,0.999998,0.000161,-0.001064,0.003864,-0.000222,0.003874,-0.001074,-87.427388,0.004000,
1710,1810,-0.575160,-0.989408,0.999998,0.000166,-0.001966,0.004864,0.000508,0.004901,-0.002003,85.771724,0.004929,
650,1560,1.220860,-2.406736,0.999997,0.000202,-0.002536,0.005107,0.000087,0.005108,-0.002537,89.345414,0.005108,
1540,820,-0.975416,-6.308332,0.999997,0.000197,-0.003547,0.006351,-0.000218,0.006356,-0.003551,-88.737595,0.006370,
1620,1540,-0.748062,-2.195015,0.999998,0.000193,-0.002589,0.005086,-0.000291,0.005097,-0.002600,-87.834456,0.005097,
800,1640,0.736613,-1.762671,0.999997,0.000198,-0.002351,0.004959,0.000096,0.004960,-0.002353,89.247200,0.004963,
1070,940,0.879649,-6.178418,0.999994,0.000306,-0.002622,0.008133,-0.003790,0.009334,-0.003824,-72.413214,0.009385,
880,410,0.552083,-8.458459,0.999996,0.000235,-0.002150,0.004728,-0.000179,0.004733,-0.002154,-88.508172,0.004739,
1060,460,0.237920,-8.484115,0.999998,0.000179,-0.001702,0.004040,-0.000491,0.004081,-0.001743,-85.147942,0.004096,
930,450,0.478303,-8.344641,0.999998,0.000189,-0.002206,0.004652,-0.000368,0.004672,-0.002226,-86.933613,0.004674,
1040,1890,0.100078,-0.479470,0.999998,0.000200,-0.000650,0.003519,-0.000210,0.003530,-0.000661,-87.126218,0.003753,
770,1240,1.440498,-3.936722,0.999997,0.000241,-0.002793,0.005374,-0.000552,0.005411,-0.002830,-86.147960,0.005413,
760,610,1.099568,-7.246576,0.999997,0.000200,-0.002760,0.005344,-0.000025,0.005344,-0.002760,-89.823363,0.005345,
1550,980,-1.398436,-5.310596,0.999997,0.000200,-0.001944,0.005788,-0.000475,0.005818,-0.001973,-86.496254,0.005917,
1770,280,-0.777164,-8.833121,0.999997,0.000179,-0.002381,0.005045,-0.000183,0.005050,-0.002386,-88.588331,0.005052,
670,720,1.530788,-6.543180,0.999997,0.000195,-0.002583,0.005147,0.000284,0.005158,-0.002594,87.896103,0.005158,
1010,1210,0.717459,-3.663532,0.999997,0.000226,-0.003942,0.006774,0.000704,0.006820,-0.003988,86.256285,0.006853,
1840,1020,-2.024039,-5.073750,0.999998,0.000166,-0.002139,0.004498,-0.000071,0.004498,-0.002139,-89.383316,0.004500,
1710,2010,-0.076644,-0.099871,0.999998,0.000183,-0.000175,0.003760,0.001254,0.004125,-0.000540,73.746500,0.004484,
1540,1460,-0.617036,-2.458680,0.999997,0.000213,-0.002784,0.005181,-0.000554,0.005219,-0.002822,-86.037859,0.005225,
1820,1210,-1.814628,-4.189913,0.999999,0.000141,-0.002375,0.004803,0.000393,0.004824,-0.002396,86.877212,0.004824,
940,1090,1.317841,-4.662871,0.999996,0.000223,-0.002231,0.006142,-0.000539,0.006177,-0.002266,-86.331078,0.006249,
1270,530,-0.048181,-8.355154,0.999998,0.000156,-0.001253,0.003358,0.000210,0.003368,-0.001263,87.396894,0.003403,
720,100,0.248795,-9.751340,0.999998,0.000172,-0.001422,0.004326,0.001136,0.004543,-0.001639,79.216624,0.004601,
1700,250,-0.565628,-9.074762,0.999998,0.000185,-0.001990,0.004813,-0.000442,0.004842,-0.002019,-86.296242,0.004864,
1210,1810,0.016954,-0.719814,0.999998,0.000159,-0.000774,0.003424,0.000023,0.003424,-0.000774,89.690287,0.003591,
1240,510,-0.010564,-8.434938,0.999998,0.000175,-0.001267,0.003381,0.000094,0.003383,-0.001269,88.840367,0.003418,
770,130,0.287739,-9.640741,0.999998,0.000167,-0.001155,0.004336,0.001009,0.004515,-0.001334,79.912254,0.004639,
1430,340,-0.225758,-8.938727,0.999998,0.000171,-0.001440,0.003920,0.000148,0.003924,-0.001444,88.420075,0.003969,
1630,1620,-0.684835,-1.811454,0.999997,0.000204,-0.002348,0.004927,-0.000182,0.004932,-0.002353,-88.565993,0.004934,
1420,1120,-0.945792,-4.131173,0.999996,0.000237,-0.003312,0.007618,-0.001798,0.007906,-0.003600,-80.896554,0.007917,
860,410,0.594342,-8.431712,0.999998,0.000182,-0.002188,0.004777,-0.000139,0.004780,-0.002191,-88.858213,0.004785,
1540,800,-0.925662,-6.436040,0.999997,0.000207,-0.003582,0.006333,-0.000068,0.006333,-0.003582,-89.605440,0.006351,
1050,990,1.059871,-5.494744,0.999990,0.000380,-0.004366,0.011493,-0.001992,0.011739,-0.004612,-82.950118,0.011828,
800,1100,1.601788,-4.669935,0.999997,0.000179,-0.002205,0.005175,-0.000485,0.005206,-0.002237,-86.257399,0.005224,
1370,900,-0.667121,-6.696213,0.999996,0.000256,-0.001686,0.004525,0.003019,0.005750,-0.002912,67.903669,0.005750,
1720,60,-0.117244,-9.921906,0.999998,0.000149,-0.000408,0.003929,-0.001289,0.004283,-0.000762,-74.632552,0.004570,
930,710,0.728996,-7.003647,0.999997,0.000193,-0.003374,0.005803,-0.000440,0.005824,-0.003395,-87.263127,0.005851,
1350,40,-0.009090,-10.017641,0.999999,0.000125,-0.000067,0.003013,-0.000153,0.003020,-0.000075,-87.160617,0.003445,
1060,440,0.230557,-8.564137,0.999998,0.000177,-0.001658,0.004015,-0.000440,0.004049,-0.001692,-85.591954,0.004067,
1040,1950,0.055700,-0.273717,0.999999,0.000147,-0.000429,0.003350,-0.000276,0.003370,-0.000449,-85.849950,0.003660,
950,1180,1.036249,-4.068297,0.999997,0.000217,-0.003384,0.006555,-0.000419,0.006573,-0.003402,-87.590987,0.006574,
1070,1500,0.240851,-1.965607,0.999998,0.000175,-0.001887,0.004057,0.000797,0.004162,-0.001991,82.495620,0.004164,
1460,1570,-0.351146,-1.782463,0.999997,0.000197,-0.002028,0.004387,-0.000552,0.004434,-0.002075,-85.121097,0.004437,
840,1820,0.396820,-0.857431,0.999998,0.000180,-0.001506,0.004495,-0.000468,0.004532,-0.001542,-85.564143,0.004608,
1160,1210,0.233490,-2.626370,0.999997,0.000195,-0.002380,0.001810,0.000830,0.001968,-0.002539,79.196159,0.002664,
1010,1230,0.657307,-3.531583,0.999996,0.000242,-0.003918,0.006534,0.000831,0.006599,-0.003984,85.480734,0.006646,
1540,1440,-0.634360,-2.564664,0.999997,0.000219,-0.002897,0.005274,-0.000557,0.005312,-0.002935,-86.118693,0.005322,
850,1300,1.077385,-3.501473,0.999997,0.000180,-0.003244,0.005832,-0.000228,0.005838,-0.003250,-88.558800,0.005850,
920,1090,1.361019,-4.677833,0.999997,0.000218,-0.002152,0.005897,-0.000570,0.005938,-0.002192,-85.967866,0.006005,
1800,1210,-1.768598,-4.173003,0.999997,0.000193,-0.002370,0.004891,0.000401,0.004913,-0.002392,86.849875,0.004914,
1140,1830,0.060828,-0.661940,0.999998,0.000172,-0.000774,0.003439,-0.000013,0.003439,-0.000774,-89.820149,0.003608,
1710,2000,-0.101439,-0.137806,0.999998,0.000161,-0.000301,0.003830,0.001230,0.004169,-0.000640,74.615108,0.004490,
1830,1830,-0.796784,-1.065415,0.999998,0.000178,-0.002379,0.005107,0.000252,0.005115,-0.002387,88.076504,0.005119,
1670,1150,-1.548188,-4.408028,0.999997,0.000218,-0.002459,0.005352,0.000642,0.005404,-0.002512,85.336156,0.005409,
1540,1350,-0.744967,-3.062562,0.999998,0.000178,-0.003362,0.005780,-0.000410,0.005798,-0.003381,-87.438049,0.005825,
1000,1610,0.334837,-1.612444,0.999997,0.000200,-0.001927,0.004349,0.000445,0.004380,-0.001958,85.967193,0.004388,
910,500,0.564905,-8.075533,0.999998,0.000192,-0.002402,0.004860,-0.000401,0.004882,-0.002424,-86.849059,0.004882,
720,80,0.191705,-9.830578,0.999997,0.000180,-0.001128,0.004143,0.001253,0.004426,-0.001410,77.282041,0.004522,
1270,510,-0.048488,-8.423314,0.999998,0.000158,-0.001257,0.003426,0.000171,0.003432,-0.001263,87.913437,0.003472,
1750,300,-0.766312,-8.765522,0.999998,0.000193,-0.002391,0.005008,-0.000120,0.005010,-0.002393,-89.073182,0.005012,
760,1300,1.350835,-3.618636,0.999998,0.000193,-0.002854,0.005461,-0.000400,0.005481,-0.002873,-87.253142,0.005483,
1210,1790,0.016962,-0.789569,0.999998,0.000165,-0.000841,0.003489,0.000034,0.003489,-0.000841,89.547993,0.003642,
860,430,0.615406,-8.335446,0.999998,0.000249,-0.002266,0.004857,-0.000205,0.004863,-0.002272,-88.350341,0.004866,
950,740,0.706277,-6.879908,0.999997,0.000189,-0.003576,0.005965,-0.000529,0.005994,-0.003605,-86.833937,0.006035,
1140,550,0.121855,-8.240901,0.999998,0.000165,-0.001479,0.003526,-0.000559,0.003587,-0.001541,-83.707724,0.003599,
800,1080,1.626217,-4.772369,0.999998,0.000172,-0.002124,0.005114,-0.000342,0.005130,-0.002140,-87.300435,0.005153,
1540,780,-0.880932,-6.565115,0.999998,0.000182,-0.003585,0.006233,0.000063,0.006233,-0.003586,89.630613,0.006257,
1350,340,-0.125432,-8.992929,0.999999,0.000151,-0.001155,0.003691,0.000159,0.003697,-0.001160,88.122290,0.003781,
1760,1810,-0.680786,-1.055202,0.999997,0.000212,-0.002310,0.005020,0.000308,0.005033,-0.002323,87.597277,0.005038,
1640,850,-1.363348,-5.993176,0.999996,0.000227,-0.002846,0.005652,-0.000653,0.005702,-0.002896,-85.635052,0.005702,
1150,1500,0.106785,-1.844781,0.999998,0.000156,-0.001456,0.003473,0.000592,0.003543,-0.001526,83.244294,0.003554,
1500,600,-0.509874,-7.682251,0.999997,0.000210,-0.002749,0.005029,0.000767,0.005104,-0.002824,84.420900,0.005114,
1710,250,-0.585761,-9.064672,0.999997,0.000195,-0.001974,0.004861,-0.000481,0.004895,-0.002007,-85.998218,0.004921,
1360,1160,-0.622822,-3.254970,0.999994,0.000278,-0.001450,0.003839,-0.002773,0.005026,-0.002637,-66.817795,0.005028,
1060,660,0.282389,-7.649355,0.999998,0.000172,-0.002494,0.004459,-0.001346,0.004710,-0.002745,-79.417399,0.004732,
1340,1690,-0.119709,-1.171850,0.999998,0.000165,-0.001242,0.003731,-0.000197,0.003739,-0.001250,-87.731872,0.003806,
1720,370,-0.808335,-8.457858,0.999998,0.000188,-0.002359,0.005048,-0.000019,0.005048,-0.002359,-89.851134,0.005052,
970,50,0.027884,-9.981368,0.999999,0.000148,-0.000244,0.003255,0.000396,0.003300,-0.000289,83.624421,0.003655,
1420,940,-0.962691,-5.912495,0.999996,0.000245,-0.003359,0.007795,0.001880,0.008104,-0.003668,80.685007,0.008116,
1500,240,-0.235001,-9.287844,0.999998,0.000159,-0.001291,0.003984,-0.000205,0.003992,-0.001299,-87.778520,0.004072,
1060,1950,0.046630,-0.269775,0.999999,0.000143,-0.000381,0.003294,-0.000234,0.003309,-0.000396,-86.367603,0.003614,
1350,1170,-0.554446,-3.111002,0.999997,0.000217,-0.001317,0.003082,-0.002351,0.004102,-0.002337,-66.549130,0.004115,
950,1300,0.730820,-3.289344,0.999998,0.000160,-0.003635,0.006093,0.000485,0.006117,-0.003659,87.151113,0.006156,
840,1780,0.461740,-1.037223,0.999997,0.000192,-0.001705,0.004537,-0.000304,0.004552,-0.001720,-87.222169,0.004597,
1050,460,0.254436,-8.470936,0.999998,0.000181,-0.001678,0.004061,-0.000456,0.004097,-0.001714,-85.489387,0.004115,
1010,820,0.644705,-6.582469,0.999996,0.000237,-0.003920,0.006445,-0.000855,0.006515,-0.003990,-85.315317,0.006570,
1110,160,0.057747,-9.634486,0.999998,0.000146,-0.000493,0.003369,0.000143,0.003375,-0.000498,87.878509,0.003643,
1030,2010,0.018276,-0.079855,0.999998,0.000150,-0.000133,0.003098,-0.000286,0.003123,-0.000158,-84.988088,0.003518,
1830,1810,-0.844566,-1.167184,0.999998,0.000176,-0.002380,0.005071,0.000157,0.005074,-0.002384,88.792835,0.005077,
930,670,0.673090,-7.233477,0.999997,0.000200,-0.003176,0.005583,-0.000563,0.005619,-0.003212,-86.338368,0.005638,
1540,1420,-0.656360,-2.670870,0.999997,0.000198,-0.003036,0.005368,-0.000554,0.005404,-0.003073,-86.245237,0.005421,
1670,1130,-1.580390,-4.514057,0.999997,0.000208,-0.002345,0.005231,0.000553,0.005271,-0.002385,85.850563,0.005279,
1520,1350,-0.677911,-3.014766,0.999997,0.000208,-0.003391,0.005748,-0.000567,0.005783,-0.003426,-86.464612,0.005816,
1010,1250,0.604818,-3.402326,0.999996,0.000232,-0.003874,0.006294,0.000965,0.006384,-0.003965,84.625556,0.006447,
1780,1150,-1.810061,-4.454692,0.999998,0.000207,-0.002323,0.004834,0.000359,0.004852,-0.002341,87.133351,0.004853,
740,2010,0.076434,-0.100629,0.999998,0.000147,-0.000185,0.003878,-0.001331,0.004275,-0.000582,-73.382959,0.004638,
1760,680,-1.372526,-6.794202,0.999997,0.000205,-0.002689,0.005246,-0.000197,0.005251,-0.002694,-88.581329,0.005251,
640,1010,1.982662,-5.120714,0.999999,0.000138,-0.002155,0.004577,0.000132,0.004580,-0.002158,88.875192,0.004582,
1320,1830,-0.059468,-0.660050,0.999999,0.000146,-0.000728,0.003439,0.000036,0.003439,-0.000729,89.503816,0.003625,
770,110,0.229613,-9.726175,0.999997,0.000185,-0.000951,0.004286,0.001111,0.004512,-0.001176,78.503895,0.004681,
1540,760,-0.838927,-6.687453,0.999998,0.000181,-0.003569,0.006113,0.000167,0.006115,-0.003572,89.014180,0.006144,
1590,1300,-1.001891,-3.463008,0.999999,0.000126,-0.003318,0.005944,0.000106,0.005945,-0.003319,89.345541,0.005959,
1160,300,0.065776,-9.159925,0.999999,0.000135,-0.000892,0.003530,-0.000005,0.003530,-0.000892,-89.932565,0.003671,
1130,340,0.106304,-9.004232,0.999999,0.000136,-0.001166,0.003625,-0.000163,0.003630,-0.001172,-88.052955,0.003706,
1140,530,0.122283,-8.313048,0.999998,0.000180,-0.001496,0.003585,-0.000509,0.003635,-0.001546,-84.336669,0.003649,
720,60,0.129032,-9.916743,0.999997,0.000195,-0.000810,0.004149,0.001431,0.004532,-0.001193,75.000655,0.004698,
1270,490,-0.047688,-8.492129,0.999998,0.000143,-0.001247,0.003468,0.000162,0.003473,-0.001253,88.034529,0.003518,
800,1060,1.635868,-4.874612,0.999998,0.000181,-0.002048,0.005080,-0.000183,0.005085,-0.002053,-88.530779,0.005116,
1210,1770,0.019952,-0.860273,0.999999,0.000141,-0.000898,0.003485,0.000042,0.003486,-0.000899,89.446802,0.003620,
950,720,0.676109,-6.996472,0.999997,0.000208,-0.003493,0.005815,-0.000588,0.005852,-0.003530,-86.401309,0.005893,
1300,1690,-0.073171,-1.151130,0.999999,0.000137,-0.001067,0.003603,-0.000071,0.003604,-0.001068,-89.126662,0.003702,
1540,230,-0.271668,-9.304547,0.999998,0.000190,-0.001164,0.004138,-0.000340,0.004160,-0.001186,-86.350889,0.004286,
1710,1270,-1.428413,-3.790390,0.999998,0.000207,-0.002768,0.005412,0.000462,0.005438,-0.002794,86.776940,0.005439,
1060,970,0.983995,-5.793080,0.999994,0.000278,-0.003822,0.010607,-0.003241,0.011302,-0.004517,-77.905057,0.011378,
1470,1660,-0.317978,-1.403996,0.999998,0.000177,-0.001707,0.004266,-0.000261,0.004277,-0.001719,-87.504343,0.004305,
1130,1500,0.135812,-1.868522,0.999998,0.000155,-0.001540,0.003561,0.000619,0.003635,-0.001614,83.176850,0.003643,
1060,420,0.223554,-8.644207,0.999998,0.000176,-0.001630,0.004010,-0.000391,0.004037,-0.001657,-86.052222,0.004058,
1430,1020,-1.165430,-5.115603,0.999993,0.000316,-0.004162,0.010236,0.000236,0.010240,-0.004166,89.063096,0.010299,
1300,1950,-0.017248,-0.260932,0.999998,0.000177,-0.000221,0.003169,0.000084,0.003171,-0.000223,88.575391,0.003540,
970,40,0.018936,-10.013751,0.999999,0.000152,-0.000203,0.003241,0.000389,0.003284,-0.000247,83.636006,0.003658,
1620,1520,-0.772919,-2.297424,0.999997,0.000194,-0.002637,0.005203,-0.000282,0.005213,-0.002647,-87.941841,0.005214,
1420,920,-0.883442,-6.065246,0.999997,0.000201,-0.003256,0.007207,0.001576,0.007439,-0.003489,81.617831,0.007444,
840,1760,0.492725,-1.132849,0.999997,0.000206,-0.001787,0.004649,-0.000224,0.004657,-0.001795,-88.009681,0.004698,
930,1300,0.804450,-3.345403,0.999998,0.000179,-0.003591,0.006096,0.000285,0.006104,-0.003599,88.314937,0.006137,
930,650,0.652470,-7.343146,0.999997,0.000200,-0.003074,0.005458,-0.000596,0.005500,-0.003116,-86.022624,0.005516,
1540,1400,-0.678793,-2.779798,0.999997,0.000199,-0.003144,0.005519,-0.000539,0.005552,-0.003178,-86.451368,0.005572,
1010,1270,0.565649,-3.279504,0.999997,0.000209,-0.003825,0.006146,0.001049,0.006255,-0.003935,84.057646,0.006325,
900,1490,0.650830,-2.349241,0.999997,0.000224,-0.002693,0.005146,0.000449,0.005172,-0.002718,86.735753,0.005174,
1670,1110,-1.604916,-4.617295,0.999997,0.000201,-0.002220,0.005186,0.000497,0.005220,-0.002253,86.179636,0.005236,
980,770,0.649034,-6.786405,0.999996,0.000241,-0.003744,0.006150,-0.000691,0.006198,-0.003792,-86.026752,0.006249,
1870,1470,-1.501400,-2.958078,0.999997,0.000193,-0.002542,0.005070,0.000002,0.005070,-0.002542,89.982370,0.005070,
770,70,0.129972,-9.888402,0.999998,0.000169,-0.000576,0.003873,0.001123,0.004140,-0.000843,76.605568,0.004375,
1830,1790,-0.888764,-1.268446,0.999998,0.000168,-0.002402,0.005041,0.000122,0.005043,-0.002404,89.063033,0.005045,
1570,1300,-0.934925,-3.425835,0.999997,0.000180,-0.003397,0.006014,0.000010,0.006014,-0.003397,89.941813,0.006031,
730,960,1.763327,-5.371614,0.999997,0.000196,-0.002224,0.004957,0.000359,0.004975,-0.002242,87.146346,0.004983,
1360,1830,-0.091057,-0.672943,0.999998,0.000157,-0.000776,0.003525,0.000069,0.003526,-0.000777,89.081783,0.003705,
580,1620,1.308433,-2.214022,0.999997,0.000188,-0.002000,0.005081,-0.000285,0.005093,-0.002011,-87.695237,0.005130,
1500,1330,-0.636404,-3.075159,0.999997,0.000193,-0.003517,0.005815,-0.000701,0.005867,-0.003569,-85.725267,0.005913,
1070,40,0.009860,-10.016336,0.999999,0.000135,-0.000098,0.003107,0.000209,0.003120,-0.000112,86.278675,0.003540,
970,830,0.827642,-6.367057,0.999998,0.000190,-0.003828,0.006658,-0.000175,0.006661,-0.003831,-89.045620,0.006686,
710,1990,0.157324,-0.190065,0.999998,0.000174,-0.001002,0.004335,-0.001484,0.004720,-0.001387,-75.459220,0.004852,
1440,470,-0.303875,-8.395308,0.999997,0.000198,-0.001857,0.004264,0.000534,0.004311,-0.001903,85.052668,0.004320,
800,1040,1.646128,-4.975103,0.999997,0.000181,-0.002019,0.005077,-0.000132,0.005079,-0.002021,-88.936368,0.005115,
1270,470,-0.048763,-8.562362,0.999998,0.000149,-0.001246,0.003517,0.000148,0.003521,-0.001251,88.224713,0.003570,
1280,510,-0.061104,-8.419814,0.999998,0.000156,-0.001284,0.003454,0.000209,0.003463,-0.001293,87.473410,0.003500,
1540,740,-0.799950,-6.811607,0.999998,0.000216,-0.003528,0.006005,0.000285,0.006013,-0.003536,88.291897,0.006044,
1360,1460,-0.184618,-2.062049,0.999998,0.000170,-0.001833,0.003804,-0.000959,0.003962,-0.001992,-80.605356,0.003962,
1210,1750,0.020377,-0.928721,0.999999,0.000149,-0.000937,0.003483,0.000067,0.003484,-0.000938,89.134162,0.003606,
1370,910,-0.718969,-6.651247,0.999994,0.000307,-0.001578,0.004976,0.003419,0.006435,-0.003037,66.893742,0.006438,
900,1070,1.431999,-4.803554,0.999998,0.000201,-0.001934,0.005661,-0.000413,0.005683,-0.001956,-86.898988,0.005774,
750,740,1.351983,-6.532244,0.999997,0.000261,-0.002825,0.005403,0.000368,0.005420,-0.002841,87.443907,0.005422,
1410,1420,-0.294087,-2.341891,0.999998,0.000178,-0.002378,0.004375,-0.001181,0.004576,-0.002579,-80.358759,0.004588,
1520,230,-0.247973,-9.316719,0.999998,0.000182,-0.001228,0.004058,-0.000278,0.004072,-0.001242,-87.001365,0.004174,
1060,380,0.205730,-8.804917,0.999998,0.000173,-0.001483,0.003949,-0.000256,0.003961,-0.001495,-87.309338,0.004000,
1110,530,0.165598,-8.281142,0.999998,0.000173,-0.001625,0.003762,-0.000650,0.003839,-0.001702,-83.220877,0.003847,
1710,1230,-1.505375,-4.005890,0.999997,0.000197,-0.002683,0.005344,0.000572,0.005384,-0.002723,85.942201,0.005385,
1230,1280,0.001145,-2.314725,0.999997,0.000215,-0.001145,0.001201,0.000056,0.001202,-0.001147,88.628627,0.001357,
1580,1760,-0.412398,-1.083922,0.999998,0.000170,-0.001808,0.004442,0.000111,0.004444,-0.001810,88.987229,0.004470,
1840,1180,-1.909126,-4.349513,0.999998,0.000180,-0.002276,0.004654,0.000293,0.004666,-0.002288,87.586033,0.004667,
1350,890,-0.585163,-6.953791,0.999988,0.000432,-0.001088,0.003113,0.002369,0.004178,-0.002154,65.780612,0.004179,
1420,900,-0.800204,-6.216756,0.999997,0.000194,-0.003375,0.006990,0.001357,0.007165,-0.003549,82.665772,0.007165,
1700,1070,-1.707957,-4.829455,0.999997,0.000211,-0.002151,0.004964,0.000194,0.004969,-0.002156,88.441979,0.004983,
1200,1950,0.009938,-0.259519,0.999998,0.000167,-0.000262,0.003138,-0.000054,0.003139,-0.000263,-89.088735,0.003482,
1060,40,0.011512,-10.016209,0.999999,0.000133,-0.000129,0.003102,0.000210,0.003116,-0.000142,86.288725,0.003519,
930,630,0.630041,-7.450626,0.999997,0.000193,-0.002970,0.005321,-0.000600,0.005365,-0.003013,-85.881675,0.005378,
1160,280,0.058672,-9.231078,0.999999,0.000155,-0.000828,0.003526,0.000005,0.003526,-0.000828,89.933643,0.003688,
1840,1260,-1.782931,-3.967853,0.999998,0.000166,-0.002403,0.004872,0.000284,0.004883,-0.002414,87.764679,0.004883,
1010,1710,0.263273,-1.180859,0.999998,0.000166,-0.001380,0.004023,0.000098,0.004025,-0.001381,88.956311,0.004091,
1540,1380,-0.702981,-2.892025,0.999997,0.000198,-0.003245,0.005635,-0.000508,0.005664,-0.003274,-86.733938,0.005687,
590,770,1.818074,-6.191879,0.999997,0.000200,-0.002421,0.004863,0.000127,0.004865,-0.002424,89.001516,0.004865,
1470,2010,-0.021240,-0.081079,0.999998,0.000158,-0.000063,0.003193,0.000370,0.003234,-0.000105,83.593274,0.003676,
1090,160,0.066244,-9.629593,0.999998,0.000148,-0.000456,0.003412,0.000192,0.003422,-0.000465,87.164349,0.003712,
1460,1090,-1.166988,-4.559300,0.999997,0.000198,-0.002770,0.007572,-0.000102,0.007573,-0.002771,-89.437312,0.007664,
740,2000,0.104019,-0.139127,0.999998,0.000148,-0.000357,0.003906,-0.001300,0.004271,-0.000723,-74.307874,0.004572,
1830,1770,-0.928202,-1.369876,0.999998,0.000157,-0.002402,0.005058,0.000040,0.005058,-0.002402,89.692434,0.005060,
730,940,1.740867,-5.471330,0.999997,0.000181,-0.002276,0.004970,0.000426,0.004995,-0.002301,86.645639,0.005000,
730,1440,1.190355,-2.904447,0.999998,0.000158,-0.002711,0.005285,-0.000049,0.005285,-0.002712,-89.648362,0.005286,
580,1610,1.323716,-2.264446,0.999997,0.000186,-0.002265,0.004962,0.000007,0.004962,-0.002265,89.945854,0.004968,
800,980,1.629218,-5.280843,0.999998,0.000184,-0.002077,0.005135,0.000308,0.005148,-0.002090,87.559244,0.005178,
760,1980,0.148651,-0.212985,0.999998,0.000145,-0.000592,0.003927,-0.001195,0.004224,-0.000889,-76.058920,0.004454,
860,1130,1.421440,-4.484350,0.999998,0.000208,-0.002414,0.005658,-0.000705,0.005719,-0.002475,-85.044484,0.005736,
1680,1530,-0.918540,-2.347244,0.999997,0.000174,-0.002636,0.005187,-0.000168,0.005190,-0.002640,-88.769695,0.005191,
1110,340,0.129440,-8.991723,0.999998,0.000158,-0.001143,0.003672,-0.000135,0.003676,-0.001147,-88.393014,0.003762,
910,480,0.548694,-8.170404,0.999997,0.000222,-0.002303,0.004794,-0.000365,0.004813,-0.002322,-87.063797,0.004814,
1500,580,-0.495181,-7.783033,0.999997,0.000198,-0.002595,0.004905,0.000713,0.004972,-0.002663,84.619253,0.004976,
1360,1440,-0.186616,-2.136270,0.999998,0.000170,-0.001873,0.003810,-0.001050,0.003998,-0.002060,-79.856895,0.003998,
1540,720,-0.766128,-6.929619,0.999998,0.000200,-0.003450,0.005867,0.000375,0.005882,-0.003465,87.701441,0.005913,
1780,1810,-0.727684,-1.086482,0.999996,0.000226,-0.002341,0.005050,0.000334,0.005065,-0.002356,87.416623,0.005069,
1270,450,-0.046579,-8.632798,0.999998,0.000168,-0.001213,0.003519,0.000137,0.003523,-0.001217,88.340082,0.003578,
710,1970,0.220455,-0.275793,0.999997,0.000180,-0.001356,0.004270,-0.001251,0.004536,-0.001622,-78.017289,0.004597,
800,1020,1.647149,-5.078637,0.999998,0.000178,-0.001987,0.005092,0.000091,0.005093,-0.001989,89.261480,0.005134,
1670,1090,-1.628950,-4.723136,0.999997,0.000210,-0.002142,0.005184,0.000432,0.005209,-0.002167,86.634991,0.005234,
1340,1830,-0.074687,-0.666006,0.999998,0.000161,-0.000797,0.003474,0.000011,0.003474,-0.000797,89.856056,0.003640,
1060,360,0.196175,-8.885649,0.999998,0.000181,-0.001406,0.003914,-0.000192,0.003921,-0.001413,-87.933489,0.003971,
840,1740,0.518756,-1.223865,0.999997,0.000189,-0.001855,0.004648,-0.000113,0.004650,-0.001857,-89.002774,0.004681,
1160,1310,0.084925,-2.404992,0.999997,0.000189,-0.001635,0.002513,0.001606,0.003062,-0.002184,71.123345,0.003154,
1710,690,-1.249817,-6.806527,0.999997,0.000200,-0.002854,0.005394,-0.000192,0.005398,-0.002859,-88.665991,0.005401,
860,550,0.743558,-7.733815,0.999997,0.000200,-0.002682,0.005187,-0.000327,0.005201,-0.002696,-87.624131,0.005202,
1260,510,-0.036070,-8.426908,0.999998,0.000172,-0.001263,0.003397,0.000170,0.003403,-0.001269,87.911808,0.003439,
1210,1730,0.022930,-1.000932,0.999999,0.000138,-0.000976,0.003503,0.000064,0.003503,-0.000977,89.186530,0.003616,
1380,1160,-0.660436,-3.471963,0.999996,0.000251,-0.002252,0.004967,-0.002727,0.005881,-0.003166,-71.466475,0.005887,
1110,1500,0.169507,-1.896296,0.999999,0.000133,-0.001719,0.003717,0.000773,0.003825,-0.001827,82.058821,0.003826,
870,1060,1.498520,-4.866275,0.999997,0.000204,-0.001934,0.005340,-0.000270,0.005350,-0.001944,-87.875412,0.005416,
1210,1630,0.024501,-1.353381,0.999998,0.000182,-0.001174,0.003529,0.000139,0.003533,-0.001178,88.310211,0.003598,
740,930,1.706679,-5.524296,0.999997,0.000185,-0.002281,0.004979,0.000429,0.005004,-0.002307,86.627106,0.005009,
1000,1230,0.697604,-3.573904,0.999997,0.000247,-0.003914,0.006592,0.000642,0.006631,-0.003953,86.517444,0.006671,
1280,1950,-0.011780,-0.260021,0.999998,0.000147,-0.000249,0.003174,0.000070,0.003175,-0.000251,88.833416,0.003531,
1050,40,0.013729,-10.015848,0.999999,0.000161,-0.000127,0.003110,0.000222,0.003125,-0.000142,86.091843,0.003530,
1840,1160,-1.932466,-4.440899,0.999997,0.000198,-0.002238,0.004562,0.000239,0.004570,-0.002246,87.992034,0.004570,
1340,880,-0.514029,-7.086493,0.999995,0.000272,-0.001281,0.002527,0.001872,0.003293,-0.002047,67.743914,0.003326,
1800,1150,-1.854585,-4.464097,0.999998,0.000183,-0.002271,0.004756,0.000310,0.004770,-0.002285,87.479851,0.004772,
970,850,0.887050,-6.231949,0.999998,0.000201,-0.003740,0.006730,0.000023,0.006730,-0.003740,89.871457,0.006744,
1570,30,-0.016391,-10.043571,0.999999,0.000000,-0.000163,0.003294,-0.000600,0.003395,-0.000264,-80.422966,0.003777,
1540,1360,-0.729450,-3.005057,0.999997,0.000188,-0.003324,0.005715,-0.000437,0.005736,-0.003345,-87.239679,0.005762,
1160,480,0.088728,-8.513369,0.999998,0.000176,-0.001368,0.003590,-0.000341,0.003613,-0.001392,-86.083007,0.003645,
1480,1530,-0.413226,-1.994801,0.999998,0.000185,-0.002271,0.004607,-0.000633,0.004665,-0.002329,-84.786865,0.004665,
1010,1690,0.272762,-1.261011,0.999998,0.000181,-0.001462,0.004122,0.000168,0.004127,-0.001467,88.280776,0.004184,
1580,1740,-0.438449,-1.175912,0.999998,0.000164,-0.001898,0.004561,0.000037,0.004561,-0.001898,89.669935,0.004582,
800,1000,1.637926,-5.180590,0.999998,0.000160,-0.002011,0.005056,0.000199,0.005062,-0.002017,88.387425,0.005097,
580,1600,1.338384,-2.315122,0.999997,0.000208,-0.002355,0.004999,0.000060,0.005000,-0.002355,89.530259,0.005003,
1570,700,-0.837040,-6.979305,0.999998,0.000216,-0.003305,0.005747,0.000247,0.005754,-0.003312,88.436006,0.005776,
1620,1500,-0.796708,-2.403642,0.999997,0.000180,-0.002684,0.005187,-0.000285,0.005198,-0.002694,-87.925886,0.005199,
1020,1070,1.168511,-4.661089,0.999997,0.000240,-0.003175,0.008531,0.000540,0.008555,-0.003200,87.363155,0.008645,
1820,1430,-1.436462,-3.085836,0.999998,0.000191,-0.002603,0.005086,0.000083,0.005087,-0.002604,89.380224,0.005087,
710,1950,0.282270,-0.360632,0.999997,0.000203,-0.001643,0.004505,-0.001157,0.004716,-0.001853,-79.684366,0.004752,
1890,270,-1.043871,-8.663679,0.999998,0.000166,-0.002390,0.004875,-0.000012,0.004875,-0.002390,-89.906624,0.004875,
1670,1070,-1.647176,-4.824793,0.999998,0.000183,-0.002086,0.005073,0.000235,0.005080,-0.002094,88.123873,0.005106,
1830,1750,-0.967198,-1.471719,0.999998,0.000173,-0.002425,0.005078,0.000027,0.005079,-0.002425,89.796545,0.005080,
1280,650,-0.056711,-7.975872,0.999998,0.000167,-0.001310,0.002823,0.000685,0.002933,-0.001420,80.833758,0.002934,
880,230,0.328161,-9.275233,0.999997,0.000196,-0.001541,0.004273,0.000335,0.004292,-0.001560,86.709981,0.004345,
760,1960,0.200840,-0.292655,0.999998,0.000167,-0.000762,0.004103,-0.001167,0.004368,-0.001028,-77.186966,0.004567,
1070,420,0.206622,-8.657350,0.999998,0.000175,-0.001586,0.003959,-0.000378,0.003984,-0.001612,-86.113078,0.004008,
1160,260,0.056626,-9.302113,0.999998,0.000147,-0.000767,0.003483,0.000025,0.003483,-0.000767,89.661661,0.003660,
1050,340,0.200889,-8.954131,0.999999,0.000193,-0.001401,0.003884,-0.000164,0.003889,-0.001406,-88.225527,0.003938,
1510,420,-0.411361,-8.512629,0.999998,0.000192,-0.001886,0.004472,0.000267,0.004484,-0.001898,87.597412,0.004501,
780,350,0.696596,-8.609305,0.999997,0.000201,-0.002225,0.004935,0.000033,0.004935,-0.002225,89.737552,0.004943,
670,160,0.532225,-9.406689,0.999997,0.000207,-0.001983,0.005134,0.000953,0.005259,-0.002108,82.504560,0.005293,
1760,1530,-1.127451,-2.476854,0.999998,0.000161,-0.002620,0.005163,-0.000089,0.005164,-0.002621,-89.345433,0.005164,
1500,960,-1.255124,-5.477586,0.999997,0.000209,-0.002390,0.006529,-0.000511,0.006558,-0.002419,-86.733968,0.006633,
1060,340,0.187316,-8.962317,0.999998,0.000183,-0.001339,0.003846,-0.000135,0.003849,-0.001342,-88.511281,0.003907,
1460,40,-0.017371,-10.014647,0.999999,0.000124,-0.000022,0.003087,-0.000360,0.003128,-0.000063,-83.484043,0.003576,
1180,1950,0.013606,-0.260731,0.999998,0.000170,-0.000210,0.003140,-0.000078,0.003142,-0.000211,-88.660101,0.003513,
1000,790,0.613627,-6.732410,0.999997,0.000223,-0.003844,0.006239,-0.000864,0.006313,-0.003917,-85.138642,0.006374,
840,1720,0.545117,-1.317761,0.999998,0.000185,-0.001919,0.004721,-0.000086,0.004723,-0.001920,-89.255659,0.004750,
1210,1610,0.025971,-1.423923,0.999998,0.000166,-0.001208,0.003522,0.000140,0.003526,-0.001212,88.309007,0.003583,
1260,1830,-0.019685,-0.653708,0.999998,0.000199,-0.000701,0.003406,-0.000007,0.003406,-0.000701,-89.903364,0.003597,
710,940,1.787061,-5.464862,0.999998,0.000182,-0.002266,0.004926,0.000393,0.004947,-0.002288,86.883768,0.004952,
1840,1140,-1.954970,-4.533732,0.999998,0.000168,-0.002204,0.004571,0.000259,0.004581,-0.002213,87.813126,0.004582,
790,460,0.819213,-8.076180,0.999998,0.000165,-0.002502,0.005096,-0.000157,0.005099,-0.002505,-88.820328,0.005100,
1500,220,-0.211493,-9.366819,0.999998,0.000167,-0.001191,0.003935,-0.000245,0.003946,-0.001202,-87.274468,0.004046,
1110,510,0.164700,-8.353458,0.999998,0.000162,-0.001558,0.003777,-0.000544,0.003832,-0.001613,-84.234172,0.003848,
1720,1810,-0.594775,-0.999333,0.999998,0.000181,-0.001989,0.004903,0.000523,0.004943,-0.002028,85.688622,0.004969,
1560,2020,-0.022156,-0.053310,0.999999,0.000000,-0.000061,0.003305,0.000641,0.003423,-0.000179,79.575532,0.003853,
800,960,1.608701,-5.385275,0.999997,0.000202,-0.002160,0.005197,0.000467,0.005227,-0.002190,86.382432,0.005250,
1040,40,0.014303,-10.015594,0.999999,0.000163,-0.000097,0.003099,0.000233,0.003116,-0.000114,85.858564,0.003534,
1340,1180,-0.484317,-2.980099,0.999997,0.000226,-0.001475,0.002584,-0.001798,0.003266,-0.002156,-69.234234,0.003322,
1210,1710,0.022059,-1.068592,0.999999,0.000131,-0.001030,0.003515,0.000088,0.003516,-0.001031,88.889432,0.003615,
1670,1180,-1.493132,-4.245796,0.999997,0.000219,-0.002582,0.005393,0.000609,0.005439,-0.002628,85.657201,0.005440,
580,770,1.842378,-6.175782,0.999997,0.000190,-0.002567,0.004833,0.000031,0.004833,-0.002567,89.756378,0.004836,
1760,660,-1.337265,-6.898867,0.999998,0.000173,-0.002691,0.005233,-0.000172,0.005237,-0.002695,-88.760410,0.005238,
1580,1110,-1.405553,-4.584760,0.999996,0.000252,-0.002275,0.005675,0.000661,0.005730,-0.002330,85.277168,0.005763,
1710,670,-1.215622,-6.915431,0.999997,0.000204,-0.002859,0.005381,-0.000135,0.005384,-0.002861,-89.062374,0.005387,
1480,1510,-0.424787,-2.089688,0.999998,0.000180,-0.002404,0.004675,-0.000705,0.004745,-0.002474,-84.364453,0.004746,
1100,1230,0.319440,-2.998539,0.999997,0.000204,-0.003203,0.004492,0.002217,0.005085,-0.003796,75.025447,0.005287,
1540,700,-0.736966,-7.045771,0.999998,0.000194,-0.003359,0.005748,0.000443,0.005770,-0.003381,87.222203,0.005798,
1540,1340,-0.759827,-3.120668,0.999997,0.000186,-0.003396,0.005831,-0.000390,0.005848,-0.003412,-87.585655,0.005875,
970,870,0.950247,-6.097474,0.999998,0.000194,-0.003597,0.006741,0.000197,0.006744,-0.003601,88.910710,0.006750,
840,1130,1.468776,-4.495849,0.999997,0.000224,-0.002362,0.005533,-0.000671,0.005590,-0.002419,-85.174942,0.005607,
1580,1960,-0.113708,-0.263163,0.999998,0.000166,-0.000667,0.003638,0.000649,0.003734,-0.000763,81.611658,0.003945,
1790,1480,-1.280513,-2.783822,0.999998,0.000189,-0.002606,0.005176,0.000006,0.005176,-0.002606,89.952279,0.005176,
1570,680,-0.807198,-7.093509,0.999997,0.000195,-0.003237,0.005675,0.000302,0.005686,-0.003247,88.063135,0.005705,
1270,650,-0.043721,-7.988399,0.999999,0.000147,-0.001220,0.002753,0.000520,0.002820,-0.001287,82.669003,0.002823,
710,1930,0.347072,-0.454961,0.999998,0.000195,-0.001804,0.004696,-0.001086,0.004873,-0.001981,-80.758946,0.004901,
1480,1290,-0.629951,-3.253504,0.999997,0.000210,-0.003753,0.006116,-0.000771,0.006176,-0.003813,-85.562195,0.006233,
1330,1680,-0.110409,-1.202685,0.999998,0.000166,-0.001258,0.003700,-0.000217,0.003710,-0.001268,-87.496454,0.003771,
1010,1670,0.285091,-1.344757,0.999997,0.000190,-0.001532,0.004150,0.000183,0.004156,-0.001538,88.154026,0.004202,
1620,1480,-0.818345,-2.506413,0.999998,0.000175,-0.002766,0.005266,-0.000281,0.005276,-0.002776,-88.000186,0.005278,
1160,460,0.088727,-8.587038,0.999998,0.000184,-0.001353,0.003595,-0.000274,0.003610,-0.001368,-86.842514,0.003645,
1370,1160,-0.639379,-3.363723,0.999995,0.000273,-0.001805,0.004363,-0.002792,0.005439,-0.002882,-68.921489,0.005442,
600,1490,1.451513,-2.844330,0.999996,0.000235,-0.002537,0.005114,0.000008,0.005114,-0.002537,89.943561,0.005114,
710,1440,1.243786,-2.934588,0.999998,0.000164,-0.002670,0.005233,-0.000056,0.005233,-0.002671,-89.596261,0.005233,
1690,1100,-1.661034,-4.674481,0.999998,0.000186,-0.002222,0.005147,0.000457,0.005175,-0.002250,86.465310,0.005189,
870,1040,1.509533,-4.971872,0.999997,0.000212,-0.001879,0.005341,-0.000159,0.005345,-0.001882,-88.735977,0.005422,
1360,1420,-0.184449,-2.213495,0.999998,0.000157,-0.001928,0.003804,-0.001173,0.004035,-0.002159,-78.867923,0.004038,
640,1870,0.672833,-0.845030,0.999997,0.000198,-0.002308,0.005163,-0.000525,0.005200,-0.002344,-86.000546,0.005208,
1160,240,0.050933,-9.370640,0.999998,0.000144,-0.000710,0.003457,0.000039,0.003457,-0.000711,89.470169,0.003651,
1500,940,-1.200908,-5.607916,0.999997,0.000210,-0.002688,0.006653,-0.000560,0.006686,-0.002721,-86.584125,0.006724,
1160,1950,0.018180,-0.261417,0.999999,0.000149,-0.000235,0.003151,-0.000113,0.003155,-0.000238,-88.098598,0.003513,
1830,100,-0.388156,-9.670747,0.999997,0.000219,-0.002125,0.005196,-0.001136,0.005368,-0.002297,-81.381385,0.005387,
1840,1120,-1.976086,-4.624721,0.999998,0.000168,-0.002183,0.004593,0.000266,0.004603,-0.002193,87.759133,0.004605,
1830,1730,-1.003229,-1.574287,0.999998,0.000163,-0.002421,0.005033,-0.000013,0.005033,-0.002421,-89.900337,0.005034,
1310,1600,-0.097711,-1.482321,0.999998,0.000176,-0.001351,0.003643,-0.000322,0.003664,-0.001372,-86.326221,0.003702,
790,440,0.793063,-8.178542,0.999999,0.000141,-0.002459,0.004998,-0.000154,0.005001,-0.002463,-88.819129,0.005001,
1110,490,0.162503,-8.431752,0.999998,0.000155,-0.001498,0.003804,-0.000459,0.003844,-0.001537,-85.086943,0.003869,
1060,320,0.176004,-9.040344,0.999998,0.000173,-0.001272,0.003850,-0.000077,0.003851,-0.001273,-89.143088,0.003924,
1030,340,0.231117,-8.936346,0.999998,0.000167,-0.001417,0.003950,-0.000141,0.003954,-0.001420,-88.496557,0.004006,
800,370,0.679601,-8.539835,0.999998,0.000182,-0.002295,0.004903,-0.000043,0.004903,-0.002295,-89.655202,0.004907,
1090,50,0.013259,-9.986719,0.999998,0.000153,-0.000093,0.003082,0.000183,0.003093,-0.000104,86.719353,0.003513,
1710,650,-1.183363,-7.022806,0.999998,0.000186,-0.002835,0.005338,-0.000100,0.005339,-0.002836,-89.295931,0.005343,
640,1250,1.758530,-3.999275,0.999998,0.000198,-0.002443,0.004873,-0.000340,0.004889,-0.002459,-87.343938,0.004889,
650,1180,1.846726,-4.328886,0.999997,0.000180,-0.002330,0.004820,-0.000385,0.004841,-0.002351,-86.927681,0.004841,
1280,530,-0.061514,-8.351984,0.999998,0.000158,-0.001295,0.003394,0.000252,0.003407,-0.001308,86.934343,0.003438,
1790,1460,-1.311569,-2.886929,0.999997,0.000211,-0.002619,0.005152,0.000031,0.005152,-0.002619,89.773408,0.005152,
800,940,1.583408,-5.490964,0.999997,0.000213,-0.002252,0.005183,0.000487,0.005215,-0.002283,86.268045,0.005228,
760,1940,0.253681,-0.380324,0.999997,0.000187,-0.000990,0.004385,-0.001192,0.004638,-0.001242,-78.044347,0.004802,
1540,1560,-0.533400,-1.960995,0.999998,0.000208,-0.002324,0.004776,-0.000430,0.004802,-0.002350,-86.544124,0.004802,
710,1910,0.408125,-0.548652,0.999997,0.000210,-0.001955,0.004781,-0.000911,0.004902,-0.002076,-82.430438,0.004921,
1210,1590,0.029376,-1.494111,0.999998,0.000160,-0.001247,0.003473,0.000150,0.003478,-0.001251,88.178360,0.003523,
840,1700,0.571050,-1.411748,0.999997,0.000189,-0.001958,0.004727,-0.000066,0.004728,-0.001959,-89.437610,0.004751,
1240,1830,-0.005612,-0.651454,0.999999,0.000125,-0.000709,0.003390,-0.000014,0.003390,-0.000709,-89.803623,0.003576,
590,1490,1.476393,-2.860091,0.999997,0.000228,-0.002829,0.004943,0.000231,0.004950,-0.002836,88.301448,0.004967,
1620,30,-0.022625,-10.042386,0.999999,0.000000,0.000048,0.003467,-0.000867,0.003674,-0.000159,-76.559480,0.004154,
950,1020,1.367601,-5.083833,0.999998,0.000170,-0.001847,0.006053,0.000070,0.006053,-0.001848,89.493147,0.006204,
1210,1690,0.024447,-1.141355,0.999998,0.000141,-0.001078,0.003551,0.000090,0.003553,-0.001079,88.887714,0.003643,
1580,1720,-0.463472,-1.268933,0.999998,0.000172,-0.002002,0.004582,-0.000025,0.004582,-0.002002,-89.786400,0.004594,
680,1750,0.854743,-1.392782,0.999998,0.000153,-0.002412,0.005059,-0.000109,0.005061,-0.002413,-89.166472,0.005063,
970,1310,0.643267,-3.173483,0.999997,0.000212,-0.003593,0.005951,0.000697,0.006002,-0.003643,85.845541,0.006047,
1590,2000,-0.053539,-0.123966,0.999998,0.000143,-0.000357,0.003499,0.000707,0.003625,-0.000483,79.927476,0.003937,
670,1820,0.735277,-1.054927,0.999998,0.000165,-0.002279,0.005061,-0.000415,0.005084,-0.002302,-86.776668,0.005092,
920,1890,0.191340,-0.519729,0.999998,0.000183,-0.000802,0.003879,-0.000494,0.003930,-0.000854,-84.038971,0.004134,
1880,1100,-2.081347,-4.735165,0.999998,0.000171,-0.002060,0.004215,0.000010,0.004215,-0.002060,89.909398,0.004215,
1620,790,-1.172395,-6.361202,0.999997,0.000198,-0.003170,0.005874,-0.000401,0.005892,-0.003188,-87.466833,0.005898,
1670,1050,-1.656402,-4.926499,0.999998,0.000167,-0.002033,0.005055,0.000183,0.005059,-0.002038,88.521384,0.005091,
1010,1650,0.296412,-1.426008,0.999997,0.000197,-0.001616,0.004193,0.000273,0.004206,-0.001629,87.317649,0.004241,
1500,200,-0.191310,-9.445032,0.999998,0.000169,-0.001092,0.003867,-0.000287,0.003883,-0.001109,-86.692989,0.004001,
1620,1460,-0.843764,-2.615463,0.999998,0.000157,-0.002850,0.005368,-0.000255,0.005376,-0.002858,-88.224793,0.005380,
1600,310,-0.470089,-8.904622,0.999997,0.000204,-0.001882,0.004536,-0.000093,0.004537,-0.001883,-89.165963,0.004559,
1460,1290,-0.553599,-3.181936,0.999996,0.000217,-0.003750,0.006002,-0.001016,0.006107,-0.003854,-84.113576,0.006177,
1060,300,0.165668,-9.116350,0.999998,0.000177,-0.001185,0.003796,-0.000044,0.003797,-0.001185,-89.494859,0.003885,
1830,1930,-0.487557,-0.541819,0.999997,0.000199,-0.002275,0.005319,0.000824,0.005407,-0.002363,83.880729,0.005421,
1330,1180,-0.468810,-2.886736,0.999996,0.000249,-0.001591,0.002149,-0.001466,0.002655,-0.002097,-70.953573,0.002800,
1290,1600,-0.071481,-1.470235,0.999998,0.000158,-0.001251,0.003568,-0.000185,0.003575,-0.001258,-87.807396,0.003627,
1520,1950,-0.097333,-0.288572,0.999998,0.000165,-0.000508,0.003567,0.000509,0.003630,-0.000571,82.981173,0.003904,
1180,850,0.209851,-7.559558,0.999996,0.000237,-0.003130,0.001393,-0.000253,0.001408,-0.003144,-86.815046,0.003150,
1140,650,0.117496,-7.902905,0.999998,0.000171,-0.001645,0.003270,-0.001105,0.003507,-0.001882,-77.897051,0.003510,
1840,1100,-1.995852,-4.716908,0.999998,0.000160,-0.002132,0.004510,0.000157,0.004513,-0.002135,88.648224,0.004515,
1310,340,-0.079095,-9.015593,0.999999,0.000132,-0.001061,0.003598,0.000062,0.003599,-0.001062,89.236370,0.003698,
1500,660,-0.560251,-7.369548,0.999997,0.000213,-0.003094,0.005372,0.000818,0.005450,-0.003172,84.531810,0.005475,
780,270,0.567508,-8.998901,0.999997,0.000197,-0.002092,0.004796,0.000299,0.004809,-0.002105,87.518562,0.004822,
1300,1270,-0.096021,-2.488982,0.999997,0.000211,-0.001774,0.002205,-0.001796,0.002896,-0.002464,-68.964241,0.003125,
1160,440,0.086585,-8.658202,0.999998,0.000168,-0.001296,0.003615,-0.000225,0.003626,-0.001306,-87.378976,0.003673,
800,920,1.558770,-5.591880,0.999998,0.000196,-0.002373,0.005319,0.000593,0.005365,-0.002418,85.619025,0.005374,
710,1890,0.463721,-0.647881,0.999997,0.000209,-0.002056,0.004901,-0.000792,0.004990,-0.002145,-83.588985,0.005007,
1360,1400,-0.183253,-2.285030,0.999998,0.000174,-0.002013,0.003828,-0.001288,0.004100,-0.002285,-78.100464,0.004109,
800,1050,1.641178,-4.925197,0.999998,0.000174,-0.002022,0.005073,-0.000176,0.005077,-0.002027,-88.576803,0.005112,
970,1290,0.676090,-3.294455,0.999997,0.000224,-0.003691,0.006163,0.000586,0.006197,-0.003726,86.610373,0.006239,
1580,2000,-0.051573,-0.121582,0.999998,0.000148,-0.000328,0.003462,0.000659,0.003573,-0.000440,80.414419,0.003897,
720,1750,0.759066,-1.329521,0.999997,0.000212,-0.002319,0.005008,-0.000123,0.005010,-0.002321,-89.037399,0.005015,
970,1700,0.328778,-1.260203,0.999998,0.000193,-0.001752,0.004233,0.000211,0.004240,-0.001760,87.987005,0.004261,
1010,1100,1.117675,-4.457401,0.999995,0.000257,-0.002910,0.007763,0.000277,0.007770,-0.002917,88.514375,0.007850,
900,1890,0.205984,-0.526507,0.999998,0.000162,-0.000919,0.003954,-0.000556,0.004016,-0.000982,-83.576919,0.004188,
760,1920,0.309408,-0.469065,0.999997,0.000193,-0.001179,0.004407,-0.001054,0.004599,-0.001371,-79.666739,0.004722,
1160,220,0.048002,-9.438789,0.999998,0.000147,-0.000650,0.003408,0.000056,0.003409,-0.000651,89.206915,0.003619,
1380,920,-0.779140,-6.473443,0.999996,0.000245,-0.001825,0.006060,0.003736,0.007549,-0.003314,68.273200,0.007568,
1540,1320,-0.791538,-3.238407,0.999997,0.000191,-0.003486,0.005971,-0.000307,0.005981,-0.003495,-88.145350,0.006009,
1060,280,0.154452,-9.192639,0.999998,0.000169,-0.001110,0.003752,0.000009,0.003752,-0.001110,89.894065,0.003854,
1830,1710,-1.036879,-1.674094,0.999998,0.000169,-0.002426,0.004994,-0.000029,0.004994,-0.002426,-89.775351,0.004995,
1070,160,0.075624,-9.627349,0.999998,0.000134,-0.000538,0.003438,0.000192,0.003447,-0.000548,87.241610,0.003705,
1010,1630,0.305613,-1.510469,0.999997,0.000185,-0.001712,0.004243,0.000355,0.004264,-0.001733,86.600663,0.004289,
1460,1270,-0.591475,-3.305182,0.999997,0.000224,-0.003842,0.006159,-0.000936,0.006246,-0.003928,-84.698843,0.006315,
840,1680,0.598181,-1.510627,0.999997,0.000194,-0.002060,0.004783,0.000006,0.004783,-0.002060,89.953425,0.004799,
1840,1240,-1.815907,-4.064813,0.999998,0.000159,-0.002370,0.004735,0.000289,0.004747,-0.002382,87.676869,0.004747,
930,1020,1.403913,-5.082093,0.999998,0.000162,-0.001764,0.005745,0.000109,0.005747,-0.001765,89.166605,0.005887,
1500,180,-0.169898,-9.522041,0.999998,0.000168,-0.001003,0.003772,-0.000324,0.003794,-0.001025,-86.139508,0.003925,
1830,1510,-1.338034,-2.690574,0.999997,0.000204,-0.002553,0.005099,-0.000033,0.005099,-0.002553,-89.753098,0.005099,
1620,1440,-0.870951,-2.721143,0.999998,0.000158,-0.002916,0.005366,-0.000243,0.005373,-0.002923,-88.321724,0.005380,
970,1380,0.553705,-2.772218,0.999997,0.000218,-0.003170,0.005448,0.000861,0.005534,-0.003256,84.347821,0.005562,
1420,880,-0.716918,-6.355180,0.999996,0.000220,-0.003532,0.006853,0.001278,0.007008,-0.003687,83.087866,0.007011,
1260,420,-0.031203,-8.742391,0.999998,0.000184,-0.001192,0.003532,0.000122,0.003536,-0.001195,88.517846,0.003597,
710,1420,1.276478,-3.040631,0.999998,0.000174,-0.002705,0.005245,-0.000118,0.005247,-0.002707,-89.153027,0.005248,
1340,870,-0.451357,-7.111972,0.999998,0.000198,-0.001609,0.002589,0.001744,0.003219,-0.002240,70.137156,0.003300,
1230,500,0.002691,-8.470077,0.999998,0.000151,-0.001258,0.003409,-0.000018,0.003409,-0.001258,-89.779980,0.003448,
1800,1530,-1.230736,-2.540741,0.999998,0.000215,-0.002559,0.005137,-0.000074,0.005137,-0.002560,-89.450908,0.005137,
1830,80,-0.295917,-9.774277,0.999998,0.000177,-0.001996,0.005304,-0.001414,0.005568,-0.002260,-79.407978,0.005601,
1220,1830,0.007392,-0.651061,0.999998,0.000157,-0.000728,0.003373,0.000029,0.003374,-0.000728,89.599229,0.003551,
1210,1570,0.026885,-1.563303,0.999998,0.000155,-0.001259,0.003480,0.000182,0.003487,-0.001266,87.798166,0.003530,
1500,920,-1.138849,-5.743030,0.999997,0.000215,-0.002941,0.006653,-0.000530,0.006682,-0.002970,-86.849540,0.006696,
1500,1950,-0.088028,-0.284643,0.999998,0.000177,-0.000555,0.003516,0.000426,0.003560,-0.000599,84.085944,0.003812,
610,240,0.888535,-8.890366,0.999998,0.000198,-0.002432,0.004989,0.000091,0.004990,-0.002433,89.293875,0.004991,
1390,340,-0.171488,-8.970622,0.999998,0.000155,-0.001192,0.003787,0.000095,0.003788,-0.001194,88.903997,0.003874,
1300,1250,-0.116520,-2.531477,0.999998,0.000173,-0.001959,0.002108,-0.001764,0.002766,-0.002617,-69.529978,0.003112,
1840,1080,-2.004493,-4.805345,0.999998,0.000160,-0.002093,0.004399,0.000069,0.004399,-0.002094,89.387783,0.004401,
710,1870,0.521913,-0.745781,0.999997,0.000189,-0.002167,0.004927,-0.000639,0.004984,-0.002224,-84.897405,0.004994,
1160,420,0.086169,-8.730005,0.999998,0.000179,-0.001249,0.003632,-0.000176,0.003638,-0.001255,-87.931866,0.003696,
1580,1680,-0.507170,-1.453165,0.999997,0.000212,-0.002088,0.004666,-0.000109,0.004668,-0.002090,-89.076788,0.004676,
1210,1670,0.024038,-1.210948,0.999998,0.000148,-0.001111,0.003542,0.000104,0.003545,-0.001113,88.722173,0.003625,
1760,640,-1.304144,-7.002633,0.999998,0.000182,-0.002674,0.005241,-0.000128,0.005243,-0.002676,-89.077287,0.005244,
1670,1100,-1.616292,-4.669606,0.999997,0.000193,-0.002182,0.005209,0.000494,0.005242,-0.002215,86.190314,0.005263,
800,900,1.521363,-5.703093,0.999998,0.000220,-0.002505,0.005412,0.000666,0.005467,-0.002560,85.222947,0.005471,
780,1050,1.680855,-4.926879,0.999998,0.000186,-0.002051,0.004996,-0.000176,0.005001,-0.002056,-88.572424,0.005027,
1360,1380,-0.184577,-2.364524,0.999997,0.000205,-0.002126,0.003812,-0.001443,0.004144,-0.002457,-77.042478,0.004168,
1090,1500,0.204993,-1.932066,0.999998,0.000162,-0.001804,0.003893,0.000819,0.004008,-0.001919,81.975655,0.004010,
970,1270,0.719222,-3.421736,0.999997,0.000204,-0.003775,0.006352,0.000497,0.006377,-0.003799,87.194934,0.006416,
1010,1080,1.174490,-4.613778,0.999997,0.000242,-0.002848,0.007807,0.000254,0.007813,-0.002854,88.635721,0.007907,
1100,1880,0.070189,-0.499318,0.999998,0.000173,-0.000548,0.003428,-0.000123,0.003432,-0.000552,-88.230104,0.003685,
1160,200,0.040843,-9.506391,0.999998,0.000148,-0.000545,0.003371,0.000086,0.003373,-0.000547,88.742493,0.003621,
700,1750,0.806041,-1.362719,0.999998,0.000181,-0.002398,0.005037,-0.000103,0.005039,-0.002399,-89.207705,0.005041,
1830,1670,-1.101225,-1.876754,0.999998,0.000164,-0.002480,0.005081,-0.000069,0.005082,-0.002480,-89.478613,0.005082,
900,570,0.656356,-7.704435,0.999997,0.000224,-0.002705,0.005153,-0.000472,0.005181,-0.002733,-86.573609,0.005184,
1540,1280,-0.870110,-3.484911,0.999998,0.000165,-0.003596,0.006202,-0.000083,0.006203,-0.003597,-89.511930,0.006229,
1060,260,0.143064,-9.267106,0.999998,0.000165,-0.001020,0.003687,0.000034,0.003687,-0.001021,89.580781,0.003808,
1620,1420,-0.898261,-2.830091,0.999998,0.000174,-0.002988,0.005474,-0.000193,0.005479,-0.002992,-88.691471,0.005487,
760,1900,0.357326,-0.556769,0.999997,0.000187,-0.001394,0.004569,-0.000979,0.004725,-0.001550,-80.910897,0.004818,
850,1760,0.475319,-1.122538,0.999997,0.000227,-0.001819,0.004593,-0.000194,0.004599,-0.001825,-88.268601,0.004632,
950,1380,0.616735,-2.826106,0.999997,0.000203,-0.003175,0.005536,0.000708,0.005593,-0.003232,85.380718,0.005616,
1050,1760,0.176402,-0.952437,0.999998,0.000150,-0.001263,0.003811,0.000058,0.003811,-0.001263,89.349741,0.003883,
820,2010,0.050899,-0.089867,0.999999,0.000129,-0.000186,0.003547,-0.000905,0.003755,-0.000394,-77.066311,0.004128,
930,1000,1.389834,-5.199133,0.999998,0.000192,-0.001849,0.005952,0.000315,0.005965,-0.001862,87.694267,0.006103,
1010,1610,0.316171,-1.596111,0.999998,0.000182,-0.001851,0.004267,0.000440,0.004299,-0.001882,85.906156,0.004310,
840,250,0.423335,-9.152796,0.999997,0.000202,-0.001575,0.004500,0.000407,0.004527,-0.001602,86.182230,0.004591,
840,1660,0.619793,-1.602367,0.999997,0.000171,-0.002187,0.004827,0.000102,0.004829,-0.002189,89.169583,0.004836,
1390,1150,-0.729369,-3.634578,0.999996,0.000239,-0.002363,0.005745,-0.002884,0.006666,-0.003284,-72.286706,0.006667,
1500,380,-0.361001,-8.701805,0.999998,0.000184,-0.001831,0.004339,0.000210,0.004346,-0.001838,88.051871,0.004363,
1780,1530,-1.180599,-2.508925,0.999998,0.000172,-0.002583,0.005156,-0.000078,0.005157,-0.002584,-89.423775,0.005157,
1170,500,0.078089,-8.449936,0.999998,0.000155,-0.001294,0.003492,-0.000295,0.003510,-0.001313,-86.481831,0.003547,
1330,870,-0.436403,-7.204398,0.999998,0.000184,-0.001668,0.002166,0.001379,0.002611,-0.002112,72.132173,0.002772,
1370,340,-0.150015,-8.982102,0.999998,0.000174,-0.001150,0.003737,0.000106,0.003739,-0.001152,88.761427,0.003830,
1270,1560,-0.047838,-1.604092,0.999998,0.000163,-0.001228,0.003470,-0.000167,0.003476,-0.001234,-87.969217,0.003525,
710,1850,0.571114,-0.845891,0.999997,0.000194,-0.002229,0.004933,-0.000514,0.004970,-0.002266,-85.919399,0.004976,
1500,880,-1.006059,-6.010385,0.999997,0.000199,-0.003424,0.006688,-0.000330,0.006698,-0.003435,-88.132302,0.006699,
1870,1980,-0.364037,-0.362606,0.999997,0.000200,-0.002208,0.005918,0.001508,0.006189,-0.002478,79.819974,0.006230,
1830,1490,-1.366380,-2.792884,0.999997,0.000198,-0.002581,0.005118,-0.000005,0.005118,-0.002581,-89.965910,0.005118,
1560,250,-0.322528,-9.205911,0.999998,0.000176,-0.001372,0.004240,-0.000288,0.004254,-0.001386,-87.064677,0.004340,
610,320,1.049963,-8.489197,0.999998,0.000165,-0.002440,0.005004,-0.000054,0.005005,-0.002440,-89.583896,0.005005,
1890,1870,-0.836953,-1.001012,0.999998,0.000162,-0.002485,0.004988,0.000254,0.004997,-0.002494,88.056015,0.004997,
1840,1280,-1.748127,-3.871796,0.999998,0.000181,-0.002445,0.004923,0.000261,0.004932,-0.002455,87.971616,0.004932,
1860,1750,-1.040306,-1.528570,0.999997,0.000195,-0.002431,0.005008,-0.000024,0.005008,-0.002431,-89.814442,0.005008,
1160,640,0.088650,-7.968071,0.999999,0.000149,-0.001416,0.003075,-0.000868,0.003237,-0.001578,-79.434244,0.003237,
1890,1210,-1.976672,-4.263221,0.999998,0.000152,-0.002253,0.004603,0.000138,0.004606,-0.002256,88.849661,0.004606,
1210,1550,0.026683,-1.633569,0.999998,0.000171,-0.001257,0.003412,0.000176,0.003418,-0.001264,87.842735,0.003457,
1050,440,0.247427,-8.552408,0.999998,0.000178,-0.001642,0.004044,-0.000411,0.004073,-0.001671,-85.885569,0.004095,
1580,1660,-0.529401,-1.545491,0.999997,0.000215,-0.002111,0.004700,-0.000153,0.004704,-0.002114,-88.712634,0.004712,
1510,400,-0.396417,-8.603136,0.999997,0.000214,-0.001846,0.004437,0.000224,0.004445,-0.001853,87.959662,0.004465,
1540,1130,-1.264322,-4.433899,0.999997,0.000201,-0.002655,0.006144,0.000702,0.006199,-0.002711,85.467290,0.006215,
800,1140,1.547002,-4.458313,0.999997,0.000233,-0.002428,0.005365,-0.000619,0.005414,-0.002476,-85.490169,0.005421,
700,130,0.381355,-9.590127,0.999997,0.000202,-0.001880,0.004769,0.001062,0.004934,-0.002045,81.144850,0.004958,
800,880,1.485407,-5.809761,0.999998,0.000217,-0.002594,0.005398,0.000650,0.005450,-0.002646,85.381522,0.005451,
970,1250,0.761588,-3.550711,0.999997,0.000224,-0.003853,0.006473,0.000393,0.006488,-0.003868,87.821529,0.006528,
1310,40,-0.004613,-10.018313,0.999999,0.000118,-0.000057,0.002972,-0.000085,0.002974,-0.000059,-88.385068,0.003400,
1060,1690,0.199383,-1.214066,0.999998,0.000163,-0.001416,0.003934,0.000205,0.003942,-0.001423,87.808845,0.003993,
890,160,0.209378,-9.569573,0.999998,0.000164,-0.001013,0.003992,0.000536,0.004049,-0.001069,83.954031,0.004196,
820,2000,0.069840,-0.125446,0.999998,0.000164,-0.000291,0.003606,-0.000922,0.003814,-0.000498,-77.340234,0.004146,
1830,1650,-1.130718,-1.977686,0.999998,0.000156,-0.002500,0.005017,-0.000077,0.005018,-0.002501,-89.414426,0.005018,
1060,240,0.130623,-9.340360,0.999998,0.000167,-0.000919,0.003673,0.000070,0.003674,-0.000921,89.130080,0.003824,
1540,1260,-0.914916,-3.612403,0.999998,0.000164,-0.003576,0.006277,0.000063,0.006278,-0.003577,89.635461,0.006298,
760,1880,0.409191,-0.651357,0.999997,0.000194,-0.001538,0.004614,-0.000864,0.004733,-0.001657,-82.156229,0.004804,
990,960,1.187302,-5.523858,0.999997,0.000215,-0.002615,0.007179,0.000234,0.007184,-0.002620,88.630663,0.007271,
840,1640,0.644264,-1.700772,0.999997,0.000179,-0.002306,0.004904,0.000159,0.004907,-0.002309,88.740645,0.004910,
1620,1400,-0.927631,-2.941788,0.999998,0.000155,-0.003049,0.005541,-0.000136,0.005543,-0.003052,-89.094556,0.005552,
1760,620,-1.270962,-7.108196,0.999998,0.000176,-0.002672,0.005244,-0.000057,0.005244,-0.002672,-89.589091,0.005245,
1030,1760,0.203555,-0.967136,0.999999,0.000157,-0.001246,0.003862,0.000032,0.003862,-0.001246,89.635514,0.003942,
1010,1590,0.326824,-1.684096,0.999998,0.000167,-0.001960,0.004344,0.000520,0.004387,-0.002002,85.312855,0.004392,
950,1360,0.640322,-2.938252,0.999997,0.000210,-0.003304,0.005670,0.000674,0.005720,-0.003355,85.730402,0.005749,
850,1740,0.501033,-1.212911,0.999998,0.000188,-0.001863,0.004617,-0.000099,0.004618,-0.001865,-89.121903,0.004647,
1300,1230,-0.156339,-2.571151,0.999997,0.000210,-0.002128,0.001967,-0.001479,0.002446,-0.002606,-72.078009,0.002921,
1200,1490,0.039555,-1.836399,0.999999,0.000199,-0.001261,0.003191,0.000252,0.003205,-0.001275,86.768889,0.003227,
680,1670,0.985579,-1.799742,0.999998,0.000150,-0.002457,0.005081,0.000057,0.005081,-0.002458,89.563144,0.005082,
860,350,0.526340,-8.713404,0.999998,0.000158,-0.001980,0.004657,0.000018,0.004657,-0.001980,89.843091,0.004674,
1150,340,0.083555,-9.013708,0.999998,0.000161,-0.001089,0.003591,-0.000078,0.003592,-0.001090,-89.046007,0.003683,
670,180,0.594417,-9.304617,0.999997,0.000206,-0.002091,0.005073,0.000789,0.005159,-0.002177,83.792124,0.005180,
1260,1840,-0.019453,-0.619739,0.999998,0.000175,-0.000663,0.003386,-0.000003,0.003386,-0.000663,-89.959737,0.003588,
1290,600,-0.074109,-8.114325,0.999998,0.000162,-0.001400,0.003182,0.000590,0.003257,-0.001475,82.773835,0.003261,
1440,1580,-0.306366,-1.706077,0.999998,0.000180,-0.001915,0.004252,-0.000531,0.004297,-0.001960,-85.116206,0.004303,
1210,1530,0.027075,-1.699728,0.999998,0.000162,-0.001264,0.003349,0.000188,0.003356,-0.001272,87.665354,0.003389,
1050,420,0.239611,-8.632439,0.999998,0.000172,-0.001629,0.004050,-0.000373,0.004074,-0.001653,-86.257617,0.004098,
1830,1970,-0.316123,-0.329914,0.999997,0.000199,-0.002046,0.005286,0.001387,0.005540,-0.002300,79.634954,0.005566,
800,1360,1.121518,-3.233079,0.999998,0.000177,-0.002985,0.005566,-0.000114,0.005567,-0.002987,-89.237937,0.005572,
1840,540,-1.356351,-7.398026,0.999997,0.000200,-0.002537,0.005141,0.000022,0.005141,-0.002537,89.834066,0.005141,
1670,1030,-1.662358,-5.028388,0.999998,0.000180,-0.002039,0.005043,0.000027,0.005043,-0.002039,89.785296,0.005074,
1010,920,0.991770,-5.884087,0.999997,0.000187,-0.003248,0.007227,-0.000194,0.007231,-0.003251,-88.941390,0.007243,
1840,1750,-0.990286,-1.491278,0.999998,0.000191,-0.002436,0.005064,0.000001,0.005064,-0.002436,89.989123,0.005065,
1500,860,-0.943654,-6.143867,0.999997,0.000243,-0.003595,0.006697,-0.000168,0.006700,-0.003597,-89.063167,0.006706,
1880,1870,-0.812608,-0.977037,0.999998,0.000174,-0.002451,0.005013,0.000270,0.005022,-0.002461,87.933352,0.005023,
800,1160,1.511353,-4.349725,0.999997,0.000213,-0.002524,0.005380,-0.000639,0.005431,-0.002576,-85.407240,0.005433,
630,180,0.682796,-9.238161,0.999997,0.000186,-0.002389,0.005170,0.000438,0.005196,-0.002414,86.697443,0.005200,
710,1830,0.619632,-0.943009,0.999997,0.000194,-0.002284,0.004954,-0.000426,0.004979,-0.002309,-86.643176,0.004983,
1850,1980,-0.318750,-0.322146,0.999997,0.000194,-0.002315,0.005589,0.001329,0.005806,-0.002532,80.705528,0.005822,
1830,1690,-1.069630,-1.774057,0.999998,0.000159,-0.002458,0.005053,-0.000041,0.005054,-0.002458,-89.689236,0.005054,
1160,400,0.080458,-8.802310,0.999998,0.000169,-0.001195,0.003616,-0.000142,0.003620,-0.001200,-88.308464,0.003688,
1470,740,-0.552326,-7.010433,0.999997,0.000243,-0.003613,0.005804,0.000982,0.005905,-0.003714,84.110183,0.005970,
1420,860,-0.638960,-6.488658,0.999996,0.000235,-0.003683,0.006573,0.001271,0.006728,-0.003838,83.038021,0.006750,
1100,1860,0.078065,-0.569204,0.999998,0.000159,-0.000631,0.003493,-0.000145,0.003498,-0.000637,-87.989319,0.003727,
1000,50,0.024886,-9.983156,0.999999,0.000138,-0.000070,0.003181,0.000379,0.003225,-0.000113,83.440783,0.003660,
800,860,1.446325,-5.918978,0.999998,0.000212,-0.002691,0.005502,0.000644,0.005553,-0.002742,85.533738,0.005553,
1870,590,-1.508677,-7.096455,0.999997,0.000193,-0.002526,0.005061,-0.000019,0.005061,-0.002526,-89.855962,0.005061,
1830,1630,-1.162344,-2.077675,0.999998,0.000168,-0.002494,0.005026,-0.000059,0.005027,-0.002494,-89.554029,0.005027,
1060,220,0.120104,-9.413346,0.999998,0.000173,-0.000851,0.003595,0.000095,0.003597,-0.000853,88.779934,0.003759,
1290,160,-0.026320,-9.641644,0.999999,0.000130,-0.000407,0.003285,-0.000077,0.003286,-0.000409,-88.803779,0.003582,
1500,1890,-0.153572,-0.502438,0.999998,0.000157,-0.000897,0.003710,0.000344,0.003736,-0.000922,85.753497,0.003892,
1880,1210,-1.954331,-4.250020,0.999999,0.000127,-0.002253,0.004629,0.000147,0.004632,-0.002256,88.778531,0.004632,
1130,1760,0.092245,-0.912684,0.999998,0.000162,-0.001031,0.003595,0.000086,0.003596,-0.001033,88.930861,0.003703,
860,330,0.500528,-8.808158,0.999997,0.000181,-0.001911,0.004704,0.000080,0.004705,-0.001911,89.311082,0.004733,
1540,1240,-0.963687,-3.738738,0.999998,0.000164,-0.003536,0.006361,0.000168,0.006364,-0.003539,89.028164,0.006377,
1540,680,-0.709357,-7.159747,0.999997,0.000211,-0.003261,0.005649,0.000503,0.005677,-0.003290,86.777321,0.005701,
730,1560,1.016022,-2.278642,0.999998,0.000153,-0.002586,0.005128,0.000128,0.005130,-0.002588,89.050045,0.005130,
1810,640,-1.435184,-6.933317,0.999997,0.000189,-0.002625,0.005145,-0.000100,0.005147,-0.002626,-89.263342,0.005147,
810,2000,0.073036,-0.126671,0.999998,0.000153,-0.000393,0.003625,-0.000951,0.003838,-0.000606,-77.331841,0.004127,
1760,600,-1.240648,-7.213662,0.999998,0.000179,-0.002661,0.005215,-0.000030,0.005215,-0.002661,-89.785300,0.005215,
1160,180,0.037747,-9.574755,0.999998,0.000170,-0.000456,0.003348,0.000076,0.003350,-0.000457,88.855636,0.003633,
1040,1690,0.228529,-1.234119,0.999998,0.000167,-0.001500,0.004041,0.000209,0.004048,-0.001508,87.847986,0.004092,
840,1620,0.667775,-1.800844,0.999997,0.000198,-0.002392,0.004917,0.000192,0.004922,-0.002397,88.499457,0.004922,
1810,220,-0.737697,-9.075971,0.999998,0.000166,-0.002302,0.005112,-0.000444,0.005138,-0.002328,-86.586897,0.005146,
790,1620,0.786494,-1.876960,0.999997,0.000188,-0.002425,0.005016,0.000118,0.005018,-0.002427,89.087983,0.005019,
1570,1240,-1.065478,-3.794835,0.999997,0.000209,-0.003355,0.006165,0.000357,0.006178,-0.003369,87.857882,0.006187,
970,1230,0.814914,-3.680816,0.999997,0.000222,-0.003847,0.006617,0.000197,0.006621,-0.003851,88.922512,0.006650,
1210,1510,0.027878,-1.767652,0.999998,0.000169,-0.001269,0.003278,0.000216,0.003288,-0.001279,87.282381,0.003315,
1260,1800,-0.023284,-0.757246,0.999998,0.000160,-0.000786,0.003451,-0.000017,0.003451,-0.000786,-89.772895,0.003618,
1420,100,-0.049861,-9.824849,0.999999,0.000143,-0.000395,0.003292,-0.000265,0.003311,-0.000414,-85.915485,0.003608,
1500,640,-0.542814,-7.473897,0.999997,0.000219,-0.002988,0.005213,0.000815,0.005293,-0.003069,84.379589,0.005315,
1800,530,-1.239134,-7.513360,0.999997,0.000181,-0.002568,0.005107,0.000038,0.005107,-0.002568,89.719134,0.005107,
1360,1360,-0.189142,-2.442460,0.999997,0.000215,-0.002239,0.003853,-0.001612,0.004253,-0.002640,-76.055581,0.004294,
1460,1250,-0.633427,-3.429738,0.999997,0.000213,-0.003895,0.006348,-0.000822,0.006414,-0.003960,-85.441309,0.006472,
1210,1650,0.025255,-1.282865,0.999998,0.000161,-0.001148,0.003539,0.000116,0.003542,-0.001151,88.580486,0.003613,
1010,1570,0.336702,-1.772251,0.999998,0.000161,-0.002022,0.004353,0.000564,0.004403,-0.002071,84.981154,0.004405,
1060,1100,0.952479,-4.137386,0.999993,0.000335,-0.003367,0.009199,0.003542,0.010128,-0.004296,75.294757,0.010167,
1840,280,-0.943604,-8.715548,0.999998,0.000167,-0.002427,0.005019,-0.000056,0.005020,-0.002428,-89.566861,0.005021,
1190,340,0.043161,-9.022703,0.999998,0.000167,-0.000975,0.003513,-0.000047,0.003513,-0.000976,-89.404351,0.003627,
720,320,0.784788,-8.675363,0.999998,0.000188,-0.002372,0.005009,0.000055,0.005009,-0.002372,89.570145,0.005012,
720,300,0.749786,-8.775701,0.999998,0.000169,-0.002340,0.005019,0.000150,0.005022,-0.002343,88.834859,0.005026,
1620,1820,-0.391982,-0.855571,0.999997,0.000197,-0.001518,0.004460,0.000458,0.004495,-0.001553,85.640884,0.004566,
1100,1210,0.382348,-3.087819,0.999997,0.000211,-0.003016,0.004484,0.002281,0.005123,-0.003656,74.341474,0.005277,
1050,640,0.302226,-7.708766,0.999997,0.000203,-0.002446,0.004448,-0.001213,0.004655,-0.002653,-80.309921,0.004670,
760,1860,0.453029,-0.742878,0.999997,0.000196,-0.001672,0.004727,-0.000740,0.004812,-0.001756,-83.489773,0.004870,
1100,1840,0.089457,-0.639790,0.999998,0.000151,-0.000681,0.003496,-0.000101,0.003499,-0.000684,-88.619468,0.003709,
1830,1610,-1.191054,-2.179685,0.999998,0.000174,-0.002524,0.005072,-0.000069,0.005073,-0.002524,-89.482903,0.005073,
1870,1870,-0.787045,-0.953741,0.999997,0.000205,-0.002428,0.005035,0.000284,0.005045,-0.002439,87.822852,0.005046,
970,160,0.140933,-9.599342,0.999998,0.000154,-0.000826,0.003697,0.000374,0.003727,-0.000856,85.307625,0.003904,
1290,620,-0.072210,-8.051739,0.999998,0.000157,-0.001399,0.003087,0.000693,0.003192,-0.001504,81.413801,0.003193,
1580,1640,-0.550045,-1.642147,0.999997,0.000208,-0.002147,0.004729,-0.000188,0.004734,-0.002152,-88.432169,0.004740,
800,840,1.406032,-6.032309,0.999997,0.000198,-0.002772,0.005525,0.000609,0.005570,-0.002816,85.821544,0.005570,
1090,40,0.009726,-10.017384,0.999999,0.000154,-0.000052,0.003060,0.000184,0.003071,-0.000063,86.620941,0.003511,
1470,1820,-0.195721,-0.753213,0.999998,0.000157,-0.000985,0.003860,0.000224,0.003870,-0.000996,87.359151,0.004020,
1520,1130,-1.209335,-4.407560,0.999997,0.000214,-0.002727,0.006389,0.000661,0.006437,-0.002775,85.871308,0.006457,
1870,1210,-1.932170,-4.237503,0.999998,0.000148,-0.002260,0.004661,0.000183,0.004666,-0.002265,88.483532,0.004666,
1890,430,-1.317282,-7.879575,0.999997,0.000215,-0.002465,0.004970,0.000015,0.004970,-0.002465,89.884011,0.004971,
1470,720,-0.524412,-7.126371,0.999998,0.000193,-0.003459,0.005635,0.001016,0.005747,-0.003572,83.701659,0.005804,
1080,1610,0.199239,-1.509376,0.999998,0.000176,-0.001564,0.003911,0.000453,0.003949,-0.001601,85.305949,0.003972,
1180,1490,0.065037,-1.846401,0.999999,0.000147,-0.001317,0.003273,0.000404,0.003308,-0.001352,85.013390,0.003327,
1890,680,-1.707343,-6.608356,0.999997,0.000209,-0.002540,0.005068,-0.000053,0.005068,-0.002540,-89.604394,0.005068,
580,1490,1.502030,-2.875984,0.999998,0.000214,-0.003646,0.004431,0.000713,0.004493,-0.003708,84.996500,0.004800,
1040,1670,0.240210,-1.316237,0.999998,0.000161,-0.001535,0.004050,0.000261,0.004062,-0.001547,87.326214,0.004100,
1850,960,-2.020327,-5.336928,0.999998,0.000178,-0.002128,0.004405,-0.000078,0.004406,-0.002129,-89.317729,0.004407,
1540,660,-0.685532,-7.271854,0.999997,0.000206,-0.003142,0.005547,0.000535,0.005580,-0.003175,86.487633,0.005598,
1760,580,-1.208781,-7.317370,0.999997,0.000179,-0.002651,0.005185,-0.000005,0.005185,-0.002651,-89.961764,0.005185,
810,1980,0.116124,-0.201409,0.999998,0.000176,-0.000542,0.003803,-0.000979,0.004014,-0.000753,-77.876686,0.004267,
1500,840,-0.885175,-6.275595,0.999997,0.000225,-0.003723,0.006639,0.000007,0.006639,-0.003723,89.960018,0.006655,
1160,360,0.076348,-8.944975,0.999999,0.000135,-0.001089,0.003585,-0.000079,0.003586,-0.001090,-89.031000,0.003677,
1360,230,-0.092906,-9.390724,0.999998,0.000159,-0.000764,0.003560,-0.000081,0.003562,-0.000766,-88.931258,0.003749,
1540,1220,-1.013054,-3.868208,0.999998,0.000173,-0.003434,0.006366,0.000332,0.006377,-0.003445,88.059410,0.006384,
1680,1770,-0.588471,-1.149715,0.999997,0.000193,-0.002144,0.004796,0.000235,0.004804,-0.002152,88.061254,0.004813,
690,180,0.551482,-9.332583,0.999998,0.000183,-0.002140,0.004967,0.000715,0.005038,-0.002211,84.314171,0.005051,
1810,620,-1.403448,-7.035380,0.999997,0.000190,-0.002602,0.005097,-0.000069,0.005097,-0.002603,-89.488693,0.005098,
890,1380,0.809466,-2.962998,0.999998,0.000173,-0.003205,0.005644,0.000279,0.005653,-0.003214,88.193071,0.005671,
800,1340,1.158890,-3.346515,0.999998,0.000213,-0.003008,0.005601,-0.000217,0.005606,-0.003014,-88.555524,0.005611,
1010,940,1.065861,-5.737075,0.999998,0.000176,-0.003030,0.007481,-0.000241,0.007487,-0.003036,-88.687369,0.007531,
760,1630,0.847369,-1.874126,0.999997,0.000187,-0.002445,0.005019,0.000124,0.005021,-0.002447,89.050651,0.005022,
630,160,0.619762,-9.344474,0.999997,0.000207,-0.002390,0.005231,0.000519,0.005267,-0.002425,86.118653,0.005272,
970,1210,0.872834,-3.814168,0.999997,0.000218,-0.003758,0.006716,0.000024,0.006716,-0.003758,89.870668,0.006732,
1300,40,-0.005423,-10.018101,0.999999,0.000128,-0.000032,0.002968,-0.000081,0.002971,-0.000034,-88.460015,0.003411,
1160,380,0.078759,-8.874557,0.999998,0.000149,-0.001137,0.003604,-0.000106,0.003607,-0.001139,-88.724037,0.003687,
840,1600,0.690304,-1.900535,0.999997,0.000207,-0.002421,0.004932,0.000219,0.004938,-0.002427,88.296825,0.004938,
1790,220,-0.693015,-9.105097,0.999997,0.000196,-0.002245,0.005076,-0.000511,0.005112,-0.002281,-86.029332,0.005122,
1840,520,-1.325681,-7.503106,0.999997,0.000212,-0.002535,0.005104,0.000048,0.005105,-0.002536,89.643083,0.005105,
1500,680,-0.581245,-7.261226,0.999997,0.000204,-0.003204,0.005509,0.000802,0.005583,-0.003277,84.783294,0.005611,
1780,530,-1.187395,-7.544802,0.999998,0.000171,-0.002594,0.005119,0.000050,0.005119,-0.002594,89.625637,0.005119,
1060,200,0.107141,-9.484399,0.999998,0.000162,-0.000785,0.003575,0.000158,0.003581,-0.000791,87.929568,0.003762,
1260,1260,-0.039319,-2.366740,0.999998,0.000183,-0.001498,0.001215,-0.000799,0.001433,-0.001715,-74.752990,0.001839,
720,340,0.817679,-8.573615,0.999997,0.000197,-0.002399,0.005032,0.000019,0.005032,-0.002399,89.855672,0.005034,
1840,240,-0.857482,-8.917675,0.999998,0.000173,-0.002418,0.005014,-0.000109,0.005016,-0.002420,-89.162623,0.005017,
720,540,1.105256,-7.553943,0.999998,0.000159,-0.002656,0.005202,-0.000080,0.005203,-0.002657,-89.417120,0.005204,
1170,340,0.062349,-9.019530,0.999999,0.000118,-0.001002,0.003546,-0.000029,0.003546,-0.001002,-89.635445,0.003656,
1100,1820,0.095752,-0.707662,0.999998,0.000143,-0.000764,0.003531,-0.000072,0.003532,-0.000766,-89.034231,0.003716,
1830,1590,-1.219964,-2.281450,0.999998,0.000182,-0.002537,0.005050,-0.000072,0.005050,-0.002537,-89.455547,0.005050,
790,300,0.598085,-8.868214,0.999997,0.000209,-0.002171,0.004760,0.000155,0.004764,-0.002174,88.718203,0.004770,
820,710,1.088030,-6.791093,0.999998,0.000161,-0.003074,0.005641,0.000137,0.005643,-0.003076,89.097124,0.005650,
970,1260,0.739482,-3.485833,0.999997,0.000214,-0.003823,0.006429,0.000448,0.006448,-0.003842,87.502002,0.006488,
800,820,1.365334,-6.140871,0.999998,0.000187,-0.002839,0.005583,0.000575,0.005622,-0.002878,86.110485,0.005623,
1040,1130,0.914088,-4.067969,0.999997,0.000217,-0.003270,0.007386,0.001466,0.007584,-0.003468,82.310412,0.007593,
860,310,0.474978,-8.902415,0.999997,0.000194,-0.001864,0.004544,0.000109,0.004546,-0.001866,89.021573,0.004570,
1540,1200,-1.067864,-3.994529,0.999998,0.000171,-0.003348,0.006344,0.000457,0.006365,-0.003370,87.304978,0.006369,
770,1440,1.079384,-2.844470,0.999997,0.000202,-0.002815,0.005360,0.000042,0.005360,-0.002815,89.705634,0.005363,
1220,380,0.011568,-8.888924,0.999998,0.000153,-0.001127,0.003538,-0.000079,0.003539,-0.001128,-89.033477,0.003616,
1360,1340,-0.192408,-2.520124,0.999997,0.000202,-0.002368,0.003936,-0.001771,0.004399,-0.002832,-75.331829,0.004459,
1760,560,-1.177908,-7.420805,0.999998,0.000180,-0.002641,0.005200,0.000035,0.005200,-0.002641,89.744827,0.005200,
1580,1620,-0.570940,-1.736145,0.999998,0.000201,-0.002193,0.004768,-0.000216,0.004775,-0.002200,-88.221473,0.004780,
1440,1950,-0.061399,-0.275306,0.999998,0.000173,-0.000376,0.003380,0.000323,0.003408,-0.000404,85.115769,0.003724,
630,940,1.967815,-5.436385,0.999997,0.000205,-0.002190,0.004607,0.000268,0.004617,-0.002200,87.748076,0.004619,
1890,1920,-0.672583,-0.745393,0.999998,0.000188,-0.002441,0.005337,0.000665,0.005393,-0.002497,85.148915,0.005398,
1060,400,0.215172,-8.726137,0.999998,0.000180,-0.001567,0.003978,-0.000342,0.003999,-0.001588,-86.484385,0.004027,
1100,1690,0.148006,-1.187833,0.999998,0.000151,-0.001196,0.003782,0.000146,0.003786,-0.001200,88.319352,0.003869,
1590,1420,-0.805940,-2.775994,0.999998,0.000171,-0.003020,0.005453,-0.000313,0.005464,-0.003032,-87.884230,0.005475,
1010,1550,0.347311,-1.860831,0.999997,0.000182,-0.002043,0.004390,0.000619,0.004449,-0.002102,84.552888,0.004451,
1380,1150,-0.711684,-3.520057,0.999997,0.000215,-0.001988,0.005202,-0.003096,0.006351,-0.003138,-69.632611,0.006352,
1710,630,-1.150006,-7.129381,0.999998,0.000168,-0.002810,0.005326,-0.000044,0.005326,-0.002810,-89.691523,0.005329,
970,1120,1.166520,-4.424893,0.999997,0.000199,-0.002774,0.006761,-0.000502,0.006787,-0.002800,-86.994689,0.006821,
1050,600,0.293443,-7.882216,0.999998,0.000180,-0.002243,0.004315,-0.001025,0.004472,-0.002399,-81.321586,0.004476,
800,1180,1.476974,-4.242097,0.999997,0.000205,-0.002598,0.005434,-0.000633,0.005484,-0.002648,-85.520477,0.005485,
1140,780,0.134233,-7.495976,0.999997,0.000209,-0.002217,0.002976,-0.002081,0.003707,-0.002948,-70.646458,0.003916,
1840,220,-0.808529,-9.017134,0.999998,0.000172,-0.002414,0.005075,-0.000189,0.005080,-0.002419,-88.552665,0.005082,
1350,280,-0.104983,-9.214364,0.999998,0.000157,-0.000979,0.003637,0.000023,0.003637,-0.000980,89.708905,0.003764,
1080,40,0.009803,-10.016926,0.999999,0.000148,-0.000064,0.003091,0.000206,0.003104,-0.000077,86.278628,0.003541,
720,360,0.850795,-8.471819,0.999997,0.000196,-0.002430,0.005053,-0.000014,0.005053,-0.002430,-89.891809,0.005054,
1640,490,-0.772609,-7.979316,0.999998,0.000176,-0.002545,0.005104,0.000231,0.005111,-0.002552,88.268360,0.005111,
960,1830,0.221579,-0.732904,0.999998,0.000150,-0.001230,0.003926,-0.000213,0.003935,-0.001239,-87.636373,0.004024,
1880,430,-1.292797,-7.894437,0.999997,0.000214,-0.002470,0.004974,0.000032,0.004974,-0.002470,89.756960,0.004974,
1680,1750,-0.621082,-1.245033,0.999998,0.000176,-0.002196,0.004806,0.000153,0.004810,-0.002200,88.746314,0.004815,
820,890,1.452117,-5.767462,0.999997,0.000227,-0.002581,0.005495,0.000663,0.005549,-0.002635,85.340210,0.005551,
580,1480,1.517774,-2.926776,0.999997,0.000202,-0.003712,0.004462,0.000459,0.004488,-0.003737,86.799048,0.004808,
1300,1310,-0.079144,-2.396105,0.999997,0.000210,-0.001573,0.002457,-0.001566,0.002994,-0.002110,-71.068267,0.003076,
1260,1240,-0.056644,-2.388629,0.999998,0.000170,-0.001976,0.001233,-0.000647,0.001359,-0.002101,-79.014847,0.002131,
1670,1010,-1.657171,-5.129382,0.999998,0.000167,-0.002058,0.005046,-0.000159,0.005050,-0.002062,-88.718159,0.005078,
800,1320,1.194220,-3.457922,0.999997,0.000207,-0.003024,0.005634,-0.000279,0.005643,-0.003033,-88.155505,0.005649,
1640,690,-1.043203,-6.910224,0.999998,0.000201,-0.003038,0.005596,-0.000051,0.005597,-0.003038,-89.661185,0.005604,
1250,340,-0.020031,-9.027614,0.999998,0.000141,-0.001005,0.003518,0.000075,0.003520,-0.001006,89.055897,0.003626,
760,580,1.054743,-7.406023,0.999998,0.000177,-0.002727,0.005287,-0.000072,0.005288,-0.002728,-89.482640,0.005289,
1780,940,-1.847467,-5.455891,0.999998,0.000162,-0.002258,0.004837,-0.000371,0.004857,-0.002277,-87.018154,0.004860,
1830,1570,-1.248642,-2.382962,0.999998,0.000187,-0.002531,0.005104,-0.000071,0.005104,-0.002531,-89.467709,0.005104,
1050,760,0.376055,-7.122907,0.999998,0.000177,-0.003438,0.005353,-0.001644,0.005651,-0.003736,-79.744317,0.005748,
760,1840,0.500207,-0.840339,0.999998,0.000188,-0.001766,0.004736,-0.000627,0.004796,-0.001826,-84.545668,0.004841,
720,520,1.075767,-7.655691,0.999998,0.000168,-0.002599,0.005188,-0.000087,0.005189,-0.002600,-89.361768,0.005189,
1620,1840,-0.362676,-0.770274,0.999997,0.000214,-0.001409,0.004386,0.000527,0.004434,-0.001457,84.847467,0.004520,
810,380,0.670587,-8.506214,0.999998,0.000177,-0.002304,0.004921,-0.000055,0.004922,-0.002304,-89.561528,0.004925,
1840,500,-1.297538,-7.603505,0.999997,0.000213,-0.002539,0.005074,0.000047,0.005075,-0.002539,89.642931,0.005075,
870,1380,0.873585,-3.001971,0.999998,0.000169,-0.003164,0.005629,0.000201,0.005634,-0.003168,88.691578,0.005648,
1100,1800,0.107041,-0.780413,0.999999,0.000137,-0.000837,0.003587,-0.000031,0.003587,-0.000837,-89.595767,0.003753,
1360,1320,-0.197694,-2.599941,0.999998,0.000206,-0.002511,0.003994,-0.001904,0.004511,-0.003028,-74.826463,0.004598,
1500,1120,-1.184246,-4.440722,0.999997,0.000190,-0.002699,0.006630,0.000557,0.006664,-0.002732,86.596077,0.006699,
1230,1320,0.000512,-2.257626,0.999998,0.000157,-0.000997,0.001710,0.000041,0.001711,-0.000997,89.132962,0.001719,
970,1190,0.932977,-3.948105,0.999997,0.000212,-0.003626,0.006714,-0.000152,0.006717,-0.003628,-89.156940,0.006724,
1580,1600,-0.589329,-1.831673,0.999998,0.000195,-0.002267,0.004813,-0.000276,0.004824,-0.002278,-87.770265,0.004826,
800,710,1.147319,-6.762304,0.999997,0.000229,-0.003001,0.005585,0.000200,0.005590,-0.003006,88.668012,0.005595,
800,800,1.323803,-6.254551,0.999997,0.000207,-0.002923,0.005614,0.000514,0.005645,-0.002954,86.566852,0.005647,
860,290,0.449742,-8.990256,0.999998,0.000175,-0.001816,0.004502,0.000174,0.004507,-0.001821,88.425109,0.004534,
1540,1180,-1.125366,-4.120666,0.999998,0.000180,-0.003183,0.006324,0.000578,0.006359,-0.003218,86.534632,0.006359,
850,1440,0.850677,-2.709504,0.999997,0.000210,-0.002935,0.005377,0.000275,0.005386,-0.002944,88.109724,0.005394,
1880,1920,-0.647417,-0.720964,0.999998,0.000204,-0.002428,0.005333,0.000642,0.005386,-0.002481,85.301237,0.005391,
1010,1530,0.355563,-1.949480,0.999997,0.000182,-0.002099,0.004425,0.000676,0.004495,-0.002168,84.147644,0.004496,
1090,910,0.722299,-6.615697,0.999994,0.000281,-0.001594,0.005085,-0.003386,0.006502,-0.003011,-67.300866,0.006507,
1760,540,-1.149842,-7.525605,0.999998,0.000189,-0.002618,0.005151,0.000058,0.005152,-0.002619,89.575715,0.005152,
950,1120,1.220569,-4.460651,0.999998,0.000205,-0.002644,0.006428,-0.000605,0.006468,-0.002684,-86.203759,0.006499,
1050,580,0.287642,-7.968665,0.999998,0.000163,-0.002183,0.004281,-0.000950,0.004418,-0.002320,-81.807108,0.004420,
840,1810,0.414081,-0.905149,0.999998,0.000169,-0.001569,0.004529,-0.000429,0.004559,-0.001599,-85.990557,0.004626,
1220,60,0.000811,-9.959748,0.999999,0.000137,-0.000134,0.003020,0.000023,0.003020,-0.000134,89.574552,0.003413,
720,800,1.546069,-6.181233,0.999997,0.000215,-0.002671,0.005203,0.000505,0.005236,-0.002703,86.348077,0.005237,
580,1470,1.533409,-2.978346,0.999997,0.000204,-0.003858,0.004636,-0.000063,0.004636,-0.003859,-89.576242,0.004966,
1830,560,-1.360191,-7.311662,0.999997,0.000203,-0.002553,0.005134,0.000023,0.005134,-0.002553,89.830180,0.005134,
1260,670,-0.030719,-7.940383,0.999999,0.000138,-0.001129,0.002522,0.000450,0.002576,-0.001183,83.073320,0.002579,
1670,990,-1.647380,-5.230068,0.999997,0.000192,-0.002095,0.005047,-0.000208,0.005053,-0.002101,-88.330051,0.005077,
800,1620,0.762318,-1.861760,0.999998,0.000194,-0.002385,0.004991,0.000118,0.004993,-0.002387,89.087042,0.004994,
1680,410,-0.770187,-8.317292,0.999998,0.000180,-0.002362,0.004992,0.000082,0.004993,-0.002362,89.358422,0.004995,
920,1710,0.404147,-1.271461,0.999998,0.000202,-0.001624,0.004452,-0.000034,0.004452,-0.001624,-89.683795,0.004506,
1770,260,-0.735410,-8.935107,0.999997,0.000213,-0.002370,0.005011,-0.000265,0.005020,-0.002379,-87.946602,0.005022,
760,560,1.026649,-7.513837,0.999998,0.000179,-0.002695,0.005251,-0.000127,0.005253,-0.002697,-89.086275,0.005254,
720,500,1.049510,-7.759802,0.999999,0.000150,-0.002545,0.005154,-0.000101,0.005155,-0.002547,-89.245668,0.005155,
1450,720,-0.458265,-7.193696,0.999997,0.000210,-0.003333,0.005461,0.001212,0.005625,-0.003498,82.292439,0.005680,
830,600,0.888531,-7.415904,0.999998,0.000169,-0.002864,0.005394,-0.000202,0.005399,-0.002869,-88.597810,0.005402,
1100,1780,0.114722,-0.853441,0.999999,0.000138,-0.000912,0.003682,-0.000017,0.003682,-0.000912,-89.789232,0.003835,
1700,510,-0.951371,-7.777690,0.999998,0.000158,-0.002598,0.005183,0.000163,0.005187,-0.002602,88.802536,0.005187,
1290,340,-0.059552,-9.019378,0.999999,0.000130,-0.001003,0.003573,0.000029,0.003574,-0.001003,89.634312,0.003686,
1840,200,-0.756467,-9.120859,0.999998,0.000175,-0.002405,0.005103,-0.000250,0.005111,-0.002413,-88.097873,0.005114,
800,690,1.112751,-6.874336,0.999998,0.000197,-0.002997,0.005521,0.000117,0.005522,-0.002998,89.214010,0.005529,
800,1300,1.232178,-3.573274,0.999998,0.000192,-0.003013,0.005672,-0.000348,0.005686,-0.003027,-87.708909,0.005690,
670,2000,0.148217,-0.151755,0.999998,0.000191,-0.000441,0.004519,-0.001929,0.005181,-0.001103,-71.060929,0.005458,
1080,50,0.014396,-9.985788,0.999998,0.000165,-0.000097,0.003103,0.000204,0.003116,-0.000110,86.373628,0.003536,
1710,1480,-1.067013,-2.658994,0.999998,0.000167,-0.002704,0.005256,-0.000073,0.005257,-0.002705,-89.475559,0.005258,
1580,1580,-0.608384,-1.926849,0.999997,0.000198,-0.002391,0.004859,-0.000324,0.004874,-0.002406,-87.444533,0.004874,
1650,1960,-0.156732,-0.278294,0.999998,0.000186,-0.000712,0.003916,0.000923,0.004093,-0.000889,79.132278,0.004306,
1360,1300,-0.207575,-2.678996,0.999997,0.000204,-0.002666,0.004080,-0.002025,0.004641,-0.003228,-74.509101,0.004758,
1830,1910,-0.561371,-0.648356,0.999997,0.000211,-0.002327,0.005227,0.000677,0.005287,-0.002387,84.922076,0.005295,
1220,360,0.014426,-8.959270,0.999999,0.000138,-0.001105,0.003501,-0.000065,0.003502,-0.001106,-89.190954,0.003580,
1500,1100,-1.240875,-4.569092,0.999998,0.000169,-0.002438,0.006571,0.000535,0.006602,-0.002469,86.613632,0.006672,
800,780,1.283283,-6.366302,0.999997,0.000198,-0.002980,0.005627,0.000449,0.005650,-0.003003,87.022953,0.005654,
1010,1750,0.234581,-1.021026,0.999998,0.000154,-0.001231,0.003944,-0.000005,0.003944,-0.001231,-89.942656,0.004036,
1340,1290,-0.165018,-2.621153,0.999998,0.000172,-0.002426,0.003537,-0.002113,0.004209,-0.003099,-72.339525,0.004363,
1830,1550,-1.277268,-2.485273,0.999998,0.000204,-0.002531,0.005140,-0.000053,0.005140,-0.002531,-89.604479,0.005140,
1260,820,-0.060870,-7.684522,0.999998,0.000189,-0.002142,0.001251,0.000553,0.001339,-0.002230,80.979098,0.002245,
760,480,0.919372,-7.928102,0.999998,0.000165,-0.002530,0.005079,-0.000135,0.005082,-0.002533,-88.985164,0.005082,
1760,520,-1.120968,-7.627566,0.999998,0.000175,-0.002596,0.005144,0.000078,0.005145,-0.002597,89.419258,0.005145,
810,360,0.641897,-8.605084,0.999997,0.000190,-0.002285,0.004859,-0.000021,0.004859,-0.002285,-89.831195,0.004861,
790,1120,1.600152,-4.567866,0.999997,0.000220,-0.002326,0.005202,-0.000491,0.005234,-0.002358,-86.287347,0.005242,
870,1440,0.790283,-2.670486,0.999998,0.000196,-0.002933,0.005353,0.000322,0.005365,-0.002946,87.774858,0.005374,
1210,1990,0.004596,-0.137606,0.999999,0.000135,-0.000148,0.003047,-0.000021,0.003047,-0.000148,-89.618172,0.003436,
720,780,1.508662,-6.284423,0.999998,0.000214,-0.002707,0.005259,0.000453,0.005285,-0.002732,86.758391,0.005286,
1810,560,-1.309905,-7.343605,0.999997,0.000185,-0.002554,0.005143,0.000039,0.005143,-0.002554,89.708800,0.005143,
720,850,1.636790,-5.921151,0.999997,0.000198,-0.002498,0.005088,0.000523,0.005124,-0.002534,86.072652,0.005124,
1350,420,-0.146355,-8.695862,0.999998,0.000189,-0.001346,0.003729,0.000274,0.003744,-0.001361,86.921514,0.003790,
830,1380,0.996873,-3.074879,0.999997,0.000220,-0.003075,0.005531,0.000033,0.005532,-0.003075,89.779654,0.005543,
970,1170,0.999263,-4.082586,0.999998,0.000180,-0.003444,0.006761,-0.000316,0.006771,-0.003454,-88.228811,0.006772,
660,1490,1.298359,-2.751624,0.999997,0.000180,-0.002568,0.005135,0.000025,0.005135,-0.002568,89.816986,0.005135,
810,940,1.561520,-5.492600,0.999997,0.000233,-0.002269,0.005236,0.000509,0.005270,-0.002304,86.136003,0.005284,
1730,360,-0.817820,-8.495057,0.999998,0.000165,-0.002412,0.005048,-0.000012,0.005048,-0.002412,-89.905823,0.005050,
1230,1300,0.001466,-2.289309,0.999998,0.000147,-0.001040,0.001441,0.000038,0.001441,-0.001041,89.117403,0.001488,
590,1750,1.071727,-1.552409,0.999998,0.000168,-0.002394,0.004944,0.000062,0.004944,-0.002395,89.518879,0.004945,
1100,1950,0.036223,-0.266720,0.999999,0.000138,-0.000263,0.003243,-0.000191,0.003253,-0.000273,-86.889993,0.003609,
840,1790,0.447043,-0.993749,0.999998,0.000169,-0.001662,0.004480,-0.000338,0.004499,-0.001681,-86.859320,0.004546,
1080,230,0.111407,-9.383901,0.999997,0.000211,-0.000729,0.003574,0.000122,0.003578,-0.000733,88.373929,0.003780,
720,480,1.020994,-7.862154,0.999999,0.000153,-0.002523,0.005103,-0.000121,0.005105,-0.002525,-89.089922,0.005105,
1090,730,0.228518,-7.449662,0.999997,0.000204,-0.002672,0.004268,-0.001851,0.004731,-0.003135,-75.958652,0.004814,
630,920,1.944490,-5.527345,0.999999,0.000141,-0.002192,0.004633,0.000286,0.004645,-0.002204,87.603115,0.004647,
760,540,1.000641,-7.617159,0.999998,0.000175,-0.002660,0.005188,-0.000138,0.005191,-0.002663,-88.994084,0.005191,
1330,340,-0.102478,-9.006327,0.999998,0.000165,-0.001153,0.003637,0.000153,0.003642,-0.001158,88.172265,0.003722,
1840,180,-0.699545,-9.221220,0.999997,0.000196,-0.002418,0.005190,-0.000356,0.005207,-0.002435,-87.323346,0.005211,
910,1720,0.410693,-1.236306,0.999998,0.000209,-0.001710,0.004486,-0.000014,0.004486,-0.001710,-89.867902,0.004528,
1010,1510,0.363052,-2.036197,0.999998,0.000180,-0.002177,0.004459,0.000710,0.004534,-0.002252,83.965087,0.004534,
600,50,0.230790,-9.870647,0.999996,0.000227,-0.001399,0.005516,0.002166,0.006138,-0.002021,73.967554,0.006256,
800,760,1.243407,-6.479910,0.999998,0.000184,-0.002998,0.005657,0.000374,0.005673,-0.003014,87.532718,0.005677,
1510,280,-0.288444,-9.117417,0.999998,0.000174,-0.001498,0.004149,-0.000083,0.004150,-0.001500,-89.160733,0.004203,
800,40,0.046988,-10.005014,0.999999,0.000134,-0.000449,0.003545,0.000934,0.003753,-0.000656,77.467108,0.004008,
1830,1890,-0.625841,-0.754225,0.999997,0.000218,-0.002348,0.005234,0.000565,0.005276,-0.002390,85.763829,0.005284,
1830,1530,-1.307183,-2.589716,0.999997,0.000202,-0.002541,0.005117,-0.000039,0.005117,-0.002541,-89.707787,0.005117,
980,2010,0.021452,-0.081717,0.999999,0.000119,-0.000163,0.003141,-0.000397,0.003188,-0.000210,-83.247436,0.003567,
1260,800,-0.041753,-7.707967,0.999998,0.000191,-0.001553,0.001236,0.000797,0.001447,-0.001764,75.126041,0.001881,
1100,1760,0.125435,-0.927513,0.999999,0.000133,-0.000996,0.003659,0.000016,0.003659,-0.000996,89.798579,0.003783,
800,990,1.634092,-5.230485,0.999998,0.000171,-0.002038,0.005074,0.000232,0.005082,-0.002045,88.131770,0.005114,
950,160,0.160517,-9.591415,0.999998,0.000149,-0.000869,0.003762,0.000417,0.003799,-0.000907,84.901304,0.003969,
1610,640,-0.874103,-7.239679,0.999998,0.000165,-0.003021,0.005512,0.000193,0.005516,-0.003025,88.705600,0.005525,
1560,50,-0.040177,-9.977842,0.999999,0.000147,-0.000188,0.003354,-0.000635,0.003465,-0.000298,-80.135433,0.003840,
1290,1280,-0.073106,-2.426847,0.999996,0.000278,-0.001557,0.002003,-0.001561,0.002590,-0.002144,-69.378703,0.002769,
1360,1280,-0.227746,-2.764238,0.999998,0.000190,-0.002837,0.004189,-0.002188,0.004814,-0.003462,-74.043301,0.004966,
1500,1080,-1.288559,-4.700210,0.999998,0.000167,-0.002211,0.006499,0.000429,0.006520,-0.002232,87.190019,0.006627,
670,2010,0.110180,-0.108916,0.999998,0.000172,-0.000265,0.004326,-0.001878,0.004996,-0.000936,-70.353134,0.005312,
890,1440,0.732728,-2.633286,0.999997,0.000196,-0.002941,0.005323,0.000416,0.005344,-0.002962,87.122890,0.005354,
1760,500,-1.091659,-7.732817,0.999998,0.000161,-0.002555,0.005163,0.000098,0.005165,-0.002556,89.270598,0.005165,
800,1280,1.272273,-3.685567,0.999998,0.000195,-0.002999,0.005620,-0.000427,0.005641,-0.003020,-87.173124,0.005646,
570,1030,2.132661,-5.028911,0.999992,0.000347,-0.001848,0.004160,-0.000012,0.004160,-0.001848,-89.882418,0.004169,
1210,1970,0.003704,-0.197414,0.999998,0.000158,-0.000212,0.003049,-0.000024,0.003049,-0.000212,-89.580390,0.003405,
1340,1270,-0.182202,-2.691122,0.999997,0.000234,-0.002595,0.003571,-0.002237,0.004297,-0.003320,-72.020838,0.004505,
700,1680,0.921741,-1.715323,0.999997,0.000187,-0.002442,0.005070,0.000056,0.005070,-0.002442,89.573758,0.005071,
720,760,1.472581,-6.391710,0.999997,0.000210,-0.002755,0.005305,0.000392,0.005324,-0.002774,87.221523,0.005326,
1220,340,0.011983,-9.030493,0.999999,0.000127,-0.001078,0.003503,-0.000047,0.003504,-0.001078,-89.412924,0.003589,
970,1150,1.068720,-4.223147,0.999997,0.000199,-0.003218,0.006781,-0.000440,0.006800,-0.003238,-87.482604,0.006803,
790,360,0.687298,-8.574671,0.999997,0.000198,-0.002266,0.004900,-0.000012,0.004900,-0.002266,-89.902098,0.004904,
810,1380,1.057562,-3.106339,0.999998,0.000158,-0.003012,0.005509,-0.000033,0.005509,-0.003012,-89.776658,0.005517,
1370,720,-0.218657,-7.501831,0.999998,0.000168,-0.002520,0.004198,0.001796,0.004648,-0.002969,75.936554,0.004707,
1710,400,-0.828751,-8.322968,0.999998,0.000164,-0.002402,0.005045,0.000085,0.005046,-0.002403,89.342284,0.005047,
1890,140,-0.691451,-9.306947,0.999997,0.000220,-0.002438,0.005300,-0.000612,0.005348,-0.002486,-85.502246,0.005353,
1340,230,-0.075845,-9.395598,0.999998,0.000170,-0.000828,0.003511,-0.000024,0.003511,-0.000828,-89.685352,0.003670,
1160,1490,0.091376,-1.867425,0.999998,0.000158,-0.001420,0.003384,0.000591,0.003456,-0.001491,83.089809,0.003467,
1820,1290,-1.679662,-3.795861,0.999998,0.000167,-0.002499,0.004977,0.000314,0.004990,-0.002512,87.597679,0.004990,
1570,1160,-1.268137,-4.283972,0.999997,0.000232,-0.002813,0.006021,0.000745,0.006083,-0.002876,85.211503,0.006086,
990,640,0.462225,-7.546251,0.999996,0.000212,-0.002882,0.005027,-0.000968,0.005144,-0.002998,-83.124939,0.005168,
790,940,1.605387,-5.486940,0.999997,0.000202,-0.002227,0.005141,0.000469,0.005171,-0.002257,86.375255,0.005184,
720,460,0.995728,-7.964901,0.999998,0.000169,-0.002528,0.005073,-0.000111,0.005074,-0.002530,-89.160166,0.005074,
1840,160,-0.635039,-9.330072,0.999998,0.000193,-0.002424,0.005219,-0.000429,0.005243,-0.002448,-86.794307,0.005247,
760,520,0.972483,-7.721324,0.999998,0.000144,-0.002616,0.005178,-0.000137,0.005180,-0.002619,-88.994726,0.005180,
580,1750,1.095418,-1.572416,0.999998,0.000170,-0.002325,0.004925,0.000076,0.004925,-0.002325,89.395992,0.004928,
1570,2000,-0.049456,-0.119646,0.999998,0.000157,-0.000273,0.003423,0.000632,0.003528,-0.000378,80.559435,0.003874,
1490,280,-0.258818,-9.134617,0.999998,0.000165,-0.001383,0.004065,-0.000078,0.004066,-0.001384,-89.181852,0.004135,
1370,310,-0.137250,-9.094725,0.999998,0.000173,-0.001051,0.003711,0.000039,0.003711,-0.001051,89.526360,0.003826,
800,740,1.203993,-6.593635,0.999997,0.000182,-0.003010,0.005636,0.000303,0.005646,-0.003020,87.996291,0.005651,
790,60,0.094681,-9.931539,0.999998,0.000191,-0.000597,0.003730,0.001011,0.003955,-0.000821,77.474137,0.004174,
1890,230,-0.955430,-8.858347,0.999998,0.000158,-0.002386,0.004852,-0.000097,0.004853,-0.002387,-89.236014,0.004853,
630,1620,1.185047,-2.134167,0.999998,0.000150,-0.002519,0.005061,0.000073,0.005062,-0.002520,89.450849,0.005062,
1550,50,-0.039325,-9.976783,0.999999,0.000152,-0.000120,0.003336,-0.000607,0.003439,-0.000224,-80.315682,0.003849,
1100,1720,0.139423,-1.075979,0.999998,0.000178,-0.001133,0.003731,0.000096,0.003733,-0.001134,88.865548,0.003827,
1510,1800,-0.263561,-0.859736,0.999998,0.000171,-0.001375,0.003998,0.000159,0.004003,-0.001379,88.310865,0.004067,
1760,550,-1.164144,-7.473300,0.999998,0.000191,-0.002631,0.005181,0.000045,0.005181,-0.002631,89.666395,0.005181,
1260,780,-0.035026,-7.733928,0.999998,0.000181,-0.001252,0.001342,0.000857,0.001600,-0.001510,73.267504,0.001798,
600,40,0.174396,-9.925509,0.999991,0.000368,-0.000771,0.005514,0.002554,0.006421,-0.001678,70.450886,0.006661,
930,160,0.175811,-9.585119,0.999998,0.000160,-0.000813,0.003837,0.000494,0.003889,-0.000865,84.005609,0.004084,
1500,1060,-1.324312,-4.832736,0.999998,0.000172,-0.002029,0.006570,0.000297,0.006580,-0.002039,88.025987,0.006737,
1300,1890,-0.033239,-0.455436,0.999998,0.000172,-0.000435,0.003297,0.000082,0.003299,-0.000436,88.738985,0.003584,
1210,1950,0.007457,-0.260046,0.999998,0.000155,-0.000291,0.003132,-0.000034,0.003133,-0.000292,-89.423553,0.003461,
830,1440,0.907716,-2.745868,0.999997,0.000199,-0.002901,0.005377,0.000187,0.005381,-0.002906,88.704503,0.005387,
1100,1740,0.129996,-0.999068,0.999998,0.000163,-0.001078,0.003682,0.000066,0.003683,-0.001079,89.203945,0.003787,
720,740,1.433738,-6.496625,0.999997,0.000219,-0.002759,0.005297,0.000366,0.005313,-0.002775,87.400902,0.005315,
800,1260,1.314620,-3.796500,0.999998,0.000215,-0.002970,0.005629,-0.000505,0.005659,-0.003000,-86.651285,0.005662,
1830,1870,-0.691392,-0.858506,0.999997,0.000203,-0.002352,0.005134,0.000440,0.005160,-0.002378,86.649737,0.005165,
1360,1700,-0.142058,-1.146831,0.999998,0.000170,-0.001165,0.003718,-0.000135,0.003722,-0.001169,-88.421354,0.003806,
1880,140,-0.666727,-9.332252,0.999997,0.000228,-0.002419,0.005277,-0.000602,0.005324,-0.002466,-85.553807,0.005328,
1230,1480,0.000419,-1.854744,0.999998,0.000169,-0.001244,0.003127,0.000029,0.003127,-0.001244,89.619286,0.003149,
1090,740,0.234841,-7.405092,0.999997,0.000190,-0.002750,0.004311,-0.001913,0.004795,-0.003235,-75.775003,0.004892,
780,990,1.674714,-5.228278,0.999998,0.000179,-0.002101,0.005001,0.000176,0.005005,-0.002105,88.577379,0.005026,
1800,1290,-1.630503,-3.775407,0.999996,0.000206,-0.002532,0.005039,0.000366,0.005056,-0.002550,87.240412,0.005056,
1640,450,-0.726218,-8.179603,0.999998,0.000170,-0.002392,0.004944,0.000182,0.004948,-0.002396,88.577757,0.004949,
1570,1140,-1.317732,-4.404692,0.999997,0.000202,-0.002608,0.005905,0.000715,0.005965,-0.002668,85.230726,0.005976,
1750,1690,-0.874664,-1.643730,0.999997,0.000196,-0.002438,0.005035,-0.000023,0.005035,-0.002438,-89.824365,0.005036,
1650,1940,-0.198991,-0.357141,0.999998,0.000197,-0.000883,0.004064,0.000903,0.004224,-0.001043,79.969982,0.004401,
720,440,0.965585,-8.066556,0.999999,0.000154,-0.002487,0.005053,-0.000087,0.005054,-0.002488,-89.339180,0.005054,
1010,1470,0.378994,-2.217841,0.999997,0.000202,-0.002445,0.004665,0.000891,0.004775,-0.002555,82.962183,0.004779,
760,740,1.323271,-6.542860,0.999997,0.000229,-0.002879,0.005450,0.000362,0.005466,-0.002894,87.514574,0.005469,
670,1960,0.310796,-0.346355,0.999998,0.000228,-0.001241,0.004804,-0.001628,0.005214,-0.001651,-75.846980,0.005330,
1620,40,-0.040835,-10.007145,0.999999,0.000134,-0.000071,0.003428,-0.000828,0.003614,-0.000257,-77.334980,0.004033,
880,250,0.358025,-9.187409,0.999998,0.000170,-0.001634,0.004334,0.000276,0.004347,-0.001646,87.358478,0.004389,
1840,140,-0.570194,-9.432001,0.999997,0.000189,-0.002432,0.005270,-0.000584,0.005314,-0.002476,-85.689835,0.005318,
1420,840,-0.569074,-6.617682,0.999996,0.000251,-0.003847,0.006265,0.001300,0.006430,-0.004012,82.788055,0.006495,
980,430,0.365371,-8.505976,0.999997,0.000226,-0.001923,0.004409,-0.000360,0.004429,-0.001943,-86.758687,0.004440,
1730,300,-0.719698,-8.795641,0.999997,0.000192,-0.002224,0.004983,-0.000208,0.004989,-0.002230,-88.348886,0.004998,
1050,280,0.167998,-9.184942,0.999998,0.000156,-0.001200,0.003789,-0.000008,0.003789,-0.001200,-89.913504,0.003873,
1370,70,-0.020827,-9.925870,0.999999,0.000135,-0.000115,0.003115,-0.000204,0.003127,-0.000128,-86.393271,0.003540,
1880,640,-1.614797,-6.827524,0.999997,0.000205,-0.002540,0.005043,-0.000043,0.005044,-0.002540,-89.672175,0.005044,
680,610,1.317049,-7.126214,0.999998,0.000216,-0.002629,0.005166,0.000064,0.005167,-0.002630,89.529002,0.005167,
760,720,1.285319,-6.653275,0.999997,0.000210,-0.002884,0.005452,0.000309,0.005463,-0.002895,87.879083,0.005466,
970,1130,1.134793,-4.356954,0.999998,0.000194,-0.002921,0.006742,-0.000479,0.006766,-0.002945,-87.170289,0.006785,
1690,400,-0.781185,-8.352978,0.999998,0.000187,-0.002342,0.005002,0.000088,0.005003,-0.002343,89.314495,0.005007,
720,720,1.397376,-6.604739,0.999997,0.000212,-0.002771,0.005283,0.000320,0.005295,-0.002783,87.726051,0.005298,
980,1670,0.334133,-1.376842,0.999997,0.000193,-0.001769,0.004304,0.000252,0.004315,-0.001779,87.624983,0.004337,
1830,1950,-0.409500,-0.434855,0.999996,0.000224,-0.002163,0.005263,0.001074,0.005415,-0.002315,81.934791,0.005434,
1210,1490,0.026651,-1.831614,0.999998,0.000190,-0.001261,0.003168,0.000241,0.003181,-0.001274,86.898143,0.003202,
1220,320,0.011425,-9.099630,0.999999,0.000135,-0.001014,0.003529,-0.000048,0.003529,-0.001015,-89.395949,0.003634,
1890,1810,-0.989669,-1.293979,0.999998,0.000141,-0.002430,0.004818,0.000073,0.004819,-0.002431,89.426580,0.004819,
1890,260,-1.023240,-8.713146,0.999998,0.000165,-0.002368,0.004895,-0.000026,0.004896,-0.002368,-89.792515,0.004896,
770,1120,1.645722,-4.573263,0.999997,0.000219,-0.002285,0.005103,-0.000444,0.005130,-0.002311,-86.570123,0.005138,
760,1820,0.540556,-0.932801,0.999998,0.000171,-0.001866,0.004800,-0.000508,0.004839,-0.001905,-85.665485,0.004875,
1540,1590,-0.507867,-1.818337,0.999998,0.000180,-0.002263,0.004698,-0.000384,0.004719,-0.002284,-86.850036,0.004720,
1010,1450,0.389973,-2.314120,0.999997,0.000195,-0.002580,0.004740,0.000964,0.004865,-0.002705,82.623042,0.004875,
1320,1270,-0.133939,-2.584439,0.999997,0.000208,-0.002129,0.002867,-0.002081,0.003620,-0.002882,-70.101048,0.003826,
1240,1220,-0.031102,-2.381439,0.999996,0.000245,-0.003453,0.001448,-0.000030,0.001448,-0.003453,-89.655100,0.003468,
1100,1700,0.144659,-1.148761,0.999998,0.000166,-0.001177,0.003750,0.000144,0.003754,-0.001181,88.327958,0.003839,
800,720,1.166527,-6.705906,0.999997,0.000192,-0.003007,0.005589,0.000236,0.005595,-0.003013,88.428062,0.005601,
1540,50,-0.039202,-9.976452,0.999999,0.000150,-0.000101,0.003321,-0.000563,0.003411,-0.000191,-80.892117,0.003833,
1640,430,-0.702318,-8.277944,0.999997,0.000180,-0.002358,0.004941,0.000167,0.004945,-0.002362,88.686963,0.004947,
1500,1040,-1.342052,-4.962264,0.999997,0.000193,-0.001919,0.006382,0.000112,0.006383,-0.001921,89.225119,0.006550,
1560,2000,-0.046741,-0.119140,0.999999,0.000152,-0.000221,0.003378,0.000614,0.003480,-0.000322,80.586051,0.003846,
970,2010,0.024122,-0.083571,0.999999,0.000125,-0.000213,0.003157,-0.000405,0.003205,-0.000261,-83.237149,0.003560,
1740,1150,-1.717496,-4.438153,0.999998,0.000189,-0.002357,0.004986,0.000451,0.005014,-0.002384,86.501637,0.005016,
1160,340,0.072385,-9.017188,0.999999,0.000136,-0.001037,0.003567,-0.000044,0.003567,-0.001037,-89.454257,0.003670,
1360,1720,-0.135949,-1.073955,0.999998,0.000163,-0.001107,0.003707,-0.000094,0.003708,-0.001109,-88.887272,0.003807,
1710,610,-1.118216,-7.237026,0.999998,0.000167,-0.002778,0.005304,-0.000002,0.005304,-0.002778,-89.988798,0.005306,
800,1240,1.354964,-3.912132,0.999997,0.000206,-0.002872,0.005562,-0.000568,0.005600,-0.002910,-86.167612,0.005602,
1710,300,-0.677213,-8.819622,0.999997,0.000193,-0.002115,0.004921,-0.000216,0.004928,-0.002122,-88.241215,0.004944,
790,560,0.945382,-7.560822,0.999998,0.000164,-0.002689,0.005296,-0.000148,0.005299,-0.002692,-88.937224,0.005299,
970,1350,0.586211,-2.940018,0.999998,0.000197,-0.003374,0.005664,0.000819,0.005737,-0.003448,84.866123,0.005776,
730,140,0.356587,-9.575949,0.999997,0.000191,-0.001501,0.004650,0.001053,0.004825,-0.001676,80.553039,0.004900,
1420,800,-0.467406,-6.864040,0.999996,0.000250,-0.003839,0.005889,0.001468,0.006106,-0.004056,81.604129,0.006215,
1440,530,-0.330210,-8.133233,0.999998,0.000174,-0.002135,0.004368,0.000731,0.004449,-0.002216,83.663734,0.004449,
800,1600,0.787516,-1.962409,0.999998,0.000185,-0.002464,0.005007,0.000164,0.005011,-0.002468,88.743708,0.005011,
1460,230,-0.181697,-9.349260,0.999998,0.000174,-0.000928,0.003807,-0.000189,0.003815,-0.000935,-87.712690,0.003977,
1840,120,-0.492851,-9.539847,0.999996,0.000209,-0.002395,0.005373,-0.000744,0.005443,-0.002465,-84.581102,0.005451,
1260,760,-0.028383,-7.761291,0.999998,0.000158,-0.001132,0.001540,0.000803,0.001762,-0.001355,74.498791,0.001845,
1210,1470,0.026631,-1.894679,0.999998,0.000160,-0.001243,0.003096,0.000256,0.003111,-0.001258,86.634905,0.003130,
930,320,0.363957,-8.929308,0.999997,0.000189,-0.001592,0.004346,0.000029,0.004346,-0.001592,89.716677,0.004398,
1810,120,-0.427566,-9.597215,0.999997,0.000205,-0.001777,0.005213,-0.001294,0.005445,-0.002009,-79.844027,0.005507,
1830,1990,-0.224164,-0.222407,0.999997,0.000209,-0.001898,0.005083,0.001461,0.005377,-0.002192,78.642646,0.005407,
1890,1790,-1.034355,-1.391496,0.999997,0.000209,-0.002437,0.004871,0.000026,0.004871,-0.002437,89.792243,0.004871,
900,1290,0.931311,-3.474811,0.999998,0.000172,-0.003488,0.006059,0.000005,0.006059,-0.003488,89.971450,0.006082,
1890,250,-1.000770,-8.761323,0.999998,0.000173,-0.002373,0.004854,-0.000046,0.004855,-0.002373,-89.634138,0.004855,
1670,970,-1.635047,-5.330384,0.999997,0.000181,-0.002152,0.005123,-0.000374,0.005143,-0.002171,-87.068493,0.005163,
1220,300,0.010797,-9.170231,0.999999,0.000133,-0.000936,0.003487,-0.000047,0.003487,-0.000936,-89.394582,0.003610,
1620,1860,-0.324577,-0.679312,0.999997,0.000199,-0.001285,0.004320,0.000609,0.004385,-0.001350,83.870913,0.004492,
1760,480,-1.064914,-7.836193,0.999998,0.000173,-0.002526,0.005133,0.000098,0.005134,-0.002527,89.267919,0.005134,
790,50,0.071882,-9.967480,0.999999,0.000137,-0.000495,0.003617,0.000973,0.003835,-0.000714,77.338284,0.004079,
760,500,0.945767,-7.824588,0.999998,0.000162,-0.002592,0.005148,-0.000141,0.005150,-0.002594,-88.959933,0.005150,
1520,1610,-0.448299,-1.692649,0.999998,0.000192,-0.002093,0.004583,-0.000368,0.004603,-0.002113,-86.857140,0.004608,
720,420,0.938089,-8.167284,0.999998,0.000177,-0.002446,0.005058,-0.000089,0.005059,-0.002447,-89.317556,0.005060,
1700,650,-1.154633,-7.037010,0.999997,0.000192,-0.002854,0.005348,-0.000080,0.005349,-0.002855,-89.439416,0.005353,
1230,1220,0.005977,-2.377863,0.999993,0.000327,-0.003524,0.001451,-0.000016,0.001451,-0.003524,-89.818497,0.003542,
1830,1850,-0.743895,-0.961467,0.999998,0.000191,-0.002365,0.005124,0.000308,0.005137,-0.002378,87.651547,0.005141,
1760,530,-1.135112,-7.576807,0.999997,0.000199,-0.002612,0.005140,0.000071,0.005140,-0.002613,89.475556,0.005141,
1370,1680,-0.159955,-1.229457,0.999998,0.000149,-0.001220,0.003843,-0.000125,0.003846,-0.001223,-88.585294,0.003930,
1460,1670,-0.295913,-1.350901,0.999997,0.000208,-0.001566,0.004213,-0.000197,0.004220,-0.001573,-88.053222,0.004265,
1030,760,0.447701,-7.035457,0.999997,0.000205,-0.003585,0.005634,-0.001383,0.005837,-0.003788,-81.649361,0.005923,
1890,690,-1.722708,-6.557490,0.999998,0.000199,-0.002524,0.005009,-0.000036,0.005010,-0.002525,-89.723218,0.005010,
770,90,0.181210,-9.808547,0.999998,0.000181,-0.000730,0.003991,0.001080,0.004226,-0.000965,77.708808,0.004430,
1510,1300,-0.722231,-3.282945,0.999997,0.000204,-0.003610,0.006129,-0.000484,0.006153,-0.003634,-87.162435,0.006186,
1760,370,-0.907540,-8.394273,0.999998,0.000184,-0.002440,0.005099,0.000051,0.005099,-0.002440,89.609013,0.005101,
1360,1960,-0.030657,-0.234126,0.999999,0.000140,-0.000241,0.003193,0.000168,0.003201,-0.000249,87.210882,0.003561,
1010,1430,0.401003,-2.410366,0.999996,0.000221,-0.002650,0.004789,0.001020,0.004926,-0.002787,82.330633,0.004940,
1220,200,0.008739,-9.513353,0.999998,0.000185,-0.000614,0.003312,0.000002,0.003312,-0.000614,89.974479,0.003524,
1160,320,0.068121,-9.089913,0.999999,0.000143,-0.000962,0.003607,-0.000016,0.003607,-0.000962,-89.797303,0.003736,
760,780,1.399186,-6.324698,0.999997,0.000215,-0.002807,0.005491,0.000482,0.005519,-0.002835,86.683636,0.005519,
1100,1920,0.051088,-0.363918,0.999998,0.000152,-0.000366,0.003262,-0.000167,0.003269,-0.000374,-87.368237,0.003579,
1150,740,0.101345,-7.651982,0.999998,0.000167,-0.001754,0.002766,-0.001729,0.003352,-0.002339,-71.287541,0.003438,
680,490,1.137178,-7.747828,0.999998,0.000163,-0.002563,0.005114,-0.000098,0.005115,-0.002565,-89.265814,0.005115,
1170,2000,0.005777,-0.106364,0.999999,0.000139,-0.000071,0.003015,-0.000078,0.003017,-0.000073,-88.545968,0.003442,
1100,1900,0.059426,-0.431576,0.999998,0.000150,-0.000466,0.003371,-0.000160,0.003378,-0.000472,-87.609545,0.003658,
1620,430,-0.655073,-8.308971,0.999997,0.000172,-0.002343,0.004924,0.000192,0.004930,-0.002348,88.487976,0.004931,
990,660,0.477002,-7.442250,0.999997,0.000207,-0.003016,0.005208,-0.000979,0.005323,-0.003131,-83.302996,0.005350,
1500,1020,-1.345576,-5.086271,0.999998,0.000193,-0.001922,0.006340,-0.000056,0.006340,-0.001922,-89.611529,0.006502,
800,700,1.128644,-6.818101,0.999998,0.000204,-0.002998,0.005572,0.000156,0.005575,-0.003000,88.955799,0.005580,
1360,1740,-0.127618,-0.996901,0.999998,0.000151,-0.001057,0.003709,-0.000068,0.003710,-0.001058,-89.183289,0.003823,
1570,660,-0.778483,-7.207156,0.999996,0.000243,-0.003158,0.005588,0.000362,0.005603,-0.003173,87.635664,0.005619,
970,1110,1.196731,-4.492156,0.999997,0.000207,-0.002642,0.006773,-0.000509,0.006800,-0.002670,-86.913745,0.006852,
1240,670,-0.008754,-7.954701,0.999999,0.000140,-0.001068,0.002445,0.000179,0.002454,-0.001077,87.093591,0.002460,
1380,350,-0.163484,-8.938262,0.999999,0.000139,-0.001173,0.003757,0.000111,0.003760,-0.001175,88.712894,0.003847,
980,230,0.203182,-9.338662,0.999998,0.000174,-0.001069,0.003889,0.000208,0.003898,-0.001078,87.606986,0.004026,
790,1380,1.117867,-3.138592,0.999998,0.000178,-0.002932,0.005495,-0.000073,0.005496,-0.002932,-89.503200,0.005500,
1210,1480,0.026060,-1.863298,0.999998,0.000179,-0.001251,0.003139,0.000245,0.003153,-0.001265,86.814569,0.003173,
1710,590,-1.089091,-7.340558,0.999998,0.000161,-0.002740,0.005287,0.000046,0.005287,-0.002740,89.673778,0.005288,
1420,780,-0.431511,-6.981652,0.999997,0.000211,-0.003693,0.005648,0.001537,0.005894,-0.003939,80.893511,0.006004,
910,340,0.416005,-8.820355,0.999998,0.000175,-0.001718,0.004507,0.000014,0.004507,-0.001718,89.871636,0.004549,
1500,820,-0.829291,-6.408314,0.999997,0.000229,-0.003808,0.006570,0.000151,0.006572,-0.003810,89.166460,0.006600,
1210,1450,0.024480,-1.956655,0.999998,0.000149,-0.001215,0.002964,0.000260,0.002980,-0.001231,86.456672,0.002995,
780,790,1.362763,-6.289576,0.999997,0.000197,-0.002888,0.005536,0.000503,0.005566,-0.002918,86.596462,0.005568,
800,1220,1.395725,-4.021600,0.999998,0.000191,-0.002781,0.005528,-0.000630,0.005576,-0.002828,-85.685427,0.005576,
1260,740,-0.028753,-7.793809,0.999998,0.000151,-0.001082,0.001810,0.000745,0.001991,-0.001262,76.363656,0.002015,
1840,480,-1.265459,-7.705239,0.999998,0.000190,-0.002543,0.005108,0.000057,0.005108,-0.002543,89.572601,0.005108,
1860,590,-1.483659,-7.111364,0.999997,0.000191,-0.002539,0.005063,-0.000030,0.005063,-0.002539,-89.770197,0.005063,
1410,1390,-0.302244,-2.474996,0.999997,0.000201,-0.002578,0.004569,-0.001362,0.004819,-0.002829,-79.569186,0.004844,
1650,1020,-1.620381,-5.078952,0.999997,0.000199,-0.001995,0.005116,-0.000123,0.005118,-0.001997,-89.013159,0.005159,
1140,1210,0.278294,-2.767854,0.999995,0.000288,-0.002171,0.002429,0.001488,0.002868,-0.002610,73.544480,0.003174,
1500,930,-1.169342,-5.675683,0.999997,0.000218,-0.002806,0.006645,-0.000546,0.006677,-0.002837,-86.704188,0.006702,
760,460,0.893682,-8.028276,0.999998,0.000159,-0.002489,0.005084,-0.000134,0.005086,-0.002492,-88.987346,0.005087,
790,340,0.660982,-8.671535,0.999997,0.000208,-0.002251,0.004899,0.000040,0.004899,-0.002252,89.680998,0.004904,
640,1670,1.083060,-1.865303,0.999998,0.000173,-0.002445,0.005026,0.000063,0.005026,-0.002446,89.513740,0.005027,
1880,1810,-0.965318,-1.272647,0.999998,0.000152,-0.002431,0.004858,0.000065,0.004859,-0.002431,89.485630,0.004859,
960,2010,0.026498,-0.082900,0.999999,0.000126,-0.000240,0.003187,-0.000421,0.003237,-0.000291,-83.104605,0.003582,
1550,1040,-1.431297,-4.970186,0.999998,0.000179,-0.001812,0.005640,0.000156,0.005643,-0.001815,88.801494,0.005761,
920,810,0.960328,-6.367627,0.999998,0.000161,-0.003547,0.006300,0.000174,0.006303,-0.003550,88.985566,0.006320,
760,1280,1.389551,-3.728484,0.999997,0.000203,-0.002836,0.005462,-0.000475,0.005489,-0.002863,-86.737388,0.005490,
1210,1820,0.015689,-0.686046,0.999998,0.000150,-0.000743,0.003406,0.000027,0.003406,-0.000743,89.630452,0.003582,
1760,440,-1.008505,-8.038075,0.999998,0.000157,-0.002492,0.005074,0.000106,0.005076,-0.002494,89.199181,0.005076,
770,720,1.255297,-6.666649,0.999997,0.000201,-0.002946,0.005489,0.000306,0.005500,-0.002957,87.924557,0.005505,
1100,1680,0.151165,-1.225645,0.999998,0.000163,-0.001210,0.003782,0.000160,0.003788,-0.001215,88.165460,0.003868,
1460,1650,-0.307307,-1.435693,0.999998,0.000180,-0.001678,0.004216,-0.000278,0.004229,-0.001691,-87.308337,0.004257,
1020,1090,1.115476,-4.498571,0.999994,0.000319,-0.003025,0.008227,0.000658,0.008265,-0.003064,86.663025,0.008357,
1410,850,-0.566217,-6.620197,0.999996,0.000226,-0.003739,0.006138,0.001439,0.006344,-0.003944,81.877684,0.006406,
1620,1880,-0.290962,-0.596884,0.999998,0.000195,-0.001126,0.004188,0.000662,0.004269,-0.001208,83.007498,0.004401,
1630,680,-0.996746,-6.982526,0.999998,0.000167,-0.003080,0.005582,0.000020,0.005582,-0.003080,89.864794,0.005592,
1210,290,0.020620,-9.202371,0.999998,0.000142,-0.000882,0.003471,-0.000038,0.003472,-0.000882,-89.495341,0.003609,
680,470,1.109621,-7.850701,0.999998,0.000168,-0.002528,0.005076,-0.000100,0.005077,-0.002530,-89.245664,0.005077,
720,400,0.910451,-8.269895,0.999998,0.000201,-0.002439,0.005092,-0.000060,0.005092,-0.002439,-89.544916,0.005094,
1360,1760,-0.122589,-0.926911,0.999998,0.000170,-0.000988,0.003654,-0.000024,0.003654,-0.000988,-89.697750,0.003780,
1770,1480,-1.228422,-2.752377,0.999998,0.000170,-0.002664,0.005213,-0.000010,0.005213,-0.002664,-89.927065,0.005214,
1350,1680,-0.136158,-1.217648,0.999998,0.000184,-0.001251,0.003782,-0.000179,0.003789,-0.001257,-87.960944,0.003859,
1220,280,0.011166,-9.239207,0.999998,0.000138,-0.000876,0.003468,-0.000031,0.003469,-0.000877,-89.588343,0.003607,
800,1580,0.812749,-2.061510,0.999998,0.000183,-0.002541,0.005065,0.000199,0.005070,-0.002546,88.504898,0.005070,
950,1080,1.314549,-4.713276,0.999998,0.000190,-0.002141,0.006276,-0.000463,0.006301,-0.002167,-86.863347,0.006403,
1200,1940,0.012254,-0.291182,0.999998,0.000165,-0.000291,0.003158,-0.000044,0.003159,-0.000291,-89.263335,0.003491,
1100,1960,0.032585,-0.234563,0.999999,0.000135,-0.000210,0.003208,-0.000186,0.003218,-0.000220,-86.902891,0.003596,
800,1120,1.577560,-4.565482,0.999997,0.000214,-0.002318,0.005249,-0.000509,0.005283,-0.002352,-86.166021,0.005293,
1510,1280,-0.760030,-3.408055,0.999996,0.000205,-0.003698,0.006273,-0.000384,0.006288,-0.003712,-87.800497,0.006322,
1640,670,-1.011532,-7.020125,0.999999,0.000169,-0.003010,0.005520,0.000028,0.005521,-0.003010,89.812825,0.005528,
1640,1930,-0.211500,-0.396678,0.999998,0.000172,-0.000854,0.004065,0.000881,0.004218,-0.001007,80.147460,0.004406,
1500,1000,-1.330666,-5.214464,0.999997,0.000217,-0.002022,0.006578,-0.000245,0.006585,-0.002029,-88.366710,0.006745,
1420,760,-0.399815,-7.091197,0.999997,0.000203,-0.003513,0.005432,0.001546,0.005691,-0.003772,80.466682,0.005791,
1010,1410,0.409503,-2.506993,0.999996,0.000221,-0.002766,0.004912,0.001060,0.005055,-0.002909,82.284154,0.005075,
1360,350,-0.139678,-8.950743,0.999998,0.000161,-0.001192,0.003702,0.000149,0.003707,-0.001196,88.258155,0.003784,
910,320,0.395533,-8.910633,0.999999,0.000149,-0.001629,0.004408,0.000057,0.004408,-0.001630,89.462711,0.004458,
1210,1870,0.012621,-0.517303,0.999998,0.000173,-0.000539,0.003309,-0.000005,0.003309,-0.000539,-89.932759,0.003551,
1560,230,-0.296511,-9.291268,0.999998,0.000192,-0.001288,0.004210,-0.000356,0.004233,-0.001311,-86.306798,0.004333,
800,1200,1.438277,-4.132001,0.999998,0.000194,-0.002687,0.005523,-0.000662,0.005576,-0.002740,-85.421580,0.005576,
1840,460,-1.238730,-7.807188,0.999998,0.000153,-0.002524,0.005100,0.000076,0.005101,-0.002524,89.429508,0.005101,
1670,950,-1.610337,-5.435782,0.999997,0.000192,-0.002227,0.005183,-0.000467,0.005212,-0.002256,-86.410999,0.005228,
760,1260,1.430456,-3.837855,0.999997,0.000216,-0.002782,0.005400,-0.000526,0.005434,-0.002815,-86.337143,0.005435,
1410,1370,-0.311148,-2.569241,0.999997,0.000208,-0.002747,0.004662,-0.001454,0.004937,-0.003022,-79.288502,0.004979,
1450,1820,-0.175070,-0.745230,0.999998,0.000166,-0.000972,0.003805,0.000172,0.003811,-0.000978,87.939546,0.003958,
1710,570,-1.060476,-7.448801,0.999997,0.000197,-0.002709,0.005264,0.000072,0.005265,-0.002710,89.482871,0.005266,
1170,1360,0.069531,-2.251842,0.999999,0.000150,-0.001401,0.002669,0.001084,0.002939,-0.001671,75.975738,0.002949,
1390,2010,-0.012565,-0.078345,0.999998,0.000157,-0.000083,0.003065,0.000235,0.003082,-0.000101,85.756436,0.003502,
1230,1360,0.001017,-2.179187,0.999998,0.000162,-0.001015,0.002176,0.000029,0.002177,-0.001016,89.473149,0.002178,
970,1070,1.293547,-4.759310,0.999997,0.000233,-0.002144,0.006661,-0.000333,0.006674,-0.002157,-87.837303,0.006812,
1870,1810,-0.942042,-1.251128,0.999998,0.000172,-0.002432,0.004906,0.000072,0.004907,-0.002433,89.437523,0.004907,
1700,630,-1.121539,-7.144464,0.999998,0.000169,-0.002836,0.005355,-0.000023,0.005355,-0.002836,-89.836831,0.005358,
790,320,0.629156,-8.771351,0.999998,0.000199,-0.002207,0.004883,0.000103,0.004885,-0.002209,89.166708,0.004892,
920,790,0.913895,-6.492052,0.999998,0.000164,-0.003576,0.006234,0.000037,0.006234,-0.003576,89.785806,0.006257,
1880,1630,-1.285447,-2.160378,0.999997,0.000201,-0.002463,0.004973,-0.000036,0.004973,-0.002464,-89.721521,0.004973,
1210,270,0.018229,-9.272434,0.999998,0.000154,-0.000834,0.003491,-0.000032,0.003491,-0.000835,-89.579211,0.003646,
750,720,1.313497,-6.640752,0.999998,0.000223,-0.002825,0.005417,0.000311,0.005429,-0.002836,87.842065,0.005430,
1220,260,0.009465,-9.308562,0.999998,0.000150,-0.000809,0.003459,-0.000015,0.003459,-0.000809,-89.796001,0.003618,
800,1560,0.837314,-2.164729,0.999998,0.000176,-0.002586,0.005124,0.000189,0.005129,-0.002591,88.599385,0.005129,
1410,830,-0.498847,-6.738056,0.999996,0.000227,-0.003850,0.006034,0.001510,0.006260,-0.004076,81.507028,0.006354,
1630,390,-0.630115,-8.491324,0.999997,0.000172,-0.002195,0.004859,0.000075,0.004859,-0.002196,89.394023,0.004867,
960,950,1.233776,-5.539413,0.999998,0.000163,-0.002511,0.006558,0.000577,0.006594,-0.002547,86.375833,0.006651,
1050,1260,0.431220,-3.149529,0.999997,0.000243,-0.003763,0.005696,0.001599,0.005959,-0.004026,80.657780,0.006080,
1750,1480,-1.173577,-2.721354,0.999997,0.000197,-0.002676,0.005223,-0.000026,0.005223,-0.002676,-89.809575,0.005224,
970,960,1.237179,-5.485855,0.999997,0.000181,-0.002422,0.006684,0.000462,0.006708,-0.002445,87.100378,0.006789,
1100,1640,0.163564,-1.375251,0.999998,0.000180,-0.001322,0.003804,0.000246,0.003816,-0.001334,87.254653,0.003873,
1670,400,-0.734230,-8.382023,0.999997,0.000230,-0.002335,0.004985,0.000081,0.004986,-0.002336,89.362727,0.004989,
1630,700,-1.030921,-6.868764,0.999998,0.000189,-0.003115,0.005669,-0.000056,0.005669,-0.003116,-89.634467,0.005679,
1220,670,0.011686,-7.953729,0.999998,0.000149,-0.001065,0.002448,-0.000217,0.002461,-0.001078,-86.473375,0.002468,
1880,1130,-2.052005,-4.606772,0.999998,0.000170,-0.002117,0.004406,0.000174,0.004410,-0.002122,88.477036,0.004411,
760,440,0.867163,-8.130418,0.999998,0.000167,-0.002474,0.005049,-0.000151,0.005052,-0.002477,-88.849309,0.005053,
1060,350,0.191859,-8.923944,0.999998,0.000194,-0.001384,0.003875,-0.000171,0.003880,-0.001389,-88.138756,0.003932,
1210,1890,0.012353,-0.452685,0.999998,0.000157,-0.000460,0.003285,0.000004,0.003285,-0.000460,89.942033,0.003558,
1420,740,-0.378796,-7.197161,0.999997,0.000216,-0.003316,0.005291,0.001549,0.005561,-0.003586,80.099118,0.005639,
590,1440,1.555830,-3.113800,0.999998,0.000201,-0.002864,0.005071,-0.000054,0.005071,-0.002865,-89.612020,0.005086,
1110,470,0.159329,-8.504700,0.999998,0.000170,-0.001422,0.003754,-0.000397,0.003785,-0.001452,-85.638477,0.003819,
1500,800,-0.776729,-6.541586,0.999997,0.000223,-0.003816,0.006456,0.000314,0.006466,-0.003826,88.249562,0.006502,
1510,320,-0.326411,-8.950710,0.999998,0.000174,-0.001630,0.004290,0.000017,0.004290,-0.001630,89.838599,0.004331,
870,480,0.644876,-8.104189,0.999997,0.000206,-0.002475,0.004955,-0.000317,0.004968,-0.002488,-87.559063,0.004968,
860,570,0.767098,-7.629422,0.999997,0.000195,-0.002751,0.005252,-0.000325,0.005265,-0.002764,-87.678436,0.005268,
1840,440,-1.208848,-7.909778,0.999998,0.000169,-0.002503,0.005011,0.000077,0.005012,-0.002504,89.416004,0.005012,
1260,720,-0.028059,-7.829792,0.999998,0.000151,-0.001088,0.002050,0.000646,0.002178,-0.001215,78.808407,0.002183,
1690,1080,-1.681981,-4.777357,0.999997,0.000209,-0.002160,0.005066,0.000287,0.005077,-0.002172,87.729247,0.005095,
1670,930,-1.587563,-5.538698,0.999998,0.000195,-0.002331,0.005229,-0.000503,0.005263,-0.002364,-86.207478,0.005272,
970,1050,1.319920,-4.893842,0.999997,0.000237,-0.002034,0.006742,-0.000191,0.006747,-0.002038,-88.752436,0.006921,
1430,1820,-0.156110,-0.735183,0.999998,0.000170,-0.000997,0.003760,0.000103,0.003762,-0.000999,88.757968,0.003898,
610,160,0.667565,-9.296617,0.999997,0.000195,-0.002441,0.005187,0.000410,0.005209,-0.002463,86.929397,0.005212,
1410,1350,-0.321753,-2.664444,0.999996,0.000211,-0.002898,0.004820,-0.001541,0.005116,-0.003194,-79.118746,0.005169,
760,1240,1.469379,-3.945213,0.999997,0.000214,-0.002727,0.005331,-0.000543,0.005367,-0.002764,-86.162137,0.005368,
900,2010,0.034198,-0.084941,0.999999,0.000143,-0.000169,0.003428,-0.000632,0.003536,-0.000277,-80.318802,0.003933,
1580,1770,-0.400083,-1.040979,0.999998,0.000178,-0.001774,0.004392,0.000147,0.004396,-0.001778,88.638459,0.004423,
1530,160,-0.173678,-9.585114,0.999998,0.000155,-0.000811,0.003823,-0.000482,0.003873,-0.000860,-84.126081,0.004067,
1710,550,-1.030527,-7.552522,0.999997,0.000203,-0.002685,0.005210,0.000092,0.005211,-0.002686,89.329029,0.005212,
1750,80,-0.202881,-9.826773,0.999998,0.000170,-0.001239,0.004284,-0.001306,0.004578,-0.001532,-77.343479,0.004660,
760,980,1.713371,-5.273926,0.999998,0.000184,-0.002166,0.004993,0.000215,0.004999,-0.002173,88.279783,0.005013,
1210,250,0.017027,-9.342809,0.999998,0.000169,-0.000781,0.003444,0.000001,0.003444,-0.000781,89.989815,0.003612,
1370,270,-0.118738,-9.242233,0.999999,0.000140,-0.000885,0.003608,-0.000036,0.003608,-0.000885,-89.545955,0.003761,
1870,1630,-1.261508,-2.144472,0.999998,0.000194,-0.002479,0.004976,-0.000051,0.004976,-0.002480,-89.607213,0.004976,
1700,770,-1.370534,-6.383200,0.999998,0.000177,-0.002870,0.005472,-0.000447,0.005495,-0.002894,-86.942556,0.005498,
1710,710,-1.284188,-6.698809,0.999998,0.000195,-0.002862,0.005417,-0.000281,0.005426,-0.002871,-88.055703,0.005429,
980,950,1.184153,-5.573006,0.999996,0.000213,-0.002640,0.007013,0.000390,0.007028,-0.002655,87.688272,0.007098,
1630,1980,-0.106025,-0.198468,0.999998,0.000163,-0.000395,0.003755,0.000944,0.003960,-0.000600,77.769357,0.004268,
1110,1560,0.163126,-1.670578,0.999998,0.000140,-0.001520,0.003753,0.000465,0.003793,-0.001561,84.996674,0.003813,
1170,1380,0.071539,-2.197706,0.999999,0.000147,-0.001388,0.002776,0.000969,0.002991,-0.001603,77.519660,0.002993,
1500,980,-1.298397,-5.347220,0.999998,0.000215,-0.002184,0.006498,-0.000388,0.006516,-0.002201,-87.445024,0.006629,
1010,1390,0.422787,-2.606497,0.999996,0.000232,-0.002932,0.005074,0.001131,0.005231,-0.003089,82.111074,0.005259,
1220,240,0.007429,-9.378353,0.999998,0.000160,-0.000741,0.003417,0.000002,0.003417,-0.000741,89.968435,0.003595,
1230,1340,0.001497,-2.220550,0.999998,0.000148,-0.000989,0.001960,0.000047,0.001961,-0.000989,89.090276,0.001961,
800,1540,0.861218,-2.269137,0.999998,0.000137,-0.002608,0.005126,0.000195,0.005131,-0.002613,88.555547,0.005132,
950,960,1.284808,-5.459917,0.999997,0.000208,-0.002328,0.006337,0.000579,0.006375,-0.002366,86.196786,0.006445,
1160,670,0.086182,-7.879479,0.999998,0.000168,-0.001418,0.002981,-0.001011,0.003202,-0.001639,-77.650483,0.003202,
1100,1620,0.168207,-1.452463,0.999998,0.000186,-0.001408,0.003795,0.000314,0.003814,-0.001427,86.556685,0.003854,
1630,370,-0.604082,-8.587130,0.999997,0.000190,-0.002101,0.004790,0.000001,0.004790,-0.002101,89.989370,0.004801,
1410,1470,-0.281862,-2.125464,0.999998,0.000175,-0.002170,0.004266,-0.000987,0.004414,-0.002318,-81.471423,0.004416,
1050,1240,0.475956,-3.266975,0.999997,0.000228,-0.003874,0.005949,0.001522,0.006179,-0.004105,81.389178,0.006290,
1420,720,-0.360037,-7.303776,0.999997,0.000204,-0.003135,0.005082,0.001516,0.005353,-0.003406,79.871909,0.005419,
1210,1910,0.008815,-0.387393,0.999998,0.000165,-0.000399,0.003230,-0.000007,0.003230,-0.000399,-89.894392,0.003522,
710,840,1.646036,-5.965877,0.999997,0.000214,-0.002522,0.005076,0.000507,0.005110,-0.002555,86.199060,0.005110,
850,480,0.694911,-8.073271,0.999998,0.000168,-0.002459,0.004991,-0.000258,0.005000,-0.002468,-88.018515,0.005000,
1880,1120,-2.063527,-4.650768,0.999998,0.000149,-0.002094,0.004362,0.000164,0.004366,-0.002098,88.549102,0.004367,
1310,820,-0.166942,-7.461194,0.999998,0.000169,-0.002228,0.002313,0.001798,0.002938,-0.002853,70.811349,0.003345,
1840,420,-1.179444,-8.009939,0.999998,0.000160,-0.002457,0.005044,0.000064,0.005044,-0.002457,89.509461,0.005045,
1040,350,0.220852,-8.906460,0.999998,0.000188,-0.001454,0.003945,-0.000200,0.003953,-0.001462,-87.880899,0.003997,
970,280,0.264321,-9.131564,0.999998,0.000180,-0.001415,0.004089,0.000082,0.004091,-0.001417,89.145384,0.004154,
760,420,0.840487,-8.231998,0.999998,0.000161,-0.002440,0.005022,-0.000114,0.005024,-0.002442,-89.121640,0.005025,
610,340,1.083798,-8.389711,0.999998,0.000163,-0.002414,0.004964,-0.000074,0.004965,-0.002415,-89.425865,0.004966,
760,700,1.248515,-6.762331,0.999998,0.000214,-0.002877,0.005433,0.000243,0.005440,-0.002884,88.328624,0.005443,
900,2000,0.047470,-0.119387,0.999999,0.000144,-0.000255,0.003449,-0.000628,0.003553,-0.000359,-80.634083,0.003912,
1410,1330,-0.332246,-2.760568,0.999997,0.000181,-0.003083,0.005000,-0.001606,0.005308,-0.003390,-79.161260,0.005375,
970,1030,1.332570,-5.024270,0.999998,0.000195,-0.001995,0.006452,-0.000045,0.006452,-0.001995,-89.692766,0.006607,
1830,360,-1.062161,-8.330477,0.999998,0.000201,-0.002472,0.005051,0.000033,0.005051,-0.002472,89.748766,0.005052,
1740,1670,-0.880322,-1.729800,0.999998,0.000218,-0.002431,0.005064,-0.000052,0.005065,-0.002431,-89.604980,0.005066,
1810,60,-0.175334,-9.903350,0.999998,0.000171,-0.000849,0.004716,-0.001865,0.005283,-0.001416,-73.085482,0.005469,
720,110,0.280335,-9.704654,0.999998,0.000164,-0.001490,0.004515,0.001152,0.004728,-0.001704,79.503966,0.004789,
1270,1820,-0.028421,-0.688322,0.999998,0.000192,-0.000724,0.003429,0.000026,0.003430,-0.000724,89.645072,0.003615,
1210,230,0.012936,-9.410312,0.999998,0.000177,-0.000722,0.003407,-0.000021,0.003407,-0.000722,-89.713858,0.003590,
1090,1560,0.195405,-1.692510,0.999998,0.000144,-0.001681,0.003880,0.000620,0.003948,-0.001749,83.715111,0.003956,
1670,910,-1.555960,-5.646474,0.999997,0.000199,-0.002446,0.005357,-0.000622,0.005406,-0.002495,-85.471842,0.005411,
1260,700,-0.027525,-7.874224,0.999998,0.000147,-0.001101,0.002246,0.000544,0.002332,-0.001187,80.995528,0.002332,
800,1520,0.886245,-2.369658,0.999999,0.000143,-0.002654,0.005184,0.000191,0.005189,-0.002658,88.604379,0.005189,
760,960,1.698155,-5.376272,0.999998,0.000173,-0.002222,0.005062,0.000414,0.005086,-0.002246,86.755219,0.005097,
1710,730,-1.324661,-6.589147,0.999997,0.000201,-0.002857,0.005434,-0.000357,0.005450,-0.002872,-87.540500,0.005452,
1320,1890,-0.040514,-0.457457,0.999997,0.000191,-0.000489,0.003316,0.000080,0.003318,-0.000490,88.796495,0.003582,
1370,250,-0.111114,-9.312139,0.999998,0.000154,-0.000804,0.003606,-0.000072,0.003607,-0.000805,-89.070687,0.003787,
1640,710,-1.079736,-6.796174,0.999998,0.000279,-0.003058,0.005665,-0.000109,0.005667,-0.003059,-89.284144,0.005673,
1770,360,-0.915698,-8.429689,0.999997,0.000189,-0.002394,0.005088,0.000004,0.005088,-0.002394,89.967060,0.005091,
1550,2010,-0.033843,-0.086028,0.999998,0.000168,-0.000096,0.003277,0.000573,0.003372,-0.000191,80.625546,0.003788,
1700,750,-1.331938,-6.491814,0.999997,0.000223,-0.002886,0.005455,-0.000399,0.005474,-0.002905,-87.267212,0.005477,
1510,160,-0.156369,-9.591370,0.999998,0.000162,-0.000905,0.003752,-0.000406,0.003788,-0.000940,-85.060066,0.003944,
1210,1930,0.008881,-0.323422,0.999998,0.000162,-0.000347,0.003163,-0.000009,0.003163,-0.000347,-89.852123,0.003470,
1140,670,0.116404,-7.836175,0.999998,0.000162,-0.001686,0.003248,-0.001253,0.003548,-0.001986,-76.540469,0.003556,
1010,1370,0.435824,-2.708757,0.999997,0.000234,-0.003104,0.005201,0.001170,0.005363,-0.003265,82.130074,0.005405,
950,280,0.294486,-9.116375,0.999997,0.000180,-0.001494,0.004168,0.000106,0.004170,-0.001496,88.926304,0.004225,
690,600,1.274528,-7.192734,0.999998,0.000180,-0.002662,0.005185,0.000035,0.005185,-0.002662,89.745480,0.005185,
1760,1070,-1.836396,-4.835189,0.999998,0.000168,-0.002175,0.004779,0.000149,0.004782,-0.002178,88.773731,0.004789,
1100,1600,0.171251,-1.526444,0.999998,0.000177,-0.001465,0.003855,0.000378,0.003882,-0.001492,85.961226,0.003916,
760,400,0.812746,-8.332983,0.999998,0.000164,-0.002399,0.005048,-0.000048,0.005048,-0.002399,-89.629055,0.005050,
1310,840,-0.225051,-7.417660,0.999994,0.000272,-0.002221,0.002046,0.001254,0.002387,-0.002563,74.772537,0.002863,
1210,1430,0.025801,-2.013153,0.999998,0.000142,-0.001194,0.002844,0.000279,0.002863,-0.001213,86.071613,0.002874,
850,460,0.672044,-8.171597,0.999998,0.000161,-0.002420,0.004947,-0.000233,0.004954,-0.002427,-88.193965,0.004954,
970,1010,1.325333,-5.152615,0.999998,0.000192,-0.002037,0.006634,0.000113,0.006635,-0.002039,89.251110,0.006798,
760,680,1.213521,-6.870944,0.999998,0.000209,-0.002866,0.005398,0.000166,0.005402,-0.002870,88.847170,0.005405,
1840,290,-0.963638,-8.664848,0.999998,0.000187,-0.002428,0.005025,-0.000026,0.005025,-0.002428,-89.799596,0.005026,
1420,700,-0.345860,-7.404884,0.999997,0.000205,-0.002942,0.004930,0.001455,0.005191,-0.003202,79.855577,0.005238,
650,180,0.635797,-9.278922,0.999998,0.000183,-0.002214,0.005158,0.000705,0.005225,-0.002280,84.588139,0.005239,
1810,50,-0.132655,-9.947696,0.999998,0.000185,-0.000754,0.004461,-0.001850,0.005050,-0.001344,-72.323696,0.005231,
720,700,1.360687,-6.709246,0.999998,0.000192,-0.002764,0.005301,0.000252,0.005309,-0.002772,88.208869,0.005311,
840,40,0.041269,-10.006863,0.999998,0.000149,-0.000044,0.003429,0.000853,0.003627,-0.000242,76.912077,0.004056,
1830,340,-1.028302,-8.431269,0.999998,0.000201,-0.002457,0.005032,0.000038,0.005032,-0.002457,89.706597,0.005032,
1840,400,-1.148645,-8.111951,0.999998,0.000155,-0.002457,0.005025,0.000058,0.005026,-0.002458,89.557458,0.005026,
1410,1310,-0.349676,-2.864493,0.999997,0.000192,-0.003261,0.005142,-0.001671,0.005462,-0.003582,-79.155046,0.005550,
1140,350,0.096571,-8.973766,0.999998,0.000164,-0.001164,0.003612,-0.000152,0.003617,-0.001169,-88.176127,0.003692,
1250,1820,-0.013090,-0.686996,0.999998,0.000164,-0.000722,0.003415,-0.000018,0.003415,-0.000722,-89.745027,0.003600,
1210,210,0.015064,-9.479269,0.999998,0.000182,-0.000635,0.003359,-0.000025,0.003359,-0.000635,-89.645341,0.003569,
1070,1560,0.229490,-1.725792,0.999998,0.000162,-0.001725,0.004019,0.000621,0.004085,-0.001791,83.897268,0.004095,
800,930,1.572263,-5.541592,0.999998,0.000190,-0.002310,0.005234,0.000532,0.005272,-0.002347,85.986076,0.005282,
890,2010,0.036321,-0.086093,0.999999,0.000122,-0.000253,0.003437,-0.000661,0.003552,-0.000368,-80.142693,0.003907,
1680,770,-1.312764,-6.404275,0.999997,0.000190,-0.002916,0.005542,-0.000437,0.005564,-0.002939,-87.053214,0.005567,
980,1710,0.303927,-1.206085,0.999997,0.000190,-0.001581,0.004171,0.000138,0.004175,-0.001585,88.628969,0.004215,
720,90,0.221612,-9.791975,0.999998,0.000164,-0.001307,0.004176,0.001158,0.004411,-0.001542,78.550504,0.004477,
800,1500,0.911365,-2.477232,0.999998,0.000171,-0.002694,0.005254,0.000178,0.005258,-0.002698,88.719009,0.005259,
1640,470,-0.748372,-8.079735,0.999998,0.000182,-0.002454,0.004992,0.000205,0.004998,-0.002459,88.427791,0.004998,
770,920,1.628141,-5.582914,0.999998,0.000175,-0.002356,0.005179,0.000495,0.005212,-0.002388,86.260727,0.005218,
760,940,1.672608,-5.478478,0.999997,0.000191,-0.002261,0.005046,0.000449,0.005074,-0.002289,86.498253,0.005082,
760,1220,1.506727,-4.051528,0.999997,0.000210,-0.002671,0.005358,-0.000575,0.005399,-0.002712,-85.924552,0.005399,
1110,450,0.157674,-8.579774,0.999998,0.000186,-0.001375,0.003779,-0.000324,0.003800,-0.001396,-86.422583,0.003844,
1100,1580,0.174919,-1.604234,0.999998,0.000146,-0.001531,0.003854,0.000445,0.003891,-0.001567,85.308774,0.003915,
1880,1110,-2.073972,-4.693838,0.999998,0.000170,-0.002071,0.004284,0.000097,0.004285,-0.002073,89.127568,0.004286,
1360,1940,-0.040187,-0.299395,0.999999,0.000135,-0.000330,0.003240,0.000176,0.003249,-0.000338,87.182856,0.003572,
1860,530,-1.391159,-7.419289,0.999997,0.000192,-0.002530,0.005111,0.000028,0.005111,-0.002530,89.789054,0.005111,
1370,620,-0.203358,-7.904180,0.999998,0.000171,-0.001979,0.003889,0.001093,0.004086,-0.002176,79.782344,0.004089,
1710,530,-1.002760,-7.656235,0.999997,0.000199,-0.002649,0.005198,0.000138,0.005200,-0.002651,88.992866,0.005201,
1260,680,-0.030206,-7.916972,0.999998,0.000148,-0.001119,0.002419,0.000474,0.002482,-0.001181,82.498605,0.002483,
1220,420,0.014863,-8.746528,0.999998,0.000164,-0.001208,0.003510,-0.000087,0.003512,-0.001210,-88.948278,0.003568,
580,1440,1.580801,-3.129339,0.999997,0.000196,-0.003837,0.005086,-0.000020,0.005086,-0.003837,-89.871563,0.005301,
1480,930,-1.111006,-5.723475,0.999998,0.000179,-0.002996,0.007010,-0.000309,0.007019,-0.003005,-88.235053,0.007043,
1670,1330,-1.197283,-3.413303,0.999998,0.000170,-0.003000,0.005597,0.000253,0.005605,-0.003008,88.312562,0.005610,
1760,1610,-1.014802,-2.065688,0.999998,0.000162,-0.002491,0.005068,-0.000087,0.005069,-0.002492,-89.337684,0.005069,
1610,1160,-1.377586,-4.319521,0.999998,0.000188,-0.002631,0.005708,0.000704,0.005767,-0.002690,85.204990,0.005771,
1550,2000,-0.045153,-0.118796,0.999998,0.000153,-0.000173,0.003344,0.000578,0.003436,-0.000265,80.898049,0.003824,
1130,660,0.135047,-7.843476,0.999999,0.000140,-0.001773,0.003401,-0.001278,0.003699,-0.002071,-76.855084,0.003708,
1710,380,-0.800193,-8.421308,0.999998,0.000168,-0.002334,0.005002,0.000009,0.005002,-0.002334,89.929467,0.005005,
1800,1810,-0.772868,-1.116019,0.999998,0.000193,-0.002323,0.005089,0.000351,0.005105,-0.002339,87.295995,0.005111,
1810,40,-0.089542,-9.990761,0.999998,0.000190,-0.000611,0.004314,-0.001876,0.004947,-0.001244,-71.349580,0.005146,
1370,230,-0.098989,-9.388430,0.999998,0.000171,-0.000732,0.003579,-0.000096,0.003581,-0.000734,-88.722850,0.003783,
1050,1560,0.263835,-1.752841,0.999998,0.000152,-0.001771,0.004120,0.000547,0.004171,-0.001821,84.743880,0.004182,
610,460,1.270441,-7.787162,0.999998,0.000174,-0.002500,0.005073,-0.000060,0.005073,-0.002501,-89.548065,0.005073,
1030,1240,0.554688,-3.370709,0.999996,0.000216,-0.003885,0.006191,0.001186,0.006329,-0.004022,83.375245,0.006406,
1490,1060,-1.302430,-4.823303,0.999997,0.000187,-0.002105,0.006823,0.000261,0.006831,-0.002112,88.325674,0.006995,
1410,220,-0.125651,-9.410244,0.999998,0.000180,-0.000936,0.003624,-0.000107,0.003627,-0.000938,-88.655406,0.003765,
1790,1740,-0.888306,-1.456689,0.999999,0.000131,-0.002376,0.005025,0.000068,0.005026,-0.002377,89.476428,0.005028,
880,2010,0.039422,-0.086999,0.999999,0.000141,-0.000332,0.003435,-0.000696,0.003559,-0.000457,-79.864452,0.003873,
910,160,0.191083,-9.578071,0.999998,0.000186,-0.000803,0.003921,0.000525,0.003978,-0.000860,83.733662,0.004187,
1680,1670,-0.738023,-1.636987,0.999997,0.000184,-0.002290,0.004923,-0.000053,0.004924,-0.002290,-89.580789,0.004928,
1600,550,-0.735118,-7.739809,0.999998,0.000191,-0.002693,0.005155,0.000341,0.005170,-0.002708,87.514821,0.005172,
760,380,0.782745,-8.433377,0.999998,0.000178,-0.002319,0.004962,-0.000012,0.004962,-0.002319,-89.901726,0.004966,
1570,1040,-1.466606,-4.971218,0.999998,0.000184,-0.001789,0.005504,0.000130,0.005507,-0.001791,88.976107,0.005618,
1210,1410,0.024542,-2.069422,0.999999,0.000133,-0.001163,0.002721,0.000314,0.002746,-0.001189,85.410684,0.002754,
1760,420,-0.981793,-8.140342,0.999998,0.000177,-0.002464,0.005077,0.000074,0.005078,-0.002465,89.440147,0.005079,
1410,1490,-0.274627,-2.039515,0.999998,0.000184,-0.002096,0.004205,-0.000903,0.004331,-0.002222,-82.005074,0.004332,
800,1480,0.939056,-2.582932,0.999998,0.000169,-0.002736,0.005282,0.000144,0.005284,-0.002739,88.970596,0.005285,
830,40,0.041034,-10.007205,0.999998,0.000148,-0.000066,0.003465,0.000911,0.003686,-0.000288,76.347352,0.004100,
760,270,0.608841,-8.976965,0.999997,0.000198,-0.002027,0.004854,0.000351,0.004872,-0.002045,87.088696,0.004892,
1880,260,-0.999776,-8.734400,0.999998,0.000157,-0.002396,0.004915,-0.000031,0.004916,-0.002396,-89.760545,0.004916,
780,930,1.616328,-5.534835,0.999997,0.000198,-0.002298,0.005136,0.000471,0.005166,-0.002327,86.391135,0.005174,
690,580,1.244806,-7.296301,0.999998,0.000167,-0.002631,0.005161,0.000005,0.005161,-0.002631,89.966697,0.005161,
1210,190,0.012074,-9.544836,0.999998,0.000185,-0.000577,0.003303,0.000019,0.003303,-0.000577,89.719561,0.003528,
720,680,1.324809,-6.816220,0.999997,0.000198,-0.002764,0.005304,0.000205,0.005309,-0.002769,88.544421,0.005311,
1620,610,-0.863555,-7.385291,0.999998,0.000175,-0.002927,0.005365,0.000237,0.005372,-0.002934,88.362399,0.005379,
760,1200,1.544217,-4.159924,0.999997,0.000202,-0.002599,0.005318,-0.000585,0.005361,-0.002642,-85.797337,0.005361,
760,920,1.650333,-5.579980,0.999997,0.000193,-0.002340,0.005124,0.000473,0.005154,-0.002370,86.388237,0.005159,
930,1080,1.357762,-4.731033,0.999998,0.000174,-0.002093,0.005986,-0.000489,0.006016,-0.002122,-86.546301,0.006102,
1160,350,0.074700,-8.981176,0.999999,0.000131,-0.001066,0.003551,-0.000063,0.003552,-0.001067,-89.217287,0.003645,
1860,510,-1.362314,-7.521673,0.999996,0.000216,-0.002521,0.005087,0.000048,0.005087,-0.002521,89.637048,0.005087,
1870,1130,-2.031280,-4.598950,0.999998,0.000164,-0.002140,0.004463,0.000183,0.004468,-0.002145,88.412761,0.004469,
1370,600,-0.202750,-7.979584,0.999998,0.000155,-0.001883,0.003891,0.000988,0.004055,-0.002048,80.550036,0.004056,
1630,350,-0.578759,-8.680686,0.999997,0.000188,-0.002015,0.004766,-0.000064,0.004767,-0.002016,-89.460197,0.004786,
930,220,0.251615,-9.348127,0.999998,0.000177,-0.001128,0.004022,0.000332,0.004043,-0.001150,86.324973,0.004167,
970,990,1.302179,-5.287666,0.999998,0.000178,-0.002145,0.006734,0.000279,0.006742,-0.002153,88.198916,0.006887,
1410,1290,-0.371720,-2.969191,0.999997,0.000198,-0.003443,0.005325,-0.001697,0.005642,-0.003760,-79.419818,0.005745,
1360,1920,-0.049341,-0.365909,0.999999,0.000124,-0.000401,0.003289,0.000142,0.003295,-0.000406,87.792343,0.003593,
970,1280,0.697001,-3.356647,0.999997,0.000207,-0.003728,0.006271,0.000540,0.006300,-0.003757,86.919229,0.006338,
730,840,1.594701,-5.978584,0.999997,0.000195,-0.002590,0.005181,0.000548,0.005220,-0.002628,85.989649,0.005220,
1670,1350,-1.160648,-3.299976,0.999998,0.000193,-0.002986,0.005578,0.000177,0.005582,-0.002990,88.813626,0.005587,
910,460,0.532171,-8.265280,0.999997,0.000215,-0.002260,0.004718,-0.000359,0.004736,-0.002278,-87.061341,0.004737,
1220,220,0.007122,-9.446396,0.999998,0.000150,-0.000682,0.003395,-0.000029,0.003395,-0.000682,-89.593070,0.003592,
1130,540,0.136964,-8.265990,0.999998,0.000154,-0.001505,0.003624,-0.000543,0.003681,-0.001562,-84.024187,0.003695,
1710,360,-0.770458,-8.522564,0.999998,0.000143,-0.002263,0.004976,-0.000061,0.004976,-0.002263,-89.515321,0.004983,
1100,1560,0.178216,-1.678371,0.999998,0.000146,-0.001602,0.003810,0.000541,0.003863,-0.001656,84.346331,0.003876,
1740,1610,-0.965740,-2.032803,0.999998,0.000165,-0.002496,0.005055,-0.000085,0.005056,-0.002496,-89.352663,0.005056,
1110,430,0.149775,-8.656908,0.999998,0.000185,-0.001348,0.003776,-0.000306,0.003794,-0.001366,-86.590490,0.003843,
1220,400,0.013920,-8.817851,0.999998,0.000172,-0.001157,0.003568,-0.000074,0.003569,-0.001158,-89.104939,0.003642,
940,2010,0.032176,-0.085798,0.999998,0.000144,-0.000144,0.003281,-0.000496,0.003351,-0.000214,-81.916844,0.003752,
1840,380,-1.117229,-8.212675,0.999998,0.000164,-0.002450,0.005027,0.000059,0.005027,-0.002451,89.548011,0.005027,
1830,760,-1.695941,-6.295144,0.999998,0.000194,-0.002484,0.004954,-0.000287,0.004965,-0.002495,-87.796368,0.004965,
1710,510,-0.977573,-7.761641,0.999998,0.000173,-0.002607,0.005172,0.000146,0.005175,-0.002610,88.927125,0.005175,
620,410,1.171879,-8.056146,0.999998,0.000167,-0.002477,0.005027,-0.000071,0.005028,-0.002478,-89.454374,0.005028,
1060,750,0.331984,-7.220890,0.999997,0.000191,-0.003238,0.005058,-0.001759,0.005416,-0.003596,-78.513515,0.005512,
1260,660,-0.031412,-7.968321,0.999999,0.000134,-0.001134,0.002627,0.000423,0.002674,-0.001181,83.661343,0.002680,
1110,1320,0.181606,-2.569853,0.999997,0.000253,-0.002384,0.003813,0.001908,0.004353,-0.002924,74.191271,0.004438,
1780,1670,-0.978445,-1.793447,0.999998,0.000155,-0.002446,0.005061,-0.000044,0.005062,-0.002446,-89.664245,0.005062,
1810,100,-0.354429,-9.699604,0.999998,0.000174,-0.001464,0.005030,-0.001526,0.005371,-0.001805,-77.413449,0.005467,
1060,2010,0.012600,-0.079874,0.999998,0.000150,-0.000133,0.003044,-0.000204,0.003057,-0.000146,-86.344654,0.003448,
800,1460,0.965724,-2.687185,0.999998,0.000140,-0.002800,0.005350,0.000107,0.005352,-0.002801,89.246992,0.005354,
610,1620,1.234063,-2.166921,0.999998,0.000172,-0.002486,0.005021,0.000071,0.005022,-0.002487,89.460565,0.005022,
760,360,0.754548,-8.531116,0.999997,0.000190,-0.002235,0.004977,0.000042,0.004978,-0.002236,89.663184,0.004986,
1640,550,-0.843454,-7.669365,0.999998,0.000183,-0.002712,0.005227,0.000241,0.005235,-0.002720,88.262782,0.005236,
1390,220,-0.110818,-9.416593,0.999998,0.000153,-0.000758,0.003556,-0.000123,0.003559,-0.000762,-88.365727,0.003748,
730,100,0.236762,-9.757645,0.999998,0.000176,-0.001141,0.004267,0.001184,0.004515,-0.001389,78.175221,0.004625,
790,480,0.844665,-7.974581,0.999998,0.000167,-0.002536,0.005064,-0.000183,0.005069,-0.002540,-88.620985,0.005069,
760,1180,1.577141,-4.263686,0.999997,0.000193,-0.002525,0.005243,-0.000590,0.005287,-0.002570,-85.681209,0.005288,
1770,1740,-0.841488,-1.424244,0.999998,0.000150,-0.002394,0.005019,0.000056,0.005020,-0.002395,89.568620,0.005021,
620,370,1.110309,-8.256860,0.999998,0.000183,-0.002436,0.005004,-0.000032,0.005004,-0.002436,-89.752458,0.005005,
670,140,0.471195,-9.509727,0.999996,0.000232,-0.001814,0.005033,0.001152,0.005221,-0.002003,80.702208,0.005268,
1410,1510,-0.271923,-1.953634,0.999997,0.000191,-0.001994,0.004195,-0.000783,0.004292,-0.002091,-82.903176,0.004293,
1840,310,-1.000803,-8.563840,0.999998,0.000170,-0.002418,0.005027,0.000013,0.005027,-0.002418,89.901259,0.005028,
1210,170,0.011435,-9.611482,0.999998,0.000174,-0.000513,0.003275,0.000010,0.003275,-0.000513,89.842138,0.003522,
760,900,1.620316,-5.683216,0.999997,0.000204,-0.002416,0.005247,0.000590,0.005292,-0.002461,85.625179,0.005296,
1610,780,-1.119251,-6.434594,0.999998,0.000164,-0.003228,0.005918,-0.000330,0.005930,-0.003240,-87.935919,0.005939,
1130,560,0.137532,-8.193882,0.999998,0.000149,-0.001523,0.003596,-0.000624,0.003671,-0.001598,-83.149958,0.003681,
1840,370,-1.102092,-8.262330,0.999998,0.000150,-0.002450,0.005032,0.000052,0.005032,-0.002450,89.599911,0.005033,
880,1250,1.085923,-3.753713,0.999998,0.000179,-0.003307,0.006092,-0.000379,0.006107,-0.003323,-87.696206,0.006115,
1210,530,0.027063,-8.364204,0.999998,0.000144,-0.001269,0.003325,-0.000192,0.003333,-0.001277,-87.608854,0.003363,
790,1480,0.965346,-2.597589,0.999998,0.000168,-0.002735,0.005262,0.000120,0.005264,-0.002736,89.138893,0.005265,
1260,640,-0.032097,-8.019820,0.999999,0.000131,-0.001150,0.002749,0.000361,0.002782,-0.001183,84.757853,0.002792,
800,1440,0.994597,-2.796390,0.999998,0.000146,-0.002863,0.005399,0.000084,0.005400,-0.002864,89.416305,0.005403,
1840,1150,-1.943662,-4.487133,0.999997,0.000192,-0.002216,0.004567,0.000247,0.004576,-0.002225,87.919982,0.004576,
1100,1540,0.181697,-1.757015,0.999998,0.000158,-0.001654,0.003869,0.000629,0.003940,-0.001724,83.586186,0.003950,
1360,1900,-0.058048,-0.430108,0.999999,0.000132,-0.000469,0.003390,0.000149,0.003396,-0.000475,87.785315,0.003678,
760,340,0.724442,-8.632631,0.999997,0.000202,-0.002182,0.004969,0.000092,0.004971,-0.002184,89.263158,0.004983,
650,580,1.347359,-7.235685,0.999998,0.000192,-0.002560,0.005163,0.000010,0.005163,-0.002560,89.928117,0.005163,
1050,2010,0.014762,-0.080491,0.999998,0.000137,-0.000168,0.003056,-0.000239,0.003074,-0.000185,-85.782975,0.003447,
1240,350,-0.009584,-8.995534,0.999999,0.000140,-0.001079,0.003518,0.000066,0.003519,-0.001080,89.172135,0.003605,
1370,660,-0.207160,-7.746541,0.999997,0.000187,-0.002229,0.004012,0.001389,0.004307,-0.002524,78.001626,0.004328,
1540,910,-1.222453,-5.740692,0.999998,0.000198,-0.002805,0.006202,-0.000730,0.006261,-0.002864,-85.394773,0.006269,
1210,1370,0.022455,-2.169884,0.999999,0.000130,-0.001076,0.002327,0.000395,0.002372,-0.001122,83.461022,0.002373,
1710,490,-0.949432,-7.864831,0.999998,0.000149,-0.002576,0.005123,0.000139,0.005125,-0.002579,88.964001,0.005125,
1570,980,-1.438879,-5.302167,0.999997,0.000226,-0.001986,0.005594,-0.000464,0.005623,-0.002015,-86.506672,0.005698,
1690,1300,-1.313573,-3.603893,0.999997,0.000198,-0.002908,0.005491,0.000412,0.005511,-0.002929,87.201216,0.005515,
940,2000,0.039660,-0.117230,0.999998,0.000150,-0.000197,0.003320,-0.000510,0.003392,-0.000269,-81.913982,0.003771,
690,160,0.494281,-9.430632,0.999996,0.000223,-0.002042,0.005010,0.000875,0.005117,-0.002149,83.030784,0.005139,
1100,1890,0.065434,-0.465945,0.999998,0.000173,-0.000515,0.003408,-0.000143,0.003413,-0.000520,-87.921871,0.003678,
1040,1250,0.488956,-3.260847,0.999998,0.000215,-0.003867,0.005964,0.001373,0.006152,-0.004056,82.196352,0.006255,
1760,1670,-0.928980,-1.760689,0.999998,0.000184,-0.002460,0.005059,-0.000056,0.005059,-0.002460,-89.572827,0.005060,
590,1620,1.283813,-2.199121,0.999998,0.000178,-0.002373,0.005022,-0.000048,0.005022,-0.002374,-89.630013,0.005025,
1460,1810,-0.194101,-0.788903,0.999999,0.000137,-0.001011,0.003869,0.000192,0.003876,-0.001019,87.753990,0.004019,
620,1190,1.902315,-4.305276,0.999998,0.000209,-0.002291,0.004744,-0.000313,0.004758,-0.002305,-87.454309,0.004758,
1700,570,-1.033315,-7.464332,0.999997,0.000221,-0.002731,0.005274,0.000097,0.005276,-0.002732,89.306944,0.005277,
730,80,0.179954,-9.837115,0.999998,0.000170,-0.000908,0.004060,0.001240,0.004353,-0.001200,76.739682,0.004496,
1010,220,0.166620,-9.389070,0.999998,0.000189,-0.000904,0.003766,0.000187,0.003774,-0.000912,87.711513,0.003938,
1120,1690,0.124709,-1.174007,0.999998,0.000158,-0.001234,0.003754,0.000185,0.003761,-0.001241,87.877719,0.003833,
1880,270,-1.020849,-8.684450,0.999998,0.000146,-0.002410,0.004905,-0.000014,0.004905,-0.002410,-89.888734,0.004906,
1110,410,0.148807,-8.729840,0.999998,0.000169,-0.001308,0.003693,-0.000276,0.003709,-0.001324,-86.848225,0.003759,
620,230,0.841948,-8.961202,0.999998,0.000173,-0.002440,0.005053,0.000163,0.005056,-0.002444,88.754737,0.005057,
760,1160,1.611154,-4.370210,0.999997,0.000204,-0.002438,0.005244,-0.000632,0.005296,-0.002490,-85.328715,0.005299,
1410,1530,-0.265835,-1.870493,0.999998,0.000176,-0.001877,0.004140,-0.000662,0.004212,-0.001950,-83.793318,0.004216,
650,140,0.507494,-9.487812,0.999997,0.000207,-0.001985,0.005187,0.001025,0.005330,-0.002129,82.027154,0.005366,
760,880,1.586344,-5.789477,0.999997,0.000212,-0.002507,0.005219,0.000586,0.005263,-0.002552,85.685038,0.005264,
1210,150,0.009569,-9.676383,0.999998,0.000153,-0.000452,0.003209,0.000027,0.003210,-0.000452,89.578632,0.003475,
1760,400,-0.950556,-8.243812,0.999998,0.000178,-0.002474,0.005038,0.000069,0.005038,-0.002474,89.475991,0.005039,
860,1250,1.151598,-3.783726,0.999998,0.000178,-0.003210,0.005962,-0.000429,0.005982,-0.003230,-87.326660,0.005989,
1590,780,-1.053087,-6.467025,0.999998,0.000160,-0.003301,0.005991,-0.000264,0.005999,-0.003309,-88.376036,0.006009,
1250,500,-0.022863,-8.464907,0.999998,0.000177,-0.001263,0.003414,0.000155,0.003419,-0.001268,88.104801,0.003457,
1090,1820,0.104053,-0.712055,0.999998,0.000185,-0.000762,0.003561,-0.000091,0.003563,-0.000764,-88.789948,0.003751,
1670,1370,-1.125170,-3.189247,0.999998,0.000187,-0.002990,0.005505,0.000114,0.005507,-0.002991,89.232662,0.005513,
1210,1350,0.020680,-2.212593,0.999999,0.000137,-0.001035,0.002150,0.000460,0.002215,-0.001100,81.950500,0.002215,
1260,620,-0.033616,-8.077760,0.999999,0.000133,-0.001185,0.002895,0.000312,0.002918,-0.001209,85.654447,0.002933,
800,1660,0.711091,-1.662581,0.999997,0.000207,-0.002330,0.004934,0.000079,0.004935,-0.002331,89.374260,0.004937,
720,660,1.290250,-6.922664,0.999997,0.000195,-0.002747,0.005278,0.000161,0.005281,-0.002750,88.848413,0.005282,
810,600,0.944811,-7.382935,0.999998,0.000144,-0.002831,0.005371,-0.000145,0.005374,-0.002833,-88.989123,0.005376,
1210,450,0.026212,-8.638296,0.999998,0.000173,-0.001225,0.003515,-0.000135,0.003519,-0.001229,-88.366468,0.003572,
1360,1880,-0.068142,-0.499873,0.999998,0.000159,-0.000532,0.003388,0.000113,0.003391,-0.000536,88.353150,0.003646,
1100,1520,0.184663,-1.835401,0.999998,0.000169,-0.001716,0.003862,0.000731,0.003956,-0.001811,82.656280,0.003960,
1040,2010,0.016785,-0.080779,0.999999,0.000139,-0.000164,0.003077,-0.000270,0.003100,-0.000186,-85.265110,0.003476,
1710,470,-0.923381,-7.968462,0.999998,0.000155,-0.002521,0.005087,0.000139,0.005090,-0.002523,88.954776,0.005090,
800,1970,0.144022,-0.243653,0.999999,0.000145,-0.000697,0.003872,-0.000962,0.004066,-0.000891,-78.585225,0.004275,
650,560,1.316151,-7.339449,0.999997,0.000182,-0.002551,0.005108,-0.000027,0.005108,-0.002551,-89.801026,0.005108,
1810,80,-0.265184,-9.801294,0.999998,0.000176,-0.001141,0.005075,-0.001850,0.005584,-0.001650,-74.617193,0.005737,
590,1610,1.298506,-2.249584,0.999998,0.000169,-0.002417,0.005007,0.000017,0.005007,-0.002418,89.865380,0.005008,
1670,1300,-1.254141,-3.580174,0.999997,0.000189,-0.002997,0.005592,0.000378,0.005609,-0.003014,87.482491,0.005614,
1820,830,-1.792150,-5.963181,0.999999,0.000139,-0.002391,0.004773,-0.000349,0.004790,-0.002408,-87.221195,0.004790,
1880,590,-1.534308,-7.081244,0.999996,0.000220,-0.002537,0.005075,-0.000011,0.005075,-0.002537,-89.918027,0.005075,
780,850,1.481470,-5.959557,0.999997,0.000202,-0.002678,0.005451,0.000632,0.005499,-0.002727,85.581576,0.005499,
1740,50,-0.095775,-9.958092,0.999998,0.000158,-0.000585,0.004031,-0.001421,0.004434,-0.000988,-74.191984,0.004655,
980,1690,0.318930,-1.290681,0.999998,0.000197,-0.001667,0.004243,0.000211,0.004250,-0.001674,87.961267,0.004282,
1190,1820,0.029763,-0.688759,0.999999,0.000108,-0.000687,0.003418,0.000003,0.003418,-0.000687,89.962990,0.003616,
760,320,0.694107,-8.731831,0.999997,0.000211,-0.002161,0.004900,0.000127,0.004902,-0.002164,88.968965,0.004914,
1820,1150,-1.899165,-4.475252,0.999997,0.000218,-0.002223,0.004662,0.000276,0.004673,-0.002234,87.711129,0.004674,
1320,1690,-0.095565,-1.159566,0.999999,0.000137,-0.001185,0.003660,-0.000170,0.003666,-0.001191,-87.996465,0.003741,
1570,360,-0.470892,-8.711253,0.999998,0.000194,-0.002025,0.004556,0.000097,0.004557,-0.002027,89.158642,0.004566,
1370,640,-0.205110,-7.824881,0.999998,0.000164,-0.002104,0.003904,0.001209,0.004138,-0.002338,79.037101,0.004150,
1040,770,0.425862,-7.023420,0.999996,0.000231,-0.003602,0.005595,-0.001496,0.005832,-0.003840,-80.989111,0.005929,
1830,320,-0.994416,-8.532778,0.999998,0.000184,-0.002436,0.005013,0.000021,0.005013,-0.002436,89.840623,0.005014,
1110,390,0.143615,-8.803442,0.999998,0.000169,-0.001254,0.003735,-0.000218,0.003745,-0.001264,-87.504647,0.003810,
1040,930,0.933894,-5.971994,0.999998,0.000175,-0.003302,0.007407,-0.001509,0.007616,-0.003510,-82.132530,0.007624,
1220,180,0.005631,-9.579100,0.999998,0.000167,-0.000562,0.003294,0.000002,0.003294,-0.000562,89.973033,0.003524,
1220,350,0.012495,-8.994661,0.999999,0.000130,-0.001098,0.003503,-0.000049,0.003504,-0.001099,-89.395729,0.003584,
1550,840,-1.061525,-6.163687,0.999997,0.000233,-0.003367,0.006282,-0.000429,0.006301,-0.003386,-87.459390,0.006307,
1510,300,-0.308716,-9.034243,0.999997,0.000206,-0.001564,0.004140,-0.000026,0.004140,-0.001565,-89.735068,0.004181,
760,1140,1.645525,-4.474891,0.999998,0.000211,-0.002355,0.005136,-0.000522,0.005172,-0.002392,-86.031394,0.005177,
1410,1970,-0.036389,-0.206899,0.999998,0.000174,-0.000302,0.003223,0.000256,0.003241,-0.000320,85.864190,0.003572,
600,1190,1.947000,-4.323668,0.999998,0.000162,-0.002227,0.004610,-0.000218,0.004617,-0.002234,-88.172894,0.004617,
1760,380,-0.921672,-8.343854,0.999998,0.000178,-0.002445,0.005078,0.000066,0.005078,-0.002445,89.494856,0.005080,
1420,1310,-0.384056,-2.908177,0.999997,0.000209,-0.003355,0.005323,-0.001554,0.005593,-0.003625,-80.150411,0.005674,
680,570,1.254170,-7.333005,0.999998,0.000145,-0.002591,0.005166,-0.000003,0.005166,-0.002591,-89.976476,0.005166,
1210,130,0.007799,-9.739774,0.999998,0.000148,-0.000370,0.003191,0.000004,0.003191,-0.000370,89.939889,0.003491,
1370,1820,-0.103298,-0.711388,0.999998,0.000151,-0.000785,0.003565,0.000090,0.003566,-0.000787,88.812223,0.003747,
800,1420,1.025192,-2.904321,0.999998,0.000141,-0.002903,0.005403,0.000029,0.005403,-0.002903,89.803350,0.005408,
760,860,1.552713,-5.892648,0.999997,0.000210,-0.002571,0.005263,0.000598,0.005308,-0.002616,85.663062,0.005308,
1130,640,0.135198,-7.912561,0.999998,0.000163,-0.001729,0.003423,-0.001122,0.003657,-0.001963,-78.232488,0.003660,
1210,1330,0.020865,-2.253784,0.999998,0.000142,-0.001025,0.001937,0.000509,0.002022,-0.001110,80.513074,0.002026,
1260,600,-0.034928,-8.135358,0.999998,0.000150,-0.001217,0.003037,0.000260,0.003053,-0.001233,86.521395,0.003072,
590,1600,1.313558,-2.299527,0.999997,0.000213,-0.002443,0.005058,0.000033,0.005059,-0.002443,89.744725,0.005060,
1010,2010,0.021145,-0.082301,0.999999,0.000128,-0.000056,0.003128,-0.000317,0.003159,-0.000087,-84.373244,0.003599,
1890,170,-0.790441,-9.154216,0.999998,0.000162,-0.002476,0.005039,-0.000332,0.005053,-0.002491,-87.472512,0.005054,
800,1950,0.188653,-0.322021,0.999998,0.000170,-0.000919,0.004052,-0.000933,0.004221,-0.001089,-79.708337,0.004383,
720,640,1.256648,-7.027220,0.999998,0.000176,-0.002740,0.005249,0.000104,0.005250,-0.002741,89.254962,0.005252,
1570,1840,-0.286842,-0.732345,0.999998,0.000161,-0.001312,0.004144,0.000397,0.004173,-0.001341,85.860676,0.004261,
1670,1390,-1.093154,-3.078908,0.999998,0.000184,-0.002970,0.005476,0.000067,0.005476,-0.002970,89.546084,0.005483,
1100,1500,0.187374,-1.914217,0.999998,0.000151,-0.001777,0.003806,0.000823,0.003924,-0.001895,81.787315,0.003925,
720,670,1.307703,-6.870148,0.999997,0.000204,-0.002757,0.005290,0.000186,0.005295,-0.002761,88.674081,0.005296,
660,40,0.090163,-9.990048,0.999999,0.000145,-0.000266,0.004262,0.001932,0.004974,-0.000978,69.761549,0.005271,
1480,1130,-1.095506,-4.323183,0.999998,0.000172,-0.003013,0.006990,0.000284,0.006998,-0.003021,88.376524,0.007019,
1830,960,-1.977256,-5.344749,0.999998,0.000172,-0.002163,0.004518,-0.000125,0.004520,-0.002165,-88.925125,0.004521,
1170,1820,0.042680,-0.691592,0.999999,0.000130,-0.000659,0.003423,-0.000066,0.003424,-0.000660,-89.067783,0.003633,
760,870,1.569328,-5.840731,0.999997,0.000212,-0.002531,0.005212,0.000582,0.005256,-0.002574,85.724583,0.005256,
1890,1090,-2.104403,-4.781452,0.999998,0.000173,-0.002013,0.004080,-0.000049,0.004081,-0.002013,-89.543364,0.004081,
1130,420,0.123725,-8.709055,0.999998,0.000162,-0.001312,0.003698,-0.000303,0.003716,-0.001331,-86.552233,0.003766,
1210,430,0.025758,-8.708855,0.999998,0.000165,-0.001192,0.003517,-0.000123,0.003520,-0.001196,-88.505393,0.003580,
950,1820,0.244740,-0.780522,0.999998,0.000158,-0.001264,0.004034,-0.000230,0.004044,-0.001274,-87.517426,0.004135,
760,1120,1.667655,-4.575909,0.999997,0.000213,-0.002269,0.005059,-0.000434,0.005084,-0.002295,-86.622582,0.005092,
1650,1300,-1.194163,-3.555126,0.999996,0.000225,-0.003078,0.005698,0.000319,0.005709,-0.003089,87.921540,0.005716,
1420,1290,-0.406195,-3.015255,0.999998,0.000196,-0.003536,0.005502,-0.001562,0.005764,-0.003798,-80.465795,0.005860,
1710,450,-0.898243,-8.069488,0.999998,0.000163,-0.002476,0.005067,0.000123,0.005069,-0.002478,89.068000,0.005069,
1470,1540,-0.386359,-1.931925,0.999998,0.000180,-0.002152,0.004507,-0.000609,0.004562,-0.002208,-84.819302,0.004563,
1740,40,-0.065419,-9.997719,0.999998,0.000178,-0.000452,0.003955,-0.001435,0.004381,-0.000878,-73.464885,0.004636,
1360,1860,-0.075997,-0.566725,0.999998,0.000151,-0.000616,0.003468,0.000128,0.003472,-0.000620,88.202551,0.003704,
760,300,0.663042,-8.827846,0.999998,0.000195,-0.002139,0.004890,0.000202,0.004896,-0.002145,88.356718,0.004909,
1660,910,-1.530627,-5.650249,0.999997,0.000187,-0.002458,0.005388,-0.000643,0.005440,-0.002511,-85.342322,0.005445,
1220,1690,0.013045,-1.138647,0.999998,0.000146,-0.001089,0.003542,0.000057,0.003543,-0.001090,89.294687,0.003629,
1110,370,0.138413,-8.880053,0.999998,0.000195,-0.001223,0.003805,-0.000177,0.003811,-0.001229,-87.983775,0.003890,
1700,730,-1.294631,-6.601930,0.999997,0.000207,-0.002872,0.005482,-0.000347,0.005497,-0.002887,-87.622782,0.005499,
1210,110,0.007214,-9.805289,0.999998,0.000156,-0.000309,0.003173,0.000009,0.003173,-0.000309,89.847973,0.003499,
620,490,1.289617,-7.650358,0.999998,0.000180,-0.002523,0.005089,-0.000039,0.005089,-0.002523,-89.707502,0.005089,
1410,1950,-0.052064,-0.269805,0.999998,0.000167,-0.000398,0.003302,0.000251,0.003319,-0.000415,86.132653,0.003616,
580,490,1.390543,-7.587031,0.999997,0.000231,-0.001914,0.005167,0.000165,0.005171,-0.001918,88.668936,0.005228,
660,570,1.305935,-7.303049,0.999998,0.000183,-0.002570,0.005154,-0.000002,0.005154,-0.002570,-89.984491,0.005154,
1000,2010,0.021212,-0.081557,0.999999,0.000130,-0.000044,0.003127,-0.000351,0.003166,-0.000082,-83.758748,0.003609,
800,1380,1.088273,-3.122744,0.999998,0.000159,-0.002970,0.005510,-0.000050,0.005510,-0.002970,-89.663282,0.005516,
1520,910,-1.165629,-5.769232,0.999998,0.000198,-0.002905,0.006422,-0.000641,0.006466,-0.002949,-86.085237,0.006474,
1200,670,0.033324,-7.940526,0.999999,0.000132,-0.001166,0.002537,-0.000497,0.002603,-0.001232,-82.486277,0.002604,
1200,350,0.034234,-8.989888,0.999999,0.000147,-0.001016,0.003501,-0.000070,0.003502,-0.001017,-89.114595,0.003603,
1760,360,-0.891881,-8.445839,0.999997,0.000193,-0.002415,0.005082,0.000023,0.005082,-0.002415,89.827974,0.005085,
1210,1310,0.021860,-2.287292,0.999998,0.000155,-0.001051,0.001668,0.000568,0.001782,-0.001165,78.661972,0.001810,
1230,220,0.000928,-9.446951,0.999999,0.000130,-0.000689,0.003391,-0.000003,0.003391,-0.000689,-89.960654,0.003585,
1890,160,-0.758878,-9.204948,0.999998,0.000176,-0.002474,0.005064,-0.000383,0.005083,-0.002493,-87.096851,0.005083,
1100,1480,0.188258,-1.990612,0.999998,0.000159,-0.001808,0.003803,0.000891,0.003941,-0.001946,81.189045,0.003941,
760,840,1.512586,-6.002778,0.999997,0.000204,-0.002661,0.005362,0.000603,0.005407,-0.002706,85.722757,0.005407,
1300,2010,-0.006583,-0.076942,0.999999,0.000133,-0.000013,0.003029,0.000077,0.003031,-0.000015,88.556229,0.003491,
1220,160,0.006431,-9.644693,0.999998,0.000157,-0.000489,0.003257,0.000001,0.003257,-0.000489,89.979755,0.003513,
1020,290,0.211546,-9.125492,0.999999,0.000146,-0.001232,0.003920,0.000021,0.003921,-0.001232,89.764311,0.004010,
680,590,1.284965,-7.229082,0.999998,0.000169,-0.002612,0.005165,0.000027,0.005165,-0.002612,89.798404,0.005165,
1260,580,-0.035246,-8.198376,0.999998,0.000174,-0.001222,0.003151,0.000258,0.003166,-0.001237,86.639805,0.003191,
590,160,0.717189,-9.246822,0.999998,0.000170,-0.002475,0.005099,0.000395,0.005119,-0.002496,87.018834,0.005120,
940,1310,0.751098,-3.260012,0.999998,0.000149,-0.003565,0.006031,0.000441,0.006052,-0.003585,87.377050,0.006086,
930,1820,0.269346,-0.793353,0.999998,0.000165,-0.001236,0.004109,-0.000309,0.004127,-0.001253,-86.705482,0.004231,
1210,1560,0.027328,-1.599494,0.999998,0.000169,-0.001261,0.003458,0.000181,0.003465,-0.001267,87.802203,0.003507,
1330,740,-0.130039,-7.589298,0.999998,0.000173,-0.002046,0.003228,0.001857,0.003816,-0.002634,72.424038,0.003907,
1110,1820,0.089103,-0.704707,0.999999,0.000118,-0.000783,0.003507,-0.000057,0.003508,-0.000784,-89.239933,0.003682,
1210,410,0.027184,-8.779026,0.999998,0.000172,-0.001153,0.003548,-0.000114,0.003551,-0.001156,-88.609027,0.003622,
570,760,1.850406,-6.207378,0.999965,0.000612,-0.002702,0.004880,-0.000042,0.004881,-0.002702,-89.681112,0.004890,
1670,1830,-0.457994,-0.853268,0.999998,0.000191,-0.001881,0.004578,0.000448,0.004609,-0.001912,86.051301,0.004631,
1710,430,-0.870513,-8.169469,0.999998,0.000166,-0.002446,0.005048,0.000108,0.005049,-0.002447,89.175729,0.005050,
680,190,0.598629,-9.269037,0.999998,0.000178,-0.002161,0.005050,0.000672,0.005112,-0.002223,84.719760,0.005126,
740,150,0.370490,-9.534767,0.999998,0.000170,-0.001343,0.004653,0.001047,0.004831,-0.001521,80.373686,0.004940,
1350,1820,-0.086637,-0.704251,0.999998,0.000141,-0.000836,0.003535,0.000020,0.003536,-0.000836,89.743291,0.003696,
720,620,1.226953,-7.133690,0.999998,0.000171,-0.002717,0.005257,0.000065,0.005258,-0.002718,89.534983,0.005259,
1570,1820,-0.315397,-0.816255,0.999998,0.000181,-0.001387,0.004253,0.000342,0.004274,-0.001407,86.542383,0.004356,
660,1810,0.780247,-1.120630,0.999998,0.000163,-0.002303,0.005088,-0.000353,0.005104,-0.002320,-87.275106,0.005111,
1400,1290,-0.338817,-2.922513,0.999997,0.000216,-0.003335,0.005124,-0.001819,0.005498,-0.003710,-78.366886,0.005609,
760,1100,1.691158,-4.676800,0.999997,0.000197,-0.002208,0.005058,-0.000443,0.005085,-0.002235,-86.521216,0.005097,
760,280,0.627196,-8.928029,0.999997,0.000203,-0.002068,0.004892,0.000313,0.004906,-0.002082,87.428890,0.004925,
1660,890,-1.495580,-5.758111,0.999998,0.000192,-0.002572,0.005378,-0.000638,0.005429,-0.002623,-85.442727,0.005430,
760,850,1.533205,-5.947679,0.999996,0.000223,-0.002619,0.005328,0.000607,0.005374,-0.002665,85.659552,0.005374,
1780,470,-1.100426,-7.854242,0.999998,0.000187,-0.002532,0.005086,0.000103,0.005088,-0.002534,89.224923,0.005088,
850,1240,1.205690,-3.857229,0.999997,0.000180,-0.003111,0.005866,-0.000509,0.005895,-0.003140,-86.766515,0.005899,
910,600,0.657798,-7.568820,0.999997,0.000226,-0.002842,0.005251,-0.000529,0.005285,-0.002876,-86.277337,0.005292,
620,310,1.007569,-8.557861,0.999998,0.000198,-0.002429,0.005047,-0.000032,0.005048,-0.002429,-89.752208,0.005049,
1130,620,0.135056,-7.982660,0.999998,0.000151,-0.001653,0.003499,-0.000997,0.003685,-0.001839,-79.425060,0.003685,
1210,220,0.013916,-9.445230,0.999999,0.000151,-0.000678,0.003394,-0.000040,0.003394,-0.000678,-89.435886,0.003592,
1210,1290,0.022166,-2.317219,0.999998,0.000176,-0.001135,0.001416,0.000625,0.001561,-0.001280,76.952982,0.001664,
760,1050,1.722552,-4.927160,0.999998,0.000181,-0.002096,0.004954,-0.000174,0.004958,-0.002100,-88.583463,0.004978,
1710,970,-1.722700,-5.324472,0.999997,0.000185,-0.002152,0.004974,-0.000314,0.004987,-0.002165,-87.481999,0.005002,
990,2010,0.021170,-0.081262,0.999999,0.000127,-0.000086,0.003125,-0.000378,0.003169,-0.000130,-83.375770,0.003587,
1670,1810,-0.496362,-0.947663,0.999997,0.000190,-0.001968,0.004697,0.000372,0.004717,-0.001988,86.812456,0.004737,
1760,340,-0.858268,-8.547744,0.999998,0.000162,-0.002405,0.005037,-0.000012,0.005037,-0.002405,-89.911025,0.005039,
1220,140,0.003779,-9.710841,0.999998,0.000141,-0.000433,0.003186,-0.000008,0.003186,-0.000433,-89.872431,0.003457,
1850,900,-1.959947,-5.608527,0.999997,0.000184,-0.002193,0.004493,-0.000193,0.004498,-0.002199,-88.344666,0.004499,
1330,280,-0.085089,-9.223222,0.999999,0.000142,-0.000964,0.003583,0.000053,0.003583,-0.000964,89.332263,0.003709,
700,670,1.362394,-6.841692,0.999998,0.000195,-0.002698,0.005245,0.000181,0.005249,-0.002702,88.695499,0.005250,
580,160,0.741910,-9.221809,0.999999,0.000169,-0.002618,0.005031,0.000434,0.005055,-0.002642,86.764485,0.005057,
1890,150,-0.727034,-9.255152,0.999997,0.000201,-0.002455,0.005172,-0.000488,0.005203,-0.002486,-86.354739,0.005205,
760,820,1.478863,-6.107603,0.999997,0.000197,-0.002733,0.005341,0.000545,0.005378,-0.002770,86.157980,0.005379,
1630,330,-0.551699,-8.778126,0.999997,0.000197,-0.001955,0.004733,-0.000082,0.004734,-0.001956,-89.298995,0.004757,
660,1670,1.035216,-1.831232,0.999998,0.000165,-0.002466,0.005053,0.000043,0.005053,-0.002467,89.674048,0.005054,
780,910,1.588263,-5.639873,0.999997,0.000214,-0.002397,0.005299,0.000600,0.005345,-0.002444,85.568017,0.005352,
620,1750,0.998033,-1.496477,0.999998,0.000161,-0.002402,0.005022,0.000001,0.005022,-0.002402,89.990304,0.005023,
760,1080,1.709695,-4.779820,0.999997,0.000195,-0.002140,0.004992,-0.000286,0.005004,-0.002151,-87.706457,0.005020,
1880,1090,-2.084554,-4.776847,0.999997,0.000186,-0.002046,0.004148,-0.000030,0.004148,-0.002046,-89.721133,0.004148,
1370,210,-0.091499,-9.455736,0.999998,0.000161,-0.000675,0.003494,-0.000123,0.003497,-0.000679,-88.317955,0.003709,
910,220,0.275632,-9.337292,0.999998,0.000179,-0.001142,0.004090,0.000372,0.004117,-0.001168,85.950997,0.004243,
970,970,1.264027,-5.417516,0.999997,0.000180,-0.002315,0.006622,0.000426,0.006642,-0.002335,87.278205,0.006739,
1530,1300,-0.794455,-3.338492,0.999997,0.000185,-0.003587,0.006139,-0.000294,0.006148,-0.003596,-88.267295,0.006177,
1310,1820,-0.055297,-0.692565,0.999998,0.000161,-0.000705,0.003442,0.000052,0.003442,-0.000705,89.285356,0.003637,
1410,1930,-0.062949,-0.338013,0.999999,0.000138,-0.000480,0.003369,0.000216,0.003381,-0.000492,86.800069,0.003653,
1710,750,-1.360818,-6.481447,0.999997,0.000205,-0.002868,0.005412,-0.000410,0.005432,-0.002888,-87.173141,0.005436,
1360,1840,-0.087699,-0.638726,0.999998,0.000153,-0.000726,0.003507,0.000097,0.003509,-0.000728,88.686265,0.003704,
1290,2010,-0.005756,-0.076619,0.999999,0.000132,-0.000030,0.003022,0.000061,0.003024,-0.000032,88.850359,0.003473,
640,1810,0.827684,-1.153489,0.999998,0.000168,-0.002392,0.005086,-0.000219,0.005093,-0.002398,-88.324239,0.005095,
760,660,1.179908,-6.977274,0.999998,0.000194,-0.002859,0.005376,0.000118,0.005377,-0.002860,89.182412,0.005381,
1120,1890,0.055008,-0.460785,0.999998,0.000155,-0.000550,0.003372,-0.000086,0.003374,-0.000552,-88.749935,0.003619,
1410,1270,-0.400451,-3.075910,0.999997,0.000221,-0.003615,0.005515,-0.001682,0.005815,-0.003915,-79.888730,0.005930,
720,840,1.621079,-5.972422,0.999997,0.000202,-0.002541,0.005127,0.000530,0.005164,-0.002577,86.066117,0.005164,
1210,90,0.004197,-9.867214,0.999999,0.000152,-0.000242,0.003068,0.000017,0.003068,-0.000242,89.706453,0.003412,
1420,680,-0.336762,-7.503204,0.999997,0.000219,-0.002817,0.004783,0.001383,0.005027,-0.003061,79.998312,0.005067,
1620,510,-0.743012,-7.910506,0.999997,0.000221,-0.002579,0.005079,0.000284,0.005090,-0.002589,87.879678,0.005090,
1710,410,-0.841774,-8.271344,0.999998,0.000170,-0.002427,0.005043,0.000092,0.005044,-0.002428,89.297232,0.005045,
1310,740,-0.095506,-7.662263,0.999998,0.000155,-0.001668,0.002714,0.001668,0.003276,-0.002230,71.357792,0.003347,
1260,560,-0.035061,-8.260887,0.999999,0.000165,-0.001231,0.003207,0.000246,0.003220,-0.001245,86.830995,0.003248,
750,700,1.275951,-6.749835,0.999997,0.000261,-0.002834,0.005398,0.000245,0.005405,-0.002841,88.296199,0.005407,
940,1030,1.387791,-5.024587,0.999998,0.000190,-0.001785,0.005862,-0.000013,0.005862,-0.001785,-89.906295,0.006010,
1130,520,0.136206,-8.338679,0.999998,0.000173,-0.001491,0.003617,-0.000484,0.003662,-0.001537,-84.635917,0.003678,
950,1860,0.200323,-0.622798,0.999997,0.000187,-0.001059,0.003912,-0.000333,0.003935,-0.001081,-86.179280,0.004066,
670,1980,0.229814,-0.249124,0.999998,0.000194,-0.000832,0.004888,-0.001951,0.005490,-0.001434,-72.851063,0.005695,
1760,320,-0.825923,-8.647820,0.999998,0.000163,-0.002408,0.005026,-0.000035,0.005026,-0.002408,-89.732523,0.005027,
1860,290,-1.011296,-8.627623,0.999998,0.000155,-0.002410,0.004948,-0.000005,0.004948,-0.002410,-89.963048,0.004949,
670,1620,1.082639,-2.068592,0.999998,0.000180,-0.002497,0.005053,0.000080,0.005054,-0.002498,89.392675,0.005054,
730,50,0.092526,-9.958317,0.999998,0.000158,-0.000498,0.003971,0.001411,0.004379,-0.000907,73.865317,0.004622,
1750,990,-1.818796,-5.222796,0.999998,0.000152,-0.002176,0.004831,-0.000140,0.004833,-0.002179,-88.852390,0.004841,
1210,390,0.023910,-8.851104,0.999998,0.000164,-0.001121,0.003565,-0.000101,0.003568,-0.001124,-88.763485,0.003648,
1890,1960,-0.507171,-0.523852,0.999996,0.000248,-0.002291,0.005968,0.001275,0.006160,-0.002483,81.418477,0.006198,
680,670,1.414319,-6.814231,0.999997,0.000211,-0.002646,0.005202,0.000180,0.005206,-0.002650,88.684144,0.005206,
1220,120,0.003692,-9.772384,0.999998,0.000147,-0.000331,0.003182,-0.000017,0.003182,-0.000331,-89.728826,0.003499,
1690,1760,-0.626211,-1.210582,0.999998,0.000186,-0.002146,0.004829,0.000220,0.004836,-0.002153,88.198724,0.004846,
720,380,0.878718,-8.371423,0.999998,0.000199,-0.002450,0.005078,-0.000060,0.005078,-0.002450,-89.544725,0.005079,
850,1220,1.250720,-3.974561,0.999997,0.000196,-0.003024,0.005868,-0.000588,0.005907,-0.003063,-86.233936,0.005908,
1870,1270,-1.837373,-3.958683,0.999998,0.000178,-0.002382,0.004755,0.000180,0.004759,-0.002386,88.553927,0.004759,
1130,2010,0.008510,-0.077576,0.999999,0.000140,-0.000118,0.002975,-0.000111,0.002979,-0.000122,-87.947692,0.003372,
770,860,1.528118,-5.898511,0.999998,0.000194,-0.002595,0.005331,0.000620,0.005379,-0.002643,85.550598,0.005379,
1540,1050,-1.407342,-4.912511,0.999997,0.000207,-0.001871,0.005807,0.000227,0.005813,-0.001878,88.304784,0.005933,
740,1050,1.765614,-4.928257,0.999998,0.000159,-0.002146,0.004890,-0.000164,0.004893,-0.002150,-88.667857,0.004905,
1010,1350,0.453238,-2.816636,0.999997,0.000218,-0.003230,0.005381,0.001179,0.005540,-0.003388,82.342609,0.005585,
570,160,0.767236,-9.194189,0.999941,0.000939,-0.002698,0.004957,0.000473,0.004987,-0.002727,86.475236,0.004994,
1550,1240,-0.997437,-3.757113,0.999998,0.000170,-0.003483,0.006299,0.000243,0.006305,-0.003489,88.579143,0.006317,
1640,910,-1.481048,-5.660020,0.999997,0.000209,-0.002454,0.005462,-0.000685,0.005521,-0.002513,-85.089567,0.005528,
970,950,1.209401,-5.552562,0.999997,0.000185,-0.002561,0.006770,0.000495,0.006797,-0.002587,86.973140,0.006861,
760,1060,1.717886,-4.877712,0.999998,0.000178,-0.002103,0.004954,-0.000176,0.004958,-0.002108,-88.568345,0.004977,
1190,220,0.028398,-9.443442,0.999998,0.000180,-0.000652,0.003390,-0.000011,0.003390,-0.000652,-89.850079,0.003598,
1370,190,-0.079744,-9.527826,0.999998,0.000154,-0.000576,0.003512,-0.000152,0.003518,-0.000582,-87.869998,0.003771,
1630,310,-0.526643,-8.871336,0.999997,0.000188,-0.001866,0.004630,-0.000158,0.004633,-0.001870,-88.611331,0.004662,
600,1750,1.047731,-1.533164,0.999998,0.000169,-0.002414,0.004963,0.000042,0.004963,-0.002414,89.675308,0.004964,
1420,60,-0.024188,-9.954112,0.999999,0.000133,-0.000232,0.003147,-0.000267,0.003168,-0.000253,-85.503694,0.003521,
1370,500,-0.190453,-8.369228,0.999998,0.000153,-0.001675,0.003868,0.000611,0.003935,-0.001742,83.780633,0.003944,
1690,560,-0.991685,-7.533614,0.999998,0.000165,-0.002708,0.005247,0.000115,0.005249,-0.002709,89.171835,0.005250,
1210,1270,0.025246,-2.339928,0.999998,0.000194,-0.001309,0.001227,0.000643,0.001380,-0.001462,76.561213,0.001643,
1290,1820,-0.041737,-0.691124,0.999998,0.000149,-0.000671,0.003433,0.000054,0.003434,-0.000672,89.251062,0.003639,
710,1380,1.344721,-3.250216,0.999997,0.000183,-0.002734,0.005276,-0.000217,0.005282,-0.002740,-88.450238,0.005283,
1710,390,-0.814652,-8.371357,0.999998,0.000169,-0.002370,0.005018,0.000060,0.005018,-0.002371,89.534685,0.005021,
1760,300,-0.790896,-8.748359,0.999998,0.000177,-0.002413,0.005035,-0.000111,0.005037,-0.002415,-89.146453,0.005038,
1430,1340,-0.388159,-2.787477,0.999998,0.000169,-0.003180,0.005151,-0.001422,0.005387,-0.003416,-80.576441,0.005451,
1710,770,-1.399506,-6.371977,0.999997,0.000198,-0.002852,0.005445,-0.000451,0.005470,-0.002877,-86.894701,0.005472,
650,1620,1.133359,-2.101536,0.999998,0.000167,-0.002529,0.005073,0.000085,0.005074,-0.002530,89.356209,0.005074,
1410,1910,-0.075244,-0.404549,0.999998,0.000139,-0.000581,0.003456,0.000226,0.003468,-0.000594,86.805524,0.003710,
1750,970,-1.807890,-5.318493,0.999998,0.000169,-0.002221,0.004839,-0.000211,0.004845,-0.002227,-88.293616,0.004850,
1210,370,0.024844,-8.921717,0.999998,0.000150,-0.001102,0.003525,-0.000104,0.003527,-0.001104,-88.708862,0.003609,
730,40,0.061676,-9.997270,0.999998,0.000154,-0.000368,0.003930,0.001450,0.004374,-0.000812,72.995630,0.004653,
1240,2010,-0.000944,-0.076056,0.999999,0.000114,-0.000072,0.003018,-0.000027,0.003018,-0.000072,-89.500029,0.003444,
680,650,1.382322,-6.918845,0.999998,0.000180,-0.002632,0.005202,0.000131,0.005204,-0.002634,89.043592,0.005204,
680,1970,0.264192,-0.296001,0.999997,0.000203,-0.001157,0.004696,-0.001662,0.005135,-0.001596,-75.201127,0.005256,
750,760,1.388840,-6.424207,0.999997,0.000227,-0.002788,0.005412,0.000412,0.005433,-0.002808,87.134023,0.005434,
1220,100,0.003335,-9.836782,0.999999,0.000142,-0.000272,0.003112,0.000006,0.003112,-0.000272,89.891706,0.003448,
1410,1250,-0.439637,-3.191330,0.999996,0.000246,-0.003786,0.005782,-0.001632,0.006053,-0.004057,-80.582035,0.006169,
1250,1880,-0.010454,-0.485421,0.999998,0.000155,-0.000527,0.003268,-0.000010,0.003268,-0.000527,-89.842959,0.003509,
1000,950,1.129744,-5.626924,0.999997,0.000205,-0.002834,0.007463,0.000028,0.007463,-0.002834,89.841603,0.007534,
1750,1370,-1.353257,-3.298912,0.999998,0.000205,-0.002755,0.005291,0.000225,0.005297,-0.002761,88.401898,0.005299,
760,1040,1.727457,-4.976713,0.999998,0.000175,-0.002097,0.004967,-0.000131,0.004969,-0.002099,-88.937291,0.004989,
870,1120,1.417277,-4.536429,0.999997,0.000219,-0.002357,0.005668,-0.000670,0.005723,-0.002413,-85.256578,0.005747,
590,1190,1.969363,-4.333985,0.999998,0.000159,-0.002175,0.004541,-0.000154,0.004545,-0.002179,-88.691336,0.004546,
1880,1270,-1.861313,-3.972477,0.999998,0.000170,-0.002334,0.004707,0.000130,0.004709,-0.002336,88.941754,0.004709,
1010,1330,0.471885,-2.925866,0.999997,0.000211,-0.003395,0.005539,0.001185,0.005694,-0.003549,82.570880,0.005751,
1470,220,-0.183074,-9.382354,0.999998,0.000161,-0.000911,0.003812,-0.000224,0.003823,-0.000922,-87.288741,0.003990,
1620,1610,-0.672211,-1.845257,0.999998,0.000177,-0.002384,0.004938,-0.000217,0.004944,-0.002391,-88.304969,0.004945,
980,1230,0.774578,-3.646029,0.999997,0.000226,-0.003889,0.006629,0.000313,0.006638,-0.003899,88.298140,0.006672,
970,930,1.150694,-5.687945,0.999998,0.000171,-0.002816,0.006748,0.000471,0.006771,-0.002839,87.185587,0.006801,
1630,290,-0.497973,-8.963959,0.999997,0.000199,-0.001785,0.004664,-0.000268,0.004675,-0.001796,-87.625747,0.004717,
1410,1770,-0.165617,-0.912660,0.999998,0.000174,-0.001191,0.003777,-0.000034,0.003777,-0.001192,-89.611041,0.003862,
1490,1220,-0.831123,-3.736775,0.999997,0.000216,-0.003863,0.006642,-0.000173,0.006645,-0.003866,-89.055568,0.006675,
1790,460,-1.111564,-7.888193,0.999998,0.000163,-0.002525,0.005094,0.000104,0.005095,-0.002527,89.217763,0.005095,
670,1040,1.920467,-4.980537,0.999998,0.000141,-0.002159,0.004680,-0.000126,0.004682,-0.002162,-88.946261,0.004687,
1210,1250,0.033816,-2.363278,0.999997,0.000206,-0.001713,0.001073,0.000569,0.001185,-0.001825,78.900758,0.001852,
1370,170,-0.072217,-9.595559,0.999998,0.000170,-0.000492,0.003415,-0.000166,0.003422,-0.000499,-87.576204,0.003697,
1400,2010,-0.013146,-0.078583,0.999998,0.000155,-0.000099,0.003083,0.000251,0.003102,-0.000119,85.525396,0.003516,
1370,700,-0.213535,-7.582935,0.999998,0.000176,-0.002381,0.004069,0.001636,0.004460,-0.002772,76.549933,0.004504,
590,800,1.868675,-6.046715,0.999999,0.000143,-0.002313,0.004665,0.000136,0.004668,-0.002316,88.880664,0.004668,
1670,1790,-0.533276,-1.040079,0.999997,0.000203,-0.002049,0.004731,0.000302,0.004745,-0.002062,87.455630,0.004758,
930,1120,1.269939,-4.485573,0.999998,0.000175,-0.002528,0.006181,-0.000697,0.006236,-0.002583,-85.454454,0.006266,
1060,790,0.384705,-7.008928,0.999997,0.000208,-0.003593,0.005427,-0.001762,0.005759,-0.003925,-79.330759,0.005884,
1760,280,-0.753867,-8.848766,0.999998,0.000175,-0.002404,0.005036,-0.000177,0.005040,-0.002408,-88.635135,0.005042,
1710,370,-0.784914,-8.470918,0.999998,0.000162,-0.002295,0.005004,-0.000033,0.005004,-0.002295,-89.742520,0.005009,
1230,1460,0.001365,-1.916657,0.999999,0.000136,-0.001206,0.003014,0.000025,0.003014,-0.001206,89.654587,0.003035,
1410,1890,-0.090493,-0.475444,0.999998,0.000162,-0.000679,0.003468,0.000193,0.003477,-0.000687,87.347146,0.003683,
1750,950,-1.790335,-5.417305,0.999998,0.000169,-0.002250,0.004930,-0.000358,0.004948,-0.002267,-87.151278,0.004954,
620,290,0.970151,-8.660237,0.999998,0.000178,-0.002444,0.004999,0.000008,0.004999,-0.002444,89.939052,0.004999,
1710,1210,-1.543404,-4.110626,0.999997,0.000200,-0.002626,0.005311,0.000595,0.005355,-0.002671,85.736227,0.005355,
1240,2000,-0.000583,-0.106200,0.999999,0.000122,-0.000121,0.003034,-0.000006,0.003034,-0.000121,-89.895135,0.003436,
860,1770,0.441483,-1.065527,0.999997,0.000206,-0.001813,0.004527,-0.000223,0.004535,-0.001821,-87.984498,0.004564,
1430,1320,-0.407328,-2.893813,0.999997,0.000190,-0.003348,0.005378,-0.001433,0.005607,-0.003577,-80.908581,0.005678,
730,760,1.444848,-6.402783,0.999997,0.000201,-0.002755,0.005338,0.000394,0.005357,-0.002774,87.222695,0.005358,
760,760,1.361036,-6.434663,0.999997,0.000220,-0.002845,0.005456,0.000421,0.005477,-0.002866,87.101475,0.005479,
1750,1350,-1.390174,-3.406020,0.999997,0.000211,-0.002740,0.005292,0.000284,0.005302,-0.002750,87.974200,0.005303,
1210,350,0.023458,-8.992386,0.999999,0.000138,-0.001066,0.003503,-0.000073,0.003504,-0.001067,-89.085485,0.003592,
720,600,1.193617,-7.238236,0.999998,0.000176,-0.002713,0.005264,0.000023,0.005264,-0.002713,89.831692,0.005265,
1890,1800,-1.011990,-1.341535,0.999998,0.000177,-0.002435,0.004851,0.000047,0.004852,-0.002435,89.626885,0.004852,
730,1620,0.935222,-1.972138,0.999998,0.000183,-0.002479,0.005021,0.000099,0.005022,-0.002481,89.240736,0.005022,
1670,1360,-1.142918,-3.244726,0.999998,0.000193,-0.002985,0.005534,0.000146,0.005537,-0.002987,89.018902,0.005543,
1210,70,0.004352,-9.928301,0.999998,0.000159,-0.000184,0.003043,0.000042,0.003043,-0.000185,89.258123,0.003412,
1450,220,-0.164777,-9.391313,0.999998,0.000168,-0.000894,0.003727,-0.000180,0.003734,-0.000901,-87.778057,0.003897,
1220,80,0.002958,-9.896986,0.999999,0.000155,-0.000194,0.003050,0.000019,0.003050,-0.000194,89.668488,0.003415,
610,480,1.300012,-7.685184,0.999997,0.000193,-0.002520,0.005080,-0.000036,0.005081,-0.002520,-89.728267,0.005081,
1260,540,-0.036817,-8.325974,0.999998,0.000160,-0.001248,0.003285,0.000236,0.003297,-0.001260,87.032840,0.003328,
1600,1610,-0.623685,-1.813180,0.999998,0.000207,-0.002332,0.004873,-0.000236,0.004880,-0.002339,-88.128507,0.004882,
1000,670,0.455527,-7.416824,0.999997,0.000188,-0.003025,0.005206,-0.001068,0.005342,-0.003162,-82.724266,0.005372,
1630,270,-0.465684,-9.057993,0.999998,0.000176,-0.001675,0.004548,-0.000343,0.004567,-0.001693,-86.852818,0.004617,
1410,1230,-0.487183,-3.310767,0.999996,0.000235,-0.003842,0.005996,-0.001533,0.006230,-0.004076,-81.347130,0.006328,
970,910,1.084542,-5.824022,0.999998,0.000185,-0.003110,0.006771,0.000407,0.006788,-0.003127,87.643136,0.006795,
690,640,1.339011,-6.985905,0.999998,0.000193,-0.002669,0.005190,0.000120,0.005192,-0.002671,89.123229,0.005193,
1410,1730,-0.189710,-1.065200,0.999999,0.000158,-0.001356,0.003855,-0.000119,0.003857,-0.001359,-88.690444,0.003913,
820,1190,1.403251,-4.173387,0.999997,0.000216,-0.002767,0.005599,-0.000658,0.005651,-0.002819,-85.533855,0.005651,
750,1440,1.135385,-2.875816,0.999998,0.000154,-0.002778,0.005315,-0.000015,0.005315,-0.002778,-89.897185,0.005316,
1370,150,-0.058686,-9.665807,0.999998,0.000149,-0.000408,0.003353,-0.000180,0.003361,-0.000417,-87.270997,0.003664,
1520,1530,-0.507171,-2.070209,0.999998,0.000194,-0.002377,0.004779,-0.000546,0.004821,-0.002419,-85.661554,0.004821,
580,1190,1.991177,-4.345758,0.999998,0.000184,-0.002114,0.004475,-0.000084,0.004476,-0.002115,-89.272789,0.004478,
1830,440,-1.184392,-7.925589,0.999998,0.000159,-0.002509,0.005031,0.000082,0.005032,-0.002510,89.378725,0.005032,
1480,1210,-0.821588,-3.771086,0.999998,0.000181,-0.003844,0.006727,-0.000200,0.006731,-0.003848,-88.917555,0.006754,
1440,2010,-0.020131,-0.080858,0.999999,0.000128,-0.000130,0.003096,0.000269,0.003118,-0.000152,85.262714,0.003516,
850,1120,1.463689,-4.546728,0.999997,0.000212,-0.002309,0.005538,-0.000630,0.005588,-0.002359,-85.436850,0.005611,
1370,680,-0.209328,-7.663513,0.999997,0.000189,-0.002304,0.004010,0.001523,0.004358,-0.002653,77.124447,0.004392,
1760,260,-0.712574,-8.950530,0.999998,0.000201,-0.002383,0.005016,-0.000256,0.005025,-0.002392,-88.023764,0.005027,
1410,1870,-0.102146,-0.544748,0.999998,0.000149,-0.000776,0.003501,0.000168,0.003507,-0.000782,87.757891,0.003682,
1010,1310,0.499061,-3.039766,0.999997,0.000218,-0.003591,0.005696,0.001173,0.005841,-0.003737,82.910863,0.005917,
1710,350,-0.755507,-8.574243,0.999998,0.000161,-0.002244,0.004970,-0.000077,0.004971,-0.002244,-89.387541,0.004979,
1230,1380,0.001207,-2.134799,0.999998,0.000182,-0.001052,0.002370,0.000031,0.002371,-0.001052,89.474564,0.002376,
890,760,0.955015,-6.618097,0.999998,0.000166,-0.003400,0.006057,0.000053,0.006057,-0.003401,89.677971,0.006072,
1230,2010,-0.000541,-0.075382,0.999999,0.000112,-0.000108,0.003028,-0.000028,0.003028,-0.000108,-89.495669,0.003436,
720,560,1.133937,-7.447674,0.999998,0.000158,-0.002678,0.005203,-0.000070,0.005203,-0.002678,-89.490590,0.005204,
890,1740,0.424067,-1.167390,0.999998,0.000181,-0.001840,0.004466,-0.000041,0.004466,-0.001841,-89.631177,0.004489,
1750,930,-1.769447,-5.515698,0.999998,0.000164,-0.002271,0.004859,-0.000376,0.004879,-0.002291,-86.990130,0.004882,
680,1110,1.859561,-4.649401,0.999998,0.000158,-0.002263,0.004840,-0.000359,0.004858,-0.002281,-87.112059,0.004861,
1710,1190,-1.579167,-4.217358,0.999997,0.000205,-0.002561,0.005218,0.000560,0.005258,-0.002601,85.906485,0.005258,
1670,1770,-0.566230,-1.139004,0.999998,0.000190,-0.002114,0.004772,0.000219,0.004779,-0.002121,88.177078,0.004789,
1440,730,-0.434928,-7.175414,0.999997,0.000219,-0.003373,0.005460,0.001326,0.005654,-0.003567,81.642862,0.005719,
860,1750,0.469730,-1.156623,0.999998,0.000186,-0.001863,0.004544,-0.000116,0.004546,-0.001865,-88.960092,0.004570,
1000,930,1.060536,-5.776099,0.999998,0.000170,-0.003082,0.007196,0.000035,0.007196,-0.003083,89.807237,0.007221,
940,950,1.284072,-5.510695,0.999997,0.000197,-0.002407,0.006248,0.000650,0.006296,-0.002456,85.730657,0.006347,
1400,1650,-0.211617,-1.371812,0.999998,0.000169,-0.001551,0.003941,-0.000345,0.003963,-0.001573,-86.416698,0.003991,
1210,1230,0.052016,-2.381303,0.999997,0.000212,-0.002535,0.001293,0.000308,0.001317,-0.002560,85.435539,0.002560,
630,900,1.922859,-5.620239,0.999998,0.000177,-0.002205,0.004576,0.000252,0.004585,-0.002214,87.878406,0.004586,
1210,330,0.022249,-9.062035,0.999999,0.000132,-0.001025,0.003521,-0.000067,0.003522,-0.001026,-89.150620,0.003623,
760,1020,1.729150,-5.077257,0.999998,0.000168,-0.002098,0.004969,0.000083,0.004970,-0.002099,89.325476,0.004989,
620,330,1.042782,-8.456927,0.999998,0.000180,-0.002406,0.005003,-0.000059,0.005003,-0.002406,-89.542046,0.005004,
1780,2010,-0.105086,-0.108529,0.999998,0.000175,-0.000354,0.004218,0.001734,0.004801,-0.000937,71.413236,0.005090,
1750,1330,-1.425776,-3.509428,0.999997,0.000210,-0.002740,0.005259,0.000327,0.005273,-0.002754,87.664690,0.005274,
710,1620,0.983156,-2.003488,0.999998,0.000161,-0.002464,0.005053,0.000109,0.005055,-0.002466,89.168185,0.005055,
1650,1360,-1.082591,-3.213691,0.999998,0.000202,-0.003055,0.005607,0.000112,0.005609,-0.003056,89.262218,0.005616,
750,1120,1.690602,-4.578750,0.999997,0.000207,-0.002242,0.005016,-0.000422,0.005041,-0.002266,-86.682649,0.005049,
1210,670,0.022573,-7.946843,0.999999,0.000137,-0.001093,0.002480,-0.000369,0.002518,-0.001130,-84.166246,0.002522,
1630,250,-0.434780,-9.146620,0.999998,0.000179,-0.001600,0.004536,-0.000436,0.004566,-0.001631,-85.960274,0.004628,
980,670,0.515847,-7.361695,0.999997,0.000186,-0.003107,0.005348,-0.000921,0.005447,-0.003206,-83.855912,0.005475,
660,1750,0.903165,-1.426900,0.999997,0.000199,-0.002405,0.005095,-0.000094,0.005096,-0.002406,-89.282659,0.005099,
690,660,1.372680,-6.880741,0.999998,0.000191,-0.002661,0.005229,0.000153,0.005232,-0.002664,88.890145,0.005232,
1260,520,-0.035998,-8.392840,0.999998,0.000169,-0.001263,0.003367,0.000184,0.003374,-0.001270,87.722691,0.003409,
970,890,1.014959,-5.963242,0.999998,0.000174,-0.003370,0.006754,0.000324,0.006764,-0.003381,88.169230,0.006764,
1410,1210,-0.548168,-3.429571,0.999997,0.000218,-0.003768,0.006099,-0.001438,0.006304,-0.003973,-81.876524,0.006375,
1730,480,-0.988819,-7.882989,0.999998,0.000180,-0.002554,0.005132,0.000133,0.005134,-0.002556,89.005736,0.005134,
1100,2010,0.010591,-0.079081,0.999999,0.000135,-0.000063,0.003017,-0.000155,0.003025,-0.000071,-87.120111,0.003452,
570,1250,1.922729,-4.082878,0.999995,0.000257,-0.002486,0.004521,0.000021,0.004521,-0.002486,89.832307,0.004529,
630,1440,1.454217,-3.053779,0.999997,0.000205,-0.002561,0.005109,-0.000056,0.005109,-0.002562,-89.579032,0.005109,
1200,1980,0.006775,-0.167519,0.999999,0.000136,-0.000150,0.003048,-0.000042,0.003049,-0.000150,-89.239336,0.003437,
730,1360,1.324859,-3.331198,0.999996,0.000206,-0.002824,0.005325,-0.000244,0.005332,-0.002831,-88.288193,0.005336,
1370,130,-0.051376,-9.730167,0.999998,0.000162,-0.000335,0.003257,-0.000172,0.003265,-0.000343,-87.267613,0.003589,
1370,440,-0.178984,-8.604004,0.999998,0.000202,-0.001472,0.003870,0.000380,0.003897,-0.001499,85.954729,0.003932,
1500,1750,-0.296748,-1.055516,0.999998,0.000171,-0.001572,0.004150,0.000001,0.004150,-0.001572,89.993334,0.004190,
1760,460,-1.036517,-7.938103,0.999998,0.000176,-0.002515,0.005070,0.000096,0.005071,-0.002516,89.275276,0.005071,
1710,330,-0.724427,-8.671518,0.999998,0.000177,-0.002208,0.004946,-0.000105,0.004947,-0.002209,-89.163051,0.004957,
620,1110,1.994463,-4.672604,0.999998,0.000184,-0.002179,0.004527,-0.000199,0.004533,-0.002185,-88.299965,0.004534,
660,1110,1.905432,-4.656017,0.999998,0.000161,-0.002240,0.004735,-0.000318,0.004749,-0.002255,-87.391673,0.004751,
870,760,1.021006,-6.580481,0.999997,0.000180,-0.003322,0.005985,0.000149,0.005988,-0.003324,89.086089,0.006000,
1410,1710,-0.199022,-1.141943,0.999999,0.000165,-0.001441,0.003870,-0.000186,0.003876,-0.001448,-88.000365,0.003918,
1630,480,-0.736293,-8.046391,0.999998,0.000185,-0.002462,0.005018,0.000236,0.005025,-0.002469,88.194843,0.005025,
1130,1880,0.051581,-0.492893,0.999998,0.000165,-0.000597,0.003385,-0.000078,0.003386,-0.000598,-88.871516,0.003615,
570,1190,2.012146,-4.358484,0.999997,0.000224,-0.002077,0.004420,-0.000042,0.004420,-0.002077,-89.631096,0.004423,
1550,660,-0.716356,-7.249045,0.999997,0.000224,-0.003132,0.005559,0.000466,0.005584,-0.003157,86.942210,0.005600,
1670,1530,-0.891888,-2.330779,0.999997,0.000181,-0.002619,0.005194,-0.000182,0.005199,-0.002623,-88.664085,0.005199,
1710,1170,-1.611506,-4.320564,0.999997,0.000201,-0.002499,0.005198,0.000577,0.005241,-0.002542,85.737425,0.005242,
1780,2000,-0.138738,-0.149150,0.999998,0.000167,-0.000503,0.004407,0.001800,0.004996,-0.001092,71.879816,0.005253,
1210,310,0.021532,-9.133989,0.999999,0.000133,-0.000960,0.003529,-0.000060,0.003530,-0.000960,-89.229366,0.003650,
870,580,0.750054,-7.594412,0.999997,0.000201,-0.002792,0.005287,-0.000356,0.005303,-0.002808,-87.478956,0.005306,
1400,1630,-0.220870,-1.451107,0.999998,0.000155,-0.001618,0.004014,-0.000408,0.004044,-0.001647,-85.878665,0.004067,
1750,1310,-1.462855,-3.617314,0.999997,0.000207,-0.002737,0.005275,0.000359,0.005291,-0.002753,87.442825,0.005292,
830,1120,1.509920,-4.554512,0.999997,0.000213,-0.002283,0.005402,-0.000587,0.005446,-0.002328,-85.659843,0.005465,
1780,1890,-0.523669,-0.683399,0.999996,0.000223,-0.002068,0.005050,0.000878,0.005157,-0.002175,83.072408,0.005178,
1010,1290,0.527364,-3.153733,0.999997,0.000223,-0.003715,0.005919,0.001092,0.006041,-0.003837,83.613705,0.006114,
1750,910,-1.747121,-5.611651,0.999998,0.000171,-0.002337,0.004947,-0.000420,0.004971,-0.002361,-86.713513,0.004973,
630,880,1.900132,-5.712674,0.999998,0.000191,-0.002261,0.004684,0.000296,0.004696,-0.002274,87.561556,0.004697,
1210,830,0.057996,-7.689563,0.999996,0.000240,-0.002787,0.001304,-0.000176,0.001312,-0.002795,-87.545823,0.002797,
1410,1850,-0.116631,-0.616976,0.999998,0.000156,-0.000846,0.003590,0.000153,0.003595,-0.000851,88.023312,0.003758,
1220,2010,0.000751,-0.075225,0.999999,0.000119,-0.000135,0.003020,-0.000016,0.003020,-0.000135,-89.708304,0.003412,
1630,230,-0.399641,-9.238465,0.999997,0.000185,-0.001473,0.004459,-0.000500,0.004501,-0.001515,-85.211306,0.004581,
1210,650,0.024033,-7.997130,0.999999,0.000141,-0.001140,0.002630,-0.000324,0.002658,-0.001168,-85.124162,0.002665,
970,1090,1.251262,-4.627693,0.999997,0.000211,-0.002344,0.006629,-0.000461,0.006653,-0.002368,-87.067890,0.006744,
1410,1190,-0.625862,-3.553684,0.999997,0.000220,-0.003627,0.006391,-0.001488,0.006607,-0.003843,-81.727160,0.006636,
1150,1560,0.106466,-1.631400,0.999998,0.000162,-0.001429,0.003613,0.000423,0.003649,-0.001465,85.238327,0.003672,
750,1000,1.741935,-5.176168,0.999998,0.000185,-0.002125,0.004914,0.000175,0.004918,-0.002129,88.572828,0.004933,
610,1440,1.505321,-3.085015,0.999997,0.000208,-0.002548,0.005086,-0.000060,0.005086,-0.002549,-89.551614,0.005086,
1370,110,-0.040860,-9.796754,0.999998,0.000156,-0.000266,0.003276,-0.000205,0.003287,-0.000278,-86.705893,0.003646,
1640,1610,-0.719915,-1.876338,0.999997,0.000197,-0.002373,0.004969,-0.000175,0.004974,-0.002377,-88.638802,0.004975,
1100,2000,0.013694,-0.108310,0.999999,0.000124,-0.000077,0.003051,-0.000170,0.003060,-0.000086,-86.898369,0.003485,
820,1230,1.318105,-3.947949,0.999997,0.000221,-0.002939,0.005678,-0.000575,0.005716,-0.002977,-86.196947,0.005718,
1500,1730,-0.316042,-1.140607,0.999997,0.000184,-0.001631,0.004261,-0.000069,0.004262,-0.001632,-89.325854,0.004301,
1850,1300,-1.736454,-3.784953,0.999997,0.000172,-0.002441,0.004923,0.000210,0.004929,-0.002447,88.367962,0.004929,
570,880,2.029805,-5.658680,0.999996,0.000241,-0.002127,0.004221,0.000009,0.004221,-0.002127,89.917870,0.004221,
740,1110,1.723797,-4.632096,0.999998,0.000174,-0.002234,0.004982,-0.000416,0.005005,-0.002258,-86.709671,0.005013,
1500,730,-0.643752,-6.975978,0.999997,0.000206,-0.003499,0.005829,0.000689,0.005880,-0.003549,85.799992,0.005922,
1770,1140,-1.797736,-4.498474,0.999997,0.000204,-0.002295,0.004832,0.000364,0.004851,-0.002314,87.085963,0.004853,
630,400,1.133173,-8.122136,0.999998,0.000170,-0.002492,0.005040,-0.000065,0.005041,-0.002493,-89.504073,0.005041,
1520,1870,-0.194260,-0.585628,0.999998,0.000194,-0.000961,0.003865,0.000363,0.003893,-0.000988,85.717564,0.004047,
1790,880,-1.798447,-5.741624,0.999997,0.000209,-0.002340,0.004891,-0.000441,0.004918,-0.002367,-86.522037,0.004919,
580,1050,2.104910,-4.945003,0.999999,0.000140,-0.001961,0.004169,-0.000111,0.004171,-0.001963,-88.962188,0.004174,
1710,310,-0.694443,-8.770514,0.999997,0.000200,-0.002146,0.004923,-0.000163,0.004927,-0.002150,-88.680740,0.004940,
1750,650,-1.294563,-6.963819,0.999998,0.000175,-0.002721,0.005257,-0.000150,0.005260,-0.002723,-88.925974,0.005261,
1410,1690,-0.208993,-1.221297,0.999998,0.000171,-0.001482,0.003987,-0.000208,0.003995,-0.001490,-87.821695,0.004038,
1630,150,-0.251099,-9.587282,0.999998,0.000186,-0.000947,0.004182,-0.000779,0.004298,-0.001063,-81.554617,0.004477,
1670,1510,-0.918294,-2.435164,0.999998,0.000182,-0.002667,0.005259,-0.000185,0.005263,-0.002671,-88.664118,0.005263,
1040,290,0.187290,-9.140226,0.999998,0.000167,-0.001256,0.003854,-0.000028,0.003854,-0.001256,-89.683203,0.003931,
1610,1420,-0.867968,-2.812007,0.999998,0.000189,-0.003034,0.005467,-0.000225,0.005473,-0.003040,-88.484894,0.005485,
1550,640,-0.691435,-7.360141,0.999997,0.000200,-0.003021,0.005476,0.000500,0.005505,-0.003050,86.645209,0.005516,
1710,1150,-1.645961,-4.424143,0.999997,0.000194,-0.002403,0.005150,0.000558,0.005191,-0.002444,85.796833,0.005194,
620,210,0.789778,-9.064532,0.999998,0.000194,-0.002439,0.005087,0.000199,0.005093,-0.002444,88.483583,0.005094,
1780,1990,-0.176599,-0.195434,0.999998,0.000147,-0.000713,0.004619,0.001841,0.005192,-0.001287,72.687874,0.005408,
1630,210,-0.365725,-9.325269,0.999997,0.000196,-0.001375,0.004411,-0.000579,0.004468,-0.001433,-84.336795,0.004563,
1750,890,-1.718976,-5.714451,0.999998,0.000182,-0.002415,0.005078,-0.000505,0.005111,-0.002449,-86.160362,0.005113,
1010,1490,0.370432,-2.124059,0.999997,0.000189,-0.002294,0.004555,0.000819,0.004652,-0.002390,83.274113,0.004652,
670,860,1.775504,-5.839172,0.999997,0.000191,-0.002399,0.004902,0.000447,0.004929,-0.002426,86.510117,0.004930,
1420,1430,-0.315344,-2.323960,0.999997,0.000184,-0.002401,0.004436,-0.001103,0.004609,-0.002575,-81.055614,0.004620,
1210,630,0.025198,-8.052602,0.999999,0.000146,-0.001198,0.002803,-0.000277,0.002822,-0.001217,-86.055709,0.002831,
1770,1960,-0.277224,-0.328882,0.999998,0.000152,-0.001442,0.004476,0.001298,0.004749,-0.001715,78.158403,0.004809,
960,260,0.258693,-9.205352,0.999998,0.000174,-0.001400,0.004012,0.000154,0.004016,-0.001405,88.376164,0.004076,
1650,280,-0.517326,-8.993090,0.999997,0.000212,-0.001898,0.004678,-0.000290,0.004691,-0.001911,-87.477775,0.004718,
1670,1750,-0.597995,-1.230954,0.999998,0.000184,-0.002169,0.004782,0.000142,0.004785,-0.002172,88.826606,0.004791,
1260,500,-0.035638,-8.461597,0.999998,0.000161,-0.001265,0.003423,0.000166,0.003429,-0.001271,87.973881,0.003467,
580,820,1.921991,-5.941357,0.999998,0.000162,-0.002282,0.004637,0.000090,0.004638,-0.002284,89.254736,0.004638,
730,1000,1.784122,-5.175045,0.999998,0.000165,-0.002145,0.004883,0.000187,0.004888,-0.002150,88.479272,0.004900,
1750,1290,-1.500507,-3.723704,0.999997,0.000215,-0.002701,0.005268,0.000420,0.005291,-0.002723,86.992057,0.005291,
1410,1830,-0.129772,-0.687734,0.999998,0.000159,-0.000936,0.003633,0.000101,0.003635,-0.000938,88.729028,0.003774,
1410,1170,-0.701518,-3.689985,0.999997,0.000221,-0.003472,0.006557,-0.001592,0.006803,-0.003719,-81.191248,0.006813,
1210,810,0.040559,-7.712003,0.999997,0.000197,-0.001857,0.001125,-0.000536,0.001219,-0.001950,-80.106737,0.001971,
1270,2010,-0.003617,-0.076813,0.999999,0.000133,-0.000091,0.003000,0.000045,0.003000,-0.000091,89.172042,0.003413,
1740,90,-0.216692,-9.793640,0.999998,0.000181,-0.001222,0.004194,-0.001183,0.004441,-0.001469,-78.201847,0.004525,
1370,90,-0.031169,-9.861983,0.999999,0.000150,-0.000190,0.003206,-0.000197,0.003217,-0.000202,-86.685567,0.003604,
1850,1280,-1.771703,-3.883522,0.999997,0.000187,-0.002428,0.004894,0.000236,0.004902,-0.002436,88.152197,0.004902,
1220,1220,0.038384,-2.383978,0.999997,0.000202,-0.003407,0.001430,0.000018,0.001430,-0.003407,89.790717,0.003422,
1430,1880,-0.111869,-0.517056,0.999998,0.000155,-0.000736,0.003517,0.000198,0.003526,-0.000745,87.342459,0.003717,
1110,190,0.069215,-9.532360,0.999998,0.000149,-0.000628,0.003426,0.000093,0.003428,-0.000630,88.683293,0.003650,
1770,880,-1.751317,-5.753224,0.999998,0.000176,-0.002407,0.004997,-0.000483,0.005028,-0.002439,-86.282978,0.005029,
1540,1610,-0.492503,-1.724226,0.999998,0.000206,-0.002207,0.004703,-0.000350,0.004721,-0.002225,-87.105366,0.004723,
1210,470,0.026773,-8.568796,0.999998,0.000155,-0.001235,0.003477,-0.000157,0.003482,-0.001240,-88.091795,0.003530,
870,1740,0.462262,-1.190389,0.999997,0.000199,-0.001927,0.004562,-0.000055,0.004562,-0.001927,-89.514883,0.004581,
1110,740,0.183768,-7.490372,0.999997,0.000230,-0.002445,0.003839,-0.001921,0.004380,-0.002986,-74.277540,0.004475,
580,1040,2.109450,-4.986408,0.999999,0.000132,-0.001947,0.004207,-0.000099,0.004208,-0.001948,-89.081508,0.004212,
1710,290,-0.660920,-8.869388,0.999998,0.000176,-0.002087,0.004930,-0.000269,0.004941,-0.002098,-87.809922,0.004959,
1700,1610,-0.866545,-1.970666,0.999998,0.000171,-0.002473,0.005072,-0.000132,0.005075,-0.002476,-89.001555,0.005075,
1670,1490,-0.944791,-2.542572,0.999998,0.000160,-0.002705,0.005254,-0.000163,0.005257,-0.002708,-88.830400,0.005258,
1750,1670,-0.904793,-1.745665,0.999998,0.000207,-0.002448,0.005066,-0.000062,0.005066,-0.002448,-89.528850,0.005067,
570,870,2.018977,-5.700351,0.999997,0.000192,-0.002159,0.004276,0.000023,0.004276,-0.002159,89.797738,0.004277,
740,130,0.316268,-9.625996,0.999998,0.000170,-0.001179,0.004520,0.001181,0.004755,-0.001414,78.741099,0.004884,
720,1110,1.769318,-4.637670,0.999998,0.000168,-0.002260,0.004938,-0.000393,0.004959,-0.002282,-86.882533,0.004965,
1710,1130,-1.672356,-4.527834,0.999997,0.000197,-0.002301,0.005043,0.000440,0.005069,-0.002327,86.579629,0.005074,
1680,1170,-1.536484,-4.305234,0.999997,0.000219,-0.002526,0.005317,0.000609,0.005364,-0.002573,85.588498,0.005365,
1090,2010,0.011987,-0.079020,0.999999,0.000126,-0.000053,0.003028,-0.000181,0.003038,-0.000064,-86.648071,0.003472,
1510,1060,-1.342910,-4.838445,0.999998,0.000175,-0.001959,0.006362,0.000316,0.006374,-0.001971,87.826737,0.006527,
1420,1510,-0.292234,-1.973525,0.999997,0.000185,-0.002088,0.004279,-0.000799,0.004378,-0.002187,-82.958994,0.004378,
770,360,0.733720,-8.545150,0.999997,0.000188,-0.002213,0.004938,0.000021,0.004938,-0.002213,89.833941,0.004947,
1780,1970,-0.260517,-0.291578,0.999995,0.000232,-0.001136,0.004618,0.001608,0.005037,-0.001555,75.397265,0.005158,
1210,610,0.024941,-8.108749,0.999998,0.000156,-0.001226,0.002954,-0.000265,0.002970,-0.001243,-86.390675,0.002983,
1410,1810,-0.142152,-0.762729,0.999998,0.000158,-0.001004,0.003701,0.000063,0.003702,-0.001005,89.238495,0.003829,
1100,1460,0.190002,-2.067451,0.999998,0.000154,-0.001832,0.003829,0.000966,0.003990,-0.001992,80.574719,0.003990,
1410,1670,-0.219786,-1.302709,0.999998,0.000165,-0.001540,0.004008,-0.000287,0.004023,-0.001555,-87.046181,0.004057,
960,240,0.238167,-9.285360,0.999998,0.000165,-0.001302,0.004005,0.000200,0.004012,-0.001309,87.843475,0.004092,
1740,70,-0.158270,-9.875776,0.999998,0.000181,-0.000898,0.004172,-0.001341,0.004505,-0.001231,-76.065984,0.004657,
640,1310,1.652305,-3.701806,0.999998,0.000182,-0.002502,0.004985,-0.000270,0.004994,-0.002511,-87.937015,0.004995,
1070,1260,0.357903,-3.040775,0.999997,0.000227,-0.003545,0.005269,0.001900,0.005661,-0.003937,78.335709,0.005803,
650,860,1.822846,-5.824278,0.999998,0.000172,-0.002388,0.004838,0.000413,0.004861,-0.002411,86.737541,0.004861,
1150,1380,0.100416,-2.235447,0.999998,0.000163,-0.001545,0.003069,0.001166,0.003347,-0.001824,76.590328,0.003351,
690,620,1.306918,-7.089095,0.999997,0.000201,-0.002674,0.005183,0.000083,0.005184,-0.002675,89.395614,0.005185,
1750,1270,-1.535593,-3.826232,0.999998,0.000204,-0.002671,0.005183,0.000458,0.005209,-0.002698,86.673929,0.005210,
1260,480,-0.035152,-8.530576,0.999999,0.000148,-0.001257,0.003481,0.000168,0.003487,-0.001263,87.967651,0.003531,
1770,1980,-0.211897,-0.245078,0.999998,0.000155,-0.001042,0.004552,0.001624,0.004989,-0.001479,74.931962,0.005125,
1630,430,-0.678549,-8.292953,0.999998,0.000176,-0.002347,0.004940,0.000176,0.004945,-0.002351,88.615393,0.004946,
1110,350,0.131866,-8.956078,0.999998,0.000168,-0.001166,0.003686,-0.000154,0.003691,-0.001171,-88.180510,0.003772,
1630,660,-0.966057,-7.093037,0.999998,0.000198,-0.003032,0.005533,0.000081,0.005534,-0.003033,89.458316,0.005542,
1260,2010,-0.001929,-0.076787,0.999999,0.000121,-0.000097,0.003003,0.000024,0.003003,-0.000097,89.548967,0.003413,
1420,660,-0.327737,-7.594690,0.999997,0.000212,-0.002699,0.004680,0.001293,0.004900,-0.002919,80.346699,0.004930,
760,640,1.145239,-7.086136,0.999998,0.000179,-0.002821,0.005348,0.000045,0.005348,-0.002822,89.683450,0.005351,
1810,440,-1.133969,-7.957914,0.999999,0.000168,-0.002504,0.005047,0.000085,0.005048,-0.002505,89.356577,0.005048,
1210,490,0.027667,-8.499450,0.999998,0.000152,-0.001256,0.003437,-0.000169,0.003443,-0.001262,-87.935071,0.003484,
1800,1670,-1.026526,-1.826715,0.999998,0.000143,-0.002451,0.005071,-0.000049,0.005071,-0.002452,-89.627618,0.005072,
1290,1440,-0.072265,-2.013990,0.999998,0.000160,-0.001377,0.003090,-0.000673,0.003189,-0.001476,-81.615346,0.003192,
1010,1820,0.178987,-0.747010,0.999999,0.000147,-0.000947,0.003826,-0.000177,0.003833,-0.000954,-87.884682,0.003991,
1670,1730,-0.630886,-1.329795,0.999998,0.000197,-0.002226,0.004882,0.000072,0.004883,-0.002227,89.423181,0.004889,
1630,130,-0.215885,-9.667080,0.999998,0.000187,-0.000820,0.004024,-0.000823,0.004159,-0.000956,-80.618777,0.004357,
780,710,1.207551,-6.734209,0.999997,0.000234,-0.002986,0.005503,0.000243,0.005510,-0.002993,88.363766,0.005517,
1210,590,0.025151,-8.169305,0.999998,0.000150,-0.001230,0.003067,-0.000248,0.003081,-0.001244,-86.713128,0.003100,
1880,690,-1.697667,-6.573630,0.999998,0.000194,-0.002510,0.005021,-0.000063,0.005022,-0.002510,-89.522516,0.005022,
1420,1550,-0.279556,-1.802789,0.999997,0.000192,-0.001884,0.004184,-0.000600,0.004243,-0.001943,-84.410980,0.004248,
1670,1470,-0.971430,-2.645981,0.999998,0.000148,-0.002761,0.005277,-0.000136,0.005279,-0.002763,-89.030379,0.005281,
910,1240,1.007689,-3.763747,0.999997,0.000190,-0.003466,0.006257,-0.000281,0.006265,-0.003474,-88.345630,0.006277,
1080,2010,0.012276,-0.077532,0.999999,0.000138,-0.000053,0.003037,-0.000192,0.003049,-0.000065,-86.456069,0.003484,
1780,1950,-0.324924,-0.381168,0.999997,0.000208,-0.001533,0.004780,0.001337,0.005052,-0.001804,78.517605,0.005120,
1100,1660,0.157975,-1.301077,0.999998,0.000162,-0.001245,0.003737,0.000197,0.003745,-0.001252,87.741646,0.003812,
1670,190,-0.386072,-9.388861,0.999997,0.000198,-0.001692,0.004537,-0.000631,0.004600,-0.001755,-84.269950,0.004643,
960,220,0.215409,-9.366981,0.999998,0.000171,-0.001205,0.003918,0.000218,0.003927,-0.001214,87.572188,0.004022,
1750,1110,-1.784978,-4.639009,0.999998,0.000184,-0.002260,0.004952,0.000397,0.004974,-0.002282,86.862263,0.004980,
1280,1890,-0.022581,-0.455022,0.999999,0.000156,-0.000454,0.003294,0.000055,0.003294,-0.000454,89.161029,0.003571,
640,790,1.732135,-6.154919,0.999998,0.000178,-0.002469,0.004942,0.000344,0.004958,-0.002484,87.344146,0.004958,
680,1990,0.178212,-0.195482,0.999998,0.000207,-0.000731,0.004697,-0.001877,0.005283,-0.001317,-72.666281,0.005500,
1150,1880,0.040410,-0.489656,0.999998,0.000165,-0.000538,0.003338,-0.000075,0.003339,-0.000539,-88.895251,0.003585,
1710,950,-1.700542,-5.424564,0.999998,0.000181,-0.002218,0.005042,-0.000452,0.005070,-0.002246,-86.451429,0.005081,
1720,1610,-0.915898,-2.002629,0.999998,0.000172,-0.002504,0.005077,-0.000102,0.005078,-0.002506,-89.230193,0.005079,
1410,1150,-0.783219,-3.831751,0.999995,0.000268,-0.003225,0.006678,-0.001893,0.007028,-0.003574,-79.536724,0.007028,
620,470,1.259840,-7.751882,0.999998,0.000198,-0.002518,0.005092,-0.000060,0.005093,-0.002518,-89.550356,0.005093,
1750,1250,-1.574138,-3.930725,0.999997,0.000211,-0.002641,0.005194,0.000514,0.005228,-0.002675,86.263745,0.005228,
850,1560,0.709774,-2.082616,0.999998,0.000192,-0.002482,0.005021,0.000272,0.005031,-0.002492,87.925687,0.005031,
670,1020,1.922511,-5.074326,0.999998,0.000166,-0.002144,0.004688,0.000076,0.004689,-0.002145,89.364806,0.004694,
1130,500,0.134407,-8.411075,0.999998,0.000139,-0.001480,0.003670,-0.000433,0.003706,-0.001516,-85.221685,0.003726,
1630,640,-0.934380,-7.203680,0.999998,0.000169,-0.002970,0.005504,0.000123,0.005506,-0.002972,89.165457,0.005512,
1750,1630,-0.962147,-1.949651,0.999998,0.000156,-0.002465,0.005037,-0.000085,0.005038,-0.002466,-89.347798,0.005039,
1630,190,-0.328615,-9.415383,0.999997,0.000199,-0.001239,0.004354,-0.000652,0.004429,-0.001313,-83.440533,0.004550,
1180,350,0.053244,-8.986690,0.999999,0.000129,-0.001001,0.003516,-0.000050,0.003517,-0.001002,-89.365314,0.003624,
1260,460,-0.034927,-8.601159,0.999998,0.000179,-0.001240,0.003517,0.000150,0.003522,-0.001245,88.193477,0.003572,
1840,360,-1.086665,-8.312367,0.999998,0.000179,-0.002444,0.005019,0.000042,0.005020,-0.002444,89.674744,0.005020,
660,190,0.643386,-9.240166,0.999998,0.000195,-0.002158,0.005122,0.000698,0.005188,-0.002225,84.572394,0.005205,
1410,1140,-0.826866,-3.897912,0.999995,0.000262,-0.003130,0.006934,-0.002110,0.007359,-0.003554,-78.624953,0.007360,
610,1100,2.024201,-4.722568,0.999998,0.000173,-0.002142,0.004426,-0.000089,0.004427,-0.002143,-89.224939,0.004428,
1110,330,0.127495,-9.028198,0.999998,0.000147,-0.001122,0.003700,-0.000102,0.003702,-0.001124,-88.785167,0.003796,
620,1310,1.702736,-3.725784,0.999998,0.000163,-0.002483,0.004932,-0.000232,0.004940,-0.002491,-88.210194,0.004940,
1110,1360,0.173451,-2.417771,0.999998,0.000177,-0.002154,0.003724,0.001609,0.004136,-0.002566,75.648472,0.004175,
1250,2010,-0.001137,-0.076328,0.999999,0.000115,-0.000081,0.003006,-0.000007,0.003006,-0.000081,-89.866806,0.003425,
1610,1480,-0.791876,-2.489094,0.999998,0.000170,-0.002764,0.005263,-0.000318,0.005275,-0.002776,-87.734975,0.005278,
1800,1650,-1.056783,-1.928642,0.999997,0.000186,-0.002477,0.005088,-0.000085,0.005088,-0.002478,-89.355575,0.005089,
1820,790,-1.724222,-6.158559,0.999998,0.000179,-0.002493,0.004969,-0.000347,0.004985,-0.002509,-87.345039,0.004985,
1210,510,0.026874,-8.429858,0.999999,0.000136,-0.001274,0.003380,-0.000188,0.003388,-0.001282,-87.685404,0.003421,
1670,1710,-0.658916,-1.427967,0.999998,0.000183,-0.002273,0.004891,0.000005,0.004891,-0.002273,89.958643,0.004895,
1790,440,-1.083891,-7.991174,0.999999,0.000143,-0.002502,0.005065,0.000096,0.005067,-0.002503,89.274055,0.005067,
1210,570,0.026425,-8.232688,0.999998,0.000146,-0.001232,0.003167,-0.000238,0.003180,-0.001244,-86.911320,0.003205,
1070,1820,0.120238,-0.718698,0.999998,0.000163,-0.000835,0.003639,-0.000101,0.003641,-0.000837,-88.712737,0.003814,
1630,110,-0.172356,-9.748450,0.999998,0.000163,-0.000659,0.003921,-0.000865,0.004079,-0.000817,-79.649416,0.004317,
1410,1790,-0.154773,-0.836292,0.999999,0.000150,-0.001102,0.003759,0.000005,0.003759,-0.001102,89.942380,0.003865,
1420,640,-0.319004,-7.690723,0.999997,0.000197,-0.002550,0.004520,0.001159,0.004705,-0.002735,80.921436,0.004726,
1440,1890,-0.112169,-0.485323,0.999998,0.000157,-0.000662,0.003537,0.000272,0.003555,-0.000680,86.306544,0.003774,
1670,1450,-1.000573,-2.752953,0.999998,0.000162,-0.002814,0.005351,-0.000097,0.005352,-0.002815,-89.320635,0.005354,
600,790,1.829926,-6.106667,0.999998,0.000162,-0.002325,0.004798,0.000204,0.004804,-0.002331,88.358424,0.004805,
760,620,1.115703,-7.193338,0.999998,0.000184,-0.002784,0.005330,-0.000009,0.005330,-0.002784,-89.936561,0.005332,
1770,2010,-0.100876,-0.108131,0.999998,0.000178,-0.000512,0.004150,0.001645,0.004672,-0.001034,72.395154,0.004907,
1570,1580,-0.584264,-1.911092,0.999997,0.000196,-0.002331,0.004818,-0.000322,0.004832,-0.002346,-87.425179,0.004833,
760,710,1.267421,-6.707665,0.999998,0.000201,-0.002879,0.005437,0.000282,0.005447,-0.002889,88.062853,0.005450,
1660,1800,-0.493386,-0.981193,0.999997,0.000196,-0.001922,0.004677,0.000353,0.004696,-0.001941,86.947051,0.004719,
830,1560,0.759341,-2.115455,0.999997,0.000196,-0.002529,0.005072,0.000239,0.005079,-0.002536,88.202365,0.005079,
1290,660,-0.068581,-7.930933,0.999998,0.000182,-0.001363,0.002827,0.000878,0.003004,-0.001539,78.635968,0.003004,
1260,1280,-0.032466,-2.340980,0.999998,0.000182,-0.001255,0.001416,-0.000842,0.001659,-0.001498,-73.887744,0.001829,
640,210,0.740833,-9.105958,0.999997,0.000201,-0.002352,0.005139,0.000369,0.005157,-0.002370,87.184963,0.005163,
920,2010,0.032839,-0.084545,0.999999,0.000146,-0.000056,0.003378,-0.000559,0.003467,-0.000145,-80.981418,0.003922,
1230,1210,0.005226,-2.396158,0.999995,0.000261,-0.004395,0.001604,-0.000036,0.001605,-0.004395,-89.653921,0.004448,
1670,170,-0.344348,-9.476186,0.999998,0.000185,-0.001563,0.004412,-0.000725,0.004499,-0.001649,-83.182398,0.004552,
1750,1230,-1.610451,-4.036480,0.999997,0.000203,-0.002587,0.005176,0.000549,0.005214,-0.002626,85.971115,0.005214,
1500,390,-0.369585,-8.659875,0.999997,0.000194,-0.001843,0.004384,0.000232,0.004393,-0.001852,87.870587,0.004411,
630,1180,1.893566,-4.344746,0.999998,0.000188,-0.002296,0.004726,-0.000300,0.004739,-0.002308,-87.555985,0.004739,
1750,1130,-1.762963,-4.539875,0.999998,0.000187,-0.002288,0.004900,0.000388,0.004921,-0.002309,86.918227,0.004924,
1000,620,0.424289,-7.669746,0.999997,0.000209,-0.002673,0.004875,-0.000953,0.004993,-0.002791,-82.915148,0.005005,
1110,1340,0.176391,-2.493905,0.999998,0.000177,-0.002278,0.003758,0.001769,0.004239,-0.002758,74.813692,0.004302,
670,1000,1.913491,-5.169389,0.999998,0.000181,-0.002149,0.004676,0.000149,0.004679,-0.002153,88.749553,0.004684,
1890,810,-1.922626,-5.978072,0.999998,0.000170,-0.002247,0.004562,-0.000121,0.004564,-0.002249,-88.978465,0.004564,
1420,1530,-0.284941,-1.886165,0.999998,0.000158,-0.001975,0.004243,-0.000706,0.004322,-0.002054,-83.600645,0.004324,
1410,910,-0.808557,-6.211751,0.999995,0.000231,-0.003139,0.006786,0.001985,0.007168,-0.003522,79.097757,0.007169,
1870,690,-1.673177,-6.588865,0.999998,0.000201,-0.002494,0.005031,-0.000094,0.005033,-0.002495,-89.283966,0.005033,
1670,610,-1.007340,-7.299431,0.999998,0.000148,-0.002826,0.005372,0.000086,0.005373,-0.002827,89.395768,0.005376,
1880,1640,-1.270382,-2.110777,0.999998,0.000185,-0.002428,0.004983,-0.000048,0.004983,-0.002428,-89.630808,0.004984,
880,1590,0.604635,-1.884548,0.999997,0.000214,-0.002351,0.004869,0.000290,0.004880,-0.002362,87.706035,0.004881,
1620,550,-0.789849,-7.704172,0.999998,0.000167,-0.002705,0.005203,0.000298,0.005214,-0.002716,87.842882,0.005216,
1110,170,0.063368,-9.598496,0.999998,0.000140,-0.000533,0.003368,0.000120,0.003371,-0.000537,88.243633,0.003623,
1040,1300,0.402008,-2.973466,0.999997,0.000211,-0.003442,0.005424,0.001514,0.005676,-0.003693,80.573271,0.005761,
1420,620,-0.312047,-7.778764,0.999997,0.000197,-0.002387,0.004442,0.001074,0.004607,-0.002551,81.271978,0.004616,
1210,790,0.025794,-7.733368,0.999998,0.000187,-0.001375,0.001186,-0.000617,0.001327,-0.001515,-77.142625,0.001652,
1210,550,0.027378,-8.297305,0.999998,0.000163,-0.001251,0.003269,-0.000218,0.003279,-0.001262,-87.239853,0.003308,
1670,1690,-0.688960,-1.525193,0.999997,0.000187,-0.002286,0.004892,-0.000018,0.004893,-0.002286,-89.853901,0.004896,
810,980,1.607562,-5.282442,0.999998,0.000184,-0.002074,0.005156,0.000331,0.005172,-0.002089,87.381325,0.005203,
910,2010,0.033660,-0.085101,0.999999,0.000136,-0.000087,0.003410,-0.000592,0.003507,-0.000185,-80.642686,0.003948,
720,910,1.729915,-5.615679,0.999998,0.000172,-0.002343,0.004968,0.000448,0.004995,-0.002370,86.509524,0.004997,
1670,1430,-1.029062,-2.860900,0.999998,0.000170,-0.002861,0.005400,-0.000056,0.005401,-0.002862,-89.613366,0.005404,
610,1560,1.321297,-2.471693,0.999998,0.000170,-0.002522,0.005070,0.000046,0.005071,-0.002522,89.655186,0.005071,
1430,2010,-0.018406,-0.079977,0.999999,0.000134,-0.000173,0.003092,0.000253,0.003111,-0.000192,85.599563,0.003487,
1110,310,0.117555,-9.104071,0.999998,0.000155,-0.001055,0.003671,-0.000067,0.003672,-0.001056,-89.190568,0.003780,
1750,1210,-1.645209,-4.138982,0.999997,0.000192,-0.002503,0.005092,0.000530,0.005128,-0.002540,86.025943,0.005129,
1820,810,-1.759337,-6.058664,0.999998,0.000170,-0.002451,0.004883,-0.000365,0.004901,-0.002469,-87.158740,0.004901,
930,1100,1.320954,-4.611454,0.999996,0.000218,-0.002298,0.006079,-0.000623,0.006125,-0.002344,-85.768448,0.006181,
760,600,1.084966,-7.300203,0.999998,0.000182,-0.002745,0.005325,-0.000029,0.005325,-0.002745,-89.791922,0.005326,
1670,150,-0.298772,-9.566762,0.999998,0.000196,-0.001437,0.004382,-0.000813,0.004494,-0.001548,-82.191500,0.004565,
1740,110,-0.275511,-9.706623,0.999998,0.000193,-0.001396,0.004489,-0.001161,0.004710,-0.001617,-79.233355,0.004786,
1220,1210,0.051267,-2.400987,0.999994,0.000296,-0.004200,0.001546,-0.000082,0.001548,-0.004201,-89.183328,0.004249,
1770,2000,-0.133009,-0.148418,0.999998,0.000182,-0.000641,0.004337,0.001691,0.004857,-0.001161,72.899537,0.005073,
1570,1560,-0.603657,-2.010197,0.999997,0.000201,-0.002431,0.004914,-0.000384,0.004934,-0.002451,-87.013503,0.004934,
1640,210,-0.378910,-9.319826,0.999997,0.000195,-0.001418,0.004457,-0.000587,0.004515,-0.001476,-84.345363,0.004604,
1370,1880,-0.072554,-0.501890,0.999998,0.000145,-0.000519,0.003391,0.000128,0.003395,-0.000523,88.119635,0.003656,
1710,930,-1.676941,-5.526557,0.999997,0.000214,-0.002271,0.005037,-0.000444,0.005063,-0.002298,-86.532179,0.005071,
1710,500,-0.963483,-7.813381,0.999998,0.000164,-0.002587,0.005152,0.000142,0.005155,-0.002590,88.946488,0.005155,
1870,1800,-0.964096,-1.298504,0.999998,0.000184,-0.002441,0.004945,0.000052,0.004946,-0.002442,89.595198,0.004946,
710,920,1.764413,-5.563848,0.999998,0.000183,-0.002302,0.004895,0.000385,0.004915,-0.002322,86.942938,0.004918,
1860,690,-1.648803,-6.605125,0.999998,0.000188,-0.002496,0.005038,-0.000120,0.005040,-0.002498,-89.088705,0.005040,
1020,1750,0.221683,-1.012100,0.999998,0.000174,-0.001263,0.003905,0.000029,0.003905,-0.001263,89.674579,0.003985,
1670,70,-0.116059,-9.893040,0.999998,0.000159,-0.000648,0.003820,-0.001005,0.004036,-0.000864,-77.886649,0.004251,
700,1050,1.850893,-4.931225,0.999998,0.000158,-0.002161,0.004774,-0.000164,0.004778,-0.002165,-88.642215,0.004785,
1670,570,-0.950467,-7.510526,0.999998,0.000168,-0.002712,0.005280,0.000150,0.005282,-0.002715,88.924634,0.005283,
1050,1820,0.138744,-0.727730,0.999998,0.000182,-0.001001,0.003709,-0.000084,0.003711,-0.001002,-88.973132,0.003839,
1630,90,-0.136912,-9.823399,0.999998,0.000141,-0.000497,0.003791,-0.000900,0.003973,-0.000678,-78.618939,0.004250,
1750,1150,-1.740335,-4.442760,0.999998,0.000190,-0.002334,0.004939,0.000433,0.004965,-0.002359,86.604180,0.004967,
1630,1300,-1.131410,-3.527076,0.999997,0.000208,-0.003156,0.005781,0.000283,0.005789,-0.003165,88.189231,0.005798,
1750,1090,-1.807269,-4.737708,0.999998,0.000175,-0.002211,0.004872,0.000275,0.004883,-0.002222,87.779942,0.004889,
1750,840,-1.637547,-5.966732,0.999997,0.000214,-0.002538,0.005090,-0.000529,0.005127,-0.002574,-86.052289,0.005127,
1840,340,-1.052219,-8.413879,0.999998,0.000198,-0.002429,0.005017,0.000064,0.005017,-0.002430,89.508696,0.005018,
1280,350,-0.050311,-8.986075,0.999999,0.000125,-0.001021,0.003570,0.000049,0.003570,-0.001022,89.393543,0.003677,
1750,870,-1.685168,-5.815670,0.999998,0.000186,-0.002477,0.005073,-0.000502,0.005106,-0.002511,-86.210365,0.005106,
1710,480,-0.936782,-7.917301,0.999998,0.000154,-0.002550,0.005109,0.000143,0.005112,-0.002552,88.928788,0.005112,
1410,1130,-0.870183,-3.966879,0.999994,0.000286,-0.003108,0.007266,-0.002352,0.007775,-0.003616,-77.802535,0.007781,
640,1110,1.950910,-4.662939,0.999998,0.000168,-0.002176,0.004635,-0.000251,0.004644,-0.002186,-87.890015,0.004647,
870,1860,0.289283,-0.664560,0.999997,0.000204,-0.001372,0.004221,-0.000501,0.004266,-0.001417,-84.918769,0.004345,
1890,800,-1.906724,-6.023285,0.999998,0.000192,-0.002265,0.004568,-0.000106,0.004570,-0.002267,-89.107906,0.004570,
810,960,1.586837,-5.387919,0.999997,0.000215,-0.002169,0.005247,0.000483,0.005279,-0.002200,86.290095,0.005303,
1840,1430,-1.490092,-3.115437,0.999997,0.000187,-0.002556,0.005076,0.000075,0.005076,-0.002557,89.440256,0.005076,
1410,890,-0.723280,-6.354397,0.999996,0.000219,-0.003391,0.006572,0.001626,0.006831,-0.003650,80.961275,0.006837,
1210,750,0.022359,-7.785836,0.999998,0.000146,-0.001040,0.001599,-0.000580,0.001721,-0.001162,-78.130741,0.001756,
1420,820,-0.515400,-6.742933,0.999996,0.000243,-0.003919,0.006097,0.001387,0.006286,-0.004108,82.259529,0.006383,
1200,1570,0.039046,-1.566920,0.999999,0.000125,-0.001232,0.003492,0.000185,0.003499,-0.001239,87.764216,0.003548,
1270,800,-0.057238,-7.677999,0.999997,0.000199,-0.001610,0.001400,0.001066,0.001739,-0.001950,72.345949,0.002140,
1670,1670,-0.715863,-1.623715,0.999998,0.000183,-0.002305,0.004926,-0.000057,0.004926,-0.002306,-89.549189,0.004929,
590,1560,1.371830,-2.503754,0.999997,0.000195,-0.002460,0.005074,0.000046,0.005074,-0.002460,89.653531,0.005075,
1540,2010,-0.033144,-0.084935,0.999998,0.000161,-0.000100,0.003269,0.000524,0.003349,-0.000180,81.352641,0.003767,
1670,1410,-1.058843,-2.968345,0.999998,0.000169,-0.002918,0.005436,0.000012,0.005436,-0.002918,89.916486,0.005441,
960,1010,1.343485,-5.147896,0.999997,0.000190,-0.001960,0.006367,0.000140,0.006369,-0.001963,89.037929,0.006524,
1670,130,-0.253962,-9.651523,0.999998,0.000191,-0.001251,0.004207,-0.000877,0.004345,-0.001388,-81.091916,0.004438,
620,530,1.348045,-7.445085,0.999997,0.000213,-0.002506,0.005135,-0.000047,0.005135,-0.002506,-89.646010,0.005135,
1440,410,-0.278024,-8.644813,0.999998,0.000181,-0.001590,0.004114,0.000285,0.004128,-0.001605,87.148132,0.004162,
620,790,1.781754,-6.131780,0.999998,0.000178,-0.002420,0.004878,0.000275,0.004888,-0.002430,87.845390,0.004888,
1430,680,-0.364181,-7.468568,0.999996,0.000224,-0.002868,0.004914,0.001319,0.005131,-0.003085,80.637305,0.005166,
920,470,0.518470,-8.234314,0.999997,0.000241,-0.002258,0.004751,-0.000377,0.004771,-0.002278,-86.933171,0.004773,
1840,320,-1.018513,-8.514179,0.999998,0.000193,-0.002425,0.005011,0.000041,0.005011,-0.002425,89.680742,0.005012,
1620,210,-0.352759,-9.332489,0.999997,0.000199,-0.001383,0.004360,-0.000541,0.004410,-0.001434,-84.668485,0.004499,
680,2010,0.106256,-0.108474,0.999999,0.000154,-0.000351,0.004281,-0.001793,0.004894,-0.000964,-71.129169,0.005184,
1380,1670,-0.175918,-1.274505,0.999998,0.000172,-0.001304,0.003875,-0.000189,0.003882,-0.001311,-87.908356,0.003949,
1780,900,-1.804368,-5.649685,0.999998,0.000163,-0.002303,0.004857,-0.000403,0.004880,-0.002326,-86.786798,0.004881,
1520,890,-1.104401,-5.898360,0.999997,0.000188,-0.003149,0.006483,-0.000571,0.006516,-0.003183,-86.620677,0.006517,
1610,1300,-1.066696,-3.497616,0.999997,0.000228,-0.003235,0.005857,0.000212,0.005862,-0.003240,88.662154,0.005873,
1380,1750,-0.145083,-0.970779,0.999998,0.000163,-0.000993,0.003716,-0.000009,0.003716,-0.000993,-89.893004,0.003848,
1680,950,-1.633328,-5.432799,0.999997,0.000199,-0.002248,0.005149,-0.000463,0.005178,-0.002276,-86.434384,0.005190,
1550,1800,-0.317013,-0.888181,0.999997,0.000220,-0.001293,0.004184,0.000274,0.004198,-0.001307,87.142502,0.004296,
1710,910,-1.654497,-5.628572,0.999998,0.000192,-0.002359,0.005173,-0.000536,0.005211,-0.002397,-85.948676,0.005217,
1260,350,-0.030206,-8.990049,0.999999,0.000137,-0.001021,0.003538,0.000098,0.003540,-0.001023,88.773309,0.003644,
1500,630,-0.534524,-7.526646,0.999996,0.000221,-0.002937,0.005168,0.000803,0.005247,-0.003016,84.397248,0.005266,
570,1310,1.823295,-3.802277,0.999960,0.000757,-0.002671,0.004763,0.000121,0.004765,-0.002673,89.066567,0.004777,
1860,430,-1.243229,-7.925756,0.999998,0.000181,-0.002474,0.005003,0.000074,0.005003,-0.002474,89.434753,0.005003,
1770,740,-1.506982,-6.466946,0.999997,0.000231,-0.002672,0.005221,-0.000350,0.005236,-0.002687,-87.469295,0.005237,
1750,1170,-1.711613,-4.341543,0.999998,0.000185,-0.002403,0.005066,0.000538,0.005104,-0.002441,85.903645,0.005106,
1670,550,-0.924881,-7.619124,0.999998,0.000173,-0.002666,0.005251,0.000175,0.005255,-0.002670,88.730839,0.005255,
1280,410,-0.057549,-8.771827,0.999999,0.000143,-0.001164,0.003588,0.000108,0.003590,-0.001166,88.700592,0.003663,
1890,790,-1.891498,-6.069262,0.999998,0.000198,-0.002295,0.004616,-0.000078,0.004617,-0.002296,-89.352149,0.004617,
1090,1880,0.075267,-0.501588,0.999998,0.000187,-0.000531,0.003430,-0.000166,0.003437,-0.000538,-87.601066,0.003698,
1750,1070,-1.814787,-4.835365,0.999998,0.000172,-0.002164,0.004806,0.000151,0.004809,-0.002167,88.759447,0.004817,
1430,660,-0.356506,-7.565956,0.999997,0.000244,-0.002753,0.004799,0.001239,0.004997,-0.002951,80.915560,0.005024,
1410,790,-0.408702,-6.972581,0.999996,0.000238,-0.003743,0.005565,0.001680,0.005859,-0.004037,80.078462,0.005997,
1670,1650,-0.741275,-1.722396,0.999998,0.000179,-0.002333,0.004969,-0.000084,0.004970,-0.002334,-89.341632,0.004973,
1420,1450,-0.309430,-2.235411,0.999998,0.000165,-0.002297,0.004451,-0.001005,0.004597,-0.002443,-81.706026,0.004600,
1150,2010,0.005961,-0.077051,0.999999,0.000143,-0.000077,0.002983,-0.000093,0.002986,-0.000080,-88.258315,0.003402,
1650,1420,-0.985757,-2.882582,0.999998,0.000164,-0.002929,0.005442,-0.000075,0.005443,-0.002929,-89.485659,0.005448,
790,980,1.650159,-5.280134,0.999998,0.000188,-0.002094,0.005101,0.000278,0.005112,-0.002105,87.788653,0.005138,
1410,1120,-0.912537,-4.044555,0.999995,0.000262,-0.003177,0.007689,-0.002594,0.008277,-0.003765,-77.238793,0.008288,
1140,760,0.122558,-7.557166,0.999997,0.000208,-0.002057,0.003020,-0.001965,0.003691,-0.002729,-71.129927,0.003830,
570,970,2.111038,-5.276252,0.999992,0.000330,-0.001817,0.004134,-0.000120,0.004136,-0.001819,-88.842561,0.004146,
1300,1390,-0.083894,-2.181339,0.999998,0.000190,-0.001390,0.002968,-0.000957,0.003169,-0.001591,-78.145416,0.003169,
1410,870,-0.643425,-6.492918,0.999996,0.000215,-0.003589,0.006466,0.001494,0.006683,-0.003806,81.724857,0.006705,
1670,1610,-0.791764,-1.922097,0.999998,0.000167,-0.002435,0.005024,-0.000139,0.005027,-0.002437,-88.931563,0.005027,
940,1010,1.380603,-5.141082,0.999998,0.000168,-0.001811,0.005976,0.000207,0.005982,-0.001816,88.475947,0.006133,
1670,110,-0.208853,-9.734705,0.999998,0.000174,-0.001038,0.004115,-0.000979,0.004295,-0.001218,-79.598314,0.004427,
620,510,1.319603,-7.548106,0.999996,0.000245,-0.002500,0.005091,-0.000048,0.005092,-0.002501,-89.636632,0.005092,
1420,430,-0.254135,-8.584645,0.999997,0.000199,-0.001626,0.004057,0.000379,0.004083,-0.001651,86.196850,0.004107,
1410,680,-0.310092,-7.535498,0.999996,0.000232,-0.002733,0.004624,0.001433,0.004893,-0.003002,79.358055,0.004935,
920,450,0.502114,-8.328526,0.999998,0.000183,-0.002242,0.004693,-0.000362,0.004712,-0.002261,-87.024163,0.004713,
1730,1540,-1.035989,-2.376251,0.999998,0.000177,-0.002552,0.005119,-0.000118,0.005121,-0.002554,-89.122322,0.005121,
1670,330,-0.637798,-8.725521,0.999998,0.000179,-0.002218,0.004901,-0.000058,0.004902,-0.002218,-89.531777,0.004909,
1410,1650,-0.228170,-1.382399,0.999998,0.000187,-0.001573,0.003993,-0.000345,0.004014,-0.001594,-86.471075,0.004042,
740,170,0.424118,-9.439024,0.999997,0.000210,-0.001526,0.004717,0.000925,0.004851,-0.001660,81.750270,0.004930,
590,1180,1.981920,-4.379273,0.999998,0.000169,-0.002145,0.004446,-0.000122,0.004448,-0.002147,-88.940219,0.004449,
1830,1300,-1.687826,-3.758598,0.999998,0.000168,-0.002486,0.004938,0.000269,0.004948,-0.002496,87.929695,0.004948,
1710,1110,-1.694100,-4.628534,0.999998,0.000187,-0.002252,0.005088,0.000453,0.005116,-0.002280,86.481124,0.005126,
680,2000,0.140049,-0.149532,0.999999,0.000174,-0.000524,0.004473,-0.001849,0.005083,-0.001134,-71.747476,0.005336,
1840,300,-0.983579,-8.613046,0.999998,0.000173,-0.002421,0.005046,-0.000009,0.005046,-0.002421,-89.931218,0.005048,
640,1750,0.950437,-1.459952,0.999998,0.000183,-0.002405,0.005068,-0.000065,0.005068,-0.002406,-89.505514,0.005071,
1430,460,-0.282660,-8.451008,0.999997,0.000207,-0.001717,0.004182,0.000454,0.004217,-0.001752,85.624695,0.004237,
1070,1880,0.085432,-0.504738,0.999998,0.000151,-0.000628,0.003461,-0.000172,0.003468,-0.000635,-87.596551,0.003693,
1800,430,-1.094572,-8.025344,0.999999,0.000149,-0.002511,0.005050,0.000082,0.005051,-0.002512,89.376045,0.005051,
1670,530,-0.898012,-7.722035,0.999998,0.000141,-0.002625,0.005151,0.000175,0.005155,-0.002629,88.709493,0.005156,
1690,920,-1.620307,-5.583044,0.999997,0.000223,-0.002342,0.005193,-0.000503,0.005227,-0.002375,-86.194122,0.005234,
1310,2010,-0.005876,-0.076493,0.999998,0.000146,-0.000033,0.003033,0.000105,0.003037,-0.000036,88.043153,0.003486,
1110,290,0.112782,-9.175741,0.999998,0.000158,-0.000979,0.003627,-0.000020,0.003627,-0.000979,-89.757263,0.003753,
1420,1590,-0.268160,-1.638540,0.999998,0.000174,-0.001698,0.004097,-0.000462,0.004134,-0.001735,-85.468142,0.004152,
1650,560,-0.883039,-7.600221,0.999998,0.000189,-0.002727,0.005291,0.000211,0.005297,-0.002732,88.490957,0.005298,
690,900,1.788134,-5.651773,0.999998,0.000177,-0.002345,0.004886,0.000401,0.004908,-0.002368,86.837068,0.004909,
1710,890,-1.619704,-5.732934,0.999998,0.000185,-0.002473,0.005223,-0.000608,0.005271,-0.002521,-85.511388,0.005272,
1540,970,-1.362856,-5.374820,0.999998,0.000189,-0.002055,0.005922,-0.000538,0.005958,-0.002091,-86.159342,0.006046,
1230,1260,0.003681,-2.335239,0.999997,0.000233,-0.001486,0.001046,0.000039,0.001046,-0.001487,89.109121,0.001528,
1670,890,-1.520976,-5.753466,0.999998,0.000199,-0.002535,0.005344,-0.000632,0.005394,-0.002585,-85.444078,0.005396,
1570,1800,-0.342228,-0.901933,0.999998,0.000164,-0.001504,0.004281,0.000267,0.004293,-0.001516,87.358204,0.004355,
1610,1280,-1.108472,-3.615461,0.999997,0.000211,-0.003233,0.005910,0.000307,0.005921,-0.003243,88.079341,0.005930,
1750,1610,-0.990378,-2.049218,0.999998,0.000159,-0.002484,0.005065,-0.000084,0.005066,-0.002485,-89.363142,0.005066,
920,370,0.430004,-8.696225,0.999997,0.000204,-0.001740,0.004443,-0.000066,0.004443,-0.001741,-89.390435,0.004478,
1750,850,-1.655168,-5.917110,0.999997,0.000200,-0.002512,0.005063,-0.000508,0.005097,-0.002546,-86.177349,0.005097,
1300,1550,-0.086959,-1.653381,0.999998,0.000149,-0.001383,0.003532,-0.000382,0.003561,-0.001413,-85.579524,0.003586,
1430,640,-0.346112,-7.662506,0.999997,0.000220,-0.002653,0.004638,0.001147,0.004814,-0.002830,81.267796,0.004839,
1860,410,-1.213024,-8.027308,0.999998,0.000159,-0.002477,0.005026,0.000068,0.005026,-0.002478,89.484423,0.005027,
760,170,0.397076,-9.451851,0.999997,0.000211,-0.001492,0.004602,0.000894,0.004730,-0.001620,81.826332,0.004808,
1420,80,-0.039874,-9.888400,0.999999,0.000144,-0.000296,0.003213,-0.000280,0.003235,-0.000318,-85.473908,0.003566,
1480,1030,-1.306391,-5.024150,0.999997,0.000216,-0.002125,0.006861,0.000004,0.006861,-0.002125,89.972596,0.007025,
1680,930,-1.609638,-5.535578,0.999998,0.000194,-0.002335,0.005177,-0.000478,0.005207,-0.002365,-86.374720,0.005215,
1100,1750,0.127805,-0.963063,0.999999,0.000145,-0.001034,0.003645,0.000056,0.003646,-0.001035,89.318137,0.003758,
1670,870,-1.485784,-5.859000,0.999997,0.000202,-0.002602,0.005403,-0.000623,0.005451,-0.002650,-85.575564,0.005451,
1440,570,-0.343393,-7.956797,0.999997,0.000180,-0.002264,0.004447,0.000826,0.004548,-0.002364,83.083997,0.004549,
1890,420,-1.301743,-7.929486,0.999998,0.000200,-0.002468,0.004926,0.000048,0.004926,-0.002468,89.626868,0.004926,
1870,1100,-2.060346,-4.730727,0.999998,0.000173,-0.002110,0.004280,0.000047,0.004280,-0.002111,89.579508,0.004280,
1830,1140,-1.932428,-4.527564,0.999998,0.000170,-0.002206,0.004608,0.000280,0.004619,-0.002218,87.651951,0.004621,
1880,1680,-1.208875,-1.912074,0.999998,0.000148,-0.002459,0.004920,-0.000040,0.004920,-0.002459,-89.686479,0.004920,
1670,310,-0.606642,-8.824480,0.999998,0.000171,-0.002180,0.004805,-0.000111,0.004807,-0.002182,-89.088730,0.004814,
1560,1830,-0.289466,-0.767993,0.999998,0.000163,-0.001233,0.004137,0.000378,0.004164,-0.001260,85.990478,0.004271,
1410,1820,-0.135963,-0.725070,0.999998,0.000175,-0.000972,0.003674,0.000086,0.003675,-0.000974,88.942692,0.003808,
1410,1630,-0.236090,-1.461263,0.999998,0.000172,-0.001611,0.004057,-0.000385,0.004084,-0.001637,-86.130421,0.004110,
1400,290,-0.158250,-9.155556,0.999998,0.000164,-0.001112,0.003782,0.000019,0.003782,-0.001112,89.779212,0.003888,
970,1440,0.501189,-2.458547,0.999996,0.000217,-0.002813,0.005056,0.000832,0.005143,-0.002900,84.027779,0.005157,
910,1120,1.320183,-4.507780,0.999997,0.000233,-0.002420,0.005980,-0.000724,0.006042,-0.002482,-85.111100,0.006074,
1260,1820,-0.019773,-0.687561,0.999998,0.000177,-0.000732,0.003423,0.000003,0.003423,-0.000732,89.965405,0.003605,
980,1250,0.723576,-3.514781,0.999997,0.000231,-0.003886,0.006464,0.000514,0.006489,-0.003911,87.161480,0.006535,
1050,740,0.355742,-7.228816,0.999996,0.000212,-0.003242,0.005170,-0.001625,0.005473,-0.003545,-79.438735,0.005552,
650,540,1.286815,-7.440935,0.999997,0.000199,-0.002582,0.005134,-0.000047,0.005134,-0.002582,-89.650474,0.005134,
990,1320,0.556514,-3.050176,0.999997,0.000211,-0.003551,0.005788,0.000944,0.005883,-0.003646,84.282653,0.005938,
1500,1610,-0.407880,-1.663933,0.999997,0.000218,-0.001969,0.004474,-0.000362,0.004494,-0.001989,-86.796284,0.004504,
1050,1880,0.098931,-0.510530,0.999998,0.000209,-0.000706,0.003505,-0.000155,0.003511,-0.000711,-87.897342,0.003712,
1630,560,-0.829077,-7.633661,0.999998,0.000172,-0.002750,0.005261,0.000264,0.005270,-0.002759,88.115572,0.005271,
1630,70,-0.094514,-9.901661,0.999998,0.000137,-0.000306,0.003724,-0.000930,0.003929,-0.000510,-77.614216,0.004272,
600,1310,1.751785,-3.752949,0.999999,0.000152,-0.002448,0.004900,-0.000162,0.004904,-0.002451,-88.737525,0.004904,
1670,370,-0.695177,-8.530451,0.999997,0.000186,-0.002310,0.004885,0.000027,0.004885,-0.002310,89.788327,0.004888,
1890,780,-1.876140,-6.115854,0.999998,0.000187,-0.002339,0.004689,-0.000064,0.004689,-0.002340,-89.475969,0.004689,
1500,310,-0.302340,-9.003316,0.999998,0.000200,-0.001585,0.004181,0.000014,0.004181,-0.001585,89.860220,0.004222,
1580,1050,-1.479388,-4.917276,0.999998,0.000215,-0.001851,0.005430,0.000211,0.005436,-0.001858,88.338261,0.005526,
1100,1940,0.041672,-0.300229,0.999998,0.000156,-0.000307,0.003265,-0.000192,0.003275,-0.000317,-86.923974,0.003612,
1830,1200,-1.855362,-4.244688,0.999998,0.000152,-0.002348,0.004794,0.000371,0.004813,-0.002367,87.033464,0.004813,
1670,510,-0.874350,-7.827444,0.999998,0.000159,-0.002597,0.005173,0.000179,0.005178,-0.002601,88.682148,0.005178,
1090,1360,0.219666,-2.487549,0.999998,0.000150,-0.002375,0.004116,0.001613,0.004495,-0.002754,76.786655,0.004533,
1750,1590,-1.019502,-2.151181,0.999998,0.000160,-0.002500,0.005124,-0.000112,0.005126,-0.002502,-89.156173,0.005126,
1410,1990,-0.026035,-0.141460,0.999999,0.000155,-0.000225,0.003182,0.000260,0.003201,-0.000244,85.664321,0.003564,
1330,800,-0.172621,-7.394990,0.999997,0.000216,-0.002426,0.003233,0.002203,0.003989,-0.003182,71.049804,0.004218,
1870,1680,-1.184045,-1.894454,0.999998,0.000154,-0.002472,0.004960,-0.000025,0.004960,-0.002472,-89.806056,0.004960,
1550,1300,-0.865873,-3.384368,0.999998,0.000165,-0.003535,0.006095,-0.000121,0.006096,-0.003536,-89.281494,0.006122,
1040,950,1.009042,-5.815438,0.999994,0.000307,-0.003440,0.008325,-0.001786,0.008590,-0.003705,-81.557234,0.008617,
610,1180,1.938821,-4.361625,0.999998,0.000180,-0.002233,0.004603,-0.000227,0.004611,-0.002240,-88.102136,0.004611,
1080,1750,0.148627,-0.973186,0.999999,0.000140,-0.001014,0.003712,0.000024,0.003713,-0.001014,89.707648,0.003838,
980,1010,1.303522,-5.157162,0.999997,0.000202,-0.002132,0.006954,0.000092,0.006955,-0.002133,89.417532,0.007127,
1630,800,-1.224640,-6.291017,0.999997,0.000191,-0.003098,0.005808,-0.000463,0.005832,-0.003122,-87.029502,0.005837,
1880,420,-1.277758,-7.944561,0.999998,0.000205,-0.002480,0.004965,0.000050,0.004966,-0.002481,89.616346,0.004966,
1320,410,-0.105905,-8.755779,0.999998,0.000164,-0.001305,0.003657,0.000257,0.003670,-0.001318,87.045596,0.003719,
700,910,1.776411,-5.609408,0.999998,0.000187,-0.002336,0.004897,0.000387,0.004917,-0.002357,86.942575,0.004919,
1380,290,-0.138086,-9.164024,0.999998,0.000148,-0.000978,0.003728,-0.000019,0.003728,-0.000978,-89.771069,0.003866,
1850,1120,-1.998429,-4.630328,0.999998,0.000138,-0.002186,0.004540,0.000230,0.004548,-0.002194,88.047579,0.004549,
770,1560,0.913937,-2.213786,0.999998,0.000161,-0.002545,0.005115,0.000161,0.005118,-0.002549,88.797758,0.005118,
1670,90,-0.160932,-9.814218,0.999998,0.000148,-0.000808,0.003931,-0.000982,0.004126,-0.001003,-78.743402,0.004304,
800,1110,1.589599,-4.617242,0.999997,0.000201,-0.002256,0.005206,-0.000489,0.005238,-0.002288,-86.265389,0.005252,
570,1430,1.628497,-3.196176,0.999591,0.002357,-0.004234,0.005350,0.000112,0.005351,-0.004235,89.331398,0.005646,
1860,950,-2.034905,-5.376482,0.999998,0.000194,-0.002127,0.004380,-0.000139,0.004383,-0.002130,-88.777750,0.004383,
1560,970,-1.403664,-5.363257,0.999998,0.000210,-0.002056,0.005710,-0.000516,0.005744,-0.002090,-86.217318,0.005815,
720,930,1.752753,-5.517574,0.999998,0.000166,-0.002286,0.004933,0.000406,0.004955,-0.002309,86.787136,0.004959,
1750,1050,-1.822019,-4.931623,0.999998,0.000164,-0.002158,0.004814,0.000170,0.004818,-0.002162,88.606110,0.004827,
1110,150,0.051601,-9.668893,0.999998,0.000130,-0.000451,0.003340,0.000150,0.003346,-0.000457,87.745025,0.003629,
1670,850,-1.445345,-5.970806,0.999997,0.000232,-0.002719,0.005499,-0.000635,0.005547,-0.002768,-85.605998,0.005547,
1440,550,-0.337164,-8.044356,0.999997,0.000213,-0.002180,0.004414,0.000775,0.004503,-0.002270,83.388193,0.004503,
1670,1630,-0.767166,-1.822485,0.999998,0.000168,-0.002388,0.004966,-0.000130,0.004968,-0.002390,-88.989952,0.004969,
1670,810,-1.365798,-6.189551,0.999997,0.000210,-0.002865,0.005568,-0.000548,0.005604,-0.002901,-86.295360,0.005605,
940,550,0.533230,-7.884242,0.999997,0.000207,-0.002541,0.004920,-0.000584,0.004965,-0.002586,-85.552364,0.004966,
1110,1300,0.190657,-2.645774,0.999996,0.000235,-0.002518,0.003903,0.002053,0.004503,-0.003118,73.703577,0.004613,
1580,410,-0.545810,-8.463617,0.999996,0.000255,-0.002139,0.004722,0.000198,0.004727,-0.002144,88.344573,0.004734,
580,1180,2.003915,-4.390222,0.999998,0.000163,-0.002067,0.004372,-0.000039,0.004372,-0.002067,-89.655211,0.004374,
1110,1880,0.063620,-0.497600,0.999998,0.000159,-0.000560,0.003413,-0.000089,0.003415,-0.000562,-88.711537,0.003663,
1030,1880,0.113740,-0.517803,0.999998,0.000195,-0.000686,0.003567,-0.000226,0.003579,-0.000698,-86.963537,0.003795,
1300,1530,-0.087973,-1.724617,0.999999,0.000148,-0.001407,0.003477,-0.000425,0.003513,-0.001443,-85.066931,0.003532,
1650,1160,-1.477985,-4.344102,0.999998,0.000228,-0.002537,0.005451,0.000648,0.005503,-0.002589,85.392943,0.005506,
1260,1300,-0.028707,-2.308525,0.999998,0.000157,-0.001114,0.001637,-0.000793,0.001849,-0.001327,-75.012919,0.001907,
1760,1330,-1.453468,-3.524186,0.999996,0.000226,-0.002707,0.005228,0.000319,0.005241,-0.002720,87.700568,0.005242,
1840,1670,-1.126423,-1.893976,0.999997,0.000190,-0.002479,0.005070,-0.000061,0.005070,-0.002479,-89.535799,0.005071,
590,1310,1.776661,-3.767615,0.999999,0.000160,-0.002418,0.004866,-0.000101,0.004868,-0.002419,-89.205550,0.004868,
1480,1010,-1.296370,-5.157590,0.999997,0.000212,-0.002151,0.007092,-0.000102,0.007094,-0.002152,-89.370762,0.007274,
1630,780,-1.182419,-6.406585,0.999997,0.000227,-0.003163,0.005824,-0.000384,0.005840,-0.003180,-87.555638,0.005848,
1050,1440,0.295582,-2.262256,0.999997,0.000193,-0.002275,0.004383,0.001080,0.004554,-0.002446,81.016974,0.004558,
1140,1930,0.029941,-0.327209,0.999999,0.000126,-0.000378,0.003219,-0.000104,0.003222,-0.000381,-88.343022,0.003521,
1110,270,0.101697,-9.249643,0.999998,0.000153,-0.000901,0.003599,-0.000006,0.003599,-0.000901,-89.918425,0.003746,
1300,410,-0.079337,-8.766171,0.999999,0.000123,-0.001183,0.003623,0.000145,0.003627,-0.001187,88.273709,0.003699,
1770,460,-1.061414,-7.921661,0.999998,0.000183,-0.002511,0.005073,0.000105,0.005074,-0.002513,89.207177,0.005074,
1560,1810,-0.315632,-0.851720,0.999998,0.000163,-0.001322,0.004237,0.000322,0.004256,-0.001341,86.697775,0.004352,
1100,410,0.161796,-8.722553,0.999998,0.000158,-0.001330,0.003740,-0.000259,0.003753,-0.001343,-87.086067,0.003804,
980,990,1.279816,-5.300059,0.999997,0.000203,-0.002230,0.006964,0.000219,0.006970,-0.002235,88.638150,0.007117,
1870,1080,-2.067090,-4.815447,0.999998,0.000173,-0.002084,0.004202,0.000013,0.004202,-0.002084,89.879414,0.004202,
1030,1500,0.324421,-2.043175,0.999997,0.000189,-0.002175,0.004373,0.000806,0.004471,-0.002273,83.081150,0.004471,
1500,290,-0.283596,-9.084668,0.999998,0.000187,-0.001511,0.004110,-0.000049,0.004111,-0.001512,-89.503640,0.004158,
1870,1740,-1.082770,-1.598231,0.999998,0.000153,-0.002415,0.004981,-0.000051,0.004981,-0.002415,-89.606561,0.004982,
1750,1570,-1.044589,-2.254404,0.999998,0.000153,-0.002518,0.005122,-0.000112,0.005124,-0.002519,-89.156576,0.005124,
1660,1980,-0.120995,-0.202548,0.999998,0.000176,-0.000634,0.003827,0.000981,0.004033,-0.000841,78.128801,0.004256,
1410,1610,-0.243823,-1.545994,0.999998,0.000169,-0.001636,0.004061,-0.000423,0.004092,-0.001667,-85.775891,0.004115,
1410,1450,-0.287506,-2.212231,0.999998,0.000171,-0.002248,0.004353,-0.001056,0.004518,-0.002413,-81.126944,0.004522,
1560,1050,-1.443895,-4.914453,0.999998,0.000175,-0.001820,0.005594,0.000243,0.005602,-0.001828,88.125126,0.005714,
1170,1760,0.055234,-0.901161,0.999999,0.000105,-0.000851,0.003535,-0.000022,0.003536,-0.000851,-89.717358,0.003691,
1830,1120,-1.954689,-4.618818,0.999998,0.000179,-0.002183,0.004635,0.000288,0.004647,-0.002195,87.585318,0.004649,
1100,1350,0.198447,-2.492891,0.999997,0.000190,-0.002335,0.003955,0.001712,0.004391,-0.002771,75.718837,0.004441,
700,1110,1.813944,-4.642587,0.999998,0.000174,-0.002254,0.004897,-0.000392,0.004918,-0.002275,-86.875374,0.004923,
1550,820,-1.009876,-6.289401,0.999997,0.000203,-0.003478,0.006290,-0.000309,0.006300,-0.003488,-88.187544,0.006312,
1780,450,-1.072751,-7.955589,0.999998,0.000159,-0.002506,0.005079,0.000104,0.005080,-0.002508,89.215600,0.005081,
1250,800,-0.028245,-7.724943,0.999998,0.000182,-0.001589,0.001148,0.000534,0.001248,-0.001690,79.341710,0.001753,
1520,1070,-1.347303,-4.781614,0.999998,0.000178,-0.002011,0.006185,0.000414,0.006206,-0.002032,87.115482,0.006328,
1670,1590,-0.818173,-2.023873,0.999998,0.000153,-0.002490,0.005060,-0.000169,0.005064,-0.002493,-88.717975,0.005064,
910,1700,0.429763,-1.325638,0.999997,0.000218,-0.001789,0.004498,-0.000002,0.004498,-0.001789,-89.984950,0.004529,
1230,1880,0.000503,-0.483963,0.999999,0.000149,-0.000571,0.003270,-0.000005,0.003270,-0.000571,-89.930106,0.003493,
1750,1030,-1.829686,-5.027344,0.999998,0.000159,-0.002160,0.004822,0.000024,0.004822,-0.002160,89.802335,0.004831,
1760,1310,-1.489753,-3.627894,0.999997,0.000196,-0.002696,0.005255,0.000353,0.005271,-0.002712,87.465281,0.005272,
1200,1890,0.015397,-0.453872,0.999998,0.000153,-0.000434,0.003278,-0.000022,0.003279,-0.000434,-89.662805,0.003562,
1110,130,0.045706,-9.732294,0.999999,0.000127,-0.000379,0.003256,0.000151,0.003262,-0.000385,87.631735,0.003565,
1300,1370,-0.080622,-2.237722,0.999998,0.000167,-0.001437,0.002823,-0.001087,0.003085,-0.001698,-76.483834,0.003090,
1840,950,-1.992486,-5.386209,0.999998,0.000194,-0.002173,0.004509,-0.000178,0.004513,-0.002178,-88.472504,0.004514,
1580,390,-0.524108,-8.557753,0.999997,0.000215,-0.002124,0.004700,0.000155,0.004704,-0.002128,88.698110,0.004711,
980,410,0.352135,-8.593081,0.999997,0.000202,-0.001871,0.004358,-0.000319,0.004375,-0.001888,-87.075823,0.004388,
1670,790,-1.324738,-6.303136,0.999998,0.000202,-0.002902,0.005620,-0.000503,0.005649,-0.002931,-86.631027,0.005651,
710,1500,1.152942,-2.622515,0.999998,0.000181,-0.002640,0.005199,0.000056,0.005199,-0.002640,89.588140,0.005199,
710,1240,1.598791,-3.985694,0.999997,0.000206,-0.002598,0.005173,-0.000501,0.005205,-0.002630,-86.323916,0.005205,
580,1310,1.799658,-3.782932,0.999998,0.000169,-0.002585,0.004820,0.000026,0.004820,-0.002585,89.798867,0.004824,
1630,380,-0.618008,-8.538938,0.999997,0.000187,-0.002147,0.004826,0.000038,0.004826,-0.002147,89.690487,0.004835,
1110,230,0.086074,-9.392007,0.999998,0.000152,-0.000808,0.003516,0.000062,0.003517,-0.000809,89.184673,0.003683,
1260,750,-0.028542,-7.775700,0.999998,0.000169,-0.001102,0.001678,0.000778,0.001881,-0.001305,75.374378,0.001927,
1140,2010,0.007052,-0.077032,0.999999,0.000117,-0.000112,0.002981,-0.000114,0.002985,-0.000116,-87.895641,0.003382,
1180,410,0.059261,-8.771959,0.999998,0.000168,-0.001162,0.003577,-0.000080,0.003579,-0.001163,-89.028024,0.003651,
570,960,2.107143,-5.317434,0.999992,0.000329,-0.001893,0.004100,-0.000085,0.004101,-0.001895,-89.191758,0.004105,
1890,1080,-2.108334,-4.822989,0.999998,0.000152,-0.001991,0.004063,-0.000010,0.004063,-0.001991,-89.908431,0.004063,
690,1560,1.117926,-2.343398,0.999998,0.000172,-0.002550,0.005144,0.000095,0.005145,-0.002551,89.291534,0.005145,
1190,1760,0.038807,-0.898652,0.999999,0.000124,-0.000883,0.003490,0.000028,0.003490,-0.000883,89.632744,0.003630,
1660,1960,-0.163795,-0.279995,0.999998,0.000179,-0.000834,0.003958,0.000947,0.004138,-0.001014,79.218869,0.004314,
1540,1810,-0.290973,-0.839014,0.999997,0.000206,-0.001246,0.004148,0.000296,0.004165,-0.001262,86.865117,0.004271,
1880,1740,-1.106770,-1.615915,0.999998,0.000183,-0.002376,0.004931,-0.000054,0.004931,-0.002376,-89.573110,0.004932,
1010,1620,0.311052,-1.552949,0.999998,0.000181,-0.001778,0.004248,0.000398,0.004275,-0.001804,86.237838,0.004292,
1100,1330,0.202486,-2.571169,0.999997,0.000212,-0.002480,0.004014,0.001851,0.004504,-0.002971,75.159997,0.004580,
1480,290,-0.253976,-9.102093,0.999998,0.000183,-0.001303,0.004036,-0.000081,0.004037,-0.001304,-89.129497,0.004120,
650,800,1.726223,-6.115979,0.999998,0.000176,-0.002467,0.004966,0.000392,0.004986,-0.002488,86.985833,0.004986,
1750,1550,-1.072796,-2.355770,0.999998,0.000170,-0.002563,0.005116,-0.000099,0.005117,-0.002565,-89.259239,0.005117,
1260,1580,-0.035330,-1.532726,0.999998,0.000145,-0.001204,0.003454,-0.000147,0.003459,-0.001209,-88.191345,0.003510,
570,750,1.834561,-6.255237,0.999966,0.000648,-0.002771,0.005102,-0.000013,0.005102,-0.002771,-89.907285,0.005109,
1410,1430,-0.291732,-2.300271,0.999998,0.000181,-0.002322,0.004331,-0.001131,0.004518,-0.002509,-80.609067,0.004527,
590,790,1.852007,-6.092987,0.999998,0.000170,-0.002344,0.004748,0.000141,0.004751,-0.002347,88.860898,0.004751,
990,560,0.416499,-7.934123,0.999997,0.000227,-0.002422,0.004672,-0.000774,0.004755,-0.002506,-83.842637,0.004758,
1680,510,-0.898899,-7.810351,0.999998,0.000147,-0.002590,0.005179,0.000180,0.005183,-0.002594,88.673113,0.005183,
970,1020,1.329867,-5.088415,0.999998,0.000181,-0.002013,0.006478,0.000025,0.006478,-0.002013,89.831919,0.006631,
1710,1090,-1.719047,-4.730270,0.999998,0.000192,-0.002206,0.005037,0.000350,0.005054,-0.002223,87.240474,0.005066,
1890,840,-1.968255,-5.839935,0.999998,0.000157,-0.002230,0.004649,-0.000132,0.004651,-0.002232,-88.902965,0.004653,
1170,1640,0.073044,-1.329917,0.999998,0.000169,-0.001168,0.003589,0.000111,0.003591,-0.001170,88.665043,0.003663,
1840,430,-1.194327,-7.959194,0.999998,0.000170,-0.002474,0.005026,0.000073,0.005026,-0.002474,89.441506,0.005027,
1670,1570,-0.842974,-2.126539,0.999997,0.000175,-0.002531,0.005057,-0.000198,0.005062,-0.002536,-88.504878,0.005062,
1300,1350,-0.078588,-2.291999,0.999997,0.000202,-0.001498,0.002733,-0.001233,0.003066,-0.001831,-74.881020,0.003085,
1350,1240,-0.252417,-2.868340,0.999996,0.000223,-0.002907,0.003896,-0.002227,0.004560,-0.003572,-73.391758,0.004798,
1180,1890,0.024863,-0.453883,0.999998,0.000138,-0.000453,0.003284,-0.000058,0.003285,-0.000454,-89.112615,0.003560,
1750,1010,-1.825936,-5.124225,0.999998,0.000177,-0.002167,0.004861,-0.000139,0.004864,-0.002170,-88.867146,0.004873,
590,1240,1.891898,-4.102364,0.999998,0.000153,-0.002299,0.004619,-0.000140,0.004622,-0.002302,-88.840844,0.004622,
1710,870,-1.587150,-5.837641,0.999997,0.000203,-0.002546,0.005181,-0.000554,0.005220,-0.002586,-85.923137,0.005220,
690,1240,1.652833,-4.003695,0.999997,0.000187,-0.002563,0.005096,-0.000482,0.005126,-0.002593,-86.415867,0.005126,
1210,1390,0.023320,-2.121286,0.999999,0.000140,-0.001125,0.002502,0.000347,0.002535,-0.001157,84.582858,0.002538,
1810,1140,-1.888837,-4.517304,0.999998,0.000194,-0.002247,0.004691,0.000306,0.004704,-0.002260,87.475420,0.004705,
1850,1800,-0.915147,-1.258972,0.999998,0.000165,-0.002438,0.005015,0.000076,0.005016,-0.002439,89.418012,0.005016,
1750,830,-1.620255,-6.018433,0.999997,0.000207,-0.002557,0.005129,-0.000540,0.005167,-0.002595,-85.997654,0.005167,
1110,210,0.080135,-9.460833,0.999998,0.000142,-0.000723,0.003506,0.000081,0.003508,-0.000725,88.904558,0.003704,
1090,1440,0.208096,-2.163771,0.999998,0.000156,-0.001955,0.003961,0.001072,0.004150,-0.002143,80.038027,0.004151,
1430,420,-0.267394,-8.613458,0.999998,0.000159,-0.001610,0.004073,0.000333,0.004093,-0.001630,86.655501,0.004121,
1240,750,-0.008540,-7.795625,0.999999,0.000135,-0.001030,0.001502,0.000231,0.001523,-0.001051,84.819758,0.001559,
1610,380,-0.576183,-8.564968,0.999997,0.000199,-0.002066,0.004739,0.000069,0.004740,-0.002067,89.421660,0.004753,
1390,1820,-0.118176,-0.716926,0.999998,0.000155,-0.000794,0.003606,0.000119,0.003609,-0.000797,88.451925,0.003792,
1590,400,-0.555940,-8.496880,0.999997,0.000227,-0.002134,0.004716,0.000154,0.004720,-0.002137,88.712634,0.004727,
840,1050,1.560583,-4.922023,0.999998,0.000179,-0.001965,0.005195,-0.000207,0.005201,-0.001971,-88.343150,0.005251,
1880,1080,-2.088551,-4.818772,0.999998,0.000170,-0.002026,0.004134,-0.000008,0.004134,-0.002026,-89.922269,0.004134,
1110,110,0.034786,-9.798226,0.999999,0.000140,-0.000309,0.003246,0.000186,0.003256,-0.000319,87.016251,0.003589,
1750,1380,-1.335682,-3.246305,0.999997,0.000221,-0.002772,0.005287,0.000202,0.005292,-0.002777,88.568250,0.005294,
1830,1020,-2.001560,-5.074510,0.999998,0.000177,-0.002149,0.004537,-0.000067,0.004538,-0.002150,-89.423320,0.004540,
1060,1370,0.291197,-2.546250,0.999997,0.000198,-0.002690,0.004556,0.001487,0.004850,-0.002983,78.841487,0.004892,
630,1420,1.485883,-3.157239,0.999998,0.000197,-0.002556,0.005099,-0.000077,0.005100,-0.002556,-89.422407,0.005100,
1670,770,-1.283381,-6.414529,0.999997,0.000208,-0.002945,0.005595,-0.000430,0.005617,-0.002966,-87.126385,0.005620,
1620,1980,-0.103530,-0.197513,0.999998,0.000162,-0.000425,0.003702,0.000908,0.003893,-0.000616,78.125563,0.004185,
1330,2010,-0.007023,-0.077131,0.999998,0.000174,-0.000128,0.003042,0.000118,0.003047,-0.000132,87.863692,0.003444,
1380,570,-0.218889,-8.077944,0.999998,0.000153,-0.001857,0.003944,0.000872,0.004072,-0.001985,81.632650,0.004073,
570,740,1.818681,-6.304465,0.999973,0.000605,-0.002940,0.005379,0.000032,0.005379,-0.002940,89.782138,0.005387,
1460,1890,-0.124744,-0.490081,0.999998,0.000184,-0.000617,0.003603,0.000319,0.003627,-0.000641,85.701273,0.003872,
1460,290,-0.231498,-9.114262,0.999997,0.000187,-0.001183,0.003977,-0.000097,0.003979,-0.001185,-88.920167,0.004086,
1230,1820,0.000702,-0.684611,0.999998,0.000135,-0.000745,0.003404,-0.000001,0.003404,-0.000745,-89.986151,0.003579,
1660,1940,-0.209102,-0.362048,0.999998,0.000200,-0.001014,0.004108,0.000916,0.004267,-0.001173,80.158427,0.004408,
1270,1760,-0.035936,-0.897413,0.999999,0.000133,-0.000872,0.003485,-0.000043,0.003486,-0.000873,-89.430128,0.003628,
1410,1410,-0.296714,-2.383566,0.999997,0.000204,-0.002446,0.004452,-0.001235,0.004667,-0.002660,-80.151584,0.004682,
1260,1540,-0.035717,-1.670993,0.999998,0.000140,-0.001263,0.003395,-0.000196,0.003404,-0.001271,-87.590606,0.003440,
1890,850,-1.983531,-5.792797,0.999998,0.000157,-0.002224,0.004605,-0.000139,0.004607,-0.002227,-88.833235,0.004608,
780,1110,1.634474,-4.622123,0.999997,0.000208,-0.002252,0.005131,-0.000472,0.005161,-0.002282,-86.355763,0.005172,
1750,1530,-1.099643,-2.459561,0.999998,0.000173,-0.002594,0.005163,-0.000085,0.005164,-0.002595,-89.375726,0.005164,
840,1150,1.429611,-4.383273,0.999997,0.000199,-0.002521,0.005563,-0.000685,0.005621,-0.002579,-85.191722,0.005627,
1710,1070,-1.730077,-4.831178,0.999997,0.000191,-0.002155,0.004933,0.000193,0.004938,-0.002160,88.444428,0.004951,
1820,750,-1.653835,-6.357385,0.999997,0.000210,-0.002509,0.004984,-0.000295,0.004995,-0.002520,-87.751622,0.004995,
580,810,1.906650,-5.987598,0.999998,0.000162,-0.002337,0.004604,0.000069,0.004604,-0.002337,89.429336,0.004605,
1150,1640,0.096297,-1.337406,0.999998,0.000149,-0.001287,0.003653,0.000251,0.003666,-0.001299,87.100625,0.003718,
960,1610,0.414447,-1.668873,0.999998,0.000189,-0.001973,0.004489,0.000343,0.004507,-0.001991,86.971449,0.004517,
1450,780,-0.543328,-6.846242,0.999997,0.000202,-0.003764,0.006065,0.001092,0.006184,-0.003884,83.734001,0.006252,
1680,530,-0.924588,-7.706425,0.999998,0.000167,-0.002621,0.005178,0.000173,0.005182,-0.002625,88.727217,0.005182,
1420,350,-0.216153,-8.908791,0.999998,0.000173,-0.001464,0.003929,0.000192,0.003936,-0.001471,87.963939,0.003978,
1640,1310,-1.143339,-3.483803,0.999996,0.000240,-0.003126,0.005722,0.000264,0.005730,-0.003134,88.294128,0.005739,
1820,430,-1.144227,-7.992497,0.999998,0.000167,-0.002503,0.005041,0.000081,0.005042,-0.002504,89.386275,0.005042,
580,1240,1.913485,-4.115573,0.999998,0.000171,-0.002337,0.004598,-0.000082,0.004599,-0.002338,-89.323599,0.004599,
1830,1500,-1.352245,-2.742377,0.999996,0.000212,-0.002569,0.005102,-0.000021,0.005102,-0.002569,-89.840014,0.005102,
1240,1890,-0.004551,-0.452274,0.999999,0.000132,-0.000522,0.003272,-0.000007,0.003272,-0.000522,-89.894226,0.003516,
1080,1630,0.194006,-1.431890,0.999998,0.000184,-0.001487,0.003924,0.000370,0.003949,-0.001512,86.103787,0.003985,
1050,720,0.339087,-7.330832,0.999998,0.000166,-0.003050,0.004998,-0.001556,0.005288,-0.003341,-79.430742,0.005349,
630,1240,1.797994,-4.057538,0.999998,0.000183,-0.002381,0.004781,-0.000299,0.004793,-0.002394,-87.616224,0.004793,
1490,1880,-0.153779,-0.535472,0.999998,0.000164,-0.000887,0.003718,0.000321,0.003740,-0.000909,86.031584,0.003901,
1750,1360,-1.370917,-3.352875,0.999998,0.000198,-0.002744,0.005293,0.000251,0.005301,-0.002752,88.214077,0.005302,
1070,1440,0.250543,-2.213218,0.999998,0.000175,-0.002194,0.004184,0.001135,0.004380,-0.002390,80.204836,0.004386,
1030,1300,0.438788,-3.015224,0.999997,0.000221,-0.003539,0.005549,0.001400,0.005760,-0.003750,81.436154,0.005847,
1520,1210,-0.971125,-3.885279,0.999998,0.000183,-0.003547,0.006504,0.000256,0.006510,-0.003553,88.539150,0.006519,
1850,1020,-2.044361,-5.072961,0.999998,0.000164,-0.002103,0.004440,-0.000063,0.004441,-0.002104,-89.449854,0.004443,
1670,490,-0.848511,-7.929931,0.999998,0.000173,-0.002557,0.005101,0.000181,0.005105,-0.002561,88.647504,0.005105,
1610,560,-0.773912,-7.669247,0.999997,0.000232,-0.002738,0.005227,0.000326,0.005240,-0.002751,87.658736,0.005242,
1110,90,0.028258,-9.862551,0.999999,0.000140,-0.000221,0.003155,0.000156,0.003162,-0.000228,87.361613,0.003527,
1380,550,-0.216580,-8.155101,0.999998,0.000153,-0.001814,0.003914,0.000801,0.004024,-0.001924,82.188383,0.004026,
1890,530,-1.467195,-7.373312,0.999996,0.000224,-0.002538,0.005097,-0.000010,0.005097,-0.002538,-89.926323,0.005097,
1670,750,-1.245544,-6.528335,0.999998,0.000198,-0.002971,0.005602,-0.000348,0.005616,-0.002985,-87.680630,0.005620,
1660,1920,-0.251758,-0.442486,0.999998,0.000195,-0.001216,0.004179,0.000822,0.004301,-0.001338,81.525819,0.004402,
1030,1820,0.159351,-0.736936,0.999998,0.000194,-0.001028,0.003776,-0.000121,0.003779,-0.001031,-88.562002,0.003907,
1570,1420,-0.747417,-2.734985,0.999997,0.000207,-0.003010,0.005435,-0.000418,0.005455,-0.003031,-87.176034,0.005466,
1670,830,-1.404965,-6.079685,0.999997,0.000226,-0.002815,0.005483,-0.000606,0.005527,-0.002859,-85.847301,0.005528,
1750,1510,-1.130726,-2.564428,0.999997,0.000173,-0.002626,0.005219,-0.000058,0.005220,-0.002627,-89.578470,0.005220,
690,880,1.758595,-5.752510,0.999997,0.000211,-0.002412,0.004976,0.000493,0.005009,-0.002444,86.200713,0.005009,
690,1700,0.914649,-1.631564,0.999997,0.000201,-0.002395,0.005014,-0.000008,0.005014,-0.002395,-89.939321,0.005015,
1580,850,-1.185152,-6.056186,0.999998,0.000160,-0.003109,0.006067,-0.000593,0.006105,-0.003147,-86.315317,0.006106,
900,1870,0.234942,-0.604992,0.999997,0.000199,-0.001051,0.004010,-0.000487,0.004056,-0.001098,-84.556405,0.004196,
740,990,1.760079,-5.224273,0.999999,0.000153,-0.002132,0.004872,0.000168,0.004876,-0.002136,88.624134,0.004889,
920,550,0.585915,-7.843870,0.999997,0.000215,-0.002607,0.005023,-0.000538,0.005061,-0.002645,-85.989102,0.005062,
1220,1890,0.006903,-0.451092,0.999998,0.000157,-0.000506,0.003278,0.000007,0.003278,-0.000506,89.893688,0.003530,
570,730,1.804158,-6.360337,0.999958,0.000734,-0.002969,0.005280,0.000222,0.005286,-0.002975,88.460917,0.005300,
1250,1760,-0.017433,-0.893801,0.999998,0.000141,-0.000907,0.003469,-0.000064,0.003470,-0.000908,-89.158942,0.003599,
1440,290,-0.206713,-9.126370,0.999998,0.000155,-0.001207,0.003903,-0.000022,0.003903,-0.001208,-89.756714,0.003996,
1350,1340,-0.169569,-2.482436,0.999998,0.000194,-0.002203,0.003694,-0.001768,0.004184,-0.002692,-74.526402,0.004241,
570,1240,1.937167,-4.128830,0.999997,0.000186,-0.002370,0.004567,-0.000039,0.004567,-0.002370,-89.681183,0.004568,
1810,1200,-1.808411,-4.229446,0.999998,0.000160,-0.002375,0.004859,0.000417,0.004883,-0.002399,86.715269,0.004883,
590,1690,1.173792,-1.850750,0.999998,0.000168,-0.002399,0.004937,0.000050,0.004937,-0.002399,89.610736,0.004938,
680,1950,0.329257,-0.385227,0.999997,0.000227,-0.001515,0.004784,-0.001384,0.005074,-0.001806,-78.140909,0.005144,
610,1240,1.845689,-4.078302,0.999998,0.000158,-0.002343,0.004681,-0.000227,0.004688,-0.002350,-88.150431,0.004688,
1130,1640,0.122963,-1.353444,0.999998,0.000187,-0.001342,0.003721,0.000309,0.003740,-0.001361,86.521751,0.003786,
580,800,1.890688,-6.034033,0.999998,0.000173,-0.002407,0.004599,0.000053,0.004599,-0.002407,89.566634,0.004601,
1560,1290,-0.920881,-3.466771,0.999997,0.000177,-0.003468,0.006099,-0.000008,0.006099,-0.003468,-89.953666,0.006118,
1720,1290,-1.417274,-3.690709,0.999996,0.000246,-0.002767,0.005409,0.000438,0.005433,-0.002791,86.942112,0.005434,
1350,1880,-0.062992,-0.496620,0.999998,0.000186,-0.000582,0.003375,0.000094,0.003378,-0.000584,88.635127,0.003610,
1010,1300,0.511808,-3.096093,0.999997,0.000229,-0.003660,0.005786,0.001145,0.005923,-0.003797,83.186688,0.006001,
1220,410,0.014361,-8.781931,0.999998,0.000176,-0.001185,0.003541,-0.000085,0.003543,-0.001187,-88.969027,0.003606,
750,1500,1.046235,-2.557773,0.999998,0.000177,-0.002666,0.005232,0.000111,0.005234,-0.002668,89.194800,0.005234,
1660,1900,-0.296535,-0.529935,0.999997,0.000183,-0.001365,0.004327,0.000794,0.004435,-0.001473,82.208676,0.004518,
990,480,0.375942,-8.298807,0.999998,0.000191,-0.002027,0.004437,-0.000512,0.004477,-0.002067,-85.494666,0.004481,
1810,1060,-1.949262,-4.889109,0.999998,0.000164,-0.002157,0.004604,0.000121,0.004606,-0.002159,88.974732,0.004609,
1760,630,-1.287106,-7.056136,0.999997,0.000193,-0.002675,0.005238,-0.000097,0.005239,-0.002676,-89.298129,0.005239,
1670,1550,-0.866926,-2.227909,0.999998,0.000162,-0.002568,0.005134,-0.000191,0.005139,-0.002572,-88.579905,0.005139,
980,1370,0.531240,-2.798755,0.999997,0.000214,-0.003222,0.005448,0.000934,0.005547,-0.003322,83.923838,0.005583,
1690,760,-1.322321,-6.447917,0.999998,0.000171,-0.002893,0.005496,-0.000416,0.005516,-0.002913,-87.170592,0.005519,
870,1560,0.660970,-2.048541,0.999998,0.000178,-0.002475,0.004978,0.000330,0.004992,-0.002490,87.469364,0.004992,
1670,730,-1.206786,-6.638522,0.999998,0.000199,-0.003010,0.005591,-0.000284,0.005601,-0.003019,-88.113592,0.005606,
1880,530,-1.441581,-7.388043,0.999996,0.000208,-0.002544,0.005097,0.000010,0.005097,-0.002544,89.921970,0.005097,
1460,2010,-0.021498,-0.081035,0.999998,0.000154,-0.000029,0.003140,0.000334,0.003175,-0.000064,84.043545,0.003630,
1250,1560,-0.024112,-1.597012,0.999998,0.000154,-0.001233,0.003447,-0.000169,0.003453,-0.001239,-87.938962,0.003498,
1750,1720,-0.825912,-1.492529,0.999998,0.000178,-0.002397,0.005045,0.000016,0.005046,-0.002397,89.879225,0.005048,
1620,1960,-0.138107,-0.273415,0.999998,0.000161,-0.000559,0.003777,0.000811,0.003924,-0.000706,79.747128,0.004183,
1110,70,0.017746,-9.924817,0.999999,0.000141,-0.000165,0.003124,0.000186,0.003134,-0.000176,86.766084,0.003522,
1210,770,0.022482,-7.755926,0.999998,0.000164,-0.001130,0.001375,-0.000649,0.001533,-0.001288,-76.297385,0.001647,
1670,470,-0.825067,-8.031952,0.999998,0.000173,-0.002522,0.005056,0.000184,0.005061,-0.002526,88.609175,0.005061,
1750,1490,-1.158810,-2.668982,0.999998,0.000173,-0.002658,0.005223,-0.000052,0.005224,-0.002659,-89.623547,0.005224,
1750,810,-1.583507,-6.121917,0.999997,0.000216,-0.002591,0.005177,-0.000516,0.005211,-0.002625,-86.219029,0.005211,
1710,850,-1.552959,-5.941354,0.999997,0.000208,-0.002624,0.005286,-0.000580,0.005328,-0.002666,-85.828412,0.005328,
1180,750,0.056821,-7.724049,0.999999,0.000156,-0.001362,0.002045,-0.001287,0.002476,-0.001793,-71.467258,0.002558,
1000,1210,0.756602,-3.708800,0.999996,0.000238,-0.003900,0.006774,0.000513,0.006798,-0.003924,87.256124,0.006825,
1510,1780,-0.284058,-0.940191,0.999997,0.000176,-0.001484,0.004109,0.000118,0.004111,-0.001486,88.795635,0.004164,
1740,950,-1.767531,-5.420847,0.999998,0.000166,-0.002247,0.004956,-0.000390,0.004977,-0.002268,-86.909553,0.004983,
1350,1320,-0.175434,-2.557946,0.999998,0.000203,-0.002332,0.003739,-0.001909,0.004289,-0.002883,-73.917389,0.004373,
1760,470,-1.050848,-7.887119,0.999998,0.000176,-0.002523,0.005091,0.000095,0.005092,-0.002524,89.285090,0.005092,
1100,1290,0.224455,-2.737132,0.999997,0.000189,-0.002779,0.004209,0.002086,0.004784,-0.003355,74.583329,0.004912,
690,860,1.726754,-5.852028,0.999997,0.000212,-0.002439,0.004981,0.000474,0.005012,-0.002469,86.358569,0.005012,
1440,390,-0.268191,-8.726134,0.999998,0.000169,-0.001551,0.004114,0.000231,0.004124,-0.001560,87.667805,0.004164,
910,1880,0.212485,-0.562308,0.999998,0.000177,-0.000888,0.003941,-0.000493,0.003991,-0.000938,-84.228548,0.004173,
1560,850,-1.120381,-6.085374,0.999997,0.000191,-0.003241,0.006203,-0.000548,0.006234,-0.003272,-86.692271,0.006237,
580,1690,1.198774,-1.869116,0.999999,0.000158,-0.002170,0.004939,0.000038,0.004939,-0.002170,89.691991,0.004951,
1890,880,-2.025257,-5.661799,0.999998,0.000153,-0.002208,0.004248,-0.000048,0.004248,-0.002208,-89.572941,0.004249,
1500,530,-0.463424,-8.022364,0.999998,0.000191,-0.002419,0.004737,0.000600,0.004787,-0.002469,85.242419,0.004788,
1060,290,0.159975,-9.154093,0.999998,0.000177,-0.001149,0.003782,-0.000016,0.003782,-0.001149,-89.812335,0.003878,
1110,1760,0.114098,-0.922684,0.999999,0.000131,-0.001021,0.003632,0.000042,0.003632,-0.001022,89.485339,0.003746,
1820,730,-1.618641,-6.457644,0.999998,0.000166,-0.002530,0.005074,-0.000265,0.005083,-0.002539,-88.009016,0.005083,
1500,470,-0.422933,-8.302996,0.999997,0.000215,-0.002053,0.004539,0.000425,0.004567,-0.002081,86.327915,0.004573,
1860,890,-1.971803,-5.645018,0.999998,0.000172,-0.002166,0.004443,-0.000159,0.004447,-0.002170,-88.625168,0.004448,
1370,1500,-0.198482,-1.926148,0.999998,0.000174,-0.001807,0.003844,-0.000836,0.003965,-0.001928,-81.757259,0.003966,
1890,900,-2.045569,-5.575393,0.999999,0.000133,-0.002184,0.004302,-0.000079,0.004303,-0.002185,-89.301066,0.004304,
570,1180,2.023471,-4.401856,0.999996,0.000223,-0.002018,0.004293,0.000020,0.004293,-0.002018,89.817618,0.004296,
1770,1900,-0.472294,-0.619853,0.999997,0.000197,-0.002021,0.004977,0.000904,0.005092,-0.002136,82.753318,0.005114,
1260,1520,-0.035529,-1.736904,0.999999,0.000140,-0.001268,0.003297,-0.000204,0.003306,-0.001277,-87.443402,0.003334,
1280,1630,-0.057619,-1.361123,0.999998,0.000158,-0.001191,0.003564,-0.000095,0.003566,-0.001193,-88.850148,0.003630,
1870,1090,-2.063775,-4.773236,0.999997,0.000185,-0.002098,0.004211,0.000004,0.004211,-0.002098,89.965589,0.004211,
1710,1050,-1.737382,-4.927467,0.999997,0.000181,-0.002126,0.004890,0.000186,0.004895,-0.002131,88.481500,0.004908,
1110,1640,0.149228,-1.368664,0.999998,0.000191,-0.001315,0.003756,0.000256,0.003769,-0.001328,87.114347,0.003824,
1630,1060,-1.570069,-4.870861,0.999998,0.000198,-0.001986,0.005172,0.000221,0.005179,-0.001992,88.235177,0.005224,
900,1430,0.713985,-2.665108,0.999997,0.000199,-0.002980,0.005398,0.000466,0.005424,-0.003006,86.825084,0.005435,
580,790,1.874468,-6.079583,0.999997,0.000192,-0.002475,0.004655,0.000036,0.004655,-0.002476,89.712087,0.004659,
1670,290,-0.576280,-8.919507,0.999997,0.000189,-0.002125,0.004806,-0.000187,0.004811,-0.002130,-88.451707,0.004822,
1000,1630,0.323337,-1.524641,0.999997,0.000210,-0.001816,0.004295,0.000389,0.004320,-0.001841,86.375495,0.004336,
1220,750,0.012065,-7.793903,0.999999,0.000134,-0.001000,0.001522,-0.000300,0.001557,-0.001035,-83.303434,0.001585,
1860,1210,-1.908695,-4.226952,0.999998,0.000164,-0.002273,0.004687,0.000224,0.004694,-0.002281,88.156563,0.004694,
1260,1320,-0.027155,-2.278000,0.999998,0.000154,-0.001061,0.001833,-0.000702,0.001995,-0.001222,-77.057240,0.002011,
1660,1880,-0.338760,-0.613946,0.999998,0.000177,-0.001529,0.004401,0.000702,0.004483,-0.001611,83.338385,0.004542,
1470,1520,-0.395906,-2.022162,0.999998,0.000189,-0.002272,0.004560,-0.000677,0.004626,-0.002339,-84.395546,0.004626,
850,960,1.500305,-5.398010,0.999996,0.000225,-0.002115,0.005397,0.000516,0.005433,-0.002151,86.091083,0.005472,
1550,1420,-0.687043,-2.692113,0.999997,0.000194,-0.003033,0.005403,-0.000497,0.005433,-0.003062,-86.636901,0.005447,
1330,1880,-0.049211,-0.492362,0.999998,0.000184,-0.000604,0.003343,0.000062,0.003344,-0.000605,89.101247,0.003564,
1230,1560,0.001323,-1.592373,0.999998,0.000156,-0.001287,0.003446,0.000014,0.003446,-0.001287,89.831964,0.003483,
1670,820,-1.385348,-6.134046,0.999996,0.000239,-0.002840,0.005510,-0.000569,0.005549,-0.002878,-86.119340,0.005550,
960,1370,0.596841,-2.854507,0.999998,0.000199,-0.003225,0.005569,0.000783,0.005638,-0.003294,84.951137,0.005665,
1870,490,-1.358015,-7.608184,0.999997,0.000186,-0.002507,0.005064,0.000021,0.005064,-0.002507,89.840863,0.005064,
1100,1980,0.023128,-0.170482,0.999998,0.000143,-0.000148,0.003147,-0.000197,0.003158,-0.000160,-86.585837,0.003558,
1690,740,-1.284542,-6.558875,0.999997,0.000212,-0.002908,0.005517,-0.000360,0.005533,-0.002923,-87.558858,0.005536,
1620,1940,-0.176454,-0.349304,0.999998,0.000156,-0.000720,0.003966,0.000832,0.004109,-0.000863,80.228342,0.004333,
1300,350,-0.071246,-8.981954,0.999998,0.000144,-0.001037,0.003579,0.000030,0.003579,-0.001038,89.621942,0.003683,
1670,710,-1.167920,-6.751059,0.999998,0.000200,-0.003008,0.005577,-0.000195,0.005581,-0.003012,-88.696266,0.005587,
1450,2010,-0.019963,-0.080464,0.999999,0.000141,-0.000055,0.003107,0.000295,0.003134,-0.000083,84.723480,0.003572,
1870,530,-1.416413,-7.404064,0.999997,0.000185,-0.002551,0.005102,0.000019,0.005102,-0.002551,89.857506,0.005102,
1670,450,-0.798343,-8.132308,0.999998,0.000189,-0.002469,0.005020,0.000159,0.005023,-0.002472,88.781131,0.005023,
1750,1470,-1.189389,-2.774250,0.999998,0.000177,-0.002695,0.005222,0.000005,0.005222,-0.002695,89.962091,0.005223,
980,1210,0.834371,-3.782083,0.999997,0.000209,-0.003810,0.006738,0.000145,0.006740,-0.003812,89.210871,0.006760,
1100,1270,0.245174,-2.822449,0.999998,0.000168,-0.002971,0.004331,0.002193,0.004939,-0.003579,74.503249,0.005102,
1510,1760,-0.304434,-1.024209,0.999998,0.000168,-0.001553,0.004185,0.000043,0.004185,-0.001553,89.567445,0.004231,
1210,730,0.019211,-7.816618,0.999999,0.000145,-0.001027,0.001831,-0.000521,0.001923,-0.001119,-79.983411,0.001932,
1660,1010,-1.635648,-5.129253,0.999997,0.000176,-0.002032,0.005074,-0.000175,0.005079,-0.002036,-88.593062,0.005112,
1370,1480,-0.200608,-2.002510,0.999999,0.000147,-0.001835,0.003890,-0.000881,0.004023,-0.001968,-81.445187,0.004023,
570,1690,1.222860,-1.889360,0.999974,0.000640,-0.002052,0.004946,0.000047,0.004946,-0.002052,89.614396,0.004970,
600,1090,2.048951,-4.770706,0.999998,0.000159,-0.002090,0.004280,-0.000027,0.004280,-0.002090,-89.758653,0.004280,
1890,890,-2.035912,-5.618514,0.999999,0.000129,-0.002189,0.004266,-0.000040,0.004266,-0.002189,-89.647693,0.004266,
1480,1610,-0.369186,-1.637395,0.999998,0.000183,-0.001930,0.004409,-0.000411,0.004436,-0.001957,-86.305770,0.004446,
1360,290,-0.119246,-9.173110,0.999998,0.000157,-0.000990,0.003682,0.000019,0.003682,-0.000990,89.762867,0.003811,
830,940,1.516729,-5.498711,0.999997,0.000226,-0.002280,0.005367,0.000556,0.005407,-0.002321,85.864056,0.005425,
1750,790,-1.546285,-6.227125,0.999997,0.000218,-0.002623,0.005194,-0.000461,0.005222,-0.002650,-86.635431,0.005222,
1870,890,-1.992651,-5.637629,0.999999,0.000128,-0.002149,0.004385,-0.000123,0.004388,-0.002152,-88.918343,0.004388,
1650,1540,-0.827795,-2.245371,0.999998,0.000168,-0.002597,0.005136,-0.000225,0.005142,-0.002604,-88.332064,0.005143,
1890,770,-1.860788,-6.163392,0.999998,0.000187,-0.002375,0.004791,-0.000079,0.004791,-0.002375,-89.371350,0.004791,
1500,510,-0.449620,-8.117064,0.999997,0.000217,-0.002330,0.004688,0.000566,0.004734,-0.002375,85.422222,0.004734,
1600,850,-1.246150,-6.031499,0.999997,0.000217,-0.002997,0.005916,-0.000606,0.005957,-0.003038,-86.128616,0.005957,
1260,1340,-0.028388,-2.237992,0.999998,0.000156,-0.001056,0.002076,-0.000627,0.002197,-0.001176,-79.095934,0.002199,
740,970,1.750942,-5.322799,0.999998,0.000174,-0.002175,0.004973,0.000299,0.004986,-0.002187,87.611247,0.004998,
1710,830,-1.514024,-6.049870,0.999997,0.000221,-0.002689,0.005331,-0.000590,0.005374,-0.002733,-85.814805,0.005374,
1210,840,0.079844,-7.673851,0.999994,0.000291,-0.003286,0.000765,0.000054,0.000766,-0.003287,89.237639,0.003439,
1750,1140,-1.751362,-4.491870,0.999998,0.000189,-0.002304,0.004887,0.000397,0.004909,-0.002326,86.851147,0.004911,
930,1240,0.937968,-3.722722,0.999997,0.000173,-0.003602,0.006380,-0.000117,0.006381,-0.003604,-89.328227,0.006399,
1700,610,-1.091117,-7.251738,0.999997,0.000192,-0.002786,0.005313,0.000026,0.005313,-0.002786,89.813688,0.005315,
1870,1120,-2.042260,-4.642342,0.999998,0.000158,-0.002139,0.004423,0.000175,0.004428,-0.002144,88.470309,0.004428,
850,1820,0.382438,-0.850732,0.999998,0.000192,-0.001529,0.004458,-0.000434,0.004489,-0.001560,-85.872079,0.004558,
1440,370,-0.257601,-8.809847,0.999998,0.000172,-0.001522,0.004112,0.000184,0.004118,-0.001528,88.128666,0.004163,
1200,750,0.031710,-7.772290,0.999998,0.000171,-0.001123,0.001707,-0.000825,0.001930,-0.001346,-74.870770,0.001980,
1790,1240,-1.695150,-4.018231,0.999998,0.000179,-0.002463,0.004972,0.000413,0.004995,-0.002486,86.832290,0.004995,
1290,1640,-0.068565,-1.328670,0.999998,0.000203,-0.001167,0.003594,-0.000108,0.003596,-0.001169,-88.700289,0.003669,
1670,270,-0.540748,-9.016652,0.999997,0.000202,-0.002071,0.004705,-0.000280,0.004716,-0.002083,-87.638536,0.004727,
1460,1930,-0.088313,-0.348293,0.999998,0.000165,-0.000452,0.003495,0.000371,0.003530,-0.000486,84.680091,0.003826,
1890,870,-2.012736,-5.703378,0.999998,0.000162,-0.002213,0.004336,-0.000094,0.004337,-0.002215,-89.181529,0.004337,
1710,1030,-1.746638,-5.027348,0.999998,0.000172,-0.002105,0.004946,0.000029,0.004946,-0.002105,89.763146,0.004965,
1640,1010,-1.596306,-5.129732,0.999998,0.000190,-0.001968,0.005124,-0.000185,0.005129,-0.001973,-88.510361,0.005174,
1470,1440,-0.439534,-2.402957,0.999997,0.000208,-0.002670,0.004903,-0.000888,0.005006,-0.002773,-83.400046,0.005016,
1260,1500,-0.036596,-1.800975,0.999998,0.000145,-0.001252,0.003249,-0.000242,0.003261,-0.001265,-86.936745,0.003289,
1800,730,-1.567445,-6.482829,0.999998,0.000186,-0.002588,0.005128,-0.000302,0.005139,-0.002599,-87.763814,0.005139,
1830,1540,-1.292332,-2.537463,0.999998,0.000215,-0.002529,0.005129,-0.000048,0.005129,-0.002529,-89.638653,0.005130,
1620,1920,-0.215446,-0.430897,0.999998,0.000180,-0.000833,0.004010,0.000764,0.004128,-0.000951,81.246750,0.004323,
580,1060,2.101467,-4.902648,0.999999,0.000135,-0.001963,0.004137,-0.000082,0.004138,-0.001964,-89.232533,0.004140,
1340,1610,-0.137676,-1.471637,0.999998,0.000188,-0.001352,0.003747,-0.000327,0.003768,-0.001373,-86.344031,0.003814,
1040,1370,0.347401,-2.612330,0.999996,0.000212,-0.002840,0.004859,0.001363,0.005094,-0.003075,80.249811,0.005130,
1750,1420,-1.267564,-3.035760,0.999998,0.000183,-0.002728,0.005236,0.000096,0.005237,-0.002729,89.307869,0.005239,
1210,710,0.021220,-7.855080,0.999998,0.000147,-0.001026,0.002101,-0.000482,0.002174,-0.001098,-81.439509,0.002174,
970,1240,0.788105,-3.615210,0.999996,0.000238,-0.003855,0.006533,0.000300,0.006542,-0.003864,88.345605,0.006578,
970,1420,0.517129,-2.561497,0.999997,0.000202,-0.002948,0.005124,0.000859,0.005214,-0.003038,83.995545,0.005238,
1880,900,-2.023807,-5.584057,0.999998,0.000144,-0.002157,0.004336,-0.000103,0.004338,-0.002158,-89.089976,0.004338,
1660,1860,-0.380490,-0.708244,0.999997,0.000209,-0.001654,0.004528,0.000608,0.004587,-0.001713,84.440225,0.004636,
1670,690,-1.133673,-6.863396,0.999998,0.000182,-0.002991,0.005520,-0.000129,0.005522,-0.002993,-89.132432,0.005528,
1890,760,-1.843741,-6.212132,0.999998,0.000183,-0.002404,0.004876,-0.000100,0.004877,-0.002405,-89.212565,0.004878,
1670,430,-0.772768,-8.232538,0.999998,0.000178,-0.002402,0.004978,0.000124,0.004980,-0.002404,89.037879,0.004981,
1200,1630,0.037148,-1.356518,0.999998,0.000183,-0.001202,0.003540,0.000138,0.003544,-0.001206,88.336370,0.003604,
1750,770,-1.510073,-6.329095,0.999997,0.000223,-0.002665,0.005245,-0.000430,0.005268,-0.002688,-86.898597,0.005269,
1280,1550,-0.060812,-1.643782,0.999999,0.000140,-0.001272,0.003462,-0.000208,0.003471,-0.001281,-87.485804,0.003510,
1630,1540,-0.775420,-2.212781,0.999998,0.000172,-0.002606,0.005111,-0.000267,0.005120,-0.002615,-88.023950,0.005120,
1110,250,0.097258,-9.319944,0.999998,0.000146,-0.000864,0.003578,0.000015,0.003578,-0.000864,89.805486,0.003734,
1880,890,-2.013430,-5.629096,0.999999,0.000126,-0.002168,0.004323,-0.000075,0.004323,-0.002169,-89.335429,0.004324,
670,1700,0.962010,-1.663019,0.999998,0.000173,-0.002430,0.005039,0.000005,0.005039,-0.002430,89.964265,0.005040,
1230,1760,0.001560,-0.891737,0.999998,0.000157,-0.000947,0.003465,-0.000001,0.003465,-0.000947,-89.981968,0.003582,
1750,1450,-1.220635,-2.877605,0.999998,0.000161,-0.002688,0.005211,0.000044,0.005211,-0.002688,89.681993,0.005212,
1500,370,-0.352822,-8.746186,0.999998,0.000189,-0.001812,0.004287,0.000204,0.004294,-0.001819,88.088384,0.004311,
1540,830,-1.001690,-6.245277,0.999997,0.000207,-0.003502,0.006354,-0.000299,0.006363,-0.003511,-88.261377,0.006375,
1460,730,-0.503620,-7.102054,0.999998,0.000202,-0.003479,0.005638,0.001116,0.005773,-0.003614,83.124001,0.005834,
1870,430,-1.268135,-7.909398,0.999997,0.000199,-0.002479,0.004985,0.000057,0.004986,-0.002480,89.559014,0.004986,
1080,1270,0.307703,-2.934700,0.999997,0.000199,-0.003313,0.004899,0.002014,0.005366,-0.003780,76.936699,0.005514,
1700,590,-1.061592,-7.357329,0.999998,0.000166,-0.002763,0.005299,0.000064,0.005300,-0.002763,89.544995,0.005302,
1710,810,-1.476576,-6.154258,0.999997,0.000220,-0.002757,0.005314,-0.000535,0.005349,-0.002792,-86.221926,0.005351,
1740,990,-1.796060,-5.224182,0.999998,0.000138,-0.002171,0.004868,-0.000160,0.004872,-0.002175,-88.696103,0.004881,
740,950,1.729409,-5.423992,0.999998,0.000176,-0.002234,0.005023,0.000446,0.005050,-0.002261,86.498975,0.005060,
1260,1780,-0.024808,-0.826739,0.999998,0.000152,-0.000847,0.003472,-0.000033,0.003472,-0.000848,-89.565132,0.003620,
940,290,0.321012,-9.065963,0.999997,0.000184,-0.001504,0.004231,0.000097,0.004233,-0.001505,89.032926,0.004291,
1320,350,-0.092219,-8.975245,0.999998,0.000159,-0.001150,0.003626,0.000116,0.003629,-0.001153,88.607741,0.003708,
840,1370,0.982416,-3.112579,0.999997,0.000191,-0.003110,0.005613,0.000038,0.005613,-0.003110,89.748948,0.005624,
1760,610,-1.255394,-7.160329,0.999998,0.000173,-0.002665,0.005233,-0.000034,0.005234,-0.002665,-89.752236,0.005234,
1650,820,-1.327716,-6.152678,0.999998,0.000187,-0.002918,0.005638,-0.000563,0.005675,-0.002955,-86.252723,0.005677,
960,1590,0.426973,-1.758306,0.999998,0.000196,-0.002064,0.004526,0.000408,0.004552,-0.002089,86.468266,0.004557,
1490,1440,-0.493328,-2.450826,0.999997,0.000218,-0.002776,0.005047,-0.000832,0.005134,-0.002864,-83.999086,0.005146,
1870,1110,-2.052340,-4.688205,0.999998,0.000179,-0.002121,0.004344,0.000120,0.004347,-0.002123,88.940549,0.004347,
850,1800,0.415516,-0.941351,0.999998,0.000170,-0.001628,0.004447,-0.000347,0.004466,-0.001648,-86.744258,0.004517,
1710,1250,-1.467409,-3.896918,0.999997,0.000200,-0.002722,0.005345,0.000520,0.005378,-0.002756,86.328125,0.005379,
1300,810,-0.124025,-7.538185,0.999997,0.000187,-0.002060,0.002069,0.001703,0.002680,-0.002672,70.244236,0.003090,
570,950,2.103019,-5.356891,0.999991,0.000348,-0.001923,0.004119,0.000002,0.004119,-0.001923,89.984157,0.004122,
1480,1590,-0.380715,-1.725504,0.999997,0.000211,-0.001973,0.004422,-0.000450,0.004453,-0.002005,-85.998639,0.004461,
1890,860,-1.999147,-5.746771,0.999998,0.000142,-0.002216,0.004477,-0.000129,0.004480,-0.002218,-88.898279,0.004480,
1260,1480,-0.034259,-1.868076,0.999999,0.000133,-0.001224,0.003169,-0.000255,0.003184,-0.001239,-86.687104,0.003210,
720,1430,1.233201,-2.972989,0.999998,0.000147,-0.002694,0.005276,-0.000065,0.005276,-0.002694,-89.536166,0.005277,
1750,750,-1.471211,-6.435690,0.999997,0.000223,-0.002687,0.005298,-0.000388,0.005317,-0.002705,-87.222685,0.005317,
1830,1520,-1.322892,-2.639524,0.999997,0.000198,-0.002551,0.005110,-0.000034,0.005110,-0.002551,-89.747514,0.005110,
600,1070,2.056352,-4.855078,0.999999,0.000146,-0.002059,0.004278,-0.000063,0.004279,-0.002060,-89.428264,0.004280,
1870,900,-2.003049,-5.593511,0.999998,0.000144,-0.002144,0.004386,-0.000144,0.004389,-0.002147,-88.736424,0.004390,
1750,940,-1.780120,-5.466767,0.999998,0.000160,-0.002264,0.004911,-0.000387,0.004932,-0.002285,-86.921852,0.004936,
1870,520,-1.401487,-7.453622,0.999998,0.000190,-0.002533,0.005093,0.000027,0.005093,-0.002533,89.793658,0.005093,
1670,250,-0.505497,-9.108867,0.999997,0.000187,-0.001978,0.004693,-0.000365,0.004713,-0.001997,-86.880492,0.004731,
1100,1630,0.165097,-1.413332,0.999997,0.000188,-0.001365,0.003808,0.000283,0.003824,-0.001380,86.872533,0.003873,
1210,690,0.022600,-7.899672,0.999999,0.000131,-0.001049,0.002322,-0.000407,0.002370,-0.001097,-83.216570,0.002373,
1750,1400,-1.301509,-3.139963,0.999998,0.000185,-0.002770,0.005257,0.000158,0.005260,-0.002773,88.870282,0.005262,
1660,1840,-0.420061,-0.797593,0.999997,0.000208,-0.001742,0.004518,0.000492,0.004556,-0.001781,85.531451,0.004593,
1180,1630,0.062644,-1.361656,0.999998,0.000153,-0.001191,0.003564,0.000106,0.003567,-0.001193,88.726535,0.003631,
970,1220,0.842607,-3.746772,0.999998,0.000208,-0.003818,0.006660,0.000121,0.006662,-0.003819,89.336380,0.006685,
1360,1590,-0.168121,-1.562545,0.999998,0.000188,-0.001455,0.003816,-0.000381,0.003843,-0.001482,-85.884732,0.003876,
1500,650,-0.551816,-7.422859,0.999997,0.000215,-0.003041,0.005290,0.000820,0.005370,-0.003121,84.434938,0.005394,
1660,1290,-1.244049,-3.625153,0.999997,0.000208,-0.003015,0.005649,0.000388,0.005666,-0.003032,87.441880,0.005671,
1500,350,-0.336609,-8.832042,0.999998,0.000169,-0.001758,0.004236,0.000163,0.004241,-0.001763,88.442067,0.004261,
1750,1430,-1.252857,-2.982386,0.999998,0.000172,-0.002711,0.005239,0.000071,0.005240,-0.002711,89.490679,0.005241,
1260,1760,-0.026246,-0.896598,0.999999,0.000142,-0.000888,0.003475,-0.000061,0.003476,-0.000888,-89.200307,0.003612,
1670,670,-1.100481,-6.973802,0.999998,0.000181,-0.002946,0.005477,-0.000075,0.005478,-0.002946,-89.489798,0.005483,
1460,750,-0.530310,-6.986951,0.999997,0.000245,-0.003621,0.005813,0.001077,0.005934,-0.003743,83.569480,0.006002,
1180,1570,0.063569,-1.574578,0.999998,0.000143,-0.001272,0.003523,0.000196,0.003531,-0.001280,87.661537,0.003575,
1700,710,-1.257499,-6.711517,0.999998,0.000179,-0.002872,0.005455,-0.000270,0.005464,-0.002881,-88.144160,0.005466,
1430,1140,-0.895923,-4.037598,0.999997,0.000205,-0.003333,0.007321,-0.001018,0.007418,-0.003430,-84.590337,0.007425,
1720,1530,-1.023875,-2.411994,0.999997,0.000183,-0.002597,0.005159,-0.000113,0.005161,-0.002599,-89.165097,0.005161,
970,1180,0.967644,-4.015929,0.999998,0.000183,-0.003545,0.006728,-0.000245,0.006734,-0.003550,-88.636616,0.006737,
1670,560,-0.937916,-7.564735,0.999998,0.000181,-0.002684,0.005289,0.000167,0.005293,-0.002688,88.799126,0.005293,
600,1690,1.149778,-1.832144,0.999998,0.000176,-0.002445,0.004962,0.000047,0.004962,-0.002445,89.637788,0.004962,
720,1050,1.807910,-4.930673,0.999998,0.000187,-0.002148,0.004836,-0.000173,0.004840,-0.002153,-88.582250,0.004850,
1740,970,-1.786071,-5.320732,0.999998,0.000171,-0.002209,0.004879,-0.000247,0.004887,-0.002218,-88.010049,0.004894,
1080,1350,0.245333,-2.565298,0.999998,0.000172,-0.002580,0.004338,0.001657,0.004715,-0.002956,77.200014,0.004765,
1690,1780,-0.591359,-1.111592,0.999997,0.000191,-0.002082,0.004823,0.000297,0.004836,-0.002094,87.545142,0.004850,
640,970,1.966670,-5.301608,0.999998,0.000169,-0.002166,0.004525,0.000095,0.004527,-0.002167,89.189500,0.004528,
1560,1230,-1.056056,-3.839223,0.999998,0.000174,-0.003392,0.006236,0.000376,0.006251,-0.003407,87.767973,0.006259,
1500,430,-0.399015,-8.479947,0.999998,0.000170,-0.001931,0.004446,0.000322,0.004462,-0.001947,87.120922,0.004474,
570,940,2.094439,-5.397704,0.999992,0.000355,-0.001952,0.004183,0.000069,0.004183,-0.001953,89.358877,0.004186,
1880,1960,-0.484254,-0.502217,0.999996,0.000235,-0.002282,0.005775,0.001244,0.005963,-0.002470,81.420612,0.005992,
1710,1010,-1.740020,-5.126878,0.999998,0.000170,-0.002095,0.004975,-0.000152,0.004978,-0.002098,-88.766484,0.004998,
1260,1460,-0.034915,-1.928952,0.999999,0.000129,-0.001212,0.003031,-0.000280,0.003049,-0.001231,-86.238966,0.003068,
1660,1670,-0.692884,-1.609191,0.999998,0.000180,-0.002322,0.004931,-0.000069,0.004932,-0.002323,-89.451118,0.004935,
1880,880,-2.002815,-5.672545,0.999998,0.000144,-0.002190,0.004343,-0.000081,0.004344,-0.002191,-89.291332,0.004344,
1080,350,0.167638,-8.936718,0.999998,0.000180,-0.001188,0.003782,-0.000126,0.003785,-0.001191,-88.545743,0.003871,
1700,1290,-1.361876,-3.670250,0.999997,0.000202,-0.002853,0.005474,0.000437,0.005497,-0.002876,87.007267,0.005499,
1820,950,-1.948229,-5.393866,0.999998,0.000182,-0.002196,0.004618,-0.000239,0.004626,-0.002204,-87.991172,0.004628,
1750,730,-1.435408,-6.543734,0.999997,0.000229,-0.002708,0.005271,-0.000330,0.005284,-0.002721,-87.632052,0.005285,
1360,1290,-0.217996,-2.721614,0.999998,0.000199,-0.002746,0.004143,-0.002108,0.004737,-0.003340,-74.267677,0.004868,
1010,1160,0.894868,-4.012737,0.999997,0.000193,-0.003565,0.007084,0.000263,0.007091,-0.003571,88.588382,0.007091,
650,1700,1.011686,-1.698374,0.999999,0.000129,-0.002476,0.005041,0.000006,0.005041,-0.002476,89.951624,0.005042,
1670,230,-0.467010,-9.203824,0.999997,0.000182,-0.001903,0.004645,-0.000446,0.004675,-0.001933,-86.121402,0.004698,
1720,1550,-0.996139,-2.308383,0.999998,0.000169,-0.002579,0.005125,-0.000130,0.005127,-0.002581,-89.036653,0.005127,
1670,580,-0.963850,-7.460542,0.999998,0.000164,-0.002738,0.005286,0.000129,0.005288,-0.002740,89.078902,0.005289,
810,1560,0.811102,-2.149814,0.999998,0.000177,-0.002589,0.005117,0.000200,0.005123,-0.002594,88.513124,0.005123,
1660,1820,-0.457036,-0.888798,0.999998,0.000196,-0.001826,0.004618,0.000427,0.004646,-0.001854,86.221291,0.004677,
1360,1330,-0.194872,-2.560326,0.999998,0.000204,-0.002439,0.003964,-0.001844,0.004457,-0.002932,-75.029244,0.004530,
1420,290,-0.184331,-9.140796,0.999998,0.000162,-0.001238,0.003833,0.000041,0.003833,-0.001238,89.541224,0.003912,
1440,910,-0.907459,-6.018741,0.999996,0.000232,-0.003375,0.007294,0.000628,0.007331,-0.003412,86.642268,0.007337,
1660,1270,-1.284630,-3.737402,0.999997,0.000217,-0.002975,0.005633,0.000468,0.005658,-0.003001,86.895749,0.005662,
1260,1740,-0.027595,-0.965219,0.999999,0.000142,-0.000940,0.003517,-0.000066,0.003518,-0.000941,-89.146145,0.003642,
1750,1650,-0.933404,-1.846146,0.999998,0.000182,-0.002456,0.005080,-0.000086,0.005081,-0.002457,-89.347349,0.005082,
1670,650,-1.066534,-7.081207,0.999998,0.000166,-0.002923,0.005432,-0.000033,0.005432,-0.002923,-89.776378,0.005437,
940,310,0.338450,-8.980817,0.999998,0.000183,-0.001577,0.004247,0.000024,0.004247,-0.001577,89.760717,0.004293,
1890,730,-1.790293,-6.360280,0.999998,0.000200,-0.002429,0.004900,-0.000094,0.004901,-0.002430,-89.264127,0.004901,
1600,1230,-1.186921,-3.899932,0.999998,0.000185,-0.003143,0.005942,0.000543,0.005975,-0.003176,86.588881,0.005979,
1820,1530,-1.282789,-2.573056,0.999998,0.000193,-0.002564,0.005122,-0.000045,0.005123,-0.002564,-89.666134,0.005123,
1640,1290,-1.182480,-3.598405,0.999997,0.000191,-0.003124,0.005743,0.000344,0.005756,-0.003137,87.781671,0.005764,
1760,590,-1.224441,-7.265374,0.999997,0.000187,-0.002660,0.005192,-0.000021,0.005192,-0.002660,-89.849398,0.005193,
1700,690,-1.221040,-6.820427,0.999997,0.000176,-0.002865,0.005432,-0.000188,0.005436,-0.002870,-88.703769,0.005439,
1460,790,-0.602817,-6.742527,0.999997,0.000226,-0.003835,0.006242,0.000900,0.006321,-0.003915,84.934611,0.006381,
570,930,2.084106,-5.443507,0.999993,0.000334,-0.001988,0.004295,0.000108,0.004297,-0.001990,89.018921,0.004301,
1360,1530,-0.177219,-1.791711,0.999998,0.000175,-0.001660,0.003814,-0.000689,0.003899,-0.001745,-82.934043,0.003906,
1720,990,-1.751554,-5.224981,0.999998,0.000171,-0.002131,0.004922,-0.000177,0.004926,-0.002136,-88.562170,0.004940,
1540,1230,-0.987536,-3.802390,0.999998,0.000166,-0.003491,0.006370,0.000244,0.006376,-0.003497,88.582357,0.006386,
920,430,0.484656,-8.422738,0.999997,0.000201,-0.002162,0.004646,-0.000298,0.004659,-0.002175,-87.500688,0.004662,
1890,490,-1.406737,-7.576528,0.999997,0.000210,-0.002453,0.005064,0.000019,0.005065,-0.002453,89.856047,0.005065,
1260,1440,-0.033468,-1.987815,0.999999,0.000142,-0.001200,0.002917,-0.000319,0.002941,-0.001225,-85.600469,0.002955,
1100,350,0.143769,-8.949887,0.999998,0.000175,-0.001150,0.003711,-0.000134,0.003714,-0.001154,-88.418943,0.003802,
1770,860,-1.719993,-5.853757,0.999998,0.000176,-0.002455,0.005010,-0.000457,0.005038,-0.002483,-86.507258,0.005038,
1890,1680,-1.234386,-1.928396,0.999998,0.000163,-0.002448,0.004892,-0.000058,0.004893,-0.002449,-89.546969,0.004893,
1680,1290,-1.303126,-3.647265,0.999997,0.000181,-0.002936,0.005546,0.000434,0.005568,-0.002959,87.078952,0.005572,
790,1240,1.383694,-3.920081,0.999997,0.000210,-0.002845,0.005495,-0.000557,0.005532,-0.002882,-86.193669,0.005534,
1870,1960,-0.460895,-0.479598,0.999997,0.000181,-0.002301,0.005618,0.001185,0.005792,-0.002474,81.671271,0.005812,
1750,710,-1.399695,-6.647638,0.999997,0.000220,-0.002721,0.005255,-0.000286,0.005266,-0.002731,-87.952275,0.005267,
780,1690,0.717910,-1.545289,0.999997,0.000190,-0.002276,0.004908,-0.000003,0.004908,-0.002276,-89.979255,0.004912,
1010,1140,0.971973,-4.158506,0.999996,0.000212,-0.003318,0.007262,0.000204,0.007266,-0.003322,88.893356,0.007275,
1270,1640,-0.043559,-1.322124,0.999998,0.000166,-0.001190,0.003561,-0.000103,0.003563,-0.001192,-88.764209,0.003628,
1700,1550,-0.945733,-2.276600,0.999999,0.000146,-0.002615,0.005141,-0.000151,0.005144,-0.002618,-88.882497,0.005145,
1700,670,-1.187629,-6.930081,0.999997,0.000199,-0.002875,0.005417,-0.000119,0.005418,-0.002877,-89.174794,0.005422,
1360,1310,-0.202126,-2.639096,0.999998,0.000209,-0.002584,0.004028,-0.001963,0.004567,-0.003123,-74.652316,0.004668,
1670,210,-0.427908,-9.294972,0.999997,0.000203,-0.001792,0.004597,-0.000533,0.004641,-0.001836,-85.260233,0.004674,
790,1560,0.863135,-2.180186,0.999998,0.000172,-0.002575,0.005128,0.000178,0.005132,-0.002579,88.675517,0.005132,
1280,290,-0.044153,-9.198443,0.999999,0.000122,-0.000853,0.003532,-0.000003,0.003532,-0.000853,-89.960651,0.003686,
860,1230,1.196643,-3.902197,0.999998,0.000167,-0.003124,0.005941,-0.000535,0.005972,-0.003155,-86.635431,0.005976,
1260,1720,-0.029732,-1.037372,0.999998,0.000155,-0.000972,0.003517,-0.000061,0.003518,-0.000972,-89.227749,0.003634,
960,1430,0.539216,-2.535116,0.999997,0.000192,-0.002894,0.005146,0.000771,0.005219,-0.002967,84.573617,0.005235,
1750,1410,-1.283193,-3.088303,0.999998,0.000185,-0.002746,0.005240,0.000117,0.005242,-0.002748,89.163052,0.005244,
1680,570,-0.977221,-7.496792,0.999998,0.000159,-0.002726,0.005272,0.000131,0.005274,-0.002729,89.058512,0.005275,
1670,630,-1.036471,-7.191450,0.999998,0.000152,-0.002872,0.005406,0.000040,0.005406,-0.002872,89.722229,0.005410,
1620,1290,-1.119509,-3.570303,0.999997,0.000180,-0.003188,0.005836,0.000308,0.005847,-0.003198,88.048506,0.005856,
1600,910,-1.381944,-5.682768,0.999998,0.000207,-0.002548,0.005665,-0.000705,0.005725,-0.002608,-85.129168,0.005733,
1890,720,-1.773759,-6.409323,0.999998,0.000193,-0.002447,0.004892,-0.000081,0.004893,-0.002448,-89.370780,0.004893,
940,330,0.357522,-8.893934,0.999998,0.000172,-0.001630,0.004392,0.000000,0.004392,-0.001630,89.997550,0.004440,
1620,1230,-1.249310,-3.924144,0.999997,0.000177,-0.003063,0.005825,0.000577,0.005863,-0.003100,86.301827,0.005866,
980,1590,0.387317,-1.730844,0.999998,0.000153,-0.002024,0.004423,0.000431,0.004452,-0.002053,86.191547,0.004456,
590,810,1.884207,-6.000635,0.999998,0.000158,-0.002277,0.004624,0.000134,0.004627,-0.002280,88.889342,0.004627,
1260,1420,-0.031813,-2.044716,0.999999,0.000156,-0.001188,0.002781,-0.000344,0.002810,-0.001217,-85.088663,0.002818,
1140,1630,0.111076,-1.383000,0.999998,0.000167,-0.001368,0.003676,0.000319,0.003696,-0.001388,86.392293,0.003734,
1460,770,-0.563255,-6.867786,0.999997,0.000214,-0.003743,0.006045,0.000972,0.006141,-0.003839,84.385061,0.006204,
1770,840,-1.689036,-5.954427,0.999997,0.000196,-0.002481,0.004987,-0.000472,0.005017,-0.002511,-86.396846,0.005017,
810,1220,1.368180,-4.013193,0.999998,0.000197,-0.002840,0.005586,-0.000613,0.005630,-0.002884,-85.857906,0.005631,
940,1370,0.660338,-2.907532,0.999997,0.000207,-0.003258,0.005624,0.000603,0.005664,-0.003299,86.135184,0.005690,
1880,490,-1.382584,-7.591790,0.999997,0.000192,-0.002468,0.005064,0.000020,0.005064,-0.002468,89.850953,0.005064,
920,350,0.410856,-8.785526,0.999997,0.000213,-0.001640,0.004483,0.000017,0.004483,-0.001641,89.839706,0.004536,
1890,1670,-1.248316,-1.977824,0.999998,0.000164,-0.002425,0.004927,-0.000074,0.004928,-0.002425,-89.420722,0.004928,
690,760,1.552193,-6.359518,0.999996,0.000224,-0.002602,0.005160,0.000381,0.005179,-0.002621,87.199067,0.005179,
760,1690,0.762054,-1.572299,0.999998,0.000171,-0.002261,0.004919,-0.000052,0.004919,-0.002261,-89.584898,0.004924,
1260,810,-0.051280,-7.694369,0.999998,0.000180,-0.001791,0.001182,0.000726,0.001350,-0.001959,76.981669,0.002005,
1750,690,-1.361829,-6.754000,0.999997,0.000208,-0.002732,0.005284,-0.000225,0.005290,-0.002738,-88.390985,0.005291,
1050,1160,0.754979,-3.778668,0.999997,0.000189,-0.003380,0.006704,0.001545,0.006935,-0.003611,81.483315,0.006937,
1580,1030,-1.488614,-5.026413,0.999998,0.000203,-0.001840,0.005463,0.000034,0.005463,-0.001841,89.734762,0.005559,
1330,1620,-0.122530,-1.425449,0.999998,0.000174,-0.001349,0.003713,-0.000326,0.003734,-0.001370,-86.333676,0.003778,
1370,1460,-0.202004,-2.081549,0.999998,0.000164,-0.001862,0.003905,-0.000953,0.004059,-0.002016,-80.855947,0.004059,
760,990,1.716916,-5.225567,0.999997,0.000202,-0.002140,0.004938,0.000166,0.004941,-0.002143,88.654352,0.004956,
1340,290,-0.098509,-9.180306,0.999999,0.000125,-0.001015,0.003617,0.000073,0.003618,-0.001016,89.099363,0.003732,
1730,840,-1.587638,-5.981168,0.999997,0.000196,-0.002596,0.005203,-0.000559,0.005242,-0.002636,-85.923613,0.005242,
1340,1310,-0.154616,-2.550925,0.999997,0.000211,-0.002240,0.003483,-0.001970,0.004095,-0.002852,-72.724298,0.004199,
1260,1700,-0.030678,-1.105993,0.999998,0.000161,-0.001049,0.003549,-0.000076,0.003551,-0.001050,-89.047972,0.003648,
1840,1210,-1.863007,-4.205490,0.999998,0.000152,-0.002338,0.004750,0.000321,0.004765,-0.002353,87.411966,0.004765,
1600,890,-1.339186,-5.797076,0.999998,0.000196,-0.002717,0.005800,-0.000720,0.005860,-0.002777,-85.200021,0.005863,
1890,710,-1.757286,-6.458001,0.999998,0.000208,-0.002467,0.004906,-0.000076,0.004907,-0.002468,-89.407609,0.004907,
1670,350,-0.666051,-8.627644,0.999997,0.000180,-0.002273,0.004857,-0.000005,0.004857,-0.002273,-89.959920,0.004861,
740,1430,1.179183,-2.943201,0.999998,0.000170,-0.002750,0.005293,-0.000050,0.005293,-0.002750,-89.640608,0.005294,
1690,1420,-1.101324,-2.946498,0.999998,0.000184,-0.002845,0.005372,0.000008,0.005372,-0.002845,89.945169,0.005376,
860,1370,0.920354,-3.079110,0.999998,0.000198,-0.003152,0.005670,0.000126,0.005671,-0.003154,89.183327,0.005683,
1810,880,-1.846734,-5.728840,0.999997,0.000184,-0.002315,0.004782,-0.000370,0.004802,-0.002334,-87.021925,0.004802,
1060,770,0.355980,-7.116620,0.999997,0.000212,-0.003430,0.005271,-0.001789,0.005624,-0.003784,-78.822220,0.005735,
1260,1630,-0.032431,-1.354927,0.999998,0.000187,-0.001206,0.003563,-0.000094,0.003565,-0.001208,-88.871344,0.003626,
980,1570,0.397989,-1.818280,0.999997,0.000193,-0.002078,0.004477,0.000498,0.004515,-0.002115,85.679752,0.004518,
1890,1660,-1.263847,-2.027522,0.999998,0.000164,-0.002386,0.004939,-0.000068,0.004940,-0.002387,-89.467169,0.004941,
1790,1140,-1.843837,-4.507789,0.999998,0.000178,-0.002279,0.004771,0.000319,0.004785,-0.002293,87.414175,0.004787,
810,1240,1.326525,-3.901414,0.999998,0.000211,-0.002923,0.005638,-0.000554,0.005674,-0.002958,-86.314026,0.005676,
1050,1140,0.841190,-3.920344,0.999997,0.000185,-0.003190,0.007005,0.001922,0.007355,-0.003540,79.669947,0.007357,
1640,1550,-0.790486,-2.177908,0.999998,0.000159,-0.002594,0.005111,-0.000232,0.005118,-0.002601,-88.278110,0.005118,
1370,1440,-0.204271,-2.157239,0.999998,0.000173,-0.001935,0.003915,-0.001067,0.004104,-0.002124,-79.977708,0.004105,
1480,990,-1.271306,-5.306027,0.999997,0.000212,-0.002242,0.007076,-0.000188,0.007080,-0.002246,-88.846566,0.007236,
1260,1680,-0.032467,-1.177769,0.999998,0.000158,-0.001123,0.003545,-0.000095,0.003547,-0.001125,-88.830983,0.003625,
1240,810,-0.017306,-7.726136,0.999998,0.000174,-0.001917,0.001065,0.000213,0.001080,-0.001932,85.934238,0.001936,
1580,910,-1.331662,-5.696252,0.999998,0.000185,-0.002611,0.005825,-0.000709,0.005884,-0.002670,-85.231290,0.005892,
1360,1570,-0.172438,-1.639260,0.999998,0.000149,-0.001507,0.003811,-0.000481,0.003855,-0.001551,-84.871120,0.003879,
1780,870,-1.759770,-5.796776,0.999998,0.000174,-0.002404,0.004982,-0.000457,0.005010,-0.002432,-86.470762,0.005011,
1660,1170,-1.487145,-4.294589,0.999997,0.000254,-0.002551,0.005427,0.000644,0.005479,-0.002603,85.414575,0.005481,
1410,1200,-0.586969,-3.489819,0.999996,0.000236,-0.003696,0.006226,-0.001448,0.006433,-0.003903,-81.862441,0.006481,
1240,1630,-0.010098,-1.349989,0.999998,0.000166,-0.001193,0.003541,-0.000066,0.003542,-0.001193,-89.207001,0.003604,
770,1140,1.621738,-4.471869,0.999998,0.000208,-0.002380,0.005194,-0.000542,0.005232,-0.002419,-85.926979,0.005237,
1670,1420,-1.044310,-2.915165,0.999998,0.000170,-0.002884,0.005412,-0.000026,0.005412,-0.002884,-89.820957,0.005416,
920,390,0.447497,-8.608092,0.999997,0.000196,-0.001888,0.004524,-0.000168,0.004528,-0.001892,-88.502940,0.004549,
1110,1620,0.153891,-1.443399,0.999998,0.000161,-0.001371,0.003753,0.000295,0.003770,-0.001388,86.714589,0.003813,
1480,1050,-1.292998,-4.885531,0.999997,0.000198,-0.002164,0.007112,0.000151,0.007114,-0.002167,89.065752,0.007293,
1030,1140,0.905647,-4.056559,0.999997,0.000223,-0.003302,0.007386,0.000912,0.007463,-0.003379,85.156295,0.007474,
1660,1190,-1.449892,-4.185436,0.999998,0.000206,-0.002668,0.005509,0.000643,0.005559,-0.002718,85.529738,0.005560,
1620,1550,-0.736850,-2.144282,0.999998,0.000181,-0.002561,0.005057,-0.000286,0.005068,-0.002571,-87.854877,0.005068,
1710,1560,-0.958266,-2.241415,0.999998,0.000193,-0.002587,0.005134,-0.000140,0.005136,-0.002589,-88.961056,0.005136,
1260,1660,-0.034188,-1.249752,0.999998,0.000165,-0.001168,0.003534,-0.000142,0.003538,-0.001172,-88.275576,0.003605,
1690,940,-1.644013,-5.482130,0.999997,0.000247,-0.002263,0.005108,-0.000452,0.005136,-0.002291,-86.502319,0.005146,
1360,1550,-0.175092,-1.715374,0.999998,0.000171,-0.001582,0.003827,-0.000602,0.003893,-0.001648,-83.724560,0.003908,
1520,1230,-0.915977,-3.755948,0.999999,0.000142,-0.003637,0.006471,0.000095,0.006472,-0.003637,89.460727,0.006488,
1050,1500,0.280074,-2.002192,0.999998,0.000181,-0.002081,0.004231,0.000849,0.004343,-0.002193,82.473126,0.004343,
750,1140,1.668246,-4.478223,0.999997,0.000212,-0.002326,0.005087,-0.000496,0.005120,-0.002360,-86.187136,0.005125,
1440,350,-0.246578,-8.891028,0.999998,0.000160,-0.001463,0.003971,0.000145,0.003975,-0.001467,88.473874,0.004020,
950,420,0.416185,-8.510300,0.999997,0.000211,-0.001902,0.004471,-0.000292,0.004484,-0.001915,-87.377723,0.004500,
1760,870,-1.710763,-5.809461,0.999997,0.000208,-0.002468,0.005055,-0.000486,0.005086,-0.002499,-86.321910,0.005086,
1810,1540,-1.241854,-2.505741,0.999997,0.000215,-0.002536,0.005131,-0.000070,0.005131,-0.002537,-89.479214,0.005132,
1430,1200,-0.657001,-3.617643,0.999997,0.000207,-0.003787,0.006692,-0.001042,0.006794,-0.003890,-84.377468,0.006818,
660,1690,1.002722,-1.730498,0.999998,0.000144,-0.002462,0.005035,0.000017,0.005035,-0.002462,89.873741,0.005035,
750,1220,1.532419,-4.059377,0.999997,0.000210,-0.002627,0.005323,-0.000570,0.005363,-0.002668,-85.917711,0.005363,
1760,1550,-1.098087,-2.372512,0.999998,0.000181,-0.002610,0.005118,-0.000100,0.005120,-0.002612,-89.260600,0.005120,
1260,1640,-0.030928,-1.318794,0.999998,0.000173,-0.001192,0.003557,-0.000107,0.003560,-0.001195,-88.707078,0.003623,
990,1180,0.894260,-3.954599,0.999997,0.000214,-0.003670,0.006902,0.000070,0.006902,-0.003670,89.619500,0.006907,
1540,1290,-0.849858,-3.424126,0.999997,0.000173,-0.003584,0.006173,-0.000137,0.006174,-0.003586,-89.197937,0.006201,
1690,1560,-0.905195,-2.207531,0.999998,0.000151,-0.002572,0.005104,-0.000159,0.005108,-0.002576,-88.815278,0.005108,
1740,1530,-1.075045,-2.443320,0.999998,0.000167,-0.002584,0.005166,-0.000086,0.005167,-0.002585,-89.364953,0.005167,
750,1560,0.964016,-2.246159,0.999998,0.000167,-0.002562,0.005113,0.000150,0.005116,-0.002565,88.884457,0.005116,
580,1430,1.596696,-3.180365,0.999997,0.000207,-0.003718,0.005241,-0.000003,0.005241,-0.003718,-89.979974,0.005392,
930,420,0.453658,-8.482691,0.999997,0.000196,-0.002014,0.004574,-0.000272,0.004586,-0.002025,-87.637547,0.004596,
650,740,1.618116,-6.416796,0.999997,0.000176,-0.002541,0.005026,0.000310,0.005039,-0.002554,87.656548,0.005039,
1760,850,-1.680198,-5.911027,0.999997,0.000199,-0.002504,0.005026,-0.000486,0.005057,-0.002535,-86.324766,0.005057,
980,470,0.390053,-8.328054,0.999998,0.000173,-0.002006,0.004460,-0.000450,0.004491,-0.002037,-86.040028,0.004497,
640,1690,1.052168,-1.764018,0.999998,0.000181,-0.002443,0.005037,0.000017,0.005037,-0.002443,89.867074,0.005038,
1160,1630,0.085022,-1.368395,0.999998,0.000154,-0.001217,0.003613,0.000201,0.003621,-0.001225,87.621049,0.003684,
1840,670,-1.563288,-6.735300,0.999998,0.000195,-0.002536,0.005055,-0.000141,0.005057,-0.002539,-88.938553,0.005057,
1260,1620,-0.035271,-1.391798,0.999998,0.000168,-0.001209,0.003562,-0.000104,0.003564,-0.001212,-88.752010,0.003625,
590,1700,1.157528,-1.801890,0.999999,0.000159,-0.002428,0.004947,0.000053,0.004948,-0.002428,89.588506,0.004948,
1800,1550,-1.201659,-2.437355,0.999998,0.000209,-0.002527,0.005133,-0.000076,0.005133,-0.002527,-89.431697,0.005134,
1740,1550,-1.048840,-2.341823,0.999998,0.000162,-0.002532,0.005121,-0.000104,0.005123,-0.002534,-89.222232,0.005123,
1020,1370,0.404882,-2.676802,0.999997,0.000223,-0.003020,0.005091,0.001244,0.005278,-0.003207,81.477004,0.005318,
1730,1420,-1.215102,-3.005796,0.999998,0.000158,-0.002755,0.005277,0.000075,0.005277,-0.002756,89.462076,0.005279,
1790,1220,-1.728074,-4.115768,0.999998,0.000184,-0.002413,0.004936,0.000405,0.004958,-0.002435,86.852281,0.004958,
1360,1430,-0.185758,-2.175535,0.999998,0.000184,-0.001892,0.003801,-0.001114,0.004011,-0.002102,-79.310783,0.004013,
630,740,1.668411,-6.391601,0.999997,0.000195,-0.002491,0.004950,0.000246,0.004958,-0.002499,88.107406,0.004958,
980,450,0.378360,-8.416247,0.999997,0.000213,-0.001962,0.004425,-0.000405,0.004450,-0.001988,-86.384877,0.004459,
1500,410,-0.384668,-8.570540,0.999998,0.000193,-0.001898,0.004447,0.000286,0.004460,-0.001911,87.423570,0.004475,
970,1580,0.413313,-1.788981,0.999997,0.000180,-0.002087,0.004486,0.000451,0.004517,-0.002118,86.090929,0.004520,
1260,1600,-0.034183,-1.463287,0.999999,0.000148,-0.001223,0.003492,-0.000142,0.003496,-0.001227,-88.279234,0.003548,
580,1700,1.181516,-1.819475,0.999998,0.000161,-0.002269,0.004948,0.000043,0.004949,-0.002269,89.662091,0.004954,
1780,1550,-1.151804,-2.405443,0.999998,0.000185,-0.002595,0.005126,-0.000089,0.005127,-0.002596,-89.337649,0.005127,
950,1620,0.426089,-1.637584,0.999997,0.000195,-0.001958,0.004519,0.000318,0.004534,-0.001974,87.195133,0.004547,
1000,1370,0.467675,-2.740010,0.999996,0.000259,-0.003164,0.005308,0.001090,0.005446,-0.003302,82.785783,0.005487,
1770,1240,-1.644794,-3.998061,0.999998,0.000185,-0.002579,0.005082,0.000473,0.005111,-0.002608,86.479104,0.005111,
1360,1410,-0.184279,-2.248919,0.999998,0.000149,-0.001969,0.003804,-0.001228,0.004055,-0.002219,-78.480632,0.004061,
1580,1010,-1.481507,-5.136045,0.999998,0.000201,-0.001884,0.005429,-0.000192,0.005434,-0.001890,-88.498236,0.005518,
1440,430,-0.286822,-8.562516,0.999998,0.000178,-0.001651,0.004138,0.000338,0.004158,-0.001671,86.674203,0.004184,
1710,1420,-1.157803,-2.976956,0.999998,0.000161,-0.002827,0.005332,0.000055,0.005332,-0.002828,89.614238,0.005335,
920,490,0.534016,-8.138589,0.999998,0.000206,-0.002271,0.004777,-0.000393,0.004799,-0.002293,-86.815422,0.004801,
970,1600,0.400582,-1.700430,0.999998,0.000182,-0.001991,0.004456,0.000383,0.004479,-0.002013,86.612196,0.004487,
1360,1610,-0.165196,-1.487891,0.999998,0.000206,-0.001404,0.003817,-0.000318,0.003837,-0.001423,-86.532261,0.003879,
570,1700,1.204706,-1.834844,0.999969,0.000669,-0.002187,0.004955,0.000057,0.004955,-0.002188,89.543625,0.004967,
1000,1350,0.485257,-2.847081,0.999997,0.000225,-0.003299,0.005477,0.001095,0.005612,-0.003433,82.994540,0.005658,
970,1620,0.388344,-1.611171,0.999997,0.000186,-0.001945,0.004443,0.000348,0.004462,-0.001964,86.887929,0.004473,
1360,1510,-0.180285,-1.869308,0.999998,0.000157,-0.001724,0.003789,-0.000785,0.003899,-0.001833,-82.052977,0.003901,
1880,820,-1.915828,-5.945330,0.999998,0.000172,-0.002254,0.004596,-0.000134,0.004599,-0.002257,-88.880262,0.004599,
1630,1420,-0.926638,-2.847575,0.999998,0.000171,-0.002939,0.005482,-0.000155,0.005485,-0.002942,-88.944121,0.005489,
990,1600,0.361834,-1.671066,0.999998,0.000188,-0.001985,0.004406,0.000449,0.004438,-0.002016,86.004093,0.004444,
1370,1560,-0.189648,-1.690722,0.999998,0.000178,-0.001635,0.003906,-0.000607,0.003972,-0.001700,-83.819064,0.003985,
1220,1630,0.014278,-1.350447,0.999998,0.000178,-0.001171,0.003529,0.000090,0.003530,-0.001173,88.902596,0.003596,
1100,1310,0.209904,-2.652010,0.999996,0.000253,-0.002630,0.004105,0.001978,0.004643,-0.003168,74.788141,0.004744,
1360,1490,-0.180165,-1.945095,0.999998,0.000155,-0.001760,0.003789,-0.000849,0.003916,-0.001887,-81.494733,0.003917,
1900,2020,-0.138715,-0.126158,0.999997,0.000000,0.000577,0.007995,0.004517,0.010131,-0.001559,64.697019,0.010910,
1680,1550,-0.892015,-2.243084,0.999998,0.000168,-0.002581,0.005127,-0.000165,0.005130,-0.002584,-88.775233,0.005130,
1370,1520,-0.196714,-1.847908,0.999998,0.000170,-0.001769,0.003867,-0.000781,0.003973,-0.001875,-82.258327,0.003975,
1000,1550,0.367758,-1.876558,0.999997,0.000190,-0.002042,0.004441,0.000579,0.004492,-0.002094,84.935857,0.004495,
1370,1420,-0.203670,-2.235868,0.999998,0.000154,-0.002046,0.003919,-0.001218,0.004158,-0.002285,-78.892027,0.004165,
1370,1400,-0.205448,-2.314370,0.999997,0.000194,-0.002170,0.003975,-0.001336,0.004253,-0.002448,-78.249694,0.004269,
