Image X[Pixel],Image Y[Pixel],Horizontal Displacement U[Pixel],Vertical Displacement V[Pixel],Correlation Coefficient: R,Sigma,Strain-global frame: Exx,Strain-global frame: Eyy,Strain-global frame: Exy,Maximum Principal Strain: EI,Minimum Principal Strain: EII,Shear Angle Gamma,Von Mises Equivalent Strain,
1680,730,-0.618091,-3.312708,0.999998,0.000172,-0.001491,0.002782,-0.000158,0.002788,-0.001497,-87.889806,0.002791,
1190,1430,0.023549,-1.012525,0.999999,0.000137,-0.000630,0.001446,0.000235,0.001472,-0.000657,83.627927,0.001475,
1660,750,-0.608895,-3.270142,0.999998,0.000194,-0.001500,0.002823,-0.000180,0.002830,-0.001507,-87.624530,0.002832,
1190,1470,0.025065,-0.951660,0.999999,0.000154,-0.000629,0.001590,0.000172,0.001603,-0.000642,85.595198,0.001614,
1660,730,-0.587915,-3.325934,0.999998,0.000212,-0.001489,0.002820,-0.000137,0.002824,-0.001493,-88.180930,0.002826,
1230,410,0.001885,-4.391369,0.999998,0.000152,-0.000591,0.001800,-0.000006,0.001800,-0.000591,-89.856983,0.001835,
1750,1100,-0.898626,-2.343788,0.999998,0.000181,-0.001132,0.002485,0.000170,0.002493,-0.001140,87.311827,0.002496,
1230,390,0.000642,-4.428564,0.999998,0.000155,-0.000559,0.001768,-0.000016,0.001768,-0.000559,-89.601779,0.001807,
1730,1100,-0.875263,-2.341051,0.999998,0.000171,-0.001116,0.002534,0.000205,0.002546,-0.001127,86.797568,0.002551,
1230,370,0.001975,-4.463897,0.999998,0.000150,-0.000561,0.001756,0.000001,0.001756,-0.000561,89.984783,0.001794,
910,940,0.665302,-2.772020,0.999998,0.000177,-0.001183,0.002948,0.000358,0.002979,-0.001214,85.086514,0.002996,
1790,1610,-0.546013,-1.057323,0.999998,0.000162,-0.001243,0.002536,-0.000041,0.002536,-0.001243,-89.381076,0.002537,
1620,1900,-0.125264,-0.255380,0.999998,0.000163,-0.000516,0.002073,0.000354,0.002120,-0.000564,82.360380,0.002196,
570,130,0.327186,-4.677709,0.999948,0.000912,-0.000898,0.002744,0.000573,0.002832,-0.000986,81.271488,0.002875,
1210,580,0.013301,-4.101132,0.999999,0.000137,-0.000609,0.001537,-0.000108,0.001542,-0.000615,-87.135197,0.001553,
1150,1900,0.017719,-0.212150,0.999999,0.000122,-0.000193,0.001627,-0.000056,0.001629,-0.000195,-88.241749,0.001779,
1840,100,-0.205920,-4.822689,0.999998,0.000164,-0.001171,0.002641,-0.000499,0.002706,-0.001236,-82.663629,0.002709,
1540,1160,-0.591168,-2.121785,0.999998,0.000177,-0.001497,0.003147,0.000348,0.003172,-0.001522,85.740537,0.003173,
1710,790,-0.718851,-3.130680,0.999998,0.000181,-0.001400,0.002706,-0.000245,0.002721,-0.001415,-86.602262,0.002721,
800,1400,0.527491,-1.506289,0.999997,0.000189,-0.001475,0.002734,-0.000008,0.002734,-0.001475,-89.888466,0.002737,
1030,1440,0.170296,-1.155324,0.999998,0.000155,-0.001224,0.002273,0.000521,0.002349,-0.001300,81.698917,0.002353,
1000,660,0.222579,-3.736024,0.999998,0.000163,-0.001485,0.002568,-0.000517,0.002633,-0.001550,-82.839396,0.002647,
660,1630,0.547381,-1.016917,0.999998,0.000192,-0.001270,0.002522,0.000031,0.002522,-0.001270,89.534959,0.002522,
1310,1300,-0.050235,-1.229434,0.999998,0.000162,-0.000892,0.001325,-0.000901,0.001645,-0.001212,-70.447788,0.001705,
1790,660,-0.708720,-3.428647,0.999997,0.000204,-0.001302,0.002608,-0.000093,0.002610,-0.001304,-88.632932,0.002610,
1090,750,0.120329,-3.678741,0.999998,0.000180,-0.001396,0.002196,-0.000974,0.002444,-0.001644,-75.760587,0.002492,
1040,1280,0.215554,-1.542817,0.999998,0.000196,-0.001810,0.002827,0.000752,0.002946,-0.001929,81.010803,0.002993,
1710,660,-0.599886,-3.484744,0.999998,0.000200,-0.001416,0.002692,-0.000066,0.002693,-0.001417,-89.074315,0.002694,
1230,350,0.000571,-4.498268,0.999998,0.000168,-0.000543,0.001766,0.000025,0.001766,-0.000544,89.373069,0.001809,
1460,340,-0.134595,-4.456292,0.999998,0.000164,-0.000684,0.002022,0.000045,0.002023,-0.000685,89.053631,0.002058,
1140,740,0.058071,-3.808441,0.999998,0.000176,-0.000938,0.001514,-0.000907,0.001813,-0.001237,-71.754715,0.001853,
960,200,0.099150,-4.722873,0.999998,0.000177,-0.000563,0.001926,0.000144,0.001934,-0.000571,86.699579,0.001987,
850,50,0.028258,-4.987321,0.999999,0.000128,-0.000101,0.001766,0.000404,0.001850,-0.000184,78.302379,0.002038,
840,1800,0.215267,-0.474652,0.999998,0.000169,-0.000820,0.002251,-0.000188,0.002263,-0.000831,-86.500865,0.002289,
1190,1440,0.024295,-0.997889,0.999999,0.000147,-0.000629,0.001490,0.000224,0.001514,-0.000652,84.041573,0.001519,
590,580,0.751279,-3.571845,0.999998,0.000174,-0.001374,0.002505,-0.000045,0.002505,-0.001375,-89.335622,0.002509,
1000,1670,0.150109,-0.678111,0.999998,0.000144,-0.000765,0.002098,0.000091,0.002101,-0.000768,88.189395,0.002127,
1130,420,0.061642,-4.354017,0.999998,0.000162,-0.000635,0.001854,-0.000157,0.001864,-0.000645,-86.393908,0.001893,
910,1790,0.167656,-0.465095,0.999998,0.000155,-0.000675,0.002142,-0.000120,0.002147,-0.000680,-87.561126,0.002195,
620,880,0.961045,-2.852424,0.999998,0.000148,-0.001126,0.002320,0.000135,0.002326,-0.001131,87.759524,0.002326,
680,130,0.209642,-4.785088,0.999998,0.000153,-0.000900,0.002476,0.000588,0.002575,-0.001000,80.400712,0.002597,
1290,600,-0.037618,-4.057483,0.999999,0.000146,-0.000688,0.001598,0.000304,0.001637,-0.000727,82.559578,0.001641,
1420,1060,-0.550024,-2.337463,0.999995,0.000253,-0.002371,0.005471,-0.000851,0.005562,-0.002462,-83.880050,0.005574,
1330,2010,-0.004281,-0.037886,0.999999,0.000137,-0.000061,0.001548,0.000049,0.001549,-0.000063,88.245597,0.001754,
690,240,0.349472,-4.515816,0.999997,0.000226,-0.001175,0.002532,0.000160,0.002539,-0.001182,87.526291,0.002541,
1120,290,0.051364,-4.590461,0.999998,0.000186,-0.000506,0.001816,-0.000036,0.001817,-0.000506,-89.105603,0.001875,
1510,200,-0.101688,-4.720151,0.999998,0.000164,-0.000551,0.001959,-0.000155,0.001969,-0.000561,-86.484691,0.002028,
1250,1640,-0.009744,-0.659405,0.999999,0.000159,-0.000631,0.001786,-0.000041,0.001787,-0.000631,-89.027024,0.001812,
950,1960,0.040792,-0.125879,0.999999,0.000168,-0.000234,0.001741,-0.000225,0.001766,-0.000259,-83.582804,0.001907,
1240,1840,-0.002863,-0.308339,0.999998,0.000153,-0.000343,0.001705,-0.000012,0.001705,-0.000343,-89.663450,0.001804,
1410,1590,-0.126577,-0.812178,0.999999,0.000140,-0.000829,0.002029,-0.000241,0.002050,-0.000849,-85.211293,0.002059,
1710,600,-0.551868,-3.645121,0.999998,0.000174,-0.001394,0.002646,0.000003,0.002646,-0.001394,89.950682,0.002648,
1750,1190,-0.841071,-2.119476,0.999998,0.000165,-0.001239,0.002537,0.000256,0.002555,-0.001256,86.136684,0.002555,
1890,170,-0.394612,-4.577604,0.999998,0.000166,-0.001265,0.002554,-0.000155,0.002560,-0.001271,-87.685125,0.002560,
620,900,0.972284,-2.807190,0.999998,0.000149,-0.001093,0.002261,0.000118,0.002265,-0.001097,87.983795,0.002266,
1670,410,-0.373236,-4.164993,0.999998,0.000191,-0.001181,0.002491,0.000038,0.002491,-0.001181,89.400448,0.002492,
1360,1820,-0.046965,-0.354344,0.999998,0.000143,-0.000396,0.001780,0.000027,0.001780,-0.000396,89.282871,0.001869,
1500,780,-0.365764,-3.334010,0.999998,0.000200,-0.001870,0.003135,0.000220,0.003145,-0.001880,87.489322,0.003165,
1580,1560,-0.313312,-1.014261,0.999998,0.000171,-0.001240,0.002458,-0.000194,0.002469,-0.001250,-87.006605,0.002469,
980,450,0.188246,-4.207971,0.999998,0.000170,-0.001003,0.002214,-0.000205,0.002227,-0.001016,-86.364147,0.002230,
1510,30,-0.007611,-5.021868,0.999999,0.000000,-0.000097,0.001629,-0.000219,0.001657,-0.000124,-82.872569,0.001846,
1400,250,-0.067377,-4.652065,0.999998,0.000156,-0.000486,0.001832,-0.000039,0.001833,-0.000487,-89.044758,0.001898,
1600,1830,-0.173751,-0.398079,0.999998,0.000198,-0.000761,0.002178,0.000207,0.002193,-0.000775,85.991279,0.002224,
1440,1210,-0.332639,-1.799409,0.999998,0.000180,-0.001984,0.003356,-0.000453,0.003394,-0.002022,-85.189858,0.003414,
1260,1400,-0.015730,-1.050537,0.999999,0.000141,-0.000561,0.001321,-0.000188,0.001339,-0.000580,-84.347429,0.001343,
1310,1770,-0.032210,-0.433613,0.999998,0.000162,-0.000438,0.001788,-0.000014,0.001788,-0.000438,-89.647945,0.001864,
1850,840,-0.939198,-2.943188,0.999999,0.000118,-0.001184,0.002348,-0.000118,0.002352,-0.001188,-88.091200,0.002352,
1660,890,-0.748414,-2.879396,0.999998,0.000161,-0.001293,0.002695,-0.000311,0.002719,-0.001317,-85.563236,0.002719,
560,1210,1.001994,-2.140161,0.999998,0.000000,-0.001078,0.002207,0.000003,0.002207,-0.001078,89.941415,0.002207,
1650,1040,-0.809721,-2.487425,0.999997,0.000182,-0.000984,0.002599,0.000052,0.002600,-0.000985,89.167717,0.002625,
760,800,0.719964,-3.107223,0.999998,0.000161,-0.001372,0.002707,0.000273,0.002725,-0.001390,86.186126,0.002725,
1670,480,-0.418038,-3.989672,0.999997,0.000201,-0.001263,0.002533,0.000102,0.002535,-0.001266,88.462533,0.002535,
720,580,0.582170,-3.672054,0.999997,0.000183,-0.001376,0.002618,-0.000032,0.002618,-0.001376,-89.542565,0.002620,
870,1220,0.594259,-1.974347,0.999997,0.000176,-0.001571,0.002991,-0.000270,0.003007,-0.001587,-86.618257,0.003008,
1540,1140,-0.621785,-2.185480,0.999998,0.000178,-0.001375,0.003121,0.000348,0.003147,-0.001401,85.600421,0.003154,
1210,1900,0.006094,-0.209792,0.999999,0.000121,-0.000218,0.001627,-0.000017,0.001627,-0.000218,-89.474345,0.001766,
980,1900,0.062375,-0.228322,0.999998,0.000161,-0.000355,0.001837,-0.000182,0.001852,-0.000370,-85.283844,0.001960,
1790,1590,-0.559894,-1.107587,0.999998,0.000171,-0.001269,0.002513,-0.000042,0.002513,-0.001270,-89.358498,0.002514,
1840,80,-0.159927,-4.873602,0.999998,0.000160,-0.001144,0.002736,-0.000628,0.002835,-0.001243,-81.028135,0.002842,
1630,170,-0.146283,-4.750526,0.999998,0.000142,-0.000557,0.002131,-0.000380,0.002184,-0.000610,-82.100459,0.002254,
1780,1050,-0.944523,-2.465701,0.999998,0.000162,-0.001076,0.002407,0.000073,0.002408,-0.001077,88.796354,0.002413,
1320,1390,-0.055815,-1.109862,0.999999,0.000144,-0.000814,0.001604,-0.000584,0.001738,-0.000948,-77.100149,0.001740,
640,1630,0.572865,-1.033599,0.999998,0.000181,-0.001252,0.002519,0.000033,0.002519,-0.001252,89.492501,0.002519,
790,590,0.493136,-3.701944,0.999996,0.000203,-0.001383,0.002636,-0.000063,0.002637,-0.001384,-89.098185,0.002638,
1030,370,0.123275,-4.407994,0.999998,0.000186,-0.000763,0.002048,-0.000096,0.002051,-0.000767,-88.052677,0.002073,
1730,1580,-0.491373,-1.085367,0.999998,0.000177,-0.001281,0.002557,-0.000066,0.002558,-0.001282,-89.017972,0.002558,
1710,990,-0.865761,-2.613449,0.999998,0.000165,-0.001058,0.002491,-0.000065,0.002492,-0.001059,-88.954446,0.002502,
1230,330,0.000097,-4.533293,0.999998,0.000150,-0.000515,0.001745,0.000015,0.001745,-0.000515,89.624952,0.001793,
790,1100,0.812348,-2.335463,0.999998,0.000157,-0.001097,0.002591,-0.000240,0.002606,-0.001113,-86.292122,0.002615,
1090,770,0.128927,-3.635864,0.999998,0.000177,-0.001483,0.002261,-0.001034,0.002528,-0.001750,-75.547635,0.002589,
1040,1320,0.192203,-1.434465,0.999998,0.000185,-0.001621,0.002628,0.000764,0.002762,-0.001755,80.113619,0.002795,
1460,320,-0.126174,-4.498431,0.999998,0.000161,-0.000651,0.002043,0.000002,0.002043,-0.000651,89.963908,0.002087,
1140,720,0.059975,-3.838400,0.999998,0.000150,-0.000884,0.001542,-0.000807,0.001786,-0.001128,-73.188169,0.001806,
870,1350,0.461067,-1.588652,0.999997,0.000198,-0.001616,0.002878,0.000050,0.002879,-0.001617,89.361311,0.002886,
930,160,0.087451,-4.792445,0.999999,0.000124,-0.000418,0.001919,0.000253,0.001946,-0.000445,83.893628,0.002039,
900,1080,0.710661,-2.372053,0.999998,0.000195,-0.001012,0.002858,-0.000243,0.002873,-0.001028,-86.421784,0.002912,
1770,660,-0.683811,-3.442249,0.999998,0.000177,-0.001341,0.002624,-0.000088,0.002626,-0.001343,-88.728016,0.002626,
940,1500,0.266245,-1.110637,0.999998,0.000174,-0.001265,0.002494,0.000284,0.002516,-0.001286,85.709112,0.002516,
560,1200,1.009134,-2.161809,0.999999,0.000000,-0.001043,0.002207,-0.000003,0.002207,-0.001043,-89.939859,0.002208,
850,40,0.019989,-5.004463,0.999999,0.000125,-0.000053,0.001738,0.000415,0.001830,-0.000144,77.570617,0.002035,
670,640,0.695389,-3.477388,0.999997,0.000198,-0.001309,0.002590,0.000061,0.002591,-0.001310,89.107140,0.002591,
1150,1380,0.049682,-1.117198,0.999999,0.000145,-0.000759,0.001544,0.000584,0.001684,-0.000899,76.551306,0.001685,
1500,610,-0.258974,-3.814831,0.999998,0.000160,-0.001406,0.002543,0.000396,0.002582,-0.001446,84.331025,0.002588,
620,860,0.946181,-2.898990,0.999999,0.000128,-0.001146,0.002379,0.000143,0.002385,-0.001152,87.677306,0.002386,
790,570,0.479372,-3.754469,0.999997,0.000187,-0.001367,0.002645,-0.000068,0.002646,-0.001368,-89.026306,0.002646,
1060,1710,0.095479,-0.567271,0.999998,0.000152,-0.000669,0.001936,0.000089,0.001939,-0.000672,88.036778,0.001969,
760,510,0.480187,-3.886217,0.999999,0.000138,-0.001326,0.002572,-0.000069,0.002573,-0.001327,-88.988523,0.002574,
1370,1960,-0.016446,-0.116822,0.999998,0.000163,-0.000115,0.001613,0.000088,0.001618,-0.000119,87.095647,0.001803,
1370,420,-0.086115,-4.339693,0.999998,0.000152,-0.000690,0.001928,0.000140,0.001935,-0.000697,86.937748,0.001961,
1570,980,-0.719550,-2.651250,0.999998,0.000183,-0.000992,0.002799,-0.000232,0.002814,-0.001007,-86.507084,0.002851,
1400,230,-0.062223,-4.689278,0.999998,0.000164,-0.000437,0.001827,-0.000067,0.001829,-0.000439,-88.308722,0.001909,
1890,160,-0.379845,-4.602885,0.999998,0.000186,-0.001265,0.002567,-0.000184,0.002575,-0.001274,-87.259963,0.002575,
1580,1540,-0.323190,-1.062437,0.999998,0.000176,-0.001267,0.002518,-0.000172,0.002525,-0.001274,-87.396491,0.002525,
1500,760,-0.344978,-3.397841,0.999998,0.000188,-0.001821,0.003075,0.000280,0.003091,-0.001837,86.740037,0.003109,
730,1460,0.578896,-1.400190,0.999997,0.000212,-0.001360,0.002611,-0.000003,0.002611,-0.001360,-89.952870,0.002612,
1360,1800,-0.053490,-0.390364,0.999998,0.000151,-0.000420,0.001771,0.000015,0.001771,-0.000420,89.616027,0.001851,
660,1260,0.844351,-1.964767,0.999998,0.000157,-0.001247,0.002518,-0.000199,0.002528,-0.001257,-86.985128,0.002528,
1410,1570,-0.126609,-0.854830,0.999998,0.000150,-0.000862,0.002064,-0.000268,0.002089,-0.000887,-84.802283,0.002097,
1080,1770,0.068896,-0.449749,0.999998,0.000160,-0.000492,0.001854,-0.000023,0.001854,-0.000493,-89.441269,0.001921,
1010,1160,0.447430,-2.006623,0.999998,0.000172,-0.001782,0.003531,0.000118,0.003534,-0.001784,88.730028,0.003534,
1750,1390,-0.659072,-1.596612,0.999998,0.000201,-0.001364,0.002650,0.000085,0.002652,-0.001366,88.780922,0.002653,
1670,390,-0.361241,-4.215628,0.999998,0.000193,-0.001175,0.002487,0.000043,0.002487,-0.001176,89.325458,0.002488,
740,750,0.698670,-3.232887,0.999998,0.000168,-0.001395,0.002668,0.000195,0.002678,-0.001404,87.257063,0.002679,
1790,1790,-0.396602,-0.602286,0.999997,0.000224,-0.001199,0.002530,0.000143,0.002535,-0.001205,87.812422,0.002536,
980,1880,0.073900,-0.265571,0.999998,0.000155,-0.000416,0.001846,-0.000162,0.001857,-0.000428,-85.918145,0.001945,
1650,1650,-0.347388,-0.846896,0.999998,0.000179,-0.001146,0.002469,-0.000039,0.002470,-0.001146,-89.384594,0.002472,
1840,60,-0.114051,-4.932271,0.999998,0.000166,-0.001074,0.002579,-0.000691,0.002705,-0.001200,-79.638529,0.002711,
1540,1120,-0.644520,-2.246800,0.999998,0.000186,-0.001255,0.003059,0.000344,0.003087,-0.001282,85.468155,0.003101,
1190,1900,0.009275,-0.210239,0.999998,0.000148,-0.000228,0.001641,-0.000039,0.001642,-0.000229,-88.812408,0.001778,
760,1000,0.860466,-2.589697,0.999998,0.000154,-0.001045,0.002486,0.000093,0.002489,-0.001047,88.486497,0.002499,
1230,310,0.000218,-4.568501,0.999999,0.000144,-0.000483,0.001758,0.000003,0.001758,-0.000483,89.933957,0.001817,
750,130,0.152328,-4.813196,0.999998,0.000138,-0.000529,0.002245,0.000574,0.002359,-0.000643,78.762871,0.002439,
1710,1080,-0.863154,-2.390034,0.999998,0.000161,-0.001096,0.002506,0.000124,0.002510,-0.001100,88.028421,0.002517,
1770,1880,-0.265289,-0.359433,0.999998,0.000152,-0.001074,0.002492,0.000363,0.002529,-0.001110,84.253579,0.002535,
1310,1750,-0.034779,-0.467086,0.999998,0.000142,-0.000484,0.001775,-0.000035,0.001776,-0.000484,-89.102277,0.001836,
1180,350,0.027110,-4.492516,0.999998,0.000144,-0.000477,0.001770,-0.000036,0.001771,-0.000477,-89.083455,0.001833,
1330,1580,-0.065398,-0.784841,0.999999,0.000126,-0.000711,0.001836,-0.000194,0.001850,-0.000726,-85.675554,0.001864,
830,950,0.765624,-2.723731,0.999998,0.000174,-0.001111,0.002660,0.000263,0.002678,-0.001129,86.036848,0.002689,
1030,350,0.117087,-4.448523,0.999998,0.000187,-0.000736,0.001968,-0.000103,0.001972,-0.000740,-87.818889,0.001993,
600,1290,0.892578,-1.927180,0.999999,0.000134,-0.001190,0.002459,-0.000084,0.002460,-0.001192,-88.677207,0.002461,
1600,1430,-0.412060,-1.369259,0.999998,0.000151,-0.001493,0.002744,-0.000162,0.002750,-0.001499,-87.814199,0.002754,
1120,1680,0.064268,-0.606173,0.999998,0.000161,-0.000634,0.001898,0.000105,0.001902,-0.000638,87.638348,0.001936,
1170,1950,0.006978,-0.130340,0.999999,0.000162,-0.000112,0.001575,-0.000037,0.001576,-0.000113,-88.745304,0.001758,
1430,990,-0.569914,-2.707514,0.999998,0.000187,-0.001905,0.004887,0.000514,0.004926,-0.001943,85.695165,0.004962,
650,1080,0.973903,-2.398038,0.999998,0.000167,-0.001084,0.002293,-0.000055,0.002294,-0.001085,-89.070516,0.002295,
1700,160,-0.183969,-4.749889,0.999998,0.000163,-0.000714,0.002291,-0.000459,0.002360,-0.000782,-81.499865,0.002404,
900,1060,0.722020,-2.429102,0.999998,0.000207,-0.000969,0.002809,-0.000162,0.002816,-0.000976,-87.546533,0.002859,
560,1300,0.936292,-1.931567,0.999993,0.000000,-0.001381,0.002257,0.000042,0.002258,-0.001381,89.332185,0.002277,
1540,40,-0.014165,-5.005423,0.999999,0.000137,0.000001,0.001632,-0.000275,0.001677,-0.000044,-80.689091,0.001912,
790,550,0.465067,-3.806166,0.999998,0.000179,-0.001354,0.002629,-0.000070,0.002630,-0.001355,-88.988137,0.002630,
1490,1640,-0.184004,-0.759664,0.999998,0.000170,-0.000946,0.002216,-0.000139,0.002222,-0.000952,-87.494818,0.002229,
1270,660,-0.021769,-3.979740,0.999999,0.000138,-0.000606,0.001337,0.000288,0.001379,-0.000648,81.750989,0.001380,
690,220,0.326021,-4.564503,0.999998,0.000187,-0.001145,0.002499,0.000228,0.002514,-0.001159,86.440909,0.002516,
940,1480,0.275594,-1.163002,0.999998,0.000164,-0.001333,0.002535,0.000305,0.002559,-0.001356,85.513826,0.002560,
1070,1730,0.083895,-0.526513,0.999998,0.000155,-0.000595,0.001913,0.000019,0.001913,-0.000596,89.568990,0.001958,
740,510,0.505446,-3.870491,0.999998,0.000163,-0.001293,0.002557,-0.000065,0.002558,-0.001294,-89.027975,0.002558,
620,840,0.932244,-2.947223,0.999999,0.000128,-0.001163,0.002370,0.000148,0.002377,-0.001169,87.604660,0.002377,
870,1370,0.445109,-1.530781,0.999997,0.000196,-0.001585,0.002866,0.000079,0.002868,-0.001587,88.981592,0.002873,
1500,590,-0.251604,-3.866127,0.999998,0.000170,-0.001330,0.002484,0.000373,0.002520,-0.001366,84.467770,0.002523,
1350,1960,-0.013267,-0.116550,0.999999,0.000122,-0.000118,0.001600,0.000070,0.001603,-0.000120,87.681917,0.001786,
980,1860,0.085809,-0.302315,0.999998,0.000153,-0.000455,0.001889,-0.000122,0.001895,-0.000462,-87.018182,0.001976,
1500,2020,-0.006609,-0.027573,0.999999,0.000000,-0.000142,0.001557,0.000216,0.001584,-0.000169,82.867300,0.001740,
1460,300,-0.119411,-4.537106,0.999998,0.000159,-0.000620,0.002003,-0.000016,0.002003,-0.000620,-89.655151,0.002051,
990,1160,0.483092,-2.045149,0.999998,0.000170,-0.001746,0.003487,-0.000037,0.003487,-0.001746,-89.595237,0.003487,
1170,1900,0.014240,-0.210594,0.999998,0.000160,-0.000203,0.001643,-0.000035,0.001643,-0.000204,-88.906134,0.001792,
1000,1370,0.233125,-1.368762,0.999998,0.000179,-0.001574,0.002644,0.000559,0.002716,-0.001647,82.581012,0.002737,
650,640,0.722765,-3.464587,0.999998,0.000197,-0.001306,0.002558,0.000063,0.002559,-0.001307,89.061253,0.002559,
1500,740,-0.329944,-3.457813,0.999997,0.000183,-0.001789,0.002975,0.000328,0.002998,-0.001811,86.083942,0.003019,
1820,1320,-0.814422,-1.824553,0.999998,0.000146,-0.001270,0.002513,0.000128,0.002518,-0.001275,88.070892,0.002518,
1840,260,-0.451294,-4.407363,0.999997,0.000215,-0.001220,0.002523,-0.000031,0.002524,-0.001220,-89.522035,0.002524,
1650,1670,-0.332535,-0.797527,0.999998,0.000185,-0.001159,0.002449,-0.000024,0.002450,-0.001160,-89.625505,0.002451,
1040,1710,0.108825,-0.577406,0.999998,0.000186,-0.000720,0.001963,0.000105,0.001967,-0.000724,87.753242,0.001990,
1550,980,-0.699253,-2.655695,0.999998,0.000180,-0.000970,0.002906,-0.000235,0.002920,-0.000984,-86.542494,0.002971,
1270,220,-0.012767,-4.722154,0.999999,0.000143,-0.000307,0.001692,-0.000004,0.001692,-0.000307,-89.888027,0.001802,
1580,1170,-0.636396,-2.116804,0.999998,0.000180,-0.001432,0.003002,0.000363,0.003032,-0.001461,85.353794,0.003032,
1580,1520,-0.333218,-1.113920,0.999998,0.000176,-0.001297,0.002560,-0.000181,0.002568,-0.001306,-87.312191,0.002568,
850,160,0.128076,-4.774904,0.999998,0.000168,-0.000547,0.002087,0.000344,0.002131,-0.000591,82.679587,0.002201,
1890,150,-0.363516,-4.628120,0.999997,0.000202,-0.001252,0.002618,-0.000257,0.002634,-0.001269,-86.219942,0.002635,
1260,1380,-0.014728,-1.074452,0.999998,0.000146,-0.000555,0.001250,-0.000234,0.001280,-0.000585,-82.743993,0.001281,
1410,1550,-0.129722,-0.893410,0.999998,0.000142,-0.000908,0.002054,-0.000277,0.002079,-0.000934,-84.709208,0.002083,
1540,1100,-0.670074,-2.309524,0.999998,0.000180,-0.001141,0.002997,0.000312,0.003020,-0.001164,85.712412,0.003047,
1850,820,-0.923489,-2.990264,0.999999,0.000135,-0.001180,0.002338,-0.000127,0.002343,-0.001185,-87.938061,0.002343,
1480,1830,-0.098531,-0.358657,0.999999,0.000145,-0.000512,0.001918,0.000099,0.001922,-0.000516,87.661127,0.001989,
750,1460,0.552181,-1.384252,0.999998,0.000182,-0.001352,0.002637,0.000019,0.002637,-0.001352,89.733412,0.002637,
660,1300,0.810441,-1.864217,0.999999,0.000147,-0.001256,0.002515,-0.000151,0.002521,-0.001262,-87.712893,0.002521,
1360,1780,-0.056402,-0.424808,0.999998,0.000164,-0.000443,0.001833,0.000009,0.001833,-0.000443,89.781773,0.001912,
740,730,0.680319,-3.286585,0.999998,0.000214,-0.001393,0.002691,0.000185,0.002699,-0.001401,87.414894,0.002700,
1230,290,0.001063,-4.602937,0.999999,0.000139,-0.000454,0.001752,0.000003,0.001752,-0.000454,89.925520,0.001818,
1060,1770,0.080537,-0.453695,0.999999,0.000130,-0.000572,0.001888,-0.000013,0.001888,-0.000572,-89.700701,0.001936,
1230,420,0.001304,-4.373589,0.999998,0.000150,-0.000602,0.001791,-0.000011,0.001791,-0.000602,-89.734744,0.001822,
830,990,0.786666,-2.618050,0.999998,0.000176,-0.001014,0.002623,0.000142,0.002629,-0.001019,87.773888,0.002651,
1030,330,0.113456,-4.486910,0.999998,0.000159,-0.000703,0.002003,-0.000047,0.002004,-0.000704,-89.009620,0.002034,
1410,950,-0.479487,-2.959240,0.999997,0.000233,-0.001841,0.004269,0.001517,0.004625,-0.002197,76.791754,0.004627,
1170,1930,0.011642,-0.162809,0.999999,0.000158,-0.000153,0.001607,-0.000047,0.001609,-0.000154,-88.459618,0.001775,
1720,1610,-0.457952,-1.001647,0.999998,0.000160,-0.001255,0.002519,-0.000058,0.002520,-0.001256,-89.117011,0.002520,
1160,350,0.036492,-4.490639,0.999999,0.000135,-0.000531,0.001799,-0.000011,0.001799,-0.000531,-89.730452,0.001849,
1580,1430,-0.381779,-1.349259,0.999997,0.000181,-0.001491,0.002729,-0.000200,0.002739,-0.001500,-87.289400,0.002743,
1310,1730,-0.037794,-0.505048,0.999998,0.000159,-0.000527,0.001801,-0.000041,0.001802,-0.000527,-88.996712,0.001853,
1830,1060,-0.996097,-2.445659,0.999998,0.000186,-0.001065,0.002259,0.000064,0.002260,-0.001066,88.902673,0.002262,
1670,590,-0.488174,-3.704960,0.999998,0.000177,-0.001380,0.002677,0.000049,0.002678,-0.001381,89.308000,0.002678,
1700,140,-0.156921,-4.797033,0.999998,0.000167,-0.000627,0.002218,-0.000491,0.002300,-0.000709,-80.479868,0.002356,
750,150,0.178403,-4.771135,0.999998,0.000143,-0.000618,0.002281,0.000527,0.002374,-0.000711,80.006618,0.002437,
700,1660,0.475405,-0.909457,0.999998,0.000181,-0.001233,0.002526,0.000053,0.002527,-0.001234,89.195082,0.002527,
1770,1860,-0.291547,-0.410063,0.999998,0.000176,-0.001119,0.002488,0.000285,0.002510,-0.001141,85.502859,0.002514,
1510,240,-0.123955,-4.640922,0.999998,0.000162,-0.000655,0.002034,-0.000123,0.002040,-0.000660,-87.390774,0.002082,
1120,1660,0.065904,-0.644392,0.999998,0.000176,-0.000650,0.001866,0.000121,0.001872,-0.000656,87.256403,0.001900,
1860,1780,-0.489042,-0.691382,0.999997,0.000214,-0.001226,0.002459,0.000020,0.002459,-0.001226,89.695684,0.002459,
830,1100,0.768717,-2.328917,0.999998,0.000165,-0.001099,0.002679,-0.000246,0.002695,-0.001115,-86.290253,0.002709,
740,1290,0.714287,-1.847430,0.999998,0.000170,-0.001405,0.002679,-0.000234,0.002692,-0.001418,-86.737954,0.002694,
1740,520,-0.534891,-3.831655,0.999998,0.000168,-0.001313,0.002586,0.000040,0.002587,-0.001313,89.413514,0.002587,
900,1040,0.727402,-2.485744,0.999997,0.000205,-0.000919,0.002775,-0.000081,0.002777,-0.000921,-88.751499,0.002829,
1100,40,0.004607,-5.007328,0.999999,0.000130,-0.000034,0.001477,0.000082,0.001482,-0.000038,86.905311,0.001689,
1430,980,-0.557833,-2.753773,0.999997,0.000211,-0.001845,0.004631,0.000600,0.004686,-0.001900,84.752979,0.004714,
790,530,0.453564,-3.858992,0.999998,0.000178,-0.001327,0.002594,-0.000089,0.002596,-0.001329,-88.694348,0.002596,
910,1900,0.091367,-0.240883,0.999998,0.000152,-0.000393,0.001939,-0.000279,0.001972,-0.000426,-83.263283,0.002075,
980,1840,0.092776,-0.340856,0.999998,0.000154,-0.000508,0.001895,-0.000115,0.001900,-0.000514,-87.270674,0.001966,
1550,2020,-0.010415,-0.027628,0.999998,0.000000,0.000003,0.001587,0.000312,0.001646,-0.000056,79.233733,0.001870,
1650,1690,-0.320164,-0.746471,0.999998,0.000172,-0.001149,0.002415,-0.000013,0.002415,-0.001149,-89.784486,0.002416,
1820,1340,-0.796120,-1.772448,0.999998,0.000170,-0.001270,0.002516,0.000118,0.002519,-0.001273,88.223013,0.002519,
850,1220,0.625990,-1.986923,0.999997,0.000180,-0.001527,0.002935,-0.000273,0.002951,-0.001543,-86.512649,0.002952,
1070,1710,0.088564,-0.563403,0.999998,0.000154,-0.000634,0.001923,0.000052,0.001924,-0.000635,88.832456,0.001961,
600,290,0.509703,-4.309382,0.999998,0.000208,-0.001224,0.002467,0.000010,0.002467,-0.001224,89.852040,0.002467,
1000,1350,0.240961,-1.422532,0.999998,0.000207,-0.001655,0.002740,0.000560,0.002810,-0.001726,82.847378,0.002835,
940,1460,0.284220,-1.212462,0.999998,0.000170,-0.001378,0.002542,0.000322,0.002568,-0.001404,85.338861,0.002572,
1460,280,-0.110203,-4.577669,0.999998,0.000147,-0.000596,0.001982,-0.000050,0.001983,-0.000597,-88.898785,0.002035,
1250,220,-0.006583,-4.722965,0.999998,0.000206,-0.000348,0.001687,-0.000003,0.001687,-0.000348,-89.918151,0.001781,
1580,1500,-0.342597,-1.164373,0.999998,0.000187,-0.001329,0.002545,-0.000200,0.002555,-0.001339,-87.059530,0.002556,
1500,720,-0.312803,-3.516701,0.999998,0.000185,-0.001731,0.002914,0.000364,0.002942,-0.001760,85.546877,0.002961,
1540,1300,-0.414900,-1.681300,0.999997,0.000181,-0.001781,0.003076,-0.000108,0.003079,-0.001784,-88.722980,0.003092,
1560,1170,-0.606953,-2.104331,0.999997,0.000190,-0.001500,0.003056,0.000359,0.003084,-0.001528,85.519290,0.003084,
1230,270,0.000197,-4.638789,0.999998,0.000143,-0.000438,0.001745,-0.000008,0.001745,-0.000438,-89.788881,0.001816,
620,750,0.855357,-3.164957,0.999999,0.000138,-0.001226,0.002481,0.000114,0.002485,-0.001229,88.244886,0.002485,
1240,1880,-0.003930,-0.241834,0.999999,0.000130,-0.000269,0.001646,0.000008,0.001646,-0.000269,89.760397,0.001766,
1370,740,-0.113031,-3.708233,0.999998,0.000174,-0.001336,0.002134,0.000975,0.002389,-0.001592,75.331983,0.002433,
1330,300,-0.045098,-4.575962,0.999998,0.000146,-0.000505,0.001802,0.000052,0.001803,-0.000506,88.711598,0.001860,
680,110,0.174354,-4.835021,0.999998,0.000148,-0.000809,0.002423,0.000666,0.002555,-0.000941,78.799121,0.002584,
1450,940,-0.528520,-2.873721,0.999996,0.000215,-0.001521,0.003804,0.000137,0.003808,-0.001525,88.528612,0.003833,
990,1580,0.185887,-0.878783,0.999999,0.000137,-0.001030,0.002210,0.000257,0.002230,-0.001050,85.485350,0.002231,
820,1850,0.186241,-0.368767,0.999998,0.000151,-0.000728,0.002213,-0.000301,0.002243,-0.000759,-84.208266,0.002282,
1290,580,-0.037142,-4.089735,0.999999,0.000151,-0.000696,0.001624,0.000256,0.001652,-0.000724,83.776900,0.001656,
670,240,0.373429,-4.500273,0.999998,0.000203,-0.001153,0.002542,0.000182,0.002551,-0.001162,87.191802,0.002555,
1330,1640,-0.059273,-0.675778,0.999998,0.000159,-0.000663,0.001868,-0.000166,0.001879,-0.000674,-86.253671,0.001904,
1720,1010,-0.880002,-2.562098,0.999998,0.000146,-0.001045,0.002474,-0.000060,0.002475,-0.001046,-89.019325,0.002485,
1030,310,0.105306,-4.527703,0.999998,0.000167,-0.000647,0.001981,-0.000034,0.001982,-0.000647,-89.260533,0.002021,
860,680,0.455862,-3.514467,0.999997,0.000195,-0.001561,0.002817,-0.000074,0.002819,-0.001562,-89.036293,0.002824,
1310,1710,-0.039357,-0.541255,0.999998,0.000156,-0.000534,0.001828,-0.000046,0.001829,-0.000535,-88.880238,0.001881,
870,1330,0.477244,-1.646137,0.999997,0.000203,-0.001637,0.002933,-0.000005,0.002933,-0.001637,-89.939824,0.002940,
1240,1860,-0.003132,-0.273706,0.999998,0.000159,-0.000314,0.001652,-0.000014,0.001652,-0.000314,-89.592150,0.001755,
740,1830,0.278243,-0.452810,0.999997,0.000180,-0.000927,0.002443,-0.000295,0.002468,-0.000952,-85.039215,0.002490,
1450,1580,-0.163781,-0.861270,0.999999,0.000137,-0.000993,0.002176,-0.000275,0.002200,-0.001017,-85.074580,0.002202,
980,1820,0.104190,-0.379791,0.999998,0.000148,-0.000551,0.001969,-0.000098,0.001973,-0.000555,-87.777532,0.002034,
1820,1360,-0.777362,-1.721901,0.999998,0.000160,-0.001281,0.002549,0.000100,0.002552,-0.001284,88.505382,0.002552,
720,1290,0.741767,-1.858527,0.999998,0.000176,-0.001351,0.002633,-0.000224,0.002646,-0.001363,-86.798348,0.002646,
890,1900,0.100197,-0.244245,0.999998,0.000154,-0.000499,0.001983,-0.000294,0.002017,-0.000533,-83.328311,0.002090,
900,1020,0.727867,-2.539579,0.999998,0.000196,-0.000921,0.002788,0.000041,0.002789,-0.000922,89.365633,0.002841,
760,1870,0.214846,-0.348903,0.999998,0.000160,-0.000788,0.002313,-0.000401,0.002364,-0.000840,-82.743722,0.002397,
1220,30,0.001372,-5.023328,0.999999,0.000000,-0.000024,0.001474,-0.000007,0.001475,-0.000024,-89.736673,0.001689,
1510,220,-0.112907,-4.681495,0.999998,0.000159,-0.000600,0.001967,-0.000125,0.001973,-0.000607,-87.218118,0.002021,
950,50,0.018504,-4.990383,0.999999,0.000199,-0.000094,0.001626,0.000213,0.001652,-0.000120,83.048975,0.001842,
1740,560,-0.564152,-3.725997,0.999997,0.000196,-0.001360,0.002609,0.000027,0.002609,-0.001360,89.609939,0.002610,
700,1700,0.444484,-0.807852,0.999997,0.000186,-0.001206,0.002521,0.000002,0.002521,-0.001206,89.975803,0.002521,
1650,420,-0.356461,-4.155384,0.999998,0.000166,-0.001175,0.002472,0.000066,0.002474,-0.001176,88.961017,0.002474,
1570,1280,-0.487819,-1.774839,0.999997,0.000201,-0.001713,0.003029,0.000065,0.003030,-0.001714,89.218768,0.003039,
810,1100,0.790574,-2.333578,0.999999,0.000131,-0.001088,0.002636,-0.000232,0.002651,-0.001102,-86.447042,0.002663,
1850,900,-0.979864,-2.804347,0.999998,0.000152,-0.001079,0.002263,-0.000093,0.002266,-0.001082,-88.413630,0.002267,
1120,1640,0.067280,-0.681756,0.999998,0.000179,-0.000649,0.001871,0.000141,0.001879,-0.000657,86.807432,0.001907,
1170,1910,0.013367,-0.194551,0.999998,0.000149,-0.000184,0.001627,-0.000045,0.001628,-0.000185,-88.570938,0.001782,
1830,920,-0.970692,-2.765408,0.999998,0.000168,-0.001112,0.002325,-0.000130,0.002330,-0.001117,-87.843696,0.002331,
730,1410,0.619477,-1.532447,0.999998,0.000179,-0.001373,0.002647,-0.000053,0.002648,-0.001374,-89.238428,0.002649,
1680,1400,-0.552803,-1.519801,0.999997,0.000197,-0.001437,0.002737,0.000010,0.002737,-0.001437,89.866494,0.002738,
1530,490,-0.252214,-4.079049,0.999998,0.000151,-0.001195,0.002351,0.000236,0.002367,-0.001210,86.211107,0.002367,
940,1440,0.292848,-1.262831,0.999998,0.000174,-0.001412,0.002592,0.000316,0.002616,-0.001437,85.516501,0.002620,
1580,1700,-0.243129,-0.680575,0.999998,0.000166,-0.001028,0.002320,-0.000038,0.002321,-0.001028,-89.351745,0.002326,
1500,700,-0.302100,-3.575600,0.999998,0.000211,-0.001663,0.002872,0.000394,0.002906,-0.001697,85.072619,0.002919,
970,1220,0.419453,-1.873640,0.999998,0.000195,-0.001916,0.003325,0.000054,0.003326,-0.001917,89.405852,0.003339,
1070,1690,0.091838,-0.603506,0.999998,0.000159,-0.000666,0.001961,0.000079,0.001964,-0.000668,88.286020,0.001997,
590,290,0.522214,-4.299983,0.999998,0.000200,-0.001514,0.002412,0.000016,0.002412,-0.001514,89.768682,0.002438,
980,630,0.241029,-3.785078,0.999998,0.000174,-0.001449,0.002499,-0.000448,0.002549,-0.001499,-83.611201,0.002562,
1130,660,0.067774,-3.921766,0.999999,0.000123,-0.000871,0.001706,-0.000635,0.001854,-0.001019,-76.890524,0.001857,
1550,1640,-0.241918,-0.798196,0.999998,0.000153,-0.001062,0.002325,-0.000127,0.002329,-0.001067,-87.860525,0.002332,
860,660,0.440519,-3.570081,0.999997,0.000183,-0.001539,0.002808,-0.000112,0.002811,-0.001542,-88.531294,0.002815,
1030,290,0.100312,-4.566684,0.999998,0.000179,-0.000609,0.001937,-0.000005,0.001937,-0.000609,-89.883301,0.001981,
1350,740,-0.087798,-3.752073,0.999998,0.000207,-0.001190,0.001887,0.000979,0.002172,-0.001475,73.768177,0.002218,
650,610,0.699090,-3.541373,0.999998,0.000185,-0.001292,0.002585,0.000027,0.002585,-0.001292,89.594659,0.002585,
980,1330,0.288868,-1.512688,0.999997,0.000228,-0.001755,0.002897,0.000440,0.002938,-0.001796,84.647416,0.002962,
1510,780,-0.383965,-3.320454,0.999997,0.000194,-0.001865,0.003140,0.000170,0.003146,-0.001870,88.051799,0.003165,
800,1850,0.203003,-0.376706,0.999998,0.000147,-0.000848,0.002265,-0.000284,0.002291,-0.000874,-84.828987,0.002312,
1230,250,0.001175,-4.673830,0.999998,0.000161,-0.000397,0.001701,-0.000003,0.001701,-0.000397,-89.910588,0.001780,
1150,220,0.027052,-4.720578,0.999999,0.000123,-0.000347,0.001724,0.000025,0.001725,-0.000347,89.296588,0.001824,
1690,560,-0.495659,-3.767207,0.999998,0.000175,-0.001361,0.002627,0.000061,0.002627,-0.001362,89.117061,0.002628,
1480,1710,-0.149945,-0.602225,0.999998,0.000136,-0.000768,0.002056,-0.000061,0.002057,-0.000770,-88.762556,0.002079,
1500,410,-0.192038,-4.284071,0.999998,0.000166,-0.000946,0.002211,0.000147,0.002218,-0.000953,87.342516,0.002226,
1610,1270,-0.566401,-1.836948,0.999997,0.000203,-0.001598,0.002956,0.000188,0.002963,-0.001606,87.641388,0.002967,
1560,1150,-0.634183,-2.167296,0.999998,0.000176,-0.001367,0.003055,0.000355,0.003083,-0.001395,85.434991,0.003088,
600,750,0.880076,-3.150469,0.999999,0.000136,-0.001228,0.002484,0.000073,0.002485,-0.001229,88.873859,0.002485,
980,1800,0.112865,-0.419477,0.999998,0.000158,-0.000592,0.002012,-0.000063,0.002014,-0.000594,-88.610079,0.002070,
1430,1580,-0.143477,-0.846177,0.999999,0.000140,-0.000901,0.002123,-0.000258,0.002145,-0.000923,-85.158586,0.002152,
1420,1390,-0.165305,-1.254026,0.999998,0.000147,-0.001332,0.002330,-0.000662,0.002446,-0.001448,-80.065948,0.002460,
1340,2010,-0.005088,-0.038273,0.999999,0.000150,-0.000065,0.001552,0.000040,0.001553,-0.000066,88.570276,0.001756,
890,1880,0.115698,-0.283996,0.999998,0.000189,-0.000574,0.001994,-0.000264,0.002020,-0.000601,-84.197593,0.002075,
950,160,0.079893,-4.796257,0.999999,0.000128,-0.000432,0.001887,0.000211,0.001906,-0.000451,84.836328,0.001992,
1850,1090,-1.011132,-2.379982,0.999999,0.000142,-0.001057,0.002198,0.000041,0.002198,-0.001058,89.275362,0.002199,
1650,400,-0.342910,-4.205544,0.999998,0.000153,-0.001166,0.002478,0.000052,0.002479,-0.001167,89.175490,0.002480,
1180,50,0.003060,-4.994191,0.999999,0.000147,-0.000042,0.001514,0.000024,0.001514,-0.000042,89.129715,0.001725,
970,1200,0.450562,-1.939803,0.999998,0.000205,-0.001859,0.003366,-0.000042,0.003366,-0.001859,-89.539112,0.003373,
1170,1890,0.015261,-0.226957,0.999999,0.000138,-0.000230,0.001645,-0.000027,0.001645,-0.000230,-89.162025,0.001782,
1120,1620,0.070590,-0.718184,0.999998,0.000150,-0.000663,0.001848,0.000168,0.001860,-0.000674,86.193955,0.001883,
690,1010,0.937505,-2.562474,0.999998,0.000146,-0.001080,0.002410,0.000077,0.002412,-0.001081,88.736839,0.002416,
1410,1750,-0.087261,-0.493396,0.999998,0.000190,-0.000642,0.001911,-0.000041,0.001912,-0.000643,-89.079486,0.001946,
1530,470,-0.245234,-4.126032,0.999998,0.000158,-0.001168,0.002365,0.000206,0.002377,-0.001180,86.672782,0.002377,
1680,1380,-0.569123,-1.575866,0.999997,0.000206,-0.001457,0.002768,0.000040,0.002769,-0.001457,89.462769,0.002770,
1770,270,-0.378627,-4.442598,0.999997,0.000197,-0.001184,0.002518,-0.000113,0.002521,-0.001187,-88.254748,0.002522,
1570,850,-0.575845,-3.035358,0.999998,0.000176,-0.001574,0.003082,-0.000290,0.003100,-0.001592,-86.446343,0.003100,
940,1420,0.303044,-1.315159,0.999998,0.000178,-0.001474,0.002635,0.000318,0.002660,-0.001498,85.605353,0.002667,
1840,1930,-0.255741,-0.283946,0.999998,0.000155,-0.001190,0.002685,0.000342,0.002715,-0.001220,84.999941,0.002720,
1030,270,0.091558,-4.605904,0.999998,0.000159,-0.000585,0.001904,0.000013,0.001904,-0.000585,89.710175,0.001950,
1370,1640,-0.086465,-0.691429,0.999999,0.000141,-0.000697,0.001937,-0.000150,0.001946,-0.000705,-86.746288,0.001970,
1460,1830,-0.087843,-0.354769,0.999998,0.000189,-0.000453,0.001884,0.000118,0.001890,-0.000459,87.121146,0.001971,
840,730,0.530790,-3.353632,0.999997,0.000212,-0.001615,0.002881,0.000071,0.002882,-0.001616,89.095216,0.002889,
1340,1770,-0.049944,-0.439937,0.999998,0.000173,-0.000524,0.001853,-0.000020,0.001853,-0.000525,-89.522629,0.001911,
1230,230,0.000796,-4.706399,0.999998,0.000146,-0.000358,0.001687,-0.000007,0.001687,-0.000358,-89.810713,0.001777,
1060,1370,0.145502,-1.272856,0.999998,0.000157,-0.001353,0.002303,0.000756,0.002453,-0.001503,78.763943,0.002474,
970,900,0.525327,-2.947229,0.999998,0.000171,-0.001609,0.003400,0.000189,0.003407,-0.001616,87.845924,0.003409,
1610,1960,-0.066910,-0.134935,0.999999,0.000155,-0.000307,0.001874,0.000391,0.001942,-0.000375,80.139585,0.002060,
820,280,0.250233,-4.499164,0.999998,0.000199,-0.000902,0.002358,0.000147,0.002365,-0.000909,87.428508,0.002386,
1890,140,-0.345980,-4.654714,0.999998,0.000192,-0.001231,0.002678,-0.000347,0.002709,-0.001262,-84.961397,0.002711,
1130,220,0.034419,-4.717127,0.999999,0.000141,-0.000387,0.001742,0.000007,0.001743,-0.000387,89.825030,0.001830,
1490,780,-0.348493,-3.349564,0.999998,0.000215,-0.001870,0.003131,0.000286,0.003148,-0.001886,86.736946,0.003168,
610,210,0.407021,-4.522319,0.999997,0.000203,-0.001213,0.002536,0.000082,0.002538,-0.001215,88.742409,0.002539,
1460,480,-0.173758,-4.157791,0.999998,0.000139,-0.001004,0.002154,0.000283,0.002179,-0.001029,84.917372,0.002180,
1390,1580,-0.109665,-0.819996,0.999999,0.000145,-0.000856,0.002007,-0.000287,0.002036,-0.000885,-84.340674,0.002042,
1260,1360,-0.013659,-1.098037,0.999999,0.000140,-0.000548,0.001161,-0.000284,0.001207,-0.000594,-80.809906,0.001207,
860,640,0.425885,-3.627209,0.999997,0.000196,-0.001523,0.002755,-0.000109,0.002758,-0.001526,-88.537045,0.002763,
650,590,0.681807,-3.592733,0.999997,0.000196,-0.001294,0.002582,0.000017,0.002582,-0.001294,89.744396,0.002582,
1700,120,-0.132537,-4.840114,0.999998,0.000154,-0.000529,0.002183,-0.000572,0.002299,-0.000645,-78.568481,0.002371,
1850,1300,-0.868586,-1.892783,0.999998,0.000140,-0.001218,0.002465,0.000107,0.002468,-0.001221,88.334236,0.002468,
1240,1900,-0.002230,-0.210546,0.999999,0.000137,-0.000219,0.001627,0.000004,0.001627,-0.000219,89.882283,0.001766,
900,1000,0.724291,-2.596657,0.999998,0.000199,-0.000938,0.002793,0.000142,0.002799,-0.000944,87.826226,0.002848,
1220,860,0.049262,-3.848988,0.999982,0.000000,-0.003279,0.000123,0.000063,0.000124,-0.003280,88.942194,0.003718,
1460,1710,-0.135855,-0.594023,0.999998,0.000157,-0.000712,0.002012,-0.000054,0.002013,-0.000713,-88.855286,0.002042,
1730,1960,-0.109325,-0.151414,0.999999,0.000140,-0.000517,0.002103,0.000602,0.002235,-0.000648,77.663876,0.002300,
1310,1910,-0.014936,-0.193970,0.999999,0.000133,-0.000173,0.001650,0.000037,0.001651,-0.000174,88.853276,0.001814,
1100,870,0.243106,-3.440802,0.999998,0.000187,-0.001139,0.001920,-0.001134,0.002295,-0.001514,-71.726269,0.002333,
1170,1870,0.016788,-0.259804,0.999999,0.000152,-0.000261,0.001653,-0.000017,0.001653,-0.000261,-89.476998,0.001778,
1180,40,0.002863,-5.008806,0.999999,0.000135,-0.000036,0.001513,0.000009,0.001514,-0.000036,89.664135,0.001727,
1120,1600,0.071410,-0.755655,0.999998,0.000141,-0.000669,0.001855,0.000177,0.001868,-0.000682,86.012347,0.001890,
760,1030,0.866178,-2.513337,0.999998,0.000177,-0.001030,0.002487,-0.000006,0.002487,-0.001030,-89.900279,0.002500,
1860,1760,-0.510075,-0.738982,0.999998,0.000207,-0.001220,0.002470,0.000006,0.002471,-0.001220,89.901153,0.002471,
1510,100,-0.042603,-4.905681,0.999999,0.000149,-0.000259,0.001775,-0.000228,0.001800,-0.000285,-83.696958,0.001935,
1850,1070,-1.015998,-2.425203,0.999998,0.000162,-0.001037,0.002188,0.000034,0.002188,-0.001037,89.401266,0.002189,
980,1780,0.122984,-0.459574,0.999998,0.000165,-0.000637,0.002017,-0.000050,0.002018,-0.000638,-88.914037,0.002063,
780,650,0.552620,-3.532007,0.999997,0.000197,-0.001433,0.002738,0.000019,0.002738,-0.001433,89.740431,0.002739,
1510,280,-0.143759,-4.559044,0.999999,0.000132,-0.000756,0.002072,-0.000046,0.002073,-0.000757,-89.074615,0.002098,
1850,880,-0.969467,-2.849990,0.999998,0.000166,-0.001128,0.002286,-0.000111,0.002290,-0.001132,-88.145658,0.002290,
750,170,0.207239,-4.722216,0.999998,0.000163,-0.000721,0.002336,0.000468,0.002406,-0.000791,81.496705,0.002452,
1310,1900,-0.016107,-0.210593,0.999999,0.000141,-0.000184,0.001664,0.000046,0.001665,-0.000186,88.580003,0.001825,
940,1400,0.313292,-1.368593,0.999998,0.000181,-0.001530,0.002718,0.000325,0.002743,-0.001555,85.654556,0.002751,
950,900,0.556280,-2.923404,0.999997,0.000198,-0.001570,0.003268,0.000270,0.003283,-0.001585,86.820663,0.003283,
1610,1230,-0.610223,-1.956593,0.999998,0.000168,-0.001537,0.002962,0.000266,0.002978,-0.001553,86.631339,0.002978,
1190,220,0.014347,-4.722233,0.999999,0.000153,-0.000334,0.001697,-0.000006,0.001697,-0.000334,-89.816653,0.001797,
1030,250,0.086505,-4.642347,0.999998,0.000142,-0.000519,0.001901,0.000034,0.001902,-0.000519,89.206563,0.001966,
1230,210,0.001401,-4.740297,0.999998,0.000158,-0.000313,0.001674,-0.000001,0.001674,-0.000313,-89.964812,0.001779,
1770,250,-0.355566,-4.491925,0.999998,0.000190,-0.001166,0.002519,-0.000153,0.002525,-0.001173,-87.622768,0.002528,
1570,890,-0.628077,-2.913617,0.999998,0.000179,-0.001424,0.003025,-0.000349,0.003053,-0.001452,-85.536275,0.003054,
1530,450,-0.235404,-4.174724,0.999998,0.000163,-0.001101,0.002350,0.000181,0.002360,-0.001110,87.002395,0.002361,
570,190,0.421220,-4.514524,0.999906,0.001090,-0.000570,0.002673,-0.000103,0.002676,-0.000574,-88.176742,0.002818,
600,1410,0.789698,-1.626933,0.999998,0.000195,-0.001251,0.002526,-0.000036,0.002527,-0.001252,-89.454752,0.002527,
1260,1560,-0.018209,-0.801690,0.999998,0.000150,-0.000615,0.001748,-0.000097,0.001752,-0.000619,-87.652869,0.001777,
1550,1280,-0.451752,-1.753842,0.999997,0.000177,-0.001788,0.003067,-0.000016,0.003067,-0.001788,-89.812470,0.003081,
1590,1960,-0.059888,-0.132943,0.999999,0.000153,-0.000343,0.001844,0.000340,0.001896,-0.000395,81.360357,0.002001,
690,1940,0.174573,-0.214128,0.999998,0.000155,-0.000874,0.002409,-0.000635,0.002527,-0.000993,-79.426893,0.002546,
610,190,0.380706,-4.571315,0.999997,0.000199,-0.001214,0.002521,0.000153,0.002527,-0.001220,87.652306,0.002528,
1350,1640,-0.071901,-0.683259,0.999998,0.000186,-0.000659,0.001900,-0.000164,0.001910,-0.000670,-86.343515,0.001939,
820,260,0.234774,-4.545612,0.999998,0.000187,-0.000834,0.002306,0.000167,0.002315,-0.000843,86.963571,0.002344,
1540,1770,-0.168990,-0.503562,0.999998,0.000154,-0.000720,0.002159,0.000078,0.002161,-0.000723,88.459323,0.002201,
1830,1300,-0.843481,-1.880509,0.999999,0.000127,-0.001251,0.002477,0.000144,0.002483,-0.001257,87.787272,0.002483,
1680,1360,-0.586270,-1.630196,0.999997,0.000210,-0.001467,0.002765,0.000081,0.002767,-0.001469,88.904368,0.002769,
1350,550,-0.081243,-4.102609,0.999999,0.000125,-0.000824,0.001845,0.000354,0.001892,-0.000870,82.567088,0.001894,
690,990,0.933378,-2.607882,0.999998,0.000149,-0.001092,0.002373,0.000056,0.002374,-0.001093,89.074175,0.002377,
900,980,0.711779,-2.652703,0.999998,0.000199,-0.001005,0.002836,0.000240,0.002851,-0.001020,86.435426,0.002889,
1720,1800,-0.306432,-0.526389,0.999998,0.000173,-0.001005,0.002472,0.000230,0.002488,-0.001020,86.228030,0.002501,
820,1690,0.312405,-0.743032,0.999998,0.000157,-0.001073,0.002392,0.000007,0.002392,-0.001073,89.882878,0.002396,
1090,300,0.067920,-4.565279,0.999998,0.000154,-0.000487,0.001862,0.000008,0.001862,-0.000487,89.812736,0.001931,
1740,630,-0.616766,-3.542510,0.999997,0.000187,-0.001361,0.002641,-0.000029,0.002641,-0.001361,-89.588419,0.002641,
1900,720,-0.899444,-3.195831,0.999998,0.000000,-0.001212,0.002353,-0.000026,0.002353,-0.001212,-89.584334,0.002354,
1730,2000,-0.053754,-0.070290,0.999999,0.000143,-0.000235,0.002009,0.000710,0.002214,-0.000441,73.845704,0.002344,
1610,1250,-0.587668,-1.896965,0.999998,0.000189,-0.001567,0.002977,0.000221,0.002988,-0.001577,87.220487,0.002990,
830,300,0.257977,-4.456536,0.999997,0.000207,-0.000915,0.002333,0.000119,0.002337,-0.000919,87.897052,0.002355,
610,220,0.418681,-4.494841,0.999998,0.000192,-0.001214,0.002554,0.000081,0.002556,-0.001216,88.762883,0.002557,
650,570,0.666213,-3.645008,0.999998,0.000174,-0.001297,0.002540,-0.000018,0.002540,-0.001298,-89.729263,0.002540,
590,750,0.892716,-3.143714,0.999999,0.000151,-0.001244,0.002476,0.000055,0.002477,-0.001245,89.145707,0.002477,
1590,1060,-0.746400,-2.432268,0.999998,0.000188,-0.000950,0.002693,0.000142,0.002698,-0.000956,87.769248,0.002736,
1070,1670,0.096151,-0.641349,0.999998,0.000147,-0.000709,0.001957,0.000115,0.001962,-0.000714,87.540900,0.001986,
1480,1960,-0.033021,-0.122104,0.999999,0.000168,-0.000182,0.001699,0.000219,0.001724,-0.000207,83.450644,0.001883,
1860,1740,-0.530782,-0.788987,0.999998,0.000182,-0.001231,0.002512,-0.000010,0.002512,-0.001231,-89.854404,0.002512,
1360,1710,-0.068429,-0.555586,0.999998,0.000195,-0.000562,0.001862,-0.000055,0.001863,-0.000563,-88.710067,0.001911,
1070,50,0.008014,-4.992481,0.999999,0.000156,-0.000056,0.001552,0.000111,0.001559,-0.000064,86.061024,0.001765,
1590,240,-0.177821,-4.612304,0.999998,0.000167,-0.000783,0.002214,-0.000171,0.002224,-0.000792,-86.741032,0.002254,
860,620,0.411868,-3.683013,0.999998,0.000167,-0.001483,0.002710,-0.000136,0.002715,-0.001487,-88.147746,0.002719,
980,610,0.234703,-3.835863,0.999999,0.000157,-0.001346,0.002487,-0.000426,0.002534,-0.001392,-83.729569,0.002538,
980,1760,0.131254,-0.500280,0.999998,0.000170,-0.000683,0.002028,-0.000030,0.002028,-0.000683,-89.371226,0.002064,
1700,100,-0.104657,-4.884646,0.999999,0.000133,-0.000414,0.002075,-0.000574,0.002201,-0.000540,-77.627168,0.002294,
1850,1050,-1.018753,-2.469418,0.999998,0.000159,-0.001047,0.002217,0.000064,0.002218,-0.001048,88.869650,0.002219,
1510,260,-0.135291,-4.600672,0.999998,0.000166,-0.000718,0.002042,-0.000065,0.002043,-0.000719,-88.650042,0.002073,
1710,1020,-0.871659,-2.538967,0.999998,0.000178,-0.001053,0.002473,-0.000028,0.002473,-0.001053,-89.546425,0.002482,
1230,190,0.001163,-4.773920,0.999998,0.000157,-0.000295,0.001681,0.000011,0.001681,-0.000295,89.677932,0.001796,
940,1380,0.322944,-1.424710,0.999997,0.000194,-0.001595,0.002807,0.000323,0.002831,-0.001619,85.821937,0.002841,
1530,430,-0.226884,-4.222384,0.999998,0.000158,-0.001026,0.002295,0.000142,0.002301,-0.001032,87.559996,0.002305,
1030,230,0.075625,-4.681008,0.999998,0.000167,-0.000467,0.001891,0.000039,0.001892,-0.000468,89.050395,0.001971,
1170,220,0.020477,-4.721461,0.999998,0.000154,-0.000304,0.001708,0.000027,0.001708,-0.000304,89.218097,0.001823,
1130,1960,0.011477,-0.115714,0.999998,0.000169,-0.000144,0.001564,-0.000060,0.001566,-0.000146,-87.997869,0.001730,
1770,230,-0.335825,-4.542625,0.999997,0.000185,-0.001161,0.002502,-0.000197,0.002513,-0.001171,-86.932702,0.002515,
720,630,0.620710,-3.540691,0.999998,0.000182,-0.001365,0.002636,0.000041,0.002637,-0.001365,89.409359,0.002637,
1130,1900,0.022963,-0.211857,0.999999,0.000110,-0.000269,0.001613,-0.000081,0.001616,-0.000273,-87.548390,0.001730,
590,1410,0.803063,-1.635082,0.999998,0.000156,-0.001348,0.002539,-0.000053,0.002540,-0.001349,-89.224512,0.002541,
1780,1150,-0.905154,-2.226641,0.999999,0.000150,-0.001162,0.002404,0.000178,0.002413,-0.001170,87.155465,0.002413,
710,280,0.367699,-4.429859,0.999998,0.000197,-0.001180,0.002511,0.000101,0.002514,-0.001183,88.437877,0.002516,
1600,580,-0.384201,-3.792256,0.999998,0.000186,-0.001379,0.002654,0.000169,0.002661,-0.001386,87.601967,0.002661,
770,1830,0.248751,-0.436590,0.999998,0.000174,-0.000931,0.002363,-0.000261,0.002383,-0.000952,-85.506425,0.002399,
610,170,0.349042,-4.623811,0.999998,0.000190,-0.001214,0.002599,0.000194,0.002609,-0.001223,87.088998,0.002610,
1810,1300,-0.818861,-1.868566,0.999999,0.000131,-0.001262,0.002501,0.000152,0.002507,-0.001269,87.684221,0.002508,
1830,1860,-0.358212,-0.454670,0.999997,0.000188,-0.001168,0.002566,0.000184,0.002575,-0.001177,87.183137,0.002578,
820,240,0.217321,-4.591934,0.999998,0.000179,-0.000785,0.002306,0.000215,0.002321,-0.000799,86.041752,0.002358,
650,550,0.650973,-3.694531,0.999998,0.000173,-0.001304,0.002567,-0.000032,0.002568,-0.001304,-89.523354,0.002568,
760,550,0.506796,-3.783938,0.999998,0.000171,-0.001351,0.002633,-0.000061,0.002634,-0.001352,-89.121248,0.002634,
1440,1560,-0.156402,-0.897552,0.999998,0.000152,-0.001001,0.002149,-0.000307,0.002179,-0.001030,-84.480396,0.002180,
1730,1980,-0.081662,-0.109671,0.999998,0.000145,-0.000386,0.002031,0.000632,0.002187,-0.000541,76.193365,0.002278,
1430,1640,-0.132035,-0.722583,0.999998,0.000172,-0.000798,0.002056,-0.000160,0.002065,-0.000807,-86.810979,0.002081,
890,1160,0.638981,-2.143784,0.999998,0.000164,-0.001359,0.003002,-0.000352,0.003031,-0.001387,-85.410909,0.003034,
1570,240,-0.161791,-4.621502,0.999998,0.000153,-0.000733,0.002155,-0.000152,0.002163,-0.000741,-86.994431,0.002199,
1340,1710,-0.057660,-0.548834,0.999999,0.000135,-0.000588,0.001835,-0.000092,0.001838,-0.000592,-87.817587,0.001877,
1720,1780,-0.325268,-0.574624,0.999997,0.000220,-0.001025,0.002481,0.000189,0.002491,-0.001035,86.918280,0.002503,
1300,300,-0.031170,-4.580624,0.999999,0.000139,-0.000431,0.001773,0.000011,0.001773,-0.000431,89.711379,0.001849,
900,960,0.698240,-2.710041,0.999998,0.000170,-0.001097,0.002877,0.000303,0.002900,-0.001120,85.665676,0.002925,
580,990,1.050495,-2.600671,0.999998,0.000146,-0.000893,0.002065,-0.000012,0.002065,-0.000893,-89.773265,0.002072,
1860,1720,-0.546991,-0.838760,0.999998,0.000167,-0.001222,0.002489,-0.000047,0.002489,-0.001223,-89.279538,0.002489,
960,40,0.011238,-5.006504,0.999999,0.000157,-0.000127,0.001592,0.000190,0.001613,-0.000148,83.767073,0.001783,
1220,830,0.017251,-3.851559,0.999998,0.000150,-0.001523,0.000664,-0.000020,0.000664,-0.001523,-89.473650,0.001527,
1870,440,-0.641788,-3.930279,0.999998,0.000177,-0.001245,0.002482,0.000026,0.002482,-0.001245,89.607023,0.002482,
980,1740,0.139030,-0.542157,0.999998,0.000165,-0.000703,0.002052,0.000004,0.002052,-0.000703,89.923590,0.002086,
1640,980,-0.790907,-2.639758,0.999998,0.000161,-0.001018,0.002609,-0.000166,0.002616,-0.001025,-87.383955,0.002637,
1030,210,0.071675,-4.718444,0.999998,0.000161,-0.000421,0.001827,0.000057,0.001828,-0.000422,88.544479,0.001914,
1850,1030,-1.022933,-2.513764,0.999998,0.000186,-0.001048,0.002240,0.000013,0.002240,-0.001048,89.781247,0.002241,
1520,1770,-0.154580,-0.495378,0.999999,0.000128,-0.000753,0.002126,0.000048,0.002127,-0.000754,89.052079,0.002157,
800,1690,0.335565,-0.757367,0.999998,0.000169,-0.001143,0.002421,0.000023,0.002421,-0.001144,89.630927,0.002422,
1900,710,-0.890210,-3.220409,0.999998,0.000000,-0.001236,0.002410,-0.000003,0.002410,-0.001236,-89.953978,0.002411,
1230,170,0.000145,-4.807408,0.999999,0.000130,-0.000278,0.001651,0.000015,0.001652,-0.000278,89.559426,0.001769,
1860,670,-0.807201,-3.352599,0.999998,0.000169,-0.001265,0.002511,-0.000050,0.002511,-0.001265,-89.239900,0.002511,
970,160,0.070163,-4.800370,0.999999,0.000133,-0.000405,0.001863,0.000199,0.001880,-0.000422,85.027818,0.001973,
940,1360,0.335342,-1.481757,0.999997,0.000204,-0.001650,0.002880,0.000304,0.002900,-0.001670,86.181402,0.002911,
1110,1900,0.028083,-0.214094,0.999999,0.000117,-0.000268,0.001650,-0.000076,0.001653,-0.000271,-87.743675,0.001773,
1310,220,-0.025261,-4.719699,0.999999,0.000143,-0.000357,0.001726,-0.000025,0.001727,-0.000357,-89.319314,0.001823,
1600,560,-0.372815,-3.844099,0.999998,0.000189,-0.001352,0.002581,0.000165,0.002588,-0.001359,87.598320,0.002589,
1470,1310,-0.278610,-1.550321,0.999998,0.000173,-0.001804,0.002958,-0.000486,0.003007,-0.001853,-84.231822,0.003034,
770,1810,0.270790,-0.486051,0.999998,0.000173,-0.000974,0.002411,-0.000224,0.002426,-0.000989,-86.224780,0.002440,
580,1410,0.815071,-1.642533,0.999998,0.000152,-0.001594,0.002552,-0.000075,0.002554,-0.001595,-88.969200,0.002580,
1470,1960,-0.032348,-0.122604,0.999999,0.000160,-0.000139,0.001680,0.000211,0.001704,-0.000163,83.478330,0.001880,
670,940,0.938322,-2.726742,0.999998,0.000159,-0.001118,0.002392,0.000189,0.002402,-0.001128,86.925357,0.002404,
820,220,0.200312,-4.638109,0.999998,0.000164,-0.000758,0.002253,0.000270,0.002277,-0.000782,84.919087,0.002314,
1380,1230,-0.188659,-1.561638,0.999998,0.000175,-0.001722,0.002584,-0.001030,0.002818,-0.001955,-77.223282,0.002888,
1770,210,-0.310501,-4.592249,0.999998,0.000176,-0.001126,0.002523,-0.000246,0.002539,-0.001143,-86.157558,0.002543,
1810,1860,-0.336343,-0.437460,0.999997,0.000204,-0.001080,0.002562,0.000291,0.002585,-0.001103,85.467394,0.002594,
610,150,0.318540,-4.674881,0.999998,0.000179,-0.001221,0.002598,0.000232,0.002612,-0.001235,86.540374,0.002613,
1560,890,-0.613025,-2.919694,0.999998,0.000179,-0.001464,0.003055,-0.000348,0.003082,-0.001491,-85.628706,0.003082,
860,600,0.398906,-3.734943,0.999997,0.000182,-0.001413,0.002682,-0.000146,0.002687,-0.001419,-87.961115,0.002688,
1410,840,-0.265064,-3.339213,0.999998,0.000157,-0.001906,0.003044,0.000728,0.003149,-0.002011,81.800138,0.003189,
590,1140,1.012479,-2.276983,0.999998,0.000156,-0.001056,0.002231,-0.000090,0.002234,-0.001058,-88.440873,0.002235,
980,470,0.195580,-4.163352,0.999999,0.000144,-0.001022,0.002233,-0.000229,0.002249,-0.001038,-85.992998,0.002251,
780,530,0.466059,-3.851106,0.999997,0.000179,-0.001333,0.002587,-0.000071,0.002588,-0.001334,-88.969868,0.002589,
1720,2000,-0.053727,-0.070125,0.999998,0.000141,-0.000146,0.001966,0.000663,0.002157,-0.000337,73.945024,0.002320,
650,530,0.636105,-3.747085,0.999998,0.000199,-0.001302,0.002613,-0.000024,0.002613,-0.001302,-89.644408,0.002613,
1380,1440,-0.110782,-1.089943,0.999999,0.000147,-0.001012,0.002001,-0.000557,0.002101,-0.001111,-79.861936,0.002102,
1790,260,-0.391822,-4.451062,0.999998,0.000183,-0.001165,0.002514,-0.000145,0.002520,-0.001171,-87.739040,0.002522,
570,990,1.058043,-2.598105,0.999997,0.000216,-0.000818,0.002009,-0.000032,0.002010,-0.000819,-89.341669,0.002021,
1660,850,-0.709807,-2.988901,0.999998,0.000178,-0.001372,0.002773,-0.000314,0.002797,-0.001396,-85.689431,0.002797,
1480,1980,-0.023705,-0.089165,0.999999,0.000161,-0.000137,0.001662,0.000222,0.001689,-0.000164,83.079913,0.001863,
1640,960,-0.779646,-2.697214,0.999998,0.000169,-0.001067,0.002660,-0.000247,0.002676,-0.001084,-86.220743,0.002692,
1030,190,0.063358,-4.754834,0.999998,0.000151,-0.000404,0.001797,0.000119,0.001803,-0.000410,86.906583,0.001890,
1850,1010,-1.019634,-2.558321,0.999998,0.000200,-0.001058,0.002219,-0.000057,0.002220,-0.001059,-89.005850,0.002220,
1610,1600,-0.329247,-0.939786,0.999998,0.000184,-0.001221,0.002449,-0.000116,0.002453,-0.001225,-88.193555,0.002453,
1070,1650,0.100213,-0.681730,0.999998,0.000147,-0.000761,0.001962,0.000166,0.001973,-0.000771,86.514242,0.001988,
1810,670,-0.744543,-3.388241,0.999998,0.000183,-0.001309,0.002594,-0.000090,0.002596,-0.001311,-88.686826,0.002596,
1030,120,0.036504,-4.877459,0.999999,0.000155,-0.000254,0.001716,0.000142,0.001727,-0.000264,85.900199,0.001860,
1440,1600,-0.147776,-0.810130,0.999998,0.000152,-0.000897,0.002081,-0.000230,0.002098,-0.000914,-85.615095,0.002104,
1300,320,-0.032533,-4.545036,0.999998,0.000172,-0.000447,0.001794,0.000020,0.001794,-0.000447,89.498798,0.001868,
980,1720,0.147722,-0.580671,0.999998,0.000166,-0.000754,0.002084,0.000058,0.002085,-0.000755,88.834797,0.002111,
1720,1760,-0.343452,-0.625117,0.999997,0.000224,-0.001057,0.002486,0.000124,0.002491,-0.001061,88.004259,0.002500,
900,940,0.678472,-2.768791,0.999998,0.000169,-0.001180,0.002905,0.000358,0.002936,-0.001211,85.024119,0.002951,
1440,350,-0.121756,-4.444790,0.999998,0.000179,-0.000732,0.001986,0.000067,0.001988,-0.000734,88.598202,0.002010,
1900,700,-0.883174,-3.244620,0.999998,0.000000,-0.001241,0.002466,0.000012,0.002466,-0.001241,89.814320,0.002466,
770,1790,0.289521,-0.533842,0.999997,0.000188,-0.001012,0.002420,-0.000162,0.002427,-0.001020,-87.302882,0.002438,
1470,1290,-0.294683,-1.609978,0.999997,0.000193,-0.001892,0.003042,-0.000452,0.003084,-0.001933,-84.810984,0.003116,
1230,150,0.000532,-4.839439,0.999999,0.000135,-0.000233,0.001613,-0.000003,0.001613,-0.000233,-89.914279,0.001744,
570,90,0.242038,-4.791457,0.999953,0.000845,-0.000615,0.002898,0.000659,0.003017,-0.000734,79.713356,0.003147,
940,1340,0.351350,-1.541112,0.999998,0.000185,-0.001693,0.002928,0.000279,0.002945,-0.001709,86.560179,0.002957,
1680,1530,-0.458926,-1.172338,0.999997,0.000180,-0.001308,0.002587,-0.000084,0.002589,-0.001310,-88.772189,0.002589,
780,990,0.837553,-2.615036,0.999999,0.000137,-0.001035,0.002509,0.000109,0.002512,-0.001038,88.244948,0.002525,
570,1410,0.831215,-1.649596,0.999965,0.000720,-0.001747,0.002567,-0.000101,0.002569,-0.001749,-88.653914,0.002625,
940,230,0.126110,-4.657929,0.999998,0.000156,-0.000606,0.002026,0.000139,0.002034,-0.000613,86.979055,0.002086,
1600,540,-0.360597,-3.894860,0.999997,0.000182,-0.001330,0.002530,0.000172,0.002538,-0.001338,87.461095,0.002539,
1070,160,0.038392,-4.812662,0.999999,0.000125,-0.000276,0.001725,0.000115,0.001732,-0.000282,86.728152,0.001858,
1450,1960,-0.029325,-0.121655,0.999999,0.000144,-0.000167,0.001649,0.000164,0.001664,-0.000182,84.875849,0.001825,
990,1900,0.060264,-0.227549,0.999998,0.000155,-0.000301,0.001815,-0.000181,0.001830,-0.000316,-85.143584,0.001957,
820,200,0.180847,-4.683433,0.999998,0.000169,-0.000710,0.002218,0.000298,0.002248,-0.000740,84.241409,0.002291,
610,940,1.004959,-2.711836,0.999999,0.000125,-0.001076,0.002260,0.000116,0.002264,-0.001080,88.007888,0.002265,
730,1840,0.275096,-0.432004,0.999997,0.000212,-0.000983,0.002447,-0.000303,0.002474,-0.001010,-84.996981,0.002487,
1770,190,-0.286016,-4.643474,0.999998,0.000164,-0.001117,0.002514,-0.000290,0.002537,-0.001140,-85.455438,0.002542,
1790,140,-0.231292,-4.757272,0.999998,0.000197,-0.000905,0.002503,-0.000565,0.002594,-0.000996,-80.825996,0.002617,
760,1910,0.165988,-0.255984,0.999998,0.000149,-0.000643,0.002233,-0.000513,0.002322,-0.000732,-80.184339,0.002374,
610,130,0.281970,-4.726597,0.999998,0.000163,-0.001224,0.002658,0.000331,0.002686,-0.001252,85.162634,0.002688,
1570,220,-0.147510,-4.663845,0.999998,0.000191,-0.000687,0.002096,-0.000187,0.002108,-0.000699,-86.178677,0.002148,
650,510,0.623793,-3.799047,0.999998,0.000201,-0.001308,0.002552,-0.000020,0.002552,-0.001308,-89.696925,0.002553,
1730,640,-0.611558,-3.524522,0.999997,0.000194,-0.001383,0.002665,-0.000043,0.002665,-0.001384,-89.394862,0.002666,
1380,1210,-0.220190,-1.615643,0.999997,0.000191,-0.001690,0.002608,-0.001050,0.002851,-0.001933,-76.984707,0.002910,
870,1160,0.666446,-2.153530,0.999998,0.000178,-0.001366,0.002913,-0.000345,0.002941,-0.001393,-85.420801,0.002942,
980,1700,0.154452,-0.624462,0.999998,0.000171,-0.000805,0.002146,0.000123,0.002151,-0.000810,87.623153,0.002172,
1900,690,-0.874635,-3.268989,0.999998,0.000000,-0.001230,0.002519,-0.000006,0.002519,-0.001230,-89.911255,0.002519,
1300,340,-0.034742,-4.508721,0.999998,0.000161,-0.000496,0.001802,0.000021,0.001802,-0.000496,89.467071,0.001862,
1560,180,-0.113646,-4.748712,0.999999,0.000150,-0.000523,0.001996,-0.000230,0.002017,-0.000544,-84.827054,0.002087,
1030,170,0.054197,-4.790714,0.999998,0.000150,-0.000342,0.001768,0.000114,0.001774,-0.000348,86.910590,0.001880,
1500,130,-0.058043,-4.852463,0.999999,0.000127,-0.000328,0.001780,-0.000186,0.001796,-0.000345,-84.998241,0.001907,
1190,1640,0.023947,-0.662267,0.999998,0.000173,-0.000603,0.001784,0.000081,0.001786,-0.000605,88.046987,0.001817,
1850,990,-1.016775,-2.603580,0.999998,0.000210,-0.001060,0.002201,-0.000053,0.002202,-0.001061,-89.068170,0.002202,
880,990,0.738716,-2.622776,0.999997,0.000217,-0.000980,0.002731,0.000161,0.002738,-0.000987,87.524112,0.002773,
900,1830,0.146494,-0.384967,0.999998,0.000153,-0.000628,0.002086,-0.000186,0.002099,-0.000641,-86.104267,0.002151,
1460,1770,-0.113437,-0.472075,0.999998,0.000162,-0.000570,0.001985,0.000045,0.001985,-0.000571,88.995550,0.002044,
1230,130,0.000612,-4.871774,0.999999,0.000131,-0.000185,0.001567,-0.000006,0.001567,-0.000185,-89.796030,0.001713,
1640,940,-0.764761,-2.747614,0.999998,0.000165,-0.001127,0.002666,-0.000275,0.002685,-0.001147,-85.875710,0.002695,
1720,1740,-0.361358,-0.673433,0.999997,0.000203,-0.001101,0.002467,0.000078,0.002469,-0.001103,88.741231,0.002474,
900,920,0.655878,-2.826036,0.999998,0.000166,-0.001284,0.002943,0.000353,0.002972,-0.001313,85.263119,0.002979,
1580,890,-0.642735,-2.908406,0.999997,0.000184,-0.001386,0.002985,-0.000351,0.003013,-0.001414,-85.435181,0.003015,
1810,650,-0.726443,-3.440215,0.999998,0.000185,-0.001305,0.002597,-0.000058,0.002598,-0.001306,-89.143904,0.002598,
1470,1270,-0.314492,-1.670792,0.999998,0.000191,-0.001939,0.003096,-0.000399,0.003127,-0.001970,-85.496778,0.003162,
570,80,0.217250,-4.823020,0.999964,0.000750,-0.000600,0.002969,0.000768,0.003128,-0.000758,78.353959,0.003263,
940,1320,0.366612,-1.599766,0.999998,0.000175,-0.001760,0.002998,0.000224,0.003008,-0.001771,87.315656,0.003024,
860,580,0.389446,-3.788811,0.999997,0.000181,-0.001384,0.002643,-0.000162,0.002649,-0.001391,-87.699300,0.002651,
1680,1510,-0.471672,-1.226506,0.999998,0.000176,-0.001345,0.002632,-0.000069,0.002633,-0.001346,-89.009796,0.002633,
1200,810,0.028748,-3.843062,0.999998,0.000178,-0.000915,0.000629,-0.000403,0.000728,-0.001013,-76.214485,0.001045,
720,790,0.764344,-3.116349,0.999998,0.000177,-0.001346,0.002606,0.000240,0.002620,-0.001360,86.539162,0.002621,
1490,70,-0.023322,-4.959578,0.999999,0.000115,-0.000154,0.001639,-0.000207,0.001662,-0.000178,-83.499109,0.001826,
820,180,0.162425,-4.726518,0.999998,0.000159,-0.000656,0.002167,0.000344,0.002208,-0.000697,83.160033,0.002258,
1070,1630,0.105065,-0.721896,0.999998,0.000149,-0.000797,0.001981,0.000197,0.001995,-0.000811,85.968737,0.002007,
1430,1960,-0.025741,-0.118797,0.999999,0.000151,-0.000204,0.001624,0.000148,0.001636,-0.000216,85.408484,0.001777,
940,250,0.138843,-4.615816,0.999998,0.000170,-0.000656,0.002053,0.000116,0.002058,-0.000661,87.553235,0.002101,
1480,1510,-0.211928,-1.045029,0.999999,0.000131,-0.001213,0.002344,-0.000356,0.002379,-0.001248,-84.332997,0.002380,
1670,540,-0.454611,-3.835803,0.999998,0.000164,-0.001312,0.002588,0.000087,0.002590,-0.001314,88.719411,0.002590,
770,1770,0.307758,-0.583170,0.999998,0.000177,-0.001054,0.002451,-0.000134,0.002456,-0.001059,-87.808394,0.002464,
1710,640,-0.583859,-3.537685,0.999997,0.000208,-0.001413,0.002676,-0.000027,0.002676,-0.001413,-89.628498,0.002678,
740,1810,0.298961,-0.501970,0.999998,0.000174,-0.000970,0.002490,-0.000237,0.002507,-0.000987,-86.092706,0.002526,
1380,370,-0.086047,-4.431698,0.999999,0.000131,-0.000615,0.001916,0.000073,0.001918,-0.000617,88.346474,0.001958,
980,1680,0.162389,-0.667466,0.999998,0.000174,-0.000863,0.002125,0.000106,0.002129,-0.000867,87.965383,0.002141,
1640,570,-0.433415,-3.781665,0.999998,0.000179,-0.001412,0.002669,0.000120,0.002672,-0.001415,88.321314,0.002674,
1410,120,-0.030094,-4.880058,0.999998,0.000164,-0.000229,0.001691,-0.000121,0.001699,-0.000236,-86.412955,0.001841,
1690,1080,-0.841266,-2.387482,0.999998,0.000176,-0.001074,0.002558,0.000145,0.002563,-0.001080,87.721133,0.002574,
1330,1490,-0.066917,-0.949647,0.999999,0.000142,-0.000734,0.001796,-0.000311,0.001834,-0.000772,-83.102861,0.001841,
1600,520,-0.352040,-3.945477,0.999997,0.000184,-0.001280,0.002553,0.000150,0.002559,-0.001286,87.761854,0.002559,
610,110,0.242202,-4.780544,0.999998,0.000150,-0.001203,0.002676,0.000421,0.002722,-0.001248,83.874726,0.002725,
950,1940,0.052718,-0.160944,0.999998,0.000148,-0.000303,0.001789,-0.000241,0.001816,-0.000331,-83.505618,0.001935,
1830,1420,-0.739653,-1.576064,0.999997,0.000219,-0.001286,0.002553,0.000043,0.002554,-0.001287,89.361269,0.002554,
1770,170,-0.258438,-4.692560,0.999998,0.000189,-0.001056,0.002496,-0.000388,0.002538,-0.001098,-83.840319,0.002545,
1560,160,-0.096658,-4.788356,0.999999,0.000136,-0.000462,0.001953,-0.000281,0.001986,-0.000494,-83.444154,0.002067,
800,2000,0.038712,-0.063802,0.999998,0.000148,-0.000215,0.001832,-0.000475,0.001936,-0.000320,-77.556161,0.002076,
650,490,0.605694,-3.849912,0.999998,0.000180,-0.001285,0.002563,-0.000033,0.002564,-0.001286,-89.510605,0.002564,
1030,150,0.047555,-4.825919,0.999999,0.000135,-0.000301,0.001740,0.000120,0.001747,-0.000308,86.656827,0.001865,
1540,610,-0.314688,-3.771968,0.999998,0.000181,-0.001442,0.002623,0.000282,0.002643,-0.001461,86.044191,0.002648,
1850,970,-1.010192,-2.647262,0.999998,0.000182,-0.001059,0.002184,-0.000026,0.002184,-0.001060,-89.547668,0.002185,
950,1500,0.254686,-1.101201,0.999997,0.000196,-0.001247,0.002463,0.000300,0.002487,-0.001271,85.404935,0.002488,
1810,630,-0.710819,-3.492234,0.999997,0.000194,-0.001306,0.002571,-0.000046,0.002572,-0.001307,-89.325036,0.002572,
1380,1420,-0.112128,-1.129204,0.999998,0.000147,-0.001067,0.002022,-0.000616,0.002140,-0.001185,-79.131545,0.002145,
1230,110,0.000542,-4.902692,0.999999,0.000138,-0.000148,0.001548,-0.000011,0.001548,-0.000148,-89.633384,0.001708,
900,1030,0.728665,-2.512740,0.999998,0.000194,-0.000912,0.002782,-0.000025,0.002782,-0.000912,-89.606449,0.002837,
1470,1250,-0.334820,-1.733322,0.999998,0.000183,-0.001958,0.003209,-0.000337,0.003231,-0.001980,-86.285031,0.003259,
1010,120,0.040079,-4.874614,0.999998,0.000159,-0.000209,0.001739,0.000170,0.001754,-0.000224,85.058055,0.001909,
1640,920,-0.750728,-2.802355,0.999998,0.000169,-0.001179,0.002743,-0.000329,0.002770,-0.001206,-85.244867,0.002778,
940,1300,0.385172,-1.661254,0.999998,0.000165,-0.001822,0.003054,0.000196,0.003062,-0.001830,87.704530,0.003082,
820,160,0.141791,-4.769215,0.999998,0.000160,-0.000552,0.002126,0.000409,0.002188,-0.000613,81.498720,0.002257,
1650,520,-0.416314,-3.903555,0.999998,0.000163,-0.001307,0.002560,0.000112,0.002564,-0.001310,88.348718,0.002564,
1900,680,-0.866517,-3.294883,0.999998,0.000000,-0.001221,0.002587,-0.000046,0.002588,-0.001221,-89.311247,0.002589,
1490,760,-0.329167,-3.411580,0.999998,0.000206,-0.001828,0.003073,0.000329,0.003095,-0.001850,86.174502,0.003115,
770,1160,0.793543,-2.182335,0.999998,0.000169,-0.001237,0.002629,-0.000307,0.002653,-0.001262,-85.489646,0.002654,
1520,1510,-0.260400,-1.082927,0.999998,0.000166,-0.001225,0.002445,-0.000287,0.002467,-0.001247,-85.549226,0.002467,
930,1960,0.046005,-0.127899,0.999999,0.000138,-0.000217,0.001760,-0.000262,0.001794,-0.000252,-82.591510,0.001943,
1130,1520,0.067939,-0.899008,0.999999,0.000139,-0.000747,0.001832,0.000261,0.001858,-0.000773,84.281227,0.001866,
980,1660,0.170779,-0.710754,0.999998,0.000160,-0.000894,0.002158,0.000143,0.002165,-0.000901,87.331908,0.002175,
1720,1720,-0.375769,-0.723667,0.999997,0.000192,-0.001154,0.002479,0.000059,0.002480,-0.001155,89.070241,0.002482,
900,900,0.632352,-2.886103,0.999998,0.000166,-0.001385,0.003030,0.000367,0.003060,-0.001416,85.277984,0.003063,
1510,1060,-0.671872,-2.419074,0.999998,0.000161,-0.000963,0.003181,0.000160,0.003187,-0.000969,87.795954,0.003268,
1560,140,-0.083438,-4.826481,0.999999,0.000134,-0.000388,0.001887,-0.000285,0.001922,-0.000423,-82.978219,0.002020,
1330,180,-0.026338,-4.785855,0.999999,0.000152,-0.000322,0.001682,-0.000040,0.001683,-0.000323,-88.866846,0.001786,
1030,130,0.040575,-4.858917,0.999998,0.000142,-0.000265,0.001714,0.000130,0.001722,-0.000273,86.251035,0.001851,
1850,950,-1.005431,-2.690048,0.999998,0.000173,-0.001059,0.002236,-0.000068,0.002238,-0.001060,-88.820968,0.002239,
1640,550,-0.422101,-3.835449,0.999998,0.000181,-0.001376,0.002604,0.000125,0.002608,-0.001380,88.197524,0.002609,
1770,150,-0.227177,-4.743907,0.999998,0.000173,-0.000992,0.002481,-0.000464,0.002542,-0.001053,-82.515235,0.002555,
1120,1580,0.072627,-0.792503,0.999999,0.000138,-0.000697,0.001872,0.000196,0.001887,-0.000712,85.664995,0.001906,
570,70,0.188861,-4.853698,0.999981,0.000572,-0.000556,0.003133,0.000961,0.003368,-0.000792,76.238070,0.003522,
1360,1980,-0.010957,-0.085022,0.999999,0.000136,-0.000105,0.001556,0.000094,0.001561,-0.000110,86.755181,0.001743,
610,90,0.198228,-4.833901,0.999998,0.000144,-0.001182,0.002776,0.000587,0.002861,-0.001267,81.744148,0.002867,
1600,500,-0.340389,-3.997400,0.999998,0.000173,-0.001247,0.002501,0.000153,0.002508,-0.001253,87.672068,0.002508,
1810,610,-0.693532,-3.544226,0.999998,0.000173,-0.001300,0.002556,-0.000039,0.002556,-0.001300,-89.418127,0.002556,
1630,2000,-0.033225,-0.061994,0.999999,0.000132,-0.000084,0.001787,0.000443,0.001887,-0.000184,77.335407,0.002081,
1230,90,0.001168,-4.932820,0.999999,0.000123,-0.000116,0.001530,-0.000011,0.001530,-0.000116,-89.622416,0.001704,
770,1750,0.325381,-0.632187,0.999998,0.000167,-0.001083,0.002443,-0.000081,0.002444,-0.001085,-88.684231,0.002450,
650,470,0.592883,-3.902361,0.999998,0.000169,-0.001286,0.002540,-0.000040,0.002540,-0.001286,-89.394141,0.002540,
1550,1300,-0.432950,-1.692762,0.999998,0.000167,-0.001776,0.003059,-0.000078,0.003060,-0.001777,-89.077655,0.003074,
1640,610,-0.460033,-3.675320,0.999997,0.000200,-0.001453,0.002672,0.000085,0.002674,-0.001454,88.819176,0.002677,
1500,900,-0.537308,-2.939041,0.999998,0.000187,-0.001598,0.003332,-0.000252,0.003345,-0.001611,-87.082820,0.003346,
1170,1850,0.019003,-0.293267,0.999998,0.000180,-0.000299,0.001714,-0.000021,0.001714,-0.000299,-89.416339,0.001831,
1250,420,-0.010675,-4.372470,0.999998,0.000195,-0.000621,0.001789,0.000057,0.001790,-0.000622,88.650324,0.001818,
950,1140,0.580066,-2.165017,0.999998,0.000194,-0.001445,0.003266,-0.000306,0.003286,-0.001465,-86.299720,0.003293,
690,970,0.929537,-2.657527,0.999998,0.000145,-0.001105,0.002374,0.000079,0.002375,-0.001107,88.696762,0.002377,
1500,1510,-0.236936,-1.064355,0.999998,0.000181,-0.001214,0.002398,-0.000329,0.002427,-0.001244,-84.842095,0.002428,
1640,900,-0.731360,-2.858245,0.999998,0.000157,-0.001254,0.002732,-0.000320,0.002757,-0.001279,-85.439463,0.002760,
980,1640,0.178346,-0.754881,0.999998,0.000155,-0.000944,0.002211,0.000191,0.002222,-0.000956,86.555844,0.002230,
970,1940,0.046479,-0.159254,0.999998,0.000135,-0.000275,0.001756,-0.000209,0.001777,-0.000296,-84.187808,0.001904,
1350,1680,-0.068761,-0.610367,0.999998,0.000202,-0.000632,0.001879,-0.000106,0.001883,-0.000636,-87.583212,0.001916,
1400,1390,-0.138412,-1.222014,0.999999,0.000129,-0.001239,0.002191,-0.000678,0.002320,-0.001368,-79.215820,0.002333,
1130,640,0.067677,-3.956740,0.999998,0.000155,-0.000878,0.001720,-0.000561,0.001836,-0.000994,-78.322659,0.001838,
940,1280,0.402392,-1.722394,0.999997,0.000191,-0.001862,0.003142,0.000119,0.003145,-0.001865,88.634496,0.003163,
730,1390,0.635949,-1.586075,0.999997,0.000194,-0.001395,0.002648,-0.000090,0.002650,-0.001397,-88.723164,0.002651,
670,1080,0.951473,-2.396355,0.999998,0.000155,-0.001097,0.002342,-0.000066,0.002343,-0.001098,-88.900036,0.002344,
1350,530,-0.080707,-4.142323,0.999999,0.000136,-0.000791,0.001908,0.000286,0.001938,-0.000821,84.015769,0.001946,
1190,200,0.013197,-4.755123,0.999999,0.000155,-0.000293,0.001670,0.000018,0.001670,-0.000293,89.471522,0.001783,
1360,390,-0.076345,-4.399356,0.999998,0.000172,-0.000645,0.001892,0.000101,0.001896,-0.000649,87.725704,0.001927,
1450,50,-0.012796,-4.991320,0.999999,0.000101,-0.000032,0.001537,-0.000148,0.001551,-0.000046,-84.651782,0.001765,
1450,2000,-0.013298,-0.056408,0.999998,0.000159,-0.000053,0.001573,0.000153,0.001588,-0.000067,84.686413,0.001796,
1850,930,-0.996161,-2.736385,0.999999,0.000150,-0.001060,0.002267,-0.000129,0.002272,-0.001065,-87.790930,0.002273,
1850,1360,-0.815864,-1.742599,0.999998,0.000140,-0.001258,0.002538,0.000083,0.002540,-0.001259,88.749906,0.002540,
1560,120,-0.068716,-4.863292,0.999999,0.000145,-0.000305,0.001888,-0.000301,0.001929,-0.000345,-82.326506,0.002057,
1070,1610,0.108158,-0.761653,0.999999,0.000144,-0.000831,0.002003,0.000249,0.002025,-0.000853,85.010968,0.002033,
1610,1290,-0.544414,-1.779363,0.999997,0.000183,-0.001632,0.002937,0.000131,0.002941,-0.001636,88.352915,0.002947,
1700,850,-0.763684,-2.974027,0.999999,0.000138,-0.001326,0.002660,-0.000283,0.002680,-0.001346,-85.953557,0.002680,
1470,1230,-0.360566,-1.802201,0.999998,0.000192,-0.001951,0.003307,-0.000250,0.003319,-0.001963,-87.283435,0.003338,
880,1690,0.250748,-0.705446,0.999998,0.000177,-0.001048,0.002305,0.000039,0.002306,-0.001048,89.326560,0.002309,
800,970,0.809610,-2.666650,0.999998,0.000174,-0.001058,0.002597,0.000189,0.002607,-0.001068,87.051287,0.002621,
610,50,0.104198,-4.943623,0.999998,0.000146,-0.000874,0.002570,0.000883,0.002784,-0.001087,76.423744,0.002806,
1000,1690,0.143076,-0.635683,0.999998,0.000170,-0.000707,0.002106,0.000073,0.002107,-0.000709,88.522120,0.002145,
1460,450,-0.166743,-4.224274,0.999998,0.000154,-0.000948,0.002181,0.000243,0.002200,-0.000966,85.590636,0.002205,
1900,670,-0.856684,-3.321316,0.999998,0.000000,-0.001201,0.002613,-0.000055,0.002614,-0.001202,-89.175448,0.002617,
1810,590,-0.678175,-3.593788,0.999998,0.000167,-0.001286,0.002584,0.000004,0.002584,-0.001286,89.939737,0.002584,
1030,110,0.031569,-4.895690,0.999999,0.000150,-0.000241,0.001695,0.000144,0.001706,-0.000252,85.764746,0.001841,
1770,680,-0.700970,-3.390054,0.999997,0.000214,-0.001334,0.002623,-0.000086,0.002625,-0.001336,-88.751571,0.002625,
1390,1120,-0.428291,-1.913507,0.999996,0.000241,-0.001165,0.003831,-0.001974,0.004517,-0.001851,-70.840322,0.004542,
1440,1770,-0.102625,-0.466409,0.999998,0.000178,-0.000612,0.001954,0.000022,0.001954,-0.000612,89.518727,0.001999,
860,560,0.376534,-3.841661,0.999997,0.000188,-0.001362,0.002586,-0.000173,0.002594,-0.001370,-87.500364,0.002595,
1890,1040,-1.061354,-2.493991,0.999998,0.000164,-0.001026,0.002167,0.000047,0.002168,-0.001026,89.162487,0.002169,
830,200,0.173806,-4.685338,0.999998,0.000180,-0.000648,0.002187,0.000312,0.002221,-0.000682,83.801305,0.002276,
900,880,0.605273,-2.948101,0.999998,0.000169,-0.001503,0.003050,0.000364,0.003079,-0.001532,85.452441,0.003079,
770,1730,0.340247,-0.683006,0.999998,0.000159,-0.001097,0.002486,-0.000043,0.002486,-0.001098,-89.307684,0.002492,
1350,570,-0.081472,-4.067942,0.999999,0.000140,-0.000849,0.001847,0.000401,0.001906,-0.000908,81.714741,0.001906,
820,140,0.122636,-4.812345,0.999998,0.000163,-0.000482,0.002078,0.000415,0.002144,-0.000548,81.011722,0.002228,
710,1980,0.094676,-0.117798,0.999998,0.000140,-0.000582,0.002172,-0.000688,0.002334,-0.000744,-76.732368,0.002385,
610,70,0.150126,-4.891193,0.999998,0.000150,-0.001127,0.002771,0.000687,0.002889,-0.001244,80.291349,0.002898,
1380,1400,-0.113862,-1.173440,0.999998,0.000147,-0.001129,0.002046,-0.000670,0.002182,-0.001264,-78.558763,0.002191,
1230,70,0.000041,-4.963620,0.999999,0.000132,-0.000077,0.001547,-0.000008,0.001547,-0.000077,-89.726373,0.001744,
1770,130,-0.196972,-4.791702,0.999999,0.000145,-0.000900,0.002399,-0.000542,0.002486,-0.000987,-80.908394,0.002503,
1720,1700,-0.392977,-0.772992,0.999998,0.000173,-0.001185,0.002525,0.000026,0.002525,-0.001186,89.593912,0.002527,
1050,700,0.162866,-3.714931,0.999998,0.000174,-0.001446,0.002430,-0.000743,0.002568,-0.001584,-79.513572,0.002591,
780,1010,0.841826,-2.564694,0.999998,0.000136,-0.001031,0.002521,0.000083,0.002523,-0.001032,88.664854,0.002536,
980,370,0.160782,-4.384398,0.999998,0.000152,-0.000829,0.002126,-0.000106,0.002130,-0.000833,-87.939937,0.002147,
1170,1830,0.020730,-0.328271,0.999999,0.000139,-0.000318,0.001721,-0.000032,0.001722,-0.000319,-89.111047,0.001832,
1230,1210,0.002851,-1.197648,0.999998,0.000170,-0.002185,0.000813,-0.000024,0.000814,-0.002186,-89.542392,0.002209,
650,450,0.577976,-3.951228,0.999998,0.000172,-0.001278,0.002487,-0.000020,0.002487,-0.001278,-89.694937,0.002487,
1120,1560,0.073672,-0.832306,0.999999,0.000112,-0.000714,0.001868,0.000220,0.001887,-0.000733,85.157522,0.001902,
980,1620,0.184966,-0.799996,0.999998,0.000142,-0.000981,0.002199,0.000194,0.002211,-0.000993,86.513263,0.002215,
1640,590,-0.446650,-3.729061,0.999997,0.000181,-0.001422,0.002672,0.000095,0.002674,-0.001424,88.665130,0.002676,
1780,90,-0.138154,-4.881912,0.999998,0.000153,-0.000635,0.002293,-0.000759,0.002478,-0.000820,-76.302613,0.002525,
990,1940,0.041221,-0.157209,0.999999,0.000144,-0.000209,0.001724,-0.000196,0.001743,-0.000228,-84.278616,0.001895,
1640,880,-0.713184,-2.912189,0.999998,0.000172,-0.001321,0.002776,-0.000330,0.002802,-0.001347,-85.421479,0.002803,
1750,1340,-0.704400,-1.728985,0.999998,0.000151,-0.001369,0.002618,0.000155,0.002624,-0.001375,87.777632,0.002625,
1350,510,-0.079530,-4.179548,0.999999,0.000125,-0.000760,0.001899,0.000244,0.001922,-0.000783,84.797624,0.001933,
1900,2010,-0.112070,-0.102021,0.999998,0.000000,-0.000119,0.003713,0.001965,0.004541,-0.000947,67.137260,0.004792,
690,950,0.920763,-2.704507,0.999998,0.000147,-0.001110,0.002408,0.000171,0.002416,-0.001118,87.219932,0.002419,
1320,1370,-0.056549,-1.140946,0.999998,0.000167,-0.000835,0.001563,-0.000674,0.001740,-0.001011,-75.331384,0.001747,
1570,1620,-0.272928,-0.861268,0.999998,0.000161,-0.001096,0.002355,-0.000143,0.002361,-0.001102,-87.637356,0.002363,
1700,870,-0.780127,-2.922158,0.999998,0.000173,-0.001283,0.002617,-0.000279,0.002637,-0.001303,-85.930346,0.002637,
1360,370,-0.073709,-4.437940,0.999998,0.000144,-0.000630,0.001904,0.000074,0.001906,-0.000632,88.329666,0.001942,
1850,910,-0.985940,-2.781529,0.999999,0.000141,-0.001066,0.002269,-0.000112,0.002272,-0.001070,-88.073790,0.002274,
1560,100,-0.056113,-4.902493,0.999999,0.000141,-0.000239,0.001816,-0.000316,0.001864,-0.000287,-81.458905,0.002007,
1440,1190,-0.365823,-1.870837,0.999998,0.000170,-0.001911,0.003452,-0.000414,0.003484,-0.001942,-85.614985,0.003491,
1070,1590,0.111780,-0.802225,0.999999,0.000149,-0.000840,0.002009,0.000278,0.002036,-0.000867,84.482018,0.002044,
1900,660,-0.847944,-3.348111,0.999998,0.000000,-0.001203,0.002563,-0.000039,0.002563,-0.001204,-89.399391,0.002565,
1460,610,-0.204519,-3.863132,0.999998,0.000152,-0.001281,0.002395,0.000484,0.002457,-0.001344,82.616791,0.002461,
1640,1750,-0.267770,-0.598678,0.999998,0.000178,-0.000934,0.002355,0.000091,0.002358,-0.000937,88.408383,0.002374,
1030,90,0.025944,-4.926948,0.999999,0.000133,-0.000172,0.001619,0.000150,0.001632,-0.000184,85.260971,0.001787,
1810,570,-0.663116,-3.646896,0.999998,0.000160,-0.001280,0.002577,0.000025,0.002577,-0.001280,89.636047,0.002577,
1210,500,0.013607,-4.232492,0.999999,0.000129,-0.000624,0.001732,-0.000081,0.001735,-0.000626,-88.043903,0.001757,
770,1710,0.353610,-0.731880,0.999998,0.000164,-0.001089,0.002447,-0.000031,0.002447,-0.001089,-89.504499,0.002452,
720,90,0.110543,-4.896034,0.999998,0.000146,-0.000649,0.002074,0.000586,0.002194,-0.000770,78.363549,0.002227,
1780,920,-0.913707,-2.774477,0.999999,0.000131,-0.001128,0.002423,-0.000186,0.002432,-0.001137,-87.009433,0.002434,
940,1260,0.426035,-1.786252,0.999997,0.000188,-0.001851,0.003176,0.000042,0.003176,-0.001852,89.516449,0.003191,
1430,940,-0.497592,-2.924770,0.999998,0.000185,-0.001644,0.003915,0.000626,0.003984,-0.001713,83.649100,0.003997,
900,860,0.576542,-3.009574,0.999998,0.000174,-0.001570,0.003088,0.000311,0.003108,-0.001591,86.202659,0.003109,
1540,1210,-0.520779,-1.964961,0.999997,0.000184,-0.001706,0.003179,0.000203,0.003188,-0.001715,87.621928,0.003191,
860,540,0.364819,-3.893023,0.999998,0.000174,-0.001330,0.002591,-0.000176,0.002599,-0.001338,-87.432843,0.002599,
760,1830,0.259225,-0.442401,0.999998,0.000159,-0.000922,0.002387,-0.000269,0.002409,-0.000944,-85.390138,0.002427,
630,980,0.996160,-2.627371,0.999998,0.000164,-0.001063,0.002241,0.000031,0.002242,-0.001063,89.466001,0.002243,
1720,1680,-0.408046,-0.825615,0.999998,0.000172,-0.001222,0.002509,-0.000004,0.002509,-0.001222,-89.934670,0.002509,
980,1600,0.190650,-0.843678,0.999999,0.000143,-0.001005,0.002203,0.000207,0.002217,-0.001018,86.329429,0.002219,
1170,1810,0.023189,-0.363565,0.999999,0.000131,-0.000354,0.001703,-0.000042,0.001704,-0.000355,-88.823004,0.001798,
650,430,0.564823,-4.002461,0.999998,0.000159,-0.001271,0.002532,-0.000026,0.002533,-0.001271,-89.613883,0.002533,
1220,1980,0.000285,-0.083278,0.999999,0.000135,-0.000123,0.001515,-0.000020,0.001516,-0.000124,-89.292131,0.001683,
1070,740,0.145556,-3.658588,0.999998,0.000171,-0.001509,0.002385,-0.000925,0.002594,-0.001718,-77.289363,0.002639,
1880,1580,-0.679983,-1.204977,0.999998,0.000203,-0.001255,0.002522,-0.000029,0.002523,-0.001255,-89.556800,0.002523,
1430,820,-0.277277,-3.346120,0.999998,0.000182,-0.001957,0.003091,0.000622,0.003167,-0.002032,83.078284,0.003209,
1470,1210,-0.389432,-1.868680,0.999998,0.000186,-0.001893,0.003391,-0.000165,0.003396,-0.001898,-88.209389,0.003404,
1730,1340,-0.676151,-1.718128,0.999998,0.000199,-0.001406,0.002687,0.000162,0.002693,-0.001413,87.743784,0.002694,
710,960,0.904679,-2.683378,0.999998,0.000182,-0.001107,0.002440,0.000147,0.002446,-0.001113,87.637417,0.002450,
730,1370,0.654174,-1.637361,0.999997,0.000188,-0.001416,0.002680,-0.000104,0.002683,-0.001419,-88.546025,0.002685,
1640,860,-0.692321,-2.969155,0.999998,0.000171,-0.001398,0.002820,-0.000326,0.002845,-0.001423,-85.601987,0.002845,
1320,1350,-0.055203,-1.173751,0.999998,0.000150,-0.000844,0.001552,-0.000759,0.001772,-0.001064,-73.823798,0.001784,
1710,1960,-0.101559,-0.148488,0.999999,0.000146,-0.000349,0.002069,0.000570,0.002196,-0.000476,77.383218,0.002310,
1820,690,-0.775058,-3.329850,0.999997,0.000189,-0.001266,0.002540,-0.000091,0.002542,-0.001268,-88.638236,0.002542,
1280,820,-0.052308,-3.810267,0.999998,0.000158,-0.001031,0.000749,0.000523,0.000891,-0.001173,74.777563,0.001225,
960,450,0.208466,-4.193662,0.999998,0.000161,-0.000954,0.002256,-0.000174,0.002265,-0.000963,-86.910400,0.002274,
1200,790,0.019929,-3.855542,0.999998,0.000166,-0.000707,0.000672,-0.000450,0.000805,-0.000841,-73.428753,0.000951,
590,60,0.148964,-4.901854,0.999998,0.000146,-0.000775,0.002932,0.000993,0.003182,-0.001024,75.913434,0.003248,
1570,1300,-0.467238,-1.715176,0.999996,0.000205,-0.001691,0.003024,0.000008,0.003024,-0.001691,89.905361,0.003031,
1090,580,0.103303,-4.026118,0.999998,0.000175,-0.000918,0.001955,-0.000461,0.002028,-0.000991,-81.109412,0.002028,
1810,550,-0.648347,-3.699374,0.999998,0.000174,-0.001287,0.002568,0.000023,0.002568,-0.001287,89.662468,0.002568,
1900,650,-0.840564,-3.373472,0.999998,0.000000,-0.001228,0.002486,0.000002,0.002486,-0.001228,89.967877,0.002486,
1560,80,-0.038757,-4.937013,0.999999,0.000122,-0.000182,0.001767,-0.000334,0.001823,-0.000237,-80.545736,0.001982,
1330,1620,-0.060855,-0.712743,0.999998,0.000165,-0.000676,0.001855,-0.000175,0.001867,-0.000688,-86.059128,0.001888,
1340,1350,-0.073162,-1.205171,0.999998,0.000154,-0.000996,0.001752,-0.000814,0.001975,-0.001219,-74.674234,0.001993,
1850,890,-0.974146,-2.827923,0.999998,0.000154,-0.001105,0.002258,-0.000094,0.002260,-0.001108,-88.402030,0.002260,
1070,1570,0.112060,-0.844440,0.999999,0.000140,-0.000851,0.002009,0.000306,0.002041,-0.000883,83.957360,0.002048,
1430,1000,-0.575344,-2.660002,0.999997,0.000207,-0.001952,0.005077,0.000404,0.005100,-0.001975,86.724469,0.005143,
1260,50,-0.000982,-4.993984,0.999999,0.000103,-0.000054,0.001492,-0.000008,0.001492,-0.000054,-89.717468,0.001693,
770,1690,0.370109,-0.778561,0.999998,0.000162,-0.001126,0.002451,-0.000009,0.002451,-0.001126,-89.851835,0.002454,
1030,1680,0.124036,-0.643257,0.999998,0.000155,-0.000776,0.002054,0.000094,0.002057,-0.000780,88.102813,0.002077,
1590,960,-0.725582,-2.703590,0.999998,0.000169,-0.001072,0.002772,-0.000277,0.002792,-0.001091,-85.905185,0.002814,
860,520,0.354421,-3.944584,0.999998,0.000185,-0.001290,0.002528,-0.000165,0.002535,-0.001297,-87.523908,0.002536,
1650,460,-0.381337,-4.056998,0.999998,0.000184,-0.001238,0.002496,0.000088,0.002498,-0.001240,88.656632,0.002498,
900,840,0.551076,-3.070901,0.999998,0.000168,-0.001651,0.003103,0.000237,0.003115,-0.001663,87.148403,0.003117,
1030,70,0.017093,-4.960282,0.999999,0.000140,-0.000132,0.001605,0.000145,0.001617,-0.000144,85.249959,0.001790,
780,1610,0.411378,-0.971371,0.999998,0.000164,-0.001234,0.002506,0.000054,0.002507,-0.001235,89.167238,0.002507,
1380,1380,-0.117114,-1.213185,0.999998,0.000148,-0.001187,0.002086,-0.000729,0.002241,-0.001342,-77.998784,0.002256,
980,1580,0.196313,-0.887740,0.999998,0.000141,-0.001040,0.002227,0.000244,0.002246,-0.001058,85.751023,0.002247,
820,120,0.100897,-4.853099,0.999998,0.000158,-0.000420,0.002027,0.000441,0.002104,-0.000497,80.099174,0.002199,
1280,1790,-0.019767,-0.395929,0.999998,0.000169,-0.000385,0.001735,0.000015,0.001736,-0.000386,89.597926,0.001823,
650,410,0.547606,-4.052297,0.999998,0.000178,-0.001259,0.002552,-0.000041,0.002553,-0.001260,-89.376594,0.002553,
1620,1410,-0.455386,-1.443660,0.999997,0.000190,-0.001516,0.002777,-0.000086,0.002779,-0.001518,-88.853119,0.002783,
1430,800,-0.252500,-3.406759,0.999997,0.000236,-0.001915,0.003023,0.000674,0.003113,-0.002005,82.362143,0.003156,
1470,1190,-0.424360,-1.938038,0.999998,0.000187,-0.001851,0.003432,-0.000089,0.003434,-0.001852,-89.039977,0.003437,
1720,1660,-0.423923,-0.874014,0.999998,0.000179,-0.001238,0.002491,-0.000029,0.002492,-0.001238,-89.552229,0.002492,
1410,940,-0.464014,-2.999600,0.999997,0.000202,-0.001710,0.003954,0.001425,0.004292,-0.002048,76.641618,0.004294,
1200,750,0.015685,-3.886040,0.999998,0.000149,-0.000597,0.000819,-0.000410,0.000929,-0.000707,-74.964052,0.000971,
1140,1470,0.061344,-0.980566,0.999999,0.000142,-0.000727,0.001735,0.000354,0.001785,-0.000777,81.975980,0.001790,
1250,660,-0.010176,-3.987043,0.999999,0.000121,-0.000538,0.001277,0.000164,0.001291,-0.000553,84.881825,0.001296,
940,1240,0.450907,-1.849194,0.999997,0.000185,-0.001842,0.003205,-0.000007,0.003206,-0.001842,-89.918730,0.003217,
1640,840,-0.670969,-3.025136,0.999998,0.000171,-0.001445,0.002811,-0.000312,0.002834,-0.001468,-85.831793,0.002834,
1220,1960,0.001198,-0.113999,0.999999,0.000130,-0.000172,0.001552,-0.000010,0.001552,-0.000173,-89.653601,0.001702,
1330,1470,-0.065341,-0.984800,0.999999,0.000148,-0.000755,0.001755,-0.000369,0.001808,-0.000808,-81.813986,0.001811,
1510,1730,-0.165993,-0.575926,0.999998,0.000157,-0.000810,0.002156,-0.000009,0.002156,-0.000810,-89.821412,0.002178,
1890,690,-0.862249,-3.277870,0.999998,0.000180,-0.001224,0.002506,-0.000003,0.002506,-0.001224,-89.952664,0.002506,
940,410,0.213275,-4.270036,0.999998,0.000162,-0.000931,0.002235,-0.000121,0.002240,-0.000936,-87.814075,0.002250,
660,1290,0.818610,-1.888860,0.999999,0.000137,-0.001260,0.002509,-0.000163,0.002516,-0.001267,-87.525950,0.002516,
740,230,0.283282,-4.575704,0.999998,0.000171,-0.000955,0.002457,0.000287,0.002481,-0.000979,85.219883,0.002499,
1810,530,-0.633185,-3.748363,0.999998,0.000171,-0.001284,0.002562,0.000024,0.002562,-0.001284,89.637408,0.002562,
800,1950,0.093423,-0.159856,0.999998,0.000150,-0.000448,0.002016,-0.000451,0.002096,-0.000528,-79.939132,0.002180,
1360,1370,-0.093080,-1.201221,0.999998,0.000185,-0.001092,0.001922,-0.000771,0.002108,-0.001277,-76.452685,0.002123,
1090,560,0.102295,-4.064217,0.999999,0.000137,-0.000912,0.001935,-0.000445,0.002003,-0.000980,-81.319148,0.002003,
590,50,0.123144,-4.927253,0.999999,0.000151,-0.000493,0.003015,0.001250,0.003416,-0.000893,72.257655,0.003543,
990,1480,0.211056,-1.108169,0.999999,0.000149,-0.001241,0.002381,0.000400,0.002425,-0.001285,83.779707,0.002426,
1440,750,-0.228973,-3.532196,0.999998,0.000196,-0.001778,0.002852,0.000683,0.002951,-0.001877,81.787290,0.002987,
690,960,0.926332,-2.680866,0.999998,0.000147,-0.001109,0.002387,0.000130,0.002392,-0.001114,87.868626,0.002394,
960,430,0.202571,-4.238824,0.999998,0.000173,-0.000933,0.002217,-0.000172,0.002227,-0.000943,-86.892564,0.002235,
1280,800,-0.034239,-3.823204,0.999999,0.000146,-0.000857,0.000792,0.000645,0.001015,-0.001080,70.976891,0.001211,
730,1350,0.671133,-1.693309,0.999998,0.000187,-0.001413,0.002696,-0.000124,0.002700,-0.001417,-88.277742,0.002701,
1900,640,-0.833412,-3.397042,0.999998,0.000000,-0.001256,0.002456,0.000012,0.002456,-0.001257,89.817986,0.002456,
1850,870,-0.962291,-2.872438,0.999998,0.000154,-0.001146,0.002313,-0.000124,0.002318,-0.001150,-87.956340,0.002318,
1600,480,-0.331566,-4.046578,0.999998,0.000171,-0.001224,0.002480,0.000153,0.002486,-0.001230,87.637824,0.002486,
1060,1730,0.090063,-0.530085,0.999998,0.000160,-0.000645,0.001921,0.000044,0.001922,-0.000646,89.018234,0.001956,
1450,240,-0.089356,-4.657617,0.999998,0.000187,-0.000505,0.001922,-0.000083,0.001925,-0.000508,-88.046387,0.001995,
970,1140,0.550784,-2.144817,0.999998,0.000199,-0.001551,0.003380,-0.000216,0.003389,-0.001561,-87.499816,0.003393,
770,1670,0.384055,-0.830261,0.999998,0.000158,-0.001154,0.002501,0.000022,0.002501,-0.001155,89.649930,0.002503,
1780,960,-0.934625,-2.679633,0.999998,0.000162,-0.001125,0.002388,-0.000130,0.002392,-0.001130,-87.885632,0.002394,
680,1810,0.367545,-0.545805,0.999997,0.000223,-0.001176,0.002573,-0.000172,0.002581,-0.001184,-87.373164,0.002584,
980,1560,0.200767,-0.931494,0.999998,0.000154,-0.001063,0.002249,0.000268,0.002270,-0.001084,85.406513,0.002271,
1170,1790,0.025007,-0.397866,0.999998,0.000149,-0.000389,0.001763,-0.000019,0.001763,-0.000389,-89.502335,0.001853,
1070,1550,0.116110,-0.882864,0.999999,0.000128,-0.000863,0.001995,0.000297,0.002025,-0.000894,84.137140,0.002030,
1560,60,-0.026557,-4.972664,0.999999,0.000121,-0.000127,0.001711,-0.000319,0.001765,-0.000180,-80.440984,0.001942,
900,1050,0.724745,-2.457186,0.999997,0.000225,-0.000948,0.002778,-0.000123,0.002782,-0.000952,-88.107838,0.002828,
570,730,0.901438,-3.179148,0.999992,0.000319,-0.001408,0.002605,0.000086,0.002607,-0.001410,88.777149,0.002610,
1650,540,-0.429864,-3.852747,0.999998,0.000181,-0.001335,0.002583,0.000103,0.002586,-0.001338,88.489701,0.002587,
650,390,0.534182,-4.103609,0.999997,0.000184,-0.001234,0.002522,-0.000046,0.002523,-0.001235,-89.295265,0.002523,
780,1590,0.424927,-1.022424,0.999998,0.000168,-0.001243,0.002533,0.000072,0.002534,-0.001244,88.910289,0.002534,
1650,440,-0.368083,-4.106297,0.999998,0.000164,-0.001203,0.002480,0.000087,0.002482,-0.001205,88.644037,0.002482,
1880,690,-0.849257,-3.286245,0.999998,0.000181,-0.001230,0.002507,-0.000012,0.002507,-0.001230,-89.809298,0.002507,
970,940,0.590035,-2.810301,0.999998,0.000174,-0.001340,0.003375,0.000262,0.003390,-0.001354,86.824855,0.003413,
1680,1340,-0.604545,-1.686273,0.999998,0.000191,-0.001464,0.002771,0.000106,0.002773,-0.001467,88.568447,0.002775,
780,1390,0.565397,-1.548883,0.999997,0.000203,-0.001461,0.002725,-0.000036,0.002725,-0.001462,-89.500551,0.002728,
820,100,0.080943,-4.893145,0.999999,0.000148,-0.000339,0.001937,0.000465,0.002028,-0.000431,78.883009,0.002137,
1540,1050,-0.704048,-2.455283,0.999997,0.000208,-0.000933,0.002927,0.000125,0.002931,-0.000937,88.149848,0.002994,
1100,900,0.326698,-3.386908,0.999997,0.000196,-0.000712,0.002027,-0.001499,0.002688,-0.001373,-66.204248,0.002688,
1470,1170,-0.459003,-2.006069,0.999998,0.000180,-0.001797,0.003467,0.000003,0.003467,-0.001797,89.970132,0.003467,
1050,1420,0.150356,-1.173987,0.999999,0.000144,-0.001214,0.002217,0.000576,0.002311,-0.001308,80.727635,0.002318,
1000,1790,0.106887,-0.432507,0.999998,0.000149,-0.000528,0.001971,-0.000057,0.001972,-0.000529,-88.684571,0.002041,
1280,780,-0.028878,-3.840096,0.999999,0.000155,-0.000733,0.000859,0.000681,0.001111,-0.000984,69.728430,0.001216,
1130,620,0.067066,-3.991903,0.999999,0.000125,-0.000863,0.001730,-0.000490,0.001819,-0.000952,-79.651829,0.001820,
1810,510,-0.618155,-3.800454,0.999998,0.000175,-0.001275,0.002560,0.000021,0.002560,-0.001275,89.693379,0.002560,
640,1290,0.844155,-1.899982,0.999999,0.000152,-0.001248,0.002493,-0.000141,0.002499,-0.001253,-87.845541,0.002499,
1210,700,0.010730,-3.938803,0.999999,0.000139,-0.000521,0.001098,-0.000227,0.001130,-0.000552,-82.165292,0.001130,
1220,1940,0.001462,-0.144903,0.999999,0.000120,-0.000173,0.001574,0.000013,0.001574,-0.000173,89.588997,0.001726,
1900,630,-0.826592,-3.420931,0.999998,0.000000,-0.001276,0.002483,0.000003,0.002483,-0.001276,89.948831,0.002483,
940,1220,0.474936,-1.913246,0.999998,0.000171,-0.001804,0.003250,-0.000100,0.003252,-0.001806,-88.864322,0.003259,
780,1950,0.102870,-0.164467,0.999998,0.000150,-0.000494,0.002088,-0.000514,0.002186,-0.000593,-79.150985,0.002262,
830,1420,0.468155,-1.426804,0.999997,0.000191,-0.001498,0.002747,0.000086,0.002748,-0.001499,88.833488,0.002752,
1720,1640,-0.437441,-0.925545,0.999999,0.000156,-0.001231,0.002529,-0.000048,0.002530,-0.001231,-89.268384,0.002530,
900,820,0.527621,-3.132868,0.999998,0.000188,-0.001717,0.003106,0.000175,0.003113,-0.001723,87.921480,0.003119,
1460,430,-0.160057,-4.268662,0.999999,0.000130,-0.000902,0.002142,0.000196,0.002155,-0.000914,86.339127,0.002163,
770,1650,0.396909,-0.877221,0.999998,0.000172,-0.001195,0.002473,0.000050,0.002474,-0.001195,89.221397,0.002474,
1850,850,-0.947088,-2.919897,0.999999,0.000128,-0.001185,0.002364,-0.000123,0.002368,-0.001189,-88.015575,0.002368,
1640,820,-0.650168,-3.081428,0.999998,0.000178,-0.001486,0.002838,-0.000288,0.002857,-0.001505,-86.201163,0.002859,
1480,390,-0.165908,-4.341540,0.999998,0.000160,-0.000895,0.002172,0.000148,0.002179,-0.000903,87.234969,0.002190,
1380,1360,-0.117074,-1.256174,0.999998,0.000170,-0.001228,0.002128,-0.000797,0.002308,-0.001408,-77.292103,0.002327,
1400,420,-0.110386,-4.324474,0.999998,0.000151,-0.000790,0.002002,0.000195,0.002016,-0.000804,86.032110,0.002029,
1430,1260,-0.246918,-1.617929,0.999998,0.000162,-0.001908,0.002987,-0.000703,0.003086,-0.002007,-81.988692,0.003132,
600,1980,0.172936,-0.174501,0.999998,0.000150,-0.001119,0.002919,-0.000720,0.003043,-0.001244,-80.181455,0.003060,
1070,1530,0.118496,-0.923138,0.999999,0.000138,-0.000887,0.002013,0.000340,0.002053,-0.000927,83.401804,0.002056,
1550,1990,-0.028376,-0.076708,0.999998,0.000148,-0.000116,0.001712,0.000306,0.001762,-0.000166,80.749881,0.001946,
1170,1460,0.038812,-0.977548,0.999998,0.000158,-0.000714,0.001623,0.000298,0.001660,-0.000751,82.838265,0.001663,
690,930,0.910833,-2.752882,0.999999,0.000137,-0.001123,0.002434,0.000178,0.002443,-0.001132,87.141308,0.002446,
780,1650,0.385716,-0.870070,0.999998,0.000164,-0.001175,0.002468,0.000046,0.002469,-0.001175,89.279863,0.002469,
900,190,0.121232,-4.727466,0.999998,0.000176,-0.000541,0.002022,0.000231,0.002042,-0.000561,84.896218,0.002110,
1770,110,-0.162990,-4.841989,0.999999,0.000134,-0.000821,0.002363,-0.000620,0.002480,-0.000938,-79.365804,0.002504,
1120,1540,0.074903,-0.866708,0.999999,0.000125,-0.000749,0.001857,0.000245,0.001880,-0.000772,84.671292,0.001889,
980,1540,0.205956,-0.977696,0.999999,0.000154,-0.001110,0.002297,0.000293,0.002322,-0.001135,85.128427,0.002322,
1020,1980,0.020345,-0.088805,0.999999,0.000142,-0.000114,0.001628,-0.000187,0.001648,-0.000134,-83.952390,0.001830,
650,370,0.518797,-4.153654,0.999998,0.000173,-0.001240,0.002527,-0.000004,0.002527,-0.001240,-89.940522,0.002527,
760,1390,0.593944,-1.564055,0.999997,0.000225,-0.001424,0.002680,-0.000057,0.002681,-0.001425,-89.205937,0.002682,
1500,870,-0.488138,-3.038079,0.999997,0.000206,-0.001775,0.003349,-0.000111,0.003351,-0.001778,-88.759820,0.003353,
1810,490,-0.603223,-3.851620,0.999997,0.000191,-0.001258,0.002533,0.000039,0.002534,-0.001258,89.409581,0.002534,
890,2020,0.011395,-0.027846,0.999999,0.000000,-0.000086,0.001615,-0.000279,0.001659,-0.000131,-80.923646,0.001845,
1380,1390,-0.115741,-1.193669,0.999998,0.000141,-0.001162,0.002060,-0.000698,0.002204,-0.001307,-78.289538,0.002217,
1190,700,0.021737,-3.927433,0.999999,0.000135,-0.000618,0.001194,-0.000405,0.001280,-0.000704,-77.965370,0.001282,
1620,1550,-0.367668,-1.071771,0.999998,0.000188,-0.001308,0.002525,-0.000130,0.002530,-0.001313,-88.054748,0.002530,
1480,1790,-0.116619,-0.438977,0.999998,0.000164,-0.000583,0.001987,0.000080,0.001989,-0.000586,88.214149,0.002045,
730,1330,0.689758,-1.746233,0.999998,0.000176,-0.001404,0.002671,-0.000172,0.002678,-0.001412,-87.588921,0.002680,
1860,1170,-0.982761,-2.204969,0.999999,0.000132,-0.001074,0.002242,0.000077,0.002244,-0.001076,88.672532,0.002245,
1810,840,-0.892706,-2.961200,0.999998,0.000143,-0.001159,0.002407,-0.000180,0.002416,-0.001168,-87.120704,0.002416,
1280,760,-0.025456,-3.855692,0.999998,0.000153,-0.000671,0.000960,0.000657,0.001192,-0.000903,70.578441,0.001244,
1430,240,-0.080142,-4.662122,0.999998,0.000179,-0.000505,0.001892,-0.000038,0.001893,-0.000505,-89.080521,0.001960,
1900,620,-0.818156,-3.447137,0.999998,0.000000,-0.001269,0.002562,-0.000020,0.002562,-0.001270,-89.706183,0.002562,
1680,290,-0.297666,-4.452913,0.999998,0.000171,-0.001071,0.002415,-0.000100,0.002418,-0.001074,-88.359538,0.002423,
1540,1070,-0.693798,-2.395793,0.999998,0.000173,-0.001001,0.002943,0.000206,0.002954,-0.001011,87.011255,0.003003,
1170,1770,0.027591,-0.432529,0.999998,0.000148,-0.000406,0.001776,-0.000006,0.001776,-0.000406,-89.849252,0.001861,
1400,460,-0.115778,-4.242951,0.999998,0.000156,-0.000859,0.002011,0.000242,0.002031,-0.000879,85.215445,0.002037,
1850,830,-0.931580,-2.968023,0.999999,0.000128,-0.001177,0.002343,-0.000126,0.002347,-0.001181,-87.947357,0.002347,
740,210,0.260948,-4.624354,0.999998,0.000158,-0.000917,0.002434,0.000365,0.002473,-0.000957,83.848365,0.002494,
600,1960,0.222051,-0.232777,0.999998,0.000161,-0.001158,0.002745,-0.000577,0.002828,-0.001241,-81.766203,0.002835,
1130,1560,0.066687,-0.825560,0.999999,0.000108,-0.000697,0.001833,0.000218,0.001851,-0.000716,85.117195,0.001867,
1230,430,0.000785,-4.356067,0.999998,0.000166,-0.000609,0.001786,-0.000004,0.001786,-0.000609,-89.902345,0.001816,
950,1020,0.684165,-2.542254,0.999998,0.000172,-0.000944,0.003049,0.000029,0.003049,-0.000944,89.580463,0.003122,
860,500,0.345238,-3.995210,0.999998,0.000176,-0.001260,0.002468,-0.000165,0.002476,-0.001268,-87.466609,0.002476,
1550,1970,-0.041451,-0.112062,0.999999,0.000134,-0.000173,0.001741,0.000301,0.001787,-0.000219,81.257904,0.001950,
870,1200,0.618819,-2.034914,0.999996,0.000215,-0.001520,0.002977,-0.000317,0.003000,-0.001542,-85.985003,0.003000,
1690,1980,-0.071452,-0.104638,0.999999,0.000137,-0.000326,0.001959,0.000544,0.002082,-0.000448,77.276821,0.002192,
770,1630,0.410736,-0.929701,0.999998,0.000171,-0.001212,0.002512,0.000059,0.002513,-0.001213,89.090413,0.002513,
880,1390,0.412898,-1.463054,0.999997,0.000188,-0.001573,0.002798,0.000136,0.002802,-0.001577,88.213722,0.002810,
1640,800,-0.627622,-3.137939,0.999998,0.000180,-0.001518,0.002876,-0.000248,0.002890,-0.001532,-86.778569,0.002892,
1330,1450,-0.065090,-1.017951,0.999999,0.000130,-0.000792,0.001761,-0.000444,0.001836,-0.000867,-80.417623,0.001837,
1070,1510,0.119244,-0.962823,0.999998,0.000150,-0.000901,0.002023,0.000366,0.002068,-0.000946,82.978795,0.002071,
900,800,0.504867,-3.195462,0.999998,0.000198,-0.001750,0.003070,0.000118,0.003073,-0.001753,88.598881,0.003083,
1720,1620,-0.450829,-0.975700,0.999998,0.000159,-0.001240,0.002538,-0.000050,0.002539,-0.001241,-89.245410,0.002539,
1440,2000,-0.011638,-0.055771,0.999999,0.000131,-0.000060,0.001566,0.000133,0.001577,-0.000071,85.354043,0.001781,
980,1520,0.212380,-1.022287,0.999998,0.000155,-0.001167,0.002332,0.000338,0.002364,-0.001199,84.536985,0.002364,
1200,830,0.042157,-3.831017,0.999998,0.000173,-0.001306,0.000666,-0.000187,0.000684,-0.001324,-84.619589,0.001324,
650,350,0.500797,-4.203832,0.999998,0.000181,-0.001243,0.002515,0.000016,0.002515,-0.001243,89.759405,0.002515,
1330,1540,-0.065459,-0.860317,0.999998,0.000152,-0.000753,0.001824,-0.000251,0.001849,-0.000777,-84.492605,0.001856,
950,1360,0.319951,-1.468213,0.999997,0.000202,-0.001644,0.002864,0.000338,0.002890,-0.001669,85.736868,0.002901,
890,30,0.008154,-5.021015,0.999999,0.000000,-0.000113,0.001582,0.000312,0.001638,-0.000168,79.893765,0.001802,
1020,1960,0.028025,-0.121076,0.999999,0.000146,-0.000172,0.001676,-0.000160,0.001690,-0.000185,-85.079828,0.001854,
950,940,0.617022,-2.792863,0.999997,0.000193,-0.001329,0.003195,0.000314,0.003217,-0.001351,86.043890,0.003231,
1810,470,-0.589766,-3.902823,0.999998,0.000178,-0.001246,0.002573,0.000056,0.002574,-0.001247,89.158268,0.002575,
1510,1710,-0.175069,-0.618986,0.999998,0.000169,-0.000853,0.002185,-0.000052,0.002186,-0.000854,-89.016354,0.002204,
620,1290,0.868342,-1.912589,0.999998,0.000149,-0.001226,0.002490,-0.000104,0.002492,-0.001229,-88.397088,0.002493,
910,140,0.081418,-4.828029,0.999998,0.000144,-0.000352,0.001896,0.000288,0.001933,-0.000389,82.816099,0.002045,
1830,560,-0.681216,-3.655767,0.999998,0.000175,-0.001254,0.002578,0.000015,0.002578,-0.001254,89.778943,0.002579,
1470,1150,-0.496114,-2.074943,0.999998,0.000187,-0.001706,0.003519,0.000068,0.003520,-0.001707,89.258662,0.003520,
1140,1750,0.042530,-0.471411,0.999998,0.000141,-0.000518,0.001803,0.000037,0.001804,-0.000518,89.082099,0.001857,
1290,460,-0.035586,-4.296351,0.999999,0.000148,-0.000616,0.001786,0.000070,0.001788,-0.000618,88.336876,0.001816,
1890,1320,-0.900179,-1.872353,0.999998,0.000144,-0.001208,0.002436,0.000055,0.002437,-0.001209,89.138390,0.002437,
1380,1340,-0.120554,-1.296939,0.999998,0.000169,-0.001316,0.002166,-0.000887,0.002379,-0.001529,-76.500732,0.002411,
730,1310,0.708557,-1.799504,0.999998,0.000172,-0.001410,0.002671,-0.000204,0.002681,-0.001420,-87.147950,0.002682,
1810,980,-0.970829,-2.629401,0.999998,0.000148,-0.001076,0.002291,-0.000042,0.002292,-0.001076,-89.287727,0.002293,
1700,1650,-0.404951,-0.883981,0.999998,0.000175,-0.001201,0.002507,-0.000024,0.002507,-0.001201,-89.621644,0.002508,
820,80,0.060096,-4.929492,0.999999,0.000142,-0.000257,0.001887,0.000491,0.001994,-0.000364,77.696590,0.002124,
850,1980,0.049944,-0.097867,0.999999,0.000133,-0.000200,0.001859,-0.000432,0.001946,-0.000287,-78.611382,0.002101,
1280,850,-0.100169,-3.786518,0.999997,0.000179,-0.001604,0.000808,0.000062,0.000810,-0.001606,88.532121,0.001606,
690,910,0.899040,-2.802687,0.999999,0.000153,-0.001134,0.002415,0.000171,0.002423,-0.001142,87.253668,0.002425,
900,780,0.481387,-3.256281,0.999997,0.000191,-0.001749,0.003071,0.000074,0.003072,-0.001750,89.115006,0.003082,
590,40,0.088243,-4.960117,0.999997,0.000217,-0.000159,0.003087,0.001493,0.003669,-0.000741,68.697841,0.003881,
1720,1600,-0.463677,-1.026586,0.999998,0.000172,-0.001282,0.002520,-0.000061,0.002521,-0.001283,-89.076798,0.002521,
870,740,0.491027,-3.349805,0.999997,0.000210,-0.001663,0.002952,0.000022,0.002952,-0.001663,89.722627,0.002960,
920,1770,0.171657,-0.505307,0.999998,0.000157,-0.000708,0.002155,-0.000097,0.002158,-0.000711,-88.060790,0.002199,
1770,500,-0.559130,-3.858704,0.999998,0.000179,-0.001281,0.002580,0.000051,0.002580,-0.001281,89.242403,0.002580,
1040,1730,0.103551,-0.539181,0.999998,0.000177,-0.000696,0.001954,0.000062,0.001956,-0.000697,88.652268,0.001983,
1280,740,-0.026058,-3.876473,0.999999,0.000144,-0.000642,0.001052,0.000577,0.001230,-0.000820,72.872985,0.001253,
1040,1770,0.091827,-0.459997,0.999998,0.000150,-0.000621,0.001945,0.000006,0.001945,-0.000621,89.865777,0.001987,
1130,1540,0.067606,-0.861772,0.999999,0.000121,-0.000718,0.001819,0.000242,0.001842,-0.000741,84.588703,0.001853,
1680,1320,-0.623003,-1.741679,0.999998,0.000177,-0.001469,0.002759,0.000163,0.002766,-0.001475,87.790543,0.002768,
1900,610,-0.809134,-3.472820,0.999999,0.000000,-0.001266,0.002604,-0.000025,0.002604,-0.001266,-89.622949,0.002604,
1840,1170,-0.961091,-2.197755,0.999998,0.000156,-0.001127,0.002300,0.000116,0.002304,-0.001131,88.056075,0.002304,
1230,450,0.003157,-4.321065,0.999998,0.000160,-0.000634,0.001756,-0.000011,0.001757,-0.000634,-89.735465,0.001779,
1710,1400,-0.595788,-1.542940,0.999998,0.000205,-0.001427,0.002701,0.000057,0.002702,-0.001428,89.204695,0.002704,
1770,90,-0.131158,-4.884004,0.999998,0.000144,-0.000667,0.002231,-0.000692,0.002388,-0.000824,-77.233107,0.002426,
770,1610,0.423240,-0.979420,0.999998,0.000168,-0.001234,0.002512,0.000050,0.002513,-0.001235,89.233394,0.002513,
1450,1620,-0.153413,-0.775894,0.999998,0.000174,-0.000889,0.002117,-0.000210,0.002131,-0.000903,-86.025592,0.002139,
860,480,0.334434,-4.043552,0.999998,0.000173,-0.001228,0.002488,-0.000147,0.002494,-0.001234,-87.734913,0.002494,
1600,460,-0.319940,-4.096621,0.999998,0.000171,-0.001205,0.002451,0.000131,0.002456,-0.001210,87.954246,0.002456,
1120,1520,0.075934,-0.904460,0.999999,0.000134,-0.000777,0.001856,0.000279,0.001885,-0.000806,84.021793,0.001891,
720,190,0.255596,-4.662565,0.999998,0.000154,-0.001030,0.002446,0.000309,0.002473,-0.001057,84.952724,0.002482,
1170,1750,0.028855,-0.468220,0.999998,0.000157,-0.000426,0.001763,0.000001,0.001763,-0.000426,89.961920,0.001840,
910,840,0.535754,-3.078327,0.999998,0.000171,-0.001667,0.003138,0.000223,0.003148,-0.001677,87.348036,0.003151,
1240,2000,-0.000239,-0.054069,0.999999,0.000120,-0.000015,0.001497,-0.000012,0.001497,-0.000015,-89.545707,0.001720,
650,330,0.483969,-4.255145,0.999998,0.000197,-0.001230,0.002521,0.000013,0.002521,-0.001230,89.805938,0.002521,
1070,1490,0.120568,-1.001675,0.999999,0.000138,-0.000951,0.001981,0.000420,0.002040,-0.001010,81.999571,0.002040,
980,1500,0.217538,-1.070897,0.999998,0.000162,-0.001217,0.002356,0.000371,0.002394,-0.001255,84.132710,0.002395,
1870,630,-0.787213,-3.446461,0.999998,0.000169,-0.001294,0.002552,-0.000017,0.002552,-0.001294,-89.746241,0.002552,
940,1200,0.504613,-1.979154,0.999998,0.000180,-0.001737,0.003255,-0.000179,0.003261,-0.001744,-87.952092,0.003264,
600,1940,0.264742,-0.284801,0.999998,0.000161,-0.001193,0.002673,-0.000410,0.002716,-0.001237,-84.008143,0.002720,
1460,490,-0.176949,-4.138051,0.999999,0.000125,-0.001017,0.002184,0.000297,0.002211,-0.001044,84.752521,0.002213,
690,890,0.888616,-2.850498,0.999998,0.000150,-0.001172,0.002454,0.000215,0.002467,-0.001184,86.619044,0.002468,
1810,450,-0.574154,-3.954139,0.999998,0.000171,-0.001262,0.002533,0.000056,0.002534,-0.001263,89.160546,0.002534,
1880,760,-0.909459,-3.113560,0.999998,0.000172,-0.001178,0.002442,-0.000085,0.002444,-0.001180,-88.659078,0.002444,
1510,1690,-0.184239,-0.663970,0.999998,0.000160,-0.000886,0.002169,-0.000094,0.002172,-0.000889,-88.236073,0.002184,
950,1000,0.677811,-2.603146,0.999998,0.000171,-0.000959,0.003131,0.000133,0.003135,-0.000963,88.140288,0.003212,
1790,120,-0.196861,-4.806676,0.999998,0.000163,-0.000844,0.002503,-0.000669,0.002631,-0.000973,-79.110237,0.002661,
1770,480,-0.545155,-3.910750,0.999997,0.000199,-0.001262,0.002551,0.000057,0.002552,-0.001263,89.136552,0.002552,
920,1750,0.182458,-0.548139,0.999998,0.000174,-0.000749,0.002136,-0.000056,0.002138,-0.000750,-88.881787,0.002169,
1470,1130,-0.532822,-2.145258,0.999998,0.000179,-0.001569,0.003582,0.000086,0.003583,-0.001570,89.040658,0.003592,
1440,1150,-0.442961,-2.012564,0.999998,0.000173,-0.001700,0.003632,-0.000312,0.003650,-0.001719,-86.658116,0.003653,
1550,280,-0.172890,-4.544534,0.999999,0.000141,-0.000713,0.002153,-0.000094,0.002156,-0.000717,-88.123021,0.002196,
1020,1770,0.104151,-0.467717,0.999998,0.000145,-0.000587,0.001994,-0.000015,0.001994,-0.000587,-89.656248,0.002050,
1310,1580,-0.049555,-0.778750,0.999998,0.000166,-0.000700,0.001807,-0.000188,0.001821,-0.000714,-85.740018,0.001835,
1680,1300,-0.642597,-1.795593,0.999998,0.000163,-0.001471,0.002770,0.000190,0.002779,-0.001480,87.445932,0.002781,
1640,780,-0.608109,-3.195427,0.999998,0.000189,-0.001557,0.002887,-0.000209,0.002897,-0.001567,-87.310428,0.002900,
1020,1940,0.036843,-0.155480,0.999999,0.000148,-0.000221,0.001695,-0.000162,0.001709,-0.000235,-85.187311,0.001853,
1230,470,0.000599,-4.285055,0.999999,0.000144,-0.000635,0.001714,-0.000014,0.001714,-0.000635,-89.657907,0.001733,
630,960,0.992884,-2.672174,0.999998,0.000164,-0.001073,0.002257,0.000068,0.002258,-0.001075,88.838078,0.002259,
1700,1630,-0.419558,-0.933898,0.999998,0.000154,-0.001227,0.002517,-0.000057,0.002518,-0.001228,-89.127394,0.002519,
1900,600,-0.799539,-3.499546,0.999998,0.000000,-0.001271,0.002611,-0.000002,0.002611,-0.001271,-89.965005,0.002611,
1280,720,-0.025597,-3.897934,0.999999,0.000144,-0.000623,0.001133,0.000515,0.001273,-0.000763,74.806482,0.001281,
1380,1320,-0.124145,-1.342799,0.999998,0.000178,-0.001422,0.002230,-0.000942,0.002458,-0.001650,-76.356089,0.002506,
620,1250,0.903241,-2.010646,0.999998,0.000147,-0.001196,0.002364,-0.000136,0.002369,-0.001201,-87.811849,0.002369,
1140,1730,0.044978,-0.507591,0.999998,0.000155,-0.000559,0.001811,0.000052,0.001812,-0.000560,88.736716,0.001855,
1330,1430,-0.065132,-1.053799,0.999999,0.000139,-0.000824,0.001715,-0.000505,0.001812,-0.000920,-79.161378,0.001812,
1270,460,-0.024018,-4.298114,0.999999,0.000144,-0.000584,0.001760,0.000063,0.001762,-0.000585,88.466334,0.001795,
860,460,0.323949,-4.093698,0.999999,0.000184,-0.001192,0.002472,-0.000118,0.002476,-0.001196,-88.161814,0.002476,
720,1330,0.703665,-1.752049,0.999998,0.000168,-0.001375,0.002656,-0.000169,0.002663,-0.001382,-87.604326,0.002663,
770,1590,0.437897,-1.029307,0.999997,0.000183,-0.001235,0.002555,0.000067,0.002556,-0.001237,88.980546,0.002557,
720,370,0.431716,-4.210744,0.999998,0.000179,-0.001219,0.002526,-0.000008,0.002526,-0.001219,-89.871331,0.002527,
720,1830,0.297185,-0.463915,0.999997,0.000194,-0.001076,0.002478,-0.000230,0.002493,-0.001091,-86.315135,0.002500,
1600,440,-0.309003,-4.145844,0.999998,0.000158,-0.001129,0.002441,0.000110,0.002444,-0.001132,88.229717,0.002446,
820,60,0.040240,-4.968866,0.999999,0.000139,-0.000163,0.001850,0.000476,0.001957,-0.000270,77.351356,0.002121,
1230,200,0.000482,-4.756912,0.999999,0.000147,-0.000305,0.001677,0.000004,0.001677,-0.000305,89.872552,0.001787,
880,2020,0.012041,-0.029263,0.999999,0.000000,-0.000102,0.001592,-0.000313,0.001648,-0.000158,-79.853672,0.001819,
1170,1730,0.029695,-0.504214,0.999998,0.000155,-0.000466,0.001800,0.000015,0.001800,-0.000466,89.629826,0.001869,
1420,350,-0.108408,-4.454127,0.999998,0.000169,-0.000717,0.001965,0.000086,0.001968,-0.000720,88.167850,0.001992,
1890,190,-0.425685,-4.526556,0.999997,0.000185,-0.001238,0.002491,-0.000115,0.002494,-0.001241,-88.236993,0.002494,
890,860,0.593189,-3.001532,0.999998,0.000180,-0.001571,0.003043,0.000324,0.003066,-0.001594,86.007510,0.003067,
1850,810,-0.914930,-3.013014,0.999999,0.000139,-0.001183,0.002356,-0.000128,0.002361,-0.001188,-87.935692,0.002361,
760,270,0.303028,-4.488875,0.999997,0.000182,-0.001034,0.002450,0.000175,0.002458,-0.001043,87.125188,0.002468,
900,1610,0.270712,-0.879472,0.999998,0.000171,-0.001113,0.002381,0.000144,0.002387,-0.001119,87.641356,0.002389,
1090,440,0.090328,-4.299698,0.999998,0.000163,-0.000769,0.001956,-0.000200,0.001970,-0.000783,-85.821056,0.001984,
1430,790,-0.242440,-3.436610,0.999997,0.000212,-0.001882,0.002974,0.000699,0.003073,-0.001980,81.973479,0.003115,
1770,70,-0.095461,-4.931057,0.999998,0.000156,-0.000486,0.002304,-0.000846,0.002540,-0.000722,-74.384922,0.002618,
1460,470,-0.171481,-4.181063,0.999998,0.000156,-0.000986,0.002168,0.000276,0.002192,-0.001010,85.030457,0.002195,
930,1880,0.097107,-0.276595,0.999998,0.000165,-0.000423,0.001943,-0.000218,0.001963,-0.000443,-84.789611,0.002059,
1690,1880,-0.193790,-0.319383,0.999998,0.000160,-0.000783,0.002279,0.000368,0.002322,-0.000827,83.243656,0.002354,
690,870,0.872526,-2.901323,0.999998,0.000161,-0.001201,0.002466,0.000243,0.002482,-0.001217,86.225254,0.002482,
850,1120,0.732047,-2.272650,0.999998,0.000169,-0.001181,0.002755,-0.000333,0.002783,-0.001209,-85.195142,0.002791,
650,310,0.468284,-4.305647,0.999998,0.000198,-0.001217,0.002548,0.000044,0.002548,-0.001218,89.334263,0.002549,
1810,430,-0.561928,-4.004278,0.999998,0.000163,-0.001259,0.002531,0.000050,0.002532,-0.001259,89.248522,0.002532,
1680,870,-0.755357,-2.927925,0.999998,0.000160,-0.001279,0.002691,-0.000317,0.002716,-0.001304,-85.459059,0.002717,
940,1180,0.534233,-2.044781,0.999998,0.000185,-0.001625,0.003238,-0.000239,0.003249,-0.001637,-87.196408,0.003249,
600,1920,0.304573,-0.338315,0.999998,0.000179,-0.001219,0.002647,-0.000300,0.002670,-0.001242,-85.588784,0.002672,
590,540,0.719928,-3.674596,0.999998,0.000163,-0.001364,0.002627,-0.000018,0.002627,-0.001364,-89.736064,0.002628,
840,1030,0.785662,-2.513136,0.999998,0.000203,-0.000978,0.002633,-0.000016,0.002633,-0.000978,-89.752417,0.002661,
1790,100,-0.161713,-4.856974,0.999998,0.000189,-0.000678,0.002387,-0.000749,0.002561,-0.000851,-76.976942,0.002608,
1310,1540,-0.050444,-0.850081,0.999999,0.000144,-0.000701,0.001801,-0.000243,0.001825,-0.000725,-84.500746,0.001838,
1850,1780,-0.478099,-0.681231,0.999997,0.000210,-0.001215,0.002479,0.000020,0.002479,-0.001215,89.682410,0.002479,
1470,1110,-0.567596,-2.217841,0.999997,0.000190,-0.001433,0.003635,0.000111,0.003637,-0.001436,88.741362,0.003664,
1510,1670,-0.191516,-0.706535,0.999998,0.000153,-0.000920,0.002186,-0.000121,0.002191,-0.000925,-87.764556,0.002200,
840,1570,0.361238,-1.024459,0.999998,0.000172,-0.001215,0.002478,0.000123,0.002483,-0.001219,88.090310,0.002483,
1530,280,-0.158661,-4.551849,0.999998,0.000162,-0.000712,0.002119,-0.000069,0.002121,-0.000714,-88.595214,0.002158,
1870,760,-0.897764,-3.120454,0.999999,0.000135,-0.001198,0.002447,-0.000098,0.002450,-0.001200,-88.458164,0.002450,
1130,1500,0.067828,-0.935487,0.999999,0.000112,-0.000754,0.001783,0.000306,0.001819,-0.000790,83.226762,0.001824,
1120,1500,0.075513,-0.940115,0.999999,0.000119,-0.000810,0.001832,0.000334,0.001874,-0.000852,82.905305,0.001877,
1900,590,-0.792817,-3.525052,0.999998,0.000000,-0.001272,0.002597,0.000026,0.002597,-0.001272,89.617751,0.002597,
1070,1470,0.123204,-1.040147,0.999999,0.000130,-0.001009,0.002055,0.000499,0.002134,-0.001088,80.974194,0.002134,
980,1920,0.054397,-0.193099,0.999999,0.000143,-0.000301,0.001765,-0.000185,0.001782,-0.000317,-84.923148,0.001901,
1680,1280,-0.661501,-1.852103,0.999997,0.000182,-0.001449,0.002788,0.000232,0.002801,-0.001461,86.878405,0.002802,
610,960,1.012341,-2.668768,0.999999,0.000122,-0.001056,0.002165,0.000039,0.002165,-0.001056,89.314389,0.002165,
1420,1150,-0.410184,-1.950060,0.999996,0.000222,-0.001680,0.003511,-0.000709,0.003606,-0.001775,-82.356804,0.003606,
1230,490,0.002085,-4.253082,0.999999,0.000136,-0.000636,0.001719,0.000012,0.001719,-0.000636,89.705809,0.001739,
1020,1920,0.044673,-0.189532,0.999999,0.000156,-0.000248,0.001696,-0.000138,0.001705,-0.000258,-85.947294,0.001838,
1280,700,-0.026112,-3.921884,0.999999,0.000144,-0.000626,0.001211,0.000459,0.001320,-0.000734,76.725222,0.001323,
1490,1600,-0.196451,-0.847347,0.999999,0.000144,-0.000978,0.002214,-0.000192,0.002226,-0.000990,-86.572673,0.002230,
860,440,0.311347,-4.143071,0.999998,0.000199,-0.001173,0.002425,-0.000116,0.002428,-0.001177,-88.158144,0.002429,
770,1570,0.449501,-1.081493,0.999998,0.000183,-0.001248,0.002546,0.000073,0.002547,-0.001250,88.900963,0.002547,
1860,250,-0.462895,-4.412736,0.999997,0.000226,-0.001222,0.002478,-0.000032,0.002478,-0.001222,-89.502661,0.002478,
1380,1300,-0.132462,-1.387859,0.999998,0.000190,-0.001503,0.002313,-0.000956,0.002539,-0.001729,-76.693311,0.002594,
1020,1730,0.117980,-0.546270,0.999998,0.000160,-0.000682,0.001979,0.000024,0.001980,-0.000682,89.478715,0.002011,
1310,720,-0.046160,-3.859761,0.999998,0.000149,-0.000806,0.001407,0.000764,0.001645,-0.001045,72.684528,0.001665,
1850,790,-0.899779,-3.062218,0.999999,0.000133,-0.001207,0.002412,-0.000121,0.002416,-0.001212,-88.081247,0.002416,
1330,1410,-0.064818,-1.087599,0.999999,0.000137,-0.000849,0.001688,-0.000566,0.001808,-0.000970,-77.975978,0.001810,
1310,700,-0.046786,-3.888655,0.999998,0.000168,-0.000783,0.001454,0.000686,0.001647,-0.000977,74.240657,0.001657,
700,390,0.471614,-4.143229,0.999998,0.000182,-0.001226,0.002520,-0.000028,0.002520,-0.001226,-89.571940,0.002521,
1170,1710,0.031489,-0.539833,0.999998,0.000145,-0.000491,0.001776,-0.000006,0.001776,-0.000491,-89.847206,0.001835,
890,840,0.568057,-3.063163,0.999998,0.000168,-0.001643,0.003060,0.000249,0.003073,-0.001657,86.978882,0.003076,
1430,770,-0.226144,-3.494907,0.999997,0.000198,-0.001830,0.002878,0.000724,0.002987,-0.001939,81.454124,0.003031,
670,1860,0.316838,-0.425114,0.999998,0.000168,-0.001088,0.002558,-0.000324,0.002587,-0.001116,-84.961459,0.002595,
1810,410,-0.544829,-4.054937,0.999998,0.000186,-0.001256,0.002518,0.000039,0.002519,-0.001257,89.403195,0.002519,
1880,190,-0.413198,-4.538265,0.999998,0.000184,-0.001243,0.002509,-0.000113,0.002512,-0.001247,-88.269204,0.002512,
1550,1000,-0.711942,-2.597122,0.999998,0.000177,-0.000921,0.002876,-0.000163,0.002883,-0.000928,-87.544969,0.002943,
1600,420,-0.298064,-4.195686,0.999998,0.000155,-0.001081,0.002420,0.000082,0.002422,-0.001083,88.660166,0.002426,
1690,1860,-0.215248,-0.365560,0.999999,0.000135,-0.000845,0.002360,0.000334,0.002394,-0.000879,84.104431,0.002422,
690,850,0.856185,-2.949609,0.999998,0.000151,-0.001239,0.002496,0.000228,0.002510,-0.001253,86.513456,0.002510,
1210,200,0.006148,-4.756467,0.999998,0.000198,-0.000303,0.001675,-0.000001,0.001675,-0.000303,-89.960337,0.001785,
1460,650,-0.216439,-3.765820,0.999998,0.000137,-0.001395,0.002517,0.000533,0.002588,-0.001466,82.384049,0.002596,
600,1900,0.338285,-0.390072,0.999998,0.000178,-0.001233,0.002593,-0.000197,0.002603,-0.001244,-87.064115,0.002603,
940,1160,0.565361,-2.109373,0.999998,0.000176,-0.001521,0.003220,-0.000305,0.003240,-0.001540,-86.329341,0.003241,
930,380,0.211011,-4.331546,0.999998,0.000165,-0.000878,0.002218,-0.000076,0.002220,-0.000880,-88.585900,0.002236,
880,30,0.010284,-5.019147,0.999999,0.000000,-0.000104,0.001611,0.000328,0.001672,-0.000165,79.539026,0.001843,
580,540,0.732444,-3.666476,0.999998,0.000188,-0.001802,0.002733,-0.000044,0.002733,-0.001802,-89.443664,0.002779,
740,270,0.324654,-4.476318,0.999998,0.000202,-0.001036,0.002478,0.000169,0.002486,-0.001044,87.260517,0.002497,
1810,1020,-0.979137,-2.537706,0.999998,0.000148,-0.001073,0.002319,-0.000029,0.002319,-0.001074,-89.510103,0.002321,
1850,1760,-0.498540,-0.729802,0.999998,0.000221,-0.001225,0.002485,0.000015,0.002485,-0.001226,89.763166,0.002485,
1470,1090,-0.598141,-2.292972,0.999997,0.000201,-0.001323,0.003588,0.000066,0.003589,-0.001324,89.224833,0.003630,
950,1880,0.088277,-0.271674,0.999999,0.000135,-0.000439,0.001909,-0.000197,0.001926,-0.000456,-85.232447,0.002013,
1730,1560,-0.504166,-1.136793,0.999998,0.000171,-0.001272,0.002572,-0.000077,0.002574,-0.001273,-88.860126,0.002574,
1680,1260,-0.682774,-1.908539,0.999998,0.000174,-0.001427,0.002768,0.000259,0.002784,-0.001443,86.478221,0.002785,
1250,1540,-0.012126,-0.833565,0.999998,0.000149,-0.000649,0.001669,-0.000080,0.001672,-0.000652,-88.013504,0.001685,
650,290,0.449347,-4.355902,0.999998,0.000186,-0.001203,0.002544,0.000080,0.002545,-0.001205,88.772687,0.002547,
1760,1980,-0.101297,-0.121005,0.999999,0.000132,-0.000563,0.002203,0.000719,0.002379,-0.000739,76.265149,0.002435,
1740,330,-0.396336,-4.314054,0.999998,0.000152,-0.001188,0.002506,-0.000019,0.002506,-0.001188,-89.702062,0.002507,
830,1120,0.755872,-2.276304,0.999998,0.000176,-0.001146,0.002687,-0.000293,0.002710,-0.001168,-85.655380,0.002718,
1510,1650,-0.200260,-0.750734,0.999998,0.000166,-0.000936,0.002194,-0.000138,0.002200,-0.000942,-87.478373,0.002208,
1640,760,-0.587284,-3.254498,0.999998,0.000198,-0.001567,0.002876,-0.000162,0.002882,-0.001573,-87.915630,0.002886,
590,100,0.245066,-4.783461,0.999998,0.000149,-0.001088,0.002800,0.000561,0.002880,-0.001167,81.952670,0.002897,
770,1550,0.464340,-1.131568,0.999998,0.000179,-0.001273,0.002559,0.000077,0.002561,-0.001275,88.844248,0.002561,
1900,580,-0.786903,-3.551743,0.999998,0.000000,-0.001287,0.002553,0.000041,0.002553,-0.001287,89.394500,0.002553,
1530,260,-0.148577,-4.592978,0.999998,0.000181,-0.000654,0.002076,-0.000106,0.002080,-0.000658,-87.772986,0.002126,
590,1650,0.619777,-1.024032,0.999998,0.000177,-0.001641,0.002559,0.000056,0.002560,-0.001641,89.234208,0.002594,
1120,1480,0.075649,-0.977583,0.999999,0.000138,-0.000835,0.001820,0.000403,0.001880,-0.000894,81.555819,0.001880,
1790,1180,-0.896409,-2.156600,0.999999,0.000131,-0.001187,0.002441,0.000228,0.002455,-0.001201,86.424277,0.002455,
1230,1330,0.000844,-1.118011,0.999999,0.000137,-0.000486,0.000908,0.000020,0.000909,-0.000486,89.192435,0.000909,
1020,1900,0.051854,-0.224112,0.999998,0.000178,-0.000313,0.001769,-0.000151,0.001780,-0.000324,-85.869015,0.001896,
1280,680,-0.025833,-3.946570,0.999999,0.000147,-0.000633,0.001291,0.000417,0.001378,-0.000719,78.294684,0.001378,
1470,1600,-0.177630,-0.833911,0.999998,0.000160,-0.000989,0.002171,-0.000225,0.002187,-0.001005,-85.951034,0.002189,
1070,1450,0.124584,-1.084391,0.999998,0.000145,-0.001072,0.002106,0.000558,0.002201,-0.001167,80.328677,0.002202,
1810,1440,-0.697447,-1.509770,0.999997,0.000208,-0.001302,0.002578,0.000016,0.002578,-0.001302,89.762842,0.002578,
1550,1950,-0.055804,-0.145414,0.999999,0.000143,-0.000220,0.001821,0.000328,0.001872,-0.000271,81.095936,0.002023,
860,420,0.303157,-4.191544,0.999998,0.000189,-0.001144,0.002408,-0.000100,0.002411,-0.001146,-88.390557,0.002412,
960,1650,0.192928,-0.746152,0.999998,0.000172,-0.000935,0.002213,0.000129,0.002219,-0.000940,87.656741,0.002227,
1730,1380,-0.640790,-1.610107,0.999998,0.000184,-0.001383,0.002669,0.000093,0.002671,-0.001385,88.686973,0.002672,
1170,1690,0.033671,-0.576192,0.999998,0.000139,-0.000526,0.001775,0.000010,0.001775,-0.000526,89.746235,0.001823,
1380,1280,-0.141382,-1.434936,0.999998,0.000182,-0.001580,0.002374,-0.001026,0.002625,-0.001830,-76.281893,0.002692,
1810,390,-0.528145,-4.105234,0.999998,0.000195,-0.001265,0.002511,0.000032,0.002512,-0.001265,89.521804,0.002512,
700,370,0.456812,-4.193712,0.999997,0.000179,-0.001214,0.002540,-0.000019,0.002540,-0.001214,-89.710985,0.002541,
1330,1390,-0.064002,-1.122414,0.999999,0.000144,-0.000864,0.001675,-0.000647,0.001830,-0.001019,-76.495711,0.001834,
900,760,0.459873,-3.317520,0.999997,0.000201,-0.001724,0.003081,-0.000007,0.003081,-0.001724,-89.914341,0.003088,
730,1290,0.727166,-1.852494,0.999998,0.000176,-0.001385,0.002656,-0.000233,0.002669,-0.001398,-86.713949,0.002670,
1720,1580,-0.477275,-1.075544,0.999998,0.000187,-0.001307,0.002555,-0.000069,0.002556,-0.001309,-88.980808,0.002556,
830,1980,0.053382,-0.098774,0.999998,0.000138,-0.000219,0.001875,-0.000473,0.001977,-0.000321,-77.835517,0.002122,
1290,700,-0.032676,-3.911345,0.999999,0.000131,-0.000672,0.001289,0.000533,0.001425,-0.000807,75.738938,0.001429,
1460,630,-0.209729,-3.814578,0.999998,0.000185,-0.001329,0.002430,0.000493,0.002494,-0.001392,82.648919,0.002500,
760,770,0.690205,-3.189832,0.999998,0.000193,-0.001402,0.002722,0.000224,0.002734,-0.001414,86.905218,0.002735,
1670,1880,-0.177945,-0.310293,0.999998,0.000158,-0.000789,0.002231,0.000346,0.002270,-0.000829,83.544224,0.002298,
1530,1000,-0.693521,-2.601060,0.999998,0.000186,-0.000943,0.003033,-0.000147,0.003038,-0.000949,-87.884708,0.003109,
740,250,0.305217,-4.526527,0.999998,0.000173,-0.000998,0.002475,0.000213,0.002488,-0.001011,86.502646,0.002503,
1000,1730,0.130445,-0.553632,0.999999,0.000144,-0.000644,0.001990,0.000001,0.001990,-0.000644,89.975202,0.002031,
690,830,0.838624,-2.999768,0.999999,0.000135,-0.001271,0.002520,0.000225,0.002533,-0.001285,86.617039,0.002534,
600,1880,0.368657,-0.442382,0.999998,0.000188,-0.001230,0.002589,-0.000166,0.002596,-0.001237,-87.522454,0.002597,
1870,1580,-0.668192,-1.197418,0.999998,0.000186,-0.001250,0.002532,-0.000023,0.002532,-0.001250,-89.657211,0.002532,
1900,570,-0.779168,-3.576737,0.999998,0.000000,-0.001326,0.002521,0.000038,0.002522,-0.001327,89.427083,0.002523,
1470,1070,-0.619691,-2.361360,0.999997,0.000201,-0.001246,0.003647,0.000033,0.003647,-0.001246,89.613306,0.003707,
940,1140,0.595613,-2.175593,0.999998,0.000189,-0.001395,0.003201,-0.000338,0.003226,-0.001420,-85.814308,0.003233,
590,90,0.221854,-4.811349,0.999998,0.000151,-0.001069,0.002886,0.000661,0.002993,-0.001176,80.751526,0.003016,
580,400,0.628302,-4.019660,0.999998,0.000175,-0.002911,0.002666,-0.000009,0.002666,-0.002911,-89.910137,0.003229,
1810,1000,-0.974847,-2.584462,0.999999,0.000134,-0.001065,0.002301,-0.000075,0.002302,-0.001066,-88.730783,0.002304,
1510,1630,-0.206347,-0.794271,0.999998,0.000174,-0.000929,0.002219,-0.000152,0.002226,-0.000937,-87.251220,0.002236,
1020,1790,0.096388,-0.427407,0.999998,0.000173,-0.000559,0.001925,-0.000040,0.001926,-0.000560,-89.066690,0.001981,
1030,390,0.128019,-4.365809,0.999998,0.000185,-0.000762,0.002055,-0.000129,0.002061,-0.000768,-87.387158,0.002083,
1600,1150,-0.686297,-2.184424,0.999998,0.000166,-0.001282,0.002864,0.000354,0.002894,-0.001312,85.150663,0.002898,
1680,1240,-0.702270,-1.961531,0.999998,0.000170,-0.001405,0.002741,0.000292,0.002762,-0.001426,85.990658,0.002762,
860,400,0.290854,-4.239116,0.999998,0.000184,-0.001120,0.002381,-0.000053,0.002382,-0.001121,-89.134945,0.002383,
1550,1930,-0.071421,-0.184493,0.999998,0.000150,-0.000288,0.001893,0.000302,0.001934,-0.000329,82.253836,0.002070,
900,170,0.106770,-4.767491,0.999999,0.000140,-0.000480,0.001979,0.000241,0.002002,-0.000504,84.452246,0.002083,
1230,1310,0.000425,-1.135875,0.999999,0.000135,-0.000500,0.000772,0.000014,0.000772,-0.000500,89.384388,0.000783,
770,1530,0.477338,-1.183626,0.999998,0.000178,-0.001317,0.002610,0.000075,0.002612,-0.001319,88.904889,0.002612,
1430,750,-0.211021,-3.552483,0.999998,0.000209,-0.001749,0.002792,0.000743,0.002910,-0.001868,80.936737,0.002949,
1810,1420,-0.714590,-1.560997,0.999997,0.000199,-0.001301,0.002567,0.000055,0.002568,-0.001302,89.179407,0.002568,
1380,1260,-0.156398,-1.483748,0.999998,0.000184,-0.001689,0.002483,-0.001064,0.002739,-0.001945,-76.494151,0.002818,
1870,190,-0.400601,-4.550246,0.999997,0.000193,-0.001250,0.002528,-0.000114,0.002532,-0.001254,-88.272165,0.002532,
1280,660,-0.027265,-3.974654,0.999999,0.000148,-0.000647,0.001378,0.000374,0.001445,-0.000714,79.864910,0.001445,
1780,1770,-0.404666,-0.644104,0.999997,0.000196,-0.001180,0.002516,0.000082,0.002518,-0.001181,88.722710,0.002519,
1440,630,-0.183962,-3.841192,0.999998,0.000176,-0.001301,0.002344,0.000552,0.002426,-0.001383,81.567625,0.002433,
1170,1670,0.034469,-0.609947,0.999998,0.000139,-0.000558,0.001797,0.000026,0.001797,-0.000558,89.356000,0.001840,
980,1940,0.043073,-0.157279,0.999998,0.000144,-0.000244,0.001738,-0.000200,0.001758,-0.000264,-84.303931,0.001896,
1600,400,-0.288531,-4.241671,0.999998,0.000166,-0.001051,0.002337,0.000061,0.002339,-0.001052,88.963272,0.002342,
970,1360,0.286723,-1.441080,0.999998,0.000200,-0.001661,0.002813,0.000427,0.002853,-0.001701,84.601617,0.002871,
1330,200,-0.030766,-4.751901,0.999999,0.000143,-0.000365,0.001726,-0.000009,0.001726,-0.000365,-89.765435,0.001819,
1370,1600,-0.090210,-0.767379,0.999998,0.000159,-0.000769,0.001927,-0.000197,0.001941,-0.000783,-85.832383,0.001953,
1810,370,-0.514477,-4.156695,0.999998,0.000178,-0.001269,0.002525,0.000037,0.002525,-0.001269,89.437082,0.002525,
1110,760,0.096689,-3.707877,0.999998,0.000165,-0.001296,0.001945,-0.001049,0.002255,-0.001606,-73.534846,0.002321,
970,920,0.558858,-2.878902,0.999998,0.000171,-0.001467,0.003389,0.000225,0.003399,-0.001477,87.352480,0.003409,
650,270,0.428113,-4.407596,0.999998,0.000187,-0.001167,0.002519,0.000115,0.002523,-0.001171,88.218351,0.002525,
1070,1920,0.031480,-0.183729,0.999999,0.000130,-0.000216,0.001658,-0.000101,0.001664,-0.000221,-86.912731,0.001807,
1900,560,-0.771287,-3.601587,0.999997,0.000000,-0.001339,0.002529,0.000017,0.002529,-0.001339,89.751091,0.002530,
1760,1960,-0.130062,-0.160647,0.999998,0.000137,-0.000763,0.002175,0.000590,0.002290,-0.000877,79.053927,0.002310,
730,1960,0.110605,-0.151346,0.999999,0.000157,-0.000524,0.002099,-0.000594,0.002228,-0.000652,-77.823334,0.002291,
1150,860,0.171209,-3.681425,0.999998,0.000171,-0.001139,0.000796,-0.000524,0.000929,-0.001272,-75.768817,0.001316,
1620,1730,-0.263444,-0.633664,0.999998,0.000178,-0.000961,0.002339,0.000043,0.002339,-0.000961,89.261886,0.002352,
690,810,0.821627,-3.051701,0.999998,0.000161,-0.001304,0.002564,0.000228,0.002577,-0.001317,86.637975,0.002577,
1830,480,-0.620313,-3.860047,0.999998,0.000170,-0.001291,0.002524,0.000036,0.002525,-0.001291,89.453982,0.002525,
1030,410,0.133593,-4.325800,0.999998,0.000189,-0.000778,0.002041,-0.000161,0.002051,-0.000787,-86.747009,0.002069,
640,1390,0.755612,-1.648707,0.999998,0.000160,-0.001283,0.002580,-0.000092,0.002582,-0.001285,-88.635856,0.002582,
1680,850,-0.737022,-2.982027,0.999998,0.000194,-0.001328,0.002718,-0.000311,0.002742,-0.001352,-85.633069,0.002742,
940,1120,0.623922,-2.238257,0.999998,0.000183,-0.001302,0.003139,-0.000324,0.003162,-0.001326,-85.843365,0.003176,
590,80,0.197893,-4.842374,0.999998,0.000140,-0.001029,0.002960,0.000724,0.003088,-0.001156,80.022466,0.003120,
600,1860,0.398837,-0.494852,0.999997,0.000195,-0.001230,0.002507,-0.000124,0.002511,-0.001235,-88.106310,0.002511,
1810,920,-0.946694,-2.769156,0.999999,0.000136,-0.001134,0.002369,-0.000159,0.002376,-0.001141,-87.409881,0.002377,
900,150,0.092956,-4.807021,0.999998,0.000147,-0.000410,0.001945,0.000276,0.001977,-0.000442,83.400665,0.002075,
1510,1610,-0.214245,-0.839047,0.999998,0.000164,-0.000963,0.002263,-0.000164,0.002271,-0.000972,-87.088785,0.002279,
1470,1050,-0.638310,-2.438094,0.999997,0.000219,-0.001195,0.003784,0.000032,0.003784,-0.001195,89.634357,0.003868,
1680,1220,-0.721942,-2.017537,0.999998,0.000165,-0.001393,0.002733,0.000313,0.002756,-0.001416,85.686627,0.002757,
1600,1130,-0.706775,-2.241030,0.999998,0.000186,-0.001211,0.002814,0.000352,0.002844,-0.001242,85.035252,0.002852,
1500,1790,-0.129416,-0.445602,0.999998,0.000168,-0.000695,0.002003,0.000071,0.002005,-0.000697,88.499371,0.002035,
1230,1290,0.001013,-1.150559,0.999999,0.000141,-0.000535,0.000646,0.000017,0.000646,-0.000535,89.196659,0.000691,
920,1810,0.148497,-0.420298,0.999998,0.000166,-0.000643,0.002083,-0.000163,0.002092,-0.000653,-86.588428,0.002141,
1380,1240,-0.174412,-1.534021,0.999998,0.000183,-0.001710,0.002574,-0.001050,0.002818,-0.001953,-76.939356,0.002887,
1550,1910,-0.083690,-0.221299,0.999998,0.000151,-0.000349,0.001903,0.000262,0.001933,-0.000379,83.457415,0.002049,
770,1510,0.490100,-1.236302,0.999998,0.000178,-0.001336,0.002620,0.000076,0.002621,-0.001338,88.893840,0.002621,
1070,1430,0.125299,-1.127773,0.999999,0.000138,-0.001111,0.002075,0.000591,0.002181,-0.001217,79.818489,0.002186,
890,1180,0.612983,-2.083356,0.999998,0.000166,-0.001466,0.003040,-0.000326,0.003064,-0.001489,-85.883330,0.003064,
1750,1440,-0.618879,-1.464230,0.999998,0.000153,-0.001337,0.002613,0.000038,0.002614,-0.001338,89.444108,0.002614,
860,380,0.279825,-4.286704,0.999998,0.000179,-0.001083,0.002348,-0.000035,0.002348,-0.001083,-89.415091,0.002350,
1870,180,-0.386128,-4.576126,0.999998,0.000182,-0.001249,0.002558,-0.000138,0.002563,-0.001254,-87.922428,0.002564,
1120,1460,0.074886,-1.012021,0.999999,0.000142,-0.000865,0.001793,0.000459,0.001870,-0.000942,80.469471,0.001870,
1280,640,-0.028695,-4.002921,0.999999,0.000146,-0.000658,0.001456,0.000318,0.001502,-0.000704,81.633149,0.001503,
1810,350,-0.497619,-4.204506,0.999998,0.000172,-0.001255,0.002532,0.000012,0.002532,-0.001255,89.824010,0.002532,
1760,1940,-0.162587,-0.207540,0.999998,0.000142,-0.000886,0.002368,0.000580,0.002468,-0.000986,80.191005,0.002485,
1900,550,-0.763948,-3.626275,0.999997,0.000000,-0.001335,0.002565,0.000030,0.002565,-0.001335,89.554324,0.002566,
1070,660,0.128795,-3.839843,0.999998,0.000152,-0.001184,0.002149,-0.000679,0.002282,-0.001317,-78.908289,0.002291,
950,920,0.588231,-2.858727,0.999998,0.000177,-0.001455,0.003272,0.000319,0.003293,-0.001477,86.159690,0.003299,
1270,1600,-0.023056,-0.733261,0.999998,0.000164,-0.000631,0.001743,-0.000068,0.001745,-0.000633,-88.355355,0.001766,
650,250,0.405794,-4.458936,0.999997,0.000214,-0.001147,0.002565,0.000130,0.002569,-0.001151,87.989829,0.002574,
1850,770,-0.883642,-3.109862,0.999999,0.000123,-0.001242,0.002434,-0.000121,0.002438,-0.001246,-88.110131,0.002438,
1170,1920,0.012997,-0.178627,0.999998,0.000163,-0.000168,0.001611,-0.000048,0.001612,-0.000169,-88.443642,0.001772,
1600,380,-0.276622,-4.287272,0.999998,0.000168,-0.001029,0.002345,0.000049,0.002346,-0.001029,89.167868,0.002351,
1170,1650,0.035953,-0.646236,0.999998,0.000150,-0.000598,0.001824,0.000055,0.001825,-0.000600,88.699598,0.001860,
1460,590,-0.200212,-3.910861,0.999999,0.000133,-0.001256,0.002352,0.000463,0.002411,-0.001314,82.798997,0.002414,
690,790,0.804716,-3.101594,0.999998,0.000154,-0.001296,0.002551,0.000225,0.002564,-0.001309,86.670273,0.002565,
1020,1350,0.209640,-1.390202,0.999998,0.000168,-0.001568,0.002665,0.000630,0.002757,-0.001660,81.709353,0.002776,
1430,730,-0.200064,-3.607685,0.999998,0.000198,-0.001671,0.002653,0.000733,0.002774,-0.001792,80.638375,0.002813,
1680,830,-0.717475,-3.035989,0.999998,0.000181,-0.001373,0.002721,-0.000304,0.002743,-0.001395,-85.770091,0.002743,
600,1840,0.424826,-0.543123,0.999997,0.000188,-0.001216,0.002508,-0.000079,0.002510,-0.001217,-88.788656,0.002510,
940,1100,0.648893,-2.300799,0.999997,0.000196,-0.001158,0.003119,-0.000297,0.003140,-0.001178,-86.048076,0.003172,
1030,430,0.137711,-4.283872,0.999998,0.000172,-0.000814,0.002057,-0.000178,0.002068,-0.000825,-86.458413,0.002082,
1830,460,-0.607257,-3.912061,0.999998,0.000159,-0.001262,0.002562,0.000035,0.002562,-0.001262,89.469286,0.002562,
1330,1370,-0.065700,-1.157255,0.999998,0.000152,-0.000889,0.001651,-0.000724,0.001843,-0.001080,-75.162130,0.001852,
760,2010,0.037653,-0.050690,0.999999,0.000118,-0.000116,0.001851,-0.000583,0.002011,-0.000276,-74.677418,0.002180,
680,210,0.325291,-4.583199,0.999997,0.000190,-0.001126,0.002540,0.000278,0.002561,-0.001147,85.688177,0.002565,
1810,900,-0.935021,-2.817878,0.999998,0.000154,-0.001148,0.002347,-0.000151,0.002354,-0.001155,-87.523734,0.002354,
1620,1450,-0.428513,-1.334883,0.999998,0.000164,-0.001441,0.002676,-0.000132,0.002680,-0.001445,-88.166039,0.002683,
980,1960,0.034103,-0.123799,0.999999,0.000132,-0.000196,0.001726,-0.000202,0.001747,-0.000217,-84.068460,0.001904,
1310,200,-0.022330,-4.754070,0.999998,0.000186,-0.000339,0.001710,-0.000041,0.001710,-0.000340,-88.847541,0.001811,
870,2020,0.014372,-0.028977,0.999998,0.000000,-0.000071,0.001577,-0.000361,0.001653,-0.000146,-78.161031,0.001830,
1770,60,-0.074049,-4.955727,0.999998,0.000176,-0.000369,0.002238,-0.000854,0.002493,-0.000624,-73.389032,0.002595,
1680,1200,-0.742126,-2.071671,0.999998,0.000175,-0.001338,0.002711,0.000293,0.002732,-0.001359,85.876079,0.002732,
590,960,1.034617,-2.663715,0.999998,0.000152,-0.001029,0.002094,0.000009,0.002094,-0.001029,89.835987,0.002094,
1390,1860,-0.047463,-0.286198,0.999999,0.000134,-0.000343,0.001762,0.000081,0.001765,-0.000347,87.811162,0.001870,
1510,1590,-0.219140,-0.884058,0.999998,0.000153,-0.001050,0.002303,-0.000207,0.002316,-0.001062,-86.485063,0.002319,
1230,1270,0.001304,-1.159479,0.999998,0.000175,-0.000632,0.000575,0.000025,0.000575,-0.000632,88.818790,0.000700,
940,1790,0.145840,-0.455317,0.999998,0.000160,-0.000717,0.002084,-0.000087,0.002087,-0.000719,-88.218900,0.002120,
1770,640,-0.665040,-3.494313,0.999998,0.000185,-0.001339,0.002622,-0.000057,0.002623,-0.001340,-89.176776,0.002623,
1470,1030,-0.644782,-2.511150,0.999997,0.000227,-0.001191,0.003664,-0.000008,0.003664,-0.001191,-89.908306,0.003738,
770,1490,0.503610,-1.287898,0.999997,0.000210,-0.001362,0.002625,0.000048,0.002625,-0.001362,89.314888,0.002626,
660,290,0.436799,-4.364628,0.999997,0.000207,-0.001197,0.002560,0.000087,0.002562,-0.001199,88.677291,0.002563,
1070,1410,0.128391,-1.168532,0.999999,0.000139,-0.001152,0.002122,0.000645,0.002244,-0.001275,79.252282,0.002251,
690,1120,0.913049,-2.298757,0.999998,0.000149,-0.001128,0.002422,-0.000195,0.002433,-0.001138,-86.866159,0.002435,
1150,850,0.141448,-3.688416,0.999998,0.000164,-0.001113,0.000958,-0.000518,0.001081,-0.001235,-76.701667,0.001346,
1880,1730,-0.562489,-0.833729,0.999998,0.000176,-0.001207,0.002459,-0.000030,0.002460,-0.001207,-89.532667,0.002460,
810,1990,0.046716,-0.081228,0.999998,0.000153,-0.000219,0.001868,-0.000476,0.001971,-0.000323,-77.735540,0.002114,
1090,760,0.125509,-3.657703,0.999998,0.000177,-0.001442,0.002233,-0.001002,0.002488,-0.001697,-75.700533,0.002543,
1880,270,-0.510049,-4.342533,0.999997,0.000200,-0.001232,0.002429,-0.000021,0.002429,-0.001232,-89.666954,0.002430,
900,740,0.439440,-3.379062,0.999997,0.000218,-0.001711,0.003019,-0.000074,0.003020,-0.001712,-89.107803,0.003029,
1470,140,-0.052447,-4.838555,0.999998,0.000147,-0.000290,0.001741,-0.000159,0.001754,-0.000302,-85.542556,0.001875,
1900,540,-0.755560,-3.653567,0.999998,0.000000,-0.001342,0.002586,0.000040,0.002586,-0.001342,89.423494,0.002587,
690,770,0.784903,-3.153411,0.999998,0.000159,-0.001308,0.002566,0.000200,0.002576,-0.001318,87.056000,0.002576,
1750,1420,-0.634553,-1.518279,0.999998,0.000169,-0.001343,0.002628,0.000043,0.002629,-0.001344,89.378490,0.002629,
1380,1220,-0.203415,-1.589529,0.999998,0.000193,-0.001728,0.002596,-0.001019,0.002824,-0.001956,-77.385944,0.002893,
1600,1730,-0.243503,-0.621476,0.999998,0.000162,-0.000963,0.002326,0.000037,0.002326,-0.000963,89.361099,0.002338,
1550,1890,-0.097240,-0.259495,0.999999,0.000150,-0.000412,0.001929,0.000262,0.001958,-0.000441,83.683006,0.002054,
1330,560,-0.066221,-4.097416,0.999999,0.000125,-0.000755,0.001780,0.000315,0.001818,-0.000793,83.029150,0.001823,
740,1330,0.675263,-1.740202,0.999998,0.000189,-0.001423,0.002693,-0.000165,0.002700,-0.001429,-87.703966,0.002701,
1640,740,-0.567282,-3.311375,0.999998,0.000205,-0.001584,0.002868,-0.000133,0.002872,-0.001588,-88.292514,0.002878,
1090,240,0.054777,-4.675577,0.999998,0.000155,-0.000394,0.001807,0.000035,0.001808,-0.000395,89.079296,0.001901,
1720,1560,-0.492350,-1.127161,0.999998,0.000181,-0.001304,0.002568,-0.000078,0.002569,-0.001306,-88.849165,0.002570,
1770,50,-0.056956,-4.976756,0.999999,0.000155,-0.000248,0.002109,-0.000836,0.002376,-0.000514,-72.324525,0.002500,
860,360,0.268173,-4.332456,0.999998,0.000157,-0.001026,0.002318,-0.000019,0.002318,-0.001026,-89.668924,0.002323,
1670,1380,-0.554745,-1.567310,0.999997,0.000207,-0.001477,0.002786,0.000022,0.002786,-0.001477,89.709699,0.002788,
1370,1860,-0.041004,-0.283764,0.999999,0.000132,-0.000311,0.001766,0.000080,0.001769,-0.000314,87.806608,0.001888,
1280,620,-0.029442,-4.032547,0.999999,0.000142,-0.000671,0.001495,0.000280,0.001530,-0.000706,82.741745,0.001532,
1120,1440,0.076225,-1.049318,0.999999,0.000145,-0.000884,0.001780,0.000503,0.001872,-0.000976,79.664579,0.001872,
1230,1540,0.000881,-0.831215,0.999999,0.000141,-0.000627,0.001687,0.000012,0.001687,-0.000627,89.691041,0.001705,
1220,770,0.005872,-3.883337,0.999999,0.000124,-0.000540,0.000623,-0.000163,0.000645,-0.000562,-82.182439,0.000702,
1850,750,-0.863718,-3.159328,0.999999,0.000151,-0.001244,0.002476,-0.000126,0.002480,-0.001248,-88.067623,0.002480,
1430,710,-0.191122,-3.658841,0.999998,0.000178,-0.001561,0.002557,0.000709,0.002675,-0.001679,80.500973,0.002704,
1720,1110,-0.857573,-2.314331,0.999998,0.000161,-0.001118,0.002541,0.000222,0.002554,-0.001131,86.545896,0.002559,
1290,1920,-0.011633,-0.177667,0.999999,0.000120,-0.000181,0.001606,0.000032,0.001606,-0.000182,88.966942,0.001759,
1600,360,-0.266932,-4.336192,0.999998,0.000159,-0.000996,0.002356,0.000019,0.002356,-0.000996,89.681527,0.002366,
1680,1180,-0.759430,-2.125780,0.999998,0.000180,-0.001264,0.002658,0.000276,0.002677,-0.001283,85.998661,0.002678,
650,230,0.383365,-4.510566,0.999997,0.000206,-0.001126,0.002565,0.000165,0.002573,-0.001133,87.438255,0.002579,
1760,1920,-0.195623,-0.255455,0.999998,0.000145,-0.000956,0.002371,0.000498,0.002444,-0.001029,81.670138,0.002454,
1270,200,-0.011934,-4.755738,0.999998,0.000158,-0.000277,0.001664,-0.000007,0.001664,-0.000277,-89.806429,0.001783,
1310,1980,-0.006464,-0.083127,0.999999,0.000150,-0.000099,0.001535,0.000049,0.001537,-0.000100,88.269129,0.001719,
1030,450,0.141586,-4.243685,0.999999,0.000145,-0.000849,0.002080,-0.000201,0.002093,-0.000863,-86.094906,0.002104,
1230,1250,0.002837,-1.171448,0.999998,0.000162,-0.000896,0.000485,0.000017,0.000486,-0.000896,89.286574,0.000897,
1810,330,-0.481448,-4.257628,0.999998,0.000181,-0.001221,0.002521,-0.000020,0.002521,-0.001221,-89.687157,0.002522,
660,210,0.348156,-4.568677,0.999998,0.000173,-0.001125,0.002565,0.000271,0.002584,-0.001145,85.817696,0.002590,
1460,570,-0.194336,-3.956925,0.999999,0.000138,-0.001206,0.002289,0.000404,0.002335,-0.001252,83.488991,0.002337,
1170,1630,0.035368,-0.684227,0.999998,0.000151,-0.000612,0.001800,0.000063,0.001801,-0.000613,88.502139,0.001832,
1330,1350,-0.063438,-1.189621,0.999998,0.000150,-0.000917,0.001665,-0.000799,0.001892,-0.001144,-74.128565,0.001905,
760,2000,0.049378,-0.069275,0.999999,0.000127,-0.000174,0.001870,-0.000587,0.002026,-0.000330,-75.064738,0.002175,
1050,920,0.430228,-3.059540,0.999997,0.000189,-0.001593,0.003550,-0.001010,0.003742,-0.001784,-79.282086,0.003743,
1660,830,-0.688858,-3.044453,0.999998,0.000165,-0.001421,0.002763,-0.000303,0.002784,-0.001443,-85.873821,0.002785,
870,30,0.010819,-5.018856,0.999999,0.000000,-0.000071,0.001638,0.000379,0.001718,-0.000152,78.039088,0.001903,
940,1520,0.261299,-1.059261,0.999998,0.000156,-0.001216,0.002426,0.000283,0.002448,-0.001238,85.590462,0.002448,
580,960,1.044661,-2.662407,0.999998,0.000150,-0.000953,0.002070,-0.000016,0.002070,-0.000953,-89.705265,0.002072,
1470,1010,-0.638196,-2.583000,0.999996,0.000219,-0.001191,0.003765,-0.000007,0.003765,-0.001191,-89.913814,0.003849,
1530,1600,-0.236093,-0.876516,0.999999,0.000151,-0.001085,0.002348,-0.000174,0.002357,-0.001094,-87.104927,0.002359,
1900,530,-0.748591,-3.679519,0.999998,0.000000,-0.001336,0.002580,0.000033,0.002580,-0.001337,89.519510,0.002581,
1070,1390,0.130580,-1.211738,0.999998,0.000144,-0.001204,0.002177,0.000696,0.002315,-0.001342,78.809568,0.002325,
900,720,0.423367,-3.439012,0.999997,0.000195,-0.001687,0.002928,-0.000120,0.002932,-0.001690,-88.506390,0.002943,
770,1470,0.518179,-1.340299,0.999997,0.000206,-0.001370,0.002625,0.000040,0.002625,-0.001370,89.427521,0.002626,
690,750,0.766973,-3.205711,0.999998,0.000163,-0.001319,0.002589,0.000164,0.002596,-0.001326,87.594850,0.002596,
660,270,0.417418,-4.415719,0.999998,0.000211,-0.001151,0.002521,0.000126,0.002525,-0.001155,88.041796,0.002529,
840,1230,0.630059,-1.963312,0.999997,0.000188,-0.001511,0.002911,-0.000276,0.002928,-0.001528,-86.442541,0.002929,
980,1980,0.024908,-0.088723,0.999999,0.000107,-0.000144,0.001678,-0.000219,0.001704,-0.000170,-83.249587,0.001877,
1620,1430,-0.441127,-1.386826,0.999997,0.000184,-0.001483,0.002720,-0.000129,0.002724,-0.001487,-88.244081,0.002728,
1380,1200,-0.236964,-1.643678,0.999997,0.000198,-0.001637,0.002580,-0.001080,0.002841,-0.001898,-76.435857,0.002894,
1750,660,-0.656544,-3.456669,0.999998,0.000173,-0.001374,0.002649,-0.000096,0.002651,-0.001376,-88.632435,0.002652,
670,1120,0.935532,-2.301855,0.999998,0.000147,-0.001130,0.002384,-0.000190,0.002394,-0.001141,-86.921223,0.002395,
900,510,0.298936,-4.004913,0.999998,0.000167,-0.001245,0.002461,-0.000201,0.002472,-0.001256,-86.904381,0.002472,
1350,1860,-0.035161,-0.282024,0.999999,0.000110,-0.000320,0.001735,0.000061,0.001737,-0.000322,88.289040,0.001848,
1550,1870,-0.112305,-0.297856,0.999998,0.000157,-0.000467,0.001979,0.000242,0.002002,-0.000491,84.413249,0.002087,
1460,1430,-0.208322,-1.214261,0.999998,0.000154,-0.001335,0.002396,-0.000488,0.002459,-0.001397,-82.670372,0.002466,
1770,40,-0.042046,-4.995978,0.999998,0.000166,-0.000156,0.002025,-0.000812,0.002294,-0.000425,-71.669236,0.002440,
720,170,0.228332,-4.711689,0.999998,0.000140,-0.000982,0.002423,0.000379,0.002465,-0.001024,83.725382,0.002477,
810,1970,0.069473,-0.119610,0.999998,0.000151,-0.000300,0.001910,-0.000471,0.002006,-0.000396,-78.463659,0.002125,
1870,270,-0.497878,-4.352648,0.999997,0.000202,-0.001218,0.002455,-0.000026,0.002455,-0.001218,-89.596793,0.002455,
1870,1730,-0.551225,-0.823639,0.999997,0.000171,-0.001220,0.002488,-0.000037,0.002489,-0.001221,-89.430065,0.002489,
980,1630,0.181102,-0.777122,0.999998,0.000141,-0.000959,0.002201,0.000199,0.002214,-0.000971,86.413495,0.002219,
1430,690,-0.184187,-3.712194,0.999998,0.000173,-0.001469,0.002517,0.000683,0.002631,-0.001583,80.547219,0.002649,
860,340,0.256957,-4.379763,0.999998,0.000151,-0.000971,0.002348,0.000022,0.002349,-0.000971,89.624924,0.002360,
1850,730,-0.845672,-3.208834,0.999999,0.000153,-0.001257,0.002495,-0.000093,0.002498,-0.001259,-88.582184,0.002498,
1720,1540,-0.505403,-1.180610,0.999998,0.000173,-0.001296,0.002581,-0.000062,0.002582,-0.001297,-89.087352,0.002582,
1400,510,-0.123093,-4.141967,0.999998,0.000134,-0.000863,0.002028,0.000298,0.002059,-0.000893,84.172506,0.002065,
1230,1230,0.001588,-1.180236,0.999998,0.000162,-0.001391,0.000634,0.000002,0.000634,-0.001391,89.930978,0.001392,
1760,1900,-0.226188,-0.302147,0.999998,0.000147,-0.001022,0.002466,0.000435,0.002520,-0.001075,83.004575,0.002528,
1680,1160,-0.775561,-2.178833,0.999998,0.000186,-0.001222,0.002662,0.000310,0.002686,-0.001246,85.469341,0.002689,
1170,1610,0.037387,-0.718729,0.999999,0.000139,-0.000629,0.001797,0.000082,0.001800,-0.000632,88.063494,0.001826,
1250,200,-0.005662,-4.755340,0.999998,0.000201,-0.000324,0.001658,0.000005,0.001658,-0.000324,89.866059,0.001758,
890,1980,0.039945,-0.095679,0.999998,0.000148,-0.000237,0.001756,-0.000339,0.001812,-0.000293,-80.600937,0.001945,
1600,340,-0.252880,-4.382668,0.999998,0.000173,-0.000966,0.002344,-0.000024,0.002344,-0.000966,-89.590529,0.002356,
1470,990,-0.626059,-2.660400,0.999997,0.000191,-0.001204,0.003707,-0.000025,0.003707,-0.001204,-89.711939,0.003782,
1650,1380,-0.524547,-1.551059,0.999997,0.000206,-0.001552,0.002805,0.000022,0.002805,-0.001552,89.709873,0.002810,
1320,330,-0.043525,-4.523694,0.999998,0.000150,-0.000556,0.001818,0.000038,0.001819,-0.000557,89.082150,0.001864,
1700,730,-0.648632,-3.300679,0.999998,0.000177,-0.001449,0.002741,-0.000162,0.002747,-0.001455,-87.789352,0.002749,
1780,1990,-0.088362,-0.098149,0.999998,0.000148,-0.000366,0.002326,0.000936,0.002619,-0.000660,72.585938,0.002725,
1530,240,-0.136697,-4.634324,0.999999,0.000141,-0.000600,0.002076,-0.000162,0.002086,-0.000610,-86.558640,0.002145,
650,210,0.359314,-4.562034,0.999998,0.000185,-0.001134,0.002563,0.000236,0.002578,-0.001149,86.364476,0.002583,
1900,520,-0.741133,-3.704448,0.999998,0.000000,-0.001305,0.002546,0.000000,0.002546,-0.001305,89.995966,0.002546,
730,1270,0.747949,-1.906417,0.999998,0.000179,-0.001347,0.002627,-0.000246,0.002642,-0.001363,-86.467816,0.002642,
1030,890,0.401156,-3.100184,0.999998,0.000194,-0.001783,0.003517,-0.000451,0.003555,-0.001821,-85.171271,0.003556,
1120,1420,0.076078,-1.085670,0.999998,0.000161,-0.000915,0.001802,0.000575,0.001918,-0.001031,78.532102,0.001920,
1740,910,-0.861556,-2.808726,0.999998,0.000160,-0.001164,0.002501,-0.000220,0.002514,-0.001177,-86.581841,0.002515,
1280,600,-0.030813,-4.062437,0.999999,0.000152,-0.000671,0.001565,0.000239,0.001591,-0.000696,83.975506,0.001595,
1510,1570,-0.226209,-0.930914,0.999998,0.000170,-0.001130,0.002322,-0.000260,0.002341,-0.001149,-85.717347,0.002341,
600,1820,0.449869,-0.594997,0.999997,0.000199,-0.001205,0.002501,-0.000042,0.002502,-0.001205,-89.350390,0.002502,
770,1450,0.533145,-1.393513,0.999997,0.000198,-0.001391,0.002677,0.000036,0.002677,-0.001392,89.495439,0.002678,
1060,1250,0.206709,-1.576436,0.999998,0.000181,-0.001867,0.002826,0.000874,0.002983,-0.002024,79.779754,0.003046,
1070,1370,0.131606,-1.255500,0.999998,0.000148,-0.001279,0.002217,0.000767,0.002378,-0.001439,78.151757,0.002395,
1850,160,-0.330002,-4.652140,0.999998,0.000168,-0.001216,0.002580,-0.000195,0.002590,-0.001226,-87.073326,0.002592,
1750,640,-0.638299,-3.508959,0.999997,0.000191,-0.001361,0.002642,-0.000065,0.002643,-0.001362,-89.065211,0.002644,
690,730,0.749412,-3.256797,0.999998,0.000162,-0.001326,0.002587,0.000155,0.002593,-0.001332,87.733961,0.002593,
570,960,1.053160,-2.659659,0.999996,0.000238,-0.000901,0.002046,-0.000029,0.002046,-0.000901,-89.437880,0.002051,
900,700,0.406472,-3.496193,0.999997,0.000192,-0.001645,0.002882,-0.000148,0.002887,-0.001650,-88.127278,0.002896,
620,1690,0.550672,-0.899162,0.999998,0.000176,-0.001231,0.002515,0.000020,0.002516,-0.001231,89.698378,0.002516,
940,1770,0.156734,-0.497158,0.999998,0.000159,-0.000747,0.002100,-0.000063,0.002101,-0.000748,-88.723663,0.002130,
1850,1320,-0.850976,-1.842462,0.999998,0.000148,-0.001247,0.002467,0.000096,0.002470,-0.001250,88.519191,0.002470,
1490,1920,-0.055547,-0.194636,0.999999,0.000138,-0.000329,0.001785,0.000181,0.001800,-0.000344,85.137360,0.001911,
860,320,0.242580,-4.427829,0.999998,0.000174,-0.000950,0.002326,0.000050,0.002327,-0.000951,89.124668,0.002339,
1870,1720,-0.559055,-0.849445,0.999998,0.000160,-0.001227,0.002475,-0.000044,0.002475,-0.001228,-89.312217,0.002475,
810,1950,0.089982,-0.158500,0.999999,0.000149,-0.000393,0.001994,-0.000448,0.002076,-0.000474,-79.704945,0.002176,
1390,910,-0.375377,-3.208852,0.999997,0.000208,-0.001173,0.002976,0.001542,0.003486,-0.001683,71.692140,0.003487,
1640,720,-0.549541,-3.369546,0.999997,0.000275,-0.001563,0.002858,-0.000065,0.002859,-0.001564,-89.152782,0.002864,
1160,70,0.005460,-4.963574,0.999999,0.000125,-0.000068,0.001521,0.000060,0.001523,-0.000070,87.852871,0.001719,
1330,1330,-0.064312,-1.219945,0.999998,0.000149,-0.000951,0.001630,-0.000864,0.001892,-0.001214,-73.090227,0.001917,
1400,490,-0.118602,-4.182459,0.999998,0.000158,-0.000871,0.002018,0.000292,0.002047,-0.000900,84.276705,0.002052,
1030,920,0.463007,-2.993208,0.999997,0.000198,-0.001656,0.003725,-0.000475,0.003766,-0.001698,-84.989062,0.003772,
660,190,0.321067,-4.620508,0.999998,0.000183,-0.001087,0.002549,0.000336,0.002580,-0.001118,84.766133,0.002588,
1680,1140,-0.795178,-2.233294,0.999998,0.000162,-0.001183,0.002625,0.000291,0.002647,-0.001205,85.654317,0.002650,
720,150,0.201183,-4.759819,0.999998,0.000152,-0.000913,0.002379,0.000471,0.002445,-0.000979,82.013277,0.002462,
1370,200,-0.043612,-4.745567,0.999999,0.000126,-0.000301,0.001781,-0.000074,0.001783,-0.000304,-87.970179,0.001908,
1600,320,-0.240787,-4.429368,0.999997,0.000204,-0.000935,0.002304,-0.000041,0.002305,-0.000936,-89.272714,0.002318,
1850,710,-0.828979,-3.258366,0.999998,0.000165,-0.001267,0.002510,-0.000074,0.002512,-0.001269,-88.883919,0.002512,
1700,710,-0.629278,-3.355756,0.999998,0.000175,-0.001432,0.002727,-0.000119,0.002730,-0.001436,-88.359417,0.002732,
970,720,0.302530,-3.527101,0.999997,0.000205,-0.001710,0.002877,-0.000386,0.002909,-0.001743,-85.218485,0.002928,
1470,970,-0.605653,-2.729596,0.999998,0.000190,-0.001282,0.003567,-0.000082,0.003568,-0.001283,-89.030520,0.003615,
1170,1590,0.037533,-0.754187,0.999999,0.000133,-0.000640,0.001800,0.000108,0.001805,-0.000645,87.480095,0.001829,
730,1250,0.765849,-1.957440,0.999998,0.000171,-0.001314,0.002618,-0.000245,0.002633,-0.001330,-86.452039,0.002633,
1430,670,-0.180825,-3.759017,0.999998,0.000188,-0.001388,0.002407,0.000645,0.002513,-0.001495,80.610140,0.002528,
1030,870,0.361337,-3.168806,0.999998,0.000194,-0.001865,0.003418,-0.000489,0.003463,-0.001910,-84.761477,0.003469,
1380,1190,-0.255694,-1.667642,0.999997,0.000191,-0.001562,0.002513,-0.001094,0.002788,-0.001837,-75.887764,0.002834,
1900,730,-0.907829,-3.172759,0.999998,0.000000,-0.001189,0.002372,-0.000051,0.002373,-0.001190,-89.184723,0.002373,
1760,1880,-0.253994,-0.352498,0.999998,0.000157,-0.001077,0.002462,0.000353,0.002497,-0.001112,84.358639,0.002502,
1070,1350,0.135307,-1.300513,0.999998,0.000155,-0.001369,0.002263,0.000821,0.002440,-0.001546,77.830812,0.002469,
1380,1180,-0.275345,-1.693735,0.999997,0.000197,-0.001438,0.002444,-0.001133,0.002751,-0.001745,-74.867054,0.002784,
770,1430,0.547516,-1.448712,0.999997,0.000192,-0.001413,0.002710,0.000021,0.002710,-0.001413,89.704375,0.002711,
1720,1520,-0.518902,-1.231451,0.999997,0.000192,-0.001317,0.002599,-0.000046,0.002600,-0.001317,-89.330350,0.002600,
900,680,0.390733,-3.553280,0.999997,0.000193,-0.001604,0.002852,-0.000167,0.002858,-0.001610,-87.860430,0.002866,
690,710,0.729901,-3.308178,0.999998,0.000176,-0.001331,0.002617,0.000127,0.002621,-0.001336,88.162293,0.002622,
1230,810,0.003185,-3.865627,0.999998,0.000168,-0.000969,0.000531,-0.000020,0.000532,-0.000969,-89.237454,0.000971,
1850,220,-0.416162,-4.498216,0.999998,0.000168,-0.001216,0.002532,-0.000088,0.002534,-0.001218,-88.660304,0.002534,
780,970,0.831599,-2.665245,0.999998,0.000152,-0.001061,0.002576,0.000175,0.002585,-0.001069,87.256626,0.002597,
650,630,0.713618,-3.490143,0.999998,0.000189,-0.001299,0.002559,0.000038,0.002559,-0.001300,89.428484,0.002559,
1120,1400,0.076996,-1.122560,0.999998,0.000171,-0.000920,0.001799,0.000649,0.001946,-0.001067,77.243982,0.001949,
1280,580,-0.030057,-4.094467,0.999999,0.000163,-0.000671,0.001604,0.000189,0.001620,-0.000687,85.274358,0.001626,
1530,220,-0.123654,-4.675308,0.999999,0.000140,-0.000545,0.001998,-0.000173,0.002010,-0.000557,-86.126847,0.002076,
1560,1070,-0.713661,-2.400982,0.999998,0.000192,-0.000983,0.002844,0.000198,0.002854,-0.000993,87.046218,0.002898,
1300,330,-0.034063,-4.526641,0.999998,0.000176,-0.000469,0.001797,0.000023,0.001797,-0.000469,89.417120,0.001864,
860,300,0.231776,-4.472513,0.999998,0.000177,-0.000918,0.002298,0.000071,0.002299,-0.000920,88.739218,0.002315,
1470,1920,-0.050526,-0.192229,0.999999,0.000125,-0.000249,0.001759,0.000179,0.001775,-0.000265,84.952828,0.001915,
730,1120,0.867848,-2.291774,0.999998,0.000156,-0.001128,0.002489,-0.000215,0.002502,-0.001140,-86.607000,0.002505,
1880,1800,-0.493598,-0.661467,0.999998,0.000177,-0.001263,0.002482,0.000034,0.002482,-0.001263,89.483840,0.002482,
810,1930,0.109469,-0.197431,0.999998,0.000161,-0.000491,0.002064,-0.000443,0.002139,-0.000565,-80.431488,0.002216,
1680,1120,-0.807184,-2.284413,0.999998,0.000157,-0.001136,0.002573,0.000235,0.002587,-0.001151,86.393937,0.002593,
1870,1710,-0.566946,-0.874236,0.999998,0.000153,-0.001241,0.002458,-0.000049,0.002459,-0.001242,-89.246109,0.002459,
1850,690,-0.813400,-3.311145,0.999998,0.000161,-0.001275,0.002515,-0.000068,0.002516,-0.001276,-88.974185,0.002516,
1020,630,0.187078,-3.836179,0.999999,0.000129,-0.001306,0.002356,-0.000557,0.002439,-0.001389,-81.540336,0.002447,
1810,310,-0.464690,-4.307054,0.999997,0.000195,-0.001218,0.002523,-0.000053,0.002524,-0.001218,-89.186161,0.002525,
1330,540,-0.066536,-4.134495,0.999999,0.000129,-0.000740,0.001815,0.000275,0.001845,-0.000769,83.916679,0.001853,
820,290,0.259625,-4.476361,0.999998,0.000183,-0.000938,0.002360,0.000136,0.002366,-0.000943,87.648135,0.002382,
600,1800,0.472202,-0.643264,0.999997,0.000205,-0.001211,0.002492,-0.000034,0.002492,-0.001211,-89.471950,0.002492,
1730,1480,-0.560674,-1.345184,0.999997,0.000194,-0.001338,0.002619,-0.000037,0.002619,-0.001338,-89.458095,0.002620,
1380,1410,-0.113143,-1.151388,0.999998,0.000152,-0.001098,0.002044,-0.000644,0.002170,-0.001225,-78.850305,0.002177,
1600,40,-0.018452,-5.003892,0.999999,0.000137,-0.000111,0.001655,-0.000375,0.001731,-0.000188,-78.499281,0.001900,
1900,740,-0.915043,-3.150823,0.999998,0.000000,-0.001183,0.002427,-0.000055,0.002428,-0.001183,-89.120361,0.002428,
1510,1550,-0.233847,-0.978460,0.999998,0.000179,-0.001161,0.002353,-0.000264,0.002373,-0.001181,-85.725629,0.002373,
1860,690,-0.825128,-3.303058,0.999998,0.000169,-0.001249,0.002506,-0.000046,0.002506,-0.001250,-89.291120,0.002506,
1380,880,-0.288224,-3.335650,0.999997,0.000188,-0.001371,0.002432,0.001164,0.002760,-0.001699,74.257000,0.002785,
860,910,0.695708,-2.840727,0.999998,0.000188,-0.001262,0.002820,0.000349,0.002849,-0.001291,85.148946,0.002854,
1430,650,-0.175837,-3.808105,0.999998,0.000175,-0.001339,0.002363,0.000598,0.002458,-0.001434,81.048731,0.002469,
1140,70,0.007138,-4.963212,0.999999,0.000136,-0.000099,0.001523,0.000083,0.001527,-0.000104,87.095674,0.001707,
1640,700,-0.532475,-3.425733,0.999997,0.000250,-0.001542,0.002823,-0.000030,0.002824,-0.001542,-89.602483,0.002828,
1170,1570,0.038219,-0.790010,0.999999,0.000138,-0.000676,0.001748,0.000126,0.001755,-0.000682,87.037620,0.001769,
1710,140,-0.163619,-4.793537,0.999998,0.000168,-0.000616,0.002245,-0.000521,0.002337,-0.000708,-79.990883,0.002396,
1470,950,-0.575020,-2.802984,0.999997,0.000196,-0.001395,0.003643,-0.000120,0.003646,-0.001398,-88.640311,0.003679,
1360,1210,-0.187573,-1.530999,0.999998,0.000222,-0.001461,0.002174,-0.001177,0.002522,-0.001809,-73.542127,0.002600,
770,1850,0.230887,-0.390862,0.999998,0.000174,-0.000881,0.002347,-0.000311,0.002377,-0.000911,-84.539730,0.002399,
1540,1790,-0.157752,-0.461091,0.999998,0.000183,-0.000677,0.002111,0.000108,0.002115,-0.000681,87.780389,0.002159,
1760,1860,-0.281742,-0.401905,0.999998,0.000169,-0.001116,0.002474,0.000278,0.002495,-0.001137,85.591185,0.002499,
1070,1330,0.140943,-1.346001,0.999998,0.000165,-0.001465,0.002320,0.000868,0.002510,-0.001654,77.675439,0.002552,
1600,300,-0.227764,-4.475253,0.999998,0.000186,-0.000918,0.002278,-0.000068,0.002279,-0.000920,-88.777914,0.002293,
1230,790,0.001297,-3.877018,0.999998,0.000178,-0.000690,0.000531,-0.000031,0.000532,-0.000690,-88.557043,0.000723,
1720,1500,-0.534015,-1.284519,0.999997,0.000197,-0.001335,0.002637,-0.000063,0.002638,-0.001336,-89.089803,0.002638,
960,250,0.123776,-4.623282,0.999998,0.000159,-0.000706,0.002005,0.000081,0.002008,-0.000709,88.280332,0.002037,
1850,200,-0.388773,-4.549113,0.999998,0.000169,-0.001210,0.002547,-0.000109,0.002550,-0.001213,-88.342499,0.002551,
650,650,0.731050,-3.437495,0.999997,0.000199,-0.001301,0.002572,0.000083,0.002574,-0.001303,88.768452,0.002574,
1030,850,0.326201,-3.238265,0.999997,0.000194,-0.001945,0.003342,-0.000499,0.003389,-0.001992,-84.656247,0.003406,
900,1100,0.694385,-2.316169,0.999998,0.000193,-0.001097,0.002893,-0.000301,0.002916,-0.001119,-85.712290,0.002942,
760,970,0.853929,-2.663022,0.999998,0.000151,-0.001089,0.002537,0.000158,0.002544,-0.001096,87.517218,0.002552,
1560,1050,-0.721892,-2.457961,0.999997,0.000213,-0.000930,0.002816,0.000120,0.002820,-0.000934,88.162545,0.002873,
690,690,0.713716,-3.362868,0.999998,0.000179,-0.001338,0.002597,0.000124,0.002601,-0.001341,88.199066,0.002602,
860,280,0.215879,-4.519036,0.999997,0.000198,-0.000914,0.002278,0.000104,0.002281,-0.000917,88.143524,0.002295,
1320,830,-0.108558,-3.686642,0.999999,0.000151,-0.001125,0.001284,0.000931,0.001602,-0.001442,71.153922,0.001765,
710,1120,0.890084,-2.295783,0.999998,0.000133,-0.001149,0.002459,-0.000191,0.002470,-0.001159,-86.977470,0.002471,
940,1350,0.343356,-1.510779,0.999997,0.000199,-0.001675,0.002908,0.000296,0.002927,-0.001694,86.313400,0.002939,
990,490,0.188853,-4.126379,0.999999,0.000148,-0.001024,0.002227,-0.000270,0.002249,-0.001047,-85.282565,0.002251,
1870,1840,-0.433730,-0.551044,0.999998,0.000207,-0.001224,0.002493,0.000076,0.002494,-0.001225,88.828606,0.002494,
1020,610,0.182310,-3.883766,0.999999,0.000154,-0.001256,0.002339,-0.000523,0.002414,-0.001330,-81.890795,0.002418,
1850,1110,-1.005109,-2.337554,0.999998,0.000139,-0.001089,0.002239,0.000101,0.002242,-0.001092,88.262639,0.002242,
1680,1100,-0.819146,-2.335535,0.999998,0.000159,-0.001085,0.002583,0.000248,0.002599,-0.001101,86.147097,0.002609,
950,340,0.174593,-4.429553,0.999998,0.000175,-0.000852,0.002194,-0.000036,0.002195,-0.000852,-89.325378,0.002213,
1900,750,-0.924318,-3.124349,0.999998,0.000000,-0.001163,0.002460,-0.000066,0.002462,-0.001165,-88.951658,0.002463,
1750,1680,-0.443288,-0.847092,0.999998,0.000185,-0.001215,0.002533,-0.000012,0.002533,-0.001215,-89.814483,0.002534,
720,130,0.170237,-4.806406,0.999998,0.000147,-0.000836,0.002332,0.000528,0.002418,-0.000921,80.777357,0.002440,
1120,1380,0.076348,-1.157591,0.999998,0.000150,-0.000935,0.001799,0.000698,0.001967,-0.001102,76.475291,0.001972,
1280,560,-0.030485,-4.125447,0.999999,0.000137,-0.000653,0.001639,0.000171,0.001651,-0.000666,85.746085,0.001662,
1530,800,-0.444343,-3.230017,0.999998,0.000182,-0.001823,0.003166,0.000002,0.003166,-0.001823,89.974548,0.003178,
940,1410,0.307201,-1.341198,0.999998,0.000172,-0.001497,0.002669,0.000323,0.002694,-0.001522,85.587246,0.002701,
810,1910,0.131702,-0.240104,0.999998,0.000160,-0.000580,0.002119,-0.000402,0.002178,-0.000639,-81.703604,0.002239,
1480,150,-0.060283,-4.820404,0.999998,0.000154,-0.000342,0.001774,-0.000160,0.001786,-0.000354,-85.708109,0.001891,
1470,930,-0.540783,-2.877829,0.999997,0.000186,-0.001534,0.003582,-0.000089,0.003583,-0.001535,-89.006159,0.003596,
1430,630,-0.170664,-3.854948,0.999998,0.000175,-0.001283,0.002286,0.000557,0.002371,-0.001368,81.333609,0.002380,
1030,900,0.422390,-3.065879,0.999998,0.000174,-0.001736,0.003591,-0.000438,0.003627,-0.001772,-85.333055,0.003627,
820,1410,0.490153,-1.463163,0.999997,0.000194,-0.001506,0.002757,0.000049,0.002758,-0.001506,89.340596,0.002761,
1330,1310,-0.067225,-1.253220,0.999998,0.000172,-0.000999,0.001606,-0.000958,0.001920,-0.001313,-71.836707,0.001963,
1360,1190,-0.226466,-1.575605,0.999997,0.000223,-0.001154,0.001899,-0.001139,0.002277,-0.001533,-71.635551,0.002322,
1600,280,-0.212985,-4.520752,0.999998,0.000156,-0.000878,0.002253,-0.000098,0.002256,-0.000881,-88.199790,0.002274,
770,1870,0.207042,-0.344746,0.999998,0.000151,-0.000815,0.002285,-0.000373,0.002329,-0.000859,-83.238532,0.002356,
1650,1360,-0.541968,-1.607358,0.999997,0.000217,-0.001542,0.002815,0.000066,0.002816,-0.001543,89.129802,0.002820,
1170,1550,0.038992,-0.824069,0.999999,0.000130,-0.000684,0.001731,0.000161,0.001742,-0.000694,86.210740,0.001754,
1230,770,0.000349,-3.886630,0.999999,0.000140,-0.000537,0.000607,-0.000015,0.000607,-0.000537,-89.239178,0.000664,
770,2010,0.035160,-0.049686,0.999999,0.000112,-0.000166,0.001818,-0.000528,0.001950,-0.000298,-75.993269,0.002101,
1830,220,-0.391575,-4.520223,0.999998,0.000191,-0.001210,0.002563,-0.000135,0.002568,-0.001215,-87.948789,0.002569,
1720,1480,-0.547401,-1.337182,0.999997,0.000192,-0.001342,0.002627,-0.000052,0.002628,-0.001343,-89.246430,0.002628,
650,670,0.748805,-3.386797,0.999997,0.000197,-0.001294,0.002592,0.000100,0.002594,-0.001297,88.533152,0.002594,
890,960,0.708581,-2.707291,0.999998,0.000171,-0.001095,0.002832,0.000288,0.002853,-0.001116,85.823791,0.002876,
1810,290,-0.444524,-4.358634,0.999997,0.000195,-0.001196,0.002570,-0.000083,0.002572,-0.001198,-88.742967,0.002574,
1070,1750,0.077530,-0.488523,0.999998,0.000162,-0.000568,0.001885,0.000022,0.001885,-0.000568,89.478672,0.001934,
1330,600,-0.065807,-4.028571,0.999999,0.000127,-0.000770,0.001765,0.000416,0.001831,-0.000836,80.922310,0.001833,
1760,1840,-0.306666,-0.452473,0.999997,0.000204,-0.001138,0.002518,0.000221,0.002531,-0.001151,86.558119,0.002534,
730,1230,0.783261,-2.011681,0.999998,0.000164,-0.001316,0.002612,-0.000267,0.002630,-0.001334,-86.134502,0.002630,
690,670,0.692966,-3.412659,0.999997,0.000206,-0.001336,0.002615,0.000090,0.002617,-0.001338,88.690922,0.002618,
900,1120,0.672464,-2.257010,0.999998,0.000184,-0.001178,0.002953,-0.000361,0.002984,-0.001209,-85.044016,0.003002,
1440,1410,-0.187109,-1.233426,0.999998,0.000181,-0.001348,0.002377,-0.000564,0.002461,-0.001432,-81.582834,0.002471,
960,230,0.112376,-4.664288,0.999998,0.000152,-0.000653,0.001991,0.000103,0.001995,-0.000657,87.768939,0.002034,
1030,830,0.296726,-3.307964,0.999997,0.000199,-0.001976,0.003222,-0.000548,0.003279,-0.002033,-84.047761,0.003310,
1510,1530,-0.242026,-1.026053,0.999998,0.000158,-0.001173,0.002389,-0.000291,0.002412,-0.001196,-85.366013,0.002413,
600,1780,0.494753,-0.693917,0.999997,0.000188,-0.001215,0.002465,-0.000013,0.002465,-0.001215,-89.800587,0.002466,
1840,690,-0.799829,-3.316707,0.999998,0.000160,-0.001271,0.002526,-0.000083,0.002528,-0.001273,-88.745558,0.002528,
750,960,0.859058,-2.688558,0.999999,0.000143,-0.001109,0.002528,0.000191,0.002538,-0.001119,87.003599,0.002544,
1320,810,-0.084032,-3.712574,0.999998,0.000161,-0.001145,0.001379,0.001024,0.001742,-0.001508,70.475841,0.001891,
1760,290,-0.385668,-4.399244,0.999997,0.000188,-0.001203,0.002531,-0.000070,0.002532,-0.001204,-88.926061,0.002533,
860,700,0.472422,-3.457931,0.999997,0.000197,-0.001602,0.002877,-0.000025,0.002878,-0.001602,-89.681042,0.002884,
1640,680,-0.514693,-3.482945,0.999997,0.000209,-0.001522,0.002791,-0.000002,0.002791,-0.001522,-89.967725,0.002795,
1590,1920,-0.093106,-0.209025,0.999999,0.000144,-0.000494,0.001938,0.000313,0.001978,-0.000534,82.783600,0.002046,
810,1700,0.316879,-0.726440,0.999998,0.000151,-0.001128,0.002400,-0.000003,0.002400,-0.001128,-89.957773,0.002401,
1320,70,-0.005621,-4.963186,0.999999,0.000104,-0.000100,0.001544,-0.000074,0.001547,-0.000103,-87.438790,0.001730,
1830,1320,-0.826557,-1.830187,0.999998,0.000161,-0.001261,0.002517,0.000131,0.002521,-0.001265,88.021729,0.002521,
1680,1080,-0.832706,-2.387741,0.999998,0.000172,-0.001051,0.002579,0.000157,0.002585,-0.001058,87.526680,0.002600,
1520,1790,-0.143103,-0.451778,0.999998,0.000173,-0.000705,0.002040,0.000080,0.002042,-0.000708,88.329429,0.002074,
1900,760,-0.932842,-3.098521,0.999998,0.000000,-0.001144,0.002451,-0.000077,0.002453,-0.001146,-88.777761,0.002454,
810,1890,0.152963,-0.284839,0.999998,0.000139,-0.000649,0.002182,-0.000371,0.002230,-0.000697,-82.664398,0.002282,
600,150,0.331063,-4.662452,0.999998,0.000189,-0.001207,0.002580,0.000221,0.002593,-0.001220,86.666181,0.002594,
720,110,0.139715,-4.852900,0.999998,0.000144,-0.000739,0.002259,0.000561,0.002361,-0.000841,79.734528,0.002393,
1290,1660,-0.033328,-0.628734,0.999999,0.000145,-0.000563,0.001800,-0.000042,0.001800,-0.000564,-88.993688,0.001842,
820,370,0.316996,-4.283997,0.999998,0.000157,-0.001084,0.002449,-0.000004,0.002449,-0.001084,-89.933517,0.002455,
1410,140,-0.036328,-4.845876,0.999999,0.000147,-0.000295,0.001699,-0.000116,0.001705,-0.000302,-86.675028,0.001820,
1810,560,-0.655532,-3.672520,0.999998,0.000163,-0.001277,0.002569,0.000021,0.002569,-0.001277,89.688309,0.002569,
670,1880,0.290328,-0.374173,0.999998,0.000206,-0.001041,0.002554,-0.000416,0.002602,-0.001089,-83.492530,0.002613,
770,1890,0.185403,-0.300636,0.999998,0.000148,-0.000755,0.002297,-0.000432,0.002357,-0.000815,-82.089744,0.002394,
1600,260,-0.199565,-4.564132,0.999998,0.000152,-0.000825,0.002183,-0.000120,0.002188,-0.000830,-87.719896,0.002209,
1430,610,-0.167953,-3.900871,0.999998,0.000165,-0.001210,0.002284,0.000509,0.002356,-0.001283,81.875591,0.002359,
1850,100,-0.216830,-4.810037,0.999998,0.000168,-0.001192,0.002670,-0.000503,0.002734,-0.001256,-82.699445,0.002737,
990,470,0.185032,-4.171121,0.999999,0.000150,-0.001015,0.002217,-0.000246,0.002235,-0.001034,-85.664026,0.002237,
1080,1140,0.380288,-1.804865,0.999997,0.000197,-0.001034,0.002886,0.001795,0.003584,-0.001732,68.756286,0.003585,
870,1240,0.572308,-1.915510,0.999998,0.000172,-0.001623,0.002998,-0.000214,0.003008,-0.001633,-87.357596,0.003012,
1760,1820,-0.328245,-0.501926,0.999997,0.000209,-0.001156,0.002510,0.000166,0.002518,-0.001163,87.416867,0.002520,
1070,1770,0.074821,-0.451001,0.999998,0.000152,-0.000529,0.001870,-0.000022,0.001871,-0.000529,-89.479463,0.001929,
1120,1360,0.075001,-1.192196,0.999998,0.000150,-0.000979,0.001776,0.000769,0.001975,-0.001179,75.418654,0.001988,
1280,540,-0.031195,-4.159728,0.999999,0.000130,-0.000629,0.001692,0.000137,0.001700,-0.000637,86.644897,0.001717,
830,860,0.682581,-2.971921,0.999998,0.000174,-0.001416,0.002825,0.000342,0.002852,-0.001443,85.421173,0.002852,
1110,200,0.037538,-4.748671,0.999999,0.000138,-0.000352,0.001726,0.000059,0.001728,-0.000354,88.363165,0.001826,
1200,770,0.016686,-3.870179,0.999998,0.000159,-0.000616,0.000714,-0.000455,0.000855,-0.000757,-72.793377,0.000935,
1850,1130,-0.993058,-2.291563,0.999999,0.000134,-0.001109,0.002267,0.000132,0.002272,-0.001114,87.761606,0.002272,
1030,810,0.270394,-3.369154,0.999997,0.000183,-0.001960,0.003064,-0.000606,0.003136,-0.002032,-83.219310,0.003181,
1230,750,0.001203,-3.900210,0.999999,0.000131,-0.000475,0.000729,-0.000027,0.000730,-0.000476,-88.730616,0.000741,
1860,1110,-1.015561,-2.339887,0.999999,0.000131,-0.001090,0.002208,0.000073,0.002210,-0.001092,88.724550,0.002210,
690,650,0.679386,-3.465446,0.999998,0.000200,-0.001337,0.002624,0.000055,0.002624,-0.001338,89.198756,0.002625,
810,1870,0.173692,-0.327892,0.999998,0.000146,-0.000727,0.002210,-0.000326,0.002245,-0.000763,-83.744972,0.002283,
650,690,0.765360,-3.334364,0.999998,0.000175,-0.001273,0.002554,0.000104,0.002557,-0.001276,88.446524,0.002557,
1180,830,0.065171,-3.793391,0.999998,0.000161,-0.001147,0.000775,-0.000409,0.000859,-0.001230,-78.477836,0.001262,
1720,1460,-0.561665,-1.389092,0.999998,0.000185,-0.001354,0.002657,-0.000017,0.002657,-0.001354,-89.751170,0.002657,
1900,980,-1.065433,-2.615449,0.999998,0.000000,-0.000966,0.002056,0.000026,0.002056,-0.000966,89.510412,0.002058,
570,770,0.934865,-3.079521,0.999996,0.000197,-0.001338,0.002398,-0.000002,0.002398,-0.001338,-89.964369,0.002404,
860,2020,0.015106,-0.028957,0.999998,0.000000,-0.000052,0.001596,-0.000406,0.001691,-0.000147,-76.888559,0.001873,
1020,270,0.096825,-4.602897,0.999998,0.000147,-0.000573,0.001915,0.000025,0.001915,-0.000573,89.414365,0.001966,
900,1140,0.649861,-2.198237,0.999998,0.000172,-0.001304,0.002964,-0.000352,0.002993,-0.001333,-85.314980,0.002998,
1170,1970,0.006995,-0.099608,0.999999,0.000143,-0.000084,0.001529,-0.000049,0.001530,-0.000085,-88.245586,0.001720,
1740,310,-0.379120,-4.364678,0.999998,0.000192,-0.001161,0.002531,-0.000054,0.002532,-0.001162,-89.168769,0.002535,
1810,270,-0.425438,-4.411017,0.999997,0.000189,-0.001171,0.002544,-0.000105,0.002547,-0.001174,-88.382387,0.002550,
750,2000,0.051027,-0.069201,0.999999,0.000137,-0.000155,0.001910,-0.000627,0.002085,-0.000330,-74.373135,0.002242,
1570,1920,-0.082962,-0.205573,0.999998,0.000153,-0.000412,0.001912,0.000287,0.001947,-0.000447,83.061659,0.002040,
1770,1380,-0.695113,-1.637666,0.999997,0.000206,-0.001336,0.002624,0.000098,0.002626,-0.001339,88.587406,0.002627,
860,720,0.489066,-3.398725,0.999997,0.000191,-0.001625,0.002921,0.000013,0.002921,-0.001625,89.830835,0.002927,
1740,990,-0.898191,-2.612415,0.999998,0.000148,-0.001075,0.002430,-0.000088,0.002432,-0.001077,-88.566967,0.002437,
1550,1850,-0.124600,-0.339074,0.999998,0.000177,-0.000552,0.002068,0.000224,0.002087,-0.000571,85.148214,0.002157,
1260,1730,-0.014401,-0.500895,0.999999,0.000145,-0.000516,0.001771,-0.000021,0.001772,-0.000516,-89.481377,0.001822,
1510,1600,-0.217280,-0.861574,0.999998,0.000156,-0.001005,0.002289,-0.000178,0.002299,-0.001015,-86.921385,0.002304,
1810,1320,-0.800827,-1.816875,0.999998,0.000137,-0.001273,0.002536,0.000124,0.002540,-0.001277,88.143095,0.002540,
940,1540,0.253833,-1.014736,0.999998,0.000157,-0.001189,0.002383,0.000249,0.002400,-0.001206,86.036416,0.002400,
1410,1540,-0.132002,-0.915314,0.999998,0.000149,-0.000928,0.002056,-0.000290,0.002084,-0.000956,-84.493400,0.002086,
1900,970,-1.062068,-2.637844,0.999998,0.000000,-0.000947,0.001993,0.000025,0.001994,-0.000948,89.510792,0.001995,
1680,1060,-0.835727,-2.438569,0.999998,0.000149,-0.001026,0.002519,0.000090,0.002521,-0.001028,88.547140,0.002535,
1600,240,-0.186222,-4.609187,0.999998,0.000171,-0.000779,0.002240,-0.000174,0.002250,-0.000789,-86.712092,0.002283,
600,1760,0.514673,-0.742366,0.999998,0.000187,-0.001226,0.002477,-0.000004,0.002477,-0.001226,-89.933895,0.002477,
1300,70,-0.004701,-4.963841,0.999999,0.000112,-0.000057,0.001525,-0.000054,0.001527,-0.000059,-88.029293,0.001730,
740,1310,0.694561,-1.794642,0.999998,0.000170,-0.001416,0.002683,-0.000202,0.002693,-0.001426,-87.184626,0.002694,
1640,660,-0.497386,-3.538373,0.999997,0.000220,-0.001506,0.002792,0.000045,0.002793,-0.001507,89.401788,0.002796,
1510,1510,-0.248722,-1.073188,0.999998,0.000170,-0.001203,0.002418,-0.000308,0.002444,-0.001229,-85.177338,0.002444,
1740,710,-0.685758,-3.328738,0.999998,0.000183,-0.001390,0.002637,-0.000145,0.002642,-0.001395,-87.945444,0.002643,
1280,520,-0.029503,-4.194235,0.999999,0.000137,-0.000615,0.001695,0.000111,0.001701,-0.000620,87.264823,0.001721,
1410,200,-0.058142,-4.740652,0.999998,0.000261,-0.000438,0.001787,-0.000069,0.001789,-0.000440,-88.222434,0.001864,
1480,170,-0.070338,-4.783720,0.999998,0.000150,-0.000374,0.001827,-0.000171,0.001840,-0.000388,-85.576860,0.001940,
1180,770,0.030519,-3.843575,0.999998,0.000215,-0.000730,0.000917,-0.000703,0.001177,-0.000990,-69.754579,0.001265,
1850,80,-0.170864,-4.863443,0.999998,0.000156,-0.001166,0.002816,-0.000641,0.002916,-0.001267,-81.073397,0.002925,
650,1130,0.952873,-2.281343,0.999999,0.000152,-0.001141,0.002347,-0.000150,0.002354,-0.001147,-87.548103,0.002354,
1430,590,-0.163089,-3.945517,0.999998,0.000146,-0.001143,0.002222,0.000464,0.002285,-0.001206,82.299735,0.002286,
1790,560,-0.629522,-3.687514,0.999998,0.000181,-0.001291,0.002588,0.000008,0.002588,-0.001291,89.884511,0.002588,
1670,980,-0.821640,-2.640359,0.999998,0.000173,-0.001074,0.002552,-0.000147,0.002558,-0.001080,-87.678200,0.002569,
1850,1150,-0.983928,-2.245868,0.999998,0.000145,-0.001091,0.002260,0.000100,0.002263,-0.001094,88.297493,0.002264,
1080,1790,0.062714,-0.411804,0.999998,0.000166,-0.000461,0.001858,-0.000041,0.001859,-0.000462,-88.992038,0.001936,
990,450,0.179018,-4.215153,0.999998,0.000165,-0.000991,0.002199,-0.000215,0.002213,-0.001005,-86.163735,0.002216,
1380,860,-0.244725,-3.383413,0.999997,0.000187,-0.001605,0.002558,0.001072,0.002818,-0.001865,76.371469,0.002867,
1890,260,-0.511219,-4.356934,0.999996,0.000227,-0.001207,0.002444,-0.000027,0.002444,-0.001207,-89.579495,0.002444,
1470,910,-0.503895,-2.946652,0.999997,0.000186,-0.001675,0.003512,-0.000061,0.003513,-0.001676,-89.324621,0.003514,
1330,580,-0.065672,-4.063491,0.999999,0.000139,-0.000754,0.001754,0.000356,0.001804,-0.000804,82.071027,0.001807,
1140,1270,0.071089,-1.299880,0.999998,0.000157,-0.001075,0.001485,0.001058,0.001866,-0.001456,70.214543,0.001961,
1630,1660,-0.318499,-0.806808,0.999998,0.000188,-0.001116,0.002417,-0.000038,0.002417,-0.001116,-89.378133,0.002419,
1380,310,-0.072791,-4.545211,0.999998,0.000192,-0.000505,0.001877,0.000021,0.001877,-0.000505,89.506060,0.001943,
1220,1920,0.000361,-0.176917,0.999998,0.000152,-0.000190,0.001614,0.000007,0.001614,-0.000190,89.790819,0.001764,
860,30,0.010729,-5.020571,0.999999,0.000000,-0.000013,0.001676,0.000444,0.001786,-0.000123,76.126831,0.001996,
1760,1800,-0.351207,-0.552327,0.999997,0.000218,-0.001155,0.002513,0.000125,0.002517,-0.001160,88.054097,0.002520,
900,1160,0.626461,-2.138564,0.999998,0.000183,-0.001412,0.003037,-0.000358,0.003065,-0.001441,-85.425250,0.003067,
720,330,0.400055,-4.312293,0.999997,0.000212,-0.001208,0.002531,0.000009,0.002531,-0.001208,89.865787,0.002532,
710,1840,0.297437,-0.446988,0.999998,0.000197,-0.001142,0.002466,-0.000223,0.002480,-0.001155,-86.481100,0.002482,
690,630,0.661363,-3.519429,0.999997,0.000198,-0.001334,0.002616,0.000035,0.002617,-0.001334,89.493566,0.002617,
1860,1090,-1.021578,-2.383076,0.999998,0.000146,-0.001058,0.002158,0.000017,0.002158,-0.001058,89.699652,0.002159,
1120,1340,0.074549,-1.227676,0.999998,0.000161,-0.001047,0.001761,0.000837,0.001992,-0.001278,74.593794,0.002018,
860,740,0.508236,-3.341814,0.999997,0.000208,-0.001642,0.002934,0.000057,0.002935,-0.001642,89.291341,0.002942,
1810,690,-0.762819,-3.337163,0.999998,0.000187,-0.001287,0.002546,-0.000098,0.002549,-0.001289,-88.533117,0.002549,
740,2000,0.051754,-0.069609,0.999999,0.000129,-0.000166,0.001944,-0.000658,0.002133,-0.000355,-74.021164,0.002286,
1170,1990,0.003654,-0.068021,0.999999,0.000121,-0.000050,0.001515,-0.000053,0.001517,-0.000052,-88.071021,0.001723,
930,1920,0.071890,-0.200825,0.999998,0.000154,-0.000307,0.001850,-0.000250,0.001879,-0.000336,-83.479238,0.002004,
1740,290,-0.361245,-4.414797,0.999997,0.000179,-0.001134,0.002500,-0.000073,0.002502,-0.001136,-88.852085,0.002505,
1750,1380,-0.668244,-1.623166,0.999998,0.000201,-0.001364,0.002662,0.000089,0.002664,-0.001366,88.732633,0.002664,
760,730,0.652132,-3.298158,0.999998,0.000200,-0.001438,0.002741,0.000176,0.002748,-0.001446,87.594527,0.002749,
1680,1040,-0.840290,-2.488539,0.999998,0.000150,-0.001023,0.002528,0.000057,0.002529,-0.001024,89.077590,0.002544,
1550,1830,-0.140210,-0.381813,0.999998,0.000180,-0.000579,0.002038,0.000172,0.002049,-0.000590,86.247155,0.002110,
1720,1440,-0.577700,-1.442488,0.999997,0.000190,-0.001396,0.002644,0.000002,0.002644,-0.001396,89.964696,0.002645,
1790,1320,-0.775255,-1.805058,0.999998,0.000150,-0.001279,0.002557,0.000147,0.002563,-0.001284,87.814454,0.002563,
790,1700,0.339787,-0.741210,0.999998,0.000173,-0.001126,0.002414,0.000002,0.002414,-0.001126,89.963688,0.002416,
1510,1490,-0.255671,-1.121986,0.999998,0.000165,-0.001264,0.002456,-0.000329,0.002485,-0.001293,-84.979329,0.002486,
1900,960,-1.060588,-2.656547,0.999998,0.000000,-0.000933,0.001974,0.000003,0.001974,-0.000933,89.932256,0.001975,
810,1850,0.194115,-0.371611,0.999998,0.000152,-0.000787,0.002235,-0.000289,0.002263,-0.000814,-84.584356,0.002292,
1850,1170,-0.972638,-2.201694,0.999999,0.000145,-0.001095,0.002281,0.000093,0.002284,-0.001097,88.427962,0.002284,
1160,830,0.087588,-3.741188,0.999998,0.000149,-0.001095,0.001013,-0.000688,0.001217,-0.001300,-73.426216,0.001455,
1880,260,-0.499442,-4.367481,0.999997,0.000203,-0.001219,0.002448,-0.000023,0.002448,-0.001219,-89.641458,0.002448,
1720,710,-0.657320,-3.342878,0.999998,0.000204,-0.001411,0.002678,-0.000133,0.002682,-0.001415,-88.136312,0.002683,
730,1210,0.801634,-2.063221,0.999998,0.000158,-0.001301,0.002590,-0.000276,0.002610,-0.001320,-85.970389,0.002610,
1410,980,-0.516587,-2.813790,0.999996,0.000224,-0.002241,0.005630,0.001244,0.005822,-0.002433,81.230230,0.005848,
1430,570,-0.160098,-3.989023,0.999998,0.000151,-0.001092,0.002156,0.000449,0.002217,-0.001153,82.279502,0.002217,
1540,70,-0.030298,-4.955481,0.999999,0.000113,-0.000109,0.001706,-0.000318,0.001760,-0.000164,-80.336129,0.001945,
870,1980,0.045939,-0.097158,0.999998,0.000144,-0.000264,0.001811,-0.000371,0.001875,-0.000329,-80.168222,0.002002,
1070,1790,0.067624,-0.414161,0.999998,0.000170,-0.000493,0.001866,-0.000053,0.001868,-0.000494,-88.702099,0.001935,
1330,1290,-0.070313,-1.285106,0.999998,0.000179,-0.001076,0.001578,-0.001040,0.001937,-0.001435,-70.962991,0.002011,
1390,200,-0.049170,-4.743713,0.999999,0.000147,-0.000347,0.001784,-0.000076,0.001787,-0.000350,-87.947285,0.001894,
1600,220,-0.168974,-4.655281,0.999998,0.000154,-0.000736,0.002152,-0.000216,0.002168,-0.000752,-85.749480,0.002202,
1230,730,0.000634,-3.916367,0.999999,0.000123,-0.000471,0.000898,-0.000024,0.000898,-0.000471,-88.991229,0.000898,
850,2020,0.012926,-0.030395,0.999999,0.000000,-0.000047,0.001626,-0.000435,0.001732,-0.000153,-76.265432,0.001918,
1280,770,-0.026419,-3.847666,0.999998,0.000161,-0.000704,0.000907,0.000670,0.001150,-0.000946,70.116370,0.001227,
1680,970,-0.828902,-2.666095,0.999998,0.000152,-0.001089,0.002550,-0.000174,0.002558,-0.001097,-87.260994,0.002567,
1360,310,-0.062853,-4.549898,0.999998,0.000187,-0.000525,0.001829,0.000029,0.001829,-0.000526,89.286316,0.001884,
940,1560,0.246391,-0.965533,0.999998,0.000156,-0.001155,0.002360,0.000237,0.002376,-0.001171,86.165138,0.002376,
800,370,0.338607,-4.269570,0.999998,0.000173,-0.001142,0.002456,-0.000033,0.002456,-0.001143,-89.473194,0.002458,
1810,710,-0.779471,-3.286344,0.999998,0.000184,-0.001265,0.002549,-0.000110,0.002552,-0.001268,-88.343454,0.002552,
990,430,0.172888,-4.259657,0.999998,0.000178,-0.000965,0.002177,-0.000203,0.002190,-0.000978,-86.318885,0.002195,
900,1600,0.276530,-0.904018,0.999998,0.000169,-0.001128,0.002382,0.000158,0.002389,-0.001135,87.433617,0.002390,
1770,290,-0.397506,-4.391762,0.999997,0.000193,-0.001194,0.002549,-0.000066,0.002551,-0.001195,-88.984524,0.002552,
1870,910,-1.007042,-2.774660,0.999998,0.000143,-0.001089,0.002212,-0.000081,0.002214,-0.001091,-88.590146,0.002214,
1640,640,-0.483693,-3.593432,0.999997,0.000222,-0.001491,0.002758,0.000050,0.002759,-0.001492,89.330874,0.002762,
1280,500,-0.030024,-4.226721,0.999998,0.000144,-0.000617,0.001722,0.000101,0.001726,-0.000621,87.524946,0.001749,
690,1840,0.320567,-0.462783,0.999998,0.000171,-0.001128,0.002492,-0.000247,0.002509,-0.001145,-86.113391,0.002512,
720,1310,0.722330,-1.804480,0.999998,0.000169,-0.001372,0.002645,-0.000205,0.002656,-0.001383,-87.087793,0.002657,
600,1740,0.532951,-0.792400,0.999998,0.000162,-0.001238,0.002469,0.000038,0.002469,-0.001238,89.412237,0.002469,
890,200,0.134465,-4.704138,0.999998,0.000167,-0.000638,0.002075,0.000230,0.002094,-0.000658,85.193941,0.002142,
1100,1790,0.054483,-0.407764,0.999999,0.000122,-0.000420,0.001808,-0.000003,0.001808,-0.000420,-89.929866,0.001893,
570,430,0.686140,-3.940118,0.999823,0.001735,-0.002655,0.002536,-0.000206,0.002544,-0.002664,-87.728466,0.003009,
1240,1730,-0.003453,-0.498270,0.999998,0.000141,-0.000505,0.001736,-0.000017,0.001736,-0.000506,-89.560687,0.001785,
1790,540,-0.614212,-3.739729,0.999998,0.000182,-0.001293,0.002559,0.000019,0.002559,-0.001293,89.723339,0.002559,
1070,1460,0.124538,-1.061879,0.999999,0.000132,-0.001045,0.002100,0.000537,0.002189,-0.001134,80.577149,0.002189,
860,760,0.526870,-3.281866,0.999997,0.000196,-0.001656,0.002982,0.000099,0.002984,-0.001658,88.773468,0.002990,
1120,1320,0.079823,-1.262900,0.999998,0.000169,-0.001103,0.001753,0.000942,0.002036,-0.001386,73.295149,0.002080,
1390,1540,-0.113468,-0.900272,0.999998,0.000141,-0.000882,0.002007,-0.000310,0.002040,-0.000915,-83.937361,0.002043,
650,1110,0.964495,-2.329165,0.999998,0.000156,-0.001100,0.002323,-0.000142,0.002329,-0.001106,-87.620344,0.002330,
770,1910,0.158588,-0.252260,0.999998,0.000156,-0.000678,0.002213,-0.000469,0.002287,-0.000752,-81.008986,0.002332,
670,1180,0.899232,-2.157835,0.999998,0.000193,-0.001173,0.002452,-0.000218,0.002465,-0.001186,-86.577836,0.002465,
720,310,0.383666,-4.362671,0.999998,0.000198,-0.001189,0.002495,0.000043,0.002496,-0.001190,89.335787,0.002497,
910,1920,0.077353,-0.203103,0.999999,0.000138,-0.000335,0.001865,-0.000295,0.001904,-0.000373,-82.503561,0.002018,
1180,60,0.002058,-4.979929,0.999999,0.000142,-0.000048,0.001508,0.000038,0.001509,-0.000049,88.611691,0.001715,
730,2000,0.053050,-0.070592,0.999998,0.000178,-0.000264,0.002006,-0.000683,0.002195,-0.000454,-74.485445,0.002318,
1770,1320,-0.749861,-1.793365,0.999998,0.000161,-0.001325,0.002589,0.000171,0.002597,-0.001333,87.504351,0.002597,
1550,1120,-0.656735,-2.252743,0.999998,0.000179,-0.001205,0.003004,0.000356,0.003034,-0.001235,85.202351,0.003051,
1550,1810,-0.151668,-0.421111,0.999998,0.000161,-0.000626,0.002077,0.000148,0.002086,-0.000634,86.876349,0.002138,
1860,1730,-0.538641,-0.814734,0.999998,0.000172,-0.001231,0.002499,-0.000029,0.002499,-0.001231,-89.556712,0.002500,
960,610,0.263454,-3.811364,0.999998,0.000181,-0.001390,0.002554,-0.000371,0.002588,-0.001425,-84.675404,0.002593,
760,710,0.633694,-3.353730,0.999997,0.000219,-0.001440,0.002731,0.000136,0.002736,-0.001445,88.133552,0.002737,
1140,1250,0.082150,-1.328807,0.999998,0.000150,-0.001151,0.001435,0.001050,0.001808,-0.001524,70.452518,0.001944,
690,610,0.645766,-3.570585,0.999997,0.000208,-0.001328,0.002600,0.000019,0.002601,-0.001328,89.724033,0.002601,
1680,1020,-0.841989,-2.539936,0.999998,0.000160,-0.001023,0.002520,-0.000031,0.002520,-0.001023,-89.499226,0.002535,
1470,1330,-0.264198,-1.490891,0.999998,0.000196,-0.001733,0.002852,-0.000520,0.002910,-0.001791,-83.605371,0.002936,
1380,840,-0.212114,-3.437462,0.999998,0.000172,-0.001718,0.002623,0.001028,0.002854,-0.001949,77.331674,0.002917,
1100,690,0.098308,-3.823769,0.999998,0.000161,-0.001150,0.001970,-0.000791,0.002159,-0.001339,-76.562153,0.002180,
1640,90,-0.070345,-4.912838,0.999999,0.000115,-0.000288,0.001915,-0.000454,0.002005,-0.000378,-78.798481,0.002130,
870,1740,0.230981,-0.595204,0.999998,0.000189,-0.000961,0.002300,-0.000026,0.002300,-0.000962,-89.547186,0.002311,
1850,1610,-0.620389,-1.105653,0.999998,0.000187,-0.001230,0.002509,-0.000036,0.002509,-0.001231,-89.443391,0.002509,
1030,790,0.247157,-3.429998,0.999998,0.000166,-0.001907,0.002992,-0.000681,0.003085,-0.002000,-82.230264,0.003130,
730,1190,0.818659,-2.114953,0.999998,0.000190,-0.001269,0.002553,-0.000273,0.002572,-0.001289,-85.940022,0.002572,
1720,1420,-0.593876,-1.495074,0.999997,0.000193,-0.001413,0.002664,0.000023,0.002664,-0.001413,89.672801,0.002666,
1870,260,-0.486395,-4.377474,0.999997,0.000205,-0.001215,0.002456,-0.000023,0.002457,-0.001215,-89.633908,0.002457,
1430,550,-0.157129,-4.031850,0.999998,0.000145,-0.001063,0.002186,0.000413,0.002238,-0.001114,82.872910,0.002238,
1510,1470,-0.261375,-1.171491,0.999998,0.000175,-0.001344,0.002500,-0.000347,0.002531,-0.001375,-84.882418,0.002534,
1600,200,-0.154167,-4.693583,0.999998,0.000150,-0.000709,0.002098,-0.000253,0.002120,-0.000732,-84.897196,0.002154,
850,30,0.011243,-5.022479,0.999999,0.000000,0.000023,0.001730,0.000472,0.001852,-0.000098,75.537488,0.002084,
940,1580,0.237596,-0.919304,0.999998,0.000170,-0.001100,0.002353,0.000247,0.002371,-0.001117,85.930344,0.002372,
870,960,0.729838,-2.703262,0.999998,0.000159,-0.001067,0.002761,0.000261,0.002779,-0.001084,86.118586,0.002801,
1230,690,-0.000043,-3.956409,0.999999,0.000134,-0.000509,0.001130,0.000003,0.001130,-0.000509,89.899859,0.001131,
610,230,0.431464,-4.469028,0.999997,0.000214,-0.001221,0.002532,0.000071,0.002533,-0.001222,88.922394,0.002534,
1900,950,-1.056627,-2.674882,0.999998,0.000000,-0.000966,0.002034,0.000014,0.002034,-0.000966,89.723197,0.002035,
1280,480,-0.030114,-4.260992,0.999999,0.000134,-0.000604,0.001767,0.000072,0.001769,-0.000606,88.262622,0.001798,
570,420,0.675319,-3.961094,0.999870,0.001432,-0.003182,0.002947,-0.000202,0.002954,-0.003189,-88.118392,0.003554,
810,1830,0.213240,-0.416120,0.999998,0.000155,-0.000847,0.002283,-0.000244,0.002302,-0.000866,-85.569641,0.002326,
990,410,0.166374,-4.303895,0.999998,0.000170,-0.000914,0.002154,-0.000162,0.002163,-0.000922,-86.980068,0.002170,
1330,1270,-0.077975,-1.318056,0.999998,0.000181,-0.001147,0.001608,-0.001095,0.001990,-0.001530,-70.759437,0.002084,
1770,310,-0.415448,-4.339632,0.999998,0.000190,-0.001209,0.002538,-0.000038,0.002538,-0.001209,-89.419537,0.002539,
670,1900,0.259136,-0.322723,0.999998,0.000177,-0.000965,0.002562,-0.000500,0.002631,-0.001034,-82.079164,0.002651,
700,1310,0.749293,-1.816107,0.999998,0.000176,-0.001333,0.002613,-0.000193,0.002623,-0.001342,-87.213571,0.002623,
900,1580,0.283868,-0.950848,0.999998,0.000167,-0.001165,0.002392,0.000174,0.002400,-0.001173,87.213290,0.002400,
1870,900,-1.001823,-2.796615,0.999998,0.000139,-0.001089,0.002208,-0.000069,0.002209,-0.001091,-88.802127,0.002209,
650,1090,0.971866,-2.375555,0.999998,0.000160,-0.001091,0.002291,-0.000068,0.002292,-0.001092,-88.848444,0.002293,
1470,280,-0.117075,-4.574493,0.999999,0.000130,-0.000597,0.001994,-0.000055,0.001995,-0.000598,-88.786870,0.002048,
870,200,0.149652,-4.697768,0.999998,0.000198,-0.000696,0.002119,0.000236,0.002139,-0.000716,85.238770,0.002177,
1890,630,-0.812508,-3.430161,0.999998,0.000173,-0.001277,0.002510,0.000001,0.002510,-0.001277,89.986394,0.002510,
920,370,0.214366,-4.347107,0.999998,0.000149,-0.000859,0.002228,-0.000044,0.002229,-0.000860,-89.178604,0.002248,
1260,770,-0.015716,-3.872942,0.999998,0.000160,-0.000588,0.000731,0.000421,0.000854,-0.000711,73.716588,0.000915,
860,1200,0.633781,-2.040767,0.999997,0.000195,-0.001499,0.002927,-0.000319,0.002950,-0.001522,-85.902804,0.002950,
1460,1790,-0.105620,-0.433213,0.999998,0.000153,-0.000537,0.001950,0.000082,0.001953,-0.000540,88.112553,0.002017,
780,400,0.382044,-4.181134,0.999998,0.000170,-0.001166,0.002490,-0.000024,0.002490,-0.001166,-89.625497,0.002492,
1640,620,-0.467462,-3.649502,0.999997,0.000200,-0.001463,0.002690,0.000079,0.002691,-0.001464,88.915751,0.002695,
1120,1300,0.084183,-1.300792,0.999998,0.000182,-0.001174,0.001804,0.001042,0.002132,-0.001502,72.509083,0.002191,
670,1100,0.946869,-2.349111,0.999999,0.000143,-0.001117,0.002352,-0.000150,0.002358,-0.001124,-87.532370,0.002359,
1890,510,-0.720208,-3.738466,0.999998,0.000168,-0.001284,0.002514,0.000004,0.002514,-0.001284,89.941479,0.002514,
1810,1380,-0.747758,-1.664495,0.999998,0.000184,-0.001285,0.002572,0.000092,0.002574,-0.001287,88.633463,0.002574,
1100,670,0.095961,-3.863918,0.999999,0.000145,-0.001096,0.001934,-0.000706,0.002090,-0.001253,-77.516382,0.002104,
1810,730,-0.797102,-3.234579,0.999998,0.000155,-0.001254,0.002549,-0.000143,0.002554,-0.001259,-87.856345,0.002555,
1380,820,-0.180037,-3.492065,0.999998,0.000173,-0.001706,0.002610,0.001047,0.002851,-0.001947,77.059891,0.002913,
1550,1100,-0.680681,-2.312820,0.999998,0.000172,-0.001119,0.002938,0.000321,0.002963,-0.001144,85.509011,0.002988,
1050,1920,0.035357,-0.185342,0.999999,0.000132,-0.000260,0.001681,-0.000108,0.001687,-0.000266,-86.832928,0.001814,
730,1980,0.082683,-0.110853,0.999998,0.000167,-0.000391,0.002063,-0.000639,0.002220,-0.000547,-76.240021,0.002313,
1180,80,0.003726,-4.948752,0.999999,0.000137,-0.000089,0.001535,0.000054,0.001537,-0.000091,88.098188,0.001724,
1550,1790,-0.165289,-0.465552,0.999998,0.000168,-0.000663,0.002136,0.000124,0.002142,-0.000669,87.471274,0.002191,
1590,1320,-0.481001,-1.672268,0.999997,0.000206,-0.001672,0.002946,0.000009,0.002946,-0.001672,89.884855,0.002955,
780,1930,0.129555,-0.207222,0.999999,0.000149,-0.000596,0.002140,-0.000477,0.002221,-0.000676,-80.378116,0.002277,
1070,1810,0.062492,-0.376137,0.999998,0.000157,-0.000438,0.001831,-0.000035,0.001832,-0.000438,-89.110112,0.001913,
1740,810,-0.779644,-3.065937,0.999998,0.000169,-0.001314,0.002601,-0.000263,0.002618,-0.001331,-86.179545,0.002618,
590,70,0.173721,-4.873619,0.999998,0.000142,-0.000955,0.002934,0.000810,0.003096,-0.001117,78.693437,0.003135,
1900,940,-1.052063,-2.696288,0.999998,0.000000,-0.001015,0.002128,0.000027,0.002129,-0.001015,89.503636,0.002129,
700,530,0.572009,-3.786114,0.999998,0.000157,-0.001301,0.002587,-0.000023,0.002587,-0.001301,-89.657542,0.002587,
1230,670,0.001091,-3.979237,0.999999,0.000118,-0.000537,0.001233,-0.000003,0.001233,-0.000537,-89.910924,0.001236,
1680,1000,-0.837882,-2.588989,0.999998,0.000167,-0.001044,0.002508,-0.000088,0.002510,-0.001046,-88.577923,0.002522,
1160,1410,0.043529,-1.063332,0.999999,0.000151,-0.000700,0.001524,0.000435,0.001606,-0.000782,79.320133,0.001607,
900,1560,0.292987,-0.998391,0.999998,0.000179,-0.001216,0.002444,0.000187,0.002453,-0.001226,87.077321,0.002453,
1430,530,-0.152337,-4.075875,0.999998,0.000153,-0.001039,0.002161,0.000370,0.002203,-0.001081,83.487269,0.002203,
1460,1730,-0.128719,-0.553218,0.999998,0.000139,-0.000662,0.002018,-0.000017,0.002018,-0.000662,-89.626688,0.002058,
690,1030,0.939216,-2.513164,0.999998,0.000163,-0.001087,0.002407,-0.000022,0.002407,-0.001087,-89.641464,0.002411,
910,1240,0.503226,-1.881373,0.999997,0.000195,-0.001748,0.003141,-0.000142,0.003146,-0.001752,-88.341572,0.003152,
1470,1350,-0.253164,-1.434640,0.999997,0.000214,-0.001652,0.002767,-0.000536,0.002831,-0.001716,-83.181539,0.002853,
1850,1590,-0.635918,-1.156681,0.999998,0.000175,-0.001248,0.002546,-0.000023,0.002546,-0.001248,-89.651447,0.002546,
1870,940,-1.023946,-2.708601,0.999998,0.000172,-0.001080,0.002207,-0.000082,0.002209,-0.001082,-88.566263,0.002210,
700,1810,0.342813,-0.529208,0.999998,0.000182,-0.001187,0.002535,-0.000136,0.002540,-0.001192,-87.907653,0.002542,
1770,330,-0.432680,-4.290436,0.999998,0.000182,-0.001225,0.002505,-0.000005,0.002505,-0.001225,-89.928260,0.002505,
840,2020,0.015014,-0.028428,0.999999,0.000000,-0.000060,0.001658,-0.000480,0.001783,-0.000185,-75.386837,0.001960,
1510,1450,-0.271051,-1.223266,0.999998,0.000183,-0.001400,0.002553,-0.000359,0.002585,-0.001433,-84.846282,0.002590,
990,390,0.159759,-4.345592,0.999998,0.000171,-0.000848,0.002136,-0.000137,0.002142,-0.000854,-87.382977,0.002157,
1280,460,-0.030018,-4.296726,0.999999,0.000137,-0.000593,0.001774,0.000055,0.001775,-0.000594,88.675595,0.001807,
1640,600,-0.453059,-3.702049,0.999997,0.000187,-0.001434,0.002665,0.000087,0.002666,-0.001436,88.783777,0.002669,
850,960,0.750881,-2.699212,0.999998,0.000175,-0.001039,0.002693,0.000254,0.002711,-0.001056,86.122290,0.002733,
1880,630,-0.799765,-3.438454,0.999998,0.000163,-0.001295,0.002534,-0.000003,0.002534,-0.001295,-89.947765,0.002534,
960,590,0.254134,-3.863698,0.999998,0.000158,-0.001323,0.002509,-0.000354,0.002542,-0.001355,-84.763855,0.002543,
590,370,0.591483,-4.100358,0.999998,0.000177,-0.001676,0.002426,-0.000027,0.002426,-0.001676,-89.621813,0.002485,
1600,180,-0.135788,-4.738531,0.999998,0.000160,-0.000632,0.002100,-0.000263,0.002125,-0.000657,-84.549219,0.002176,
940,630,0.298921,-3.737012,0.999998,0.000163,-0.001459,0.002646,-0.000323,0.002671,-0.001484,-85.524771,0.002677,
610,250,0.455384,-4.420902,0.999997,0.000214,-0.001232,0.002507,0.000036,0.002507,-0.001232,89.450659,0.002507,
1310,1200,-0.152823,-1.344990,0.999998,0.000184,-0.001056,0.000797,-0.000340,0.000857,-0.001116,-79.919729,0.001168,
650,1070,0.976565,-2.420821,0.999998,0.000167,-0.001083,0.002297,-0.000061,0.002298,-0.001084,-88.963301,0.002300,
1210,1600,0.013031,-0.730419,0.999999,0.000141,-0.000603,0.001766,0.000076,0.001768,-0.000606,88.163173,0.001797,
1840,1730,-0.513827,-0.796292,0.999998,0.000183,-0.001220,0.002507,-0.000001,0.002507,-0.001220,-89.987092,0.002508,
1720,1400,-0.610367,-1.550070,0.999997,0.000203,-0.001404,0.002683,0.000062,0.002683,-0.001405,89.132819,0.002684,
650,1100,0.969263,-2.352794,0.999998,0.000158,-0.001090,0.002311,-0.000106,0.002314,-0.001093,-88.224110,0.002316,
1360,1410,-0.092999,-1.124865,0.999998,0.000155,-0.000984,0.001906,-0.000611,0.002029,-0.001107,-78.544068,0.002032,
960,1850,0.100448,-0.327594,0.999997,0.000208,-0.000550,0.001915,-0.000124,0.001922,-0.000557,-87.131525,0.001977,
1170,140,0.011462,-4.854119,0.999999,0.000125,-0.000155,0.001580,0.000050,0.001581,-0.000157,88.363413,0.001742,
950,90,0.037695,-4.922852,0.999999,0.000135,-0.000231,0.001728,0.000227,0.001754,-0.000257,83.468150,0.001894,
1790,1380,-0.722102,-1.651315,0.999998,0.000185,-0.001330,0.002595,0.000121,0.002599,-0.001334,88.243232,0.002599,
1120,1280,0.086992,-1.334973,0.999998,0.000167,-0.001249,0.001813,0.001099,0.002167,-0.001602,72.168138,0.002248,
1810,750,-0.813858,-3.183961,0.999999,0.000149,-0.001253,0.002525,-0.000162,0.002532,-0.001260,-87.547280,0.002532,
1440,1790,-0.094041,-0.427570,0.999999,0.000139,-0.000562,0.001914,0.000037,0.001914,-0.000562,89.137403,0.001968,
1550,1770,-0.176430,-0.507851,0.999998,0.000165,-0.000721,0.002178,0.000099,0.002182,-0.000725,88.052500,0.002222,
1890,450,-0.675647,-3.890234,0.999998,0.000176,-0.001249,0.002477,0.000016,0.002477,-0.001249,89.747201,0.002477,
820,300,0.267204,-4.452642,0.999998,0.000201,-0.000976,0.002348,0.000113,0.002352,-0.000979,88.060351,0.002363,
640,430,0.575603,-3.993004,0.999998,0.000153,-0.001251,0.002526,-0.000027,0.002527,-0.001252,-89.590638,0.002527,
1520,70,-0.027760,-4.955944,0.999999,0.000107,-0.000156,0.001670,-0.000267,0.001708,-0.000194,-81.852298,0.001871,
1650,700,-0.547249,-3.417617,0.999997,0.000229,-0.001497,0.002812,-0.000053,0.002813,-0.001498,-89.301214,0.002815,
1080,300,0.072879,-4.564326,0.999998,0.000163,-0.000496,0.001876,0.000000,0.001876,-0.000496,89.988706,0.001944,
780,1910,0.152417,-0.249422,0.999998,0.000164,-0.000702,0.002202,-0.000434,0.002266,-0.000765,-81.669968,0.002305,
900,1540,0.301998,-1.048938,0.999998,0.000182,-0.001257,0.002481,0.000227,0.002494,-0.001271,86.539918,0.002495,
1430,510,-0.149281,-4.119310,0.999998,0.000143,-0.001005,0.002159,0.000333,0.002193,-0.001039,84.061220,0.002194,
840,30,0.010498,-5.023512,0.999999,0.000000,0.000053,0.001762,0.000473,0.001884,-0.000069,75.525568,0.002137,
860,1180,0.658465,-2.098996,0.999998,0.000184,-0.001424,0.002923,-0.000338,0.002949,-0.001450,-85.581095,0.002949,
890,1240,0.537979,-1.898623,0.999997,0.000183,-0.001669,0.003083,-0.000186,0.003090,-0.001676,-87.764727,0.003094,
1680,1420,-0.536654,-1.465033,0.999997,0.000199,-0.001425,0.002697,-0.000005,0.002697,-0.001425,-89.930551,0.002699,
690,1050,0.935915,-2.467219,0.999998,0.000149,-0.001073,0.002363,-0.000083,0.002365,-0.001075,-88.616899,0.002369,
1440,1730,-0.114882,-0.545898,0.999998,0.000160,-0.000671,0.001996,-0.000037,0.001996,-0.000671,-89.205960,0.002031,
1640,70,-0.049113,-4.949125,0.999999,0.000131,-0.000187,0.001872,-0.000483,0.001980,-0.000295,-77.426376,0.002136,
680,770,0.797720,-3.148978,0.999998,0.000163,-0.001292,0.002541,0.000193,0.002551,-0.001302,87.118083,0.002551,
1200,270,0.012788,-4.635944,0.999998,0.000174,-0.000418,0.001746,-0.000018,0.001747,-0.000418,-89.533178,0.001824,
1850,1570,-0.650001,-1.207567,0.999998,0.000172,-0.001265,0.002517,-0.000031,0.002517,-0.001265,-89.536893,0.002518,
1230,650,-0.000020,-4.005419,0.999999,0.000115,-0.000560,0.001289,-0.000010,0.001289,-0.000560,-89.681305,0.001293,
1280,440,-0.027946,-4.330225,0.999998,0.000145,-0.000580,0.001750,0.000048,0.001751,-0.000581,88.827245,0.001784,
990,370,0.152171,-4.389799,0.999998,0.000163,-0.000786,0.002112,-0.000096,0.002115,-0.000789,-88.101402,0.002138,
980,330,0.146078,-4.466564,0.999998,0.000150,-0.000742,0.002115,-0.000038,0.002116,-0.000743,-89.236055,0.002147,
570,1560,0.717523,-1.262944,0.999851,0.001432,-0.001999,0.002287,-0.000060,0.002288,-0.002000,-89.196434,0.002493,
1770,350,-0.450154,-4.238696,0.999997,0.000179,-0.001210,0.002526,-0.000003,0.002526,-0.001210,-89.953482,0.002527,
700,1790,0.364039,-0.580053,0.999997,0.000213,-0.001201,0.002515,-0.000102,0.002518,-0.001204,-88.427263,0.002519,
660,1370,0.749102,-1.685184,0.999997,0.000204,-0.001302,0.002540,-0.000103,0.002543,-0.001305,-88.468051,0.002543,
580,390,0.620414,-4.045066,0.999997,0.000184,-0.003093,0.002357,0.000102,0.002358,-0.003095,88.933085,0.003233,
1190,1600,0.026107,-0.732950,0.999999,0.000128,-0.000609,0.001772,0.000070,0.001774,-0.000611,88.321499,0.001802,
610,270,0.476993,-4.368934,0.999998,0.000195,-0.001243,0.002502,0.000025,0.002502,-0.001244,89.611056,0.002502,
1150,140,0.015591,-4.853416,0.999998,0.000147,-0.000197,0.001599,0.000047,0.001600,-0.000198,88.487456,0.001745,
950,70,0.029329,-4.957152,0.999999,0.000159,-0.000175,0.001707,0.000230,0.001735,-0.000203,83.118467,0.001897,
1880,1320,-0.888025,-1.865195,0.999998,0.000149,-0.001221,0.002442,0.000052,0.002443,-0.001222,89.190340,0.002443,
1510,1430,-0.279026,-1.275279,0.999998,0.000184,-0.001443,0.002604,-0.000373,0.002638,-0.001477,-84.773846,0.002645,
930,960,0.665904,-2.719952,0.999998,0.000162,-0.001105,0.003023,0.000318,0.003047,-0.001129,85.625406,0.003081,
730,960,0.881957,-2.686672,0.999998,0.000166,-0.001114,0.002481,0.000177,0.002489,-0.001123,87.184894,0.002493,
820,1550,0.398670,-1.090856,0.999998,0.000164,-0.001285,0.002557,0.000117,0.002561,-0.001289,88.253686,0.002561,
1030,770,0.229759,-3.489109,0.999998,0.000168,-0.001825,0.002906,-0.000700,0.003008,-0.001927,-81.761337,0.003047,
650,1050,0.979689,-2.468237,0.999998,0.000164,-0.001086,0.002314,-0.000060,0.002315,-0.001087,-88.981723,0.002316,
1810,1190,-0.911838,-2.140270,0.999998,0.000146,-0.001181,0.002414,0.000214,0.002427,-0.001194,86.608333,0.002427,
730,1170,0.834472,-2.166336,0.999998,0.000175,-0.001208,0.002567,-0.000282,0.002588,-0.001229,-85.745568,0.002589,
1640,580,-0.439806,-3.754040,0.999997,0.000181,-0.001422,0.002672,0.000107,0.002675,-0.001424,88.505445,0.002676,
970,1180,0.483466,-2.008481,0.999998,0.000185,-0.001786,0.003351,-0.000125,0.003354,-0.001789,-88.605351,0.003357,
1550,1750,-0.188391,-0.551450,0.999998,0.000185,-0.000769,0.002179,0.000048,0.002180,-0.000770,89.062881,0.002211,
1290,1260,-0.042859,-1.231774,0.999998,0.000176,-0.000879,0.000909,-0.000759,0.001188,-0.001158,-69.842374,0.001355,
1890,440,-0.667025,-3.913939,0.999998,0.000169,-0.001237,0.002502,-0.000008,0.002502,-0.001237,-89.878090,0.002502,
1600,600,-0.394454,-3.737627,0.999998,0.000183,-0.001429,0.002680,0.000167,0.002687,-0.001436,87.681692,0.002689,
1430,490,-0.145811,-4.163099,0.999998,0.000139,-0.000945,0.002120,0.000289,0.002147,-0.000972,84.655635,0.002150,
1680,1440,-0.521109,-1.410327,0.999997,0.000187,-0.001422,0.002707,-0.000033,0.002707,-0.001423,-89.548237,0.002708,
1720,1820,-0.285016,-0.475623,0.999998,0.000157,-0.000959,0.002462,0.000283,0.002486,-0.000982,85.294911,0.002504,
830,2020,0.016697,-0.027849,0.999999,0.000000,-0.000091,0.001704,-0.000522,0.001844,-0.000232,-74.902190,0.002009,
1720,250,-0.302016,-4.527177,0.999997,0.000208,-0.000991,0.002472,-0.000248,0.002490,-0.001009,-85.916167,0.002504,
1200,1850,0.011218,-0.292358,0.999998,0.000179,-0.000269,0.001678,-0.000005,0.001678,-0.000269,-89.849766,0.001803,
1160,1450,0.045865,-1.000843,0.999999,0.000114,-0.000735,0.001614,0.000351,0.001665,-0.000787,81.693153,0.001666,
610,290,0.498073,-4.319108,0.999998,0.000208,-0.001244,0.002483,-0.000007,0.002483,-0.001244,-89.895701,0.002483,
1850,1550,-0.665492,-1.257604,0.999998,0.000180,-0.001280,0.002562,-0.000021,0.002562,-0.001280,-89.685942,0.002562,
580,380,0.611896,-4.068944,0.999997,0.000189,-0.003293,0.002109,0.000221,0.002118,-0.003302,87.660076,0.003346,
1770,790,-0.798732,-3.102614,0.999999,0.000158,-0.001259,0.002532,-0.000220,0.002545,-0.001272,-86.682849,0.002545,
990,350,0.146703,-4.430365,0.999998,0.000144,-0.000742,0.002045,-0.000060,0.002046,-0.000744,-88.763112,0.002072,
1280,420,-0.029079,-4.367970,0.999998,0.000148,-0.000565,0.001792,0.000064,0.001794,-0.000567,88.443028,0.001834,
1030,1180,0.370320,-1.886022,0.999998,0.000189,-0.001856,0.003438,0.000490,0.003483,-0.001901,84.753078,0.003488,
820,1530,0.409920,-1.142017,0.999998,0.000158,-0.001313,0.002567,0.000128,0.002571,-0.001317,88.110074,0.002571,
1230,630,-0.000491,-4.031097,0.999999,0.000135,-0.000583,0.001412,-0.000020,0.001412,-0.000583,-89.424717,0.001420,
900,1520,0.311112,-1.098913,0.999998,0.000175,-0.001303,0.002497,0.000227,0.002510,-0.001316,86.599253,0.002511,
1120,1700,0.060757,-0.567682,0.999998,0.000157,-0.000608,0.001840,0.000098,0.001844,-0.000612,87.709387,0.001878,
820,320,0.281705,-4.404584,0.999998,0.000194,-0.001020,0.002369,0.000055,0.002370,-0.001021,89.067505,0.002377,
1630,1980,-0.052285,-0.100186,0.999999,0.000138,-0.000190,0.001867,0.000475,0.001971,-0.000294,77.610765,0.002127,
1380,800,-0.160979,-3.543507,0.999998,0.000195,-0.001678,0.002488,0.001050,0.002738,-0.001928,76.625297,0.002813,
1650,680,-0.528546,-3.474222,0.999998,0.000185,-0.001494,0.002772,-0.000025,0.002772,-0.001494,-89.670127,0.002775,
1030,1920,0.041607,-0.188113,0.999999,0.000142,-0.000264,0.001692,-0.000127,0.001701,-0.000272,-86.305010,0.001827,
1510,1410,-0.287370,-1.326493,0.999998,0.000181,-0.001497,0.002662,-0.000370,0.002695,-0.001530,-84.957409,0.002703,
1020,550,0.171755,-4.020116,0.999998,0.000163,-0.001072,0.002206,-0.000380,0.002249,-0.001116,-83.472754,0.002249,
650,1030,0.982982,-2.515844,0.999998,0.000163,-0.001066,0.002334,0.000001,0.002334,-0.001066,89.980487,0.002337,
690,1780,0.386087,-0.613546,0.999997,0.000188,-0.001193,0.002506,-0.000096,0.002508,-0.001195,-88.509276,0.002509,
770,200,0.223210,-4.660189,0.999998,0.000163,-0.000843,0.002366,0.000329,0.002399,-0.000876,84.209643,0.002428,
1520,530,-0.255125,-3.992755,0.999998,0.000156,-0.001181,0.002404,0.000261,0.002423,-0.001200,85.859335,0.002423,
1290,1240,-0.058653,-1.249697,0.999999,0.000142,-0.001010,0.000887,-0.000730,0.001135,-0.001258,-71.203942,0.001387,
860,1160,0.680530,-2.157708,0.999998,0.000187,-0.001342,0.002873,-0.000344,0.002901,-0.001370,-85.369782,0.002903,
1470,260,-0.109267,-4.614307,0.999999,0.000145,-0.000562,0.001969,-0.000069,0.001971,-0.000564,-88.442632,0.002030,
660,770,0.824048,-3.137793,0.999999,0.000130,-0.001265,0.002491,0.000183,0.002500,-0.001273,87.210014,0.002501,
1600,620,-0.408219,-3.684032,0.999997,0.000190,-0.001475,0.002702,0.000145,0.002707,-0.001480,88.018356,0.002711,
950,1180,0.517973,-2.034163,0.999997,0.000202,-0.001674,0.003288,-0.000205,0.003296,-0.001682,-87.641194,0.003296,
780,380,0.367616,-4.231851,0.999998,0.000173,-0.001155,0.002438,-0.000027,0.002439,-0.001155,-89.570238,0.002440,
1080,280,0.067342,-4.601107,0.999998,0.000164,-0.000484,0.001845,0.000024,0.001845,-0.000485,89.401777,0.001914,
930,940,0.642012,-2.781681,0.999998,0.000173,-0.001223,0.003052,0.000337,0.003079,-0.001249,85.522100,0.003097,
1260,470,-0.018007,-4.281811,0.999999,0.000154,-0.000617,0.001751,0.000067,0.001753,-0.000619,88.380811,0.001778,
1030,140,0.044085,-4.842254,0.999999,0.000121,-0.000282,0.001723,0.000123,0.001731,-0.000290,86.496737,0.001854,
1330,1250,-0.089014,-1.349677,0.999998,0.000193,-0.001201,0.001595,-0.001114,0.001985,-0.001591,-70.719462,0.002102,
1430,470,-0.142499,-4.204545,0.999998,0.000155,-0.000888,0.002081,0.000250,0.002102,-0.000909,85.223194,0.002108,
1900,930,-1.051515,-2.720286,0.999998,0.000000,-0.001055,0.002143,0.000031,0.002143,-0.001055,89.448495,0.002143,
1470,1370,-0.245359,-1.380333,0.999998,0.000179,-0.001566,0.002695,-0.000533,0.002761,-0.001631,-82.980560,0.002776,
640,450,0.590904,-3.943737,0.999998,0.000184,-0.001264,0.002504,-0.000038,0.002505,-0.001265,-89.422252,0.002505,
830,30,0.009692,-5.022158,0.999999,0.000000,-0.000029,0.001779,0.000454,0.001886,-0.000137,76.655204,0.002103,
1720,1840,-0.264062,-0.427074,0.999998,0.000153,-0.000919,0.002453,0.000333,0.002486,-0.000952,84.422303,0.002508,
1620,70,-0.044799,-4.950902,0.999999,0.000109,-0.000159,0.001855,-0.000433,0.001944,-0.000248,-78.370385,0.002116,
1600,1110,-0.726245,-2.297349,0.999998,0.000180,-0.001139,0.002758,0.000302,0.002782,-0.001162,85.596970,0.002794,
1700,1730,-0.347155,-0.685565,0.999997,0.000189,-0.001054,0.002483,0.000063,0.002484,-0.001055,88.974400,0.002493,
1560,930,-0.663830,-2.799870,0.999998,0.000184,-0.001247,0.002957,-0.000351,0.002986,-0.001276,-85.261840,0.002996,
1870,1320,-0.876417,-1.857897,0.999999,0.000134,-0.001221,0.002455,0.000053,0.002456,-0.001221,89.170775,0.002456,
900,1500,0.320259,-1.148850,0.999998,0.000179,-0.001342,0.002562,0.000224,0.002575,-0.001355,86.733334,0.002576,
940,1980,0.032012,-0.092315,0.999999,0.000125,-0.000163,0.001732,-0.000266,0.001769,-0.000200,-82.152068,0.001938,
1680,1460,-0.505870,-1.357441,0.999997,0.000203,-0.001409,0.002668,-0.000047,0.002668,-0.001410,-89.336540,0.002670,
1180,520,0.034046,-4.193638,0.999998,0.000145,-0.000612,0.001714,-0.000143,0.001723,-0.000621,-86.489673,0.001745,
1680,1250,-0.691679,-1.935156,0.999998,0.000172,-0.001416,0.002752,0.000274,0.002770,-0.001434,86.248939,0.002770,
1030,1160,0.411375,-1.956258,0.999998,0.000167,-0.001753,0.003555,0.000449,0.003593,-0.001791,85.195350,0.003593,
930,900,0.587265,-2.906946,0.999998,0.000169,-0.001512,0.003151,0.000343,0.003177,-0.001537,85.815219,0.003177,
1280,1220,-0.068755,-1.240121,0.999998,0.000170,-0.001288,0.000762,-0.000292,0.000803,-0.001329,-82.047759,0.001338,
1550,1730,-0.197440,-0.595861,0.999998,0.000181,-0.000833,0.002221,0.000006,0.002221,-0.000834,89.882186,0.002244,
1300,1730,-0.033330,-0.503355,0.999998,0.000146,-0.000470,0.001817,-0.000012,0.001817,-0.000470,-89.708868,0.001887,
1760,2010,-0.045848,-0.053386,0.999999,0.000138,-0.000311,0.002069,0.000790,0.002307,-0.000549,73.210122,0.002410,
1120,1720,0.059676,-0.532670,0.999998,0.000171,-0.000558,0.001839,0.000073,0.001841,-0.000560,88.262150,0.001887,
1850,1530,-0.679508,-1.310391,0.999998,0.000183,-0.001252,0.002562,0.000001,0.002562,-0.001252,89.988602,0.002562,
820,340,0.294152,-4.358609,0.999998,0.000175,-0.001053,0.002387,0.000014,0.002387,-0.001053,89.759457,0.002392,
690,1070,0.932996,-2.417795,0.999998,0.000162,-0.001087,0.002381,-0.000083,0.002383,-0.001089,-88.621811,0.002386,
1610,1980,-0.049899,-0.097549,0.999998,0.000151,-0.000230,0.001831,0.000432,0.001918,-0.000317,78.615703,0.002056,
1770,770,-0.780394,-3.154716,0.999998,0.000164,-0.001279,0.002567,-0.000199,0.002577,-0.001289,-87.043996,0.002577,
610,730,0.851031,-3.208094,0.999998,0.000139,-0.001248,0.002450,0.000072,0.002452,-0.001249,88.884865,0.002452,
1710,460,-0.455331,-4.008935,0.999997,0.000192,-0.001250,0.002520,0.000063,0.002521,-0.001252,89.040541,0.002522,
1160,1430,0.045505,-1.031450,0.999999,0.000117,-0.000720,0.001573,0.000396,0.001640,-0.000786,80.477388,0.001640,
900,590,0.336525,-3.800225,0.999998,0.000183,-0.001431,0.002610,-0.000235,0.002624,-0.001444,-86.682710,0.002628,
880,1370,0.428131,-1.520654,0.999997,0.000183,-0.001624,0.002868,0.000118,0.002871,-0.001627,88.495846,0.002880,
1380,780,-0.143146,-3.594388,0.999998,0.000181,-0.001594,0.002382,0.001027,0.002631,-0.001843,76.344555,0.002701,
1390,1920,-0.030568,-0.182803,0.999998,0.000132,-0.000207,0.001671,0.000119,0.001679,-0.000215,86.386422,0.001827,
1000,330,0.132352,-4.475802,0.999998,0.000149,-0.000665,0.002071,-0.000007,0.002071,-0.000665,-89.855274,0.002115,
1020,530,0.167923,-4.063509,0.999999,0.000161,-0.001030,0.002215,-0.000367,0.002256,-0.001071,-83.628141,0.002257,
1510,1390,-0.298366,-1.381419,0.999998,0.000184,-0.001570,0.002754,-0.000375,0.002787,-0.001602,-85.081859,0.002797,
640,1370,0.774005,-1.699538,0.999998,0.000176,-0.001256,0.002518,-0.000101,0.002521,-0.001259,-88.466538,0.002521,
1720,230,-0.281652,-4.575841,0.999998,0.000156,-0.000949,0.002452,-0.000283,0.002475,-0.000972,-85.283046,0.002494,
1640,1000,-0.795685,-2.591697,0.999998,0.000164,-0.000967,0.002558,-0.000114,0.002562,-0.000971,-88.149166,0.002587,
1030,750,0.216626,-3.547089,0.999998,0.000166,-0.001719,0.002761,-0.000721,0.002875,-0.001832,-81.075908,0.002911,
590,1750,0.537024,-0.777750,0.999998,0.000170,-0.001627,0.002339,-0.000008,0.002339,-0.001627,-89.890512,0.002398,
1600,640,-0.421290,-3.628293,0.999997,0.000194,-0.001509,0.002761,0.000127,0.002765,-0.001513,88.295700,0.002769,
580,370,0.603761,-4.092277,0.999998,0.000180,-0.003088,0.002169,0.000161,0.002174,-0.003093,88.246448,0.003176,
730,1150,0.850729,-2.217412,0.999998,0.000151,-0.001155,0.002541,-0.000240,0.002556,-0.001171,-86.305087,0.002559,
650,1010,0.979434,-2.559684,0.999998,0.000171,-0.001070,0.002314,0.000077,0.002316,-0.001072,88.696610,0.002318,
990,330,0.138623,-4.471921,0.999998,0.000149,-0.000692,0.002097,-0.000017,0.002097,-0.000692,-89.659873,0.002137,
1430,450,-0.139293,-4.246262,0.999999,0.000146,-0.000853,0.002090,0.000189,0.002102,-0.000865,86.338267,0.002113,
670,1780,0.409120,-0.629511,0.999997,0.000184,-0.001209,0.002492,-0.000104,0.002494,-0.001212,-88.397577,0.002495,
1300,1370,-0.040793,-1.118388,0.999999,0.000148,-0.000737,0.001419,-0.000528,0.001541,-0.000859,-76.953779,0.001544,
820,2020,0.016458,-0.027344,0.999999,0.000000,-0.000082,0.001739,-0.000483,0.001860,-0.000203,-76.022891,0.002040,
810,1180,0.725353,-2.118502,0.999998,0.000182,-0.001321,0.002739,-0.000329,0.002766,-0.001347,-85.395990,0.002766,
760,90,0.093932,-4.903599,0.999998,0.000138,-0.000341,0.002000,0.000571,0.002131,-0.000473,76.994552,0.002239,
1900,920,-1.047010,-2.740384,0.999998,0.000000,-0.001121,0.002144,-0.000006,0.002144,-0.001121,-89.888745,0.002145,
780,360,0.355236,-4.277932,0.999998,0.000175,-0.001121,0.002453,0.000007,0.002453,-0.001121,89.888020,0.002456,
1890,1310,-0.908300,-1.897402,0.999999,0.000137,-0.001197,0.002416,0.000049,0.002417,-0.001198,89.223227,0.002417,
640,770,0.848537,-3.127104,0.999999,0.000119,-0.001234,0.002488,0.000157,0.002495,-0.001241,87.590640,0.002495,
1090,200,0.043843,-4.745935,0.999998,0.000153,-0.000322,0.001770,0.000067,0.001772,-0.000324,88.166080,0.001887,
900,1480,0.328913,-1.199579,0.999998,0.000175,-0.001377,0.002610,0.000236,0.002624,-0.001391,86.620498,0.002625,
1450,1600,-0.157103,-0.817944,0.999998,0.000183,-0.000948,0.002111,-0.000244,0.002130,-0.000967,-85.466747,0.002133,
1550,1660,-0.231765,-0.752310,0.999999,0.000138,-0.001007,0.002281,-0.000100,0.002284,-0.001010,-88.257483,0.002289,
1280,1730,-0.025204,-0.502203,0.999998,0.000169,-0.000470,0.001801,0.000006,0.001801,-0.000470,89.857605,0.001868,
860,1140,0.699477,-2.212443,0.999998,0.000183,-0.001263,0.002820,-0.000369,0.002853,-0.001296,-84.881521,0.002857,
1680,1480,-0.491949,-1.305108,0.999997,0.000202,-0.001388,0.002622,-0.000053,0.002622,-0.001389,-89.236659,0.002624,
910,960,0.687605,-2.713244,0.999998,0.000164,-0.001093,0.002929,0.000302,0.002951,-0.001115,85.724752,0.002981,
1810,1170,-0.927374,-2.187091,0.999999,0.000153,-0.001145,0.002374,0.000170,0.002383,-0.001154,87.234388,0.002383,
1600,1170,-0.664745,-2.126874,0.999998,0.000186,-0.001356,0.002935,0.000375,0.002967,-0.001389,85.040558,0.002969,
1100,590,0.094580,-4.016437,0.999998,0.000164,-0.000902,0.001927,-0.000483,0.002007,-0.000982,-80.575874,0.002007,
1850,1510,-0.694751,-1.360591,0.999998,0.000168,-0.001253,0.002547,-0.000023,0.002547,-0.001253,-89.647432,0.002547,
940,1960,0.042953,-0.127303,0.999999,0.000149,-0.000221,0.001748,-0.000235,0.001776,-0.000249,-83.301227,0.001923,
1720,1860,-0.240443,-0.376237,0.999998,0.000157,-0.000842,0.002392,0.000396,0.002440,-0.000890,83.127253,0.002470,
1710,440,-0.441425,-4.059269,0.999998,0.000181,-0.001225,0.002531,0.000070,0.002532,-0.001226,88.939262,0.002532,
900,570,0.328084,-3.852958,0.999998,0.000190,-0.001368,0.002568,-0.000232,0.002582,-0.001381,-86.635842,0.002584,
1280,1240,-0.049176,-1.225560,0.999999,0.000141,-0.001013,0.000766,-0.000588,0.000943,-0.001189,-73.276232,0.001256,
1120,1740,0.053913,-0.495590,0.999998,0.000151,-0.000536,0.001828,0.000054,0.001829,-0.000538,88.685739,0.001880,
1010,1980,0.020659,-0.089047,0.999998,0.000140,-0.000115,0.001642,-0.000203,0.001665,-0.000139,-83.491316,0.001848,
1470,1390,-0.236620,-1.328209,0.999998,0.000171,-0.001486,0.002626,-0.000540,0.002696,-0.001555,-82.637298,0.002706,
1780,70,-0.098927,-4.929705,0.999998,0.000157,-0.000449,0.002378,-0.000921,0.002652,-0.000723,-73.458010,0.002742,
1330,1230,-0.112973,-1.379982,0.999998,0.000184,-0.001236,0.001530,-0.001049,0.001883,-0.001589,-71.414352,0.002026,
1260,390,-0.016697,-4.424666,0.999998,0.000193,-0.000598,0.001770,0.000052,0.001771,-0.000599,88.742937,0.001801,
820,360,0.307570,-4.310738,0.999998,0.000170,-0.001080,0.002426,0.000007,0.002426,-0.001080,89.880848,0.002431,
1080,260,0.063161,-4.637682,0.999998,0.000160,-0.000443,0.001814,0.000031,0.001814,-0.000443,89.203945,0.001891,
1670,1400,-0.539142,-1.510441,0.999997,0.000185,-0.001469,0.002743,-0.000003,0.002743,-0.001469,-89.965134,0.002745,
1380,760,-0.133927,-3.641247,0.999998,0.000190,-0.001505,0.002327,0.000979,0.002562,-0.001741,76.463496,0.002617,
1210,1920,0.003163,-0.177514,0.999998,0.000171,-0.000178,0.001601,-0.000001,0.001601,-0.000178,-89.974663,0.001755,
1560,200,-0.124833,-4.709307,0.999998,0.000150,-0.000573,0.002035,-0.000204,0.002051,-0.000589,-85.551735,0.002112,
580,1750,0.548628,-0.786729,0.999998,0.000171,-0.002743,0.002070,-0.000042,0.002071,-0.002744,-89.499372,0.002860,
690,1090,0.928080,-2.371550,0.999998,0.000172,-0.001091,0.002389,-0.000118,0.002393,-0.001095,-88.060739,0.002396,
1610,580,-0.398484,-3.782714,0.999998,0.000174,-0.001389,0.002657,0.000164,0.002664,-0.001396,87.685218,0.002665,
1030,730,0.206418,-3.600094,0.999998,0.000167,-0.001657,0.002694,-0.000708,0.002807,-0.001769,-80.987349,0.002838,
1430,430,-0.135234,-4.286701,0.999998,0.000156,-0.000819,0.002039,0.000167,0.002049,-0.000828,86.673952,0.002061,
1510,1370,-0.308774,-1.438344,0.999997,0.000194,-0.001643,0.002813,-0.000368,0.002843,-0.001673,-85.311943,0.002858,
1760,2000,-0.063167,-0.074247,0.999999,0.000130,-0.000383,0.002154,0.000789,0.002379,-0.000608,74.060700,0.002472,
1420,1410,-0.161272,-1.206376,0.999999,0.000117,-0.001270,0.002290,-0.000608,0.002390,-0.001371,-80.572454,0.002399,
1180,500,0.032106,-4.225668,0.999999,0.000141,-0.000625,0.001728,-0.000098,0.001732,-0.000629,-87.617785,0.001753,
1900,910,-1.040645,-2.759691,0.999998,0.000000,-0.001180,0.002145,-0.000049,0.002146,-0.001181,-89.158702,0.002150,
780,340,0.340934,-4.328349,0.999998,0.000192,-0.001097,0.002487,0.000024,0.002487,-0.001097,89.614645,0.002493,
1320,1190,-0.193893,-1.389789,0.999998,0.000174,-0.000891,0.000827,-0.000504,0.000965,-0.001028,-74.792414,0.001152,
1640,1020,-0.800987,-2.540427,0.999998,0.000176,-0.000960,0.002590,-0.000060,0.002591,-0.000961,-89.031043,0.002620,
920,1350,0.376098,-1.534907,0.999998,0.000201,-0.001693,0.002905,0.000209,0.002914,-0.001702,87.405698,0.002928,
840,810,0.612403,-3.120195,0.999998,0.000178,-0.001539,0.002905,0.000256,0.002920,-0.001553,86.715081,0.002922,
820,30,0.008757,-5.020681,0.999999,0.000000,-0.000118,0.001763,0.000432,0.001857,-0.000213,77.657815,0.002033,
900,1460,0.340001,-1.253611,0.999998,0.000184,-0.001418,0.002618,0.000242,0.002632,-0.001432,86.583595,0.002635,
730,1130,0.861920,-2.267004,0.999998,0.000161,-0.001124,0.002500,-0.000207,0.002511,-0.001136,-86.743110,0.002515,
650,990,0.974806,-2.606819,0.999998,0.000187,-0.001083,0.002298,0.000044,0.002299,-0.001083,89.249468,0.002300,
1120,1330,0.076705,-1.246499,0.999999,0.000157,-0.001080,0.001750,0.000891,0.002007,-0.001337,73.899184,0.002044,
960,410,0.194588,-4.283204,0.999998,0.000162,-0.000941,0.002203,-0.000138,0.002209,-0.000947,-87.499344,0.002217,
1530,1660,-0.214114,-0.741371,0.999998,0.000142,-0.000907,0.002229,-0.000083,0.002232,-0.000909,-88.485177,0.002244,
800,990,0.817605,-2.615916,0.999998,0.000169,-0.001021,0.002563,0.000123,0.002567,-0.001025,88.035786,0.002584,
1830,1380,-0.773452,-1.678997,0.999998,0.000166,-0.001275,0.002553,0.000072,0.002555,-0.001277,88.919621,0.002555,
980,1610,0.187275,-0.821228,0.999998,0.000145,-0.000997,0.002192,0.000194,0.002203,-0.001009,86.532582,0.002206,
1280,1260,-0.033527,-1.211383,0.999998,0.000162,-0.000829,0.000784,-0.000650,0.001013,-0.001058,-70.571838,0.001197,
1680,1920,-0.138888,-0.227839,0.999999,0.000142,-0.000627,0.002126,0.000447,0.002197,-0.000698,81.006320,0.002245,
790,220,0.226302,-4.624026,0.999998,0.000159,-0.000928,0.002318,0.000228,0.002334,-0.000944,86.005094,0.002348,
1850,1490,-0.710000,-1.412597,0.999998,0.000158,-0.001272,0.002566,-0.000021,0.002566,-0.001272,-89.692840,0.002567,
940,1940,0.055918,-0.161561,0.999998,0.000150,-0.000285,0.001819,-0.000251,0.001848,-0.000314,-83.286091,0.001978,
1680,950,-0.816350,-2.717022,0.999998,0.000152,-0.001105,0.002568,-0.000231,0.002583,-0.001120,-86.409996,0.002591,
1330,1210,-0.142945,-1.410824,0.999997,0.000199,-0.001104,0.001364,-0.000847,0.001626,-0.001366,-72.766794,0.001747,
1080,240,0.058780,-4.674367,0.999998,0.000166,-0.000383,0.001814,0.000052,0.001815,-0.000384,88.649429,0.001913,
1720,1880,-0.215667,-0.331612,0.999998,0.000161,-0.000766,0.002334,0.000429,0.002392,-0.000824,82.266757,0.002430,
1370,1980,-0.012420,-0.084875,0.999999,0.000147,-0.000091,0.001562,0.000097,0.001567,-0.000097,86.666760,0.001756,
1120,1760,0.051759,-0.459115,0.999998,0.000149,-0.000503,0.001842,0.000042,0.001843,-0.000504,88.978919,0.001904,
940,330,0.177943,-4.446980,0.999998,0.000153,-0.000825,0.002201,-0.000004,0.002201,-0.000825,-89.916309,0.002224,
1810,1150,-0.937915,-2.234677,0.999998,0.000165,-0.001118,0.002356,0.000148,0.002362,-0.001125,87.562073,0.002363,
1100,650,0.094895,-3.901953,0.999998,0.000168,-0.001016,0.001924,-0.000641,0.002058,-0.001150,-78.221656,0.002062,
1430,1600,-0.139401,-0.804505,0.999999,0.000140,-0.000846,0.002051,-0.000216,0.002067,-0.000862,-85.758441,0.002076,
1190,1920,0.006412,-0.177472,0.999999,0.000140,-0.000197,0.001598,-0.000024,0.001598,-0.000197,-89.249648,0.001743,
740,90,0.100996,-4.901357,0.999998,0.000149,-0.000394,0.002017,0.000609,0.002162,-0.000539,76.601074,0.002251,
1610,560,-0.386295,-3.835701,0.999998,0.000200,-0.001374,0.002590,0.000157,0.002596,-0.001380,87.740455,0.002598,
1510,1350,-0.320153,-1.493693,0.999997,0.000190,-0.001712,0.002859,-0.000346,0.002885,-0.001738,-85.696879,0.002905,
1430,410,-0.131058,-4.326965,0.999998,0.000156,-0.000791,0.002025,0.000158,0.002034,-0.000800,86.804932,0.002049,
990,1100,0.586345,-2.259594,0.999997,0.000209,-0.001356,0.003606,-0.000123,0.003609,-0.001359,-88.578280,0.003646,
1760,1990,-0.081152,-0.095835,0.999999,0.000141,-0.000472,0.002216,0.000777,0.002424,-0.000680,74.990442,0.002501,
1240,390,-0.004613,-4.427247,0.999999,0.000136,-0.000577,0.001772,0.000023,0.001772,-0.000577,89.431539,0.001807,
1560,220,-0.141568,-4.666854,0.999998,0.000181,-0.000625,0.002074,-0.000183,0.002086,-0.000637,-86.137221,0.002138,
1030,710,0.197176,-3.654196,0.999998,0.000172,-0.001572,0.002618,-0.000691,0.002729,-0.001683,-80.869636,0.002754,
1400,1410,-0.136349,-1.177168,0.999998,0.000151,-0.001186,0.002188,-0.000619,0.002298,-0.001296,-79.932969,0.002304,
1380,1460,-0.110079,-1.049464,0.999999,0.000143,-0.000978,0.002016,-0.000495,0.002096,-0.001058,-80.860014,0.002096,
570,1750,0.578312,-0.799471,0.999543,0.002615,-0.003400,0.001743,-0.000091,0.001744,-0.003402,-88.985365,0.003402,
820,800,0.632661,-3.137206,0.999998,0.000192,-0.001507,0.002845,0.000248,0.002859,-0.001521,86.749701,0.002861,
690,1530,0.581686,-1.248393,0.999997,0.000202,-0.001302,0.002599,0.000037,0.002600,-0.001303,89.457144,0.002600,
1790,220,-0.346174,-4.552302,0.999997,0.000187,-0.001119,0.002536,-0.000248,0.002552,-0.001136,-86.142297,0.002557,
1470,1830,-0.093334,-0.357034,0.999998,0.000164,-0.000478,0.001903,0.000119,0.001909,-0.000484,87.151754,0.001985,
900,1440,0.351013,-1.306029,0.999998,0.000192,-0.001469,0.002637,0.000240,0.002651,-0.001483,86.667256,0.002657,
780,320,0.324887,-4.378622,0.999998,0.000194,-0.001087,0.002450,0.000041,0.002451,-0.001088,89.330711,0.002456,
1900,900,-1.035316,-2.783102,0.999999,0.000000,-0.001172,0.002139,-0.000031,0.002139,-0.001172,-89.457439,0.002142,
1570,1420,-0.372702,-1.367409,0.999997,0.000212,-0.001496,0.002734,-0.000209,0.002744,-0.001506,-87.182689,0.002748,
840,790,0.591726,-3.178619,0.999997,0.000199,-0.001571,0.002912,0.000210,0.002921,-0.001580,87.323467,0.002925,
1640,1040,-0.801094,-2.487005,0.999997,0.000197,-0.000963,0.002608,0.000065,0.002609,-0.000965,88.958785,0.002639,
810,2020,0.017261,-0.026047,0.999999,0.000000,-0.000121,0.001744,-0.000451,0.001848,-0.000224,-77.089441,0.002017,
1660,1190,-0.726888,-2.092761,0.999998,0.000193,-0.001299,0.002743,0.000326,0.002770,-0.001325,85.420907,0.002770,
1510,1660,-0.196061,-0.728120,0.999998,0.000158,-0.000931,0.002190,-0.000126,0.002195,-0.000936,-87.685250,0.002203,
1180,1730,0.025708,-0.503127,0.999998,0.000169,-0.000475,0.001798,0.000030,0.001798,-0.000476,89.248405,0.001863,
650,970,0.974291,-2.652165,0.999998,0.000182,-0.001088,0.002294,0.000048,0.002295,-0.001089,89.194620,0.002296,
940,1920,0.068810,-0.198939,0.999998,0.000149,-0.000327,0.001835,-0.000234,0.001860,-0.000352,-83.906796,0.001976,
900,1350,0.408841,-1.557150,0.999997,0.000216,-0.001692,0.002907,0.000143,0.002912,-0.001696,88.218484,0.002925,
650,1180,0.923508,-2.165290,0.999998,0.000151,-0.001173,0.002426,-0.000206,0.002438,-0.001184,-86.733426,0.002439,
920,350,0.205450,-4.391620,0.999998,0.000198,-0.000816,0.002244,0.000001,0.002244,-0.000816,89.985483,0.002272,
1680,1900,-0.162821,-0.271450,0.999998,0.000161,-0.000720,0.002186,0.000421,0.002246,-0.000780,81.915080,0.002280,
1280,1280,-0.028686,-1.196482,0.999998,0.000176,-0.000718,0.000892,-0.000664,0.001130,-0.000957,-70.250966,0.001217,
1510,1980,-0.029805,-0.091649,0.999999,0.000126,-0.000192,0.001700,0.000245,0.001731,-0.000223,82.747179,0.001884,
1730,390,-0.432897,-4.169920,0.999998,0.000190,-0.001230,0.002525,0.000027,0.002526,-0.001230,89.589937,0.002526,
1680,930,-0.806375,-2.768262,0.999999,0.000167,-0.001139,0.002585,-0.000244,0.002601,-0.001155,-86.266225,0.002607,
1850,1470,-0.725527,-1.461878,0.999998,0.000169,-0.001290,0.002568,0.000010,0.002568,-0.001290,89.856387,0.002568,
1080,220,0.053777,-4.708435,0.999998,0.000159,-0.000343,0.001758,0.000078,0.001761,-0.000346,87.872438,0.001866,
1430,390,-0.125987,-4.368312,0.999998,0.000155,-0.000772,0.002046,0.000124,0.002051,-0.000777,87.480444,0.002071,
1130,270,0.042411,-4.629277,0.999999,0.000144,-0.000484,0.001783,-0.000028,0.001783,-0.000484,-89.289581,0.001844,
820,780,0.611537,-3.193761,0.999998,0.000183,-0.001539,0.002868,0.000206,0.002878,-0.001549,87.327227,0.002881,
1100,530,0.091239,-4.132418,0.999998,0.000149,-0.000853,0.001914,-0.000358,0.001959,-0.000898,-82.741659,0.001962,
1090,1460,0.103768,-1.043433,0.999998,0.000146,-0.000951,0.001983,0.000468,0.002056,-0.001024,81.149023,0.002056,
620,1870,0.360302,-0.444983,0.999998,0.000200,-0.001215,0.002598,-0.000151,0.002604,-0.001221,-87.738881,0.002605,
770,180,0.201294,-4.707738,0.999998,0.000164,-0.000794,0.002293,0.000368,0.002336,-0.000837,83.286876,0.002367,
1380,1480,-0.108808,-1.009589,0.999999,0.000145,-0.000975,0.001979,-0.000452,0.002046,-0.001043,-81.497927,0.002046,
1150,1920,0.013853,-0.179118,0.999999,0.000132,-0.000162,0.001608,-0.000054,0.001610,-0.000164,-88.265486,0.001772,
780,370,0.362080,-4.254474,0.999998,0.000172,-0.001133,0.002441,-0.000009,0.002441,-0.001133,-89.849166,0.002443,
1230,610,0.000737,-4.062777,0.999999,0.000123,-0.000584,0.001442,-0.000032,0.001442,-0.000584,-89.082578,0.001451,
1810,1130,-0.950891,-2.281245,0.999998,0.000165,-0.001114,0.002356,0.000157,0.002363,-0.001121,87.422450,0.002364,
1120,810,0.112436,-3.638322,0.999998,0.000141,-0.001354,0.001823,-0.001130,0.002185,-0.001715,-72.281850,0.002300,
1190,400,0.024935,-4.404740,0.999998,0.000167,-0.000581,0.001790,-0.000052,0.001791,-0.000582,-88.734343,0.001827,
900,1420,0.362078,-1.358918,0.999997,0.000194,-0.001526,0.002733,0.000233,0.002746,-0.001538,86.872824,0.002753,
1340,1410,-0.074195,-1.100768,0.999999,0.000132,-0.000910,0.001752,-0.000604,0.001882,-0.001040,-77.798254,0.001886,
1510,1330,-0.335184,-1.552576,0.999997,0.000198,-0.001751,0.002944,-0.000306,0.002963,-0.001771,-86.287549,0.002982,
1560,240,-0.155204,-4.625087,0.999998,0.000178,-0.000675,0.002130,-0.000150,0.002138,-0.000683,-86.938515,0.002184,
1900,890,-1.030463,-2.805635,0.999999,0.000000,-0.001162,0.002125,-0.000020,0.002125,-0.001162,-89.659868,0.002128,
880,1450,0.374533,-1.299144,0.999997,0.000201,-0.001459,0.002628,0.000181,0.002636,-0.001467,87.470836,0.002642,
1330,850,-0.154653,-3.623599,0.999998,0.000196,-0.001048,0.001292,0.000813,0.001547,-0.001303,72.609724,0.001663,
730,1110,0.872691,-2.316417,0.999998,0.000154,-0.001126,0.002472,-0.000215,0.002485,-0.001139,-86.591708,0.002488,
1120,1310,0.081901,-1.281650,0.999998,0.000192,-0.001137,0.001773,0.000992,0.002079,-0.001444,72.853722,0.002131,
1160,1790,0.028853,-0.397673,0.999998,0.000146,-0.000398,0.001753,-0.000021,0.001754,-0.000398,-89.450374,0.001839,
810,30,0.014002,-5.020679,0.999998,0.000000,-0.000178,0.001735,0.000437,0.001830,-0.000274,77.716113,0.001974,
740,110,0.128579,-4.859029,0.999999,0.000139,-0.000474,0.002222,0.000613,0.002355,-0.000606,77.778720,0.002445,
1020,1880,0.062633,-0.259478,0.999999,0.000195,-0.000389,0.001792,-0.000129,0.001799,-0.000397,-86.635617,0.001891,
1510,1040,-0.680010,-2.482572,0.999997,0.000204,-0.000920,0.003094,0.000068,0.003095,-0.000922,89.034589,0.003179,
1570,1400,-0.384560,-1.422271,0.999998,0.000174,-0.001547,0.002778,-0.000181,0.002785,-0.001555,-87.613372,0.002792,
1640,1060,-0.795689,-2.435593,0.999998,0.000189,-0.000996,0.002564,0.000103,0.002567,-0.000999,88.346411,0.002588,
1660,610,-0.489230,-3.657916,0.999998,0.000177,-0.001417,0.002678,0.000056,0.002679,-0.001418,89.221986,0.002680,
780,300,0.309782,-4.427607,0.999998,0.000193,-0.001059,0.002406,0.000102,0.002409,-0.001062,88.315591,0.002415,
1160,1730,0.033916,-0.504685,0.999998,0.000152,-0.000483,0.001807,0.000010,0.001807,-0.000483,89.757332,0.001870,
830,220,0.193679,-4.641211,0.999998,0.000166,-0.000705,0.002227,0.000279,0.002253,-0.000731,84.614916,0.002299,
860,1830,0.175398,-0.398430,0.999998,0.000200,-0.000736,0.002181,-0.000209,0.002196,-0.000751,-85.914871,0.002232,
1490,1660,-0.176420,-0.715231,0.999998,0.000163,-0.000932,0.002166,-0.000138,0.002172,-0.000938,-87.446932,0.002179,
1600,660,-0.434698,-3.574421,0.999997,0.000210,-0.001551,0.002801,0.000098,0.002803,-0.001554,88.708358,0.002809,
1790,500,-0.584387,-3.842179,0.999998,0.000174,-0.001294,0.002571,0.000049,0.002571,-0.001295,89.269936,0.002571,
990,310,0.131713,-4.512216,0.999998,0.000163,-0.000664,0.002039,0.000005,0.002039,-0.000664,89.895077,0.002080,
650,960,0.970551,-2.675806,0.999998,0.000171,-0.001101,0.002325,0.000095,0.002327,-0.001104,88.412870,0.002328,
1600,1450,-0.399966,-1.313872,0.999997,0.000187,-0.001439,0.002656,-0.000162,0.002663,-0.001446,-87.742518,0.002666,
940,1900,0.080215,-0.236360,0.999999,0.000143,-0.000378,0.001874,-0.000234,0.001898,-0.000402,-84.126245,0.002001,
1680,1880,-0.186049,-0.315368,0.999998,0.000162,-0.000786,0.002265,0.000356,0.002306,-0.000827,83.425878,0.002337,
950,1980,0.030161,-0.091185,0.999999,0.000124,-0.000191,0.001720,-0.000244,0.001751,-0.000221,-82.850220,0.001907,
650,950,0.965109,-2.699871,0.999998,0.000175,-0.001109,0.002340,0.000147,0.002346,-0.001115,87.565674,0.002347,
780,1050,0.841833,-2.463186,0.999998,0.000158,-0.001044,0.002516,-0.000101,0.002519,-0.001047,-88.376172,0.002531,
1280,1720,-0.026336,-0.521179,0.999998,0.000158,-0.000487,0.001791,-0.000003,0.001791,-0.000487,-89.933541,0.001852,
1420,1190,-0.329505,-1.811335,0.999998,0.000153,-0.001828,0.003338,-0.000657,0.003420,-0.001911,-82.867589,0.003428,
590,770,0.908673,-3.094855,0.999998,0.000153,-0.001213,0.002406,0.000056,0.002407,-0.001213,89.106396,0.002407,
1850,1450,-0.741126,-1.514740,0.999998,0.000180,-0.001270,0.002575,0.000024,0.002575,-0.001270,89.645726,0.002575,
920,330,0.195003,-4.437949,0.999998,0.000152,-0.000794,0.002231,0.000011,0.002231,-0.000794,89.790095,0.002262,
1070,200,0.050137,-4.742816,0.999998,0.000145,-0.000334,0.001789,0.000094,0.001794,-0.000338,87.463384,0.001906,
1210,400,0.012124,-4.407849,0.999998,0.000195,-0.000577,0.001799,-0.000048,0.001800,-0.000578,-88.849681,0.001838,
1430,810,-0.264847,-3.375825,0.999997,0.000204,-0.001942,0.003050,0.000649,0.003133,-0.002025,82.717460,0.003177,
1730,370,-0.416701,-4.221369,0.999998,0.000181,-0.001206,0.002510,-0.000007,0.002510,-0.001206,-89.898340,0.002511,
1020,1070,0.584871,-2.329715,0.999997,0.000230,-0.001586,0.004281,0.000278,0.004294,-0.001600,87.290572,0.004341,
1530,1920,-0.070768,-0.200325,0.999999,0.000134,-0.000321,0.001844,0.000244,0.001871,-0.000348,83.648263,0.001990,
1900,510,-0.732855,-3.729777,0.999998,0.000000,-0.001278,0.002525,-0.000018,0.002525,-0.001278,-89.734162,0.002525,
1130,250,0.039007,-4.664312,0.999998,0.000149,-0.000434,0.001754,-0.000013,0.001754,-0.000435,-89.648011,0.001827,
770,160,0.178903,-4.752915,0.999998,0.000164,-0.000746,0.002270,0.000448,0.002335,-0.000811,81.729540,0.002371,
1380,1500,-0.107518,-0.972381,0.999999,0.000144,-0.000956,0.001955,-0.000429,0.002017,-0.001017,-81.784180,0.002017,
820,760,0.592192,-3.252445,0.999997,0.000191,-0.001557,0.002885,0.000163,0.002891,-0.001563,87.898625,0.002895,
800,2020,0.019085,-0.028743,0.999999,0.000000,-0.000170,0.001754,-0.000438,0.001849,-0.000265,-77.763423,0.001999,
690,1510,0.595446,-1.299825,0.999997,0.000197,-0.001317,0.002589,0.000035,0.002589,-0.001317,89.480730,0.002590,
900,660,0.376650,-3.610511,0.999997,0.000193,-0.001569,0.002809,-0.000206,0.002819,-0.001579,-87.314640,0.002825,
600,1310,0.875925,-1.876360,0.999999,0.000137,-0.001183,0.002455,-0.000067,0.002456,-0.001185,-88.947530,0.002456,
1560,260,-0.167247,-4.581647,0.999998,0.000163,-0.000717,0.002119,-0.000108,0.002123,-0.000722,-87.830830,0.002159,
1790,200,-0.320040,-4.604223,0.999998,0.000167,-0.001109,0.002565,-0.000295,0.002589,-0.001133,-85.437483,0.002595,
1470,1810,-0.102114,-0.394848,0.999998,0.000166,-0.000519,0.001985,0.000099,0.001989,-0.000523,87.742068,0.002063,
1480,1050,-0.647715,-2.442123,0.999997,0.000221,-0.001075,0.003578,0.000073,0.003580,-0.001076,89.099351,0.003673,
1510,1750,-0.156922,-0.532186,0.999998,0.000171,-0.000804,0.002124,0.000014,0.002124,-0.000804,89.718016,0.002144,
860,1470,0.391982,-1.265615,0.999998,0.000198,-0.001415,0.002636,0.000164,0.002643,-0.001422,87.682398,0.002646,
780,280,0.292204,-4.474425,0.999998,0.000175,-0.001038,0.002431,0.000138,0.002437,-0.001043,87.720771,0.002445,
970,1600,0.200342,-0.850502,0.999998,0.000156,-0.001001,0.002208,0.000188,0.002219,-0.001012,86.653217,0.002222,
1550,1400,-0.354778,-1.401290,0.999998,0.000187,-0.001544,0.002757,-0.000240,0.002771,-0.001557,-86.812495,0.002778,
940,1880,0.093046,-0.273331,0.999999,0.000140,-0.000415,0.001928,-0.000206,0.001946,-0.000433,-85.017608,0.002043,
1640,1500,-0.423670,-1.219082,0.999998,0.000164,-0.001367,0.002638,-0.000123,0.002642,-0.001371,-88.240422,0.002642,
1870,960,-1.030874,-2.664487,0.999998,0.000169,-0.001070,0.002128,-0.000023,0.002128,-0.001070,-89.581094,0.002128,
1210,1660,0.011900,-0.623939,0.999998,0.000150,-0.000569,0.001792,0.000055,0.001793,-0.000571,88.677002,0.001832,
1680,1860,-0.206852,-0.361737,0.999998,0.000149,-0.000857,0.002355,0.000308,0.002384,-0.000886,84.576065,0.002410,
1320,630,-0.056960,-3.985770,0.999999,0.000141,-0.000779,0.001633,0.000469,0.001721,-0.000867,79.384526,0.001721,
1080,200,0.046966,-4.744951,0.999998,0.000142,-0.000313,0.001785,0.000084,0.001788,-0.000317,87.700846,0.001908,
800,1370,0.551915,-1.589758,0.999997,0.000176,-0.001493,0.002795,-0.000051,0.002795,-0.001494,-89.313791,0.002797,
1420,1170,-0.368771,-1.878822,0.999998,0.000172,-0.001751,0.003448,-0.000657,0.003530,-0.001833,-82.906788,0.003530,
1550,1980,-0.035100,-0.094292,0.999999,0.000127,-0.000147,0.001737,0.000305,0.001785,-0.000195,81.036792,0.001958,
1280,1700,-0.026654,-0.556048,0.999998,0.000151,-0.000518,0.001780,-0.000034,0.001781,-0.000519,-89.147059,0.001832,
1330,1600,-0.062364,-0.749968,0.999999,0.000165,-0.000696,0.001842,-0.000176,0.001855,-0.000708,-86.050847,0.001872,
650,190,0.331966,-4.614025,0.999998,0.000184,-0.001104,0.002556,0.000295,0.002580,-0.001127,85.413795,0.002586,
1330,830,-0.120532,-3.651876,0.999998,0.000182,-0.001203,0.001491,0.001031,0.001840,-0.001552,71.283969,0.001979,
760,370,0.385275,-4.240563,0.999998,0.000176,-0.001162,0.002463,0.000015,0.002463,-0.001162,89.769380,0.002465,
1810,1110,-0.960245,-2.329237,0.999998,0.000165,-0.001110,0.002340,0.000145,0.002346,-0.001117,87.597156,0.002347,
1430,830,-0.290605,-3.315692,0.999998,0.000182,-0.001964,0.003176,0.000601,0.003245,-0.002034,83.415697,0.003280,
1850,1430,-0.757309,-1.565398,0.999998,0.000181,-0.001257,0.002543,0.000010,0.002543,-0.001257,89.848403,0.002543,
1900,880,-1.024059,-2.824420,0.999999,0.000000,-0.001153,0.002108,-0.000057,0.002109,-0.001154,-89.005600,0.002112,
1640,130,-0.110832,-4.832121,0.999998,0.000153,-0.000448,0.002025,-0.000434,0.002099,-0.000522,-80.327274,0.002185,
1730,350,-0.400456,-4.272490,0.999998,0.000176,-0.001196,0.002499,-0.000034,0.002499,-0.001196,-89.478009,0.002500,
610,1860,0.386487,-0.482303,0.999998,0.000187,-0.001220,0.002531,-0.000122,0.002535,-0.001224,-88.142725,0.002536,
690,1490,0.610637,-1.352559,0.999998,0.000176,-0.001333,0.002578,0.000005,0.002578,-0.001333,89.930244,0.002579,
1770,220,-0.322790,-4.567340,0.999998,0.000186,-0.001140,0.002507,-0.000230,0.002521,-0.001154,-86.409618,0.002524,
1380,1520,-0.107205,-0.933346,0.999999,0.000132,-0.000908,0.001950,-0.000385,0.002001,-0.000959,-82.460088,0.002001,
1070,760,0.153805,-3.609212,0.999998,0.000180,-0.001612,0.002479,-0.000938,0.002684,-0.001817,-77.678674,0.002739,
820,740,0.572225,-3.310935,0.999997,0.000209,-0.001557,0.002874,0.000127,0.002877,-0.001560,88.355606,0.002881,
1360,790,-0.121523,-3.627886,0.999998,0.000145,-0.001477,0.002142,0.001119,0.002460,-0.001795,74.136228,0.002545,
1100,1330,0.101114,-1.285429,0.999998,0.000178,-0.001217,0.001995,0.000913,0.002236,-0.001458,75.189783,0.002270,
1170,400,0.035328,-4.401637,0.999999,0.000140,-0.000560,0.001791,-0.000037,0.001791,-0.000561,-89.108146,0.001833,
1510,1770,-0.146133,-0.490064,0.999998,0.000151,-0.000754,0.002105,0.000048,0.002106,-0.000755,89.043652,0.002134,
590,1310,0.887805,-1.884194,0.999998,0.000168,-0.001174,0.002441,-0.000055,0.002442,-0.001175,-89.130039,0.002442,
860,1710,0.259891,-0.671274,0.999998,0.000142,-0.000984,0.002329,-0.000016,0.002329,-0.000984,-89.726130,0.002338,
1130,230,0.035526,-4.699958,0.999999,0.000136,-0.000406,0.001762,-0.000004,0.001762,-0.000406,-89.903251,0.001846,
1470,1790,-0.110702,-0.435831,0.999998,0.000160,-0.000551,0.001972,0.000084,0.001975,-0.000554,88.092019,0.002037,
930,1240,0.468728,-1.860836,0.999997,0.000183,-0.001819,0.003185,-0.000053,0.003185,-0.001819,-89.391420,0.003196,
900,1400,0.374229,-1.414699,0.999998,0.000200,-0.001562,0.002784,0.000200,0.002793,-0.001571,87.371465,0.002800,
800,30,0.014914,-5.018723,0.999999,0.000000,-0.000186,0.001729,0.000453,0.001831,-0.000288,77.329206,0.001969,
1690,440,-0.416934,-4.075863,0.999998,0.000169,-0.001236,0.002506,0.000060,0.002507,-0.001237,89.087876,0.002507,
860,1120,0.721258,-2.270128,0.999998,0.000178,-0.001182,0.002792,-0.000345,0.002822,-0.001212,-85.069893,0.002831,
1680,1840,-0.227815,-0.408414,0.999998,0.000158,-0.000924,0.002297,0.000281,0.002322,-0.000948,85.046903,0.002335,
730,1090,0.884245,-2.366589,0.999998,0.000158,-0.001117,0.002472,-0.000157,0.002479,-0.001124,-87.493188,0.002483,
1600,1100,-0.734374,-2.324621,0.999998,0.000176,-0.001090,0.002743,0.000267,0.002761,-0.001108,86.036853,0.002779,
1330,810,-0.092707,-3.681663,0.999998,0.000173,-0.001232,0.001568,0.001087,0.001941,-0.001604,71.088791,0.002074,
1510,1920,-0.063846,-0.197390,0.999998,0.000145,-0.000374,0.001802,0.000210,0.001822,-0.000394,84.539403,0.001917,
1560,700,-0.399406,-3.500250,0.999997,0.000220,-0.001651,0.002885,0.000164,0.002891,-0.001657,87.927051,0.002901,
1180,480,0.030488,-4.261148,0.999998,0.000159,-0.000626,0.001771,-0.000070,0.001773,-0.000628,-88.321324,0.001797,
1670,1500,-0.465550,-1.244230,0.999998,0.000166,-0.001348,0.002627,-0.000092,0.002629,-0.001350,-88.677321,0.002629,
910,900,0.618297,-2.891760,0.999998,0.000158,-0.001427,0.003072,0.000365,0.003101,-0.001457,85.389809,0.003103,
780,260,0.275215,-4.523628,0.999998,0.000179,-0.001004,0.002387,0.000183,0.002397,-0.001013,86.921665,0.002407,
860,1450,0.403033,-1.317447,0.999997,0.000200,-0.001460,0.002633,0.000153,0.002639,-0.001466,87.863821,0.002644,
1640,110,-0.088753,-4.871971,0.999998,0.000153,-0.000357,0.001987,-0.000441,0.002067,-0.000437,-79.700710,0.002179,
730,1180,0.826153,-2.140596,0.999997,0.000197,-0.001242,0.002550,-0.000277,0.002570,-0.001262,-85.848044,0.002571,
580,770,0.921086,-3.086930,0.999999,0.000135,-0.001288,0.002405,0.000016,0.002405,-0.001288,89.751873,0.002407,
1310,1600,-0.048151,-0.741645,0.999999,0.000148,-0.000672,0.001824,-0.000144,0.001832,-0.000680,-86.718088,0.001853,
610,710,0.832840,-3.256455,0.999998,0.000164,-0.001255,0.002497,0.000072,0.002498,-0.001257,88.904004,0.002498,
1730,330,-0.384522,-4.320765,0.999998,0.000174,-0.001159,0.002509,-0.000032,0.002509,-0.001159,-89.497719,0.002511,
1080,180,0.042042,-4.780916,0.999999,0.000134,-0.000277,0.001739,0.000086,0.001743,-0.000280,87.567933,0.001872,
1810,860,-0.907351,-2.913767,0.999999,0.000135,-0.001154,0.002424,-0.000207,0.002436,-0.001166,-86.699856,0.002437,
1140,470,0.058701,-4.264693,0.999998,0.000164,-0.000710,0.001850,-0.000203,0.001866,-0.000726,-85.484068,0.001881,
1770,460,-0.531133,-3.960663,0.999997,0.000197,-0.001250,0.002545,0.000039,0.002546,-0.001251,89.408141,0.002546,
1870,350,-0.570470,-4.153293,0.999998,0.000182,-0.001256,0.002485,0.000019,0.002485,-0.001257,89.702676,0.002485,
1870,950,-1.028633,-2.686794,0.999998,0.000161,-0.001073,0.002175,-0.000050,0.002175,-0.001074,-89.110230,0.002175,
850,200,0.161970,-4.691222,0.999998,0.000154,-0.000642,0.002152,0.000280,0.002180,-0.000670,84.332471,0.002233,
900,430,0.263210,-4.196544,0.999998,0.000193,-0.001088,0.002355,-0.000127,0.002359,-0.001093,-87.887807,0.002361,
1850,670,-0.794808,-3.358329,0.999998,0.000159,-0.001270,0.002520,-0.000064,0.002521,-0.001271,-89.026701,0.002521,
1810,1090,-0.969952,-2.374829,0.999998,0.000186,-0.001100,0.002297,0.000071,0.002299,-0.001101,88.800570,0.002299,
1150,200,0.023051,-4.754442,0.999998,0.000160,-0.000292,0.001674,0.000041,0.001675,-0.000293,88.791753,0.001790,
1490,1200,-0.444904,-1.935546,0.999998,0.000186,-0.001904,0.003374,0.000006,0.003374,-0.001904,89.939916,0.003383,
1510,1790,-0.136528,-0.448230,0.999998,0.000173,-0.000715,0.002018,0.000081,0.002020,-0.000717,88.304908,0.002048,
820,720,0.554050,-3.366266,0.999997,0.000212,-0.001549,0.002817,0.000100,0.002819,-0.001551,88.694700,0.002824,
900,1360,0.401398,-1.528251,0.999997,0.000206,-0.001660,0.002886,0.000167,0.002892,-0.001666,87.892720,0.002903,
1610,300,-0.236521,-4.468771,0.999998,0.000192,-0.000917,0.002277,-0.000080,0.002279,-0.000919,-88.560908,0.002293,
570,1370,0.861566,-1.752854,0.999981,0.000513,-0.001596,0.002562,0.000068,0.002563,-0.001597,89.059005,0.002589,
840,1710,0.279264,-0.683654,0.999998,0.000161,-0.000977,0.002366,-0.000028,0.002366,-0.000977,-89.526626,0.002378,
1280,1680,-0.026760,-0.590768,0.999998,0.000175,-0.000541,0.001792,-0.000050,0.001793,-0.000542,-88.768953,0.001839,
1530,1980,-0.033810,-0.092404,0.999999,0.000141,-0.000138,0.001726,0.000272,0.001765,-0.000177,81.862983,0.001944,
780,670,0.569053,-3.476914,0.999997,0.000192,-0.001419,0.002740,0.000047,0.002741,-0.001419,89.354677,0.002741,
1470,1770,-0.118977,-0.474527,0.999998,0.000159,-0.000587,0.002000,0.000037,0.002001,-0.000587,89.191331,0.002057,
790,2020,0.021491,-0.030414,0.999999,0.000000,-0.000163,0.001781,-0.000449,0.001880,-0.000261,-77.598345,0.002037,
580,1310,0.899605,-1.892324,0.999999,0.000157,-0.001284,0.002415,-0.000017,0.002415,-0.001284,-89.733476,0.002416,
1110,400,0.073094,-4.382901,0.999998,0.000200,-0.000656,0.001838,-0.000123,0.001844,-0.000662,-87.190538,0.001868,
1130,210,0.032772,-4.733469,0.999999,0.000132,-0.000364,0.001724,0.000026,0.001724,-0.000364,89.288880,0.001817,
860,1100,0.736227,-2.325180,0.999998,0.000172,-0.001092,0.002746,-0.000275,0.002766,-0.001112,-85.916123,0.002783,
1430,850,-0.319841,-3.246447,0.999997,0.000198,-0.001937,0.003338,0.000542,0.003393,-0.001992,84.193985,0.003410,
1590,580,-0.370436,-3.801170,0.999997,0.000196,-0.001373,0.002650,0.000179,0.002658,-0.001381,87.450331,0.002658,
1890,1600,-0.679002,-1.162805,0.999998,0.000187,-0.001281,0.002489,-0.000035,0.002489,-0.001282,-89.469002,0.002490,
1330,790,-0.080627,-3.714956,0.999998,0.000165,-0.001179,0.001640,0.001102,0.002019,-0.001559,70.992203,0.002117,
940,1860,0.105147,-0.314202,0.999998,0.000161,-0.000493,0.001974,-0.000205,0.001991,-0.000510,-85.276187,0.002068,
730,1070,0.889779,-2.415264,0.999998,0.000153,-0.001090,0.002468,-0.000087,0.002470,-0.001092,-88.593985,0.002476,
1560,680,-0.387232,-3.557106,0.999997,0.000209,-0.001597,0.002848,0.000195,0.002857,-0.001606,87.488592,0.002864,
1810,660,-0.734704,-3.413633,0.999998,0.000188,-0.001305,0.002597,-0.000076,0.002599,-0.001307,-88.880421,0.002599,
910,1660,0.236287,-0.754265,0.999998,0.000155,-0.000997,0.002287,0.000098,0.002290,-0.001000,88.299471,0.002296,
1030,690,0.188910,-3.705637,0.999998,0.000152,-0.001480,0.002500,-0.000660,0.002607,-0.001587,-80.832329,0.002627,
780,240,0.254285,-4.569937,0.999998,0.000160,-0.000980,0.002365,0.000230,0.002381,-0.000996,86.081911,0.002392,
1100,830,0.167924,-3.530528,0.999998,0.000195,-0.001594,0.002256,-0.001141,0.002569,-0.001906,-74.670517,0.002667,
1230,590,0.001731,-4.089591,0.999999,0.000138,-0.000596,0.001502,-0.000017,0.001502,-0.000597,-89.534947,0.001512,
650,930,0.956161,-2.745667,0.999998,0.000165,-0.001125,0.002324,0.000175,0.002333,-0.001133,87.107323,0.002334,
1080,160,0.035590,-4.813946,0.999999,0.000125,-0.000251,0.001716,0.000111,0.001723,-0.000258,86.768471,0.001858,
1430,1280,-0.229909,-1.558504,0.999998,0.000200,-0.001819,0.002924,-0.000753,0.003041,-0.001935,-81.193382,0.003078,
790,1580,0.419082,-1.040223,0.999998,0.000176,-0.001273,0.002534,0.000084,0.002536,-0.001275,88.743752,0.002536,
1030,1720,0.113826,-0.563575,0.999998,0.000176,-0.000698,0.001963,0.000065,0.001965,-0.000699,88.591744,0.001992,
1870,1060,-1.038097,-2.449255,0.999998,0.000149,-0.001023,0.002141,0.000038,0.002142,-0.001024,89.316793,0.002142,
1640,1480,-0.437270,-1.271672,0.999997,0.000186,-0.001416,0.002653,-0.000099,0.002655,-0.001419,-88.611857,0.002657,
1130,1920,0.017558,-0.180821,0.999999,0.000124,-0.000228,0.001607,-0.000065,0.001609,-0.000230,-87.968739,0.001740,
1180,460,0.030474,-4.295539,0.999998,0.000171,-0.000598,0.001746,-0.000062,0.001748,-0.000600,-88.478754,0.001776,
1770,440,-0.517759,-4.012391,0.999998,0.000164,-0.001245,0.002528,0.000022,0.002528,-0.001245,89.658625,0.002528,
900,1340,0.419874,-1.587959,0.999997,0.000224,-0.001726,0.002934,0.000132,0.002938,-0.001729,88.383538,0.002953,
1510,1810,-0.125764,-0.410385,0.999998,0.000178,-0.000659,0.002010,0.000097,0.002014,-0.000662,87.928241,0.002053,
1410,860,-0.302115,-3.278375,0.999997,0.000194,-0.001839,0.003141,0.000723,0.003244,-0.001942,81.903755,0.003265,
610,690,0.815688,-3.308153,0.999998,0.000160,-0.001269,0.002544,0.000069,0.002545,-0.001270,88.960184,0.002545,
1090,400,0.085030,-4.376121,0.999998,0.000151,-0.000647,0.001883,-0.000117,0.001888,-0.000652,-87.368372,0.001918,
1770,750,-0.762897,-3.206452,0.999998,0.000172,-0.001307,0.002616,-0.000177,0.002624,-0.001315,-87.415618,0.002624,
900,410,0.253949,-4.242760,0.999998,0.000158,-0.001069,0.002345,-0.000118,0.002349,-0.001074,-88.020822,0.002352,
630,900,0.961588,-2.809004,0.999998,0.000145,-0.001107,0.002280,0.000121,0.002284,-0.001112,87.954021,0.002284,
1490,1220,-0.414900,-1.868074,0.999998,0.000181,-0.001959,0.003329,-0.000079,0.003330,-0.001960,-89.144051,0.003347,
820,700,0.535697,-3.423252,0.999997,0.000213,-0.001559,0.002818,0.000060,0.002819,-0.001560,89.210879,0.002825,
900,30,0.007062,-5.020874,0.999999,0.000000,-0.000084,0.001585,0.000311,0.001641,-0.000140,79.766946,0.001820,
1410,1980,-0.016214,-0.087024,0.999998,0.000167,-0.000122,0.001597,0.000139,0.001609,-0.000133,85.408822,0.001786,
570,1310,0.911427,-1.901333,0.999992,0.000337,-0.001339,0.002376,0.000011,0.002376,-0.001339,89.826320,0.002383,
980,1850,0.089251,-0.322958,0.999998,0.000152,-0.000477,0.001891,-0.000112,0.001897,-0.000482,-87.291332,0.001971,
1130,1600,0.064427,-0.749828,0.999998,0.000148,-0.000694,0.001859,0.000177,0.001871,-0.000706,86.052962,0.001890,
620,770,0.873362,-3.114582,0.999999,0.000135,-0.001233,0.002445,0.000118,0.002449,-0.001236,88.157847,0.002449,
580,310,0.552255,-4.241726,0.999997,0.000212,-0.002300,0.002816,-0.000272,0.002831,-0.002314,-86.963803,0.003015,
980,1480,0.224440,-1.118821,0.999998,0.000152,-0.001257,0.002410,0.000373,0.002447,-0.001295,84.254397,0.002448,
760,670,0.595843,-3.462244,0.999998,0.000213,-0.001458,0.002715,0.000056,0.002716,-0.001459,89.238106,0.002718,
1900,860,-1.010652,-2.869132,0.999999,0.000000,-0.001118,0.002239,-0.000071,0.002241,-0.001119,-88.786117,0.002241,
1500,1470,-0.248227,-1.161331,0.999998,0.000161,-0.001328,0.002480,-0.000361,0.002514,-0.001362,-84.636763,0.002517,
1120,470,0.072228,-4.256492,0.999999,0.000138,-0.000706,0.001862,-0.000183,0.001875,-0.000719,-85.946728,0.001892,
1330,770,-0.071223,-3.746856,0.999998,0.000158,-0.001121,0.001584,0.001046,0.001941,-0.001478,71.141654,0.002028,
1880,350,-0.584371,-4.144001,0.999998,0.000171,-0.001253,0.002480,-0.000007,0.002480,-0.001253,-89.899680,0.002480,
1810,1070,-0.971628,-2.421536,0.999998,0.000198,-0.001085,0.002306,0.000041,0.002306,-0.001085,89.303687,0.002308,
1850,1410,-0.773366,-1.616469,0.999998,0.000175,-0.001264,0.002534,0.000038,0.002534,-0.001264,89.429551,0.002534,
1430,870,-0.355074,-3.179109,0.999998,0.000186,-0.001844,0.003407,0.000529,0.003460,-0.001896,84.299795,0.003466,
730,1050,0.894052,-2.464433,0.999998,0.000158,-0.001089,0.002451,-0.000102,0.002454,-0.001092,-88.352781,0.002459,
1530,180,-0.098850,-4.754828,0.999998,0.000166,-0.000445,0.001934,-0.000216,0.001953,-0.000465,-84.854521,0.002041,
1130,200,0.030565,-4.751121,0.999999,0.000123,-0.000345,0.001691,0.000037,0.001691,-0.000345,88.970681,0.001787,
1430,1660,-0.127514,-0.682364,0.999998,0.000176,-0.000768,0.001994,-0.000134,0.002001,-0.000775,-87.224409,0.002018,
1030,650,0.179170,-3.802437,0.999998,0.000159,-0.001324,0.002393,-0.000595,0.002486,-0.001417,-81.124950,0.002494,
1450,1280,-0.265630,-1.602401,0.999997,0.000175,-0.001873,0.003026,-0.000571,0.003092,-0.001938,-83.440459,0.003125,
1890,1590,-0.685803,-1.187294,0.999998,0.000191,-0.001281,0.002511,-0.000043,0.002512,-0.001281,-89.349265,0.002512,
1570,580,-0.342983,-3.819050,0.999998,0.000179,-0.001394,0.002604,0.000221,0.002616,-0.001406,86.838592,0.002618,
1100,850,0.198974,-3.483521,0.999998,0.000217,-0.001446,0.002210,-0.001155,0.002545,-0.001780,-73.851787,0.002611,
860,1080,0.750328,-2.379701,0.999998,0.000196,-0.001022,0.002724,-0.000248,0.002740,-0.001038,-86.231190,0.002767,
780,220,0.236951,-4.619199,0.999998,0.000157,-0.000917,0.002331,0.000249,0.002350,-0.000936,85.633804,0.002366,
1280,1660,-0.027670,-0.627734,0.999998,0.000178,-0.000566,0.001790,-0.000040,0.001791,-0.000566,-89.024833,0.001831,
1430,1920,-0.040168,-0.189458,0.999998,0.000142,-0.000267,0.001709,0.000108,0.001715,-0.000273,86.879218,0.001843,
1230,570,0.001129,-4.120415,0.999999,0.000148,-0.000611,0.001579,-0.000014,0.001579,-0.000611,-89.634974,0.001593,
900,1320,0.436022,-1.646181,0.999998,0.000210,-0.001751,0.003005,0.000083,0.003006,-0.001753,89.006204,0.003020,
1520,300,-0.162519,-4.513266,0.999998,0.000169,-0.000751,0.002087,-0.000027,0.002088,-0.000751,-89.457558,0.002115,
1390,860,-0.264139,-3.347923,0.999997,0.000200,-0.001750,0.002781,0.000933,0.002966,-0.001935,78.806381,0.003012,
1790,180,-0.294174,-4.654690,0.999998,0.000176,-0.001054,0.002548,-0.000403,0.002592,-0.001098,-83.693535,0.002602,
820,1370,0.521131,-1.573890,0.999998,0.000207,-0.001521,0.002812,-0.000037,0.002812,-0.001522,-89.511679,0.002816,
940,1840,0.117693,-0.352041,0.999998,0.000160,-0.000560,0.001961,-0.000145,0.001969,-0.000569,-86.714069,0.002027,
1470,1750,-0.126534,-0.515907,0.999998,0.000170,-0.000620,0.002060,0.000016,0.002061,-0.000621,89.649097,0.002114,
1130,190,0.027596,-4.767609,0.999999,0.000141,-0.000342,0.001682,0.000033,0.001683,-0.000343,89.067547,0.001779,
820,680,0.517927,-3.479364,0.999997,0.000232,-0.001550,0.002782,0.000013,0.002782,-0.001550,89.827971,0.002788,
660,1310,0.802262,-1.839198,0.999999,0.000146,-0.001263,0.002538,-0.000147,0.002543,-0.001269,-87.785897,0.002543,
1450,680,-0.210885,-3.704733,0.999998,0.000167,-0.001483,0.002572,0.000602,0.002659,-0.001571,81.732091,0.002674,
600,770,0.897546,-3.101888,0.999998,0.000153,-0.001195,0.002423,0.000087,0.002425,-0.001197,88.616873,0.002425,
650,890,0.934235,-2.839350,0.999998,0.000154,-0.001159,0.002389,0.000154,0.002395,-0.001166,87.517965,0.002396,
1750,1320,-0.721880,-1.781812,0.999998,0.000184,-0.001371,0.002607,0.000187,0.002616,-0.001380,87.314724,0.002617,
1300,1790,-0.027203,-0.396911,0.999998,0.000162,-0.000375,0.001765,0.000020,0.001765,-0.000375,89.452869,0.001860,
1350,400,-0.071520,-4.383773,0.999998,0.000173,-0.000652,0.001866,0.000131,0.001873,-0.000659,87.035060,0.001900,
1080,140,0.029600,-4.847391,0.999999,0.000112,-0.000207,0.001665,0.000097,0.001670,-0.000212,87.046564,0.001818,
900,2020,0.011970,-0.026286,0.999999,0.000000,-0.000029,0.001616,-0.000271,0.001659,-0.000073,-80.867447,0.001876,
1110,1600,0.078856,-0.760854,0.999999,0.000134,-0.000686,0.001872,0.000180,0.001884,-0.000699,86.003159,0.001905,
640,1250,0.878898,-2.000431,0.999999,0.000155,-0.001219,0.002409,-0.000168,0.002417,-0.001227,-87.347190,0.002417,
1180,440,0.030113,-4.330370,0.999998,0.000179,-0.000581,0.001793,-0.000063,0.001794,-0.000583,-88.487147,0.001831,
1560,660,-0.372376,-3.614363,0.999997,0.000212,-0.001536,0.002800,0.000206,0.002810,-0.001545,87.288215,0.002815,
1740,1030,-0.903474,-2.512853,0.999998,0.000171,-0.001093,0.002444,-0.000006,0.002444,-0.001093,-89.908666,0.002448,
1800,1570,-0.587355,-1.166708,0.999998,0.000170,-0.001276,0.002561,-0.000033,0.002561,-0.001276,-89.512804,0.002561,
610,670,0.798608,-3.357965,0.999998,0.000164,-0.001272,0.002528,0.000060,0.002529,-0.001273,89.098955,0.002529,
1880,1830,-0.458882,-0.587787,0.999998,0.000215,-0.001235,0.002458,0.000085,0.002460,-0.001237,88.676951,0.002460,
650,900,0.939226,-2.816173,0.999998,0.000170,-0.001144,0.002347,0.000131,0.002352,-0.001149,87.851508,0.002352,
1330,750,-0.067738,-3.779523,0.999998,0.000162,-0.001060,0.001584,0.000967,0.001900,-0.001376,71.902482,0.001962,
1890,350,-0.596252,-4.136454,0.999998,0.000173,-0.001244,0.002477,-0.000029,0.002477,-0.001244,-89.551841,0.002477,
880,1570,0.312389,-0.992023,0.999998,0.000157,-0.001202,0.002457,0.000168,0.002464,-0.001209,87.383267,0.002465,
1870,1050,-1.039098,-2.471246,0.999998,0.000154,-0.001019,0.002174,0.000048,0.002174,-0.001020,89.145822,0.002176,
1640,1460,-0.450721,-1.324007,0.999997,0.000192,-0.001433,0.002687,-0.000079,0.002688,-0.001434,-88.907951,0.002690,
890,660,0.392731,-3.600686,0.999998,0.000190,-0.001582,0.002807,-0.000175,0.002814,-0.001589,-87.719430,0.002822,
1530,200,-0.111917,-4.714898,0.999998,0.000141,-0.000489,0.001986,-0.000214,0.002004,-0.000508,-85.095930,0.002084,
1470,240,-0.099407,-4.653413,0.999998,0.000172,-0.000507,0.001946,-0.000096,0.001950,-0.000511,-87.755126,0.002022,
1810,1050,-0.976980,-2.468479,0.999998,0.000159,-0.001083,0.002331,0.000064,0.002332,-0.001084,88.921167,0.002334,
1280,1640,-0.029117,-0.663587,0.999998,0.000191,-0.000559,0.001776,-0.000026,0.001777,-0.000559,-89.358915,0.001817,
1850,1370,-0.807849,-1.718082,0.999998,0.000145,-0.001267,0.002548,0.000076,0.002550,-0.001269,88.852632,0.002550,
860,1060,0.759821,-2.433748,0.999998,0.000185,-0.000965,0.002628,-0.000150,0.002634,-0.000972,-87.606823,0.002664,
1090,600,0.103644,-3.986667,0.999999,0.000143,-0.000937,0.001953,-0.000505,0.002039,-0.001022,-80.373120,0.002039,
900,1300,0.456199,-1.708659,0.999998,0.000189,-0.001756,0.003017,0.000032,0.003017,-0.001757,89.611953,0.003031,
1520,280,-0.151716,-4.554703,0.999998,0.000150,-0.000737,0.002106,-0.000061,0.002107,-0.000738,-88.766153,0.002138,
1660,210,-0.204448,-4.653603,0.999998,0.000170,-0.000838,0.002269,-0.000266,0.002292,-0.000861,-85.148868,0.002315,
960,690,0.298851,-3.597700,0.999998,0.000168,-0.001642,0.002806,-0.000397,0.002842,-0.001678,-84.939648,0.002857,
1590,180,-0.129700,-4.741702,0.999998,0.000157,-0.000633,0.002091,-0.000243,0.002113,-0.000654,-84.931571,0.002163,
1470,1730,-0.135654,-0.557039,0.999998,0.000155,-0.000666,0.002039,-0.000014,0.002039,-0.000666,-89.711722,0.002079,
1600,530,-0.356233,-3.918720,0.999997,0.000186,-0.001311,0.002545,0.000165,0.002552,-0.001318,87.547373,0.002552,
1130,170,0.024893,-4.802736,0.999998,0.000141,-0.000312,0.001672,0.000023,0.001672,-0.000313,89.328484,0.001778,
820,660,0.501645,-3.534566,0.999997,0.000200,-0.001529,0.002800,-0.000023,0.002800,-0.001529,-89.697295,0.002804,
1320,1410,-0.056504,-1.076880,0.999999,0.000139,-0.000794,0.001635,-0.000513,0.001739,-0.000898,-78.543208,0.001739,
1080,120,0.024657,-4.881979,0.999999,0.000128,-0.000176,0.001645,0.000117,0.001653,-0.000184,86.332524,0.001812,
1030,420,0.135580,-4.304773,0.999998,0.000189,-0.000794,0.002049,-0.000172,0.002060,-0.000805,-86.550832,0.002076,
1110,1580,0.079954,-0.796912,0.999999,0.000124,-0.000728,0.001900,0.000199,0.001915,-0.000743,85.692407,0.001931,
910,30,0.006965,-5.019360,0.999999,0.000000,-0.000011,0.001609,0.000300,0.001663,-0.000065,79.856229,0.001884,
1180,420,0.031204,-4.368035,0.999998,0.000191,-0.000563,0.001795,-0.000052,0.001796,-0.000564,-88.746574,0.001837,
1400,1350,-0.146108,-1.314021,0.999998,0.000154,-0.001407,0.002345,-0.000799,0.002508,-0.001571,-78.460999,0.002535,
1880,1820,-0.470544,-0.613001,0.999998,0.000202,-0.001241,0.002452,0.000067,0.002453,-0.001243,88.956175,0.002453,
690,1400,0.683221,-1.587273,0.999997,0.000196,-0.001363,0.002627,-0.000081,0.002629,-0.001365,-88.837439,0.002629,
940,1080,0.670057,-2.362223,0.999998,0.000185,-0.001052,0.003079,-0.000229,0.003092,-0.001064,-86.837902,0.003141,
950,820,0.438106,-3.187670,0.999998,0.000170,-0.001847,0.003237,-0.000028,0.003237,-0.001847,-89.688673,0.003248,
750,1120,0.845047,-2.290064,0.999998,0.000185,-0.001117,0.002532,-0.000205,0.002543,-0.001128,-86.792494,0.002549,
650,870,0.919214,-2.887684,0.999999,0.000134,-0.001187,0.002422,0.000205,0.002433,-0.001198,86.760867,0.002434,
1810,760,-0.823913,-3.158435,0.999998,0.000144,-0.001252,0.002510,-0.000170,0.002518,-0.001259,-87.424770,0.002518,
590,1370,0.835993,-1.735203,0.999998,0.000192,-0.001322,0.002518,-0.000019,0.002519,-0.001322,-89.720833,0.002520,
1870,1040,-1.041704,-2.492727,0.999998,0.000169,-0.001025,0.002193,0.000035,0.002193,-0.001025,89.370997,0.002195,
1640,1440,-0.462905,-1.379539,0.999997,0.000188,-0.001446,0.002699,-0.000080,0.002701,-0.001448,-88.894660,0.002703,
730,1030,0.896329,-2.514154,0.999998,0.000161,-0.001088,0.002430,-0.000042,0.002431,-0.001089,-89.323869,0.002435,
1330,1510,-0.065829,-0.913712,0.999999,0.000138,-0.000741,0.001774,-0.000265,0.001802,-0.000769,-84.049929,0.001808,
1450,1920,-0.045589,-0.191589,0.999999,0.000101,-0.000261,0.001742,0.000167,0.001756,-0.000275,85.267358,0.001889,
610,650,0.782053,-3.408148,0.999998,0.000169,-0.001269,0.002532,0.000042,0.002532,-0.001269,89.371448,0.002532,
1760,1850,-0.293872,-0.426993,0.999998,0.000177,-0.001122,0.002507,0.000250,0.002524,-0.001139,86.083669,0.002528,
1510,940,-0.613714,-2.797876,0.999997,0.000192,-0.001305,0.003219,-0.000302,0.003239,-0.001325,-86.200778,0.003257,
880,1590,0.302028,-0.941728,0.999998,0.000163,-0.001156,0.002441,0.000145,0.002446,-0.001162,87.699685,0.002447,
1390,1980,-0.013145,-0.086493,0.999998,0.000151,-0.000070,0.001582,0.000110,0.001589,-0.000077,86.216668,0.001792,
700,410,0.486000,-4.092458,0.999998,0.000185,-0.001237,0.002529,-0.000030,0.002529,-0.001237,-89.550705,0.002529,
770,1410,0.563173,-1.503480,0.999997,0.000193,-0.001431,0.002702,-0.000025,0.002702,-0.001431,-89.647920,0.002704,
1850,1350,-0.824367,-1.768603,0.999998,0.000151,-0.001258,0.002497,0.000090,0.002499,-0.001260,88.626701,0.002499,
1560,640,-0.359512,-3.670652,0.999998,0.000190,-0.001506,0.002758,0.000223,0.002770,-0.001517,87.017022,0.002774,
860,1040,0.764456,-2.484936,0.999998,0.000191,-0.000946,0.002660,-0.000077,0.002662,-0.000948,-88.775169,0.002698,
1740,1010,-0.901398,-2.563166,0.999998,0.000166,-0.001084,0.002452,-0.000086,0.002454,-0.001086,-88.607868,0.002459,
1810,1800,-0.409109,-0.591294,0.999998,0.000227,-0.001188,0.002568,0.000149,0.002574,-0.001194,87.735446,0.002576,
1260,130,-0.005738,-4.870106,0.999998,0.000164,-0.000182,0.001587,0.000011,0.001587,-0.000182,89.649892,0.001736,
890,680,0.407336,-3.544702,0.999998,0.000186,-0.001627,0.002853,-0.000130,0.002857,-0.001631,-88.343243,0.002866,
1430,1430,-0.169321,-1.174313,0.999998,0.000150,-0.001244,0.002267,-0.000565,0.002356,-0.001333,-81.083044,0.002362,
1090,620,0.103987,-3.948985,0.999999,0.000140,-0.000979,0.001957,-0.000554,0.002058,-0.001080,-79.668979,0.002059,
900,1280,0.475502,-1.765756,0.999997,0.000197,-0.001730,0.003034,-0.000043,0.003035,-0.001730,-89.484937,0.003045,
1520,260,-0.142246,-4.596616,0.999998,0.000165,-0.000693,0.002060,-0.000091,0.002063,-0.000695,-88.119066,0.002100,
1130,150,0.021662,-4.833818,0.999999,0.000129,-0.000275,0.001652,0.000044,0.001653,-0.000276,88.705570,0.001771,
1470,1710,-0.142670,-0.597387,0.999998,0.000144,-0.000723,0.002021,-0.000050,0.002022,-0.000724,-88.949956,0.002049,
910,2020,0.010362,-0.025687,0.999999,0.000000,0.000010,0.001617,-0.000266,0.001660,-0.000033,-80.826906,0.001898,
1710,500,-0.481078,-3.905523,0.999997,0.000194,-0.001302,0.002578,0.000076,0.002579,-0.001304,88.874550,0.002579,
980,690,0.267561,-3.627209,0.999998,0.000175,-0.001577,0.002753,-0.000464,0.002802,-0.001627,-83.949612,0.002814,
1880,1810,-0.482358,-0.637501,0.999998,0.000187,-0.001253,0.002468,0.000048,0.002469,-0.001254,89.254009,0.002469,
1030,400,0.130361,-4.345860,0.999998,0.000191,-0.000767,0.002042,-0.000152,0.002051,-0.000776,-86.917508,0.002071,
1280,1620,-0.031081,-0.697361,0.999998,0.000169,-0.000600,0.001792,-0.000056,0.001793,-0.000601,-88.668916,0.001826,
1300,1410,-0.042441,-1.060440,0.999998,0.000174,-0.000723,0.001524,-0.000430,0.001603,-0.000802,-79.532638,0.001603,
1660,230,-0.223328,-4.607306,0.999998,0.000142,-0.000891,0.002307,-0.000218,0.002322,-0.000906,-86.114368,0.002341,
1810,1030,-0.980370,-2.514106,0.999998,0.000158,-0.001072,0.002329,0.000011,0.002329,-0.001072,89.822982,0.002331,
820,640,0.486585,-3.591137,0.999997,0.000196,-0.001488,0.002743,-0.000042,0.002743,-0.001489,-89.427396,0.002747,
1070,1310,0.146757,-1.393905,0.999998,0.000173,-0.001565,0.002420,0.000913,0.002619,-0.001764,77.683807,0.002671,
1420,1350,-0.175643,-1.349908,0.999998,0.000159,-0.001472,0.002513,-0.000734,0.002644,-0.001602,-79.888899,0.002664,
1180,400,0.030203,-4.402670,0.999998,0.000160,-0.000565,0.001788,-0.000039,0.001788,-0.000566,-89.053815,0.001828,
1640,530,-0.409402,-3.885416,0.999998,0.000150,-0.001342,0.002573,0.000116,0.002576,-0.001345,88.310622,0.002577,
1700,1250,-0.719031,-1.943845,0.999998,0.000180,-0.001381,0.002689,0.000254,0.002705,-0.001397,86.436065,0.002705,
1440,930,-0.494223,-2.935211,0.999997,0.000200,-0.001594,0.003791,0.000324,0.003810,-0.001613,86.574247,0.003825,
1170,1600,0.037033,-0.736637,0.999999,0.000131,-0.000635,0.001802,0.000092,0.001805,-0.000639,87.835526,0.001831,
1590,380,-0.266872,-4.294212,0.999998,0.000174,-0.001057,0.002347,0.000064,0.002349,-0.001058,88.918991,0.002352,
1380,1960,-0.018336,-0.117216,0.999998,0.000168,-0.000111,0.001614,0.000098,0.001619,-0.000116,86.769931,0.001806,
1490,940,-0.586734,-2.813665,0.999998,0.000169,-0.001386,0.003411,-0.000236,0.003423,-0.001398,-87.191585,0.003442,
1210,340,0.011422,-4.514491,0.999998,0.000186,-0.000537,0.001753,-0.000036,0.001754,-0.000538,-89.095504,0.001797,
690,1470,0.626287,-1.404076,0.999998,0.000170,-0.001321,0.002615,-0.000011,0.002615,-0.001321,-89.845266,0.002615,
580,1370,0.847719,-1.743320,0.999998,0.000176,-0.001484,0.002539,0.000033,0.002540,-0.001485,89.537019,0.002552,
1330,1530,-0.064613,-0.878596,0.999999,0.000147,-0.000750,0.001785,-0.000262,0.001812,-0.000776,-84.157518,0.001818,
610,630,0.764620,-3.458912,0.999998,0.000179,-0.001261,0.002547,0.000018,0.002547,-0.001261,89.728571,0.002547,
1850,1330,-0.842496,-1.816626,0.999998,0.000143,-0.001253,0.002462,0.000094,0.002465,-0.001255,88.549891,0.002465,
950,840,0.464205,-3.122753,0.999998,0.000172,-0.001814,0.003289,0.000069,0.003290,-0.001815,89.221176,0.003296,
1240,130,-0.001689,-4.872103,0.999999,0.000118,-0.000191,0.001577,0.000010,0.001577,-0.000191,89.672752,0.001722,
1810,960,-0.966950,-2.674911,0.999998,0.000161,-0.001084,0.002320,-0.000086,0.002322,-0.001086,-88.552823,0.002324,
1520,240,-0.130538,-4.637668,0.999998,0.000150,-0.000635,0.002055,-0.000145,0.002063,-0.000643,-86.933995,0.002111,
900,1260,0.499096,-1.829304,0.999997,0.000198,-0.001718,0.003084,-0.000102,0.003086,-0.001721,-88.783322,0.003093,
900,1590,0.280021,-0.927460,0.999999,0.000166,-0.001139,0.002380,0.000165,0.002387,-0.001147,87.325418,0.002388,
1900,850,-1.002385,-2.891713,0.999999,0.000000,-0.001114,0.002264,-0.000081,0.002266,-0.001116,-88.622802,0.002266,
860,1020,0.765899,-2.540541,0.999998,0.000197,-0.000937,0.002694,0.000042,0.002695,-0.000938,89.339225,0.002736,
1020,2020,0.006107,-0.025677,0.999998,0.000000,-0.000044,0.001491,-0.000144,0.001505,-0.000057,-84.680148,0.001705,
590,310,0.540508,-4.251097,0.999998,0.000189,-0.001386,0.002561,-0.000041,0.002561,-0.001386,-89.409926,0.002564,
990,290,0.123125,-4.553746,0.999998,0.000159,-0.000613,0.001995,0.000040,0.001995,-0.000614,89.123469,0.002044,
1680,1820,-0.247965,-0.454536,0.999998,0.000163,-0.000982,0.002357,0.000226,0.002372,-0.000998,86.138413,0.002382,
1710,480,-0.468292,-3.959227,0.999997,0.000193,-0.001284,0.002559,0.000073,0.002560,-0.001285,88.916777,0.002560,
600,1170,0.985656,-2.207098,0.999999,0.000135,-0.001085,0.002226,-0.000081,0.002228,-0.001087,-88.593036,0.002228,
1300,1390,-0.040708,-1.091064,0.999999,0.000147,-0.000731,0.001476,-0.000477,0.001575,-0.000829,-78.319303,0.001575,
1470,1690,-0.149143,-0.638943,0.999998,0.000158,-0.000783,0.002118,-0.000091,0.002120,-0.000786,-88.208574,0.002144,
1130,260,0.041073,-4.646828,0.999999,0.000136,-0.000460,0.001766,-0.000021,0.001766,-0.000460,-89.449002,0.001833,
1400,630,-0.134276,-3.892014,0.999998,0.000141,-0.001137,0.002126,0.000605,0.002235,-0.001246,79.822964,0.002240,
1030,630,0.173959,-3.850542,0.999998,0.000142,-0.001269,0.002311,-0.000569,0.002399,-0.001358,-81.176488,0.002406,
1830,1800,-0.433392,-0.609435,0.999998,0.000186,-0.001174,0.002559,0.000057,0.002560,-0.001175,89.123108,0.002562,
1770,730,-0.743634,-3.259478,0.999998,0.000182,-0.001329,0.002622,-0.000158,0.002628,-0.001336,-87.719361,0.002629,
1250,1660,-0.010373,-0.623261,0.999998,0.000188,-0.000584,0.001777,-0.000044,0.001778,-0.000585,-88.924760,0.001812,
1130,130,0.017373,-4.867800,0.999998,0.000139,-0.000213,0.001625,0.000058,0.001627,-0.000215,88.208736,0.001767,
1600,1080,-0.747296,-2.380125,0.999998,0.000179,-0.001014,0.002717,0.000207,0.002728,-0.001025,86.837596,0.002756,
720,210,0.280088,-4.613687,0.999997,0.000188,-0.001062,0.002453,0.000265,0.002473,-0.001082,85.710681,0.002479,
1730,310,-0.367432,-4.372809,0.999997,0.000198,-0.001111,0.002518,-0.000076,0.002520,-0.001113,-88.805239,0.002526,
1810,1010,-0.977075,-2.560805,0.999998,0.000151,-0.001071,0.002303,-0.000061,0.002304,-0.001072,-88.962630,0.002305,
1420,930,-0.462031,-2.997268,0.999997,0.000192,-0.001648,0.003762,0.000910,0.003911,-0.001797,80.707446,0.003915,
1130,1860,0.029256,-0.280777,0.999998,0.000157,-0.000340,0.001732,-0.000025,0.001732,-0.000340,-89.300386,0.001836,
1610,1220,-0.622063,-1.986459,0.999998,0.000155,-0.001504,0.002939,0.000277,0.002957,-0.001521,86.446271,0.002957,
1620,530,-0.383005,-3.904704,0.999998,0.000149,-0.001347,0.002572,0.000130,0.002576,-0.001351,88.106721,0.002577,
820,620,0.471067,-3.645745,0.999997,0.000196,-0.001458,0.002734,-0.000072,0.002735,-0.001459,-89.016022,0.002737,
1280,1600,-0.028976,-0.734855,0.999998,0.000164,-0.000617,0.001761,-0.000074,0.001763,-0.000620,-88.221876,0.001789,
580,1250,0.949888,-2.034696,0.999999,0.000155,-0.001191,0.002301,-0.000003,0.002301,-0.001191,-89.946715,0.002302,
1230,700,0.000861,-3.944636,0.999999,0.000130,-0.000499,0.001057,0.000004,0.001057,-0.000499,89.861540,0.001058,
1550,1440,-0.331568,-1.292753,0.999997,0.000180,-0.001447,0.002676,-0.000266,0.002694,-0.001464,-86.321696,0.002697,
1330,1550,-0.065600,-0.842295,0.999999,0.000138,-0.000749,0.001843,-0.000235,0.001864,-0.000770,-84.864361,0.001873,
730,1010,0.894866,-2.562597,0.999998,0.000160,-0.001092,0.002468,0.000076,0.002470,-0.001093,88.769542,0.002475,
1890,1800,-0.506095,-0.671603,0.999998,0.000179,-0.001263,0.002470,0.000045,0.002471,-0.001263,89.309015,0.002471,
890,460,0.288394,-4.117754,0.999998,0.000173,-0.001147,0.002402,-0.000139,0.002407,-0.001152,-87.752439,0.002408,
1620,1570,-0.357513,-1.020945,0.999998,0.000161,-0.001260,0.002501,-0.000142,0.002506,-0.001265,-87.838678,0.002506,
1520,220,-0.118613,-4.677870,0.999998,0.000152,-0.000575,0.001974,-0.000147,0.001982,-0.000584,-86.704771,0.002037,
900,1240,0.520575,-1.889836,0.999997,0.000185,-0.001704,0.003118,-0.000172,0.003124,-0.001710,-87.954484,0.003129,
590,1170,0.996288,-2.211340,0.999999,0.000117,-0.001063,0.002193,-0.000064,0.002194,-0.001064,-88.872327,0.002194,
1750,1900,-0.215235,-0.296259,0.999998,0.000143,-0.000994,0.002423,0.000434,0.002478,-0.001049,82.881029,0.002487,
1120,790,0.097076,-3.678092,0.999998,0.000165,-0.001322,0.001847,-0.001136,0.002212,-0.001687,-72.177225,0.002311,
950,1920,0.064717,-0.198144,0.999999,0.000140,-0.000367,0.001827,-0.000217,0.001849,-0.000388,-84.395771,0.001950,
1690,500,-0.456103,-3.923326,0.999998,0.000169,-0.001271,0.002578,0.000076,0.002579,-0.001272,88.864997,0.002579,
1400,650,-0.136574,-3.850500,0.999999,0.000130,-0.001185,0.002170,0.000647,0.002290,-0.001305,79.455858,0.002298,
940,1820,0.128082,-0.392229,0.999998,0.000147,-0.000642,0.002039,-0.000132,0.002046,-0.000649,-87.187202,0.002091,
1230,550,0.001999,-4.150995,0.999999,0.000134,-0.000628,0.001626,-0.000004,0.001626,-0.000628,-89.898751,0.001640,
1590,400,-0.277647,-4.248839,0.999998,0.000185,-0.001058,0.002340,0.000065,0.002341,-0.001060,88.898831,0.002344,
1460,750,-0.265341,-3.493450,0.999997,0.000234,-0.001795,0.002947,0.000555,0.003011,-0.001859,83.408181,0.003039,
650,850,0.903844,-2.935572,0.999999,0.000141,-0.001196,0.002426,0.000206,0.002437,-0.001208,86.755018,0.002437,
1020,30,0.005320,-5.023738,0.999999,0.000000,0.000009,0.001598,0.000206,0.001624,-0.000017,82.742284,0.001865,
860,260,0.202178,-4.562956,0.999997,0.000197,-0.000868,0.002209,0.000138,0.002215,-0.000874,87.446199,0.002232,
690,1450,0.641652,-1.457380,0.999998,0.000174,-0.001323,0.002601,-0.000017,0.002601,-0.001323,-89.755128,0.002601,
1810,940,-0.958068,-2.723758,0.999998,0.000158,-0.001116,0.002370,-0.000161,0.002377,-0.001123,-87.359773,0.002379,
1640,1420,-0.478465,-1.432914,0.999997,0.000208,-0.001486,0.002717,-0.000040,0.002718,-0.001487,-89.457971,0.002722,
1320,1730,-0.044432,-0.507285,0.999998,0.000171,-0.000558,0.001799,-0.000064,0.001801,-0.000559,-88.454491,0.001844,
1820,1610,-0.583454,-1.082405,0.999998,0.000175,-0.001290,0.002518,-0.000033,0.002518,-0.001290,-89.509704,0.002518,
790,300,0.299283,-4.434003,0.999998,0.000199,-0.001066,0.002381,0.000090,0.002384,-0.001069,88.500916,0.002388,
1180,380,0.028774,-4.439111,0.999998,0.000155,-0.000539,0.001779,-0.000050,0.001780,-0.000540,-88.757753,0.001826,
1870,690,-0.836799,-3.294108,0.999998,0.000188,-0.001240,0.002504,-0.000031,0.002505,-0.001240,-89.520611,0.002505,
1080,1230,0.191648,-1.571443,0.999998,0.000189,-0.001747,0.002648,0.001021,0.002874,-0.001973,77.540280,0.002940,
680,690,0.726800,-3.354648,0.999998,0.000186,-0.001343,0.002574,0.000123,0.002578,-0.001347,88.200610,0.002579,
1360,130,-0.023863,-4.865830,0.999999,0.000143,-0.000181,0.001605,-0.000090,0.001610,-0.000185,-87.132346,0.001762,
1490,920,-0.555067,-2.882507,0.999998,0.000183,-0.001555,0.003390,-0.000204,0.003398,-0.001563,-87.638624,0.003402,
810,1120,0.777403,-2.279823,0.999998,0.000184,-0.001144,0.002644,-0.000264,0.002662,-0.001162,-86.031107,0.002670,
1080,100,0.019775,-4.914348,0.999999,0.000144,-0.000136,0.001622,0.000123,0.001630,-0.000145,86.014486,0.001805,
1780,1190,-0.875548,-2.129147,0.999998,0.000153,-0.001209,0.002476,0.000237,0.002491,-0.001225,86.339810,0.002491,
1560,620,-0.349679,-3.724507,0.999998,0.000191,-0.001472,0.002681,0.000251,0.002696,-0.001487,86.552149,0.002701,
1850,1310,-0.860680,-1.866871,0.999998,0.000149,-0.001236,0.002478,0.000097,0.002481,-0.001239,88.512091,0.002481,
810,1810,0.231887,-0.464349,0.999998,0.000165,-0.000881,0.002322,-0.000202,0.002335,-0.000894,-86.410601,0.002356,
1380,1940,-0.022828,-0.149553,0.999998,0.000147,-0.000146,0.001615,0.000124,0.001624,-0.000154,85.983897,0.001792,
780,200,0.215558,-4.664940,0.999998,0.000159,-0.000855,0.002348,0.000290,0.002374,-0.000881,84.862863,0.002400,
1810,250,-0.403064,-4.460708,0.999997,0.000195,-0.001161,0.002547,-0.000155,0.002553,-0.001168,-87.610148,0.002556,
610,610,0.749650,-3.510842,0.999998,0.000188,-0.001259,0.002579,0.000011,0.002579,-0.001259,89.830792,0.002579,
1900,840,-0.996241,-2.913730,0.999999,0.000000,-0.001111,0.002276,-0.000077,0.002278,-0.001113,-88.693683,0.002278,
1430,1410,-0.172875,-1.219449,0.999998,0.000147,-0.001322,0.002334,-0.000590,0.002427,-0.001415,-81.058178,0.002438,
1680,1800,-0.266983,-0.502224,0.999997,0.000192,-0.001025,0.002396,0.000173,0.002405,-0.001034,87.115506,0.002413,
1060,1100,0.475856,-2.068495,0.999997,0.000222,-0.001838,0.004580,0.001841,0.005071,-0.002328,75.076270,0.005077,
600,310,0.528767,-4.260642,0.999998,0.000178,-0.001221,0.002494,-0.000015,0.002495,-0.001221,-89.775894,0.002495,
890,440,0.279084,-4.164857,0.999998,0.000166,-0.001102,0.002380,-0.000126,0.002385,-0.001107,-87.938169,0.002387,
1750,1920,-0.186004,-0.249322,0.999998,0.000149,-0.000926,0.002342,0.000504,0.002418,-0.001002,81.423910,0.002429,
1550,1600,-0.258587,-0.892704,0.999998,0.000158,-0.001132,0.002349,-0.000170,0.002358,-0.001141,-87.211932,0.002358,
600,1870,0.384213,-0.468697,0.999998,0.000193,-0.001235,0.002557,-0.000147,0.002563,-0.001240,-87.784609,0.002563,
1150,1860,0.024104,-0.278631,0.999998,0.000170,-0.000275,0.001696,-0.000030,0.001696,-0.000275,-89.137376,0.001820,
1040,210,0.067168,-4.720930,0.999998,0.000171,-0.000444,0.001812,0.000059,0.001814,-0.000445,88.512740,0.001890,
1230,1660,0.000702,-0.622579,0.999998,0.000147,-0.000539,0.001782,0.000005,0.001782,-0.000539,89.882601,0.001828,
1330,1570,-0.064829,-0.803944,0.999999,0.000134,-0.000722,0.001834,-0.000214,0.001852,-0.000740,-85.253074,0.001864,
920,670,0.352018,-3.605497,0.999997,0.000204,-0.001584,0.002821,-0.000254,0.002835,-0.001598,-86.710324,0.002843,
970,1920,0.056237,-0.193955,0.999999,0.000127,-0.000351,0.001795,-0.000189,0.001811,-0.000368,-84.999734,0.001915,
1550,1420,-0.342650,-1.346388,0.999998,0.000171,-0.001500,0.002710,-0.000256,0.002725,-0.001516,-86.527844,0.002731,
990,250,0.105157,-4.633513,0.999998,0.000172,-0.000536,0.001973,0.000112,0.001978,-0.000541,87.450529,0.002044,
810,140,0.126929,-4.809694,0.999998,0.000164,-0.000551,0.002101,0.000407,0.002162,-0.000612,81.474603,0.002229,
730,1430,0.604534,-1.479190,0.999997,0.000178,-0.001366,0.002671,-0.000030,0.002671,-0.001366,-89.576990,0.002671,
1280,1580,-0.029961,-0.768951,0.999998,0.000151,-0.000638,0.001748,-0.000059,0.001749,-0.000640,-88.576345,0.001770,
1030,610,0.169166,-3.896617,0.999998,0.000149,-0.001203,0.002279,-0.000518,0.002355,-0.001279,-81.719027,0.002357,
650,830,0.888111,-2.985047,0.999998,0.000149,-0.001194,0.002402,0.000202,0.002414,-0.001206,86.788700,0.002414,
1380,390,-0.088404,-4.394555,0.999999,0.000135,-0.000641,0.001919,0.000112,0.001923,-0.000646,87.508891,0.001958,
1230,530,0.001465,-4.184916,0.999999,0.000136,-0.000625,0.001639,-0.000022,0.001639,-0.000625,-89.442373,0.001655,
1260,830,-0.037752,-3.835990,0.999999,0.000145,-0.001300,0.000709,0.000159,0.000722,-0.001313,85.498552,0.001315,
940,1780,0.151682,-0.475901,0.999998,0.000161,-0.000734,0.002101,-0.000072,0.002103,-0.000736,-88.543198,0.002134,
1180,360,0.027565,-4.473753,0.999998,0.000145,-0.000504,0.001779,-0.000035,0.001779,-0.000505,-89.109579,0.001834,
820,1630,0.350776,-0.891356,0.999998,0.000164,-0.001185,0.002443,0.000096,0.002446,-0.001188,88.488290,0.002446,
1640,1400,-0.493013,-1.487797,0.999997,0.000201,-0.001524,0.002766,-0.000022,0.002766,-0.001524,-89.710979,0.002771,
690,1430,0.656739,-1.508028,0.999997,0.000186,-0.001339,0.002584,-0.000054,0.002585,-0.001339,-89.211918,0.002585,
1890,1790,-0.517513,-0.696636,0.999997,0.000216,-0.001255,0.002471,0.000021,0.002471,-0.001255,89.671193,0.002471,
890,880,0.620148,-2.941194,0.999998,0.000181,-0.001477,0.003017,0.000372,0.003048,-0.001507,85.294703,0.003048,
1000,1390,0.225454,-1.317200,0.999997,0.000184,-0.001487,0.002579,0.000537,0.002649,-0.001556,82.606910,0.002662,
1770,710,-0.726868,-3.311244,0.999998,0.000181,-0.001327,0.002595,-0.000146,0.002600,-0.001332,-87.866598,0.002601,
1080,1250,0.171077,-1.518173,0.999998,0.000179,-0.001700,0.002539,0.001052,0.002786,-0.001947,76.805587,0.002858,
700,590,0.617356,-3.631152,0.999998,0.000183,-0.001339,0.002612,-0.000008,0.002612,-0.001339,-89.890111,0.002612,
580,1170,1.007794,-2.215336,0.999999,0.000125,-0.001011,0.002160,-0.000030,0.002161,-0.001011,-89.454119,0.002162,
650,1560,0.610525,-1.202254,0.999997,0.000211,-0.001263,0.002553,0.000050,0.002553,-0.001263,89.248011,0.002553,
760,1050,0.861641,-2.464175,0.999998,0.000164,-0.001028,0.002494,-0.000068,0.002496,-0.001029,-88.901601,0.002508,
830,840,0.661422,-3.027454,0.999998,0.000163,-0.001459,0.002855,0.000312,0.002878,-0.001481,85.885150,0.002878,
1620,910,-0.716628,-2.836244,0.999998,0.000154,-0.001241,0.002786,-0.000357,0.002818,-0.001273,-84.971545,0.002822,
1340,130,-0.018924,-4.866525,0.999999,0.000127,-0.000226,0.001626,-0.000057,0.001628,-0.000228,-88.246202,0.001763,
1080,60,0.010349,-4.977672,0.999999,0.000142,-0.000061,0.001543,0.000105,0.001550,-0.000068,86.269266,0.001751,
1550,1240,-0.499203,-1.878416,0.999998,0.000178,-0.001755,0.003151,0.000110,0.003154,-0.001758,88.715536,0.003161,
1810,990,-0.972935,-2.606500,0.999999,0.000142,-0.001067,0.002296,-0.000060,0.002297,-0.001068,-88.981627,0.002299,
860,1000,0.760456,-2.593376,0.999998,0.000188,-0.000950,0.002662,0.000107,0.002666,-0.000953,88.305841,0.002701,
1560,600,-0.339299,-3.777335,0.999998,0.000197,-0.001441,0.002622,0.000269,0.002640,-0.001459,86.227159,0.002645,
1850,1290,-0.877038,-1.918531,0.999998,0.000142,-0.001209,0.002445,0.000113,0.002448,-0.001213,88.227341,0.002448,
1430,1390,-0.178034,-1.269671,0.999998,0.000155,-0.001387,0.002393,-0.000624,0.002493,-0.001488,-80.859768,0.002509,
610,590,0.733579,-3.563828,0.999998,0.000172,-0.001275,0.002517,0.000022,0.002517,-0.001275,89.666898,0.002517,
1680,1780,-0.285200,-0.549435,0.999997,0.000190,-0.001062,0.002412,0.000131,0.002417,-0.001067,87.843686,0.002422,
1900,830,-0.988220,-2.936675,0.999999,0.000000,-0.001109,0.002287,-0.000064,0.002288,-0.001111,-88.928028,0.002288,
1250,700,-0.009469,-3.938719,0.999999,0.000128,-0.000512,0.001086,0.000193,0.001109,-0.000535,83.210670,0.001109,
1600,1060,-0.756167,-2.432564,0.999997,0.000197,-0.000961,0.002656,0.000134,0.002661,-0.000966,87.881938,0.002695,
820,600,0.458212,-3.701437,0.999997,0.000187,-0.001447,0.002700,-0.000083,0.002702,-0.001449,-88.847879,0.002704,
1010,2020,0.007977,-0.026012,0.999998,0.000000,-0.000047,0.001483,-0.000149,0.001498,-0.000061,-84.491568,0.001695,
1060,1110,0.461184,-2.024945,0.999996,0.000240,-0.001693,0.004072,0.001800,0.004588,-0.002209,74.004686,0.004589,
1700,1670,-0.389771,-0.833467,0.999999,0.000154,-0.001161,0.002480,-0.000021,0.002480,-0.001161,-89.667154,0.002482,
700,690,0.700364,-3.369190,0.999998,0.000166,-0.001351,0.002623,0.000126,0.002627,-0.001355,88.187778,0.002627,
840,270,0.227696,-4.532463,0.999998,0.000171,-0.000829,0.002289,0.000146,0.002295,-0.000836,87.324516,0.002324,
1860,40,-0.085550,-4.965238,0.999997,0.000231,-0.000451,0.002797,-0.001207,0.003197,-0.000850,-71.688806,0.003311,
1380,1920,-0.028816,-0.182369,0.999999,0.000115,-0.000189,0.001658,0.000113,0.001665,-0.000196,86.507409,0.001820,
1680,1730,-0.325837,-0.671500,0.999998,0.000187,-0.001117,0.002480,0.000054,0.002481,-0.001117,89.134660,0.002485,
730,1450,0.587462,-1.425390,0.999997,0.000194,-0.001366,0.002622,-0.000017,0.002622,-0.001366,-89.758017,0.002622,
1340,60,-0.006461,-4.979231,0.999999,0.000119,-0.000098,0.001527,-0.000066,0.001530,-0.000101,-87.689392,0.001711,
1660,670,-0.534695,-3.492891,0.999997,0.000201,-0.001485,0.002757,-0.000032,0.002758,-0.001485,-89.564625,0.002760,
740,370,0.407397,-4.225928,0.999997,0.000181,-0.001189,0.002499,0.000022,0.002500,-0.001189,89.657124,0.002500,
1450,1840,-0.079664,-0.335362,0.999998,0.000177,-0.000405,0.001842,0.000113,0.001848,-0.000410,87.128696,0.001940,
1400,390,-0.102783,-4.383907,0.999998,0.000161,-0.000742,0.001966,0.000162,0.001976,-0.000751,86.591300,0.001995,
940,1760,0.162616,-0.518789,0.999998,0.000164,-0.000765,0.002087,-0.000039,0.002087,-0.000765,-89.216607,0.002112,
1640,1380,-0.507858,-1.544410,0.999997,0.000219,-0.001560,0.002799,0.000015,0.002799,-0.001560,89.807830,0.002805,
1180,340,0.026450,-4.509765,0.999998,0.000146,-0.000458,0.001787,-0.000028,0.001788,-0.000458,-89.291543,0.001857,
1480,690,-0.262842,-3.632046,0.999998,0.000193,-0.001638,0.002750,0.000472,0.002800,-0.001688,83.931429,0.002820,
1280,1560,-0.030674,-0.805085,0.999999,0.000133,-0.000628,0.001751,-0.000083,0.001754,-0.000631,-87.997105,0.001777,
1770,690,-0.708675,-3.363951,0.999997,0.000198,-0.001339,0.002609,-0.000103,0.002612,-0.001341,-88.502114,0.002612,
1230,510,0.001565,-4.217587,0.999998,0.000146,-0.000624,0.001701,-0.000006,0.001701,-0.000624,-89.841179,0.001721,
770,300,0.320823,-4.420314,0.999998,0.000207,-0.001060,0.002435,0.000102,0.002438,-0.001063,88.333197,0.002444,
1880,1790,-0.505501,-0.686192,0.999997,0.000207,-0.001261,0.002477,0.000021,0.002477,-0.001261,89.673437,0.002477,
940,1590,0.235256,-0.894311,0.999998,0.000166,-0.001081,0.002341,0.000218,0.002355,-0.001094,86.367598,0.002357,
650,1420,0.718149,-1.563023,0.999997,0.000199,-0.001273,0.002573,-0.000051,0.002573,-0.001274,-89.237838,0.002573,
960,370,0.179555,-4.370141,0.999998,0.000153,-0.000913,0.002159,-0.000100,0.002162,-0.000917,-88.137283,0.002170,
1880,1510,-0.732475,-1.383806,0.999998,0.000176,-0.001265,0.002546,-0.000001,0.002546,-0.001265,-89.979097,0.002546,
1620,890,-0.696913,-2.890629,0.999998,0.000174,-0.001326,0.002820,-0.000351,0.002850,-0.001356,-85.194822,0.002851,
690,1410,0.674352,-1.560008,0.999997,0.000190,-0.001364,0.002621,-0.000078,0.002623,-0.001366,-88.885333,0.002624,
1810,680,-0.753288,-3.363415,0.999998,0.000178,-0.001296,0.002566,-0.000098,0.002569,-0.001298,-88.548091,0.002569,
710,640,0.642360,-3.506508,0.999997,0.000212,-0.001377,0.002642,0.000048,0.002643,-0.001378,89.318312,0.002644,
1850,1270,-0.895235,-1.965530,0.999998,0.000148,-0.001190,0.002426,0.000131,0.002431,-0.001194,87.925399,0.002431,
1560,580,-0.327598,-3.829023,0.999998,0.000192,-0.001392,0.002574,0.000246,0.002589,-0.001407,86.468656,0.002592,
1810,950,-0.963167,-2.698113,0.999998,0.000159,-0.001101,0.002342,-0.000132,0.002347,-0.001106,-87.806950,0.002348,
1430,1780,-0.091990,-0.444048,0.999998,0.000176,-0.000599,0.001936,0.000006,0.001936,-0.000599,89.861170,0.001982,
1030,590,0.167069,-3.942282,0.999998,0.000152,-0.001151,0.002244,-0.000466,0.002307,-0.001214,-82.328833,0.002308,
1440,130,-0.041687,-4.860248,0.999999,0.000154,-0.000246,0.001704,-0.000144,0.001714,-0.000256,-85.808555,0.001849,
650,810,0.872909,-3.031965,0.999999,0.000141,-0.001193,0.002460,0.000197,0.002471,-0.001203,86.916416,0.002471,
1090,680,0.109712,-3.827734,0.999999,0.000149,-0.001155,0.002041,-0.000742,0.002205,-0.001319,-77.544983,0.002219,
1600,1040,-0.761785,-2.484834,0.999997,0.000203,-0.000955,0.002692,0.000087,0.002694,-0.000958,88.633566,0.002731,
1010,30,0.003824,-5.023957,0.999999,0.000000,0.000025,0.001645,0.000222,0.001675,-0.000005,82.341511,0.001931,
1430,1370,-0.182710,-1.316068,0.999998,0.000164,-0.001450,0.002492,-0.000656,0.002599,-0.001556,-80.798111,0.002616,
610,570,0.717669,-3.610717,0.999998,0.000157,-0.001261,0.002531,0.000000,0.002531,-0.001261,-89.993029,0.002531,
1720,1670,-0.415386,-0.849517,0.999998,0.000193,-0.001231,0.002501,-0.000018,0.002501,-0.001231,-89.725701,0.002501,
1860,630,-0.773855,-3.454234,0.999998,0.000203,-0.001273,0.002564,-0.000021,0.002564,-0.001273,-89.682112,0.002564,
730,1470,0.571781,-1.373801,0.999997,0.000197,-0.001363,0.002620,0.000009,0.002620,-0.001363,89.869140,0.002621,
1400,1140,-0.399286,-1.903073,0.999997,0.000187,-0.001366,0.003304,-0.001395,0.003689,-0.001751,-74.573481,0.003691,
1900,820,-0.980386,-2.960298,0.999999,0.000000,-0.001117,0.002283,-0.000055,0.002284,-0.001118,-89.066911,0.002284,
1330,1990,-0.006948,-0.069528,0.999998,0.000153,-0.000092,0.001530,0.000062,0.001532,-0.000094,87.816973,0.001717,
1640,690,-0.522755,-3.454468,0.999997,0.000234,-0.001528,0.002801,-0.000024,0.002801,-0.001528,-89.676903,0.002805,
740,1050,0.882534,-2.465231,0.999998,0.000142,-0.001065,0.002464,-0.000091,0.002466,-0.001067,-88.530442,0.002473,
1660,1730,-0.303711,-0.659627,0.999998,0.000177,-0.001104,0.002430,0.000040,0.002430,-0.001105,89.355124,0.002434,
1680,1760,-0.303017,-0.598664,0.999998,0.000190,-0.001093,0.002416,0.000079,0.002418,-0.001095,88.711169,0.002421,
840,250,0.211581,-4.576867,0.999997,0.000196,-0.000791,0.002264,0.000193,0.002276,-0.000803,86.394316,0.002309,
970,1120,0.583924,-2.211593,0.999997,0.000193,-0.001398,0.003378,-0.000253,0.003391,-0.001411,-86.973262,0.003407,
1070,1990,0.011156,-0.069692,0.999999,0.000132,-0.000083,0.001593,-0.000119,0.001601,-0.000092,-85.972526,0.001798,
1400,470,-0.117748,-4.222848,0.999998,0.000166,-0.000869,0.002004,0.000265,0.002028,-0.000893,84.766549,0.002033,
1390,900,-0.351729,-3.235551,0.999997,0.000187,-0.001272,0.002811,0.001352,0.003218,-0.001680,73.240396,0.003219,
1450,1860,-0.070688,-0.297082,0.999998,0.000163,-0.000368,0.001846,0.000140,0.001855,-0.000377,86.391272,0.001961,
1480,670,-0.252752,-3.685012,0.999998,0.000158,-0.001553,0.002652,0.000469,0.002703,-0.001605,83.716517,0.002719,
1640,1360,-0.526022,-1.599665,0.999997,0.000214,-0.001567,0.002840,0.000054,0.002840,-0.001568,89.304515,0.002846,
940,1740,0.171537,-0.558946,0.999998,0.000181,-0.000797,0.002153,-0.000004,0.002153,-0.000797,-89.922072,0.002177,
1170,1530,0.038370,-0.859334,0.999998,0.000139,-0.000690,0.001743,0.000201,0.001759,-0.000706,85.301224,0.001771,
650,480,0.599254,-3.876435,0.999998,0.000161,-0.001284,0.002566,-0.000039,0.002567,-0.001284,-89.416757,0.002567,
820,560,0.431386,-3.806315,0.999998,0.000173,-0.001394,0.002612,-0.000119,0.002616,-0.001397,-88.303439,0.002618,
1380,1900,-0.033203,-0.216443,0.999999,0.000113,-0.000236,0.001719,0.000104,0.001725,-0.000242,86.963842,0.001868,
920,1590,0.257024,-0.911310,0.999999,0.000155,-0.001135,0.002379,0.000194,0.002390,-0.001145,86.851031,0.002391,
690,1390,0.691010,-1.613113,0.999998,0.000184,-0.001363,0.002624,-0.000089,0.002626,-0.001365,-88.723076,0.002626,
1280,1540,-0.030843,-0.838639,0.999999,0.000135,-0.000635,0.001712,-0.000116,0.001718,-0.000640,-87.178579,0.001737,
1870,1790,-0.492335,-0.675904,0.999998,0.000200,-0.001242,0.002481,0.000026,0.002481,-0.001242,89.600964,0.002481,
960,350,0.169497,-4.413498,0.999997,0.000206,-0.000866,0.002133,-0.000073,0.002135,-0.000868,-88.610004,0.002147,
1770,670,-0.692971,-3.416260,0.999997,0.000189,-0.001334,0.002636,-0.000083,0.002638,-0.001336,-88.795928,0.002638,
1890,1510,-0.745585,-1.391079,0.999998,0.000187,-0.001274,0.002538,0.000002,0.002538,-0.001274,89.962429,0.002538,
1230,710,0.001802,-3.935801,0.999999,0.000131,-0.000487,0.001012,-0.000010,0.001012,-0.000487,-89.610347,0.001013,
1810,930,-0.951766,-2.746707,0.999998,0.000154,-0.001127,0.002378,-0.000164,0.002385,-0.001135,-87.331676,0.002386,
630,1420,0.743374,-1.578882,0.999997,0.000212,-0.001284,0.002547,-0.000026,0.002547,-0.001284,-89.608554,0.002547,
890,900,0.645972,-2.881298,0.999999,0.000159,-0.001355,0.002989,0.000367,0.003020,-0.001386,85.208329,0.003023,
1700,1590,-0.445236,-1.035241,0.999998,0.000178,-0.001266,0.002530,-0.000073,0.002531,-0.001267,-88.893724,0.002531,
1900,810,-0.972383,-2.982566,0.999999,0.000000,-0.001092,0.002284,-0.000054,0.002285,-0.001093,-89.080396,0.002286,
1490,900,-0.521492,-2.950826,0.999997,0.000196,-0.001657,0.003390,-0.000196,0.003398,-0.001664,-87.780492,0.003398,
1250,1800,-0.007406,-0.376909,0.999998,0.000163,-0.000375,0.001695,-0.000017,0.001695,-0.000375,-89.538622,0.001781,
1390,1150,-0.364378,-1.818433,0.999997,0.000198,-0.001165,0.002860,-0.001446,0.003326,-0.001631,-72.147365,0.003326,
610,550,0.703443,-3.663582,0.999998,0.000169,-0.001246,0.002592,-0.000012,0.002592,-0.001246,-89.827610,0.002592,
730,1490,0.558098,-1.320380,0.999998,0.000184,-0.001355,0.002628,0.000027,0.002628,-0.001355,89.609428,0.002628,
1560,560,-0.318778,-3.880458,0.999998,0.000195,-0.001353,0.002549,0.000210,0.002560,-0.001364,86.928650,0.002562,
1850,1250,-0.912348,-2.014696,0.999998,0.000149,-0.001183,0.002390,0.000120,0.002394,-0.001187,88.080300,0.002394,
1430,1350,-0.190007,-1.367302,0.999998,0.000166,-0.001528,0.002578,-0.000703,0.002694,-0.001645,-80.553407,0.002716,
820,270,0.242545,-4.522467,0.999998,0.000210,-0.000867,0.002325,0.000155,0.002333,-0.000874,87.224981,0.002357,
1640,670,-0.506308,-3.510233,0.999998,0.000221,-0.001515,0.002788,0.000020,0.002788,-0.001515,89.732155,0.002792,
1400,450,-0.114494,-4.263305,0.999998,0.000148,-0.000841,0.002022,0.000219,0.002039,-0.000857,85.649689,0.002047,
1780,410,-0.507304,-4.079867,0.999998,0.000181,-0.001238,0.002532,0.000019,0.002532,-0.001238,89.716316,0.002533,
800,490,0.414792,-3.969683,0.999997,0.000176,-0.001280,0.002545,-0.000106,0.002548,-0.001283,-88.415003,0.002548,
1390,880,-0.304985,-3.289012,0.999997,0.000208,-0.001570,0.002756,0.001058,0.003001,-0.001814,76.968393,0.003022,
1680,1740,-0.317712,-0.646727,0.999998,0.000188,-0.001111,0.002442,0.000060,0.002443,-0.001112,89.029011,0.002446,
1530,640,-0.315448,-3.702721,0.999998,0.000185,-0.001519,0.002698,0.000304,0.002720,-0.001541,85.897851,0.002728,
1030,570,0.164014,-3.985058,0.999999,0.000149,-0.001116,0.002192,-0.000433,0.002248,-0.001172,-82.657967,0.002248,
1420,130,-0.035770,-4.861321,0.999998,0.000159,-0.000250,0.001705,-0.000128,0.001713,-0.000258,-86.257223,0.001847,
1330,1970,-0.010303,-0.100200,0.999998,0.000157,-0.000111,0.001556,0.000056,0.001558,-0.000113,88.068720,0.001738,
920,1050,0.706828,-2.456534,0.999998,0.000191,-0.000897,0.002892,-0.000130,0.002897,-0.000901,-88.030266,0.002965,
1000,2020,0.007940,-0.025068,0.999998,0.000000,-0.000018,0.001493,-0.000158,0.001509,-0.000034,-84.095610,0.001723,
1890,1730,-0.574493,-0.843081,0.999998,0.000177,-0.001208,0.002425,-0.000010,0.002425,-0.001208,-89.842629,0.002425,
1640,1340,-0.543374,-1.657092,0.999997,0.000205,-0.001562,0.002830,0.000082,0.002831,-0.001564,88.928241,0.002836,
780,1850,0.221191,-0.385838,0.999998,0.000158,-0.000894,0.002310,-0.000292,0.002336,-0.000920,-84.841070,0.002354,
940,1720,0.182057,-0.606261,0.999998,0.000191,-0.000805,0.002238,0.000008,0.002238,-0.000805,89.848678,0.002267,
990,230,0.096391,-4.672728,0.999998,0.000155,-0.000487,0.001934,0.000104,0.001939,-0.000492,87.551219,0.002016,
770,1680,0.377154,-0.803986,0.999998,0.000163,-0.001145,0.002486,0.000000,0.002486,-0.001145,89.997102,0.002489,
1080,1330,0.125875,-1.325921,0.999998,0.000166,-0.001380,0.002212,0.000891,0.002421,-0.001589,76.805219,0.002460,
1350,200,-0.036981,-4.748106,0.999999,0.000146,-0.000324,0.001750,-0.000022,0.001750,-0.000324,-89.394342,0.001862,
900,70,0.033800,-4.954919,0.999999,0.000138,-0.000168,0.001720,0.000322,0.001773,-0.000222,80.586654,0.001932,
870,1900,0.111237,-0.249272,0.999998,0.000142,-0.000574,0.002024,-0.000310,0.002061,-0.000611,-83.282164,0.002117,
1800,630,-0.697840,-3.499495,0.999998,0.000189,-0.001290,0.002585,-0.000042,0.002585,-0.001291,-89.384108,0.002585,
630,500,0.639641,-3.807625,0.999998,0.000178,-0.001255,0.002527,-0.000042,0.002528,-0.001256,-89.369537,0.002528,
820,540,0.419630,-3.857198,0.999998,0.000167,-0.001343,0.002616,-0.000105,0.002618,-0.001345,-88.484297,0.002619,
1380,1880,-0.039677,-0.249664,0.999999,0.000132,-0.000276,0.001700,0.000079,0.001703,-0.000279,87.716616,0.001827,
950,1120,0.610812,-2.230284,0.999998,0.000187,-0.001322,0.003197,-0.000298,0.003216,-0.001341,-86.246015,0.003231,
1070,1970,0.017726,-0.101845,0.999999,0.000146,-0.000121,0.001604,-0.000124,0.001613,-0.000129,-85.923082,0.001793,
960,390,0.186498,-4.327387,0.999998,0.000178,-0.000929,0.002208,-0.000124,0.002213,-0.000934,-87.731460,0.002222,
960,1590,0.213676,-0.878804,0.999998,0.000170,-0.001027,0.002269,0.000194,0.002280,-0.001039,86.642931,0.002283,
1180,320,0.025151,-4.546367,0.999999,0.000138,-0.000435,0.001810,-0.000004,0.001810,-0.000435,-89.885693,0.001889,
690,1370,0.707935,-1.665253,0.999998,0.000178,-0.001338,0.002612,-0.000103,0.002615,-0.001341,-88.506312,0.002615,
1370,1540,-0.096367,-0.884958,0.999999,0.000136,-0.000848,0.001940,-0.000351,0.001983,-0.000891,-82.934682,0.001987,
1280,400,-0.029342,-4.404199,0.999998,0.000158,-0.000557,0.001799,0.000053,0.001801,-0.000559,88.716470,0.001843,
1810,910,-0.941748,-2.793503,0.999999,0.000133,-0.001141,0.002356,-0.000156,0.002363,-0.001148,-87.453545,0.002363,
1770,650,-0.674067,-3.468490,0.999998,0.000180,-0.001340,0.002624,-0.000077,0.002626,-0.001341,-88.887178,0.002626,
650,790,0.854067,-3.082506,0.999998,0.000148,-0.001220,0.002488,0.000191,0.002498,-0.001230,87.058522,0.002498,
730,1920,0.171178,-0.240373,0.999998,0.000169,-0.000721,0.002303,-0.000544,0.002398,-0.000816,-80.110488,0.002439,
1560,540,-0.309202,-3.930652,0.999998,0.000180,-0.001318,0.002507,0.000226,0.002521,-0.001332,86.624377,0.002522,
1230,1350,0.000477,-1.099815,0.999999,0.000136,-0.000490,0.001024,0.000033,0.001025,-0.000490,88.755813,0.001025,
1810,880,-0.923915,-2.864977,0.999998,0.000143,-0.001148,0.002391,-0.000186,0.002401,-0.001158,-86.994640,0.002402,
1900,800,-0.965678,-3.005061,0.999999,0.000000,-0.001090,0.002297,-0.000054,0.002298,-0.001091,-89.092569,0.002299,
1390,1140,-0.387773,-1.846657,0.999997,0.000200,-0.001086,0.003075,-0.001642,0.003645,-0.001656,-70.856039,0.003650,
960,1430,0.268875,-1.267093,0.999998,0.000166,-0.001447,0.002571,0.000388,0.002608,-0.001484,84.532546,0.002617,
1290,1320,-0.032156,-1.170615,0.999999,0.000143,-0.000721,0.001142,-0.000660,0.001353,-0.000931,-72.335203,0.001384,
900,910,0.644121,-2.855701,0.999998,0.000175,-0.001332,0.002996,0.000359,0.003026,-0.001361,85.291562,0.003031,
1610,860,-0.650875,-2.981477,0.999998,0.000176,-0.001444,0.002907,-0.000328,0.002931,-0.001468,-85.711011,0.002931,
1230,1800,0.000215,-0.375714,0.999998,0.000164,-0.000401,0.001686,0.000001,0.001686,-0.000401,89.975487,0.001761,
730,1930,0.156019,-0.216646,0.999999,0.000150,-0.000680,0.002289,-0.000592,0.002403,-0.000794,-79.127236,0.002448,
1850,1230,-0.927211,-2.061165,0.999999,0.000128,-0.001159,0.002354,0.000123,0.002358,-0.001164,87.997137,0.002358,
750,1420,0.583312,-1.491080,0.999997,0.000208,-0.001406,0.002690,-0.000028,0.002690,-0.001406,-89.607912,0.002691,
1090,660,0.106223,-3.868257,0.999998,0.000174,-0.001101,0.001999,-0.000678,0.002140,-0.001243,-78.192379,0.002149,
1660,250,-0.241638,-4.559664,0.999998,0.000159,-0.000928,0.002353,-0.000186,0.002363,-0.000939,-86.770411,0.002380,
1330,1950,-0.013604,-0.130674,0.999998,0.000159,-0.000138,0.001597,0.000054,0.001599,-0.000139,88.227380,0.001771,
1490,880,-0.486252,-3.018519,0.999998,0.000173,-0.001769,0.003377,-0.000120,0.003380,-0.001772,-88.667177,0.003381,
1380,910,-0.366725,-3.266829,0.999997,0.000216,-0.000986,0.002718,0.001667,0.003358,-0.001626,69.001828,0.003358,
1600,1020,-0.765308,-2.541383,0.999998,0.000185,-0.000953,0.002690,-0.000049,0.002690,-0.000954,-89.235077,0.002728,
1400,710,-0.147047,-3.714659,0.999998,0.000140,-0.001422,0.002332,0.000793,0.002493,-0.001583,78.552003,0.002523,
1680,980,-0.832701,-2.641438,0.999998,0.000169,-0.001079,0.002540,-0.000123,0.002544,-0.001083,-88.053091,0.002553,
860,960,0.740928,-2.700723,0.999998,0.000171,-0.001046,0.002720,0.000265,0.002739,-0.001064,86.000044,0.002761,
940,1700,0.190521,-0.649444,0.999998,0.000182,-0.000844,0.002164,0.000033,0.002164,-0.000845,89.380787,0.002182,
1640,1320,-0.562862,-1.713073,0.999997,0.000200,-0.001566,0.002855,0.000115,0.002858,-0.001569,88.515978,0.002863,
630,480,0.625489,-3.858845,0.999998,0.000186,-0.001264,0.002563,-0.000065,0.002564,-0.001265,-89.032597,0.002564,
920,70,0.031060,-4.954638,0.999999,0.000132,-0.000117,0.001708,0.000312,0.001760,-0.000168,80.569124,0.001942,
750,1680,0.399525,-0.817856,0.999997,0.000179,-0.001166,0.002510,-0.000029,0.002511,-0.001166,-89.555251,0.002513,
990,210,0.086741,-4.710663,0.999998,0.000153,-0.000448,0.001897,0.000128,0.001904,-0.000455,86.880668,0.001988,
600,1720,0.547139,-0.840462,0.999998,0.000175,-0.001222,0.002484,0.000036,0.002484,-0.001222,89.444796,0.002484,
1180,280,0.022123,-4.616599,0.999998,0.000159,-0.000408,0.001748,0.000001,0.001748,-0.000408,89.973320,0.001829,
1530,620,-0.305044,-3.756348,0.999998,0.000187,-0.001443,0.002626,0.000300,0.002648,-0.001465,85.801039,0.002653,
1290,200,-0.016411,-4.754078,0.999998,0.000169,-0.000248,0.001696,-0.000032,0.001696,-0.000249,-89.055960,0.001832,
1430,1330,-0.198496,-1.419530,0.999998,0.000167,-0.001623,0.002619,-0.000733,0.002742,-0.001746,-80.464538,0.002776,
1580,1730,-0.225096,-0.611618,0.999998,0.000155,-0.000950,0.002287,0.000003,0.002287,-0.000950,89.943942,0.002298,
820,520,0.406648,-3.912121,0.999998,0.000171,-0.001301,0.002581,-0.000106,0.002584,-0.001304,-88.436130,0.002584,
1380,1860,-0.043765,-0.284366,0.999999,0.000137,-0.000325,0.001767,0.000088,0.001770,-0.000329,87.595253,0.001883,
630,1520,0.665692,-1.322160,0.999998,0.000167,-0.001276,0.002562,0.000012,0.002562,-0.001276,89.823916,0.002562,
930,1040,0.701000,-2.483554,0.999997,0.000215,-0.000882,0.002919,-0.000070,0.002920,-0.000883,-88.951381,0.002996,
1460,370,-0.143686,-4.395057,0.999998,0.000160,-0.000762,0.002088,0.000085,0.002090,-0.000764,88.293054,0.002115,
1760,250,-0.344491,-4.500931,0.999998,0.000193,-0.001172,0.002516,-0.000145,0.002521,-0.001178,-87.745914,0.002523,
1070,1950,0.022309,-0.133630,0.999999,0.000143,-0.000153,0.001626,-0.000121,0.001634,-0.000161,-86.136222,0.001801,
1900,790,-0.956159,-3.028799,0.999999,0.000000,-0.001091,0.002330,-0.000059,0.002331,-0.001092,-89.009265,0.002332,
1810,890,-0.930372,-2.841004,0.999998,0.000151,-0.001147,0.002355,-0.000162,0.002363,-0.001155,-87.365025,0.002363,
690,1350,0.726035,-1.717889,0.999998,0.000172,-0.001331,0.002599,-0.000135,0.002604,-0.001335,-88.028885,0.002604,
1770,630,-0.657679,-3.521132,0.999997,0.000181,-0.001346,0.002616,-0.000039,0.002616,-0.001347,-89.432592,0.002617,
730,1940,0.140435,-0.194483,0.999999,0.000133,-0.000625,0.002251,-0.000622,0.002379,-0.000754,-78.308082,0.002432,
780,1870,0.198316,-0.339831,0.999998,0.000153,-0.000841,0.002254,-0.000343,0.002292,-0.000879,-83.745782,0.002313,
1170,1520,0.038692,-0.876876,0.999998,0.000138,-0.000688,0.001739,0.000212,0.001757,-0.000707,85.047288,0.001769,
1870,1510,-0.719842,-1.375184,0.999998,0.000157,-0.001264,0.002551,-0.000002,0.002551,-0.001264,-89.969190,0.002551,
1540,830,-0.501225,-3.123892,0.999997,0.000202,-0.001761,0.003207,-0.000158,0.003212,-0.001766,-88.186242,0.003218,
880,910,0.669897,-2.847547,0.999998,0.000158,-0.001291,0.002902,0.000355,0.002932,-0.001321,85.188737,0.002937,
1220,1900,0.003916,-0.209341,0.999999,0.000140,-0.000237,0.001633,0.000003,0.001633,-0.000237,89.899565,0.001764,
840,1870,0.155170,-0.318593,0.999998,0.000163,-0.000588,0.002148,-0.000306,0.002182,-0.000622,-83.692628,0.002248,
1560,520,-0.301963,-3.981966,0.999998,0.000175,-0.001272,0.002480,0.000227,0.002494,-0.001286,86.555994,0.002494,
1280,1520,-0.031324,-0.872961,0.999999,0.000145,-0.000638,0.001701,-0.000152,0.001711,-0.000648,-86.297061,0.001728,
1380,900,-0.343073,-3.291788,0.999997,0.000188,-0.001084,0.002507,0.001471,0.003032,-0.001610,70.333994,0.003034,
960,1410,0.277315,-1.318645,0.999997,0.000216,-0.001511,0.002627,0.000388,0.002663,-0.001547,84.684040,0.002674,
1550,940,-0.663609,-2.772795,0.999998,0.000178,-0.001199,0.003003,-0.000356,0.003033,-0.001229,-85.196320,0.003051,
750,1400,0.600602,-1.544186,0.999997,0.000202,-0.001418,0.002674,-0.000047,0.002675,-0.001419,-89.343436,0.002676,
1420,1230,-0.263056,-1.684477,0.999997,0.000202,-0.001958,0.003061,-0.000685,0.003153,-0.002050,-82.363395,0.003200,
730,1910,0.184250,-0.263926,0.999998,0.000178,-0.000751,0.002324,-0.000500,0.002404,-0.000830,-80.991516,0.002442,
1750,460,-0.507124,-3.976961,0.999998,0.000169,-0.001280,0.002542,0.000037,0.002542,-0.001280,89.446753,0.002542,
1640,560,-0.427279,-3.809654,0.999998,0.000175,-0.001393,0.002643,0.000131,0.002647,-0.001397,88.140428,0.002648,
1850,1210,-0.941985,-2.110089,0.999999,0.000122,-0.001146,0.002345,0.000146,0.002352,-0.001152,87.605360,0.002352,
1330,1930,-0.016980,-0.164227,0.999998,0.000149,-0.000175,0.001612,0.000037,0.001613,-0.000176,88.824286,0.001769,
1430,1310,-0.206933,-1.473352,0.999998,0.000176,-0.001707,0.002734,-0.000728,0.002850,-0.001823,-80.917698,0.002887,
610,530,0.687803,-3.715548,0.999998,0.000183,-0.001246,0.002593,0.000007,0.002593,-0.001246,89.895487,0.002594,
1110,1800,0.048953,-0.388394,0.999999,0.000123,-0.000417,0.001784,-0.000004,0.001784,-0.000417,-89.907389,0.001866,
940,1680,0.199518,-0.690805,0.999998,0.000171,-0.000895,0.002177,0.000061,0.002179,-0.000896,88.857760,0.002190,
1400,690,-0.143360,-3.761453,0.999998,0.000155,-0.001350,0.002282,0.000749,0.002430,-0.001498,78.798871,0.002452,
1900,780,-0.948977,-3.052468,0.999998,0.000000,-0.001108,0.002337,-0.000059,0.002338,-0.001109,-89.019327,0.002339,
1810,870,-0.915529,-2.888567,0.999999,0.000146,-0.001151,0.002417,-0.000209,0.002429,-0.001163,-86.660152,0.002430,
910,260,0.162934,-4.584861,0.999998,0.000164,-0.000660,0.002136,0.000138,0.002142,-0.000667,87.188115,0.002193,
800,510,0.427300,-3.919860,0.999997,0.000176,-0.001304,0.002565,-0.000109,0.002568,-0.001307,-88.393321,0.002568,
1520,200,-0.107192,-4.717262,0.999998,0.000156,-0.000523,0.001971,-0.000184,0.001984,-0.000536,-85.813723,0.002053,
900,1220,0.547155,-1.953727,0.999997,0.000179,-0.001669,0.003093,-0.000242,0.003105,-0.001681,-87.094701,0.003109,
1060,1330,0.156335,-1.366247,0.999998,0.000172,-0.001519,0.002420,0.000844,0.002593,-0.001692,78.405216,0.002633,
1770,610,-0.642057,-3.573541,0.999998,0.000166,-0.001322,0.002615,-0.000017,0.002615,-0.001322,-89.752668,0.002615,
1470,1670,-0.154288,-0.680962,0.999998,0.000180,-0.000832,0.002126,-0.000125,0.002131,-0.000838,-87.586143,0.002148,
1440,370,-0.128852,-4.405504,0.999998,0.000161,-0.000751,0.002049,0.000101,0.002053,-0.000754,87.935104,0.002077,
1220,1860,0.003450,-0.275467,0.999998,0.000178,-0.000345,0.001637,0.000004,0.001637,-0.000345,89.876080,0.001726,
820,500,0.395451,-3.960707,0.999997,0.000171,-0.001279,0.002527,-0.000093,0.002529,-0.001281,-88.595051,0.002529,
1800,1970,-0.139965,-0.149715,0.999998,0.000147,-0.000504,0.002447,0.000941,0.002721,-0.000779,73.733336,0.002803,
1680,1720,-0.334859,-0.696976,0.999998,0.000175,-0.001115,0.002480,0.000040,0.002480,-0.001115,89.356760,0.002484,
1620,1230,-0.625005,-1.962704,0.999998,0.000171,-0.001524,0.002935,0.000289,0.002954,-0.001543,86.310228,0.002955,
980,1690,0.158234,-0.646073,0.999998,0.000183,-0.000838,0.002139,0.000117,0.002144,-0.000843,87.749060,0.002160,
1380,1840,-0.051085,-0.321047,0.999998,0.000156,-0.000367,0.001799,0.000074,0.001802,-0.000369,88.050356,0.001904,
1020,130,0.042404,-4.858877,0.999998,0.000139,-0.000242,0.001725,0.000151,0.001736,-0.000254,85.649876,0.001876,
880,970,0.727567,-2.677955,0.999998,0.000185,-0.001049,0.002779,0.000243,0.002794,-0.001064,86.387762,0.002820,
1130,110,0.013610,-4.899956,0.999999,0.000142,-0.000170,0.001609,0.000053,0.001611,-0.000171,88.282931,0.001770,
1440,1350,-0.205247,-1.384959,0.999998,0.000160,-0.001572,0.002628,-0.000660,0.002730,-0.001673,-81.272604,0.002753,
1030,550,0.160984,-4.029737,0.999998,0.000143,-0.001077,0.002171,-0.000400,0.002220,-0.001125,-83.087394,0.002220,
1280,1480,-0.029914,-0.938431,0.999999,0.000122,-0.000672,0.001596,-0.000186,0.001611,-0.000687,-85.347557,0.001617,
1070,1930,0.028802,-0.167256,0.999999,0.000140,-0.000188,0.001642,-0.000112,0.001649,-0.000195,-86.522921,0.001802,
750,1660,0.414634,-0.869641,0.999998,0.000165,-0.001200,0.002532,0.000028,0.002532,-0.001200,89.562998,0.002533,
630,1540,0.651268,-1.269957,0.999997,0.000184,-0.001275,0.002556,0.000028,0.002556,-0.001275,89.583812,0.002556,
1780,630,-0.671531,-3.513704,0.999997,0.000173,-0.001336,0.002600,-0.000041,0.002600,-0.001337,-89.403730,0.002600,
860,940,0.726919,-2.756083,0.999998,0.000174,-0.001145,0.002777,0.000321,0.002803,-0.001171,85.344287,0.002816,
650,770,0.836402,-3.132598,0.999999,0.000134,-0.001240,0.002487,0.000178,0.002496,-0.001248,87.279414,0.002496,
1000,30,0.004350,-5.024165,0.999999,0.000000,0.000014,0.001658,0.000212,0.001685,-0.000013,82.764182,0.001939,
1730,290,-0.350084,-4.422920,0.999997,0.000180,-0.001080,0.002482,-0.000110,0.002485,-0.001083,-88.240726,0.002492,
1370,910,-0.359162,-3.325010,0.999997,0.000234,-0.000812,0.002466,0.001722,0.003204,-0.001550,66.798104,0.003205,
1580,550,-0.340552,-3.889475,0.999998,0.000166,-0.001305,0.002525,0.000195,0.002535,-0.001315,87.099538,0.002536,
1170,1540,0.039635,-0.842464,0.999999,0.000132,-0.000690,0.001738,0.000179,0.001751,-0.000703,85.811384,0.001762,
1180,260,0.020085,-4.652711,0.999998,0.000152,-0.000384,0.001747,0.000010,0.001747,-0.000384,89.719385,0.001836,
790,1120,0.800637,-2.283348,0.999998,0.000178,-0.001144,0.002613,-0.000246,0.002629,-0.001160,-86.269788,0.002635,
1530,940,-0.637513,-2.783168,0.999998,0.000183,-0.001231,0.003099,-0.000331,0.003124,-0.001256,-85.659237,0.003144,
1550,1710,-0.208392,-0.639479,0.999998,0.000168,-0.000860,0.002273,-0.000002,0.002273,-0.000860,-89.972061,0.002295,
1240,70,-0.000671,-4.964424,0.999999,0.000140,-0.000101,0.001549,-0.000007,0.001549,-0.000101,-89.773729,0.001734,
880,1290,0.499470,-1.756123,0.999997,0.000184,-0.001687,0.002970,-0.000076,0.002971,-0.001689,-89.062619,0.002980,
1890,1670,-0.624724,-0.989645,0.999997,0.000177,-0.001248,0.002436,-0.000039,0.002437,-0.001249,-89.401219,0.002437,
1090,1800,0.056453,-0.391650,0.999999,0.000136,-0.000409,0.001820,-0.000022,0.001820,-0.000409,-89.437194,0.001910,
1730,460,-0.480037,-3.992389,0.999998,0.000160,-0.001287,0.002535,0.000054,0.002536,-0.001288,89.187682,0.002536,
690,590,0.630048,-3.622685,0.999998,0.000186,-0.001313,0.002606,0.000007,0.002606,-0.001313,89.901829,0.002606,
1640,1300,-0.581869,-1.771498,0.999998,0.000190,-0.001567,0.002867,0.000144,0.002872,-0.001572,88.136179,0.002876,
1430,970,-0.547110,-2.799649,0.999998,0.000213,-0.001780,0.004425,0.000656,0.004493,-0.001849,84.031915,0.004517,
920,1990,0.027357,-0.075392,0.999999,0.000129,-0.000086,0.001709,-0.000307,0.001760,-0.000137,-80.549311,0.001958,
1330,1910,-0.019508,-0.195684,0.999999,0.000128,-0.000233,0.001648,0.000028,0.001648,-0.000233,89.137190,0.001784,
1690,1380,-0.583757,-1.582323,0.999997,0.000203,-0.001445,0.002739,0.000059,0.002740,-0.001446,89.193223,0.002741,
730,1890,0.212645,-0.310372,0.999998,0.000173,-0.000821,0.002415,-0.000443,0.002475,-0.000881,-82.339074,0.002509,
780,160,0.170685,-4.754877,0.999998,0.000165,-0.000760,0.002228,0.000419,0.002286,-0.000818,82.162107,0.002316,
900,1200,0.572399,-2.012964,0.999997,0.000178,-0.001595,0.003083,-0.000287,0.003100,-0.001613,-86.499976,0.003101,
890,260,0.176067,-4.577444,0.999998,0.000165,-0.000785,0.002156,0.000116,0.002161,-0.000790,87.747631,0.002187,
1520,180,-0.094399,-4.756386,0.999998,0.000148,-0.000472,0.001922,-0.000194,0.001938,-0.000488,-85.391807,0.002016,
840,1850,0.172825,-0.363221,0.999998,0.000144,-0.000663,0.002183,-0.000274,0.002209,-0.000689,-84.544664,0.002261,
1510,640,-0.285627,-3.726790,0.999998,0.000187,-0.001501,0.002617,0.000361,0.002648,-0.001532,85.021732,0.002659,
690,460,0.534914,-3.958276,0.999997,0.000188,-0.001255,0.002517,-0.000056,0.002518,-0.001256,-89.157067,0.002518,
1430,1290,-0.221579,-1.528235,0.999998,0.000179,-0.001781,0.002874,-0.000738,0.002989,-0.001895,-81.205607,0.003024,
1600,1000,-0.755736,-2.594135,0.999998,0.000182,-0.000984,0.002660,-0.000106,0.002663,-0.000987,-88.336943,0.002693,
880,890,0.647376,-2.906058,0.999998,0.000176,-0.001386,0.002959,0.000377,0.002991,-0.001419,85.071695,0.002993,
1850,1190,-0.959699,-2.156166,0.999999,0.000133,-0.001117,0.002305,0.000137,0.002311,-0.001122,87.704706,0.002311,
1470,1650,-0.161185,-0.724346,0.999998,0.000169,-0.000877,0.002142,-0.000149,0.002149,-0.000884,-87.185835,0.002160,
1760,1780,-0.370556,-0.603809,0.999997,0.000232,-0.001169,0.002526,0.000095,0.002528,-0.001172,88.525513,0.002531,
1900,770,-0.940492,-3.075654,0.999998,0.000000,-0.001122,0.002371,-0.000054,0.002372,-0.001123,-89.110542,0.002373,
620,1370,0.798543,-1.713499,0.999998,0.000162,-0.001249,0.002523,-0.000075,0.002524,-0.001251,-88.868860,0.002524,
940,1660,0.207697,-0.736820,0.999998,0.000158,-0.000936,0.002211,0.000079,0.002213,-0.000938,88.565184,0.002221,
610,490,0.658032,-3.816065,0.999998,0.000182,-0.001241,0.002530,-0.000018,0.002530,-0.001241,-89.722050,0.002531,
1220,1320,0.004986,-1.130437,0.999999,0.000132,-0.000512,0.000864,0.000139,0.000878,-0.000526,84.272220,0.000884,
960,670,0.288956,-3.653997,0.999998,0.000170,-0.001573,0.002757,-0.000419,0.002797,-0.001613,-84.524323,0.002808,
1800,1990,-0.093822,-0.098910,0.999998,0.000158,-0.000309,0.002392,0.000982,0.002711,-0.000628,71.994709,0.002838,
820,480,0.383433,-4.013349,0.999998,0.000164,-0.001231,0.002533,-0.000104,0.002536,-0.001234,-88.411458,0.002536,
1780,270,-0.390410,-4.434303,0.999997,0.000190,-0.001183,0.002521,-0.000107,0.002524,-0.001186,-88.343937,0.002526,
1810,850,-0.899396,-2.937982,0.999999,0.000133,-0.001147,0.002424,-0.000192,0.002434,-0.001157,-86.930556,0.002435,
1030,530,0.159174,-4.071243,0.999999,0.000156,-0.001038,0.002182,-0.000379,0.002226,-0.001082,-83.371859,0.002226,
1680,1680,-0.363498,-0.794825,0.999998,0.000165,-0.001111,0.002433,-0.000033,0.002433,-0.001112,-89.472834,0.002436,
1860,1450,-0.754076,-1.522422,0.999998,0.000173,-0.001259,0.002564,-0.000001,0.002564,-0.001259,-89.988069,0.002565,
990,2020,0.008093,-0.026346,0.999998,0.000000,0.000019,0.001515,-0.000165,0.001533,0.000001,-83.781036,0.001771,
1130,90,0.011038,-4.933756,0.999999,0.000147,-0.000129,0.001553,0.000038,0.001554,-0.000130,88.706394,0.001724,
650,750,0.819161,-3.182439,0.999998,0.000146,-0.001263,0.002508,0.000162,0.002515,-0.001270,87.538545,0.002515,
860,970,0.746969,-2.673700,0.999998,0.000184,-0.001010,0.002708,0.000244,0.002724,-0.001026,86.255327,0.002751,
1280,1460,-0.028780,-0.969355,0.999999,0.000141,-0.000680,0.001549,-0.000198,0.001566,-0.000697,-84.964554,0.001569,
950,1520,0.248667,-1.052337,0.999998,0.000145,-0.001206,0.002405,0.000299,0.002430,-0.001231,85.300033,0.002430,
1450,800,-0.291490,-3.360546,0.999998,0.000181,-0.001931,0.003115,0.000515,0.003167,-0.001983,84.236367,0.003200,
980,1670,0.166662,-0.688892,0.999998,0.000153,-0.000876,0.002146,0.000114,0.002150,-0.000881,87.847092,0.002161,
1000,130,0.046868,-4.857271,0.999998,0.000149,-0.000223,0.001734,0.000184,0.001751,-0.000240,84.680844,0.001898,
1190,1540,0.025694,-0.838018,0.999999,0.000134,-0.000636,0.001704,0.000097,0.001708,-0.000640,87.636380,0.001726,
860,920,0.704562,-2.812509,0.999998,0.000182,-0.001227,0.002812,0.000355,0.002843,-0.001258,85.019105,0.002849,
1560,500,-0.291591,-4.031538,0.999998,0.000160,-0.001195,0.002446,0.000206,0.002457,-0.001206,86.777936,0.002458,
1590,940,-0.709304,-2.759195,0.999998,0.000178,-0.001143,0.002803,-0.000311,0.002827,-0.001167,-85.527229,0.002841,
660,410,0.535659,-4.060975,0.999998,0.000177,-0.001264,0.002561,-0.000042,0.002561,-0.001265,-89.378029,0.002561,
1260,70,-0.003051,-4.964058,0.999999,0.000117,-0.000087,0.001524,-0.000016,0.001525,-0.000088,-89.430121,0.001712,
1620,1530,-0.379859,-1.122282,0.999997,0.000187,-0.001332,0.002563,-0.000129,0.002567,-0.001337,-88.102938,0.002568,
880,1270,0.520371,-1.815878,0.999997,0.000195,-0.001684,0.003015,-0.000125,0.003019,-0.001687,-88.472965,0.003026,
690,1330,0.744299,-1.770304,0.999998,0.000181,-0.001343,0.002608,-0.000176,0.002616,-0.001351,-87.459921,0.002616,
1690,1320,-0.637523,-1.747721,0.999997,0.000204,-0.001462,0.002732,0.000178,0.002739,-0.001470,87.568462,0.002742,
1620,1790,-0.219868,-0.495795,0.999997,0.000190,-0.000828,0.002285,0.000168,0.002294,-0.000837,86.911321,0.002322,
1300,1990,-0.004193,-0.068064,0.999999,0.000133,-0.000053,0.001532,0.000048,0.001533,-0.000054,88.280837,0.001740,
1420,970,-0.525911,-2.828554,0.999997,0.000240,-0.001945,0.004758,0.001021,0.004911,-0.002098,81.526856,0.004928,
1420,1210,-0.292919,-1.746233,0.999998,0.000160,-0.001910,0.003163,-0.000637,0.003242,-0.001989,-82.948818,0.003270,
1070,1910,0.033410,-0.200145,0.999999,0.000151,-0.000232,0.001693,-0.000111,0.001700,-0.000239,-86.698327,0.001841,
600,1370,0.823787,-1.727740,0.999998,0.000181,-0.001267,0.002525,-0.000044,0.002525,-0.001268,-89.341951,0.002525,
570,580,0.780056,-3.554057,0.999956,0.000779,-0.002076,0.002370,-0.000326,0.002393,-0.002100,-85.827701,0.002611,
1900,870,-1.018130,-2.845575,0.999998,0.000000,-0.001128,0.002156,-0.000078,0.002158,-0.001130,-88.641589,0.002159,
1460,550,-0.189667,-4.003486,0.999999,0.000123,-0.001124,0.002276,0.000365,0.002315,-0.001163,83.948192,0.002315,
820,460,0.372239,-4.062571,0.999998,0.000163,-0.001206,0.002484,-0.000101,0.002486,-0.001208,-88.435239,0.002487,
780,140,0.146752,-4.802346,0.999998,0.000155,-0.000686,0.002167,0.000446,0.002235,-0.000754,81.327367,0.002274,
1030,510,0.153963,-4.118337,0.999998,0.000164,-0.001000,0.002173,-0.000319,0.002205,-0.001032,-84.313236,0.002206,
730,1870,0.239648,-0.361056,0.999998,0.000158,-0.000890,0.002417,-0.000368,0.002457,-0.000930,-83.725804,0.002481,
1770,590,-0.626950,-3.625660,0.999998,0.000166,-0.001313,0.002607,-0.000007,0.002607,-0.001313,-89.898816,0.002607,
730,1620,0.467069,-0.986457,0.999998,0.000162,-0.001232,0.002503,0.000047,0.002504,-0.001233,89.282631,0.002504,
1430,1270,-0.238578,-1.589208,0.999998,0.000172,-0.001863,0.002959,-0.000737,0.003069,-0.001973,-81.504981,0.003110,
780,1690,0.358229,-0.772194,0.999998,0.000163,-0.001136,0.002452,0.000010,0.002452,-0.001136,89.842486,0.002455,
1640,1260,-0.622543,-1.886176,0.999997,0.000205,-0.001543,0.002880,0.000221,0.002891,-0.001554,87.142155,0.002894,
1330,1890,-0.022698,-0.228752,0.999999,0.000130,-0.000287,0.001661,0.000039,0.001662,-0.000288,88.842158,0.001776,
1520,160,-0.082781,-4.795913,0.999999,0.000137,-0.000423,0.001903,-0.000224,0.001925,-0.000445,-84.539658,0.002015,
900,1180,0.599385,-2.077344,0.999998,0.000177,-0.001516,0.003076,-0.000322,0.003098,-0.001539,-86.003818,0.003098,
650,60,0.087903,-4.952059,0.999998,0.000145,-0.000480,0.002347,0.000912,0.002615,-0.000748,73.585571,0.002694,
1590,420,-0.288465,-4.201152,0.999999,0.000140,-0.001075,0.002397,0.000074,0.002398,-0.001077,88.777489,0.002403,
1220,1300,0.006227,-1.146664,0.999999,0.000133,-0.000534,0.000730,0.000156,0.000749,-0.000553,83.054373,0.000776,
630,1760,0.478983,-0.715131,0.999998,0.000177,-0.001176,0.002515,-0.000017,0.002515,-0.001176,-89.734576,0.002517,
1470,890,-0.468704,-3.017168,0.999998,0.000182,-0.001797,0.003489,-0.000003,0.003489,-0.001797,-89.963160,0.003489,
1840,1450,-0.728693,-1.506900,0.999997,0.000199,-0.001286,0.002575,0.000039,0.002575,-0.001286,89.414999,0.002575,
1120,1260,0.100252,-1.370857,0.999998,0.000179,-0.001331,0.001834,0.001140,0.002201,-0.001698,72.115301,0.002307,
1180,240,0.018973,-4.686040,0.999999,0.000146,-0.000344,0.001729,0.000018,0.001730,-0.000344,89.515622,0.001831,
1850,1390,-0.790464,-1.666596,0.999998,0.000166,-0.001269,0.002537,0.000063,0.002538,-0.001270,89.054179,0.002538,
970,860,0.458307,-3.083912,0.999998,0.000194,-0.001862,0.003366,0.000057,0.003367,-0.001863,89.374612,0.003373,
990,30,0.004141,-5.025060,0.999999,0.000000,-0.000049,0.001656,0.000206,0.001680,-0.000074,83.206775,0.001899,
1810,830,-0.884834,-2.985170,0.999998,0.000144,-0.001181,0.002417,-0.000178,0.002425,-0.001190,-87.181213,0.002426,
1190,260,0.016862,-4.652424,0.999998,0.000156,-0.000391,0.001741,-0.000002,0.001741,-0.000391,-89.959579,0.001827,
860,900,0.685994,-2.869565,0.999998,0.000178,-0.001303,0.002845,0.000342,0.002873,-0.001331,85.314052,0.002876,
1600,980,-0.751629,-2.646426,0.999998,0.000191,-0.001006,0.002707,-0.000195,0.002717,-0.001017,-87.003707,0.002746,
1810,800,-0.858958,-3.059471,0.999998,0.000167,-0.001230,0.002474,-0.000192,0.002484,-0.001240,-87.036977,0.002484,
1530,700,-0.351979,-3.535295,0.999998,0.000193,-0.001669,0.002893,0.000261,0.002908,-0.001684,86.731518,0.002920,
1480,1730,-0.141717,-0.561683,0.999998,0.000163,-0.000717,0.002067,-0.000013,0.002067,-0.000717,-89.724143,0.002100,
1060,70,0.013237,-4.961013,0.999999,0.000159,-0.000098,0.001571,0.000114,0.001579,-0.000105,86.114421,0.001766,
1540,930,-0.638315,-2.808755,0.999998,0.000164,-0.001286,0.003061,-0.000354,0.003090,-0.001315,-85.374573,0.003101,
1560,460,-0.273973,-4.127176,0.999998,0.000167,-0.001095,0.002380,0.000152,0.002386,-0.001102,87.497911,0.002389,
820,1310,0.576649,-1.744140,0.999998,0.000192,-0.001527,0.002862,-0.000138,0.002867,-0.001531,-88.194862,0.002869,
590,840,0.965534,-2.931839,0.999999,0.000140,-0.001125,0.002331,0.000083,0.002333,-0.001127,88.622069,0.002333,
610,470,0.642179,-3.867333,0.999998,0.000173,-0.001228,0.002557,-0.000023,0.002557,-0.001228,-89.655760,0.002558,
1330,1190,-0.201904,-1.431774,0.999998,0.000191,-0.000848,0.001044,-0.000717,0.001285,-0.001089,-71.416705,0.001385,
1280,1990,-0.002825,-0.067341,0.999999,0.000127,-0.000081,0.001527,0.000037,0.001528,-0.000082,88.679066,0.001718,
640,410,0.560731,-4.043784,0.999997,0.000185,-0.001249,0.002530,-0.000039,0.002530,-0.001250,-89.405430,0.002530,
1020,850,0.346277,-3.214161,0.999998,0.000180,-0.001948,0.003402,-0.000412,0.003433,-0.001979,-85.619799,0.003447,
1670,1320,-0.608115,-1.734397,0.999998,0.000164,-0.001485,0.002783,0.000148,0.002788,-0.001490,88.019003,0.002791,
1710,1380,-0.612188,-1.596120,0.999998,0.000264,-0.001424,0.002696,0.000085,0.002698,-0.001425,88.820538,0.002699,
650,730,0.800394,-3.233341,0.999998,0.000148,-0.001272,0.002526,0.000145,0.002532,-0.001277,87.819401,0.002532,
760,1690,0.380151,-0.785793,0.999997,0.000175,-0.001133,0.002462,-0.000030,0.002463,-0.001133,-89.527946,0.002465,
870,1520,0.349528,-1.124971,0.999998,0.000165,-0.001321,0.002532,0.000175,0.002540,-0.001329,87.408395,0.002541,
840,1010,0.781802,-2.565606,0.999998,0.000212,-0.000988,0.002625,0.000086,0.002627,-0.000990,88.641676,0.002653,
1900,990,-1.066497,-2.595252,0.999998,0.000000,-0.000999,0.002036,-0.000016,0.002036,-0.000999,-89.706009,0.002036,
1770,550,-0.597151,-3.730712,0.999997,0.000195,-0.001312,0.002585,-0.000002,0.002585,-0.001312,-89.969637,0.002585,
710,1620,0.491172,-1.002095,0.999998,0.000172,-0.001253,0.002529,0.000050,0.002529,-0.001254,89.242163,0.002529,
990,190,0.077031,-4.748151,0.999999,0.000135,-0.000396,0.001836,0.000150,0.001846,-0.000406,86.184772,0.001940,
1430,1250,-0.257657,-1.648338,0.999998,0.000179,-0.001946,0.003026,-0.000678,0.003117,-0.002037,-82.371741,0.003165,
1840,1570,-0.637928,-1.199668,0.999998,0.000165,-0.001270,0.002518,-0.000036,0.002518,-0.001271,-89.453243,0.002518,
1030,490,0.149932,-4.161627,0.999998,0.000165,-0.000964,0.002120,-0.000282,0.002146,-0.000989,-84.816019,0.002148,
730,1850,0.262990,-0.406159,0.999998,0.000180,-0.000949,0.002424,-0.000322,0.002454,-0.000979,-84.590400,0.002471,
1330,1870,-0.025334,-0.262787,0.999999,0.000136,-0.000322,0.001694,0.000046,0.001695,-0.000323,88.681356,0.001800,
730,1400,0.627654,-1.558878,0.999997,0.000188,-0.001383,0.002644,-0.000076,0.002645,-0.001385,-88.914816,0.002646,
1400,430,-0.110872,-4.304891,0.999998,0.000150,-0.000809,0.002018,0.000201,0.002032,-0.000824,85.957233,0.002045,
860,880,0.662191,-2.926617,0.999998,0.000169,-0.001380,0.002910,0.000349,0.002938,-0.001408,85.373243,0.002939,
780,120,0.124149,-4.842077,0.999998,0.000146,-0.000571,0.002151,0.000495,0.002238,-0.000658,80.013624,0.002300,
1850,1630,-0.606275,-1.056047,0.999998,0.000188,-0.001240,0.002496,-0.000047,0.002496,-0.001240,-89.276688,0.002497,
1040,1670,0.119662,-0.659828,0.999998,0.000158,-0.000778,0.002029,0.000124,0.002034,-0.000783,87.475761,0.002052,
1620,1510,-0.392399,-1.174439,0.999998,0.000173,-0.001346,0.002626,-0.000134,0.002631,-0.001350,-88.071241,0.002631,
1810,810,-0.867228,-3.033517,0.999998,0.000164,-0.001213,0.002449,-0.000186,0.002458,-0.001222,-87.097097,0.002458,
1130,70,0.009433,-4.963017,0.999999,0.000142,-0.000106,0.001533,0.000084,0.001537,-0.000111,87.074910,0.001715,
800,1310,0.606627,-1.757485,0.999998,0.000191,-0.001524,0.002825,-0.000166,0.002832,-0.001530,-87.820750,0.002835,
1040,70,0.016807,-4.960216,0.999999,0.000141,-0.000136,0.001592,0.000132,0.001602,-0.000146,85.663047,0.001772,
1600,960,-0.735593,-2.702998,0.999998,0.000166,-0.001070,0.002728,-0.000269,0.002747,-0.001089,-85.975055,0.002766,
1470,1630,-0.169164,-0.769179,0.999998,0.000166,-0.000934,0.002184,-0.000186,0.002195,-0.000945,-86.594251,0.002202,
690,1290,0.780656,-1.873922,0.999998,0.000181,-0.001298,0.002569,-0.000185,0.002578,-0.001307,-87.260264,0.002578,
1640,1240,-0.644514,-1.943671,0.999998,0.000169,-0.001495,0.002878,0.000284,0.002896,-0.001514,86.304655,0.002897,
1810,780,-0.841128,-3.108817,0.999998,0.000157,-0.001237,0.002487,-0.000172,0.002495,-0.001245,-87.356801,0.002495,
1580,710,-0.442040,-3.451466,0.999998,0.000191,-0.001653,0.002917,0.000068,0.002918,-0.001654,89.151596,0.002927,
1260,1990,-0.001172,-0.068738,0.999999,0.000140,-0.000058,0.001510,0.000028,0.001511,-0.000058,88.961918,0.001712,
1670,1240,-0.688440,-1.958085,0.999998,0.000182,-0.001420,0.002758,0.000287,0.002778,-0.001440,86.083545,0.002778,
1220,1280,0.006088,-1.158477,0.999998,0.000155,-0.000573,0.000613,0.000177,0.000638,-0.000599,81.707928,0.000716,
1330,1180,-0.235327,-1.441879,0.999985,0.000478,-0.000719,0.000980,-0.000810,0.001305,-0.001044,-68.179234,0.001381,
1680,1660,-0.375294,-0.844603,0.999998,0.000184,-0.001133,0.002480,-0.000027,0.002480,-0.001133,-89.572619,0.002483,
630,1180,0.947291,-2.172510,0.999999,0.000148,-0.001149,0.002377,-0.000153,0.002383,-0.001155,-87.511576,0.002384,
1070,1890,0.039095,-0.235189,0.999998,0.000161,-0.000270,0.001720,-0.000087,0.001723,-0.000274,-87.508150,0.001853,
1180,220,0.017439,-4.721343,0.999998,0.000148,-0.000303,0.001697,0.000005,0.001697,-0.000303,89.856039,0.001810,
1750,380,-0.448372,-4.180189,0.999998,0.000204,-0.001214,0.002527,0.000022,0.002527,-0.001215,89.667398,0.002528,
940,1640,0.216001,-0.779590,0.999998,0.000160,-0.000955,0.002252,0.000122,0.002257,-0.000960,87.816860,0.002265,
630,1740,0.497253,-0.764116,0.999998,0.000162,-0.001177,0.002509,0.000008,0.002509,-0.001177,89.879826,0.002511,
1760,1450,-0.624383,-1.446434,0.999997,0.000196,-0.001330,0.002605,0.000028,0.002605,-0.001331,89.593672,0.002605,
900,1510,0.315175,-1.123847,0.999998,0.000159,-0.001326,0.002515,0.000224,0.002528,-0.001339,86.668924,0.002530,
1600,1770,-0.218404,-0.532832,0.999998,0.000166,-0.000905,0.002274,0.000092,0.002277,-0.000908,88.345690,0.002292,
780,1570,0.437882,-1.072813,0.999998,0.000184,-0.001259,0.002549,0.000082,0.002551,-0.001261,88.769183,0.002551,
950,860,0.495122,-3.054559,0.999998,0.000179,-0.001744,0.003308,0.000145,0.003312,-0.001748,88.360199,0.003314,
1430,370,-0.121389,-4.409980,0.999998,0.000177,-0.000751,0.002041,0.000108,0.002045,-0.000755,87.789055,0.002069,
1830,280,-0.458507,-4.367706,0.999997,0.000196,-0.001224,0.002553,-0.000036,0.002553,-0.001224,-89.456055,0.002554,
1000,750,0.269698,-3.488564,0.999997,0.000182,-0.001826,0.002965,-0.000525,0.003022,-0.001883,-83.814649,0.003053,
1670,1300,-0.627760,-1.790251,0.999998,0.000160,-0.001483,0.002791,0.000188,0.002799,-0.001491,87.484407,0.002801,
1900,500,-0.723401,-3.755729,0.999998,0.000000,-0.001247,0.002532,-0.000021,0.002532,-0.001247,-89.683127,0.002533,
650,710,0.783115,-3.284149,0.999998,0.000164,-0.001275,0.002541,0.000112,0.002545,-0.001279,88.324957,0.002545,
1230,1920,0.000790,-0.176581,0.999999,0.000138,-0.000176,0.001618,-0.000001,0.001618,-0.000176,-89.972253,0.001776,
1820,1570,-0.612278,-1.183126,0.999998,0.000169,-0.001257,0.002539,-0.000037,0.002539,-0.001257,-89.436477,0.002539,
860,860,0.640412,-2.984469,0.999998,0.000165,-0.001466,0.002920,0.000323,0.002943,-0.001489,85.815019,0.002943,
1170,260,0.024108,-4.651950,0.999999,0.000135,-0.000371,0.001747,0.000017,0.001747,-0.000371,89.550919,0.001841,
1030,470,0.144224,-4.202956,0.999998,0.000143,-0.000895,0.002087,-0.000244,0.002107,-0.000915,-85.352287,0.002113,
1770,530,-0.579911,-3.781256,0.999997,0.000201,-0.001296,0.002566,0.000026,0.002567,-0.001296,89.614998,0.002567,
730,1830,0.286513,-0.456874,0.999997,0.000188,-0.001004,0.002462,-0.000267,0.002483,-0.001024,-85.614677,0.002495,
1810,790,-0.849045,-3.084443,0.999998,0.000158,-0.001240,0.002477,-0.000185,0.002487,-0.001249,-87.164685,0.002487,
1330,1850,-0.031322,-0.296590,0.999998,0.000143,-0.000349,0.001702,0.000022,0.001702,-0.000350,89.375856,0.001798,
780,100,0.097795,-4.887728,0.999998,0.000146,-0.000454,0.002064,0.000533,0.002172,-0.000563,78.528550,0.002255,
1120,1960,0.012807,-0.115058,0.999999,0.000158,-0.000145,0.001569,-0.000066,0.001571,-0.000147,-87.804857,0.001736,
1850,650,-0.777837,-3.410067,0.999998,0.000169,-0.001268,0.002549,-0.000050,0.002550,-0.001269,-89.243793,0.002550,
820,440,0.359342,-4.111765,0.999998,0.000181,-0.001177,0.002441,-0.000100,0.002444,-0.001179,-88.412582,0.002445,
960,650,0.280496,-3.708498,0.999998,0.000178,-0.001508,0.002659,-0.000394,0.002696,-0.001545,-84.650763,0.002706,
1550,100,-0.054375,-4.902542,0.999999,0.000158,-0.000216,0.001812,-0.000303,0.001856,-0.000260,-81.677922,0.002010,
1470,1590,-0.181149,-0.855286,0.999998,0.000157,-0.000999,0.002189,-0.000236,0.002207,-0.001017,-85.782519,0.002209,
1500,1390,-0.282123,-1.368115,0.999998,0.000165,-0.001557,0.002740,-0.000412,0.002780,-0.001597,-84.576764,0.002790,
1560,710,-0.409648,-3.470473,0.999997,0.000223,-0.001667,0.002920,0.000135,0.002924,-0.001671,88.310564,0.002934,
580,840,0.976604,-2.924695,0.999999,0.000128,-0.001106,0.002322,0.000034,0.002322,-0.001107,89.438866,0.002323,
1600,940,-0.721534,-2.756324,0.999998,0.000182,-0.001155,0.002773,-0.000304,0.002797,-0.001179,-85.602549,0.002808,
610,450,0.628564,-3.919567,0.999998,0.000164,-0.001252,0.002516,-0.000040,0.002517,-0.001252,-89.387649,0.002517,
1180,200,0.015558,-4.754196,0.999998,0.000149,-0.000278,0.001671,0.000031,0.001671,-0.000278,89.101278,0.001791,
1220,1260,0.007536,-1.170261,0.999998,0.000168,-0.000732,0.000540,0.000165,0.000561,-0.000753,82.728752,0.000782,
1070,1870,0.044323,-0.267870,0.999998,0.000168,-0.000325,0.001726,-0.000072,0.001729,-0.000327,-87.988503,0.001837,
1780,1110,-0.927042,-2.323587,0.999998,0.000146,-0.001121,0.002410,0.000177,0.002418,-0.001130,87.141321,0.002420,
1320,1200,-0.162736,-1.381648,0.999998,0.000176,-0.000985,0.000972,-0.000524,0.001104,-0.001117,-75.914067,0.001282,
1240,1990,-0.001048,-0.068091,0.999999,0.000136,-0.000033,0.001492,0.000009,0.001492,-0.000033,89.676897,0.001704,
1650,1240,-0.659346,-1.949139,0.999998,0.000165,-0.001477,0.002829,0.000279,0.002847,-0.001495,86.311334,0.002848,
840,1510,0.394913,-1.177162,0.999998,0.000165,-0.001345,0.002605,0.000127,0.002610,-0.001349,88.163610,0.002610,
1740,1450,-0.597071,-1.431828,0.999998,0.000184,-0.001366,0.002628,0.000022,0.002628,-0.001366,89.688206,0.002629,
740,610,0.577527,-3.608002,0.999997,0.000203,-0.001371,0.002653,0.000007,0.002653,-0.001371,89.905457,0.002654,
1600,1750,-0.231055,-0.576817,0.999998,0.000166,-0.000942,0.002245,0.000034,0.002245,-0.000942,89.393319,0.002254,
1470,1060,-0.629344,-2.398828,0.999997,0.000212,-0.001209,0.003747,0.000032,0.003747,-0.001209,89.632731,0.003824,
1430,1230,-0.283370,-1.711281,0.999997,0.000196,-0.001991,0.003127,-0.000603,0.003197,-0.002061,-83.369174,0.003242,
1280,1440,-0.029180,-1.000203,0.999998,0.000150,-0.000662,0.001517,-0.000260,0.001547,-0.000693,-83.287062,0.001550,
1730,380,-0.424259,-4.196002,0.999998,0.000178,-0.001222,0.002527,0.000008,0.002527,-0.001222,89.881704,0.002528,
1490,1240,-0.388108,-1.802243,0.999997,0.000187,-0.001961,0.003290,-0.000162,0.003295,-0.001966,-88.236182,0.003315,
610,1760,0.501193,-0.732660,0.999997,0.000197,-0.001218,0.002483,-0.000003,0.002483,-0.001218,-89.954765,0.002483,
940,1620,0.221631,-0.825655,0.999998,0.000151,-0.001009,0.002279,0.000134,0.002284,-0.001014,87.668058,0.002289,
1900,480,-0.708594,-3.806154,0.999998,0.000000,-0.001199,0.002523,0.000021,0.002523,-0.001199,89.674453,0.002524,
1800,1890,-0.281957,-0.353180,0.999998,0.000179,-0.001006,0.002610,0.000481,0.002672,-0.001068,82.555287,0.002690,
860,840,0.615565,-3.044015,0.999998,0.000171,-0.001520,0.002948,0.000287,0.002966,-0.001539,86.341092,0.002967,
1140,1290,0.063545,-1.268625,0.999997,0.000217,-0.001020,0.001513,0.001003,0.001862,-0.001369,70.800445,0.001929,
1330,700,-0.063587,-3.858567,0.999999,0.000123,-0.000932,0.001649,0.000768,0.001861,-0.001143,74.620709,0.001877,
1030,670,0.184174,-3.754772,0.999998,0.000157,-0.001385,0.002423,-0.000632,0.002525,-0.001487,-80.814125,0.002538,
1040,1610,0.132658,-0.779739,0.999998,0.000169,-0.000826,0.002044,0.000199,0.002057,-0.000839,86.045314,0.002069,
990,1460,0.217996,-1.156272,0.999998,0.000152,-0.001298,0.002410,0.000427,0.002458,-0.001346,83.519813,0.002462,
950,140,0.066449,-4.834078,0.999998,0.000167,-0.000358,0.001834,0.000190,0.001851,-0.000374,85.094404,0.001957,
1770,510,-0.566606,-3.832526,0.999998,0.000178,-0.001283,0.002582,0.000041,0.002583,-0.001283,89.392342,0.002583,
780,80,0.076323,-4.926010,0.999999,0.000134,-0.000341,0.001929,0.000541,0.002051,-0.000463,77.256452,0.002152,
950,800,0.413958,-3.252016,0.999998,0.000191,-0.001864,0.003227,-0.000096,0.003228,-0.001866,-88.915161,0.003241,
1380,1820,-0.055103,-0.356683,0.999998,0.000163,-0.000388,0.001788,0.000064,0.001790,-0.000390,88.323816,0.001882,
1120,1940,0.017014,-0.147714,0.999999,0.000141,-0.000204,0.001658,-0.000072,0.001660,-0.000207,-87.800608,0.001810,
1690,1840,-0.236892,-0.413572,0.999998,0.000151,-0.000907,0.002343,0.000289,0.002369,-0.000933,84.957522,0.002387,
1330,1830,-0.034138,-0.331316,0.999999,0.000142,-0.000394,0.001746,-0.000004,0.001746,-0.000394,-89.900242,0.001831,
1730,270,-0.332351,-4.472812,0.999997,0.000182,-0.001047,0.002498,-0.000165,0.002505,-0.001055,-87.341816,0.002516,
1810,770,-0.833350,-3.132851,0.999998,0.000153,-0.001240,0.002503,-0.000170,0.002511,-0.001247,-87.405866,0.002511,
690,1270,0.798476,-1.924261,0.999998,0.000169,-0.001278,0.002548,-0.000210,0.002559,-0.001290,-86.873841,0.002559,
1470,1570,-0.184187,-0.899872,0.999998,0.000151,-0.001022,0.002204,-0.000264,0.002226,-0.001044,-85.356619,0.002227,
1640,1220,-0.667236,-2.000737,0.999998,0.000162,-0.001469,0.002838,0.000317,0.002861,-0.001492,85.813485,0.002862,
650,910,0.943386,-2.792396,0.999998,0.000155,-0.001133,0.002320,0.000135,0.002325,-0.001138,87.765398,0.002325,
1850,610,-0.745286,-3.513101,0.999998,0.000192,-0.001269,0.002552,-0.000014,0.002552,-0.001269,-89.794945,0.002552,
730,1810,0.307965,-0.506886,0.999998,0.000181,-0.001045,0.002498,-0.000212,0.002511,-0.001058,-86.586909,0.002521,
820,420,0.348874,-4.160613,0.999998,0.000168,-0.001143,0.002477,-0.000077,0.002479,-0.001145,-88.777089,0.002481,
1460,510,-0.181674,-4.094068,0.999998,0.000161,-0.001041,0.002252,0.000310,0.002281,-0.001070,84.664840,0.002283,
1600,920,-0.701751,-2.812704,0.999998,0.000177,-0.001236,0.002826,-0.000367,0.002858,-0.001269,-84.883012,0.002864,
1280,70,-0.003902,-4.962872,0.999999,0.000130,-0.000055,0.001520,-0.000036,0.001521,-0.000056,-88.692029,0.001724,
1500,1370,-0.292352,-1.423694,0.999997,0.000194,-0.001620,0.002779,-0.000409,0.002817,-0.001658,-84.727434,0.002832,
1760,1110,-0.904326,-2.320101,0.999998,0.000166,-0.001129,0.002443,0.000196,0.002454,-0.001140,86.874016,0.002456,
990,170,0.069398,-4.783675,0.999999,0.000138,-0.000353,0.001859,0.000178,0.001873,-0.000367,85.439983,0.001985,
610,1620,0.617523,-1.084036,0.999997,0.000192,-0.001240,0.002482,0.000044,0.002482,-0.001241,89.327179,0.002482,
1480,1030,-0.653790,-2.511633,0.999997,0.000222,-0.001061,0.003463,-0.000002,0.003463,-0.001061,-89.975764,0.003548,
1680,1640,-0.388740,-0.894097,0.999998,0.000171,-0.001180,0.002497,-0.000050,0.002498,-0.001181,-89.219732,0.002499,
1010,1140,0.486165,-2.078654,0.999997,0.000208,-0.001658,0.003616,0.000100,0.003618,-0.001659,88.912473,0.003622,
1030,1400,0.181132,-1.247921,0.999998,0.000174,-0.001356,0.002389,0.000608,0.002485,-0.001452,81.002651,0.002497,
810,300,0.277882,-4.446904,0.999998,0.000198,-0.001038,0.002364,0.000099,0.002367,-0.001040,88.340216,0.002373,
810,1460,0.469035,-1.336162,0.999997,0.000185,-0.001413,0.002687,0.000069,0.002688,-0.001414,89.041627,0.002689,
1740,1430,-0.614162,-1.484503,0.999998,0.000184,-0.001356,0.002634,0.000029,0.002634,-0.001356,89.587693,0.002634,
960,1990,0.022730,-0.073825,0.999999,0.000111,-0.000171,0.001636,-0.000211,0.001660,-0.000196,-83.431649,0.001814,
1800,1870,-0.311773,-0.404826,0.999997,0.000204,-0.001051,0.002550,0.000371,0.002588,-0.001089,84.176197,0.002598,
860,820,0.592915,-3.102379,0.999997,0.000192,-0.001574,0.002970,0.000252,0.002983,-0.001588,86.841008,0.002985,
570,840,0.987546,-2.916792,0.999999,0.000134,-0.001102,0.002316,0.000016,0.002316,-0.001102,89.732140,0.002317,
1430,1190,-0.344936,-1.844918,0.999998,0.000173,-0.001869,0.003415,-0.000542,0.003470,-0.001924,-84.203815,0.003477,
1220,1240,0.013551,-1.178337,0.999998,0.000156,-0.001070,0.000549,0.000137,0.000560,-0.001082,85.192935,0.001082,
1900,210,-0.463977,-4.466184,0.999997,0.000000,-0.001219,0.002434,-0.000071,0.002436,-0.001220,-88.881244,0.002436,
610,430,0.612855,-3.969543,0.999998,0.000171,-0.001270,0.002505,-0.000047,0.002506,-0.001271,-89.287325,0.002506,
990,260,0.109225,-4.613120,0.999998,0.000181,-0.000547,0.001979,0.000105,0.001983,-0.000552,87.617894,0.002047,
1770,490,-0.552100,-3.885163,0.999998,0.000184,-0.001273,0.002569,0.000053,0.002570,-0.001274,89.209182,0.002570,
700,770,0.772049,-3.158578,0.999998,0.000164,-0.001306,0.002601,0.000209,0.002612,-0.001317,86.947612,0.002612,
1520,140,-0.069212,-4.832932,0.999999,0.000135,-0.000357,0.001807,-0.000230,0.001831,-0.000381,-84.005426,0.001932,
780,60,0.049944,-4.965006,0.999999,0.000151,-0.000262,0.001868,0.000539,0.001996,-0.000390,76.584621,0.002116,
650,50,0.066314,-4.973067,0.999999,0.000138,-0.000424,0.002224,0.000913,0.002508,-0.000708,72.699831,0.002586,
900,1380,0.389495,-1.471364,0.999997,0.000198,-0.001605,0.002845,0.000183,0.002852,-0.001612,87.653702,0.002860,
1010,200,0.074925,-4.732964,0.999998,0.000160,-0.000379,0.001839,0.000119,0.001845,-0.000386,86.941171,0.001947,
600,1690,0.575148,-0.916121,0.999998,0.000188,-0.001229,0.002480,0.000018,0.002480,-0.001229,89.723095,0.002480,
1140,1230,0.105106,-1.355856,0.999998,0.000162,-0.001177,0.001397,0.001009,0.001745,-0.001526,70.948075,0.001901,
730,1790,0.328458,-0.557539,0.999998,0.000189,-0.001066,0.002471,-0.000173,0.002479,-0.001074,-87.205445,0.002487,
1000,730,0.258003,-3.545644,0.999997,0.000203,-0.001740,0.002813,-0.000559,0.002880,-0.001808,-83.105303,0.002912,
1850,70,-0.146851,-4.893505,0.999998,0.000155,-0.001140,0.002772,-0.000681,0.002888,-0.001256,-80.398704,0.002896,
1470,1550,-0.190591,-0.942973,0.999998,0.000153,-0.001061,0.002225,-0.000276,0.002248,-0.001084,-85.224331,0.002248,
830,100,0.077674,-4.893043,0.999999,0.000131,-0.000290,0.001920,0.000445,0.002006,-0.000376,79.039182,0.002133,
980,2020,0.007346,-0.025571,0.999999,0.000000,0.000005,0.001546,-0.000187,0.001569,-0.000018,-83.164922,0.001801,
1030,910,0.443275,-3.029977,0.999997,0.000194,-0.001693,0.003638,-0.000449,0.003675,-0.001730,-85.215716,0.003678,
1810,970,-0.968984,-2.652690,0.999998,0.000156,-0.001079,0.002299,-0.000048,0.002299,-0.001079,-89.188469,0.002301,
820,400,0.335656,-4.210864,0.999998,0.000181,-0.001109,0.002459,-0.000056,0.002460,-0.001109,-89.095532,0.002463,
1400,610,-0.133724,-3.935966,0.999998,0.000168,-0.001099,0.002143,0.000562,0.002238,-0.001194,80.437091,0.002239,
1560,440,-0.265785,-4.175756,0.999998,0.000168,-0.001097,0.002369,0.000152,0.002375,-0.001104,87.488634,0.002377,
780,1310,0.638015,-1.770846,0.999998,0.000172,-0.001473,0.002766,-0.000182,0.002774,-0.001481,-87.545170,0.002776,
1280,1420,-0.027522,-1.029860,0.999998,0.000160,-0.000655,0.001457,-0.000298,0.001498,-0.000696,-82.129471,0.001499,
1000,1990,0.016976,-0.073101,0.999999,0.000123,-0.000090,0.001626,-0.000201,0.001649,-0.000114,-83.402378,0.001842,
760,1530,0.490099,-1.192538,0.999998,0.000190,-0.001299,0.002612,0.000067,0.002614,-0.001300,89.014925,0.002614,
1020,330,0.119252,-4.482579,0.999998,0.000151,-0.000676,0.002032,-0.000031,0.002032,-0.000676,-89.350053,0.002070,
1560,550,-0.313497,-3.905817,0.999998,0.000188,-0.001333,0.002527,0.000212,0.002539,-0.001345,86.859841,0.002540,
1070,1850,0.050543,-0.303324,0.999998,0.000165,-0.000383,0.001782,-0.000079,0.001785,-0.000386,-87.917081,0.001879,
1120,1920,0.019274,-0.181825,0.999999,0.000121,-0.000237,0.001609,-0.000071,0.001611,-0.000240,-87.810121,0.001739,
900,1620,0.266030,-0.855341,0.999998,0.000165,-0.001093,0.002378,0.000140,0.002383,-0.001098,87.694578,0.002386,
1640,1200,-0.685825,-2.056512,0.999998,0.000175,-0.001443,0.002796,0.000342,0.002823,-0.001470,85.418785,0.002824,
860,1370,0.461193,-1.539779,0.999997,0.000216,-0.001559,0.002860,0.000046,0.002861,-0.001560,89.405109,0.002864,
1330,730,-0.064250,-3.809869,0.999999,0.000149,-0.001000,0.001620,0.000887,0.001892,-0.001272,72.947963,0.001929,
1820,1170,-0.937698,-2.190985,0.999999,0.000151,-0.001141,0.002354,0.000150,0.002361,-0.001148,87.552852,0.002361,
1050,1400,0.153415,-1.219267,0.999998,0.000157,-0.001295,0.002280,0.000634,0.002389,-0.001404,80.234983,0.002401,
1300,1670,-0.038558,-0.612066,0.999999,0.000134,-0.000565,0.001793,-0.000049,0.001794,-0.000566,-88.821588,0.001834,
1830,400,-0.563003,-4.063834,0.999997,0.000199,-0.001256,0.002497,0.000018,0.002497,-0.001256,89.732719,0.002497,
1790,160,-0.262161,-4.706102,0.999998,0.000195,-0.000992,0.002575,-0.000505,0.002645,-0.001063,-82.093600,0.002662,
1310,1860,-0.022484,-0.277676,0.999999,0.000144,-0.000270,0.001678,0.000055,0.001680,-0.000271,88.374781,0.001803,
1770,470,-0.537533,-3.935992,0.999997,0.000196,-0.001255,0.002547,0.000052,0.002548,-0.001256,89.210751,0.002548,
1630,1240,-0.628204,-1.937870,0.999998,0.000173,-0.001513,0.002919,0.000279,0.002937,-0.001530,86.406001,0.002938,
690,1250,0.817334,-1.975536,0.999999,0.000151,-0.001272,0.002566,-0.000217,0.002578,-0.001285,-86.771714,0.002578,
990,200,0.081033,-4.730661,0.999998,0.000160,-0.000411,0.001863,0.000146,0.001872,-0.000421,86.336288,0.001964,
720,1810,0.319191,-0.514076,0.999998,0.000191,-0.001116,0.002515,-0.000179,0.002523,-0.001125,-87.181495,0.002528,
1900,200,-0.451243,-4.490246,0.999997,0.000000,-0.001221,0.002432,-0.000085,0.002434,-0.001223,-88.663840,0.002434,
1180,180,0.014145,-4.788202,0.999998,0.000150,-0.000236,0.001672,0.000011,0.001672,-0.000236,89.670129,0.001810,
760,1710,0.365579,-0.738348,0.999998,0.000157,-0.001107,0.002468,-0.000047,0.002468,-0.001108,-89.238961,0.002473,
1470,1530,-0.195629,-0.987376,0.999999,0.000147,-0.001114,0.002295,-0.000318,0.002324,-0.001143,-84.723066,0.002324,
1570,940,-0.686876,-2.766264,0.999998,0.000170,-0.001158,0.002906,-0.000330,0.002933,-0.001184,-85.383329,0.002951,
970,1460,0.243366,-1.178130,0.999998,0.000148,-0.001321,0.002471,0.000383,0.002509,-0.001360,84.294803,0.002512,
730,1770,0.349425,-0.604836,0.999998,0.000179,-0.001098,0.002517,-0.000139,0.002523,-0.001104,-87.794708,0.002529,
1220,820,0.012563,-3.859457,0.999998,0.000153,-0.001204,0.000602,-0.000094,0.000607,-0.001209,-87.021503,0.001209,
760,1250,0.724510,-1.945647,0.999998,0.000186,-0.001404,0.002687,-0.000249,0.002702,-0.001419,-86.536370,0.002703,
1730,250,-0.311357,-4.522906,0.999998,0.000186,-0.001022,0.002482,-0.000226,0.002496,-0.001037,-86.330786,0.002508,
1880,1560,-0.695215,-1.256401,0.999998,0.000169,-0.001238,0.002523,-0.000019,0.002523,-0.001238,-89.705711,0.002524,
770,1990,0.057053,-0.087032,0.999999,0.000124,-0.000273,0.001904,-0.000566,0.002042,-0.000411,-76.260307,0.002160,
830,80,0.058289,-4.929688,0.999999,0.000131,-0.000231,0.001874,0.000474,0.001976,-0.000333,77.868658,0.002115,
650,1150,0.943115,-2.235128,0.999999,0.000141,-0.001148,0.002337,-0.000138,0.002342,-0.001153,-87.737952,0.002343,
940,1600,0.231430,-0.871227,0.999999,0.000155,-0.001057,0.002311,0.000182,0.002321,-0.001067,86.908570,0.002323,
980,30,0.004811,-5.023867,0.999999,0.000000,-0.000087,0.001648,0.000189,0.001669,-0.000108,83.844746,0.001868,
1010,1120,0.523949,-2.152646,0.999997,0.000196,-0.001543,0.003739,0.000094,0.003740,-0.001545,88.983578,0.003759,
610,410,0.598992,-4.018804,0.999998,0.000183,-0.001275,0.002527,-0.000035,0.002527,-0.001275,-89.478170,0.002527,
1840,1980,-0.146117,-0.149851,0.999998,0.000146,-0.001151,0.002695,0.000652,0.002803,-0.001259,80.635809,0.002807,
1610,420,-0.309086,-4.187591,0.999998,0.000161,-0.001115,0.002435,0.000102,0.002438,-0.001118,88.351338,0.002441,
1420,1730,-0.103457,-0.536781,0.999998,0.000168,-0.000705,0.001964,-0.000050,0.001965,-0.000706,-88.921493,0.001991,
1650,1000,-0.805844,-2.591134,0.999998,0.000164,-0.001000,0.002525,-0.000115,0.002529,-0.001004,-88.140005,0.002547,
860,800,0.570462,-3.162537,0.999998,0.000191,-0.001626,0.002982,0.000214,0.002992,-0.001636,87.341320,0.002996,
1280,1400,-0.028072,-1.057021,0.999999,0.000156,-0.000640,0.001408,-0.000356,0.001468,-0.000700,-80.405887,0.001468,
1430,1170,-0.385972,-1.913235,0.999998,0.000180,-0.001766,0.003501,-0.000518,0.003552,-0.001816,-84.431988,0.003552,
1070,1830,0.057321,-0.340616,0.999998,0.000153,-0.000418,0.001808,-0.000052,0.001809,-0.000419,-88.675055,0.001894,
1550,720,-0.401368,-3.453129,0.999998,0.000220,-0.001705,0.002968,0.000139,0.002972,-0.001709,88.295071,0.002984,
1600,160,-0.121288,-4.778361,0.999998,0.000149,-0.000541,0.002033,-0.000306,0.002069,-0.000577,-83.307685,0.002136,
1380,1800,-0.059914,-0.393152,0.999998,0.000173,-0.000421,0.001811,0.000054,0.001812,-0.000422,88.610576,0.001896,
760,1510,0.503082,-1.244319,0.999998,0.000179,-0.001317,0.002611,0.000071,0.002612,-0.001318,88.969392,0.002612,
1020,470,0.154305,-4.194510,0.999999,0.000137,-0.000941,0.002122,-0.000265,0.002145,-0.000964,-85.083076,0.002148,
1330,680,-0.064975,-3.891065,0.999998,0.000147,-0.000877,0.001655,0.000710,0.001840,-0.001062,75.358616,0.001847,
1020,1860,0.068065,-0.295854,0.999998,0.000200,-0.000431,0.001846,-0.000098,0.001851,-0.000435,-87.539872,0.001935,
820,380,0.324781,-4.259880,0.999998,0.000188,-0.001084,0.002456,-0.000021,0.002456,-0.001084,-89.652759,0.002462,
1810,1210,-0.896099,-2.090145,0.999998,0.000152,-0.001181,0.002421,0.000196,0.002432,-0.001192,86.902752,0.002432,
990,150,0.057209,-4.821815,0.999999,0.000129,-0.000313,0.001807,0.000185,0.001823,-0.000329,85.056748,0.001943,
1680,1620,-0.400815,-0.943831,0.999998,0.000179,-0.001217,0.002507,-0.000062,0.002508,-0.001218,-89.039313,0.002509,
600,1090,1.024098,-2.384014,0.999998,0.000184,-0.001016,0.002152,-0.000017,0.002152,-0.001016,-89.686351,0.002153,
850,940,0.736765,-2.753440,0.999998,0.000164,-0.001134,0.002745,0.000310,0.002770,-0.001158,85.465785,0.002782,
900,640,0.365661,-3.667459,0.999997,0.000195,-0.001528,0.002733,-0.000229,0.002745,-0.001540,-86.930961,0.002752,
1340,330,-0.056434,-4.519822,0.999998,0.000173,-0.000566,0.001837,0.000068,0.001839,-0.000568,88.375716,0.001883,
1860,1510,-0.707614,-1.367640,0.999998,0.000169,-0.001248,0.002552,-0.000010,0.002552,-0.001248,-89.843168,0.002552,
1870,930,-1.017609,-2.730978,0.999998,0.000178,-0.001080,0.002221,-0.000093,0.002223,-0.001083,-88.390288,0.002224,
1330,1810,-0.038756,-0.366475,0.999998,0.000145,-0.000432,0.001743,-0.000008,0.001743,-0.000432,-89.782899,0.001815,
1560,420,-0.255109,-4.220764,0.999998,0.000162,-0.001085,0.002361,0.000138,0.002366,-0.001091,87.702659,0.002369,
1170,1480,0.038186,-0.944150,0.999999,0.000155,-0.000705,0.001639,0.000272,0.001671,-0.000736,83.472146,0.001675,
1380,1170,-0.302424,-1.713490,0.999998,0.000196,-0.001281,0.002419,-0.001228,0.002790,-0.001651,-73.219334,0.002805,
980,1990,0.020037,-0.072102,0.999999,0.000115,-0.000123,0.001630,-0.000209,0.001654,-0.000147,-83.293723,0.001831,
1200,1790,0.012729,-0.394339,0.999998,0.000189,-0.000403,0.001725,0.000013,0.001725,-0.000403,89.641157,0.001805,
650,40,0.044548,-4.994083,0.999999,0.000135,-0.000354,0.002164,0.000934,0.002473,-0.000662,71.715823,0.002560,
1640,1180,-0.710371,-2.113548,0.999998,0.000182,-0.001388,0.002792,0.000350,0.002821,-0.001417,85.247587,0.002821,
1750,980,-0.906551,-2.635226,0.999999,0.000137,-0.001071,0.002388,-0.000082,0.002390,-0.001073,-88.647703,0.002394,
1530,1860,-0.107712,-0.314318,0.999998,0.000151,-0.000476,0.001997,0.000204,0.002014,-0.000492,85.304605,0.002100,
1520,120,-0.058102,-4.867258,0.999999,0.000125,-0.000298,0.001805,-0.000255,0.001836,-0.000328,-83.184985,0.001958,
970,260,0.121834,-4.607430,0.999998,0.000183,-0.000676,0.002009,0.000071,0.002011,-0.000677,88.495951,0.002046,
1900,190,-0.438112,-4.514157,0.999997,0.000000,-0.001236,0.002466,-0.000111,0.002469,-0.001239,-88.280950,0.002469,
1180,160,0.013591,-4.821571,0.999998,0.000149,-0.000212,0.001655,0.000037,0.001656,-0.000212,88.860926,0.001802,
1770,450,-0.524491,-3.985403,0.999998,0.000175,-0.001242,0.002538,0.000032,0.002538,-0.001242,89.516058,0.002538,
740,1710,0.388552,-0.750658,0.999998,0.000179,-0.001192,0.002500,-0.000039,0.002500,-0.001192,-89.390882,0.002501,
810,1440,0.482231,-1.390501,0.999997,0.000179,-0.001440,0.002702,0.000045,0.002703,-0.001440,89.380568,0.002704,
970,200,0.093242,-4.724882,0.999998,0.000180,-0.000533,0.001902,0.000143,0.001910,-0.000541,86.643556,0.001969,
610,390,0.584643,-4.069944,0.999998,0.000169,-0.001264,0.002487,-0.000034,0.002487,-0.001264,-89.478054,0.002487,
1120,1900,0.026071,-0.211645,0.999999,0.000116,-0.000277,0.001621,-0.000074,0.001624,-0.000280,-87.781230,0.001736,
1890,1560,-0.707541,-1.263486,0.999998,0.000179,-0.001232,0.002524,-0.000021,0.002524,-0.001232,-89.676614,0.002525,
790,30,0.016067,-5.018119,0.999999,0.000000,-0.000126,0.001760,0.000469,0.001870,-0.000236,76.783684,0.002036,
1280,1670,-0.026919,-0.609015,0.999998,0.000188,-0.000550,0.001791,-0.000046,0.001792,-0.000551,-88.869933,0.001836,
1470,1510,-0.199246,-1.034895,0.999999,0.000138,-0.001174,0.002306,-0.000361,0.002343,-0.001211,-84.135836,0.002344,
1730,230,-0.291485,-4.571314,0.999998,0.000171,-0.000975,0.002467,-0.000269,0.002488,-0.000996,-85.553272,0.002505,
770,1970,0.085080,-0.126415,0.999999,0.000129,-0.000361,0.001984,-0.000555,0.002109,-0.000486,-77.344490,0.002209,
1370,820,-0.164190,-3.527029,0.999998,0.000165,-0.001636,0.002409,0.001100,0.002689,-0.001915,75.729425,0.002769,
1200,1730,0.015287,-0.501385,0.999998,0.000179,-0.000486,0.001772,0.000038,0.001773,-0.000487,89.033358,0.001832,
1600,790,-0.553634,-3.195865,0.999997,0.000189,-0.001623,0.003000,-0.000182,0.003007,-0.001630,-87.753842,0.003011,
790,1060,0.828509,-2.438531,0.999998,0.000168,-0.001031,0.002552,-0.000103,0.002555,-0.001034,-88.347138,0.002571,
650,170,0.300663,-4.665301,0.999998,0.000185,-0.001070,0.002608,0.000371,0.002645,-0.001107,84.303289,0.002657,
570,460,0.691581,-3.861411,0.999885,0.001314,-0.002494,0.002779,-0.000075,0.002780,-0.002495,-89.182668,0.003058,
860,780,0.547481,-3.220887,0.999998,0.000181,-0.001653,0.002962,0.000159,0.002967,-0.001658,88.034139,0.002974,
690,1230,0.835572,-2.026516,0.999998,0.000145,-0.001246,0.002519,-0.000227,0.002532,-0.001260,-86.564543,0.002532,
1630,1000,-0.786596,-2.592027,0.999998,0.000169,-0.000976,0.002582,-0.000106,0.002585,-0.000979,-88.302919,0.002611,
1840,1960,-0.195042,-0.202609,0.999998,0.000146,-0.001175,0.002651,0.000541,0.002726,-0.001250,82.099951,0.002729,
640,1310,0.827675,-1.850690,0.999999,0.000141,-0.001266,0.002487,-0.000129,0.002492,-0.001270,-88.027936,0.002492,
570,710,0.883596,-3.226945,0.999984,0.000445,-0.001438,0.002342,0.000165,0.002349,-0.001445,87.499234,0.002370,
1400,590,-0.130089,-3.979206,0.999998,0.000143,-0.001058,0.002086,0.000500,0.002164,-0.001136,81.184905,0.002164,
1430,1150,-0.427288,-1.982793,0.999997,0.000194,-0.001708,0.003612,-0.000511,0.003661,-0.001756,-84.566589,0.003662,
1330,620,-0.064821,-3.993251,0.999998,0.000155,-0.000799,0.001721,0.000485,0.001811,-0.000889,79.470587,0.001811,
1560,400,-0.246678,-4.269923,0.999998,0.000163,-0.001039,0.002328,0.000101,0.002331,-0.001042,88.287422,0.002336,
1700,1190,-0.777867,-2.105977,0.999998,0.000174,-0.001291,0.002635,0.000269,0.002654,-0.001309,86.097585,0.002654,
1680,1600,-0.414428,-0.995024,0.999998,0.000178,-0.001246,0.002526,-0.000076,0.002527,-0.001247,-88.842382,0.002527,
1280,330,-0.024052,-4.528839,0.999998,0.000176,-0.000480,0.001788,0.000025,0.001788,-0.000480,89.378068,0.001851,
890,1920,0.084120,-0.205139,0.999999,0.000127,-0.000430,0.001907,-0.000299,0.001944,-0.000468,-82.817325,0.002030,
990,130,0.049532,-4.856235,0.999999,0.000147,-0.000253,0.001735,0.000195,0.001754,-0.000272,84.441717,0.001888,
630,1100,0.990261,-2.356499,0.999998,0.000198,-0.001086,0.002259,-0.000081,0.002261,-0.001088,-88.619296,0.002262,
1020,1820,0.084536,-0.370647,0.999998,0.000170,-0.000512,0.001904,-0.000098,0.001908,-0.000516,-87.679536,0.001973,
940,1800,0.141087,-0.434144,0.999998,0.000164,-0.000697,0.002087,-0.000102,0.002091,-0.000700,-87.899297,0.002129,
1810,230,-0.381467,-4.512860,0.999997,0.000191,-0.001153,0.002549,-0.000207,0.002561,-0.001165,-86.802794,0.002564,
1380,1780,-0.065186,-0.429211,0.999998,0.000188,-0.000455,0.001848,0.000028,0.001848,-0.000455,89.291250,0.001926,
820,580,0.444583,-3.752827,0.999997,0.000180,-0.001425,0.002614,-0.000097,0.002617,-0.001427,-88.621015,0.002620,
1030,260,0.088802,-4.624153,0.999998,0.000144,-0.000559,0.001891,0.000020,0.001891,-0.000559,89.536135,0.001943,
1510,1860,-0.099261,-0.309370,0.999998,0.000177,-0.000544,0.001950,0.000158,0.001960,-0.000554,86.397611,0.002021,
1770,430,-0.511002,-4.037895,0.999998,0.000172,-0.001244,0.002527,0.000019,0.002527,-0.001244,89.712102,0.002527,
1380,1150,-0.354881,-1.760018,0.999997,0.000189,-0.000983,0.002579,-0.001547,0.003157,-0.001561,-69.511244,0.003157,
1350,1540,-0.080474,-0.871089,0.999998,0.000152,-0.000771,0.001870,-0.000275,0.001898,-0.000799,-84.112910,0.001906,
1600,900,-0.680251,-2.868726,0.999998,0.000181,-0.001315,0.002871,-0.000365,0.002902,-0.001347,-85.052548,0.002905,
610,900,0.983301,-2.804295,0.999998,0.000137,-0.001096,0.002251,0.000105,0.002254,-0.001100,88.202964,0.002255,
1330,1770,-0.044251,-0.438595,0.999998,0.000158,-0.000541,0.001831,-0.000030,0.001831,-0.000542,-89.283497,0.001881,
1900,180,-0.422866,-4.539253,0.999998,0.000000,-0.001265,0.002511,-0.000125,0.002515,-0.001269,-88.105788,0.002515,
1640,1160,-0.728380,-2.169232,0.999998,0.000180,-0.001289,0.002743,0.000317,0.002768,-0.001313,85.532204,0.002769,
1180,1990,0.003406,-0.068909,0.999999,0.000130,-0.000052,0.001505,-0.000040,0.001506,-0.000054,-88.538541,0.001709,
1030,220,0.072895,-4.700014,0.999998,0.000158,-0.000435,0.001863,0.000040,0.001864,-0.000436,89.006294,0.001950,
610,370,0.567865,-4.119859,0.999998,0.000169,-0.001246,0.002504,-0.000024,0.002504,-0.001246,-89.627997,0.002504,
1080,80,0.014790,-4.945840,0.999999,0.000141,-0.000098,0.001581,0.000122,0.001590,-0.000107,85.874774,0.001778,
1120,1880,0.028824,-0.246310,0.999998,0.000154,-0.000309,0.001724,-0.000030,0.001724,-0.000310,-89.166936,0.001838,
1530,720,-0.366115,-3.475517,0.999998,0.000184,-0.001733,0.002950,0.000223,0.002961,-0.001743,87.273850,0.002976,
600,1790,0.483649,-0.669027,0.999997,0.000207,-0.001209,0.002485,-0.000025,0.002486,-0.001209,-89.605016,0.002486,
1150,1300,0.052049,-1.233643,0.999999,0.000152,-0.000916,0.001391,0.000914,0.001709,-0.001234,70.807672,0.001764,
1730,210,-0.265647,-4.621119,0.999998,0.000177,-0.000945,0.002472,-0.000324,0.002503,-0.000975,-84.631625,0.002523,
970,1440,0.250615,-1.228242,0.999998,0.000172,-0.001399,0.002520,0.000419,0.002565,-0.001444,83.959264,0.002571,
1120,1730,0.057261,-0.513623,0.999998,0.000148,-0.000544,0.001844,0.000056,0.001845,-0.000546,88.647329,0.001896,
770,1780,0.297869,-0.558245,0.999998,0.000177,-0.001033,0.002432,-0.000146,0.002438,-0.001039,-87.590591,0.002447,
820,410,0.342759,-4.186357,0.999998,0.000163,-0.001114,0.002471,-0.000063,0.002472,-0.001115,-88.997204,0.002476,
970,2020,0.007175,-0.025638,0.999999,0.000000,-0.000054,0.001558,-0.000211,0.001585,-0.000081,-82.667416,0.001785,
650,140,0.252734,-4.743840,0.999998,0.000170,-0.000980,0.002620,0.000508,0.002691,-0.001051,82.121225,0.002712,
770,1950,0.107375,-0.165440,0.999998,0.000142,-0.000472,0.002117,-0.000541,0.002226,-0.000580,-78.670486,0.002309,
860,980,0.753259,-2.645802,0.999998,0.000193,-0.000981,0.002691,0.000196,0.002701,-0.000991,86.959580,0.002733,
1600,770,-0.533188,-3.254680,0.999997,0.000176,-0.001647,0.002950,-0.000121,0.002953,-0.001651,-88.494296,0.002960,
1850,1740,-0.517146,-0.780249,0.999998,0.000193,-0.001231,0.002516,0.000004,0.002516,-0.001231,89.936842,0.002516,
1180,140,0.009708,-4.854081,0.999999,0.000130,-0.000170,0.001567,0.000041,0.001568,-0.000171,88.652007,0.001720,
1280,1650,-0.028483,-0.645778,0.999998,0.000196,-0.000565,0.001780,-0.000029,0.001781,-0.000565,-89.299133,0.001820,
600,710,0.845552,-3.249054,0.999998,0.000177,-0.001237,0.002491,0.000057,0.002492,-0.001238,89.118555,0.002492,
1510,1310,-0.350763,-1.610918,0.999998,0.000173,-0.001796,0.003022,-0.000256,0.003035,-0.001809,-86.971719,0.003054,
1810,400,-0.536695,-4.079600,0.999997,0.000209,-0.001258,0.002496,0.000033,0.002497,-0.001258,89.498261,0.002497,
650,130,0.234518,-4.770507,0.999998,0.000153,-0.000943,0.002627,0.000568,0.002716,-0.001031,81.167562,0.002742,
1750,960,-0.900419,-2.683399,0.999999,0.000148,-0.001098,0.002459,-0.000142,0.002465,-0.001104,-87.710405,0.002470,
1680,910,-0.791588,-2.819952,0.999998,0.000170,-0.001199,0.002637,-0.000307,0.002662,-0.001224,-85.454821,0.002665,
1840,1940,-0.235893,-0.256194,0.999998,0.000152,-0.001176,0.002690,0.000382,0.002727,-0.001213,84.414836,0.002732,
1840,1510,-0.683686,-1.353034,0.999998,0.000171,-0.001276,0.002544,-0.000035,0.002545,-0.001276,-89.470029,0.002545,
1260,330,-0.014716,-4.530526,0.999998,0.000164,-0.000509,0.001775,0.000032,0.001776,-0.000509,89.191343,0.001829,
1870,890,-0.996348,-2.819406,0.999999,0.000133,-0.001089,0.002201,-0.000060,0.002202,-0.001090,-88.963591,0.002202,
1400,570,-0.127468,-4.020662,0.999998,0.000149,-0.001025,0.002043,0.000452,0.002109,-0.001090,81.785054,0.002109,
1430,1130,-0.467537,-2.058539,0.999997,0.000193,-0.001641,0.003741,-0.000553,0.003797,-0.001697,-84.192054,0.003804,
1810,190,-0.329880,-4.616511,0.999998,0.000188,-0.001084,0.002590,-0.000307,0.002616,-0.001110,-85.248590,0.002626,
990,110,0.039778,-4.891946,0.999999,0.000169,-0.000178,0.001719,0.000217,0.001743,-0.000202,83.548259,0.001907,
770,1120,0.823012,-2.286155,0.999998,0.000190,-0.001134,0.002574,-0.000215,0.002587,-0.001146,-86.691405,0.002592,
1600,860,-0.635665,-2.985638,0.999997,0.000193,-0.001486,0.002948,-0.000317,0.002970,-0.001509,-85.927935,0.002970,
1020,1280,0.252602,-1.586040,0.999997,0.000196,-0.001871,0.002967,0.000620,0.003045,-0.001949,82.814664,0.003085,
820,820,0.653822,-3.080291,0.999998,0.000184,-0.001464,0.002857,0.000312,0.002880,-0.001486,85.895841,0.002880,
1370,1920,-0.026463,-0.181489,0.999999,0.000105,-0.000191,0.001645,0.000101,0.001651,-0.000197,86.848239,0.001803,
1900,170,-0.407368,-4.565252,0.999998,0.000000,-0.001284,0.002543,-0.000142,0.002548,-0.001289,-87.875610,0.002548,
1090,1860,0.041496,-0.284749,0.999998,0.000148,-0.000265,0.001743,-0.000087,0.001747,-0.000269,-87.524610,0.001881,
1490,1540,-0.215083,-0.983239,0.999998,0.000156,-0.001127,0.002321,-0.000291,0.002345,-0.001152,-85.214950,0.002345,
1370,1150,-0.346425,-1.702912,0.999998,0.000163,-0.000793,0.002296,-0.001545,0.002936,-0.001433,-67.495493,0.002937,
1130,1320,0.068342,-1.243526,0.999999,0.000132,-0.001027,0.001633,0.000909,0.001914,-0.001308,72.830304,0.001957,
1330,1750,-0.046776,-0.474804,0.999998,0.000138,-0.000566,0.001805,-0.000056,0.001806,-0.000567,-88.648852,0.001847,
1170,200,0.018142,-4.753759,0.999998,0.000147,-0.000269,0.001670,0.000049,0.001672,-0.000270,88.558146,0.001795,
1770,410,-0.494957,-4.087754,0.999997,0.000193,-0.001232,0.002536,0.000031,0.002536,-0.001232,89.535200,0.002537,
610,350,0.551455,-4.169956,0.999997,0.000184,-0.001230,0.002489,-0.000036,0.002489,-0.001231,-89.438290,0.002489,
1560,380,-0.234207,-4.316321,0.999998,0.000149,-0.000985,0.002284,0.000064,0.002285,-0.000986,88.871509,0.002292,
570,1490,0.770658,-1.451720,0.999908,0.001129,-0.001853,0.002116,0.000402,0.002156,-0.001893,84.273645,0.002353,
590,1690,0.587082,-0.925552,0.999998,0.000182,-0.001501,0.002337,0.000097,0.002339,-0.001503,88.546240,0.002371,
1580,770,-0.499276,-3.271297,0.999996,0.000219,-0.001692,0.003001,-0.000072,0.003002,-0.001693,-89.119704,0.003010,
860,1220,0.610232,-1.980594,0.999997,0.000185,-0.001553,0.002964,-0.000277,0.002981,-0.001570,-86.500286,0.002982,
960,2020,0.007840,-0.025963,0.999999,0.000000,-0.000118,0.001587,-0.000214,0.001613,-0.000145,-82.966883,0.001785,
770,1060,0.849364,-2.438025,0.999998,0.000157,-0.001039,0.002510,-0.000079,0.002512,-0.001041,-88.721430,0.002524,
1160,1990,0.004653,-0.068300,0.999999,0.000110,-0.000050,0.001522,-0.000052,0.001523,-0.000051,-88.090165,0.001730,
1640,1140,-0.745704,-2.223501,0.999998,0.000168,-0.001222,0.002732,0.000334,0.002760,-0.001250,85.198430,0.002764,
690,1210,0.851462,-2.077302,0.999999,0.000147,-0.001201,0.002471,-0.000234,0.002485,-0.001216,-86.362331,0.002486,
1720,1770,-0.335274,-0.599669,0.999997,0.000252,-0.001040,0.002498,0.000151,0.002505,-0.001047,87.566473,0.002516,
650,120,0.215894,-4.797163,0.999999,0.000144,-0.000889,0.002621,0.000612,0.002725,-0.000993,80.381164,0.002758,
1720,1380,-0.627604,-1.603260,0.999998,0.000226,-0.001402,0.002683,0.000088,0.002685,-0.001404,88.765220,0.002686,
1180,120,0.008857,-4.885448,0.999999,0.000144,-0.000163,0.001604,0.000030,0.001604,-0.000164,89.019417,0.001766,
1100,1730,0.066763,-0.518901,0.999998,0.000175,-0.000552,0.001890,0.000019,0.001890,-0.000552,89.552668,0.001944,
900,490,0.289847,-4.053790,0.999998,0.000161,-0.001192,0.002407,-0.000195,0.002418,-0.001202,-86.900504,0.002418,
640,1520,0.652853,-1.313765,0.999998,0.000174,-0.001281,0.002565,0.000010,0.002565,-0.001281,89.852733,0.002565,
1380,740,-0.126879,-3.686116,0.999998,0.000173,-0.001413,0.002255,0.000942,0.002483,-0.001641,76.403816,0.002526,
590,710,0.858799,-3.241047,0.999998,0.000156,-0.001257,0.002478,0.000073,0.002480,-0.001258,88.883084,0.002480,
690,840,0.846594,-2.974853,0.999999,0.000136,-0.001260,0.002513,0.000230,0.002527,-0.001274,86.531692,0.002527,
1840,1920,-0.275174,-0.310904,0.999998,0.000168,-0.001208,0.002643,0.000302,0.002666,-0.001231,85.540190,0.002669,
1520,100,-0.045722,-4.906021,0.999999,0.000136,-0.000238,0.001790,-0.000254,0.001821,-0.000269,-82.972285,0.001966,
1820,390,-0.541328,-4.095917,0.999998,0.000206,-0.001259,0.002509,0.000026,0.002510,-0.001259,89.607031,0.002510,
1430,1110,-0.506492,-2.136364,0.999997,0.000221,-0.001635,0.003970,-0.000652,0.004044,-0.001710,-83.453899,0.004060,
1020,450,0.150836,-4.237116,0.999999,0.000158,-0.000896,0.002102,-0.000220,0.002118,-0.000912,-85.831371,0.002124,
1240,330,-0.004271,-4.532634,0.999998,0.000159,-0.000502,0.001749,0.000036,0.001750,-0.000503,89.078937,0.001802,
1800,1580,-0.579641,-1.141435,0.999998,0.000166,-0.001269,0.002541,-0.000026,0.002542,-0.001269,-89.609670,0.002542,
1020,1260,0.270741,-1.647250,0.999998,0.000193,-0.001897,0.003089,0.000577,0.003155,-0.001963,83.484080,0.003186,
1090,640,0.105425,-3.908963,0.999998,0.000157,-0.001045,0.001991,-0.000624,0.002114,-0.001168,-78.821974,0.002118,
1760,1190,-0.851998,-2.122412,0.999998,0.000169,-0.001215,0.002523,0.000254,0.002540,-0.001233,86.125524,0.002540,
1340,880,-0.256229,-3.543703,0.999997,0.000201,-0.000647,0.001247,0.001018,0.001690,-0.001090,66.468984,0.001714,
1900,160,-0.393312,-4.590735,0.999998,0.000000,-0.001283,0.002570,-0.000178,0.002578,-0.001291,-87.356183,0.002578,
1680,1580,-0.427202,-1.044589,0.999998,0.000166,-0.001262,0.002523,-0.000084,0.002525,-0.001264,-88.734410,0.002525,
770,1930,0.135669,-0.210766,0.999998,0.000158,-0.000577,0.002173,-0.000516,0.002266,-0.000670,-79.708772,0.002328,
780,1810,0.260918,-0.480789,0.999998,0.000159,-0.000994,0.002391,-0.000212,0.002404,-0.001007,-86.426036,0.002414,
1130,1400,0.066473,-1.110010,0.999998,0.000194,-0.000888,0.001715,0.000627,0.001858,-0.001031,77.144220,0.001862,
600,1910,0.321903,-0.364271,0.999998,0.000179,-0.001229,0.002607,-0.000241,0.002622,-0.001244,-86.425832,0.002624,
1870,1830,-0.447262,-0.576276,0.999998,0.000227,-0.001230,0.002495,0.000062,0.002496,-0.001232,89.048676,0.002496,
950,110,0.051025,-4.889140,0.999999,0.000148,-0.000280,0.001757,0.000236,0.001784,-0.000307,83.464425,0.001908,
830,460,0.360575,-4.071630,0.999998,0.000163,-0.001216,0.002480,-0.000098,0.002482,-0.001218,-88.480642,0.002482,
1770,390,-0.480375,-4.137468,0.999997,0.000186,-0.001215,0.002518,0.000031,0.002518,-0.001215,89.524383,0.002518,
810,1790,0.247360,-0.509530,0.999998,0.000163,-0.000933,0.002339,-0.000146,0.002346,-0.000940,-87.443495,0.002361,
1220,1310,0.005260,-1.138860,0.999999,0.000137,-0.000520,0.000803,0.000153,0.000821,-0.000538,83.482599,0.000834,
960,30,0.008028,-5.023268,0.999999,0.000000,-0.000121,0.001611,0.000172,0.001627,-0.000138,84.394218,0.001805,
770,1540,0.470852,-1.157514,0.999998,0.000181,-0.001295,0.002591,0.000075,0.002593,-0.001297,88.889529,0.002593,
580,900,1.015164,-2.792444,0.999999,0.000142,-0.001047,0.002192,0.000027,0.002192,-0.001047,89.515246,0.002193,
1100,1160,0.312994,-1.643115,0.999998,0.000190,-0.000753,0.001881,0.001436,0.002512,-0.001384,66.263304,0.002517,
1560,360,-0.224900,-4.360196,0.999998,0.000161,-0.000938,0.002267,0.000037,0.002267,-0.000938,89.339439,0.002278,
610,330,0.533767,-4.218802,0.999998,0.000177,-0.001234,0.002479,-0.000021,0.002479,-0.001234,-89.673786,0.002479,
1120,1860,0.033098,-0.281862,0.999998,0.000158,-0.000361,0.001745,-0.000038,0.001746,-0.000361,-88.965170,0.001843,
1330,1730,-0.049835,-0.510165,0.999998,0.000174,-0.000570,0.001811,-0.000074,0.001814,-0.000572,-88.217775,0.001854,
1520,1730,-0.173711,-0.580733,0.999998,0.000142,-0.000805,0.002185,-0.000004,0.002185,-0.000805,-89.916799,0.002210,
1080,320,0.077113,-4.525814,0.999998,0.000160,-0.000530,0.001900,-0.000030,0.001901,-0.000531,-89.298150,0.001961,
980,1350,0.276356,-1.455221,0.999998,0.000225,-0.001704,0.002810,0.000475,0.002860,-0.001753,84.055188,0.002884,
1730,190,-0.242256,-4.670853,0.999998,0.000169,-0.000893,0.002405,-0.000368,0.002445,-0.000933,-83.710597,0.002468,
640,1500,0.668304,-1.365258,0.999998,0.000178,-0.001269,0.002568,0.000014,0.002568,-0.001269,89.786805,0.002568,
1030,620,0.171576,-3.873573,0.999999,0.000131,-0.001235,0.002285,-0.000554,0.002370,-0.001320,-81.265433,0.002375,
1070,340,0.086983,-4.483685,0.999998,0.000159,-0.000632,0.001919,-0.000060,0.001920,-0.000634,-88.660571,0.001957,
1640,170,-0.151553,-4.748355,0.999999,0.000126,-0.000573,0.002146,-0.000391,0.002201,-0.000628,-81.974240,0.002267,
1840,1900,-0.310515,-0.362020,0.999998,0.000179,-0.001218,0.002624,0.000229,0.002637,-0.001231,86.605267,0.002639,
860,240,0.186995,-4.607844,0.999998,0.000191,-0.000808,0.002216,0.000183,0.002227,-0.000819,86.558159,0.002253,
570,470,0.704357,-3.830982,0.999862,0.001496,-0.002506,0.002776,-0.000103,0.002778,-0.002508,-88.878667,0.003064,
1640,1120,-0.762024,-2.278003,0.999998,0.000183,-0.001154,0.002681,0.000297,0.002704,-0.001176,85.596274,0.002712,
810,1960,0.079195,-0.138684,0.999999,0.000149,-0.000350,0.001941,-0.000457,0.002029,-0.000438,-79.126487,0.002135,
1800,370,-0.501432,-4.164892,0.999998,0.000182,-0.001235,0.002526,0.000029,0.002526,-0.001235,89.559647,0.002526,
1800,1560,-0.595914,-1.193125,0.999998,0.000190,-0.001270,0.002567,-0.000044,0.002568,-0.001271,-89.349212,0.002568,
1020,1240,0.294860,-1.709593,0.999997,0.000193,-0.001924,0.003157,0.000514,0.003209,-0.001975,84.284178,0.003237,
1430,1090,-0.540604,-2.219922,0.999997,0.000215,-0.001729,0.004340,-0.000684,0.004416,-0.001805,-83.649047,0.004441,
1250,460,-0.012041,-4.301447,0.999999,0.000161,-0.000645,0.001757,0.000056,0.001758,-0.000647,88.669035,0.001778,
1900,150,-0.377324,-4.615975,0.999997,0.000000,-0.001266,0.002655,-0.000275,0.002674,-0.001285,-86.010001,0.002675,
1040,1650,0.124138,-0.698390,0.999998,0.000146,-0.000793,0.002032,0.000165,0.002042,-0.000803,86.670217,0.002057,
1600,840,-0.612978,-3.046613,0.999997,0.000190,-0.001541,0.002968,-0.000286,0.002986,-0.001560,-86.390110,0.002987,
1740,1190,-0.827992,-2.116152,0.999998,0.000172,-0.001246,0.002555,0.000254,0.002572,-0.001263,86.187287,0.002572,
1770,370,-0.465251,-4.188267,0.999998,0.000187,-0.001210,0.002526,0.000016,0.002526,-0.001210,89.756413,0.002527,
1530,1240,-0.463933,-1.857419,0.999998,0.000185,-0.001828,0.003210,0.000047,0.003210,-0.001829,89.463117,0.003220,
990,90,0.029635,-4.925135,0.999999,0.000151,-0.000116,0.001688,0.000205,0.001711,-0.000139,83.610496,0.001901,
780,180,0.193804,-4.711534,0.999998,0.000155,-0.000799,0.002276,0.000343,0.002313,-0.000836,83.716324,0.002343,
1340,870,-0.225352,-3.556403,0.999998,0.000195,-0.000830,0.001273,0.000926,0.001623,-0.001179,69.306862,0.001678,
1680,1560,-0.438946,-1.095501,0.999997,0.000184,-0.001271,0.002563,-0.000089,0.002565,-0.001273,-88.677786,0.002565,
690,1190,0.868340,-2.126486,0.999998,0.000159,-0.001186,0.002486,-0.000231,0.002501,-0.001201,-86.412223,0.002501,
1110,1400,0.085416,-1.134254,0.999999,0.000160,-0.000963,0.001880,0.000646,0.002020,-0.001102,77.786172,0.002023,
950,2020,0.010187,-0.026558,0.999999,0.000000,-0.000131,0.001595,-0.000226,0.001624,-0.000160,-82.659558,0.001790,
600,1890,0.353061,-0.416040,0.999998,0.000183,-0.001229,0.002591,-0.000178,0.002600,-0.001237,-87.332552,0.002601,
1800,1910,-0.249014,-0.300380,0.999998,0.000180,-0.000940,0.002563,0.000550,0.002647,-0.001024,81.285934,0.002669,
810,1750,0.279650,-0.606455,0.999998,0.000163,-0.000999,0.002388,-0.000082,0.002390,-0.001001,-88.612821,0.002400,
610,310,0.516944,-4.268904,0.999998,0.000187,-0.001234,0.002518,-0.000025,0.002518,-0.001234,-89.618643,0.002518,
1560,340,-0.213753,-4.407738,0.999998,0.000182,-0.000907,0.002262,-0.000007,0.002262,-0.000907,-89.881972,0.002277,
1090,1150,0.348258,-1.719896,0.999997,0.000196,-0.000870,0.002299,0.001663,0.003012,-0.001582,66.805323,0.003013,
1590,460,-0.307409,-4.104758,0.999998,0.000194,-0.001183,0.002434,0.000140,0.002439,-0.001189,87.794489,0.002439,
1500,1730,-0.157698,-0.570825,0.999998,0.000155,-0.000813,0.002123,-0.000018,0.002123,-0.000813,-89.644884,0.002143,
1070,1860,0.047705,-0.286088,0.999998,0.000185,-0.000356,0.001752,-0.000073,0.001754,-0.000358,-88.022445,0.001854,
570,900,1.025953,-2.787520,0.999998,0.000168,-0.001023,0.002171,0.000019,0.002171,-0.001024,89.650819,0.002172,
1220,1290,0.005264,-1.153266,0.999999,0.000134,-0.000549,0.000665,0.000168,0.000688,-0.000571,82.284935,0.000737,
940,1060,0.684372,-2.423022,0.999998,0.000186,-0.000946,0.003058,-0.000161,0.003065,-0.000952,-87.705572,0.003137,
790,1760,0.294164,-0.594909,0.999998,0.000168,-0.001086,0.002389,-0.000085,0.002391,-0.001088,-88.595779,0.002394,
1730,150,-0.190170,-4.766716,0.999998,0.000179,-0.000763,0.002342,-0.000509,0.002424,-0.000845,-80.922901,0.002461,
1120,1840,0.035263,-0.316514,0.999998,0.000147,-0.000389,0.001713,-0.000022,0.001713,-0.000389,-89.406100,0.001796,
1810,1260,-0.854671,-1.968323,0.999999,0.000131,-0.001242,0.002487,0.000206,0.002499,-0.001253,86.842970,0.002499,
1670,1540,-0.439421,-1.138813,0.999998,0.000173,-0.001282,0.002578,-0.000096,0.002581,-0.001284,-88.574105,0.002581,
1010,260,0.099723,-4.617814,0.999998,0.000161,-0.000520,0.001928,0.000070,0.001930,-0.000522,88.356813,0.001997,
1070,1290,0.157932,-1.442623,0.999998,0.000163,-0.001637,0.002518,0.000953,0.002727,-0.001845,77.677685,0.002783,
1840,1880,-0.338845,-0.416707,0.999998,0.000181,-0.001222,0.002594,0.000199,0.002605,-0.001232,87.016625,0.002606,
1330,1710,-0.052444,-0.545372,0.999998,0.000174,-0.000605,0.001822,-0.000087,0.001826,-0.000609,-87.954048,0.001859,
740,1250,0.751965,-1.953920,0.999998,0.000160,-0.001352,0.002638,-0.000240,0.002652,-0.001367,-86.570962,0.002653,
900,600,0.342308,-3.774773,0.999998,0.000190,-0.001457,0.002634,-0.000246,0.002649,-0.001472,-86.565813,0.002655,
1720,1190,-0.802354,-2.110505,0.999998,0.000175,-0.001245,0.002594,0.000264,0.002612,-0.001263,86.079145,0.002612,
1020,1220,0.322427,-1.772612,0.999998,0.000176,-0.001968,0.003316,0.000459,0.003356,-0.002008,85.071354,0.003377,
1520,1990,-0.025680,-0.074505,0.999999,0.000145,-0.000140,0.001682,0.000261,0.001718,-0.000177,81.991623,0.001890,
1050,340,0.101054,-4.476179,0.999998,0.000261,-0.000709,0.001955,-0.000087,0.001958,-0.000712,-88.138080,0.001982,
1380,1760,-0.070676,-0.466748,0.999998,0.000171,-0.000477,0.001856,0.000007,0.001856,-0.000477,89.839730,0.001927,
1900,140,-0.358531,-4.642587,0.999998,0.000000,-0.001237,0.002719,-0.000382,0.002756,-0.001274,-84.528729,0.002758,
690,1170,0.884645,-2.176566,0.999998,0.000151,-0.001175,0.002467,-0.000219,0.002480,-0.001188,-86.563127,0.002480,
780,420,0.395764,-4.130652,0.999998,0.000178,-0.001201,0.002523,-0.000030,0.002523,-0.001201,-89.538513,0.002524,
580,1690,0.599775,-0.935457,0.999998,0.000177,-0.002649,0.001993,0.000341,0.002018,-0.002674,85.827104,0.002787,
640,1480,0.682737,-1.417436,0.999998,0.000173,-0.001277,0.002578,0.000003,0.002578,-0.001277,89.958591,0.002578,
1020,430,0.145701,-4.278932,0.999998,0.000179,-0.000837,0.002088,-0.000179,0.002099,-0.000848,-86.503715,0.002112,
600,2010,0.099270,-0.091268,0.999996,0.000261,-0.000624,0.002704,-0.001109,0.003039,-0.000959,-73.154254,0.003108,
990,70,0.021585,-4.959127,0.999999,0.000152,-0.000074,0.001642,0.000203,0.001666,-0.000097,83.333266,0.001870,
1150,1600,0.049912,-0.743863,0.999998,0.000152,-0.000698,0.001833,0.000153,0.001842,-0.000708,86.552915,0.001858,
610,510,0.671296,-3.766915,0.999997,0.000200,-0.001251,0.002513,-0.000011,0.002513,-0.001251,-89.828608,0.002513,
860,200,0.155859,-4.693157,0.999998,0.000175,-0.000665,0.002139,0.000257,0.002162,-0.000688,84.803705,0.002209,
700,1390,0.676873,-1.605626,0.999998,0.000183,-0.001356,0.002637,-0.000089,0.002639,-0.001358,-88.723365,0.002640,
1510,1240,-0.425795,-1.832775,0.999998,0.000188,-0.001869,0.003246,-0.000038,0.003247,-0.001869,-89.578586,0.003259,
610,640,0.773039,-3.433488,0.999998,0.000160,-0.001260,0.002543,0.000035,0.002543,-0.001260,89.467227,0.002544,
1470,1490,-0.205764,-1.080644,0.999998,0.000166,-0.001220,0.002322,-0.000396,0.002366,-0.001264,-83.695515,0.002368,
1800,1540,-0.608184,-1.244574,0.999998,0.000193,-0.001283,0.002560,-0.000049,0.002561,-0.001284,-89.269624,0.002561,
1080,1150,0.357041,-1.776458,0.999997,0.000182,-0.001084,0.002617,0.001589,0.003205,-0.001672,69.677519,0.003206,
1680,1540,-0.451749,-1.147759,0.999997,0.000178,-0.001297,0.002580,-0.000088,0.002582,-0.001299,-88.695613,0.002582,
810,1210,0.696322,-2.034522,0.999998,0.000170,-0.001387,0.002792,-0.000320,0.002817,-0.001411,-85.647293,0.002817,
1430,950,-0.516275,-2.883005,0.999998,0.000214,-0.001673,0.004064,0.000665,0.004140,-0.001749,83.478893,0.004157,
1690,520,-0.469406,-3.871570,0.999998,0.000171,-0.001300,0.002582,0.000101,0.002585,-0.001303,88.508301,0.002585,
1590,1000,-0.747554,-2.594629,0.999998,0.000179,-0.000967,0.002676,-0.000118,0.002680,-0.000971,-88.153326,0.002714,
730,1750,0.368070,-0.658340,0.999998,0.000188,-0.001140,0.002508,-0.000078,0.002509,-0.001142,-88.782109,0.002513,
1560,320,-0.203297,-4.450370,0.999998,0.000175,-0.000869,0.002210,-0.000027,0.002210,-0.000869,-89.494869,0.002227,
1180,100,0.007082,-4.918583,0.999999,0.000140,-0.000130,0.001581,0.000035,0.001582,-0.000131,88.826878,0.001756,
1330,1860,-0.028071,-0.280222,0.999999,0.000131,-0.000334,0.001698,0.000040,0.001699,-0.000335,88.869601,0.001800,
1520,60,-0.021093,-4.973316,0.999999,0.000116,-0.000124,0.001652,-0.000250,0.001686,-0.000158,-82.147418,0.001863,
1790,1260,-0.830352,-1.959574,0.999999,0.000132,-0.001261,0.002497,0.000216,0.002509,-0.001273,86.727386,0.002510,
1310,260,-0.030408,-4.650634,0.999998,0.000144,-0.000407,0.001738,-0.000016,0.001738,-0.000407,-89.572976,0.001818,
1590,440,-0.298060,-4.153232,0.999998,0.000164,-0.001117,0.002413,0.000103,0.002416,-0.001120,88.333962,0.002418,
1360,70,-0.010202,-4.962542,0.999999,0.000113,-0.000053,0.001567,-0.000076,0.001570,-0.000056,-87.327613,0.001782,
1070,1250,0.187769,-1.546960,0.999998,0.000181,-0.001783,0.002694,0.000964,0.002893,-0.001982,78.350826,0.002958,
1330,1690,-0.053276,-0.583885,0.999998,0.000162,-0.000626,0.001861,-0.000100,0.001865,-0.000631,-87.699607,0.001897,
1280,1380,-0.025791,-1.085993,0.999999,0.000148,-0.000644,0.001336,-0.000404,0.001415,-0.000724,-78.894476,0.001415,
660,40,0.045634,-4.994621,0.999999,0.000140,-0.000103,0.002137,0.000977,0.002503,-0.000469,69.450030,0.002661,
1600,820,-0.588209,-3.104528,0.999997,0.000186,-0.001585,0.002960,-0.000249,0.002974,-0.001599,-86.868075,0.002976,
1590,320,-0.231429,-4.434334,0.999997,0.000210,-0.000938,0.002284,-0.000033,0.002284,-0.000938,-89.405051,0.002296,
950,30,0.009763,-5.022157,0.999999,0.000000,-0.000041,0.001622,0.000192,0.001644,-0.000063,83.499085,0.001863,
1900,130,-0.337065,-4.672343,0.999998,0.000000,-0.001202,0.002713,-0.000432,0.002760,-0.001249,-83.775890,0.002764,
820,1250,0.637537,-1.917030,0.999998,0.000187,-0.001487,0.002853,-0.000270,0.002870,-0.001504,-86.453669,0.002871,
1020,1200,0.354672,-1.843933,0.999998,0.000185,-0.001970,0.003405,0.000399,0.003434,-0.002000,85.774763,0.003450,
710,900,0.870753,-2.831192,0.999998,0.000150,-0.001189,0.002472,0.000225,0.002486,-0.001203,86.503241,0.002486,
1840,1860,-0.371827,-0.465906,0.999997,0.000196,-0.001215,0.002544,0.000148,0.002550,-0.001221,87.744849,0.002551,
1140,1990,0.005719,-0.068792,0.999999,0.000102,-0.000090,0.001538,-0.000062,0.001540,-0.000093,-87.822229,0.001728,
1120,1820,0.040662,-0.350395,0.999999,0.000137,-0.000415,0.001761,-0.000028,0.001761,-0.000415,-89.252664,0.001841,
1380,1720,-0.079066,-0.541768,0.999998,0.000170,-0.000549,0.001912,-0.000038,0.001913,-0.000549,-89.110384,0.001970,
1570,1320,-0.447939,-1.653940,0.999997,0.000201,-0.001674,0.002996,-0.000060,0.002997,-0.001675,-89.269909,0.003004,
1140,830,0.112006,-3.676612,0.999998,0.000178,-0.001150,0.001367,-0.000960,0.001692,-0.001474,-71.330459,0.001841,
670,960,0.948580,-2.677682,0.999998,0.000184,-0.001102,0.002353,0.000130,0.002358,-0.001107,87.843946,0.002359,
900,60,0.027078,-4.971821,0.999999,0.000132,-0.000140,0.001689,0.000326,0.001745,-0.000196,80.199998,0.001912,
1290,1480,-0.036670,-0.942541,0.999999,0.000121,-0.000711,0.001609,-0.000248,0.001635,-0.000738,-83.965102,0.001638,
690,1150,0.897780,-2.224513,0.999998,0.000145,-0.001160,0.002465,-0.000173,0.002473,-0.001168,-87.273441,0.002474,
570,1690,0.618094,-0.931932,0.999776,0.001861,-0.003300,0.001594,0.000509,0.001647,-0.003353,84.121418,0.003353,
990,270,0.113511,-4.593875,0.999998,0.000159,-0.000567,0.001992,0.000088,0.001995,-0.000570,88.039711,0.002055,
610,750,0.867882,-3.157084,0.999999,0.000132,-0.001226,0.002484,0.000087,0.002486,-0.001228,88.665015,0.002486,
1150,1400,0.050407,-1.086220,0.999999,0.000143,-0.000747,0.001567,0.000503,0.001671,-0.000851,78.247766,0.001671,
770,1390,0.577806,-1.556569,0.999997,0.000204,-0.001442,0.002706,-0.000049,0.002706,-0.001442,-89.316729,0.002708,
600,2000,0.125967,-0.116604,0.999998,0.000174,-0.000852,0.002782,-0.000975,0.003027,-0.001097,-75.894203,0.003065,
570,310,0.576355,-4.238160,0.999519,0.002585,-0.002804,0.003113,-0.000443,0.003146,-0.002837,-85.740182,0.003468,
790,1740,0.309425,-0.641984,0.999998,0.000144,-0.001110,0.002437,-0.000044,0.002437,-0.001111,-89.288292,0.002440,
590,1090,1.033812,-2.386525,0.999998,0.000172,-0.001013,0.002103,-0.000003,0.002103,-0.001013,-89.941503,0.002103,
980,1730,0.143511,-0.562268,0.999998,0.000176,-0.000721,0.002064,0.000023,0.002064,-0.000721,89.531566,0.002095,
1670,500,-0.430279,-3.938621,0.999997,0.000189,-0.001297,0.002557,0.000086,0.002558,-0.001299,88.727119,0.002559,
1470,1470,-0.212151,-1.129044,0.999998,0.000169,-0.001261,0.002399,-0.000419,0.002446,-0.001308,-83.554562,0.002448,
1680,1520,-0.465243,-1.198766,0.999998,0.000183,-0.001321,0.002613,-0.000069,0.002614,-0.001322,-88.994301,0.002614,
1430,930,-0.478117,-2.963545,0.999997,0.000195,-0.001637,0.003788,0.000583,0.003850,-0.001699,83.935141,0.003859,
1820,1510,-0.656701,-1.336496,0.999997,0.000178,-0.001315,0.002540,-0.000029,0.002541,-0.001316,-89.562129,0.002541,
570,1480,0.775266,-1.472110,0.999952,0.000761,-0.001892,0.002131,0.000260,0.002148,-0.001908,86.317098,0.002354,
1800,1520,-0.622610,-1.295872,0.999998,0.000174,-0.001290,0.002575,-0.000021,0.002575,-0.001290,-89.693468,0.002575,
1180,300,0.023428,-4.582665,0.999999,0.000126,-0.000429,0.001752,0.000003,0.001752,-0.000429,89.919316,0.001827,
1560,300,-0.191531,-4.496731,0.999998,0.000171,-0.000815,0.002237,-0.000047,0.002237,-0.000816,-89.108779,0.002264,
1610,1860,-0.154994,-0.336530,0.999998,0.000145,-0.000660,0.002132,0.000271,0.002158,-0.000686,84.496835,0.002205,
810,1190,0.715660,-2.090865,0.999998,0.000179,-0.001346,0.002756,-0.000331,0.002783,-0.001373,-85.413427,0.002783,
750,1060,0.870043,-2.440753,0.999998,0.000149,-0.001050,0.002493,-0.000079,0.002494,-0.001052,-88.720255,0.002504,
1020,1180,0.390458,-1.913922,0.999998,0.000184,-0.001907,0.003454,0.000329,0.003474,-0.001927,86.496115,0.003481,
1070,450,0.108054,-4.266253,0.999999,0.000138,-0.000840,0.001988,-0.000240,0.002008,-0.000860,-85.188637,0.002015,
1330,1670,-0.055901,-0.619741,0.999998,0.000160,-0.000655,0.001828,-0.000129,0.001835,-0.000662,-87.033170,0.001858,
1900,120,-0.316194,-4.698678,0.999998,0.000000,-0.001169,0.002719,-0.000465,0.002774,-0.001224,-83.274197,0.002781,
650,100,0.177531,-4.849264,0.999999,0.000127,-0.000757,0.002551,0.000729,0.002705,-0.000911,78.110886,0.002753,
690,900,0.893805,-2.826217,0.999999,0.000135,-0.001149,0.002431,0.000187,0.002440,-0.001159,87.011134,0.002441,
1290,260,-0.023770,-4.650775,0.999999,0.000125,-0.000371,0.001734,-0.000012,0.001734,-0.000371,-89.678084,0.001826,
1380,1700,-0.082195,-0.579256,0.999998,0.000170,-0.000588,0.001939,-0.000044,0.001939,-0.000589,-89.011700,0.001989,
1120,1990,0.007846,-0.068959,0.999999,0.000116,-0.000083,0.001551,-0.000078,0.001554,-0.000087,-87.260068,0.001747,
1120,830,0.138057,-3.605338,0.999998,0.000163,-0.001333,0.001798,-0.001117,0.002155,-0.001690,-72.251046,0.002269,
1570,1000,-0.729529,-2.596595,0.999997,0.000208,-0.000928,0.002763,-0.000151,0.002769,-0.000934,-87.660496,0.002818,
640,1460,0.698166,-1.466422,0.999998,0.000168,-0.001271,0.002538,-0.000024,0.002538,-0.001272,-89.635012,0.002538,
1870,880,-0.990696,-2.840847,0.999999,0.000137,-0.001105,0.002211,-0.000065,0.002212,-0.001106,-88.874422,0.002212,
690,1130,0.907869,-2.274909,0.999998,0.000143,-0.001129,0.002438,-0.000178,0.002447,-0.001138,-87.157240,0.002449,
890,1990,0.031741,-0.077588,0.999999,0.000130,-0.000213,0.001737,-0.000337,0.001794,-0.000269,-80.466393,0.001934,
1840,1840,-0.396752,-0.519189,0.999998,0.000193,-0.001219,0.002573,0.000113,0.002576,-0.001222,88.297934,0.002577,
800,1250,0.668005,-1.927068,0.999998,0.000164,-0.001477,0.002800,-0.000269,0.002817,-0.001493,-86.409796,0.002819,
850,1610,0.326901,-0.917313,0.999998,0.000173,-0.001173,0.002453,0.000109,0.002456,-0.001177,88.274220,0.002457,
990,510,0.193893,-4.082963,0.999998,0.000157,-0.001050,0.002243,-0.000287,0.002268,-0.001075,-85.061340,0.002269,
1560,1790,-0.170666,-0.468039,0.999998,0.000145,-0.000709,0.002150,0.000125,0.002156,-0.000714,87.497359,0.002196,
980,1710,0.151601,-0.603290,0.999998,0.000149,-0.000781,0.002110,0.000099,0.002114,-0.000785,88.047284,0.002137,
770,1350,0.614720,-1.666689,0.999998,0.000192,-0.001458,0.002756,-0.000120,0.002759,-0.001461,-88.368361,0.002761,
1680,1500,-0.478501,-1.253357,0.999997,0.000187,-0.001361,0.002625,-0.000068,0.002627,-0.001363,-89.018760,0.002627,
1560,870,-0.587545,-2.980724,0.999998,0.000158,-0.001548,0.003060,-0.000315,0.003082,-0.001569,-86.109156,0.003082,
600,1930,0.284669,-0.311719,0.999998,0.000169,-0.001210,0.002677,-0.000357,0.002710,-0.001243,-84.803732,0.002713,
1470,1450,-0.216859,-1.177148,0.999998,0.000162,-0.001294,0.002440,-0.000452,0.002494,-0.001348,-83.196922,0.002497,
580,1090,1.044210,-2.387828,0.999998,0.000174,-0.000986,0.002067,0.000024,0.002068,-0.000986,89.540914,0.002068,
1120,1800,0.044120,-0.386011,0.999998,0.000147,-0.000436,0.001763,-0.000002,0.001763,-0.000436,-89.959609,0.001837,
830,1360,0.516415,-1.594578,0.999998,0.000218,-0.001562,0.002849,-0.000036,0.002849,-0.001562,-89.535806,0.002854,
1510,1540,-0.237606,-1.002004,0.999998,0.000160,-0.001168,0.002372,-0.000275,0.002394,-0.001189,-85.583866,0.002394,
600,1700,0.567522,-0.892019,0.999998,0.000181,-0.001227,0.002497,0.000016,0.002497,-0.001227,89.755652,0.002497,
1800,1500,-0.638415,-1.346537,0.999998,0.000163,-0.001275,0.002568,-0.000006,0.002568,-0.001275,-89.909411,0.002568,
1400,670,-0.138435,-3.806625,0.999998,0.000156,-0.001268,0.002228,0.000707,0.002365,-0.001405,78.994089,0.002379,
1610,1920,-0.103181,-0.212277,0.999998,0.000166,-0.000450,0.001969,0.000345,0.002017,-0.000498,82.049130,0.002102,
1620,370,-0.291438,-4.299255,0.999997,0.000177,-0.001007,0.002369,0.000011,0.002369,-0.001007,89.815260,0.002377,
1180,540,0.031633,-4.159498,0.999998,0.000151,-0.000624,0.001703,-0.000176,0.001716,-0.000637,-85.707261,0.001735,
1510,1990,-0.023745,-0.074146,0.999999,0.000154,-0.000174,0.001670,0.000242,0.001701,-0.000205,82.659103,0.001858,
810,1170,0.733539,-2.145385,0.999998,0.000172,-0.001288,0.002716,-0.000326,0.002742,-0.001315,-85.381048,0.002743,
1800,1510,-0.631232,-1.322547,0.999998,0.000168,-0.001293,0.002558,-0.000023,0.002558,-0.001293,-89.660159,0.002558,
1070,430,0.106550,-4.307806,0.999998,0.000149,-0.000792,0.002012,-0.000211,0.002028,-0.000808,-85.725590,0.002042,
1430,910,-0.437790,-3.038644,0.999997,0.000189,-0.001669,0.003607,0.000509,0.003656,-0.001718,84.537237,0.003658,
1560,280,-0.180026,-4.540756,0.999998,0.000151,-0.000762,0.002171,-0.000088,0.002173,-0.000764,-88.276686,0.002205,
940,2020,0.011393,-0.026204,0.999999,0.000000,-0.000078,0.001594,-0.000241,0.001628,-0.000112,-81.955316,0.001819,
730,1060,0.891482,-2.439760,0.999998,0.000161,-0.001083,0.002465,-0.000084,0.002467,-0.001085,-88.639652,0.002473,
1730,1540,-0.517594,-1.187683,0.999998,0.000171,-0.001268,0.002577,-0.000057,0.002578,-0.001269,-89.150409,0.002578,
1330,1650,-0.058800,-0.656501,0.999998,0.000154,-0.000648,0.001858,-0.000155,0.001867,-0.000658,-86.464116,0.001894,
580,710,0.870924,-3.233355,0.999998,0.000148,-0.001366,0.002414,0.000124,0.002418,-0.001370,88.119328,0.002425,
1420,230,-0.070942,-4.684831,0.999998,0.000182,-0.000498,0.001870,-0.000042,0.001871,-0.000498,-88.983696,0.001937,
1600,800,-0.564584,-3.164355,0.999997,0.000192,-0.001614,0.003022,-0.000208,0.003031,-0.001623,-87.435296,0.003034,
1270,1480,-0.022451,-0.937277,0.999999,0.000117,-0.000632,0.001587,-0.000144,0.001596,-0.000641,-86.313814,0.001606,
1020,1160,0.428488,-1.984956,0.999998,0.000177,-0.001776,0.003544,0.000271,0.003558,-0.001790,87.092700,0.003558,
1270,260,-0.016421,-4.653677,0.999998,0.000177,-0.000367,0.001723,0.000006,0.001723,-0.000367,89.844268,0.001815,
650,80,0.134119,-4.901129,0.999998,0.000145,-0.000614,0.002563,0.000892,0.002797,-0.000848,75.338031,0.002868,
750,900,0.822462,-2.839389,0.999998,0.000147,-0.001200,0.002578,0.000289,0.002600,-0.001222,85.657523,0.002602,
640,1440,0.714544,-1.519110,0.999997,0.000195,-0.001276,0.002594,-0.000029,0.002594,-0.001276,-89.568494,0.002594,
1870,870,-0.984451,-2.862233,0.999998,0.000145,-0.001112,0.002234,-0.000084,0.002236,-0.001114,-88.566466,0.002236,
1150,700,0.048659,-3.883745,0.999999,0.000147,-0.000798,0.001498,-0.000685,0.001687,-0.000986,-74.594677,0.001695,
1110,1860,0.036983,-0.283282,0.999998,0.000149,-0.000332,0.001749,-0.000048,0.001750,-0.000333,-88.690581,0.001859,
1840,1820,-0.422485,-0.569880,0.999998,0.000189,-0.001199,0.002533,0.000071,0.002535,-0.001201,88.915471,0.002536,
1530,860,-0.524586,-3.036500,0.999998,0.000195,-0.001698,0.003218,-0.000217,0.003227,-0.001708,-87.474279,0.003229,
1540,870,-0.555774,-2.995631,0.999997,0.000210,-0.001623,0.003153,-0.000271,0.003169,-0.001639,-86.757483,0.003169,
1220,330,0.004987,-4.532430,0.999998,0.000145,-0.000524,0.001743,-0.000014,0.001743,-0.000524,-89.634631,0.001788,
1720,590,-0.558278,-3.663841,0.999997,0.000193,-0.001383,0.002623,-0.000003,0.002623,-0.001383,-89.963550,0.002624,
890,1970,0.047386,-0.112221,0.999998,0.000145,-0.000261,0.001767,-0.000323,0.001817,-0.000311,-81.164908,0.001944,
980,1460,0.230527,-1.168187,0.999998,0.000151,-0.001300,0.002445,0.000400,0.002487,-0.001342,83.963561,0.002490,
1710,1980,-0.076839,-0.108678,0.999998,0.000144,-0.000270,0.001988,0.000574,0.002125,-0.000408,76.517129,0.002256,
670,840,0.871952,-2.968726,0.999998,0.000157,-0.001215,0.002466,0.000216,0.002479,-0.001228,86.652903,0.002479,
1640,1100,-0.775417,-2.330655,0.999998,0.000190,-0.001088,0.002652,0.000254,0.002669,-0.001105,86.131806,0.002683,
590,110,0.266051,-4.756465,0.999998,0.000169,-0.001101,0.002747,0.000479,0.002805,-0.001160,83.015240,0.002819,
1380,1790,-0.063212,-0.411376,0.999998,0.000187,-0.000435,0.001828,0.000037,0.001828,-0.000436,89.072418,0.001910,
1680,1700,-0.347879,-0.745256,0.999998,0.000159,-0.001119,0.002437,0.000003,0.002437,-0.001119,89.949451,0.002440,
1380,1680,-0.086963,-0.618781,0.999998,0.000148,-0.000618,0.001927,-0.000073,0.001929,-0.000621,-88.362545,0.001969,
600,1950,0.243982,-0.257537,0.999998,0.000160,-0.001171,0.002684,-0.000484,0.002744,-0.001231,-82.954349,0.002748,
1800,1480,-0.652657,-1.398363,0.999998,0.000187,-0.001262,0.002594,0.000012,0.002594,-0.001262,89.817421,0.002595,
1770,570,-0.611268,-3.677052,0.999998,0.000170,-0.001309,0.002586,0.000012,0.002586,-0.001309,89.819941,0.002586,
730,990,0.890972,-2.612481,0.999998,0.000150,-0.001089,0.002442,0.000088,0.002444,-0.001091,88.573825,0.002449,
1590,300,-0.218703,-4.480411,0.999997,0.000196,-0.000910,0.002275,-0.000060,0.002276,-0.000912,-88.919093,0.002291,
850,1590,0.339273,-0.966492,0.999998,0.000169,-0.001199,0.002493,0.000135,0.002498,-0.001204,87.904001,0.002499,
1730,130,-0.162595,-4.810814,0.999999,0.000151,-0.000680,0.002258,-0.000554,0.002359,-0.000781,-79.666470,0.002404,
1900,110,-0.296577,-4.723760,0.999998,0.000000,-0.001144,0.002788,-0.000516,0.002855,-0.001210,-82.643913,0.002865,
1610,920,-0.713945,-2.810549,0.999998,0.000180,-0.001215,0.002805,-0.000368,0.002838,-0.001249,-84.819194,0.002845,
1430,890,-0.395516,-3.108426,0.999997,0.000186,-0.001745,0.003536,0.000499,0.003582,-0.001792,84.648635,0.003582,
660,670,0.735347,-3.392836,0.999998,0.000195,-0.001314,0.002604,0.000102,0.002606,-0.001317,88.515259,0.002606,
1220,800,0.007689,-3.868847,0.999998,0.000164,-0.000801,0.000550,-0.000163,0.000569,-0.000820,-83.226290,0.000841,
690,1110,0.918835,-2.323192,0.999998,0.000158,-0.001126,0.002398,-0.000198,0.002409,-0.001137,-86.800208,0.002411,
1170,1510,0.038855,-0.894546,0.999999,0.000136,-0.000689,0.001718,0.000217,0.001737,-0.000708,84.899086,0.001747,
600,1660,0.600854,-0.991556,0.999998,0.000168,-0.001232,0.002484,0.000024,0.002484,-0.001232,89.637064,0.002484,
1800,1490,-0.644619,-1.372021,0.999998,0.000161,-0.001261,0.002573,0.000008,0.002573,-0.001261,89.876187,0.002573,
1330,1630,-0.060229,-0.694256,0.999998,0.000165,-0.000677,0.001858,-0.000176,0.001870,-0.000689,-86.054226,0.001891,
770,810,0.716887,-3.084599,0.999998,0.000166,-0.001388,0.002711,0.000261,0.002727,-0.001404,86.368377,0.002728,
1340,70,-0.008861,-4.963912,0.999999,0.000115,-0.000105,0.001554,-0.000071,0.001557,-0.000108,-87.545340,0.001738,
1070,410,0.099734,-4.348846,0.999998,0.000157,-0.000765,0.001979,-0.000170,0.001990,-0.000775,-86.462901,0.002006,
1240,770,-0.004161,-3.884484,0.999999,0.000131,-0.000552,0.000633,0.000127,0.000647,-0.000566,83.932630,0.000705,
1120,1780,0.048063,-0.421261,0.999998,0.000142,-0.000466,0.001802,0.000012,0.001802,-0.000466,89.697241,0.001870,
1090,1400,0.106271,-1.159875,0.999999,0.000142,-0.001111,0.002020,0.000688,0.002165,-0.001256,78.140696,0.002174,
990,1920,0.051490,-0.191696,0.999999,0.000143,-0.000256,0.001739,-0.000177,0.001754,-0.000272,-84.973842,0.001888,
1530,380,-0.207713,-4.332587,0.999998,0.000171,-0.000877,0.002183,0.000083,0.002186,-0.000879,88.445612,0.002199,
940,30,0.009354,-5.021500,0.999999,0.000000,0.000042,0.001615,0.000223,0.001646,0.000011,82.071923,0.001907,
1280,1360,-0.026440,-1.112801,0.999999,0.000143,-0.000643,0.001253,-0.000459,0.001359,-0.000748,-77.083669,0.001361,
1860,1250,-0.923998,-2.020522,0.999998,0.000162,-0.001165,0.002364,0.000100,0.002367,-0.001168,88.370513,0.002367,
1470,1430,-0.220309,-1.224971,0.999998,0.000154,-0.001364,0.002441,-0.000459,0.002495,-0.001419,-83.224670,0.002503,
1620,350,-0.279459,-4.346127,0.999998,0.000157,-0.000964,0.002384,-0.000019,0.002384,-0.000964,-89.678491,0.002398,
1080,1730,0.077930,-0.523842,0.999998,0.000158,-0.000554,0.001907,0.000010,0.001907,-0.000554,89.774921,0.001962,
1020,1140,0.469281,-2.059149,0.999997,0.000188,-0.001668,0.003671,0.000264,0.003684,-0.001681,87.178688,0.003688,
1540,850,-0.528039,-3.058421,0.999997,0.000207,-0.001706,0.003194,-0.000219,0.003204,-0.001715,-87.441723,0.003207,
810,1150,0.751946,-2.200318,0.999998,0.000175,-0.001231,0.002713,-0.000343,0.002743,-0.001260,-85.073296,0.002746,
570,1090,1.053869,-2.390443,0.999995,0.000265,-0.000967,0.002025,0.000043,0.002026,-0.000968,89.180497,0.002026,
730,900,0.847671,-2.835213,0.999998,0.000148,-0.001194,0.002522,0.000255,0.002540,-0.001212,86.089028,0.002541,
1800,1170,-0.915888,-2.183335,0.999999,0.000144,-0.001156,0.002391,0.000186,0.002401,-0.001166,87.012318,0.002401,
930,1280,0.421689,-1.734569,0.999997,0.000212,-0.001849,0.003124,0.000072,0.003125,-0.001850,89.172980,0.003142,
810,1980,0.057871,-0.100671,0.999998,0.000161,-0.000252,0.001900,-0.000480,0.002002,-0.000355,-77.970176,0.002137,
1230,460,0.002166,-4.302713,0.999999,0.000148,-0.000631,0.001735,-0.000016,0.001735,-0.000631,-89.624012,0.001756,
980,1420,0.243432,-1.266015,0.999998,0.000163,-0.001441,0.002535,0.000458,0.002587,-0.001493,83.519021,0.002597,
1290,1860,-0.016937,-0.276794,0.999999,0.000127,-0.000267,0.001679,0.000044,0.001680,-0.000268,88.703410,0.001805,
600,1990,0.149731,-0.143280,0.999998,0.000153,-0.001041,0.002864,-0.000813,0.003026,-0.001203,-78.694523,0.003048,
890,1950,0.060953,-0.148222,0.999999,0.000136,-0.000319,0.001865,-0.000313,0.001909,-0.000362,-82.011942,0.002028,
1840,1800,-0.444706,-0.619868,0.999998,0.000192,-0.001181,0.002550,0.000026,0.002550,-0.001181,89.596994,0.002552,
720,830,0.801429,-3.011279,0.999998,0.000163,-0.001267,0.002606,0.000269,0.002625,-0.001285,86.038245,0.002625,
660,1250,0.854872,-1.989552,0.999998,0.000159,-0.001246,0.002489,-0.000208,0.002500,-0.001258,-86.828584,0.002500,
1780,1750,-0.422758,-0.694765,0.999998,0.000176,-0.001179,0.002502,0.000055,0.002503,-0.001180,89.142868,0.002504,
1380,770,-0.139161,-3.618325,0.999997,0.000190,-0.001546,0.002348,0.001004,0.002592,-0.001789,76.364384,0.002654,
1680,1940,-0.116655,-0.185054,0.999998,0.000153,-0.000532,0.002118,0.000511,0.002213,-0.000627,79.454059,0.002281,
1900,100,-0.275701,-4.753167,0.999999,0.000000,-0.001120,0.002974,-0.000594,0.003059,-0.001204,-81.905210,0.003082,
1560,480,-0.282319,-4.079504,0.999998,0.000157,-0.001121,0.002399,0.000189,0.002409,-0.001131,86.930402,0.002411,
1380,1660,-0.089280,-0.656168,0.999998,0.000162,-0.000665,0.001912,-0.000116,0.001918,-0.000670,-87.430977,0.001946,
1170,1470,0.038099,-0.961099,0.999998,0.000155,-0.000711,0.001647,0.000284,0.001680,-0.000745,83.221824,0.001684,
1330,1610,-0.061865,-0.730588,0.999998,0.000164,-0.000681,0.001852,-0.000171,0.001864,-0.000692,-86.163329,0.001884,
1710,1560,-0.478791,-1.119059,0.999998,0.000189,-0.001316,0.002569,-0.000070,0.002571,-0.001317,-88.963508,0.002571,
770,790,0.695082,-3.139917,0.999998,0.000157,-0.001408,0.002738,0.000271,0.002756,-0.001426,86.281859,0.002756,
690,1310,0.762454,-1.821495,0.999998,0.000175,-0.001329,0.002593,-0.000192,0.002603,-0.001339,-87.197403,0.002603,
1070,1400,0.128756,-1.191696,0.999998,0.000136,-0.001172,0.002156,0.000669,0.002285,-0.001302,79.048514,0.002293,
600,1120,1.013533,-2.318577,0.999998,0.000171,-0.001057,0.002221,-0.000103,0.002224,-0.001060,-88.208927,0.002225,
1220,70,0.001965,-4.963706,0.999999,0.000143,-0.000072,0.001538,0.000000,0.001538,-0.000072,89.989988,0.001736,
1710,50,-0.044194,-4.979696,0.999999,0.000134,-0.000121,0.001907,-0.000611,0.002077,-0.000291,-74.457939,0.002249,
1530,840,-0.496530,-3.101406,0.999997,0.000197,-0.001768,0.003248,-0.000162,0.003253,-0.001773,-88.147203,0.003257,
680,1310,0.775656,-1.827274,0.999999,0.000156,-0.001310,0.002572,-0.000181,0.002580,-0.001318,-87.342534,0.002581,
1070,390,0.097312,-4.388033,0.999998,0.000159,-0.000716,0.001948,-0.000146,0.001956,-0.000724,-86.878021,0.001978,
810,1130,0.770039,-2.253679,0.999998,0.000185,-0.001166,0.002667,-0.000302,0.002691,-0.001190,-85.525418,0.002697,
1480,1130,-0.547194,-2.162360,0.999998,0.000171,-0.001523,0.003508,0.000148,0.003512,-0.001527,88.316338,0.003522,
1120,1980,0.010722,-0.085401,0.999999,0.000129,-0.000103,0.001562,-0.000073,0.001565,-0.000106,-87.488211,0.001749,
1420,210,-0.064860,-4.720989,0.999999,0.000163,-0.000447,0.001807,-0.000061,0.001808,-0.000449,-88.449140,0.001883,
1020,1120,0.509074,-2.131069,0.999997,0.000184,-0.001573,0.003808,0.000268,0.003821,-0.001586,87.150549,0.003839,
1510,1970,-0.035361,-0.108967,0.999999,0.000147,-0.000215,0.001714,0.000243,0.001744,-0.000245,82.933242,0.001889,
1530,360,-0.200000,-4.375665,0.999998,0.000172,-0.000837,0.002201,0.000028,0.002202,-0.000837,89.467105,0.002223,
810,900,0.749735,-2.853455,0.999999,0.000174,-0.001260,0.002701,0.000321,0.002727,-0.001285,85.391910,0.002728,
1220,1370,0.006081,-1.082687,0.999999,0.000123,-0.000532,0.001139,0.000121,0.001147,-0.000541,85.882321,0.001148,
1470,1410,-0.228001,-1.274893,0.999998,0.000165,-0.001424,0.002523,-0.000482,0.002581,-0.001482,-83.139405,0.002590,
1800,1460,-0.668779,-1.448946,0.999997,0.000206,-0.001286,0.002590,0.000007,0.002590,-0.001286,89.899673,0.002590,
1600,780,-0.543048,-3.226962,0.999997,0.000183,-0.001634,0.002969,-0.000152,0.002974,-0.001639,-88.111722,0.002979,
640,1420,0.729987,-1.570850,0.999997,0.000200,-0.001287,0.002556,-0.000044,0.002556,-0.001288,-89.350269,0.002556,
850,1570,0.350048,-1.016900,0.999998,0.000179,-0.001218,0.002476,0.000130,0.002480,-0.001223,87.985124,0.002480,
1430,1210,-0.311392,-1.774359,0.999998,0.000177,-0.001958,0.003276,-0.000539,0.003331,-0.002013,-84.177066,0.003355,
600,1970,0.197569,-0.205059,0.999998,0.000152,-0.001145,0.002861,-0.000659,0.002967,-0.001250,-80.895963,0.002979,
930,1260,0.444691,-1.797818,0.999998,0.000193,-0.001837,0.003155,-0.000003,0.003155,-0.001837,-89.966144,0.003169,
820,1010,0.802996,-2.564613,0.999998,0.000172,-0.000988,0.002582,0.000080,0.002584,-0.000990,88.709451,0.002607,
980,880,0.473461,-3.028868,0.999998,0.000189,-0.001787,0.003415,0.000090,0.003417,-0.001789,89.009589,0.003418,
640,310,0.480481,-4.298022,0.999997,0.000202,-0.001215,0.002541,0.000016,0.002541,-0.001215,89.760181,0.002541,
1460,530,-0.185609,-4.047843,0.999999,0.000131,-0.001066,0.002263,0.000337,0.002297,-0.001100,84.271992,0.002298,
820,1050,0.801327,-2.461552,0.999998,0.000155,-0.000985,0.002603,-0.000080,0.002605,-0.000987,-88.718545,0.002631,
1680,960,-0.822679,-2.691466,0.999998,0.000149,-0.001091,0.002565,-0.000220,0.002578,-0.001104,-86.565033,0.002587,
1760,1750,-0.399433,-0.678980,0.999998,0.000192,-0.001223,0.002516,0.000060,0.002517,-0.001224,89.081516,0.002518,
1840,1780,-0.466520,-0.670641,0.999998,0.000192,-0.001180,0.002498,0.000021,0.002498,-0.001180,89.668430,0.002499,
1880,1450,-0.779103,-1.538497,0.999998,0.000200,-0.001268,0.002569,0.000003,0.002569,-0.001268,89.960808,0.002569,
890,1930,0.077321,-0.187009,0.999999,0.000128,-0.000388,0.001902,-0.000306,0.001942,-0.000428,-82.509947,0.002041,
1900,90,-0.252354,-4.784708,0.999999,0.000000,-0.001102,0.003145,-0.000684,0.003252,-0.001209,-81.068540,0.003287,
1270,1860,-0.011785,-0.276202,0.999999,0.000169,-0.000291,0.001669,0.000027,0.001669,-0.000291,89.206822,0.001783,
980,1650,0.175290,-0.733300,0.999998,0.000160,-0.000920,0.002189,0.000169,0.002198,-0.000929,86.904787,0.002206,
1380,1640,-0.092824,-0.695582,0.999999,0.000145,-0.000736,0.001960,-0.000159,0.001969,-0.000746,-86.637884,0.001989,
1600,350,-0.259070,-4.358561,0.999998,0.000151,-0.000975,0.002345,-0.000006,0.002345,-0.000975,-89.903524,0.002356,
1170,550,0.038028,-4.136758,0.999998,0.000144,-0.000671,0.001673,-0.000227,0.001695,-0.000693,-84.531370,0.001704,
930,2020,0.012087,-0.026509,0.999999,0.000000,0.000008,0.001612,-0.000263,0.001654,-0.000034,-80.922443,0.001891,
1020,590,0.178085,-3.931721,0.999999,0.000149,-0.001214,0.002291,-0.000475,0.002354,-0.001277,-82.419965,0.002357,
780,1890,0.177321,-0.297215,0.999998,0.000154,-0.000777,0.002269,-0.000395,0.002319,-0.000828,-82.735986,0.002351,
1330,1590,-0.063961,-0.768015,0.999999,0.000150,-0.000708,0.001845,-0.000183,0.001858,-0.000721,-85.930273,0.001874,
690,1550,0.566367,-1.196082,0.999997,0.000188,-0.001298,0.002582,0.000037,0.002582,-0.001298,89.450330,0.002582,
600,1100,1.022848,-2.363007,0.999998,0.000172,-0.001031,0.002156,-0.000027,0.002156,-0.001031,-89.510349,0.002157,
1290,1540,-0.036500,-0.841339,0.999999,0.000127,-0.000643,0.001753,-0.000160,0.001764,-0.000654,-86.194013,0.001783,
1330,1920,-0.017860,-0.177737,0.999999,0.000129,-0.000203,0.001628,0.000026,0.001628,-0.000204,89.185809,0.001774,
1640,830,-0.660244,-3.053254,0.999998,0.000163,-0.001460,0.002818,-0.000306,0.002839,-0.001482,-85.933460,0.002840,
770,770,0.675964,-3.194042,0.999998,0.000181,-0.001420,0.002733,0.000227,0.002745,-0.001432,86.885718,0.002746,
1560,720,-0.419749,-3.440561,0.999997,0.000222,-0.001678,0.002959,0.000106,0.002961,-0.001680,88.687149,0.002970,
1070,370,0.092838,-4.426789,0.999998,0.000168,-0.000666,0.001946,-0.000099,0.001949,-0.000670,-87.834502,0.001981,
1800,1440,-0.686247,-1.502723,0.999997,0.000213,-0.001302,0.002591,0.000020,0.002591,-0.001302,89.709022,0.002591,
1020,1100,0.543500,-2.209128,0.999997,0.000212,-0.001526,0.004014,0.000303,0.004030,-0.001543,86.878099,0.004067,
1710,1540,-0.492037,-1.172322,0.999998,0.000166,-0.001325,0.002591,-0.000062,0.002592,-0.001326,-89.094143,0.002593,
1480,1110,-0.580877,-2.231487,0.999997,0.000180,-0.001386,0.003545,0.000184,0.003552,-0.001393,87.868198,0.003579,
1250,260,-0.008090,-4.654711,0.999998,0.000156,-0.000409,0.001707,0.000021,0.001708,-0.000409,89.435805,0.001783,
1470,1610,-0.175071,-0.812263,0.999998,0.000162,-0.000971,0.002169,-0.000226,0.002185,-0.000987,-85.896315,0.002189,
620,310,0.503283,-4.278295,0.999998,0.000190,-0.001223,0.002535,-0.000030,0.002535,-0.001223,-89.539757,0.002536,
1850,760,-0.874769,-3.135051,0.999999,0.000135,-0.001242,0.002458,-0.000124,0.002462,-0.001246,-88.081170,0.002462,
760,1310,0.665629,-1.783060,0.999998,0.000168,-0.001410,0.002721,-0.000180,0.002729,-0.001418,-87.506018,0.002729,
810,1110,0.784416,-2.306377,0.999998,0.000169,-0.001118,0.002637,-0.000237,0.002652,-0.001133,-86.395629,0.002662,
800,1010,0.821903,-2.564198,0.999998,0.000162,-0.000985,0.002544,0.000077,0.002546,-0.000986,88.753475,0.002567,
1770,1260,-0.804411,-1.949145,0.999998,0.000168,-0.001279,0.002515,0.000224,0.002528,-0.001292,86.639728,0.002528,
1220,1730,0.006223,-0.498475,0.999998,0.000143,-0.000491,0.001739,0.000036,0.001740,-0.000491,89.076712,0.001794,
1760,1730,-0.415608,-0.729993,0.999998,0.000165,-0.001219,0.002501,0.000037,0.002502,-0.001219,89.431432,0.002502,
1840,1760,-0.485338,-0.720081,0.999998,0.000192,-0.001210,0.002510,0.000011,0.002510,-0.001210,89.824099,0.002510,
1510,1950,-0.046795,-0.143364,0.999999,0.000146,-0.000266,0.001785,0.000234,0.001811,-0.000293,83.561550,0.001945,
1590,500,-0.328215,-4.005266,0.999998,0.000172,-0.001244,0.002507,0.000159,0.002514,-0.001251,87.572194,0.002514,
1220,1350,0.004943,-1.102165,0.999999,0.000146,-0.000514,0.001017,0.000143,0.001030,-0.000527,84.707714,0.001030,
720,1250,0.778186,-1.962929,0.999998,0.000176,-0.001292,0.002603,-0.000241,0.002618,-0.001307,-86.476790,0.002618,
890,1910,0.091891,-0.224033,0.999998,0.000145,-0.000468,0.001946,-0.000291,0.001980,-0.000502,-83.227812,0.002059,
1380,1620,-0.095444,-0.734889,0.999998,0.000172,-0.000787,0.001935,-0.000197,0.001949,-0.000802,-85.875813,0.001959,
1520,1370,-0.324979,-1.451315,0.999996,0.000219,-0.001647,0.002827,-0.000318,0.002850,-0.001669,-85.958126,0.002864,
1130,290,0.046481,-4.593012,0.999998,0.000157,-0.000518,0.001807,-0.000042,0.001808,-0.000518,-88.966898,0.001862,
850,1550,0.360404,-1.064533,0.999998,0.000163,-0.001268,0.002521,0.000148,0.002526,-0.001274,87.759030,0.002526,
1600,760,-0.523152,-3.283499,0.999997,0.000181,-0.001657,0.002952,-0.000097,0.002954,-0.001659,-88.798801,0.002961,
640,1400,0.746923,-1.621084,0.999998,0.000172,-0.001291,0.002578,-0.000072,0.002579,-0.001292,-88.927809,0.002579,
1380,1160,-0.328427,-1.735362,0.999998,0.000195,-0.001123,0.002472,-0.001372,0.002936,-0.001586,-71.326809,0.002939,
1750,1880,-0.243032,-0.345934,0.999998,0.000149,-0.001058,0.002434,0.000362,0.002471,-0.001095,84.150151,0.002476,
730,1730,0.384759,-0.707584,0.999998,0.000171,-0.001168,0.002488,-0.000031,0.002488,-0.001168,-89.510213,0.002490,
760,470,0.453113,-3.990048,0.999998,0.000172,-0.001282,0.002543,-0.000066,0.002544,-0.001283,-89.010465,0.002544,
1210,460,0.013605,-4.300987,0.999998,0.000168,-0.000599,0.001730,-0.000080,0.001733,-0.000602,-88.023626,0.001759,
980,860,0.437050,-3.098993,0.999998,0.000187,-0.001878,0.003374,0.000007,0.003374,-0.001878,89.918406,0.003382,
930,30,0.007951,-5.022692,0.999999,0.000000,0.000080,0.001592,0.000241,0.001630,0.000043,81.168216,0.001907,
1040,1630,0.128372,-0.740003,0.999999,0.000118,-0.000812,0.002028,0.000175,0.002039,-0.000822,86.478272,0.002052,
1270,1540,-0.024637,-0.836278,0.999998,0.000141,-0.000630,0.001674,-0.000098,0.001678,-0.000634,-87.563523,0.001695,
1460,410,-0.154945,-4.311856,0.999998,0.000151,-0.000858,0.002112,0.000162,0.002121,-0.000867,86.886294,0.002133,
690,570,0.615496,-3.673596,0.999998,0.000175,-0.001300,0.002589,-0.000008,0.002589,-0.001300,-89.878384,0.002589,
1670,1900,-0.155336,-0.267435,0.999998,0.000178,-0.000719,0.002148,0.000414,0.002207,-0.000777,81.950635,0.002239,
870,1120,0.709191,-2.268395,0.999998,0.000182,-0.001188,0.002839,-0.000348,0.002869,-0.001218,-85.100051,0.002880,
1880,550,-0.736412,-3.644603,0.999998,0.000177,-0.001312,0.002568,0.000012,0.002568,-0.001312,89.820075,0.002568,
1510,1000,-0.674384,-2.604704,0.999998,0.000201,-0.000964,0.003200,-0.000147,0.003205,-0.000969,-87.981879,0.003287,
600,1080,1.025737,-2.406071,0.999998,0.000180,-0.000998,0.002156,-0.000022,0.002156,-0.000998,-89.602679,0.002158,
1680,920,-0.799625,-2.794395,0.999998,0.000169,-0.001170,0.002607,-0.000281,0.002628,-0.001191,-85.772166,0.002632,
1430,1450,-0.166959,-1.127614,0.999998,0.000150,-0.001189,0.002278,-0.000514,0.002352,-0.001264,-81.749650,0.002354,
1070,350,0.088961,-4.464480,0.999998,0.000172,-0.000647,0.001911,-0.000077,0.001914,-0.000649,-88.272563,0.001946,
1680,1190,-0.750371,-2.099849,0.999998,0.000187,-0.001303,0.002681,0.000274,0.002700,-0.001322,86.088776,0.002700,
1170,530,0.037632,-4.171421,0.999998,0.000154,-0.000652,0.001737,-0.000200,0.001753,-0.000669,-85.245803,0.001770,
770,750,0.656714,-3.249953,0.999998,0.000178,-0.001441,0.002752,0.000194,0.002761,-0.001450,87.353846,0.002762,
1550,1690,-0.217260,-0.685363,0.999998,0.000169,-0.000907,0.002233,-0.000011,0.002234,-0.000907,-89.803969,0.002247,
1900,80,-0.226872,-4.817244,0.999999,0.000000,-0.001056,0.003201,-0.000801,0.003347,-0.001202,-79.694589,0.003391,
1720,190,-0.234279,-4.675467,0.999998,0.000169,-0.000824,0.002373,-0.000393,0.002421,-0.000871,-83.089504,0.002452,
1020,570,0.175787,-3.975703,0.999999,0.000152,-0.001140,0.002217,-0.000431,0.002272,-0.001195,-82.794279,0.002273,
1020,1080,0.574079,-2.291534,0.999997,0.000237,-0.001557,0.004134,0.000294,0.004149,-0.001572,87.048171,0.004190,
1640,1080,-0.788879,-2.384006,0.999997,0.000193,-0.001041,0.002618,0.000193,0.002628,-0.001051,86.984052,0.002645,
680,1590,0.551206,-1.102183,0.999998,0.000188,-0.001291,0.002532,0.000037,0.002533,-0.001291,89.448707,0.002533,
700,570,0.602503,-3.682070,0.999997,0.000204,-0.001331,0.002609,-0.000015,0.002609,-0.001331,-89.776557,0.002610,
850,1530,0.370185,-1.116853,0.999998,0.000165,-0.001304,0.002548,0.000160,0.002554,-0.001310,87.620402,0.002555,
1330,1790,-0.040341,-0.399852,0.999998,0.000152,-0.000501,0.001781,-0.000020,0.001781,-0.000501,-89.504822,0.001837,
940,1020,0.695042,-2.541543,0.999998,0.000184,-0.000887,0.002960,0.000057,0.002960,-0.000887,89.152215,0.003038,
1380,1350,-0.118570,-1.276260,0.999998,0.000168,-0.001273,0.002143,-0.000842,0.002340,-0.001469,-76.876880,0.002365,
1380,1600,-0.098674,-0.772920,0.999998,0.000156,-0.000823,0.001957,-0.000232,0.001976,-0.000843,-85.268709,0.001984,
1800,1420,-0.700897,-1.554879,0.999998,0.000198,-0.001302,0.002580,0.000061,0.002581,-0.001303,89.106793,0.002581,
1520,1350,-0.337990,-1.507068,0.999998,0.000183,-0.001713,0.002877,-0.000294,0.002896,-0.001731,-86.352896,0.002914,
1290,1300,-0.032932,-1.191322,0.999998,0.000153,-0.000738,0.001099,-0.000741,0.001361,-0.001000,-70.554657,0.001410,
1320,1790,-0.035037,-0.398544,0.999998,0.000142,-0.000471,0.001778,-0.000015,0.001778,-0.000471,-89.617625,0.001842,
1880,1670,-0.613182,-0.980490,0.999998,0.000156,-0.001243,0.002457,-0.000024,0.002457,-0.001243,-89.620875,0.002457,
730,1690,0.416452,-0.808002,0.999998,0.000190,-0.001224,0.002524,0.000001,0.002524,-0.001224,89.982253,0.002525,
1650,200,-0.186830,-4.679791,0.999998,0.000161,-0.000727,0.002254,-0.000301,0.002284,-0.000757,-84.298757,0.002327,
920,2020,0.010990,-0.026683,0.999999,0.000000,0.000019,0.001621,-0.000263,0.001664,-0.000023,-80.905454,0.001908,
1590,480,-0.317985,-4.054770,0.999998,0.000168,-0.001221,0.002467,0.000165,0.002474,-0.001228,87.450509,0.002474,
640,1380,0.764942,-1.675729,0.999998,0.000166,-0.001270,0.002555,-0.000103,0.002558,-0.001272,-88.459777,0.002558,
630,1860,0.362159,-0.458716,0.999998,0.000188,-0.001186,0.002563,-0.000157,0.002570,-0.001193,-87.609990,0.002572,
890,780,0.498586,-3.246630,0.999997,0.000169,-0.001702,0.003042,0.000095,0.003044,-0.001704,88.853525,0.003051,
980,840,0.408905,-3.165533,0.999998,0.000193,-0.001935,0.003349,-0.000089,0.003350,-0.001937,-89.039338,0.003364,
1750,1940,-0.154505,-0.202157,0.999999,0.000133,-0.000843,0.002325,0.000573,0.002426,-0.000943,80.059037,0.002446,
1450,480,-0.164143,-4.166440,0.999998,0.000138,-0.001000,0.002134,0.000288,0.002161,-0.001026,84.787859,0.002162,
620,1090,1.003258,-2.380129,0.999998,0.000197,-0.001055,0.002216,-0.000042,0.002216,-0.001056,-89.259221,0.002217,
1470,1540,-0.192491,-0.965233,0.999998,0.000148,-0.001089,0.002255,-0.000291,0.002280,-0.001115,-85.066665,0.002280,
1470,1850,-0.083662,-0.319638,0.999998,0.000152,-0.000434,0.001876,0.000157,0.001887,-0.000445,86.119317,0.001972,
1100,470,0.086503,-4.247814,0.999998,0.000157,-0.000742,0.001910,-0.000216,0.001927,-0.000760,-85.367672,0.001942,
1310,1920,-0.015363,-0.178431,0.999999,0.000131,-0.000168,0.001622,0.000041,0.001623,-0.000169,88.697978,0.001785,
1040,1590,0.135662,-0.821124,0.999998,0.000156,-0.000863,0.002084,0.000234,0.002102,-0.000881,85.492574,0.002111,
1870,550,-0.723481,-3.652566,0.999998,0.000172,-0.001291,0.002559,0.000000,0.002559,-0.001291,-89.999936,0.002559,
690,530,0.585016,-3.777996,0.999998,0.000164,-0.001296,0.002594,-0.000022,0.002594,-0.001296,-89.671500,0.002594,
1430,350,-0.113864,-4.449427,0.999998,0.000180,-0.000730,0.001979,0.000077,0.001981,-0.000732,88.364231,0.002003,
1220,780,0.008076,-3.878032,0.999999,0.000146,-0.000600,0.000581,-0.000177,0.000606,-0.000625,-81.670150,0.000711,
700,750,0.753766,-3.211409,0.999998,0.000162,-0.001326,0.002604,0.000177,0.002612,-0.001334,87.421042,0.002612,
1400,1730,-0.087082,-0.527835,0.999998,0.000172,-0.000634,0.001930,-0.000045,0.001931,-0.000635,-88.997375,0.001968,
850,1510,0.383697,-1.168868,0.999998,0.000158,-0.001327,0.002602,0.000157,0.002608,-0.001333,87.721151,0.002608,
1770,810,-0.818373,-3.053473,0.999998,0.000164,-0.001262,0.002538,-0.000249,0.002554,-0.001278,-86.263446,0.002554,
1900,70,-0.202367,-4.849100,0.999999,0.000000,-0.000896,0.003348,-0.001049,0.003594,-0.001142,-76.845037,0.003672,
1020,1060,0.593647,-2.370860,0.999997,0.000222,-0.001631,0.004465,0.000235,0.004474,-0.001640,87.793949,0.004527,
1640,1280,-0.601712,-1.828235,0.999997,0.000184,-0.001567,0.002875,0.000186,0.002882,-0.001575,87.601298,0.002887,
780,610,0.521796,-3.640469,0.999998,0.000192,-0.001402,0.002680,-0.000047,0.002681,-0.001403,-89.347454,0.002682,
1180,410,0.030506,-4.385024,0.999998,0.000182,-0.000568,0.001781,-0.000042,0.001782,-0.000569,-88.965242,0.001820,
680,590,0.642893,-3.615063,0.999998,0.000183,-0.001291,0.002600,0.000021,0.002600,-0.001291,89.691388,0.002600,
1710,40,-0.030920,-4.999052,0.999999,0.000127,-0.000048,0.001898,-0.000636,0.002087,-0.000238,-73.423740,0.002285,
1800,1400,-0.717268,-1.605511,0.999997,0.000194,-0.001318,0.002584,0.000078,0.002585,-0.001320,88.851473,0.002586,
730,1670,0.429639,-0.858673,0.999998,0.000185,-0.001211,0.002538,0.000020,0.002538,-0.001212,89.693288,0.002539,
1680,380,-0.366487,-4.232823,0.999998,0.000178,-0.001150,0.002466,0.000029,0.002466,-0.001150,89.533050,0.002468,
1550,1650,-0.236737,-0.773715,0.999998,0.000151,-0.001038,0.002313,-0.000118,0.002317,-0.001043,-87.983977,0.002321,
1380,1580,-0.100305,-0.812704,0.999999,0.000148,-0.000844,0.001979,-0.000281,0.002007,-0.000872,-84.375837,0.002013,
820,1650,0.339236,-0.843322,0.999998,0.000165,-0.001153,0.002477,0.000078,0.002479,-0.001154,88.768617,0.002481,
1170,510,0.038576,-4.207105,0.999998,0.000148,-0.000626,0.001732,-0.000172,0.001744,-0.000638,-85.851133,0.001765,
770,730,0.637667,-3.304418,0.999998,0.000184,-0.001464,0.002773,0.000179,0.002781,-0.001472,87.582367,0.002783,
1870,1670,-0.600634,-0.971729,0.999998,0.000159,-0.001240,0.002482,-0.000016,0.002482,-0.001240,-89.750976,0.002482,
1290,1280,-0.037090,-1.213004,0.999998,0.000205,-0.000789,0.000985,-0.000773,0.001274,-0.001079,-69.460620,0.001373,
1050,200,0.057752,-4.740698,0.999999,0.000150,-0.000429,0.001803,0.000094,0.001807,-0.000432,87.603982,0.001888,
810,780,0.627624,-3.188652,0.999998,0.000185,-0.001525,0.002835,0.000217,0.002846,-0.001536,87.160155,0.002849,
1360,1350,-0.096710,-1.239953,0.999999,0.000149,-0.001147,0.001935,-0.000843,0.002151,-0.001362,-75.667320,0.002176,
600,1060,1.030066,-2.448198,0.999998,0.000163,-0.001003,0.002163,-0.000048,0.002163,-0.001003,-89.125485,0.002165,
1450,540,-0.177316,-4.034929,0.999999,0.000135,-0.001086,0.002237,0.000355,0.002275,-0.001123,83.960619,0.002275,
1070,330,0.084321,-4.503336,0.999998,0.000162,-0.000609,0.001937,-0.000041,0.001938,-0.000610,-89.080990,0.001982,
1340,80,-0.011567,-4.946860,0.999999,0.000129,-0.000107,0.001574,-0.000071,0.001577,-0.000110,-87.597767,0.001761,
940,480,0.241659,-4.109794,0.999998,0.000160,-0.001121,0.002346,-0.000228,0.002361,-0.001136,-86.259851,0.002362,
1470,870,-0.431717,-3.084884,0.999998,0.000177,-0.001859,0.003429,0.000082,0.003430,-0.001861,89.112186,0.003434,
890,800,0.521633,-3.185299,0.999998,0.000200,-0.001684,0.003059,0.000138,0.003063,-0.001688,88.329478,0.003069,
1630,1360,-0.509823,-1.592092,0.999998,0.000192,-0.001570,0.002853,0.000035,0.002854,-0.001570,89.544419,0.002859,
1480,1150,-0.512537,-2.091939,0.999997,0.000190,-0.001662,0.003446,0.000127,0.003450,-0.001665,88.574607,0.003450,
640,1360,0.783359,-1.723699,0.999998,0.000173,-0.001252,0.002515,-0.000090,0.002517,-0.001255,-88.635944,0.002517,
730,1540,0.522350,-1.190143,0.999998,0.000179,-0.001324,0.002584,0.000052,0.002585,-0.001325,89.243405,0.002585,
1640,190,-0.170891,-4.705284,0.999998,0.000199,-0.000634,0.002188,-0.000338,0.002228,-0.000674,-83.267037,0.002285,
920,30,0.006490,-5.020978,0.999999,0.000000,0.000054,0.001600,0.000272,0.001646,0.000008,80.307774,0.001905,
700,730,0.735902,-3.263273,0.999998,0.000177,-0.001341,0.002598,0.000163,0.002605,-0.001348,87.629594,0.002606,
1410,1920,-0.034346,-0.183221,0.999999,0.000113,-0.000261,0.001684,0.000105,0.001690,-0.000266,86.912814,0.001817,
620,1790,0.460486,-0.649100,0.999998,0.000185,-0.001200,0.002543,-0.000042,0.002544,-0.001200,-89.364441,0.002545,
1450,1540,-0.171778,-0.949283,0.999999,0.000143,-0.001041,0.002205,-0.000314,0.002235,-0.001071,-84.528337,0.002236,
980,820,0.380441,-3.232864,0.999998,0.000190,-0.001965,0.003319,-0.000182,0.003325,-0.001971,-88.025129,0.003344,
1860,550,-0.710593,-3.659411,0.999998,0.000167,-0.001274,0.002559,-0.000007,0.002559,-0.001274,-89.893152,0.002559,
680,1920,0.220427,-0.266911,0.999998,0.000195,-0.000943,0.002458,-0.000565,0.002550,-0.001034,-80.807910,0.002565,
1740,1790,-0.337824,-0.561511,0.999998,0.000199,-0.001126,0.002505,0.000143,0.002511,-0.001131,87.740385,0.002515,
1430,310,-0.103621,-4.529055,0.999998,0.000204,-0.000668,0.001964,0.000039,0.001964,-0.000669,89.154654,0.001997,
1020,1040,0.603596,-2.467893,0.999997,0.000211,-0.001681,0.004537,0.000084,0.004538,-0.001682,89.224225,0.004589,
1900,60,-0.175781,-4.881173,0.999997,0.000000,-0.000679,0.003544,-0.001402,0.003968,-0.001103,-73.209575,0.004096,
1640,1520,-0.413050,-1.165005,0.999998,0.000161,-0.001340,0.002598,-0.000129,0.002603,-0.001344,-88.127115,0.002603,
770,710,0.617971,-3.361048,0.999997,0.000215,-0.001455,0.002749,0.000137,0.002753,-0.001460,88.135083,0.002755,
1760,1760,-0.391958,-0.652579,0.999998,0.000199,-0.001208,0.002527,0.000071,0.002528,-0.001209,88.914253,0.002529,
920,1670,0.221668,-0.725710,0.999998,0.000159,-0.000921,0.002254,0.000061,0.002256,-0.000922,88.894495,0.002268,
1170,490,0.039290,-4.243509,0.999998,0.000145,-0.000651,0.001765,-0.000133,0.001773,-0.000658,-86.856410,0.001792,
1800,1380,-0.734723,-1.657776,0.999998,0.000176,-0.001312,0.002581,0.000113,0.002584,-0.001316,88.335294,0.002584,
1680,360,-0.351660,-4.282261,0.999998,0.000157,-0.001130,0.002436,0.000005,0.002436,-0.001130,89.911865,0.002438,
1220,760,0.005789,-3.890143,0.999999,0.000128,-0.000507,0.000671,-0.000153,0.000691,-0.000527,-82.727737,0.000722,
1860,1670,-0.588698,-0.963631,0.999998,0.000184,-0.001237,0.002498,-0.000011,0.002498,-0.001237,-89.829269,0.002498,
620,1570,0.641107,-1.201303,0.999998,0.000160,-0.001272,0.002553,0.000049,0.002553,-0.001273,89.259596,0.002553,
760,610,0.549185,-3.623832,0.999998,0.000194,-0.001387,0.002669,-0.000029,0.002670,-0.001387,-89.593494,0.002670,
850,1490,0.393340,-1.221718,0.999998,0.000174,-0.001364,0.002647,0.000148,0.002652,-0.001369,87.892472,0.002653,
1330,500,-0.065255,-4.207285,0.999998,0.000131,-0.000718,0.001850,0.000228,0.001870,-0.000739,84.964652,0.001884,
1870,920,-1.012088,-2.753002,0.999998,0.000168,-0.001080,0.002209,-0.000089,0.002212,-0.001083,-88.454002,0.002212,
670,1540,0.599500,-1.238311,0.999998,0.000168,-0.001283,0.002596,0.000032,0.002597,-0.001283,89.529382,0.002597,
1070,310,0.079182,-4.542799,0.999998,0.000163,-0.000563,0.001910,-0.000029,0.001911,-0.000563,-89.337499,0.001964,
850,360,0.278346,-4.326182,0.999998,0.000170,-0.001012,0.002340,0.000009,0.002340,-0.001012,89.846469,0.002347,
1890,320,-0.570499,-4.209919,0.999997,0.000201,-0.001197,0.002445,0.000000,0.002445,-0.001197,89.994463,0.002445,
1100,1170,0.285006,-1.625907,0.999998,0.000180,-0.000862,0.001840,0.001272,0.002344,-0.001367,68.362431,0.002355,
730,1650,0.446338,-0.910929,0.999998,0.000178,-0.001201,0.002536,0.000032,0.002536,-0.001201,89.510320,0.002537,
1450,660,-0.204474,-3.754677,0.999998,0.000189,-0.001408,0.002496,0.000577,0.002580,-0.001491,81.766557,0.002590,
1380,1560,-0.103231,-0.853730,0.999999,0.000140,-0.000859,0.001982,-0.000311,0.002016,-0.000892,-83.825813,0.002020,
640,490,0.619714,-3.841860,0.999998,0.000173,-0.001275,0.002555,-0.000042,0.002555,-0.001276,-89.376512,0.002555,
1180,390,0.028956,-4.421501,0.999998,0.000150,-0.000550,0.001795,-0.000046,0.001795,-0.000551,-88.878506,0.001840,
640,1340,0.800644,-1.774736,0.999998,0.000159,-0.001263,0.002544,-0.000107,0.002547,-0.001266,-88.386786,0.002547,
1550,1110,-0.669211,-2.284026,0.999998,0.000177,-0.001153,0.002979,0.000354,0.003009,-0.001183,85.144701,0.003032,
970,30,0.006510,-5.023758,0.999999,0.000000,-0.000137,0.001629,0.000174,0.001646,-0.000154,84.418872,0.001818,
710,1540,0.547647,-1.206007,0.999998,0.000180,-0.001280,0.002583,0.000037,0.002584,-0.001280,89.456978,0.002584,
600,1040,1.034424,-2.492061,0.999998,0.000168,-0.001021,0.002206,-0.000054,0.002207,-0.001022,-89.046417,0.002209,
1550,1920,-0.077986,-0.202270,0.999998,0.000149,-0.000322,0.001899,0.000275,0.001932,-0.000356,83.050287,0.002057,
1330,710,-0.064028,-3.842422,0.999999,0.000132,-0.000952,0.001656,0.000800,0.001882,-0.001178,74.234716,0.001902,
940,460,0.230605,-4.156661,0.999999,0.000160,-0.001080,0.002325,-0.000185,0.002335,-0.001090,-86.894910,0.002337,
1360,1330,-0.096713,-1.279507,0.999998,0.000169,-0.001199,0.001988,-0.000931,0.002241,-0.001452,-74.852110,0.002273,
1430,1540,-0.151953,-0.931193,0.999999,0.000154,-0.001002,0.002138,-0.000341,0.002175,-0.001039,-83.869914,0.002176,
780,430,0.402594,-4.105937,0.999998,0.000185,-0.001205,0.002507,-0.000050,0.002507,-0.001206,-89.233312,0.002508,
700,710,0.717183,-3.314264,0.999997,0.000188,-0.001350,0.002634,0.000135,0.002639,-0.001354,88.065919,0.002639,
640,710,0.794843,-3.276802,0.999998,0.000163,-0.001275,0.002525,0.000115,0.002528,-0.001279,88.275123,0.002528,
980,800,0.354616,-3.298975,0.999998,0.000185,-0.001943,0.003213,-0.000268,0.003227,-0.001957,-87.032143,0.003251,
1420,1700,-0.109043,-0.596255,0.999998,0.000205,-0.000743,0.002023,-0.000103,0.002027,-0.000747,-87.871412,0.002051,
690,40,0.042154,-4.997300,0.999999,0.000144,-0.000179,0.002075,0.000833,0.002349,-0.000453,71.769616,0.002492,
680,1900,0.249279,-0.317440,0.999998,0.000188,-0.001030,0.002530,-0.000468,0.002591,-0.001091,-82.629622,0.002601,
1020,1020,0.607557,-2.549558,0.999997,0.000229,-0.001676,0.004520,-0.000078,0.004521,-0.001677,-89.275404,0.004571,
1410,1140,-0.412715,-1.949235,0.999997,0.000202,-0.001547,0.003463,-0.001065,0.003680,-0.001764,-78.478253,0.003681,
1900,50,-0.135592,-4.920491,0.999997,0.000000,-0.000472,0.003737,-0.001774,0.004385,-0.001120,-69.937069,0.004556,
1640,540,-0.416858,-3.860986,0.999998,0.000169,-0.001360,0.002585,0.000117,0.002589,-0.001364,88.308420,0.002590,
1470,830,-0.369805,-3.222403,0.999998,0.000183,-0.001951,0.003323,0.000215,0.003332,-0.001959,87.673782,0.003349,
770,690,0.600813,-3.414341,0.999997,0.000220,-0.001444,0.002726,0.000092,0.002728,-0.001446,88.741373,0.002730,
1220,740,0.003681,-3.903229,0.999999,0.000126,-0.000471,0.000836,-0.000154,0.000854,-0.000489,-83.350067,0.000857,
1800,1360,-0.752903,-1.709020,0.999998,0.000163,-0.001288,0.002550,0.000116,0.002554,-0.001292,88.270836,0.002554,
1170,470,0.037459,-4.278087,0.999998,0.000159,-0.000644,0.001785,-0.000103,0.001789,-0.000649,-87.569323,0.001812,
1680,340,-0.337040,-4.330325,0.999998,0.000170,-0.001117,0.002439,-0.000007,0.002439,-0.001117,-89.887954,0.002442,
740,1430,0.589918,-1.471668,0.999997,0.000186,-0.001381,0.002677,-0.000024,0.002677,-0.001381,-89.655818,0.002677,
980,1110,0.585184,-2.236380,0.999997,0.000202,-0.001371,0.003504,-0.000204,0.003513,-0.001380,-87.611151,0.003540,
1290,1600,-0.035964,-0.735163,0.999999,0.000138,-0.000609,0.001788,-0.000093,0.001792,-0.000612,-87.792984,0.001821,
1430,1800,-0.084587,-0.405421,0.999998,0.000146,-0.000548,0.001888,0.000006,0.001888,-0.000548,89.851525,0.001943,
600,1570,0.667225,-1.218826,0.999998,0.000160,-0.001276,0.002552,0.000031,0.002553,-0.001276,89.538638,0.002553,
1610,1740,-0.246824,-0.604820,0.999998,0.000180,-0.000965,0.002282,0.000040,0.002283,-0.000965,89.290477,0.002292,
730,1720,0.392438,-0.732826,0.999998,0.000180,-0.001194,0.002507,-0.000017,0.002508,-0.001194,-89.736957,0.002508,
850,340,0.266755,-4.374192,0.999998,0.000164,-0.000967,0.002370,0.000046,0.002371,-0.000967,89.206781,0.002384,
1760,450,-0.512288,-3.993301,0.999998,0.000172,-0.001259,0.002542,0.000041,0.002543,-0.001260,89.384978,0.002543,
1760,1720,-0.424264,-0.753715,0.999998,0.000176,-0.001218,0.002512,0.000025,0.002512,-0.001218,89.612185,0.002512,
1330,460,-0.063151,-4.280173,0.999999,0.000147,-0.000693,0.001841,0.000173,0.001853,-0.000705,86.124398,0.001870,
830,240,0.210866,-4.596145,0.999997,0.000188,-0.000751,0.002284,0.000221,0.002300,-0.000767,85.863027,0.002342,
1030,30,0.004972,-5.022299,0.999999,0.000000,0.000015,0.001569,0.000163,0.001585,-0.000002,84.069152,0.001830,
830,1180,0.698431,-2.110930,0.999997,0.000205,-0.001341,0.002825,-0.000333,0.002851,-0.001367,-85.461885,0.002852,
850,1470,0.405835,-1.274484,0.999998,0.000189,-0.001412,0.002649,0.000140,0.002653,-0.001417,88.032748,0.002655,
1280,1340,-0.025239,-1.136455,0.999998,0.000157,-0.000658,0.001142,-0.000500,0.001271,-0.000787,-75.474808,0.001283,
1550,1090,-0.690230,-2.342219,0.999998,0.000188,-0.001080,0.002895,0.000271,0.002913,-0.001098,86.113125,0.002942,
1460,1410,-0.214148,-1.261501,0.999998,0.000180,-0.001397,0.002471,-0.000506,0.002536,-0.001462,-82.661845,0.002546,
1070,290,0.074156,-4.579557,0.999998,0.000175,-0.000534,0.001874,-0.000004,0.001874,-0.000534,-89.907655,0.001930,
1380,1540,-0.105538,-0.893623,0.999999,0.000136,-0.000875,0.001973,-0.000346,0.002015,-0.000917,-83.168302,0.002017,
1170,1500,0.038818,-0.912303,0.999999,0.000130,-0.000695,0.001675,0.000236,0.001698,-0.000719,84.370186,0.001705,
1650,1060,-0.805665,-2.435724,0.999998,0.000169,-0.001006,0.002545,0.000093,0.002548,-0.001008,88.503576,0.002566,
1160,390,0.040067,-4.417884,0.999998,0.000141,-0.000576,0.001804,-0.000058,0.001805,-0.000578,-88.602908,0.001844,
1800,390,-0.516167,-4.113888,0.999998,0.000185,-0.001242,0.002516,0.000024,0.002516,-0.001243,89.639307,0.002516,
760,450,0.439180,-4.040140,0.999998,0.000162,-0.001246,0.002506,-0.000080,0.002508,-0.001248,-88.776845,0.002508,
570,1250,0.961542,-2.041664,0.999998,0.000166,-0.001207,0.002270,0.000036,0.002270,-0.001207,89.399248,0.002272,
1450,640,-0.199423,-3.803979,0.999998,0.000142,-0.001338,0.002418,0.000533,0.002492,-0.001412,82.084373,0.002500,
620,710,0.821170,-3.264076,0.999998,0.000160,-0.001266,0.002509,0.000099,0.002512,-0.001269,88.494748,0.002512,
640,1320,0.818733,-1.825840,0.999999,0.000142,-0.001274,0.002508,-0.000135,0.002513,-0.001278,-87.958819,0.002513,
940,440,0.220565,-4.204452,0.999998,0.000171,-0.001019,0.002287,-0.000176,0.002296,-0.001028,-86.960602,0.002300,
1330,670,-0.064329,-3.908636,0.999998,0.000154,-0.000866,0.001670,0.000665,0.001834,-0.001030,76.160137,0.001839,
1010,1920,0.046565,-0.190102,0.999998,0.000170,-0.000232,0.001708,-0.000159,0.001721,-0.000245,-85.334107,0.001862,
680,40,0.044908,-4.995887,0.999999,0.000130,-0.000121,0.002098,0.000883,0.002407,-0.000430,70.741215,0.002567,
600,1020,1.035814,-2.536981,0.999998,0.000171,-0.001044,0.002194,0.000048,0.002195,-0.001044,89.145602,0.002196,
850,1440,0.423388,-1.352861,0.999998,0.000191,-0.001483,0.002686,0.000141,0.002691,-0.001487,88.059200,0.002696,
680,1880,0.279748,-0.367779,0.999998,0.000195,-0.001071,0.002537,-0.000401,0.002581,-0.001114,-83.737396,0.002589,
1640,500,-0.392429,-3.963930,0.999998,0.000171,-0.001297,0.002540,0.000125,0.002544,-0.001301,88.129103,0.002544,
1890,760,-0.921560,-3.106483,0.999998,0.000185,-0.001162,0.002441,-0.000079,0.002443,-0.001164,-88.745117,0.002443,
660,1530,0.620088,-1.272154,0.999997,0.000196,-0.001279,0.002592,0.000019,0.002592,-0.001279,89.716502,0.002592,
1170,450,0.036600,-4.311967,0.999998,0.000167,-0.000621,0.001792,-0.000079,0.001794,-0.000623,-88.117105,0.001822,
1890,1240,-0.965552,-2.061686,0.999999,0.000128,-0.001129,0.002312,0.000054,0.002313,-0.001130,89.105449,0.002313,
770,670,0.583013,-3.471245,0.999997,0.000205,-0.001436,0.002731,0.000053,0.002731,-0.001437,89.277966,0.002732,
1220,720,0.006150,-3.923414,0.999999,0.000126,-0.000467,0.000982,-0.000158,0.000999,-0.000485,-83.843309,0.000999,
800,1810,0.240786,-0.469127,0.999998,0.000152,-0.000938,0.002330,-0.000186,0.002341,-0.000948,-86.745204,0.002355,
1420,1680,-0.115656,-0.638378,0.999998,0.000168,-0.000759,0.002028,-0.000112,0.002033,-0.000763,-87.697014,0.002054,
810,1090,0.796864,-2.360862,0.999998,0.000138,-0.001059,0.002610,-0.000209,0.002622,-0.001071,-86.749757,0.002636,
890,1890,0.108024,-0.264728,0.999998,0.000168,-0.000532,0.001982,-0.000287,0.002014,-0.000564,-83.569120,0.002078,
1120,1240,0.116658,-1.409947,0.999998,0.000204,-0.001386,0.001808,0.001114,0.002159,-0.001736,72.546672,0.002288,
780,2020,0.023002,-0.031019,0.999999,0.000000,-0.000141,0.001787,-0.000491,0.001904,-0.000259,-76.500147,0.002066,
1760,430,-0.497532,-4.044153,0.999998,0.000164,-0.001259,0.002529,0.000032,0.002529,-0.001259,89.517436,0.002529,
980,780,0.333568,-3.361268,0.999998,0.000181,-0.001896,0.003120,-0.000323,0.003141,-0.001916,-86.328504,0.003166,
1730,110,-0.131638,-4.857091,0.999999,0.000148,-0.000571,0.002220,-0.000608,0.002347,-0.000698,-78.229518,0.002410,
830,480,0.370800,-4.019814,0.999998,0.000148,-0.001237,0.002520,-0.000103,0.002523,-0.001239,-88.437930,0.002523,
1130,1660,0.060014,-0.640454,0.999998,0.000177,-0.000638,0.001852,0.000133,0.001859,-0.000645,86.949332,0.001887,
1020,1000,0.597547,-2.646264,0.999997,0.000208,-0.001626,0.004533,-0.000208,0.004540,-0.001633,-88.070136,0.004600,
730,1630,0.460025,-0.960902,0.999998,0.000174,-0.001211,0.002516,0.000045,0.002517,-0.001212,89.314652,0.002518,
620,1310,0.851979,-1.862783,0.999999,0.000144,-0.001221,0.002461,-0.000094,0.002463,-0.001223,-88.539263,0.002463,
1590,1860,-0.142945,-0.330136,0.999998,0.000174,-0.000674,0.002100,0.000253,0.002123,-0.000697,84.822160,0.002164,
1050,1460,0.145200,-1.087842,0.999998,0.000144,-0.001101,0.002167,0.000534,0.002252,-0.001186,80.944411,0.002253,
1180,1790,0.020806,-0.396020,0.999998,0.000145,-0.000395,0.001750,-0.000004,0.001750,-0.000395,-89.901365,0.001835,
1680,320,-0.321561,-4.379091,0.999998,0.000158,-0.001113,0.002467,-0.000038,0.002467,-0.001114,-89.393324,0.002471,
1600,130,-0.094275,-4.838949,0.999998,0.000161,-0.000427,0.001973,-0.000357,0.002025,-0.000479,-81.720576,0.002116,
1800,1340,-0.769725,-1.762494,0.999998,0.000164,-0.001280,0.002551,0.000131,0.002556,-0.001285,88.041404,0.002556,
1570,280,-0.187816,-4.535594,0.999998,0.000161,-0.000809,0.002178,-0.000088,0.002181,-0.000812,-88.309189,0.002205,
1280,1320,-0.026630,-1.157732,0.999999,0.000141,-0.000668,0.001025,-0.000563,0.001195,-0.000838,-73.188287,0.001227,
1620,790,-0.586490,-3.180581,0.999997,0.000186,-0.001592,0.002955,-0.000179,0.002962,-0.001599,-87.754244,0.002965,
1380,1740,-0.073560,-0.503823,0.999998,0.000148,-0.000503,0.001871,-0.000015,0.001871,-0.000503,-89.635652,0.001936,
1860,1130,-1.004575,-2.294376,0.999999,0.000133,-0.001106,0.002239,0.000109,0.002242,-0.001109,88.142604,0.002242,
1560,1230,-0.528248,-1.919864,0.999998,0.000178,-0.001697,0.003105,0.000176,0.003111,-0.001704,87.905952,0.003116,
610,1920,0.291205,-0.325668,0.999997,0.000195,-0.001245,0.002642,-0.000310,0.002666,-0.001270,-85.473192,0.002667,
1900,40,-0.091762,-4.959106,0.999998,0.000000,-0.000174,0.003867,-0.002073,0.004742,-0.001048,-67.127841,0.004982,
710,1520,0.562536,-1.258843,0.999998,0.000208,-0.001307,0.002598,0.000044,0.002599,-0.001307,89.351064,0.002599,
1490,820,-0.394528,-3.220459,0.999998,0.000185,-0.001937,0.003298,0.000125,0.003301,-0.001940,88.627669,0.003318,
760,430,0.427284,-4.089782,0.999998,0.000161,-0.001234,0.002517,-0.000057,0.002518,-0.001235,-89.137166,0.002518,
1450,520,-0.172860,-4.079251,0.999998,0.000156,-0.001068,0.002243,0.000337,0.002277,-0.001102,84.243014,0.002277,
700,1250,0.804337,-1.971302,0.999999,0.000158,-0.001275,0.002586,-0.000230,0.002600,-0.001289,-86.601597,0.002600,
1210,1540,0.013757,-0.833474,0.999999,0.000153,-0.000622,0.001695,0.000092,0.001699,-0.000626,87.728949,0.001718,
1890,550,-0.749880,-3.635655,0.999997,0.000186,-0.001325,0.002567,0.000020,0.002567,-0.001325,89.712710,0.002568,
680,1860,0.305767,-0.417781,0.999998,0.000177,-0.001106,0.002542,-0.000310,0.002568,-0.001132,-85.180097,0.002574,
810,1740,0.288165,-0.629723,0.999998,0.000166,-0.001025,0.002391,-0.000075,0.002392,-0.001027,-88.740948,0.002400,
1880,1240,-0.954175,-2.055732,0.999998,0.000141,-0.001130,0.002313,0.000059,0.002314,-0.001131,89.025314,0.002314,
1830,760,-0.847676,-3.147028,0.999999,0.000147,-0.001245,0.002486,-0.000145,0.002492,-0.001250,-87.783386,0.002492,
1860,1930,-0.280525,-0.309306,0.999998,0.000153,-0.001188,0.002688,0.000350,0.002719,-0.001219,84.880665,0.002724,
640,1300,0.835390,-1.875677,0.999999,0.000141,-0.001251,0.002481,-0.000132,0.002486,-0.001255,-87.984248,0.002486,
980,760,0.316056,-3.422745,0.999998,0.000173,-0.001846,0.003054,-0.000373,0.003082,-0.001874,-85.672538,0.003106,
1160,770,0.045838,-3.807026,0.999999,0.000131,-0.000856,0.001169,-0.000889,0.001504,-0.001191,-69.354773,0.001588,
1760,1180,-0.858148,-2.146548,0.999998,0.000164,-0.001204,0.002533,0.000256,0.002550,-0.001221,86.097296,0.002551,
1470,290,-0.121293,-4.554561,0.999998,0.000159,-0.000621,0.002007,-0.000042,0.002007,-0.000621,-89.091275,0.002055,
850,1450,0.417040,-1.326630,0.999998,0.000191,-0.001466,0.002652,0.000139,0.002657,-0.001471,88.074898,0.002662,
1570,1600,-0.282817,-0.908456,0.999998,0.000169,-0.001109,0.002372,-0.000159,0.002379,-0.001116,-87.397956,0.002381,
820,1570,0.385667,-1.040072,0.999998,0.000164,-0.001279,0.002517,0.000095,0.002519,-0.001281,88.565667,0.002519,
1680,300,-0.306618,-4.431153,0.999998,0.000162,-0.001097,0.002436,-0.000077,0.002437,-0.001099,-88.745134,0.002441,
1300,1330,-0.040125,-1.171949,0.999998,0.000161,-0.000768,0.001286,-0.000692,0.001497,-0.000979,-73.006332,0.001521,
940,420,0.218373,-4.247942,0.999998,0.000164,-0.000955,0.002246,-0.000142,0.002252,-0.000961,-87.467577,0.002260,
910,680,0.375569,-3.564888,0.999997,0.000202,-0.001608,0.002845,-0.000206,0.002854,-0.001617,-87.353294,0.002863,
1330,130,-0.016258,-4.867549,0.999999,0.000132,-0.000221,0.001636,-0.000043,0.001637,-0.000222,-88.672442,0.001776,
1710,80,-0.083422,-4.921671,0.999998,0.000141,-0.000300,0.001997,-0.000602,0.002145,-0.000448,-76.171725,0.002264,
1740,450,-0.486233,-4.010452,0.999998,0.000160,-0.001292,0.002531,0.000046,0.002532,-0.001292,89.304238,0.002532,
1020,980,0.579587,-2.729340,0.999997,0.000224,-0.001581,0.004174,-0.000301,0.004189,-0.001596,-87.018432,0.004228,
770,2020,0.023371,-0.030913,0.999999,0.000000,-0.000078,0.001810,-0.000542,0.001955,-0.000222,-75.060540,0.002140,
1630,1910,-0.119244,-0.236399,0.999998,0.000160,-0.000447,0.002047,0.000378,0.002103,-0.000503,81.560002,0.002196,
1800,1320,-0.788060,-1.809950,0.999998,0.000148,-0.001271,0.002563,0.000134,0.002567,-0.001276,87.998734,0.002567,
1020,1530,0.166274,-0.965280,0.999998,0.000150,-0.001069,0.002199,0.000361,0.002239,-0.001109,83.764357,0.002239,
1500,690,-0.296194,-3.603796,0.999998,0.000219,-0.001631,0.002817,0.000396,0.002852,-0.001666,84.948374,0.002865,
1900,30,-0.047935,-4.997366,0.999998,0.000000,0.000053,0.003839,-0.002216,0.004861,-0.000969,-65.248871,0.005145,
1070,270,0.070034,-4.617563,0.999998,0.000168,-0.000489,0.001847,0.000023,0.001847,-0.000489,89.437250,0.001914,
760,750,0.671511,-3.243315,0.999998,0.000174,-0.001423,0.002723,0.000194,0.002732,-0.001432,87.329786,0.002733,
680,1250,0.829687,-1.979818,0.999999,0.000144,-0.001257,0.002534,-0.000224,0.002548,-0.001271,-86.630402,0.002548,
1450,500,-0.168973,-4.125508,0.999998,0.000140,-0.001043,0.002196,0.000309,0.002225,-0.001073,84.597526,0.002225,
1670,520,-0.443005,-3.888146,0.999998,0.000153,-0.001298,0.002571,0.000097,0.002573,-0.001300,88.564730,0.002573,
1680,890,-0.773393,-2.874159,0.999998,0.000185,-0.001238,0.002663,-0.000316,0.002688,-0.001264,-85.404511,0.002690,
870,1920,0.095009,-0.209716,0.999998,0.000169,-0.000486,0.001948,-0.000319,0.001989,-0.000527,-82.653460,0.002061,
1310,460,-0.048956,-4.289812,0.999999,0.000131,-0.000707,0.001812,0.000164,0.001822,-0.000717,86.284468,0.001836,
1530,1540,-0.261983,-1.019381,0.999999,0.000171,-0.001188,0.002401,-0.000235,0.002416,-0.001203,-86.276997,0.002416,
730,1610,0.473159,-1.012101,0.999998,0.000164,-0.001244,0.002515,0.000050,0.002516,-0.001245,89.237688,0.002516,
1800,570,-0.649957,-3.655111,0.999998,0.000175,-0.001296,0.002585,0.000024,0.002585,-0.001296,89.641165,0.002585,
1380,1980,-0.012322,-0.085225,0.999998,0.000149,-0.000069,0.001572,0.000106,0.001579,-0.000076,86.315346,0.001782,
680,1840,0.332336,-0.470662,0.999998,0.000185,-0.001127,0.002505,-0.000261,0.002524,-0.001146,-85.913110,0.002528,
640,1280,0.852526,-1.924620,0.999999,0.000147,-0.001250,0.002504,-0.000152,0.002511,-0.001256,-87.678157,0.002511,
1470,270,-0.113071,-4.594977,0.999999,0.000140,-0.000578,0.001985,-0.000060,0.001986,-0.000580,-88.658159,0.002043,
1760,1160,-0.875316,-2.198127,0.999999,0.000140,-0.001183,0.002470,0.000241,0.002486,-0.001199,86.236692,0.002487,
740,590,0.561812,-3.661564,0.999997,0.000206,-0.001349,0.002644,-0.000013,0.002644,-0.001349,-89.813076,0.002644,
1350,1600,-0.075878,-0.758923,0.999999,0.000156,-0.000675,0.001857,-0.000174,0.001869,-0.000687,-86.076713,0.001890,
980,740,0.298384,-3.485590,0.999998,0.000179,-0.001795,0.002961,-0.000426,0.002998,-0.001833,-84.923672,0.003023,
1680,280,-0.288680,-4.478277,0.999997,0.000177,-0.001058,0.002391,-0.000120,0.002395,-0.001063,-88.003314,0.002400,
1800,1300,-0.806508,-1.861000,0.999998,0.000145,-0.001262,0.002529,0.000169,0.002536,-0.001270,87.457045,0.002536,
1780,1690,-0.473019,-0.846779,0.999997,0.000192,-0.001206,0.002533,-0.000005,0.002533,-0.001206,-89.922257,0.002534,
1890,2020,-0.069851,-0.062483,0.999998,0.000000,0.000325,0.003630,0.001996,0.004569,-0.000614,64.805253,0.004959,
940,400,0.209457,-4.291876,0.999998,0.000166,-0.000918,0.002235,-0.000114,0.002239,-0.000922,-87.940502,0.002251,
1020,960,0.552378,-2.810575,0.999997,0.000223,-0.001548,0.004008,-0.000313,0.004025,-0.001565,-86.784174,0.004058,
1330,110,-0.014239,-4.901396,0.999999,0.000135,-0.000155,0.001589,-0.000041,0.001590,-0.000156,-88.655387,0.001753,
1710,60,-0.055801,-4.961798,0.999999,0.000113,-0.000188,0.001941,-0.000599,0.002098,-0.000344,-75.323100,0.002250,
890,1870,0.123615,-0.302637,0.999998,0.000180,-0.000608,0.002031,-0.000240,0.002053,-0.000630,-84.841864,0.002104,
1810,1500,-0.650922,-1.355292,0.999998,0.000156,-0.001297,0.002555,-0.000019,0.002555,-0.001297,-89.719826,0.002555,
1570,760,-0.472359,-3.311035,0.999996,0.000222,-0.001703,0.003020,-0.000003,0.003020,-0.001703,-89.969501,0.003028,
810,1070,0.806651,-2.409469,0.999998,0.000158,-0.001015,0.002580,-0.000124,0.002584,-0.001019,-88.022192,0.002603,
1230,1420,-0.000553,-1.016872,0.999999,0.000106,-0.000567,0.001360,0.000018,0.001360,-0.000567,89.465585,0.001366,
850,1430,0.431482,-1.380271,0.999997,0.000196,-0.001497,0.002737,0.000137,0.002741,-0.001501,88.153586,0.002746,
1600,740,-0.502782,-3.343709,0.999997,0.000191,-0.001653,0.002941,-0.000045,0.002942,-0.001653,-89.441697,0.002949,
1120,1200,0.182189,-1.480495,0.999997,0.000214,-0.001069,0.001579,0.000935,0.001875,-0.001366,72.384335,0.001940,
1780,1810,-0.363018,-0.543638,0.999997,0.000193,-0.001168,0.002545,0.000155,0.002551,-0.001175,87.610547,0.002554,
1070,250,0.064621,-4.652247,0.999998,0.000148,-0.000437,0.001843,0.000033,0.001843,-0.000437,89.168517,0.001926,
1550,1070,-0.703282,-2.398770,0.999998,0.000195,-0.000996,0.002896,0.000200,0.002906,-0.001006,87.059254,0.002951,
570,1170,1.017990,-2.221036,0.999998,0.000170,-0.000975,0.002119,-0.000010,0.002119,-0.000975,-89.809660,0.002121,
600,1250,0.926842,-2.021487,0.999999,0.000143,-0.001164,0.002330,-0.000089,0.002333,-0.001166,-88.547322,0.002333,
1500,1990,-0.021834,-0.073802,0.999999,0.000173,-0.000179,0.001657,0.000222,0.001683,-0.000205,83.210891,0.001837,
1350,1920,-0.022544,-0.181583,0.999999,0.000109,-0.000209,0.001638,0.000068,0.001640,-0.000212,87.893556,0.001784,
1470,250,-0.104660,-4.634116,0.999998,0.000156,-0.000537,0.001950,-0.000082,0.001953,-0.000540,-88.111435,0.002017,
790,140,0.139716,-4.803968,0.999998,0.000166,-0.000685,0.002148,0.000422,0.002210,-0.000747,81.715759,0.002248,
1280,1300,-0.026706,-1.178712,0.999999,0.000145,-0.000674,0.000997,-0.000634,0.001210,-0.000887,-71.404962,0.001253,
1490,1060,-0.651464,-2.411414,0.999997,0.000186,-0.001048,0.003415,0.000117,0.003418,-0.001051,88.501492,0.003501,
1510,1930,-0.057624,-0.179779,0.999998,0.000150,-0.000332,0.001811,0.000221,0.001833,-0.000355,84.181394,0.001945,
1250,340,-0.009512,-4.513076,0.999998,0.000150,-0.000507,0.001761,0.000041,0.001762,-0.000508,88.955750,0.001814,
1140,770,0.063192,-3.762749,0.999998,0.000187,-0.001053,0.001473,-0.001020,0.001833,-0.001413,-70.537959,0.001920,
980,720,0.286110,-3.541489,0.999997,0.000201,-0.001699,0.002849,-0.000435,0.002890,-0.001740,-84.588212,0.002910,
1680,260,-0.270846,-4.526177,0.999997,0.000183,-0.001020,0.002382,-0.000164,0.002390,-0.001028,-87.244546,0.002398,
640,30,0.027343,-5.013473,0.999998,0.000000,-0.000646,0.002195,0.000839,0.002424,-0.000875,74.720405,0.002455,
1840,1740,-0.504609,-0.771835,0.999998,0.000190,-0.001218,0.002523,0.000004,0.002523,-0.001218,89.939218,0.002524,
1740,790,-0.760559,-3.117200,0.999998,0.000179,-0.001349,0.002603,-0.000251,0.002619,-0.001365,-86.387647,0.002620,
1630,1890,-0.141697,-0.278144,0.999998,0.000162,-0.000534,0.002103,0.000379,0.002156,-0.000587,81.977361,0.002229,
1170,430,0.035586,-4.349558,0.999998,0.000177,-0.000595,0.001805,-0.000080,0.001808,-0.000598,-88.090924,0.001842,
1230,260,0.000231,-4.656042,0.999998,0.000156,-0.000422,0.001717,-0.000010,0.001717,-0.000422,-89.741812,0.001790,
810,1000,0.810387,-2.590676,0.999998,0.000152,-0.001007,0.002566,0.000103,0.002569,-0.001010,88.354045,0.002588,
940,1290,0.392604,-1.690226,0.999997,0.000185,-0.001846,0.003079,0.000163,0.003085,-0.001851,88.110274,0.003105,
1320,1670,-0.050044,-0.615914,0.999998,0.000149,-0.000618,0.001807,-0.000104,0.001811,-0.000622,-87.559335,0.001841,
1420,1660,-0.120594,-0.676443,0.999998,0.000172,-0.000779,0.001987,-0.000146,0.001994,-0.000787,-86.978126,0.002009,
1890,540,-0.742029,-3.661117,0.999998,0.000168,-0.001324,0.002564,0.000032,0.002564,-0.001324,89.526023,0.002565,
800,270,0.262277,-4.512343,0.999998,0.000199,-0.001027,0.002367,0.000142,0.002373,-0.001033,87.609556,0.002380,
1330,90,-0.011169,-4.931731,0.999999,0.000137,-0.000126,0.001569,-0.000065,0.001571,-0.000129,-87.816793,0.001744,
680,1820,0.356086,-0.519167,0.999997,0.000199,-0.001166,0.002547,-0.000210,0.002559,-0.001178,-86.774323,0.002561,
860,370,0.274177,-4.309443,0.999998,0.000164,-0.001055,0.002328,-0.000027,0.002329,-0.001055,-89.547662,0.002332,
600,1000,1.032207,-2.581588,0.999998,0.000150,-0.001045,0.002167,0.000075,0.002169,-0.001047,88.657640,0.002170,
1020,940,0.519040,-2.887596,0.999997,0.000190,-0.001560,0.003847,-0.000284,0.003862,-0.001575,-87.004149,0.003884,
1380,720,-0.121582,-3.731268,0.999999,0.000138,-0.001322,0.002184,0.000890,0.002397,-0.001534,76.544657,0.002428,
570,540,0.749789,-3.655247,0.999880,0.001345,-0.002045,0.002858,-0.000015,0.002858,-0.002045,-89.820948,0.002945,
810,1050,0.811226,-2.463479,0.999998,0.000153,-0.000982,0.002586,-0.000072,0.002588,-0.000984,-88.845648,0.002612,
1570,1720,-0.220893,-0.627600,0.999998,0.000162,-0.000962,0.002268,-0.000018,0.002268,-0.000962,-89.684937,0.002277,
1490,1380,-0.270317,-1.382332,0.999998,0.000156,-0.001571,0.002725,-0.000448,0.002772,-0.001617,-84.108288,0.002784,
570,1470,0.781921,-1.499746,0.999970,0.000582,-0.001957,0.002233,-0.000037,0.002233,-0.001957,-89.496507,0.002435,
810,420,0.360163,-4.153161,0.999998,0.000169,-0.001154,0.002487,-0.000056,0.002487,-0.001155,-89.117803,0.002489,
850,1410,0.444623,-1.437053,0.999997,0.000194,-0.001522,0.002800,0.000115,0.002803,-0.001525,88.476996,0.002806,
1830,380,-0.547408,-4.113755,0.999998,0.000187,-0.001251,0.002509,0.000019,0.002509,-0.001251,89.708898,0.002509,
1730,90,-0.101765,-4.899529,0.999999,0.000140,-0.000487,0.002065,-0.000609,0.002203,-0.000624,-77.241748,0.002271,
770,650,0.567718,-3.523879,0.999997,0.000192,-0.001432,0.002720,0.000021,0.002720,-0.001433,89.716391,0.002721,
790,1800,0.259833,-0.498021,0.999998,0.000151,-0.001003,0.002375,-0.000168,0.002384,-0.001011,-87.165865,0.002393,
1800,1280,-0.824136,-1.913229,0.999998,0.000144,-0.001252,0.002532,0.000199,0.002543,-0.001263,86.995677,0.002543,
730,1590,0.488069,-1.061903,0.999998,0.000178,-0.001275,0.002568,0.000055,0.002569,-0.001275,89.184903,0.002569,
1760,1710,-0.432994,-0.779557,0.999997,0.000200,-0.001209,0.002529,0.000016,0.002529,-0.001209,89.761771,0.002530,
640,1260,0.870729,-1.976025,0.999999,0.000152,-0.001228,0.002455,-0.000162,0.002462,-0.001235,-87.493235,0.002462,
1120,340,0.059498,-4.498377,0.999998,0.000173,-0.000573,0.001848,-0.000070,0.001850,-0.000575,-88.334474,0.001894,
1760,1140,-0.887139,-2.245806,0.999999,0.000141,-0.001145,0.002434,0.000202,0.002446,-0.001156,86.785317,0.002447,
840,290,0.241718,-4.484857,0.999998,0.000188,-0.000873,0.002337,0.000125,0.002342,-0.000878,87.773920,0.002366,
1600,720,-0.484846,-3.401365,0.999997,0.000201,-0.001638,0.002925,0.000002,0.002925,-0.001638,89.971390,0.002932,
940,380,0.201783,-4.338185,0.999998,0.000167,-0.000895,0.002187,-0.000089,0.002189,-0.000898,-88.338866,0.002201,
590,900,1.004936,-2.796371,0.999998,0.000146,-0.001075,0.002193,0.000050,0.002193,-0.001075,89.115568,0.002194,
980,700,0.272747,-3.598422,0.999998,0.000181,-0.001616,0.002792,-0.000455,0.002839,-0.001662,-84.171984,0.002852,
1230,1400,0.000539,-1.042163,0.999999,0.000114,-0.000548,0.001292,0.000012,0.001292,-0.000548,89.637104,0.001297,
1840,1720,-0.521920,-0.821332,0.999998,0.000167,-0.001222,0.002511,-0.000010,0.002511,-0.001222,-89.851810,0.002511,
1780,1790,-0.383832,-0.593759,0.999998,0.000211,-0.001180,0.002526,0.000123,0.002530,-0.001184,88.098472,0.002531,
1070,230,0.059241,-4.690479,0.999998,0.000168,-0.000388,0.001789,0.000063,0.001790,-0.000390,88.353509,0.001883,
1600,110,-0.076034,-4.877967,0.999998,0.000157,-0.000374,0.001915,-0.000373,0.001974,-0.000433,-80.973818,0.002075,
1330,1200,-0.171397,-1.422668,0.999998,0.000187,-0.000984,0.001205,-0.000731,0.001426,-0.001206,-73.141786,0.001536,
1550,1050,-0.714667,-2.456130,0.999997,0.000207,-0.000933,0.002871,0.000127,0.002875,-0.000937,88.089554,0.002932,
680,1800,0.378298,-0.572600,0.999997,0.000207,-0.001188,0.002565,-0.000136,0.002570,-0.001193,-87.928949,0.002572,
1640,150,-0.131244,-4.791715,0.999998,0.000154,-0.000504,0.002111,-0.000402,0.002172,-0.000564,-81.453124,0.002254,
1720,770,-0.713291,-3.180242,0.999998,0.000160,-0.001407,0.002707,-0.000205,0.002718,-0.001417,-87.149764,0.002718,
1680,240,-0.252953,-4.573607,0.999998,0.000156,-0.000993,0.002404,-0.000228,0.002420,-0.001009,-86.177461,0.002431,
1890,520,-0.728194,-3.712739,0.999998,0.000184,-0.001299,0.002539,0.000011,0.002539,-0.001299,89.831908,0.002539,
810,1030,0.815503,-2.513771,0.999998,0.000165,-0.000978,0.002543,-0.000008,0.002543,-0.000978,-89.873551,0.002566,
1280,1500,-0.030093,-0.905657,0.999999,0.000136,-0.000663,0.001667,-0.000183,0.001681,-0.000678,-85.547180,0.001692,
630,2020,0.048903,-0.045313,0.999999,0.000000,-0.000879,0.002221,-0.000739,0.002388,-0.001046,-77.245126,0.002394,
1170,410,0.036220,-4.383587,0.999998,0.000174,-0.000570,0.001780,-0.000043,0.001781,-0.000570,-88.951420,0.001819,
1000,1530,0.187798,-0.982620,0.999998,0.000156,-0.001059,0.002246,0.000325,0.002278,-0.001091,84.442970,0.002278,
1470,230,-0.095685,-4.672783,0.999998,0.000171,-0.000477,0.001923,-0.000106,0.001927,-0.000482,-87.474609,0.002006,
1750,1260,-0.779148,-1.939368,0.999999,0.000158,-0.001328,0.002560,0.000244,0.002575,-0.001343,86.428566,0.002576,
1420,1640,-0.124148,-0.717319,0.999998,0.000165,-0.000793,0.002037,-0.000173,0.002048,-0.000804,-86.520648,0.002063,
1570,1860,-0.129804,-0.323992,0.999998,0.000165,-0.000585,0.002060,0.000230,0.002080,-0.000604,85.058779,0.002140,
1890,30,-0.047233,-4.997411,0.999998,0.000000,0.000062,0.003722,-0.002122,0.004694,-0.000910,-65.383544,0.004979,
770,630,0.551198,-3.578873,0.999998,0.000191,-0.001418,0.002686,0.000000,0.002686,-0.001418,-89.997869,0.002687,
1380,680,-0.114872,-3.815474,0.999998,0.000153,-0.001201,0.002102,0.000756,0.002267,-0.001366,77.693088,0.002283,
600,980,1.026726,-2.624679,0.999998,0.000163,-0.001044,0.002147,0.000025,0.002147,-0.001045,89.551207,0.002147,
1800,1260,-0.842175,-1.963781,0.999999,0.000138,-0.001256,0.002503,0.000216,0.002515,-0.001269,86.727094,0.002515,
1080,350,0.083605,-4.467733,0.999998,0.000176,-0.000595,0.001896,-0.000070,0.001898,-0.000597,-88.392217,0.001941,
940,1990,0.025245,-0.073092,0.999999,0.000119,-0.000124,0.001679,-0.000261,0.001716,-0.000162,-81.920979,0.001895,
850,1390,0.458760,-1.492535,0.999997,0.000207,-0.001532,0.002780,0.000060,0.002781,-0.001532,89.204804,0.002785,
1630,1870,-0.159085,-0.321635,0.999998,0.000167,-0.000616,0.002151,0.000308,0.002185,-0.000650,83.717102,0.002243,
1020,920,0.479224,-2.962921,0.999997,0.000201,-0.001624,0.003719,-0.000277,0.003733,-0.001638,-87.043499,0.003742,
660,250,0.394482,-4.466761,0.999997,0.000233,-0.001130,0.002563,0.000155,0.002569,-0.001137,87.605308,0.002575,
1120,320,0.055068,-4.535036,0.999998,0.000153,-0.000563,0.001832,-0.000056,0.001834,-0.000565,-88.657071,0.001878,
1270,700,-0.020106,-3.930510,0.999999,0.000139,-0.000586,0.001167,0.000357,0.001237,-0.000656,78.910768,0.001238,
1600,700,-0.466286,-3.460544,0.999997,0.000205,-0.001607,0.002867,0.000044,0.002868,-0.001608,89.430787,0.002875,
1330,70,-0.006943,-4.964684,0.999999,0.000113,-0.000118,0.001551,-0.000075,0.001554,-0.000121,-87.442607,0.001728,
1700,1310,-0.662448,-1.780030,0.999998,0.000185,-0.001452,0.002714,0.000174,0.002721,-0.001459,87.608071,0.002724,
1100,270,0.055166,-4.621928,0.999999,0.000138,-0.000451,0.001803,0.000010,0.001803,-0.000451,89.751777,0.001877,
1490,680,-0.274476,-3.645423,0.999998,0.000169,-0.001606,0.002726,0.000428,0.002768,-0.001648,84.414149,0.002785,
1800,1950,-0.178789,-0.198442,0.999998,0.000153,-0.000700,0.002509,0.000766,0.002683,-0.000874,77.241694,0.002736,
1840,1700,-0.539581,-0.870694,0.999998,0.000173,-0.001204,0.002497,-0.000020,0.002497,-0.001205,-89.692147,0.002498,
1840,1770,-0.477208,-0.695179,0.999998,0.000171,-0.001190,0.002495,0.000019,0.002495,-0.001190,89.708324,0.002496,
810,980,0.803024,-2.642110,0.999998,0.000175,-0.001058,0.002596,0.000156,0.002603,-0.001064,87.559382,0.002617,
980,680,0.262794,-3.654826,0.999998,0.000164,-0.001556,0.002710,-0.000474,0.002762,-0.001608,-83.729288,0.002774,
1490,1360,-0.281549,-1.436655,0.999998,0.000185,-0.001636,0.002780,-0.000441,0.002823,-0.001679,-84.354734,0.002840,
1510,1910,-0.069874,-0.215381,0.999999,0.000135,-0.000418,0.001824,0.000206,0.001843,-0.000436,84.804446,0.001926,
1250,1920,-0.003069,-0.176520,0.999999,0.000124,-0.000197,0.001597,0.000006,0.001597,-0.000197,89.798953,0.001741,
1510,740,-0.346921,-3.444397,0.999998,0.000159,-0.001771,0.002991,0.000292,0.003009,-0.001789,86.504627,0.003026,
1540,1470,-0.302923,-1.203532,0.999998,0.000163,-0.001349,0.002561,-0.000281,0.002582,-0.001369,-85.905531,0.002583,
1070,210,0.053068,-4.723835,0.999998,0.000149,-0.000358,0.001770,0.000096,0.001774,-0.000362,87.415495,0.001875,
1850,620,-0.753258,-3.487183,0.999997,0.000215,-0.001257,0.002572,-0.000013,0.002572,-0.001257,-89.807908,0.002572,
1400,410,-0.107180,-4.344410,0.999998,0.000156,-0.000773,0.001993,0.000183,0.002005,-0.000785,86.234085,0.002021,
1610,400,-0.298932,-4.234608,0.999998,0.000145,-0.001072,0.002354,0.000062,0.002355,-0.001073,88.962161,0.002358,
1570,1700,-0.232145,-0.673094,0.999998,0.000170,-0.001008,0.002298,-0.000042,0.002298,-0.001008,-89.277031,0.002304,
1550,1030,-0.718028,-2.512734,0.999998,0.000196,-0.000894,0.002813,0.000014,0.002813,-0.000894,89.776410,0.002875,
1180,70,0.003037,-4.964210,0.999999,0.000132,-0.000063,0.001525,0.000056,0.001527,-0.000065,87.998263,0.001727,
1470,210,-0.086165,-4.710438,0.999998,0.000160,-0.000427,0.001916,-0.000132,0.001923,-0.000434,-86.791522,0.002017,
790,40,0.025453,-5.001053,0.999999,0.000133,-0.000189,0.001775,0.000467,0.001880,-0.000294,77.288259,0.002023,
1510,1360,-0.314666,-1.466602,0.999997,0.000176,-0.001670,0.002832,-0.000354,0.002860,-0.001698,-85.527397,0.002877,
1800,1070,-0.961318,-2.420323,0.999998,0.000202,-0.001095,0.002336,0.000042,0.002337,-0.001096,89.292129,0.002338,
680,1780,0.396738,-0.621883,0.999997,0.000181,-0.001195,0.002498,-0.000100,0.002501,-0.001198,-88.445489,0.002502,
1700,770,-0.686112,-3.191628,0.999999,0.000154,-0.001423,0.002732,-0.000214,0.002743,-0.001434,-87.065920,0.002744,
570,700,0.874090,-3.251525,0.999978,0.000523,-0.001450,0.002337,0.000130,0.002342,-0.001455,88.043021,0.002364,
1730,70,-0.072960,-4.938709,0.999999,0.000139,-0.000344,0.002030,-0.000654,0.002198,-0.000512,-75.559846,0.002300,
890,1850,0.137783,-0.346306,0.999998,0.000173,-0.000661,0.002108,-0.000214,0.002125,-0.000677,-85.603945,0.002171,
590,1250,0.939490,-2.027218,0.999999,0.000146,-0.001160,0.002318,-0.000056,0.002319,-0.001161,-89.082971,0.002319,
1280,1740,-0.022740,-0.482212,0.999998,0.000160,-0.000461,0.001793,0.000005,0.001793,-0.000461,89.882796,0.001862,
1410,1860,-0.054813,-0.289846,0.999999,0.000146,-0.000398,0.001766,0.000084,0.001769,-0.000402,87.781694,0.001855,
1420,1620,-0.128459,-0.758729,0.999998,0.000154,-0.000801,0.002039,-0.000192,0.002051,-0.000813,-86.155493,0.002066,
1570,740,-0.452759,-3.371058,0.999998,0.000226,-0.001674,0.002994,0.000025,0.002995,-0.001674,89.690156,0.003002,
810,1010,0.812388,-2.563936,0.999998,0.000159,-0.000985,0.002558,0.000074,0.002559,-0.000987,88.809255,0.002581,
1680,220,-0.232522,-4.621073,0.999998,0.000169,-0.000926,0.002324,-0.000255,0.002344,-0.000946,-85.544395,0.002358,
850,1370,0.476543,-1.548181,0.999997,0.000212,-0.001562,0.002842,0.000027,0.002842,-0.001562,89.650417,0.002847,
1700,1610,-0.432775,-0.985169,0.999998,0.000169,-0.001245,0.002521,-0.000077,0.002523,-0.001247,-88.834726,0.002523,
1490,1980,-0.024718,-0.089998,0.999999,0.000147,-0.000171,0.001672,0.000220,0.001697,-0.000197,83.289896,0.001857,
1680,1310,-0.632975,-1.768418,0.999998,0.000168,-0.001470,0.002762,0.000170,0.002769,-0.001477,87.709406,0.002771,
1120,300,0.051844,-4.572552,0.999998,0.000165,-0.000529,0.001809,-0.000053,0.001810,-0.000530,-88.700758,0.001861,
1020,900,0.439218,-3.036740,0.999997,0.000196,-0.001739,0.003588,-0.000266,0.003602,-0.001752,-87.147454,0.003602,
630,30,0.038170,-5.005381,0.999999,0.000000,-0.000879,0.002223,0.000760,0.002399,-0.001056,76.941661,0.002405,
1320,1980,-0.007600,-0.082966,0.999998,0.000159,-0.000102,0.001538,0.000050,0.001540,-0.000104,88.246763,0.001721,
1380,140,-0.028661,-4.849728,0.999999,0.000132,-0.000190,0.001650,-0.000095,0.001655,-0.000195,-87.047368,0.001809,
980,1530,0.209073,-1.000618,0.999999,0.000155,-0.001131,0.002320,0.000316,0.002348,-0.001160,84.813317,0.002348,
1170,390,0.034899,-4.419921,0.999998,0.000147,-0.000550,0.001801,-0.000042,0.001802,-0.000551,-88.988272,0.001847,
1600,680,-0.451536,-3.517162,0.999997,0.000205,-0.001580,0.002843,0.000061,0.002843,-0.001581,89.206324,0.002849,
1510,1890,-0.081212,-0.253154,0.999998,0.000146,-0.000465,0.001870,0.000189,0.001885,-0.000480,85.391954,0.001959,
980,660,0.254095,-3.707521,0.999998,0.000161,-0.001537,0.002665,-0.000466,0.002716,-0.001589,-83.742923,0.002729,
1840,1680,-0.555473,-0.921872,0.999998,0.000174,-0.001223,0.002516,-0.000015,0.002516,-0.001223,-89.775383,0.002517,
1840,1750,-0.494274,-0.746382,0.999998,0.000198,-0.001221,0.002527,0.000005,0.002527,-0.001221,89.920087,0.002528,
1090,1180,0.267691,-1.658238,0.999998,0.000172,-0.001240,0.002222,0.001190,0.002592,-0.001610,72.750998,0.002617,
610,1180,0.969546,-2.181297,0.999998,0.000151,-0.001103,0.002317,-0.000109,0.002320,-0.001107,-88.177199,0.002321,
1480,1910,-0.057343,-0.211556,0.999999,0.000123,-0.000297,0.001794,0.000179,0.001809,-0.000312,85.153492,0.001934,
730,1570,0.501816,-1.113741,0.999997,0.000196,-0.001303,0.002559,0.000059,0.002560,-0.001304,89.124989,0.002560,
1230,1460,0.000667,-0.958484,0.999999,0.000128,-0.000602,0.001510,0.000001,0.001510,-0.000602,89.971169,0.001520,
1070,190,0.046567,-4.761863,0.999999,0.000130,-0.000313,0.001767,0.000084,0.001771,-0.000316,87.702371,0.001889,
1490,740,-0.311977,-3.471876,0.999997,0.000215,-0.001796,0.002955,0.000377,0.002985,-0.001826,85.494910,0.003009,
1060,130,0.031592,-4.863352,0.999999,0.000115,-0.000238,0.001663,0.000109,0.001670,-0.000244,86.715571,0.001804,
1550,1720,-0.203219,-0.617926,0.999998,0.000177,-0.000846,0.002254,-0.000001,0.002254,-0.000846,-89.976413,0.002277,
770,460,0.432492,-4.023555,0.999998,0.000171,-0.001251,0.002528,-0.000063,0.002529,-0.001252,-89.041114,0.002529,
940,360,0.194916,-4.379974,0.999998,0.000177,-0.000878,0.002179,-0.000041,0.002180,-0.000879,-89.233701,0.002193,
1400,530,-0.124708,-4.101930,0.999998,0.000155,-0.000886,0.002045,0.000346,0.002085,-0.000927,83.360039,0.002089,
1470,190,-0.077803,-4.749644,0.999998,0.000167,-0.000363,0.001875,-0.000162,0.001887,-0.000375,-85.882717,0.001997,
1830,620,-0.728952,-3.503515,0.999997,0.000197,-0.001283,0.002565,-0.000024,0.002565,-0.001283,-89.643698,0.002565,
1550,1010,-0.715015,-2.567822,0.999998,0.000179,-0.000905,0.002844,-0.000108,0.002847,-0.000908,-88.348990,0.002909,
680,1760,0.418219,-0.671528,0.999998,0.000179,-0.001210,0.002527,-0.000088,0.002529,-0.001212,-88.653322,0.002530,
1220,700,0.006144,-3.943358,0.999999,0.000136,-0.000498,0.001068,-0.000132,0.001079,-0.000509,-85.207562,0.001079,
1380,70,-0.010773,-4.961805,0.999999,0.000141,-0.000069,0.001572,-0.000100,0.001578,-0.000075,-86.542184,0.001781,
850,920,0.717160,-2.809597,0.999998,0.000176,-0.001206,0.002794,0.000354,0.002825,-0.001237,84.984231,0.002832,
1280,380,-0.026913,-4.440270,0.999998,0.000152,-0.000537,0.001769,0.000033,0.001770,-0.000538,89.192237,0.001815,
1890,410,-0.644378,-3.989554,0.999998,0.000168,-0.001222,0.002471,0.000040,0.002471,-0.001223,89.378380,0.002471,
850,1350,0.490672,-1.606059,0.999997,0.000208,-0.001607,0.002859,-0.000001,0.002859,-0.001607,-89.986118,0.002867,
1020,1390,0.196384,-1.287841,0.999998,0.000198,-0.001392,0.002467,0.000609,0.002560,-0.001486,81.246289,0.002571,
810,990,0.806956,-2.616952,0.999998,0.000163,-0.001030,0.002585,0.000127,0.002590,-0.001035,87.986253,0.002607,
1680,200,-0.213576,-4.666637,0.999998,0.000167,-0.000875,0.002318,-0.000301,0.002346,-0.000903,-84.666655,0.002366,
890,1830,0.152274,-0.387705,0.999998,0.000157,-0.000704,0.002110,-0.000184,0.002121,-0.000716,-86.273122,0.002159,
1720,1980,-0.078749,-0.109763,0.999998,0.000149,-0.000296,0.002006,0.000614,0.002159,-0.000450,75.956768,0.002278,
1730,1940,-0.138382,-0.194880,0.999998,0.000153,-0.000601,0.002228,0.000617,0.002357,-0.000729,78.223868,0.002413,
700,1450,0.627843,-1.449605,0.999997,0.000181,-0.001342,0.002605,-0.000009,0.002605,-0.001342,-89.874959,0.002605,
1020,880,0.399763,-3.108073,0.999998,0.000197,-0.001850,0.003469,-0.000312,0.003487,-0.001869,-86.653625,0.003490,
1420,1600,-0.131287,-0.798324,0.999999,0.000143,-0.000818,0.002027,-0.000214,0.002043,-0.000834,-85.728144,0.002054,
1380,120,-0.024150,-4.881254,0.999998,0.000148,-0.000148,0.001637,-0.000102,0.001643,-0.000154,-86.738514,0.001815,
1600,880,-0.657007,-2.927856,0.999998,0.000197,-0.001406,0.002921,-0.000353,0.002950,-0.001435,-85.371409,0.002950,
1090,1160,0.322178,-1.698630,0.999998,0.000158,-0.000949,0.002165,0.001446,0.002733,-0.001517,68.560888,0.002738,
1410,1840,-0.062031,-0.325610,0.999998,0.000168,-0.000453,0.001805,0.000054,0.001807,-0.000455,88.628842,0.001880,
1320,1960,-0.010270,-0.115052,0.999998,0.000156,-0.000141,0.001576,0.000044,0.001577,-0.000142,88.525090,0.001745,
1780,1310,-0.771697,-1.825135,0.999999,0.000134,-0.001294,0.002598,0.000180,0.002606,-0.001302,87.351636,0.002606,
980,640,0.245133,-3.760778,0.999998,0.000164,-0.001486,0.002543,-0.000448,0.002592,-0.001535,-83.727582,0.002607,
620,2020,0.058832,-0.054716,0.999998,0.000000,-0.000909,0.002313,-0.000832,0.002515,-0.001111,-76.349653,0.002521,
1770,1740,-0.420471,-0.712124,0.999998,0.000166,-0.001201,0.002506,0.000034,0.002507,-0.001201,89.468743,0.002507,
1900,220,-0.476828,-4.441495,0.999997,0.000000,-0.001202,0.002397,-0.000069,0.002399,-0.001203,-88.894894,0.002399,
1700,410,-0.407836,-4.144064,0.999998,0.000180,-0.001208,0.002536,0.000042,0.002536,-0.001209,89.360035,0.002537,
1070,170,0.042112,-4.796324,0.999999,0.000131,-0.000291,0.001731,0.000102,0.001736,-0.000296,87.120120,0.001858,
1840,1660,-0.570469,-0.972633,0.999998,0.000176,-0.001251,0.002506,-0.000041,0.002506,-0.001251,-89.374004,0.002506,
1630,1850,-0.177580,-0.365162,0.999998,0.000172,-0.000666,0.002211,0.000300,0.002242,-0.000697,84.102260,0.002295,
1560,1670,-0.237837,-0.736163,0.999998,0.000147,-0.001030,0.002272,-0.000083,0.002274,-0.001032,-88.560004,0.002277,
1170,370,0.033498,-4.454881,0.999998,0.000141,-0.000536,0.001792,-0.000036,0.001793,-0.000537,-89.118235,0.001840,
1800,1930,-0.214306,-0.250833,0.999998,0.000146,-0.000861,0.002554,0.000637,0.002669,-0.000976,79.764727,0.002701,
1470,170,-0.066719,-4.786097,0.999999,0.000145,-0.000341,0.001822,-0.000186,0.001838,-0.000357,-85.123665,0.001949,
580,470,0.679735,-3.845238,0.999998,0.000185,-0.002119,0.002663,-0.000104,0.002665,-0.002122,-88.758069,0.002817,
1170,700,0.035549,-3.907788,0.999999,0.000157,-0.000686,0.001342,-0.000556,0.001484,-0.000828,-75.627222,0.001488,
680,1740,0.435374,-0.722835,0.999998,0.000182,-0.001207,0.002535,-0.000042,0.002536,-0.001207,-89.349842,0.002537,
1550,990,-0.707720,-2.626472,0.999998,0.000183,-0.000938,0.002895,-0.000207,0.002906,-0.000949,-86.921274,0.002964,
770,440,0.421151,-4.072400,0.999998,0.000156,-0.001239,0.002493,-0.000082,0.002495,-0.001240,-88.746054,0.002495,
1220,680,0.005758,-3.965617,0.999999,0.000127,-0.000533,0.001203,-0.000109,0.001210,-0.000540,-86.422586,0.001212,
720,1370,0.668261,-1.644901,0.999997,0.000179,-0.001389,0.002665,-0.000111,0.002668,-0.001392,-88.431452,0.002668,
1460,1910,-0.052461,-0.207916,0.999999,0.000124,-0.000276,0.001754,0.000182,0.001770,-0.000292,84.905480,0.001898,
670,760,0.802291,-3.167831,0.999998,0.000138,-0.001291,0.002533,0.000177,0.002541,-0.001300,87.357150,0.002541,
930,140,0.074783,-4.830439,0.999999,0.000142,-0.000361,0.001849,0.000247,0.001877,-0.000388,83.699001,0.001981,
640,1240,0.887476,-2.025267,0.999998,0.000146,-0.001208,0.002401,-0.000173,0.002410,-0.001216,-87.254526,0.002410,
1780,190,-0.296260,-4.635683,0.999998,0.000164,-0.001107,0.002543,-0.000307,0.002569,-0.001133,-85.218217,0.002575,
1280,340,-0.025301,-4.511563,0.999998,0.000161,-0.000489,0.001799,0.000023,0.001799,-0.000489,89.431166,0.001861,
1510,1870,-0.093123,-0.289330,0.999998,0.000172,-0.000520,0.001918,0.000171,0.001930,-0.000532,85.996786,0.001994,
1500,70,-0.025010,-4.958447,0.999999,0.000120,-0.000167,0.001642,-0.000216,0.001668,-0.000193,-83.273497,0.001825,
680,890,0.899467,-2.848266,0.999998,0.000152,-0.001148,0.002438,0.000204,0.002450,-0.001160,86.753822,0.002451,
850,1330,0.511442,-1.663441,0.999998,0.000186,-0.001645,0.002894,-0.000034,0.002894,-0.001645,-89.576474,0.002903,
1850,540,-0.691116,-3.692705,0.999998,0.000158,-0.001259,0.002544,0.000005,0.002544,-0.001259,89.923969,0.002544,
1680,770,-0.656384,-3.202128,0.999997,0.000193,-0.001457,0.002771,-0.000199,0.002780,-0.001467,-87.305301,0.002781,
1890,1450,-0.791225,-1.545294,0.999998,0.000162,-0.001281,0.002575,0.000007,0.002575,-0.001281,89.892976,0.002575,
970,1980,0.026312,-0.088553,0.999999,0.000100,-0.000165,0.001688,-0.000215,0.001713,-0.000189,-83.473671,0.001878,
1420,1580,-0.135429,-0.839173,0.999998,0.000151,-0.000858,0.002086,-0.000254,0.002108,-0.000880,-85.101935,0.002118,
810,970,0.800000,-2.668146,0.999998,0.000181,-0.001078,0.002613,0.000191,0.002622,-0.001088,87.047002,0.002635,
990,1620,0.173784,-0.792143,0.999998,0.000145,-0.000968,0.002180,0.000216,0.002194,-0.000983,86.087033,0.002198,
1680,180,-0.190908,-4.713617,0.999998,0.000149,-0.000832,0.002254,-0.000346,0.002293,-0.000870,-83.677781,0.002315,
1400,550,-0.125638,-4.061231,0.999998,0.000145,-0.000960,0.002064,0.000406,0.002118,-0.001014,82.489170,0.002118,
1080,1160,0.332800,-1.754215,0.999998,0.000151,-0.001194,0.002494,0.001380,0.002953,-0.001653,71.591199,0.002960,
640,950,0.977031,-2.697890,0.999998,0.000183,-0.001097,0.002304,0.000131,0.002309,-0.001102,87.802674,0.002310,
1380,100,-0.019323,-4.914528,0.999999,0.000139,-0.000116,0.001613,-0.000119,0.001621,-0.000124,-86.073546,0.001805,
1720,1960,-0.105025,-0.149184,0.999998,0.000151,-0.000401,0.002091,0.000599,0.002227,-0.000538,77.152066,0.002324,
1600,1120,-0.717505,-2.269344,0.999998,0.000177,-0.001178,0.002781,0.000337,0.002809,-0.001206,85.169530,0.002819,
620,30,0.049142,-4.997315,0.999998,0.000000,-0.000792,0.002359,0.000897,0.002596,-0.001029,75.174485,0.002615,
1810,1680,-0.518479,-0.896497,0.999997,0.000195,-0.001260,0.002525,-0.000016,0.002525,-0.001260,-89.758210,0.002525,
700,1110,0.907732,-2.321591,0.999998,0.000165,-0.001123,0.002424,-0.000193,0.002434,-0.001134,-86.893865,0.002436,
1250,1600,-0.009453,-0.731757,0.999999,0.000124,-0.000610,0.001704,-0.000076,0.001706,-0.000613,-88.115418,0.001729,
700,1430,0.643582,-1.500425,0.999997,0.000198,-0.001345,0.002599,-0.000043,0.002599,-0.001345,-89.382191,0.002600,
730,1550,0.515720,-1.165135,0.999998,0.000183,-0.001321,0.002553,0.000049,0.002554,-0.001322,89.275870,0.002554,
1470,1860,-0.078060,-0.300013,0.999998,0.000159,-0.000400,0.001865,0.000155,0.001876,-0.000411,86.100153,0.001972,
980,620,0.237100,-3.810582,0.999998,0.000164,-0.001400,0.002484,-0.000440,0.002533,-0.001450,-83.619808,0.002542,
910,1180,0.583410,-2.070310,0.999997,0.000191,-0.001592,0.003125,-0.000322,0.003147,-0.001614,-86.108047,0.003148,
1470,150,-0.056230,-4.822087,0.999998,0.000148,-0.000305,0.001768,-0.000155,0.001780,-0.000316,-85.740420,0.001899,
1070,150,0.034560,-4.831705,0.999999,0.000111,-0.000253,0.001715,0.000117,0.001722,-0.000260,86.617705,0.001857,
1840,1640,-0.585658,-1.023047,0.999998,0.000175,-0.001247,0.002521,-0.000041,0.002522,-0.001247,-89.369313,0.002522,
1000,1310,0.266185,-1.537681,0.999997,0.000228,-0.001809,0.002917,0.000529,0.002975,-0.001868,83.692451,0.003008,
1080,270,0.065138,-4.619238,0.999998,0.000182,-0.000467,0.001820,0.000025,0.001820,-0.000467,89.364543,0.001891,
1550,970,-0.691912,-2.684333,0.999998,0.000169,-0.001023,0.002912,-0.000256,0.002929,-0.001039,-86.292139,0.002969,
1020,1300,0.236955,-1.528626,0.999998,0.000199,-0.001811,0.002852,0.000650,0.002941,-0.001900,82.205963,0.002983,
760,1370,0.611683,-1.618107,0.999997,0.000184,-0.001436,0.002730,-0.000098,0.002732,-0.001438,-88.650560,0.002734,
680,1720,0.452123,-0.773809,0.999998,0.000176,-0.001194,0.002531,-0.000010,0.002531,-0.001194,-89.849831,0.002532,
1220,660,0.006203,-3.990072,0.999999,0.000110,-0.000553,0.001263,-0.000102,0.001269,-0.000559,-86.800855,0.001272,
850,320,0.253123,-4.421566,0.999997,0.000221,-0.000941,0.002326,0.000053,0.002327,-0.000942,89.074984,0.002341,
940,340,0.183097,-4.424421,0.999998,0.000163,-0.000840,0.002228,-0.000015,0.002228,-0.000841,-89.720855,0.002250,
1170,350,0.031341,-4.491443,0.999999,0.000132,-0.000499,0.001779,-0.000019,0.001779,-0.000499,-89.532007,0.001836,
1540,1670,-0.218254,-0.723041,0.999998,0.000146,-0.000909,0.002232,-0.000060,0.002233,-0.000910,-88.908989,0.002245,
1700,390,-0.395008,-4.193828,0.999998,0.000145,-0.001168,0.002492,0.000032,0.002492,-0.001168,89.492320,0.002494,
1270,1750,-0.018842,-0.465406,0.999998,0.000163,-0.000475,0.001763,-0.000006,0.001763,-0.000475,-89.849820,0.001825,
1320,1940,-0.012261,-0.146800,0.999998,0.000158,-0.000144,0.001588,0.000064,0.001590,-0.000147,87.883412,0.001757,
640,1220,0.905149,-2.072481,0.999998,0.000155,-0.001188,0.002398,-0.000173,0.002406,-0.001197,-87.243257,0.002406,
1780,170,-0.269012,-4.685669,0.999998,0.000192,-0.001042,0.002528,-0.000432,0.002580,-0.001094,-83.193501,0.002590,
850,1310,0.529364,-1.722329,0.999997,0.000193,-0.001637,0.002923,-0.000085,0.002924,-0.001638,-88.927257,0.002931,
980,70,0.022465,-4.958658,0.999999,0.000139,-0.000111,0.001659,0.000204,0.001682,-0.000135,83.497464,0.001870,
890,1810,0.167237,-0.431044,0.999998,0.000148,-0.000725,0.002116,-0.000142,0.002124,-0.000732,-87.138013,0.002157,
980,1910,0.057585,-0.210559,0.999998,0.000153,-0.000327,0.001804,-0.000184,0.001820,-0.000343,-85.093335,0.001934,
1270,140,-0.007345,-4.854403,0.999998,0.000170,-0.000191,0.001597,-0.000003,0.001597,-0.000191,-89.913900,0.001744,
1680,160,-0.168464,-4.756896,0.999998,0.000157,-0.000759,0.002224,-0.000410,0.002279,-0.000814,-82.319770,0.002310,
1510,1850,-0.106472,-0.329894,0.999998,0.000177,-0.000555,0.001965,0.000136,0.001973,-0.000563,86.913725,0.002033,
1730,1040,-0.891978,-2.488407,0.999998,0.000146,-0.001051,0.002447,0.000055,0.002448,-0.001052,89.095069,0.002456,
1570,600,-0.353640,-3.766569,0.999997,0.000194,-0.001449,0.002636,0.000234,0.002649,-0.001462,86.728948,0.002654,
770,1760,0.316795,-0.607859,0.999997,0.000185,-0.001073,0.002445,-0.000112,0.002448,-0.001077,-88.180813,0.002454,
810,950,0.788637,-2.720193,0.999998,0.000171,-0.001112,0.002636,0.000257,0.002654,-0.001129,86.100785,0.002663,
1420,1560,-0.137784,-0.881778,0.999998,0.000143,-0.000920,0.002082,-0.000280,0.002108,-0.000946,-84.723468,0.002112,
1810,1480,-0.665621,-1.405643,0.999998,0.000188,-0.001267,0.002598,0.000004,0.002598,-0.001267,89.936322,0.002598,
980,600,0.231596,-3.860494,0.999998,0.000162,-0.001302,0.002472,-0.000406,0.002516,-0.001345,-83.927022,0.002518,
1380,80,-0.012010,-4.945414,0.999999,0.000134,-0.000092,0.001581,-0.000110,0.001588,-0.000099,-86.262716,0.001779,
1070,130,0.029690,-4.865151,0.999999,0.000115,-0.000209,0.001652,0.000108,0.001658,-0.000216,86.689953,0.001803,
830,260,0.227955,-4.550052,0.999998,0.000172,-0.000786,0.002286,0.000172,0.002295,-0.000796,86.812361,0.002331,
1600,140,-0.102754,-4.818953,0.999998,0.000156,-0.000468,0.001991,-0.000344,0.002038,-0.000515,-82.177570,0.002120,
720,1570,0.514204,-1.120870,0.999997,0.000189,-0.001268,0.002562,0.000051,0.002563,-0.001269,89.236866,0.002563,
1130,460,0.065014,-4.278781,0.999998,0.000183,-0.000699,0.001853,-0.000185,0.001866,-0.000712,-85.877634,0.001883,
1630,1830,-0.194656,-0.410253,0.999998,0.000175,-0.000727,0.002236,0.000256,0.002258,-0.000749,85.089598,0.002300,
1900,230,-0.490336,-4.416882,0.999997,0.000000,-0.001163,0.002361,-0.000041,0.002362,-0.001164,-89.330700,0.002362,
1860,50,-0.111366,-4.938104,0.999999,0.000157,-0.000739,0.002782,-0.001041,0.003067,-0.001024,-74.699550,0.003123,
680,1700,0.469528,-0.823622,0.999998,0.000169,-0.001191,0.002528,0.000000,0.002528,-0.001191,-89.997767,0.002529,
1550,950,-0.674595,-2.742422,0.999998,0.000167,-0.001136,0.002979,-0.000328,0.003005,-0.001162,-85.474456,0.003031,
990,1600,0.180318,-0.835490,0.999999,0.000148,-0.001004,0.002201,0.000231,0.002217,-0.001021,85.896247,0.002220,
890,1500,0.333726,-1.157951,0.999998,0.000167,-0.001348,0.002575,0.000205,0.002586,-0.001359,87.013777,0.002587,
1170,1860,0.017802,-0.276538,0.999998,0.000181,-0.000285,0.001674,-0.000025,0.001674,-0.000286,-89.280722,0.001791,
610,2020,0.068949,-0.062211,0.999998,0.000000,-0.000596,0.002479,-0.001024,0.002789,-0.000906,-73.163084,0.002845,
1030,660,0.181395,-3.779246,0.999998,0.000163,-0.001354,0.002413,-0.000612,0.002510,-0.001451,-80.992749,0.002520,
1720,1940,-0.134169,-0.192818,0.999998,0.000149,-0.000496,0.002195,0.000632,0.002336,-0.000636,77.427370,0.002416,
680,1110,0.929508,-2.323954,0.999998,0.000157,-0.001128,0.002387,-0.000194,0.002397,-0.001138,-86.853455,0.002399,
740,1370,0.639725,-1.631590,0.999996,0.000205,-0.001423,0.002696,-0.000103,0.002699,-0.001426,-88.574157,0.002700,
1220,640,0.006969,-4.014443,0.999999,0.000120,-0.000571,0.001328,-0.000109,0.001334,-0.000577,-86.719721,0.001338,
1120,280,0.050047,-4.608811,0.999998,0.000168,-0.000483,0.001812,-0.000028,0.001812,-0.000483,-89.297776,0.001877,
730,1530,0.529961,-1.216267,0.999998,0.000184,-0.001326,0.002608,0.000055,0.002609,-0.001327,89.206354,0.002609,
1840,1620,-0.601719,-1.072406,0.999998,0.000190,-0.001240,0.002506,-0.000046,0.002507,-0.001241,-89.302184,0.002507,
1270,1730,-0.020263,-0.501695,0.999998,0.000173,-0.000503,0.001793,-0.000003,0.001793,-0.000503,-89.927569,0.001850,
1020,1320,0.223878,-1.471441,0.999998,0.000202,-0.001718,0.002770,0.000639,0.002859,-0.001808,82.048418,0.002892,
1860,1030,-1.032599,-2.513889,0.999998,0.000196,-0.001030,0.002203,0.000006,0.002203,-0.001030,89.888542,0.002204,
1670,860,-0.732616,-2.957784,0.999998,0.000190,-0.001330,0.002743,-0.000321,0.002768,-0.001355,-85.519174,0.002769,
1320,1920,-0.016420,-0.176949,0.999998,0.000139,-0.000180,0.001626,0.000032,0.001626,-0.000180,88.969595,0.001783,
820,870,0.707393,-2.939921,0.999998,0.000188,-0.001370,0.002793,0.000352,0.002823,-0.001399,85.205794,0.002823,
610,1900,0.325301,-0.378287,0.999998,0.000173,-0.001241,0.002598,-0.000207,0.002609,-0.001252,-86.923968,0.002610,
1160,1390,0.043085,-1.092863,0.999999,0.000152,-0.000687,0.001479,0.000485,0.001583,-0.000791,77.937274,0.001583,
1470,130,-0.048519,-4.855998,0.999999,0.000145,-0.000268,0.001754,-0.000176,0.001770,-0.000283,-85.076141,0.001901,
860,1250,0.576514,-1.893072,0.999998,0.000180,-0.001610,0.002980,-0.000214,0.002990,-0.001620,-87.331946,0.002994,
1760,1120,-0.898743,-2.295746,0.999998,0.000149,-0.001137,0.002444,0.000201,0.002456,-0.001149,86.792705,0.002457,
1170,330,0.029404,-4.525101,0.999999,0.000138,-0.000462,0.001810,-0.000003,0.001810,-0.000462,-89.912870,0.001881,
980,1170,0.482389,-2.027040,0.999997,0.000180,-0.001757,0.003407,-0.000090,0.003409,-0.001759,-89.007245,0.003409,
850,1290,0.549473,-1.780401,0.999997,0.000197,-0.001629,0.002925,-0.000130,0.002928,-0.001633,-88.366756,0.002935,
1720,210,-0.258197,-4.625706,0.999998,0.000184,-0.000901,0.002438,-0.000346,0.002474,-0.000937,-84.140158,0.002498,
960,70,0.025788,-4.957430,0.999999,0.000208,-0.000201,0.001690,0.000214,0.001714,-0.000225,83.617311,0.001863,
1810,1460,-0.681977,-1.458373,0.999997,0.000188,-0.001276,0.002594,0.000015,0.002594,-0.001276,89.781114,0.002594,
1410,1720,-0.097960,-0.552240,0.999998,0.000203,-0.000709,0.001963,-0.000088,0.001966,-0.000712,-88.126115,0.001991,
1580,290,-0.202979,-4.507738,0.999998,0.000179,-0.000869,0.002239,-0.000069,0.002240,-0.000871,-88.728062,0.002259,
1510,1830,-0.114666,-0.369195,0.999998,0.000163,-0.000620,0.001981,0.000089,0.001984,-0.000623,88.046484,0.002029,
1410,1600,-0.124016,-0.792821,0.999999,0.000128,-0.000822,0.002014,-0.000225,0.002032,-0.000840,-85.490945,0.002042,
1730,1260,-0.751606,-1.931121,0.999998,0.000161,-0.001353,0.002625,0.000257,0.002641,-0.001369,86.319585,0.002642,
840,1450,0.433124,-1.337470,0.999998,0.000170,-0.001453,0.002672,0.000125,0.002676,-0.001457,88.262160,0.002679,
1030,1540,0.154111,-0.933737,0.999998,0.000153,-0.001023,0.002116,0.000349,0.002154,-0.001062,83.733964,0.002154,
1110,460,0.078461,-4.270286,0.999998,0.000162,-0.000693,0.001872,-0.000181,0.001885,-0.000706,-85.991369,0.001905,
1680,140,-0.142876,-4.802594,0.999999,0.000147,-0.000677,0.002155,-0.000429,0.002219,-0.000741,-81.565137,0.002259,
1150,260,0.031811,-4.651114,0.999998,0.000145,-0.000412,0.001751,0.000005,0.001751,-0.000412,89.866735,0.001831,
810,930,0.774660,-2.773563,0.999998,0.000162,-0.001162,0.002642,0.000308,0.002666,-0.001186,85.405858,0.002672,
890,1790,0.180328,-0.472994,0.999998,0.000153,-0.000775,0.002176,-0.000099,0.002179,-0.000778,-88.087609,0.002209,
570,450,0.683225,-3.887609,0.999788,0.001747,-0.002599,0.002613,-0.000332,0.002634,-0.002620,-86.374262,0.003033,
890,820,0.545221,-3.124153,0.999998,0.000173,-0.001675,0.003061,0.000191,0.003068,-0.001683,87.700180,0.003073,
1400,210,-0.054954,-4.725087,0.999999,0.000148,-0.000412,0.001780,-0.000066,0.001782,-0.000414,-88.289605,0.001865,
870,1500,0.360522,-1.175857,0.999998,0.000162,-0.001372,0.002630,0.000189,0.002639,-0.001381,87.308349,0.002640,
1070,110,0.023380,-4.897360,0.999999,0.000133,-0.000145,0.001656,0.000124,0.001664,-0.000153,86.065543,0.001840,
1020,1340,0.215305,-1.417030,0.999998,0.000176,-0.001614,0.002699,0.000619,0.002787,-0.001701,81.989342,0.002809,
1670,840,-0.713474,-3.012969,0.999998,0.000163,-0.001381,0.002740,-0.000317,0.002764,-0.001405,-85.621509,0.002765,
610,30,0.056672,-4.989732,0.999997,0.000000,-0.000372,0.002601,0.001185,0.003015,-0.000787,70.720319,0.003128,
680,1680,0.484737,-0.874009,0.999998,0.000175,-0.001212,0.002521,0.000009,0.002521,-0.001212,89.860686,0.002521,
1130,760,0.072417,-3.755131,0.999998,0.000181,-0.001117,0.001638,-0.001025,0.001977,-0.001456,-71.670613,0.002050,
940,320,0.173766,-4.468852,0.999998,0.000169,-0.000805,0.002166,0.000010,0.002166,-0.000805,89.800010,0.002190,
1140,1310,0.059429,-1.238500,0.999999,0.000133,-0.000967,0.001507,0.000929,0.001817,-0.001277,71.548271,0.001867,
1320,1900,-0.018171,-0.211704,0.999999,0.000133,-0.000217,0.001668,0.000038,0.001669,-0.000218,88.840816,0.001814,
700,1570,0.539624,-1.137788,0.999998,0.000180,-0.001262,0.002553,0.000040,0.002554,-0.001262,89.391949,0.002554,
1810,1160,-0.932625,-2.210933,0.999998,0.000162,-0.001128,0.002363,0.000147,0.002369,-0.001134,87.590936,0.002370,
1550,930,-0.650076,-2.805164,0.999998,0.000177,-0.001270,0.003011,-0.000359,0.003041,-0.001300,-85.239557,0.003052,
930,660,0.331105,-3.644883,0.999998,0.000174,-0.001547,0.002770,-0.000297,0.002790,-0.001568,-86.077875,0.002797,
1890,370,-0.613806,-4.087099,0.999998,0.000174,-0.001269,0.002462,-0.000001,0.002462,-0.001269,-89.979648,0.002463,
1900,240,-0.500802,-4.395625,0.999997,0.000000,-0.001162,0.002397,-0.000023,0.002397,-0.001162,-89.635774,0.002397,
1470,110,-0.039172,-4.892859,0.999999,0.000147,-0.000212,0.001733,-0.000218,0.001757,-0.000236,-83.684893,0.001907,
1380,60,-0.009832,-4.977703,0.999999,0.000130,-0.000050,0.001556,-0.000095,0.001561,-0.000055,-86.615721,0.001772,
990,1860,0.081113,-0.301301,0.999999,0.000163,-0.000402,0.001878,-0.000127,0.001885,-0.000409,-86.822339,0.001983,
610,1880,0.356717,-0.430256,0.999998,0.000184,-0.001226,0.002613,-0.000163,0.002620,-0.001233,-87.573748,0.002622,
1760,1100,-0.910411,-2.344525,0.999998,0.000163,-0.001117,0.002446,0.000169,0.002454,-0.001125,87.296284,0.002457,
800,310,0.296295,-4.416192,0.999998,0.000209,-0.001070,0.002402,0.000059,0.002403,-0.001071,89.034122,0.002408,
790,1940,0.111186,-0.182885,0.999998,0.000142,-0.000548,0.002091,-0.000471,0.002173,-0.000629,-80.169201,0.002236,
1420,1540,-0.141127,-0.921918,0.999999,0.000143,-0.000969,0.002101,-0.000317,0.002134,-0.001002,-84.166270,0.002135,
1720,1920,-0.163962,-0.236878,0.999998,0.000136,-0.000597,0.002261,0.000567,0.002370,-0.000706,79.173498,0.002434,
1720,570,-0.542295,-3.716419,0.999997,0.000218,-0.001371,0.002641,0.000035,0.002642,-0.001371,89.498916,0.002642,
1140,1390,0.057036,-1.112358,0.999998,0.000151,-0.000835,0.001624,0.000603,0.001763,-0.000975,76.939295,0.001767,
1440,70,-0.017616,-4.960051,0.999999,0.000117,-0.000088,0.001622,-0.000154,0.001635,-0.000102,-84.910240,0.001833,
820,850,0.685540,-2.995794,0.999998,0.000167,-0.001413,0.002806,0.000321,0.002831,-0.001437,85.668788,0.002831,
670,40,0.045385,-4.995162,0.999999,0.000138,-0.000061,0.002127,0.000940,0.002476,-0.000409,69.658007,0.002654,
1170,310,0.029261,-4.565139,0.999999,0.000132,-0.000431,0.001799,0.000011,0.001799,-0.000431,89.705008,0.001878,
640,1200,0.919191,-2.118209,0.999998,0.000150,-0.001191,0.002409,-0.000192,0.002420,-0.001201,-86.958116,0.002420,
850,1270,0.570244,-1.839850,0.999997,0.000183,-0.001600,0.002970,-0.000172,0.002977,-0.001607,-87.851090,0.002980,
760,1110,0.839721,-2.313448,0.999998,0.000174,-0.001119,0.002532,-0.000226,0.002546,-0.001133,-86.476534,0.002551,
1390,1720,-0.083685,-0.543414,0.999998,0.000166,-0.000597,0.001922,-0.000049,0.001923,-0.000598,-88.887024,0.001969,
770,600,0.529187,-3.658430,0.999998,0.000182,-0.001395,0.002665,-0.000039,0.002665,-0.001395,-89.454535,0.002666,
1630,1810,-0.212438,-0.454420,0.999998,0.000176,-0.000779,0.002272,0.000216,0.002287,-0.000795,85.973182,0.002322,
1610,1520,-0.372136,-1.139992,0.999998,0.000170,-0.001328,0.002593,-0.000148,0.002598,-0.001334,-87.835208,0.002598,
1680,120,-0.123280,-4.842686,0.999999,0.000146,-0.000565,0.002108,-0.000494,0.002196,-0.000654,-79.856662,0.002256,
1840,1250,-0.900061,-2.008820,0.999999,0.000135,-0.001197,0.002418,0.000136,0.002423,-0.001202,87.844126,0.002423,
890,1770,0.193593,-0.516951,0.999998,0.000154,-0.000816,0.002213,-0.000068,0.002215,-0.000817,-88.710203,0.002240,
1580,510,-0.321018,-3.988209,0.999998,0.000163,-0.001230,0.002521,0.000184,0.002530,-0.001239,87.194419,0.002530,
1090,520,0.099702,-4.143222,0.999998,0.000150,-0.000856,0.001957,-0.000349,0.002000,-0.000898,-83.032598,0.002003,
810,910,0.757410,-2.825535,0.999998,0.000165,-0.001232,0.002688,0.000326,0.002715,-0.001259,85.276150,0.002718,
1850,140,-0.296095,-4.702911,0.999998,0.000177,-0.001211,0.002615,-0.000285,0.002636,-0.001232,-85.764511,0.002638,
1300,1310,-0.040016,-1.197919,0.999998,0.000170,-0.000797,0.001224,-0.000792,0.001497,-0.001070,-70.946298,0.001543,
600,2020,0.073549,-0.063040,0.999996,0.000000,-0.000240,0.002710,-0.001332,0.003223,-0.000752,-68.949946,0.003372,
1070,90,0.017499,-4.931090,0.999999,0.000136,-0.000115,0.001589,0.000121,0.001598,-0.000124,85.958418,0.001778,
1560,290,-0.186174,-4.518802,0.999998,0.000157,-0.000789,0.002209,-0.000071,0.002211,-0.000791,-88.644025,0.002241,
870,1480,0.371708,-1.229793,0.999998,0.000187,-0.001403,0.002648,0.000189,0.002657,-0.001412,87.333708,0.002659,
1520,80,-0.035178,-4.938203,0.999999,0.000110,-0.000183,0.001698,-0.000265,0.001735,-0.000220,-82.141109,0.001889,
1550,910,-0.627429,-2.862617,0.999998,0.000190,-0.001376,0.003033,-0.000383,0.003066,-0.001409,-85.069296,0.003070,
1020,1360,0.205158,-1.363533,0.999998,0.000176,-0.001523,0.002614,0.000630,0.002708,-0.001616,81.536043,0.002725,
710,840,0.822804,-2.982821,0.999998,0.000145,-0.001233,0.002556,0.000264,0.002575,-0.001251,86.027538,0.002575,
1890,400,-0.636690,-4.013570,0.999999,0.000161,-0.001240,0.002433,0.000040,0.002434,-0.001240,89.377474,0.002434,
1470,90,-0.030132,-4.925787,0.999999,0.000139,-0.000170,0.001683,-0.000207,0.001706,-0.000193,-83.713043,0.001868,
1650,840,-0.685546,-3.021007,0.999998,0.000172,-0.001422,0.002780,-0.000309,0.002803,-0.001444,-85.814827,0.002804,
700,1550,0.553346,-1.188507,0.999998,0.000184,-0.001281,0.002577,0.000038,0.002577,-0.001281,89.430349,0.002577,
660,950,0.956023,-2.700141,0.999998,0.000190,-0.001104,0.002359,0.000166,0.002367,-0.001112,87.256501,0.002369,
1320,1880,-0.021404,-0.244137,0.999999,0.000150,-0.000264,0.001671,0.000037,0.001671,-0.000264,88.895012,0.001797,
990,1240,0.353878,-1.773419,0.999998,0.000188,-0.001975,0.003258,0.000279,0.003273,-0.001990,86.959430,0.003298,
780,310,0.317133,-4.403324,0.999998,0.000179,-0.001081,0.002412,0.000066,0.002413,-0.001082,88.922293,0.002417,
680,1660,0.500112,-0.924972,0.999997,0.000188,-0.001242,0.002540,0.000034,0.002540,-0.001243,89.486990,0.002540,
1200,1530,0.020346,-0.852427,0.999999,0.000137,-0.000639,0.001684,0.000096,0.001688,-0.000643,87.642857,0.001704,
1740,1870,-0.245896,-0.363174,0.999998,0.000163,-0.000997,0.002388,0.000359,0.002426,-0.001035,84.006667,0.002434,
740,1110,0.862146,-2.316205,0.999998,0.000149,-0.001110,0.002492,-0.000213,0.002505,-0.001122,-86.625277,0.002510,
700,1370,0.695500,-1.658705,0.999998,0.000178,-0.001325,0.002634,-0.000103,0.002637,-0.001328,-88.507377,0.002637,
940,300,0.164920,-4.510981,0.999998,0.000176,-0.000778,0.002117,0.000046,0.002118,-0.000779,89.083950,0.002142,
1030,540,0.159767,-4.050378,0.999999,0.000129,-0.001054,0.002176,-0.000389,0.002223,-0.001100,-83.221957,0.002223,
640,1180,0.936228,-2.169067,0.999998,0.000161,-0.001162,0.002406,-0.000186,0.002416,-0.001172,-87.026524,0.002416,
1630,1790,-0.228870,-0.500474,0.999998,0.000181,-0.000837,0.002304,0.000193,0.002316,-0.000849,86.491748,0.002343,
1170,290,0.026396,-4.598097,0.999998,0.000156,-0.000410,0.001743,0.000011,0.001743,-0.000410,89.698843,0.001823,
750,600,0.556818,-3.641861,0.999998,0.000175,-0.001368,0.002667,-0.000013,0.002667,-0.001368,-89.810963,0.002667,
1420,1520,-0.144164,-0.963762,0.999998,0.000151,-0.001012,0.002134,-0.000374,0.002178,-0.001056,-83.308446,0.002178,
600,960,1.023429,-2.665634,0.999998,0.000149,-0.001064,0.002123,0.000030,0.002123,-0.001064,89.466675,0.002123,
1420,70,-0.016525,-4.960612,0.999999,0.000115,-0.000121,0.001598,-0.000136,0.001609,-0.000132,-85.511819,0.001787,
1530,1720,-0.186511,-0.606757,0.999998,0.000158,-0.000805,0.002235,-0.000006,0.002235,-0.000805,-89.884140,0.002264,
1370,1990,-0.009308,-0.068316,0.999999,0.000136,-0.000069,0.001550,0.000095,0.001556,-0.000074,86.655061,0.001755,
1720,1900,-0.189844,-0.284442,0.999998,0.000152,-0.000673,0.002353,0.000488,0.002430,-0.000750,81.056830,0.002489,
910,660,0.361436,-3.621311,0.999997,0.000184,-0.001566,0.002798,-0.000238,0.002811,-0.001579,-86.882656,0.002818,
1600,100,-0.067493,-4.897267,0.999999,0.000150,-0.000328,0.001859,-0.000361,0.001917,-0.000386,-80.871974,0.002028,
850,1250,0.592456,-1.900083,0.999998,0.000179,-0.001573,0.002943,-0.000233,0.002955,-0.001585,-87.053790,0.002958,
980,1450,0.233836,-1.191810,0.999998,0.000155,-0.001329,0.002466,0.000419,0.002512,-0.001374,83.769821,0.002516,
770,610,0.534910,-3.631891,0.999998,0.000191,-0.001403,0.002673,-0.000038,0.002673,-0.001403,-89.465787,0.002674,
980,580,0.225500,-3.909223,0.999998,0.000162,-0.001244,0.002414,-0.000384,0.002454,-0.001284,-84.075646,0.002455,
890,1750,0.205670,-0.560777,0.999998,0.000183,-0.000880,0.002216,-0.000051,0.002216,-0.000880,-89.056351,0.002232,
1800,990,-0.962049,-2.607556,0.999999,0.000136,-0.001054,0.002318,-0.000060,0.002320,-0.001055,-88.987127,0.002323,
1090,500,0.098220,-4.182610,0.999999,0.000133,-0.000831,0.001958,-0.000300,0.001990,-0.000863,-83.924533,0.001995,
1760,1080,-0.916215,-2.394535,0.999998,0.000162,-0.001092,0.002412,0.000090,0.002414,-0.001094,88.534942,0.002418,
1590,740,-0.486592,-3.353118,0.999997,0.000199,-0.001676,0.002956,-0.000024,0.002956,-0.001676,-89.708260,0.002965,
690,480,0.549318,-3.907568,0.999998,0.000165,-0.001276,0.002555,-0.000062,0.002556,-0.001277,-89.067658,0.002556,
930,1720,0.189010,-0.609392,0.999997,0.000216,-0.000797,0.002246,-0.000006,0.002246,-0.000797,-89.894527,0.002278,
1070,70,0.012508,-4.961678,0.999999,0.000151,-0.000072,0.001561,0.000111,0.001569,-0.000079,86.135416,0.001767,
610,1940,0.252935,-0.272254,0.999998,0.000159,-0.001225,0.002660,-0.000401,0.002701,-0.001266,-84.172510,0.002703,
1020,1800,0.093242,-0.409250,0.999998,0.000177,-0.000544,0.001891,-0.000066,0.001892,-0.000546,-88.454732,0.001948,
860,1810,0.191977,-0.443834,0.999998,0.000195,-0.000795,0.002205,-0.000165,0.002214,-0.000804,-86.854182,0.002242,
1810,360,-0.506286,-4.180690,0.999998,0.000168,-0.001262,0.002527,0.000024,0.002527,-0.001262,89.631221,0.002527,
1870,1240,-0.943283,-2.049510,0.999999,0.000129,-0.001139,0.002325,0.000075,0.002326,-0.001140,88.754210,0.002327,
1890,390,-0.628915,-4.038516,0.999998,0.000171,-0.001264,0.002435,0.000039,0.002436,-0.001264,89.396752,0.002436,
1580,490,-0.310615,-4.038537,0.999998,0.000166,-0.001215,0.002464,0.000171,0.002472,-0.001223,87.342540,0.002472,
1300,1250,-0.060141,-1.264322,0.999998,0.000148,-0.000973,0.001061,-0.000871,0.001383,-0.001295,-69.704180,0.001549,
1660,770,-0.627499,-3.213089,0.999998,0.000188,-0.001483,0.002829,-0.000202,0.002839,-0.001492,-87.322848,0.002840,
1470,70,-0.020295,-4.959134,0.999999,0.000108,-0.000105,0.001639,-0.000198,0.001662,-0.000127,-83.612009,0.001850,
730,1900,0.198511,-0.287935,0.999998,0.000180,-0.000784,0.002372,-0.000469,0.002440,-0.000852,-81.719047,0.002476,
1330,870,-0.217095,-3.603269,0.999998,0.000199,-0.000841,0.001029,0.000745,0.001289,-0.001101,70.730236,0.001393,
1520,320,-0.170959,-4.471582,0.999998,0.000182,-0.000780,0.002168,0.000004,0.002168,-0.000780,89.919637,0.002196,
810,890,0.741809,-2.880932,0.999998,0.000179,-0.001280,0.002712,0.000315,0.002737,-0.001305,85.510553,0.002738,
600,30,0.057430,-4.992614,0.999997,0.000000,0.000091,0.002923,0.001541,0.003600,-0.000586,66.289204,0.003863,
1180,1530,0.032031,-0.856270,0.999999,0.000130,-0.000662,0.001715,0.000148,0.001724,-0.000671,86.438735,0.001738,
1860,890,-0.985573,-2.823196,0.999998,0.000159,-0.001082,0.002234,-0.000075,0.002235,-0.001083,-88.709273,0.002236,
1320,1860,-0.024736,-0.279131,0.999998,0.000145,-0.000304,0.001687,0.000048,0.001689,-0.000305,88.610569,0.001800,
1550,890,-0.597296,-2.925613,0.999998,0.000185,-0.001500,0.003093,-0.000343,0.003118,-0.001526,-85.753380,0.003119,
700,310,0.407912,-4.346973,0.999998,0.000194,-0.001196,0.002523,0.000023,0.002523,-0.001196,89.652637,0.002524,
740,1530,0.516099,-1.208239,0.999998,0.000187,-0.001328,0.002606,0.000059,0.002607,-0.001328,89.142181,0.002607,
640,1160,0.948497,-2.214135,0.999998,0.000150,-0.001124,0.002307,-0.000136,0.002312,-0.001130,-87.730087,0.002312,
1630,1770,-0.243376,-0.547146,0.999998,0.000186,-0.000857,0.002342,0.000161,0.002350,-0.000865,87.121472,0.002377,
860,1110,0.729048,-2.298229,0.999998,0.000175,-0.001139,0.002761,-0.000297,0.002784,-0.001161,-85.672779,0.002797,
680,1370,0.720926,-1.672090,0.999998,0.000179,-0.001349,0.002593,-0.000105,0.002595,-0.001351,-88.474362,0.002596,
1680,100,-0.095725,-4.885590,0.999999,0.000122,-0.000459,0.002050,-0.000529,0.002157,-0.000566,-78.565249,0.002236,
1420,1500,-0.147803,-1.009381,0.999998,0.000148,-0.001052,0.002142,-0.000438,0.002201,-0.001111,-82.336508,0.002201,
680,1640,0.513322,-0.977546,0.999997,0.000187,-0.001259,0.002534,0.000038,0.002534,-0.001260,89.424592,0.002534,
790,1240,0.692556,-1.959633,0.999997,0.000190,-0.001425,0.002752,-0.000284,0.002771,-0.001445,-86.122266,0.002772,
940,280,0.153426,-4.555012,0.999998,0.000169,-0.000744,0.002117,0.000062,0.002118,-0.000745,88.758818,0.002149,
1510,1720,-0.170530,-0.597796,0.999998,0.000149,-0.000832,0.002182,-0.000027,0.002183,-0.000832,-89.492128,0.002203,
1170,270,0.024835,-4.633799,0.999998,0.000158,-0.000379,0.001765,0.000005,0.001765,-0.000379,89.869678,0.001859,
1690,400,-0.389784,-4.176248,0.999998,0.000184,-0.001158,0.002514,0.000035,0.002514,-0.001158,89.447553,0.002517,
1390,680,-0.127522,-3.800534,0.999997,0.000184,-0.001258,0.002187,0.000740,0.002339,-0.001410,78.369220,0.002355,
850,1230,0.614623,-1.957540,0.999997,0.000179,-0.001551,0.002940,-0.000255,0.002954,-0.001565,-86.763976,0.002956,
1740,1550,-0.523895,-1.170447,0.999998,0.000172,-0.001268,0.002563,-0.000065,0.002564,-0.001269,-89.024141,0.002565,
1720,170,-0.209638,-4.721089,0.999998,0.000138,-0.000768,0.002351,-0.000461,0.002418,-0.000835,-81.758910,0.002456,
890,1730,0.216933,-0.606804,0.999998,0.000175,-0.000940,0.002288,0.000001,0.002288,-0.000940,89.979086,0.002300,
1330,660,-0.064910,-3.926269,0.999999,0.000162,-0.000859,0.001685,0.000616,0.001826,-0.001000,77.077753,0.001829,
1590,720,-0.467995,-3.411964,0.999997,0.000201,-0.001663,0.002933,0.000021,0.002933,-0.001663,89.733214,0.002942,
1400,70,-0.013279,-4.961436,0.999999,0.000125,-0.000126,0.001589,-0.000124,0.001598,-0.000135,-85.879973,0.001772,
1430,1220,-0.296102,-1.741280,0.999998,0.000182,-0.001985,0.003198,-0.000570,0.003260,-0.002047,-83.794235,0.003295,
1760,1060,-0.920420,-2.439897,0.999998,0.000147,-0.001086,0.002381,0.000098,0.002384,-0.001089,88.383989,0.002387,
1370,1970,-0.016245,-0.101809,0.999998,0.000150,-0.000106,0.001585,0.000088,0.001589,-0.000110,87.040451,0.001775,
1020,1780,0.099601,-0.446256,0.999998,0.000165,-0.000574,0.001977,-0.000024,0.001977,-0.000574,-89.456638,0.002034,
1730,170,-0.217027,-4.718464,0.999998,0.000163,-0.000850,0.002377,-0.000442,0.002437,-0.000910,-82.333211,0.002463,
1060,1980,0.015920,-0.086352,0.999999,0.000129,-0.000111,0.001599,-0.000123,0.001608,-0.000120,-85.906389,0.001792,
1740,830,-0.798245,-3.013081,0.999999,0.000150,-0.001265,0.002619,-0.000270,0.002638,-0.001283,-86.047250,0.002638,
1460,1980,-0.020902,-0.088651,0.999998,0.000169,-0.000095,0.001638,0.000208,0.001663,-0.000119,83.258060,0.001855,
1810,340,-0.489379,-4.231405,0.999998,0.000187,-0.001241,0.002538,-0.000006,0.002538,-0.001241,-89.903688,0.002538,
730,1880,0.226346,-0.335801,0.999998,0.000173,-0.000858,0.002419,-0.000402,0.002468,-0.000907,-83.111881,0.002497,
1890,380,-0.621234,-4.063139,0.999998,0.000190,-0.001273,0.002440,0.000031,0.002441,-0.001274,89.518800,0.002441,
950,1780,0.143943,-0.472371,0.999998,0.000156,-0.000732,0.002074,-0.000057,0.002075,-0.000733,-88.834523,0.002105,
1330,860,-0.185636,-3.613629,0.999998,0.000202,-0.000953,0.001133,0.000730,0.001363,-0.001183,72.515458,0.001481,
1180,1510,0.032419,-0.890363,0.999999,0.000131,-0.000660,0.001693,0.000173,0.001706,-0.000672,85.826710,0.001718,
1510,1290,-0.369622,-1.672248,0.999997,0.000179,-0.001811,0.003110,-0.000203,0.003118,-0.001819,-87.641767,0.003133,
1380,210,-0.048913,-4.727253,0.999999,0.000142,-0.000335,0.001766,-0.000075,0.001768,-0.000337,-87.969332,0.001878,
590,2020,0.070168,-0.064882,0.999997,0.000000,0.000097,0.003014,-0.001606,0.003725,-0.000614,-66.122065,0.003994,
680,310,0.430548,-4.328550,0.999998,0.000181,-0.001195,0.002538,0.000019,0.002538,-0.001195,89.701491,0.002539,
920,1010,0.708183,-2.570524,0.999998,0.000194,-0.000890,0.002858,0.000109,0.002861,-0.000893,88.337748,0.002927,
610,2010,0.092072,-0.085272,0.999998,0.000194,-0.000838,0.002518,-0.000904,0.002745,-0.001066,-75.847358,0.002768,
1500,1010,-0.669465,-2.575131,0.999998,0.000187,-0.000968,0.003257,-0.000089,0.003258,-0.000970,-88.799737,0.003346,
600,890,0.988750,-2.823150,0.999999,0.000141,-0.001092,0.002216,0.000074,0.002217,-0.001094,88.715570,0.002217,
1320,1840,-0.028355,-0.309673,0.999998,0.000146,-0.000354,0.001711,0.000024,0.001711,-0.000355,89.347507,0.001806,
760,1650,0.408294,-0.886900,0.999998,0.000192,-0.001223,0.002498,0.000052,0.002499,-0.001224,89.194517,0.002499,
940,260,0.144447,-4.596123,0.999998,0.000180,-0.000681,0.002064,0.000087,0.002066,-0.000683,88.194963,0.002106,
1550,870,-0.572772,-2.987754,0.999998,0.000184,-0.001587,0.003106,-0.000298,0.003124,-0.001606,-86.383257,0.003125,
680,1620,0.530898,-1.026356,0.999998,0.000193,-0.001257,0.002522,0.000028,0.002522,-0.001257,89.580017,0.002522,
810,870,0.721522,-2.935539,0.999998,0.000187,-0.001327,0.002760,0.000344,0.002789,-0.001356,85.220849,0.002789,
1680,80,-0.073500,-4.926364,0.999999,0.000124,-0.000355,0.001964,-0.000536,0.002082,-0.000473,-77.597578,0.002183,
720,1530,0.542582,-1.224069,0.999998,0.000186,-0.001307,0.002603,0.000050,0.002603,-0.001307,89.263797,0.002603,
640,1140,0.960387,-2.261548,0.999999,0.000150,-0.001113,0.002313,-0.000127,0.002318,-0.001117,-87.882977,0.002319,
1300,1230,-0.078872,-1.285228,0.999998,0.000169,-0.001045,0.000997,-0.000759,0.001248,-0.001297,-71.691529,0.001470,
1330,640,-0.065694,-3.959861,0.999998,0.000157,-0.000835,0.001679,0.000544,0.001791,-0.000948,78.297848,0.001792,
890,1710,0.229681,-0.652264,0.999998,0.000182,-0.000986,0.002277,0.000041,0.002277,-0.000986,89.279083,0.002284,
840,1110,0.751329,-2.301058,0.999998,0.000153,-0.001125,0.002696,-0.000268,0.002714,-0.001144,-86.007142,0.002726,
1170,250,0.023783,-4.669292,0.999999,0.000136,-0.000357,0.001728,0.000025,0.001728,-0.000358,89.305473,0.001824,
1630,1750,-0.259348,-0.594035,0.999998,0.000185,-0.000906,0.002308,0.000084,0.002310,-0.000909,88.509322,0.002328,
1420,1480,-0.150074,-1.052601,0.999998,0.000154,-0.001097,0.002146,-0.000456,0.002209,-0.001160,-82.148673,0.002210,
850,1210,0.637805,-2.016441,0.999998,0.000186,-0.001499,0.002913,-0.000302,0.002934,-0.001520,-86.106177,0.002934,
1570,720,-0.434194,-3.430448,0.999998,0.000210,-0.001666,0.002948,0.000063,0.002949,-0.001667,89.214318,0.002957,
1480,70,-0.021964,-4.959517,0.999999,0.000111,-0.000126,0.001643,-0.000206,0.001666,-0.000150,-83.437316,0.001844,
770,1240,0.719105,-1.968631,0.999998,0.000185,-0.001393,0.002692,-0.000280,0.002711,-0.001412,-86.099056,0.002712,
1390,660,-0.127039,-3.842849,0.999999,0.000128,-0.001173,0.002137,0.000697,0.002278,-0.001314,78.585570,0.002287,
1250,1720,-0.009377,-0.517630,0.999998,0.000141,-0.000519,0.001734,-0.000028,0.001734,-0.000519,-89.291073,0.001780,
1040,1330,0.186302,-1.408049,0.999998,0.000159,-0.001582,0.002585,0.000745,0.002715,-0.001711,80.165067,0.002745,
1020,1760,0.108018,-0.488022,0.999998,0.000160,-0.000605,0.001980,0.000003,0.001980,-0.000605,89.932845,0.002029,
1460,1960,-0.031959,-0.122481,0.999999,0.000160,-0.000133,0.001664,0.000188,0.001683,-0.000152,84.087226,0.001862,
590,700,0.850108,-3.266336,0.999998,0.000167,-0.001266,0.002512,0.000064,0.002513,-0.001267,89.028217,0.002513,
1490,1780,-0.127303,-0.462276,0.999998,0.000154,-0.000663,0.002009,0.000052,0.002010,-0.000664,88.888632,0.002048,
610,2000,0.115139,-0.107817,0.999998,0.000185,-0.000976,0.002628,-0.000827,0.002809,-0.001157,-77.670828,0.002823,
1760,1040,-0.925173,-2.490666,0.999998,0.000153,-0.001096,0.002435,0.000052,0.002436,-0.001097,89.151862,0.002440,
1610,1560,-0.349942,-1.038542,0.999999,0.000160,-0.001263,0.002494,-0.000145,0.002499,-0.001269,-87.785451,0.002499,
1650,500,-0.404362,-3.954850,0.999998,0.000163,-0.001293,0.002551,0.000112,0.002555,-0.001296,88.338118,0.002555,
1440,1530,-0.163750,-0.963111,0.999999,0.000154,-0.001034,0.002210,-0.000356,0.002248,-0.001073,-83.803441,0.002249,
1070,470,0.111594,-4.227989,0.999998,0.000158,-0.000867,0.001987,-0.000277,0.002014,-0.000894,-84.517156,0.002018,
1680,1370,-0.577489,-1.602856,0.999997,0.000206,-0.001466,0.002758,0.000067,0.002759,-0.001468,89.085798,0.002761,
1670,400,-0.367127,-4.190439,0.999998,0.000216,-0.001175,0.002500,0.000037,0.002501,-0.001175,89.424725,0.002502,
1890,290,-0.542566,-4.284817,0.999997,0.000203,-0.001222,0.002423,0.000015,0.002423,-0.001222,89.756591,0.002423,
650,760,0.827517,-3.157816,0.999998,0.000137,-0.001253,0.002487,0.000170,0.002495,-0.001261,87.396316,0.002495,
730,1740,0.376664,-0.682538,0.999998,0.000175,-0.001159,0.002489,-0.000053,0.002490,-0.001160,-89.173343,0.002492,
1360,210,-0.041906,-4.729211,0.999998,0.000161,-0.000338,0.001753,-0.000034,0.001754,-0.000339,-89.066264,0.001861,
1370,1950,-0.016712,-0.132800,0.999998,0.000161,-0.000137,0.001621,0.000100,0.001626,-0.000143,86.766234,0.001801,
1820,310,-0.476461,-4.299960,0.999997,0.000207,-0.001220,0.002508,-0.000031,0.002509,-0.001220,-89.525721,0.002509,
1730,410,-0.444842,-4.119720,0.999998,0.000182,-0.001236,0.002543,0.000042,0.002543,-0.001237,89.362549,0.002544,
1320,1820,-0.031653,-0.346936,0.999999,0.000140,-0.000401,0.001738,0.000006,0.001738,-0.000401,89.836130,0.001820,
900,1010,0.725883,-2.568393,0.999998,0.000209,-0.000922,0.002788,0.000096,0.002790,-0.000925,88.513117,0.002843,
940,240,0.133428,-4.635965,0.999998,0.000157,-0.000639,0.002057,0.000139,0.002064,-0.000647,87.060497,0.002111,
1820,750,-0.827060,-3.179140,0.999999,0.000151,-0.001248,0.002510,-0.000155,0.002516,-0.001254,-87.639231,0.002516,
590,30,0.052340,-4.995290,0.999997,0.000000,0.000316,0.003269,0.001816,0.004133,-0.000548,64.562195,0.004489,
1680,60,-0.047306,-4.965508,0.999999,0.000112,-0.000273,0.001868,-0.000530,0.001992,-0.000397,-76.828411,0.002109,
1320,870,-0.209180,-3.647126,0.999937,0.001056,-0.000950,0.000824,0.000554,0.000983,-0.001109,73.996589,0.001215,
1510,1250,-0.412773,-1.800080,0.999998,0.000183,-0.001872,0.003205,-0.000085,0.003207,-0.001873,-89.037365,0.003222,
1170,230,0.020734,-4.703074,0.999999,0.000136,-0.000323,0.001731,0.000018,0.001731,-0.000323,89.511106,0.001841,
1550,850,-0.545120,-3.048683,0.999998,0.000191,-0.001660,0.003151,-0.000245,0.003164,-0.001673,-87.088336,0.003165,
810,850,0.700314,-2.990241,0.999998,0.000168,-0.001378,0.002787,0.000313,0.002811,-0.001401,85.733198,0.002811,
1460,70,-0.019805,-4.959342,0.999999,0.000105,-0.000105,0.001634,-0.000188,0.001654,-0.000125,-83.884124,0.001842,
680,1600,0.544650,-1.076333,0.999998,0.000192,-0.001276,0.002523,0.000038,0.002524,-0.001277,89.427230,0.002524,
900,1910,0.088005,-0.223038,0.999998,0.000149,-0.000405,0.001916,-0.000295,0.001952,-0.000442,-82.863118,0.002048,
770,1300,0.662470,-1.803127,0.999998,0.000169,-0.001417,0.002748,-0.000196,0.002757,-0.001426,-87.316311,0.002758,
890,1690,0.240501,-0.698463,0.999998,0.000171,-0.001013,0.002298,0.000051,0.002299,-0.001013,89.123214,0.002304,
860,630,0.418774,-3.655031,0.999998,0.000186,-0.001508,0.002737,-0.000121,0.002740,-0.001511,-88.370126,0.002745,
1330,480,-0.064636,-4.244011,0.999999,0.000177,-0.000693,0.001853,0.000192,0.001868,-0.000707,85.705143,0.001886,
1700,1970,-0.086994,-0.126965,0.999998,0.000153,-0.000329,0.001999,0.000541,0.002118,-0.000449,77.538944,0.002233,
680,1090,0.939517,-2.371264,0.999998,0.000175,-0.001111,0.002360,-0.000116,0.002364,-0.001115,-88.080483,0.002365,
660,650,0.717769,-3.445083,0.999997,0.000204,-0.001317,0.002584,0.000083,0.002585,-0.001319,88.784275,0.002585,
640,1120,0.968506,-2.306973,0.999998,0.000172,-0.001111,0.002319,-0.000148,0.002326,-0.001118,-87.537235,0.002326,
1630,1730,-0.274171,-0.640199,0.999998,0.000182,-0.000946,0.002351,0.000052,0.002352,-0.000947,89.088075,0.002367,
580,700,0.861146,-3.259279,0.999998,0.000154,-0.001374,0.002433,0.000098,0.002436,-0.001376,88.528146,0.002442,
1850,1560,-0.657913,-1.232948,0.999998,0.000165,-0.001272,0.002533,-0.000032,0.002534,-0.001273,-89.521866,0.002534,
750,1240,0.747673,-1.976649,0.999998,0.000161,-0.001366,0.002656,-0.000257,0.002672,-0.001382,-86.354978,0.002673,
1420,1460,-0.152953,-1.095393,0.999999,0.000138,-0.001131,0.002180,-0.000489,0.002251,-0.001202,-81.779863,0.002252,
930,1700,0.198097,-0.654716,0.999998,0.000191,-0.000825,0.002184,0.000012,0.002184,-0.000825,89.780811,0.002206,
1230,1720,0.000652,-0.515335,0.999998,0.000149,-0.000504,0.001747,0.000021,0.001747,-0.000504,89.456520,0.001798,
850,1630,0.315169,-0.867821,0.999998,0.000157,-0.001144,0.002417,0.000079,0.002418,-0.001145,88.725048,0.002419,
1020,1740,0.114528,-0.526315,0.999998,0.000185,-0.000654,0.001980,0.000016,0.001980,-0.000655,89.649885,0.002018,
1460,1940,-0.039368,-0.155684,0.999999,0.000156,-0.000200,0.001757,0.000191,0.001775,-0.000219,84.469733,0.001936,
1170,1400,0.038270,-1.070635,0.999999,0.000160,-0.000682,0.001441,0.000429,0.001524,-0.000765,79.005746,0.001524,
1660,1570,-0.407123,-1.053358,0.999997,0.000192,-0.001256,0.002523,-0.000093,0.002526,-0.001259,-88.597867,0.002526,
600,1750,0.524533,-0.767911,0.999998,0.000174,-0.001232,0.002478,0.000016,0.002478,-0.001232,89.755530,0.002478,
1070,490,0.112906,-4.188286,0.999998,0.000149,-0.000865,0.002006,-0.000308,0.002038,-0.000898,-83.936911,0.002043,
1860,1070,-1.025817,-2.426121,0.999998,0.000170,-0.001035,0.002161,0.000022,0.002161,-0.001035,89.614200,0.002162,
1610,1540,-0.361129,-1.088741,0.999998,0.000206,-0.001296,0.002518,-0.000133,0.002523,-0.001301,-88.003227,0.002523,
1320,1800,-0.033985,-0.380917,0.999998,0.000141,-0.000444,0.001740,-0.000005,0.001740,-0.000444,-89.859839,0.001808,
1010,840,0.350120,-3.224816,0.999997,0.000191,-0.001938,0.003402,-0.000367,0.003427,-0.001963,-86.088577,0.003439,
1660,1370,-0.548113,-1.587097,0.999998,0.000200,-0.001522,0.002788,0.000046,0.002788,-0.001522,89.392386,0.002792,
1760,1020,-0.926415,-2.539354,0.999998,0.000168,-0.001091,0.002425,-0.000044,0.002425,-0.001092,-89.276674,0.002430,
610,1980,0.161387,-0.165329,0.999998,0.000148,-0.001150,0.002828,-0.000683,0.002942,-0.001264,-80.518771,0.002952,
1800,750,-0.801450,-3.189191,0.999998,0.000152,-0.001293,0.002545,-0.000167,0.002552,-0.001300,-87.511464,0.002552,
1660,990,-0.812928,-2.615754,0.999997,0.000183,-0.001044,0.002542,-0.000128,0.002546,-0.001049,-87.959839,0.002559,
1000,210,0.083270,-4.712072,0.999998,0.000153,-0.000422,0.001878,0.000121,0.001884,-0.000429,86.993284,0.001975,
1170,210,0.020109,-4.737356,0.999998,0.000155,-0.000286,0.001685,0.000042,0.001686,-0.000287,88.771675,0.001804,
1030,1580,0.146024,-0.848657,0.999998,0.000176,-0.000910,0.002141,0.000266,0.002164,-0.000933,85.052038,0.002171,
1820,290,-0.457257,-4.351128,0.999997,0.000198,-0.001212,0.002564,-0.000062,0.002565,-0.001213,-89.055976,0.002566,
1390,640,-0.124022,-3.884636,0.999999,0.000132,-0.001112,0.002067,0.000642,0.002192,-0.001237,79.009818,0.002198,
730,1240,0.774876,-1.984238,0.999998,0.000177,-0.001314,0.002619,-0.000254,0.002636,-0.001330,-86.315543,0.002636,
1690,420,-0.403390,-4.126704,0.999997,0.000188,-0.001198,0.002519,0.000037,0.002519,-0.001198,89.424347,0.002520,
1330,520,-0.065614,-4.169518,0.999999,0.000118,-0.000728,0.001825,0.000241,0.001847,-0.000750,84.655617,0.001858,
1420,1440,-0.156385,-1.138744,0.999998,0.000144,-0.001182,0.002221,-0.000539,0.002304,-0.001265,-81.217866,0.002308,
1800,1240,-0.859756,-2.012302,0.999999,0.000148,-0.001219,0.002464,0.000205,0.002475,-0.001230,86.816128,0.002475,
1900,250,-0.509710,-4.371522,0.999996,0.000000,-0.001188,0.002430,-0.000035,0.002430,-0.001189,-89.453368,0.002430,
1700,40,-0.030961,-4.999633,0.999999,0.000135,-0.000104,0.001858,-0.000577,0.002015,-0.000261,-74.765802,0.002191,
680,1580,0.558169,-1.127649,0.999998,0.000186,-0.001309,0.002536,0.000040,0.002536,-0.001310,89.408666,0.002537,
1370,1930,-0.025092,-0.163768,0.999999,0.000125,-0.000172,0.001630,0.000116,0.001637,-0.000180,86.338400,0.001796,
1580,110,-0.069106,-4.881494,0.999999,0.000131,-0.000368,0.001891,-0.000330,0.001938,-0.000415,-81.866440,0.002040,
1720,1360,-0.643978,-1.656589,0.999998,0.000218,-0.001421,0.002704,0.000110,0.002707,-0.001424,88.468708,0.002708,
830,1300,0.572085,-1.766236,0.999998,0.000190,-0.001552,0.002895,-0.000147,0.002900,-0.001557,-88.111230,0.002902,
1330,260,-0.038647,-4.647876,0.999999,0.000142,-0.000456,0.001742,0.000013,0.001742,-0.000456,89.660369,0.001807,
1060,350,0.096037,-4.461131,0.999998,0.000178,-0.000689,0.001926,-0.000095,0.001929,-0.000692,-87.926525,0.001955,
1460,1920,-0.048090,-0.190875,0.999999,0.000118,-0.000250,0.001754,0.000175,0.001769,-0.000265,85.057980,0.001909,
1630,1710,-0.285989,-0.687721,0.999998,0.000186,-0.000973,0.002381,0.000024,0.002381,-0.000973,89.587617,0.002394,
1020,1720,0.120955,-0.567357,0.999998,0.000161,-0.000700,0.001979,0.000041,0.001979,-0.000700,89.128472,0.002007,
990,1680,0.153781,-0.661512,0.999998,0.000175,-0.000786,0.002106,0.000086,0.002108,-0.000788,88.295534,0.002130,
1880,540,-0.729033,-3.669359,0.999998,0.000143,-0.001311,0.002548,0.000019,0.002548,-0.001311,89.714016,0.002548,
640,1540,0.638036,-1.262088,0.999998,0.000179,-0.001269,0.002569,0.000029,0.002570,-0.001269,89.561546,0.002570,
790,1880,0.179404,-0.314062,0.999998,0.000154,-0.000819,0.002212,-0.000344,0.002251,-0.000858,-83.602708,0.002272,
1510,710,-0.324670,-3.531516,0.999998,0.000188,-0.001699,0.002918,0.000347,0.002944,-0.001725,85.728489,0.002959,
860,610,0.406472,-3.709611,0.999998,0.000168,-0.001455,0.002696,-0.000144,0.002701,-0.001460,-88.012116,0.002704,
1840,1600,-0.616273,-1.123394,0.999998,0.000184,-0.001240,0.002535,-0.000029,0.002535,-0.001240,-89.553188,0.002535,
930,1680,0.209014,-0.696641,0.999998,0.000180,-0.000885,0.002203,0.000044,0.002203,-0.000885,89.176878,0.002218,
940,220,0.120860,-4.678057,0.999998,0.000167,-0.000568,0.001993,0.000138,0.002001,-0.000575,86.918728,0.002060,
820,1450,0.461311,-1.354562,0.999997,0.000191,-0.001429,0.002691,0.000082,0.002692,-0.001431,88.854965,0.002694,
770,590,0.522125,-3.685058,0.999998,0.000182,-0.001393,0.002648,-0.000044,0.002648,-0.001394,-89.371505,0.002650,
1860,1050,-1.029404,-2.469625,0.999998,0.000160,-0.001035,0.002195,0.000055,0.002196,-0.001036,89.026827,0.002197,
1170,1440,0.038168,-1.009495,0.999999,0.000108,-0.000712,0.001551,0.000348,0.001603,-0.000764,81.457398,0.001603,
1120,260,0.044960,-4.644153,0.999998,0.000154,-0.000461,0.001772,-0.000031,0.001773,-0.000461,-89.200780,0.001839,
850,1650,0.302890,-0.816529,0.999998,0.000146,-0.001118,0.002438,0.000063,0.002439,-0.001119,88.992788,0.002442,
730,1510,0.543321,-1.268578,0.999998,0.000185,-0.001344,0.002610,0.000052,0.002610,-0.001345,89.248615,0.002611,
1270,1710,-0.020674,-0.537116,0.999998,0.000171,-0.000530,0.001778,-0.000025,0.001778,-0.000530,-89.383595,0.001826,
1670,1990,-0.052582,-0.083906,0.999998,0.000146,-0.000326,0.001884,0.000506,0.001995,-0.000436,77.698435,0.002097,
1800,1790,-0.408491,-0.610143,0.999998,0.000232,-0.001203,0.002531,0.000146,0.002536,-0.001209,87.767688,0.002537,
1170,190,0.016715,-4.771744,0.999998,0.000150,-0.000236,0.001668,0.000041,0.001668,-0.000237,88.753776,0.001805,
1550,830,-0.518143,-3.112976,0.999997,0.000204,-0.001720,0.003169,-0.000185,0.003176,-0.001727,-87.833747,0.003180,
580,2020,0.068244,-0.062850,0.999997,0.000000,0.000411,0.003294,-0.001785,0.004147,-0.000442,-64.467748,0.004555,
1590,1510,-0.350487,-1.147410,0.999998,0.000175,-0.001331,0.002568,-0.000182,0.002576,-0.001339,-87.329186,0.002577,
1030,1560,0.150334,-0.891539,0.999999,0.000129,-0.000972,0.002110,0.000302,0.002140,-0.001001,84.465092,0.002141,
1070,510,0.115223,-4.148267,0.999998,0.000142,-0.000875,0.002028,-0.000320,0.002063,-0.000910,-83.775256,0.002068,
1320,1780,-0.036218,-0.417500,0.999998,0.000166,-0.000483,0.001806,-0.000015,0.001806,-0.000483,-89.623040,0.001870,
900,850,0.564153,-3.040657,0.999998,0.000164,-0.001612,0.003108,0.000270,0.003123,-0.001627,86.740134,0.003124,
750,260,0.304448,-4.506379,0.999998,0.000149,-0.001016,0.002459,0.000192,0.002470,-0.001026,86.847812,0.002482,
1790,1100,-0.942990,-2.349119,0.999998,0.000161,-0.001112,0.002367,0.000132,0.002372,-0.001117,87.829605,0.002373,
1390,620,-0.122087,-3.927002,0.999998,0.000158,-0.001077,0.002098,0.000608,0.002211,-0.001190,79.521427,0.002213,
1220,620,0.006265,-4.044809,0.999999,0.000129,-0.000589,0.001446,-0.000115,0.001453,-0.000595,-86.788787,0.001461,
670,1240,0.851198,-2.011225,0.999998,0.000147,-0.001240,0.002497,-0.000225,0.002510,-0.001254,-86.572350,0.002510,
1800,270,-0.413879,-4.418104,0.999998,0.000180,-0.001165,0.002532,-0.000116,0.002536,-0.001169,-88.210674,0.002538,
600,940,1.016503,-2.709619,0.999999,0.000140,-0.001086,0.002233,0.000100,0.002236,-0.001089,88.283319,0.002236,
1320,510,-0.058093,-4.193215,0.999998,0.000144,-0.000726,0.001836,0.000244,0.001859,-0.000749,84.613009,0.001870,
1420,1420,-0.158066,-1.181962,0.999999,0.000134,-0.001228,0.002236,-0.000579,0.002331,-0.001322,-80.759485,0.002338,
980,210,0.091691,-4.707980,0.999998,0.000155,-0.000501,0.001914,0.000131,0.001921,-0.000508,86.910359,0.001991,
1900,470,-0.700523,-3.831531,0.999998,0.000000,-0.001221,0.002531,0.000044,0.002532,-0.001222,89.323269,0.002532,
1280,1590,-0.030028,-0.751980,0.999998,0.000166,-0.000633,0.001742,-0.000065,0.001744,-0.000635,-88.442418,0.001765,
680,1560,0.572377,-1.178215,0.999998,0.000186,-0.001306,0.002575,0.000045,0.002575,-0.001306,89.332291,0.002575,
1800,1220,-0.878033,-2.062862,0.999998,0.000166,-0.001195,0.002449,0.000187,0.002458,-0.001204,87.070951,0.002458,
1720,1320,-0.681098,-1.766216,0.999998,0.000209,-0.001402,0.002680,0.000186,0.002689,-0.001410,87.393047,0.002690,
1630,1690,-0.297107,-0.735166,0.999998,0.000193,-0.001014,0.002396,0.000005,0.002396,-0.001014,89.909692,0.002405,
810,1300,0.601794,-1.780107,0.999998,0.000198,-0.001520,0.002853,-0.000176,0.002860,-0.001527,-87.692901,0.002863,
940,70,0.029391,-4.956755,0.999999,0.000121,-0.000136,0.001710,0.000250,0.001744,-0.000169,82.412178,0.001923,
1700,70,-0.065810,-4.944003,0.999999,0.000104,-0.000287,0.001958,-0.000585,0.002102,-0.000430,-76.243908,0.002220,
1850,90,-0.195142,-4.836492,0.999998,0.000161,-0.001181,0.002742,-0.000581,0.002826,-0.001265,-81.748207,0.002831,
1370,1910,-0.028060,-0.199397,0.999999,0.000105,-0.000208,0.001678,0.000098,0.001683,-0.000213,87.048738,0.001833,
910,320,0.197196,-4.454896,0.999998,0.000177,-0.000834,0.002215,0.000002,0.002215,-0.000834,89.965758,0.002238,
1870,540,-0.716641,-3.677596,0.999998,0.000136,-0.001278,0.002533,0.000006,0.002533,-0.001278,89.914639,0.002533,
940,200,0.108678,-4.715849,0.999998,0.000158,-0.000514,0.001976,0.000168,0.001988,-0.000525,86.163574,0.002060,
830,1600,0.356621,-0.957725,0.999998,0.000187,-0.001199,0.002494,0.000102,0.002497,-0.001201,88.422834,0.002497,
770,570,0.506584,-3.737441,0.999998,0.000183,-0.001379,0.002649,-0.000051,0.002649,-0.001380,-89.278472,0.002650,
600,50,0.114627,-4.934428,0.999999,0.000141,-0.000695,0.002768,0.001074,0.003074,-0.001001,74.098060,0.003136,
1020,1700,0.126883,-0.604815,0.999998,0.000159,-0.000747,0.002047,0.000076,0.002049,-0.000749,88.450624,0.002074,
1740,1930,-0.160952,-0.220516,0.999998,0.000157,-0.000769,0.002307,0.000568,0.002409,-0.000870,79.867051,0.002440,
640,1560,0.623303,-1.210507,0.999997,0.000206,-0.001256,0.002557,0.000047,0.002558,-0.001256,89.293776,0.002558,
990,1660,0.161911,-0.704210,0.999998,0.000176,-0.000852,0.002133,0.000134,0.002139,-0.000858,87.431721,0.002153,
1460,1900,-0.057439,-0.225495,0.999998,0.000152,-0.000292,0.001777,0.000175,0.001792,-0.000307,85.212501,0.001917,
1270,1690,-0.021624,-0.572488,0.999998,0.000172,-0.000542,0.001773,-0.000057,0.001774,-0.000543,-88.586274,0.001818,
730,1710,0.400574,-0.756639,0.999997,0.000184,-0.001219,0.002512,-0.000018,0.002512,-0.001219,-89.722400,0.002513,
740,950,0.865393,-2.712612,0.999998,0.000154,-0.001107,0.002519,0.000217,0.002532,-0.001120,86.584956,0.002538,
1420,1000,-0.552450,-2.673917,0.999997,0.000251,-0.002179,0.005616,0.000605,0.005663,-0.002226,85.585183,0.005706,
640,650,0.743167,-3.430987,0.999997,0.000189,-0.001273,0.002567,0.000072,0.002569,-0.001274,88.922635,0.002569,
880,1910,0.096802,-0.226165,0.999998,0.000150,-0.000516,0.001969,-0.000291,0.002003,-0.000549,-83.400159,0.002070,
1120,240,0.040937,-4.680700,0.999999,0.000142,-0.000432,0.001783,-0.000009,0.001783,-0.000432,-89.771319,0.001860,
890,1670,0.252295,-0.745327,0.999998,0.000178,-0.001036,0.002349,0.000071,0.002351,-0.001037,88.798205,0.002356,
1070,530,0.117150,-4.106122,0.999999,0.000131,-0.000889,0.002021,-0.000349,0.002062,-0.000930,-83.255011,0.002066,
1170,170,0.017041,-4.803713,0.999998,0.000159,-0.000192,0.001678,0.000039,0.001679,-0.000193,88.798391,0.001838,
910,200,0.123043,-4.709630,0.999998,0.000174,-0.000530,0.002029,0.000224,0.002049,-0.000549,85.038995,0.002121,
1170,1420,0.037287,-1.040604,0.999999,0.000115,-0.000700,0.001513,0.000381,0.001577,-0.000764,80.491725,0.001577,
1600,1370,-0.454881,-1.537221,0.999997,0.000201,-0.001574,0.002848,-0.000076,0.002850,-0.001575,-89.015055,0.002855,
1670,1970,-0.075208,-0.122308,0.999999,0.000137,-0.000406,0.001950,0.000501,0.002052,-0.000508,78.476119,0.002138,
730,1040,0.895186,-2.489812,0.999998,0.000155,-0.001093,0.002439,-0.000091,0.002441,-0.001096,-88.519325,0.002445,
710,1240,0.799920,-1.992935,0.999998,0.000161,-0.001278,0.002591,-0.000241,0.002605,-0.001293,-86.455470,0.002606,
660,1090,0.961033,-2.374435,0.999999,0.000141,-0.001106,0.002317,-0.000079,0.002319,-0.001108,-88.680488,0.002320,
1320,490,-0.058022,-4.229970,0.999999,0.000137,-0.000710,0.001830,0.000218,0.001849,-0.000729,85.128894,0.001863,
770,260,0.285244,-4.517518,0.999998,0.000173,-0.001006,0.002412,0.000191,0.002423,-0.001016,86.807956,0.002433,
1310,400,-0.045214,-4.397732,0.999998,0.000153,-0.000616,0.001825,0.000083,0.001827,-0.000618,88.063603,0.001859,
1320,1760,-0.038454,-0.453550,0.999998,0.000137,-0.000519,0.001797,-0.000041,0.001798,-0.000520,-88.983224,0.001851,
1420,1400,-0.163554,-1.230439,0.999999,0.000140,-0.001306,0.002312,-0.000638,0.002421,-0.001415,-80.284603,0.002433,
1900,460,-0.694632,-3.856105,0.999998,0.000000,-0.001240,0.002489,0.000045,0.002490,-0.001240,89.315084,0.002490,
1790,1080,-0.949310,-2.395828,0.999998,0.000160,-0.001101,0.002344,0.000060,0.002345,-0.001102,89.005699,0.002346,
1800,1200,-0.891426,-2.111711,0.999998,0.000162,-0.001197,0.002453,0.000207,0.002464,-0.001209,86.764127,0.002464,
1640,1690,-0.308870,-0.740994,0.999998,0.000186,-0.001069,0.002404,-0.000002,0.002404,-0.001069,-89.969045,0.002409,
680,1540,0.587398,-1.230501,0.999997,0.000184,-0.001299,0.002593,0.000029,0.002593,-0.001300,89.568560,0.002593,
850,1670,0.294751,-0.769759,0.999998,0.000146,-0.001066,0.002389,0.000051,0.002389,-0.001067,89.149853,0.002394,
580,30,0.046085,-4.998181,0.999998,0.000000,0.000361,0.003632,0.001995,0.004576,-0.000583,64.676216,0.004982,
710,1300,0.745586,-1.837408,0.999998,0.000169,-0.001341,0.002623,-0.000202,0.002633,-0.001352,-87.096230,0.002634,
1220,600,0.007098,-4.071928,0.999999,0.000123,-0.000587,0.001485,-0.000109,0.001490,-0.000593,-86.983917,0.001501,
1630,1670,-0.311357,-0.783280,0.999998,0.000210,-0.001083,0.002414,-0.000025,0.002414,-0.001083,-89.582193,0.002418,
1880,1660,-0.620879,-1.005128,0.999998,0.000155,-0.001204,0.002479,-0.000032,0.002479,-0.001205,-89.505162,0.002480,
1370,1890,-0.034652,-0.233689,0.999999,0.000119,-0.000244,0.001691,0.000095,0.001696,-0.000249,87.191394,0.001832,
1720,780,-0.723189,-3.153501,0.999998,0.000178,-0.001406,0.002689,-0.000223,0.002701,-0.001418,-86.896699,0.002702,
1850,110,-0.238198,-4.783000,0.999998,0.000158,-0.001208,0.002668,-0.000425,0.002714,-0.001254,-83.815657,0.002717,
990,1780,0.116655,-0.457283,0.999998,0.000162,-0.000584,0.002021,-0.000059,0.002022,-0.000586,-88.702744,0.002081,
770,550,0.494513,-3.792457,0.999998,0.000182,-0.001366,0.002628,-0.000054,0.002628,-0.001366,-89.230697,0.002629,
1180,270,0.020871,-4.634024,0.999998,0.000161,-0.000395,0.001758,-0.000003,0.001758,-0.000395,-89.923027,0.001845,
940,180,0.097197,-4.755779,0.999998,0.000155,-0.000455,0.001922,0.000198,0.001938,-0.000472,85.280066,0.002022,
1740,1910,-0.191007,-0.267040,0.999998,0.000142,-0.000856,0.002369,0.000492,0.002442,-0.000929,81.522385,0.002466,
1460,1880,-0.066145,-0.261594,0.999998,0.000155,-0.000326,0.001810,0.000139,0.001819,-0.000335,86.297045,0.001936,
1020,1680,0.133037,-0.647821,0.999998,0.000148,-0.000768,0.002063,0.000074,0.002065,-0.000770,88.506419,0.002087,
640,1580,0.609210,-1.160761,0.999998,0.000192,-0.001243,0.002542,0.000042,0.002543,-0.001244,89.360005,0.002543,
1010,1720,0.127933,-0.569940,0.999998,0.000145,-0.000673,0.001992,0.000030,0.001992,-0.000673,89.351803,0.002027,
1070,1230,0.209780,-1.604836,0.999998,0.000171,-0.001822,0.002806,0.000911,0.002979,-0.001995,79.256688,0.003036,
1670,1950,-0.096862,-0.162467,0.999998,0.000156,-0.000495,0.002057,0.000503,0.002153,-0.000590,79.250350,0.002225,
1750,1800,-0.339401,-0.543895,0.999998,0.000205,-0.001128,0.002509,0.000134,0.002514,-0.001133,87.898743,0.002518,
1860,950,-1.017293,-2.688803,0.999998,0.000174,-0.001078,0.002208,-0.000065,0.002210,-0.001079,-88.875894,0.002210,
1580,610,-0.372698,-3.730302,0.999997,0.000208,-0.001439,0.002675,0.000206,0.002685,-0.001449,87.135398,0.002688,
690,1240,0.826193,-2.001281,0.999999,0.000140,-0.001262,0.002552,-0.000223,0.002565,-0.001275,-86.658759,0.002565,
1170,150,0.012516,-4.839109,0.999999,0.000134,-0.000162,0.001620,0.000051,0.001621,-0.000163,88.359499,0.001785,
1270,820,-0.042052,-3.827755,0.999998,0.000166,-0.001021,0.000672,0.000408,0.000765,-0.001114,77.124144,0.001140,
1320,1530,-0.057828,-0.873709,0.999999,0.000131,-0.000730,0.001780,-0.000262,0.001807,-0.000757,-84.104991,0.001815,
1900,450,-0.688556,-3.881728,0.999998,0.000000,-0.001240,0.002463,0.000022,0.002463,-0.001240,89.665279,0.002463,
1320,1740,-0.042668,-0.488983,0.999998,0.000150,-0.000540,0.001800,-0.000062,0.001802,-0.000542,-88.485867,0.001849,
1320,550,-0.059013,-4.121744,0.999999,0.000122,-0.000742,0.001767,0.000302,0.001803,-0.000778,83.230428,0.001808,
1420,1380,-0.166605,-1.275817,0.999998,0.000149,-0.001366,0.002365,-0.000678,0.002484,-0.001485,-80.014213,0.002500,
940,790,0.420594,-3.270228,0.999997,0.000183,-0.001832,0.003186,-0.000099,0.003188,-0.001834,-88.873495,0.003200,
1770,1100,-0.921029,-2.345662,0.999998,0.000139,-0.001109,0.002420,0.000159,0.002427,-0.001116,87.430970,0.002430,
1800,1180,-0.909319,-2.159250,0.999999,0.000143,-0.001174,0.002412,0.000212,0.002425,-0.001186,86.634122,0.002425,
1290,400,-0.034333,-4.402304,0.999998,0.000159,-0.000552,0.001801,0.000053,0.001802,-0.000553,88.704555,0.001846,
1060,210,0.056989,-4.723751,0.999998,0.000162,-0.000409,0.001786,0.000094,0.001790,-0.000413,87.560770,0.001874,
680,1520,0.601107,-1.282461,0.999997,0.000201,-0.001302,0.002582,0.000028,0.002582,-0.001302,89.591060,0.002582,
1640,210,-0.189277,-4.660869,0.999998,0.000165,-0.000705,0.002223,-0.000281,0.002250,-0.000731,-84.564061,0.002296,
1640,1670,-0.322256,-0.790858,0.999998,0.000207,-0.001108,0.002431,-0.000017,0.002431,-0.001108,-89.731231,0.002435,
640,1030,0.992879,-2.514918,0.999998,0.000181,-0.001085,0.002303,-0.000007,0.002303,-0.001085,-89.881487,0.002304,
690,1300,0.772653,-1.847860,0.999998,0.000189,-0.001318,0.002581,-0.000189,0.002590,-0.001327,-87.230934,0.002591,
1120,220,0.038398,-4.714891,0.999999,0.000143,-0.000391,0.001743,0.000010,0.001743,-0.000391,89.740681,0.001830,
880,1890,0.113934,-0.266841,0.999998,0.000193,-0.000579,0.002009,-0.000285,0.002040,-0.000610,-83.782295,0.002095,
1420,990,-0.548976,-2.728418,0.999997,0.000224,-0.002058,0.005380,0.000741,0.005453,-0.002131,84.363941,0.005496,
1630,1650,-0.324618,-0.830645,0.999998,0.000179,-0.001149,0.002430,-0.000052,0.002431,-0.001149,-89.162395,0.002432,
970,1780,0.128834,-0.463664,0.999998,0.000148,-0.000694,0.002022,-0.000052,0.002023,-0.000695,-88.893299,0.002055,
1720,760,-0.703897,-3.208369,0.999998,0.000171,-0.001412,0.002704,-0.000198,0.002714,-0.001422,-87.257559,0.002715,
570,2020,0.065034,-0.064208,0.999993,0.000000,0.000512,0.003572,-0.002009,0.004567,-0.000483,-63.644600,0.005018,
1370,1870,-0.038145,-0.266706,0.999999,0.000140,-0.000282,0.001717,0.000074,0.001720,-0.000285,87.878774,0.001844,
1740,1890,-0.218833,-0.316217,0.999998,0.000146,-0.000939,0.002404,0.000426,0.002457,-0.000992,82.846922,0.002472,
1850,130,-0.276849,-4.730290,0.999998,0.000163,-0.001204,0.002661,-0.000334,0.002690,-0.001233,-85.090861,0.002693,
940,160,0.083976,-4.793980,0.999999,0.000135,-0.000416,0.001895,0.000231,0.001918,-0.000439,84.354044,0.002010,
1460,1860,-0.074150,-0.298394,0.999998,0.000155,-0.000375,0.001854,0.000154,0.001864,-0.000385,86.060792,0.001968,
1020,1660,0.138949,-0.688446,0.999998,0.000159,-0.000798,0.002047,0.000110,0.002051,-0.000802,87.790085,0.002068,
990,1720,0.141726,-0.576307,0.999998,0.000152,-0.000689,0.002048,0.000035,0.002048,-0.000689,89.264037,0.002084,
1520,390,-0.203018,-4.318049,0.999998,0.000164,-0.000901,0.002216,0.000109,0.002220,-0.000905,88.000962,0.002233,
850,1690,0.282286,-0.724699,0.999998,0.000149,-0.001024,0.002324,0.000016,0.002324,-0.001024,89.731534,0.002330,
1870,1660,-0.608258,-0.996649,0.999998,0.000154,-0.001224,0.002498,-0.000025,0.002498,-0.001224,-89.610670,0.002498,
640,1600,0.595592,-1.109628,0.999998,0.000167,-0.001262,0.002525,0.000018,0.002525,-0.001262,89.722443,0.002525,
790,960,0.815638,-2.692354,0.999998,0.000151,-0.001065,0.002611,0.000225,0.002625,-0.001078,86.508865,0.002639,
1070,1210,0.242833,-1.661437,0.999998,0.000175,-0.001838,0.002820,0.000846,0.002969,-0.001987,80.015074,0.003025,
1730,1800,-0.316843,-0.529613,0.999998,0.000167,-0.001074,0.002475,0.000218,0.002488,-0.001087,86.497671,0.002495,
1900,440,-0.679873,-3.905595,0.999998,0.000000,-0.001227,0.002516,-0.000028,0.002517,-0.001227,-89.566408,0.002517,
770,530,0.479098,-3.843672,0.999998,0.000174,-0.001338,0.002580,-0.000063,0.002581,-0.001339,-89.083135,0.002581,
1430,1340,-0.193617,-1.393346,0.999998,0.000170,-0.001574,0.002584,-0.000724,0.002706,-0.001697,-80.404302,0.002735,
1670,1930,-0.121769,-0.203823,0.999999,0.000147,-0.000598,0.002101,0.000450,0.002175,-0.000671,80.778085,0.002227,
1300,1530,-0.044078,-0.862959,0.999999,0.000146,-0.000676,0.001751,-0.000208,0.001769,-0.000694,-85.130358,0.001783,
1320,1720,-0.045195,-0.524309,0.999998,0.000184,-0.000569,0.001803,-0.000064,0.001804,-0.000570,-88.461080,0.001845,
1170,570,0.040049,-4.106352,0.999999,0.000127,-0.000680,0.001641,-0.000276,0.001673,-0.000713,-83.299705,0.001679,
1420,1360,-0.171601,-1.325727,0.999998,0.000165,-0.001432,0.002499,-0.000707,0.002622,-0.001556,-80.105298,0.002637,
680,1940,0.182154,-0.217643,0.999998,0.000166,-0.000853,0.002460,-0.000676,0.002593,-0.000986,-78.896503,0.002618,
600,40,0.086694,-4.961953,0.999997,0.000212,-0.000386,0.002779,0.001261,0.003220,-0.000827,70.724520,0.003344,
1800,1600,-0.564561,-1.091110,0.999998,0.000162,-0.001267,0.002518,-0.000043,0.002519,-0.001268,-89.341859,0.002519,
1800,770,-0.819806,-3.138699,0.999998,0.000156,-0.001277,0.002519,-0.000175,0.002527,-0.001285,-87.367618,0.002527,
750,1300,0.688933,-1.816254,0.999998,0.000165,-0.001408,0.002696,-0.000206,0.002706,-0.001418,-87.134875,0.002707,
730,1950,0.124200,-0.171559,0.999999,0.000146,-0.000568,0.002175,-0.000612,0.002306,-0.000698,-77.972617,0.002365,
1220,690,0.005833,-3.954376,0.999999,0.000144,-0.000518,0.001130,-0.000118,0.001139,-0.000527,-85.923040,0.001140,
900,630,0.359683,-3.694969,0.999998,0.000175,-0.001507,0.002707,-0.000238,0.002720,-0.001521,-86.776957,0.002727,
1270,1670,-0.021135,-0.608122,0.999998,0.000180,-0.000565,0.001789,-0.000053,0.001790,-0.000567,-88.702845,0.001829,
1250,820,-0.021683,-3.852744,0.999998,0.000190,-0.001142,0.000616,0.000172,0.000632,-0.001159,84.462650,0.001160,
800,1050,0.820460,-2.464048,0.999998,0.000148,-0.000996,0.002569,-0.000083,0.002571,-0.000998,-88.671295,0.002592,
1720,740,-0.685668,-3.262313,0.999998,0.000170,-0.001402,0.002690,-0.000190,0.002699,-0.001411,-87.352386,0.002699,
1150,80,0.007616,-4.948686,0.999999,0.000114,-0.000103,0.001527,0.000061,0.001529,-0.000105,87.863204,0.001708,
1700,50,-0.042702,-4.980822,0.999999,0.000125,-0.000167,0.001867,-0.000570,0.002016,-0.000316,-75.365633,0.002169,
1340,1670,-0.062235,-0.624097,0.999998,0.000181,-0.000659,0.001837,-0.000134,0.001845,-0.000666,-86.925630,0.001868,
1330,760,-0.070112,-3.762078,0.999998,0.000172,-0.001083,0.001581,0.001010,0.001921,-0.001422,71.416037,0.001993,
1630,1630,-0.336841,-0.881422,0.999998,0.000170,-0.001168,0.002470,-0.000091,0.002472,-0.001170,-88.567941,0.002473,
920,1650,0.230730,-0.769681,0.999998,0.000144,-0.000993,0.002278,0.000122,0.002283,-0.000997,87.862773,0.002289,
1460,1840,-0.084262,-0.336709,0.999998,0.000167,-0.000429,0.001862,0.000138,0.001870,-0.000438,86.570740,0.001956,
940,140,0.069703,-4.832860,0.999998,0.000156,-0.000351,0.001843,0.000217,0.001865,-0.000373,84.402026,0.001973,
1850,150,-0.313747,-4.677595,0.999998,0.000174,-0.001221,0.002590,-0.000234,0.002604,-0.001235,-86.494806,0.002605,
1060,1970,0.018421,-0.102706,0.999999,0.000130,-0.000133,0.001611,-0.000120,0.001619,-0.000141,-86.087408,0.001793,
1810,300,-0.454641,-4.333059,0.999998,0.000203,-0.001208,0.002553,-0.000078,0.002554,-0.001209,-88.810423,0.002556,
1900,430,-0.670514,-3.930018,0.999998,0.000000,-0.001220,0.002517,-0.000023,0.002517,-0.001220,-89.650124,0.002517,
1370,1850,-0.043740,-0.302031,0.999999,0.000134,-0.000338,0.001783,0.000073,0.001785,-0.000341,88.029075,0.001896,
1070,1190,0.276915,-1.718678,0.999998,0.000175,-0.001751,0.002879,0.000914,0.003053,-0.001925,79.225721,0.003087,
1580,470,-0.300923,-4.087560,0.999997,0.000202,-0.001179,0.002435,0.000154,0.002441,-0.001185,87.557324,0.002441,
1790,1920,-0.223578,-0.270156,0.999998,0.000162,-0.000889,0.002485,0.000582,0.002583,-0.000986,80.477242,0.002607,
770,960,0.837124,-2.690812,0.999999,0.000138,-0.001087,0.002571,0.000209,0.002583,-0.001099,86.738362,0.002592,
990,1700,0.146546,-0.619839,0.999998,0.000170,-0.000732,0.002129,0.000088,0.002132,-0.000735,88.235520,0.002166,
650,110,0.195610,-4.825415,0.999999,0.000146,-0.000824,0.002588,0.000660,0.002711,-0.000947,79.433168,0.002752,
1680,400,-0.378786,-4.183454,0.999998,0.000192,-0.001161,0.002506,0.000034,0.002507,-0.001161,89.464246,0.002509,
1220,270,0.004622,-4.637185,0.999998,0.000144,-0.000421,0.001745,-0.000027,0.001745,-0.000421,-89.280758,0.001821,
1170,590,0.037940,-4.071563,0.999999,0.000131,-0.000679,0.001622,-0.000317,0.001665,-0.000722,-82.308342,0.001669,
1360,1530,-0.089023,-0.895752,0.999998,0.000152,-0.000831,0.001882,-0.000343,0.001925,-0.000873,-82.913407,0.001927,
770,510,0.466084,-3.895318,0.999998,0.000161,-0.001311,0.002571,-0.000068,0.002573,-0.001312,-88.995944,0.002573,
730,1300,0.717921,-1.826290,0.999998,0.000180,-0.001403,0.002665,-0.000217,0.002676,-0.001415,-86.952789,0.002678,
1800,1620,-0.549861,-1.041396,0.999998,0.000171,-0.001261,0.002526,-0.000030,0.002527,-0.001262,-89.551359,0.002527,
1020,1640,0.142984,-0.730825,0.999998,0.000146,-0.000807,0.002085,0.000156,0.002094,-0.000815,86.915855,0.002111,
1410,1340,-0.163457,-1.357096,0.999999,0.000130,-0.001495,0.002447,-0.000786,0.002598,-0.001646,-79.131346,0.002629,
1320,1700,-0.046392,-0.561696,0.999998,0.000164,-0.000587,0.001844,-0.000074,0.001847,-0.000589,-88.263637,0.001886,
680,1960,0.148997,-0.170066,0.999998,0.000164,-0.000687,0.002352,-0.000747,0.002525,-0.000861,-76.903580,0.002568,
1800,970,-0.958356,-2.653599,0.999998,0.000160,-0.001075,0.002314,-0.000050,0.002315,-0.001076,-89.160002,0.002317,
1200,690,0.016961,-3.945442,0.999999,0.000126,-0.000567,0.001189,-0.000285,0.001234,-0.000612,-81.015631,0.001234,
900,610,0.348671,-3.748159,0.999998,0.000191,-0.001470,0.002661,-0.000257,0.002676,-0.001486,-86.446305,0.002682,
1220,580,0.007609,-4.103912,0.999998,0.000152,-0.000595,0.001543,-0.000086,0.001547,-0.000598,-87.690568,0.001560,
1780,150,-0.237565,-4.737844,0.999998,0.000172,-0.000978,0.002512,-0.000491,0.002579,-0.001046,-82.142650,0.002595,
1720,720,-0.666423,-3.314374,0.999998,0.000186,-0.001401,0.002673,-0.000154,0.002678,-0.001407,-87.843680,0.002680,
1310,760,-0.048995,-3.805153,0.999998,0.000172,-0.000900,0.001311,0.000909,0.001637,-0.001225,70.288315,0.001703,
1420,1340,-0.177522,-1.374996,0.999998,0.000150,-0.001521,0.002519,-0.000757,0.002656,-0.001658,-79.734736,0.002683,
1900,420,-0.661722,-3.957984,0.999998,0.000000,-0.001204,0.002500,0.000021,0.002500,-0.001205,89.680116,0.002500,
1630,1610,-0.347951,-0.930930,0.999998,0.000178,-0.001183,0.002465,-0.000100,0.002468,-0.001186,-88.427478,0.002468,
1270,1650,-0.022397,-0.644050,0.999998,0.000197,-0.000593,0.001784,-0.000031,0.001784,-0.000593,-89.250628,0.001817,
1680,390,-0.372115,-4.208414,0.999997,0.000194,-0.001158,0.002485,0.000035,0.002485,-0.001158,89.449519,0.002487,
1460,1820,-0.091762,-0.373625,0.999998,0.000167,-0.000472,0.001927,0.000104,0.001932,-0.000476,87.516630,0.002013,
1580,1190,-0.612197,-2.057431,0.999998,0.000170,-0.001521,0.002997,0.000320,0.003020,-0.001544,85.971189,0.003020,
810,830,0.679438,-3.048135,0.999998,0.000161,-0.001430,0.002817,0.000305,0.002839,-0.001452,85.908112,0.002840,
1060,1670,0.104206,-0.647357,0.999998,0.000153,-0.000739,0.001980,0.000141,0.001987,-0.000746,87.037893,0.002007,
1850,590,-0.729809,-3.563864,0.999998,0.000166,-0.001284,0.002546,-0.000027,0.002547,-0.001284,-89.596865,0.002547,
1370,1780,-0.060224,-0.426835,0.999998,0.000163,-0.000452,0.001839,0.000021,0.001840,-0.000452,89.485344,0.001917,
1070,1170,0.319159,-1.782625,0.999998,0.000167,-0.001546,0.002808,0.001058,0.003051,-0.001790,77.039769,0.003066,
1370,1830,-0.048711,-0.338030,0.999998,0.000155,-0.000374,0.001784,0.000050,0.001785,-0.000375,88.677779,0.001883,
940,120,0.059145,-4.868008,0.999998,0.000155,-0.000267,0.001799,0.000240,0.001826,-0.000294,83.450723,0.001961,
1790,1900,-0.255192,-0.320878,0.999998,0.000180,-0.000982,0.002574,0.000518,0.002648,-0.001056,81.878731,0.002666,
730,970,0.886080,-2.660139,0.999998,0.000149,-0.001113,0.002465,0.000134,0.002470,-0.001118,87.864279,0.002474,
850,80,0.054785,-4.932004,0.999999,0.000135,-0.000228,0.001838,0.000408,0.001916,-0.000306,79.232203,0.002059,
1340,1530,-0.072618,-0.884501,0.999998,0.000152,-0.000769,0.001807,-0.000270,0.001835,-0.000797,-84.074905,0.001841,
980,560,0.220008,-3.956563,0.999998,0.000150,-0.001232,0.002363,-0.000357,0.002398,-0.001267,-84.390119,0.002399,
1260,270,-0.011924,-4.637510,0.999998,0.000164,-0.000415,0.001749,0.000017,0.001749,-0.000415,89.538462,0.001828,
1490,1720,-0.153712,-0.586850,0.999998,0.000161,-0.000794,0.002095,-0.000053,0.002096,-0.000795,-88.956805,0.002116,
810,1840,0.203899,-0.394932,0.999998,0.000163,-0.000821,0.002250,-0.000262,0.002272,-0.000843,-85.152628,0.002297,
1850,1140,-0.988025,-2.268335,0.999999,0.000126,-0.001104,0.002260,0.000118,0.002264,-0.001108,87.985163,0.002265,
970,380,0.174182,-4.355146,0.999998,0.000162,-0.000906,0.002166,-0.000127,0.002171,-0.000911,-87.636815,0.002181,
1680,420,-0.391929,-4.132287,0.999998,0.000171,-0.001194,0.002503,0.000039,0.002503,-0.001194,89.397745,0.002504,
770,490,0.452628,-3.945947,0.999998,0.000179,-0.001293,0.002568,-0.000072,0.002569,-0.001295,-88.937605,0.002569,
1380,1850,-0.047441,-0.302447,0.999999,0.000137,-0.000349,0.001790,0.000085,0.001794,-0.000352,87.728750,0.001901,
610,1960,0.210122,-0.219101,0.999998,0.000163,-0.001183,0.002685,-0.000553,0.002762,-0.001261,-82.023875,0.002765,
1750,340,-0.415908,-4.281189,0.999997,0.000181,-0.001213,0.002513,-0.000009,0.002513,-0.001213,-89.864464,0.002513,
1170,610,0.039630,-4.038905,0.999999,0.000138,-0.000683,0.001608,-0.000344,0.001658,-0.000734,-81.651263,0.001662,
1560,610,-0.344468,-3.751158,0.999998,0.000197,-0.001460,0.002651,0.000260,0.002668,-0.001476,86.400221,0.002673,
1800,1640,-0.534461,-0.991213,0.999997,0.000188,-0.001266,0.002557,-0.000035,0.002557,-0.001266,-89.480210,0.002557,
1800,950,-0.953201,-2.701052,0.999998,0.000150,-0.001096,0.002363,-0.000143,0.002369,-0.001102,-87.639789,0.002371,
890,1650,0.261963,-0.790938,0.999998,0.000155,-0.001050,0.002353,0.000116,0.002357,-0.001054,88.042610,0.002362,
1840,170,-0.332962,-4.638373,0.999997,0.000199,-0.001202,0.002603,-0.000185,0.002612,-0.001211,-87.215523,0.002615,
1320,590,-0.058361,-4.052511,0.999999,0.000128,-0.000731,0.001721,0.000366,0.001775,-0.000785,81.695770,0.001779,
1640,470,-0.373389,-4.039269,0.999997,0.000202,-0.001241,0.002501,0.000108,0.002504,-0.001244,88.348355,0.002504,
1020,1620,0.147676,-0.771401,0.999998,0.000144,-0.000835,0.002070,0.000187,0.002082,-0.000847,86.341251,0.002094,
860,180,0.139077,-4.736994,0.999998,0.000165,-0.000612,0.002066,0.000266,0.002093,-0.000638,84.375155,0.002145,
1220,560,0.007850,-4.133512,0.999999,0.000142,-0.000615,0.001594,-0.000066,0.001596,-0.000617,-88.295172,0.001610,
680,1980,0.112272,-0.122917,0.999998,0.000165,-0.000502,0.002390,-0.000907,0.002651,-0.000763,-73.948070,0.002729,
1320,1680,-0.048927,-0.598128,0.999998,0.000156,-0.000599,0.001814,-0.000092,0.001818,-0.000602,-87.808583,0.001852,
650,90,0.157148,-4.876080,0.999998,0.000139,-0.000692,0.002554,0.000819,0.002749,-0.000887,76.618558,0.002806,
1190,760,0.023062,-3.865470,0.999999,0.000138,-0.000638,0.000830,-0.000552,0.001015,-0.000823,-71.525266,0.001078,
1060,1910,0.035972,-0.201109,0.999998,0.000182,-0.000258,0.001706,-0.000113,0.001712,-0.000264,-86.721881,0.001844,
1420,980,-0.536088,-2.780375,0.999997,0.000223,-0.002047,0.005052,0.000927,0.005171,-0.002167,82.680067,0.005194,
1720,700,-0.648247,-3.369032,0.999998,0.000191,-0.001420,0.002686,-0.000111,0.002689,-0.001422,-88.458498,0.002691,
1630,1590,-0.358944,-0.978210,0.999998,0.000161,-0.001210,0.002468,-0.000121,0.002472,-0.001214,-88.112874,0.002472,
570,30,0.046165,-4.996242,0.999993,0.000000,0.000301,0.003933,0.002157,0.004937,-0.000703,65.044905,0.005341,
1900,410,-0.656404,-3.981674,0.999998,0.000000,-0.001210,0.002446,0.000062,0.002447,-0.001211,89.027813,0.002447,
1120,200,0.034401,-4.750805,0.999998,0.000142,-0.000351,0.001704,0.000045,0.001705,-0.000352,88.751406,0.001801,
1270,1630,-0.024921,-0.679862,0.999998,0.000188,-0.000619,0.001787,-0.000032,0.001787,-0.000620,-89.248888,0.001815,
1300,1290,-0.043482,-1.221474,0.999998,0.000162,-0.000831,0.001148,-0.000854,0.001466,-0.001148,-69.595741,0.001542,
630,1240,0.899024,-2.028228,0.999999,0.000127,-0.001181,0.002375,-0.000161,0.002382,-0.001189,-87.415798,0.002382,
810,380,0.334424,-4.252877,0.999998,0.000165,-0.001125,0.002468,-0.000037,0.002468,-0.001125,-89.403133,0.002471,
1580,450,-0.291610,-4.135959,0.999998,0.000175,-0.001121,0.002403,0.000132,0.002408,-0.001126,87.861614,0.002409,
940,100,0.045788,-4.904365,0.999999,0.000128,-0.000213,0.001753,0.000247,0.001784,-0.000244,82.938694,0.001934,
590,1080,1.036304,-2.407628,0.999998,0.000179,-0.001004,0.002112,-0.000009,0.002112,-0.001004,-89.840496,0.002113,
730,120,0.148542,-4.834406,0.999999,0.000141,-0.000649,0.002299,0.000585,0.002411,-0.000761,79.177813,0.002465,
740,1870,0.231904,-0.356070,0.999998,0.000169,-0.000817,0.002387,-0.000400,0.002436,-0.000867,-82.995997,0.002470,
810,810,0.657171,-3.104274,0.999998,0.000185,-0.001476,0.002816,0.000281,0.002834,-0.001494,86.270287,0.002836,
1420,1320,-0.186080,-1.426477,0.999998,0.000158,-0.001613,0.002584,-0.000771,0.002721,-0.001750,-79.912572,0.002758,
600,90,0.210106,-4.822010,0.999999,0.000132,-0.001168,0.002846,0.000621,0.002940,-0.001262,81.401989,0.002950,
1490,80,-0.028301,-4.941985,0.999999,0.000115,-0.000174,0.001683,-0.000207,0.001706,-0.000197,-83.715600,0.001866,
1370,1810,-0.053754,-0.374109,0.999998,0.000149,-0.000414,0.001795,0.000047,0.001796,-0.000415,88.773261,0.001880,
1350,1780,-0.052601,-0.423012,0.999999,0.000155,-0.000456,0.001834,-0.000007,0.001834,-0.000456,-89.816429,0.001909,
1850,570,-0.712548,-3.615016,0.999998,0.000178,-0.001274,0.002570,-0.000012,0.002570,-0.001274,-89.819550,0.002570,
1100,1390,0.094514,-1.166911,0.999998,0.000151,-0.001060,0.001959,0.000703,0.002115,-0.001215,77.516734,0.002123,
1850,1120,-0.998797,-2.315385,0.999999,0.000125,-0.001100,0.002269,0.000133,0.002274,-0.001105,87.748466,0.002274,
1070,890,0.331694,-3.245078,0.999998,0.000183,-0.001455,0.002848,-0.001166,0.003143,-0.001751,-75.776007,0.003150,
1680,440,-0.404738,-4.083115,0.999998,0.000171,-0.001230,0.002509,0.000059,0.002510,-0.001231,89.097606,0.002510,
1170,630,0.037057,-4.006799,0.999999,0.000136,-0.000702,0.001528,-0.000384,0.001593,-0.000766,-80.487213,0.001593,
1320,570,-0.058931,-4.086320,0.999999,0.000141,-0.000740,0.001718,0.000327,0.001760,-0.000782,82.557849,0.001764,
1170,760,0.035527,-3.838250,0.999998,0.000162,-0.000743,0.001051,-0.000764,0.001332,-0.001024,-69.791891,0.001395,
790,1860,0.200821,-0.358614,0.999998,0.000150,-0.000870,0.002254,-0.000310,0.002285,-0.000901,-84.396164,0.002302,
1590,1300,-0.500573,-1.732389,0.999997,0.000185,-0.001681,0.002990,0.000075,0.002992,-0.001683,89.078767,0.002999,
1310,820,-0.083820,-3.731198,0.999998,0.000140,-0.001114,0.001140,0.000907,0.001459,-0.001434,70.584000,0.001670,
1660,970,-0.806869,-2.667859,0.999998,0.000138,-0.001063,0.002606,-0.000209,0.002618,-0.001075,-86.743141,0.002632,
970,1520,0.224624,-1.033570,0.999998,0.000152,-0.001203,0.002360,0.000328,0.002390,-0.001233,84.787227,0.002390,
1140,270,0.037593,-4.631465,0.999999,0.000120,-0.000468,0.001780,-0.000016,0.001780,-0.000468,-89.584698,0.001845,
1470,1780,-0.115532,-0.455765,0.999998,0.000158,-0.000568,0.001979,0.000056,0.001980,-0.000569,88.743377,0.002038,
1800,1660,-0.521220,-0.938127,0.999997,0.000183,-0.001253,0.002531,-0.000031,0.002531,-0.001253,-89.535578,0.002531,
780,1370,0.582754,-1.604434,0.999997,0.000183,-0.001476,0.002769,-0.000074,0.002770,-0.001477,-88.997492,0.002772,
1760,1000,-0.920981,-2.587396,0.999998,0.000175,-0.001088,0.002404,-0.000069,0.002406,-0.001089,-88.860719,0.002409,
750,240,0.286097,-4.557159,0.999998,0.000174,-0.000970,0.002441,0.000269,0.002462,-0.000991,85.514001,0.002478,
730,930,0.863830,-2.761138,0.999998,0.000141,-0.001130,0.002473,0.000200,0.002484,-0.001141,86.832226,0.002487,
1710,1600,-0.451772,-1.018460,0.999998,0.000170,-0.001264,0.002528,-0.000067,0.002529,-0.001265,-88.991991,0.002529,
980,540,0.213140,-4.003907,0.999998,0.000151,-0.001204,0.002357,-0.000330,0.002388,-0.001234,-84.744772,0.002388,
650,70,0.109448,-4.929313,0.999998,0.000147,-0.000539,0.002491,0.000918,0.002748,-0.000796,74.389209,0.002828,
1630,1570,-0.370380,-1.030481,0.999998,0.000163,-0.001252,0.002506,-0.000133,0.002511,-0.001256,-87.982874,0.002511,
1510,690,-0.312109,-3.590072,0.999998,0.000198,-0.001636,0.002839,0.000360,0.002868,-0.001664,85.435785,0.002880,
1850,550,-0.698015,-3.667040,0.999998,0.000176,-0.001266,0.002562,0.000001,0.002562,-0.001266,89.983771,0.002562,
1470,1720,-0.138749,-0.576856,0.999998,0.000150,-0.000697,0.002023,-0.000034,0.002023,-0.000697,-89.274193,0.002056,
770,470,0.440447,-3.998120,0.999998,0.000176,-0.001269,0.002544,-0.000064,0.002545,-0.001270,-89.041731,0.002545,
1610,820,-0.604756,-3.098703,0.999997,0.000189,-0.001554,0.002926,-0.000263,0.002941,-0.001570,-86.656922,0.002943,
1680,460,-0.417733,-4.033459,0.999998,0.000156,-0.001252,0.002537,0.000074,0.002538,-0.001253,88.876628,0.002538,
1020,1840,0.075710,-0.333107,0.999998,0.000172,-0.000459,0.001853,-0.000096,0.001857,-0.000463,-87.638415,0.001933,
590,410,0.624013,-4.003450,0.999998,0.000169,-0.001704,0.002555,-0.000025,0.002555,-0.001704,-89.660266,0.002602,
920,790,0.456259,-3.245117,0.999997,0.000182,-0.001807,0.003120,0.000016,0.003120,-0.001807,89.816174,0.003133,
690,70,0.097450,-4.930124,0.999998,0.000147,-0.000483,0.002328,0.000851,0.002566,-0.000721,74.403383,0.002647,
940,80,0.036527,-4.938437,0.999999,0.000135,-0.000160,0.001733,0.000242,0.001763,-0.000190,82.822782,0.001935,
1360,1850,-0.040940,-0.300881,0.999999,0.000128,-0.000332,0.001770,0.000065,0.001772,-0.000334,88.223623,0.001883,
970,240,0.112239,-4.646876,0.999999,0.000152,-0.000619,0.001996,0.000097,0.001999,-0.000622,87.881657,0.002046,
620,890,0.967233,-2.829386,0.999998,0.000168,-0.001107,0.002299,0.000122,0.002304,-0.001112,87.954270,0.002304,
1900,400,-0.649433,-4.004897,0.999999,0.000000,-0.001236,0.002391,0.000067,0.002392,-0.001237,88.940990,0.002393,
1610,1160,-0.688659,-2.159572,0.999998,0.000156,-0.001320,0.002860,0.000350,0.002889,-0.001349,85.249952,0.002891,
560,2020,0.056202,-0.071142,0.999993,0.000000,0.000709,0.003740,-0.002110,0.004822,-0.000373,-62.845707,0.005365,
1720,680,-0.632313,-3.423439,0.999997,0.000191,-0.001426,0.002708,-0.000086,0.002710,-0.001428,-88.812269,0.002711,
1290,760,-0.033007,-3.841638,0.999998,0.000185,-0.000741,0.001059,0.000753,0.001332,-0.001015,70.048825,0.001391,
890,1630,0.272498,-0.839474,0.999998,0.000166,-0.001094,0.002352,0.000126,0.002356,-0.001099,87.910034,0.002358,
1120,180,0.028749,-4.783267,0.999999,0.000142,-0.000332,0.001695,0.000033,0.001696,-0.000332,89.055722,0.001797,
1070,870,0.287899,-3.307217,0.999998,0.000183,-0.001708,0.002869,-0.000951,0.003059,-0.001897,-78.715622,0.003089,
1470,80,-0.025213,-4.943039,0.999999,0.000114,-0.000142,0.001673,-0.000201,0.001695,-0.000164,-83.767877,0.001869,
1640,450,-0.361929,-4.090040,0.999998,0.000161,-0.001214,0.002479,0.000087,0.002482,-0.001216,88.645788,0.002482,
1550,810,-0.492039,-3.177979,0.999997,0.000215,-0.001770,0.003120,-0.000110,0.003123,-0.001772,-88.716705,0.003132,
1300,1270,-0.047521,-1.243588,0.999998,0.000182,-0.000897,0.001093,-0.000886,0.001431,-0.001234,-69.162426,0.001551,
600,920,1.004018,-2.756387,0.999998,0.000162,-0.001088,0.002266,0.000111,0.002270,-0.001092,88.103545,0.002270,
1110,640,0.086117,-3.932925,0.999998,0.000146,-0.000939,0.001870,-0.000594,0.001991,-0.001060,-78.539010,0.001992,
1040,1910,0.042079,-0.203709,0.999999,0.000134,-0.000296,0.001720,-0.000115,0.001727,-0.000303,-86.740765,0.001844,
580,1780,0.518631,-0.712486,0.999997,0.000179,-0.002664,0.002823,0.000054,0.002824,-0.002664,89.432500,0.003173,
1120,270,0.046446,-4.627142,0.999998,0.000161,-0.000470,0.001787,-0.000031,0.001788,-0.000470,-89.219606,0.001853,
570,1240,0.968204,-2.064673,0.999999,0.000139,-0.001162,0.002297,0.000008,0.002297,-0.001162,89.862958,0.002297,
1810,170,-0.299867,-4.668150,0.999998,0.000198,-0.001078,0.002615,-0.000419,0.002662,-0.001125,-83.606719,0.002672,
1290,820,-0.062397,-3.785600,0.999999,0.000128,-0.001047,0.000840,0.000657,0.001046,-0.001253,72.566314,0.001343,
1640,990,-0.793686,-2.616647,0.999998,0.000154,-0.000994,0.002576,-0.000126,0.002581,-0.000998,-87.984492,0.002603,
730,390,0.437119,-4.167780,0.999998,0.000193,-0.001209,0.002532,-0.000032,0.002532,-0.001209,-89.507433,0.002533,
1570,1660,-0.254761,-0.766136,0.999998,0.000145,-0.001067,0.002329,-0.000103,0.002332,-0.001070,-88.263815,0.002334,
580,1080,1.046666,-2.408336,0.999998,0.000175,-0.000968,0.002075,0.000014,0.002075,-0.000969,89.743748,0.002076,
1760,980,-0.917830,-2.632716,0.999998,0.000153,-0.001089,0.002370,-0.000071,0.002372,-0.001090,-88.826162,0.002374,
1420,1770,-0.090124,-0.459198,0.999998,0.000176,-0.000626,0.001924,-0.000026,0.001924,-0.000626,-89.413025,0.001963,
980,520,0.207450,-4.051760,0.999998,0.000169,-0.001123,0.002314,-0.000290,0.002339,-0.001147,-85.217339,0.002339,
1850,1860,-0.382878,-0.477227,0.999997,0.000191,-0.001230,0.002522,0.000136,0.002527,-0.001235,87.921811,0.002527,
640,1980,0.127435,-0.130175,0.999998,0.000176,-0.000807,0.002584,-0.000779,0.002754,-0.000978,-77.665882,0.002793,
1370,1790,-0.057860,-0.409846,0.999998,0.000163,-0.000427,0.001806,0.000029,0.001807,-0.000427,89.253718,0.001888,
770,450,0.426291,-4.048297,0.999998,0.000169,-0.001245,0.002505,-0.000077,0.002507,-0.001246,-88.823416,0.002507,
790,1840,0.221559,-0.404589,0.999998,0.000167,-0.000910,0.002304,-0.000249,0.002323,-0.000930,-85.593496,0.002339,
860,160,0.123575,-4.777707,0.999998,0.000166,-0.000566,0.002061,0.000320,0.002100,-0.000605,83.146165,0.002162,
1630,1550,-0.381669,-1.080855,0.999998,0.000178,-0.001309,0.002545,-0.000122,0.002549,-0.001313,-88.192503,0.002549,
810,1230,0.672829,-1.978603,0.999998,0.000176,-0.001436,0.002816,-0.000300,0.002837,-0.001457,-85.989555,0.002837,
1270,1610,-0.023729,-0.715887,0.999998,0.000173,-0.000629,0.001775,-0.000071,0.001777,-0.000631,-88.305200,0.001802,
1610,800,-0.581010,-3.158316,0.999997,0.000193,-0.001596,0.002992,-0.000208,0.003002,-0.001605,-87.407877,0.003004,
1090,1720,0.075542,-0.541465,0.999998,0.000201,-0.000573,0.001890,0.000022,0.001891,-0.000573,89.497203,0.001939,
1850,530,-0.684945,-3.715737,0.999998,0.000161,-0.001261,0.002550,0.000015,0.002550,-0.001261,89.778094,0.002550,
1470,310,-0.128347,-4.514085,0.999998,0.000157,-0.000649,0.002045,-0.000002,0.002045,-0.000649,-89.955367,0.002090,
1480,1590,-0.190218,-0.862996,0.999999,0.000160,-0.000991,0.002201,-0.000221,0.002216,-0.001006,-86.049903,0.002219,
630,380,0.550553,-4.111931,0.999997,0.000180,-0.001239,0.002521,-0.000020,0.002521,-0.001239,-89.702144,0.002521,
1510,670,-0.299967,-3.644699,0.999998,0.000177,-0.001586,0.002748,0.000370,0.002780,-0.001617,85.160240,0.002792,
1890,1230,-0.972323,-2.085528,0.999999,0.000137,-0.001127,0.002310,0.000053,0.002311,-0.001127,89.115535,0.002311,
660,890,0.921316,-2.842724,0.999998,0.000164,-0.001149,0.002400,0.000175,0.002409,-0.001157,87.181948,0.002410,
1310,1190,-0.185370,-1.350848,0.999906,0.001215,-0.001007,0.000680,-0.000304,0.000733,-0.001060,-80.074497,0.001086,
1270,760,-0.020576,-3.868784,0.999999,0.000129,-0.000611,0.000860,0.000534,0.001033,-0.000785,72.000276,0.001079,
1680,900,-0.782831,-2.846800,0.999998,0.000173,-0.001222,0.002653,-0.000313,0.002679,-0.001247,-85.407738,0.002681,
1900,390,-0.642950,-4.028841,0.999998,0.000000,-0.001269,0.002418,0.000050,0.002419,-0.001270,89.228479,0.002420,
1120,160,0.027391,-4.817262,0.999999,0.000130,-0.000285,0.001688,0.000056,0.001689,-0.000286,88.388630,0.001808,
950,80,0.033220,-4.939736,0.999999,0.000135,-0.000204,0.001727,0.000228,0.001753,-0.000230,83.358683,0.001906,
560,2010,0.101336,-0.110722,0.999993,0.000000,0.000297,0.003547,-0.001854,0.004387,-0.000543,-65.622664,0.004783,
1720,660,-0.613347,-3.477724,0.999998,0.000194,-0.001400,0.002683,-0.000069,0.002684,-0.001402,-89.030356,0.002685,
1550,790,-0.469187,-3.238822,0.999998,0.000192,-0.001771,0.003112,-0.000045,0.003113,-0.001771,-89.477433,0.003122,
970,220,0.100784,-4.686450,0.999998,0.000166,-0.000580,0.001956,0.000105,0.001961,-0.000585,87.639245,0.002013,
1070,850,0.250625,-3.364813,0.999998,0.000185,-0.001816,0.002828,-0.000870,0.002986,-0.001973,-79.727361,0.003037,
690,510,0.569938,-3.831123,0.999998,0.000172,-0.001276,0.002564,-0.000038,0.002565,-0.001276,-89.433789,0.002565,
1020,1600,0.151253,-0.812962,0.999998,0.000155,-0.000891,0.002127,0.000242,0.002146,-0.000910,85.447142,0.002155,
750,220,0.264240,-4.604892,0.999998,0.000150,-0.000921,0.002399,0.000342,0.002433,-0.000956,84.181005,0.002452,
1300,270,-0.027627,-4.633531,0.999998,0.000150,-0.000395,0.001758,-0.000015,0.001758,-0.000395,-89.598498,0.001845,
1660,1890,-0.159498,-0.285461,0.999999,0.000136,-0.000713,0.002147,0.000398,0.002201,-0.000767,82.225836,0.002234,
940,500,0.249649,-4.061297,0.999998,0.000175,-0.001162,0.002377,-0.000245,0.002393,-0.001179,-86.057047,0.002394,
580,1240,0.957204,-2.057707,0.999999,0.000141,-0.001159,0.002313,-0.000016,0.002313,-0.001159,-89.742343,0.002313,
600,900,0.994026,-2.799910,0.999998,0.000154,-0.001086,0.002220,0.000078,0.002222,-0.001088,88.644242,0.002222,
1110,880,0.264210,-3.475546,0.999998,0.000185,-0.000746,0.001559,-0.001140,0.002028,-0.001215,-67.657260,0.002041,
730,370,0.419088,-4.219435,0.999998,0.000185,-0.001206,0.002511,0.000002,0.002511,-0.001206,89.974494,0.002512,
570,1080,1.055670,-2.410650,0.999995,0.000258,-0.000946,0.002040,0.000026,0.002040,-0.000947,89.498507,0.002042,
1310,1360,-0.047435,-1.142551,0.999998,0.000144,-0.000795,0.001480,-0.000650,0.001652,-0.000968,-75.131146,0.001660,
1220,540,0.006745,-4.168217,0.999998,0.000139,-0.000620,0.001641,-0.000066,0.001643,-0.000622,-88.326631,0.001659,
790,1820,0.240499,-0.451767,0.999998,0.000173,-0.000950,0.002347,-0.000217,0.002361,-0.000964,-86.249559,0.002374,
980,500,0.202622,-4.097556,0.999999,0.000155,-0.001052,0.002256,-0.000275,0.002278,-0.001075,-85.280718,0.002280,
1610,1140,-0.709393,-2.215956,0.999999,0.000156,-0.001235,0.002808,0.000355,0.002839,-0.001266,85.020734,0.002844,
1270,480,-0.024648,-4.262757,0.999998,0.000139,-0.000590,0.001746,0.000077,0.001748,-0.000593,88.107027,0.001778,
1630,1530,-0.393576,-1.131481,0.999998,0.000171,-0.001329,0.002565,-0.000132,0.002570,-0.001334,-88.054964,0.002570,
1520,190,-0.100076,-4.737648,0.999998,0.000153,-0.000501,0.001954,-0.000197,0.001969,-0.000516,-85.444609,0.002042,
890,1610,0.280578,-0.886946,0.999998,0.000183,-0.001113,0.002377,0.000126,0.002381,-0.001118,87.935939,0.002383,
810,1250,0.652398,-1.922668,0.999998,0.000181,-0.001485,0.002828,-0.000272,0.002845,-0.001502,-86.405581,0.002846,
1270,1590,-0.023288,-0.751010,0.999998,0.000156,-0.000631,0.001714,-0.000050,0.001715,-0.000632,-88.776040,0.001734,
770,430,0.414455,-4.098249,0.999998,0.000165,-0.001221,0.002515,-0.000056,0.002516,-0.001222,-89.140616,0.002516,
1450,560,-0.180835,-3.990147,0.999998,0.000136,-0.001135,0.002241,0.000395,0.002286,-0.001181,83.412976,0.002287,
1630,1600,-0.353788,-0.954549,0.999998,0.000182,-0.001189,0.002477,-0.000114,0.002480,-0.001193,-88.223807,0.002481,
1500,990,-0.656787,-2.641070,0.999998,0.000229,-0.001026,0.003310,-0.000163,0.003316,-0.001032,-87.847532,0.003394,
600,70,0.161835,-4.880727,0.999998,0.000150,-0.001091,0.002854,0.000744,0.002989,-0.001227,79.669230,0.003005,
580,600,0.779675,-3.512080,0.999998,0.000188,-0.001630,0.002579,-0.000136,0.002584,-0.001634,-88.148534,0.002614,
1510,650,-0.290305,-3.701041,0.999998,0.000186,-0.001536,0.002672,0.000369,0.002704,-0.001568,85.024676,0.002715,
1540,810,-0.473927,-3.187465,0.999996,0.000211,-0.001787,0.003156,-0.000073,0.003157,-0.001788,-89.154254,0.003166,
1580,1850,-0.142754,-0.348655,0.999999,0.000137,-0.000661,0.002107,0.000217,0.002124,-0.000678,85.539965,0.002170,
860,140,0.103202,-4.820155,0.999999,0.000156,-0.000487,0.001989,0.000333,0.002033,-0.000531,82.467879,0.002108,
560,2000,0.149496,-0.144937,0.999983,0.000000,-0.000086,0.003430,-0.001626,0.004067,-0.000723,-68.622243,0.004339,
1370,1770,-0.062317,-0.446351,0.999998,0.000181,-0.000473,0.001855,0.000014,0.001855,-0.000473,89.657389,0.001927,
840,1170,0.695380,-2.136241,0.999998,0.000191,-0.001327,0.002823,-0.000341,0.002851,-0.001355,-85.338488,0.002852,
1720,640,-0.597348,-3.531734,0.999997,0.000200,-0.001392,0.002675,-0.000033,0.002675,-0.001392,-89.537849,0.002676,
1030,80,0.021391,-4.943819,0.999999,0.000143,-0.000156,0.001614,0.000149,0.001626,-0.000168,85.212066,0.001789,
1120,140,0.021390,-4.850322,0.999999,0.000123,-0.000244,0.001633,0.000063,0.001635,-0.000246,88.065133,0.001763,
1260,1590,-0.017164,-0.748210,0.999999,0.000136,-0.000605,0.001698,-0.000066,0.001699,-0.000607,-88.362321,0.001722,
1850,510,-0.669075,-3.768850,0.999998,0.000175,-0.001261,0.002573,0.000017,0.002573,-0.001261,89.740100,0.002573,
1070,1720,0.086261,-0.545857,0.999998,0.000148,-0.000618,0.001907,0.000036,0.001907,-0.000619,89.172075,0.001946,
1760,960,-0.911711,-2.682577,0.999998,0.000158,-0.001106,0.002426,-0.000138,0.002431,-0.001112,-87.770047,0.002434,
850,1640,0.309681,-0.843041,0.999998,0.000143,-0.001127,0.002430,0.000068,0.002432,-0.001128,88.909711,0.002434,
640,890,0.944795,-2.835666,0.999999,0.000145,-0.001145,0.002363,0.000137,0.002368,-0.001150,87.767402,0.002369,
1550,770,-0.448125,-3.302131,0.999998,0.000175,-0.001776,0.003065,0.000017,0.003065,-0.001776,89.801091,0.003078,
730,350,0.403161,-4.268927,0.999998,0.000183,-0.001199,0.002530,0.000017,0.002530,-0.001199,89.736480,0.002531,
1280,270,-0.020408,-4.635419,0.999998,0.000148,-0.000383,0.001753,0.000007,0.001753,-0.000383,89.820949,0.001843,
1020,1560,0.159770,-0.901564,0.999999,0.000130,-0.001006,0.002139,0.000301,0.002168,-0.001034,84.579340,0.002168,
690,490,0.556931,-3.881175,0.999998,0.000164,-0.001280,0.002568,-0.000054,0.002569,-0.001280,-89.200352,0.002569,
1070,830,0.216385,-3.420560,0.999998,0.000175,-0.001804,0.002783,-0.000900,0.002954,-0.001974,-79.286132,0.003009,
1660,1870,-0.179900,-0.329238,0.999998,0.000151,-0.000777,0.002269,0.000317,0.002301,-0.000810,84.123911,0.002335,
1240,210,-0.001757,-4.739691,0.999998,0.000195,-0.000330,0.001666,0.000003,0.001666,-0.000330,89.922236,0.001764,
900,810,0.516263,-3.164099,0.999998,0.000203,-0.001744,0.003083,0.000144,0.003087,-0.001748,88.288145,0.003096,
1830,1500,-0.677149,-1.369493,0.999997,0.000188,-0.001301,0.002553,-0.000040,0.002553,-0.001301,-89.400506,0.002553,
800,1790,0.258276,-0.516369,0.999998,0.000142,-0.000989,0.002368,-0.000133,0.002374,-0.000994,-87.733406,0.002384,
1660,490,-0.411581,-3.972759,0.999998,0.000173,-0.001277,0.002544,0.000107,0.002547,-0.001280,88.391100,0.002547,
980,480,0.198480,-4.140818,0.999999,0.000145,-0.001029,0.002237,-0.000246,0.002256,-0.001047,-85.721203,0.002257,
940,520,0.255453,-4.014110,0.999998,0.000164,-0.001179,0.002396,-0.000250,0.002414,-0.001197,-86.017026,0.002414,
610,1240,0.923093,-2.039247,0.999998,0.000143,-0.001171,0.002343,-0.000112,0.002347,-0.001174,-88.176137,0.002347,
810,1270,0.630188,-1.865010,0.999998,0.000187,-0.001508,0.002837,-0.000210,0.002847,-0.001518,-87.235602,0.002849,
1270,1570,-0.024421,-0.785404,0.999999,0.000139,-0.000614,0.001766,-0.000070,0.001768,-0.000616,-88.305974,0.001795,
600,880,0.983113,-2.845907,0.999998,0.000149,-0.001107,0.002226,0.000086,0.002228,-0.001109,88.528890,0.002228,
1580,310,-0.215355,-4.462947,0.999998,0.000172,-0.000924,0.002268,-0.000043,0.002269,-0.000924,-89.219603,0.002282,
760,950,0.842177,-2.715047,0.999999,0.000144,-0.001134,0.002545,0.000222,0.002559,-0.001148,86.555931,0.002563,
600,130,0.293156,-4.713829,0.999998,0.000171,-0.001206,0.002662,0.000349,0.002693,-0.001237,84.892581,0.002696,
1880,1310,-0.896521,-1.889506,0.999998,0.000155,-0.001217,0.002431,0.000048,0.002432,-0.001217,89.243726,0.002432,
1580,990,-0.734398,-2.623487,0.999998,0.000176,-0.000978,0.002729,-0.000168,0.002736,-0.000985,-87.416982,0.002772,
730,160,0.205484,-4.741659,0.999998,0.000141,-0.000819,0.002369,0.000468,0.002437,-0.000886,81.821545,0.002467,
1190,480,0.025017,-4.262584,0.999998,0.000179,-0.000612,0.001746,-0.000072,0.001748,-0.000614,-88.253419,0.001773,
1510,630,-0.280105,-3.752510,0.999998,0.000167,-0.001462,0.002586,0.000360,0.002617,-0.001494,84.953089,0.002626,
1040,1530,0.144760,-0.946326,0.999999,0.000134,-0.001002,0.002125,0.000365,0.002167,-0.001044,83.425570,0.002168,
1190,340,0.021948,-4.511528,0.999998,0.000189,-0.000470,0.001780,-0.000048,0.001781,-0.000471,-88.786017,0.001846,
770,410,0.399318,-4.149447,0.999998,0.000168,-0.001205,0.002526,-0.000034,0.002526,-0.001205,-89.482981,0.002527,
1870,460,-0.656984,-3.880352,0.999998,0.000163,-0.001247,0.002531,0.000020,0.002531,-0.001247,89.701880,0.002531,
560,1990,0.182334,-0.177660,0.999979,0.000000,-0.000409,0.003277,-0.001313,0.003697,-0.000829,-72.264785,0.003880,
900,80,0.040918,-4.938363,0.999998,0.000141,-0.000216,0.001750,0.000321,0.001801,-0.000267,80.951447,0.001944,
860,120,0.088497,-4.857317,0.999999,0.000141,-0.000397,0.001944,0.000364,0.001999,-0.000452,81.356678,0.002097,
1220,520,0.007507,-4.197581,0.999999,0.000137,-0.000624,0.001658,-0.000063,0.001660,-0.000625,-88.416345,0.001676,
580,590,0.771703,-3.537811,0.999997,0.000176,-0.001715,0.002597,-0.000158,0.002603,-0.001721,-87.906954,0.002647,
1370,1750,-0.067881,-0.482683,0.999998,0.000161,-0.000490,0.001845,-0.000010,0.001845,-0.000490,-89.758462,0.001911,
570,1780,0.546367,-0.721310,0.999524,0.002499,-0.003295,0.003142,0.000107,0.003144,-0.003297,89.051774,0.003722,
1120,120,0.018523,-4.884950,0.999998,0.000139,-0.000192,0.001620,0.000073,0.001623,-0.000195,87.701978,0.001772,
1720,620,-0.582313,-3.583810,0.999997,0.000193,-0.001394,0.002665,-0.000022,0.002666,-0.001394,-89.685920,0.002667,
1760,940,-0.900436,-2.731207,0.999998,0.000146,-0.001129,0.002443,-0.000176,0.002452,-0.001138,-87.191886,0.002454,
830,1620,0.345022,-0.907132,0.999998,0.000171,-0.001194,0.002462,0.000091,0.002464,-0.001196,88.578979,0.002465,
1120,1590,0.072548,-0.774419,0.999999,0.000125,-0.000685,0.001869,0.000185,0.001883,-0.000698,85.876931,0.001903,
1070,810,0.192924,-3.476059,0.999998,0.000180,-0.001785,0.002763,-0.000977,0.002965,-0.001986,-78.373209,0.003021,
730,330,0.387320,-4.321478,0.999997,0.000199,-0.001182,0.002510,0.000035,0.002510,-0.001182,89.464452,0.002511,
690,470,0.542302,-3.934055,0.999998,0.000170,-0.001259,0.002536,-0.000056,0.002537,-0.001260,-89.152104,0.002537,
1020,1540,0.164651,-0.942229,0.999998,0.000148,-0.001051,0.002155,0.000342,0.002191,-0.001087,83.972317,0.002191,
1550,750,-0.427484,-3.362727,0.999998,0.000198,-0.001774,0.003031,0.000087,0.003033,-0.001776,88.961190,0.003048,
980,900,0.509779,-2.959844,0.999998,0.000179,-0.001658,0.003464,0.000133,0.003468,-0.001661,88.508491,0.003469,
1010,80,0.023109,-4.942706,0.999998,0.000183,-0.000122,0.001637,0.000184,0.001656,-0.000141,84.101882,0.001836,
1520,510,-0.246748,-4.040770,0.999998,0.000149,-0.001158,0.002357,0.000251,0.002374,-0.001175,85.935561,0.002374,
1560,1910,-0.087315,-0.223335,0.999998,0.000144,-0.000402,0.001926,0.000274,0.001958,-0.000434,83.374594,0.002057,
1050,1240,0.236531,-1.634759,0.999998,0.000183,-0.001943,0.002986,0.000773,0.003104,-0.002061,81.294668,0.003159,
600,860,0.970599,-2.889900,0.999998,0.000136,-0.001128,0.002313,0.000113,0.002317,-0.001132,88.124677,0.002317,
1630,1510,-0.404548,-1.181554,0.999998,0.000169,-0.001339,0.002629,-0.000127,0.002633,-0.001343,-88.173539,0.002633,
1000,1130,0.520857,-2.133384,0.999998,0.000193,-0.001575,0.003613,-0.000022,0.003613,-0.001575,-89.760705,0.003623,
1580,390,-0.261592,-4.278373,0.999998,0.000162,-0.001064,0.002336,0.000080,0.002338,-0.001066,88.657676,0.002341,
1560,1850,-0.130342,-0.341771,0.999998,0.000173,-0.000564,0.002087,0.000223,0.002106,-0.000583,85.228935,0.002174,
1850,490,-0.655685,-3.820674,0.999998,0.000169,-0.001275,0.002510,0.000027,0.002510,-0.001276,89.590802,0.002510,
1610,1720,-0.260521,-0.652225,0.999998,0.000132,-0.000977,0.002359,0.000031,0.002359,-0.000978,89.459707,0.002371,
720,950,0.886670,-2.710104,0.999998,0.000147,-0.001127,0.002479,0.000200,0.002490,-0.001138,86.827844,0.002493,
1560,990,-0.715948,-2.625310,0.999997,0.000216,-0.000941,0.002836,-0.000206,0.002847,-0.000952,-86.881965,0.002899,
730,140,0.177312,-4.787781,0.999998,0.000153,-0.000749,0.002322,0.000532,0.002411,-0.000838,80.447944,0.002448,
810,1290,0.612335,-1.809319,0.999998,0.000192,-0.001518,0.002845,-0.000176,0.002852,-0.001525,-87.697625,0.002855,
1270,1550,-0.024740,-0.819664,0.999998,0.000146,-0.000619,0.001711,-0.000088,0.001715,-0.000623,-87.847409,0.001736,
820,430,0.354076,-4.136247,0.999998,0.000162,-0.001174,0.002464,-0.000092,0.002466,-0.001176,-88.558592,0.002467,
1520,730,-0.356874,-3.459840,0.999998,0.000170,-0.001753,0.002969,0.000264,0.002983,-0.001768,86.815619,0.003000,
780,1790,0.278602,-0.527088,0.999998,0.000180,-0.001030,0.002416,-0.000151,0.002422,-0.001037,-87.502563,0.002431,
590,1240,0.946574,-2.051270,0.999999,0.000136,-0.001146,0.002319,-0.000058,0.002320,-0.001147,-89.037531,0.002320,
900,790,0.492583,-3.225439,0.999998,0.000197,-0.001747,0.003074,0.000100,0.003076,-0.001749,88.807374,0.003086,
770,830,0.734570,-3.031483,0.999998,0.000160,-0.001355,0.002698,0.000279,0.002717,-0.001374,86.077941,0.002717,
1050,1600,0.126449,-0.795752,0.999998,0.000157,-0.000827,0.002039,0.000219,0.002055,-0.000843,85.660253,0.002066,
1130,800,0.090892,-3.688759,0.999998,0.000177,-0.001233,0.001675,-0.001127,0.002060,-0.001619,-71.114125,0.002170,
1800,870,-0.904006,-2.892782,0.999998,0.000158,-0.001172,0.002428,-0.000218,0.002441,-0.001185,-86.539896,0.002441,
940,540,0.261342,-3.964907,0.999998,0.000166,-0.001215,0.002441,-0.000270,0.002461,-0.001235,-85.802978,0.002461,
1870,1310,-0.885151,-1.881925,0.999999,0.000145,-0.001219,0.002463,0.000053,0.002464,-0.001220,89.174335,0.002464,
660,390,0.521196,-4.112013,0.999997,0.000206,-0.001254,0.002510,-0.000035,0.002510,-0.001254,-89.469022,0.002510,
830,1640,0.333203,-0.859138,0.999998,0.000153,-0.001187,0.002467,0.000112,0.002470,-0.001190,88.241892,0.002471,
1760,920,-0.890842,-2.780802,0.999998,0.000147,-0.001149,0.002444,-0.000172,0.002452,-0.001157,-87.273163,0.002454,
900,100,0.054615,-4.902245,0.999998,0.000147,-0.000287,0.001829,0.000315,0.001875,-0.000333,81.702496,0.002001,
600,110,0.254480,-4.768518,0.999998,0.000165,-0.001189,0.002701,0.000440,0.002750,-0.001238,83.622597,0.002755,
580,580,0.763298,-3.563541,0.999997,0.000189,-0.001832,0.002443,-0.000204,0.002452,-0.001842,-87.274574,0.002553,
1120,100,0.012505,-4.915585,0.999999,0.000134,-0.000149,0.001589,0.000046,0.001590,-0.000151,88.472450,0.001756,
1170,480,0.038789,-4.260053,0.999999,0.000144,-0.000652,0.001794,-0.000120,0.001800,-0.000658,-87.203983,0.001822,
1510,610,-0.274183,-3.803064,0.999998,0.000169,-0.001398,0.002574,0.000364,0.002607,-0.001431,84.806942,0.002611,
560,1980,0.211991,-0.208803,0.999968,0.000000,-0.000731,0.003270,-0.001020,0.003515,-0.000976,-76.497107,0.003629,
1220,1340,0.004001,-1.113119,0.999999,0.000139,-0.000510,0.000979,0.000148,0.000994,-0.000524,84.362009,0.000995,
1720,600,-0.565644,-3.637004,0.999997,0.000186,-0.001390,0.002634,-0.000017,0.002635,-0.001390,-89.763101,0.002636,
730,310,0.370710,-4.369949,0.999998,0.000189,-0.001151,0.002490,0.000077,0.002491,-0.001153,88.794022,0.002493,
1070,790,0.173293,-3.533205,0.999998,0.000167,-0.001734,0.002640,-0.000973,0.002847,-0.001940,-78.008876,0.002909,
690,450,0.527648,-3.982986,0.999997,0.000197,-0.001235,0.002514,-0.000047,0.002514,-0.001236,-89.283112,0.002514,
1550,730,-0.410294,-3.423002,0.999997,0.000242,-0.001742,0.003004,0.000122,0.003007,-0.001745,88.525533,0.003020,
1020,1520,0.168158,-0.986396,0.999998,0.000144,-0.001080,0.002223,0.000367,0.002263,-0.001120,83.740614,0.002264,
1370,1730,-0.071322,-0.520315,0.999998,0.000163,-0.000532,0.001888,-0.000033,0.001889,-0.000533,-89.207427,0.001948,
600,840,0.954306,-2.938596,0.999999,0.000133,-0.001148,0.002341,0.000121,0.002345,-0.001152,88.013397,0.002346,
830,1000,0.790381,-2.591645,0.999998,0.000187,-0.000995,0.002616,0.000113,0.002620,-0.000998,88.215106,0.002644,
1520,490,-0.240669,-4.087153,0.999998,0.000142,-0.001166,0.002343,0.000251,0.002361,-0.001184,85.927244,0.002361,
1000,1110,0.557382,-2.207788,0.999997,0.000188,-0.001464,0.003717,-0.000024,0.003717,-0.001464,-89.738271,0.003744,
1850,470,-0.640279,-3.870742,0.999998,0.000174,-0.001268,0.002545,0.000021,0.002545,-0.001268,89.683547,0.002545,
750,200,0.239583,-4.652684,0.999998,0.000162,-0.000851,0.002416,0.000403,0.002465,-0.000900,83.061750,0.002494,
1740,1670,-0.439574,-0.865094,0.999998,0.000183,-0.001219,0.002526,-0.000002,0.002526,-0.001219,-89.974041,0.002527,
1260,1850,-0.009883,-0.292328,0.999998,0.000189,-0.000312,0.001677,-0.000006,0.001677,-0.000312,-89.835703,0.001784,
1840,1430,-0.744583,-1.558223,0.999998,0.000167,-0.001284,0.002539,0.000023,0.002540,-0.001284,89.652636,0.002540,
1800,850,-0.888648,-2.941574,0.999999,0.000135,-0.001168,0.002446,-0.000202,0.002458,-0.001179,-86.816770,0.002458,
980,920,0.544278,-2.889363,0.999997,0.000187,-0.001523,0.003459,0.000157,0.003464,-0.001528,88.199577,0.003472,
1070,80,0.014746,-4.946202,0.999999,0.000143,-0.000088,0.001574,0.000119,0.001582,-0.000097,85.939018,0.001774,
1580,370,-0.250794,-4.325079,0.999998,0.000174,-0.001054,0.002321,0.000066,0.002323,-0.001055,88.887208,0.002326,
1890,620,-0.804485,-3.455097,0.999998,0.000153,-0.001268,0.002554,-0.000007,0.002554,-0.001268,-89.897254,0.002554,
770,850,0.754422,-2.976409,0.999998,0.000161,-0.001314,0.002711,0.000305,0.002734,-0.001337,85.693974,0.002735,
1130,780,0.079485,-3.722611,0.999998,0.000192,-0.001198,0.001657,-0.001086,0.002023,-0.001564,-71.361686,0.002122,
1630,1930,-0.103303,-0.197548,0.999998,0.000142,-0.000380,0.002024,0.000408,0.002091,-0.000447,80.629009,0.002203,
1540,1910,-0.079270,-0.220197,0.999999,0.000136,-0.000333,0.001878,0.000247,0.001906,-0.000360,83.704142,0.002025,
1600,1050,-0.759472,-2.458124,0.999997,0.000217,-0.000946,0.002659,0.000114,0.002662,-0.000949,88.182374,0.002699,
780,1770,0.296469,-0.577546,0.999998,0.000165,-0.001070,0.002426,-0.000124,0.002431,-0.001074,-87.977466,0.002436,
640,390,0.546724,-4.094247,0.999998,0.000165,-0.001237,0.002526,-0.000048,0.002526,-0.001238,-89.264143,0.002527,
880,1510,0.341740,-1.140644,0.999998,0.000159,-0.001333,0.002547,0.000190,0.002556,-0.001342,87.205513,0.002557,
990,1520,0.201009,-1.013940,0.999999,0.000148,-0.001121,0.002298,0.000340,0.002331,-0.001154,84.382379,0.002331,
900,120,0.069930,-4.865470,0.999999,0.000135,-0.000349,0.001878,0.000320,0.001923,-0.000394,81.979066,0.002032,
1470,740,-0.275378,-3.505414,0.999997,0.000211,-0.001783,0.002923,0.000507,0.002977,-0.001837,83.914847,0.003004,
560,1970,0.240617,-0.242810,0.999963,0.000000,-0.000759,0.003310,-0.000682,0.003422,-0.000870,-80.730341,0.003557,
1120,80,0.012597,-4.946997,0.999999,0.000143,-0.000096,0.001563,0.000062,0.001565,-0.000098,87.849588,0.001753,
1760,900,-0.878949,-2.829486,0.999998,0.000151,-0.001181,0.002504,-0.000232,0.002518,-0.001195,-86.411979,0.002519,
610,300,0.507098,-4.293793,0.999998,0.000206,-0.001242,0.002502,-0.000013,0.002502,-0.001242,-89.804017,0.002502,
640,510,0.635615,-3.791119,0.999998,0.000222,-0.001283,0.002545,-0.000020,0.002545,-0.001283,-89.697807,0.002545,
1720,580,-0.550649,-3.690091,0.999997,0.000202,-0.001378,0.002636,0.000020,0.002636,-0.001378,89.717601,0.002637,
730,290,0.353976,-4.420943,0.999998,0.000187,-0.001124,0.002506,0.000117,0.002510,-0.001128,88.163487,0.002514,
1310,680,-0.046809,-3.918591,0.999999,0.000143,-0.000772,0.001498,0.000604,0.001648,-0.000923,75.991120,0.001652,
1510,590,-0.264895,-3.855297,0.999998,0.000161,-0.001341,0.002504,0.000350,0.002535,-0.001373,84.839920,0.002538,
1220,1360,0.005741,-1.091627,0.999999,0.000130,-0.000521,0.001073,0.000130,0.001084,-0.000531,85.366367,0.001084,
860,100,0.067155,-4.897401,0.999999,0.000139,-0.000325,0.001886,0.000370,0.001946,-0.000386,80.756408,0.002061,
1550,710,-0.392045,-3.483175,0.999997,0.000214,-0.001677,0.002929,0.000169,0.002936,-0.001683,87.899221,0.002946,
600,820,0.939328,-2.984320,0.999999,0.000131,-0.001159,0.002304,0.000104,0.002307,-0.001162,88.279245,0.002307,
980,940,0.578373,-2.821910,0.999998,0.000177,-0.001378,0.003476,0.000206,0.003484,-0.001386,87.578489,0.003508,
1080,1390,0.118899,-1.197376,0.999999,0.000132,-0.001181,0.002115,0.000713,0.002262,-0.001329,78.306429,0.002274,
1050,80,0.018034,-4.944639,0.999999,0.000148,-0.000152,0.001589,0.000117,0.001597,-0.000160,86.159363,0.001759,
1070,1270,0.168796,-1.496190,0.999998,0.000179,-0.001691,0.002592,0.000953,0.002795,-0.001894,78.002498,0.002853,
1890,610,-0.796027,-3.480973,0.999999,0.000138,-0.001261,0.002580,-0.000010,0.002580,-0.001261,-89.848600,0.002580,
1430,1160,-0.406891,-1.947135,0.999998,0.000172,-0.001736,0.003558,-0.000507,0.003606,-0.001784,-84.578152,0.003606,
1350,300,-0.055223,-4.569424,0.999998,0.000159,-0.000527,0.001815,0.000037,0.001816,-0.000527,89.093058,0.001868,
1140,1590,0.059940,-0.765448,0.999998,0.000175,-0.000696,0.001852,0.000179,0.001864,-0.000708,85.989630,0.001882,
1170,1450,0.039013,-0.993361,0.999999,0.000130,-0.000716,0.001583,0.000319,0.001627,-0.000760,82.242764,0.001628,
1320,1660,-0.051413,-0.633032,0.999998,0.000150,-0.000628,0.001826,-0.000113,0.001831,-0.000633,-87.365200,0.001860,
860,1510,0.369258,-1.159944,0.999999,0.000150,-0.001332,0.002590,0.000169,0.002597,-0.001339,87.541320,0.002597,
1020,1500,0.173020,-1.031089,0.999999,0.000127,-0.001092,0.002211,0.000384,0.002255,-0.001136,83.463176,0.002255,
690,430,0.514399,-4.035444,0.999998,0.000176,-0.001218,0.002536,-0.000040,0.002536,-0.001218,-89.392576,0.002537,
730,200,0.256938,-4.644818,0.999998,0.000164,-0.000952,0.002426,0.000333,0.002459,-0.000984,84.425929,0.002475,
1860,970,-1.021623,-2.644312,0.999998,0.000177,-0.001070,0.002144,-0.000026,0.002144,-0.001070,-89.532274,0.002144,
1370,1200,-0.220844,-1.598630,0.999997,0.000221,-0.001484,0.002341,-0.001177,0.002675,-0.001817,-74.190340,0.002731,
900,140,0.083930,-4.826942,0.999999,0.000138,-0.000388,0.001920,0.000287,0.001955,-0.000424,83.008029,0.002057,
1470,330,-0.136651,-4.471802,0.999998,0.000156,-0.000681,0.002060,0.000020,0.002060,-0.000682,89.573621,0.002099,
1420,1300,-0.198285,-1.479301,0.999998,0.000170,-0.001691,0.002721,-0.000778,0.002854,-0.001824,-80.289158,0.002891,
1590,1490,-0.361772,-1.199333,0.999997,0.000184,-0.001380,0.002584,-0.000202,0.002595,-0.001390,-87.094914,0.002597,
1740,1690,-0.424403,-0.814184,0.999998,0.000189,-0.001201,0.002541,-0.000012,0.002541,-0.001201,-89.820624,0.002543,
1350,280,-0.052154,-4.607131,0.999998,0.000147,-0.000487,0.001837,0.000009,0.001837,-0.000487,89.788911,0.001903,
1010,1520,0.179268,-0.995535,0.999999,0.000138,-0.001071,0.002238,0.000351,0.002275,-0.001107,84.017031,0.002275,
1800,810,-0.855228,-3.039160,0.999998,0.000182,-0.001225,0.002470,-0.000206,0.002481,-0.001236,-86.818173,0.002481,
1180,1470,0.031746,-0.955210,0.999998,0.000174,-0.000664,0.001612,0.000227,0.001634,-0.000686,84.350144,0.001641,
1630,1950,-0.082271,-0.155037,0.999999,0.000139,-0.000307,0.001961,0.000430,0.002040,-0.000386,79.620349,0.002167,
640,1570,0.616253,-1.186017,0.999997,0.000213,-0.001245,0.002549,0.000054,0.002549,-0.001246,89.183459,0.002550,
1240,1850,-0.003744,-0.290548,0.999998,0.000162,-0.000331,0.001677,-0.000017,0.001677,-0.000331,-89.527309,0.001777,
730,270,0.334346,-4.470103,0.999998,0.000194,-0.001073,0.002496,0.000150,0.002502,-0.001079,87.594716,0.002510,
1390,500,-0.111983,-4.169633,0.999999,0.000123,-0.000871,0.002006,0.000315,0.002041,-0.000905,83.816866,0.002045,
1680,880,-0.765490,-2.900648,0.999998,0.000166,-0.001257,0.002677,-0.000320,0.002703,-0.001283,-85.373295,0.002704,
1810,150,-0.264793,-4.722161,0.999998,0.000212,-0.001020,0.002609,-0.000488,0.002674,-0.001084,-82.467438,0.002690,
1580,1050,-0.739854,-2.458786,0.999997,0.000226,-0.000939,0.002718,0.000128,0.002723,-0.000943,87.990946,0.002765,
1320,210,-0.028127,-4.736482,0.999999,0.000166,-0.000368,0.001731,-0.000014,0.001731,-0.000368,-89.616544,0.001824,
1140,1970,0.009082,-0.100027,0.999999,0.000129,-0.000117,0.001544,-0.000062,0.001546,-0.000119,-87.863886,0.001721,
1600,890,-0.669158,-2.899004,0.999998,0.000190,-0.001366,0.002907,-0.000367,0.002938,-0.001397,-85.123784,0.002939,
690,410,0.498610,-4.085960,0.999998,0.000181,-0.001228,0.002546,-0.000039,0.002547,-0.001228,-89.412991,0.002547,
640,2020,0.038047,-0.038968,0.999998,0.000000,-0.000614,0.002194,-0.000806,0.002409,-0.000829,-75.064280,0.002447,
770,870,0.774016,-2.923251,0.999998,0.000175,-0.001279,0.002639,0.000288,0.002660,-0.001300,85.815080,0.002660,
1370,1710,-0.073846,-0.558327,0.999998,0.000186,-0.000547,0.001888,-0.000037,0.001888,-0.000547,-89.140695,0.001943,
1850,450,-0.624697,-3.922666,0.999998,0.000171,-0.001252,0.002519,0.000010,0.002519,-0.001252,89.842245,0.002519,
1760,880,-0.863311,-2.880361,0.999998,0.000166,-0.001208,0.002499,-0.000260,0.002517,-0.001226,-86.008233,0.002517,
1870,1560,-0.682409,-1.248377,0.999998,0.000169,-0.001247,0.002522,-0.000017,0.002522,-0.001247,-89.745261,0.002522,
1020,1480,0.175145,-1.074208,0.999998,0.000150,-0.001137,0.002260,0.000427,0.002312,-0.001190,82.941833,0.002313,
790,1300,0.632588,-1.792916,0.999998,0.000180,-0.001512,0.002802,-0.000189,0.002810,-0.001520,-87.497806,0.002813,
970,520,0.219208,-4.041529,0.999998,0.000167,-0.001186,0.002347,-0.000298,0.002372,-0.001211,-85.211937,0.002373,
1220,1380,0.006379,-1.070404,0.999999,0.000129,-0.000543,0.001219,0.000120,0.001227,-0.000551,86.138677,0.001229,
810,1820,0.222530,-0.440273,0.999998,0.000153,-0.000861,0.002301,-0.000229,0.002318,-0.000877,-85.873061,0.002340,
810,1730,0.296064,-0.653398,0.999998,0.000174,-0.001052,0.002420,-0.000060,0.002421,-0.001053,-89.004972,0.002428,
1900,380,-0.634721,-4.053819,0.999998,0.000000,-0.001269,0.002457,0.000024,0.002457,-0.001269,89.631255,0.002458,
1270,1530,-0.024953,-0.853277,0.999998,0.000144,-0.000627,0.001672,-0.000107,0.001677,-0.000632,-87.338031,0.001694,
800,430,0.377364,-4.120881,0.999998,0.000175,-0.001195,0.002480,-0.000065,0.002482,-0.001196,-88.992650,0.002482,
1720,560,-0.535523,-3.744005,0.999997,0.000210,-0.001366,0.002623,0.000041,0.002623,-0.001366,89.417888,0.002624,
930,360,0.202015,-4.374132,0.999998,0.000182,-0.000837,0.002202,-0.000032,0.002203,-0.000837,-89.401784,0.002224,
1740,390,-0.443107,-4.162105,0.999998,0.000199,-0.001228,0.002535,0.000019,0.002535,-0.001228,89.708991,0.002536,
770,1400,0.571662,-1.529963,0.999997,0.000207,-0.001441,0.002704,-0.000035,0.002705,-0.001441,-89.519654,0.002707,
1630,1500,-0.410406,-1.209856,0.999998,0.000175,-0.001352,0.002630,-0.000130,0.002634,-0.001357,-88.127720,0.002635,
1450,740,-0.241439,-3.541338,0.999998,0.000214,-0.001744,0.002843,0.000620,0.002925,-0.001826,82.436824,0.002955,
1860,1310,-0.872277,-1.874421,0.999998,0.000141,-0.001224,0.002474,0.000069,0.002476,-0.001225,88.928535,0.002476,
1070,770,0.160769,-3.583648,0.999998,0.000162,-0.001653,0.002514,-0.000955,0.002722,-0.001861,-77.690207,0.002783,
860,80,0.053343,-4.933100,0.999999,0.000135,-0.000240,0.001817,0.000390,0.001888,-0.000311,79.609309,0.002025,
880,1230,0.566933,-1.938556,0.999997,0.000171,-0.001618,0.003029,-0.000221,0.003039,-0.001628,-87.281490,0.003042,
1890,600,-0.787781,-3.507641,0.999998,0.000156,-0.001270,0.002591,-0.000002,0.002591,-0.001270,-89.965414,0.002591,
1560,1590,-0.275992,-0.924762,0.999998,0.000154,-0.001135,0.002368,-0.000169,0.002376,-0.001143,-87.241890,0.002376,
600,800,0.923252,-3.030278,0.999999,0.000140,-0.001173,0.002359,0.000101,0.002362,-0.001176,88.358090,0.002362,
730,250,0.313804,-4.520734,0.999998,0.000172,-0.001037,0.002505,0.000196,0.002516,-0.001048,86.841030,0.002527,
1310,660,-0.049852,-3.947493,0.999999,0.000134,-0.000760,0.001554,0.000506,0.001660,-0.000866,78.190194,0.001661,
1330,150,-0.020437,-4.835350,0.999999,0.000115,-0.000263,0.001628,-0.000070,0.001630,-0.000266,-87.883899,0.001749,
1050,1580,0.129402,-0.835452,0.999999,0.000153,-0.000857,0.002072,0.000252,0.002093,-0.000878,85.118223,0.002102,
1610,360,-0.275802,-4.329651,0.999998,0.000149,-0.000984,0.002365,0.000003,0.002365,-0.000984,89.956551,0.002377,
750,720,0.655777,-3.319843,0.999998,0.000191,-0.001415,0.002713,0.000166,0.002719,-0.001422,87.699402,0.002720,
1420,1720,-0.106625,-0.557065,0.999998,0.000194,-0.000715,0.001975,-0.000081,0.001978,-0.000718,-88.276167,0.002003,
1030,460,0.143055,-4.223364,0.999999,0.000143,-0.000873,0.002082,-0.000222,0.002098,-0.000890,-85.732707,0.002107,
1300,210,-0.020792,-4.736575,0.999998,0.000177,-0.000307,0.001708,-0.000051,0.001710,-0.000309,-88.560848,0.001822,
650,30,0.023892,-5.017600,0.999999,0.000000,-0.000317,0.002170,0.000957,0.002496,-0.000642,71.210064,0.002592,
1630,1970,-0.063281,-0.119076,0.999999,0.000140,-0.000229,0.001883,0.000460,0.001979,-0.000324,78.236435,0.002123,
1400,1970,-0.016708,-0.102403,0.999999,0.000149,-0.000121,0.001593,0.000120,0.001602,-0.000130,86.001136,0.001779,
940,560,0.268812,-3.916728,0.999998,0.000165,-0.001282,0.002469,-0.000309,0.002494,-0.001307,-85.321555,0.002495,
1810,130,-0.232093,-4.774301,0.999998,0.000182,-0.000959,0.002573,-0.000583,0.002667,-0.001053,-80.870803,0.002687,
1890,1780,-0.527970,-0.720786,0.999997,0.000217,-0.001236,0.002454,-0.000018,0.002455,-0.001236,-89.715941,0.002455,
900,580,0.330863,-3.827030,0.999998,0.000177,-0.001398,0.002584,-0.000231,0.002598,-0.001411,-86.690063,0.002601,
980,960,0.606953,-2.751021,0.999997,0.000177,-0.001249,0.003484,0.000188,0.003491,-0.001256,87.724998,0.003537,
1460,1270,-0.295016,-1.652981,0.999997,0.000191,-0.001921,0.003082,-0.000453,0.003123,-0.001962,-84.868183,0.003157,
1180,1450,0.031758,-0.987386,0.999999,0.000142,-0.000675,0.001553,0.000265,0.001585,-0.000706,83.300804,0.001588,
1020,1460,0.178195,-1.122393,0.999998,0.000142,-0.001201,0.002296,0.000471,0.002358,-0.001264,82.468805,0.002360,
1690,1180,-0.772583,-2.129105,0.999998,0.000165,-0.001292,0.002630,0.000268,0.002649,-0.001310,86.103708,0.002649,
970,500,0.213280,-4.088742,0.999999,0.000136,-0.001113,0.002289,-0.000290,0.002314,-0.001137,-85.167325,0.002314,
1680,860,-0.746392,-2.954938,0.999998,0.000178,-0.001303,0.002708,-0.000312,0.002732,-0.001327,-85.579139,0.002732,
770,890,0.788568,-2.871586,0.999998,0.000164,-0.001244,0.002606,0.000297,0.002628,-0.001267,85.608028,0.002629,
1160,1850,0.021632,-0.294057,0.999998,0.000164,-0.000295,0.001705,-0.000011,0.001705,-0.000295,-89.698241,0.001823,
740,1930,0.150660,-0.215437,0.999998,0.000157,-0.000571,0.002268,-0.000612,0.002394,-0.000698,-78.331815,0.002463,
1230,1440,0.001749,-0.988370,0.999999,0.000116,-0.000588,0.001458,0.000007,0.001458,-0.000588,89.793744,0.001468,
1220,1400,0.005908,-1.044217,0.999999,0.000119,-0.000569,0.001297,0.000100,0.001303,-0.000575,86.932186,0.001306,
1370,1690,-0.078300,-0.596940,0.999998,0.000166,-0.000584,0.001921,-0.000053,0.001922,-0.000585,-88.793018,0.001970,
630,700,0.799222,-3.295602,0.999999,0.000140,-0.001265,0.002530,0.000104,0.002533,-0.001268,88.435040,0.002533,
1850,430,-0.609735,-3.971332,0.999998,0.000174,-0.001250,0.002507,0.000036,0.002507,-0.001250,89.446542,0.002507,
690,390,0.483984,-4.135228,0.999998,0.000170,-0.001236,0.002509,-0.000020,0.002509,-0.001236,-89.694385,0.002509,
810,1710,0.309312,-0.702930,0.999998,0.000163,-0.001106,0.002408,-0.000020,0.002408,-0.001106,-89.675836,0.002410,
640,1960,0.175568,-0.183074,0.999998,0.000162,-0.000909,0.002577,-0.000666,0.002700,-0.001032,-79.548542,0.002725,
1760,860,-0.847600,-2.930543,0.999998,0.000155,-0.001238,0.002506,-0.000231,0.002520,-0.001252,-86.487625,0.002520,
1880,1230,-0.961409,-2.079677,0.999998,0.000149,-0.001130,0.002311,0.000065,0.002312,-0.001131,88.911483,0.002312,
1760,390,-0.468029,-4.147503,0.999997,0.000177,-0.001220,0.002524,0.000036,0.002524,-0.001220,89.454353,0.002524,
1880,620,-0.792279,-3.463384,0.999998,0.000163,-0.001287,0.002560,0.000003,0.002560,-0.001287,89.958115,0.002560,
1840,150,-0.301810,-4.690799,0.999998,0.000169,-0.001224,0.002611,-0.000246,0.002627,-0.001240,-86.349700,0.002628,
770,1520,0.483468,-1.210271,0.999998,0.000178,-0.001330,0.002621,0.000078,0.002622,-0.001332,88.869613,0.002622,
1520,1230,-0.456436,-1.876885,0.999998,0.000173,-0.001833,0.003242,0.000052,0.003243,-0.001834,89.407971,0.003252,
1800,790,-0.837839,-3.088930,0.999998,0.000162,-0.001263,0.002487,-0.000189,0.002496,-0.001273,-87.127035,0.002497,
600,780,0.906413,-3.078226,0.999998,0.000150,-0.001179,0.002398,0.000100,0.002401,-0.001182,88.392085,0.002401,
1120,60,0.006087,-4.978012,0.999999,0.000138,-0.000085,0.001533,0.000088,0.001538,-0.000089,86.907023,0.001726,
1070,730,0.142248,-3.681352,0.999998,0.000163,-0.001458,0.002347,-0.000901,0.002549,-0.001661,-77.323717,0.002588,
730,230,0.293275,-4.570724,0.999998,0.000170,-0.000990,0.002487,0.000251,0.002505,-0.001008,85.889887,0.002521,
1650,1500,-0.438346,-1.226388,0.999998,0.000161,-0.001362,0.002640,-0.000115,0.002643,-0.001365,-88.356310,0.002643,
880,1210,0.591772,-1.998893,0.999998,0.000172,-0.001552,0.003018,-0.000286,0.003036,-0.001570,-86.439402,0.003037,
1330,170,-0.024003,-4.802189,0.999999,0.000124,-0.000306,0.001662,-0.000049,0.001663,-0.000307,-88.582636,0.001770,
1030,1520,0.157408,-0.977955,0.999998,0.000149,-0.001070,0.002191,0.000379,0.002235,-0.001113,83.460825,0.002235,
1420,1740,-0.097872,-0.516740,0.999998,0.000177,-0.000695,0.001942,-0.000043,0.001943,-0.000696,-89.071078,0.001969,
860,60,0.033155,-4.971344,0.999999,0.000124,-0.000172,0.001782,0.000390,0.001857,-0.000246,79.121977,0.002017,
930,340,0.191123,-4.420526,0.999998,0.000154,-0.000800,0.002241,0.000000,0.002241,-0.000800,-89.996862,0.002271,
1040,290,0.093845,-4.570526,0.999998,0.000172,-0.000618,0.001931,-0.000017,0.001931,-0.000618,-89.624475,0.001973,
1810,110,-0.194834,-4.825135,0.999998,0.000167,-0.000812,0.002553,-0.000686,0.002688,-0.000947,-78.906971,0.002726,
1030,440,0.139879,-4.263644,0.999999,0.000143,-0.000831,0.002067,-0.000187,0.002079,-0.000843,-86.325599,0.002092,
1250,480,-0.012243,-4.266724,0.999998,0.000185,-0.000646,0.001726,0.000072,0.001728,-0.000648,88.259080,0.001746,
1540,1590,-0.252567,-0.908226,0.999998,0.000174,-0.001126,0.002373,-0.000163,0.002381,-0.001133,-87.332310,0.002382,
1440,1270,-0.256760,-1.611935,0.999998,0.000159,-0.001880,0.003014,-0.000646,0.003098,-0.001964,-82.605736,0.003134,
1890,1770,-0.537117,-0.744863,0.999998,0.000205,-0.001217,0.002442,-0.000039,0.002442,-0.001218,-89.383426,0.002442,
1440,730,-0.217236,-3.588821,0.999998,0.000200,-0.001711,0.002723,0.000675,0.002824,-0.001811,81.535628,0.002861,
650,2020,0.035550,-0.032967,0.999998,0.000000,-0.000308,0.002180,-0.000896,0.002469,-0.000597,-72.118444,0.002576,
1680,840,-0.727362,-3.008934,0.999998,0.000180,-0.001353,0.002717,-0.000313,0.002741,-0.001377,-85.632831,0.002741,
1510,570,-0.256308,-3.904461,0.999998,0.000158,-0.001281,0.002460,0.000324,0.002488,-0.001309,85.089924,0.002489,
1480,1530,-0.206812,-0.996814,0.999998,0.000159,-0.001151,0.002330,-0.000320,0.002359,-0.001181,-84.791251,0.002359,
1020,1440,0.183066,-1.167551,0.999999,0.000141,-0.001283,0.002329,0.000513,0.002401,-0.001355,82.074147,0.002407,
1630,1990,-0.041505,-0.080168,0.999999,0.000140,-0.000139,0.001837,0.000455,0.001937,-0.000239,77.631868,0.002112,
1540,1850,-0.119918,-0.337559,0.999998,0.000171,-0.000525,0.002045,0.000215,0.002063,-0.000543,85.261149,0.002138,
740,1950,0.121012,-0.170223,0.999998,0.000156,-0.000451,0.002161,-0.000623,0.002302,-0.000592,-77.252403,0.002391,
1720,1030,-0.883077,-2.512885,0.999998,0.000159,-0.001037,0.002462,0.000019,0.002462,-0.001037,89.689955,0.002472,
810,1690,0.324192,-0.750343,0.999998,0.000159,-0.001124,0.002406,0.000015,0.002406,-0.001124,89.764638,0.002407,
650,680,0.756432,-3.360509,0.999997,0.000189,-0.001286,0.002572,0.000098,0.002574,-0.001288,88.548384,0.002574,
690,370,0.468733,-4.186266,0.999998,0.000170,-0.001211,0.002549,-0.000016,0.002549,-0.001211,-89.756872,0.002550,
1590,1470,-0.374060,-1.252400,0.999998,0.000186,-0.001419,0.002631,-0.000176,0.002639,-0.001427,-87.513151,0.002642,
1870,620,-0.778679,-3.471992,0.999998,0.000189,-0.001291,0.002564,-0.000002,0.002564,-0.001291,-89.966092,0.002564,
1470,350,-0.142850,-4.432027,0.999998,0.000165,-0.000726,0.002044,0.000053,0.002045,-0.000727,88.910538,0.002073,
1500,1230,-0.421104,-1.851617,0.999998,0.000170,-0.001898,0.003293,-0.000061,0.003294,-0.001899,-89.332221,0.003307,
600,760,0.889446,-3.125455,0.999999,0.000140,-0.001214,0.002471,0.000081,0.002473,-0.001216,88.745935,0.002473,
1550,1130,-0.646024,-2.222364,0.999998,0.000181,-0.001274,0.003025,0.000342,0.003052,-0.001300,85.484428,0.003063,
1760,410,-0.482571,-4.095465,0.999997,0.000203,-0.001232,0.002531,0.000037,0.002531,-0.001233,89.436590,0.002532,
1170,1430,0.038021,-1.025017,0.999999,0.000119,-0.000706,0.001525,0.000371,0.001584,-0.000766,80.809616,0.001585,
1870,1230,-0.950365,-2.072498,0.999999,0.000144,-0.001136,0.002321,0.000087,0.002323,-0.001138,88.561784,0.002323,
1150,1320,0.049891,-1.206759,0.999998,0.000149,-0.000857,0.001382,0.000838,0.001661,-0.001135,71.592451,0.001698,
1900,490,-0.716073,-3.780112,0.999998,0.000000,-0.001211,0.002537,-0.000009,0.002537,-0.001211,-89.858822,0.002538,
730,210,0.269718,-4.621715,0.999998,0.000172,-0.000979,0.002438,0.000317,0.002467,-0.001008,84.749706,0.002481,
1420,1760,-0.092795,-0.478399,0.999998,0.000184,-0.000653,0.001921,-0.000045,0.001921,-0.000654,-88.997155,0.001954,
1450,1400,-0.204534,-1.271555,0.999998,0.000190,-0.001421,0.002473,-0.000561,0.002553,-0.001500,-81.967000,0.002566,
860,1490,0.380018,-1.212176,0.999998,0.000179,-0.001372,0.002652,0.000176,0.002660,-0.001380,87.504122,0.002660,
1070,710,0.137579,-3.727341,0.999998,0.000158,-0.001368,0.002291,-0.000830,0.002470,-0.001548,-77.801626,0.002497,
860,1230,0.598737,-1.950962,0.999997,0.000182,-0.001582,0.002963,-0.000251,0.002976,-0.001596,-86.842632,0.002979,
930,80,0.036303,-4.937276,0.999998,0.000156,-0.000134,0.001733,0.000271,0.001772,-0.000173,81.919741,0.001954,
850,1990,0.039022,-0.079761,0.999999,0.000135,-0.000161,0.001803,-0.000428,0.001892,-0.000250,-78.217102,0.002056,
1550,600,-0.324552,-3.788675,0.999997,0.000202,-0.001433,0.002608,0.000276,0.002627,-0.001452,86.112413,0.002632,
1720,540,-0.522287,-3.794596,0.999998,0.000195,-0.001359,0.002593,0.000047,0.002594,-0.001360,89.321883,0.002595,
1270,1510,-0.024438,-0.887573,0.999998,0.000150,-0.000630,0.001668,-0.000145,0.001677,-0.000639,-86.404358,0.001692,
1710,1660,-0.410107,-0.866441,0.999998,0.000162,-0.001229,0.002494,-0.000030,0.002494,-0.001229,-89.533245,0.002494,
1810,90,-0.154463,-4.876024,0.999998,0.000152,-0.000654,0.002525,-0.000847,0.002736,-0.000865,-75.975486,0.002797,
1440,1250,-0.277879,-1.672237,0.999997,0.000187,-0.001924,0.003083,-0.000593,0.003152,-0.001993,-83.331933,0.003189,
660,30,0.023836,-5.017156,0.999999,0.000000,0.000003,0.002151,0.001009,0.002550,-0.000396,68.389967,0.002745,
1390,600,-0.120991,-3.969661,0.999998,0.000141,-0.001024,0.002068,0.000517,0.002152,-0.001109,80.751191,0.002152,
1890,1760,-0.546683,-0.769388,0.999998,0.000204,-0.001199,0.002453,-0.000035,0.002453,-0.001199,-89.456715,0.002453,
800,670,0.539851,-3.490924,0.999997,0.000215,-0.001487,0.002767,0.000040,0.002767,-0.001487,89.462678,0.002769,
1330,190,-0.029398,-4.768288,0.999999,0.000156,-0.000350,0.001702,-0.000024,0.001702,-0.000350,-89.320291,0.001798,
1600,310,-0.233805,-4.451993,0.999998,0.000194,-0.000930,0.002273,-0.000050,0.002274,-0.000930,-89.098779,0.002287,
1000,710,0.245580,-3.602599,0.999998,0.000197,-0.001667,0.002759,-0.000541,0.002824,-0.001732,-83.127035,0.002848,
1520,1850,-0.110926,-0.333332,0.999998,0.000169,-0.000522,0.001995,0.000158,0.002005,-0.000532,86.414453,0.002077,
640,1550,0.630569,-1.236481,0.999998,0.000186,-0.001264,0.002561,0.000039,0.002562,-0.001265,89.418840,0.002562,
1680,820,-0.707849,-3.063604,0.999998,0.000173,-0.001379,0.002728,-0.000284,0.002748,-0.001399,-86.065877,0.002748,
810,1670,0.336644,-0.799654,0.999998,0.000162,-0.001147,0.002480,0.000012,0.002480,-0.001147,89.806430,0.002483,
1380,1970,-0.016073,-0.100850,0.999998,0.000157,-0.000099,0.001590,0.000099,0.001596,-0.000105,86.664732,0.001785,
780,2010,0.032541,-0.047628,0.999999,0.000122,-0.000197,0.001816,-0.000490,0.001929,-0.000310,-77.014472,0.002072,
1890,1720,-0.583459,-0.867855,0.999998,0.000161,-0.001227,0.002412,-0.000002,0.002412,-0.001227,-89.972262,0.002412,
770,1330,0.633298,-1.721768,0.999998,0.000180,-0.001449,0.002754,-0.000153,0.002760,-0.001454,-87.922617,0.002761,
970,440,0.196027,-4.223283,0.999998,0.000159,-0.000964,0.002219,-0.000194,0.002231,-0.000976,-86.517962,0.002237,
1670,1180,-0.746588,-2.122368,0.999998,0.000188,-0.001233,0.002689,0.000295,0.002711,-0.001255,85.716509,0.002713,
650,700,0.774141,-3.309342,0.999998,0.000172,-0.001276,0.002556,0.000111,0.002559,-0.001279,88.348836,0.002559,
1650,220,-0.205622,-4.634097,0.999998,0.000159,-0.000798,0.002248,-0.000253,0.002269,-0.000819,-85.281770,0.002298,
1640,480,-0.379000,-4.014876,0.999998,0.000174,-0.001268,0.002513,0.000117,0.002516,-0.001271,88.233474,0.002516,
1110,480,0.079919,-4.233326,0.999999,0.000143,-0.000723,0.001901,-0.000202,0.001917,-0.000738,-85.625660,0.001934,
1820,670,-0.757222,-3.380892,0.999998,0.000167,-0.001294,0.002570,-0.000082,0.002572,-0.001296,-88.788655,0.002572,
570,760,0.925983,-3.103262,0.999993,0.000273,-0.001353,0.002454,-0.000013,0.002454,-0.001353,-89.802189,0.002458,
980,1400,0.251773,-1.318369,0.999998,0.000173,-0.001511,0.002614,0.000467,0.002666,-0.001563,83.624593,0.002679,
690,350,0.452812,-4.237789,0.999998,0.000173,-0.001215,0.002524,0.000007,0.002524,-0.001215,89.900317,0.002525,
1500,1210,-0.448807,-1.917712,0.999998,0.000175,-0.001887,0.003336,0.000020,0.003336,-0.001887,89.786051,0.003346,
940,1000,0.686861,-2.600644,0.999997,0.000189,-0.000931,0.003045,0.000155,0.003051,-0.000937,87.766503,0.003126,
1760,840,-0.831425,-2.979764,0.999998,0.000162,-0.001251,0.002530,-0.000240,0.002546,-0.001267,-86.386983,0.002546,
1460,1530,-0.183968,-0.979605,0.999999,0.000145,-0.001073,0.002263,-0.000313,0.002293,-0.001102,-84.687053,0.002293,
900,560,0.323635,-3.877253,0.999998,0.000184,-0.001346,0.002555,-0.000233,0.002569,-0.001360,-86.586983,0.002570,
1850,410,-0.593357,-4.023758,0.999998,0.000164,-0.001240,0.002523,0.000046,0.002524,-0.001241,89.299502,0.002524,
1380,160,-0.035916,-4.815295,0.999999,0.000137,-0.000231,0.001708,-0.000102,0.001713,-0.000237,-86.995413,0.001857,
640,1940,0.215482,-0.235444,0.999998,0.000158,-0.000995,0.002626,-0.000524,0.002701,-0.001070,-81.937761,0.002720,
600,740,0.871069,-3.176703,0.999999,0.000134,-0.001239,0.002467,0.000063,0.002468,-0.001240,89.026793,0.002468,
1220,1840,0.005166,-0.307413,0.999998,0.000186,-0.000368,0.001697,0.000002,0.001697,-0.000368,89.938959,0.001786,
730,190,0.244358,-4.669919,0.999998,0.000156,-0.000920,0.002413,0.000354,0.002451,-0.000957,84.010241,0.002470,
1900,370,-0.626574,-4.078041,0.999998,0.000000,-0.001250,0.002500,-0.000027,0.002500,-0.001250,-89.588108,0.002500,
1800,930,-0.940665,-2.748764,0.999998,0.000151,-0.001116,0.002390,-0.000178,0.002399,-0.001125,-87.102847,0.002401,
1420,1780,-0.086382,-0.439433,0.999998,0.000176,-0.000598,0.001917,-0.000010,0.001917,-0.000598,-89.780944,0.001962,
850,1970,0.060731,-0.117216,0.999998,0.000144,-0.000240,0.001873,-0.000412,0.001950,-0.000317,-79.351820,0.002093,
1410,880,-0.340841,-3.212619,0.999997,0.000192,-0.001761,0.003280,0.000785,0.003400,-0.001880,81.351343,0.003406,
1810,70,-0.108168,-4.927475,0.999998,0.000155,-0.000489,0.002495,-0.000936,0.002765,-0.000758,-73.946843,0.002857,
1070,690,0.132743,-3.774717,0.999998,0.000149,-0.001281,0.002232,-0.000771,0.002394,-0.001443,-78.142589,0.002410,
1300,1590,-0.042742,-0.756162,0.999998,0.000166,-0.000651,0.001804,-0.000148,0.001813,-0.000660,-86.568874,0.001835,
770,30,0.018811,-5.018504,0.999999,0.000000,-0.000034,0.001854,0.000591,0.002024,-0.000204,73.979385,0.002228,
1100,210,0.043124,-4.728678,0.999999,0.000138,-0.000362,0.001748,0.000056,0.001749,-0.000363,88.477159,0.001846,
1020,1420,0.188626,-1.214842,0.999998,0.000172,-0.001323,0.002370,0.000551,0.002451,-0.001403,81.690023,0.002459,
1000,690,0.235432,-3.657382,0.999998,0.000181,-0.001594,0.002689,-0.000548,0.002758,-0.001663,-82.822089,0.002778,
1390,580,-0.117712,-4.010084,0.999999,0.000131,-0.000982,0.002010,0.000452,0.002077,-0.001049,81.594786,0.002077,
700,1850,0.296730,-0.429633,0.999998,0.000176,-0.001151,0.002492,-0.000256,0.002510,-0.001169,-86.001718,0.002512,
1440,1230,-0.302903,-1.733991,0.999997,0.000205,-0.001964,0.003186,-0.000530,0.003240,-0.002018,-84.181330,0.003273,
1130,1720,0.053090,-0.528916,0.999998,0.000180,-0.000576,0.001815,0.000075,0.001817,-0.000579,88.193844,0.001856,
1880,1720,-0.570993,-0.860469,0.999998,0.000150,-0.001224,0.002447,-0.000030,0.002447,-0.001224,-89.533795,0.002447,
1330,210,-0.032407,-4.735806,0.999998,0.000161,-0.000376,0.001736,0.000001,0.001736,-0.000376,89.973600,0.001827,
1680,800,-0.686954,-3.117708,0.999998,0.000167,-0.001420,0.002777,-0.000268,0.002794,-0.001437,-86.358078,0.002794,
1550,1320,-0.413715,-1.631343,0.999997,0.000195,-0.001744,0.003013,-0.000132,0.003016,-0.001748,-88.414691,0.003029,
1080,1850,0.046999,-0.302664,0.999998,0.000151,-0.000331,0.001771,-0.000089,0.001775,-0.000334,-87.579930,0.001887,
770,1310,0.651367,-1.776520,0.999998,0.000175,-0.001422,0.002744,-0.000182,0.002752,-0.001430,-87.501496,0.002753,
1310,340,-0.039149,-4.507768,0.999998,0.000144,-0.000537,0.001809,0.000032,0.001810,-0.000537,89.214021,0.001859,
1870,830,-0.955096,-2.956240,0.999999,0.000119,-0.001136,0.002337,-0.000095,0.002340,-0.001139,-88.442160,0.002340,
1550,1150,-0.620246,-2.161492,0.999998,0.000172,-0.001384,0.003103,0.000356,0.003131,-0.001412,85.493104,0.003136,
1650,240,-0.223967,-4.590320,0.999998,0.000170,-0.000840,0.002319,-0.000217,0.002334,-0.000855,-86.092951,0.002362,
810,1650,0.351031,-0.849780,0.999998,0.000168,-0.001157,0.002479,0.000049,0.002480,-0.001158,89.231999,0.002481,
1270,1490,-0.022913,-0.920332,0.999999,0.000139,-0.000632,0.001626,-0.000151,0.001636,-0.000642,-86.188709,0.001648,
840,230,0.195003,-4.623134,0.999998,0.000175,-0.000720,0.002233,0.000235,0.002252,-0.000739,85.481937,0.002296,
740,1910,0.178753,-0.260702,0.999998,0.000181,-0.000656,0.002281,-0.000528,0.002373,-0.000748,-80.117835,0.002427,
1670,960,-0.812217,-2.693152,0.999998,0.000143,-0.001094,0.002584,-0.000240,0.002600,-0.001109,-86.284344,0.002609,
1720,520,-0.507856,-3.847619,0.999998,0.000179,-0.001334,0.002580,0.000048,0.002581,-0.001335,89.299671,0.002581,
1060,1790,0.072873,-0.415661,0.999998,0.000189,-0.000525,0.001867,-0.000041,0.001868,-0.000526,-89.014702,0.001926,
610,700,0.824383,-3.281819,0.999997,0.000177,-0.001262,0.002527,0.000068,0.002529,-0.001263,88.965741,0.002529,
900,540,0.313603,-3.928588,0.999998,0.000172,-0.001308,0.002537,-0.000214,0.002549,-0.001320,-86.821528,0.002550,
690,330,0.436003,-4.288288,0.999998,0.000173,-0.001197,0.002518,-0.000002,0.002518,-0.001197,-89.973739,0.002519,
1640,460,-0.367736,-4.064199,0.999998,0.000181,-0.001220,0.002479,0.000090,0.002482,-0.001222,88.609688,0.002482,
780,690,0.586675,-3.421676,0.999997,0.000214,-0.001441,0.002744,0.000076,0.002745,-0.001442,88.956634,0.002747,
660,590,0.668958,-3.600356,0.999998,0.000172,-0.001307,0.002593,0.000029,0.002594,-0.001307,89.574919,0.002594,
1490,1080,-0.634455,-2.345293,0.999998,0.000167,-0.001147,0.003336,0.000179,0.003343,-0.001154,87.715520,0.003396,
730,170,0.218562,-4.717577,0.999998,0.000158,-0.000863,0.002392,0.000418,0.002445,-0.000916,82.802944,0.002470,
640,1920,0.253586,-0.288786,0.999998,0.000209,-0.001062,0.002629,-0.000448,0.002682,-0.001116,-83.176396,0.002695,
600,720,0.855442,-3.223948,0.999998,0.000152,-0.001243,0.002443,0.000056,0.002443,-0.001243,89.136548,0.002444,
1820,650,-0.740204,-3.433269,0.999998,0.000171,-0.001292,0.002587,-0.000048,0.002587,-0.001293,-89.285260,0.002587,
1220,1820,0.004174,-0.343808,0.999998,0.000153,-0.000390,0.001721,0.000008,0.001721,-0.000390,89.786487,0.001804,
940,980,0.674328,-2.662115,0.999998,0.000184,-0.001009,0.003091,0.000224,0.003103,-0.001021,86.882386,0.003163,
980,1380,0.259060,-1.372296,0.999998,0.000197,-0.001583,0.002690,0.000470,0.002741,-0.001634,83.795761,0.002758,
1800,910,-0.930074,-2.796851,0.999999,0.000115,-0.001126,0.002392,-0.000169,0.002401,-0.001134,-87.256143,0.002402,
1800,1980,-0.117231,-0.123613,0.999998,0.000147,-0.000405,0.002450,0.000993,0.002761,-0.000716,72.586214,0.002866,
1430,290,-0.098086,-4.567588,0.999998,0.000169,-0.000608,0.001945,0.000010,0.001945,-0.000608,89.769033,0.001990,
1870,1430,-0.782075,-1.581190,0.999997,0.000233,-0.001250,0.002543,0.000013,0.002543,-0.001250,89.810380,0.002544,
850,1950,0.075184,-0.153483,0.999999,0.000140,-0.000342,0.001921,-0.000379,0.001983,-0.000404,-80.745796,0.002096,
1900,350,-0.607548,-4.129670,0.999998,0.000000,-0.001211,0.002474,-0.000046,0.002474,-0.001211,-89.287247,0.002475,
760,2020,0.025045,-0.032340,0.999999,0.000000,-0.000018,0.001861,-0.000610,0.002041,-0.000199,-73.500435,0.002251,
1160,1590,0.044443,-0.757159,0.999999,0.000125,-0.000678,0.001812,0.000139,0.001820,-0.000686,86.814406,0.001838,
1230,760,0.000545,-3.892095,0.999999,0.000136,-0.000502,0.000659,-0.000018,0.000660,-0.000503,-89.131361,0.000689,
1020,1400,0.193696,-1.262551,0.999998,0.000179,-0.001360,0.002443,0.000584,0.002531,-0.001447,81.468816,0.002539,
1110,1720,0.063427,-0.535694,0.999998,0.000182,-0.000549,0.001860,0.000060,0.001862,-0.000550,88.563981,0.001913,
910,80,0.038806,-4.937930,0.999999,0.000110,-0.000179,0.001744,0.000326,0.001798,-0.000232,80.637115,0.001956,
1240,1530,-0.004963,-0.848228,0.999999,0.000115,-0.000635,0.001653,-0.000041,0.001654,-0.000635,-88.981298,0.001668,
680,1870,0.293459,-0.392050,0.999998,0.000172,-0.001085,0.002531,-0.000356,0.002565,-0.001119,-84.435474,0.002572,
1060,1850,0.056206,-0.305866,0.999998,0.000190,-0.000401,0.001795,-0.000072,0.001797,-0.000403,-88.112790,0.001886,
1680,780,-0.665779,-3.174257,0.999998,0.000182,-0.001449,0.002780,-0.000227,0.002792,-0.001461,-86.940731,0.002793,
810,1630,0.362705,-0.899600,0.999998,0.000165,-0.001187,0.002445,0.000077,0.002447,-0.001188,88.787856,0.002447,
1760,1370,-0.690955,-1.657142,0.999998,0.000186,-0.001345,0.002638,0.000105,0.002641,-0.001348,88.486567,0.002641,
980,850,0.423496,-3.132510,0.999998,0.000207,-0.001909,0.003371,-0.000034,0.003371,-0.001909,-89.631216,0.003381,
730,150,0.191572,-4.765517,0.999998,0.000148,-0.000780,0.002340,0.000508,0.002421,-0.000861,80.973486,0.002454,
570,1550,0.725913,-1.287603,0.999916,0.001157,-0.001992,0.002521,-0.000074,0.002523,-0.001993,-89.055798,0.002660,
1890,460,-0.683144,-3.864296,0.999998,0.000178,-0.001254,0.002501,0.000029,0.002501,-0.001254,89.560780,0.002501,
1080,210,0.049787,-4.727156,0.999999,0.000132,-0.000331,0.001760,0.000083,0.001764,-0.000335,87.725729,0.001874,
720,1110,0.884896,-2.317992,0.999998,0.000142,-0.001131,0.002464,-0.000198,0.002475,-0.001142,-86.860068,0.002478,
1330,340,-0.051644,-4.503078,0.999998,0.000163,-0.000579,0.001820,0.000061,0.001821,-0.000581,88.555954,0.001861,
1870,820,-0.947494,-2.979880,0.999999,0.000112,-0.001147,0.002318,-0.000092,0.002320,-0.001149,-88.487929,0.002320,
770,1290,0.671669,-1.831388,0.999998,0.000174,-0.001422,0.002739,-0.000219,0.002750,-0.001433,-87.000916,0.002751,
640,1900,0.288987,-0.341637,0.999998,0.000201,-0.001090,0.002611,-0.000354,0.002645,-0.001123,-84.584621,0.002655,
1040,930,0.466983,-2.986263,0.999998,0.000170,-0.001654,0.003757,-0.000780,0.003867,-0.001764,-81.961870,0.003872,
1630,560,-0.413394,-3.817349,0.999998,0.000150,-0.001393,0.002625,0.000142,0.002630,-0.001398,87.972366,0.002632,
1070,670,0.129393,-3.818254,0.999999,0.000136,-0.001211,0.002174,-0.000704,0.002315,-0.001352,-78.706342,0.002326,
1220,1800,0.005744,-0.376947,0.999998,0.000173,-0.000415,0.001688,0.000010,0.001688,-0.000415,89.716291,0.001759,
690,550,0.600191,-3.729113,0.999998,0.000167,-0.001293,0.002599,-0.000008,0.002599,-0.001293,-89.880287,0.002599,
1530,1340,-0.363176,-1.549171,0.999997,0.000188,-0.001721,0.002908,-0.000226,0.002919,-0.001732,-87.212262,0.002935,
1870,680,-0.829638,-3.319526,0.999998,0.000191,-0.001246,0.002518,-0.000028,0.002518,-0.001246,-89.569214,0.002518,
1040,1790,0.083983,-0.421614,0.999998,0.000216,-0.000585,0.001881,-0.000019,0.001881,-0.000585,-89.550523,0.001925,
1640,440,-0.356154,-4.113806,0.999998,0.000168,-0.001205,0.002479,0.000093,0.002482,-0.001207,88.560105,0.002482,
740,1890,0.205671,-0.307369,0.999998,0.000146,-0.000742,0.002387,-0.000467,0.002455,-0.000810,-81.682920,0.002502,
860,220,0.173088,-4.651511,0.999998,0.000180,-0.000721,0.002149,0.000220,0.002166,-0.000738,85.634143,0.002202,
1520,1590,-0.231701,-0.892926,0.999999,0.000145,-0.001080,0.002332,-0.000193,0.002343,-0.001091,-86.771729,0.002345,
840,210,0.177407,-4.666366,0.999998,0.000159,-0.000664,0.002176,0.000300,0.002207,-0.000695,84.027161,0.002257,
760,30,0.020318,-5.019794,0.999999,0.000000,0.000050,0.001911,0.000635,0.002107,-0.000146,72.846068,0.002354,
1430,270,-0.090234,-4.607139,0.999998,0.000181,-0.000553,0.001917,-0.000003,0.001917,-0.000553,-89.920393,0.001973,
1800,1960,-0.162022,-0.173599,0.999998,0.000146,-0.000599,0.002457,0.000855,0.002680,-0.000822,75.382089,0.002746,
600,1140,1.001243,-2.274489,0.999998,0.000155,-0.001081,0.002245,-0.000105,0.002248,-0.001084,-88.193659,0.002249,
1270,1470,-0.022993,-0.951931,0.999999,0.000137,-0.000635,0.001549,-0.000137,0.001557,-0.000643,-86.421491,0.001565,
650,1240,0.876070,-2.019158,0.999998,0.000146,-0.001225,0.002430,-0.000193,0.002441,-0.001235,-86.982740,0.002441,
1720,500,-0.494144,-3.897053,0.999997,0.000189,-0.001315,0.002571,0.000065,0.002572,-0.001316,89.035428,0.002572,
1720,1930,-0.149659,-0.214225,0.999999,0.000123,-0.000550,0.002230,0.000603,0.002355,-0.000676,78.269782,0.002425,
1020,1380,0.198430,-1.313360,0.999998,0.000182,-0.001432,0.002503,0.000623,0.002600,-0.001528,81.213917,0.002613,
1800,890,-0.918510,-2.843159,0.999998,0.000151,-0.001158,0.002382,-0.000176,0.002391,-0.001167,-87.166215,0.002391,
990,280,0.119036,-4.572562,0.999998,0.000144,-0.000593,0.001995,0.000070,0.001997,-0.000595,88.457673,0.002050,
1190,80,0.003988,-4.948850,0.999998,0.000163,-0.000084,0.001536,0.000047,0.001538,-0.000085,88.343568,0.001728,
1550,1170,-0.592968,-2.099511,0.999997,0.000180,-0.001506,0.003096,0.000339,0.003121,-0.001531,85.805659,0.003121,
1220,210,0.003738,-4.739827,0.999998,0.000156,-0.000316,0.001680,-0.000007,0.001680,-0.000316,-89.799270,0.001786,
1000,850,0.386092,-3.167851,0.999998,0.000204,-0.001895,0.003418,-0.000216,0.003427,-0.001904,-87.677400,0.003434,
1210,760,0.010311,-3.884232,0.999999,0.000136,-0.000554,0.000702,-0.000307,0.000773,-0.000624,-76.974660,0.000820,
940,1850,0.113169,-0.334281,0.999998,0.000176,-0.000526,0.001968,-0.000177,0.001981,-0.000539,-85.972193,0.002048,
1680,760,-0.648060,-3.229420,0.999998,0.000184,-0.001461,0.002771,-0.000189,0.002779,-0.001469,-87.453731,0.002781,
1500,1190,-0.479374,-1.984496,0.999998,0.000196,-0.001828,0.003344,0.000110,0.003347,-0.001830,88.786432,0.003352,
850,1930,0.096138,-0.193725,0.999999,0.000150,-0.000424,0.001969,-0.000380,0.002028,-0.000483,-81.184585,0.002119,
810,1240,0.663160,-1.950700,0.999998,0.000179,-0.001459,0.002825,-0.000291,0.002844,-0.001479,-86.130305,0.002845,
930,1580,0.248958,-0.927543,0.999998,0.000172,-0.001113,0.002367,0.000229,0.002382,-0.001128,86.252807,0.002383,
1220,1530,0.006825,-0.848812,0.999999,0.000148,-0.000620,0.001671,0.000063,0.001672,-0.000622,88.432045,0.001691,
1630,540,-0.402408,-3.869898,0.999998,0.000163,-0.001362,0.002571,0.000127,0.002575,-0.001366,88.146075,0.002577,
1070,650,0.127602,-3.860932,0.999998,0.000146,-0.001163,0.002131,-0.000672,0.002263,-0.001295,-78.901357,0.002271,
1220,1780,0.004589,-0.410573,0.999998,0.000168,-0.000454,0.001735,0.000012,0.001735,-0.000454,89.696881,0.001800,
640,1880,0.320497,-0.394543,0.999998,0.000193,-0.001119,0.002624,-0.000285,0.002645,-0.001141,-85.675719,0.002654,
1740,1370,-0.663907,-1.643599,0.999998,0.000182,-0.001381,0.002677,0.000107,0.002680,-0.001383,88.496482,0.002681,
690,310,0.419169,-4.337774,0.999998,0.000181,-0.001193,0.002535,0.000019,0.002535,-0.001193,89.700514,0.002537,
870,1300,0.506031,-1.734622,0.999997,0.000193,-0.001670,0.002964,-0.000077,0.002965,-0.001671,-89.054154,0.002973,
810,1610,0.373706,-0.947490,0.999998,0.000174,-0.001217,0.002491,0.000086,0.002493,-0.001219,88.673295,0.002493,
780,2000,0.042913,-0.066127,0.999999,0.000122,-0.000235,0.001839,-0.000516,0.001960,-0.000356,-76.776074,0.002088,
750,2020,0.023955,-0.031788,0.999999,0.000000,-0.000006,0.001916,-0.000673,0.002128,-0.000218,-72.510629,0.002342,
1900,340,-0.600005,-4.153541,0.999998,0.000000,-0.001198,0.002411,-0.000032,0.002412,-0.001198,-89.490143,0.002412,
730,130,0.162478,-4.811686,0.999998,0.000149,-0.000702,0.002311,0.000561,0.002412,-0.000803,79.784411,0.002456,
680,1850,0.319186,-0.444043,0.999997,0.000197,-0.001113,0.002531,-0.000282,0.002553,-0.001134,-85.593403,0.002558,
860,1650,0.293608,-0.813260,0.999998,0.000153,-0.001088,0.002421,0.000049,0.002422,-0.001089,89.201930,0.002426,
1500,1590,-0.209601,-0.877175,0.999998,0.000159,-0.001014,0.002268,-0.000209,0.002282,-0.001028,-86.368920,0.002285,
1720,480,-0.482082,-3.951028,0.999997,0.000192,-0.001298,0.002573,0.000074,0.002574,-0.001299,88.908648,0.002574,
1540,1450,-0.311995,-1.255618,0.999998,0.000178,-0.001396,0.002626,-0.000289,0.002647,-0.001417,-85.913002,0.002649,
1650,1660,-0.340494,-0.822369,0.999998,0.000181,-0.001151,0.002454,-0.000027,0.002455,-0.001151,-89.563058,0.002456,
1700,570,-0.516076,-3.732230,0.999998,0.000207,-0.001362,0.002647,0.000062,0.002648,-0.001363,89.116940,0.002648,
940,960,0.655684,-2.724882,0.999998,0.000176,-0.001132,0.003086,0.000304,0.003108,-0.001153,85.893054,0.003142,
900,520,0.303545,-3.978923,0.999998,0.000174,-0.001275,0.002487,-0.000206,0.002498,-0.001286,-86.872927,0.002499,
1610,540,-0.374828,-3.885747,0.999998,0.000165,-0.001352,0.002555,0.000146,0.002561,-0.001358,87.869936,0.002562,
1250,400,-0.010540,-4.408268,0.999999,0.000128,-0.000601,0.001791,0.000061,0.001792,-0.000603,88.551743,0.001824,
1840,750,-0.850794,-3.165162,0.999998,0.000159,-0.001234,0.002484,-0.000136,0.002489,-0.001239,-87.910137,0.002489,
1380,180,-0.039586,-4.781615,0.999999,0.000149,-0.000258,0.001749,-0.000094,0.001753,-0.000263,-87.320469,0.001891,
980,1360,0.270365,-1.427401,0.999998,0.000206,-0.001670,0.002766,0.000479,0.002817,-0.001721,83.907960,0.002840,
1520,250,-0.137071,-4.616685,0.999998,0.000154,-0.000662,0.002076,-0.000119,0.002081,-0.000668,-87.512025,0.002125,
1500,890,-0.519118,-2.973069,0.999998,0.000171,-0.001660,0.003327,-0.000211,0.003336,-0.001669,-87.586928,0.003336,
1270,1450,-0.022388,-0.981524,0.999999,0.000141,-0.000630,0.001518,-0.000166,0.001530,-0.000643,-85.600405,0.001537,
1170,1410,0.038654,-1.055467,0.999999,0.000141,-0.000694,0.001477,0.000405,0.001550,-0.000767,79.762061,0.001550,
1890,680,-0.854595,-3.303814,0.999998,0.000175,-0.001220,0.002550,-0.000023,0.002551,-0.001220,-89.644554,0.002551,
590,300,0.531843,-4.275350,0.999998,0.000187,-0.001441,0.002472,-0.000018,0.002472,-0.001441,-89.734406,0.002483,
1800,1940,-0.195966,-0.224202,0.999998,0.000150,-0.000794,0.002556,0.000698,0.002696,-0.000933,78.686847,0.002738,
1280,210,-0.015737,-4.737957,0.999998,0.000193,-0.000285,0.001688,-0.000013,0.001688,-0.000285,-89.631551,0.001807,
770,1500,0.496676,-1.262087,0.999998,0.000185,-0.001351,0.002618,0.000064,0.002619,-0.001352,89.080575,0.002619,
1070,630,0.127953,-3.902665,0.999999,0.000139,-0.001125,0.002095,-0.000609,0.002207,-0.001236,-79.641968,0.002212,
850,1890,0.133585,-0.274935,0.999998,0.000152,-0.000561,0.002080,-0.000355,0.002127,-0.000608,-82.482202,0.002191,
1170,80,0.005360,-4.949017,0.999999,0.000125,-0.000086,0.001533,0.000054,0.001535,-0.000087,88.091938,0.001724,
1660,690,-0.552381,-3.439256,0.999997,0.000189,-0.001487,0.002765,-0.000063,0.002765,-0.001488,-89.155237,0.002768,
1700,1950,-0.110789,-0.166832,0.999998,0.000158,-0.000417,0.002116,0.000574,0.002240,-0.000542,77.802894,0.002337,
1090,340,0.075537,-4.490877,0.999998,0.000179,-0.000551,0.001876,-0.000055,0.001878,-0.000552,-88.707031,0.001930,
750,30,0.015822,-5.018879,0.999999,0.000000,0.000096,0.001941,0.000656,0.002150,-0.000114,72.281964,0.002420,
1810,620,-0.702108,-3.517098,0.999998,0.000177,-0.001301,0.002570,-0.000044,0.002570,-0.001301,-89.345138,0.002570,
1680,740,-0.627335,-3.285121,0.999998,0.000177,-0.001479,0.002778,-0.000177,0.002786,-0.001487,-87.618724,0.002788,
600,1160,0.991194,-2.228907,0.999999,0.000138,-0.001086,0.002210,-0.000082,0.002212,-0.001088,-88.576167,0.002212,
1760,1310,-0.745571,-1.812891,0.999998,0.000154,-0.001353,0.002641,0.000188,0.002650,-0.001362,87.304879,0.002650,
1110,620,0.086074,-3.969790,0.999999,0.000132,-0.000918,0.001849,-0.000536,0.001949,-0.001019,-79.416195,0.001950,
1020,1580,0.156237,-0.855542,0.999998,0.000159,-0.000953,0.002176,0.000277,0.002200,-0.000977,84.974252,0.002205,
1640,420,-0.344718,-4.164098,0.999998,0.000163,-0.001165,0.002475,0.000074,0.002477,-0.001167,88.837015,0.002478,
1890,820,-0.968897,-2.967577,0.999999,0.000120,-0.001109,0.002302,-0.000057,0.002303,-0.001110,-89.043172,0.002303,
770,2000,0.046015,-0.068413,0.999999,0.000123,-0.000212,0.001843,-0.000549,0.001980,-0.000349,-75.938285,0.002114,
730,110,0.132358,-4.857335,0.999998,0.000146,-0.000594,0.002236,0.000584,0.002352,-0.000710,78.779273,0.002412,
850,1300,0.538910,-1.751746,0.999997,0.000206,-0.001634,0.002921,-0.000115,0.002924,-0.001637,-88.551638,0.002931,
1900,330,-0.590918,-4.176941,0.999997,0.000000,-0.001182,0.002373,-0.000016,0.002373,-0.001182,-89.749213,0.002373,
920,1850,0.121891,-0.337878,0.999998,0.000166,-0.000518,0.002035,-0.000216,0.002053,-0.000536,-85.197005,0.002130,
640,1860,0.349754,-0.446618,0.999997,0.000201,-0.001137,0.002570,-0.000214,0.002583,-0.001149,-86.706406,0.002588,
770,1270,0.690923,-1.885292,0.999998,0.000183,-0.001429,0.002738,-0.000246,0.002752,-0.001444,-86.636338,0.002753,
1740,1250,-0.775322,-1.961607,0.999999,0.000147,-0.001345,0.002602,0.000253,0.002619,-0.001361,86.341311,0.002619,
810,1590,0.386141,-0.998014,0.999998,0.000185,-0.001265,0.002509,0.000095,0.002511,-0.001267,88.560054,0.002511,
1430,250,-0.083968,-4.643215,0.999998,0.000183,-0.000511,0.001879,-0.000029,0.001880,-0.000511,-89.293137,0.001944,
1850,630,-0.759804,-3.461338,0.999997,0.000202,-0.001244,0.002568,-0.000024,0.002568,-0.001244,-89.635167,0.002568,
1760,820,-0.814280,-3.031341,0.999998,0.000173,-0.001260,0.002580,-0.000260,0.002597,-0.001277,-86.146535,0.002597,
690,270,0.380814,-4.439937,0.999997,0.000224,-0.001188,0.002504,0.000129,0.002509,-0.001193,87.999892,0.002510,
1600,50,-0.026795,-4.987812,0.999999,0.000144,-0.000139,0.001705,-0.000370,0.001777,-0.000211,-79.070827,0.001941,
1470,370,-0.151300,-4.390599,0.999998,0.000161,-0.000791,0.002105,0.000080,0.002107,-0.000793,88.416303,0.002128,
970,640,0.261201,-3.747590,0.999998,0.000169,-0.001493,0.002585,-0.000415,0.002627,-0.001535,-84.240914,0.002639,
700,1770,0.383416,-0.631497,0.999998,0.000182,-0.001192,0.002519,-0.000087,0.002521,-0.001194,-88.661590,0.002522,
580,1430,0.798434,-1.591417,0.999998,0.000173,-0.001680,0.002615,0.000008,0.002615,-0.001680,89.891433,0.002650,
1510,550,-0.249341,-3.955291,0.999998,0.000163,-0.001221,0.002451,0.000311,0.002477,-0.001248,85.192922,0.002477,
1590,1450,-0.384756,-1.304398,0.999997,0.000179,-0.001450,0.002658,-0.000164,0.002665,-0.001457,-87.712868,0.002669,
900,500,0.294438,-4.029566,0.999998,0.000172,-0.001220,0.002430,-0.000202,0.002442,-0.001232,-86.840523,0.002442,
960,1170,0.516927,-2.054902,0.999998,0.000171,-0.001678,0.003342,-0.000211,0.003351,-0.001687,-87.592657,0.003351,
1030,560,0.163048,-4.007628,0.999998,0.000151,-0.001101,0.002184,-0.000420,0.002237,-0.001154,-82.833502,0.002237,
920,1430,0.326664,-1.310778,0.999998,0.000171,-0.001475,0.002646,0.000275,0.002664,-0.001494,86.196123,0.002671,
1380,200,-0.046593,-4.744658,0.999999,0.000140,-0.000303,0.001788,-0.000085,0.001792,-0.000306,-87.664063,0.001917,
1170,1390,0.035562,-1.084380,0.999998,0.000158,-0.000674,0.001411,0.000448,0.001503,-0.000767,78.365680,0.001503,
1550,1190,-0.564433,-2.036992,0.999998,0.000165,-0.001586,0.003133,0.000294,0.003151,-0.001604,86.448418,0.003152,
1110,1990,0.008161,-0.068958,0.999999,0.000126,-0.000065,0.001563,-0.000082,0.001568,-0.000069,-87.108998,0.001772,
1720,460,-0.467334,-4.000328,0.999997,0.000182,-0.001265,0.002525,0.000063,0.002526,-0.001266,89.041076,0.002526,
640,570,0.680005,-3.635863,0.999998,0.000168,-0.001309,0.002540,-0.000023,0.002541,-0.001309,-89.650869,0.002541,
1860,750,-0.876394,-3.152469,0.999999,0.000153,-0.001225,0.002472,-0.000111,0.002476,-0.001229,-88.280292,0.002476,
1230,1220,0.002452,-1.189323,0.999997,0.000203,-0.001766,0.000741,-0.000015,0.000742,-0.001766,-89.660864,0.001773,
1880,680,-0.842120,-3.311567,0.999998,0.000175,-0.001232,0.002537,-0.000018,0.002537,-0.001232,-89.729370,0.002538,
900,210,0.135447,-4.687013,0.999998,0.000143,-0.000610,0.002063,0.000212,0.002079,-0.000627,85.481871,0.002133,
1220,1760,0.005062,-0.445954,0.999998,0.000187,-0.000469,0.001777,0.000003,0.001777,-0.000469,89.931997,0.001842,
1330,650,-0.065960,-3.943550,0.999999,0.000157,-0.000846,0.001682,0.000582,0.001810,-0.000973,77.643299,0.001811,
580,300,0.543289,-4.266324,0.999998,0.000205,-0.002499,0.002287,-0.000336,0.002311,-0.002523,-86.005785,0.002799,
1680,720,-0.608707,-3.341683,0.999998,0.000187,-0.001510,0.002782,-0.000133,0.002786,-0.001514,-88.231461,0.002790,
740,2020,0.023441,-0.030283,0.999999,0.000000,-0.000007,0.001938,-0.000717,0.002174,-0.000243,-71.807872,0.002382,
1830,1440,-0.724385,-1.525072,0.999998,0.000176,-0.001288,0.002545,0.000029,0.002545,-0.001289,89.570458,0.002545,
860,310,0.237395,-4.450374,0.999998,0.000175,-0.000928,0.002299,0.000056,0.002300,-0.000929,88.998320,0.002314,
1070,610,0.124191,-3.944347,0.999999,0.000140,-0.001084,0.002046,-0.000562,0.002144,-0.001182,-80.127437,0.002148,
1090,360,0.079002,-4.453069,0.999998,0.000157,-0.000589,0.001912,-0.000064,0.001913,-0.000591,-88.536843,0.001960,
1410,80,-0.018422,-4.945087,0.999999,0.000123,-0.000147,0.001601,-0.000131,0.001611,-0.000157,-85.736413,0.001776,
1800,1920,-0.232411,-0.276183,0.999998,0.000165,-0.000904,0.002536,0.000589,0.002634,-0.001002,80.549512,0.002659,
1810,380,-0.520691,-4.130655,0.999998,0.000180,-0.001269,0.002519,0.000034,0.002519,-0.001269,89.485067,0.002519,
1710,1500,-0.520129,-1.275647,0.999998,0.000175,-0.001360,0.002628,-0.000066,0.002629,-0.001361,-89.045201,0.002629,
850,1870,0.149127,-0.314644,0.999998,0.000161,-0.000610,0.002123,-0.000291,0.002153,-0.000641,-83.987210,0.002211,
1900,320,-0.581908,-4.200392,0.999997,0.000000,-0.001185,0.002403,-0.000001,0.002403,-0.001185,-89.980195,0.002403,
1680,570,-0.488932,-3.749478,0.999998,0.000156,-0.001357,0.002645,0.000078,0.002646,-0.001359,88.879024,0.002647,
950,1420,0.287934,-1.304275,0.999998,0.000176,-0.001482,0.002615,0.000344,0.002643,-0.001511,85.229439,0.002652,
1020,1910,0.048044,-0.206500,0.999999,0.000150,-0.000281,0.001737,-0.000141,0.001747,-0.000291,-86.029763,0.001872,
840,1650,0.315546,-0.825199,0.999998,0.000153,-0.001143,0.002458,0.000096,0.002460,-0.001146,88.478279,0.002462,
1720,1250,-0.748130,-1.953260,0.999998,0.000180,-0.001360,0.002643,0.000248,0.002658,-0.001376,86.470092,0.002659,
1060,1450,0.135631,-1.097220,0.999998,0.000163,-0.001112,0.002149,0.000557,0.002241,-0.001204,80.570714,0.002243,
1050,1260,0.215006,-1.575064,0.999998,0.000200,-0.001875,0.002858,0.000800,0.002990,-0.002006,80.664338,0.003047,
1420,1970,-0.019411,-0.103017,0.999998,0.000191,-0.000160,0.001603,0.000145,0.001615,-0.000172,85.327901,0.001774,
1750,2010,-0.042870,-0.051518,0.999999,0.000146,-0.000286,0.002054,0.000762,0.002280,-0.000512,73.451365,0.002393,
1060,750,0.165135,-3.610540,0.999998,0.000144,-0.001652,0.002513,-0.000888,0.002695,-0.001833,-78.451709,0.002753,
1470,810,-0.340834,-3.289879,0.999997,0.000184,-0.001948,0.003231,0.000309,0.003250,-0.001966,86.598802,0.003273,
1640,400,-0.331351,-4.211467,0.999998,0.000152,-0.001138,0.002454,0.000055,0.002455,-0.001139,89.130039,0.002457,
1020,860,0.363468,-3.178035,0.999997,0.000189,-0.001943,0.003407,-0.000375,0.003433,-0.001969,-86.013755,0.003446,
1150,480,0.051590,-4.251269,0.999998,0.000181,-0.000703,0.001840,-0.000211,0.001857,-0.000721,-85.294561,0.001872,
600,1180,0.980625,-2.185340,0.999998,0.000141,-0.001089,0.002270,-0.000095,0.002273,-0.001091,-88.378460,0.002273,
810,1570,0.398391,-1.049320,0.999998,0.000173,-0.001313,0.002528,0.000094,0.002530,-0.001316,88.599853,0.002531,
1760,800,-0.796198,-3.082660,0.999998,0.000169,-0.001262,0.002549,-0.000239,0.002564,-0.001277,-86.419898,0.002564,
1850,390,-0.580424,-4.072694,0.999998,0.000170,-0.001236,0.002491,0.000042,0.002491,-0.001237,89.359570,0.002491,
680,1770,0.407793,-0.645773,0.999998,0.000169,-0.001208,0.002507,-0.000099,0.002510,-0.001211,-88.472620,0.002511,
590,1430,0.786543,-1.583434,0.999998,0.000160,-0.001378,0.002598,-0.000025,0.002598,-0.001379,-89.646908,0.002600,
1170,1370,0.036077,-1.112940,0.999999,0.000145,-0.000677,0.001369,0.000498,0.001484,-0.000792,77.019964,0.001485,
1590,1430,-0.395650,-1.359221,0.999998,0.000169,-0.001487,0.002745,-0.000179,0.002752,-0.001495,-87.576364,0.002756,
1030,480,0.147335,-4.181756,0.999998,0.000143,-0.000926,0.002099,-0.000263,0.002122,-0.000948,-85.070785,0.002126,
1110,1970,0.013165,-0.100952,0.999999,0.000145,-0.000105,0.001567,-0.000065,0.001569,-0.000107,-87.781299,0.001753,
1550,1630,-0.247642,-0.823411,0.999998,0.000156,-0.001098,0.002344,-0.000146,0.002351,-0.001104,-87.574434,0.002352,
1510,530,-0.244801,-4.001167,0.999998,0.000166,-0.001183,0.002383,0.000267,0.002403,-0.001203,85.742091,0.002403,
980,1340,0.282114,-1.484314,0.999997,0.000225,-0.001726,0.002857,0.000457,0.002902,-0.001771,84.359853,0.002925,
940,940,0.630672,-2.785855,0.999998,0.000177,-0.001284,0.003121,0.000324,0.003145,-0.001308,85.815547,0.003160,
1380,220,-0.051276,-4.709970,0.999998,0.000149,-0.000357,0.001759,-0.000057,0.001761,-0.000359,-88.451537,0.001861,
900,1450,0.345628,-1.279891,0.999998,0.000197,-0.001444,0.002611,0.000239,0.002625,-0.001458,86.632025,0.002631,
1720,440,-0.453339,-4.051032,0.999998,0.000181,-0.001240,0.002528,0.000051,0.002528,-0.001241,89.226401,0.002528,
1270,1430,-0.022180,-1.010990,0.999998,0.000163,-0.000619,0.001450,-0.000206,0.001470,-0.000639,-84.358436,0.001474,
1030,880,0.380274,-3.135386,0.999997,0.000223,-0.001819,0.003454,-0.000470,0.003496,-0.001861,-84.946922,0.003498,
640,550,0.663632,-3.686921,0.999998,0.000171,-0.001303,0.002569,-0.000034,0.002569,-0.001303,-89.493340,0.002569,
740,30,0.015991,-5.018906,0.999999,0.000000,0.000027,0.001957,0.000678,0.002171,-0.000188,72.451068,0.002406,
1390,80,-0.013822,-4.945462,0.999999,0.000131,-0.000111,0.001585,-0.000121,0.001594,-0.000120,-85.945708,0.001775,
1460,390,-0.149747,-4.353792,0.999998,0.000159,-0.000815,0.002099,0.000128,0.002104,-0.000820,87.484655,0.002121,
1430,230,-0.075830,-4.681743,0.999998,0.000178,-0.000490,0.001884,-0.000043,0.001885,-0.000490,-88.965521,0.001955,
1880,820,-0.958345,-2.973675,0.999999,0.000118,-0.001130,0.002307,-0.000071,0.002308,-0.001131,-88.824372,0.002308,
1070,590,0.122414,-3.986988,0.999998,0.000144,-0.001035,0.002047,-0.000518,0.002131,-0.001120,-80.715254,0.002132,
860,330,0.249749,-4.404269,0.999998,0.000157,-0.000961,0.002350,0.000037,0.002350,-0.000961,89.362228,0.002363,
1730,820,-0.775988,-3.043597,0.999998,0.000171,-0.001342,0.002639,-0.000278,0.002659,-0.001362,-86.020415,0.002659,
1800,490,-0.590998,-3.859385,0.999997,0.000189,-0.001280,0.002553,0.000046,0.002553,-0.001281,89.316028,0.002553,
1000,1910,0.053210,-0.208323,0.999998,0.000156,-0.000259,0.001757,-0.000173,0.001772,-0.000273,-85.118700,0.001908,
850,1850,0.166967,-0.359198,0.999998,0.000155,-0.000660,0.002163,-0.000267,0.002188,-0.000685,-84.647201,0.002238,
1800,1030,-0.968687,-2.514992,0.999998,0.000164,-0.001077,0.002350,0.000007,0.002350,-0.001077,89.885505,0.002352,
730,90,0.104118,-4.901075,0.999998,0.000154,-0.000517,0.002045,0.000595,0.002176,-0.000649,77.536162,0.002235,
1770,300,-0.406898,-4.365824,0.999997,0.000200,-0.001200,0.002554,-0.000062,0.002555,-0.001201,-89.050891,0.002557,
1850,240,-0.440247,-4.447993,0.999997,0.000200,-0.001217,0.002501,-0.000040,0.002501,-0.001217,-89.385822,0.002501,
1900,310,-0.572522,-4.224708,0.999998,0.000000,-0.001188,0.002448,0.000022,0.002448,-0.001188,89.645665,0.002448,
870,1280,0.526722,-1.794493,0.999998,0.000163,-0.001669,0.002968,-0.000123,0.002971,-0.001672,-88.477494,0.002979,
1680,940,-0.811801,-2.741915,0.999998,0.000164,-0.001120,0.002578,-0.000228,0.002592,-0.001134,-86.492622,0.002599,
1750,2000,-0.059332,-0.072368,0.999999,0.000127,-0.000376,0.002108,0.000744,0.002314,-0.000582,74.549232,0.002407,
990,1980,0.024129,-0.088832,0.999999,0.000106,-0.000118,0.001672,-0.000220,0.001698,-0.000145,-83.097768,0.001883,
1850,1660,-0.583297,-0.980933,0.999998,0.000191,-0.001249,0.002510,-0.000025,0.002510,-0.001249,-89.611772,0.002510,
920,1110,0.660083,-2.278984,0.999998,0.000183,-0.001183,0.003023,-0.000359,0.003054,-0.001214,-85.152531,0.003075,
600,1200,0.966179,-2.137495,0.999999,0.000119,-0.001104,0.002331,-0.000131,0.002336,-0.001109,-87.812348,0.002337,
1030,500,0.151901,-4.139762,0.999998,0.000178,-0.000987,0.002150,-0.000301,0.002179,-0.001016,-84.562864,0.002181,
710,1800,0.341661,-0.546878,0.999998,0.000202,-0.001184,0.002522,-0.000128,0.002526,-0.001188,-88.023864,0.002528,
1170,1350,0.034689,-1.136930,0.999999,0.000138,-0.000684,0.001316,0.000575,0.001469,-0.000837,75.054410,0.001474,
1520,850,-0.492741,-3.079941,0.999998,0.000175,-0.001763,0.003270,-0.000153,0.003275,-0.001768,-88.265062,0.003279,
810,1550,0.411802,-1.099419,0.999998,0.000157,-0.001313,0.002562,0.000107,0.002565,-0.001316,88.420567,0.002565,
980,1790,0.117982,-0.439492,0.999998,0.000161,-0.000617,0.002007,-0.000051,0.002008,-0.000618,-88.880158,0.002057,
860,1170,0.668194,-2.128255,0.999998,0.000190,-0.001384,0.002910,-0.000342,0.002937,-0.001411,-85.471792,0.002938,
1590,1410,-0.409593,-1.414749,0.999998,0.000188,-0.001538,0.002769,-0.000144,0.002774,-0.001543,-88.088711,0.002780,
900,480,0.285763,-4.079092,0.999998,0.000169,-0.001159,0.002399,-0.000184,0.002408,-0.001168,-87.047744,0.002408,
1110,1950,0.016273,-0.131377,0.999999,0.000144,-0.000151,0.001612,-0.000079,0.001616,-0.000154,-87.427294,0.001783,
1720,420,-0.440609,-4.101503,0.999998,0.000185,-0.001247,0.002537,0.000050,0.002538,-0.001248,89.244165,0.002538,
1470,790,-0.319464,-3.353750,0.999997,0.000200,-0.001920,0.003134,0.000409,0.003167,-0.001953,85.399291,0.003195,
1550,1610,-0.255599,-0.869221,0.999999,0.000154,-0.001136,0.002339,-0.000180,0.002348,-0.001146,-87.047558,0.002349,
1030,280,0.096290,-4.586556,0.999997,0.000204,-0.000592,0.001925,0.000010,0.001925,-0.000592,89.772127,0.001972,
600,1430,0.774361,-1.575575,0.999998,0.000174,-0.001271,0.002571,-0.000026,0.002572,-0.001271,-89.617139,0.002572,
1070,570,0.120993,-4.025939,0.999999,0.000140,-0.000970,0.002041,-0.000445,0.002105,-0.001034,-81.769270,0.002105,
1520,230,-0.123745,-4.659074,0.999999,0.000144,-0.000605,0.002019,-0.000148,0.002027,-0.000613,-86.771453,0.002079,
1300,830,-0.084597,-3.750630,0.999998,0.000138,-0.001113,0.000954,0.000660,0.001147,-0.001305,73.711828,0.001425,
1540,110,-0.056761,-4.885213,0.999999,0.000135,-0.000254,0.001845,-0.000278,0.001881,-0.000290,-82.592061,0.002026,
650,150,0.270749,-4.718835,0.999998,0.000193,-0.001004,0.002624,0.000450,0.002679,-0.001059,83.036270,0.002698,
770,1250,0.710590,-1.941888,0.999998,0.000180,-0.001414,0.002717,-0.000260,0.002733,-0.001430,-86.409962,0.002734,
1140,1850,0.027881,-0.296631,0.999999,0.000150,-0.000314,0.001715,-0.000013,0.001715,-0.000314,-89.629982,0.001826,
730,2020,0.024893,-0.029913,0.999999,0.000000,-0.000116,0.001956,-0.000719,0.002181,-0.000342,-72.614319,0.002347,
1780,490,-0.564905,-3.876338,0.999998,0.000169,-0.001283,0.002568,0.000057,0.002569,-0.001284,89.149778,0.002569,
620,190,0.367552,-4.582523,0.999997,0.000190,-0.001218,0.002536,0.000171,0.002544,-0.001226,87.391895,0.002544,
980,1320,0.295401,-1.540498,0.999997,0.000214,-0.001771,0.002939,0.000423,0.002977,-0.001809,84.909433,0.003000,
1730,800,-0.757038,-3.095259,0.999998,0.000175,-0.001361,0.002620,-0.000264,0.002638,-0.001378,-86.217383,0.002639,
940,920,0.604039,-2.849411,0.999998,0.000189,-0.001424,0.003200,0.000341,0.003225,-0.001449,85.805173,0.003230,
1870,860,-0.977293,-2.884874,0.999999,0.000123,-0.001118,0.002288,-0.000095,0.002290,-0.001121,-88.402270,0.002291,
1830,240,-0.416126,-4.469005,0.999997,0.000225,-0.001211,0.002543,-0.000088,0.002545,-0.001213,-88.662944,0.002546,
1900,300,-0.563830,-4.249637,0.999998,0.000000,-0.001193,0.002426,0.000034,0.002427,-0.001193,89.465710,0.002427,
1320,1910,-0.017440,-0.195349,0.999998,0.000127,-0.000197,0.001651,0.000031,0.001652,-0.000197,89.034957,0.001804,
860,350,0.262848,-4.355792,0.999998,0.000138,-0.000998,0.002333,0.000002,0.002333,-0.000998,89.959659,0.002341,
850,1830,0.183148,-0.402460,0.999998,0.000178,-0.000715,0.002196,-0.000225,0.002213,-0.000733,-85.612871,0.002255,
730,70,0.074649,-4.939031,0.999998,0.000167,-0.000381,0.002010,0.000656,0.002178,-0.000549,75.614285,0.002266,
1230,1980,-0.000899,-0.082666,0.999999,0.000130,-0.000094,0.001512,-0.000007,0.001512,-0.000094,-89.767887,0.001695,
1770,1980,-0.105366,-0.123938,0.999999,0.000125,-0.000512,0.002281,0.000813,0.002500,-0.000731,74.891341,0.002571,
1170,1330,0.034448,-1.161993,0.999999,0.000146,-0.000705,0.001211,0.000632,0.001400,-0.000895,73.297055,0.001418,
1380,660,-0.116572,-3.859329,0.999998,0.000140,-0.001138,0.002073,0.000713,0.002224,-0.001289,78.032097,0.002234,
810,1770,0.265374,-0.557021,0.999998,0.000168,-0.000969,0.002389,-0.000115,0.002393,-0.000973,-88.037597,0.002406,
1890,1500,-0.753051,-1.416558,0.999998,0.000155,-0.001280,0.002565,0.000010,0.002565,-0.001280,89.853446,0.002565,
710,1780,0.361782,-0.597646,0.999998,0.000171,-0.001184,0.002510,-0.000103,0.002513,-0.001187,-88.404257,0.002514,
1270,400,-0.023578,-4.405050,0.999998,0.000169,-0.000579,0.001798,0.000055,0.001800,-0.000580,88.681791,0.001837,
1750,300,-0.381784,-4.382161,0.999998,0.000183,-0.001196,0.002528,-0.000054,0.002529,-0.001197,-89.171448,0.002530,
1270,1410,-0.021710,-1.038323,0.999999,0.000150,-0.000603,0.001386,-0.000230,0.001413,-0.000629,-83.500362,0.001415,
600,1640,0.615780,-1.042023,0.999998,0.000185,-0.001231,0.002510,0.000022,0.002510,-0.001231,89.668309,0.002510,
850,900,0.698092,-2.864834,0.999998,0.000179,-0.001291,0.002800,0.000336,0.002827,-0.001319,85.334473,0.002830,
1430,210,-0.069808,-4.719632,0.999998,0.000183,-0.000430,0.001822,-0.000066,0.001824,-0.000432,-88.330788,0.001906,
960,1790,0.130598,-0.448043,0.999998,0.000153,-0.000708,0.002039,-0.000054,0.002040,-0.000709,-88.878312,0.002072,
1280,830,-0.060698,-3.802385,0.999998,0.000169,-0.001178,0.000775,0.000375,0.000844,-0.001247,79.494107,0.001273,
1250,80,-0.001773,-4.948424,0.999999,0.000117,-0.000126,0.001542,-0.000013,0.001542,-0.000126,-89.568777,0.001712,
1710,780,-0.709774,-3.159503,0.999998,0.000177,-0.001401,0.002721,-0.000226,0.002733,-0.001413,-86.876002,0.002733,
1590,1390,-0.424449,-1.471115,0.999998,0.000176,-0.001581,0.002819,-0.000122,0.002822,-0.001584,-88.416452,0.002830,
1490,1100,-0.608689,-2.277466,0.999998,0.000173,-0.001262,0.003416,0.000231,0.003427,-0.001274,87.175938,0.003464,
640,1840,0.376480,-0.498600,0.999997,0.000201,-0.001182,0.002577,-0.000169,0.002585,-0.001189,-87.425480,0.002588,
1610,1500,-0.384405,-1.192708,0.999998,0.000174,-0.001359,0.002605,-0.000157,0.002611,-0.001365,-87.732002,0.002612,
1680,700,-0.592015,-3.396622,0.999998,0.000205,-0.001497,0.002751,-0.000091,0.002753,-0.001499,-88.772746,0.002757,
1750,620,-0.622733,-3.562985,0.999997,0.000185,-0.001347,0.002643,-0.000019,0.002643,-0.001347,-89.727546,0.002643,
1550,1590,-0.263925,-0.917223,0.999998,0.000164,-0.001135,0.002361,-0.000163,0.002369,-0.001142,-87.332351,0.002369,
1110,1930,0.022109,-0.166341,0.999999,0.000141,-0.000208,0.001632,-0.000071,0.001635,-0.000211,-87.791042,0.001779,
1900,290,-0.555189,-4.274715,0.999997,0.000000,-0.001219,0.002381,0.000048,0.002382,-0.001219,89.231670,0.002382,
1120,1850,0.034289,-0.299010,0.999998,0.000151,-0.000368,0.001722,-0.000027,0.001723,-0.000369,-89.252212,0.001814,
770,1230,0.728894,-1.995308,0.999998,0.000167,-0.001371,0.002688,-0.000293,0.002709,-0.001392,-85.889556,0.002709,
1720,400,-0.426488,-4.152454,0.999998,0.000181,-0.001233,0.002534,0.000050,0.002534,-0.001234,89.243212,0.002535,
650,300,0.459018,-4.330551,0.999998,0.000196,-0.001206,0.002548,0.000062,0.002549,-0.001207,89.050755,0.002550,
1030,860,0.343576,-3.204975,0.999997,0.000189,-0.001912,0.003373,-0.000491,0.003418,-0.001957,-84.733883,0.003430,
1760,550,-0.582743,-3.737369,0.999998,0.000193,-0.001318,0.002594,-0.000003,0.002594,-0.001318,-89.954912,0.002595,
1070,550,0.120648,-4.067531,0.999999,0.000139,-0.000933,0.002021,-0.000385,0.002070,-0.000983,-82.700115,0.002071,
1120,1390,0.076610,-1.140612,0.999998,0.000156,-0.000924,0.001805,0.000674,0.001962,-0.001082,76.849632,0.001966,
920,710,0.379911,-3.490895,0.999997,0.000206,-0.001695,0.002908,-0.000188,0.002916,-0.001703,-87.668033,0.002929,
1780,1370,-0.717901,-1.670535,0.999998,0.000185,-0.001328,0.002596,0.000125,0.002600,-0.001332,88.182875,0.002601,
1340,210,-0.035051,-4.732889,0.999998,0.000160,-0.000355,0.001736,0.000006,0.001736,-0.000355,89.824680,0.001834,
1870,850,-0.969871,-2.908725,0.999999,0.000106,-0.001129,0.002337,-0.000090,0.002339,-0.001131,-88.516914,0.002340,
1010,280,0.108099,-4.579137,0.999998,0.000167,-0.000568,0.001961,0.000036,0.001961,-0.000569,89.186373,0.002018,
1880,1500,-0.740386,-1.409641,0.999998,0.000170,-0.001273,0.002568,0.000001,0.002568,-0.001273,89.981641,0.002568,
1250,1980,-0.001298,-0.083409,0.999999,0.000125,-0.000051,0.001509,0.000017,0.001509,-0.000051,89.369579,0.001714,
850,1810,0.199979,-0.448542,0.999998,0.000188,-0.000791,0.002242,-0.000185,0.002253,-0.000803,-86.518668,0.002284,
1750,1980,-0.093894,-0.115820,0.999998,0.000146,-0.000567,0.002132,0.000656,0.002283,-0.000718,77.033403,0.002335,
730,30,0.016144,-5.017669,0.999999,0.000000,-0.000158,0.001962,0.000719,0.002183,-0.000379,72.922978,0.002333,
1470,770,-0.299915,-3.414136,0.999997,0.000235,-0.001896,0.003067,0.000432,0.003105,-0.001933,85.061067,0.003135,
1170,1310,0.035645,-1.183314,0.999998,0.000157,-0.000738,0.001165,0.000717,0.001405,-0.000978,71.506248,0.001440,
1520,1910,-0.073489,-0.216905,0.999999,0.000124,-0.000363,0.001839,0.000220,0.001861,-0.000385,84.352784,0.001965,
720,1980,0.087347,-0.112714,0.999998,0.000159,-0.000505,0.002108,-0.000650,0.002261,-0.000658,-76.771074,0.002326,
810,1530,0.421799,-1.151541,0.999998,0.000150,-0.001312,0.002572,0.000120,0.002576,-0.001316,88.231223,0.002576,
1330,400,-0.058259,-4.392306,0.999998,0.000178,-0.000636,0.001847,0.000147,0.001855,-0.000645,86.622677,0.001884,
1380,640,-0.112445,-3.899392,0.999998,0.000144,-0.001082,0.002008,0.000636,0.002133,-0.001207,78.815482,0.002140,
730,1820,0.298240,-0.481310,0.999998,0.000166,-0.001018,0.002485,-0.000234,0.002501,-0.001033,-86.187938,0.002514,
1750,320,-0.401133,-4.330530,0.999998,0.000168,-0.001201,0.002532,-0.000024,0.002533,-0.001201,-89.632629,0.002534,
1400,330,-0.089036,-4.501472,0.999998,0.000170,-0.000622,0.001907,0.000039,0.001908,-0.000622,89.121018,0.001946,
1680,660,-0.556044,-3.507704,0.999997,0.000206,-0.001467,0.002738,-0.000042,0.002738,-0.001467,-89.424554,0.002741,
1870,310,-0.537870,-4.252964,0.999997,0.000198,-0.001235,0.002501,0.000001,0.002501,-0.001235,89.990258,0.002502,
1230,80,0.000736,-4.948550,0.999999,0.000123,-0.000095,0.001546,-0.000010,0.001546,-0.000095,-89.653853,0.001733,
1760,530,-0.567584,-3.788745,0.999997,0.000214,-0.001301,0.002580,0.000023,0.002581,-0.001301,89.664946,0.002581,
1720,380,-0.411394,-4.204250,0.999998,0.000180,-0.001211,0.002515,0.000015,0.002515,-0.001211,89.767312,0.002516,
1070,750,0.148287,-3.635107,0.999998,0.000167,-0.001565,0.002430,-0.000933,0.002637,-0.001772,-77.487020,0.002689,
830,900,0.722346,-2.859929,0.999998,0.000155,-0.001292,0.002746,0.000325,0.002772,-0.001318,85.424439,0.002773,
600,1620,0.629484,-1.092773,0.999998,0.000177,-0.001247,0.002494,0.000028,0.002495,-0.001247,89.574212,0.002495,
1490,660,-0.263331,-3.698978,0.999997,0.000180,-0.001537,0.002663,0.000434,0.002707,-0.001581,84.166304,0.002720,
1900,280,-0.544955,-4.296853,0.999997,0.000000,-0.001234,0.002347,0.000031,0.002348,-0.001235,89.507773,0.002349,
1550,1570,-0.274128,-0.964467,0.999998,0.000176,-0.001117,0.002387,-0.000183,0.002396,-0.001127,-87.012726,0.002398,
1890,300,-0.552512,-4.260086,0.999998,0.000181,-0.001205,0.002457,0.000010,0.002457,-0.001205,89.838664,0.002457,
850,1790,0.213749,-0.491306,0.999998,0.000176,-0.000859,0.002240,-0.000157,0.002247,-0.000867,-87.105671,0.002267,
1350,320,-0.059346,-4.534218,0.999998,0.000168,-0.000557,0.001836,0.000059,0.001837,-0.000559,88.597546,0.001884,
1220,1790,0.005280,-0.392913,0.999998,0.000168,-0.000432,0.001706,0.000018,0.001706,-0.000432,89.529025,0.001774,
720,2020,0.025307,-0.030901,0.999998,0.000000,-0.000230,0.001974,-0.000700,0.002178,-0.000433,-73.788241,0.002305,
1590,1370,-0.439325,-1.527731,0.999998,0.000178,-0.001606,0.002858,-0.000104,0.002860,-0.001608,-88.672209,0.002868,
1710,1580,-0.464805,-1.068499,0.999998,0.000197,-0.001299,0.002545,-0.000063,0.002546,-0.001300,-89.063540,0.002547,
1470,750,-0.282719,-3.477070,0.999997,0.000233,-0.001812,0.002975,0.000494,0.003026,-0.001862,84.174559,0.003053,
900,460,0.276773,-4.123953,0.999998,0.000166,-0.001116,0.002381,-0.000154,0.002388,-0.001123,-87.485291,0.002390,
940,900,0.571176,-2.913556,0.999997,0.000189,-0.001546,0.003202,0.000307,0.003222,-0.001566,86.319036,0.003222,
1490,1160,-0.511878,-2.071741,0.999998,0.000181,-0.001685,0.003385,0.000155,0.003390,-0.001690,88.256040,0.003390,
1500,1910,-0.065490,-0.214367,0.999998,0.000139,-0.000410,0.001817,0.000196,0.001834,-0.000428,84.997361,0.001919,
1170,1290,0.034185,-1.208786,0.999998,0.000157,-0.000780,0.001088,0.000783,0.001373,-0.001064,70.015336,0.001440,
1110,1910,0.024449,-0.197771,0.999999,0.000113,-0.000248,0.001610,-0.000084,0.001614,-0.000252,-87.409768,0.001736,
1700,1490,-0.512863,-1.293596,0.999997,0.000189,-0.001380,0.002625,-0.000046,0.002626,-0.001381,-89.343673,0.002627,
870,1720,0.244737,-0.643053,0.999998,0.000189,-0.000977,0.002337,-0.000004,0.002337,-0.000977,-89.924977,0.002348,
1270,1390,-0.021260,-1.065443,0.999998,0.000146,-0.000597,0.001329,-0.000287,0.001371,-0.000639,-81.696441,0.001372,
1520,210,-0.113609,-4.697121,0.999998,0.000166,-0.000547,0.001958,-0.000158,0.001968,-0.000557,-86.409147,0.002029,
640,1800,0.423480,-0.601876,0.999997,0.000207,-0.001195,0.002579,-0.000102,0.002581,-0.001198,-88.447962,0.002584,
730,560,0.554567,-3.732713,0.999997,0.000194,-0.001338,0.002609,-0.000035,0.002610,-0.001338,-89.498199,0.002610,
770,1210,0.749898,-2.049189,0.999998,0.000160,-0.001336,0.002710,-0.000308,0.002733,-0.001359,-85.665343,0.002733,
1750,1820,-0.317413,-0.494833,0.999997,0.000187,-0.001121,0.002493,0.000180,0.002502,-0.001130,87.151002,0.002506,
1570,1980,-0.039108,-0.094788,0.999999,0.000134,-0.000219,0.001751,0.000322,0.001803,-0.000270,80.961300,0.001944,
1030,700,0.193031,-3.680224,0.999998,0.000149,-0.001530,0.002563,-0.000678,0.002673,-0.001640,-80.835827,0.002696,
630,300,0.482113,-4.314998,0.999998,0.000187,-0.001214,0.002525,0.000006,0.002525,-0.001214,89.911933,0.002525,
940,1370,0.329591,-1.453022,0.999997,0.000211,-0.001620,0.002842,0.000312,0.002864,-0.001642,86.018156,0.002874,
1800,1630,-0.541546,-1.016353,0.999997,0.000174,-0.001266,0.002548,-0.000032,0.002548,-0.001266,-89.513786,0.002548,
1380,330,-0.077138,-4.506955,0.999998,0.000170,-0.000548,0.001899,0.000027,0.001900,-0.000549,89.374446,0.001955,
810,1490,0.450549,-1.253940,0.999998,0.000179,-0.001348,0.002649,0.000108,0.002652,-0.001351,88.454679,0.002652,
1890,430,-0.658880,-3.938610,0.999998,0.000171,-0.001231,0.002504,-0.000003,0.002504,-0.001231,-89.956395,0.002504,
1380,620,-0.110916,-3.941040,0.999998,0.000155,-0.001045,0.002029,0.000579,0.002134,-0.001151,79.682675,0.002136,
1430,190,-0.062382,-4.756208,0.999998,0.000188,-0.000368,0.001799,-0.000092,0.001803,-0.000372,-87.560709,0.001904,
1810,280,-0.435118,-4.385028,0.999997,0.000198,-0.001187,0.002561,-0.000089,0.002563,-0.001189,-88.641564,0.002565,
980,1300,0.310466,-1.601444,0.999997,0.000236,-0.001816,0.003042,0.000387,0.003073,-0.001847,85.468327,0.003093,
1900,270,-0.536460,-4.320441,0.999996,0.000000,-0.001207,0.002404,-0.000030,0.002404,-0.001207,-89.524206,0.002404,
1210,80,0.002184,-4.947899,0.999999,0.000168,-0.000077,0.001535,0.000013,0.001535,-0.000077,89.525900,0.001730,
1760,510,-0.553460,-3.840380,0.999997,0.000174,-0.001280,0.002585,0.000037,0.002586,-0.001281,89.445141,0.002586,
1060,1960,0.020401,-0.117768,0.999999,0.000142,-0.000154,0.001621,-0.000117,0.001629,-0.000162,-86.258041,0.001794,
600,1600,0.645168,-1.140457,0.999998,0.000163,-0.001263,0.002511,0.000029,0.002511,-0.001263,89.565683,0.002511,
1720,800,-0.742623,-3.099910,0.999998,0.000182,-0.001393,0.002648,-0.000259,0.002665,-0.001409,-86.352375,0.002666,
1870,840,-0.962568,-2.932596,0.999999,0.000116,-0.001134,0.002351,-0.000087,0.002353,-0.001136,-88.575605,0.002353,
690,250,0.360000,-4.490048,0.999997,0.000225,-0.001177,0.002547,0.000139,0.002552,-0.001182,87.863455,0.002554,
1270,1370,-0.020559,-1.091283,0.999999,0.000140,-0.000592,0.001257,-0.000340,0.001317,-0.000652,-79.913230,0.001317,
1890,310,-0.561385,-4.234726,0.999998,0.000190,-0.001196,0.002478,0.000005,0.002478,-0.001196,89.916374,0.002479,
1420,150,-0.043464,-4.827517,0.999999,0.000170,-0.000316,0.001738,-0.000133,0.001746,-0.000325,-86.307404,0.001857,
1850,1440,-0.749130,-1.540274,0.999998,0.000164,-0.001259,0.002560,0.000017,0.002561,-0.001259,89.747295,0.002561,
1710,1940,-0.129135,-0.191181,0.999998,0.000157,-0.000452,0.002180,0.000617,0.002317,-0.000590,77.443451,0.002409,
1550,1550,-0.281048,-1.011235,0.999999,0.000166,-0.001169,0.002436,-0.000213,0.002449,-0.001181,-86.628037,0.002449,
1170,1270,0.042303,-1.228564,0.999999,0.000139,-0.000854,0.000999,0.000824,0.001313,-0.001167,69.173631,0.001439,
1390,320,-0.080299,-4.523865,0.999998,0.000180,-0.000544,0.001904,0.000028,0.001904,-0.000544,89.354426,0.001962,
850,1770,0.230140,-0.538098,0.999998,0.000188,-0.000907,0.002315,-0.000130,0.002320,-0.000912,-87.700696,0.002337,
1590,1350,-0.454955,-1.584478,0.999997,0.000180,-0.001635,0.002898,-0.000061,0.002899,-0.001635,-89.232601,0.002907,
1130,480,0.066397,-4.243243,0.999999,0.000143,-0.000712,0.001872,-0.000190,0.001886,-0.000726,-85.806693,0.001902,
1680,640,-0.539660,-3.561355,0.999997,0.000177,-0.001450,0.002716,-0.000009,0.002716,-0.001450,-89.871026,0.002718,
720,1960,0.115344,-0.153775,0.999998,0.000156,-0.000666,0.002124,-0.000579,0.002239,-0.000781,-78.733210,0.002273,
840,530,0.387008,-3.901574,0.999998,0.000178,-0.001341,0.002588,-0.000135,0.002593,-0.001346,-88.027323,0.002593,
710,560,0.581222,-3.716491,0.999998,0.000173,-0.001346,0.002615,-0.000019,0.002615,-0.001346,-89.732281,0.002615,
1780,1630,-0.517959,-0.998279,0.999996,0.000216,-0.001211,0.002537,-0.000057,0.002538,-0.001212,-89.127479,0.002539,
940,880,0.542229,-2.977516,0.999997,0.000187,-0.001628,0.003224,0.000246,0.003236,-0.001641,87.105887,0.003237,
1610,60,-0.036015,-4.971088,0.999999,0.000118,-0.000140,0.001795,-0.000396,0.001872,-0.000218,-78.875106,0.002048,
900,440,0.267276,-4.173069,0.999998,0.000170,-0.001092,0.002367,-0.000133,0.002372,-0.001097,-87.802621,0.002374,
1720,1490,-0.540543,-1.311205,0.999997,0.000200,-0.001340,0.002629,-0.000067,0.002630,-0.001341,-89.032975,0.002630,
740,1750,0.357341,-0.651822,0.999998,0.000183,-0.001111,0.002505,-0.000102,0.002508,-0.001114,-88.388525,0.002513,
1220,1740,0.006719,-0.481017,0.999998,0.000169,-0.000483,0.001765,0.000022,0.001765,-0.000483,89.444116,0.001824,
1030,680,0.186293,-3.730143,0.999998,0.000153,-0.001426,0.002460,-0.000645,0.002564,-0.001530,-80.820674,0.002580,
900,650,0.371179,-3.639116,0.999997,0.000209,-0.001545,0.002770,-0.000221,0.002782,-0.001556,-87.074752,0.002788,
650,280,0.438502,-4.382077,0.999998,0.000171,-0.001187,0.002519,0.000101,0.002522,-0.001190,88.440253,0.002524,
810,1470,0.462794,-1.309291,0.999997,0.000191,-0.001397,0.002668,0.000080,0.002670,-0.001399,88.870488,0.002671,
640,1780,0.447368,-0.653650,0.999997,0.000196,-0.001208,0.002533,-0.000063,0.002534,-0.001209,-89.036534,0.002534,
1810,210,-0.354332,-4.564404,0.999997,0.000184,-0.001125,0.002581,-0.000259,0.002599,-0.001143,-86.013957,0.002605,
1900,260,-0.523372,-4.343999,0.999996,0.000000,-0.001191,0.002469,-0.000045,0.002469,-0.001192,-89.302811,0.002470,
1870,300,-0.527997,-4.278224,0.999998,0.000199,-0.001227,0.002497,-0.000013,0.002498,-0.001227,-89.802527,0.002498,
1720,1310,-0.690167,-1.792782,0.999998,0.000181,-0.001398,0.002683,0.000191,0.002692,-0.001407,87.321857,0.002692,
1440,1910,-0.045719,-0.206854,0.999999,0.000126,-0.000283,0.001717,0.000157,0.001729,-0.000295,85.544823,0.001849,
1660,710,-0.569494,-3.382541,0.999997,0.000225,-0.001482,0.002821,-0.000083,0.002823,-0.001484,-88.889400,0.002824,
770,1190,0.768523,-2.102275,0.999998,0.000161,-0.001293,0.002648,-0.000311,0.002672,-0.001317,-85.518808,0.002673,
690,230,0.337756,-4.540022,0.999998,0.000201,-0.001166,0.002507,0.000189,0.002517,-0.001175,87.069082,0.002519,
830,880,0.704664,-2.913641,0.999998,0.000173,-0.001363,0.002813,0.000345,0.002841,-0.001392,85.312490,0.002842,
960,1370,0.297746,-1.426709,0.999998,0.000208,-0.001621,0.002801,0.000378,0.002833,-0.001653,85.149307,0.002846,
1110,1890,0.032192,-0.229513,0.999999,0.000140,-0.000278,0.001694,-0.000044,0.001695,-0.000279,-88.734737,0.001818,
1850,350,-0.546642,-4.171164,0.999998,0.000183,-0.001203,0.002516,0.000045,0.002516,-0.001204,89.308184,0.002517,
1330,630,-0.064582,-3.977058,0.999998,0.000155,-0.000828,0.001691,0.000519,0.001793,-0.000930,78.806443,0.001794,
1270,1350,-0.019800,-1.115683,0.999999,0.000144,-0.000599,0.001152,-0.000402,0.001240,-0.000686,-77.668044,0.001243,
1430,170,-0.055357,-4.791171,0.999998,0.000180,-0.000313,0.001770,-0.000142,0.001780,-0.000323,-86.125633,0.001896,
1720,820,-0.762531,-3.047961,0.999998,0.000177,-0.001385,0.002654,-0.000280,0.002674,-0.001405,-86.056151,0.002675,
1140,150,0.018347,-4.837542,0.999999,0.000125,-0.000247,0.001643,0.000038,0.001644,-0.000247,88.836227,0.001772,
1740,590,-0.585739,-3.648939,0.999997,0.000194,-0.001382,0.002615,-0.000014,0.002615,-0.001382,-89.792639,0.002617,
990,1220,0.382015,-1.839759,0.999998,0.000193,-0.001938,0.003355,0.000188,0.003361,-0.001945,87.970040,0.003375,
960,570,0.248544,-3.912896,0.999998,0.000170,-0.001256,0.002423,-0.000347,0.002456,-0.001289,-84.662149,0.002457,
1760,780,-0.777885,-3.134615,0.999998,0.000177,-0.001254,0.002567,-0.000216,0.002579,-0.001266,-86.780428,0.002579,
820,1590,0.374071,-0.990617,0.999998,0.000180,-0.001238,0.002499,0.000097,0.002502,-0.001241,88.514686,0.002502,
1240,270,-0.003991,-4.639190,0.999999,0.000141,-0.000431,0.001752,0.000011,0.001752,-0.000431,89.720882,0.001825,
1510,510,-0.234710,-4.049762,0.999998,0.000145,-0.001147,0.002340,0.000271,0.002361,-0.001168,85.583301,0.002361,
600,1580,0.660628,-1.193000,0.999998,0.000165,-0.001269,0.002556,0.000039,0.002556,-0.001270,89.410575,0.002556,
1880,460,-0.669887,-3.872117,0.999998,0.000178,-0.001240,0.002516,0.000024,0.002516,-0.001240,89.627406,0.002516,
1550,1530,-0.289578,-1.060663,0.999998,0.000169,-0.001249,0.002503,-0.000228,0.002517,-0.001263,-86.540205,0.002517,
930,1420,0.317454,-1.326849,0.999998,0.000191,-0.001474,0.002668,0.000301,0.002690,-0.001496,85.870087,0.002696,
900,420,0.258911,-4.220374,0.999998,0.000168,-0.001077,0.002347,-0.000128,0.002351,-0.001082,-87.867058,0.002354,
1110,540,0.084086,-4.120869,0.999998,0.000159,-0.000813,0.001885,-0.000345,0.001928,-0.000857,-82.832416,0.001932,
850,1750,0.243778,-0.584129,0.999998,0.000185,-0.000922,0.002291,-0.000061,0.002292,-0.000923,-88.906357,0.002306,
940,860,0.512366,-3.042346,0.999998,0.000177,-0.001725,0.003266,0.000186,0.003273,-0.001732,87.873581,0.003275,
1590,1330,-0.473089,-1.644658,0.999997,0.000192,-0.001662,0.002921,-0.000019,0.002921,-0.001662,-89.756938,0.002930,
930,1980,0.033600,-0.093134,0.999999,0.000112,-0.000144,0.001744,-0.000288,0.001788,-0.000187,-81.503984,0.001965,
1170,1490,0.038446,-0.927806,0.999999,0.000148,-0.000700,0.001640,0.000255,0.001667,-0.000728,83.858473,0.001672,
1680,620,-0.524069,-3.616558,0.999998,0.000168,-0.001430,0.002684,0.000023,0.002684,-0.001430,89.679757,0.002686,
720,1940,0.148419,-0.200340,0.999999,0.000143,-0.000752,0.002272,-0.000588,0.002382,-0.000863,-79.382260,0.002412,
980,1280,0.330643,-1.663699,0.999998,0.000220,-0.001886,0.003123,0.000340,0.003146,-0.001909,86.130383,0.003170,
1300,1350,-0.039203,-1.146374,0.999998,0.000158,-0.000742,0.001377,-0.000607,0.001539,-0.000903,-75.087036,0.001547,
840,410,0.319294,-4.200749,0.999998,0.000176,-0.001136,0.002432,-0.000081,0.002434,-0.001138,-88.697263,0.002436,
1130,1200,0.173519,-1.435841,0.999997,0.000227,-0.001007,0.001304,0.000767,0.001535,-0.001239,73.204481,0.001629,
1220,1720,0.006197,-0.516598,0.999998,0.000154,-0.000502,0.001750,0.000044,0.001751,-0.000502,88.883978,0.001803,
1530,80,-0.036270,-4.937820,0.999999,0.000100,-0.000170,0.001710,-0.000301,0.001757,-0.000217,-81.134682,0.001915,
650,260,0.417957,-4.433057,0.999998,0.000187,-0.001153,0.002542,0.000120,0.002546,-0.001157,88.140800,0.002550,
1800,1900,-0.264791,-0.326908,0.999998,0.000179,-0.000973,0.002609,0.000519,0.002683,-0.001047,81.919909,0.002704,
740,1770,0.338173,-0.600299,0.999998,0.000166,-0.001062,0.002497,-0.000166,0.002505,-0.001070,-87.334110,0.002514,
640,1760,0.466781,-0.705769,0.999998,0.000191,-0.001205,0.002524,-0.000030,0.002524,-0.001205,-89.543502,0.002525,
1890,1550,-0.714577,-1.288524,0.999998,0.000180,-0.001234,0.002549,-0.000005,0.002549,-0.001234,-89.924393,0.002550,
1900,360,-0.617797,-4.103324,0.999998,0.000000,-0.001232,0.002501,-0.000044,0.002502,-0.001233,-89.320752,0.002502,
1710,260,-0.303429,-4.507278,0.999996,0.000234,-0.001013,0.002449,-0.000213,0.002463,-0.001026,-86.486382,0.002474,
1720,1510,-0.526263,-1.257988,0.999997,0.000200,-0.001328,0.002628,-0.000053,0.002629,-0.001329,-89.231412,0.002629,
1390,440,-0.104091,-4.289377,0.999998,0.000158,-0.000808,0.001999,0.000213,0.002015,-0.000824,85.685009,0.002026,
570,890,1.020894,-2.808162,0.999998,0.000178,-0.001031,0.002144,0.000021,0.002144,-0.001031,89.618540,0.002145,
900,1110,0.684623,-2.286772,0.999998,0.000188,-0.001131,0.002931,-0.000340,0.002960,-0.001159,-85.241610,0.002983,
770,80,0.078401,-4.924157,0.999999,0.000135,-0.000313,0.001936,0.000557,0.002067,-0.000443,76.820814,0.002176,
770,1170,0.784335,-2.156936,0.999998,0.000160,-0.001256,0.002628,-0.000305,0.002651,-0.001280,-85.543819,0.002652,
1420,1910,-0.041500,-0.203406,0.999998,0.000135,-0.000289,0.001739,0.000093,0.001744,-0.000293,87.376745,0.001868,
1430,150,-0.046079,-4.826315,0.999999,0.000148,-0.000281,0.001756,-0.000155,0.001767,-0.000292,-85.678970,0.001895,
960,550,0.242283,-3.960690,0.999999,0.000153,-0.001209,0.002406,-0.000331,0.002436,-0.001239,-84.810214,0.002436,
810,1450,0.475452,-1.363540,0.999997,0.000181,-0.001427,0.002695,0.000058,0.002695,-0.001428,89.188980,0.002697,
690,210,0.314315,-4.589995,0.999997,0.000186,-0.001124,0.002508,0.000261,0.002527,-0.001143,85.914474,0.002531,
820,790,0.622178,-3.165304,0.999998,0.000174,-0.001523,0.002857,0.000223,0.002869,-0.001534,87.099102,0.002871,
1540,290,-0.171426,-4.525466,0.999998,0.000155,-0.000717,0.002153,-0.000073,0.002155,-0.000719,-88.540896,0.002195,
1850,330,-0.529369,-4.222796,0.999998,0.000191,-0.001215,0.002503,0.000051,0.002503,-0.001215,89.212962,0.002504,
1120,360,0.061980,-4.462212,0.999998,0.000162,-0.000602,0.001887,-0.000084,0.001890,-0.000605,-88.079194,0.001931,
1270,1770,-0.017241,-0.430682,0.999998,0.000154,-0.000445,0.001758,0.000007,0.001758,-0.000445,89.820419,0.001828,
1550,1510,-0.300108,-1.112958,0.999998,0.000175,-0.001309,0.002510,-0.000254,0.002526,-0.001326,-86.213142,0.002528,
1720,840,-0.781548,-2.993405,0.999998,0.000164,-0.001348,0.002644,-0.000283,0.002664,-0.001368,-85.962652,0.002664,
1040,770,0.212805,-3.512384,0.999998,0.000182,-0.001781,0.002822,-0.000755,0.002943,-0.001902,-80.919492,0.002985,
980,1370,0.264942,-1.399455,0.999998,0.000191,-0.001624,0.002719,0.000473,0.002770,-0.001675,83.854368,0.002790,
600,1560,0.673999,-1.243668,0.999998,0.000148,-0.001272,0.002549,0.000022,0.002549,-0.001272,89.676867,0.002549,
1890,470,-0.689774,-3.839306,0.999998,0.000170,-0.001244,0.002536,0.000034,0.002536,-0.001244,89.486946,0.002536,
850,1730,0.255318,-0.629086,0.999998,0.000188,-0.000943,0.002349,-0.000036,0.002349,-0.000943,-89.365971,0.002364,
1330,610,-0.064579,-4.010229,0.999999,0.000132,-0.000779,0.001748,0.000444,0.001824,-0.000855,80.326839,0.001825,
680,830,0.853276,-2.996284,0.999999,0.000131,-0.001263,0.002494,0.000218,0.002507,-0.001275,86.690569,0.002507,
620,1550,0.655721,-1.254354,0.999997,0.000181,-0.001275,0.002536,0.000028,0.002536,-0.001275,89.581664,0.002536,
1130,1190,0.205129,-1.445684,0.999998,0.000198,-0.000870,0.001151,0.000737,0.001391,-0.001111,71.950629,0.001472,
1800,1860,-0.325559,-0.430484,0.999997,0.000198,-0.001078,0.002551,0.000322,0.002579,-0.001106,84.970042,0.002588,
1590,1310,-0.489045,-1.701336,0.999997,0.000204,-0.001675,0.002978,0.000043,0.002978,-0.001675,89.476198,0.002986,
1680,600,-0.510875,-3.668874,0.999997,0.000177,-0.001407,0.002680,0.000032,0.002680,-0.001407,89.557648,0.002681,
720,1920,0.180269,-0.243981,0.999998,0.000166,-0.000850,0.002338,-0.000505,0.002416,-0.000929,-81.205783,0.002437,
1030,1100,0.527819,-2.184693,0.999998,0.000218,-0.001654,0.004137,0.000576,0.004194,-0.001710,84.370642,0.004218,
1220,1700,0.005235,-0.552521,0.999998,0.000155,-0.000534,0.001769,0.000023,0.001769,-0.000534,89.425188,0.001815,
980,1260,0.349859,-1.726282,0.999998,0.000189,-0.001949,0.003196,0.000295,0.003213,-0.001966,86.733746,0.003240,
1170,1250,0.050209,-1.248009,0.999999,0.000141,-0.000967,0.000921,0.000800,0.001214,-0.001260,69.866328,0.001429,
1110,520,0.082339,-4.159034,0.999998,0.000149,-0.000786,0.001850,-0.000292,0.001882,-0.000818,-83.744783,0.001887,
940,840,0.481930,-3.110862,0.999998,0.000173,-0.001792,0.003267,0.000121,0.003270,-0.001795,88.628857,0.003275,
900,400,0.249454,-4.266307,0.999998,0.000164,-0.001048,0.002322,-0.000105,0.002326,-0.001052,-88.211566,0.002329,
970,1240,0.393518,-1.807903,0.999997,0.000202,-0.001933,0.003264,0.000149,0.003269,-0.001938,88.360293,0.003287,
790,80,0.070893,-4.926597,0.999999,0.000122,-0.000369,0.001920,0.000510,0.002028,-0.000477,77.992459,0.002121,
570,280,0.555493,-4.301878,0.999418,0.002818,-0.003528,0.002857,0.000082,0.002858,-0.003529,89.268504,0.003748,
1880,2020,-0.075012,-0.063550,0.999997,0.000000,0.000184,0.003221,0.001742,0.004013,-0.000608,65.542988,0.004326,
1150,400,0.046433,-4.397422,0.999998,0.000145,-0.000613,0.001802,-0.000087,0.001805,-0.000617,-87.942974,0.001835,
910,1980,0.035687,-0.093246,0.999999,0.000135,-0.000146,0.001754,-0.000331,0.001810,-0.000202,-80.386685,0.001984,
1510,80,-0.032962,-4.939482,0.999999,0.000111,-0.000202,0.001690,-0.000237,0.001719,-0.000232,-82.981582,0.001866,
640,1740,0.486401,-0.755626,0.999998,0.000190,-0.001213,0.002524,0.000001,0.002524,-0.001213,89.979032,0.002525,
1890,1540,-0.722682,-1.314243,0.999998,0.000169,-0.001237,0.002576,0.000006,0.002576,-0.001237,89.903672,0.002577,
1790,240,-0.368770,-4.502115,0.999998,0.000197,-0.001154,0.002538,-0.000186,0.002547,-0.001163,-87.126705,0.002550,
810,1430,0.490636,-1.416267,0.999997,0.000187,-0.001456,0.002711,0.000039,0.002711,-0.001457,89.463505,0.002714,
780,1530,0.463576,-1.175351,0.999998,0.000163,-0.001349,0.002604,0.000087,0.002606,-0.001351,88.733996,0.002606,
820,890,0.727747,-2.883495,0.999999,0.000172,-0.001316,0.002750,0.000321,0.002776,-0.001341,85.511950,0.002776,
1700,1470,-0.528271,-1.346121,0.999997,0.000188,-0.001391,0.002639,-0.000034,0.002639,-0.001392,-89.523449,0.002641,
860,290,0.224051,-4.495097,0.999998,0.000183,-0.000920,0.002294,0.000085,0.002296,-0.000922,88.485995,0.002311,
670,200,0.322727,-4.602092,0.999998,0.000166,-0.001110,0.002571,0.000314,0.002597,-0.001136,85.151240,0.002604,
770,1150,0.803855,-2.208204,0.999998,0.000184,-0.001214,0.002621,-0.000294,0.002644,-0.001236,-85.638187,0.002646,
1850,310,-0.512816,-4.271976,0.999998,0.000202,-0.001219,0.002494,0.000019,0.002494,-0.001219,89.701621,0.002494,
1120,380,0.063398,-4.422550,0.999998,0.000177,-0.000640,0.001876,-0.000115,0.001882,-0.000645,-87.392660,0.001912,
1600,390,-0.283060,-4.263885,0.999997,0.000173,-0.001043,0.002340,0.000056,0.002341,-0.001044,89.050731,0.002346,
800,790,0.652524,-3.155329,0.999997,0.000198,-0.001481,0.002791,0.000241,0.002804,-0.001495,86.774597,0.002806,
690,190,0.288537,-4.641557,0.999998,0.000170,-0.001085,0.002505,0.000322,0.002534,-0.001114,84.909566,0.002540,
1720,860,-0.799982,-2.940475,0.999999,0.000154,-0.001288,0.002571,-0.000256,0.002588,-0.001305,-86.215667,0.002588,
1270,1790,-0.015647,-0.395435,0.999998,0.000164,-0.000399,0.001730,0.000005,0.001730,-0.000399,89.863256,0.001811,
1430,130,-0.038355,-4.860472,0.999999,0.000139,-0.000237,0.001705,-0.000143,0.001715,-0.000247,-85.805626,0.001854,
960,470,0.215427,-4.149003,0.999998,0.000165,-0.001030,0.002283,-0.000198,0.002295,-0.001041,-86.583951,0.002298,
1890,1750,-0.556151,-0.794211,0.999997,0.000200,-0.001184,0.002455,-0.000029,0.002456,-0.001184,-89.537999,0.002456,
1550,1490,-0.308418,-1.161424,0.999998,0.000181,-0.001339,0.002527,-0.000266,0.002545,-0.001357,-86.080709,0.002547,
850,1710,0.269246,-0.677134,0.999998,0.000154,-0.000972,0.002344,-0.000022,0.002344,-0.000972,-89.618467,0.002355,
1060,770,0.177943,-3.558074,0.999998,0.000169,-0.001735,0.002644,-0.000897,0.002820,-0.001912,-78.855277,0.002879,
1170,830,0.074463,-3.770545,0.999998,0.000161,-0.001121,0.000880,-0.000550,0.001021,-0.001262,-75.591754,0.001340,
1740,970,-0.893271,-2.660227,0.999999,0.000127,-0.001085,0.002445,-0.000126,0.002449,-0.001090,-87.965213,0.002454,
1220,1680,0.006985,-0.586024,0.999998,0.000149,-0.000540,0.001777,0.000015,0.001777,-0.000540,89.621180,0.001822,
1800,1840,-0.350860,-0.481721,0.999997,0.000206,-0.001117,0.002558,0.000263,0.002577,-0.001136,85.935179,0.002583,
1130,1180,0.235792,-1.456144,0.999997,0.000199,-0.000746,0.001036,0.000811,0.001350,-0.001060,68.842486,0.001421,
1590,1290,-0.510615,-1.761994,0.999997,0.000193,-0.001679,0.002980,0.000110,0.002982,-0.001682,88.646812,0.002990,
1090,1220,0.191197,-1.561033,0.999997,0.000186,-0.001671,0.002497,0.001107,0.002773,-0.001946,76.010530,0.002847,
1030,1980,0.019501,-0.088513,0.999999,0.000140,-0.000127,0.001621,-0.000169,0.001638,-0.000143,-84.521452,0.001814,
1330,590,-0.065583,-4.046831,0.999999,0.000134,-0.000758,0.001774,0.000386,0.001832,-0.000815,81.512043,0.001836,
760,1770,0.317912,-0.588452,0.999997,0.000183,-0.001039,0.002471,-0.000153,0.002478,-0.001045,-87.502681,0.002488,
570,290,0.558171,-4.279061,0.999414,0.002967,-0.003425,0.002032,-0.000256,0.002044,-0.003437,-87.322132,0.003457,
810,1410,0.505633,-1.472158,0.999997,0.000192,-0.001482,0.002741,0.000022,0.002741,-0.001482,89.695047,0.002744,
1900,1000,-1.068672,-2.574673,0.999998,0.000000,-0.001022,0.001962,-0.000030,0.001962,-0.001022,-89.415396,0.001963,
950,1240,0.432221,-1.836621,0.999997,0.000189,-0.001874,0.003224,0.000034,0.003224,-0.001874,89.616891,0.003239,
1130,400,0.059557,-4.391722,0.999998,0.000158,-0.000641,0.001815,-0.000128,0.001822,-0.000648,-87.021456,0.001847,
600,1540,0.689103,-1.293943,0.999998,0.000159,-0.001273,0.002542,0.000012,0.002542,-0.001273,89.816666,0.002542,
1010,740,0.245267,-3.535652,0.999998,0.000164,-0.001756,0.002843,-0.000606,0.002922,-0.001835,-82.618883,0.002953,
980,1240,0.373624,-1.791313,0.999998,0.000192,-0.001955,0.003270,0.000212,0.003279,-0.001964,87.682495,0.003300,
730,410,0.450229,-4.116907,0.999998,0.000192,-0.001220,0.002552,-0.000045,0.002553,-0.001220,-89.310342,0.002553,
1770,260,-0.367151,-4.467397,0.999997,0.000209,-0.001178,0.002520,-0.000137,0.002525,-0.001183,-87.879233,0.002527,
1680,580,-0.495271,-3.723196,0.999998,0.000173,-0.001368,0.002660,0.000062,0.002661,-0.001369,89.122985,0.002662,
640,1720,0.500309,-0.806442,0.999998,0.000185,-0.001242,0.002526,0.000007,0.002526,-0.001242,89.899562,0.002526,
1110,500,0.081642,-4.194796,0.999999,0.000107,-0.000755,0.001892,-0.000252,0.001916,-0.000778,-84.607854,0.001927,
800,890,0.753199,-2.878390,0.999998,0.000181,-0.001249,0.002688,0.000319,0.002713,-0.001274,85.395632,0.002715,
1720,1300,-0.700146,-1.819215,0.999998,0.000185,-0.001393,0.002693,0.000205,0.002703,-0.001404,87.138335,0.002704,
1120,400,0.065576,-4.387705,0.999998,0.000183,-0.000648,0.001820,-0.000131,0.001827,-0.000655,-86.960672,0.001851,
1470,730,-0.268403,-3.534530,0.999998,0.000196,-0.001737,0.002865,0.000508,0.002920,-0.001792,83.777320,0.002945,
1270,1810,-0.015141,-0.362051,0.999998,0.000161,-0.000368,0.001714,0.000004,0.001714,-0.000368,89.877765,0.001805,
780,1550,0.450484,-1.124585,0.999998,0.000161,-0.001304,0.002566,0.000085,0.002568,-0.001306,88.749573,0.002568,
690,170,0.261515,-4.690376,0.999998,0.000162,-0.001037,0.002495,0.000390,0.002538,-0.001080,83.767466,0.002547,
1860,1150,-0.993700,-2.250161,0.999998,0.000149,-0.001084,0.002243,0.000077,0.002245,-0.001086,88.673869,0.002245,
770,1370,0.597637,-1.611057,0.999997,0.000184,-0.001454,0.002749,-0.000090,0.002751,-0.001456,-88.774087,0.002752,
1410,320,-0.093315,-4.516347,0.999998,0.000171,-0.000648,0.001932,0.000053,0.001933,-0.000649,88.830559,0.001967,
1800,1820,-0.374023,-0.532531,0.999997,0.000207,-0.001154,0.002562,0.000203,0.002573,-0.001165,86.887922,0.002577,
740,1410,0.605344,-1.525681,0.999998,0.000182,-0.001392,0.002668,-0.000047,0.002669,-0.001393,-89.341862,0.002670,
780,30,0.016992,-5.018183,0.999999,0.000000,-0.000143,0.001802,0.000530,0.001937,-0.000278,75.700965,0.002095,
1030,930,0.482829,-2.955405,0.999997,0.000189,-0.001632,0.003799,-0.000504,0.003846,-0.001679,-84.740249,0.003856,
1170,810,0.055561,-3.787727,0.999998,0.000168,-0.000985,0.000941,-0.000775,0.001214,-0.001259,-70.579548,0.001428,
1220,1660,0.005360,-0.623284,0.999998,0.000146,-0.000545,0.001777,0.000034,0.001778,-0.000545,89.152884,0.001822,
1710,1060,-0.866841,-2.439412,0.999998,0.000157,-0.001069,0.002476,0.000102,0.002479,-0.001072,88.360223,0.002487,
1550,1470,-0.317638,-1.212792,0.999998,0.000163,-0.001364,0.002585,-0.000261,0.002602,-0.001381,-86.227923,0.002604,
1430,110,-0.029631,-4.895009,0.999999,0.000145,-0.000190,0.001688,-0.000157,0.001701,-0.000203,-85.239584,0.001858,
1850,290,-0.493711,-4.322334,0.999998,0.000190,-0.001215,0.002519,-0.000015,0.002519,-0.001215,-89.763249,0.002519,
850,1910,0.112032,-0.232182,0.999999,0.000142,-0.000487,0.002015,-0.000361,0.002066,-0.000538,-81.951568,0.002144,
1590,1270,-0.531168,-1.821346,0.999997,0.000196,-0.001662,0.003014,0.000164,0.003020,-0.001668,87.997482,0.003025,
1180,330,0.026037,-4.526305,0.999999,0.000132,-0.000446,0.001799,-0.000017,0.001799,-0.000446,-89.566795,0.001874,
580,1470,0.767184,-1.489092,0.999998,0.000168,-0.001756,0.002374,-0.000021,0.002375,-0.001756,-89.711755,0.002464,
1090,1200,0.225164,-1.612558,0.999997,0.000192,-0.001541,0.002432,0.001148,0.002740,-0.001848,74.990104,0.002795,
1070,1980,0.013549,-0.085895,0.999999,0.000144,-0.000096,0.001599,-0.000123,0.001607,-0.000105,-85.860398,0.001799,
900,1430,0.356831,-1.331680,0.999997,0.000189,-0.001497,0.002685,0.000238,0.002699,-0.001511,86.758538,0.002705,
1380,600,-0.111169,-3.982550,0.999998,0.000136,-0.000989,0.001996,0.000489,0.002074,-0.001068,80.927228,0.002075,
570,300,0.567594,-4.268344,0.999555,0.002656,-0.003096,0.002108,-0.000597,0.002176,-0.003163,-83.538704,0.003237,
1550,1520,-0.295343,-1.086387,0.999998,0.000171,-0.001285,0.002514,-0.000241,0.002529,-0.001300,-86.379126,0.002530,
1900,1020,-1.073686,-2.537032,0.999998,0.000000,-0.001011,0.002036,0.000002,0.002036,-0.001011,89.958887,0.002036,
580,1740,0.557445,-0.811228,0.999998,0.000171,-0.002690,0.002520,0.000148,0.002524,-0.002694,88.379577,0.003017,
1320,270,-0.035808,-4.631889,0.999998,0.000145,-0.000443,0.001766,-0.000009,0.001766,-0.000443,-89.773788,0.001838,
670,1920,0.227633,-0.272954,0.999998,0.000222,-0.000887,0.002510,-0.000613,0.002617,-0.000994,-80.078349,0.002642,
1790,280,-0.411499,-4.400272,0.999998,0.000173,-0.001182,0.002545,-0.000082,0.002547,-0.001183,-88.733092,0.002549,
1070,400,0.098504,-4.368511,0.999998,0.000168,-0.000739,0.001956,-0.000164,0.001965,-0.000749,-86.537152,0.001984,
650,460,0.585205,-3.927381,0.999998,0.000176,-0.001275,0.002498,-0.000029,0.002499,-0.001276,-89.562880,0.002499,
620,1530,0.670974,-1.303670,0.999998,0.000160,-0.001276,0.002557,0.000018,0.002557,-0.001276,89.724311,0.002557,
810,1390,0.520654,-1.526812,0.999998,0.000191,-0.001518,0.002762,-0.000004,0.002762,-0.001518,-89.944141,0.002767,
1640,380,-0.319069,-4.263092,0.999997,0.000170,-0.001103,0.002426,0.000022,0.002426,-0.001103,89.648943,0.002430,
1080,340,0.080305,-4.487012,0.999998,0.000168,-0.000583,0.001899,-0.000058,0.001901,-0.000584,-88.657806,0.001947,
1010,760,0.258749,-3.477239,0.999997,0.000190,-0.001842,0.002967,-0.000576,0.003035,-0.001910,-83.265327,0.003069,
1770,240,-0.346615,-4.517088,0.999998,0.000173,-0.001163,0.002516,-0.000169,0.002524,-0.001170,-87.372114,0.002526,
1470,710,-0.256380,-3.590913,0.999998,0.000189,-0.001679,0.002803,0.000520,0.002862,-0.001738,83.468110,0.002884,
1330,570,-0.066038,-4.080254,0.999999,0.000137,-0.000758,0.001751,0.000332,0.001794,-0.000802,82.589243,0.001798,
900,670,0.383979,-3.583037,0.999998,0.000188,-0.001585,0.002834,-0.000179,0.002841,-0.001593,-87.680042,0.002848,
1600,930,-0.712723,-2.784330,0.999998,0.000199,-0.001195,0.002809,-0.000344,0.002839,-0.001224,-85.119509,0.002848,
1600,1350,-0.471505,-1.594989,0.999997,0.000191,-0.001613,0.002892,-0.000032,0.002892,-0.001614,-89.591861,0.002898,
1360,1250,-0.132222,-1.445238,0.999998,0.000180,-0.001537,0.002182,-0.001145,0.002507,-0.001862,-74.187750,0.002603,
1030,970,0.550873,-2.790960,0.999997,0.000232,-0.001735,0.004320,-0.000572,0.004374,-0.001788,-84.651079,0.004398,
1270,1830,-0.012906,-0.326225,0.999998,0.000182,-0.000339,0.001703,-0.000014,0.001703,-0.000339,-89.606220,0.001803,
640,1700,0.519315,-0.857263,0.999998,0.000179,-0.001254,0.002527,0.000003,0.002527,-0.001254,89.954393,0.002527,
730,430,0.463815,-4.065675,0.999998,0.000178,-0.001242,0.002521,-0.000047,0.002522,-0.001243,-89.282642,0.002522,
1680,560,-0.482722,-3.776231,0.999998,0.000184,-0.001340,0.002632,0.000075,0.002633,-0.001341,88.918709,0.002633,
790,60,0.048016,-4.966023,0.999999,0.000140,-0.000292,0.001855,0.000511,0.001970,-0.000407,77.282768,0.002080,
940,820,0.456578,-3.173609,0.999998,0.000180,-0.001823,0.003216,0.000019,0.003216,-0.001823,89.786848,0.003225,
1720,1280,-0.719391,-1.872717,0.999998,0.000197,-0.001393,0.002703,0.000228,0.002716,-0.001406,86.818104,0.002716,
900,620,0.354118,-3.722265,0.999998,0.000172,-0.001486,0.002684,-0.000249,0.002699,-0.001501,-86.599059,0.002705,
1800,1800,-0.398120,-0.584440,0.999998,0.000224,-0.001185,0.002559,0.000168,0.002567,-0.001193,87.430327,0.002569,
690,150,0.230858,-4.742228,0.999998,0.000158,-0.000997,0.002502,0.000464,0.002562,-0.001058,82.577365,0.002575,
600,1520,0.703942,-1.344679,0.999998,0.000155,-0.001249,0.002552,0.000031,0.002552,-0.001250,89.539420,0.002552,
770,1130,0.816572,-2.260412,0.999998,0.000191,-0.001163,0.002593,-0.000221,0.002606,-0.001176,-86.647733,0.002610,
920,1910,0.080561,-0.220808,0.999999,0.000127,-0.000334,0.001875,-0.000264,0.001906,-0.000365,-83.279244,0.002023,
1120,420,0.067732,-4.350127,0.999998,0.000187,-0.000652,0.001865,-0.000158,0.001875,-0.000662,-86.419304,0.001902,
1550,1450,-0.325107,-1.266611,0.999998,0.000179,-0.001416,0.002639,-0.000260,0.002656,-0.001432,-86.350742,0.002659,
980,1220,0.401100,-1.856868,0.999998,0.000198,-0.001928,0.003342,0.000112,0.003345,-0.001930,88.786428,0.003358,
1110,560,0.084219,-4.083646,0.999999,0.000135,-0.000841,0.001864,-0.000411,0.001925,-0.000902,-81.547313,0.001926,
720,30,0.018735,-5.017979,0.999999,0.000000,-0.000231,0.001983,0.000740,0.002208,-0.000456,73.114592,0.002331,
1430,330,-0.108740,-4.488530,0.999998,0.000194,-0.000704,0.001974,0.000057,0.001975,-0.000705,88.790533,0.002002,
1420,850,-0.302004,-3.276369,0.999997,0.000200,-0.001903,0.003231,0.000635,0.003308,-0.001981,83.054920,0.003330,
1170,790,0.041966,-3.806491,0.999998,0.000176,-0.000862,0.001012,-0.000825,0.001323,-0.001173,-69.319001,0.001449,
850,1190,0.660792,-2.073707,0.999998,0.000193,-0.001426,0.002885,-0.000336,0.002911,-0.001452,-85.576761,0.002911,
1580,330,-0.227874,-4.417104,0.999998,0.000191,-0.000961,0.002279,-0.000012,0.002279,-0.000961,-89.787040,0.002289,
1710,1040,-0.871796,-2.488941,0.999998,0.000149,-0.001053,0.002467,0.000069,0.002468,-0.001054,88.879737,0.002477,
1650,1180,-0.723240,-2.116861,0.999998,0.000189,-0.001326,0.002762,0.000340,0.002790,-0.001354,85.273513,0.002791,
1220,1880,0.003755,-0.240778,0.999999,0.000141,-0.000299,0.001639,0.000016,0.001639,-0.000299,89.523759,0.001745,
1800,1010,-0.966088,-2.561625,0.999999,0.000128,-0.001066,0.002323,-0.000059,0.002324,-0.001067,-88.994962,0.002326,
1870,1500,-0.727385,-1.401476,0.999998,0.000169,-0.001269,0.002568,-0.000007,0.002568,-0.001269,-89.899374,0.002568,
590,1620,0.642233,-1.099212,0.999998,0.000163,-0.001494,0.002445,0.000139,0.002450,-0.001499,87.975074,0.002470,
1600,570,-0.378215,-3.818427,0.999998,0.000187,-0.001358,0.002629,0.000168,0.002636,-0.001365,87.591526,0.002637,
1850,270,-0.474508,-4.371747,0.999997,0.000201,-0.001214,0.002506,-0.000033,0.002507,-0.001214,-89.489847,0.002507,
1890,1530,-0.730224,-1.340519,0.999997,0.000188,-0.001249,0.002557,0.000001,0.002557,-0.001249,89.984614,0.002558,
570,260,0.536160,-4.368952,0.999374,0.002889,-0.003558,0.003168,0.000481,0.003203,-0.003592,85.932180,0.003942,
1050,1980,0.016802,-0.087274,0.999999,0.000128,-0.000123,0.001602,-0.000126,0.001611,-0.000133,-85.849755,0.001789,
1540,1530,-0.277397,-1.051921,0.999998,0.000184,-0.001215,0.002470,-0.000233,0.002485,-0.001230,-86.391932,0.002485,
1160,330,0.034156,-4.526086,0.999998,0.000156,-0.000497,0.001825,-0.000006,0.001825,-0.000497,-89.863651,0.001887,
1900,1740,-0.577329,-0.828888,0.999997,0.000000,-0.001175,0.002382,-0.000003,0.002382,-0.001175,-89.955671,0.002382,
1050,400,0.116263,-4.356866,0.999998,0.000166,-0.000806,0.002003,-0.000169,0.002013,-0.000816,-86.575871,0.002025,
1590,1250,-0.555585,-1.883160,0.999998,0.000187,-0.001640,0.003032,0.000202,0.003040,-0.001649,87.529785,0.003044,
670,1960,0.155576,-0.173079,0.999999,0.000176,-0.000627,0.002422,-0.000815,0.002626,-0.000831,-75.935774,0.002684,
1520,430,-0.217570,-4.227539,0.999998,0.000164,-0.000983,0.002262,0.000137,0.002268,-0.000989,87.593462,0.002274,
1690,1720,-0.344904,-0.704114,0.999998,0.000174,-0.001083,0.002482,0.000041,0.002483,-0.001083,89.336940,0.002489,
810,1370,0.537397,-1.580466,0.999998,0.000187,-0.001499,0.002803,-0.000049,0.002803,-0.001500,-89.353090,0.002806,
960,1110,0.610935,-2.253346,0.999998,0.000179,-0.001284,0.003286,-0.000282,0.003304,-0.001301,-86.478221,0.003328,
1600,910,-0.691316,-2.840278,0.999998,0.000169,-0.001270,0.002844,-0.000364,0.002876,-0.001302,-84.988042,0.002880,
1250,140,-0.002904,-4.855085,0.999999,0.000139,-0.000207,0.001595,0.000012,0.001595,-0.000207,89.611931,0.001734,
590,1790,0.497373,-0.679170,0.999997,0.000195,-0.001608,0.002502,-0.000016,0.002502,-0.001608,-89.779431,0.002535,
1360,1230,-0.155143,-1.488702,0.999998,0.000197,-0.001577,0.002168,-0.001118,0.002477,-0.001885,-74.576272,0.002587,
940,1040,0.692663,-2.483483,0.999997,0.000202,-0.000900,0.002987,-0.000064,0.002988,-0.000901,-89.055673,0.003066,
1720,1260,-0.738005,-1.927754,0.999998,0.000182,-0.001379,0.002657,0.000243,0.002672,-0.001394,86.573844,0.002673,
1680,540,-0.467497,-3.827419,0.999998,0.000183,-0.001311,0.002592,0.000090,0.002594,-0.001313,88.680833,0.002594,
730,450,0.477023,-4.015933,0.999998,0.000165,-0.001269,0.002517,-0.000056,0.002518,-0.001270,-89.159751,0.002518,
1170,770,0.037056,-3.828862,0.999998,0.000172,-0.000778,0.001022,-0.000799,0.001325,-0.001081,-69.200215,0.001411,
1120,860,0.197457,-3.553870,0.999997,0.000199,-0.001013,0.001485,-0.000939,0.001799,-0.001327,-71.531469,0.001865,
980,1440,0.237169,-1.216216,0.999998,0.000159,-0.001363,0.002495,0.000440,0.002545,-0.001413,83.569219,0.002550,
1800,1780,-0.418314,-0.636353,0.999997,0.000213,-0.001219,0.002534,0.000110,0.002537,-0.001222,88.317484,0.002538,
1220,1640,0.006704,-0.658906,0.999998,0.000160,-0.000553,0.001767,0.000033,0.001767,-0.000553,89.177518,0.001808,
690,130,0.201161,-4.789497,0.999998,0.000160,-0.000924,0.002431,0.000555,0.002521,-0.001014,80.845913,0.002537,
1290,1980,-0.004749,-0.083833,0.999999,0.000125,-0.000078,0.001539,0.000055,0.001541,-0.000080,88.060362,0.001735,
1870,1490,-0.735560,-1.427518,0.999997,0.000180,-0.001272,0.002577,-0.000010,0.002577,-0.001272,-89.852702,0.002577,
1030,600,0.168609,-3.919589,0.999998,0.000154,-0.001177,0.002260,-0.000489,0.002329,-0.001246,-82.063744,0.002330,
1900,1730,-0.586225,-0.852399,0.999998,0.000000,-0.001206,0.002352,0.000024,0.002352,-0.001207,89.615989,0.002352,
1550,1670,-0.227618,-0.728984,0.999998,0.000149,-0.000975,0.002254,-0.000071,0.002255,-0.000976,-88.733720,0.002262,
860,1240,0.588252,-1.922708,0.999998,0.000175,-0.001595,0.002965,-0.000232,0.002977,-0.001607,-87.091906,0.002980,
1520,1530,-0.253935,-1.034724,0.999999,0.000150,-0.001189,0.002401,-0.000268,0.002421,-0.001209,-85.754322,0.002421,
810,1350,0.554312,-1.638803,0.999997,0.000229,-0.001484,0.002824,-0.000081,0.002826,-0.001485,-88.917360,0.002827,
940,1110,0.636173,-2.268867,0.999998,0.000190,-0.001229,0.003135,-0.000318,0.003158,-0.001252,-85.848794,0.003180,
1780,210,-0.321205,-4.585252,0.999998,0.000178,-0.001122,0.002539,-0.000255,0.002557,-0.001140,-86.038044,0.002562,
1310,500,-0.050538,-4.217557,0.999999,0.000133,-0.000719,0.001809,0.000217,0.001827,-0.000737,85.138477,0.001839,
690,1680,0.472830,-0.865573,0.999998,0.000172,-0.001220,0.002534,0.000013,0.002534,-0.001220,89.796211,0.002535,
1390,1600,-0.106797,-0.780333,0.999999,0.000147,-0.000851,0.001979,-0.000250,0.002001,-0.000873,-84.996720,0.002007,
1800,830,-0.872741,-2.990729,0.999998,0.000155,-0.001187,0.002449,-0.000198,0.002460,-0.001198,-86.896312,0.002460,
1510,490,-0.229277,-4.095654,0.999998,0.000148,-0.001122,0.002323,0.000266,0.002344,-0.001143,85.607246,0.002344,
640,830,0.900035,-2.980799,0.999998,0.000159,-0.001176,0.002374,0.000182,0.002384,-0.001186,87.080512,0.002384,
640,1680,0.533386,-0.906600,0.999998,0.000191,-0.001244,0.002511,0.000033,0.002511,-0.001245,89.490637,0.002511,
1620,750,-0.545628,-3.297341,0.999997,0.000183,-0.001597,0.002898,-0.000117,0.002901,-0.001600,-88.515618,0.002906,
1850,250,-0.450954,-4.424299,0.999997,0.000215,-0.001224,0.002506,-0.000033,0.002506,-0.001225,-89.500566,0.002506,
1280,320,-0.023967,-4.546912,0.999998,0.000172,-0.000465,0.001777,0.000016,0.001777,-0.000465,89.579808,0.001843,
570,1740,0.600104,-0.793770,0.999579,0.002437,-0.003300,0.002583,0.000191,0.002589,-0.003307,88.142474,0.003479,
600,1500,0.718914,-1.397616,0.999998,0.000175,-0.001246,0.002572,0.000019,0.002572,-0.001246,89.720583,0.002573,
1470,690,-0.246342,-3.647536,0.999998,0.000194,-0.001615,0.002725,0.000515,0.002785,-0.001676,83.327216,0.002804,
900,1650,0.251361,-0.784869,0.999998,0.000142,-0.001046,0.002323,0.000126,0.002328,-0.001050,87.863344,0.002332,
1520,410,-0.210394,-4.271643,0.999998,0.000186,-0.000941,0.002240,0.000121,0.002245,-0.000946,87.826302,0.002254,
1120,840,0.150460,-3.584854,0.999998,0.000176,-0.001229,0.001754,-0.001080,0.002104,-0.001579,-72.047782,0.002190,
1220,1600,0.007838,-0.728541,0.999998,0.000157,-0.000607,0.001735,0.000050,0.001736,-0.000608,88.788089,0.001762,
710,30,0.022237,-5.017057,0.999999,0.000000,-0.000243,0.002005,0.000781,0.002250,-0.000487,72.612441,0.002367,
1740,610,-0.602255,-3.596616,0.999997,0.000194,-0.001370,0.002656,-0.000024,0.002656,-0.001370,-89.661477,0.002656,
900,380,0.238252,-4.312503,0.999998,0.000168,-0.001009,0.002300,-0.000055,0.002301,-0.001010,-89.041575,0.002307,
990,700,0.256906,-3.613293,0.999998,0.000178,-0.001625,0.002767,-0.000504,0.002824,-0.001682,-83.538164,0.002841,
1580,930,-0.687812,-2.790932,0.999998,0.000166,-0.001188,0.002859,-0.000343,0.002888,-0.001217,-85.192928,0.002900,
580,1790,0.508800,-0.689415,0.999998,0.000185,-0.002859,0.002470,0.000080,0.002472,-0.002860,89.138337,0.003103,
1560,330,-0.209579,-4.429351,0.999998,0.000181,-0.000890,0.002237,-0.000019,0.002237,-0.000890,-89.653743,0.002252,
1370,760,-0.120195,-3.663906,0.999998,0.000179,-0.001421,0.002179,0.001015,0.002445,-0.001688,75.287743,0.002504,
1420,830,-0.270123,-3.340904,0.999997,0.000199,-0.001966,0.003104,0.000678,0.003193,-0.002055,82.515225,0.003237,
860,1280,0.544161,-1.801818,0.999998,0.000177,-0.001641,0.002964,-0.000130,0.002967,-0.001645,-88.383160,0.002973,
770,1090,0.841055,-2.362889,0.999998,0.000167,-0.001090,0.002536,-0.000183,0.002545,-0.001099,-87.114906,0.002553,
1720,1240,-0.757030,-1.979040,0.999998,0.000159,-0.001347,0.002649,0.000263,0.002667,-0.001364,86.253243,0.002667,
1730,1780,-0.336026,-0.580255,0.999997,0.000217,-0.001096,0.002503,0.000166,0.002511,-0.001103,87.356999,0.002517,
1430,90,-0.023427,-4.928066,0.999999,0.000138,-0.000127,0.001621,-0.000128,0.001630,-0.000136,-85.826303,0.001809,
580,1620,0.655222,-1.107139,0.999998,0.000168,-0.002308,0.002304,0.000532,0.002364,-0.002369,83.499165,0.002733,
670,1940,0.190873,-0.221699,0.999998,0.000169,-0.000795,0.002514,-0.000723,0.002666,-0.000946,-78.195223,0.002703,
1590,1230,-0.577835,-1.942760,0.999998,0.000195,-0.001603,0.002994,0.000250,0.003008,-0.001616,86.900460,0.003010,
1640,360,-0.304580,-4.309519,0.999997,0.000176,-0.001076,0.002382,-0.000021,0.002382,-0.001076,-89.654297,0.002386,
1080,380,0.090412,-4.410349,0.999998,0.000159,-0.000634,0.001941,-0.000099,0.001945,-0.000638,-87.796339,0.001983,
980,1200,0.430963,-1.925824,0.999997,0.000199,-0.001877,0.003388,0.000019,0.003388,-0.001877,89.797801,0.003395,
1040,560,0.152433,-4.017103,0.999999,0.000141,-0.001100,0.002155,-0.000425,0.002210,-0.001155,-82.680050,0.002211,
1880,1550,-0.702538,-1.281222,0.999998,0.000173,-0.001238,0.002551,-0.000011,0.002551,-0.001238,-89.840776,0.002552,
1900,1720,-0.596097,-0.876104,0.999998,0.000000,-0.001230,0.002360,0.000029,0.002360,-0.001230,89.538621,0.002361,
1830,1600,-0.602875,-1.115152,0.999998,0.000177,-0.001255,0.002531,-0.000028,0.002531,-0.001256,-89.576904,0.002531,
960,530,0.235794,-4.008466,0.999998,0.000149,-0.001203,0.002384,-0.000299,0.002409,-0.001228,-85.268963,0.002409,
1850,300,-0.502544,-4.296591,0.999997,0.000213,-0.001218,0.002514,-0.000002,0.002514,-0.001218,-89.973035,0.002515,
730,470,0.492783,-3.964120,0.999998,0.000168,-0.001276,0.002545,-0.000058,0.002545,-0.001277,-89.127838,0.002545,
1800,1760,-0.436881,-0.686186,0.999998,0.000188,-0.001208,0.002520,0.000061,0.002521,-0.001209,89.058703,0.002522,
1760,1200,-0.844812,-2.097483,0.999999,0.000148,-0.001225,0.002502,0.000253,0.002519,-0.001242,86.130359,0.002519,
640,1660,0.549305,-0.957927,0.999998,0.000190,-0.001233,0.002515,0.000024,0.002515,-0.001233,89.630604,0.002515,
1850,120,-0.257862,-4.757270,0.999998,0.000140,-0.001206,0.002680,-0.000374,0.002716,-0.001241,-84.554139,0.002719,
1330,550,-0.066419,-4.116463,0.999999,0.000126,-0.000741,0.001796,0.000296,0.001830,-0.000775,83.438533,0.001837,
1010,140,0.048865,-4.841027,0.999999,0.000107,-0.000240,0.001745,0.000161,0.001758,-0.000253,85.379375,0.001901,
1100,1470,0.095283,-1.013893,0.999999,0.000133,-0.000940,0.001911,0.000460,0.001984,-0.001012,81.050570,0.001984,
1510,470,-0.220861,-4.143743,0.999998,0.000170,-0.001071,0.002303,0.000214,0.002317,-0.001085,86.380567,0.002318,
570,1730,0.593856,-0.840887,0.999496,0.002678,-0.003451,0.003701,0.000332,0.003717,-0.003467,87.344820,0.004155,
1890,1440,-0.798937,-1.571460,0.999998,0.000161,-0.001289,0.002578,0.000010,0.002578,-0.001289,89.849985,0.002578,
1380,580,-0.109988,-4.019060,0.999999,0.000133,-0.000936,0.001989,0.000438,0.002053,-0.001000,81.670047,0.002053,
700,890,0.876074,-2.853540,0.999999,0.000150,-0.001191,0.002471,0.000228,0.002485,-0.001206,86.453245,0.002486,
1470,670,-0.237602,-3.697875,0.999998,0.000175,-0.001530,0.002609,0.000510,0.002671,-0.001591,83.078658,0.002688,
1560,1250,-0.504590,-1.857157,0.999997,0.000201,-0.001738,0.003118,0.000107,0.003121,-0.001741,88.732819,0.003128,
600,1480,0.733152,-1.448036,0.999998,0.000182,-0.001254,0.002549,0.000001,0.002549,-0.001254,89.987831,0.002549,
1850,230,-0.429612,-4.471599,0.999997,0.000191,-0.001217,0.002509,-0.000059,0.002510,-0.001218,-89.100493,0.002510,
1620,730,-0.525088,-3.355772,0.999998,0.000195,-0.001619,0.002913,-0.000072,0.002914,-0.001620,-89.096120,0.002920,
1600,550,-0.366471,-3.869907,0.999998,0.000196,-0.001347,0.002530,0.000167,0.002538,-0.001354,87.541129,0.002539,
1740,950,-0.884672,-2.710814,0.999998,0.000149,-0.001101,0.002505,-0.000197,0.002515,-0.001111,-86.886816,0.002521,
700,2020,0.032878,-0.033386,0.999999,0.000000,-0.000263,0.001985,-0.000742,0.002208,-0.000486,-73.273852,0.002320,
1740,690,-0.668542,-3.382301,0.999997,0.000188,-0.001372,0.002665,-0.000109,0.002668,-0.001374,-88.457244,0.002668,
1280,300,-0.023198,-4.582149,0.999999,0.000140,-0.000423,0.001759,-0.000005,0.001759,-0.000423,-89.861526,0.001836,
1120,820,0.122946,-3.621569,0.999998,0.000163,-0.001370,0.001803,-0.001116,0.002156,-0.001723,-72.442063,0.002281,
1220,1580,0.006460,-0.764182,0.999998,0.000157,-0.000638,0.001720,0.000066,0.001722,-0.000640,88.388835,0.001741,
1170,750,0.034185,-3.849060,0.999998,0.000157,-0.000732,0.001112,-0.000735,0.001369,-0.000989,-70.709253,0.001414,
1140,1790,0.037084,-0.400831,0.999998,0.000148,-0.000437,0.001765,0.000001,0.001765,-0.000437,89.973370,0.001838,
1370,80,-0.012390,-4.945980,0.999999,0.000125,-0.000085,0.001579,-0.000095,0.001584,-0.000091,-86.743622,0.001779,
1520,370,-0.195648,-4.360353,0.999999,0.000154,-0.000878,0.002155,0.000090,0.002157,-0.000880,88.293244,0.002169,
1890,530,-0.734704,-3.687119,0.999998,0.000182,-0.001322,0.002561,0.000032,0.002561,-0.001322,89.531951,0.002562,
1030,640,0.176417,-3.826872,0.999998,0.000153,-0.001296,0.002356,-0.000582,0.002446,-0.001386,-81.159441,0.002454,
570,1790,0.534765,-0.695057,0.999312,0.003028,-0.003571,0.002469,0.000175,0.002474,-0.003576,88.343304,0.003663,
770,1070,0.847337,-2.413454,0.999998,0.000168,-0.001052,0.002532,-0.000095,0.002535,-0.001055,-88.480859,0.002547,
1090,170,0.036348,-4.797642,0.999999,0.000135,-0.000256,0.001718,0.000087,0.001722,-0.000260,87.496079,0.001857,
1630,1780,-0.235932,-0.523188,0.999998,0.000178,-0.000845,0.002327,0.000184,0.002338,-0.000856,86.690237,0.002366,
1420,1980,-0.017194,-0.088031,0.999998,0.000164,-0.000139,0.001604,0.000140,0.001615,-0.000150,85.422005,0.001785,
870,790,0.541649,-3.199958,0.999998,0.000177,-0.001646,0.003007,0.000171,0.003013,-0.001652,87.893514,0.003018,
980,1160,0.500131,-2.062438,0.999998,0.000181,-0.001710,0.003434,-0.000110,0.003436,-0.001712,-88.778666,0.003436,
1040,540,0.149141,-4.060098,0.999999,0.000137,-0.001066,0.002129,-0.000391,0.002176,-0.001113,-83.129637,0.002177,
1900,1710,-0.605523,-0.899114,0.999998,0.000000,-0.001270,0.002406,0.000038,0.002407,-0.001270,89.414733,0.002408,
1670,1720,-0.321746,-0.689536,0.999998,0.000169,-0.001140,0.002458,0.000029,0.002459,-0.001140,89.543866,0.002461,
690,110,0.165662,-4.840153,0.999998,0.000153,-0.000848,0.002369,0.000622,0.002485,-0.000964,79.438462,0.002506,
1850,1500,-0.702597,-1.385779,0.999998,0.000158,-0.001256,0.002565,-0.000031,0.002566,-0.001256,-89.537664,0.002566,
1590,1210,-0.602259,-2.003473,0.999998,0.000188,-0.001548,0.002981,0.000303,0.003001,-0.001568,86.191351,0.003002,
1710,1780,-0.315380,-0.569325,0.999997,0.000220,-0.001000,0.002459,0.000174,0.002467,-0.001008,87.125474,0.002481,
640,1640,0.564961,-1.008498,0.999998,0.000193,-0.001242,0.002531,0.000038,0.002531,-0.001242,89.418706,0.002531,
570,1720,0.604218,-0.891777,0.999598,0.002397,-0.003450,0.003772,0.000459,0.003801,-0.003479,86.376064,0.004216,
730,910,0.853594,-2.809947,0.999998,0.000147,-0.001173,0.002497,0.000220,0.002510,-0.001186,86.577750,0.002511,
1570,540,-0.322693,-3.922712,0.999998,0.000165,-0.001289,0.002505,0.000213,0.002517,-0.001301,86.792326,0.002518,
940,800,0.431339,-3.239192,0.999997,0.000193,-0.001824,0.003197,-0.000054,0.003198,-0.001824,-89.387504,0.003209,
1680,520,-0.455907,-3.878529,0.999998,0.000165,-0.001289,0.002575,0.000106,0.002578,-0.001292,88.428368,0.002578,
840,430,0.331252,-4.151550,0.999998,0.000180,-0.001177,0.002448,-0.000111,0.002451,-0.001181,-88.252361,0.002452,
1550,1430,-0.337094,-1.320025,0.999998,0.000170,-0.001478,0.002684,-0.000262,0.002700,-0.001495,-86.406790,0.002706,
1100,1510,0.092247,-0.937309,0.999999,0.000131,-0.000891,0.001925,0.000392,0.001979,-0.000945,82.212754,0.001980,
590,890,0.999682,-2.819194,0.999998,0.000156,-0.001073,0.002182,0.000049,0.002183,-0.001073,89.132098,0.002183,
1870,1550,-0.689730,-1.273516,0.999998,0.000176,-0.001250,0.002550,-0.000013,0.002550,-0.001250,-89.801789,0.002550,
1470,650,-0.230944,-3.753181,0.999998,0.000158,-0.001436,0.002554,0.000507,0.002617,-0.001499,82.875914,0.002626,
810,1330,0.572863,-1.695164,0.999998,0.000225,-0.001493,0.002802,-0.000100,0.002805,-0.001495,-88.665890,0.002807,
1880,1440,-0.786073,-1.563897,0.999998,0.000197,-0.001273,0.002571,0.000006,0.002571,-0.001273,89.917559,0.002571,
1280,280,-0.021613,-4.616964,0.999999,0.000139,-0.000399,0.001772,0.000004,0.001772,-0.000399,89.881849,0.001859,
1850,210,-0.402492,-4.524167,0.999998,0.000164,-0.001213,0.002550,-0.000099,0.002553,-0.001215,-88.494206,0.002554,
1510,450,-0.216285,-4.189219,0.999998,0.000159,-0.001017,0.002301,0.000177,0.002310,-0.001026,86.958894,0.002315,
1590,780,-0.526880,-3.233076,0.999998,0.000177,-0.001660,0.002991,-0.000138,0.002995,-0.001664,-88.299693,0.003002,
600,1460,0.749595,-1.498538,0.999997,0.000193,-0.001294,0.002540,-0.000016,0.002540,-0.001294,-89.756188,0.002540,
1720,370,-0.403445,-4.228378,0.999998,0.000190,-0.001189,0.002492,-0.000010,0.002492,-0.001189,-89.848650,0.002493,
700,30,0.024325,-5.017730,0.999998,0.000000,-0.000201,0.002031,0.000792,0.002283,-0.000454,72.318701,0.002417,
1860,1970,-0.194965,-0.201802,0.999998,0.000144,-0.001159,0.002837,0.000642,0.002938,-0.001260,81.093272,0.002948,
1220,1560,0.008794,-0.796644,0.999998,0.000161,-0.000645,0.001738,0.000062,0.001739,-0.000647,88.510638,0.001758,
1120,800,0.103311,-3.658333,0.999998,0.000160,-0.001333,0.001857,-0.001149,0.002228,-0.001704,-72.111303,0.002330,
1040,1390,0.171069,-1.257608,0.999998,0.000189,-0.001366,0.002363,0.000649,0.002473,-0.001476,80.410372,0.002488,
1890,500,-0.711736,-3.762830,0.999998,0.000157,-0.001264,0.002527,-0.000001,0.002527,-0.001264,-89.987234,0.002527,
1100,490,0.088867,-4.208732,0.999998,0.000153,-0.000786,0.001941,-0.000244,0.001963,-0.000807,-84.924061,0.001973,
900,340,0.216222,-4.404131,0.999998,0.000154,-0.000946,0.002260,-0.000035,0.002260,-0.000946,-89.379815,0.002270,
1090,150,0.029439,-4.833104,0.999999,0.000117,-0.000209,0.001685,0.000100,0.001690,-0.000214,86.990438,0.001840,
1420,1960,-0.023289,-0.118877,0.999998,0.000177,-0.000194,0.001622,0.000147,0.001634,-0.000206,85.399986,0.001779,
660,1550,0.604970,-1.220653,0.999998,0.000162,-0.001270,0.002582,0.000039,0.002582,-0.001270,89.413459,0.002582,
1900,1700,-0.613225,-0.923794,0.999998,0.000000,-0.001296,0.002461,0.000020,0.002461,-0.001296,89.700163,0.002462,
1110,1920,0.022769,-0.182486,0.999999,0.000126,-0.000225,0.001611,-0.000075,0.001614,-0.000228,-87.672095,0.001746,
860,730,0.498244,-3.369743,0.999997,0.000187,-0.001638,0.002922,0.000033,0.002922,-0.001638,89.589235,0.002929,
1010,1080,0.588450,-2.306855,0.999997,0.000230,-0.001424,0.003891,0.000114,0.003894,-0.001427,88.775795,0.003940,
1350,760,-0.093017,-3.715400,0.999998,0.000167,-0.001260,0.001899,0.001067,0.002225,-0.001587,72.980802,0.002291,
870,770,0.521419,-3.260316,0.999998,0.000173,-0.001664,0.003008,0.000104,0.003010,-0.001666,88.723591,0.003016,
1430,80,-0.020720,-4.943754,0.999999,0.000116,-0.000111,0.001618,-0.000140,0.001629,-0.000122,-85.411527,0.001814,
1520,350,-0.185763,-4.403289,0.999998,0.000199,-0.000857,0.002191,0.000021,0.002191,-0.000858,89.607317,0.002208,
1120,1790,0.045878,-0.403553,0.999998,0.000146,-0.000451,0.001760,0.000011,0.001760,-0.000451,89.711695,0.001829,
640,1620,0.580229,-1.059471,0.999998,0.000175,-0.001262,0.002514,0.000030,0.002515,-0.001263,89.542652,0.002515,
980,1140,0.535001,-2.133177,0.999998,0.000192,-0.001588,0.003447,-0.000143,0.003451,-0.001592,-88.379673,0.003454,
620,1730,0.517401,-0.798819,0.999998,0.000177,-0.001175,0.002493,0.000029,0.002493,-0.001175,89.544606,0.002494,
1040,520,0.147008,-4.104213,0.999998,0.000154,-0.001016,0.002150,-0.000331,0.002184,-0.001050,-84.098124,0.002185,
1470,630,-0.222571,-3.802447,0.999998,0.000166,-0.001359,0.002470,0.000471,0.002527,-0.001416,83.094124,0.002533,
1550,1390,-0.360416,-1.429797,0.999998,0.000187,-0.001566,0.002804,-0.000231,0.002816,-0.001578,-86.981295,0.002823,
1610,1080,-0.756753,-2.381326,0.999998,0.000179,-0.001007,0.002682,0.000204,0.002694,-0.001018,86.848472,0.002720,
1740,930,-0.873245,-2.759808,0.999999,0.000143,-0.001131,0.002451,-0.000193,0.002462,-0.001141,-86.927992,0.002464,
690,2020,0.035272,-0.034182,0.999999,0.000000,-0.000140,0.002017,-0.000818,0.002292,-0.000415,-71.411500,0.002442,
1860,1950,-0.240018,-0.254917,0.999998,0.000162,-0.001174,0.002719,0.000466,0.002774,-0.001229,83.263555,0.002780,
1670,1120,-0.796256,-2.282923,0.999998,0.000154,-0.001116,0.002598,0.000244,0.002614,-0.001132,86.251355,0.002622,
1850,190,-0.374569,-4.575081,0.999998,0.000191,-0.001217,0.002557,-0.000131,0.002562,-0.001222,-88.015411,0.002563,
1590,1190,-0.626520,-2.063061,0.999998,0.000183,-0.001479,0.002945,0.000333,0.002970,-0.001504,85.718006,0.002970,
960,510,0.226217,-4.056606,0.999999,0.000152,-0.001186,0.002343,-0.000287,0.002367,-0.001209,-85.378612,0.002367,
600,1680,0.584363,-0.940897,0.999998,0.000181,-0.001230,0.002483,0.000022,0.002483,-0.001230,89.659238,0.002483,
1100,1490,0.094397,-0.975944,0.999999,0.000122,-0.000910,0.001889,0.000415,0.001949,-0.000970,81.736029,0.001949,
1900,1690,-0.622560,-0.949207,0.999998,0.000000,-0.001283,0.002469,-0.000016,0.002469,-0.001283,-89.756118,0.002470,
1510,430,-0.208838,-4.234540,0.999998,0.000151,-0.000958,0.002230,0.000139,0.002236,-0.000964,87.502761,0.002243,
730,890,0.838604,-2.861339,0.999998,0.000155,-0.001222,0.002536,0.000276,0.002556,-0.001242,85.824150,0.002557,
1800,1740,-0.455731,-0.735551,0.999998,0.000181,-0.001220,0.002516,0.000015,0.002516,-0.001220,89.767945,0.002516,
1020,1310,0.230605,-1.499449,0.999998,0.000208,-0.001773,0.002809,0.000644,0.002898,-0.001862,82.151768,0.002937,
1890,480,-0.696892,-3.814131,0.999998,0.000179,-0.001230,0.002528,0.000028,0.002529,-0.001230,89.576207,0.002529,
1220,1540,0.005773,-0.831471,0.999999,0.000150,-0.000621,0.001692,0.000069,0.001694,-0.000623,88.302527,0.001714,
880,610,0.378174,-3.727130,0.999997,0.000173,-0.001436,0.002669,-0.000206,0.002680,-0.001447,-87.128846,0.002682,
1090,130,0.026351,-4.864761,0.999999,0.000118,-0.000179,0.001641,0.000099,0.001646,-0.000185,86.904891,0.001803,
1610,1780,-0.218633,-0.513852,0.999998,0.000185,-0.000862,0.002287,0.000140,0.002293,-0.000868,87.464009,0.002316,
1420,1940,-0.030097,-0.152761,0.999999,0.000162,-0.000237,0.001696,0.000118,0.001704,-0.000245,86.516398,0.001842,
1120,780,0.090667,-3.695995,0.999998,0.000181,-0.001296,0.001824,-0.001111,0.002179,-0.001651,-72.265095,0.002274,
1390,460,-0.107193,-4.250079,0.999998,0.000152,-0.000843,0.001989,0.000255,0.002012,-0.000866,84.896041,0.002019,
990,1080,0.612716,-2.329440,0.999997,0.000196,-0.001227,0.003541,-0.000104,0.003543,-0.001229,-88.753572,0.003598,
1280,260,-0.019790,-4.653394,0.999998,0.000146,-0.000367,0.001729,0.000007,0.001729,-0.000367,89.813531,0.001822,
860,710,0.480422,-3.428846,0.999997,0.000201,-0.001611,0.002910,-0.000006,0.002910,-0.001611,-89.925220,0.002916,
1580,570,-0.351499,-3.836261,0.999998,0.000159,-0.001368,0.002614,0.000183,0.002622,-0.001376,87.373639,0.002623,
1720,1220,-0.775779,-2.033489,0.999998,0.000162,-0.001287,0.002623,0.000299,0.002646,-0.001309,85.658381,0.002646,
980,1120,0.568826,-2.199967,0.999997,0.000193,-0.001437,0.003479,-0.000196,0.003486,-0.001445,-87.723157,0.003503,
1040,500,0.141190,-4.146759,0.999998,0.000157,-0.000958,0.002113,-0.000277,0.002138,-0.000983,-84.879104,0.002140,
870,750,0.500515,-3.319857,0.999997,0.000207,-0.001673,0.002977,0.000045,0.002978,-0.001673,89.444317,0.002985,
1640,340,-0.291305,-4.359038,0.999998,0.000177,-0.001046,0.002441,-0.000041,0.002442,-0.001046,-89.326051,0.002450,
910,780,0.462661,-3.266558,0.999997,0.000195,-0.001784,0.003104,0.000035,0.003104,-0.001784,89.583887,0.003116,
770,1050,0.851275,-2.462655,0.999998,0.000165,-0.001036,0.002499,-0.000080,0.002501,-0.001037,-88.695910,0.002513,
1680,500,-0.442778,-3.931245,0.999998,0.000173,-0.001275,0.002563,0.000084,0.002565,-0.001277,88.742628,0.002565,
940,760,0.388782,-3.364804,0.999997,0.000178,-0.001815,0.003088,-0.000189,0.003095,-0.001822,-87.791382,0.003111,
900,470,0.281482,-4.100889,0.999998,0.000169,-0.001137,0.002382,-0.000173,0.002390,-0.001145,-87.183831,0.002391,
1360,1790,-0.054330,-0.407486,0.999998,0.000156,-0.000423,0.001790,0.000011,0.001790,-0.000423,89.715779,0.001871,
1540,90,-0.044667,-4.920769,0.999999,0.000136,-0.000190,0.001753,-0.000304,0.001800,-0.000237,-81.308654,0.001956,
620,1750,0.498590,-0.748495,0.999998,0.000160,-0.001180,0.002495,0.000001,0.002495,-0.001180,89.984525,0.002497,
1790,1560,-0.582440,-1.185311,0.999998,0.000193,-0.001295,0.002574,-0.000035,0.002574,-0.001295,-89.477716,0.002574,
690,30,0.025520,-5.018708,0.999999,0.000000,-0.000057,0.002060,0.000851,0.002360,-0.000356,70.601156,0.002544,
640,1820,0.402231,-0.551975,0.999997,0.000221,-0.001190,0.002558,-0.000120,0.002562,-0.001194,-88.166604,0.002564,
970,680,0.278237,-3.640262,0.999998,0.000169,-0.001583,0.002743,-0.000447,0.002788,-0.001629,-84.158325,0.002802,
900,320,0.205426,-4.450027,0.999998,0.000171,-0.000893,0.002246,-0.000003,0.002246,-0.000893,-89.950273,0.002262,
1400,310,-0.083451,-4.539332,0.999998,0.000156,-0.000585,0.001907,0.000035,0.001908,-0.000585,89.193845,0.001955,
1470,850,-0.399520,-3.153720,0.999997,0.000200,-0.001923,0.003427,0.000154,0.003431,-0.001927,88.356323,0.003440,
600,1440,0.765947,-1.548932,0.999998,0.000191,-0.001282,0.002575,-0.000021,0.002575,-0.001282,-89.686366,0.002575,
1850,170,-0.345562,-4.626983,0.999998,0.000188,-0.001215,0.002590,-0.000168,0.002598,-0.001222,-87.476251,0.002599,
760,790,0.709948,-3.134548,0.999998,0.000161,-0.001378,0.002720,0.000274,0.002738,-0.001396,86.191294,0.002738,
1880,1600,-0.666344,-1.154985,0.999998,0.000177,-0.001279,0.002500,-0.000026,0.002500,-0.001279,-89.607411,0.002500,
850,1000,0.770266,-2.592562,0.999998,0.000188,-0.000970,0.002643,0.000118,0.002647,-0.000973,88.136195,0.002678,
580,890,1.010659,-2.813570,0.999999,0.000145,-0.001049,0.002169,0.000028,0.002169,-0.001050,89.501291,0.002170,
1510,410,-0.201107,-4.278266,0.999998,0.000171,-0.000932,0.002221,0.000133,0.002226,-0.000938,87.585445,0.002235,
1900,1680,-0.630029,-0.974221,0.999998,0.000000,-0.001268,0.002446,-0.000032,0.002446,-0.001268,-89.509331,0.002446,
670,1980,0.114886,-0.123204,0.999998,0.000171,-0.000432,0.002444,-0.000975,0.002744,-0.000731,-72.931007,0.002842,
1090,110,0.020434,-4.898741,0.999999,0.000138,-0.000155,0.001630,0.000120,0.001638,-0.000163,86.177337,0.001805,
1890,360,-0.605677,-4.111081,0.999998,0.000160,-0.001263,0.002476,-0.000017,0.002476,-0.001263,-89.743252,0.002476,
1420,1920,-0.037311,-0.186730,0.999999,0.000133,-0.000271,0.001705,0.000092,0.001709,-0.000276,87.326062,0.001835,
1220,1520,0.007082,-0.865535,0.999999,0.000145,-0.000623,0.001645,0.000067,0.001647,-0.000625,88.320167,0.001663,
1670,380,-0.354461,-4.240045,0.999997,0.000188,-0.001171,0.002470,0.000033,0.002470,-0.001171,89.480714,0.002472,
1110,1520,0.083401,-0.909730,0.999999,0.000136,-0.000820,0.001888,0.000329,0.001928,-0.000860,83.173337,0.001931,
730,870,0.824355,-2.911852,0.999998,0.000165,-0.001257,0.002548,0.000269,0.002567,-0.001276,85.981071,0.002567,
1540,1230,-0.493841,-1.901030,0.999998,0.000189,-0.001776,0.003181,0.000121,0.003184,-0.001779,88.597512,0.003191,
1390,420,-0.101367,-4.330108,0.999998,0.000150,-0.000762,0.001979,0.000174,0.001990,-0.000773,86.390081,0.002007,
1280,240,-0.016868,-4.686431,0.999999,0.000126,-0.000345,0.001718,-0.000008,0.001718,-0.000345,-89.767616,0.001817,
1590,1170,-0.651182,-2.122910,0.999998,0.000189,-0.001391,0.002976,0.000374,0.003007,-0.001423,85.146094,0.003009,
1800,1720,-0.471859,-0.787219,0.999998,0.000178,-0.001232,0.002549,-0.000022,0.002549,-0.001233,-89.668219,0.002550,
1040,480,0.137775,-4.189529,0.999998,0.000152,-0.000886,0.002072,-0.000246,0.002092,-0.000906,-85.286760,0.002099,
980,1100,0.600820,-2.272568,0.999997,0.000202,-0.001300,0.003484,-0.000196,0.003492,-0.001308,-87.661209,0.003528,
1680,1450,-0.513996,-1.383645,0.999997,0.000191,-0.001416,0.002696,-0.000045,0.002697,-0.001416,-89.374347,0.002698,
1120,760,0.084945,-3.732199,0.999998,0.000181,-0.001215,0.001795,-0.001050,0.002125,-0.001545,-72.552240,0.002197,
870,730,0.482525,-3.377790,0.999997,0.000192,-0.001660,0.002937,-0.000001,0.002937,-0.001660,-89.993150,0.002946,
940,740,0.370449,-3.426300,0.999997,0.000195,-0.001768,0.002987,-0.000216,0.002997,-0.001778,-87.405460,0.003014,
1680,480,-0.430360,-3.980850,0.999998,0.000168,-0.001253,0.002534,0.000086,0.002535,-0.001255,88.697410,0.002536,
970,80,0.028047,-4.941412,0.999999,0.000134,-0.000201,0.001701,0.000205,0.001722,-0.000223,83.913847,0.001874,
830,1240,0.634112,-1.939395,0.999998,0.000160,-0.001481,0.002884,-0.000287,0.002903,-0.001500,-86.257861,0.002904,
1210,1720,0.011140,-0.518058,0.999998,0.000155,-0.000496,0.001762,0.000050,0.001763,-0.000497,88.741328,0.001818,
1720,1200,-0.794320,-2.083929,0.999998,0.000163,-0.001253,0.002594,0.000285,0.002615,-0.001274,85.788391,0.002616,
790,520,0.447425,-3.884880,0.999998,0.000178,-0.001313,0.002587,-0.000094,0.002589,-0.001315,-88.616405,0.002589,
680,2020,0.035023,-0.033222,0.999999,0.000000,-0.000034,0.002058,-0.000893,0.002388,-0.000363,-69.760201,0.002573,
1100,1650,0.080778,-0.669698,0.999998,0.000155,-0.000650,0.001882,0.000124,0.001888,-0.000656,87.210845,0.001917,
900,450,0.272507,-4.148366,0.999998,0.000161,-0.001098,0.002377,-0.000141,0.002383,-0.001104,-87.673135,0.002385,
1730,1760,-0.354061,-0.630606,0.999997,0.000199,-0.001115,0.002509,0.000110,0.002512,-0.001119,88.265621,0.002517,
1320,1850,-0.027163,-0.294826,0.999998,0.000149,-0.000328,0.001693,0.000035,0.001694,-0.000328,89.020827,0.001796,
1340,1790,-0.044503,-0.402358,0.999998,0.000153,-0.000486,0.001784,-0.000019,0.001784,-0.000487,-89.527721,0.001844,
640,1100,0.980094,-2.354913,0.999998,0.000177,-0.001087,0.002288,-0.000093,0.002291,-0.001090,-88.429660,0.002292,
1680,690,-0.582690,-3.424412,0.999997,0.000195,-0.001494,0.002735,-0.000079,0.002736,-0.001495,-88.926306,0.002740,
1850,370,-0.564113,-4.123177,0.999997,0.000193,-0.001216,0.002475,0.000014,0.002475,-0.001216,89.778022,0.002475,
880,570,0.354722,-3.834425,0.999998,0.000171,-0.001378,0.002596,-0.000193,0.002606,-0.001388,-87.231913,0.002608,
900,300,0.194974,-4.493469,0.999998,0.000175,-0.000835,0.002226,0.000059,0.002227,-0.000836,88.891176,0.002250,
770,1030,0.856227,-2.513422,0.999998,0.000174,-0.001042,0.002500,-0.000010,0.002500,-0.001042,-89.840008,0.002512,
1470,610,-0.217065,-3.850614,0.999998,0.000152,-0.001307,0.002434,0.000453,0.002488,-0.001361,83.187100,0.002492,
800,830,0.693684,-3.043385,0.999998,0.000158,-0.001410,0.002788,0.000305,0.002810,-0.001433,85.868506,0.002810,
1090,90,0.016210,-4.929916,0.999999,0.000142,-0.000123,0.001581,0.000105,0.001588,-0.000129,86.493506,0.001763,
1110,1560,0.080785,-0.835552,0.999999,0.000097,-0.000757,0.001903,0.000240,0.001924,-0.000779,84.887504,0.001936,
1860,1550,-0.677642,-1.265445,0.999998,0.000170,-0.001259,0.002553,-0.000017,0.002553,-0.001259,-89.749668,0.002553,
1900,1670,-0.637042,-0.997216,0.999997,0.000000,-0.001249,0.002417,-0.000051,0.002418,-0.001250,-89.206973,0.002418,
1510,390,-0.194616,-4.324430,0.999998,0.000165,-0.000907,0.002223,0.000122,0.002228,-0.000912,87.770941,0.002240,
1420,1900,-0.046466,-0.220927,0.999998,0.000145,-0.000307,0.001782,0.000096,0.001786,-0.000312,87.363806,0.001908,
1880,360,-0.593794,-4.118504,0.999999,0.000159,-0.001253,0.002461,-0.000004,0.002461,-0.001253,-89.934268,0.002461,
1280,220,-0.016585,-4.721065,0.999998,0.000158,-0.000303,0.001702,-0.000004,0.001702,-0.000303,-89.877942,0.001816,
1860,2010,-0.099565,-0.089703,0.999997,0.000189,-0.000766,0.002612,0.000971,0.002871,-0.001025,75.056342,0.002910,
980,1080,0.625766,-2.338449,0.999998,0.000201,-0.001170,0.003424,-0.000174,0.003431,-0.001177,-87.828514,0.003487,
1040,460,0.135214,-4.228419,0.999999,0.000142,-0.000841,0.002042,-0.000214,0.002058,-0.000857,-85.775233,0.002068,
1220,1500,0.007888,-0.898161,0.999998,0.000160,-0.000612,0.001602,0.000069,0.001604,-0.000614,88.216470,0.001619,
1800,1700,-0.488049,-0.836488,0.999997,0.000187,-0.001262,0.002525,-0.000004,0.002525,-0.001262,-89.936085,0.002525,
730,850,0.807738,-2.962960,0.999998,0.000152,-0.001286,0.002590,0.000284,0.002611,-0.001306,85.826985,0.002611,
1850,1600,-0.628623,-1.131025,0.999998,0.000174,-0.001234,0.002533,-0.000023,0.002533,-0.001234,-89.647903,0.002533,
1610,1100,-0.744483,-2.326539,0.999998,0.000170,-0.001067,0.002712,0.000271,0.002732,-0.001086,85.918677,0.002751,
1680,1430,-0.529287,-1.438030,0.999997,0.000182,-0.001423,0.002705,-0.000017,0.002705,-0.001423,-89.759257,0.002706,
760,830,0.748090,-3.027616,0.999998,0.000156,-0.001343,0.002682,0.000271,0.002700,-0.001361,86.162982,0.002700,
1390,400,-0.096780,-4.370616,0.999999,0.000127,-0.000724,0.001943,0.000149,0.001952,-0.000732,86.802180,0.001972,
1450,1720,-0.126120,-0.570040,0.999998,0.000141,-0.000696,0.002008,-0.000049,0.002009,-0.000697,-88.960293,0.002041,
600,1400,0.799200,-1.652470,0.999998,0.000175,-0.001255,0.002512,-0.000039,0.002512,-0.001255,-89.404435,0.002512,
1590,1150,-0.673590,-2.181529,0.999998,0.000178,-0.001298,0.002907,0.000355,0.002937,-0.001328,85.211255,0.002941,
1120,740,0.079448,-3.767202,0.999998,0.000194,-0.001114,0.001772,-0.000972,0.002068,-0.001411,-73.022556,0.002114,
870,710,0.463499,-3.437644,0.999997,0.000188,-0.001647,0.002916,-0.000035,0.002916,-0.001647,-89.565001,0.002924,
1650,380,-0.329983,-4.255808,0.999997,0.000178,-0.001158,0.002458,0.000027,0.002459,-0.001158,89.578233,0.002460,
970,660,0.269264,-3.694601,0.999998,0.000167,-0.001548,0.002700,-0.000440,0.002745,-0.001593,-84.153241,0.002756,
1370,1340,-0.108326,-1.277198,0.999998,0.000154,-0.001226,0.002072,-0.000893,0.002298,-0.001452,-75.781145,0.002325,
1590,120,-0.081129,-4.859852,0.999999,0.000127,-0.000420,0.001946,-0.000345,0.001995,-0.000469,-81.872735,0.002087,
1640,320,-0.277183,-4.407984,0.999998,0.000170,-0.000993,0.002365,-0.000045,0.002366,-0.000994,-89.228770,0.002376,
1090,280,0.062638,-4.602780,0.999999,0.000140,-0.000470,0.001834,0.000026,0.001834,-0.000471,89.361816,0.001905,
1340,1850,-0.035208,-0.298383,0.999998,0.000147,-0.000352,0.001722,0.000029,0.001722,-0.000352,89.190913,0.001820,
1200,1650,0.018143,-0.642819,0.999998,0.000199,-0.000593,0.001785,0.000063,0.001787,-0.000595,88.476666,0.001820,
1260,1790,-0.011358,-0.394240,0.999998,0.000156,-0.000393,0.001722,-0.000012,0.001723,-0.000393,-89.667617,0.001805,
1720,1180,-0.810311,-2.136938,0.999998,0.000165,-0.001244,0.002602,0.000266,0.002621,-0.001262,86.061132,0.002621,
750,1860,0.234098,-0.375701,0.999997,0.000186,-0.000821,0.002366,-0.000394,0.002414,-0.000869,-83.060442,0.002445,
680,30,0.027341,-5.016626,0.999999,0.000000,0.000028,0.002099,0.000904,0.002438,-0.000311,69.433892,0.002654,
790,500,0.433715,-3.935850,0.999998,0.000168,-0.001288,0.002554,-0.000096,0.002557,-0.001290,-88.567044,0.002557,
1600,1190,-0.640965,-2.067047,0.999998,0.000177,-0.001432,0.002906,0.000337,0.002932,-0.001458,85.587042,0.002932,
980,1090,0.613652,-2.304910,0.999997,0.000204,-0.001219,0.003431,-0.000179,0.003438,-0.001226,-87.802349,0.003485,
1840,1580,-0.631613,-1.173589,0.999998,0.000179,-0.001266,0.002536,-0.000034,0.002536,-0.001266,-89.481081,0.002536,
650,1170,0.930875,-2.189897,0.999998,0.000160,-0.001169,0.002371,-0.000178,0.002380,-0.001178,-87.124327,0.002380,
720,890,0.851067,-2.858693,0.999998,0.000155,-0.001192,0.002515,0.000262,0.002534,-0.001210,85.984846,0.002535,
1110,1540,0.081708,-0.871908,0.999999,0.000136,-0.000791,0.001890,0.000272,0.001917,-0.000819,84.268388,0.001924,
1900,1660,-0.644996,-1.021578,0.999998,0.000000,-0.001191,0.002435,-0.000061,0.002436,-0.001192,-89.042921,0.002436,
1470,570,-0.206910,-3.946247,0.999999,0.000146,-0.001232,0.002327,0.000389,0.002369,-0.001274,83.843201,0.002372,
1870,360,-0.579052,-4.128207,0.999998,0.000188,-0.001245,0.002449,0.000015,0.002449,-0.001246,89.759730,0.002450,
1420,1880,-0.051690,-0.257587,0.999998,0.000154,-0.000366,0.001754,0.000093,0.001759,-0.000370,87.485278,0.001854,
1860,2000,-0.123067,-0.113901,0.999999,0.000124,-0.000929,0.002696,0.000873,0.002896,-0.001128,77.140411,0.002919,
1090,70,0.011214,-4.962009,0.999999,0.000135,-0.000086,0.001570,0.000108,0.001577,-0.000093,86.296595,0.001770,
1280,200,-0.013628,-4.754139,0.999998,0.000163,-0.000262,0.001675,-0.000015,0.001675,-0.000262,-89.544497,0.001802,
1510,370,-0.185900,-4.366433,0.999998,0.000162,-0.000898,0.002143,0.000108,0.002146,-0.000902,87.961407,0.002155,
980,1060,0.645078,-2.405992,0.999998,0.000205,-0.001082,0.003532,-0.000114,0.003535,-0.001085,-88.588795,0.003622,
1040,440,0.130381,-4.270548,0.999998,0.000150,-0.000827,0.002042,-0.000188,0.002054,-0.000839,-86.263809,0.002065,
1370,1180,-0.264757,-1.643128,0.999997,0.000203,-0.001199,0.002092,-0.001172,0.002467,-0.001573,-72.266863,0.002498,
770,1010,0.852083,-2.565728,0.999998,0.000147,-0.001042,0.002509,0.000089,0.002511,-0.001044,88.561745,0.002523,
840,130,0.104158,-4.834731,0.999998,0.000149,-0.000399,0.001999,0.000403,0.002065,-0.000465,80.710389,0.002166,
1370,1320,-0.110459,-1.320426,0.999998,0.000172,-0.001330,0.002124,-0.000954,0.002370,-0.001576,-75.537514,0.002413,
1640,300,-0.265648,-4.453504,0.999998,0.000158,-0.000940,0.002348,-0.000092,0.002350,-0.000942,-88.405738,0.002366,
870,690,0.449249,-3.495576,0.999997,0.000196,-0.001625,0.002857,-0.000072,0.002858,-0.001626,-89.074206,0.002867,
670,2020,0.034838,-0.032490,0.999999,0.000000,0.000006,0.002109,-0.000950,0.002474,-0.000359,-68.945540,0.002674,
600,1550,0.681533,-1.268459,0.999999,0.000138,-0.001270,0.002539,0.000014,0.002539,-0.001270,89.788803,0.002539,
1430,1720,-0.113402,-0.560479,0.999998,0.000185,-0.000698,0.001982,-0.000071,0.001984,-0.000700,-88.481795,0.002012,
1680,1790,-0.276301,-0.526286,0.999997,0.000217,-0.001046,0.002407,0.000155,0.002414,-0.001053,87.438395,0.002421,
730,830,0.788252,-3.015557,0.999998,0.000170,-0.001298,0.002631,0.000280,0.002651,-0.001318,85.950622,0.002651,
600,1380,0.816039,-1.702054,0.999998,0.000169,-0.001261,0.002526,-0.000035,0.002526,-0.001262,-89.466522,0.002526,
1120,720,0.076134,-3.803314,0.999998,0.000163,-0.001054,0.001773,-0.000889,0.002030,-0.001310,-73.922409,0.002058,
1500,1170,-0.512769,-2.051478,0.999998,0.000194,-0.001715,0.003358,0.000185,0.003365,-0.001722,87.913179,0.003365,
1850,1650,-0.591390,-1.006069,0.999998,0.000180,-0.001253,0.002513,-0.000031,0.002513,-0.001254,-89.529114,0.002513,
1890,750,-0.912513,-3.131426,0.999998,0.000167,-0.001178,0.002459,-0.000071,0.002461,-0.001179,-88.884675,0.002462,
690,700,0.721559,-3.336009,0.999998,0.000170,-0.001330,0.002607,0.000120,0.002611,-0.001334,88.256589,0.002611,
1680,680,-0.574089,-3.450912,0.999997,0.000191,-0.001481,0.002743,-0.000067,0.002744,-0.001482,-89.093021,0.002747,
690,90,0.133869,-4.882640,0.999998,0.000145,-0.000667,0.002245,0.000708,0.002408,-0.000830,77.036589,0.002447,
1370,400,-0.084324,-4.377628,0.999998,0.000167,-0.000655,0.001898,0.000109,0.001903,-0.000660,87.552275,0.001933,
1070,1240,0.198959,-1.575672,0.999998,0.000159,-0.001808,0.002776,0.000956,0.002967,-0.002000,78.678181,0.003027,
760,810,0.730239,-3.080768,0.999998,0.000158,-0.001355,0.002680,0.000263,0.002698,-0.001372,86.281580,0.002698,
700,40,0.040584,-4.996820,0.999998,0.000156,-0.000259,0.002048,0.000785,0.002290,-0.000501,72.877792,0.002408,
1610,1120,-0.728787,-2.271482,0.999998,0.000161,-0.001157,0.002762,0.000327,0.002789,-0.001184,85.257737,0.002800,
1590,1130,-0.694654,-2.238648,0.999998,0.000178,-0.001219,0.002831,0.000354,0.002862,-0.001249,85.045345,0.002869,
1070,280,0.072443,-4.598980,0.999998,0.000171,-0.000519,0.001861,0.000009,0.001861,-0.000519,89.783702,0.001920,
1510,680,-0.306298,-3.617553,0.999998,0.000174,-0.001610,0.002786,0.000363,0.002816,-0.001639,85.316060,0.002828,
1180,1850,0.015500,-0.293012,0.999998,0.000191,-0.000288,0.001707,-0.000024,0.001707,-0.000288,-89.321812,0.001828,
1670,1980,-0.064003,-0.104233,0.999999,0.000129,-0.000359,0.001919,0.000509,0.002027,-0.000467,77.962065,0.002123,
1220,1480,0.006861,-0.928772,0.999999,0.000152,-0.000619,0.001558,0.000072,0.001561,-0.000622,88.100963,0.001572,
1130,1240,0.103973,-1.375049,0.999998,0.000188,-0.001281,0.001617,0.001090,0.001981,-0.001645,71.533664,0.002121,
980,1040,0.654512,-2.479035,0.999998,0.000197,-0.001040,0.003480,-0.000024,0.003480,-0.001040,-89.698947,0.003573,
940,720,0.354457,-3.483260,0.999997,0.000211,-0.001739,0.002941,-0.000239,0.002954,-0.001751,-87.080733,0.002971,
900,280,0.181942,-4.538634,0.999998,0.000173,-0.000754,0.002178,0.000117,0.002183,-0.000759,87.719181,0.002216,
1760,1220,-0.826949,-2.048719,0.999999,0.000140,-0.001265,0.002524,0.000253,0.002541,-0.001282,86.199367,0.002541,
810,1310,0.590583,-1.750061,0.999998,0.000191,-0.001517,0.002842,-0.000157,0.002848,-0.001523,-87.946063,0.002850,
840,110,0.084157,-4.875129,0.999999,0.000137,-0.000322,0.001959,0.000422,0.002034,-0.000398,79.856607,0.002156,
1060,1390,0.142461,-1.226411,0.999998,0.000157,-0.001276,0.002235,0.000679,0.002361,-0.001403,79.434072,0.002375,
1510,180,-0.089384,-4.759015,0.999999,0.000128,-0.000498,0.001903,-0.000174,0.001916,-0.000510,-85.880095,0.001984,
850,1020,0.774781,-2.540188,0.999998,0.000214,-0.000965,0.002660,0.000045,0.002661,-0.000966,89.291509,0.002694,
1030,1460,0.167238,-1.110223,0.999999,0.000124,-0.001150,0.002243,0.000471,0.002307,-0.001215,82.245981,0.002308,
1230,340,0.000634,-4.516478,0.999998,0.000156,-0.000535,0.001746,0.000023,0.001746,-0.000536,89.432373,0.001789,
1170,730,0.032793,-3.871345,0.999998,0.000167,-0.000714,0.001224,-0.000665,0.001430,-0.000920,-72.768715,0.001449,
650,1210,0.899617,-2.092722,0.999998,0.000143,-0.001204,0.002405,-0.000195,0.002415,-0.001215,-86.921529,0.002415,
1240,1790,-0.004081,-0.392977,0.999999,0.000120,-0.000414,0.001706,-0.000009,0.001706,-0.000414,-89.757431,0.001780,
1280,180,-0.013448,-4.787979,0.999999,0.000129,-0.000229,0.001651,-0.000020,0.001651,-0.000229,-89.402383,0.001789,
670,30,0.023617,-5.016629,0.999999,0.000000,0.000074,0.002135,0.000961,0.002514,-0.000305,68.493041,0.002743,
1640,520,-0.403065,-3.911345,0.999998,0.000166,-0.001334,0.002561,0.000117,0.002565,-0.001337,88.287804,0.002566,
1470,550,-0.201020,-3.994440,0.999999,0.000141,-0.001171,0.002313,0.000357,0.002349,-0.001207,84.207798,0.002349,
1370,1170,-0.290963,-1.661401,0.999998,0.000194,-0.001034,0.002083,-0.001246,0.002520,-0.001471,-70.684742,0.002532,
870,670,0.432344,-3.552666,0.999997,0.000194,-0.001584,0.002818,-0.000119,0.002821,-0.001587,-88.446256,0.002829,
690,1720,0.439886,-0.764546,0.999997,0.000180,-0.001198,0.002524,-0.000008,0.002524,-0.001198,-89.882714,0.002525,
870,1180,0.642775,-2.093671,0.999998,0.000172,-0.001456,0.002957,-0.000329,0.002981,-0.001481,-85.764685,0.002981,
600,1360,0.832951,-1.752719,0.999998,0.000171,-0.001262,0.002517,-0.000059,0.002518,-0.001263,-89.109251,0.002518,
1880,750,-0.900424,-3.138333,0.999999,0.000167,-0.001194,0.002464,-0.000078,0.002466,-0.001196,-88.778279,0.002466,
1670,1910,-0.143386,-0.244577,0.999998,0.000156,-0.000690,0.002144,0.000418,0.002204,-0.000751,81.783796,0.002241,
1390,740,-0.141332,-3.664386,0.999998,0.000162,-0.001478,0.002364,0.000902,0.002566,-0.001680,77.421570,0.002606,
1370,1300,-0.119093,-1.363779,0.999998,0.000193,-0.001420,0.002169,-0.000996,0.002427,-0.001677,-75.488388,0.002485,
1860,1990,-0.146505,-0.141666,0.999998,0.000135,-0.001067,0.002793,0.000768,0.002940,-0.001214,79.155605,0.002955,
670,700,0.748962,-3.323241,0.999998,0.000180,-0.001314,0.002571,0.000114,0.002575,-0.001317,88.317229,0.002575,
1550,1370,-0.375556,-1.486530,0.999997,0.000194,-0.001613,0.002849,-0.000208,0.002859,-0.001623,-87.341952,0.002868,
1120,700,0.075898,-3.838772,0.999998,0.000158,-0.001011,0.001776,-0.000788,0.001983,-0.001219,-75.251950,0.002001,
1900,1650,-0.651398,-1.045921,0.999998,0.000000,-0.001149,0.002484,-0.000061,0.002485,-0.001150,-89.035933,0.002488,
1070,1220,0.225285,-1.633502,0.999998,0.000160,-0.001834,0.002807,0.000862,0.002962,-0.001989,79.812860,0.003020,
1520,930,-0.613050,-2.820815,0.999997,0.000192,-0.001320,0.003167,-0.000310,0.003189,-0.001341,-86.070439,0.003202,
1590,1110,-0.714901,-2.294984,0.999998,0.000179,-0.001144,0.002792,0.000313,0.002817,-0.001169,85.478993,0.002830,
1100,1850,0.043636,-0.301790,0.999998,0.000158,-0.000322,0.001740,-0.000064,0.001742,-0.000324,-88.213538,0.001853,
1630,1180,-0.694752,-2.109905,0.999998,0.000177,-0.001400,0.002828,0.000346,0.002856,-0.001428,85.346018,0.002856,
980,1020,0.654484,-2.546473,0.999998,0.000197,-0.001033,0.003438,0.000020,0.003438,-0.001033,89.739823,0.003528,
590,1550,0.694668,-1.276368,0.999998,0.000145,-0.001384,0.002544,-0.000017,0.002544,-0.001384,-89.749981,0.002547,
740,830,0.774754,-3.019514,0.999998,0.000178,-0.001324,0.002652,0.000272,0.002671,-0.001342,86.104913,0.002671,
1800,1680,-0.505415,-0.888367,0.999997,0.000190,-0.001253,0.002524,-0.000011,0.002524,-0.001253,-89.830588,0.002524,
1380,560,-0.107972,-4.058171,0.999998,0.000138,-0.000896,0.001957,0.000425,0.002019,-0.000958,81.706540,0.002019,
700,50,0.056164,-4.976836,0.999999,0.000148,-0.000323,0.002110,0.000803,0.002351,-0.000564,73.293383,0.002454,
690,290,0.401789,-4.389827,0.999997,0.000206,-0.001182,0.002547,0.000071,0.002549,-0.001183,88.907625,0.002551,
1520,630,-0.295098,-3.741713,0.999998,0.000163,-0.001465,0.002614,0.000324,0.002640,-0.001491,85.489795,0.002647,
840,510,0.375383,-3.952406,0.999998,0.000181,-0.001297,0.002517,-0.000139,0.002522,-0.001302,-87.913758,0.002523,
810,1510,0.435755,-1.202382,0.999998,0.000176,-0.001331,0.002609,0.000114,0.002613,-0.001334,88.348908,0.002613,
680,1410,0.687633,-1.566570,0.999998,0.000173,-0.001335,0.002620,-0.000064,0.002621,-0.001336,-89.066746,0.002621,
1350,340,-0.061880,-4.497208,0.999998,0.000184,-0.000568,0.001854,0.000095,0.001858,-0.000572,87.756429,0.001903,
830,140,0.117978,-4.812828,0.999999,0.000134,-0.000431,0.002057,0.000411,0.002124,-0.000498,80.860458,0.002221,
1280,160,-0.012248,-4.821905,0.999999,0.000129,-0.000229,0.001634,-0.000029,0.001634,-0.000229,-89.107836,0.001770,
1170,710,0.034499,-3.895340,0.999998,0.000156,-0.000694,0.001305,-0.000602,0.001472,-0.000862,-74.477278,0.001479,
1490,180,-0.078847,-4.764172,0.999999,0.000133,-0.000445,0.001863,-0.000158,0.001873,-0.000456,-86.108349,0.001954,
1570,1060,-0.728133,-2.430311,0.999998,0.000197,-0.000954,0.002784,0.000152,0.002790,-0.000960,87.679908,0.002835,
1220,1460,0.007095,-0.959344,0.999999,0.000126,-0.000611,0.001514,0.000082,0.001517,-0.000614,87.800825,0.001526,
660,700,0.761548,-3.316713,0.999998,0.000180,-0.001287,0.002557,0.000112,0.002560,-0.001290,88.333342,0.002560,
1470,530,-0.195732,-4.039711,0.999998,0.000145,-0.001095,0.002297,0.000332,0.002329,-0.001127,84.459484,0.002330,
1010,1460,0.191782,-1.133187,0.999998,0.000161,-0.001260,0.002343,0.000462,0.002401,-0.001319,82.800351,0.002405,
1330,530,-0.066813,-4.150838,0.999999,0.000130,-0.000733,0.001825,0.000256,0.001850,-0.000759,84.344195,0.001860,
1110,1240,0.132376,-1.443014,0.999997,0.000204,-0.001485,0.002013,0.001141,0.002353,-0.001824,73.438043,0.002469,
660,2020,0.034851,-0.033039,0.999998,0.000000,-0.000057,0.002143,-0.000947,0.002494,-0.000408,-69.640288,0.002676,
870,650,0.417499,-3.608340,0.999997,0.000206,-0.001531,0.002787,-0.000143,0.002791,-0.001536,-88.108818,0.002796,
740,1590,0.475434,-1.053473,0.999998,0.000179,-0.001274,0.002571,0.000066,0.002572,-0.001275,89.011397,0.002572,
1850,60,-0.123847,-4.922233,0.999998,0.000152,-0.001058,0.002677,-0.000751,0.002822,-0.001203,-79.046817,0.002833,
1680,1960,-0.090072,-0.142774,0.999998,0.000152,-0.000434,0.002015,0.000517,0.002120,-0.000538,78.563770,0.002204,
1640,280,-0.248231,-4.502312,0.999998,0.000163,-0.000898,0.002339,-0.000150,0.002346,-0.000905,-87.358968,0.002366,
1870,750,-0.889277,-3.145155,0.999999,0.000145,-0.001213,0.002466,-0.000096,0.002468,-0.001215,-88.512976,0.002468,
600,1340,0.849006,-1.803134,0.999999,0.000151,-0.001229,0.002496,-0.000074,0.002497,-0.001230,-88.856462,0.002497,
960,770,0.361003,-3.362529,0.999998,0.000177,-0.001853,0.003104,-0.000242,0.003115,-0.001865,-87.216089,0.003136,
1550,1350,-0.388598,-1.541527,0.999997,0.000187,-0.001666,0.002895,-0.000176,0.002902,-0.001673,-87.787343,0.002913,
1420,1860,-0.060424,-0.291798,0.999998,0.000156,-0.000413,0.001773,0.000088,0.001777,-0.000416,87.695193,0.001858,
1680,670,-0.565978,-3.478920,0.999998,0.000198,-0.001468,0.002734,-0.000057,0.002735,-0.001469,-89.221484,0.002738,
1030,520,0.156828,-4.094691,0.999998,0.000178,-0.001018,0.002181,-0.000349,0.002219,-0.001056,-83.843961,0.002220,
1680,1470,-0.499363,-1.331490,0.999997,0.000197,-0.001401,0.002639,-0.000048,0.002640,-0.001402,-89.321020,0.002642,
1590,1530,-0.341260,-1.096705,0.999998,0.000177,-0.001277,0.002555,-0.000161,0.002562,-0.001284,-87.593201,0.002562,
1120,680,0.074819,-3.874335,0.999998,0.000150,-0.000966,0.001773,-0.000709,0.001946,-0.001139,-76.309515,0.001955,
1500,930,-0.585683,-2.838333,0.999998,0.000193,-0.001412,0.003313,-0.000263,0.003327,-0.001427,-86.827382,0.003339,
980,1000,0.647158,-2.616161,0.999998,0.000186,-0.001087,0.003513,0.000089,0.003515,-0.001089,88.890123,0.003599,
790,50,0.035903,-4.984000,0.999999,0.000142,-0.000235,0.001796,0.000488,0.001907,-0.000346,77.169988,0.002032,
1480,1850,-0.087795,-0.321276,0.999998,0.000149,-0.000480,0.001900,0.000144,0.001909,-0.000489,86.548114,0.001983,
1640,770,-0.597240,-3.224728,0.999998,0.000201,-0.001556,0.002878,-0.000179,0.002885,-0.001564,-87.697155,0.002889,
1610,1180,-0.667420,-2.099959,0.999998,0.000178,-0.001374,0.002901,0.000366,0.002932,-0.001405,85.136443,0.002933,
810,1040,0.813280,-2.488271,0.999998,0.000146,-0.000978,0.002573,-0.000045,0.002573,-0.000979,-89.280806,0.002598,
1130,140,0.019488,-4.851766,0.999999,0.000121,-0.000245,0.001634,0.000047,0.001635,-0.000246,88.575383,0.001763,
1720,1160,-0.826737,-2.189519,0.999998,0.000158,-0.001224,0.002583,0.000278,0.002603,-0.001244,85.849870,0.002603,
1650,1980,-0.056313,-0.100178,0.999999,0.000150,-0.000256,0.001893,0.000494,0.002001,-0.000364,77.661680,0.002131,
680,1500,0.616482,-1.334822,0.999997,0.000189,-0.001324,0.002577,0.000022,0.002577,-0.001324,89.669621,0.002578,
1040,350,0.109378,-4.452606,0.999998,0.000222,-0.000741,0.001957,-0.000111,0.001961,-0.000746,-87.656592,0.001980,
670,2010,0.054287,-0.054069,0.999999,0.000145,-0.000132,0.002144,-0.000943,0.002484,-0.000472,-70.178501,0.002639,
1220,1440,0.007493,-0.989879,0.999999,0.000117,-0.000594,0.001450,0.000088,0.001454,-0.000598,87.535113,0.001462,
1390,1340,-0.134198,-1.317690,0.999998,0.000167,-0.001399,0.002263,-0.000860,0.002455,-0.001591,-77.416608,0.002491,
1720,350,-0.388180,-4.278509,0.999997,0.000180,-0.001171,0.002481,-0.000044,0.002482,-0.001172,-89.308655,0.002483,
1800,1880,-0.298149,-0.379470,0.999998,0.000190,-0.001032,0.002575,0.000432,0.002626,-0.001083,83.271506,0.002640,
1170,690,0.035525,-3.921105,0.999999,0.000151,-0.000682,0.001368,-0.000527,0.001495,-0.000810,-76.393539,0.001497,
660,680,0.744159,-3.367068,0.999997,0.000195,-0.001307,0.002575,0.000107,0.002578,-0.001310,88.425988,0.002578,
1280,140,-0.010540,-4.853391,0.999999,0.000145,-0.000189,0.001601,-0.000019,0.001601,-0.000189,-89.389469,0.001750,
1590,160,-0.115539,-4.781080,0.999998,0.000155,-0.000560,0.002005,-0.000288,0.002037,-0.000592,-83.669756,0.002095,
1100,510,0.089838,-4.170190,0.999999,0.000133,-0.000813,0.001904,-0.000303,0.001937,-0.000846,-83.716556,0.001943,
1470,510,-0.191877,-4.085023,0.999998,0.000153,-0.001043,0.002273,0.000307,0.002301,-0.001071,84.763282,0.002303,
870,630,0.402189,-3.662675,0.999998,0.000175,-0.001482,0.002731,-0.000150,0.002736,-0.001487,-87.963187,0.002740,
810,790,0.638541,-3.160937,0.999998,0.000187,-0.001509,0.002827,0.000233,0.002840,-0.001521,86.927096,0.002842,
710,2020,0.029114,-0.031920,0.999998,0.000000,-0.000287,0.001975,-0.000698,0.002173,-0.000485,-74.168089,0.002281,
1380,540,-0.108391,-4.097491,0.999999,0.000132,-0.000897,0.001979,0.000403,0.002035,-0.000952,82.170228,0.002036,
730,1360,0.663019,-1.665448,0.999997,0.000183,-0.001419,0.002685,-0.000112,0.002688,-0.001422,-88.440074,0.002689,
1700,90,-0.093211,-4.904146,0.999998,0.000141,-0.000369,0.002019,-0.000566,0.002146,-0.000496,-77.325601,0.002247,
1520,610,-0.286039,-3.792736,0.999998,0.000193,-0.001407,0.002597,0.000324,0.002623,-0.001433,85.408197,0.002627,
940,700,0.339458,-3.543913,0.999997,0.000200,-0.001696,0.002871,-0.000283,0.002889,-0.001714,-86.467792,0.002906,
1580,350,-0.239996,-4.371577,0.999998,0.000199,-0.001013,0.002306,0.000030,0.002306,-0.001013,89.488128,0.002312,
900,260,0.168364,-4.581409,0.999998,0.000163,-0.000719,0.002151,0.000136,0.002158,-0.000726,87.297464,0.002196,
1550,1330,-0.404843,-1.601490,0.999997,0.000185,-0.001725,0.002976,-0.000156,0.002981,-0.001731,-88.099977,0.002994,
1760,1240,-0.810309,-1.994954,0.999999,0.000146,-0.001282,0.002579,0.000238,0.002594,-0.001297,86.489897,0.002594,
1640,240,-0.216017,-4.594794,0.999998,0.000178,-0.000791,0.002298,-0.000236,0.002316,-0.000808,-85.660265,0.002351,
750,1540,0.494989,-1.173451,0.999997,0.000201,-0.001296,0.002587,0.000064,0.002588,-0.001297,89.056684,0.002588,
1330,510,-0.065417,-4.187961,0.999999,0.000126,-0.000723,0.001846,0.000235,0.001867,-0.000744,84.816449,0.001880,
1710,1120,-0.841254,-2.288154,0.999998,0.000160,-0.001127,0.002517,0.000215,0.002529,-0.001139,86.638123,0.002533,
1690,70,-0.063258,-4.944191,0.999999,0.000110,-0.000314,0.001936,-0.000568,0.002071,-0.000449,-76.614319,0.002179,
600,1320,0.867573,-1.852288,0.999999,0.000149,-0.001193,0.002453,-0.000079,0.002454,-0.001195,-88.762391,0.002455,
1120,1220,0.142659,-1.444494,0.999998,0.000206,-0.001300,0.001792,0.001085,0.002135,-0.001643,72.470571,0.002236,
1370,1160,-0.318152,-1.681126,0.999998,0.000174,-0.000903,0.002166,-0.001382,0.002697,-0.001433,-68.996534,0.002699,
1490,1400,-0.262155,-1.328329,0.999998,0.000176,-0.001522,0.002662,-0.000443,0.002709,-0.001569,-84.019588,0.002720,
960,850,0.462595,-3.101318,0.999998,0.000185,-0.001840,0.003343,0.000066,0.003344,-0.001841,89.270457,0.003350,
1590,1550,-0.330531,-1.047227,0.999998,0.000191,-0.001244,0.002491,-0.000157,0.002498,-0.001251,-87.598967,0.002498,
1390,560,-0.117570,-4.049347,0.999998,0.000151,-0.000941,0.001998,0.000425,0.002058,-0.001001,81.931746,0.002059,
660,1410,0.713470,-1.582673,0.999998,0.000180,-0.001262,0.002601,-0.000064,0.002602,-0.001263,-89.057291,0.002602,
620,830,0.923528,-2.970828,0.999999,0.000129,-0.001161,0.002336,0.000148,0.002342,-0.001168,87.586262,0.002342,
1850,1160,-0.977810,-2.223464,0.999999,0.000142,-0.001089,0.002261,0.000087,0.002263,-0.001091,88.504970,0.002264,
1850,50,-0.101037,-4.946267,0.999999,0.000139,-0.000887,0.002600,-0.000878,0.002809,-0.001095,-76.639381,0.002831,
1460,1850,-0.079609,-0.317903,0.999999,0.000144,-0.000406,0.001859,0.000154,0.001870,-0.000417,86.120416,0.001963,
1500,910,-0.554544,-2.905282,0.999998,0.000197,-0.001547,0.003341,-0.000270,0.003356,-0.001562,-86.853462,0.003358,
980,980,0.631513,-2.683993,0.999997,0.000184,-0.001156,0.003397,0.000129,0.003401,-0.001160,88.375632,0.003458,
1110,840,0.166171,-3.546480,0.999998,0.000183,-0.001392,0.002013,-0.001146,0.002363,-0.001742,-73.026910,0.002450,
1010,340,0.130245,-4.458232,0.999998,0.000150,-0.000689,0.002026,-0.000044,0.002027,-0.000690,-89.063216,0.002061,
1590,140,-0.097563,-4.821161,0.999999,0.000136,-0.000501,0.001956,-0.000320,0.001997,-0.000542,-82.709397,0.002066,
910,1040,0.718217,-2.485715,0.999998,0.000189,-0.000888,0.002817,-0.000083,0.002819,-0.000890,-88.723442,0.002882,
1420,1840,-0.066090,-0.327204,0.999998,0.000160,-0.000464,0.001808,0.000058,0.001809,-0.000466,88.542699,0.001879,
990,140,0.053659,-4.838397,0.999999,0.000116,-0.000290,0.001762,0.000189,0.001779,-0.000307,84.781419,0.001902,
690,1570,0.552178,-1.144929,0.999998,0.000182,-0.001292,0.002554,0.000050,0.002555,-0.001292,89.255227,0.002555,
890,1540,0.315241,-1.057408,0.999998,0.000176,-0.001260,0.002504,0.000210,0.002516,-0.001271,86.812804,0.002516,
970,1420,0.258004,-1.280447,0.999998,0.000169,-0.001467,0.002572,0.000430,0.002617,-0.001512,83.986434,0.002627,
940,680,0.326527,-3.600383,0.999997,0.000193,-0.001631,0.002809,-0.000309,0.002830,-0.001652,-86.041111,0.002843,
1210,1980,0.002261,-0.082694,0.999999,0.000143,-0.000121,0.001514,-0.000017,0.001514,-0.000121,-89.398336,0.001682,
1490,1320,-0.307261,-1.552748,0.999998,0.000167,-0.001787,0.002953,-0.000382,0.002984,-0.001818,-85.419353,0.003007,
560,1960,0.266301,-0.276138,0.999946,0.000000,-0.000731,0.003122,-0.000489,0.003183,-0.000792,-82.885354,0.003314,
830,1440,0.455248,-1.372939,0.999997,0.000202,-0.001464,0.002694,0.000104,0.002696,-0.001467,88.561672,0.002700,
1170,670,0.036464,-3.948693,0.999999,0.000138,-0.000697,0.001391,-0.000466,0.001490,-0.000796,-77.979321,0.001491,
660,660,0.726197,-3.419493,0.999997,0.000197,-0.001315,0.002604,0.000093,0.002606,-0.001317,88.641177,0.002606,
730,810,0.769887,-3.068886,0.999998,0.000180,-0.001319,0.002628,0.000264,0.002646,-0.001337,86.192330,0.002646,
900,240,0.155398,-4.624814,0.999998,0.000161,-0.000671,0.002120,0.000145,0.002127,-0.000679,87.030825,0.002173,
1550,1310,-0.422926,-1.661574,0.999997,0.000181,-0.001763,0.003044,-0.000102,0.003046,-0.001766,-88.779249,0.003059,
880,1110,0.706457,-2.293821,0.999998,0.000193,-0.001129,0.002839,-0.000315,0.002864,-0.001154,-85.486817,0.002882,
820,840,0.676804,-3.023586,0.999998,0.000165,-0.001438,0.002837,0.000310,0.002859,-0.001460,85.880129,0.002859,
1850,1690,-0.558478,-0.905006,0.999998,0.000180,-0.001210,0.002495,-0.000019,0.002495,-0.001210,-89.706319,0.002496,
1470,490,-0.186496,-4.130090,0.999998,0.000134,-0.001010,0.002198,0.000283,0.002223,-0.001035,85.002453,0.002225,
870,610,0.392295,-3.719254,0.999998,0.000173,-0.001421,0.002678,-0.000173,0.002686,-0.001429,-87.591977,0.002687,
1280,360,-0.025602,-4.473723,0.999998,0.000145,-0.000519,0.001790,0.000030,0.001790,-0.000519,89.251185,0.001842,
1640,220,-0.198353,-4.638558,0.999998,0.000165,-0.000739,0.002234,-0.000263,0.002257,-0.000762,-84.980014,0.002297,
810,1800,0.240047,-0.486303,0.999998,0.000168,-0.000910,0.002334,-0.000171,0.002343,-0.000920,-86.983795,0.002361,
850,1520,0.376920,-1.141406,0.999998,0.000162,-0.001320,0.002556,0.000157,0.002562,-0.001326,87.691236,0.002563,
600,1300,0.884813,-1.902005,0.999999,0.000142,-0.001186,0.002466,-0.000065,0.002467,-0.001187,-88.976263,0.002467,
1160,270,0.029544,-4.633704,0.999998,0.000162,-0.000397,0.001774,0.000006,0.001774,-0.000397,89.847737,0.001862,
1470,1400,-0.232454,-1.301181,0.999997,0.000193,-0.001457,0.002574,-0.000515,0.002639,-0.001522,-82.836241,0.002649,
1690,1120,-0.819107,-2.285327,0.999998,0.000154,-0.001155,0.002551,0.000226,0.002565,-0.001169,86.517035,0.002568,
850,1180,0.671678,-2.103154,0.999998,0.000195,-0.001379,0.002893,-0.000345,0.002921,-0.001407,-85.409453,0.002922,
1590,1570,-0.320534,-0.997353,0.999998,0.000183,-0.001233,0.002468,-0.000171,0.002476,-0.001241,-87.352936,0.002476,
980,1180,0.465952,-1.993435,0.999997,0.000190,-0.001802,0.003383,-0.000060,0.003383,-0.001803,-89.337900,0.003386,
1120,660,0.075986,-3.908693,0.999999,0.000135,-0.000927,0.001787,-0.000653,0.001936,-0.001075,-77.157552,0.001940,
1040,1850,0.064598,-0.310776,0.999998,0.000188,-0.000424,0.001819,-0.000079,0.001822,-0.000426,-87.992802,0.001906,
1690,1510,-0.485052,-1.234462,0.999997,0.000187,-0.001363,0.002631,-0.000055,0.002632,-0.001363,-89.210377,0.002632,
1220,1420,0.006196,-1.018057,0.999999,0.000114,-0.000583,0.001364,0.000099,0.001369,-0.000588,87.099571,0.001374,
1380,520,-0.107079,-4.137562,0.999999,0.000126,-0.000892,0.001995,0.000343,0.002035,-0.000932,83.324329,0.002037,
1800,1160,-0.921945,-2.207338,0.999998,0.000153,-0.001138,0.002383,0.000165,0.002390,-0.001146,87.317874,0.002391,
1700,610,-0.546100,-3.626108,0.999997,0.000203,-0.001414,0.002658,0.000016,0.002658,-0.001414,89.769109,0.002660,
1110,1320,0.091662,-1.284511,0.999998,0.000196,-0.001171,0.001894,0.000950,0.002164,-0.001442,74.099254,0.002204,
1590,220,-0.162174,-4.658119,0.999998,0.000144,-0.000749,0.002121,-0.000214,0.002137,-0.000765,-85.763924,0.002165,
1900,1640,-0.657390,-1.071635,0.999998,0.000000,-0.001164,0.002499,-0.000024,0.002500,-0.001164,-89.619357,0.002502,
970,400,0.181041,-4.312129,0.999998,0.000176,-0.000934,0.002187,-0.000138,0.002193,-0.000940,-87.473469,0.002200,
570,1430,0.813369,-1.598433,0.999939,0.000911,-0.001859,0.002643,0.000044,0.002643,-0.001860,89.436983,0.002715,
1170,650,0.037482,-3.977790,0.999999,0.000131,-0.000701,0.001446,-0.000414,0.001523,-0.000778,-79.449818,0.001524,
660,640,0.708957,-3.470061,0.999998,0.000195,-0.001312,0.002572,0.000064,0.002573,-0.001313,89.056227,0.002573,
1630,1620,-0.341945,-0.905908,0.999998,0.000175,-0.001183,0.002466,-0.000095,0.002469,-0.001185,-88.508902,0.002469,
920,1290,0.429337,-1.715152,0.999998,0.000178,-0.001790,0.003037,0.000054,0.003037,-0.001791,89.355588,0.003053,
990,1640,0.168169,-0.747701,0.999998,0.000164,-0.000922,0.002190,0.000198,0.002203,-0.000935,86.368161,0.002211,
1490,1300,-0.324814,-1.613063,0.999997,0.000187,-0.001842,0.003039,-0.000342,0.003063,-0.001866,-86.012622,0.003087,
970,140,0.059838,-4.837544,0.999999,0.000136,-0.000356,0.001804,0.000185,0.001820,-0.000372,85.135206,0.001923,
670,2000,0.073637,-0.075393,0.999999,0.000170,-0.000229,0.002236,-0.000962,0.002567,-0.000559,-71.018841,0.002700,
1470,470,-0.181505,-4.173285,0.999998,0.000147,-0.000993,0.002179,0.000255,0.002199,-0.001014,85.432692,0.002201,
820,880,0.717692,-2.911340,0.999998,0.000181,-0.001346,0.002777,0.000340,0.002805,-0.001374,85.312505,0.002805,
1150,760,0.052341,-3.798542,0.999999,0.000137,-0.000925,0.001343,-0.000936,0.001680,-0.001261,-70.230506,0.001749,
1700,110,-0.117267,-4.862165,0.999998,0.000136,-0.000471,0.002142,-0.000590,0.002269,-0.000598,-77.838686,0.002352,
1830,1160,-0.955158,-2.217025,0.999998,0.000175,-0.001128,0.002305,0.000124,0.002310,-0.001132,87.929513,0.002310,
690,1610,0.524849,-1.043757,0.999998,0.000182,-0.001272,0.002520,0.000037,0.002520,-0.001272,89.443485,0.002520,
1550,1290,-0.441933,-1.722890,0.999997,0.000175,-0.001783,0.003057,-0.000052,0.003057,-0.001783,-89.383104,0.003071,
1740,890,-0.847012,-2.859154,0.999998,0.000156,-0.001192,0.002546,-0.000276,0.002566,-0.001212,-85.805587,0.002568,
730,790,0.750329,-3.120587,0.999998,0.000195,-0.001359,0.002635,0.000255,0.002651,-0.001376,86.355083,0.002652,
1020,210,0.075591,-4.716315,0.999998,0.000170,-0.000404,0.001853,0.000074,0.001856,-0.000406,88.117240,0.001951,
940,1030,0.695486,-2.512555,0.999997,0.000218,-0.000893,0.002961,-0.000007,0.002961,-0.000893,-89.896539,0.003038,
870,590,0.380824,-3.770769,0.999997,0.000184,-0.001383,0.002655,-0.000177,0.002663,-0.001390,-87.494688,0.002664,
1280,120,-0.007675,-4.884535,0.999999,0.000141,-0.000144,0.001613,-0.000029,0.001613,-0.000144,-89.044464,0.001785,
1230,1600,0.000400,-0.726900,0.999998,0.000155,-0.000611,0.001723,0.000001,0.001723,-0.000611,89.969851,0.001747,
750,1720,0.368891,-0.718449,0.999998,0.000170,-0.001133,0.002495,-0.000057,0.002496,-0.001134,-89.093842,0.002499,
1030,2020,0.006392,-0.026289,0.999999,0.000000,-0.000042,0.001505,-0.000100,0.001511,-0.000049,-86.331644,0.001718,
870,1460,0.383070,-1.282746,0.999998,0.000171,-0.001434,0.002617,0.000170,0.002624,-0.001441,87.604024,0.002628,
1640,200,-0.180233,-4.683640,0.999998,0.000175,-0.000666,0.002221,-0.000305,0.002253,-0.000698,-84.044733,0.002307,
600,1280,0.901080,-1.951365,0.999998,0.000143,-0.001192,0.002413,-0.000111,0.002417,-0.001195,-88.241343,0.002417,
640,1090,0.981676,-2.376748,0.999998,0.000173,-0.001079,0.002264,-0.000065,0.002265,-0.001080,-88.894336,0.002266,
710,1180,0.851594,-2.144393,0.999998,0.000191,-0.001244,0.002514,-0.000261,0.002532,-0.001262,-86.044465,0.002532,
1900,1630,-0.664932,-1.096936,0.999998,0.000000,-0.001184,0.002500,0.000027,0.002500,-0.001184,89.579329,0.002501,
1690,1490,-0.499341,-1.285917,0.999997,0.000201,-0.001387,0.002625,-0.000042,0.002626,-0.001388,-89.401999,0.002627,
1610,900,-0.693560,-2.866124,0.999998,0.000198,-0.001300,0.002835,-0.000360,0.002866,-0.001332,-85.056843,0.002868,
1760,1260,-0.792965,-1.943871,0.999998,0.000159,-0.001298,0.002540,0.000238,0.002555,-0.001313,86.458240,0.002555,
1860,1180,-0.976958,-2.184189,0.999998,0.000145,-0.001085,0.002252,0.000092,0.002254,-0.001087,88.429755,0.002255,
1120,620,0.075754,-3.980675,0.999999,0.000141,-0.000913,0.001785,-0.000527,0.001884,-0.001012,-79.330111,0.001886,
960,830,0.431844,-3.168591,0.999998,0.000167,-0.001874,0.003301,-0.000023,0.003302,-0.001874,-89.748539,0.003312,
1500,630,-0.265881,-3.763555,0.999998,0.000171,-0.001468,0.002559,0.000400,0.002599,-0.001507,84.383642,0.002610,
1010,1100,0.558269,-2.228651,0.999997,0.000214,-0.001464,0.003882,0.000118,0.003884,-0.001466,88.739410,0.003923,
1110,140,0.023746,-4.850343,0.999999,0.000120,-0.000211,0.001647,0.000081,0.001650,-0.000215,87.522405,0.001794,
1590,200,-0.146505,-4.696836,0.999999,0.000142,-0.000693,0.002078,-0.000241,0.002099,-0.000714,-85.069495,0.002135,
1330,490,-0.064621,-4.226299,0.999998,0.000149,-0.000705,0.001856,0.000210,0.001873,-0.000722,85.353248,0.001889,
1850,40,-0.077135,-4.970872,0.999997,0.000209,-0.000692,0.002565,-0.000993,0.002844,-0.000971,-74.318714,0.002891,
1590,1590,-0.309214,-0.947884,0.999998,0.000181,-0.001196,0.002429,-0.000159,0.002436,-0.001203,-87.500293,0.002436,
1020,1850,0.072137,-0.314721,0.999998,0.000181,-0.000452,0.001843,-0.000099,0.001847,-0.000457,-87.533708,0.001924,
1150,820,0.087069,-3.721682,0.999998,0.000167,-0.001137,0.001199,-0.000929,0.001524,-0.001461,-70.756063,0.001724,
1170,1230,0.069752,-1.265113,0.999998,0.000140,-0.001047,0.000912,0.000651,0.001109,-0.001243,73.205337,0.001365,
1260,1530,-0.018588,-0.850580,0.999998,0.000143,-0.000641,0.001658,-0.000100,0.001662,-0.000645,-87.509404,0.001676,
980,460,0.191698,-4.185905,0.999998,0.000159,-0.001015,0.002216,-0.000212,0.002230,-0.001029,-86.263489,0.002232,
660,620,0.693282,-3.522745,0.999998,0.000187,-0.001311,0.002580,0.000036,0.002580,-0.001312,89.465612,0.002580,
760,890,0.801237,-2.868789,0.999998,0.000158,-0.001233,0.002599,0.000302,0.002623,-0.001257,85.518615,0.002623,
1470,450,-0.175788,-4.217212,0.999998,0.000153,-0.000964,0.002212,0.000231,0.002229,-0.000980,85.870493,0.002234,
1220,1620,0.007869,-0.692260,0.999998,0.000170,-0.000570,0.001770,0.000032,0.001770,-0.000570,89.227572,0.001807,
1740,870,-0.830699,-2.910459,0.999999,0.000147,-0.001207,0.002533,-0.000264,0.002551,-0.001225,-85.988455,0.002552,
1860,1010,-1.030250,-2.558826,0.999998,0.000186,-0.001030,0.002196,-0.000061,0.002197,-0.001031,-88.916438,0.002199,
830,390,0.319259,-4.242036,0.999998,0.000203,-0.001090,0.002429,-0.000041,0.002429,-0.001090,-89.339472,0.002433,
700,1100,0.913238,-2.346794,0.999998,0.000180,-0.001104,0.002421,-0.000169,0.002429,-0.001112,-87.255949,0.002432,
1550,1270,-0.462421,-1.784177,0.999998,0.000172,-0.001792,0.003096,0.000024,0.003096,-0.001792,89.722624,0.003109,
940,1010,0.690469,-2.571284,0.999998,0.000171,-0.000902,0.002992,0.000119,0.002996,-0.000906,88.250443,0.003073,
870,570,0.368180,-3.825973,0.999997,0.000180,-0.001367,0.002607,-0.000184,0.002616,-0.001376,-87.347958,0.002617,
1090,1320,0.115907,-1.326589,0.999998,0.000199,-0.001328,0.002138,0.000944,0.002379,-0.001568,75.708824,0.002419,
1380,500,-0.103453,-4.177387,0.999999,0.000128,-0.000872,0.001978,0.000329,0.002015,-0.000909,83.498176,0.002018,
760,530,0.492681,-3.835708,0.999998,0.000165,-0.001337,0.002582,-0.000064,0.002583,-0.001338,-89.060712,0.002584,
1790,1440,-0.671837,-1.495310,0.999998,0.000215,-0.001312,0.002606,0.000033,0.002606,-0.001312,89.523328,0.002606,
720,1410,0.633102,-1.538531,0.999998,0.000168,-0.001363,0.002637,-0.000061,0.002638,-0.001364,-89.131619,0.002638,
730,1580,0.494677,-1.088168,0.999998,0.000187,-0.001295,0.002578,0.000056,0.002579,-0.001296,89.173039,0.002579,
1040,2020,0.006636,-0.026010,0.999999,0.000000,-0.000016,0.001517,-0.000087,0.001521,-0.000021,-86.777620,0.001745,
1640,180,-0.161535,-4.728108,0.999998,0.000161,-0.000601,0.002154,-0.000362,0.002200,-0.000648,-82.630899,0.002262,
730,1380,0.645191,-1.612026,0.999997,0.000184,-0.001407,0.002660,-0.000093,0.002662,-0.001409,-88.687579,0.002664,
1720,1570,-0.485094,-1.102392,0.999998,0.000198,-0.001304,0.002560,-0.000071,0.002561,-0.001305,-88.954162,0.002561,
1280,80,-0.005160,-4.949341,0.999999,0.000136,-0.000067,0.001530,-0.000028,0.001530,-0.000067,-88.985661,0.001729,
1510,350,-0.178711,-4.408756,0.999998,0.000186,-0.000875,0.002156,0.000045,0.002156,-0.000875,89.156413,0.002169,
1090,1920,0.027034,-0.182546,0.999999,0.000136,-0.000186,0.001644,-0.000091,0.001649,-0.000190,-87.153564,0.001804,
1610,880,-0.672051,-2.923373,0.999998,0.000193,-0.001377,0.002885,-0.000360,0.002915,-0.001408,-85.201610,0.002916,
1040,420,0.127398,-4.311225,0.999998,0.000172,-0.000802,0.002040,-0.000180,0.002052,-0.000813,-86.396367,0.002066,
1690,1470,-0.514039,-1.337311,0.999997,0.000196,-0.001404,0.002635,-0.000036,0.002635,-0.001404,-89.484766,0.002637,
1520,450,-0.225707,-4.182274,0.999998,0.000164,-0.001058,0.002324,0.000184,0.002334,-0.001068,86.902708,0.002336,
1810,1230,-0.879238,-2.041818,0.999999,0.000146,-0.001196,0.002433,0.000175,0.002442,-0.001204,87.237849,0.002442,
1770,620,-0.650059,-3.547840,0.999998,0.000160,-0.001342,0.002624,-0.000023,0.002624,-0.001342,-89.670170,0.002625,
770,990,0.847333,-2.613562,0.999998,0.000153,-0.001037,0.002490,0.000094,0.002492,-0.001039,88.471266,0.002504,
1130,80,0.010296,-4.947780,0.999999,0.000146,-0.000110,0.001539,0.000058,0.001541,-0.000112,87.972034,0.001718,
1080,1980,0.011070,-0.086486,0.999999,0.000142,-0.000088,0.001593,-0.000120,0.001601,-0.000096,-85.947901,0.001796,
1130,820,0.110458,-3.657039,0.999998,0.000164,-0.001264,0.001599,-0.001086,0.001964,-0.001629,-71.410351,0.002101,
600,1260,0.919670,-1.997974,0.999999,0.000151,-0.001179,0.002342,-0.000100,0.002345,-0.001182,-88.375309,0.002345,
1190,140,0.008044,-4.854399,0.999999,0.000120,-0.000190,0.001564,0.000035,0.001565,-0.000191,88.841918,0.001707,
1120,600,0.077471,-4.017665,0.999999,0.000148,-0.000885,0.001812,-0.000461,0.001888,-0.000962,-80.561584,0.001889,
1000,1850,0.080052,-0.318813,0.999998,0.000174,-0.000425,0.001869,-0.000115,0.001875,-0.000431,-87.146178,0.001964,
1470,430,-0.170243,-4.261694,0.999999,0.000143,-0.000939,0.002177,0.000198,0.002190,-0.000951,86.376664,0.002196,
990,530,0.197900,-4.037874,0.999998,0.000157,-0.001111,0.002308,-0.000317,0.002337,-0.001140,-84.742376,0.002338,
660,600,0.677996,-3.573847,0.999998,0.000182,-0.001304,0.002597,0.000036,0.002597,-0.001304,89.470558,0.002597,
1170,130,0.009561,-4.868625,0.999999,0.000135,-0.000151,0.001576,0.000043,0.001577,-0.000152,88.585961,0.001740,
870,550,0.357572,-3.875027,0.999998,0.000175,-0.001328,0.002575,-0.000185,0.002584,-0.001337,-87.291646,0.002584,
1860,1230,-0.938881,-2.066301,0.999999,0.000117,-0.001147,0.002332,0.000109,0.002336,-0.001151,88.208108,0.002336,
1420,1820,-0.073123,-0.365390,0.999998,0.000170,-0.000513,0.001850,0.000026,0.001850,-0.000514,89.380337,0.001910,
900,270,0.175789,-4.560958,0.999998,0.000155,-0.000731,0.002162,0.000137,0.002168,-0.000738,87.289960,0.002205,
660,830,0.876254,-2.988417,0.999999,0.000152,-0.001206,0.002433,0.000201,0.002444,-0.001217,86.850188,0.002444,
1390,1660,-0.096890,-0.660670,0.999998,0.000193,-0.000712,0.001943,-0.000137,0.001950,-0.000719,-87.062743,0.001972,
1430,1400,-0.175505,-1.243486,0.999998,0.000151,-0.001355,0.002369,-0.000605,0.002465,-0.001451,-81.004085,0.002477,
1550,1250,-0.487318,-1.847379,0.999998,0.000182,-0.001768,0.003139,0.000085,0.003141,-0.001770,89.004067,0.003149,
1720,1140,-0.841305,-2.240450,0.999998,0.000164,-0.001177,0.002488,0.000221,0.002501,-0.001190,86.560486,0.002502,
1150,2020,0.000719,-0.023884,0.999999,0.000000,0.000023,0.001470,-0.000064,0.001473,0.000020,-87.462296,0.001712,
940,660,0.315429,-3.656579,0.999998,0.000178,-0.001545,0.002755,-0.000330,0.002781,-0.001570,-85.638082,0.002788,
1760,1700,-0.440362,-0.805639,0.999998,0.000184,-0.001206,0.002533,-0.000002,0.002533,-0.001206,-89.962057,0.002534,
1220,500,0.007121,-4.234574,0.999999,0.000132,-0.000618,0.001732,-0.000048,0.001732,-0.000619,-88.834935,0.001756,
900,220,0.142895,-4.667474,0.999998,0.000168,-0.000641,0.002068,0.000183,0.002080,-0.000653,86.145070,0.002128,
660,580,0.660087,-3.626908,0.999998,0.000182,-0.001304,0.002587,0.000006,0.002587,-0.001304,89.905490,0.002587,
740,890,0.827081,-2.863695,0.999999,0.000148,-0.001234,0.002557,0.000283,0.002578,-0.001256,85.748033,0.002578,
1250,760,-0.008533,-3.886929,0.999999,0.000150,-0.000542,0.000735,0.000264,0.000787,-0.000594,78.775665,0.000820,
1490,1140,-0.546602,-2.139630,0.999998,0.000172,-0.001543,0.003393,0.000204,0.003401,-0.001552,87.638693,0.003406,
600,1240,0.934872,-2.045052,0.999999,0.000135,-0.001152,0.002330,-0.000086,0.002332,-0.001154,-88.587232,0.002332,
650,440,0.570607,-3.975400,0.999998,0.000158,-0.001284,0.002499,-0.000020,0.002499,-0.001284,-89.698229,0.002499,
1840,1790,-0.454191,-0.645699,0.999997,0.000211,-0.001182,0.002527,0.000029,0.002528,-0.001182,89.547468,0.002529,
1830,440,-0.592410,-3.962619,0.999998,0.000166,-0.001238,0.002522,0.000032,0.002523,-0.001238,89.509789,0.002523,
1380,480,-0.101677,-4.217342,0.999998,0.000151,-0.000839,0.001965,0.000303,0.001998,-0.000871,83.908879,0.002003,
1390,140,-0.031179,-4.847862,0.999999,0.000130,-0.000222,0.001668,-0.000095,0.001673,-0.000227,-87.119298,0.001815,
1180,560,0.032272,-4.126256,0.999998,0.000142,-0.000651,0.001627,-0.000181,0.001641,-0.000665,-85.478536,0.001651,
770,1380,0.587726,-1.583655,0.999998,0.000182,-0.001445,0.002734,-0.000067,0.002735,-0.001447,-89.078357,0.002736,
990,570,0.211940,-3.942573,0.999998,0.000159,-0.001222,0.002340,-0.000403,0.002385,-0.001267,-83.624776,0.002387,
770,1560,0.457335,-1.106829,0.999998,0.000180,-0.001262,0.002535,0.000072,0.002536,-0.001264,88.909925,0.002537,
1330,470,-0.064367,-4.261610,0.999999,0.000156,-0.000691,0.001851,0.000182,0.001864,-0.000704,85.926118,0.001883,
1530,1460,-0.294639,-1.218842,0.999998,0.000158,-0.001372,0.002573,-0.000305,0.002596,-0.001395,-85.612209,0.002599,
1600,80,-0.052558,-4.933136,0.999999,0.000130,-0.000252,0.001841,-0.000376,0.001907,-0.000318,-80.107832,0.002043,
1690,1450,-0.527477,-1.392233,0.999997,0.000195,-0.001405,0.002681,-0.000041,0.002681,-0.001406,-89.431804,0.002682,
1620,1850,-0.171184,-0.361395,0.999998,0.000168,-0.000663,0.002197,0.000277,0.002224,-0.000690,84.521018,0.002276,
1470,1980,-0.023026,-0.089139,0.999998,0.000177,-0.000096,0.001651,0.000222,0.001679,-0.000124,82.858502,0.001872,
1860,1160,-0.987960,-2.227308,0.999998,0.000144,-0.001076,0.002237,0.000071,0.002239,-0.001077,88.779368,0.002239,
1160,860,0.160110,-3.716001,0.999991,0.000371,-0.001168,0.000669,-0.000367,0.000740,-0.001239,-79.120748,0.001247,
1280,1530,-0.030780,-0.856139,0.999999,0.000141,-0.000634,0.001710,-0.000132,0.001718,-0.000641,-86.787945,0.001736,
910,1580,0.271983,-0.942586,0.999998,0.000176,-0.001161,0.002379,0.000184,0.002389,-0.001170,87.033697,0.002389,
830,370,0.304923,-4.292264,0.999998,0.000196,-0.001049,0.002425,0.000025,0.002425,-0.001050,89.591468,0.002433,
990,680,0.247573,-3.667871,0.999998,0.000160,-0.001569,0.002677,-0.000502,0.002735,-0.001628,-83.348912,0.002752,
1620,990,-0.774632,-2.617659,0.999998,0.000185,-0.000995,0.002622,-0.000120,0.002626,-0.000999,-88.100372,0.002651,
1890,420,-0.651197,-3.965248,0.999998,0.000175,-0.001220,0.002500,0.000022,0.002500,-0.001220,89.656610,0.002500,
1080,1960,0.018735,-0.118010,0.999999,0.000143,-0.000129,0.001598,-0.000128,0.001607,-0.000139,-85.782067,0.001781,
730,770,0.731871,-3.174147,0.999998,0.000181,-0.001385,0.002666,0.000216,0.002678,-0.001397,86.955347,0.002679,
1640,160,-0.141536,-4.769806,0.999999,0.000139,-0.000540,0.002136,-0.000408,0.002197,-0.000601,-81.521083,0.002271,
700,1410,0.660689,-1.553849,0.999997,0.000192,-0.001368,0.002622,-0.000072,0.002623,-0.001369,-88.964320,0.002624,
1850,1100,-1.008558,-2.359912,0.999998,0.000140,-0.001078,0.002223,0.000065,0.002225,-0.001080,88.875077,0.002225,
1040,400,0.124098,-4.351313,0.999998,0.000177,-0.000784,0.002028,-0.000160,0.002037,-0.000793,-86.748424,0.002054,
700,1080,0.919433,-2.394988,0.999998,0.000172,-0.001085,0.002393,-0.000091,0.002395,-0.001088,-88.510648,0.002399,
1900,1620,-0.675885,-1.121445,0.999998,0.000000,-0.001210,0.002473,0.000046,0.002474,-0.001210,89.290642,0.002474,
1410,1660,-0.111661,-0.671434,0.999998,0.000169,-0.000781,0.001974,-0.000157,0.001982,-0.000790,-86.755581,0.001996,
1220,470,0.007140,-4.285090,0.999999,0.000141,-0.000618,0.001713,-0.000054,0.001714,-0.000619,-88.665867,0.001736,
740,530,0.518998,-3.819448,0.999997,0.000180,-0.001306,0.002586,-0.000049,0.002586,-0.001306,-89.281902,0.002586,
600,830,0.946596,-2.960846,0.999999,0.000137,-0.001153,0.002319,0.000114,0.002322,-0.001157,88.122925,0.002322,
1100,1190,0.231215,-1.589253,0.999998,0.000168,-0.001225,0.002005,0.001147,0.002370,-0.001591,72.310755,0.002416,
1760,1250,-0.801356,-1.969605,0.999998,0.000148,-0.001294,0.002563,0.000242,0.002578,-0.001309,86.427201,0.002578,
1810,1270,-0.845424,-1.943619,0.999999,0.000141,-0.001248,0.002517,0.000204,0.002528,-0.001259,86.900056,0.002528,
1510,330,-0.167498,-4.452733,0.999998,0.000186,-0.000828,0.002206,0.000016,0.002207,-0.000828,89.688946,0.002229,
1770,1440,-0.645022,-1.480347,0.999997,0.000203,-0.001317,0.002616,0.000029,0.002617,-0.001317,89.574261,0.002617,
800,1570,0.412256,-1.056259,0.999998,0.000178,-0.001300,0.002536,0.000093,0.002539,-0.001302,88.612329,0.002539,
1110,80,0.012068,-4.946395,0.999999,0.000133,-0.000094,0.001583,0.000073,0.001586,-0.000098,87.504396,0.001778,
1150,1180,0.220258,-1.372496,0.999997,0.000000,-0.000939,0.000755,0.000399,0.000844,-0.001029,77.378158,0.001097,
940,640,0.303871,-3.710265,0.999998,0.000168,-0.001484,0.002667,-0.000319,0.002691,-0.001508,-85.635584,0.002698,
1550,1230,-0.511113,-1.910328,0.999998,0.000183,-0.001727,0.003141,0.000152,0.003146,-0.001731,88.215539,0.003151,
900,200,0.127340,-4.706317,0.999998,0.000165,-0.000580,0.002055,0.000228,0.002075,-0.000600,85.095459,0.002135,
1030,580,0.165311,-3.963675,0.999999,0.000152,-0.001130,0.002212,-0.000448,0.002271,-0.001189,-82.501077,0.002272,
1120,580,0.076355,-4.054344,0.999999,0.000142,-0.000835,0.001853,-0.000399,0.001911,-0.000893,-81.727103,0.001912,
650,420,0.556233,-4.027572,0.999998,0.000161,-0.001262,0.002562,-0.000037,0.002562,-0.001263,-89.446157,0.002562,
1830,420,-0.576745,-4.013363,0.999998,0.000179,-0.001215,0.002533,0.000022,0.002533,-0.001215,89.671015,0.002533,
1720,1120,-0.851927,-2.287869,0.999998,0.000156,-0.001132,0.002497,0.000202,0.002508,-0.001143,86.826983,0.002511,
870,530,0.348045,-3.928354,0.999998,0.000181,-0.001283,0.002563,-0.000172,0.002571,-0.001291,-87.446684,0.002571,
1230,1370,-0.000323,-1.077688,0.999999,0.000137,-0.000518,0.001125,0.000029,0.001125,-0.000518,88.988276,0.001126,
1290,140,-0.012439,-4.852130,0.999999,0.000134,-0.000158,0.001610,-0.000039,0.001611,-0.000159,-88.729360,0.001776,
1180,600,0.030964,-4.062090,0.999999,0.000137,-0.000668,0.001587,-0.000255,0.001615,-0.000696,-83.634998,0.001620,
600,1220,0.949368,-2.091482,0.999999,0.000122,-0.001127,0.002335,-0.000112,0.002338,-0.001130,-88.146178,0.002339,
1760,1680,-0.456640,-0.854831,0.999998,0.000182,-0.001211,0.002539,-0.000016,0.002539,-0.001211,-89.756011,0.002540,
1420,1800,-0.079058,-0.401349,0.999998,0.000145,-0.000551,0.001879,-0.000004,0.001879,-0.000551,-89.915355,0.001932,
1690,1430,-0.543182,-1.445785,0.999997,0.000198,-0.001400,0.002699,-0.000017,0.002700,-0.001400,-89.765211,0.002700,
1800,1050,-0.966320,-2.466869,0.999998,0.000174,-0.001086,0.002357,0.000061,0.002358,-0.001087,88.983477,0.002360,
1380,700,-0.117774,-3.774740,0.999998,0.000136,-0.001249,0.002120,0.000802,0.002301,-0.001430,77.264890,0.002324,
1620,1830,-0.188434,-0.405608,0.999998,0.000177,-0.000711,0.002223,0.000233,0.002241,-0.000730,85.480955,0.002286,
830,350,0.292704,-4.339904,0.999997,0.000187,-0.001016,0.002394,0.000038,0.002395,-0.001016,89.366820,0.002404,
1280,60,-0.002620,-4.977379,0.999999,0.000111,-0.000045,0.001503,-0.000036,0.001503,-0.000046,-88.651182,0.001710,
1330,690,-0.064342,-3.874010,0.999999,0.000136,-0.000905,0.001641,0.000737,0.001838,-0.001102,74.968819,0.001851,
1510,1460,-0.266770,-1.197114,0.999997,0.000191,-0.001375,0.002528,-0.000348,0.002559,-0.001406,-84.947449,0.002563,
750,1380,0.616707,-1.598364,0.999997,0.000211,-0.001422,0.002680,-0.000086,0.002682,-0.001424,-88.799119,0.002684,
1420,1530,-0.142763,-0.942928,0.999999,0.000137,-0.000989,0.002129,-0.000342,0.002166,-0.001026,-83.811519,0.002167,
1160,850,0.131673,-3.723664,0.999998,0.000160,-0.001204,0.000795,-0.000362,0.000858,-0.001268,-80.040838,0.001294,
690,1180,0.876226,-2.151797,0.999998,0.000145,-0.001183,0.002485,-0.000232,0.002500,-0.001197,-86.391465,0.002501,
1890,490,-0.704281,-3.788024,0.999998,0.000178,-0.001239,0.002527,0.000008,0.002527,-0.001239,89.882138,0.002527,
1470,410,-0.163539,-4.305746,0.999998,0.000159,-0.000904,0.002137,0.000176,0.002147,-0.000914,86.693374,0.002155,
1480,330,-0.144170,-4.468130,0.999998,0.000149,-0.000742,0.002092,0.000031,0.002092,-0.000743,89.376508,0.002122,
770,970,0.843328,-2.665145,0.999998,0.000148,-0.001068,0.002557,0.000169,0.002565,-0.001076,87.338840,0.002576,
1860,1140,-0.998449,-2.271222,0.999999,0.000141,-0.001096,0.002239,0.000094,0.002241,-0.001099,88.384032,0.002241,
1000,60,0.016802,-4.975442,0.999999,0.000148,-0.000061,0.001605,0.000193,0.001627,-0.000083,83.473414,0.001833,
1080,1940,0.023541,-0.149799,0.999999,0.000139,-0.000154,0.001639,-0.000120,0.001647,-0.000162,-86.189006,0.001815,
960,490,0.221153,-4.102960,0.999999,0.000149,-0.001124,0.002314,-0.000271,0.002335,-0.001145,-85.512806,0.002336,
730,750,0.714019,-3.227188,0.999998,0.000173,-0.001384,0.002656,0.000196,0.002665,-0.001393,87.227280,0.002666,
1640,140,-0.121408,-4.812552,0.999998,0.000157,-0.000476,0.002073,-0.000412,0.002138,-0.000541,-81.047347,0.002223,
1900,1610,-0.685078,-1.146286,0.999998,0.000000,-0.001246,0.002472,0.000011,0.002472,-0.001246,89.833925,0.002472,
1830,1660,-0.558914,-0.964119,0.999998,0.000177,-0.001248,0.002510,-0.000046,0.002510,-0.001249,-89.294229,0.002510,
1800,1470,-0.661747,-1.423894,0.999997,0.000210,-0.001276,0.002606,0.000014,0.002606,-0.001276,89.788647,0.002606,
1690,1060,-0.845217,-2.439489,0.999998,0.000150,-0.001028,0.002510,0.000095,0.002513,-0.001031,88.457431,0.002526,
590,1560,0.686534,-1.251631,0.999998,0.000158,-0.001373,0.002524,-0.000010,0.002524,-0.001373,-89.851339,0.002527,
1620,690,-0.490942,-3.470994,0.999997,0.000203,-0.001618,0.002834,0.000015,0.002834,-0.001618,89.801890,0.002844,
1450,1980,-0.022119,-0.089382,0.999999,0.000158,-0.000117,0.001635,0.000186,0.001654,-0.000137,83.992362,0.001836,
1550,1210,-0.537686,-1.973695,0.999998,0.000182,-0.001667,0.003130,0.000226,0.003141,-0.001678,87.306880,0.003143,
940,620,0.294384,-3.763763,0.999998,0.000174,-0.001439,0.002627,-0.000324,0.002653,-0.001465,-85.473232,0.002657,
900,180,0.114648,-4.748569,0.999998,0.000151,-0.000516,0.001990,0.000236,0.002012,-0.000538,84.664090,0.002083,
1660,1790,-0.254390,-0.514722,0.999998,0.000194,-0.000988,0.002356,0.000168,0.002364,-0.000997,87.137034,0.002374,
1470,1340,-0.259165,-1.463190,0.999997,0.000232,-0.001690,0.002802,-0.000528,0.002864,-0.001752,-83.381405,0.002887,
570,570,0.772388,-3.575897,0.999949,0.000853,-0.002143,0.002388,-0.000309,0.002409,-0.002164,-86.113097,0.002652,
1240,470,-0.005837,-4.285124,0.999998,0.000159,-0.000648,0.001721,0.000026,0.001721,-0.000649,89.359891,0.001739,
1150,880,0.211123,-3.671889,0.999953,0.000000,-0.001548,0.000509,-0.000930,0.000867,-0.001906,-68.937683,0.001909,
1390,480,-0.110837,-4.209977,0.999998,0.000172,-0.000860,0.001991,0.000296,0.002021,-0.000891,84.128931,0.002026,
1490,800,-0.367747,-3.285861,0.999997,0.000225,-0.001915,0.003233,0.000239,0.003245,-0.001926,87.346939,0.003263,
1690,580,-0.508873,-3.714825,0.999998,0.000188,-0.001380,0.002654,0.000056,0.002655,-0.001381,89.209251,0.002655,
1230,1410,-0.000654,-1.029952,0.999999,0.000114,-0.000557,0.001329,0.000014,0.001329,-0.000557,89.573133,0.001335,
1720,1340,-0.662203,-1.711410,0.999998,0.000220,-0.001415,0.002706,0.000153,0.002712,-0.001421,87.874510,0.002713,
1780,1250,-0.825643,-1.978992,0.999998,0.000174,-0.001258,0.002512,0.000223,0.002525,-0.001271,86.633031,0.002525,
890,1580,0.295423,-0.957830,0.999998,0.000147,-0.001162,0.002417,0.000160,0.002424,-0.001169,87.451100,0.002425,
1510,310,-0.160043,-4.497677,0.999998,0.000187,-0.000790,0.002110,0.000004,0.002110,-0.000790,89.922544,0.002132,
1820,760,-0.836396,-3.153252,0.999999,0.000149,-0.001245,0.002492,-0.000162,0.002499,-0.001252,-87.528306,0.002499,
830,780,0.596422,-3.201324,0.999997,0.000195,-0.001560,0.002894,0.000200,0.002903,-0.001569,87.430502,0.002906,
700,1060,0.924324,-2.441668,0.999998,0.000163,-0.001076,0.002393,-0.000078,0.002395,-0.001078,-88.706595,0.002399,
1600,1850,-0.156547,-0.354760,0.999998,0.000160,-0.000711,0.002142,0.000245,0.002163,-0.000732,85.120139,0.002200,
830,330,0.277819,-4.387385,0.999998,0.000197,-0.000975,0.002361,0.000051,0.002361,-0.000976,89.118855,0.002373,
820,830,0.664993,-3.051847,0.999998,0.000180,-0.001453,0.002856,0.000314,0.002879,-0.001475,85.851246,0.002879,
1190,490,0.026227,-4.244295,0.999998,0.000158,-0.000617,0.001742,-0.000074,0.001744,-0.000619,-88.212922,0.001768,
1600,60,-0.034625,-4.971533,0.999999,0.000127,-0.000177,0.001779,-0.000382,0.001851,-0.000249,-79.334050,0.002009,
1040,380,0.119148,-4.392381,0.999998,0.000191,-0.000767,0.002043,-0.000112,0.002048,-0.000771,-87.722763,0.002068,
790,1180,0.752089,-2.123537,0.999998,0.000170,-0.001298,0.002678,-0.000308,0.002701,-0.001321,-85.600419,0.002702,
1500,1530,-0.230712,-1.016294,0.999998,0.000154,-0.001179,0.002374,-0.000305,0.002400,-0.001205,-85.127666,0.002400,
870,580,0.375096,-3.798832,0.999997,0.000178,-0.001371,0.002642,-0.000183,0.002651,-0.001379,-87.398586,0.002652,
740,1730,0.372257,-0.700107,0.999998,0.000158,-0.001149,0.002481,-0.000059,0.002482,-0.001150,-89.061955,0.002484,
1270,1990,-0.002174,-0.068652,0.999999,0.000138,-0.000073,0.001521,0.000036,0.001522,-0.000074,88.715896,0.001717,
810,1360,0.545309,-1.610274,0.999997,0.000194,-0.001489,0.002817,-0.000070,0.002818,-0.001490,-89.070993,0.002820,
1240,1220,-0.016284,-1.190370,0.999998,0.000187,-0.001730,0.000722,-0.000012,0.000722,-0.001730,-89.718863,0.001738,
1330,450,-0.062670,-4.298900,0.999999,0.000144,-0.000691,0.001830,0.000170,0.001841,-0.000703,86.170573,0.001858,
1080,1920,0.029572,-0.183116,0.999999,0.000137,-0.000187,0.001651,-0.000091,0.001656,-0.000192,-87.172873,0.001811,
770,950,0.830865,-2.715881,0.999999,0.000145,-0.001109,0.002566,0.000222,0.002580,-0.001122,86.558006,0.002587,
1120,560,0.075805,-4.093083,0.999999,0.000135,-0.000798,0.001832,-0.000357,0.001880,-0.000845,-82.400584,0.001883,
1030,1080,0.556045,-2.270478,0.999996,0.000245,-0.001767,0.004413,0.000543,0.004460,-0.001815,85.020970,0.004486,
1900,1600,-0.692044,-1.170751,0.999998,0.000000,-0.001281,0.002492,-0.000039,0.002493,-0.001281,-89.403240,0.002493,
1640,120,-0.099267,-4.852621,0.999998,0.000150,-0.000407,0.002004,-0.000441,0.002083,-0.000485,-79.949327,0.002179,
1760,1660,-0.471510,-0.906134,0.999998,0.000194,-0.001230,0.002522,-0.000022,0.002522,-0.001230,-89.663899,0.002522,
1670,1060,-0.825745,-2.437924,0.999998,0.000155,-0.001023,0.002521,0.000088,0.002523,-0.001025,88.579699,0.002537,
700,1670,0.468253,-0.884426,0.999997,0.000179,-0.001232,0.002537,0.000044,0.002538,-0.001232,89.324560,0.002538,
1450,1340,-0.225691,-1.429098,0.999998,0.000199,-0.001636,0.002700,-0.000625,0.002788,-0.001724,-81.954490,0.002814,
1890,1660,-0.633078,-1.013864,0.999998,0.000171,-0.001201,0.002456,-0.000047,0.002456,-0.001202,-89.262142,0.002456,
570,560,0.771227,-3.599904,0.999932,0.000961,-0.002154,0.002526,-0.000228,0.002537,-0.002165,-87.215465,0.002740,
1690,1410,-0.559199,-1.500613,0.999997,0.000200,-0.001409,0.002717,0.000020,0.002717,-0.001409,89.725031,0.002718,
1380,460,-0.098598,-4.257556,0.999998,0.000152,-0.000809,0.001943,0.000259,0.001967,-0.000833,84.671428,0.001975,
1050,1660,0.114249,-0.673165,0.999998,0.000142,-0.000774,0.002005,0.000162,0.002015,-0.000784,86.683416,0.002031,
1550,1410,-0.349363,-1.372710,0.999998,0.000181,-0.001516,0.002732,-0.000251,0.002746,-0.001531,-86.625090,0.002752,
970,420,0.189206,-4.266843,0.999998,0.000162,-0.000953,0.002205,-0.000164,0.002213,-0.000962,-87.029604,0.002220,
900,1290,0.465611,-1.737860,0.999997,0.000181,-0.001739,0.003020,-0.000001,0.003020,-0.001739,-89.985421,0.003031,
1320,470,-0.057110,-4.266796,0.999999,0.000163,-0.000700,0.001832,0.000196,0.001847,-0.000715,85.588644,0.001862,
1670,580,-0.481347,-3.729899,0.999998,0.000168,-0.001365,0.002666,0.000065,0.002667,-0.001366,89.080098,0.002667,
1230,400,0.001302,-4.409896,0.999998,0.000160,-0.000571,0.001789,-0.000007,0.001789,-0.000571,-89.840806,0.001828,
900,160,0.100329,-4.786599,0.999999,0.000152,-0.000442,0.001962,0.000257,0.001989,-0.000470,83.976886,0.002079,
990,1990,0.019023,-0.071796,0.999999,0.000120,-0.000097,0.001626,-0.000207,0.001651,-0.000122,-83.249487,0.001840,
940,600,0.285654,-3.815348,0.999998,0.000174,-0.001409,0.002582,-0.000324,0.002608,-0.001436,-85.387345,0.002612,
760,1670,0.395738,-0.839016,0.999998,0.000134,-0.001182,0.002507,0.000007,0.002507,-0.001182,89.891307,0.002508,
1240,1300,-0.004296,-1.144559,0.999999,0.000130,-0.000495,0.000713,-0.000118,0.000724,-0.000507,-84.454499,0.000743,
1470,800,-0.329255,-3.322230,0.999997,0.000207,-0.001937,0.003191,0.000373,0.003218,-0.001964,85.859565,0.003244,
1720,1100,-0.865001,-2.340551,0.999998,0.000175,-0.001109,0.002549,0.000210,0.002561,-0.001121,86.718555,0.002568,
1150,870,0.201965,-3.674943,0.999998,0.000000,-0.001237,0.000693,-0.000628,0.000879,-0.001423,-73.466610,0.001436,
1510,730,-0.339079,-3.474164,0.999998,0.000170,-0.001750,0.002953,0.000309,0.002973,-0.001770,86.258557,0.002991,
880,270,0.191780,-4.551262,0.999998,0.000166,-0.000854,0.002187,0.000105,0.002191,-0.000857,88.024027,0.002208,
1190,470,0.025535,-4.279699,0.999998,0.000171,-0.000603,0.001729,-0.000067,0.001731,-0.000605,-88.361012,0.001757,
830,310,0.264869,-4.433177,0.999998,0.000201,-0.000947,0.002329,0.000089,0.002331,-0.000950,88.453179,0.002344,
1860,1120,-1.011440,-2.316786,0.999999,0.000136,-0.001103,0.002241,0.000108,0.002244,-0.001106,88.151687,0.002244,
790,1360,0.575304,-1.625583,0.999997,0.000212,-0.001502,0.002788,-0.000079,0.002789,-0.001504,-88.942518,0.002792,
1820,740,-0.819260,-3.204294,0.999999,0.000143,-0.001249,0.002524,-0.000147,0.002529,-0.001254,-87.765264,0.002529,
1900,1590,-0.698379,-1.196210,0.999998,0.000000,-0.001289,0.002502,-0.000046,0.002502,-0.001290,-89.307211,0.002502,
1080,1900,0.033771,-0.216561,0.999999,0.000147,-0.000217,0.001712,-0.000100,0.001717,-0.000222,-87.028747,0.001868,
1330,410,-0.058998,-4.373585,0.999998,0.000174,-0.000645,0.001839,0.000153,0.001848,-0.000654,86.476271,0.001874,
1480,310,-0.134851,-4.509770,0.999998,0.000167,-0.000700,0.002067,0.000001,0.002067,-0.000700,89.971564,0.002102,
780,750,0.641935,-3.255699,0.999998,0.000171,-0.001477,0.002789,0.000182,0.002797,-0.001485,87.566075,0.002798,
1760,1640,-0.486457,-0.957021,0.999998,0.000186,-0.001246,0.002524,-0.000044,0.002525,-0.001246,-89.336403,0.002525,
1690,660,-0.571244,-3.499677,0.999997,0.000206,-0.001455,0.002717,-0.000049,0.002717,-0.001456,-89.322428,0.002720,
570,1010,1.061899,-2.557658,0.999996,0.000262,-0.000826,0.002066,0.000073,0.002068,-0.000828,88.551076,0.002081,
570,550,0.758674,-3.629035,0.999909,0.001195,-0.002143,0.002787,-0.000137,0.002790,-0.002147,-88.414162,0.002922,
1240,1210,-0.018796,-1.198049,0.999998,0.000188,-0.002157,0.000766,0.000022,0.000766,-0.002157,89.570051,0.002187,
1120,540,0.076118,-4.128189,0.999998,0.000143,-0.000780,0.001839,-0.000290,0.001871,-0.000812,-83.747941,0.001876,
1050,1640,0.118287,-0.713376,0.999999,0.000138,-0.000786,0.002013,0.000180,0.002024,-0.000798,86.337892,0.002039,
590,830,0.957754,-2.954285,0.999999,0.000144,-0.001135,0.002323,0.000074,0.002325,-0.001136,88.767367,0.002325,
1870,970,-1.032495,-2.642210,0.999998,0.000190,-0.001058,0.002104,-0.000017,0.002104,-0.001058,-89.693863,0.002104,
1550,690,-0.377676,-3.539279,0.999997,0.000215,-0.001622,0.002867,0.000219,0.002877,-0.001632,87.215228,0.002886,
1890,1650,-0.640557,-1.039102,0.999998,0.000174,-0.001166,0.002494,-0.000049,0.002495,-0.001167,-89.235720,0.002497,
840,90,0.066531,-4.912685,0.999999,0.000127,-0.000252,0.001859,0.000420,0.001939,-0.000332,79.156513,0.002074,
1370,1280,-0.129055,-1.408022,0.999998,0.000207,-0.001510,0.002232,-0.001073,0.002518,-0.001796,-75.076289,0.002593,
700,1650,0.481649,-0.934123,0.999997,0.000196,-0.001239,0.002526,0.000054,0.002527,-0.001240,89.177496,0.002527,
1640,100,-0.080107,-4.891981,0.999999,0.000140,-0.000320,0.001945,-0.000434,0.002025,-0.000400,-79.516210,0.002145,
730,730,0.693883,-3.280528,0.999998,0.000186,-0.001392,0.002659,0.000182,0.002667,-0.001400,87.432088,0.002668,
1470,540,-0.198116,-4.016743,0.999999,0.000132,-0.001136,0.002307,0.000345,0.002341,-0.001170,84.329390,0.002341,
1380,420,-0.092598,-4.336008,0.999998,0.000153,-0.000720,0.001960,0.000154,0.001969,-0.000729,86.716381,0.001991,
1690,1390,-0.574970,-1.555432,0.999997,0.000199,-0.001437,0.002738,0.000042,0.002739,-0.001438,89.417690,0.002740,
1150,30,0.002876,-5.023896,0.999999,0.000000,0.000036,0.001498,-0.000007,0.001498,0.000036,-89.741350,0.001750,
900,730,0.431293,-3.409200,0.999997,0.000194,-0.001700,0.002977,-0.000092,0.002979,-0.001702,-88.878902,0.002989,
1470,780,-0.310753,-3.383837,0.999997,0.000222,-0.001916,0.003096,0.000423,0.003131,-0.001952,85.208177,0.003163,
1470,390,-0.157251,-4.347881,0.999998,0.000162,-0.000860,0.002140,0.000136,0.002147,-0.000867,87.417947,0.002160,
990,1970,0.028520,-0.105855,0.999999,0.000123,-0.000144,0.001694,-0.000217,0.001719,-0.000169,-83.363906,0.001895,
1100,570,0.093427,-4.055168,0.999999,0.000136,-0.000897,0.001916,-0.000451,0.001986,-0.000968,-81.111454,0.001987,
940,580,0.278222,-3.867128,0.999998,0.000167,-0.001361,0.002514,-0.000310,0.002538,-0.001385,-85.448392,0.002542,
1510,750,-0.355757,-3.414628,0.999998,0.000166,-0.001798,0.003039,0.000273,0.003054,-0.001814,86.777431,0.003072,
700,450,0.515733,-3.991608,0.999997,0.000198,-0.001269,0.002521,-0.000046,0.002522,-0.001270,-89.303940,0.002522,
1420,250,-0.078105,-4.647019,0.999998,0.000199,-0.000528,0.001860,-0.000020,0.001860,-0.000528,-89.513153,0.001917,
900,360,0.226500,-4.360486,0.999998,0.000168,-0.000969,0.002281,-0.000028,0.002281,-0.000970,-89.512672,0.002290,
1190,450,0.025403,-4.315440,0.999998,0.000186,-0.000571,0.001763,-0.000071,0.001765,-0.000573,-88.255974,0.001801,
1720,1060,-0.878151,-2.439632,0.999998,0.000161,-0.001066,0.002453,0.000089,0.002455,-0.001068,88.554192,0.002462,
1020,490,0.159309,-4.152703,0.999998,0.000188,-0.000994,0.002160,-0.000304,0.002189,-0.001023,-84.541333,0.002190,
1330,390,-0.057158,-4.410755,0.999998,0.000153,-0.000636,0.001860,0.000126,0.001866,-0.000642,87.118844,0.001896,
830,290,0.249706,-4.480195,0.999998,0.000196,-0.000878,0.002350,0.000141,0.002356,-0.000884,87.504679,0.002380,
890,1560,0.304939,-1.007281,0.999998,0.000193,-0.001217,0.002462,0.000188,0.002471,-0.001227,87.088979,0.002471,
1080,1880,0.041327,-0.250477,0.999998,0.000159,-0.000258,0.001706,-0.000081,0.001710,-0.000261,-87.656575,0.001842,
1270,1980,-0.002091,-0.083535,0.999999,0.000148,-0.000081,0.001531,0.000049,0.001532,-0.000083,88.255018,0.001724,
860,1790,0.204786,-0.488101,0.999998,0.000170,-0.000854,0.002226,-0.000133,0.002232,-0.000860,-87.528418,0.002252,
1240,1280,-0.003920,-1.156941,0.999998,0.000154,-0.000580,0.000626,-0.000119,0.000637,-0.000592,-84.397282,0.000711,
1530,1380,-0.334099,-1.433272,0.999997,0.000217,-0.001617,0.002828,-0.000281,0.002845,-0.001635,-86.391104,0.002856,
1700,510,-0.475211,-3.888172,0.999997,0.000178,-0.001296,0.002588,0.000085,0.002589,-0.001298,88.744747,0.002589,
1670,660,-0.541666,-3.513510,0.999997,0.000224,-0.001477,0.002760,-0.000030,0.002761,-0.001477,-89.590345,0.002763,
1900,1580,-0.705622,-1.221606,0.999998,0.000000,-0.001262,0.002499,-0.000046,0.002500,-0.001263,-89.297615,0.002500,
1040,360,0.110231,-4.432674,0.999998,0.000205,-0.000758,0.001988,-0.000111,0.001992,-0.000763,-87.695277,0.002010,
1800,1090,-0.957861,-2.373987,0.999998,0.000188,-0.001109,0.002314,0.000074,0.002315,-0.001110,88.761985,0.002316,
580,410,0.635553,-3.993894,0.999998,0.000151,-0.002876,0.002835,-0.000048,0.002835,-0.002876,-89.523414,0.003298,
1860,1100,-1.019064,-2.361430,0.999999,0.000139,-0.001079,0.002189,0.000037,0.002190,-0.001080,89.357431,0.002190,
1120,520,0.075633,-4.164728,0.999999,0.000135,-0.000760,0.001810,-0.000254,0.001835,-0.000785,-84.408962,0.001842,
580,830,0.968747,-2.947817,0.999999,0.000137,-0.001119,0.002345,0.000032,0.002346,-0.001119,89.463204,0.002347,
1380,400,-0.089975,-4.374369,0.999998,0.000144,-0.000681,0.001923,0.000124,0.001928,-0.000687,87.284907,0.001955,
1560,740,-0.437506,-3.380842,0.999997,0.000220,-0.001714,0.003013,0.000072,0.003014,-0.001715,89.129516,0.003024,
1820,720,-0.799272,-3.253646,0.999998,0.000156,-0.001251,0.002538,-0.000122,0.002542,-0.001255,-88.154348,0.002542,
1530,1440,-0.302946,-1.270675,0.999998,0.000190,-0.001421,0.002643,-0.000319,0.002668,-0.001446,-85.537187,0.002671,
1560,1190,-0.579687,-2.044710,0.999998,0.000161,-0.001582,0.003086,0.000310,0.003107,-0.001602,86.221098,0.003107,
640,1490,0.675820,-1.388949,0.999997,0.000187,-0.001277,0.002579,0.000007,0.002579,-0.001277,89.891255,0.002579,
720,1630,0.471976,-0.968413,0.999998,0.000167,-0.001213,0.002536,0.000040,0.002536,-0.001214,89.395132,0.002537,
1600,990,-0.754121,-2.620109,0.999998,0.000200,-0.000985,0.002677,-0.000138,0.002683,-0.000990,-87.841148,0.002713,
1370,1260,-0.140360,-1.453291,0.999997,0.000197,-0.001609,0.002332,-0.001114,0.002625,-0.001902,-75.261542,0.002712,
700,1040,0.927754,-2.489547,0.999998,0.000154,-0.001065,0.002390,-0.000057,0.002391,-0.001066,-89.054956,0.002395,
990,1950,0.036522,-0.139247,0.999999,0.000142,-0.000181,0.001729,-0.000192,0.001748,-0.000201,-84.307173,0.001913,
1140,2020,0.000966,-0.023888,0.999999,0.000000,-0.000063,0.001459,-0.000069,0.001462,-0.000066,-87.403030,0.001652,
1590,1990,-0.034226,-0.079331,0.999999,0.000129,-0.000220,0.001769,0.000377,0.001838,-0.000289,79.623994,0.001977,
1760,1620,-0.500728,-1.007418,0.999998,0.000173,-0.001261,0.002552,-0.000037,0.002552,-0.001261,-89.449925,0.002552,
1170,320,0.029016,-4.545075,0.999998,0.000145,-0.000448,0.001815,0.000005,0.001815,-0.000448,89.880286,0.001891,
1690,1370,-0.592706,-1.610285,0.999997,0.000207,-0.001443,0.002736,0.000082,0.002738,-0.001445,88.876335,0.002739,
1570,800,-0.515878,-3.188235,0.999998,0.000167,-0.001716,0.003081,-0.000139,0.003085,-0.001720,-88.336024,0.003092,
890,1590,0.292663,-0.934489,0.999998,0.000163,-0.001136,0.002409,0.000152,0.002416,-0.001142,87.551077,0.002417,
1100,550,0.093451,-4.092998,0.999998,0.000166,-0.000878,0.001908,-0.000425,0.001971,-0.000942,-81.525097,0.001972,
1790,1980,-0.113261,-0.123506,0.999998,0.000151,-0.000425,0.002411,0.000976,0.002714,-0.000729,72.722639,0.002810,
1190,1660,0.023956,-0.626897,0.999998,0.000181,-0.000585,0.001803,0.000056,0.001804,-0.000586,88.658703,0.001841,
880,730,0.465483,-3.388192,0.999997,0.000196,-0.001674,0.002949,-0.000031,0.002949,-0.001674,-89.616703,0.002958,
1640,80,-0.059967,-4.930979,0.999999,0.000126,-0.000240,0.001900,-0.000480,0.002003,-0.000343,-77.910590,0.002143,
940,780,0.408247,-3.302938,0.999997,0.000181,-0.001830,0.003161,-0.000132,0.003165,-0.001834,-88.488621,0.003178,
1140,390,0.052101,-4.412393,0.999999,0.000131,-0.000628,0.001815,-0.000116,0.001821,-0.000634,-87.289231,0.001848,
1460,310,-0.122048,-4.517811,0.999998,0.000154,-0.000629,0.002024,-0.000002,0.002024,-0.000629,-89.964214,0.002072,
770,930,0.819859,-2.766884,0.999998,0.000149,-0.001158,0.002540,0.000210,0.002552,-0.001170,86.765206,0.002555,
1270,1970,-0.003887,-0.099193,0.999999,0.000148,-0.000089,0.001550,0.000040,0.001551,-0.000090,88.604002,0.001741,
1720,1040,-0.882417,-2.488548,0.999998,0.000149,-0.001040,0.002457,0.000070,0.002459,-0.001041,88.860544,0.002468,
1580,430,-0.282873,-4.182699,0.999998,0.000174,-0.001085,0.002378,0.000096,0.002380,-0.001087,88.415296,0.002383,
1190,430,0.026626,-4.350444,0.999998,0.000187,-0.000574,0.001798,-0.000065,0.001799,-0.000576,-88.421179,0.001838,
1080,1860,0.044958,-0.285838,0.999998,0.000161,-0.000299,0.001743,-0.000084,0.001747,-0.000303,-87.638710,0.001867,
1330,370,-0.054512,-4.447781,0.999999,0.000131,-0.000610,0.001872,0.000089,0.001875,-0.000614,87.943556,0.001912,
830,270,0.235653,-4.527503,0.999998,0.000190,-0.000815,0.002307,0.000159,0.002315,-0.000823,87.097322,0.002347,
1500,1350,-0.304148,-1.479242,0.999997,0.000188,-0.001683,0.002843,-0.000397,0.002877,-0.001717,-85.018682,0.002895,
1900,1570,-0.713510,-1.246152,0.999998,0.000000,-0.001229,0.002496,-0.000054,0.002497,-0.001230,-89.172414,0.002497,
1820,1850,-0.360119,-0.471052,0.999997,0.000210,-0.001143,0.002580,0.000208,0.002591,-0.001154,86.807128,0.002596,
570,440,0.682635,-3.910596,0.999735,0.001927,-0.002591,0.002402,-0.000407,0.002435,-0.002624,-85.373209,0.002927,
1040,340,0.109865,-4.471511,0.999998,0.000208,-0.000726,0.001966,-0.000088,0.001969,-0.000729,-88.131274,0.001991,
1890,910,-1.028906,-2.766173,0.999998,0.000144,-0.001139,0.002162,-0.000056,0.002163,-0.001140,-89.036808,0.002164,
1560,780,-0.475173,-3.260978,0.999998,0.000184,-0.001750,0.003080,-0.000045,0.003081,-0.001751,-89.464160,0.003090,
1830,1560,-0.631374,-1.216748,0.999998,0.000169,-0.001258,0.002546,-0.000046,0.002546,-0.001258,-89.312530,0.002546,
900,1850,0.131150,-0.342813,0.999998,0.000183,-0.000599,0.002094,-0.000225,0.002113,-0.000618,-85.253340,0.002173,
570,830,0.979594,-2.940110,0.999999,0.000137,-0.001112,0.002379,0.000021,0.002379,-0.001112,89.662996,0.002381,
1440,890,-0.413164,-3.080585,0.999998,0.000180,-0.001788,0.003549,0.000329,0.003570,-0.001808,86.488579,0.003570,
1140,1180,0.227576,-1.411736,0.999998,0.000000,-0.000810,0.000896,0.000595,0.001083,-0.000997,72.560388,0.001204,
1820,700,-0.782980,-3.303609,0.999998,0.000181,-0.001259,0.002541,-0.000096,0.002543,-0.001262,-88.550405,0.002543,
1640,1230,-0.654951,-1.971717,0.999998,0.000154,-0.001474,0.002868,0.000307,0.002889,-0.001495,85.977191,0.002890,
1240,1260,-0.004293,-1.168595,0.999998,0.000164,-0.000765,0.000541,-0.000132,0.000554,-0.000778,-84.282912,0.000801,
1860,1080,-1.023770,-2.405088,0.999998,0.000151,-0.001043,0.002141,0.000013,0.002141,-0.001043,89.763988,0.002141,
700,430,0.501622,-4.042240,0.999998,0.000177,-0.001253,0.002536,-0.000026,0.002536,-0.001253,-89.607169,0.002536,
700,1020,0.927955,-2.538456,0.999998,0.000150,-0.001061,0.002429,0.000046,0.002430,-0.001061,89.252864,0.002436,
1590,1970,-0.052478,-0.115001,0.999999,0.000132,-0.000295,0.001800,0.000352,0.001857,-0.000352,80.712585,0.001973,
690,1520,0.588747,-1.274157,0.999997,0.000216,-0.001312,0.002594,0.000036,0.002594,-0.001312,89.465172,0.002594,
1510,770,-0.373150,-3.351699,0.999998,0.000185,-0.001837,0.003116,0.000210,0.003125,-0.001846,87.571782,0.003142,
1680,1130,-0.801176,-2.258727,0.999998,0.000164,-0.001159,0.002589,0.000259,0.002607,-0.001177,86.072432,0.002611,
1640,60,-0.038894,-4.968432,0.999999,0.000139,-0.000153,0.001828,-0.000463,0.001931,-0.000256,-77.464111,0.002098,
1120,500,0.075260,-4.199317,0.999999,0.000126,-0.000736,0.001858,-0.000224,0.001877,-0.000755,-85.092197,0.001889,
620,1490,0.701821,-1.406257,0.999998,0.000188,-0.001268,0.002560,0.000015,0.002560,-0.001268,89.780414,0.002560,
1760,1600,-0.514828,-1.058542,0.999998,0.000183,-0.001255,0.002544,-0.000059,0.002545,-0.001256,-89.116207,0.002545,
990,1930,0.046213,-0.174774,0.999999,0.000143,-0.000235,0.001726,-0.000189,0.001744,-0.000253,-84.553135,0.001884,
770,910,0.807681,-2.817039,0.999998,0.000155,-0.001199,0.002602,0.000277,0.002622,-0.001219,85.856662,0.002624,
1690,1350,-0.610671,-1.665258,0.999997,0.000206,-0.001447,0.002759,0.000117,0.002762,-0.001450,88.410755,0.002763,
1570,120,-0.072749,-4.862648,0.999999,0.000137,-0.000344,0.001911,-0.000309,0.001952,-0.000386,-82.338184,0.002068,
1580,410,-0.272598,-4.231108,0.999998,0.000189,-0.001068,0.002370,0.000077,0.002371,-0.001070,88.724453,0.002375,
1260,690,-0.015314,-3.946213,0.999998,0.000130,-0.000539,0.001188,0.000243,0.001221,-0.000573,82.144476,0.001222,
660,560,0.645825,-3.677617,0.999998,0.000163,-0.001292,0.002547,-0.000025,0.002547,-0.001292,-89.631258,0.002547,
1570,780,-0.492242,-3.250226,0.999997,0.000199,-0.001718,0.003052,-0.000068,0.003053,-0.001719,-89.180257,0.003061,
1220,310,0.005317,-4.567359,0.999999,0.000138,-0.000477,0.001756,-0.000011,0.001756,-0.000477,-89.710080,0.001816,
1330,380,-0.055614,-4.429303,0.999999,0.000136,-0.000628,0.001877,0.000101,0.001881,-0.000632,87.700871,0.001914,
1180,1490,0.032730,-0.923192,0.999998,0.000157,-0.000662,0.001626,0.000203,0.001644,-0.000680,84.974068,0.001652,
1010,1180,0.409313,-1.935616,0.999998,0.000182,-0.001896,0.003460,0.000201,0.003467,-0.001903,87.852375,0.003473,
730,950,0.876193,-2.711690,0.999998,0.000152,-0.001125,0.002498,0.000208,0.002510,-0.001137,86.717578,0.002514,
1380,380,-0.087908,-4.412220,0.999999,0.000136,-0.000622,0.001923,0.000092,0.001926,-0.000625,87.932092,0.001965,
1330,350,-0.051833,-4.484398,0.999998,0.000157,-0.000586,0.001833,0.000073,0.001835,-0.000588,88.283575,0.001874,
940,60,0.022374,-4.974322,0.999999,0.000141,-0.000093,0.001667,0.000247,0.001701,-0.000127,82.165941,0.001896,
1900,1560,-0.718591,-1.270704,0.999998,0.000000,-0.001233,0.002524,-0.000029,0.002524,-0.001233,-89.558022,0.002525,
1080,1840,0.049688,-0.320053,0.999998,0.000148,-0.000348,0.001777,-0.000077,0.001779,-0.000351,-87.930859,0.001885,
1490,1120,-0.578478,-2.210262,0.999998,0.000163,-0.001394,0.003434,0.000235,0.003446,-0.001405,87.219298,0.003465,
830,250,0.219612,-4.573312,0.999998,0.000186,-0.000770,0.002287,0.000197,0.002299,-0.000783,86.336378,0.002338,
900,1640,0.255897,-0.808609,0.999998,0.000147,-0.001072,0.002339,0.000136,0.002344,-0.001077,87.715248,0.002347,
1820,1790,-0.432373,-0.625454,0.999998,0.000186,-0.001186,0.002545,0.000089,0.002547,-0.001188,88.637203,0.002549,
1720,1020,-0.882202,-2.538689,0.999998,0.000161,-0.001040,0.002468,-0.000033,0.002468,-0.001040,-89.458383,0.002478,
1190,410,0.025119,-4.386365,0.999998,0.000192,-0.000581,0.001786,-0.000051,0.001788,-0.000582,-88.767966,0.001823,
1470,590,-0.212854,-3.899277,0.999998,0.000144,-0.001274,0.002388,0.000435,0.002439,-0.001325,83.311487,0.002442,
1810,1560,-0.609386,-1.201020,0.999998,0.000197,-0.001257,0.002564,-0.000043,0.002564,-0.001258,-89.352255,0.002564,
1040,320,0.101288,-4.512122,0.999998,0.000166,-0.000702,0.001984,-0.000040,0.001984,-0.000703,-89.137500,0.002012,
1850,1520,-0.687688,-1.335310,0.999998,0.000175,-0.001250,0.002538,-0.000003,0.002538,-0.001250,-89.955319,0.002538,
870,1340,0.468724,-1.616419,0.999997,0.000196,-0.001624,0.002896,0.000020,0.002896,-0.001624,89.742207,0.002903,
1820,680,-0.765987,-3.355864,0.999998,0.000177,-0.001276,0.002551,-0.000091,0.002553,-0.001278,-88.644620,0.002553,
660,170,0.291482,-4.671501,0.999998,0.000184,-0.001029,0.002577,0.000423,0.002626,-0.001078,83.396101,0.002640,
1760,1580,-0.527645,-1.109335,0.999998,0.000169,-0.001272,0.002551,-0.000074,0.002553,-0.001273,-88.889267,0.002553,
1860,1060,-1.027665,-2.446990,0.999998,0.000159,-0.001031,0.002170,0.000041,0.002171,-0.001031,89.264380,0.002172,
1600,870,-0.646466,-2.956661,0.999997,0.000208,-0.001444,0.002922,-0.000338,0.002948,-0.001470,-85.603632,0.002948,
990,1910,0.055927,-0.209218,0.999998,0.000152,-0.000277,0.001779,-0.000176,0.001794,-0.000292,-85.152282,0.001925,
1240,1240,-0.010325,-1.177207,0.999998,0.000146,-0.001076,0.000554,-0.000096,0.000560,-0.001082,-86.634940,0.001082,
1430,70,-0.017494,-4.960722,0.999999,0.000121,-0.000101,0.001606,-0.000140,0.001618,-0.000112,-85.329187,0.001807,
700,830,0.825418,-3.003605,0.999999,0.000133,-0.001272,0.002549,0.000239,0.002564,-0.001287,86.435636,0.002564,
870,510,0.336829,-3.978075,0.999998,0.000191,-0.001268,0.002480,-0.000170,0.002488,-0.001275,-87.405087,0.002488,
1690,1330,-0.627399,-1.720456,0.999997,0.000195,-0.001453,0.002744,0.000155,0.002750,-0.001458,87.889702,0.002751,
1310,380,-0.042987,-4.435243,0.999999,0.000125,-0.000586,0.001818,0.000052,0.001820,-0.000587,88.765408,0.001857,
770,1110,0.828205,-2.311955,0.999998,0.000180,-0.001114,0.002548,-0.000227,0.002562,-0.001128,-86.465555,0.002568,
1590,1950,-0.068142,-0.150329,0.999998,0.000158,-0.000383,0.001889,0.000341,0.001939,-0.000433,81.643661,0.002035,
1500,1850,-0.099266,-0.326880,0.999998,0.000193,-0.000576,0.001943,0.000130,0.001950,-0.000583,87.065180,0.002002,
1140,1170,0.259588,-1.419666,0.999997,0.000000,-0.000708,0.000806,0.000693,0.001075,-0.000977,68.773091,0.001189,
1510,790,-0.394878,-3.289039,0.999997,0.000194,-0.001885,0.003182,0.000131,0.003185,-0.001889,88.518405,0.003204,
1550,800,-0.479961,-3.207917,0.999998,0.000209,-0.001771,0.003108,-0.000077,0.003109,-0.001772,-89.100486,0.003119,
1350,80,-0.012643,-4.946509,0.999999,0.000130,-0.000097,0.001576,-0.000070,0.001579,-0.000100,-87.623862,0.001769,
1870,1600,-0.653190,-1.147008,0.999998,0.000183,-0.001262,0.002509,-0.000021,0.002509,-0.001262,-89.687708,0.002509,
1560,410,-0.250885,-4.245305,0.999998,0.000172,-0.001065,0.002353,0.000118,0.002357,-0.001069,88.016274,0.002360,
1320,690,-0.055115,-3.890023,0.999999,0.000135,-0.000850,0.001548,0.000702,0.001738,-0.001040,74.833377,0.001750,
1900,1550,-0.724941,-1.296497,0.999998,0.000000,-0.001237,0.002561,0.000001,0.002561,-0.001237,89.990301,0.002561,
1200,330,0.017107,-4.530888,0.999998,0.000167,-0.000502,0.001760,-0.000042,0.001761,-0.000503,-88.924602,0.001814,
730,710,0.674715,-3.333228,0.999998,0.000195,-0.001423,0.002683,0.000131,0.002687,-0.001427,88.169514,0.002689,
1080,1820,0.056192,-0.357040,0.999998,0.000148,-0.000382,0.001810,-0.000055,0.001812,-0.000383,-88.570450,0.001909,
1440,870,-0.374878,-3.151318,0.999998,0.000184,-0.001901,0.003432,0.000384,0.003459,-0.001929,85.907307,0.003467,
600,1420,0.781652,-1.601361,0.999998,0.000179,-0.001255,0.002554,-0.000030,0.002554,-0.001255,-89.552202,0.002554,
1330,330,-0.050915,-4.522113,0.999998,0.000164,-0.000568,0.001821,0.000053,0.001822,-0.000569,88.732633,0.001865,
660,1730,0.468320,-0.764032,0.999997,0.000181,-0.001234,0.002533,0.000004,0.002533,-0.001234,89.945624,0.002533,
830,230,0.202431,-4.618730,0.999998,0.000174,-0.000721,0.002266,0.000246,0.002286,-0.000741,85.328880,0.002332,
1270,1950,-0.003931,-0.130468,0.999999,0.000143,-0.000134,0.001570,0.000029,0.001570,-0.000135,89.014974,0.001740,
990,1180,0.446680,-1.976264,0.999997,0.000196,-0.001815,0.003417,0.000023,0.003417,-0.001815,89.750033,0.003419,
1820,810,-0.879807,-3.028925,0.999998,0.000157,-0.001220,0.002434,-0.000176,0.002443,-0.001229,-87.254638,0.002443,
780,1110,0.816932,-2.311024,0.999998,0.000187,-0.001116,0.002574,-0.000235,0.002589,-0.001131,-86.374792,0.002596,
880,1650,0.272267,-0.799465,0.999998,0.000163,-0.001051,0.002376,0.000092,0.002378,-0.001053,88.470005,0.002384,
950,130,0.062204,-4.851958,0.999998,0.000159,-0.000318,0.001800,0.000196,0.001818,-0.000337,84.747869,0.001934,
1370,140,-0.026948,-4.850173,0.999999,0.000129,-0.000181,0.001626,-0.000092,0.001630,-0.000186,-87.078860,0.001785,
660,540,0.632269,-3.728415,0.999998,0.000186,-0.001303,0.002592,-0.000029,0.002592,-0.001303,-89.569930,0.002592,
1380,360,-0.083650,-4.450604,0.999998,0.000145,-0.000594,0.001902,0.000054,0.001903,-0.000596,88.761580,0.001947,
1120,480,0.072607,-4.237792,0.999999,0.000140,-0.000709,0.001884,-0.000186,0.001897,-0.000722,-85.924266,0.001915,
1460,1800,-0.101250,-0.413195,0.999998,0.000147,-0.000521,0.001971,0.000091,0.001974,-0.000525,87.901657,0.002045,
1000,270,0.109332,-4.595040,0.999998,0.000169,-0.000539,0.001966,0.000069,0.001968,-0.000541,88.413929,0.002033,
1070,1320,0.143981,-1.369663,0.999998,0.000161,-0.001518,0.002373,0.000895,0.002569,-0.001714,77.650220,0.002616,
900,1680,0.233704,-0.713879,0.999998,0.000164,-0.000986,0.002299,0.000052,0.002300,-0.000986,89.092341,0.002308,
1740,1530,-0.537437,-1.221499,0.999998,0.000175,-0.001299,0.002596,-0.000042,0.002596,-0.001299,-89.386375,0.002596,
1820,660,-0.748254,-3.406496,0.999998,0.000174,-0.001298,0.002580,-0.000065,0.002581,-0.001299,-89.035416,0.002581,
1890,900,-1.023678,-2.788434,0.999999,0.000128,-0.001136,0.002158,-0.000043,0.002158,-0.001136,-89.250377,0.002159,
1190,390,0.023396,-4.422287,0.999998,0.000165,-0.000564,0.001789,-0.000055,0.001790,-0.000566,-88.653065,0.001830,
1720,1000,-0.879221,-2.585660,0.999998,0.000156,-0.001051,0.002474,-0.000077,0.002476,-0.001053,-88.744650,0.002485,
990,1890,0.066284,-0.246183,0.999998,0.000152,-0.000324,0.001831,-0.000189,0.001847,-0.000341,-85.037029,0.001966,
870,1320,0.486621,-1.675782,0.999996,0.000216,-0.001652,0.002968,-0.000027,0.002968,-0.001652,-89.662926,0.002974,
1830,1520,-0.663769,-1.318881,0.999998,0.000189,-0.001287,0.002546,-0.000002,0.002546,-0.001287,-89.969574,0.002546,
1420,1280,-0.210887,-1.535301,0.999998,0.000183,-0.001786,0.002843,-0.000808,0.002980,-0.001923,-80.382108,0.003022,
660,150,0.260670,-4.724122,0.999998,0.000177,-0.000941,0.002599,0.000505,0.002670,-0.001012,82.041440,0.002696,
1820,570,-0.676119,-3.638810,0.999998,0.000150,-0.001270,0.002574,0.000017,0.002574,-0.001270,89.740060,0.002574,
1740,850,-0.815077,-2.961447,0.999999,0.000146,-0.001223,0.002559,-0.000259,0.002576,-0.001240,-86.093955,0.002577,
1680,510,-0.449481,-3.904169,0.999998,0.000152,-0.001279,0.002575,0.000098,0.002577,-0.001281,88.546254,0.002577,
1010,500,0.171892,-4.120693,0.999997,0.000188,-0.000999,0.002199,-0.000313,0.002229,-0.001029,-84.453387,0.002232,
870,490,0.326824,-4.027189,0.999998,0.000169,-0.001250,0.002468,-0.000177,0.002476,-0.001259,-87.285333,0.002476,
1400,1530,-0.123904,-0.928873,0.999999,0.000117,-0.000916,0.002019,-0.000305,0.002050,-0.000948,-84.138585,0.002052,
1240,820,-0.010021,-3.858758,0.999998,0.000170,-0.001200,0.000609,0.000085,0.000612,-0.001204,87.328897,0.001204,
1110,1980,0.011389,-0.085551,0.999999,0.000129,-0.000088,0.001573,-0.000075,0.001576,-0.000091,-87.423227,0.001770,
1510,1230,-0.439481,-1.864988,0.999998,0.000175,-0.001860,0.003269,0.000007,0.003269,-0.001860,89.918661,0.003279,
690,1500,0.603484,-1.325753,0.999997,0.000191,-0.001326,0.002576,0.000021,0.002577,-0.001326,89.690448,0.002577,
1080,1800,0.060197,-0.393695,0.999998,0.000150,-0.000432,0.001839,-0.000035,0.001840,-0.000433,-89.115929,0.001924,
1140,880,0.232050,-3.625569,0.999953,0.000000,-0.001285,0.000740,-0.001018,0.001163,-0.001708,-67.427078,0.001745,
1860,1040,-1.031516,-2.491601,0.999998,0.000173,-0.001033,0.002212,0.000046,0.002212,-0.001034,89.190063,0.002214,
690,760,0.775901,-3.179959,0.999998,0.000167,-0.001310,0.002575,0.000175,0.002583,-0.001318,87.427944,0.002583,
600,700,0.837801,-3.274402,0.999998,0.000172,-0.001245,0.002525,0.000057,0.002525,-0.001246,89.136677,0.002525,
1300,1850,-0.021020,-0.295018,0.999998,0.000149,-0.000277,0.001685,0.000048,0.001687,-0.000279,88.590345,0.001808,
1900,1540,-0.735819,-1.322997,0.999998,0.000000,-0.001233,0.002596,0.000023,0.002596,-0.001233,89.662329,0.002597,
660,520,0.615688,-3.781080,0.999998,0.000195,-0.001320,0.002584,-0.000033,0.002584,-0.001321,-89.510725,0.002584,
1040,300,0.097131,-4.551910,0.999998,0.000183,-0.000651,0.001944,-0.000045,0.001945,-0.000652,-89.009354,0.001980,
950,170,0.086252,-4.777769,0.999998,0.000148,-0.000461,0.001885,0.000195,0.001901,-0.000477,85.287683,0.001978,
730,670,0.639866,-3.441956,0.999998,0.000188,-0.001375,0.002665,0.000079,0.002666,-0.001377,88.880198,0.002667,
890,1220,0.563233,-1.960900,0.999997,0.000171,-0.001626,0.003053,-0.000245,0.003065,-0.001639,-87.007174,0.003068,
1740,1310,-0.717657,-1.803045,0.999998,0.000184,-0.001374,0.002648,0.000205,0.002658,-0.001384,87.092119,0.002659,
1760,210,-0.298641,-4.599742,0.999998,0.000179,-0.001128,0.002500,-0.000241,0.002516,-0.001144,-86.221867,0.002519,
1120,460,0.072608,-4.274881,0.999998,0.000167,-0.000696,0.001857,-0.000177,0.001869,-0.000709,-86.052167,0.001887,
1810,1120,-0.955515,-2.305026,0.999998,0.000161,-0.001113,0.002359,0.000154,0.002366,-0.001120,87.461263,0.002367,
910,1190,0.570463,-2.039341,0.999998,0.000180,-0.001624,0.003138,-0.000303,0.003157,-0.001643,-86.377227,0.003158,
1380,340,-0.079544,-4.487442,0.999998,0.000170,-0.000575,0.001891,0.000032,0.001892,-0.000576,89.260869,0.001939,
1450,1780,-0.103317,-0.449513,0.999998,0.000153,-0.000570,0.001951,0.000058,0.001952,-0.000571,88.676223,0.002008,
1450,140,-0.046872,-4.842584,0.999999,0.000169,-0.000253,0.001716,-0.000145,0.001727,-0.000263,-85.820041,0.001861,
1050,1320,0.175261,-1.412061,0.999998,0.000165,-0.001582,0.002552,0.000823,0.002709,-0.001740,79.147079,0.002746,
1200,310,0.015223,-4.565881,0.999999,0.000154,-0.000479,0.001773,-0.000018,0.001773,-0.000479,-89.549407,0.001835,
1760,1560,-0.541722,-1.160459,0.999998,0.000172,-0.001302,0.002571,-0.000050,0.002572,-0.001303,-89.264565,0.002572,
1470,1870,-0.074102,-0.281169,0.999998,0.000140,-0.000368,0.001837,0.000143,0.001847,-0.000377,86.307903,0.001951,
600,1490,0.725782,-1.422900,0.999997,0.000205,-0.001244,0.002563,0.000011,0.002563,-0.001244,89.841731,0.002563,
1820,640,-0.731181,-3.459289,0.999998,0.000195,-0.001299,0.002579,-0.000036,0.002579,-0.001299,-89.465327,0.002579,
830,210,0.183765,-4.663296,0.999998,0.000165,-0.000683,0.002201,0.000306,0.002233,-0.000716,84.001201,0.002280,
1690,1310,-0.647569,-1.773773,0.999998,0.000176,-0.001465,0.002737,0.000174,0.002744,-0.001472,87.638348,0.002746,
770,390,0.385716,-4.199263,0.999998,0.000177,-0.001179,0.002462,-0.000034,0.002462,-0.001179,-89.459331,0.002463,
1590,1930,-0.085973,-0.191278,0.999998,0.000157,-0.000455,0.001932,0.000326,0.001976,-0.000499,82.362208,0.002055,
1190,370,0.022240,-4.459367,0.999998,0.000160,-0.000520,0.001773,-0.000057,0.001775,-0.000521,-88.574099,0.001824,
1720,980,-0.874146,-2.637246,0.999998,0.000149,-0.001074,0.002465,-0.000101,0.002468,-0.001077,-88.373120,0.002474,
1330,310,-0.046391,-4.558775,0.999998,0.000164,-0.000533,0.001796,0.000045,0.001796,-0.000534,88.887639,0.001845,
850,1320,0.520482,-1.692360,0.999998,0.000184,-0.001645,0.002920,-0.000052,0.002921,-0.001646,-89.343287,0.002929,
990,1870,0.076885,-0.281252,0.999998,0.000160,-0.000383,0.001858,-0.000137,0.001866,-0.000391,-86.504821,0.001969,
1690,780,-0.680713,-3.169121,0.999998,0.000172,-0.001429,0.002760,-0.000225,0.002772,-0.001441,-86.927526,0.002772,
1410,220,-0.062754,-4.705699,0.999998,0.000167,-0.000456,0.001817,-0.000058,0.001819,-0.000458,-88.529282,0.001892,
1330,80,-0.008536,-4.947779,0.999999,0.000118,-0.000116,0.001567,-0.000072,0.001571,-0.000119,-87.559256,0.001749,
1300,690,-0.040131,-3.914481,0.999999,0.000129,-0.000721,0.001393,0.000565,0.001534,-0.000863,75.928763,0.001538,
1020,910,0.458972,-3.001931,0.999997,0.000217,-0.001676,0.003638,-0.000271,0.003652,-0.001690,-87.088357,0.003655,
1430,1470,-0.161929,-1.084891,0.999998,0.000157,-0.001137,0.002194,-0.000444,0.002252,-0.001196,-82.545888,0.002254,
870,470,0.318169,-4.076487,0.999998,0.000183,-0.001203,0.002467,-0.000158,0.002474,-0.001210,-87.541741,0.002474,
1410,680,-0.154638,-3.768447,0.999998,0.000154,-0.001369,0.002318,0.000717,0.002453,-0.001504,79.376181,0.002474,
1800,1690,-0.496633,-0.861822,0.999997,0.000192,-0.001258,0.002533,-0.000011,0.002533,-0.001258,-89.836399,0.002533,
1240,800,-0.007687,-3.869353,0.999998,0.000183,-0.000806,0.000525,0.000109,0.000533,-0.000815,85.349620,0.000828,
1080,1780,0.066029,-0.430385,0.999998,0.000161,-0.000485,0.001858,-0.000042,0.001858,-0.000485,-88.965060,0.001928,
1630,840,-0.656923,-3.029438,0.999997,0.000180,-0.001455,0.002842,-0.000311,0.002865,-0.001477,-85.879765,0.002865,
1700,130,-0.146858,-4.817585,0.999998,0.000169,-0.000577,0.002189,-0.000532,0.002288,-0.000676,-79.488840,0.002351,
610,770,0.885887,-3.108023,0.999999,0.000140,-0.001214,0.002440,0.000100,0.002442,-0.001217,88.427084,0.002442,
660,500,0.601888,-3.831212,0.999998,0.000193,-0.001304,0.002560,-0.000021,0.002561,-0.001304,-89.689625,0.002561,
1900,1750,-0.567211,-0.805208,0.999997,0.000000,-0.001169,0.002443,-0.000032,0.002443,-0.001169,-89.493994,0.002444,
1860,1020,-1.032091,-2.536780,0.999998,0.000186,-0.001032,0.002198,-0.000037,0.002198,-0.001032,-89.348709,0.002200,
1140,30,0.002426,-5.022945,0.999999,0.000000,0.000032,0.001503,-0.000010,0.001503,0.000032,-89.608579,0.001754,
950,1610,0.215510,-0.841686,0.999999,0.000145,-0.000998,0.002240,0.000138,0.002246,-0.001004,87.558758,0.002250,
1840,1610,-0.608451,-1.097260,0.999998,0.000195,-0.001237,0.002521,-0.000041,0.002521,-0.001237,-89.372990,0.002521,
1820,620,-0.714073,-3.510242,0.999997,0.000187,-0.001302,0.002564,-0.000037,0.002564,-0.001302,-89.444507,0.002565,
1040,280,0.089749,-4.589346,0.999998,0.000173,-0.000595,0.001912,0.000001,0.001912,-0.000595,89.976433,0.001957,
1010,1060,0.608661,-2.383892,0.999997,0.000212,-0.001416,0.004157,0.000107,0.004160,-0.001418,88.903833,0.004229,
1610,1660,-0.294368,-0.793618,0.999998,0.000175,-0.001083,0.002372,-0.000035,0.002372,-0.001083,-89.419750,0.002375,
1380,320,-0.075080,-4.526829,0.999998,0.000178,-0.000516,0.001894,0.000026,0.001894,-0.000516,89.386904,0.001958,
730,650,0.623653,-3.494888,0.999997,0.000189,-0.001362,0.002653,0.000057,0.002653,-0.001363,89.191541,0.002654,
1050,940,0.469601,-2.986473,0.999997,0.000212,-0.001638,0.003979,-0.001244,0.004242,-0.001901,-78.054228,0.004250,
1470,1910,-0.054678,-0.210423,0.999999,0.000129,-0.000265,0.001773,0.000183,0.001789,-0.000281,84.899328,0.001924,
1770,80,-0.114364,-4.906741,0.999998,0.000151,-0.000579,0.002277,-0.000784,0.002478,-0.000780,-75.619751,0.002534,
1190,350,0.021542,-4.493888,0.999998,0.000165,-0.000483,0.001769,-0.000052,0.001770,-0.000484,-88.685916,0.001830,
1720,960,-0.868403,-2.686532,0.999998,0.000146,-0.001105,0.002514,-0.000192,0.002524,-0.001115,-86.977815,0.002530,
830,190,0.164772,-4.707228,0.999998,0.000168,-0.000620,0.002169,0.000315,0.002205,-0.000655,83.642567,0.002264,
1540,1430,-0.322874,-1.308212,0.999998,0.000152,-0.001464,0.002667,-0.000288,0.002687,-0.001484,-86.030127,0.002692,
1480,590,-0.224728,-3.887946,0.999998,0.000162,-0.001292,0.002418,0.000411,0.002463,-0.001337,83.751267,0.002466,
780,440,0.409503,-4.080910,0.999998,0.000178,-0.001228,0.002485,-0.000078,0.002487,-0.001230,-88.796810,0.002487,
770,1180,0.776664,-2.129475,0.999998,0.000163,-0.001271,0.002628,-0.000306,0.002652,-0.001295,-85.533334,0.002652,
580,420,0.642896,-3.969680,0.999998,0.000170,-0.002598,0.002748,-0.000115,0.002750,-0.002600,-88.772884,0.003093,
1330,290,-0.044635,-4.593679,0.999999,0.000140,-0.000483,0.001809,0.000046,0.001810,-0.000484,88.840720,0.001874,
1760,1540,-0.557583,-1.213142,0.999998,0.000171,-0.001327,0.002562,-0.000052,0.002563,-0.001327,-89.239465,0.002563,
990,1850,0.084649,-0.321015,0.999998,0.000164,-0.000429,0.001877,-0.000117,0.001883,-0.000435,-87.094659,0.001972,
1690,1290,-0.666191,-1.829762,0.999998,0.000161,-0.001448,0.002765,0.000205,0.002775,-0.001458,87.218617,0.002776,
1110,1170,0.279094,-1.571815,0.999998,0.000172,-0.000685,0.001561,0.001226,0.002101,-0.001225,66.246384,0.002110,
1860,1430,-0.770288,-1.573681,0.999997,0.000209,-0.001246,0.002542,0.000005,0.002542,-0.001246,89.916987,0.002542,
590,1490,0.737940,-1.429871,0.999998,0.000199,-0.001370,0.002500,0.000087,0.002502,-0.001372,88.707753,0.002505,
1480,870,-0.451427,-3.068351,0.999998,0.000169,-0.001831,0.003404,-0.000005,0.003404,-0.001831,-89.946728,0.003407,
910,1170,0.597324,-2.101493,0.999998,0.000187,-0.001546,0.003099,-0.000340,0.003123,-0.001570,-85.834589,0.003123,
1750,840,-0.819702,-2.983838,0.999998,0.000155,-0.001239,0.002554,-0.000259,0.002572,-0.001257,-86.113599,0.002572,
1410,240,-0.070128,-4.668618,0.999998,0.000177,-0.000497,0.001856,-0.000042,0.001857,-0.000498,-88.978167,0.001922,
1510,1210,-0.467374,-1.931439,0.999998,0.000176,-0.001835,0.003295,0.000084,0.003296,-0.001837,89.056620,0.003303,
1180,470,0.031072,-4.278327,0.999998,0.000164,-0.000618,0.001752,-0.000065,0.001754,-0.000620,-88.440547,0.001779,
890,80,0.043679,-4.936944,0.999998,0.000160,-0.000248,0.001758,0.000323,0.001808,-0.000299,81.086515,0.001939,
1590,1910,-0.101636,-0.227733,0.999999,0.000158,-0.000537,0.001978,0.000310,0.002015,-0.000575,83.065072,0.002077,
870,450,0.305627,-4.126809,0.999999,0.000187,-0.001152,0.002421,-0.000119,0.002425,-0.001156,-88.092608,0.002426,
1410,480,-0.127404,-4.196473,0.999998,0.000157,-0.000867,0.002037,0.000259,0.002060,-0.000890,84.943028,0.002066,
1430,1510,-0.157634,-0.998408,0.999998,0.000152,-0.001053,0.002176,-0.000402,0.002226,-0.001102,-83.007067,0.002226,
660,480,0.586782,-3.883165,0.999998,0.000180,-0.001273,0.002565,-0.000033,0.002566,-0.001274,-89.514011,0.002566,
1240,780,-0.004730,-3.879806,0.999998,0.000167,-0.000593,0.000573,0.000125,0.000586,-0.000606,83.967442,0.000689,
1900,1760,-0.557031,-0.780496,0.999998,0.000000,-0.001172,0.002459,-0.000046,0.002460,-0.001173,-89.270773,0.002461,
700,470,0.529300,-3.940622,0.999999,0.000149,-0.001276,0.002542,-0.000058,0.002543,-0.001277,-89.124520,0.002543,
1280,1850,-0.016340,-0.293061,0.999998,0.000149,-0.000292,0.001686,0.000017,0.001686,-0.000292,89.519996,0.001802,
1080,1760,0.071206,-0.467270,0.999998,0.000168,-0.000507,0.001847,0.000007,0.001847,-0.000507,89.824956,0.001909,
1450,1800,-0.096061,-0.411262,0.999999,0.000132,-0.000528,0.001952,0.000070,0.001954,-0.000530,88.392424,0.002020,
1820,600,-0.698550,-3.561050,0.999998,0.000168,-0.001288,0.002549,-0.000026,0.002549,-0.001288,-89.608797,0.002549,
950,1590,0.225648,-0.885260,0.999998,0.000166,-0.001051,0.002314,0.000202,0.002326,-0.001063,86.573805,0.002329,
1040,260,0.081855,-4.627449,0.999998,0.000146,-0.000551,0.001873,0.000014,0.001873,-0.000551,89.666145,0.001926,
1430,140,-0.042378,-4.843128,0.999999,0.000118,-0.000260,0.001723,-0.000145,0.001734,-0.000271,-85.854574,0.001865,
1380,300,-0.071017,-4.563500,0.999998,0.000174,-0.000491,0.001864,0.000007,0.001864,-0.000491,89.827850,0.001932,
1060,1090,0.486906,-2.116755,0.999995,0.000274,-0.001983,0.005160,0.001766,0.005573,-0.002396,76.843734,0.005591,
1890,1300,-0.917226,-1.921622,0.999999,0.000121,-0.001198,0.002406,0.000049,0.002406,-0.001199,89.221125,0.002406,
1120,440,0.070919,-4.312093,0.999998,0.000193,-0.000669,0.001894,-0.000152,0.001903,-0.000678,-86.623911,0.001929,
1810,1100,-0.965708,-2.352213,0.999998,0.000164,-0.001107,0.002321,0.000117,0.002325,-0.001111,88.048913,0.002325,
1860,1000,-1.029421,-2.580390,0.999998,0.000196,-0.001032,0.002185,-0.000066,0.002187,-0.001033,-88.827486,0.002188,
590,1440,0.779000,-1.557081,0.999998,0.000191,-0.001403,0.002570,-0.000015,0.002570,-0.001403,-89.781764,0.002574,
1130,2020,0.002635,-0.023770,0.999999,0.000000,-0.000107,0.001469,-0.000051,0.001470,-0.000109,-88.142270,0.001639,
830,170,0.148475,-4.749853,0.999998,0.000166,-0.000551,0.002120,0.000364,0.002169,-0.000600,82.378536,0.002240,
1480,1400,-0.247337,-1.314270,0.999998,0.000168,-0.001498,0.002623,-0.000478,0.002677,-0.001553,-83.464129,0.002689,
990,1830,0.094141,-0.356839,0.999998,0.000162,-0.000473,0.001910,-0.000122,0.001916,-0.000479,-87.075220,0.001994,
590,120,0.285738,-4.728924,0.999997,0.000192,-0.001126,0.002727,0.000432,0.002775,-0.001173,83.684127,0.002786,
1240,1410,-0.004906,-1.030527,0.999999,0.000117,-0.000543,0.001331,-0.000073,0.001334,-0.000546,-87.758248,0.001341,
1330,270,-0.040936,-4.630966,0.999998,0.000145,-0.000460,0.001776,0.000011,0.001776,-0.000460,89.718113,0.001844,
1760,1520,-0.571362,-1.264479,0.999997,0.000170,-0.001319,0.002602,-0.000024,0.002602,-0.001319,-89.643485,0.002602,
730,630,0.606687,-3.548266,0.999997,0.000190,-0.001369,0.002641,0.000039,0.002642,-0.001370,89.435995,0.002642,
1480,570,-0.220297,-3.936399,0.999998,0.000154,-0.001245,0.002372,0.000377,0.002411,-0.001284,84.107006,0.002413,
1720,940,-0.856182,-2.737266,0.999998,0.000164,-0.001139,0.002524,-0.000225,0.002537,-0.001153,-86.501532,0.002541,
780,480,0.434289,-3.979415,0.999998,0.000181,-0.001280,0.002560,-0.000074,0.002561,-0.001281,-88.889402,0.002561,
1680,630,-0.532419,-3.589057,0.999998,0.000164,-0.001442,0.002705,0.000007,0.002705,-0.001442,89.907804,0.002707,
1690,1270,-0.687024,-1.884095,0.999998,0.000171,-0.001425,0.002750,0.000240,0.002764,-0.001439,86.726723,0.002765,
870,430,0.295125,-4.175467,0.999998,0.000181,-0.001113,0.002394,-0.000104,0.002397,-0.001116,-88.307565,0.002399,
1750,920,-0.879244,-2.781872,0.999998,0.000142,-0.001152,0.002447,-0.000182,0.002456,-0.001161,-87.107109,0.002457,
840,490,0.364307,-4.003073,0.999998,0.000156,-0.001251,0.002505,-0.000129,0.002509,-0.001255,-88.039972,0.002509,
1160,470,0.044399,-4.274984,0.999998,0.000178,-0.000676,0.001805,-0.000155,0.001815,-0.000685,-86.442637,0.001833,
870,80,0.050043,-4.934252,0.999999,0.000135,-0.000256,0.001806,0.000363,0.001868,-0.000318,80.315650,0.001999,
1310,780,-0.055199,-3.780010,0.999998,0.000150,-0.000976,0.001277,0.000963,0.001633,-0.001332,69.734599,0.001738,
660,460,0.571524,-3.934296,0.999998,0.000175,-0.001259,0.002502,-0.000030,0.002502,-0.001259,-89.536788,0.002502,
1900,1770,-0.549127,-0.754276,0.999998,0.000000,-0.001186,0.002452,-0.000057,0.002453,-0.001186,-89.098462,0.002454,
1080,1740,0.076313,-0.503939,0.999998,0.000167,-0.000532,0.001907,0.000013,0.001907,-0.000532,89.705438,0.001968,
610,810,0.919181,-3.011086,0.999999,0.000138,-0.001189,0.002345,0.000121,0.002349,-0.001193,88.046696,0.002349,
1480,990,-0.636591,-2.653535,0.999997,0.000216,-0.001097,0.003544,-0.000083,0.003545,-0.001098,-88.976480,0.003630,
1190,330,0.022661,-4.529347,0.999998,0.000162,-0.000459,0.001785,-0.000038,0.001785,-0.000460,-89.035384,0.001854,
1890,1520,-0.738281,-1.366074,0.999997,0.000213,-0.001267,0.002532,-0.000011,0.002532,-0.001267,-89.839146,0.002532,
880,1250,0.542657,-1.876968,0.999998,0.000185,-0.001663,0.003051,-0.000176,0.003057,-0.001670,-87.862692,0.003062,
1820,580,-0.682810,-3.612605,0.999998,0.000163,-0.001279,0.002569,0.000010,0.002569,-0.001279,89.847697,0.002569,
1440,1000,-0.593121,-2.648946,0.999997,0.000202,-0.001688,0.004625,0.000239,0.004634,-0.001697,87.835203,0.004689,
950,1570,0.230267,-0.932218,0.999998,0.000157,-0.001113,0.002335,0.000254,0.002353,-0.001131,85.804802,0.002354,
1730,1320,-0.694666,-1.771688,0.999998,0.000193,-0.001382,0.002665,0.000193,0.002674,-0.001392,87.278320,0.002675,
1240,760,-0.004202,-3.890874,0.999999,0.000139,-0.000515,0.000684,0.000114,0.000695,-0.000526,84.620461,0.000725,
1380,280,-0.066324,-4.601300,0.999998,0.000150,-0.000461,0.001863,-0.000036,0.001864,-0.000462,-89.121308,0.001941,
1480,1380,-0.255062,-1.369443,0.999998,0.000159,-0.001547,0.002694,-0.000487,0.002749,-0.001603,-83.532943,0.002761,
1750,1620,-0.488018,-0.999881,0.999998,0.000162,-0.001260,0.002540,-0.000041,0.002541,-0.001260,-89.384787,0.002541,
1590,1890,-0.117217,-0.269205,0.999998,0.000162,-0.000601,0.002029,0.000292,0.002061,-0.000633,83.740650,0.002112,
1860,980,-1.023838,-2.623769,0.999998,0.000185,-0.001058,0.002150,-0.000041,0.002150,-0.001059,-89.264065,0.002150,
1550,1800,-0.158427,-0.443321,0.999998,0.000174,-0.000647,0.002100,0.000141,0.002107,-0.000654,87.074028,0.002157,
580,1490,0.751011,-1.437233,0.999998,0.000201,-0.001675,0.002322,0.000273,0.002340,-0.001693,86.110852,0.002417,
720,530,0.545334,-3.802687,0.999998,0.000172,-0.001313,0.002596,-0.000047,0.002596,-0.001313,-89.313504,0.002596,
990,1810,0.102813,-0.397602,0.999998,0.000159,-0.000512,0.001969,-0.000086,0.001972,-0.000515,-88.013895,0.002046,
1330,250,-0.037359,-4.664183,0.999998,0.000149,-0.000439,0.001733,0.000017,0.001733,-0.000439,89.545539,0.001802,
730,1800,0.317323,-0.533004,0.999998,0.000194,-0.001058,0.002492,-0.000187,0.002502,-0.001068,-86.990242,0.002510,
730,610,0.591793,-3.600264,0.999997,0.000201,-0.001368,0.002638,0.000021,0.002638,-0.001368,89.706373,0.002639,
1040,240,0.076927,-4.664572,0.999998,0.000158,-0.000496,0.001886,0.000031,0.001886,-0.000496,89.246044,0.001955,
690,600,0.637285,-3.595968,0.999997,0.000202,-0.001324,0.002603,0.000016,0.002603,-0.001324,89.767995,0.002603,
1240,1430,-0.004340,-1.003030,0.999999,0.000108,-0.000569,0.001419,-0.000066,0.001421,-0.000571,-88.096814,0.001430,
830,150,0.127945,-4.793023,0.999998,0.000149,-0.000472,0.002090,0.000405,0.002152,-0.000535,81.222622,0.002241,
1760,1740,-0.407618,-0.704732,0.999998,0.000179,-0.001219,0.002507,0.000042,0.002508,-0.001220,89.360477,0.002508,
1480,550,-0.212685,-3.982939,0.999998,0.000166,-0.001216,0.002356,0.000350,0.002390,-0.001250,84.462952,0.002390,
1680,610,-0.516758,-3.642370,0.999998,0.000164,-0.001417,0.002678,0.000030,0.002679,-0.001418,89.584491,0.002680,
1050,140,0.037138,-4.846890,0.999999,0.000122,-0.000293,0.001701,0.000106,0.001707,-0.000299,86.960501,0.001823,
780,1920,0.140692,-0.227832,0.999998,0.000154,-0.000649,0.002148,-0.000446,0.002217,-0.000718,-81.163845,0.002263,
1400,1830,-0.060378,-0.341732,0.999998,0.000161,-0.000421,0.001803,0.000041,0.001803,-0.000422,88.937370,0.001887,
870,410,0.286447,-4.222408,0.999998,0.000169,-0.001105,0.002382,-0.000072,0.002383,-0.001107,-88.824618,0.002385,
1900,1780,-0.539847,-0.731183,0.999997,0.000000,-0.001224,0.002474,-0.000031,0.002474,-0.001224,-89.525950,0.002474,
1310,80,-0.007261,-4.947943,0.999999,0.000114,-0.000093,0.001557,-0.000068,0.001560,-0.000096,-87.630350,0.001749,
1690,1250,-0.705468,-1.939409,0.999998,0.000174,-0.001393,0.002720,0.000265,0.002737,-0.001410,86.332575,0.002737,
1790,1120,-0.932216,-2.300898,0.999998,0.000173,-0.001130,0.002400,0.000174,0.002408,-0.001138,87.187032,0.002410,
1760,910,-0.885633,-2.803962,0.999998,0.000149,-0.001160,0.002470,-0.000197,0.002481,-0.001171,-86.895101,0.002482,
1190,380,0.022919,-4.440549,0.999998,0.000167,-0.000542,0.001771,-0.000058,0.001772,-0.000544,-88.572336,0.001816,
1080,1720,0.080744,-0.544248,0.999998,0.000163,-0.000579,0.001898,0.000018,0.001898,-0.000579,89.584005,0.001945,
660,440,0.557606,-3.984024,0.999998,0.000164,-0.001270,0.002499,-0.000023,0.002499,-0.001271,-89.657236,0.002499,
1120,640,0.077320,-3.944784,0.999998,0.000148,-0.000918,0.001792,-0.000595,0.001916,-0.001043,-78.150261,0.001919,
1510,1190,-0.497333,-1.999191,0.999998,0.000180,-0.001779,0.003303,0.000166,0.003308,-0.001784,88.133311,0.003312,
1440,980,-0.573912,-2.733556,0.999998,0.000210,-0.001645,0.004292,0.000337,0.004311,-0.001664,86.762871,0.004348,
910,1150,0.624086,-2.163197,0.999998,0.000189,-0.001402,0.003046,-0.000374,0.003077,-0.001433,-85.224856,0.003079,
1710,1320,-0.667287,-1.759712,0.999997,0.000225,-0.001433,0.002696,0.000179,0.002703,-0.001441,87.525886,0.002705,
950,1550,0.237298,-0.981201,0.999998,0.000153,-0.001164,0.002355,0.000264,0.002375,-0.001184,85.730827,0.002375,
1240,740,-0.003768,-3.906001,0.999999,0.000135,-0.000479,0.000828,0.000099,0.000836,-0.000487,85.680140,0.000839,
1590,1870,-0.134497,-0.309011,0.999998,0.000178,-0.000651,0.002059,0.000266,0.002085,-0.000677,84.454935,0.002127,
990,1790,0.112335,-0.436863,0.999998,0.000162,-0.000560,0.001995,-0.000058,0.001997,-0.000562,-88.692709,0.002059,
1300,470,-0.042324,-4.275644,0.999999,0.000137,-0.000680,0.001802,0.000129,0.001809,-0.000686,87.025849,0.001826,
1820,560,-0.669028,-3.663762,0.999998,0.000165,-0.001266,0.002578,0.000019,0.002578,-0.001267,89.720287,0.002578,
1260,210,-0.009163,-4.739968,0.999999,0.000151,-0.000320,0.001667,-0.000003,0.001667,-0.000320,-89.925240,0.001769,
1380,260,-0.061714,-4.638150,0.999999,0.000139,-0.000435,0.001810,-0.000031,0.001811,-0.000436,-89.221823,0.001890,
1860,960,-1.020946,-2.666592,0.999998,0.000171,-0.001080,0.002168,-0.000029,0.002168,-0.001080,-89.495678,0.002168,
1780,1570,-0.561838,-1.151241,0.999998,0.000149,-0.001299,0.002568,-0.000033,0.002568,-0.001299,-89.513380,0.002568,
1040,220,0.069567,-4.702467,0.999998,0.000173,-0.000459,0.001837,0.000043,0.001838,-0.000460,88.918088,0.001912,
1480,1360,-0.266152,-1.421930,0.999998,0.000188,-0.001629,0.002754,-0.000482,0.002806,-0.001681,-83.796403,0.002824,
730,590,0.575428,-3.653731,0.999997,0.000191,-0.001357,0.002640,-0.000003,0.002640,-0.001357,-89.959598,0.002640,
1900,2000,-0.153928,-0.141919,0.999995,0.000000,-0.000519,0.003577,0.001636,0.004150,-0.001092,70.685510,0.004302,
1330,230,-0.034136,-4.698486,0.999998,0.000158,-0.000408,0.001756,-0.000007,0.001756,-0.000408,-89.824445,0.001838,
1760,1500,-0.586724,-1.317457,0.999997,0.000179,-0.001331,0.002630,-0.000022,0.002630,-0.001332,-89.682540,0.002630,
780,1900,0.165386,-0.273275,0.999998,0.000160,-0.000744,0.002257,-0.000426,0.002316,-0.000803,-82.070714,0.002352,
1450,80,-0.022834,-4.943015,0.999999,0.000133,-0.000127,0.001650,-0.000171,0.001666,-0.000143,-84.547155,0.001846,
800,290,0.279868,-4.463347,0.999997,0.000194,-0.001053,0.002377,0.000111,0.002381,-0.001057,88.153622,0.002386,
1670,1560,-0.426479,-1.087283,0.999997,0.000186,-0.001265,0.002565,-0.000091,0.002568,-0.001267,-88.645089,0.002568,
1480,530,-0.207208,-4.030427,0.999998,0.000159,-0.001148,0.002321,0.000323,0.002351,-0.001178,84.719858,0.002351,
830,130,0.107586,-4.832933,0.999998,0.000156,-0.000399,0.002026,0.000423,0.002098,-0.000471,80.382224,0.002201,
1660,630,-0.503710,-3.604726,0.999997,0.000185,-0.001426,0.002719,0.000028,0.002719,-0.001426,89.614387,0.002720,
1280,470,-0.029966,-4.278916,0.999999,0.000121,-0.000600,0.001776,0.000061,0.001777,-0.000602,88.541454,0.001808,
700,510,0.558126,-3.837601,0.999998,0.000165,-0.001290,0.002562,-0.000044,0.002562,-0.001291,-89.352866,0.002562,
1640,260,-0.234168,-4.547965,0.999998,0.000169,-0.000860,0.002293,-0.000195,0.002305,-0.000872,-86.471862,0.002328,
660,420,0.543110,-4.033837,0.999998,0.000167,-0.001256,0.002566,-0.000047,0.002567,-0.001257,-89.301101,0.002567,
580,1480,0.759237,-1.463972,0.999998,0.000164,-0.001703,0.002322,0.000169,0.002329,-0.001710,87.606722,0.002413,
870,390,0.273949,-4.269187,0.999998,0.000182,-0.001078,0.002355,-0.000056,0.002355,-0.001079,-89.066154,0.002358,
650,1020,0.982460,-2.537637,0.999998,0.000157,-0.001068,0.002336,0.000047,0.002337,-0.001069,89.207452,0.002340,
1320,1470,-0.058444,-0.978034,0.999999,0.000159,-0.000740,0.001693,-0.000343,0.001740,-0.000787,-82.125443,0.001743,
1690,1230,-0.726117,-1.993711,0.999998,0.000167,-0.001369,0.002720,0.000300,0.002742,-0.001390,85.821462,0.002742,
1570,290,-0.192977,-4.513377,0.999998,0.000168,-0.000837,0.002222,-0.000070,0.002223,-0.000838,-88.693119,0.002246,
1080,1700,0.084590,-0.580578,0.999998,0.000159,-0.000600,0.001918,0.000051,0.001919,-0.000601,88.832238,0.001963,
1140,1810,0.034464,-0.365398,0.999998,0.000163,-0.000411,0.001741,-0.000018,0.001742,-0.000411,-89.523175,0.001821,
1190,310,0.019142,-4.564107,0.999999,0.000138,-0.000444,0.001788,-0.000015,0.001788,-0.000445,-89.612267,0.001862,
1640,1790,-0.236320,-0.504869,0.999998,0.000186,-0.000868,0.002319,0.000193,0.002330,-0.000880,86.551389,0.002354,
1270,1930,-0.008023,-0.161612,0.999999,0.000130,-0.000178,0.001573,0.000036,0.001573,-0.000179,88.818644,0.001723,
960,810,0.406758,-3.233571,0.999998,0.000179,-0.001906,0.003241,-0.000122,0.003244,-0.001909,-88.645938,0.003261,
1890,890,-1.018568,-2.810900,0.999999,0.000123,-0.001128,0.002150,-0.000029,0.002150,-0.001128,-89.497706,0.002151,
1030,200,0.068350,-4.737013,0.999999,0.000147,-0.000422,0.001814,0.000093,0.001818,-0.000426,87.628384,0.001902,
1030,940,0.502093,-2.915847,0.999997,0.000192,-0.001621,0.003893,-0.000550,0.003947,-0.001676,-84.354840,0.003962,
1090,1260,0.146412,-1.463203,0.999998,0.000183,-0.001600,0.002342,0.001093,0.002625,-0.001883,75.501008,0.002706,
1380,240,-0.056116,-4.673183,0.999999,0.000145,-0.000406,0.001801,-0.000043,0.001802,-0.000407,-88.884706,0.001890,
1540,710,-0.375128,-3.494501,0.999998,0.000188,-0.001697,0.002927,0.000199,0.002936,-0.001706,87.545432,0.002949,
1190,1720,0.020777,-0.519788,0.999998,0.000166,-0.000506,0.001777,0.000036,0.001778,-0.000506,89.084863,0.001832,
1760,1460,-0.616664,-1.420349,0.999997,0.000196,-0.001342,0.002591,0.000005,0.002591,-0.001342,89.920166,0.002591,
1240,720,-0.003998,-3.923962,0.999999,0.000123,-0.000490,0.000953,0.000102,0.000960,-0.000497,85.966250,0.000960,
1090,1980,0.011635,-0.086673,0.999999,0.000128,-0.000086,0.001588,-0.000106,0.001595,-0.000093,-86.402410,0.001791,
1130,1170,0.266832,-1.466533,0.999997,0.000000,-0.000608,0.000960,0.000981,0.001432,-0.001080,64.309484,0.001492,
950,1530,0.245824,-1.028273,0.999998,0.000146,-0.001198,0.002377,0.000277,0.002399,-0.001219,85.589464,0.002399,
1770,1120,-0.910232,-2.297339,0.999999,0.000136,-0.001130,0.002435,0.000189,0.002445,-0.001140,86.972979,0.002447,
1720,920,-0.844929,-2.786952,0.999998,0.000169,-0.001171,0.002505,-0.000217,0.002518,-0.001183,-86.628103,0.002519,
1860,940,-1.012767,-2.711536,0.999998,0.000159,-0.001076,0.002227,-0.000109,0.002230,-0.001079,-88.120073,0.002231,
1870,2000,-0.133660,-0.122077,0.999999,0.000130,-0.000766,0.002876,0.001050,0.003157,-0.001047,75.021481,0.003216,
940,490,0.244457,-4.085502,0.999998,0.000156,-0.001142,0.002362,-0.000242,0.002378,-0.001159,-86.072003,0.002378,
700,1000,0.923920,-2.586540,0.999998,0.000131,-0.001079,0.002407,0.000079,0.002409,-0.001081,88.697010,0.002413,
830,110,0.087214,-4.874418,0.999998,0.000145,-0.000328,0.001976,0.000444,0.002058,-0.000411,79.466231,0.002178,
1290,80,-0.005246,-4.948235,0.999999,0.000126,-0.000063,0.001527,-0.000038,0.001528,-0.000064,-88.617887,0.001728,
1440,960,-0.547183,-2.818539,0.999997,0.000234,-0.001591,0.004060,0.000378,0.004085,-0.001616,86.187704,0.004115,
1590,1660,-0.275060,-0.780142,0.999998,0.000181,-0.001028,0.002353,-0.000055,0.002354,-0.001029,-89.066943,0.002360,
1760,1590,-0.521578,-1.083272,0.999998,0.000166,-0.001260,0.002544,-0.000072,0.002545,-0.001261,-88.921161,0.002545,
1330,430,-0.062044,-4.335118,0.999998,0.000161,-0.000673,0.001829,0.000151,0.001838,-0.000682,86.559398,0.001858,
910,1130,0.649292,-2.223340,0.999998,0.000171,-0.001276,0.003002,-0.000366,0.003033,-0.001307,-85.148347,0.003043,
1900,1990,-0.191812,-0.173401,0.999998,0.000000,-0.000791,0.003388,0.001233,0.003724,-0.001128,74.723127,0.003820,
1110,1870,0.033768,-0.266463,0.999998,0.000156,-0.000314,0.001750,-0.000034,0.001750,-0.000315,-89.055197,0.001866,
1230,140,0.000240,-4.855466,0.999998,0.000137,-0.000212,0.001588,-0.000002,0.001588,-0.000212,-89.943830,0.001724,
1030,380,0.126313,-4.387162,0.999998,0.000196,-0.000760,0.002063,-0.000098,0.002066,-0.000764,-88.008445,0.002090,
1820,540,-0.652805,-3.715590,0.999998,0.000168,-0.001287,0.002567,0.000028,0.002567,-0.001287,89.587792,0.002567,
1630,1490,-0.417109,-1.235323,0.999997,0.000181,-0.001377,0.002641,-0.000136,0.002645,-0.001382,-88.060234,0.002646,
730,570,0.561441,-3.706008,0.999997,0.000182,-0.001349,0.002619,-0.000041,0.002620,-0.001349,-89.406126,0.002620,
1230,1260,0.002177,-1.166354,0.999998,0.000198,-0.000751,0.000531,0.000018,0.000531,-0.000751,89.210942,0.000772,
750,1180,0.802500,-2.134833,0.999999,0.000151,-0.001252,0.002600,-0.000291,0.002622,-0.001274,-85.698845,0.002622,
870,810,0.565350,-3.138175,0.999998,0.000183,-0.001609,0.002995,0.000225,0.003006,-0.001620,87.211795,0.003009,
1720,1550,-0.497944,-1.153071,0.999998,0.000165,-0.001300,0.002572,-0.000074,0.002573,-0.001302,-88.909697,0.002574,
980,270,0.119716,-4.591165,0.999998,0.000141,-0.000619,0.002019,0.000077,0.002021,-0.000621,88.338046,0.002071,
1360,1310,-0.100233,-1.318658,0.999998,0.000166,-0.001283,0.002019,-0.000974,0.002285,-0.001549,-74.723141,0.002333,
660,130,0.226828,-4.775307,0.999999,0.000139,-0.000860,0.002588,0.000630,0.002700,-0.000972,79.961573,0.002735,
1090,190,0.042176,-4.763447,0.999998,0.000143,-0.000296,0.001755,0.000067,0.001757,-0.000299,88.136272,0.001880,
1190,290,0.018830,-4.600323,0.999998,0.000149,-0.000431,0.001732,-0.000001,0.001732,-0.000431,-89.965406,0.001804,
1570,270,-0.182096,-4.557294,0.999998,0.000156,-0.000787,0.002151,-0.000098,0.002154,-0.000791,-88.097089,0.002179,
1690,1210,-0.747048,-2.049011,0.999998,0.000175,-0.001349,0.002708,0.000305,0.002731,-0.001372,85.724616,0.002731,
880,1050,0.742875,-2.459086,0.999998,0.000187,-0.000941,0.002687,-0.000110,0.002691,-0.000944,-88.261177,0.002730,
1380,440,-0.095996,-4.295603,0.999998,0.000167,-0.000769,0.001962,0.000206,0.001977,-0.000784,85.710290,0.001992,
1080,1810,0.058243,-0.375233,0.999999,0.000133,-0.000409,0.001820,-0.000037,0.001821,-0.000410,-89.054164,0.001910,
880,1830,0.160607,-0.391636,0.999998,0.000151,-0.000758,0.002138,-0.000194,0.002151,-0.000771,-86.177429,0.002179,
1790,1960,-0.153816,-0.171741,0.999998,0.000156,-0.000628,0.002375,0.000812,0.002580,-0.000834,75.801209,0.002633,
1090,1240,0.162949,-1.510557,0.999998,0.000192,-0.001640,0.002430,0.001124,0.002720,-0.001930,75.541021,0.002799,
990,1770,0.120493,-0.476453,0.999998,0.000164,-0.000605,0.002020,-0.000061,0.002021,-0.000607,-88.678355,0.002074,
1890,860,-0.999613,-2.874330,0.999999,0.000135,-0.001112,0.002241,-0.000078,0.002242,-0.001114,-88.674665,0.002242,
1050,1720,0.100024,-0.553199,0.999998,0.000145,-0.000693,0.001919,0.000087,0.001922,-0.000696,88.087513,0.001946,
1270,1910,-0.008052,-0.191799,0.999999,0.000125,-0.000222,0.001613,0.000015,0.001613,-0.000222,89.545953,0.001749,
960,790,0.382908,-3.298512,0.999997,0.000197,-0.001897,0.003196,-0.000175,0.003202,-0.001903,-88.031012,0.003221,
1040,200,0.064296,-4.738828,0.999999,0.000154,-0.000438,0.001807,0.000086,0.001810,-0.000442,87.820121,0.001887,
700,980,0.919188,-2.634375,0.999998,0.000147,-0.001098,0.002391,0.000055,0.002392,-0.001099,89.104012,0.002395,
940,470,0.236737,-4.133112,0.999998,0.000166,-0.001102,0.002332,-0.000204,0.002344,-0.001114,-86.619084,0.002345,
1900,1980,-0.214322,-0.206193,0.999998,0.000000,-0.001018,0.003252,0.000901,0.003434,-0.001201,78.560395,0.003486,
600,370,0.580560,-4.110693,0.999998,0.000160,-0.001224,0.002483,-0.000023,0.002484,-0.001224,-89.651614,0.002484,
830,90,0.068394,-4.910235,0.999999,0.000132,-0.000263,0.001881,0.000460,0.001976,-0.000357,78.391299,0.002105,
1720,1470,-0.554061,-1.362396,0.999998,0.000186,-0.001347,0.002637,-0.000027,0.002637,-0.001347,-89.615476,0.002637,
1350,1980,-0.010555,-0.084457,0.999999,0.000130,-0.000095,0.001554,0.000091,0.001559,-0.000100,86.857579,0.001745,
870,1880,0.128255,-0.290298,0.999998,0.000175,-0.000621,0.002034,-0.000272,0.002061,-0.000649,-84.211653,0.002108,
1480,1230,-0.381114,-1.817966,0.999998,0.000187,-0.001982,0.003325,-0.000175,0.003331,-0.001987,-88.109082,0.003351,
1880,1960,-0.241136,-0.250220,0.999998,0.000173,-0.001140,0.002899,0.000638,0.002997,-0.001238,81.232920,0.003012,
950,1510,0.251448,-1.076047,0.999998,0.000163,-0.001224,0.002433,0.000299,0.002457,-0.001248,85.360111,0.002457,
1590,1850,-0.151185,-0.352300,0.999998,0.000158,-0.000703,0.002126,0.000233,0.002145,-0.000722,85.324462,0.002183,
1240,700,-0.004153,-3.943617,0.999999,0.000134,-0.000514,0.001058,0.000121,0.001067,-0.000523,85.607985,0.001067,
1760,1440,-0.632219,-1.471840,0.999998,0.000184,-0.001332,0.002616,0.000041,0.002616,-0.001332,89.400687,0.002616,
1640,1540,-0.400213,-1.114364,0.999998,0.000172,-0.001313,0.002557,-0.000118,0.002560,-0.001316,-88.247613,0.002561,
1520,710,-0.341587,-3.517547,0.999998,0.000176,-0.001705,0.002919,0.000297,0.002938,-0.001724,86.334993,0.002953,
1130,310,0.047357,-4.558217,0.999998,0.000145,-0.000555,0.001816,-0.000056,0.001817,-0.000556,-88.652579,0.001862,
1760,1570,-0.534763,-1.135163,0.999998,0.000184,-0.001289,0.002567,-0.000059,0.002568,-0.001290,-89.121337,0.002568,
870,830,0.590304,-3.081431,0.999998,0.000170,-0.001585,0.002973,0.000256,0.002987,-0.001600,86.798341,0.002990,
1230,1240,0.002046,-1.177368,0.999998,0.000152,-0.001096,0.000535,0.000010,0.000535,-0.001096,89.645509,0.001096,
1270,80,-0.004491,-4.949218,0.999999,0.000144,-0.000082,0.001525,-0.000022,0.001526,-0.000082,-89.229579,0.001716,
1690,1190,-0.764780,-2.102895,0.999998,0.000175,-0.001314,0.002653,0.000263,0.002670,-0.001332,86.222871,0.002670,
1890,1380,-0.849542,-1.723653,0.999998,0.000165,-0.001249,0.002518,0.000010,0.002518,-0.001249,89.847055,0.002518,
1570,250,-0.168285,-4.599827,0.999998,0.000156,-0.000753,0.002149,-0.000128,0.002154,-0.000759,-87.474814,0.002185,
1190,270,0.017280,-4.634753,0.999998,0.000164,-0.000403,0.001749,-0.000012,0.001749,-0.000403,-89.669422,0.001832,
1090,210,0.046934,-4.728515,0.999999,0.000143,-0.000344,0.001754,0.000064,0.001756,-0.000346,88.257236,0.001861,
660,110,0.189863,-4.827994,0.999999,0.000138,-0.000738,0.002543,0.000726,0.002696,-0.000891,78.069369,0.002747,
1350,1660,-0.071037,-0.646537,0.999998,0.000185,-0.000653,0.001842,-0.000131,0.001849,-0.000660,-87.001084,0.001874,
1820,790,-0.861195,-3.078501,0.999999,0.000145,-0.001239,0.002467,-0.000176,0.002475,-0.001248,-87.291806,0.002475,
1440,940,-0.513741,-2.896050,0.999997,0.000201,-0.001569,0.003879,0.000338,0.003900,-0.001590,86.464224,0.003922,
1040,1450,0.157566,-1.120583,0.999998,0.000164,-0.001131,0.002205,0.000519,0.002283,-0.001210,81.362927,0.002285,
1790,1940,-0.188739,-0.220271,0.999998,0.000158,-0.000800,0.002507,0.000679,0.002641,-0.000934,78.830965,0.002678,
1890,850,-0.991656,-2.896859,0.999999,0.000136,-0.001109,0.002288,-0.000083,0.002290,-0.001111,-88.603193,0.002290,
1610,1760,-0.235768,-0.561130,0.999998,0.000161,-0.000907,0.002283,0.000079,0.002285,-0.000909,88.574449,0.002300,
1270,1890,-0.009210,-0.226939,0.999998,0.000154,-0.000245,0.001668,0.000016,0.001668,-0.000245,89.525822,0.001801,
1480,1340,-0.277015,-1.479572,0.999997,0.000209,-0.001707,0.002846,-0.000477,0.002895,-0.001756,-84.082604,0.002917,
1370,1670,-0.081933,-0.634048,0.999998,0.000156,-0.000612,0.001889,-0.000086,0.001892,-0.000615,-88.029794,0.001930,
830,70,0.047514,-4.949577,0.999999,0.000136,-0.000182,0.001862,0.000468,0.001964,-0.000284,77.707165,0.002123,
940,530,0.258494,-3.990561,0.999999,0.000159,-0.001199,0.002414,-0.000257,0.002432,-0.001218,-85.957588,0.002432,
1900,1970,-0.238537,-0.239831,0.999998,0.000000,-0.001143,0.003203,0.000728,0.003322,-0.001261,80.733960,0.003354,
1790,620,-0.676626,-3.532639,0.999998,0.000160,-0.001306,0.002599,-0.000034,0.002599,-0.001307,-89.496061,0.002599,
830,1320,0.551535,-1.708651,0.999998,0.000191,-0.001556,0.002866,-0.000090,0.002867,-0.001558,-88.835308,0.002871,
1330,1980,-0.009112,-0.083730,0.999998,0.000171,-0.000097,0.001543,0.000061,0.001545,-0.000099,87.870632,0.001729,
820,1610,0.363939,-0.940125,0.999998,0.000173,-0.001211,0.002483,0.000094,0.002485,-0.001214,88.543071,0.002485,
1210,140,0.003374,-4.854716,0.999999,0.000121,-0.000201,0.001572,0.000011,0.001572,-0.000201,89.659629,0.001711,
1170,380,0.034241,-4.437796,0.999998,0.000155,-0.000543,0.001791,-0.000046,0.001792,-0.000544,-88.880928,0.001837,
1130,1160,0.297919,-1.475376,0.999990,0.000000,-0.000465,0.000774,0.001225,0.001527,-0.001218,58.408375,0.001615,
730,550,0.547250,-3.759353,0.999997,0.000197,-0.001328,0.002622,-0.000027,0.002622,-0.001328,-89.606185,0.002622,
1320,1640,-0.053446,-0.672222,0.999998,0.000159,-0.000656,0.001854,-0.000141,0.001862,-0.000664,-86.800101,0.001888,
910,1110,0.672878,-2.283685,0.999998,0.000185,-0.001158,0.002981,-0.000360,0.003013,-0.001189,-85.065176,0.003035,
1880,1970,-0.217533,-0.219726,0.999998,0.000163,-0.001127,0.003006,0.000723,0.003129,-0.001250,80.351647,0.003150,
1820,520,-0.637628,-3.766505,0.999998,0.000175,-0.001280,0.002572,0.000031,0.002572,-0.001280,89.531742,0.002572,
960,210,0.103780,-4.703130,0.999998,0.000199,-0.000581,0.001941,0.000125,0.001947,-0.000587,87.164295,0.001997,
1600,120,-0.086253,-4.857652,0.999998,0.000153,-0.000398,0.001961,-0.000372,0.002019,-0.000456,-81.248624,0.002117,
850,300,0.240605,-4.466331,0.999998,0.000187,-0.000912,0.002297,0.000078,0.002299,-0.000914,88.604406,0.002315,
1360,1160,-0.310741,-1.627745,0.999998,0.000179,-0.000723,0.001918,-0.001355,0.002490,-0.001294,-67.134995,0.002490,
950,1490,0.258896,-1.124917,0.999998,0.000166,-0.001273,0.002493,0.000313,0.002519,-0.001299,85.277413,0.002520,
1870,1620,-0.637795,-1.097473,0.999998,0.000166,-0.001241,0.002472,-0.000031,0.002473,-0.001241,-89.520257,0.002473,
1720,900,-0.832806,-2.839187,0.999998,0.000154,-0.001195,0.002583,-0.000276,0.002604,-0.001215,-85.836723,0.002605,
1730,1440,-0.591915,-1.451372,0.999997,0.000192,-0.001380,0.002638,0.000015,0.002638,-0.001380,89.779242,0.002639,
1090,80,0.013807,-4.946135,0.999999,0.000137,-0.000110,0.001593,0.000113,0.001600,-0.000118,86.229163,0.001784,
1860,920,-1.000986,-2.756152,0.999999,0.000142,-0.001062,0.002232,-0.000116,0.002236,-0.001066,-87.980733,0.002237,
1640,1580,-0.376127,-1.014004,0.999998,0.000157,-0.001222,0.002485,-0.000117,0.002488,-0.001225,-88.190241,0.002488,
1190,250,0.016443,-4.670362,0.999998,0.000165,-0.000375,0.001734,0.000005,0.001734,-0.000375,89.851732,0.001825,
1570,230,-0.154753,-4.642735,0.999998,0.000172,-0.000708,0.002137,-0.000171,0.002148,-0.000718,-86.566538,0.002186,
1840,40,-0.068010,-4.977750,0.999998,0.000157,-0.000886,0.002384,-0.000826,0.002581,-0.001083,-76.595295,0.002592,
1230,1380,0.000137,-1.067587,0.999998,0.000150,-0.000528,0.001199,0.000027,0.001199,-0.000529,89.101023,0.001202,
1680,330,-0.329331,-4.356442,0.999998,0.000174,-0.001117,0.002454,-0.000023,0.002454,-0.001117,-89.630102,0.002457,
1090,230,0.052292,-4.693876,0.999998,0.000163,-0.000366,0.001779,0.000050,0.001780,-0.000367,88.677360,0.001880,
960,270,0.133776,-4.583634,0.999998,0.000182,-0.000732,0.002056,0.000063,0.002057,-0.000734,88.709833,0.002085,
1760,1420,-0.647961,-1.524843,0.999998,0.000186,-0.001340,0.002622,0.000043,0.002623,-0.001341,89.379600,0.002623,
1240,680,-0.004466,-3.965032,0.999999,0.000130,-0.000529,0.001194,0.000103,0.001200,-0.000536,86.589820,0.001202,
1590,1720,-0.240868,-0.641407,0.999998,0.000152,-0.000972,0.002323,0.000009,0.002323,-0.000972,89.847375,0.002333,
580,1500,0.743124,-1.411833,0.999997,0.000201,-0.001698,0.002479,0.000253,0.002495,-0.001713,86.548977,0.002552,
870,850,0.612970,-3.019408,0.999998,0.000159,-0.001541,0.002999,0.000302,0.003019,-0.001561,86.206039,0.003019,
640,1730,0.493331,-0.781092,0.999998,0.000188,-0.001225,0.002516,0.000013,0.002516,-0.001225,89.797464,0.002516,
1270,1870,-0.010606,-0.260008,0.999999,0.000150,-0.000272,0.001658,0.000025,0.001658,-0.000272,89.267721,0.001779,
860,1050,0.762585,-2.459458,0.999998,0.000193,-0.000950,0.002625,-0.000114,0.002628,-0.000954,-88.178210,0.002661,
1900,1960,-0.264107,-0.271854,0.999998,0.000000,-0.001174,0.003075,0.000677,0.003180,-0.001279,81.165862,0.003200,
1690,1170,-0.779607,-2.155688,0.999998,0.000174,-0.001272,0.002625,0.000292,0.002647,-0.001293,85.737830,0.002647,
940,510,0.252557,-4.037549,0.999998,0.000182,-0.001170,0.002383,-0.000245,0.002400,-0.001187,-86.076812,0.002400,
1890,840,-0.984512,-2.919826,0.999999,0.000137,-0.001103,0.002315,-0.000076,0.002317,-0.001105,-88.725186,0.002318,
1040,180,0.053780,-4.774878,0.999999,0.000144,-0.000392,0.001760,0.000101,0.001765,-0.000397,87.326324,0.001852,
1270,1920,-0.007440,-0.177353,0.999999,0.000122,-0.000203,0.001588,0.000029,0.001589,-0.000203,89.082483,0.001729,
700,960,0.916611,-2.682475,0.999998,0.000155,-0.001117,0.002408,0.000137,0.002413,-0.001123,87.782497,0.002415,
1540,990,-0.696818,-2.628468,0.999998,0.000160,-0.000952,0.002968,-0.000196,0.002978,-0.000962,-87.139840,0.003040,
1390,70,-0.011433,-4.962405,0.999999,0.000135,-0.000097,0.001582,-0.000113,0.001589,-0.000104,-86.176577,0.001778,
820,1980,0.055322,-0.100152,0.999998,0.000150,-0.000238,0.001888,-0.000470,0.001987,-0.000337,-78.084747,0.002126,
1190,1980,0.004352,-0.084293,0.999999,0.000118,-0.000076,0.001522,-0.000026,0.001522,-0.000077,-89.064511,0.001715,
1110,1200,0.195331,-1.523344,0.999997,0.000203,-0.001210,0.001864,0.001073,0.002201,-0.001548,72.534866,0.002261,
1580,530,-0.330251,-3.938131,0.999998,0.000175,-0.001257,0.002506,0.000214,0.002518,-0.001269,86.759422,0.002518,
920,690,0.366952,-3.548512,0.999997,0.000199,-0.001644,0.002859,-0.000227,0.002870,-0.001656,-87.120756,0.002881,
800,1630,0.374699,-0.906737,0.999998,0.000166,-0.001191,0.002470,0.000058,0.002471,-0.001192,89.089451,0.002472,
1570,210,-0.139117,-4.684701,0.999998,0.000163,-0.000659,0.002063,-0.000201,0.002078,-0.000674,-85.800991,0.002120,
650,1900,0.279154,-0.334123,0.999998,0.000211,-0.000997,0.002595,-0.000445,0.002649,-0.001052,-83.039824,0.002668,
990,1750,0.129091,-0.517288,0.999998,0.000146,-0.000636,0.002022,-0.000022,0.002022,-0.000636,-89.529518,0.002068,
1190,230,0.014644,-4.704714,0.999998,0.000168,-0.000350,0.001711,0.000002,0.001711,-0.000350,89.954229,0.001808,
1820,1070,-0.983517,-2.422169,0.999997,0.000210,-0.001067,0.002282,0.000044,0.002282,-0.001068,89.253531,0.002284,
1070,1660,0.098519,-0.661752,0.999998,0.000136,-0.000733,0.001958,0.000141,0.001965,-0.000740,87.012093,0.001985,
1590,1830,-0.163557,-0.392413,0.999998,0.000174,-0.000774,0.002149,0.000193,0.002162,-0.000787,86.239758,0.002188,
1040,1410,0.164680,-1.210393,0.999999,0.000144,-0.001292,0.002301,0.000593,0.002396,-0.001388,80.865778,0.002406,
1680,310,-0.314449,-4.405195,0.999998,0.000146,-0.001112,0.002442,-0.000058,0.002443,-0.001113,-89.068058,0.002446,
1650,1090,-0.793007,-2.357856,0.999998,0.000186,-0.001069,0.002635,0.000229,0.002649,-0.001083,86.479275,0.002664,
1880,1380,-0.837309,-1.715237,0.999998,0.000174,-0.001267,0.002527,0.000016,0.002527,-0.001267,89.762617,0.002527,
1130,350,0.054640,-4.482598,0.999998,0.000165,-0.000606,0.001842,-0.000090,0.001845,-0.000610,-87.897516,0.001880,
1400,1470,-0.129951,-1.051567,0.999998,0.000146,-0.001056,0.002071,-0.000504,0.002151,-0.001135,-81.071716,0.002152,
1520,1250,-0.432464,-1.813185,0.999997,0.000220,-0.001860,0.003204,-0.000026,0.003204,-0.001860,-89.703001,0.003218,
1090,250,0.057197,-4.657879,0.999998,0.000143,-0.000417,0.001817,0.000018,0.001817,-0.000417,89.533092,0.001903,
1130,890,0.282003,-3.566493,0.999998,0.000000,-0.001054,0.000993,-0.001247,0.001583,-0.001643,-64.695144,0.001863,
1440,920,-0.474558,-2.970964,0.999997,0.000206,-0.001634,0.003692,0.000313,0.003711,-0.001652,86.647851,0.003718,
1480,1320,-0.289087,-1.537205,0.999998,0.000180,-0.001778,0.002937,-0.000441,0.002978,-0.001819,-84.698746,0.003003,
990,80,0.025451,-4.942518,0.999999,0.000146,-0.000092,0.001672,0.000202,0.001695,-0.000115,83.560893,0.001894,
1760,1400,-0.665073,-1.577791,0.999997,0.000207,-0.001351,0.002632,0.000062,0.002633,-0.001352,89.113414,0.002634,
670,1560,0.586062,-1.186666,0.999997,0.000192,-0.001288,0.002567,0.000051,0.002567,-0.001289,89.236034,0.002567,
860,1030,0.765735,-2.513108,0.999997,0.000196,-0.000939,0.002686,-0.000017,0.002686,-0.000939,-89.728775,0.002726,
1270,1850,-0.013327,-0.292266,0.999998,0.000174,-0.000308,0.001678,0.000006,0.001678,-0.000308,89.815521,0.001787,
950,1470,0.265368,-1.177330,0.999998,0.000159,-0.001332,0.002516,0.000352,0.002548,-0.001364,84.812468,0.002550,
1820,1670,-0.538561,-0.930891,0.999997,0.000188,-0.001246,0.002524,-0.000035,0.002525,-0.001247,-89.471894,0.002525,
870,870,0.636978,-2.961443,0.999998,0.000170,-0.001459,0.002942,0.000355,0.002970,-0.001488,85.418087,0.002970,
1240,660,-0.005066,-3.991842,0.999999,0.000118,-0.000551,0.001264,0.000089,0.001269,-0.000555,87.209069,0.001272,
950,660,0.300219,-3.668361,0.999998,0.000174,-0.001537,0.002730,-0.000374,0.002763,-0.001570,-85.026891,0.002771,
790,1000,0.830576,-2.589128,0.999998,0.000142,-0.001012,0.002527,0.000102,0.002530,-0.001015,88.346249,0.002546,
820,1960,0.077935,-0.136882,0.999999,0.000139,-0.000320,0.001931,-0.000448,0.002017,-0.000405,-79.148493,0.002134,
1430,860,-0.337054,-3.213233,0.999997,0.000192,-0.001893,0.003369,0.000533,0.003422,-0.001946,84.268233,0.003433,
1690,1150,-0.797675,-2.208454,0.999998,0.000168,-0.001224,0.002635,0.000318,0.002661,-0.001250,85.315298,0.002663,
1170,1980,0.005016,-0.083872,0.999999,0.000113,-0.000069,0.001521,-0.000056,0.001523,-0.000071,-87.985778,0.001719,
1790,1880,-0.287198,-0.374161,0.999998,0.000178,-0.001048,0.002553,0.000421,0.002602,-0.001097,83.419976,0.002613,
1900,1950,-0.288123,-0.301128,0.999998,0.000000,-0.001221,0.002942,0.000569,0.003018,-0.001297,82.356140,0.003028,
1110,1180,0.249776,-1.556233,0.999998,0.000176,-0.000846,0.001566,0.001103,0.001995,-0.001274,68.778857,0.002020,
850,1880,0.141633,-0.295416,0.999998,0.000164,-0.000584,0.002087,-0.000322,0.002125,-0.000622,-83.230147,0.002185,
1040,160,0.048002,-4.809504,0.999998,0.000144,-0.000335,0.001742,0.000094,0.001746,-0.000339,87.400491,0.001852,
1390,110,-0.022653,-4.897430,0.999998,0.000145,-0.000150,0.001637,-0.000118,0.001645,-0.000158,-86.237939,0.001815,
1820,1050,-0.987817,-2.468700,0.999999,0.000145,-0.001067,0.002296,0.000069,0.002297,-0.001069,88.831240,0.002299,
650,1880,0.310969,-0.387385,0.999998,0.000179,-0.001059,0.002611,-0.000359,0.002646,-0.001094,-84.467112,0.002659,
1590,340,-0.243581,-4.388321,0.999998,0.000191,-0.000977,0.002309,-0.000016,0.002309,-0.000977,-89.722290,0.002318,
700,940,0.904482,-2.731536,0.999999,0.000139,-0.001139,0.002449,0.000180,0.002458,-0.001148,87.132931,0.002459,
570,1800,0.529921,-0.664854,0.999151,0.003210,-0.003850,0.001578,0.000436,0.001613,-0.003885,85.442409,0.003904,
730,530,0.531345,-3.812327,0.999998,0.000174,-0.001302,0.002599,-0.000045,0.002600,-0.001302,-89.338112,0.002600,
1890,1620,-0.663354,-1.113802,0.999998,0.000180,-0.001224,0.002473,0.000015,0.002473,-0.001224,89.770841,0.002473,
800,1610,0.386000,-0.955700,0.999998,0.000182,-0.001225,0.002495,0.000071,0.002497,-0.001226,88.906552,0.002497,
1650,1070,-0.804491,-2.412270,0.999998,0.000169,-0.001029,0.002568,0.000132,0.002573,-0.001034,87.907613,0.002590,
1570,190,-0.125728,-4.725298,0.999998,0.000160,-0.000594,0.002035,-0.000210,0.002052,-0.000611,-85.472000,0.002107,
1190,210,0.014172,-4.739199,0.999998,0.000163,-0.000310,0.001677,0.000004,0.001677,-0.000310,89.886263,0.001784,
1110,1660,0.072325,-0.647121,0.999998,0.000165,-0.000652,0.001876,0.000119,0.001881,-0.000657,87.321355,0.001910,
1230,1300,0.000216,-1.144718,0.999999,0.000124,-0.000514,0.000704,0.000010,0.000705,-0.000514,89.535905,0.000729,
1140,180,0.023223,-4.785927,0.999999,0.000143,-0.000296,0.001665,0.000031,0.001666,-0.000296,89.107307,0.001777,
590,1160,1.001914,-2.233361,0.999999,0.000126,-0.001068,0.002180,-0.000067,0.002182,-0.001069,-88.816849,0.002182,
660,90,0.152985,-4.877034,0.999999,0.000121,-0.000569,0.002487,0.000893,0.002729,-0.000811,74.842002,0.002803,
1440,900,-0.433576,-3.043342,0.999997,0.000188,-0.001734,0.003586,0.000304,0.003603,-0.001751,86.735614,0.003604,
1330,140,-0.018412,-4.851619,0.999999,0.000120,-0.000245,0.001634,-0.000056,0.001635,-0.000247,-88.293248,0.001763,
580,1630,0.646839,-1.081889,0.999998,0.000168,-0.002770,0.002222,0.000767,0.002338,-0.002885,81.454163,0.003064,
1090,690,0.109962,-3.806787,0.999998,0.000154,-0.001183,0.002069,-0.000787,0.002249,-0.001363,-77.079394,0.002266,
1410,520,-0.131995,-4.114545,0.999998,0.000171,-0.000896,0.002062,0.000327,0.002098,-0.000931,83.765034,0.002103,
950,1450,0.276201,-1.226631,0.999998,0.000173,-0.001386,0.002537,0.000351,0.002568,-0.001417,84.925248,0.002573,
670,1020,0.961606,-2.537272,0.999998,0.000192,-0.001070,0.002371,0.000041,0.002372,-0.001071,89.309472,0.002376,
1350,1280,-0.098236,-1.353289,0.999998,0.000189,-0.001346,0.001928,-0.001105,0.002266,-0.001684,-72.989948,0.002354,
1280,100,-0.005807,-4.917863,0.999999,0.000140,-0.000089,0.001568,-0.000027,0.001568,-0.000089,-89.051885,0.001762,
1760,630,-0.644009,-3.528488,0.999997,0.000206,-0.001353,0.002636,-0.000039,0.002636,-0.001354,-89.434098,0.002637,
1550,120,-0.066032,-4.865265,0.999998,0.000160,-0.000287,0.001864,-0.000291,0.001903,-0.000326,-82.440880,0.002035,
990,1730,0.137009,-0.557951,0.999998,0.000154,-0.000663,0.002023,0.000003,0.002023,-0.000663,89.937652,0.002063,
1900,1940,-0.310354,-0.329531,0.999998,0.000000,-0.001263,0.002844,0.000457,0.002894,-0.001314,83.728385,0.002898,
1080,330,0.078644,-4.506796,0.999998,0.000158,-0.000563,0.001913,-0.000045,0.001914,-0.000564,-88.954231,0.001967,
1590,1120,-0.705028,-2.267521,0.999998,0.000181,-0.001181,0.002809,0.000349,0.002839,-0.001211,85.044969,0.002849,
1760,1380,-0.682791,-1.630512,0.999998,0.000199,-0.001344,0.002645,0.000094,0.002647,-0.001346,88.656539,0.002647,
1240,640,-0.005440,-4.016851,0.999999,0.000135,-0.000558,0.001356,0.000077,0.001359,-0.000561,87.697307,0.001366,
1690,1130,-0.814264,-2.260124,0.999998,0.000160,-0.001176,0.002561,0.000248,0.002578,-0.001193,86.219154,0.002580,
870,1310,0.495634,-1.704925,0.999997,0.000205,-0.001664,0.002968,-0.000052,0.002969,-0.001664,-89.351568,0.002976,
820,1750,0.270681,-0.601281,0.999998,0.000179,-0.000964,0.002377,-0.000089,0.002379,-0.000966,-88.473270,0.002393,
1040,580,0.153576,-3.974229,0.999999,0.000145,-0.001118,0.002178,-0.000453,0.002239,-0.001179,-82.312423,0.002240,
1090,1540,0.099179,-0.887765,0.999998,0.000142,-0.000884,0.001960,0.000339,0.002000,-0.000924,83.291932,0.002002,
1070,1280,0.163483,-1.469232,0.999998,0.000163,-0.001660,0.002553,0.000950,0.002757,-0.001865,77.861965,0.002814,
1370,900,-0.332427,-3.347328,0.999998,0.000182,-0.000872,0.002228,0.001521,0.002850,-0.001494,67.777391,0.002851,
700,920,0.894545,-2.781028,0.999999,0.000143,-0.001153,0.002444,0.000172,0.002452,-0.001161,87.261901,0.002453,
1880,1980,-0.192524,-0.188865,0.999999,0.000136,-0.001045,0.003050,0.000819,0.003208,-0.001203,79.105024,0.003241,
1880,1620,-0.650520,-1.105468,0.999998,0.000178,-0.001230,0.002469,-0.000011,0.002469,-0.001230,-89.827438,0.002469,
820,1940,0.095256,-0.176618,0.999999,0.000146,-0.000382,0.002019,-0.000446,0.002099,-0.000462,-79.804673,0.002206,
590,1800,0.485115,-0.654129,0.999998,0.000186,-0.001657,0.002366,0.000006,0.002366,-0.001657,89.908299,0.002429,
1500,1250,-0.393340,-1.785308,0.999998,0.000152,-0.001898,0.003218,-0.000153,0.003222,-0.001903,-88.293771,0.003240,
730,510,0.518930,-3.862084,0.999998,0.000161,-0.001285,0.002559,-0.000068,0.002560,-0.001286,-88.994244,0.002560,
1150,1980,0.006504,-0.083814,0.999999,0.000115,-0.000083,0.001545,-0.000060,0.001547,-0.000085,-87.902065,0.001740,
1650,1050,-0.806916,-2.462114,0.999998,0.000182,-0.000991,0.002562,0.000081,0.002564,-0.000993,88.696905,0.002585,
1190,190,0.011801,-4.771026,0.999999,0.000145,-0.000285,0.001671,0.000007,0.001671,-0.000285,89.800708,0.001788,
730,1560,0.508566,-1.139347,0.999997,0.000202,-0.001311,0.002540,0.000054,0.002541,-0.001311,89.199019,0.002541,
1820,890,-0.941116,-2.838420,0.999998,0.000155,-0.001138,0.002338,-0.000151,0.002344,-0.001144,-87.514894,0.002345,
1390,1810,-0.061053,-0.375444,0.999998,0.000163,-0.000428,0.001808,0.000065,0.001810,-0.000429,88.331760,0.001891,
1570,170,-0.111327,-4.766199,0.999998,0.000159,-0.000555,0.001995,-0.000261,0.002021,-0.000581,-84.220730,0.002081,
1090,1660,0.085526,-0.654519,0.999998,0.000144,-0.000630,0.001902,0.000108,0.001907,-0.000635,87.551562,0.001942,
1140,160,0.019106,-4.820166,0.999998,0.000143,-0.000257,0.001665,0.000026,0.001665,-0.000257,89.221757,0.001793,
1460,1810,-0.096236,-0.394283,0.999999,0.000137,-0.000500,0.001968,0.000097,0.001972,-0.000504,87.759807,0.002049,
1480,1300,-0.305318,-1.595807,0.999998,0.000186,-0.001846,0.003028,-0.000408,0.003062,-0.001880,-85.244295,0.003088,
690,50,0.058287,-4.976597,0.999999,0.000130,-0.000259,0.002137,0.000847,0.002406,-0.000528,72.366833,0.002529,
930,1180,0.550376,-2.054151,0.999998,0.000187,-0.001619,0.003198,-0.000274,0.003214,-0.001635,-86.752696,0.003214,
1900,1930,-0.328804,-0.358147,0.999998,0.000000,-0.001279,0.002782,0.000356,0.002813,-0.001310,85.030092,0.002815,
1400,850,-0.264019,-3.342416,0.999998,0.000154,-0.001845,0.002933,0.000789,0.003060,-0.001972,80.861478,0.003102,
950,1430,0.283799,-1.277301,0.999998,0.000172,-0.001447,0.002591,0.000344,0.002620,-0.001476,85.170352,0.002627,
1130,880,0.255055,-3.577921,0.999998,0.000000,-0.001040,0.001040,-0.001034,0.001466,-0.001466,-67.588407,0.001693,
1700,1750,-0.331735,-0.636141,0.999998,0.000185,-0.001044,0.002429,0.000068,0.002430,-0.001045,88.876671,0.002438,
1060,330,0.090767,-4.499780,0.999998,0.000178,-0.000662,0.001959,-0.000048,0.001960,-0.000663,-88.943517,0.001994,
720,1030,0.908272,-2.513535,0.999998,0.000180,-0.001079,0.002425,-0.000030,0.002425,-0.001080,-89.514368,0.002430,
1590,1790,-0.194691,-0.482057,0.999998,0.000184,-0.000872,0.002202,0.000105,0.002205,-0.000876,88.049985,0.002221,
1090,670,0.108134,-3.848099,0.999998,0.000152,-0.001132,0.002017,-0.000707,0.002169,-0.001283,-77.916257,0.002181,
1270,1330,-0.017010,-1.138499,0.999998,0.000148,-0.000588,0.001000,-0.000428,0.001108,-0.000696,-75.834812,0.001120,
1440,880,-0.392790,-3.115678,0.999998,0.000183,-0.001849,0.003490,0.000357,0.003514,-0.001873,86.192608,0.003517,
1130,1980,0.009149,-0.083714,0.999999,0.000101,-0.000103,0.001552,-0.000070,0.001555,-0.000106,-87.588941,0.001737,
1590,1100,-0.723022,-2.322188,0.999998,0.000173,-0.001096,0.002775,0.000274,0.002795,-0.001116,85.973987,0.002813,
820,1920,0.116659,-0.217585,0.999998,0.000159,-0.000466,0.002054,-0.000428,0.002124,-0.000536,-80.625978,0.002209,
1630,1400,-0.477808,-1.479798,0.999997,0.000192,-0.001519,0.002780,-0.000046,0.002780,-0.001519,-89.392244,0.002784,
1880,2010,-0.111721,-0.100325,0.999997,0.000201,-0.000288,0.003113,0.001457,0.003652,-0.000827,69.703866,0.003830,
1590,1400,-0.415977,-1.442020,0.999998,0.000184,-0.001556,0.002780,-0.000126,0.002784,-0.001560,-88.340056,0.002790,
1650,1030,-0.811675,-2.512927,0.999998,0.000173,-0.000987,0.002589,-0.000007,0.002589,-0.000987,-89.891876,0.002613,
800,1770,0.275399,-0.564978,0.999998,0.000180,-0.001035,0.002410,-0.000105,0.002413,-0.001038,-88.258515,0.002421,
620,300,0.494269,-4.303946,0.999998,0.000194,-0.001232,0.002515,-0.000013,0.002515,-0.001232,-89.801989,0.002515,
1570,150,-0.094879,-4.806630,0.999999,0.000138,-0.000493,0.001943,-0.000301,0.001980,-0.000530,-83.060217,0.002050,
1190,170,0.011551,-4.805717,0.999999,0.000153,-0.000248,0.001676,0.000010,0.001676,-0.000248,89.694305,0.001810,
680,50,0.061870,-4.975245,0.999999,0.000132,-0.000218,0.002164,0.000895,0.002463,-0.000517,71.541826,0.002598,
1410,500,-0.129964,-4.155207,0.999998,0.000144,-0.000877,0.002072,0.000283,0.002099,-0.000904,84.569449,0.002105,
1050,1280,0.197944,-1.518811,0.999998,0.000164,-0.001772,0.002752,0.000827,0.002898,-0.001918,79.962862,0.002948,
640,1710,0.509269,-0.831477,0.999998,0.000194,-0.001247,0.002532,-0.000003,0.002532,-0.001247,-89.953783,0.002532,
910,1090,0.692255,-2.342105,0.999998,0.000194,-0.001076,0.002905,-0.000283,0.002925,-0.001096,-85.956196,0.002955,
1510,700,-0.317600,-3.561491,0.999997,0.000205,-0.001663,0.002890,0.000356,0.002918,-0.001690,85.561034,0.002930,
1340,100,-0.012354,-4.916363,0.999999,0.000149,-0.000140,0.001587,-0.000065,0.001589,-0.000143,-87.845698,0.001758,
730,490,0.504643,-3.913631,0.999998,0.000168,-0.001266,0.002564,-0.000059,0.002565,-0.001267,-89.112114,0.002565,
1240,620,-0.005387,-4.044665,0.999999,0.000130,-0.000573,0.001445,0.000069,0.001447,-0.000575,88.052695,0.001457,
1570,860,-0.589876,-3.003907,0.999997,0.000179,-0.001537,0.003062,-0.000312,0.003083,-0.001558,-86.136821,0.003083,
940,290,0.160157,-4.533562,0.999998,0.000175,-0.000760,0.002130,0.000059,0.002132,-0.000761,88.825104,0.002160,
870,1290,0.516912,-1.765082,0.999997,0.000178,-0.001672,0.002960,-0.000100,0.002962,-0.001674,-88.768337,0.002971,
1070,1480,0.122039,-1.021362,0.999999,0.000131,-0.000978,0.001997,0.000457,0.002066,-0.001046,81.457402,0.002066,
1850,1460,-0.733172,-1.488461,0.999998,0.000182,-0.001279,0.002575,0.000019,0.002575,-0.001279,89.715017,0.002575,
1860,900,-0.990894,-2.801011,0.999998,0.000146,-0.001068,0.002240,-0.000082,0.002242,-0.001070,-88.589549,0.002243,
1330,1660,-0.057290,-0.637588,0.999999,0.000140,-0.000650,0.001835,-0.000140,0.001843,-0.000658,-86.786378,0.001868,
1880,1030,-1.053975,-2.514987,0.999998,0.000158,-0.001028,0.002162,0.000011,0.002162,-0.001028,89.802377,0.002163,
1510,580,-0.260578,-3.880631,0.999998,0.000149,-0.001310,0.002464,0.000337,0.002493,-0.001340,84.936003,0.002496,
1130,30,0.001032,-5.024261,0.999999,0.000000,-0.000015,0.001482,0.000007,0.001482,-0.000015,89.740201,0.001702,
1390,1790,-0.068802,-0.412883,0.999998,0.000192,-0.000468,0.001845,0.000043,0.001846,-0.000469,88.935336,0.001919,
700,900,0.881421,-2.828953,0.999999,0.000147,-0.001181,0.002451,0.000206,0.002463,-0.001193,86.757417,0.002463,
1760,1360,-0.699027,-1.684087,0.999998,0.000189,-0.001347,0.002621,0.000122,0.002625,-0.001351,88.237078,0.002626,
780,1880,0.188208,-0.319338,0.999998,0.000151,-0.000810,0.002247,-0.000364,0.002289,-0.000852,-83.304871,0.002314,
1820,500,-0.623641,-3.818731,0.999997,0.000187,-0.001268,0.002539,0.000018,0.002540,-0.001269,89.727079,0.002540,
580,1160,1.013908,-2.237081,0.999999,0.000129,-0.001019,0.002145,-0.000037,0.002146,-0.001020,-89.324396,0.002146,
1720,880,-0.814618,-2.890505,0.999999,0.000143,-0.001244,0.002572,-0.000280,0.002592,-0.001264,-85.829598,0.002592,
870,800,0.553792,-3.169941,0.999998,0.000179,-0.001624,0.003010,0.000201,0.003018,-0.001632,87.525856,0.003022,
1690,1110,-0.823631,-2.310003,0.999998,0.000149,-0.001137,0.002557,0.000238,0.002572,-0.001153,86.323802,0.002577,
1580,1010,-0.740935,-2.568282,0.999997,0.000204,-0.000927,0.002736,-0.000113,0.002739,-0.000931,-88.233694,0.002786,
1480,1280,-0.323805,-1.657181,0.999997,0.000202,-0.001909,0.003088,-0.000371,0.003116,-0.001936,-85.779473,0.003146,
1230,1280,0.000768,-1.156506,0.999998,0.000167,-0.000569,0.000608,0.000026,0.000609,-0.000569,88.737079,0.000681,
1310,140,-0.013718,-4.851859,0.999999,0.000136,-0.000163,0.001649,-0.000056,0.001650,-0.000165,-88.239349,0.001818,
1090,650,0.105913,-3.888690,0.999998,0.000161,-0.001074,0.001989,-0.000661,0.002126,-0.001211,-78.332588,0.002132,
710,1560,0.534395,-1.155078,0.999998,0.000167,-0.001264,0.002561,0.000039,0.002561,-0.001265,89.417967,0.002561,
990,1710,0.144601,-0.596755,0.999998,0.000154,-0.000708,0.002085,0.000070,0.002087,-0.000710,88.569335,0.002122,
700,1030,0.929301,-2.512883,0.999998,0.000162,-0.001065,0.002410,-0.000016,0.002410,-0.001065,-89.731639,0.002416,
1280,1760,-0.023340,-0.449158,0.999999,0.000138,-0.000443,0.001758,0.000000,0.001758,-0.000443,-89.998537,0.001829,
1440,860,-0.357331,-3.185371,0.999997,0.000192,-0.001942,0.003413,0.000414,0.003445,-0.001974,85.605028,0.003457,
1290,320,-0.028108,-4.546007,0.999998,0.000182,-0.000448,0.001787,0.000022,0.001788,-0.000448,89.432567,0.001860,
1510,1170,-0.530009,-2.064668,0.999998,0.000184,-0.001678,0.003305,0.000239,0.003316,-0.001690,87.254455,0.003316,
1460,990,-0.614120,-2.668566,0.999998,0.000165,-0.001319,0.003909,0.000056,0.003910,-0.001319,89.385940,0.003978,
1040,600,0.157864,-3.930023,0.999998,0.000158,-0.001145,0.002206,-0.000490,0.002276,-0.001215,-81.846716,0.002278,
1590,1980,-0.044259,-0.096903,0.999999,0.000120,-0.000250,0.001788,0.000369,0.001853,-0.000314,80.038152,0.001983,
1650,1010,-0.808596,-2.564069,0.999998,0.000160,-0.000991,0.002556,-0.000103,0.002559,-0.000994,-88.333771,0.002581,
620,280,0.474315,-4.353414,0.999998,0.000191,-0.001241,0.002494,0.000021,0.002494,-0.001241,89.682090,0.002494,
1800,1710,-0.480347,-0.813075,0.999998,0.000174,-0.001247,0.002533,-0.000015,0.002533,-0.001248,-89.770089,0.002533,
630,520,0.655092,-3.757533,0.999998,0.000214,-0.001256,0.002582,-0.000022,0.002583,-0.001256,-89.673768,0.002583,
1410,580,-0.139595,-3.989151,0.999999,0.000129,-0.001094,0.002102,0.000476,0.002171,-0.001164,81.712208,0.002173,
1810,1520,-0.636093,-1.303964,0.999998,0.000183,-0.001308,0.002561,-0.000006,0.002561,-0.001308,-89.906631,0.002561,
1240,600,-0.004626,-4.074213,0.999999,0.000123,-0.000593,0.001466,0.000060,0.001468,-0.000595,88.323900,0.001477,
950,1410,0.292392,-1.330189,0.999998,0.000186,-0.001509,0.002640,0.000350,0.002669,-0.001539,85.215591,0.002679,
1480,910,-0.521878,-2.930923,0.999997,0.000196,-0.001643,0.003455,-0.000134,0.003458,-0.001647,-88.498846,0.003460,
730,690,0.657847,-3.388955,0.999998,0.000203,-0.001408,0.002692,0.000119,0.002695,-0.001412,88.335497,0.002696,
1630,1380,-0.493022,-1.535239,0.999997,0.000229,-0.001547,0.002800,-0.000007,0.002800,-0.001547,-89.910665,0.002805,
1590,1770,-0.208880,-0.526020,0.999998,0.000171,-0.000916,0.002254,0.000069,0.002255,-0.000918,88.745955,0.002268,
1140,140,0.017209,-4.853655,0.999998,0.000137,-0.000225,0.001624,0.000045,0.001625,-0.000227,88.602768,0.001761,
1340,140,-0.020970,-4.849884,0.999999,0.000122,-0.000245,0.001625,-0.000062,0.001627,-0.000247,-88.098219,0.001753,
1050,1480,0.142545,-1.045254,0.999998,0.000142,-0.001076,0.002122,0.000483,0.002193,-0.001147,81.597847,0.002194,
1630,1580,-0.363945,-1.005577,0.999998,0.000146,-0.001226,0.002480,-0.000126,0.002485,-0.001230,-88.061513,0.002485,
870,1270,0.537160,-1.823181,0.999997,0.000183,-0.001671,0.003002,-0.000142,0.003007,-0.001675,-88.258261,0.003013,
1590,1380,-0.431788,-1.498625,0.999998,0.000173,-0.001601,0.002843,-0.000113,0.002846,-0.001604,-88.539229,0.002853,
1900,1920,-0.348263,-0.385590,0.999998,0.000000,-0.001276,0.002707,0.000280,0.002727,-0.001296,85.992665,0.002728,
910,1070,0.706490,-2.400176,0.999998,0.000189,-0.000987,0.002891,-0.000224,0.002903,-0.001000,-86.709873,0.002950,
700,880,0.867638,-2.878916,0.999998,0.000162,-0.001210,0.002478,0.000241,0.002494,-0.001225,86.275791,0.002494,
1670,1140,-0.782081,-2.230300,0.999998,0.000158,-0.001167,0.002649,0.000303,0.002673,-0.001191,85.490376,0.002678,
940,270,0.148650,-4.575499,0.999998,0.000184,-0.000717,0.002089,0.000071,0.002091,-0.000719,88.560307,0.002125,
1680,990,-0.834348,-2.615267,0.999998,0.000166,-0.001060,0.002529,-0.000093,0.002531,-0.001062,-88.518536,0.002542,
660,400,0.527927,-4.087710,0.999997,0.000192,-0.001259,0.002538,-0.000039,0.002538,-0.001259,-89.415063,0.002538,
1880,2000,-0.141978,-0.130084,0.999997,0.000202,-0.000624,0.003096,0.001244,0.003474,-0.001002,73.110085,0.003576,
800,1750,0.290922,-0.611151,0.999998,0.000145,-0.001052,0.002394,-0.000070,0.002396,-0.001054,-88.843052,0.002402,
1260,1470,-0.016168,-0.950360,0.999998,0.000164,-0.000604,0.001531,-0.000122,0.001537,-0.000611,-86.751477,0.001548,
1050,1200,0.298527,-1.755417,0.999997,0.000191,-0.001854,0.003146,0.000714,0.003246,-0.001954,82.035440,0.003269,
720,850,0.818983,-2.960325,0.999999,0.000141,-0.001225,0.002557,0.000269,0.002576,-0.001244,85.947157,0.002577,
1090,140,0.027889,-4.848734,0.999999,0.000122,-0.000190,0.001653,0.000094,0.001657,-0.000194,87.101491,0.001812,
990,1690,0.149646,-0.640342,0.999998,0.000174,-0.000762,0.002124,0.000086,0.002126,-0.000764,88.293018,0.002154,
1860,880,-0.980822,-2.844547,0.999998,0.000154,-0.001107,0.002254,-0.000080,0.002256,-0.001109,-88.638768,0.002256,
1040,620,0.159805,-3.887307,0.999998,0.000148,-0.001195,0.002234,-0.000541,0.002317,-0.001278,-81.241107,0.002321,
1550,860,-0.558601,-3.017977,0.999998,0.000173,-0.001624,0.003132,-0.000282,0.003149,-0.001640,-86.620667,0.003150,
780,1860,0.210375,-0.361871,0.999998,0.000153,-0.000868,0.002287,-0.000322,0.002319,-0.000901,-84.235572,0.002338,
1390,1770,-0.072605,-0.449662,0.999998,0.000190,-0.000487,0.001874,0.000018,0.001874,-0.000487,89.558189,0.001945,
1870,1380,-0.824743,-1.707300,0.999998,0.000170,-0.001266,0.002539,0.000022,0.002539,-0.001266,89.666290,0.002539,
1480,1260,-0.343346,-1.720245,0.999998,0.000176,-0.001957,0.003173,-0.000323,0.003193,-0.001977,-86.409875,0.003223,
1030,340,0.116177,-4.467501,0.999998,0.000176,-0.000721,0.001981,-0.000079,0.001983,-0.000723,-88.321332,0.002007,
1120,2020,0.004575,-0.024456,0.999999,0.000000,-0.000072,0.001486,-0.000061,0.001488,-0.000075,-87.752626,0.001677,
620,260,0.453907,-4.405972,0.999998,0.000195,-0.001271,0.002536,0.000045,0.002537,-0.001272,89.320180,0.002537,
1430,1980,-0.018057,-0.087810,0.999998,0.000167,-0.000147,0.001612,0.000141,0.001623,-0.000158,85.431045,0.001790,
730,180,0.232460,-4.694086,0.999998,0.000158,-0.000894,0.002399,0.000377,0.002442,-0.000937,83.548150,0.002464,
1090,630,0.104204,-3.929721,0.999999,0.000142,-0.001010,0.001979,-0.000583,0.002089,-0.001120,-79.341328,0.002091,
1440,840,-0.323891,-3.257719,0.999997,0.000185,-0.001984,0.003342,0.000484,0.003386,-0.002027,84.849549,0.003408,
1460,970,-0.592052,-2.742945,0.999998,0.000205,-0.001379,0.003731,0.000027,0.003731,-0.001379,89.700554,0.003774,
1650,990,-0.803426,-2.616293,0.999998,0.000162,-0.001017,0.002552,-0.000124,0.002557,-0.001021,-88.020009,0.002574,
960,1390,0.287130,-1.371344,0.999998,0.000185,-0.001565,0.002722,0.000391,0.002758,-0.001601,84.826120,0.002769,
1280,690,-0.025803,-3.934252,0.999999,0.000157,-0.000631,0.001256,0.000433,0.001350,-0.000726,77.675984,0.001351,
1440,1810,-0.087542,-0.389868,0.999998,0.000165,-0.000509,0.001925,0.000047,0.001926,-0.000510,88.887964,0.001996,
780,290,0.300785,-4.450362,0.999998,0.000186,-0.001044,0.002424,0.000126,0.002429,-0.001049,87.918714,0.002436,
830,410,0.330456,-4.193543,0.999998,0.000173,-0.001122,0.002454,-0.000080,0.002455,-0.001123,-88.724425,0.002458,
1680,1230,-0.711878,-1.989858,0.999998,0.000157,-0.001400,0.002741,0.000308,0.002764,-0.001423,85.766714,0.002764,
1280,1800,-0.018698,-0.378801,0.999998,0.000148,-0.000369,0.001719,0.000012,0.001719,-0.000369,89.679309,0.001810,
860,1770,0.220308,-0.533784,0.999998,0.000160,-0.000917,0.002289,-0.000109,0.002293,-0.000920,-88.062741,0.002307,
1870,1030,-1.043902,-2.514489,0.999998,0.000184,-0.001023,0.002179,-0.000001,0.002179,-0.001023,-89.985316,0.002180,
670,50,0.065936,-4.974190,0.999999,0.000144,-0.000160,0.002180,0.000951,0.002518,-0.000498,70.445117,0.002666,
1880,560,-0.744836,-3.618924,0.999997,0.000209,-0.001321,0.002565,0.000011,0.002565,-0.001321,89.840063,0.002566,
1570,130,-0.079909,-4.843767,0.999999,0.000134,-0.000407,0.001906,-0.000298,0.001944,-0.000445,-82.788242,0.002037,
1190,150,0.009436,-4.839351,0.999999,0.000138,-0.000215,0.001601,0.000042,0.001602,-0.000216,88.662471,0.001739,
720,1900,0.206964,-0.293254,0.999998,0.000187,-0.000896,0.002412,-0.000444,0.002471,-0.000955,-82.493996,0.002492,
1240,580,-0.003963,-4.103343,0.999999,0.000149,-0.000618,0.001554,0.000055,0.001555,-0.000620,88.559808,0.001566,
1880,1990,-0.167495,-0.158570,0.999999,0.000144,-0.000880,0.003055,0.000991,0.003291,-0.001116,76.633590,0.003347,
910,1050,0.715330,-2.457583,0.999997,0.000200,-0.000924,0.002834,-0.000131,0.002839,-0.000928,-88.009183,0.002895,
1030,1480,0.165233,-1.064952,0.999998,0.000166,-0.001110,0.002225,0.000438,0.002282,-0.001167,82.649672,0.002282,
870,1250,0.560256,-1.885558,0.999998,0.000185,-0.001646,0.003019,-0.000196,0.003028,-0.001654,-87.593298,0.003032,
700,860,0.850921,-2.927712,0.999998,0.000163,-0.001221,0.002504,0.000249,0.002521,-0.001237,86.194528,0.002521,
1310,1660,-0.044259,-0.631943,0.999998,0.000165,-0.000605,0.001815,-0.000078,0.001817,-0.000608,-88.162002,0.001850,
1340,270,-0.045702,-4.627644,0.999998,0.000143,-0.000468,0.001781,0.000012,0.001781,-0.000468,89.693058,0.001847,
660,380,0.514529,-4.138048,0.999997,0.000182,-0.001260,0.002509,-0.000016,0.002509,-0.001260,-89.755653,0.002509,
1570,1380,-0.399441,-1.478546,0.999998,0.000185,-0.001593,0.002841,-0.000149,0.002846,-0.001598,-88.080576,0.002853,
1860,860,-0.965850,-2.891094,0.999999,0.000130,-0.001144,0.002318,-0.000109,0.002322,-0.001147,-88.203284,0.002322,
1050,1180,0.335879,-1.820296,0.999998,0.000171,-0.001785,0.003313,0.000718,0.003412,-0.001884,82.139371,0.003419,
1190,780,0.024800,-3.850392,0.999998,0.000181,-0.000701,0.000801,-0.000589,0.001004,-0.000904,-70.950275,0.001106,
780,1840,0.230514,-0.409511,0.999998,0.000179,-0.000918,0.002320,-0.000264,0.002341,-0.000939,-85.367768,0.002357,
1790,1520,-0.609734,-1.287834,0.999998,0.000163,-0.001282,0.002581,-0.000024,0.002581,-0.001283,-89.643727,0.002581,
1070,140,0.031969,-4.848561,0.999999,0.000106,-0.000232,0.001681,0.000111,0.001687,-0.000238,86.695399,0.001826,
1550,840,-0.531443,-3.081598,0.999997,0.000203,-0.001692,0.003178,-0.000213,0.003187,-0.001702,-87.502856,0.003190,
1140,120,0.013029,-4.884214,0.999998,0.000150,-0.000161,0.001617,0.000065,0.001619,-0.000164,87.911287,0.001782,
1590,1750,-0.221772,-0.571522,0.999998,0.000149,-0.000945,0.002238,0.000035,0.002239,-0.000945,89.374833,0.002248,
1900,1910,-0.365262,-0.412283,0.999998,0.000000,-0.001259,0.002604,0.000240,0.002619,-0.001274,86.457646,0.002619,
1240,1470,-0.005572,-0.944476,0.999999,0.000145,-0.000590,0.001522,-0.000062,0.001524,-0.000592,-88.307111,0.001536,
1510,1150,-0.560234,-2.130900,0.999998,0.000180,-0.001551,0.003286,0.000266,0.003300,-0.001566,86.858436,0.003302,
1610,660,-0.451097,-3.564360,0.999997,0.000203,-0.001569,0.002799,0.000076,0.002800,-0.001571,89.004678,0.002807,
1690,820,-0.720587,-3.059919,0.999998,0.000163,-0.001354,0.002701,-0.000283,0.002721,-0.001374,-86.033951,0.002721,
1390,1750,-0.078262,-0.487810,0.999998,0.000161,-0.000522,0.001879,-0.000012,0.001879,-0.000522,-89.704211,0.001940,
990,1670,0.157521,-0.682552,0.999998,0.000162,-0.000815,0.002120,0.000103,0.002124,-0.000818,87.993138,0.002142,
1030,320,0.108503,-4.508096,0.999998,0.000138,-0.000673,0.002002,-0.000030,0.002003,-0.000673,-89.350116,0.002038,
1480,1240,-0.368389,-1.784844,0.999998,0.000185,-0.001981,0.003294,-0.000225,0.003303,-0.001991,-87.564638,0.003326,
1040,640,0.163335,-3.843093,0.999998,0.000153,-0.001271,0.002298,-0.000588,0.002392,-0.001365,-80.879542,0.002400,
1540,1250,-0.469247,-1.837362,0.999998,0.000179,-0.001799,0.003158,0.000062,0.003159,-0.001799,89.286490,0.003169,
1850,1380,-0.799667,-1.691888,0.999999,0.000146,-0.001269,0.002537,0.000067,0.002538,-0.001270,88.986819,0.002538,
1340,1900,-0.024756,-0.214505,0.999999,0.000124,-0.000270,0.001669,0.000043,0.001670,-0.000271,88.720980,0.001792,
620,240,0.433034,-4.456292,0.999997,0.000207,-0.001254,0.002532,0.000065,0.002533,-0.001255,89.021830,0.002533,
1440,820,-0.295817,-3.321692,0.999998,0.000179,-0.001953,0.003156,0.000531,0.003210,-0.002007,84.132676,0.003244,
1120,1160,0.304613,-1.530081,0.999990,0.000000,-0.000439,0.001253,0.001288,0.001948,-0.001134,61.646178,0.001957,
1090,610,0.102599,-3.968287,0.999999,0.000139,-0.000953,0.001944,-0.000522,0.002035,-0.001044,-80.100617,0.002035,
1580,1970,-0.049437,-0.114475,0.999999,0.000121,-0.000287,0.001774,0.000329,0.001825,-0.000338,81.157331,0.001942,
1680,1830,-0.237472,-0.431545,0.999998,0.000166,-0.000957,0.002312,0.000252,0.002331,-0.000976,85.615240,0.002341,
1760,1050,-0.922824,-2.464580,0.999998,0.000146,-0.001090,0.002411,0.000090,0.002413,-0.001092,88.527684,0.002417,
940,1390,0.318176,-1.396207,0.999997,0.000180,-0.001565,0.002776,0.000325,0.002800,-0.001589,85.742296,0.002808,
1650,970,-0.796225,-2.666754,0.999998,0.000159,-0.001049,0.002635,-0.000207,0.002646,-0.001061,-86.791402,0.002664,
630,1020,1.003780,-2.537502,0.999998,0.000195,-0.001081,0.002274,0.000037,0.002275,-0.001081,89.365252,0.002276,
1290,1690,-0.032308,-0.575267,0.999998,0.000151,-0.000523,0.001788,-0.000032,0.001789,-0.000523,-89.202059,0.001839,
870,1230,0.582827,-1.944249,0.999998,0.000175,-0.001603,0.002984,-0.000237,0.002996,-0.001615,-87.045467,0.002999,
1340,1810,-0.041893,-0.368415,0.999998,0.000167,-0.000425,0.001752,-0.000007,0.001752,-0.000425,-89.816822,0.001827,
1520,470,-0.232984,-4.134867,0.999998,0.000171,-0.001135,0.002339,0.000215,0.002352,-0.001149,86.478717,0.002353,
830,430,0.343592,-4.143362,0.999998,0.000183,-0.001183,0.002461,-0.000101,0.002464,-0.001186,-88.406450,0.002464,
1320,530,-0.059196,-4.157257,0.999999,0.000141,-0.000741,0.001789,0.000271,0.001817,-0.000769,83.963713,0.001824,
700,840,0.834597,-2.978739,0.999998,0.000144,-0.001256,0.002533,0.000247,0.002549,-0.001272,86.282062,0.002549,
760,310,0.339580,-4.388800,0.999997,0.000232,-0.001061,0.002441,0.000076,0.002442,-0.001063,88.755064,0.002449,
910,1030,0.720105,-2.513509,0.999998,0.000191,-0.000876,0.002806,-0.000024,0.002806,-0.000876,-89.633551,0.002871,
1170,1660,0.035394,-0.628348,0.999998,0.000147,-0.000575,0.001814,0.000043,0.001815,-0.000576,88.980906,0.001855,
1540,950,-0.662099,-2.748364,0.999998,0.000165,-0.001149,0.003029,-0.000330,0.003055,-0.001175,-85.515710,0.003082,
1030,1200,0.333758,-1.817837,0.999998,0.000182,-0.001937,0.003351,0.000506,0.003399,-0.001985,84.579005,0.003415,
1350,780,-0.101109,-3.676174,0.999998,0.000194,-0.001355,0.001928,0.001127,0.002277,-0.001705,72.766230,0.002369,
1860,840,-0.951288,-2.938655,0.999999,0.000116,-0.001163,0.002349,-0.000096,0.002352,-0.001166,-88.430202,0.002352,
570,1810,0.528222,-0.649782,0.999483,0.002682,-0.003669,0.001497,0.000258,0.001510,-0.003682,87.145272,0.003702,
820,390,0.329252,-4.235334,0.999997,0.000198,-0.001097,0.002448,-0.000045,0.002449,-0.001098,-89.279440,0.002453,
780,1820,0.250440,-0.456850,0.999998,0.000168,-0.000971,0.002372,-0.000231,0.002388,-0.000987,-86.068613,0.002400,
590,250,0.479488,-4.397809,0.999997,0.000200,-0.001524,0.002397,0.000119,0.002401,-0.001527,88.268254,0.002430,
570,1150,1.028047,-2.263672,0.999998,0.000173,-0.000969,0.002150,-0.000039,0.002150,-0.000969,-89.276852,0.002154,
990,1650,0.165801,-0.726024,0.999998,0.000166,-0.000889,0.002165,0.000167,0.002175,-0.000898,86.870398,0.002186,
1390,1730,-0.081075,-0.524352,0.999998,0.000157,-0.000568,0.001916,-0.000037,0.001916,-0.000568,-89.154629,0.001969,
1070,1260,0.178414,-1.520586,0.999998,0.000204,-0.001737,0.002632,0.000959,0.002833,-0.001938,78.150946,0.002896,
620,220,0.406675,-4.505911,0.999998,0.000200,-0.001224,0.002570,0.000095,0.002572,-0.001227,88.571776,0.002573,
1020,1410,0.191453,-1.238782,0.999998,0.000184,-0.001341,0.002401,0.000560,0.002483,-0.001423,81.671356,0.002492,
1240,560,-0.005308,-4.136201,0.999999,0.000132,-0.000635,0.001590,0.000072,0.001593,-0.000638,88.152610,0.001603,
660,360,0.497166,-4.187563,0.999998,0.000179,-0.001234,0.002519,0.000010,0.002519,-0.001234,89.849482,0.002520,
730,1970,0.096101,-0.130222,0.999998,0.000154,-0.000468,0.002065,-0.000605,0.002202,-0.000605,-77.225563,0.002276,
1900,1530,-0.743241,-1.348448,0.999997,0.000000,-0.001253,0.002551,0.000015,0.002551,-0.001253,89.777324,0.002551,
1470,1140,-0.514205,-2.109628,0.999998,0.000183,-0.001640,0.003545,0.000079,0.003547,-0.001641,89.131764,0.003550,
1090,1580,0.095616,-0.807890,0.999999,0.000136,-0.000806,0.001958,0.000274,0.001984,-0.000833,84.396463,0.001993,
1300,1470,-0.043376,-0.964394,0.999999,0.000146,-0.000739,0.001629,-0.000310,0.001669,-0.000779,-82.664641,0.001670,
1590,1730,-0.234123,-0.616739,0.999998,0.000152,-0.000954,0.002310,0.000015,0.002310,-0.000955,89.743365,0.002321,
1440,800,-0.271070,-3.383359,0.999997,0.000197,-0.001917,0.003076,0.000598,0.003147,-0.001988,83.260760,0.003183,
1090,590,0.103809,-4.006345,0.999998,0.000152,-0.000926,0.001963,-0.000487,0.002043,-0.001006,-80.679394,0.002043,
1880,280,-0.520154,-4.318376,0.999997,0.000188,-0.001244,0.002428,-0.000006,0.002428,-0.001244,-89.902179,0.002429,
1510,1130,-0.591294,-2.195239,0.999998,0.000187,-0.001410,0.003270,0.000308,0.003290,-0.001430,86.246191,0.003300,
1120,900,0.316142,-3.500755,0.999998,0.000000,-0.000419,0.001323,-0.001381,0.002085,-0.001181,-61.116730,0.002091,
1140,100,0.010580,-4.918020,0.999999,0.000153,-0.000135,0.001589,0.000046,0.001590,-0.000136,88.462790,0.001763,
1650,950,-0.784009,-2.720830,0.999998,0.000168,-0.001122,0.002626,-0.000261,0.002644,-0.001140,-86.036759,0.002652,
1480,1220,-0.394538,-1.851236,0.999998,0.000185,-0.001966,0.003334,-0.000130,0.003337,-0.001969,-88.596925,0.003355,
1280,840,-0.077498,-3.793506,0.999998,0.000171,-0.001376,0.000816,0.000195,0.000833,-0.001393,84.963197,0.001402,
1200,1990,0.002202,-0.067606,0.999999,0.000109,-0.000091,0.001500,-0.000019,0.001500,-0.000091,-89.313674,0.001682,
1040,1240,0.256807,-1.661822,0.999998,0.000189,-0.001944,0.003042,0.000670,0.003131,-0.002032,82.478503,0.003177,
1180,1910,0.011018,-0.194112,0.999999,0.000128,-0.000209,0.001614,-0.000041,0.001615,-0.000210,-88.696942,0.001757,
1330,1740,-0.048610,-0.492902,0.999998,0.000139,-0.000565,0.001815,-0.000065,0.001817,-0.000567,-88.432033,0.001859,
1240,690,-0.004684,-3.954347,0.999999,0.000130,-0.000523,0.001130,0.000111,0.001137,-0.000530,86.174350,0.001138,
700,820,0.817053,-3.029358,0.999998,0.000156,-0.001289,0.002575,0.000228,0.002588,-0.001302,86.634855,0.002588,
1340,1880,-0.027632,-0.246656,0.999999,0.000133,-0.000315,0.001682,0.000050,0.001683,-0.000316,88.571129,0.001789,
1370,320,-0.070167,-4.529254,0.999998,0.000168,-0.000530,0.001873,0.000031,0.001874,-0.000531,89.257634,0.001932,
1320,1810,-0.032759,-0.364579,0.999999,0.000141,-0.000419,0.001724,0.000002,0.001724,-0.000419,89.941042,0.001798,
1150,1660,0.047265,-0.632064,0.999998,0.000155,-0.000614,0.001828,0.000102,0.001832,-0.000618,87.606163,0.001864,
910,1010,0.718243,-2.568895,0.999998,0.000195,-0.000909,0.002821,0.000100,0.002824,-0.000912,88.458796,0.002883,
830,450,0.354187,-4.095665,0.999997,0.000188,-0.001202,0.002449,-0.000101,0.002451,-0.001205,-88.420689,0.002451,
760,290,0.322025,-4.438487,0.999997,0.000211,-0.001054,0.002470,0.000140,0.002475,-0.001059,87.722736,0.002484,
1790,580,-0.644769,-3.637774,0.999998,0.000167,-0.001289,0.002594,0.000016,0.002594,-0.001289,89.764453,0.002594,
1860,820,-0.934887,-2.985161,0.999999,0.000130,-0.001164,0.002327,-0.000110,0.002331,-0.001168,-88.195077,0.002331,
580,250,0.490848,-4.386300,0.999998,0.000169,-0.002609,0.002241,0.000414,0.002276,-0.002644,85.155883,0.002864,
1330,780,-0.076054,-3.730353,0.999998,0.000143,-0.001160,0.001611,0.001072,0.001978,-0.001527,71.132862,0.002073,
870,1210,0.605506,-2.005059,0.999997,0.000191,-0.001541,0.002987,-0.000302,0.003008,-0.001562,-86.197111,0.003008,
1870,1460,-0.758452,-1.504594,0.999998,0.000188,-0.001261,0.002567,-0.000010,0.002567,-0.001261,-89.847225,0.002567,
780,1800,0.270556,-0.504234,0.999998,0.000174,-0.001009,0.002408,-0.000180,0.002417,-0.001019,-86.999747,0.002427,
810,1320,0.581886,-1.722539,0.999998,0.000183,-0.001506,0.002824,-0.000125,0.002828,-0.001509,-88.353086,0.002830,
1290,1670,-0.031973,-0.611218,0.999998,0.000155,-0.000550,0.001794,-0.000045,0.001794,-0.000551,-88.892597,0.001838,
1660,1230,-0.683676,-1.982142,0.999998,0.000161,-0.001417,0.002787,0.000302,0.002809,-0.001439,85.917629,0.002809,
1390,1710,-0.086345,-0.564238,0.999998,0.000172,-0.000612,0.001942,-0.000058,0.001943,-0.000613,-88.705762,0.001987,
610,1160,0.980914,-2.225462,0.999998,0.000149,-0.001066,0.002239,-0.000087,0.002241,-0.001069,-88.498106,0.002242,
620,200,0.381059,-4.558363,0.999997,0.000201,-0.001214,0.002516,0.000124,0.002520,-0.001218,88.090710,0.002520,
1350,140,-0.023263,-4.850112,0.999999,0.000123,-0.000220,0.001614,-0.000073,0.001617,-0.000223,-87.711476,0.001753,
740,60,0.059116,-4.958691,0.999998,0.000149,-0.000229,0.001973,0.000643,0.002147,-0.000403,74.864083,0.002282,
1240,540,-0.006104,-4.166708,0.999999,0.000136,-0.000646,0.001622,0.000048,0.001623,-0.000647,88.790434,0.001635,
1040,1220,0.283958,-1.725117,0.999998,0.000178,-0.001942,0.003147,0.000637,0.003225,-0.002020,82.967839,0.003260,
740,1390,0.622160,-1.578426,0.999997,0.000209,-0.001399,0.002650,-0.000084,0.002652,-0.001401,-88.816328,0.002654,
1470,1120,-0.550024,-2.180470,0.999998,0.000177,-0.001495,0.003617,0.000099,0.003619,-0.001497,88.896619,0.003637,
1090,570,0.103000,-4.045150,0.999999,0.000146,-0.000918,0.001944,-0.000450,0.002014,-0.000987,-81.271429,0.002014,
1440,780,-0.251909,-3.443861,0.999997,0.000200,-0.001871,0.002989,0.000645,0.003073,-0.001956,82.569403,0.003111,
1480,1200,-0.424818,-1.920271,0.999998,0.000190,-0.001898,0.003393,-0.000045,0.003393,-0.001898,-89.513254,0.003401,
1120,890,0.287260,-3.514685,0.999998,0.000000,-0.000645,0.001323,-0.001216,0.001903,-0.001225,-64.493988,0.001929,
1110,780,0.105228,-3.667919,0.999998,0.000184,-0.001388,0.001979,-0.001115,0.002315,-0.001724,-73.242122,0.002406,
1390,1740,-0.079909,-0.506900,0.999998,0.000146,-0.000540,0.001890,-0.000024,0.001890,-0.000540,-89.440736,0.001947,
1140,80,0.007734,-4.948216,0.999999,0.000140,-0.000106,0.001526,0.000056,0.001528,-0.000108,88.022650,0.001706,
1650,930,-0.770054,-2.773299,0.999998,0.000160,-0.001191,0.002671,-0.000288,0.002692,-0.001213,-85.764667,0.002696,
1590,1710,-0.247568,-0.665143,0.999998,0.000149,-0.001000,0.002326,-0.000001,0.002326,-0.001000,-89.991373,0.002334,
1090,1560,0.097410,-0.846806,0.999999,0.000109,-0.000849,0.001952,0.000320,0.001988,-0.000885,83.571835,0.001991,
1340,1860,-0.032267,-0.281189,0.999999,0.000128,-0.000342,0.001713,0.000044,0.001714,-0.000343,88.775664,0.001813,
1360,1990,-0.008017,-0.069413,0.999999,0.000133,-0.000079,0.001543,0.000095,0.001548,-0.000084,86.671857,0.001741,
910,340,0.206943,-4.409297,0.999998,0.000156,-0.000862,0.002263,-0.000004,0.002263,-0.000862,-89.922815,0.002285,
700,800,0.800461,-3.081255,0.999998,0.000175,-0.001310,0.002569,0.000217,0.002581,-0.001322,86.802033,0.002581,
1320,610,-0.058628,-4.019481,0.999999,0.000140,-0.000743,0.001703,0.000407,0.001769,-0.000809,80.799883,0.001771,
1760,1030,-0.926406,-2.514641,0.999998,0.000154,-0.001095,0.002435,0.000007,0.002435,-0.001095,89.885205,0.002439,
1770,580,-0.618687,-3.650872,0.999998,0.000161,-0.001308,0.002592,0.000006,0.002592,-0.001308,89.905399,0.002592,
1000,1410,0.218318,-1.265937,0.999998,0.000146,-0.001409,0.002498,0.000506,0.002562,-0.001473,82.745391,0.002572,
1050,1620,0.122606,-0.754126,0.999998,0.000168,-0.000807,0.002027,0.000199,0.002041,-0.000820,86.009648,0.002054,
1290,780,-0.037501,-3.822605,0.999998,0.000152,-0.000815,0.000978,0.000778,0.001269,-0.001106,69.520248,0.001381,
1860,800,-0.919164,-3.031290,0.999999,0.000151,-0.001182,0.002359,-0.000106,0.002362,-0.001185,-88.286378,0.002362,
790,1320,0.612629,-1.736130,0.999998,0.000175,-0.001519,0.002787,-0.000154,0.002793,-0.001524,-87.954674,0.002797,
780,1780,0.287114,-0.551702,0.999998,0.000167,-0.001054,0.002432,-0.000136,0.002437,-0.001059,-87.774227,0.002444,
1290,1650,-0.034436,-0.646467,0.999998,0.000181,-0.000558,0.001793,-0.000036,0.001793,-0.000558,-89.116829,0.001835,
570,250,0.516913,-4.389482,0.999341,0.002799,-0.003248,0.002056,0.000602,0.002123,-0.003316,83.608907,0.003359,
1000,70,0.020579,-4.959044,0.999998,0.000174,-0.000084,0.001627,0.000195,0.001649,-0.000106,83.593941,0.001846,
910,990,0.711279,-2.625549,0.999998,0.000189,-0.000967,0.002880,0.000205,0.002891,-0.000978,86.965031,0.002941,
1610,1200,-0.643733,-2.044049,0.999998,0.000163,-0.001447,0.002869,0.000310,0.002891,-0.001470,85.909074,0.002891,
870,1190,0.631479,-2.064920,0.999997,0.000190,-0.001490,0.002958,-0.000317,0.002981,-0.001512,-85.950297,0.002981,
1900,1900,-0.382078,-0.438194,0.999997,0.000000,-0.001245,0.002547,0.000197,0.002557,-0.001255,87.034322,0.002557,
1470,720,-0.261944,-3.563194,0.999998,0.000172,-0.001705,0.002826,0.000510,0.002883,-0.001761,83.652168,0.002906,
1760,1340,-0.718316,-1.737300,0.999998,0.000163,-0.001359,0.002595,0.000151,0.002601,-0.001365,87.810379,0.002602,
620,180,0.352695,-4.607866,0.999998,0.000187,-0.001220,0.002576,0.000204,0.002587,-0.001231,86.939406,0.002588,
880,210,0.149303,-4.679952,0.999999,0.000144,-0.000721,0.002091,0.000201,0.002105,-0.000736,85.933865,0.002137,
1630,1300,-0.566243,-1.763937,0.999998,0.000182,-0.001583,0.002893,0.000131,0.002897,-0.001587,88.330997,0.002901,
1390,1690,-0.090694,-0.602568,0.999998,0.000164,-0.000645,0.001951,-0.000082,0.001954,-0.000648,-88.182844,0.001991,
1820,480,-0.607505,-3.868628,0.999998,0.000185,-0.001265,0.002526,0.000045,0.002527,-0.001266,89.320698,0.002527,
1440,760,-0.235505,-3.504049,0.999997,0.000200,-0.001822,0.002899,0.000670,0.002993,-0.001915,82.078326,0.003031,
690,660,0.686281,-3.439705,0.999998,0.000200,-0.001338,0.002635,0.000066,0.002636,-0.001339,89.047158,0.002636,
1090,550,0.101810,-4.083630,0.999999,0.000147,-0.000895,0.001949,-0.000423,0.002010,-0.000957,-81.708653,0.002011,
1690,1530,-0.471499,-1.181232,0.999998,0.000176,-0.001336,0.002585,-0.000066,0.002586,-0.001337,-89.036794,0.002587,
1660,1450,-0.485506,-1.367259,0.999996,0.000212,-0.001435,0.002690,-0.000048,0.002691,-0.001436,-89.339992,0.002693,
1390,1360,-0.129489,-1.272597,0.999997,0.000191,-0.001304,0.002235,-0.000783,0.002400,-0.001469,-78.065436,0.002420,
920,1790,0.159924,-0.462222,0.999998,0.000191,-0.000667,0.002128,-0.000116,0.002133,-0.000671,-87.622784,0.002181,
700,290,0.389375,-4.396741,0.999998,0.000203,-0.001201,0.002537,0.000075,0.002538,-0.001203,88.850951,0.002539,
1510,1110,-0.620036,-2.259005,0.999998,0.000171,-0.001271,0.003246,0.000319,0.003268,-0.001294,85.974429,0.003292,
830,470,0.366075,-4.045739,0.999998,0.000154,-0.001228,0.002504,-0.000098,0.002506,-0.001230,-88.493256,0.002507,
1190,840,0.069336,-3.807873,0.999998,0.000164,-0.001418,0.000619,-0.000169,0.000633,-0.001432,-85.302554,0.001435,
1430,2000,-0.010804,-0.054445,0.999999,0.000138,-0.000091,0.001560,0.000119,0.001569,-0.000099,85.888207,0.001757,
1720,1080,-0.873667,-2.391032,0.999998,0.000172,-0.001084,0.002479,0.000119,0.002483,-0.001088,88.095251,0.002489,
1120,30,0.003124,-5.023591,0.999999,0.000000,-0.000004,0.001467,0.000028,0.001468,-0.000005,88.895170,0.001692,
1240,520,-0.004137,-4.200898,0.999998,0.000153,-0.000654,0.001666,0.000043,0.001667,-0.000654,88.929349,0.001680,
950,1390,0.303170,-1.384430,0.999998,0.000182,-0.001563,0.002750,0.000356,0.002779,-0.001593,85.316374,0.002789,
1480,1180,-0.458701,-1.988549,0.999998,0.000185,-0.001821,0.003417,0.000038,0.003417,-0.001822,89.584073,0.003419,
1790,1860,-0.314386,-0.422661,0.999998,0.000186,-0.001099,0.002537,0.000316,0.002565,-0.001126,85.066334,0.002571,
1590,1780,-0.202328,-0.503912,0.999997,0.000193,-0.000899,0.002230,0.000089,0.002232,-0.000902,88.366239,0.002246,
1340,1840,-0.036319,-0.316078,0.999998,0.000155,-0.000362,0.001731,0.000009,0.001731,-0.000362,89.766505,0.001826,
740,1500,0.536158,-1.285573,0.999998,0.000180,-0.001356,0.002622,0.000042,0.002622,-0.001356,89.399947,0.002623,
700,780,0.780991,-3.133036,0.999998,0.000163,-0.001302,0.002583,0.000220,0.002595,-0.001315,86.775441,0.002596,
1550,1620,-0.252354,-0.846583,0.999999,0.000146,-0.001130,0.002345,-0.000174,0.002354,-0.001139,-87.142519,0.002354,
890,480,0.297067,-4.069517,0.999998,0.000174,-0.001203,0.002422,-0.000179,0.002430,-0.001211,-87.185292,0.002430,
1140,60,0.004566,-4.978281,0.999999,0.000139,-0.000082,0.001530,0.000079,0.001533,-0.000086,87.201583,0.001723,
1590,1690,-0.258282,-0.709483,0.999998,0.000166,-0.001018,0.002334,-0.000044,0.002335,-0.001018,-89.247783,0.002341,
1040,1200,0.314348,-1.789375,0.999998,0.000181,-0.001878,0.003271,0.000624,0.003346,-0.001953,83.184090,0.003361,
1860,780,-0.903126,-3.079485,0.999999,0.000125,-0.001196,0.002405,-0.000099,0.002408,-0.001198,-88.424476,0.002408,
1340,1550,-0.073155,-0.847674,0.999999,0.000134,-0.000737,0.001858,-0.000237,0.001879,-0.000758,-84.831763,0.001891,
1290,1630,-0.035513,-0.681698,0.999998,0.000163,-0.000548,0.001787,-0.000061,0.001789,-0.000549,-88.508616,0.001833,
740,1030,0.885155,-2.515049,0.999999,0.000136,-0.001064,0.002444,-0.000029,0.002444,-0.001064,-89.526894,0.002451,
1470,1660,-0.158001,-0.702431,0.999998,0.000184,-0.000859,0.002115,-0.000142,0.002122,-0.000866,-87.277643,0.002134,
780,1760,0.305497,-0.601922,0.999998,0.000169,-0.001087,0.002405,-0.000094,0.002407,-0.001090,-88.455462,0.002411,
1390,1670,-0.094682,-0.641084,0.999998,0.000165,-0.000686,0.001932,-0.000119,0.001938,-0.000692,-87.401170,0.001964,
1090,530,0.100176,-4.123802,0.999998,0.000146,-0.000876,0.001956,-0.000369,0.002004,-0.000923,-82.701470,0.002006,
1630,1280,-0.586120,-1.821841,0.999997,0.000179,-0.001569,0.002891,0.000186,0.002899,-0.001577,87.620495,0.002903,
1180,690,0.028943,-3.932545,0.999999,0.000151,-0.000649,0.001297,-0.000459,0.001400,-0.000751,-77.375491,0.001401,
870,1170,0.654085,-2.123309,0.999998,0.000178,-0.001414,0.002954,-0.000341,0.002981,-0.001440,-85.565147,0.002981,
1340,1270,-0.090433,-1.344407,0.999998,0.000192,-0.001282,0.001790,-0.001122,0.002156,-0.001648,-71.920668,0.002254,
1080,130,0.027678,-4.864308,0.999999,0.000116,-0.000192,0.001643,0.000103,0.001649,-0.000197,86.785863,0.001801,
1270,780,-0.022539,-3.853454,0.999999,0.000161,-0.000673,0.000759,0.000555,0.000948,-0.000863,71.116899,0.001049,
1040,1080,0.539704,-2.245207,0.999997,0.000230,-0.001961,0.004780,0.000876,0.004892,-0.002073,82.716897,0.004911,
570,270,0.548247,-4.333022,0.999363,0.003003,-0.003500,0.003545,0.000331,0.003560,-0.003515,87.317763,0.004085,
1660,1430,-0.499627,-1.422830,0.999997,0.000199,-0.001463,0.002710,-0.000020,0.002710,-0.001463,-89.720812,0.002713,
1690,1550,-0.458505,-1.130284,0.999998,0.000173,-0.001311,0.002580,-0.000078,0.002581,-0.001312,-88.852516,0.002582,
1760,1320,-0.736645,-1.786873,0.999998,0.000166,-0.001361,0.002606,0.000174,0.002614,-0.001368,87.495855,0.002615,
660,340,0.478892,-4.236530,0.999998,0.000195,-0.001221,0.002518,0.000012,0.002518,-0.001221,89.814636,0.002519,
910,970,0.695746,-2.684852,0.999998,0.000180,-0.001043,0.002905,0.000267,0.002923,-0.001060,86.152840,0.002959,
1650,910,-0.753323,-2.828131,0.999998,0.000153,-0.001247,0.002714,-0.000322,0.002740,-0.001273,-85.376469,0.002742,
1440,740,-0.222799,-3.561482,0.999998,0.000208,-0.001746,0.002795,0.000690,0.002898,-0.001848,81.553328,0.002934,
1470,700,-0.250886,-3.619157,0.999998,0.000202,-0.001652,0.002779,0.000518,0.002838,-0.001712,83.419251,0.002858,
830,910,0.732221,-2.833127,0.999998,0.000167,-0.001254,0.002732,0.000334,0.002759,-0.001282,85.238891,0.002762,
1850,640,-0.768806,-3.435062,0.999998,0.000175,-0.001254,0.002559,-0.000038,0.002559,-0.001254,-89.428484,0.002559,
1650,1140,-0.758352,-2.226188,0.999999,0.000157,-0.001215,0.002703,0.000317,0.002728,-0.001240,85.405022,0.002732,
900,1790,0.173338,-0.468418,0.999999,0.000132,-0.000718,0.002152,-0.000113,0.002157,-0.000723,-87.747381,0.002195,
780,1740,0.320317,-0.648586,0.999998,0.000150,-0.001109,0.002457,-0.000040,0.002458,-0.001110,-89.351727,0.002461,
1120,70,0.008970,-4.962437,0.999998,0.000148,-0.000092,0.001550,0.000089,0.001555,-0.000097,86.906967,0.001742,
1180,840,0.082805,-3.787192,0.999998,0.000171,-0.001327,0.000742,-0.000245,0.000771,-0.001355,-83.328863,0.001360,
1500,950,-0.613839,-2.773032,0.999998,0.000179,-0.001264,0.003298,-0.000288,0.003316,-0.001283,-86.407919,0.003344,
1160,30,0.004026,-5.025227,0.999999,0.000000,-0.000043,0.001501,-0.000011,0.001501,-0.000043,-89.585956,0.001709,
1900,1880,-0.414423,-0.488332,0.999998,0.000000,-0.001215,0.002522,0.000136,0.002526,-0.001220,87.918707,0.002527,
700,760,0.763083,-3.184395,0.999998,0.000162,-0.001310,0.002599,0.000190,0.002609,-0.001319,87.219252,0.002609,
1730,1060,-0.888439,-2.439703,0.999998,0.000159,-0.001055,0.002430,0.000071,0.002432,-0.001057,88.832155,0.002439,
990,1630,0.170786,-0.769684,0.999998,0.000152,-0.000947,0.002175,0.000213,0.002190,-0.000961,86.109231,0.002195,
1040,1180,0.351619,-1.854140,0.999998,0.000172,-0.001804,0.003412,0.000626,0.003486,-0.001878,83.247737,0.003490,
1610,1300,-0.533412,-1.749199,0.999998,0.000192,-0.001640,0.002942,0.000101,0.002945,-0.001642,88.742373,0.002951,
1280,1470,-0.029831,-0.953711,0.999999,0.000131,-0.000677,0.001565,-0.000185,0.001580,-0.000692,-85.318922,0.001584,
870,1600,0.308300,-0.924676,0.999999,0.000163,-0.001164,0.002431,0.000131,0.002436,-0.001168,87.921761,0.002437,
1570,110,-0.065327,-4.882980,0.999999,0.000138,-0.000305,0.001876,-0.000315,0.001921,-0.000350,-81.947404,0.002046,
620,160,0.321894,-4.659683,0.999998,0.000182,-0.001253,0.002629,0.000230,0.002642,-0.001267,86.620863,0.002643,
1160,690,0.042216,-3.911697,0.999999,0.000149,-0.000727,0.001440,-0.000590,0.001591,-0.000877,-75.711425,0.001593,
1190,130,0.007745,-4.868382,0.999999,0.000134,-0.000176,0.001569,0.000026,0.001569,-0.000176,89.145388,0.001719,
1480,1160,-0.494641,-2.058717,0.999998,0.000180,-0.001727,0.003430,0.000103,0.003432,-0.001729,88.861560,0.003432,
870,1150,0.676696,-2.183101,0.999998,0.000177,-0.001323,0.002870,-0.000347,0.002899,-0.001352,-85.295737,0.002901,
1450,1660,-0.143049,-0.692261,0.999998,0.000164,-0.000765,0.002051,-0.000112,0.002056,-0.000770,-87.718906,0.002077,
1220,130,0.001960,-4.871181,0.999999,0.000131,-0.000169,0.001560,-0.000009,0.001560,-0.000169,-89.705281,0.001712,
1390,1650,-0.098931,-0.680269,0.999998,0.000154,-0.000738,0.001972,-0.000150,0.001980,-0.000747,-86.834964,0.002000,
1300,1430,-0.042619,-1.029251,0.999999,0.000152,-0.000727,0.001557,-0.000397,0.001624,-0.000794,-80.406382,0.001624,
650,1960,0.167285,-0.177066,0.999998,0.000155,-0.000729,0.002540,-0.000773,0.002713,-0.000903,-77.348020,0.002763,
620,370,0.554564,-4.128759,0.999998,0.000172,-0.001251,0.002521,-0.000018,0.002521,-0.001251,-89.727371,0.002521,
1890,1460,-0.783443,-1.519800,0.999998,0.000161,-0.001280,0.002558,0.000008,0.002558,-0.001280,89.878818,0.002558,
1010,660,0.208114,-3.749688,0.999998,0.000173,-0.001430,0.002518,-0.000550,0.002593,-0.001505,-82.211879,0.002604,
1530,1620,-0.229445,-0.830468,0.999999,0.000169,-0.001032,0.002290,-0.000181,0.002299,-0.001042,-86.890727,0.002303,
1290,1610,-0.036751,-0.717365,0.999998,0.000157,-0.000588,0.001795,-0.000082,0.001798,-0.000591,-88.037782,0.001833,
1820,1250,-0.876772,-1.998534,0.999998,0.000157,-0.001216,0.002452,0.000174,0.002460,-0.001224,87.294138,0.002460,
1860,1200,-0.962683,-2.137496,0.999999,0.000127,-0.001110,0.002320,0.000131,0.002325,-0.001115,87.822645,0.002325,
590,1870,0.397321,-0.480842,0.999997,0.000204,-0.001219,0.002547,-0.000128,0.002551,-0.001224,-88.052301,0.002552,
1760,1300,-0.753887,-1.839198,0.999998,0.000159,-0.001348,0.002665,0.000196,0.002675,-0.001357,87.213835,0.002675,
1480,1550,-0.201329,-0.951291,0.999998,0.000176,-0.001072,0.002257,-0.000264,0.002278,-0.001092,-85.499091,0.002279,
950,1370,0.313305,-1.439632,0.999997,0.000201,-0.001612,0.002827,0.000348,0.002854,-0.001639,85.546980,0.002864,
1820,460,-0.593964,-3.921460,0.999998,0.000169,-0.001257,0.002566,0.000051,0.002566,-0.001258,89.229349,0.002566,
660,320,0.464493,-4.288982,0.999998,0.000196,-0.001224,0.002531,0.000037,0.002531,-0.001224,89.431983,0.002531,
910,950,0.678537,-2.742170,0.999998,0.000169,-0.001139,0.002931,0.000335,0.002958,-0.001166,85.323512,0.002980,
1690,1570,-0.444721,-1.077468,0.999998,0.000177,-0.001286,0.002546,-0.000074,0.002547,-0.001287,-88.893109,0.002547,
830,890,0.714204,-2.885570,0.999998,0.000166,-0.001327,0.002780,0.000327,0.002806,-0.001352,85.477541,0.002806,
1440,720,-0.212015,-3.615402,0.999998,0.000194,-0.001658,0.002658,0.000659,0.002756,-0.001757,81.503270,0.002791,
900,1770,0.184892,-0.512941,0.999998,0.000145,-0.000763,0.002193,-0.000083,0.002195,-0.000765,-88.386790,0.002229,
780,1720,0.336640,-0.700032,0.999998,0.000172,-0.001102,0.002478,-0.000010,0.002478,-0.001102,-89.835080,0.002483,
1610,220,-0.176792,-4.650055,0.999998,0.000154,-0.000717,0.002173,-0.000221,0.002190,-0.000734,-85.647887,0.002230,
1480,410,-0.172412,-4.297954,0.999998,0.000182,-0.000927,0.002168,0.000179,0.002178,-0.000938,86.695774,0.002185,
1160,870,0.186689,-3.709473,0.999991,0.000000,-0.001137,0.000509,-0.000452,0.000625,-0.001253,-75.615806,0.001253,
1790,360,-0.480217,-4.198248,0.999998,0.000188,-0.001211,0.002516,0.000007,0.002516,-0.001211,89.887763,0.002517,
1450,720,-0.229108,-3.597310,0.999997,0.000196,-0.001666,0.002718,0.000608,0.002801,-0.001749,82.246935,0.002830,
700,740,0.745663,-3.237558,0.999998,0.000170,-0.001338,0.002603,0.000170,0.002610,-0.001345,87.527250,0.002610,
1650,1120,-0.774993,-2.279130,0.999998,0.000197,-0.001149,0.002656,0.000278,0.002676,-0.001169,85.849586,0.002683,
740,1480,0.551317,-1.340275,0.999998,0.000184,-0.001358,0.002639,0.000024,0.002639,-0.001358,89.654882,0.002640,
1240,500,-0.005136,-4.233016,0.999999,0.000152,-0.000654,0.001725,0.000051,0.001726,-0.000655,88.762951,0.001743,
1040,1160,0.394541,-1.924050,0.999998,0.000157,-0.001735,0.003501,0.000614,0.003572,-0.001806,83.403661,0.003572,
1900,1870,-0.428377,-0.515016,0.999998,0.000000,-0.001219,0.002462,0.000120,0.002466,-0.001223,88.129309,0.002466,
870,1580,0.318817,-0.975592,0.999997,0.000172,-0.001217,0.002467,0.000152,0.002473,-0.001223,87.640878,0.002473,
1570,90,-0.049091,-4.917950,0.999999,0.000130,-0.000254,0.001794,-0.000334,0.001847,-0.000307,-80.970968,0.001980,
610,1100,1.011859,-2.360240,0.999998,0.000169,-0.001052,0.002196,-0.000045,0.002196,-0.001052,-89.200413,0.002197,
1480,1140,-0.530783,-2.127571,0.999998,0.000179,-0.001596,0.003470,0.000141,0.003474,-0.001600,88.401470,0.003478,
1190,110,0.005835,-4.902848,0.999998,0.000149,-0.000149,0.001601,0.000035,0.001602,-0.000150,88.866897,0.001769,
870,840,0.600638,-3.050236,0.999999,0.000149,-0.001565,0.002987,0.000280,0.003004,-0.001582,86.496036,0.003005,
1590,1670,-0.269729,-0.757177,0.999998,0.000180,-0.001022,0.002344,-0.000057,0.002345,-0.001023,-89.029991,0.002352,
1880,1460,-0.771404,-1.512910,0.999998,0.000184,-0.001274,0.002563,0.000000,0.002563,-0.001274,-89.997710,0.002564,
870,1130,0.697751,-2.239451,0.999998,0.000178,-0.001231,0.002846,-0.000367,0.002878,-0.001264,-84.894466,0.002886,
1670,460,-0.405213,-4.041079,0.999998,0.000157,-0.001238,0.002529,0.000086,0.002531,-0.001240,88.697642,0.002531,
1320,1430,-0.056811,-1.045199,0.999999,0.000151,-0.000765,0.001666,-0.000455,0.001748,-0.000847,-79.742681,0.001749,
1140,690,0.057475,-3.885459,0.999998,0.000149,-0.000840,0.001606,-0.000713,0.001799,-0.001033,-74.887859,0.001805,
590,1860,0.411348,-0.505568,0.999996,0.000216,-0.001241,0.002491,-0.000102,0.002494,-0.001244,-88.435436,0.002494,
1040,1550,0.142161,-0.904197,0.999998,0.000165,-0.000952,0.002061,0.000312,0.002092,-0.000984,84.155144,0.002094,
1760,1280,-0.773966,-1.895106,0.999998,0.000174,-0.001327,0.002605,0.000207,0.002616,-0.001338,87.000711,0.002616,
900,330,0.211210,-4.427200,0.999998,0.000164,-0.000922,0.002251,-0.000022,0.002251,-0.000922,-89.610537,0.002263,
1340,1820,-0.039151,-0.350049,0.999998,0.000149,-0.000405,0.001770,-0.000005,0.001770,-0.000405,-89.870500,0.001855,
1840,210,-0.391290,-4.536061,0.999998,0.000151,-0.001214,0.002570,-0.000110,0.002573,-0.001217,-88.329439,0.002574,
1410,560,-0.137930,-4.030732,0.999998,0.000156,-0.001043,0.002090,0.000450,0.002153,-0.001106,81.991319,0.002153,
1390,1630,-0.101976,-0.720240,0.999998,0.000153,-0.000790,0.001979,-0.000190,0.001992,-0.000803,-86.098467,0.002004,
660,300,0.445212,-4.337746,0.999998,0.000196,-0.001208,0.002562,0.000065,0.002563,-0.001209,89.010423,0.002564,
1440,700,-0.203768,-3.666791,0.999998,0.000193,-0.001562,0.002616,0.000655,0.002716,-0.001663,81.293046,0.002739,
1690,1590,-0.433789,-1.028835,0.999998,0.000167,-0.001261,0.002531,-0.000078,0.002532,-0.001262,-88.829194,0.002532,
880,1670,0.261497,-0.752246,0.999998,0.000194,-0.001054,0.002372,0.000056,0.002373,-0.001055,89.059467,0.002377,
1650,890,-0.735746,-2.881912,0.999998,0.000161,-0.001298,0.002713,-0.000308,0.002737,-0.001322,-85.628942,0.002737,
650,1940,0.207125,-0.228877,0.999998,0.000153,-0.000862,0.002606,-0.000638,0.002719,-0.000976,-79.894621,0.002755,
780,1700,0.350423,-0.749518,0.999998,0.000168,-0.001111,0.002414,-0.000008,0.002414,-0.001111,-89.876660,0.002416,
1160,1180,0.210134,-1.334720,0.999997,0.000000,-0.001294,0.000691,0.000221,0.000715,-0.001318,83.727657,0.001320,
830,870,0.694325,-2.943776,0.999998,0.000176,-0.001393,0.002829,0.000355,0.002859,-0.001423,85.228667,0.002859,
1040,1140,0.436126,-1.996248,0.999998,0.000166,-0.001658,0.003619,0.000674,0.003704,-0.001743,82.832045,0.003706,
1480,430,-0.179482,-4.254856,0.999998,0.000156,-0.000961,0.002203,0.000191,0.002215,-0.000972,86.554683,0.002220,
830,440,0.348001,-4.119476,0.999997,0.000212,-0.001193,0.002444,-0.000104,0.002447,-0.001196,-88.358924,0.002447,
1900,1860,-0.443891,-0.537945,0.999998,0.000000,-0.001184,0.002394,0.000102,0.002397,-0.001187,88.362057,0.002397,
1610,200,-0.160863,-4.692352,0.999998,0.000164,-0.000702,0.002118,-0.000267,0.002143,-0.000727,-84.635491,0.002180,
700,720,0.726822,-3.288923,0.999998,0.000173,-0.001344,0.002620,0.000151,0.002626,-0.001349,87.821540,0.002627,
1680,1330,-0.613178,-1.714067,0.999998,0.000172,-0.001467,0.002762,0.000132,0.002766,-0.001471,88.209527,0.002768,
1810,640,-0.719108,-3.466413,0.999997,0.000200,-0.001305,0.002581,-0.000045,0.002581,-0.001306,-89.343727,0.002581,
1290,1590,-0.035717,-0.753322,0.999998,0.000156,-0.000628,0.001775,-0.000102,0.001779,-0.000632,-87.572059,0.001804,
1800,1250,-0.851765,-1.988199,0.999998,0.000146,-0.001230,0.002476,0.000217,0.002489,-0.001243,86.658333,0.002489,
1480,950,-0.588051,-2.790422,0.999997,0.000192,-0.001335,0.003531,-0.000196,0.003539,-0.001343,-87.700756,0.003573,
1590,1760,-0.215314,-0.548746,0.999999,0.000135,-0.000927,0.002252,0.000050,0.002253,-0.000928,89.094894,0.002264,
1190,90,0.004922,-4.932912,0.999999,0.000159,-0.000106,0.001539,0.000038,0.001540,-0.000106,88.660750,0.001720,
1860,1220,-0.946637,-2.089307,0.999999,0.000126,-0.001143,0.002334,0.000125,0.002338,-0.001147,87.941240,0.002338,
1630,1560,-0.375598,-1.054634,0.999997,0.000184,-0.001282,0.002525,-0.000121,0.002529,-0.001286,-88.181422,0.002529,
1120,690,0.075493,-3.856182,0.999998,0.000180,-0.000991,0.001781,-0.000747,0.001970,-0.001179,-75.841852,0.001982,
1670,440,-0.392126,-4.090952,0.999998,0.000190,-0.001218,0.002495,0.000064,0.002496,-0.001219,89.018861,0.002496,
1820,440,-0.580842,-3.969974,0.999998,0.000170,-0.001239,0.002532,0.000046,0.002533,-0.001240,89.295600,0.002533,
1270,1300,-0.021101,-1.165413,0.999999,0.000133,-0.000617,0.000888,-0.000518,0.001049,-0.000778,-72.731303,0.001089,
870,820,0.576505,-3.108848,0.999998,0.000175,-0.001599,0.002986,0.000239,0.002999,-0.001611,87.025506,0.003002,
870,370,0.263911,-4.316691,0.999998,0.000166,-0.001043,0.002322,-0.000048,0.002322,-0.001043,-89.177396,0.002326,
910,930,0.653943,-2.800335,0.999998,0.000173,-0.001240,0.002966,0.000359,0.002997,-0.001270,85.161210,0.003008,
1440,680,-0.195666,-3.720274,0.999998,0.000181,-0.001447,0.002517,0.000639,0.002617,-0.001547,81.064850,0.002631,
900,310,0.200113,-4.471625,0.999998,0.000179,-0.000863,0.002236,0.000024,0.002236,-0.000863,89.552780,0.002255,
600,910,0.999247,-2.778008,0.999997,0.000191,-0.001086,0.002236,0.000091,0.002238,-0.001089,88.435026,0.002238,
1410,1360,-0.158416,-1.307173,0.999998,0.000165,-0.001410,0.002415,-0.000744,0.002555,-0.001550,-79.373412,0.002574,
1340,1800,-0.043130,-0.386092,0.999998,0.000158,-0.000452,0.001756,-0.000013,0.001756,-0.000453,-89.657593,0.001823,
1570,70,-0.034319,-4.955495,0.999999,0.000124,-0.000210,0.001781,-0.000334,0.001836,-0.000265,-80.718903,0.001984,
590,1890,0.366159,-0.428958,0.999998,0.000175,-0.001193,0.002602,-0.000143,0.002608,-0.001198,-87.838622,0.002610,
580,1560,0.699016,-1.258925,0.999998,0.000159,-0.001768,0.002405,-0.000036,0.002406,-0.001769,-89.504249,0.002493,
1760,1480,-0.600783,-1.368627,0.999997,0.000199,-0.001349,0.002596,-0.000010,0.002596,-0.001349,-89.854370,0.002596,
740,1460,0.564926,-1.391988,0.999997,0.000195,-0.001351,0.002623,-0.000003,0.002623,-0.001351,-89.949754,0.002623,
1400,1550,-0.121448,-0.888644,0.999998,0.000146,-0.000875,0.002031,-0.000281,0.002058,-0.000902,-84.534011,0.002063,
1390,1610,-0.105635,-0.759766,0.999998,0.000159,-0.000836,0.001966,-0.000220,0.001983,-0.000853,-85.539708,0.001989,
1300,1810,-0.024999,-0.362505,0.999998,0.000138,-0.000365,0.001711,0.000023,0.001711,-0.000366,89.372718,0.001802,
780,1680,0.365673,-0.797243,0.999998,0.000176,-0.001150,0.002479,0.000016,0.002479,-0.001150,89.745989,0.002481,
1410,540,-0.135557,-4.073743,0.999999,0.000146,-0.000955,0.002097,0.000376,0.002142,-0.001001,83.080938,0.002144,
820,630,0.479480,-3.618735,0.999997,0.000205,-0.001474,0.002715,-0.000057,0.002716,-0.001474,-89.222539,0.002719,
1700,80,-0.080028,-4.923588,0.999999,0.000130,-0.000330,0.001991,-0.000583,0.002129,-0.000468,-76.662788,0.002238,
610,360,0.559076,-4.144980,0.999997,0.000194,-0.001238,0.002511,-0.000033,0.002512,-0.001239,-89.500806,0.002512,
660,720,0.778947,-3.263453,0.999998,0.000161,-0.001286,0.002570,0.000125,0.002574,-0.001290,88.152699,0.002574,
1900,1850,-0.457481,-0.560183,0.999998,0.000000,-0.001191,0.002348,0.000117,0.002352,-0.001195,88.113269,0.002352,
1160,1190,0.175064,-1.324826,0.999998,0.000000,-0.001317,0.000751,0.000223,0.000774,-0.001341,83.915345,0.001346,
950,1350,0.327028,-1.498175,0.999997,0.000187,-0.001675,0.002893,0.000335,0.002918,-0.001700,85.825575,0.002931,
1590,1650,-0.280176,-0.804562,0.999998,0.000166,-0.001043,0.002382,-0.000065,0.002383,-0.001044,-88.913763,0.002389,
1540,330,-0.191668,-4.438879,0.999998,0.000192,-0.000811,0.002227,-0.000016,0.002227,-0.000811,-89.707324,0.002254,
700,700,0.708382,-3.342190,0.999998,0.000174,-0.001351,0.002629,0.000127,0.002633,-0.001355,88.172458,0.002633,
830,850,0.670542,-2.999850,0.999998,0.000171,-0.001439,0.002831,0.000326,0.002855,-0.001464,85.652195,0.002856,
1040,1120,0.476701,-2.074425,0.999997,0.000203,-0.001645,0.003833,0.000822,0.003954,-0.001765,81.645127,0.003961,
1790,640,-0.692310,-3.479942,0.999998,0.000159,-0.001313,0.002602,-0.000048,0.002603,-0.001314,-89.294118,0.002603,
1480,1120,-0.565920,-2.196240,0.999998,0.000173,-0.001448,0.003538,0.000171,0.003543,-0.001454,88.043411,0.003562,
1660,1330,-0.584398,-1.699093,0.999998,0.000162,-0.001518,0.002807,0.000110,0.002810,-0.001521,88.543971,0.002813,
1240,1320,-0.005572,-1.129779,0.999999,0.000131,-0.000458,0.000839,-0.000102,0.000847,-0.000466,-85.525588,0.000849,
940,450,0.226355,-4.179984,0.999998,0.000179,-0.001052,0.002314,-0.000175,0.002323,-0.001061,-87.031379,0.002326,
870,1110,0.718821,-2.296701,0.999998,0.000182,-0.001140,0.002801,-0.000305,0.002824,-0.001163,-85.599130,0.002839,
1760,990,-0.919749,-2.610696,0.999998,0.000162,-0.001084,0.002387,-0.000066,0.002389,-0.001085,-88.904502,0.002392,
1100,630,0.095237,-3.940380,0.999999,0.000143,-0.000958,0.001925,-0.000557,0.002028,-0.001062,-79.435746,0.002029,
1230,60,0.000673,-4.979834,0.999999,0.000120,-0.000066,0.001522,-0.000008,0.001522,-0.000066,-89.702254,0.001720,
1210,120,0.003608,-4.885880,0.999999,0.000147,-0.000150,0.001571,-0.000001,0.001571,-0.000150,-89.978165,0.001734,
700,1330,0.730312,-1.764497,0.999998,0.000203,-0.001343,0.002620,-0.000168,0.002627,-0.001350,-87.574267,0.002627,
870,1560,0.330528,-1.024128,0.999998,0.000159,-0.001242,0.002480,0.000162,0.002487,-0.001249,87.514743,0.002487,
1630,1540,-0.387301,-1.106573,0.999998,0.000165,-0.001325,0.002545,-0.000128,0.002549,-0.001329,-88.107964,0.002550,
1860,1240,-0.932001,-2.044078,0.999999,0.000137,-0.001154,0.002340,0.000099,0.002343,-0.001157,88.382878,0.002343,
1820,830,-0.895745,-2.981669,0.999999,0.000130,-0.001180,0.002383,-0.000164,0.002391,-0.001187,-87.370638,0.002391,
750,1260,0.729758,-1.923238,0.999998,0.000169,-0.001397,0.002661,-0.000244,0.002676,-0.001412,-86.569664,0.002677,
1440,660,-0.191949,-3.768817,0.999998,0.000187,-0.001376,0.002439,0.000602,0.002531,-0.001469,81.246706,0.002542,
590,1880,0.381357,-0.454809,0.999998,0.000191,-0.001201,0.002576,-0.000128,0.002580,-0.001205,-88.058193,0.002582,
1370,1660,-0.083675,-0.653333,0.999998,0.000159,-0.000640,0.001881,-0.000104,0.001885,-0.000645,-87.639819,0.001916,
1340,1780,-0.047443,-0.420584,0.999998,0.000164,-0.000510,0.001831,-0.000022,0.001831,-0.000510,-89.457454,0.001890,
1190,510,0.026720,-4.211335,0.999999,0.000132,-0.000634,0.001701,-0.000091,0.001704,-0.000637,-87.763753,0.001722,
1650,870,-0.715998,-2.936376,0.999998,0.000168,-0.001349,0.002785,-0.000323,0.002810,-0.001375,-85.553564,0.002810,
1070,260,0.067733,-4.635151,0.999999,0.000148,-0.000465,0.001841,0.000029,0.001841,-0.000465,89.272372,0.001914,
780,1660,0.378219,-0.846631,0.999998,0.000167,-0.001165,0.002461,0.000036,0.002461,-0.001166,89.426481,0.002463,
1850,1240,-0.919518,-2.038599,0.999998,0.000140,-0.001170,0.002360,0.000120,0.002364,-0.001174,88.055579,0.002364,
1290,1570,-0.036154,-0.786844,0.999999,0.000135,-0.000648,0.001759,-0.000112,0.001764,-0.000653,-87.334601,0.001784,
1760,760,-0.758506,-3.185257,0.999998,0.000168,-0.001281,0.002615,-0.000198,0.002625,-0.001291,-87.094451,0.002625,
740,1440,0.581582,-1.443680,0.999997,0.000187,-0.001374,0.002653,-0.000016,0.002653,-0.001374,-89.773617,0.002653,
1820,420,-0.565221,-4.022394,0.999998,0.000170,-0.001230,0.002535,0.000037,0.002535,-0.001230,89.437938,0.002536,
1480,930,-0.555352,-2.861613,0.999998,0.000172,-0.001507,0.003498,-0.000151,0.003503,-0.001512,-88.274110,0.003514,
1280,1810,-0.017145,-0.361572,0.999999,0.000133,-0.000354,0.001710,0.000010,0.001710,-0.000354,89.731966,0.001806,
820,610,0.464394,-3.673715,0.999997,0.000192,-0.001451,0.002727,-0.000078,0.002728,-0.001452,-88.934353,0.002730,
1390,1590,-0.108178,-0.799801,0.999999,0.000140,-0.000850,0.001994,-0.000275,0.002020,-0.000877,-84.528851,0.002026,
1560,1980,-0.036323,-0.094760,0.999999,0.000135,-0.000185,0.001744,0.000313,0.001793,-0.000235,81.020259,0.001949,
950,1330,0.339390,-1.557903,0.999998,0.000167,-0.001742,0.002960,0.000311,0.002980,-0.001762,86.232523,0.002997,
1040,940,0.486849,-2.945077,0.999997,0.000202,-0.001669,0.003922,-0.000874,0.004055,-0.001803,-81.324434,0.004064,
830,830,0.651036,-3.056497,0.999998,0.000176,-0.001478,0.002881,0.000310,0.002902,-0.001500,85.955558,0.002903,
1900,1840,-0.469710,-0.585027,0.999997,0.000000,-0.001236,0.002367,0.000130,0.002372,-0.001241,87.937275,0.002372,
660,740,0.796170,-3.215312,0.999998,0.000156,-0.001290,0.002532,0.000158,0.002539,-0.001296,87.630445,0.002539,
1210,1200,0.057958,-1.214675,0.999998,0.000000,-0.002342,0.000787,-0.000093,0.000789,-0.002345,-88.298092,0.002386,
1700,60,-0.053487,-4.962605,0.999999,0.000109,-0.000229,0.001907,-0.000573,0.002051,-0.000373,-75.892472,0.002185,
700,1120,0.901914,-2.296830,0.999998,0.000147,-0.001136,0.002442,-0.000191,0.002453,-0.001147,-86.947134,0.002454,
960,1130,0.581103,-2.187798,0.999998,0.000173,-0.001426,0.003288,-0.000280,0.003305,-0.001443,-86.608465,0.003314,
1480,1100,-0.596706,-2.268453,0.999997,0.000186,-0.001321,0.003519,0.000175,0.003525,-0.001327,87.929215,0.003561,
1410,460,-0.124612,-4.236609,0.999998,0.000157,-0.000845,0.002032,0.000223,0.002049,-0.000862,85.586216,0.002058,
1860,70,-0.157616,-4.884655,0.999999,0.000147,-0.001104,0.002861,-0.000740,0.002994,-0.001238,-79.764217,0.003009,
1460,790,-0.300136,-3.371214,0.999998,0.000186,-0.001925,0.003101,0.000473,0.003145,-0.001969,84.668928,0.003178,
1060,1410,0.139169,-1.182768,0.999998,0.000148,-0.001207,0.002187,0.000613,0.002294,-0.001314,80.066667,0.002302,
730,1260,0.757077,-1.931924,0.999998,0.000171,-0.001327,0.002616,-0.000247,0.002632,-0.001343,-86.431555,0.002632,
1400,1430,-0.133625,-1.136600,0.999998,0.000152,-0.001146,0.002118,-0.000577,0.002217,-0.001245,-80.263571,0.002222,
1440,230,-0.080789,-4.679547,0.999998,0.000162,-0.000490,0.001899,-0.000062,0.001901,-0.000492,-88.514471,0.001973,
1590,1630,-0.291122,-0.852356,0.999998,0.000171,-0.001098,0.002380,-0.000088,0.002383,-0.001100,-88.558548,0.002385,
950,120,0.056162,-4.869908,0.999998,0.000165,-0.000293,0.001779,0.000222,0.001803,-0.000316,83.954815,0.001925,
1100,610,0.094987,-3.978458,0.999999,0.000140,-0.000919,0.001888,-0.000518,0.001981,-0.001011,-79.874829,0.001981,
1480,450,-0.185710,-4.209858,0.999998,0.000155,-0.000976,0.002234,0.000215,0.002248,-0.000990,86.192020,0.002254,
1650,660,-0.511969,-3.530628,0.999998,0.000193,-0.001471,0.002781,0.000022,0.002782,-0.001471,89.698700,0.002783,
870,1540,0.339320,-1.074740,0.999997,0.000193,-0.001271,0.002513,0.000172,0.002521,-0.001279,87.407911,0.002521,
1190,530,0.028246,-4.177709,0.999999,0.000141,-0.000628,0.001694,-0.000120,0.001700,-0.000635,-87.055366,0.001718,
870,1070,0.745997,-2.406742,0.999998,0.000190,-0.000979,0.002718,-0.000197,0.002729,-0.000989,-86.951288,0.002763,
570,1500,0.764886,-1.433679,0.999892,0.001187,-0.001886,0.002407,0.000344,0.002434,-0.001914,85.442877,0.002564,
1440,640,-0.186325,-3.817562,0.999998,0.000166,-0.001324,0.002380,0.000565,0.002464,-0.001408,81.522899,0.002472,
910,910,0.631438,-2.860160,0.999998,0.000165,-0.001360,0.003052,0.000363,0.003082,-0.001390,85.327682,0.003087,
660,910,0.933045,-2.795285,0.999998,0.000146,-0.001120,0.002347,0.000155,0.002354,-0.001127,87.443707,0.002355,
890,60,0.028951,-4.971936,0.999999,0.000111,-0.000177,0.001699,0.000332,0.001756,-0.000234,80.256270,0.001907,
1630,1640,-0.330598,-0.856496,0.999998,0.000172,-0.001157,0.002450,-0.000076,0.002451,-0.001159,-88.792217,0.002453,
1770,830,-0.835766,-3.001616,0.999998,0.000167,-0.001259,0.002539,-0.000243,0.002555,-0.001275,-86.347838,0.002555,
1900,1830,-0.484547,-0.608906,0.999997,0.000000,-0.001263,0.002361,0.000145,0.002367,-0.001269,87.713470,0.002369,
1390,1570,-0.110948,-0.839998,0.999999,0.000142,-0.000859,0.002018,-0.000294,0.002047,-0.000889,-84.222389,0.002053,
780,1640,0.391804,-0.894480,0.999998,0.000168,-0.001177,0.002498,0.000052,0.002498,-0.001178,89.182590,0.002500,
660,850,0.891849,-2.939948,0.999998,0.000149,-0.001184,0.002451,0.000213,0.002464,-0.001197,86.656920,0.002464,
1210,860,0.069680,-3.839969,0.999982,0.000000,-0.002201,0.000012,-0.000012,0.000012,-0.002201,-89.684458,0.002534,
1040,920,0.446540,-3.023531,0.999997,0.000186,-0.001667,0.003645,-0.000696,0.003735,-0.001757,-82.656441,0.003737,
830,810,0.627956,-3.114179,0.999997,0.000193,-0.001512,0.002879,0.000269,0.002895,-0.001529,86.504455,0.002897,
660,760,0.815678,-3.162737,0.999998,0.000140,-0.001279,0.002497,0.000172,0.002505,-0.001286,87.401339,0.002505,
1560,1960,-0.049801,-0.128413,0.999999,0.000143,-0.000238,0.001777,0.000316,0.001825,-0.000286,81.306490,0.001964,
620,1110,0.997086,-2.335974,0.999998,0.000180,-0.001087,0.002242,-0.000101,0.002245,-0.001090,-88.272346,0.002246,
1630,1420,-0.462702,-1.423351,0.999996,0.000217,-0.001482,0.002747,-0.000074,0.002748,-0.001483,-89.004452,0.002751,
1120,1810,0.042787,-0.368855,0.999998,0.000156,-0.000419,0.001772,-0.000022,0.001772,-0.000420,-89.414819,0.001852,
700,1140,0.890786,-2.247715,0.999998,0.000155,-0.001163,0.002481,-0.000173,0.002489,-0.001171,-87.284595,0.002491,
670,660,0.712806,-3.426475,0.999998,0.000183,-0.001334,0.002612,0.000086,0.002614,-0.001336,88.755239,0.002614,
1420,2000,-0.011105,-0.054678,0.999999,0.000135,-0.000096,0.001558,0.000114,0.001565,-0.000104,86.072377,0.001751,
1830,1240,-0.896437,-2.027509,0.999999,0.000126,-0.001192,0.002408,0.000148,0.002415,-0.001198,87.651056,0.002415,
1290,1550,-0.036614,-0.824253,0.999999,0.000132,-0.000640,0.001756,-0.000141,0.001765,-0.000648,-86.643881,0.001785,
1720,360,-0.395553,-4.254109,0.999998,0.000176,-0.001181,0.002477,-0.000028,0.002478,-0.001181,-89.564613,0.002478,
1440,790,-0.261247,-3.414350,0.999998,0.000185,-0.001891,0.003029,0.000627,0.003108,-0.001969,82.845398,0.003144,
1820,400,-0.550439,-4.071261,0.999997,0.000197,-0.001256,0.002496,0.000024,0.002496,-0.001257,89.627649,0.002496,
1190,550,0.025536,-4.143550,0.999998,0.000150,-0.000633,0.001645,-0.000126,0.001652,-0.000640,-86.833593,0.001666,
1410,600,-0.142704,-3.945675,0.999998,0.000151,-0.001127,0.002180,0.000504,0.002255,-0.001202,81.519379,0.002257,
1690,1990,-0.058957,-0.083799,0.999999,0.000148,-0.000288,0.001919,0.000552,0.002050,-0.000418,76.702995,0.002166,
910,890,0.604391,-2.922832,0.999998,0.000158,-0.001493,0.003069,0.000360,0.003097,-0.001522,85.511164,0.003097,
1850,360,-0.554391,-4.146007,0.999997,0.000197,-0.001206,0.002484,0.000023,0.002484,-0.001206,89.646763,0.002484,
1090,1740,0.070364,-0.501482,0.999998,0.000168,-0.000527,0.001893,0.000013,0.001893,-0.000527,89.688568,0.001954,
1850,500,-0.662420,-3.795099,0.999998,0.000163,-0.001274,0.002545,0.000024,0.002545,-0.001274,89.634752,0.002545,
1440,620,-0.181162,-3.864743,0.999998,0.000172,-0.001273,0.002326,0.000537,0.002404,-0.001351,81.697762,0.002410,
740,1420,0.597681,-1.498851,0.999997,0.000188,-0.001386,0.002680,-0.000036,0.002680,-0.001386,-89.487088,0.002680,
1440,1430,-0.181993,-1.188183,0.999998,0.000153,-0.001281,0.002318,-0.000559,0.002403,-0.001366,-81.369920,0.002410,
1050,1160,0.376501,-1.888661,0.999998,0.000159,-0.001697,0.003341,0.000767,0.003455,-0.001811,81.531390,0.003456,
1860,1260,-0.915922,-1.996224,0.999999,0.000146,-0.001168,0.002390,0.000110,0.002394,-0.001172,88.225342,0.002394,
1240,1340,-0.003248,-1.111593,0.999999,0.000133,-0.000459,0.000991,-0.000104,0.000999,-0.000466,-85.912717,0.000999,
1540,530,-0.278654,-3.975165,0.999998,0.000157,-0.001272,0.002472,0.000257,0.002489,-0.001290,86.092926,0.002490,
1630,680,-0.498758,-3.491049,0.999997,0.000198,-0.001561,0.002808,0.000005,0.002808,-0.001561,89.934982,0.002814,
950,1310,0.357090,-1.617495,0.999998,0.000156,-0.001814,0.003027,0.000275,0.003043,-0.001829,86.755397,0.003063,
1650,850,-0.697397,-2.992473,0.999998,0.000167,-0.001404,0.002798,-0.000311,0.002821,-0.001427,-85.787468,0.002821,
1340,1760,-0.051317,-0.458271,0.999998,0.000162,-0.000537,0.001823,-0.000028,0.001824,-0.000537,-89.329231,0.001874,
820,490,0.389299,-3.987121,0.999997,0.000174,-0.001258,0.002531,-0.000100,0.002534,-0.001260,-88.485768,0.002534,
870,1050,0.752861,-2.459448,0.999998,0.000176,-0.000936,0.002646,-0.000110,0.002650,-0.000939,-88.248451,0.002687,
1100,790,0.124957,-3.618744,0.999998,0.000175,-0.001506,0.002204,-0.001118,0.002515,-0.001817,-74.456614,0.002597,
1480,1080,-0.622568,-2.337703,0.999997,0.000183,-0.001204,0.003454,0.000124,0.003457,-0.001207,88.473440,0.003509,
1570,1540,-0.310083,-1.054599,0.999999,0.000160,-0.001267,0.002505,-0.000195,0.002515,-0.001277,-87.042793,0.002515,
1900,1820,-0.497531,-0.632214,0.999997,0.000000,-0.001284,0.002364,0.000130,0.002369,-0.001288,87.953675,0.002372,
780,1620,0.405083,-0.945811,0.999998,0.000168,-0.001223,0.002513,0.000056,0.002514,-0.001224,89.142828,0.002514,
610,1560,0.661080,-1.235951,0.999999,0.000136,-0.001279,0.002550,0.000030,0.002550,-0.001280,89.548433,0.002550,
1820,970,-0.979879,-2.651698,0.999998,0.000154,-0.001075,0.002273,-0.000056,0.002273,-0.001076,-89.047977,0.002275,
1770,870,-0.868001,-2.902299,0.999998,0.000160,-0.001220,0.002486,-0.000235,0.002501,-0.001235,-86.390345,0.002501,
870,60,0.031245,-4.968826,0.999999,0.000108,-0.000183,0.001746,0.000371,0.001815,-0.000252,79.489639,0.001967,
1390,1550,-0.113029,-0.882816,0.999998,0.000138,-0.000865,0.002013,-0.000306,0.002045,-0.000897,-84.005163,0.002051,
1320,670,-0.056557,-3.921932,0.999998,0.000149,-0.000825,0.001592,0.000620,0.001742,-0.000974,76.425732,0.001746,
830,790,0.606252,-3.170989,0.999997,0.000190,-0.001546,0.002880,0.000219,0.002891,-0.001557,87.173865,0.002894,
890,120,0.073467,-4.862774,0.999999,0.000137,-0.000393,0.001900,0.000314,0.001943,-0.000435,82.331314,0.002039,
1040,900,0.405744,-3.099074,0.999998,0.000184,-0.001732,0.003527,-0.000597,0.003594,-0.001799,-83.599664,0.003594,
1210,30,0.001089,-5.023999,0.999999,0.000000,0.000007,0.001504,0.000005,0.001504,0.000007,89.811858,0.001740,
1760,870,-0.854756,-2.904711,0.999998,0.000176,-0.001226,0.002511,-0.000247,0.002527,-0.001242,-86.235380,0.002527,
820,1430,0.475667,-1.408494,0.999997,0.000207,-0.001469,0.002712,0.000070,0.002713,-0.001470,89.034903,0.002717,
1560,1940,-0.064768,-0.165590,0.999998,0.000147,-0.000284,0.001877,0.000317,0.001922,-0.000329,81.813459,0.002056,
660,780,0.832142,-3.112797,0.999998,0.000147,-0.001256,0.002494,0.000197,0.002504,-0.001266,87.003771,0.002504,
700,1160,0.880130,-2.198183,0.999998,0.000156,-0.001193,0.002478,-0.000217,0.002491,-0.001205,-86.625504,0.002492,
1690,1970,-0.083048,-0.124540,0.999998,0.000149,-0.000358,0.001985,0.000529,0.002099,-0.000472,77.853082,0.002202,
1520,1010,-0.687809,-2.571359,0.999997,0.000211,-0.000922,0.003039,-0.000099,0.003041,-0.000924,-88.564576,0.003118,
1610,1580,-0.340071,-0.988360,0.999998,0.000183,-0.001247,0.002484,-0.000138,0.002489,-0.001252,-87.889752,0.002489,
1420,1430,-0.157069,-1.160987,0.999999,0.000140,-0.001204,0.002218,-0.000560,0.002307,-0.001293,-80.943034,0.002313,
690,1020,0.938656,-2.537889,0.999998,0.000165,-0.001076,0.002422,0.000044,0.002423,-0.001076,89.274384,0.002428,
1850,340,-0.538507,-4.197344,0.999998,0.000179,-0.001202,0.002528,0.000058,0.002529,-0.001203,89.104430,0.002530,
1820,380,-0.534133,-4.122211,0.999998,0.000189,-0.001258,0.002514,0.000031,0.002514,-0.001258,89.526753,0.002514,
1720,1330,-0.672352,-1.738922,0.999998,0.000235,-0.001409,0.002694,0.000170,0.002701,-0.001416,87.631249,0.002702,
910,870,0.575804,-2.984114,0.999998,0.000170,-0.001564,0.003118,0.000332,0.003141,-0.001588,85.960580,0.003141,
830,500,0.382306,-3.969316,0.999997,0.000177,-0.001274,0.002518,-0.000098,0.002520,-0.001277,-88.513944,0.002520,
1550,1740,-0.193262,-0.573044,0.999998,0.000198,-0.000804,0.002193,0.000023,0.002193,-0.000804,89.568177,0.002219,
1540,510,-0.270669,-4.024095,0.999998,0.000167,-0.001238,0.002407,0.000230,0.002421,-0.001252,86.405376,0.002422,
1130,1990,0.006462,-0.068136,0.999999,0.000109,-0.000091,0.001545,-0.000069,0.001548,-0.000094,-87.587219,0.001735,
1440,600,-0.177012,-3.912440,0.999998,0.000151,-0.001214,0.002298,0.000487,0.002364,-0.001280,82.243305,0.002367,
1290,1530,-0.037129,-0.857836,0.999999,0.000141,-0.000647,0.001739,-0.000171,0.001751,-0.000659,-85.914607,0.001769,
740,1400,0.614175,-1.551547,0.999997,0.000195,-0.001394,0.002660,-0.000065,0.002661,-0.001395,-89.085851,0.002662,
1100,1810,0.051887,-0.371977,0.999999,0.000135,-0.000395,0.001796,-0.000025,0.001796,-0.000395,-89.354793,0.001888,
1650,830,-0.675316,-3.048843,0.999998,0.000170,-0.001440,0.002785,-0.000305,0.002807,-0.001462,-85.894472,0.002807,
1270,380,-0.021139,-4.440432,0.999998,0.000179,-0.000558,0.001751,0.000036,0.001751,-0.000559,89.095085,0.001789,
1850,480,-0.647726,-3.845007,0.999998,0.000177,-0.001270,0.002517,0.000024,0.002517,-0.001270,89.643550,0.002517,
740,910,0.842304,-2.812580,0.999998,0.000149,-0.001167,0.002523,0.000237,0.002538,-0.001182,86.340103,0.002540,
860,1750,0.234936,-0.578147,0.999998,0.000179,-0.000930,0.002261,-0.000051,0.002262,-0.000931,-89.088587,0.002274,
1050,1140,0.419835,-1.961343,0.999998,0.000164,-0.001600,0.003506,0.000953,0.003678,-0.001773,79.761657,0.003678,
1090,510,0.099418,-4.162119,0.999999,0.000141,-0.000842,0.001956,-0.000328,0.001994,-0.000880,-83.403752,0.001999,
840,350,0.282437,-4.344237,0.999997,0.000193,-0.000982,0.002384,0.000046,0.002385,-0.000982,89.211590,0.002397,
1630,660,-0.483406,-3.546610,0.999997,0.000231,-0.001541,0.002789,0.000050,0.002790,-0.001542,89.333096,0.002795,
940,430,0.219659,-4.226161,0.999998,0.000177,-0.000983,0.002267,-0.000165,0.002275,-0.000991,-87.106556,0.002282,
950,1290,0.372645,-1.675392,0.999997,0.000184,-0.001848,0.003089,0.000218,0.003098,-0.001858,87.479681,0.003119,
1320,650,-0.055768,-3.953956,0.999999,0.000155,-0.000798,0.001623,0.000528,0.001733,-0.000908,78.216371,0.001733,
1880,990,-1.046870,-2.600248,0.999998,0.000161,-0.001016,0.002088,-0.000037,0.002089,-0.001016,-89.315995,0.002089,
1900,1810,-0.509360,-0.654778,0.999997,0.000000,-0.001309,0.002439,0.000087,0.002441,-0.001311,88.677303,0.002443,
870,1030,0.757010,-2.512811,0.999998,0.000184,-0.000931,0.002715,-0.000016,0.002715,-0.000931,-89.746311,0.002760,
830,770,0.585699,-3.230802,0.999997,0.000182,-0.001580,0.002912,0.000176,0.002919,-0.001587,87.756898,0.002923,
1860,1700,-0.563162,-0.888845,0.999998,0.000173,-0.001214,0.002466,-0.000054,0.002466,-0.001214,-89.160220,0.002466,
1340,1740,-0.052892,-0.494747,0.999998,0.000153,-0.000549,0.001820,-0.000051,0.001821,-0.000550,-88.763251,0.001868,
1190,570,0.025954,-4.111758,0.999999,0.000131,-0.000636,0.001580,-0.000136,0.001589,-0.000644,-86.503431,0.001598,
1480,1060,-0.641857,-2.405095,0.999997,0.000201,-0.001104,0.003563,0.000085,0.003564,-0.001106,88.954256,0.003649,
1510,1090,-0.646234,-2.325871,0.999998,0.000167,-0.001121,0.003166,0.000270,0.003183,-0.001138,86.408738,0.003225,
660,70,0.106910,-4.928138,0.999998,0.000138,-0.000381,0.002445,0.001004,0.002765,-0.000702,72.294836,0.002875,
1450,840,-0.344451,-3.232189,0.999998,0.000184,-0.001984,0.003388,0.000402,0.003418,-0.002013,85.746828,0.003436,
1590,1610,-0.299159,-0.899214,0.999998,0.000180,-0.001150,0.002399,-0.000117,0.002403,-0.001154,-88.113032,0.002403,
880,150,0.102143,-4.802786,0.999998,0.000175,-0.000528,0.002000,0.000305,0.002036,-0.000564,83.223621,0.002103,
1280,1410,-0.027809,-1.044237,0.999999,0.000154,-0.000644,0.001434,-0.000322,0.001483,-0.000693,-81.381118,0.001484,
1040,1570,0.138829,-0.863534,0.999999,0.000122,-0.000906,0.002099,0.000268,0.002123,-0.000930,84.943424,0.002128,
1560,1920,-0.080510,-0.203851,0.999998,0.000149,-0.000366,0.001910,0.000281,0.001944,-0.000401,83.073511,0.002053,
700,1180,0.863554,-2.148233,0.999998,0.000161,-0.001207,0.002494,-0.000246,0.002510,-0.001223,-86.220249,0.002511,
1570,1520,-0.320410,-1.105819,0.999998,0.000193,-0.001296,0.002552,-0.000188,0.002561,-0.001305,-87.206059,0.002561,
740,1990,0.065295,-0.089057,0.999999,0.000128,-0.000228,0.001985,-0.000649,0.002161,-0.000405,-74.810924,0.002297,
1680,1870,-0.196085,-0.337499,0.999999,0.000142,-0.000823,0.002329,0.000329,0.002362,-0.000857,84.111768,0.002392,
1690,1950,-0.107225,-0.163870,0.999998,0.000155,-0.000447,0.002101,0.000543,0.002212,-0.000558,78.453119,0.002301,
1520,1470,-0.276702,-1.182633,0.999998,0.000189,-0.001351,0.002520,-0.000326,0.002547,-0.001379,-85.218913,0.002550,
660,1470,0.664870,-1.427846,0.999998,0.000145,-0.001297,0.002588,-0.000004,0.002588,-0.001297,-89.945276,0.002588,
1110,60,0.006450,-4.978801,0.999999,0.000146,-0.000068,0.001540,0.000092,0.001545,-0.000073,86.749449,0.001743,
1240,1360,-0.004083,-1.090021,0.999999,0.000137,-0.000481,0.001089,-0.000091,0.001094,-0.000486,-86.682163,0.001097,
1740,1330,-0.699866,-1.749547,0.999998,0.000162,-0.001389,0.002643,0.000174,0.002650,-0.001396,87.538432,0.002652,
1410,2000,-0.010159,-0.054564,0.999999,0.000138,-0.000086,0.001566,0.000110,0.001573,-0.000093,86.203037,0.001766,
1040,140,0.040962,-4.843181,0.999998,0.000134,-0.000299,0.001714,0.000112,0.001720,-0.000305,86.831023,0.001835,
1780,360,-0.468959,-4.206035,0.999998,0.000184,-0.001205,0.002517,0.000001,0.002517,-0.001205,89.977931,0.002518,
910,1740,0.195121,-0.573651,0.999998,0.000164,-0.000791,0.002191,-0.000043,0.002191,-0.000792,-89.168857,0.002219,
1760,1690,-0.448818,-0.830526,0.999997,0.000176,-0.001210,0.002541,-0.000022,0.002541,-0.001210,-89.666777,0.002542,
1390,1530,-0.114593,-0.922507,0.999999,0.000126,-0.000902,0.001984,-0.000328,0.002020,-0.000938,-83.603962,0.002022,
740,1380,0.630342,-1.605121,0.999997,0.000202,-0.001412,0.002666,-0.000092,0.002668,-0.001414,-88.701826,0.002669,
1540,430,-0.238590,-4.213726,0.999998,0.000146,-0.001072,0.002319,0.000150,0.002325,-0.001079,87.475378,0.002327,
910,850,0.549384,-3.048554,0.999998,0.000177,-0.001627,0.003142,0.000252,0.003155,-0.001641,86.978246,0.003156,
580,130,0.317572,-4.690087,0.999997,0.000234,-0.000986,0.002709,0.000476,0.002769,-0.001046,82.780015,0.002797,
1290,1510,-0.037338,-0.893398,0.999999,0.000137,-0.000668,0.001698,-0.000215,0.001718,-0.000687,-84.847927,0.001729,
1440,1020,-0.602013,-2.552994,0.999997,0.000231,-0.001736,0.004640,0.000073,0.004641,-0.001737,89.341372,0.004690,
1010,720,0.234279,-3.591655,0.999997,0.000205,-0.001675,0.002738,-0.000602,0.002819,-0.001756,-82.369248,0.002847,
590,1020,1.046901,-2.537250,0.999998,0.000169,-0.001007,0.002171,0.000044,0.002171,-0.001008,89.198182,0.002173,
1290,380,-0.032403,-4.438608,0.999999,0.000130,-0.000533,0.001788,0.000026,0.001788,-0.000534,89.347323,0.001836,
1900,1800,-0.520002,-0.679974,0.999998,0.000000,-0.001294,0.002491,0.000052,0.002492,-0.001294,89.219046,0.002492,
1030,1140,0.452315,-2.028962,0.999998,0.000171,-0.001669,0.003686,0.000457,0.003725,-0.001708,85.158398,0.003729,
1880,980,-1.045208,-2.621330,0.999998,0.000172,-0.001005,0.002085,-0.000011,0.002085,-0.001005,-89.793451,0.002086,
620,1850,0.387396,-0.494722,0.999997,0.000175,-0.001216,0.002550,-0.000104,0.002553,-0.001219,-88.425443,0.002554,
1650,810,-0.653667,-3.105381,0.999998,0.000180,-0.001481,0.002835,-0.000278,0.002853,-0.001499,-86.333009,0.002855,
1830,500,-0.635646,-3.810830,0.999998,0.000192,-0.001295,0.002547,0.000015,0.002547,-0.001295,89.769809,0.002547,
720,910,0.865039,-2.808066,0.999999,0.000152,-0.001172,0.002476,0.000210,0.002488,-0.001184,86.715594,0.002489,
1130,1970,0.011071,-0.101042,0.999999,0.000143,-0.000122,0.001545,-0.000066,0.001547,-0.000125,-87.724225,0.001719,
950,1270,0.396191,-1.741198,0.999997,0.000184,-0.001865,0.003171,0.000123,0.003174,-0.001868,88.598255,0.003191,
1540,690,-0.361343,-3.551532,0.999998,0.000207,-0.001646,0.002865,0.000251,0.002879,-0.001660,86.822141,0.002891,
1400,1850,-0.055151,-0.305817,0.999999,0.000142,-0.000386,0.001789,0.000076,0.001792,-0.000389,87.991488,0.001885,
1600,1010,-0.760511,-2.567231,0.999999,0.000148,-0.000967,0.002670,-0.000089,0.002672,-0.000970,-88.599367,0.002706,
940,550,0.265472,-3.941223,0.999998,0.000166,-0.001236,0.002465,-0.000295,0.002488,-0.001260,-85.478164,0.002488,
1200,470,0.019485,-4.281795,0.999998,0.000155,-0.000591,0.001725,-0.000086,0.001728,-0.000595,-87.867048,0.001756,
870,1010,0.753851,-2.567393,0.999998,0.000190,-0.000935,0.002704,0.000078,0.002705,-0.000937,88.770396,0.002748,
1860,1680,-0.579522,-0.938701,0.999998,0.000172,-0.001229,0.002489,-0.000020,0.002489,-0.001229,-89.687821,0.002489,
1080,1680,0.087739,-0.620164,0.999998,0.000149,-0.000633,0.001938,0.000075,0.001940,-0.000635,88.319765,0.001978,
1820,360,-0.519110,-4.172582,0.999998,0.000177,-0.001245,0.002523,0.000014,0.002523,-0.001245,89.793271,0.002523,
660,50,0.066661,-4.973826,0.999999,0.000148,-0.000205,0.002194,0.000970,0.002537,-0.000548,70.523939,0.002670,
1450,820,-0.316074,-3.296894,0.999997,0.000188,-0.001958,0.003210,0.000446,0.003248,-0.001997,85.104747,0.003276,
1560,1900,-0.094512,-0.242172,0.999999,0.000156,-0.000434,0.001948,0.000269,0.001978,-0.000464,83.637575,0.002069,
830,750,0.565890,-3.289371,0.999997,0.000205,-0.001586,0.002905,0.000144,0.002909,-0.001590,88.159557,0.002914,
1510,1070,-0.663537,-2.385131,0.999998,0.000162,-0.000999,0.003171,0.000200,0.003181,-0.001009,87.262827,0.003251,
1480,1040,-0.651333,-2.477599,0.999997,0.000214,-0.001066,0.003520,0.000034,0.003520,-0.001066,89.571430,0.003610,
1280,1390,-0.026925,-1.071805,0.999999,0.000146,-0.000642,0.001372,-0.000379,0.001441,-0.000711,-79.692103,0.001441,
880,130,0.085805,-4.841834,0.999998,0.000166,-0.000453,0.001922,0.000307,0.001961,-0.000492,82.761686,0.002041,
740,1360,0.648538,-1.658563,0.999997,0.000194,-0.001432,0.002706,-0.000111,0.002709,-0.001435,-88.458761,0.002711,
1260,1550,-0.018067,-0.819220,0.999998,0.000162,-0.000629,0.001706,-0.000098,0.001710,-0.000634,-87.592922,0.001729,
1760,1670,-0.463873,-0.880710,0.999998,0.000188,-0.001217,0.002531,-0.000011,0.002531,-0.001217,-89.828605,0.002531,
1540,410,-0.230060,-4.259962,0.999998,0.000185,-0.001014,0.002290,0.000120,0.002294,-0.001018,87.917616,0.002299,
1690,1930,-0.135010,-0.209981,0.999998,0.000149,-0.000556,0.002150,0.000518,0.002246,-0.000652,79.516797,0.002311,
640,1650,0.556982,-0.982906,0.999997,0.000210,-0.001233,0.002513,0.000027,0.002513,-0.001234,89.590448,0.002513,
1340,1720,-0.056525,-0.532321,0.999998,0.000174,-0.000565,0.001826,-0.000078,0.001829,-0.000567,-88.123710,0.001872,
660,1450,0.680963,-1.478893,0.999998,0.000164,-0.001297,0.002573,-0.000030,0.002573,-0.001297,-89.562989,0.002573,
1290,1490,-0.036282,-0.925918,0.999999,0.000116,-0.000705,0.001643,-0.000231,0.001666,-0.000727,-84.444023,0.001670,
1240,1450,-0.005203,-0.974119,0.999999,0.000115,-0.000587,0.001477,-0.000082,0.001480,-0.000591,-87.732296,0.001490,
800,1430,0.505254,-1.424499,0.999997,0.000171,-0.001445,0.002724,0.000023,0.002724,-0.001445,89.680402,0.002726,
1090,2000,0.008112,-0.054294,0.999999,0.000118,-0.000044,0.001549,-0.000095,0.001554,-0.000049,-86.583405,0.001767,
1040,880,0.361393,-3.167382,0.999998,0.000191,-0.001810,0.003422,-0.000617,0.003493,-0.001882,-83.363918,0.003497,
880,250,0.177849,-4.594296,0.999998,0.000161,-0.000815,0.002176,0.000120,0.002181,-0.000820,87.712130,0.002203,
1650,790,-0.633366,-3.162747,0.999998,0.000183,-0.001502,0.002849,-0.000250,0.002863,-0.001516,-86.723460,0.002865,
1820,1030,-0.989891,-2.513517,0.999998,0.000160,-0.001074,0.002303,0.000012,0.002303,-0.001074,89.791483,0.002304,
700,1620,0.503567,-1.010639,0.999998,0.000166,-0.001266,0.002522,0.000050,0.002523,-0.001267,89.237198,0.002523,
1070,1800,0.065405,-0.394764,0.999998,0.000163,-0.000464,0.001843,-0.000042,0.001844,-0.000465,-88.957781,0.001918,
1590,1810,-0.181868,-0.439286,0.999998,0.000169,-0.000828,0.002188,0.000141,0.002194,-0.000834,87.330051,0.002215,
1850,180,-0.360142,-4.600484,0.999997,0.000196,-0.001220,0.002588,-0.000154,0.002594,-0.001226,-87.688551,0.002595,
580,1550,0.707451,-1.284010,0.999998,0.000161,-0.001767,0.002528,-0.000052,0.002529,-0.001768,-89.300449,0.002595,
1300,310,-0.032401,-4.563324,0.999998,0.000150,-0.000438,0.001791,0.000022,0.001792,-0.000438,89.437069,0.001868,
600,1850,0.412196,-0.519705,0.999997,0.000184,-0.001221,0.002497,-0.000102,0.002499,-0.001223,-88.435375,0.002500,
1680,1850,-0.217909,-0.385575,0.999998,0.000150,-0.000889,0.002332,0.000293,0.002358,-0.000915,84.836134,0.002378,
1860,1660,-0.596153,-0.988505,0.999998,0.000178,-0.001246,0.002510,-0.000017,0.002510,-0.001246,-89.733012,0.002510,
950,1250,0.418347,-1.803874,0.999997,0.000193,-0.001874,0.003206,0.000066,0.003207,-0.001875,89.258920,0.003223,
1190,1390,0.022221,-1.067658,0.999998,0.000158,-0.000629,0.001347,0.000318,0.001397,-0.000679,81.085093,0.001397,
1310,480,-0.049919,-4.253675,0.999999,0.000139,-0.000720,0.001815,0.000190,0.001829,-0.000734,85.741640,0.001841,
1880,970,-1.043664,-2.641593,0.999998,0.000180,-0.001006,0.002073,0.000005,0.002073,-0.001006,89.906337,0.002074,
1210,60,0.000824,-4.978841,0.999999,0.000124,-0.000057,0.001514,0.000019,0.001514,-0.000057,89.310771,0.001716,
1240,1380,-0.005071,-1.068754,0.999998,0.000144,-0.000514,0.001183,-0.000080,0.001187,-0.000518,-87.294823,0.001190,
700,490,0.543203,-3.890316,0.999998,0.000170,-0.001296,0.002574,-0.000050,0.002574,-0.001296,-89.255088,0.002574,
1780,340,-0.452540,-4.254770,0.999998,0.000172,-0.001212,0.002516,-0.000001,0.002516,-0.001212,-89.987527,0.002517,
1480,1020,-0.653858,-2.545335,0.999997,0.000214,-0.001062,0.003486,-0.000018,0.003486,-0.001062,-89.777811,0.003574,
1390,1510,-0.117733,-0.959410,0.999999,0.000134,-0.000940,0.001990,-0.000378,0.002038,-0.000988,-82.776546,0.002039,
600,1330,0.858078,-1.828480,0.999999,0.000145,-0.001210,0.002464,-0.000084,0.002466,-0.001212,-88.684948,0.002466,
1510,1050,-0.677728,-2.452653,0.999997,0.000188,-0.000938,0.003170,0.000119,0.003174,-0.000942,88.337284,0.003260,
1430,840,-0.304709,-3.282480,0.999998,0.000189,-0.001960,0.003269,0.000571,0.003331,-0.002021,83.842888,0.003356,
870,990,0.748793,-2.620543,0.999998,0.000203,-0.000963,0.002694,0.000144,0.002699,-0.000968,87.754607,0.002735,
1190,120,0.006791,-4.885529,0.999998,0.000159,-0.000163,0.001594,0.000029,0.001595,-0.000164,89.048837,0.001755,
1090,490,0.096557,-4.202503,0.999998,0.000145,-0.000818,0.001963,-0.000279,0.001990,-0.000846,-84.321170,0.001998,
1190,1740,0.020049,-0.483693,0.999998,0.000175,-0.000469,0.001789,0.000038,0.001790,-0.000470,89.041761,0.001856,
1560,1880,-0.108077,-0.281532,0.999999,0.000145,-0.000497,0.001958,0.000255,0.001984,-0.000523,84.132541,0.002057,
1040,270,0.085660,-4.608441,0.999999,0.000141,-0.000579,0.001888,0.000009,0.001888,-0.000579,89.801839,0.001935,
1900,1790,-0.530367,-0.706972,0.999997,0.000000,-0.001269,0.002492,0.000022,0.002492,-0.001269,89.662724,0.002492,
970,1400,0.266946,-1.331767,0.999997,0.000190,-0.001532,0.002646,0.000430,0.002689,-0.001575,84.186396,0.002702,
740,1340,0.666316,-1.713058,0.999998,0.000183,-0.001426,0.002709,-0.000145,0.002714,-0.001431,-87.994372,0.002715,
1410,400,-0.112805,-4.357498,0.999998,0.000143,-0.000778,0.002010,0.000169,0.002020,-0.000788,86.537222,0.002036,
1730,1420,-0.608819,-1.502223,0.999998,0.000173,-0.001390,0.002655,0.000032,0.002655,-0.001390,89.549552,0.002656,
1500,1550,-0.222502,-0.968890,0.999998,0.000187,-0.001130,0.002328,-0.000274,0.002349,-0.001152,-85.504399,0.002349,
1850,420,-0.602753,-3.997215,0.999998,0.000162,-0.001245,0.002522,0.000040,0.002522,-0.001245,89.398503,0.002522,
1290,1470,-0.035536,-0.957702,0.999999,0.000137,-0.000722,0.001591,-0.000256,0.001619,-0.000750,-83.758402,0.001621,
1480,230,-0.099898,-4.670319,0.999998,0.000160,-0.000504,0.001938,-0.000108,0.001942,-0.000509,-87.475005,0.002014,
1080,2000,0.009012,-0.053721,0.999999,0.000121,-0.000052,0.001555,-0.000097,0.001561,-0.000058,-86.556907,0.001770,
1460,1470,-0.199058,-1.117400,0.999998,0.000170,-0.001237,0.002349,-0.000439,0.002402,-0.001290,-83.120745,0.002405,
1860,1640,-0.612310,-1.039816,0.999998,0.000179,-0.001241,0.002508,-0.000034,0.002509,-0.001242,-89.485851,0.002509,
830,920,0.742774,-2.804381,0.999998,0.000184,-0.001205,0.002730,0.000337,0.002759,-0.001234,85.141996,0.002764,
1000,1090,0.587556,-2.282819,0.999997,0.000215,-0.001357,0.003689,-0.000013,0.003689,-0.001357,-89.847608,0.003731,
1340,1700,-0.059421,-0.567060,0.999999,0.000147,-0.000608,0.001871,-0.000101,0.001875,-0.000613,-87.679472,0.001912,
1880,1860,-0.419599,-0.514211,0.999998,0.000182,-0.001211,0.002466,0.000104,0.002469,-0.001214,88.381926,0.002469,
1040,840,0.290311,-3.298870,0.999997,0.000199,-0.001957,0.003193,-0.000619,0.003266,-0.002031,-83.245314,0.003298,
810,1620,0.369180,-0.923623,0.999999,0.000160,-0.001191,0.002462,0.000075,0.002464,-0.001193,88.819535,0.002464,
700,1600,0.517826,-1.061802,0.999998,0.000171,-0.001279,0.002532,0.000045,0.002532,-0.001279,89.320415,0.002532,
1410,1130,-0.434743,-1.983550,0.999997,0.000193,-0.001530,0.003637,-0.001182,0.003894,-0.001787,-77.708196,0.003899,
1650,770,-0.613858,-3.218134,0.999998,0.000195,-0.001526,0.002859,-0.000196,0.002867,-0.001535,-87.440203,0.002870,
1280,310,-0.023842,-4.564584,0.999998,0.000145,-0.000442,0.001765,0.000008,0.001765,-0.000442,89.786614,0.001837,
1130,700,0.066338,-3.854056,0.999999,0.000140,-0.000915,0.001688,-0.000760,0.001893,-0.001121,-74.850303,0.001904,
950,1230,0.444468,-1.869402,0.999998,0.000182,-0.001857,0.003257,-0.000015,0.003257,-0.001857,-89.829475,0.003268,
1870,990,-1.037254,-2.601542,0.999998,0.000166,-0.001038,0.002127,-0.000054,0.002128,-0.001039,-89.026554,0.002128,
1050,820,0.242169,-3.390060,0.999998,0.000190,-0.001956,0.003005,-0.000745,0.003115,-0.002065,-81.645181,0.003169,
1640,1910,-0.124702,-0.238726,0.999998,0.000176,-0.000494,0.002068,0.000404,0.002130,-0.000556,81.247206,0.002210,
600,1810,0.461103,-0.618927,0.999997,0.000208,-0.001207,0.002493,-0.000033,0.002493,-0.001207,-89.488076,0.002494,
1270,1280,-0.022071,-1.183358,0.999999,0.000153,-0.000666,0.000804,-0.000540,0.000981,-0.000843,-71.858682,0.001062,
1480,1000,-0.644133,-2.616321,0.999997,0.000205,-0.001085,0.003581,-0.000066,0.003582,-0.001086,-89.186773,0.003673,
1130,1950,0.013623,-0.130508,0.999998,0.000148,-0.000166,0.001607,-0.000055,0.001608,-0.000168,-88.228756,0.001768,
1870,560,-0.731646,-3.626131,0.999998,0.000189,-0.001303,0.002579,0.000001,0.002579,-0.001303,89.980128,0.002579,
570,1100,1.052997,-2.371128,0.999996,0.000255,-0.000974,0.002006,0.000026,0.002006,-0.000974,89.504129,0.002006,
1610,1800,-0.204215,-0.469278,0.999998,0.000183,-0.000798,0.002236,0.000161,0.002244,-0.000806,86.968079,0.002274,
1370,1740,-0.069139,-0.500386,0.999998,0.000152,-0.000510,0.001860,-0.000015,0.001860,-0.000510,-89.639656,0.001922,
1630,40,-0.020430,-5.003947,0.999999,0.000127,-0.000045,0.001716,-0.000437,0.001818,-0.000148,-76.795267,0.002020,
1170,120,0.009125,-4.884651,0.999999,0.000142,-0.000138,0.001610,0.000040,0.001611,-0.000139,88.673981,0.001785,
870,970,0.737690,-2.676263,0.999998,0.000186,-0.001024,0.002738,0.000236,0.002753,-0.001039,86.420626,0.002780,
1040,250,0.079917,-4.646134,0.999998,0.000145,-0.000517,0.001880,0.000022,0.001880,-0.000517,89.478287,0.001943,
1440,1040,-0.600005,-2.464474,0.999997,0.000241,-0.001741,0.004690,-0.000124,0.004692,-0.001743,-88.896541,0.004743,
910,830,0.522663,-3.110112,0.999998,0.000186,-0.001711,0.003136,0.000190,0.003143,-0.001718,87.761434,0.003148,
1090,450,0.090905,-4.280893,0.999998,0.000159,-0.000789,0.001935,-0.000216,0.001952,-0.000806,-85.497650,0.001962,
1840,1670,-0.562756,-0.947606,0.999998,0.000168,-0.001233,0.002516,-0.000029,0.002516,-0.001233,-89.556152,0.002516,
1560,1860,-0.123528,-0.320822,0.999998,0.000166,-0.000532,0.002042,0.000235,0.002064,-0.000554,84.831346,0.002136,
740,1320,0.684620,-1.767980,0.999998,0.000177,-0.001421,0.002697,-0.000184,0.002705,-0.001429,-87.441564,0.002707,
1510,1270,-0.389738,-1.735510,0.999997,0.000185,-0.001858,0.003145,-0.000163,0.003150,-0.001863,-88.136436,0.003168,
1290,1450,-0.036740,-0.991195,0.999999,0.000144,-0.000710,0.001580,-0.000304,0.001619,-0.000750,-82.553281,0.001621,
1690,840,-0.740975,-3.005163,0.999997,0.000182,-0.001328,0.002694,-0.000299,0.002716,-0.001350,-85.774852,0.002716,
1750,1640,-0.473050,-0.948638,0.999998,0.000180,-0.001261,0.002527,-0.000049,0.002528,-0.001261,-89.260694,0.002528,
1860,1620,-0.625204,-1.089462,0.999998,0.000180,-0.001240,0.002476,-0.000039,0.002477,-0.001240,-89.405585,0.002477,
580,1020,1.057232,-2.537366,0.999998,0.000165,-0.000918,0.002138,0.000045,0.002138,-0.000918,89.147335,0.002145,
830,730,0.546941,-3.346226,0.999997,0.000218,-0.001594,0.002868,0.000086,0.002870,-0.001596,88.890334,0.002876,
810,920,0.766611,-2.799461,0.999998,0.000162,-0.001202,0.002671,0.000322,0.002698,-0.001229,85.284710,0.002702,
1590,1090,-0.731103,-2.349532,0.999998,0.000178,-0.001048,0.002771,0.000245,0.002787,-0.001064,86.338431,0.002813,
1820,780,-0.852727,-3.103691,0.999999,0.000149,-0.001236,0.002473,-0.000165,0.002480,-0.001244,-87.464868,0.002480,
1240,1390,-0.005254,-1.056113,0.999999,0.000131,-0.000525,0.001244,-0.000077,0.001247,-0.000528,-87.525989,0.001252,
1800,210,-0.344336,-4.569222,0.999998,0.000173,-0.001114,0.002565,-0.000286,0.002587,-0.001136,-85.582229,0.002593,
1900,1890,-0.398845,-0.462572,0.999997,0.000000,-0.001217,0.002547,0.000158,0.002554,-0.001224,87.601729,0.002554,
1260,850,-0.065264,-3.820572,0.999990,0.000349,-0.001796,0.000706,-0.000081,0.000709,-0.001798,-88.152191,0.001812,
920,1410,0.337685,-1.365005,0.999998,0.000189,-0.001520,0.002732,0.000280,0.002750,-0.001539,86.249292,0.002756,
1780,320,-0.437536,-4.307205,0.999998,0.000181,-0.001220,0.002518,-0.000020,0.002518,-0.001220,-89.693196,0.002519,
1390,1490,-0.119496,-1.000804,0.999999,0.000140,-0.000980,0.002013,-0.000441,0.002076,-0.001044,-81.792418,0.002076,
950,1210,0.472620,-1.935806,0.999998,0.000185,-0.001800,0.003278,-0.000100,0.003280,-0.001802,-88.874065,0.003285,
1530,1800,-0.145355,-0.436737,0.999998,0.000175,-0.000677,0.002048,0.000107,0.002052,-0.000682,87.761882,0.002091,
1460,230,-0.090799,-4.674982,0.999998,0.000183,-0.000465,0.001914,-0.000100,0.001918,-0.000469,-87.596056,0.002000,
700,1580,0.532311,-1.110908,0.999998,0.000183,-0.001261,0.002549,0.000044,0.002549,-0.001261,89.343904,0.002549,
900,770,0.469894,-3.287744,0.999996,0.000203,-0.001741,0.003073,0.000035,0.003073,-0.001741,89.583934,0.003082,
1860,990,-1.026690,-2.602536,0.999997,0.000194,-0.001046,0.002165,-0.000056,0.002166,-0.001047,-88.994137,0.002166,
1650,750,-0.593181,-3.276144,0.999998,0.000196,-0.001554,0.002849,-0.000172,0.002855,-0.001560,-87.768792,0.002860,
970,2000,0.015931,-0.057416,0.999999,0.000135,-0.000118,0.001578,-0.000202,0.001602,-0.000142,-83.315016,0.001773,
1130,1930,0.016216,-0.165207,0.999999,0.000130,-0.000204,0.001643,-0.000048,0.001644,-0.000205,-88.508922,0.001792,
1480,1420,-0.238664,-1.262089,0.999998,0.000154,-0.001446,0.002521,-0.000449,0.002571,-0.001496,-83.622942,0.002583,
590,1810,0.474272,-0.630171,0.999997,0.000189,-0.001658,0.002341,0.000005,0.002341,-0.001658,89.929634,0.002408,
1270,1260,-0.027621,-1.197021,0.999999,0.000149,-0.000782,0.000692,-0.000522,0.000858,-0.000948,-72.340617,0.001047,
910,60,0.025832,-4.971438,0.999999,0.000146,-0.000124,0.001681,0.000319,0.001735,-0.000179,80.274042,0.001909,
1080,1670,0.090376,-0.639017,0.999998,0.000148,-0.000653,0.001930,0.000099,0.001934,-0.000657,87.816998,0.001967,
780,1600,0.418625,-0.997041,0.999998,0.000173,-0.001239,0.002527,0.000065,0.002528,-0.001240,89.007874,0.002528,
1850,560,-0.706065,-3.640952,0.999998,0.000189,-0.001270,0.002580,-0.000006,0.002580,-0.001270,-89.913636,0.002580,
1000,610,0.209307,-3.858945,0.999999,0.000152,-0.001312,0.002431,-0.000481,0.002492,-0.001373,-82.792167,0.002496,
1850,400,-0.586194,-4.047853,0.999998,0.000156,-0.001236,0.002515,0.000049,0.002516,-0.001236,89.255294,0.002516,
1340,1250,-0.102685,-1.381935,0.999998,0.000183,-0.001314,0.001785,-0.001145,0.002162,-0.001692,-71.766507,0.002274,
1040,820,0.263516,-3.362965,0.999997,0.000191,-0.001978,0.003083,-0.000656,0.003167,-0.002062,-82.739160,0.003215,
1240,1820,-0.004086,-0.342458,0.999998,0.000148,-0.000374,0.001712,0.000001,0.001712,-0.000374,89.962000,0.001800,
1090,480,0.095329,-4.222216,0.999998,0.000154,-0.000805,0.001946,-0.000257,0.001970,-0.000829,-84.705883,0.001978,
1690,1910,-0.156624,-0.252932,0.999998,0.000142,-0.000682,0.002195,0.000461,0.002267,-0.000754,81.114596,0.002309,
1350,1740,-0.058552,-0.496311,0.999998,0.000142,-0.000531,0.001837,-0.000034,0.001837,-0.000531,-89.168408,0.001891,
1190,1370,0.023246,-1.092548,0.999999,0.000143,-0.000609,0.001260,0.000342,0.001320,-0.000669,79.952732,0.001320,
1710,100,-0.109345,-4.882120,0.999999,0.000133,-0.000409,0.002081,-0.000589,0.002213,-0.000541,-77.350398,0.002307,
1020,250,0.090837,-4.639801,0.999999,0.000131,-0.000514,0.001920,0.000069,0.001921,-0.000516,88.384717,0.001989,
1090,430,0.089514,-4.319496,0.999998,0.000166,-0.000739,0.001956,-0.000178,0.001968,-0.000751,-86.227932,0.001986,
1340,1680,-0.061712,-0.606093,0.999998,0.000181,-0.000651,0.001857,-0.000122,0.001863,-0.000657,-87.228360,0.001889,
1690,1600,-0.425507,-1.001120,0.999998,0.000191,-0.001256,0.002525,-0.000077,0.002526,-0.001257,-88.840320,0.002526,
1400,1130,-0.421423,-1.935013,0.999997,0.000200,-0.001339,0.003534,-0.001552,0.003987,-0.001791,-73.752251,0.003994,
740,1300,0.704088,-1.822259,0.999998,0.000171,-0.001410,0.002682,-0.000220,0.002694,-0.001422,-86.926746,0.002695,
1810,320,-0.473590,-4.282532,0.999997,0.000178,-0.001216,0.002510,-0.000028,0.002511,-0.001216,-89.572670,0.002511,
1760,850,-0.839417,-2.955575,0.999998,0.000153,-0.001241,0.002510,-0.000230,0.002524,-0.001255,-86.505975,0.002524,
1620,40,-0.020109,-5.003559,0.999999,0.000126,-0.000024,0.001695,-0.000420,0.001792,-0.000121,-76.988958,0.002003,
760,1130,0.829246,-2.262034,0.999998,0.000187,-0.001164,0.002565,-0.000211,0.002577,-0.001176,-86.774340,0.002580,
1860,1600,-0.640500,-1.138661,0.999998,0.000174,-0.001236,0.002522,-0.000020,0.002522,-0.001236,-89.688407,0.002523,
1900,1010,-1.072799,-2.556418,0.999998,0.000000,-0.001008,0.001983,-0.000033,0.001983,-0.001008,-89.374388,0.001983,
870,950,0.722639,-2.730724,0.999998,0.000170,-0.001112,0.002782,0.000289,0.002803,-0.001133,85.778085,0.002820,
1560,1840,-0.139239,-0.362659,0.999998,0.000164,-0.000593,0.002082,0.000200,0.002096,-0.000608,85.743802,0.002157,
1510,1030,-0.683567,-2.513180,0.999997,0.000197,-0.000912,0.003049,0.000017,0.003050,-0.000912,89.751409,0.003130,
1290,1430,-0.034824,-1.020658,0.999998,0.000152,-0.000709,0.001518,-0.000356,0.001574,-0.000764,-81.126907,0.001574,
910,810,0.497540,-3.175073,0.999998,0.000194,-0.001786,0.003108,0.000118,0.003111,-0.001788,88.618947,0.003122,
1290,120,-0.008515,-4.885115,0.999999,0.000134,-0.000122,0.001615,-0.000050,0.001617,-0.000123,-88.365680,0.001800,
1770,1640,-0.498689,-0.964709,0.999998,0.000194,-0.001217,0.002527,-0.000052,0.002528,-0.001217,-89.199835,0.002528,
1820,800,-0.870765,-3.054154,0.999998,0.000157,-0.001233,0.002464,-0.000185,0.002473,-0.001243,-87.149985,0.002473,
1440,1060,-0.588695,-2.367413,0.999997,0.000198,-0.001703,0.004559,-0.000279,0.004571,-0.001715,-87.450535,0.004618,
1820,950,-0.973797,-2.696550,0.999998,0.000165,-0.001093,0.002313,-0.000113,0.002317,-0.001097,-88.105117,0.002318,
1380,1470,-0.109406,-1.029539,0.999999,0.000142,-0.000978,0.001998,-0.000473,0.002071,-0.001052,-81.180890,0.002071,
1620,1910,-0.116165,-0.234770,0.999998,0.000165,-0.000469,0.002019,0.000354,0.002068,-0.000518,82.067302,0.002152,
920,1390,0.349278,-1.420545,0.999998,0.000196,-0.001594,0.002812,0.000265,0.002828,-0.001610,86.567704,0.002837,
1600,510,-0.345445,-3.972432,0.999998,0.000185,-0.001255,0.002539,0.000143,0.002545,-0.001260,87.837164,0.002545,
620,140,0.288304,-4.712828,0.999998,0.000169,-0.001252,0.002637,0.000296,0.002659,-0.001275,85.671636,0.002660,
1780,300,-0.418392,-4.357264,0.999997,0.000193,-0.001196,0.002561,-0.000059,0.002562,-0.001197,-89.099297,0.002564,
960,2000,0.018322,-0.058191,0.999999,0.000133,-0.000149,0.001588,-0.000209,0.001613,-0.000174,-83.239990,0.001771,
1160,1810,0.026386,-0.362364,0.999999,0.000140,-0.000364,0.001726,-0.000040,0.001727,-0.000365,-88.907974,0.001820,
1200,2020,0.001948,-0.024125,0.999999,0.000000,-0.000078,0.001493,-0.000005,0.001493,-0.000078,-89.800455,0.001681,
700,1560,0.545246,-1.163235,0.999998,0.000178,-0.001277,0.002565,0.000038,0.002566,-0.001277,89.426732,0.002566,
840,630,0.449308,-3.636151,0.999997,0.000182,-0.001497,0.002733,-0.000099,0.002735,-0.001499,-88.656186,0.002739,
990,1610,0.177310,-0.813578,0.999998,0.000150,-0.000989,0.002184,0.000220,0.002199,-0.001005,86.053154,0.002202,
1250,850,-0.047747,-3.832323,0.999964,0.000695,-0.002013,0.000639,-0.000117,0.000644,-0.002018,-87.469476,0.002062,
1420,550,-0.147338,-4.042004,0.999999,0.000126,-0.001044,0.002150,0.000417,0.002203,-0.001097,82.675903,0.002203,
1340,1230,-0.126500,-1.415025,0.999998,0.000152,-0.001358,0.001722,-0.001085,0.002065,-0.001702,-72.421446,0.002205,
1390,1470,-0.118816,-1.039750,0.999999,0.000146,-0.001022,0.002035,-0.000492,0.002112,-0.001099,-81.074912,0.002112,
1010,1860,0.072471,-0.297853,0.999998,0.000194,-0.000416,0.001865,-0.000110,0.001870,-0.000421,-87.241736,0.001962,
1730,430,-0.459441,-4.067911,0.999998,0.000176,-0.001252,0.002539,0.000039,0.002539,-0.001253,89.416471,0.002539,
570,1020,1.066245,-2.536514,0.999994,0.000292,-0.000859,0.002098,0.000055,0.002099,-0.000860,88.929211,0.002110,
570,1160,1.022528,-2.241618,0.999998,0.000169,-0.000982,0.002102,-0.000019,0.002102,-0.000983,-89.644708,0.002103,
1650,730,-0.573552,-3.333039,0.999998,0.000244,-0.001530,0.002838,-0.000124,0.002841,-0.001533,-88.381438,0.002844,
1270,1240,-0.038719,-1.208782,0.999999,0.000132,-0.000996,0.000669,-0.000439,0.000778,-0.001105,-76.092037,0.001135,
950,1630,0.210118,-0.797667,0.999998,0.000159,-0.000954,0.002242,0.000143,0.002248,-0.000961,87.443613,0.002256,
1880,1080,-1.044067,-2.408986,0.999998,0.000165,-0.001020,0.002037,-0.000001,0.002037,-0.001020,-89.984958,0.002037,
820,1900,0.136592,-0.259534,0.999998,0.000150,-0.000528,0.002126,-0.000393,0.002183,-0.000585,-81.742065,0.002260,
1090,410,0.087516,-4.358108,0.999998,0.000160,-0.000684,0.001905,-0.000126,0.001911,-0.000690,-87.219297,0.001935,
780,1580,0.430387,-1.048601,0.999998,0.000178,-0.001246,0.002538,0.000077,0.002539,-0.001248,88.839547,0.002540,
1480,1440,-0.231781,-1.212856,0.999998,0.000164,-0.001367,0.002475,-0.000441,0.002525,-0.001417,-83.534304,0.002531,
580,1810,0.485753,-0.640244,0.999997,0.000194,-0.002938,0.001951,0.000169,0.001957,-0.002944,88.020838,0.002996,
1030,1740,0.107382,-0.522531,0.999998,0.000227,-0.000664,0.001976,0.000043,0.001977,-0.000665,89.060132,0.002012,
1600,1140,-0.695824,-2.212469,0.999998,0.000169,-0.001241,0.002832,0.000356,0.002863,-0.001272,85.041285,0.002868,
610,720,0.842451,-3.231967,0.999998,0.000143,-0.001254,0.002452,0.000076,0.002454,-0.001256,88.824427,0.002454,
1540,450,-0.247811,-4.166168,0.999998,0.000154,-0.001114,0.002371,0.000163,0.002378,-0.001122,87.325082,0.002380,
1720,1530,-0.512366,-1.205606,0.999997,0.000190,-0.001305,0.002584,-0.000049,0.002584,-0.001306,-89.281231,0.002584,
1350,520,-0.080325,-4.160560,0.999999,0.000127,-0.000776,0.001905,0.000257,0.001929,-0.000801,84.571047,0.001938,
1390,1130,-0.409696,-1.877855,0.999996,0.000241,-0.001084,0.003425,-0.001824,0.004070,-0.001730,-70.514495,0.004086,
1130,1910,0.020220,-0.195728,0.999999,0.000114,-0.000256,0.001591,-0.000086,0.001595,-0.000260,-87.328435,0.001711,
590,350,0.575122,-4.152089,0.999998,0.000147,-0.001561,0.002467,-0.000051,0.002467,-0.001562,-89.273608,0.002496,
1090,60,0.009175,-4.977882,0.999999,0.000128,-0.000071,0.001540,0.000102,0.001546,-0.000078,86.398134,0.001742,
1470,1180,-0.440941,-1.971181,0.999998,0.000187,-0.001825,0.003448,-0.000045,0.003448,-0.001825,-89.513979,0.003450,
740,1280,0.723329,-1.874733,0.999998,0.000171,-0.001390,0.002661,-0.000246,0.002676,-0.001405,-86.533415,0.002677,
1040,800,0.237977,-3.424054,0.999998,0.000172,-0.001913,0.002963,-0.000711,0.003065,-0.002014,-81.866555,0.003115,
1730,180,-0.229579,-4.695015,0.999997,0.000184,-0.000879,0.002369,-0.000397,0.002417,-0.000927,-83.127267,0.002439,
1510,990,-0.667637,-2.638112,0.999998,0.000197,-0.001003,0.003208,-0.000184,0.003216,-0.001011,-87.498382,0.003289,
1790,340,-0.465024,-4.249015,0.999998,0.000153,-0.001213,0.002525,0.000005,0.002525,-0.001213,89.926578,0.002526,
660,1220,0.879446,-2.062992,0.999998,0.000148,-0.001224,0.002416,-0.000200,0.002427,-0.001235,-86.867754,0.002427,
700,850,0.843491,-2.953436,0.999998,0.000160,-0.001233,0.002515,0.000247,0.002531,-0.001249,86.248981,0.002531,
1440,1670,-0.132188,-0.667627,0.999999,0.000154,-0.000736,0.002039,-0.000094,0.002042,-0.000739,-88.060533,0.002068,
1820,820,-0.888081,-3.004480,0.999998,0.000143,-0.001197,0.002403,-0.000167,0.002411,-0.001205,-87.348249,0.002411,
1860,1580,-0.655239,-1.190646,0.999998,0.000176,-0.001238,0.002537,-0.000023,0.002537,-0.001238,-89.648349,0.002537,
1270,120,-0.007827,-4.885405,0.999999,0.000147,-0.000148,0.001605,-0.000012,0.001605,-0.000148,-89.613901,0.001774,
1240,840,-0.017161,-3.844660,0.999998,0.000166,-0.002005,0.000600,0.000017,0.000600,-0.002005,89.631789,0.002058,
770,50,0.041600,-4.980688,0.999999,0.000150,-0.000157,0.001854,0.000551,0.001995,-0.000298,75.637498,0.002152,
950,2000,0.020155,-0.058635,0.999999,0.000141,-0.000144,0.001601,-0.000231,0.001631,-0.000174,-82.596547,0.001791,
1340,1660,-0.063544,-0.642536,0.999998,0.000168,-0.000659,0.001834,-0.000148,0.001843,-0.000668,-86.609481,0.001866,
910,790,0.473907,-3.235525,0.999997,0.000191,-0.001790,0.003099,0.000063,0.003100,-0.001791,89.259046,0.003112,
1190,1350,0.020869,-1.118560,0.999999,0.000145,-0.000601,0.001135,0.000412,0.001228,-0.000694,77.298895,0.001232,
1240,1800,-0.004240,-0.376251,0.999998,0.000151,-0.000394,0.001685,-0.000002,0.001685,-0.000394,-89.938281,0.001763,
650,720,0.791373,-3.257729,0.999998,0.000141,-0.001272,0.002545,0.000124,0.002549,-0.001277,88.138926,0.002549,
870,930,0.703899,-2.786671,0.999998,0.000178,-0.001194,0.002827,0.000357,0.002858,-0.001226,84.966785,0.002868,
1050,1860,0.055305,-0.290082,0.999998,0.000207,-0.000400,0.001788,-0.000081,0.001791,-0.000403,-87.876744,0.001879,
1900,1520,-0.750757,-1.374798,0.999997,0.000000,-0.001279,0.002502,-0.000009,0.002502,-0.001279,-89.867724,0.002502,
1560,1820,-0.149771,-0.404782,0.999998,0.000159,-0.000630,0.002084,0.000153,0.002092,-0.000639,86.788221,0.002145,
1000,80,0.025129,-4.942525,0.999999,0.000164,-0.000104,0.001653,0.000194,0.001674,-0.000125,83.782135,0.001865,
1600,490,-0.335990,-4.022101,0.999998,0.000163,-0.001235,0.002481,0.000159,0.002488,-0.001242,87.559772,0.002488,
1450,1420,-0.197380,-1.224631,0.999998,0.000160,-0.001344,0.002359,-0.000528,0.002433,-0.001418,-82.039454,0.002444,
1070,60,0.010151,-4.977917,0.999999,0.000161,-0.000066,0.001554,0.000112,0.001562,-0.000074,86.066506,0.001763,
1480,1460,-0.226749,-1.164211,0.999998,0.000171,-0.001283,0.002446,-0.000411,0.002491,-0.001328,-83.785784,0.002492,
610,1020,1.025708,-2.537178,0.999998,0.000177,-0.001059,0.002229,0.000046,0.002230,-0.001060,89.200216,0.002231,
1880,930,-1.028086,-2.726765,0.999998,0.000177,-0.001066,0.002192,-0.000050,0.002193,-0.001067,-89.114467,0.002193,
620,120,0.249493,-4.766798,0.999998,0.000156,-0.001230,0.002670,0.000362,0.002703,-0.001263,84.741993,0.002705,
720,1870,0.248870,-0.367199,0.999998,0.000149,-0.000994,0.002439,-0.000336,0.002472,-0.001027,-84.462709,0.002483,
1780,280,-0.400121,-4.410148,0.999997,0.000187,-0.001181,0.002536,-0.000079,0.002538,-0.001183,-88.776750,0.002540,
1830,1620,-0.589150,-1.064943,0.999998,0.000171,-0.001260,0.002515,-0.000025,0.002515,-0.001260,-89.617125,0.002515,
1200,1200,0.078393,-1.223066,0.999999,0.000000,-0.002064,0.000742,-0.000046,0.000742,-0.002065,-89.062217,0.002092,
1090,390,0.084094,-4.395437,0.999998,0.000152,-0.000618,0.001897,-0.000102,0.001901,-0.000622,-87.673062,0.001939,
660,1200,0.895362,-2.112088,0.999999,0.000140,-0.001212,0.002438,-0.000208,0.002449,-0.001224,-86.753382,0.002449,
1440,1080,-0.568870,-2.286557,0.999997,0.000202,-0.001599,0.004210,-0.000371,0.004234,-0.001622,-86.362567,0.004272,
780,1560,0.444500,-1.098703,0.999998,0.000174,-0.001282,0.002551,0.000084,0.002553,-0.001284,88.738821,0.002553,
1690,1890,-0.182745,-0.296703,0.999998,0.000161,-0.000747,0.002248,0.000413,0.002303,-0.000803,82.292452,0.002338,
580,350,0.587325,-4.143389,0.999998,0.000133,-0.002681,0.002126,-0.000097,0.002128,-0.002683,-88.843713,0.002832,
830,710,0.528282,-3.402612,0.999997,0.000210,-0.001582,0.002838,0.000046,0.002838,-0.001583,89.409207,0.002844,
770,1260,0.701075,-1.913041,0.999998,0.000181,-0.001427,0.002729,-0.000250,0.002744,-0.001441,-86.576074,0.002745,
840,610,0.436303,-3.691049,0.999997,0.000186,-0.001480,0.002707,-0.000113,0.002710,-0.001483,-88.459157,0.002714,
1040,780,0.220071,-3.482140,0.999998,0.000166,-0.001816,0.002869,-0.000761,0.002989,-0.001936,-80.999038,0.003033,
1290,1410,-0.033834,-1.052558,0.999998,0.000165,-0.000693,0.001471,-0.000397,0.001541,-0.000764,-79.916744,0.001541,
1230,1360,0.000278,-1.089278,0.999999,0.000128,-0.000500,0.001073,0.000033,0.001074,-0.000501,88.814682,0.001075,
1420,530,-0.142938,-4.085718,0.999999,0.000158,-0.000986,0.002114,0.000363,0.002156,-0.001028,83.405473,0.002156,
1580,1330,-0.455846,-1.633610,0.999997,0.000188,-0.001664,0.002944,-0.000053,0.002944,-0.001665,-89.344561,0.002953,
680,850,0.867411,-2.946381,0.999998,0.000147,-0.001231,0.002476,0.000229,0.002490,-0.001245,86.485980,0.002490,
1740,1110,-0.881245,-2.317607,0.999998,0.000172,-0.001148,0.002505,0.000203,0.002517,-0.001159,86.822432,0.002519,
1820,840,-0.903953,-2.957155,0.999999,0.000136,-0.001157,0.002371,-0.000162,0.002378,-0.001165,-87.379087,0.002378,
990,120,0.044059,-4.874616,0.999998,0.000181,-0.000214,0.001732,0.000210,0.001755,-0.000236,83.916541,0.001904,
1860,1560,-0.670323,-1.239557,0.999998,0.000172,-0.001248,0.002530,-0.000022,0.002530,-0.001249,-89.671919,0.002530,
1130,1890,0.024335,-0.227912,0.999999,0.000134,-0.000282,0.001669,-0.000055,0.001670,-0.000284,-88.384355,0.001787,
1350,500,-0.079612,-4.197368,0.999998,0.000128,-0.000737,0.001893,0.000226,0.001912,-0.000757,85.114986,0.001926,
630,1560,0.635762,-1.219654,0.999997,0.000214,-0.001263,0.002554,0.000043,0.002555,-0.001263,89.356480,0.002555,
1240,1780,-0.004560,-0.409875,0.999999,0.000133,-0.000426,0.001739,-0.000013,0.001740,-0.000426,-89.665211,0.001813,
1240,830,-0.013251,-3.852551,0.999998,0.000156,-0.001543,0.000701,0.000033,0.000702,-0.001543,89.168482,0.001545,
900,1170,0.611870,-2.107253,0.999998,0.000194,-0.001470,0.003063,-0.000344,0.003089,-0.001496,-85.684887,0.003090,
1340,1640,-0.065353,-0.679427,0.999998,0.000170,-0.000651,0.001886,-0.000176,0.001898,-0.000663,-86.057128,0.001926,
1600,1180,-0.653340,-2.096072,0.999998,0.000184,-0.001382,0.002929,0.000364,0.002960,-0.001413,85.209846,0.002961,
900,1690,0.229553,-0.691495,0.999998,0.000150,-0.000972,0.002284,0.000038,0.002284,-0.000973,89.335202,0.002293,
700,1540,0.561209,-1.215137,0.999997,0.000194,-0.001284,0.002590,0.000035,0.002591,-0.001285,89.475243,0.002591,
1650,710,-0.555343,-3.390084,0.999997,0.000270,-0.001510,0.002836,-0.000060,0.002837,-0.001511,-89.211680,0.002839,
1390,1450,-0.120775,-1.081161,0.999999,0.000147,-0.001065,0.002057,-0.000547,0.002150,-0.001158,-80.344938,0.002152,
1290,2000,-0.002869,-0.052300,0.999999,0.000142,-0.000050,0.001515,0.000029,0.001516,-0.000050,88.938782,0.001722,
860,1850,0.159911,-0.356587,0.999998,0.000175,-0.000672,0.002153,-0.000251,0.002175,-0.000694,-84.955722,0.002222,
910,1210,0.542720,-1.975598,0.999998,0.000182,-0.001699,0.003111,-0.000246,0.003124,-0.001712,-87.078813,0.003128,
680,1330,0.757687,-1.775050,0.999998,0.000171,-0.001329,0.002593,-0.000172,0.002601,-0.001336,-87.490727,0.002601,
1900,1500,-0.765387,-1.423091,0.999998,0.000000,-0.001281,0.002551,0.000024,0.002552,-0.001281,89.647885,0.002552,
640,970,0.984054,-2.651473,0.999998,0.000157,-0.001095,0.002276,0.000043,0.002276,-0.001095,89.267599,0.002277,
950,1650,0.203246,-0.751588,0.999998,0.000161,-0.000932,0.002223,0.000115,0.002227,-0.000936,87.906287,0.002237,
1730,470,-0.487001,-3.967482,0.999998,0.000179,-0.001296,0.002550,0.000064,0.002551,-0.001297,89.047921,0.002551,
1480,890,-0.485473,-2.998735,0.999998,0.000175,-0.001761,0.003428,-0.000086,0.003429,-0.001762,-89.047283,0.003430,
1790,320,-0.449252,-4.297833,0.999998,0.000165,-0.001216,0.002522,-0.000025,0.002522,-0.001217,-89.618944,0.002523,
690,1700,0.456960,-0.816646,0.999998,0.000187,-0.001196,0.002520,-0.000003,0.002520,-0.001196,-89.949758,0.002521,
1490,1740,-0.145029,-0.545770,0.999998,0.000158,-0.000758,0.002102,0.000004,0.002102,-0.000758,89.923904,0.002129,
760,1430,0.560916,-1.456094,0.999997,0.000186,-0.001409,0.002707,0.000005,0.002707,-0.001409,89.936842,0.002708,
740,1260,0.743109,-1.928778,0.999998,0.000170,-0.001363,0.002633,-0.000247,0.002649,-0.001378,-86.483548,0.002649,
920,1030,0.711048,-2.513866,0.999998,0.000180,-0.000861,0.002840,-0.000022,0.002840,-0.000862,-89.662330,0.002913,
1220,250,0.004167,-4.672778,0.999998,0.000170,-0.000388,0.001711,-0.000017,0.001711,-0.000389,-89.526308,0.001794,
1470,1080,-0.609840,-2.326795,0.999997,0.000203,-0.001281,0.003577,0.000039,0.003578,-0.001281,89.537682,0.003625,
1480,1480,-0.220749,-1.115664,0.999998,0.000172,-0.001246,0.002397,-0.000383,0.002437,-0.001286,-84.067971,0.002438,
1700,1550,-0.472043,-1.138081,0.999998,0.000149,-0.001334,0.002588,-0.000068,0.002589,-0.001335,-89.005959,0.002589,
620,100,0.209461,-4.818927,0.999998,0.000152,-0.001190,0.002661,0.000480,0.002720,-0.001248,83.003527,0.002723,
660,1180,0.911793,-2.161482,0.999998,0.000160,-0.001186,0.002436,-0.000213,0.002449,-0.001199,-86.645863,0.002449,
870,910,0.683240,-2.843763,0.999998,0.000176,-0.001272,0.002863,0.000349,0.002892,-0.001301,85.213199,0.002897,
1090,370,0.081334,-4.433997,0.999998,0.000164,-0.000605,0.001924,-0.000069,0.001926,-0.000607,-88.445477,0.001969,
1850,1620,-0.613131,-1.080478,0.999998,0.000201,-0.001234,0.002489,-0.000047,0.002489,-0.001235,-89.278889,0.002489,
1780,260,-0.379902,-4.458429,0.999998,0.000192,-0.001170,0.002518,-0.000134,0.002523,-0.001175,-87.914932,0.002525,
780,1540,0.456549,-1.149024,0.999998,0.000160,-0.001324,0.002583,0.000086,0.002585,-0.001326,88.737524,0.002585,
1290,1390,-0.033428,-1.081199,0.999999,0.000160,-0.000689,0.001422,-0.000448,0.001513,-0.000780,-78.490241,0.001513,
1740,230,-0.300848,-4.565939,0.999997,0.000177,-0.001045,0.002472,-0.000241,0.002488,-0.001062,-86.097785,0.002497,
1580,1310,-0.472976,-1.693155,0.999997,0.000206,-0.001676,0.002997,0.000015,0.002997,-0.001677,89.818214,0.003004,
1190,1330,0.020374,-1.140684,0.999999,0.000146,-0.000605,0.001035,0.000451,0.001151,-0.000721,75.585584,0.001163,
970,120,0.049992,-4.872800,0.999999,0.000166,-0.000308,0.001757,0.000222,0.001781,-0.000331,83.926470,0.001894,
1510,970,-0.649427,-2.701457,0.999998,0.000178,-0.001107,0.003170,-0.000245,0.003184,-0.001121,-86.731819,0.003230,
1130,1870,0.026758,-0.261686,0.999998,0.000157,-0.000331,0.001737,-0.000041,0.001738,-0.000332,-88.876417,0.001845,
1040,760,0.205723,-3.541263,0.999998,0.000166,-0.001742,0.002757,-0.000761,0.002882,-0.001868,-80.658278,0.002924,
1820,1280,-0.849589,-1.921991,0.999998,0.000141,-0.001248,0.002485,0.000163,0.002492,-0.001255,87.510696,0.002492,
640,850,0.916085,-2.932676,0.999998,0.000140,-0.001180,0.002407,0.000180,0.002416,-0.001189,87.142470,0.002416,
1160,310,0.033149,-4.563700,0.999998,0.000144,-0.000461,0.001800,0.000004,0.001800,-0.000461,89.897974,0.001870,
1340,1620,-0.067811,-0.718743,0.999998,0.000176,-0.000664,0.001866,-0.000171,0.001877,-0.000675,-86.142016,0.001902,
1240,1760,-0.004153,-0.445770,0.999998,0.000146,-0.000457,0.001779,-0.000030,0.001780,-0.000458,-89.243559,0.001848,
610,1580,0.646871,-1.184157,0.999998,0.000158,-0.001277,0.002567,0.000046,0.002567,-0.001277,89.311697,0.002568,
740,1190,0.806690,-2.110968,0.999998,0.000204,-0.001267,0.002575,-0.000278,0.002595,-0.001287,-85.883054,0.002595,
1470,680,-0.242112,-3.673684,0.999998,0.000176,-0.001576,0.002664,0.000513,0.002726,-0.001637,83.201213,0.002744,
1000,100,0.034025,-4.908997,0.999999,0.000153,-0.000143,0.001695,0.000197,0.001716,-0.000164,83.966182,0.001894,
590,1330,0.870044,-1.835536,0.999998,0.000158,-0.001215,0.002472,-0.000045,0.002472,-0.001215,-89.304672,0.002472,
1280,2000,-0.002852,-0.052566,0.999999,0.000141,-0.000068,0.001516,0.000028,0.001517,-0.000069,88.978777,0.001713,
950,1670,0.193141,-0.709420,0.999998,0.000161,-0.000930,0.002194,0.000083,0.002196,-0.000932,88.475263,0.002205,
1780,450,-0.537387,-3.979045,0.999998,0.000166,-0.001245,0.002539,0.000037,0.002539,-0.001246,89.435878,0.002540,
1730,1910,-0.182626,-0.262895,0.999998,0.000143,-0.000717,0.002352,0.000519,0.002438,-0.000803,80.657348,0.002485,
770,40,0.030173,-4.999373,0.999999,0.000151,-0.000115,0.001848,0.000552,0.001992,-0.000260,75.319206,0.002166,
1570,310,-0.205822,-4.468496,0.999998,0.000174,-0.000884,0.002248,-0.000039,0.002248,-0.000885,-89.279142,0.002265,
1900,1230,-0.985180,-2.091340,0.999999,0.000000,-0.001147,0.002324,0.000053,0.002324,-0.001148,89.132246,0.002325,
1390,1430,-0.122317,-1.123210,0.999998,0.000148,-0.001105,0.002059,-0.000588,0.002164,-0.001210,-79.808935,0.002169,
760,1410,0.578336,-1.510978,0.999997,0.000201,-0.001426,0.002689,-0.000032,0.002690,-0.001426,-89.549083,0.002691,
850,1860,0.157459,-0.337519,0.999998,0.000154,-0.000637,0.002150,-0.000277,0.002177,-0.000664,-84.371906,0.002232,
1560,70,-0.032509,-4.954958,0.999999,0.000119,-0.000155,0.001759,-0.000325,0.001813,-0.000209,-80.618436,0.001983,
1610,690,-0.476462,-3.479624,0.999997,0.000209,-0.001593,0.002842,0.000035,0.002843,-0.001593,89.550207,0.002850,
1060,1870,0.048357,-0.270193,0.999998,0.000185,-0.000346,0.001743,-0.000074,0.001746,-0.000349,-87.978135,0.001848,
1000,790,0.306216,-3.365418,0.999998,0.000182,-0.001918,0.003101,-0.000445,0.003141,-0.001957,-84.974623,0.003172,
740,1240,0.760832,-1.979825,0.999998,0.000164,-0.001338,0.002635,-0.000253,0.002651,-0.001354,-86.366751,0.002651,
1480,1920,-0.053204,-0.193392,0.999999,0.000132,-0.000282,0.001774,0.000172,0.001788,-0.000297,85.250648,0.001916,
660,1030,0.971812,-2.514455,0.999998,0.000154,-0.001054,0.002354,-0.000001,0.002354,-0.001054,-89.983325,0.002358,
1090,350,0.077283,-4.471655,0.999998,0.000169,-0.000562,0.001884,-0.000058,0.001886,-0.000564,-88.632160,0.001936,
1070,580,0.122616,-4.006382,0.999998,0.000155,-0.001005,0.002048,-0.000477,0.002121,-0.001078,-81.324671,0.002121,
570,350,0.619411,-4.132888,0.999650,0.002129,-0.003338,0.001774,-0.000058,0.001775,-0.003338,-89.351854,0.003340,
620,80,0.162742,-4.873367,0.999998,0.000154,-0.001146,0.002758,0.000620,0.002854,-0.001242,81.184068,0.002862,
1780,240,-0.358271,-4.509615,0.999998,0.000184,-0.001154,0.002522,-0.000171,0.002530,-0.001162,-87.341342,0.002533,
1290,1370,-0.033526,-1.109888,0.999999,0.000151,-0.000682,0.001351,-0.000486,0.001461,-0.000792,-77.234022,0.001463,
780,1520,0.469808,-1.202689,0.999998,0.000173,-0.001368,0.002622,0.000088,0.002624,-0.001370,88.738322,0.002625,
910,1230,0.516831,-1.914261,0.999997,0.000183,-0.001729,0.003151,-0.000186,0.003158,-0.001736,-87.819500,0.003163,
830,670,0.493247,-3.515035,0.999997,0.000208,-0.001544,0.002799,-0.000028,0.002799,-0.001544,-89.634547,0.002804,
1730,1460,-0.575361,-1.397350,0.999997,0.000207,-0.001353,0.002631,-0.000002,0.002631,-0.001353,-89.967306,0.002632,
1820,1260,-0.867385,-1.973244,0.999999,0.000139,-0.001231,0.002474,0.000175,0.002483,-0.001239,87.301604,0.002483,
590,850,0.973708,-2.908364,0.999999,0.000126,-0.001113,0.002317,0.000086,0.002319,-0.001115,88.563862,0.002320,
1340,1600,-0.068963,-0.755227,0.999998,0.000162,-0.000680,0.001854,-0.000177,0.001866,-0.000692,-86.012376,0.001887,
660,1160,0.925894,-2.209893,0.999998,0.000147,-0.001171,0.002368,-0.000163,0.002375,-0.001179,-87.369376,0.002375,
870,890,0.661248,-2.901072,0.999998,0.000175,-0.001359,0.002915,0.000367,0.002947,-0.001390,85.130253,0.002948,
1470,620,-0.219836,-3.827031,0.999998,0.000166,-0.001332,0.002441,0.000460,0.002496,-0.001387,83.142039,0.002501,
1000,120,0.042471,-4.874469,0.999998,0.000162,-0.000195,0.001736,0.000190,0.001754,-0.000213,84.432783,0.001914,
1430,1560,-0.147230,-0.889438,0.999999,0.000141,-0.000969,0.002113,-0.000297,0.002141,-0.000997,-84.537612,0.002143,
580,1330,0.881750,-1.842825,0.999998,0.000177,-0.001357,0.002494,0.000012,0.002494,-0.001357,89.823979,0.002497,
1040,740,0.195178,-3.592222,0.999998,0.000163,-0.001668,0.002650,-0.000760,0.002780,-0.001798,-80.296995,0.002819,
1780,430,-0.521878,-4.028996,0.999998,0.000166,-0.001243,0.002528,0.000019,0.002528,-0.001243,89.712681,0.002528,
1900,1220,-0.992109,-2.116024,0.999999,0.000000,-0.001153,0.002321,0.000056,0.002322,-0.001154,89.076004,0.002322,
950,1690,0.186597,-0.663634,0.999998,0.000179,-0.000894,0.002153,0.000080,0.002155,-0.000896,88.500800,0.002165,
820,110,0.090311,-4.872721,0.999999,0.000149,-0.000380,0.001992,0.000457,0.002076,-0.000465,79.465428,0.002179,
1730,1890,-0.209995,-0.310893,0.999998,0.000157,-0.000812,0.002375,0.000458,0.002439,-0.000876,81.985352,0.002471,
740,1220,0.780233,-2.033920,0.999998,0.000155,-0.001317,0.002644,-0.000268,0.002662,-0.001335,-86.143286,0.002662,
620,1190,0.951598,-2.152257,0.999999,0.000161,-0.001141,0.002381,-0.000145,0.002387,-0.001147,-87.647552,0.002387,
1440,1090,-0.553707,-2.242959,0.999997,0.000211,-0.001573,0.004116,-0.000376,0.004141,-0.001598,-86.235535,0.004177,
1000,810,0.327524,-3.302844,0.999998,0.000194,-0.001941,0.003211,-0.000376,0.003238,-0.001968,-85.846098,0.003263,
1600,1910,-0.106404,-0.230035,0.999998,0.000167,-0.000522,0.001985,0.000321,0.002025,-0.000563,82.818112,0.002091,
1270,2000,-0.001998,-0.053513,0.999999,0.000137,-0.000060,0.001511,0.000026,0.001511,-0.000060,89.046916,0.001711,
820,470,0.377910,-4.037326,0.999998,0.000154,-0.001217,0.002513,-0.000105,0.002516,-0.001220,-88.392008,0.002516,
1860,1540,-0.684510,-1.291492,0.999998,0.000185,-0.001252,0.002562,-0.000007,0.002562,-0.001252,-89.895909,0.002562,
1090,120,0.023486,-4.882773,0.999999,0.000107,-0.000175,0.001639,0.000109,0.001645,-0.000182,86.579915,0.001804,
1240,1740,-0.003810,-0.481708,0.999998,0.000142,-0.000494,0.001763,-0.000027,0.001764,-0.000495,-89.325894,0.001819,
1560,1310,-0.440519,-1.673393,0.999998,0.000174,-0.001725,0.003031,-0.000063,0.003032,-0.001725,-89.243223,0.003042,
1190,1310,0.022140,-1.159676,0.999998,0.000148,-0.000588,0.000977,0.000522,0.001135,-0.000746,73.141416,0.001154,
1870,50,-0.120950,-4.930046,0.999997,0.000204,-0.000622,0.002993,-0.001224,0.003369,-0.000997,-72.944300,0.003461,
1070,560,0.120594,-4.046644,0.999999,0.000141,-0.000945,0.002029,-0.000411,0.002085,-0.001001,-82.268748,0.002085,
1730,1200,-0.807075,-2.088253,0.999998,0.000150,-0.001259,0.002565,0.000273,0.002585,-0.001278,85.935521,0.002585,
1570,330,-0.218143,-4.424000,0.999998,0.000181,-0.000939,0.002253,-0.000005,0.002253,-0.000939,-89.905833,0.002263,
1090,330,0.072625,-4.509726,0.999998,0.000167,-0.000535,0.001882,-0.000042,0.001883,-0.000536,-89.002595,0.001940,
1780,220,-0.333740,-4.560664,0.999998,0.000183,-0.001123,0.002517,-0.000229,0.002532,-0.001137,-86.416376,0.002536,
1130,1850,0.031506,-0.298321,0.999999,0.000149,-0.000356,0.001713,-0.000010,0.001713,-0.000356,-89.723485,0.001808,
1480,1900,-0.062395,-0.228582,0.999999,0.000140,-0.000327,0.001809,0.000178,0.001824,-0.000341,85.277736,0.001940,
1190,1680,0.023309,-0.590541,0.999999,0.000136,-0.000560,0.001766,0.000042,0.001767,-0.000560,88.964038,0.001806,
650,1740,0.472933,-0.747605,0.999997,0.000209,-0.001233,0.002529,-0.000002,0.002529,-0.001233,-89.971759,0.002529,
1550,1200,-0.550638,-2.004742,0.999998,0.000178,-0.001634,0.003134,0.000261,0.003148,-0.001648,86.870171,0.003149,
1040,1870,0.055120,-0.273964,0.999998,0.000183,-0.000389,0.001780,-0.000094,0.001784,-0.000393,-87.520121,0.001875,
1200,860,0.087088,-3.816234,0.999995,0.000000,-0.002020,0.000288,-0.000084,0.000291,-0.002023,-87.915445,0.002187,
910,1480,0.316171,-1.190835,0.999998,0.000184,-0.001361,0.002593,0.000247,0.002609,-0.001376,86.434510,0.002610,
700,1520,0.575872,-1.266244,0.999997,0.000204,-0.001309,0.002598,0.000041,0.002599,-0.001309,89.401186,0.002599,
1000,530,0.188753,-4.046046,0.999998,0.000156,-0.001063,0.002269,-0.000333,0.002301,-0.001096,-84.351255,0.002302,
920,1690,0.212197,-0.681177,0.999998,0.000169,-0.000863,0.002216,0.000013,0.002216,-0.000863,89.762516,0.002234,
1200,250,0.012309,-4.670391,0.999998,0.000167,-0.000391,0.001733,-0.000008,0.001733,-0.000391,-89.789394,0.001818,
580,850,0.984883,-2.901266,0.999999,0.000119,-0.001094,0.002269,0.000037,0.002269,-0.001095,89.364194,0.002270,
620,60,0.115488,-4.929911,0.999998,0.000149,-0.001077,0.002560,0.000688,0.002686,-0.001203,79.643558,0.002691,
780,1940,0.117094,-0.186047,0.999998,0.000146,-0.000551,0.002135,-0.000507,0.002228,-0.000643,-79.668053,0.002293,
570,1330,0.894500,-1.851494,0.999991,0.000372,-0.001430,0.002517,0.000052,0.002518,-0.001431,89.249185,0.002526,
1820,1240,-0.884328,-2.022808,0.999998,0.000141,-0.001200,0.002431,0.000172,0.002439,-0.001208,87.300000,0.002439,
1260,310,-0.014229,-4.565538,0.999998,0.000175,-0.000498,0.001759,0.000027,0.001759,-0.000498,89.319367,0.001814,
1340,1580,-0.071309,-0.789940,0.999999,0.000138,-0.000694,0.001852,-0.000199,0.001868,-0.000709,-85.566924,0.001886,
830,650,0.479152,-3.573494,0.999997,0.000191,-0.001518,0.002816,-0.000066,0.002817,-0.001519,-89.122306,0.002820,
1750,1460,-0.602837,-1.413231,0.999997,0.000191,-0.001352,0.002613,0.000015,0.002613,-0.001352,89.777362,0.002613,
660,1140,0.936172,-2.256880,0.999999,0.000128,-0.001147,0.002361,-0.000155,0.002367,-0.001153,-87.479438,0.002368,
1290,1350,-0.031736,-1.135843,0.999999,0.000156,-0.000694,0.001289,-0.000541,0.001427,-0.000832,-75.703615,0.001434,
1410,1560,-0.128024,-0.873841,0.999998,0.000140,-0.000887,0.002053,-0.000272,0.002078,-0.000912,-84.757001,0.002083,
1390,1410,-0.125123,-1.165051,0.999998,0.000150,-0.001146,0.002117,-0.000637,0.002237,-0.001266,-79.331204,0.002244,
1040,720,0.184422,-3.647464,0.999998,0.000163,-0.001583,0.002580,-0.000737,0.002707,-0.001709,-80.245252,0.002738,
870,1090,0.731230,-2.351015,0.999998,0.000192,-0.001035,0.002762,-0.000265,0.002781,-0.001053,-86.029250,0.002808,
620,470,0.630820,-3.875754,0.999998,0.000186,-0.001236,0.002564,-0.000049,0.002564,-0.001237,-89.267660,0.002565,
1250,120,-0.004188,-4.886466,0.999999,0.000142,-0.000190,0.001579,0.000002,0.001579,-0.000190,89.931674,0.001724,
1800,230,-0.369079,-4.519848,0.999997,0.000212,-0.001139,0.002545,-0.000227,0.002559,-0.001153,-86.487279,0.002563,
1400,1230,-0.223653,-1.625824,0.999997,0.000199,-0.001846,0.002909,-0.000845,0.003054,-0.001991,-80.221461,0.003101,
1610,670,-0.458204,-3.537246,0.999997,0.000212,-0.001577,0.002815,0.000058,0.002816,-0.001578,89.246672,0.002822,
1240,1720,-0.004495,-0.514909,0.999998,0.000143,-0.000510,0.001738,-0.000006,0.001738,-0.000510,-89.850023,0.001786,
1170,2000,0.003319,-0.053421,0.999999,0.000131,-0.000031,0.001507,-0.000040,0.001508,-0.000032,-88.510865,0.001723,
1900,1210,-0.999445,-2.138151,0.999998,0.000000,-0.001157,0.002277,0.000064,0.002279,-0.001158,88.939302,0.002279,
910,1250,0.491842,-1.849486,0.999997,0.000205,-0.001750,0.003118,-0.000105,0.003120,-0.001752,-88.769742,0.003128,
640,150,0.279611,-4.710104,0.999997,0.000227,-0.001114,0.002641,0.000367,0.002676,-0.001150,84.473267,0.002685,
1130,1830,0.034413,-0.331575,0.999999,0.000136,-0.000407,0.001727,-0.000011,0.001728,-0.000407,-89.716232,0.001806,
1710,1200,-0.782342,-2.081547,0.999998,0.000165,-0.001262,0.002621,0.000288,0.002642,-0.001283,85.773509,0.002642,
1480,1880,-0.072638,-0.267024,0.999999,0.000130,-0.000395,0.001834,0.000152,0.001844,-0.000405,86.125964,0.001938,
1780,200,-0.308883,-4.610240,0.999998,0.000168,-0.001127,0.002559,-0.000272,0.002578,-0.001147,-85.804047,0.002584,
1090,310,0.070012,-4.546890,0.999998,0.000167,-0.000494,0.001872,-0.000006,0.001872,-0.000494,-89.846516,0.001941,
970,980,0.642193,-2.676246,0.999997,0.000187,-0.001138,0.003299,0.000169,0.003305,-0.001144,87.824220,0.003357,
1730,1870,-0.234588,-0.357207,0.999998,0.000159,-0.000882,0.002356,0.000391,0.002402,-0.000929,83.206272,0.002423,
960,180,0.086164,-4.761700,0.999998,0.000159,-0.000505,0.001895,0.000175,0.001908,-0.000518,85.862183,0.001973,
1560,1810,-0.156937,-0.424982,0.999998,0.000156,-0.000654,0.002109,0.000150,0.002117,-0.000662,86.907623,0.002165,
1190,1290,0.022688,-1.179428,0.999999,0.000147,-0.000622,0.000865,0.000576,0.001062,-0.000819,71.120567,0.001112,
1280,1370,-0.026881,-1.100024,0.999999,0.000143,-0.000640,0.001302,-0.000429,0.001393,-0.000731,-78.087580,0.001393,
570,850,0.995865,-2.894142,0.999999,0.000131,-0.001085,0.002217,0.000017,0.002217,-0.001086,89.709104,0.002217,
1200,30,0.001809,-5.025281,0.999999,0.000000,0.000016,0.001520,0.000025,0.001521,0.000016,89.039983,0.001765,
1640,1870,-0.166091,-0.323828,0.999998,0.000178,-0.000646,0.002197,0.000321,0.002232,-0.000682,83.628534,0.002288,
650,1980,0.122080,-0.126529,0.999998,0.000165,-0.000572,0.002533,-0.000898,0.002774,-0.000813,-74.980035,0.002852,
1460,1090,-0.584343,-2.278856,0.999997,0.000208,-0.001395,0.003743,-0.000028,0.003743,-0.001395,-89.691643,0.003783,
1340,1560,-0.073175,-0.828601,0.999999,0.000126,-0.000717,0.001860,-0.000227,0.001880,-0.000737,-84.996603,0.001894,
840,1890,0.138119,-0.276894,0.999999,0.000133,-0.000534,0.002100,-0.000369,0.002151,-0.000585,-82.164431,0.002224,
1510,950,-0.625830,-2.766178,0.999998,0.000191,-0.001238,0.003202,-0.000299,0.003222,-0.001258,-86.167080,0.003247,
740,1200,0.796979,-2.084968,0.999998,0.000177,-0.001283,0.002606,-0.000275,0.002626,-0.001302,-85.980920,0.002626,
1760,1810,-0.339975,-0.527331,0.999997,0.000222,-0.001151,0.002504,0.000144,0.002509,-0.001156,87.748203,0.002512,
610,1990,0.137624,-0.133134,0.999998,0.000165,-0.001097,0.002751,-0.000738,0.002888,-0.001233,-79.506194,0.002898,
1070,540,0.118489,-4.086407,0.999998,0.000142,-0.000909,0.002019,-0.000371,0.002065,-0.000955,-82.894262,0.002067,
1570,350,-0.230023,-4.377307,0.999998,0.000183,-0.000988,0.002287,0.000040,0.002287,-0.000988,89.306721,0.002294,
1820,1220,-0.900148,-2.070529,0.999999,0.000138,-0.001189,0.002408,0.000171,0.002416,-0.001197,87.285319,0.002416,
1040,310,0.099150,-4.531578,0.999998,0.000195,-0.000678,0.001968,-0.000048,0.001969,-0.000679,-88.963252,0.002000,
780,1960,0.090601,-0.143515,0.999999,0.000131,-0.000434,0.002019,-0.000510,0.002121,-0.000536,-78.705508,0.002206,
660,1120,0.947214,-2.302914,0.999998,0.000145,-0.001137,0.002358,-0.000178,0.002367,-0.001146,-87.089039,0.002367,
1230,120,0.000089,-4.886921,0.999999,0.000136,-0.000164,0.001559,-0.000011,0.001559,-0.000165,-89.633042,0.001713,
860,1260,0.565024,-1.861905,0.999997,0.000184,-0.001630,0.002994,-0.000190,0.003002,-0.001638,-87.648150,0.003006,
880,450,0.294666,-4.133560,0.999998,0.000178,-0.001138,0.002411,-0.000120,0.002415,-0.001142,-88.063027,0.002416,
1290,1330,-0.033439,-1.158659,0.999999,0.000157,-0.000711,0.001180,-0.000622,0.001366,-0.000898,-73.319803,0.001388,
1400,1210,-0.255890,-1.683306,0.999998,0.000170,-0.001849,0.002904,-0.000778,0.003028,-0.001974,-80.934375,0.003074,
1390,1830,-0.056800,-0.339978,0.999998,0.000164,-0.000393,0.001794,0.000057,0.001796,-0.000395,88.515801,0.001888,
700,1500,0.589894,-1.318063,0.999997,0.000186,-0.001317,0.002585,0.000019,0.002585,-0.001317,89.724403,0.002586,
1610,650,-0.443662,-3.591284,0.999997,0.000197,-0.001551,0.002778,0.000088,0.002780,-0.001553,88.841073,0.002786,
1690,1870,-0.204323,-0.341026,0.999998,0.000148,-0.000816,0.002325,0.000347,0.002362,-0.000853,83.774526,0.002393,
1900,1200,-1.007946,-2.160845,0.999998,0.000000,-0.001163,0.002187,0.000072,0.002189,-0.001164,88.772095,0.002190,
830,540,0.406192,-3.865663,0.999998,0.000165,-0.001343,0.002611,-0.000113,0.002614,-0.001346,-88.366594,0.002615,
1040,700,0.177953,-3.698625,0.999998,0.000163,-0.001481,0.002503,-0.000715,0.002627,-0.001606,-80.133901,0.002649,
1110,1680,0.071255,-0.609279,0.999998,0.000167,-0.000626,0.001901,0.000101,0.001905,-0.000630,87.706069,0.001941,
1470,1560,-0.187455,-0.921500,0.999998,0.000154,-0.001037,0.002214,-0.000277,0.002237,-0.001061,-85.170443,0.002238,
1160,2000,0.003769,-0.053034,0.999999,0.000126,-0.000024,0.001500,-0.000045,0.001501,-0.000025,-88.316614,0.001719,
1640,1610,-0.359735,-0.938047,0.999997,0.000194,-0.001181,0.002473,-0.000094,0.002476,-0.001183,-88.532232,0.002476,
1440,1470,-0.174644,-1.094238,0.999998,0.000162,-0.001167,0.002244,-0.000436,0.002299,-0.001222,-82.822952,0.002300,
1240,1700,-0.005240,-0.551067,0.999998,0.000163,-0.000538,0.001773,-0.000028,0.001773,-0.000538,-89.301516,0.001818,
1890,880,-1.013098,-2.831019,0.999999,0.000127,-0.001126,0.002144,-0.000049,0.002145,-0.001126,-89.139980,0.002146,
1440,1520,-0.166169,-0.985880,0.999998,0.000150,-0.001041,0.002208,-0.000362,0.002248,-0.001081,-83.726605,0.002248,
1740,1130,-0.870738,-2.268265,0.999998,0.000142,-0.001158,0.002446,0.000200,0.002457,-0.001169,86.832507,0.002458,
1650,690,-0.538214,-3.446412,0.999997,0.000209,-0.001488,0.002784,-0.000045,0.002785,-0.001489,-89.397965,0.002787,
910,1270,0.470328,-1.788408,0.999997,0.000205,-0.001767,0.003089,-0.000052,0.003090,-0.001767,-89.381577,0.003101,
1090,290,0.065864,-4.584453,0.999998,0.000161,-0.000479,0.001851,0.000025,0.001851,-0.000479,89.385324,0.001922,
680,230,0.349796,-4.533427,0.999998,0.000196,-0.001154,0.002512,0.000201,0.002523,-0.001165,86.870958,0.002525,
1480,1860,-0.081412,-0.301358,0.999998,0.000144,-0.000454,0.001881,0.000148,0.001890,-0.000463,86.378090,0.001971,
1760,970,-0.914543,-2.657592,0.999998,0.000162,-0.001095,0.002392,-0.000104,0.002395,-0.001098,-88.294083,0.002398,
1190,2020,0.002167,-0.022992,0.999999,0.000000,-0.000060,0.001489,-0.000008,0.001489,-0.000060,-89.699529,0.001685,
1000,1810,0.098518,-0.394605,0.999998,0.000149,-0.000489,0.001951,-0.000094,0.001955,-0.000493,-87.791031,0.002033,
1190,1270,0.026384,-1.193223,0.999999,0.000139,-0.000704,0.000747,0.000595,0.000960,-0.000917,70.316423,0.001084,
650,2000,0.077615,-0.077226,0.999998,0.000162,-0.000449,0.002305,-0.000885,0.002565,-0.000709,-73.636169,0.002649,
950,980,0.663608,-2.668287,0.999998,0.000153,-0.001031,0.003155,0.000216,0.003166,-0.001043,87.051587,0.003227,
1280,1350,-0.025962,-1.125268,0.999999,0.000148,-0.000659,0.001209,-0.000482,0.001326,-0.000776,-76.360641,0.001332,
1130,1810,0.037972,-0.367285,0.999998,0.000153,-0.000427,0.001760,-0.000013,0.001760,-0.000427,-89.651786,0.001836,
1780,180,-0.283540,-4.661170,0.999998,0.000176,-0.001067,0.002515,-0.000373,0.002553,-0.001105,-84.121792,0.002561,
1760,1790,-0.360853,-0.577781,0.999998,0.000232,-0.001164,0.002520,0.000108,0.002524,-0.001168,88.319344,0.002526,
1570,370,-0.239190,-4.333372,0.999998,0.000158,-0.001034,0.002292,0.000066,0.002294,-0.001035,88.860325,0.002297,
680,610,0.658702,-3.563156,0.999998,0.000235,-0.001317,0.002597,0.000019,0.002597,-0.001317,89.716432,0.002597,
1730,1850,-0.261689,-0.406334,0.999998,0.000160,-0.000959,0.002466,0.000341,0.002500,-0.000992,84.375425,0.002517,
1820,1200,-0.915370,-2.119046,0.999999,0.000135,-0.001181,0.002396,0.000201,0.002407,-0.001192,86.799122,0.002407,
1640,1850,-0.184164,-0.368337,0.999998,0.000184,-0.000705,0.002223,0.000296,0.002253,-0.000735,84.279237,0.002298,
1340,1540,-0.072563,-0.866610,0.999998,0.000147,-0.000756,0.001836,-0.000248,0.001859,-0.000780,-84.576382,0.001867,
780,1980,0.068661,-0.103543,0.999999,0.000127,-0.000337,0.001928,-0.000538,0.002050,-0.000458,-77.299567,0.002152,
1510,930,-0.601498,-2.829043,0.999998,0.000187,-0.001356,0.003241,-0.000294,0.003260,-0.001375,-86.351436,0.003274,
1020,310,0.112192,-4.524076,0.999998,0.000166,-0.000627,0.001989,-0.000015,0.001989,-0.000627,-89.660710,0.002034,
880,430,0.284926,-4.180983,0.999998,0.000159,-0.001099,0.002373,-0.000113,0.002377,-0.001103,-88.130486,0.002379,
1390,1850,-0.051687,-0.304178,0.999999,0.000145,-0.000363,0.001789,0.000084,0.001792,-0.000366,87.773834,0.001894,
870,350,0.252889,-4.362041,0.999998,0.000147,-0.001002,0.002313,-0.000024,0.002314,-0.001002,-89.585021,0.002321,
1900,1190,-1.015301,-2.182870,0.999999,0.000000,-0.001149,0.002140,0.000051,0.002141,-0.001150,89.108768,0.002143,
1070,120,0.025937,-4.880759,0.999999,0.000124,-0.000177,0.001655,0.000116,0.001663,-0.000184,86.402872,0.001823,
1610,630,-0.428985,-3.648493,0.999997,0.000192,-0.001510,0.002722,0.000112,0.002725,-0.001513,88.486474,0.002731,
660,1100,0.958162,-2.351538,0.999998,0.000144,-0.001108,0.002333,-0.000129,0.002338,-0.001113,-87.863228,0.002339,
710,600,0.610354,-3.611586,0.999998,0.000174,-0.001369,0.002613,0.000013,0.002613,-0.001369,89.815690,0.002614,
1040,680,0.171870,-3.746886,0.999998,0.000149,-0.001400,0.002405,-0.000677,0.002521,-0.001517,-80.209704,0.002539,
1240,1680,-0.004196,-0.587858,0.999998,0.000158,-0.000553,0.001778,-0.000027,0.001778,-0.000553,-89.345978,0.001820,
960,160,0.075064,-4.798349,0.999999,0.000133,-0.000435,0.001879,0.000200,0.001896,-0.000452,85.104488,0.001981,
700,1480,0.604376,-1.370983,0.999998,0.000177,-0.001338,0.002609,-0.000001,0.002609,-0.001338,-89.989061,0.002610,
1630,1920,-0.112448,-0.217279,0.999998,0.000146,-0.000414,0.002038,0.000384,0.002096,-0.000473,81.300254,0.002199,
1450,1560,-0.167020,-0.905237,0.999998,0.000171,-0.001016,0.002176,-0.000299,0.002203,-0.001044,-84.694515,0.002204,
1720,630,-0.589213,-3.557138,0.999997,0.000194,-0.001391,0.002680,-0.000025,0.002680,-0.001392,-89.652704,0.002681,
790,1200,0.731485,-2.070047,0.999998,0.000170,-0.001339,0.002731,-0.000323,0.002757,-0.001365,-85.486947,0.002757,
1290,1310,-0.032020,-1.181770,0.999999,0.000149,-0.000734,0.001120,-0.000701,0.001355,-0.000969,-71.453852,0.001396,
1070,2000,0.008568,-0.054119,0.999999,0.000133,-0.000063,0.001560,-0.000100,0.001567,-0.000069,-86.495032,0.001771,
1660,1770,-0.272874,-0.561364,0.999998,0.000184,-0.001035,0.002385,0.000119,0.002390,-0.001040,88.003058,0.002396,
1740,1210,-0.810893,-2.065752,0.999999,0.000142,-0.001278,0.002541,0.000266,0.002560,-0.001296,86.031054,0.002560,
1350,840,-0.163852,-3.557995,0.999998,0.000193,-0.001367,0.001939,0.001123,0.002285,-0.001712,72.903170,0.002378,
650,2010,0.056115,-0.055349,0.999998,0.000152,-0.000379,0.002222,-0.000889,0.002497,-0.000654,-72.822886,0.002590,
740,1180,0.814152,-2.137199,0.999998,0.000178,-0.001247,0.002566,-0.000285,0.002588,-0.001269,-85.743113,0.002588,
640,1330,0.809511,-1.800492,0.999999,0.000149,-0.001270,0.002538,-0.000126,0.002542,-0.001274,-88.109754,0.002542,
660,230,0.372453,-4.517690,0.999997,0.000211,-0.001113,0.002554,0.000194,0.002564,-0.001123,86.976840,0.002571,
740,1670,0.418178,-0.850554,0.999998,0.000182,-0.001210,0.002543,0.000000,0.002543,-0.001210,89.996196,0.002544,
1090,1680,0.082209,-0.617166,0.999998,0.000139,-0.000602,0.001911,0.000075,0.001913,-0.000605,88.283330,0.001956,
1480,1840,-0.092961,-0.340273,0.999998,0.000157,-0.000503,0.001909,0.000125,0.001915,-0.000510,87.042448,0.001984,
1190,720,0.021314,-3.905216,0.999999,0.000135,-0.000614,0.001106,-0.000457,0.001220,-0.000728,-76.015240,0.001228,
610,1970,0.186008,-0.194212,0.999998,0.000151,-0.001166,0.002779,-0.000631,0.002878,-0.001264,-81.123660,0.002885,
1780,160,-0.254072,-4.710356,0.999998,0.000187,-0.001021,0.002540,-0.000467,0.002600,-0.001081,-82.655077,0.002613,
1820,1180,-0.931490,-2.167877,0.999998,0.000152,-0.001161,0.002369,0.000184,0.002379,-0.001170,87.022536,0.002379,
910,1710,0.209783,-0.641168,0.999998,0.000184,-0.000882,0.002257,-0.000004,0.002257,-0.000882,-89.931183,0.002274,
1700,1530,-0.484886,-1.189472,0.999998,0.000167,-0.001346,0.002587,-0.000055,0.002587,-0.001347,-89.195980,0.002588,
1570,810,-0.527218,-3.157745,0.999997,0.000183,-0.001698,0.003072,-0.000176,0.003079,-0.001705,-87.886950,0.003085,
1190,1200,0.098083,-1.242733,0.999999,0.000000,-0.001836,0.000657,0.000012,0.000657,-0.001836,89.732912,0.001861,
820,90,0.070605,-4.911315,0.999999,0.000139,-0.000302,0.001900,0.000478,0.001999,-0.000402,78.273748,0.002115,
720,1070,0.900277,-2.416586,0.999998,0.000141,-0.001081,0.002435,-0.000069,0.002437,-0.001082,-88.875280,0.002442,
1760,950,-0.906410,-2.706395,0.999998,0.000151,-0.001116,0.002454,-0.000165,0.002462,-0.001124,-87.353766,0.002465,
1090,270,0.059350,-4.620443,0.999999,0.000154,-0.000451,0.001808,0.000013,0.001808,-0.000451,89.662271,0.001882,
710,720,0.712605,-3.294786,0.999998,0.000158,-0.001378,0.002630,0.000160,0.002637,-0.001385,87.711189,0.002638,
1470,1100,-0.583503,-2.255448,0.999996,0.000213,-0.001379,0.003629,0.000097,0.003630,-0.001381,88.887011,0.003665,
840,1490,0.406732,-1.230221,0.999997,0.000179,-0.001380,0.002647,0.000118,0.002651,-0.001384,88.323546,0.002652,
1000,510,0.185208,-4.090267,0.999999,0.000136,-0.001024,0.002223,-0.000305,0.002251,-0.001052,-84.682998,0.002253,
1690,1850,-0.227308,-0.390947,0.999998,0.000147,-0.000874,0.002371,0.000309,0.002400,-0.000904,84.611283,0.002425,
700,1460,0.621097,-1.422919,0.999997,0.000182,-0.001343,0.002622,-0.000004,0.002622,-0.001343,-89.941936,0.002622,
1480,370,-0.159809,-4.385596,0.999998,0.000166,-0.000848,0.002122,0.000085,0.002124,-0.000850,88.354039,0.002139,
1870,40,-0.088612,-4.960989,0.999998,0.000161,-0.000287,0.003065,-0.001441,0.003599,-0.000822,-69.656172,0.003772,
720,1710,0.412430,-0.765296,0.999997,0.000198,-0.001218,0.002509,-0.000002,0.002509,-0.001218,-89.968959,0.002509,
1900,1180,-1.022353,-2.202695,0.999999,0.000000,-0.001141,0.002084,0.000024,0.002084,-0.001141,89.569469,0.002087,
1190,1250,0.034085,-1.207539,0.999999,0.000150,-0.000866,0.000679,0.000562,0.000861,-0.001049,71.988457,0.001119,
1730,1830,-0.284072,-0.455288,0.999998,0.000172,-0.001005,0.002494,0.000286,0.002517,-0.001028,85.359578,0.002531,
1130,1790,0.041962,-0.401756,0.999998,0.000149,-0.000457,0.001755,0.000014,0.001755,-0.000457,89.646169,0.001821,
660,1080,0.964116,-2.396800,0.999998,0.000152,-0.001088,0.002316,-0.000056,0.002317,-0.001088,-89.057002,0.002319,
1760,1210,-0.835976,-2.072434,0.999999,0.000128,-0.001244,0.002502,0.000254,0.002520,-0.001261,86.137686,0.002520,
1040,660,0.167830,-3.792706,0.999998,0.000159,-0.001340,0.002347,-0.000633,0.002453,-0.001446,-80.527215,0.002466,
1050,120,0.030289,-4.879132,0.999999,0.000157,-0.000239,0.001686,0.000113,0.001692,-0.000245,86.649778,0.001829,
1240,1660,-0.003423,-0.621304,0.999998,0.000165,-0.000562,0.001781,-0.000023,0.001781,-0.000562,-89.435464,0.001821,
1510,910,-0.569569,-2.893520,0.999998,0.000181,-0.001489,0.003282,-0.000306,0.003302,-0.001509,-86.339791,0.003306,
620,1330,0.834269,-1.814291,0.999999,0.000146,-0.001213,0.002480,-0.000115,0.002484,-0.001217,-88.212963,0.002484,
740,1160,0.831435,-2.189240,0.999998,0.000158,-0.001190,0.002577,-0.000289,0.002599,-0.001212,-85.636492,0.002601,
1250,1560,-0.011827,-0.799054,0.999998,0.000161,-0.000621,0.001747,-0.000094,0.001750,-0.000624,-87.739220,0.001774,
1680,1770,-0.293786,-0.575010,0.999998,0.000179,-0.001078,0.002411,0.000108,0.002414,-0.001082,88.231895,0.002418,
1000,140,0.051022,-4.839826,0.999999,0.000123,-0.000253,0.001752,0.000184,0.001769,-0.000270,84.792437,0.001906,
1860,1520,-0.700698,-1.342636,0.999998,0.000176,-0.001248,0.002548,-0.000004,0.002548,-0.001248,-89.940890,0.002548,
1720,410,-0.433340,-4.127579,0.999998,0.000179,-0.001243,0.002540,0.000050,0.002540,-0.001244,89.238447,0.002541,
1610,610,-0.416432,-3.701985,0.999998,0.000183,-0.001455,0.002691,0.000138,0.002696,-0.001460,88.092358,0.002699,
1340,1210,-0.157383,-1.451124,0.999997,0.000205,-0.001189,0.001625,-0.000993,0.001940,-0.001504,-72.387741,0.002036,
1170,720,0.034285,-3.883179,0.999998,0.000166,-0.000700,0.001254,-0.000635,0.001442,-0.000889,-73.494838,0.001455,
610,1950,0.232527,-0.245585,0.999998,0.000158,-0.001205,0.002653,-0.000465,0.002709,-0.001260,-83.218303,0.002711,
1030,1660,0.129997,-0.684241,0.999997,0.000184,-0.000803,0.002038,0.000131,0.002044,-0.000809,87.375166,0.002058,
1420,1470,-0.151560,-1.073729,0.999998,0.000152,-0.001118,0.002152,-0.000464,0.002216,-0.001183,-82.071848,0.002218,
910,1690,0.220217,-0.685361,0.999998,0.000158,-0.000922,0.002254,0.000018,0.002254,-0.000922,89.676760,0.002267,
1440,1500,-0.169668,-1.028214,0.999998,0.000158,-0.001069,0.002203,-0.000393,0.002249,-0.001115,-83.252110,0.002249,
1780,140,-0.221459,-4.762973,0.999998,0.000175,-0.000927,0.002462,-0.000519,0.002540,-0.001005,-81.491634,0.002558,
1480,1820,-0.102100,-0.378642,0.999998,0.000164,-0.000527,0.001953,0.000084,0.001956,-0.000530,88.058330,0.002023,
1190,60,0.002197,-4.979101,0.999999,0.000143,-0.000046,0.001506,0.000034,0.001507,-0.000047,88.734785,0.001714,
1190,1190,0.123062,-1.247297,0.999962,0.000000,-0.002085,0.000548,-0.000012,0.000548,-0.002085,-89.733117,0.002162,
1790,400,-0.512459,-4.097807,0.999997,0.000186,-0.001226,0.002507,0.000018,0.002507,-0.001226,89.724748,0.002507,
1340,1520,-0.073324,-0.900665,0.999999,0.000140,-0.000771,0.001804,-0.000288,0.001836,-0.000803,-83.693865,0.001840,
1890,1680,-0.617144,-0.965659,0.999998,0.000172,-0.001266,0.002447,-0.000028,0.002447,-0.001267,-89.564481,0.002448,
700,1440,0.635148,-1.475343,0.999997,0.000183,-0.001341,0.002598,-0.000025,0.002598,-0.001341,-89.631508,0.002599,
1300,370,-0.036799,-4.454159,0.999998,0.000141,-0.000547,0.001799,0.000031,0.001800,-0.000548,89.254338,0.001845,
1690,1090,-0.837302,-2.361441,0.999998,0.000165,-0.001092,0.002572,0.000202,0.002583,-0.001103,86.855551,0.002592,
1260,250,-0.011773,-4.671457,0.999998,0.000149,-0.000369,0.001693,0.000003,0.001693,-0.000369,89.928689,0.001780,
790,70,0.061133,-4.946391,0.999999,0.000133,-0.000330,0.001894,0.000511,0.002006,-0.000442,77.655767,0.002107,
1390,1940,-0.023597,-0.151158,0.999999,0.000131,-0.000164,0.001609,0.000121,0.001617,-0.000173,86.104617,0.001776,
1090,470,0.094808,-4.242205,0.999998,0.000157,-0.000790,0.001929,-0.000247,0.001951,-0.000812,-84.858807,0.001960,
970,760,0.334039,-3.407980,0.999998,0.000164,-0.001844,0.003056,-0.000322,0.003077,-0.001865,-86.251478,0.003100,
1900,1170,-1.026444,-2.223902,0.999998,0.000000,-0.001130,0.002064,0.000027,0.002064,-0.001130,89.516489,0.002067,
820,1070,0.796210,-2.409587,0.999998,0.000160,-0.001028,0.002584,-0.000138,0.002589,-0.001033,-87.811274,0.002607,
1840,1190,-0.947699,-2.150428,0.999999,0.000133,-0.001152,0.002335,0.000159,0.002342,-0.001159,87.400829,0.002342,
1870,80,-0.194777,-4.844651,0.999998,0.000173,-0.001129,0.002984,-0.000709,0.003103,-0.001248,-80.494656,0.003122,
1290,1290,-0.034395,-1.201265,0.999998,0.000170,-0.000752,0.001042,-0.000763,0.001322,-0.001033,-69.801550,0.001390,
660,1060,0.966537,-2.444871,0.999999,0.000140,-0.001082,0.002325,-0.000071,0.002326,-0.001083,-88.798374,0.002328,
1570,790,-0.504252,-3.218900,0.999998,0.000182,-0.001724,0.003067,-0.000102,0.003069,-0.001726,-88.784805,0.003077,
660,610,0.685863,-3.548438,0.999998,0.000189,-0.001312,0.002589,0.000031,0.002589,-0.001312,89.548085,0.002589,
830,630,0.464564,-3.626433,0.999997,0.000191,-0.001486,0.002722,-0.000075,0.002723,-0.001488,-88.976545,0.002727,
1040,860,0.324912,-3.234001,0.999997,0.000186,-0.001876,0.003319,-0.000621,0.003392,-0.001950,-83.276031,0.003404,
620,850,0.938992,-2.922947,0.999999,0.000126,-0.001157,0.002386,0.000143,0.002392,-0.001162,87.688600,0.002393,
600,1710,0.557719,-0.866916,0.999998,0.000179,-0.001223,0.002496,0.000027,0.002496,-0.001224,89.583305,0.002497,
1510,720,-0.331860,-3.502464,0.999998,0.000174,-0.001725,0.002937,0.000327,0.002960,-0.001747,86.011674,0.002976,
740,1140,0.845644,-2.240416,0.999998,0.000170,-0.001137,0.002533,-0.000224,0.002546,-0.001151,-86.517837,0.002550,
1360,1430,-0.092878,-1.087095,0.999999,0.000152,-0.000941,0.001899,-0.000544,0.002000,-0.001041,-79.518930,0.002000,
710,580,0.595027,-3.664267,0.999997,0.000209,-0.001364,0.002616,-0.000033,0.002616,-0.001365,-89.518574,0.002617,
1650,1110,-0.781503,-2.306451,0.999998,0.000191,-0.001124,0.002629,0.000252,0.002646,-0.001141,86.182258,0.002654,
930,120,0.062287,-4.866520,0.999999,0.000145,-0.000275,0.001818,0.000269,0.001852,-0.000308,82.800801,0.001985,
1240,1640,-0.005057,-0.657265,0.999998,0.000158,-0.000603,0.001778,-0.000029,0.001778,-0.000604,-89.306411,0.001809,
1680,710,-0.600496,-3.369612,0.999998,0.000216,-0.001506,0.002783,-0.000108,0.002786,-0.001509,-88.561764,0.002789,
1060,2000,0.008464,-0.054893,0.999999,0.000133,-0.000083,0.001552,-0.000096,0.001558,-0.000088,-86.650672,0.001750,
610,1930,0.272548,-0.298970,0.999998,0.000176,-0.001238,0.002674,-0.000356,0.002706,-0.001270,-84.845135,0.002708,
1480,350,-0.150978,-4.427213,0.999998,0.000173,-0.000785,0.002059,0.000058,0.002060,-0.000786,88.832599,0.002079,
1860,760,-0.886258,-3.127752,0.999999,0.000133,-0.001217,0.002449,-0.000113,0.002453,-0.001221,-88.230016,0.002453,
1070,640,0.127216,-3.881345,0.999999,0.000133,-0.001142,0.002117,-0.000643,0.002239,-0.001264,-79.227125,0.002245,
1880,1950,-0.263778,-0.278102,0.999998,0.000178,-0.001165,0.002810,0.000528,0.002879,-0.001234,82.567564,0.002889,
1720,390,-0.419488,-4.178529,0.999998,0.000183,-0.001224,0.002518,0.000038,0.002518,-0.001224,89.417048,0.002519,
1000,580,0.202294,-3.930863,0.999999,0.000165,-0.001225,0.002334,-0.000447,0.002389,-0.001280,-82.953994,0.002391,
1070,1680,0.093822,-0.623489,0.999998,0.000148,-0.000687,0.001960,0.000089,0.001963,-0.000690,88.074434,0.001992,
720,2010,0.040438,-0.050202,0.999998,0.000153,-0.000277,0.002025,-0.000724,0.002234,-0.000486,-73.918767,0.002350,
580,1650,0.630984,-1.031924,0.999998,0.000166,-0.003572,0.002651,0.000198,0.002657,-0.003578,88.182413,0.003716,
1480,1800,-0.110815,-0.418230,0.999998,0.000179,-0.000568,0.002000,0.000090,0.002003,-0.000572,88.002255,0.002064,
1780,120,-0.190028,-4.809858,0.999998,0.000148,-0.000861,0.002457,-0.000628,0.002572,-0.000975,-79.636184,0.002597,
1230,1560,0.001274,-0.795803,0.999998,0.000152,-0.000647,0.001740,0.000002,0.001740,-0.000647,89.947065,0.001759,
910,1670,0.231206,-0.731467,0.999998,0.000158,-0.000967,0.002276,0.000066,0.002277,-0.000968,88.833367,0.002286,
1080,1490,0.112729,-0.994569,0.999999,0.000121,-0.000910,0.001926,0.000399,0.001981,-0.000965,82.144225,0.001982,
990,60,0.017014,-4.975425,0.999999,0.000149,-0.000059,0.001616,0.000205,0.001640,-0.000083,83.124405,0.001848,
990,1200,0.412591,-1.908808,0.999998,0.000180,-0.001882,0.003407,0.000098,0.003409,-0.001883,88.942238,0.003415,
790,510,0.440724,-3.910091,0.999998,0.000171,-0.001295,0.002572,-0.000096,0.002574,-0.001298,-88.583511,0.002574,
1610,590,-0.404470,-3.756118,0.999998,0.000184,-0.001415,0.002680,0.000155,0.002686,-0.001421,87.831971,0.002687,
1690,1830,-0.247656,-0.435634,0.999998,0.000149,-0.000936,0.002351,0.000256,0.002371,-0.000955,85.577963,0.002386,
700,680,0.690150,-3.394173,0.999998,0.000196,-0.001356,0.002612,0.000114,0.002615,-0.001359,88.359088,0.002616,
1000,590,0.203537,-3.907115,0.999999,0.000176,-0.001262,0.002373,-0.000460,0.002430,-0.001319,-82.892106,0.002433,
1870,70,-0.170622,-4.876420,0.999998,0.000169,-0.001055,0.002957,-0.000804,0.003112,-0.001210,-79.081521,0.003137,
1900,1160,-1.030919,-2.244418,0.999999,0.000000,-0.001114,0.002108,0.000048,0.002109,-0.001115,89.145231,0.002110,
800,1070,0.815435,-2.411540,0.999998,0.000157,-0.001030,0.002565,-0.000135,0.002570,-0.001035,-87.858176,0.002586,
1290,1710,-0.030259,-0.539185,0.999999,0.000129,-0.000471,0.001805,-0.000013,0.001805,-0.000471,-89.673081,0.001872,
660,1040,0.970662,-2.489903,0.999998,0.000148,-0.001059,0.002350,-0.000047,0.002351,-0.001059,-89.207623,0.002355,
1080,360,0.085200,-4.450400,0.999998,0.000170,-0.000606,0.001918,-0.000079,0.001920,-0.000609,-88.203038,0.001963,
690,980,0.931318,-2.632461,0.999998,0.000148,-0.001092,0.002364,0.000053,0.002365,-0.001093,89.121121,0.002367,
1030,950,0.521287,-2.874207,0.999997,0.000212,-0.001639,0.004050,-0.000586,0.004110,-0.001698,-84.181856,0.004130,
1570,770,-0.481063,-3.280417,0.999997,0.000203,-0.001713,0.003031,-0.000033,0.003031,-0.001713,-89.599839,0.003040,
1340,1500,-0.072463,-0.938708,0.999999,0.000130,-0.000767,0.001826,-0.000320,0.001865,-0.000805,-83.064239,0.001871,
1510,890,-0.534946,-2.960218,0.999998,0.000180,-0.001603,0.003274,-0.000250,0.003287,-0.001615,-87.078440,0.003287,
570,1650,0.673093,-1.051791,0.999927,0.001293,-0.004666,0.002766,0.000256,0.002775,-0.004675,88.028941,0.004702,
610,1910,0.309206,-0.352310,0.999998,0.000178,-0.001246,0.002604,-0.000253,0.002620,-0.001262,-86.250473,0.002621,
1000,560,0.195301,-3.977414,0.999998,0.000155,-0.001156,0.002295,-0.000388,0.002338,-0.001199,-83.662586,0.002338,
910,120,0.067296,-4.865694,0.999999,0.000135,-0.000293,0.001854,0.000329,0.001903,-0.000342,81.487462,0.002029,
1340,1430,-0.073323,-1.065853,0.999999,0.000141,-0.000894,0.001771,-0.000545,0.001879,-0.001001,-78.876334,0.001880,
740,1120,0.856926,-2.290992,0.999998,0.000173,-0.001111,0.002508,-0.000209,0.002520,-0.001123,-86.706390,0.002525,
820,1730,0.285513,-0.647928,0.999998,0.000187,-0.001016,0.002391,-0.000055,0.002392,-0.001017,-89.069794,0.002401,
1530,760,-0.400956,-3.355279,0.999998,0.000156,-0.001823,0.003077,0.000146,0.003081,-0.001828,88.295698,0.003099,
1230,1340,-0.000020,-1.109947,0.999998,0.000142,-0.000486,0.000976,0.000028,0.000977,-0.000486,88.907490,0.000977,
1860,1500,-0.715261,-1.393998,0.999998,0.000164,-0.001254,0.002567,-0.000017,0.002567,-0.001254,-89.744158,0.002567,
1110,2020,0.004709,-0.024720,0.999999,0.000000,-0.000026,0.001501,-0.000071,0.001504,-0.000030,-87.355988,0.001720,
910,1650,0.240566,-0.777117,0.999998,0.000145,-0.001043,0.002302,0.000127,0.002307,-0.001048,87.821935,0.002310,
1070,620,0.125759,-3.923835,0.999998,0.000150,-0.001109,0.002068,-0.000588,0.002173,-0.001214,-79.844998,0.002178,
1480,1780,-0.121124,-0.458957,0.999998,0.000158,-0.000602,0.001990,0.000054,0.001991,-0.000603,88.797861,0.002042,
1240,250,-0.003626,-4.672145,0.999998,0.000157,-0.000399,0.001696,0.000002,0.001696,-0.000399,89.949565,0.001773,
1790,380,-0.496905,-4.147415,0.999998,0.000174,-0.001214,0.002520,0.000016,0.002520,-0.001214,89.746971,0.002521,
1110,1420,0.086309,-1.097951,0.999998,0.000158,-0.000950,0.001868,0.000580,0.001982,-0.001065,78.804686,0.001984,
1860,1690,-0.570186,-0.913833,0.999998,0.000177,-0.001220,0.002475,-0.000032,0.002475,-0.001220,-89.498698,0.002476,
1780,100,-0.153124,-4.860790,0.999998,0.000154,-0.000721,0.002318,-0.000687,0.002466,-0.000870,-77.834108,0.002501,
670,680,0.730177,-3.373039,0.999997,0.000205,-0.001335,0.002575,0.000114,0.002578,-0.001338,88.329801,0.002579,
1050,1680,0.109995,-0.632896,0.999998,0.000174,-0.000747,0.002023,0.000133,0.002029,-0.000754,87.250588,0.002051,
1240,480,-0.005134,-4.268374,0.999998,0.000157,-0.000651,0.001714,0.000041,0.001715,-0.000651,89.013130,0.001731,
970,60,0.018588,-4.975227,0.999999,0.000154,-0.000162,0.001638,0.000208,0.001662,-0.000186,83.492982,0.001822,
1440,1480,-0.172276,-1.072796,0.999998,0.000170,-0.001137,0.002226,-0.000408,0.002274,-0.001186,-83.173178,0.002275,
1900,1150,-1.036823,-2.265711,0.999998,0.000000,-0.001080,0.002121,0.000079,0.002123,-0.001082,88.586560,0.002123,
1830,800,-0.883448,-3.048450,0.999999,0.000160,-0.001231,0.002445,-0.000167,0.002453,-0.001239,-87.411856,0.002453,
1000,570,0.200263,-3.953893,0.999999,0.000154,-0.001195,0.002300,-0.000423,0.002351,-0.001246,-83.195212,0.002352,
700,1420,0.652528,-1.526565,0.999997,0.000194,-0.001359,0.002615,-0.000060,0.002616,-0.001360,-89.137600,0.002616,
1690,1790,-0.285672,-0.532600,0.999997,0.000198,-0.001006,0.002420,0.000160,0.002427,-0.001013,87.336264,0.002438,
1610,570,-0.392228,-3.810270,0.999998,0.000186,-0.001375,0.002638,0.000165,0.002644,-0.001381,87.650597,0.002645,
1760,930,-0.895538,-2.757086,0.999998,0.000149,-0.001139,0.002425,-0.000165,0.002433,-0.001147,-87.357069,0.002434,
790,490,0.427461,-3.962722,0.999998,0.000177,-0.001285,0.002548,-0.000097,0.002550,-0.001288,-88.547867,0.002550,
1870,60,-0.146711,-4.904636,0.999998,0.000198,-0.000891,0.002927,-0.000971,0.003160,-0.001124,-76.515589,0.003204,
1870,1260,-0.927712,-2.002936,0.999999,0.000140,-0.001158,0.002365,0.000092,0.002368,-0.001161,88.505036,0.002368,
1120,2000,0.005860,-0.053291,0.999999,0.000143,-0.000079,0.001517,-0.000070,0.001520,-0.000082,-87.479768,0.001710,
660,280,0.427274,-4.391179,0.999998,0.000198,-0.001175,0.002537,0.000108,0.002540,-0.001179,88.340119,0.002542,
720,2000,0.055571,-0.070594,0.999998,0.000165,-0.000369,0.002068,-0.000708,0.002259,-0.000559,-74.924344,0.002353,
1040,120,0.032705,-4.878535,0.999999,0.000160,-0.000255,0.001705,0.000129,0.001713,-0.000263,86.254229,0.001845,
600,1270,0.910957,-1.974795,0.999998,0.000149,-0.001190,0.002377,-0.000110,0.002380,-0.001193,-88.233068,0.002380,
1570,750,-0.463333,-3.340441,0.999997,0.000214,-0.001688,0.003015,0.000012,0.003015,-0.001688,89.858503,0.003022,
830,610,0.450125,-3.680611,0.999997,0.000190,-0.001470,0.002716,-0.000090,0.002718,-0.001472,-88.771073,0.002721,
1080,1660,0.091787,-0.657269,0.999998,0.000143,-0.000680,0.001929,0.000118,0.001935,-0.000686,87.408841,0.001962,
670,980,0.953281,-2.632468,0.999998,0.000197,-0.001067,0.002326,0.000050,0.002327,-0.001068,89.152964,0.002329,
610,1890,0.340643,-0.403022,0.999998,0.000176,-0.001231,0.002608,-0.000184,0.002617,-0.001240,-87.263498,0.002618,
1650,1130,-0.768016,-2.252484,0.999998,0.000175,-0.001187,0.002694,0.000304,0.002718,-0.001211,85.544238,0.002723,
1820,1160,-0.944352,-2.214306,0.999998,0.000164,-0.001122,0.002341,0.000127,0.002346,-0.001126,87.906343,0.002347,
990,720,0.268106,-3.557943,0.999997,0.000218,-0.001703,0.002812,-0.000497,0.002866,-0.001757,-83.793933,0.002891,
740,1650,0.435710,-0.902336,0.999998,0.000195,-0.001215,0.002525,0.000028,0.002525,-0.001215,89.573616,0.002526,
1600,630,-0.414922,-3.656192,0.999997,0.000189,-0.001493,0.002729,0.000139,0.002734,-0.001497,88.118424,0.002738,
1180,1750,0.023832,-0.467874,0.999998,0.000149,-0.000439,0.001761,0.000021,0.001761,-0.000439,89.457537,0.001834,
940,1330,0.358017,-1.569529,0.999998,0.000180,-0.001718,0.002971,0.000249,0.002984,-0.001732,86.971097,0.002997,
740,1100,0.867462,-2.341519,0.999998,0.000156,-0.001105,0.002479,-0.000203,0.002490,-0.001116,-86.774680,0.002495,
1270,1320,-0.019024,-1.146576,0.999999,0.000139,-0.000597,0.000945,-0.000449,0.001066,-0.000718,-74.879979,0.001088,
580,120,0.296972,-4.717199,0.999997,0.000219,-0.000867,0.002802,0.000529,0.002876,-0.000941,81.963032,0.002933,
1000,540,0.191138,-4.022997,0.999998,0.000153,-0.001091,0.002290,-0.000340,0.002324,-0.001124,-84.311797,0.002324,
1530,740,-0.382599,-3.415807,0.999997,0.000202,-0.001781,0.003020,0.000200,0.003029,-0.001789,87.621113,0.003045,
1860,1460,-0.745174,-1.495562,0.999998,0.000178,-0.001271,0.002569,-0.000005,0.002569,-0.001271,-89.925468,0.002569,
1480,1760,-0.128008,-0.498496,0.999998,0.000165,-0.000645,0.002057,0.000029,0.002057,-0.000645,89.383164,0.002104,
1070,600,0.123276,-3.965295,0.999999,0.000139,-0.001055,0.002041,-0.000543,0.002134,-0.001147,-80.334115,0.002136,
700,1630,0.497301,-0.984842,0.999998,0.000155,-0.001262,0.002530,0.000049,0.002530,-0.001263,89.256387,0.002530,
1780,80,-0.122154,-4.904116,0.999998,0.000156,-0.000555,0.002358,-0.000865,0.002595,-0.000792,-74.652874,0.002660,
1090,1420,0.105142,-1.121266,0.999999,0.000117,-0.001020,0.001982,0.000624,0.002106,-0.001145,78.711175,0.002109,
920,650,0.340744,-3.660876,0.999998,0.000169,-0.001541,0.002739,-0.000268,0.002755,-0.001558,-86.428835,0.002763,
1240,1620,-0.004619,-0.694705,0.999998,0.000160,-0.000608,0.001780,-0.000055,0.001781,-0.000609,-88.686981,0.001810,
790,470,0.415311,-4.012284,0.999998,0.000172,-0.001258,0.002530,-0.000088,0.002532,-0.001260,-88.674531,0.002532,
590,1710,0.570865,-0.876442,0.999998,0.000176,-0.001578,0.002432,0.000136,0.002437,-0.001583,88.057777,0.002473,
1460,350,-0.137012,-4.436355,0.999998,0.000167,-0.000711,0.002019,0.000054,0.002020,-0.000712,88.863026,0.002049,
1690,1770,-0.305547,-0.581029,0.999998,0.000189,-0.001035,0.002427,0.000110,0.002431,-0.001038,88.176507,0.002439,
700,1380,0.685861,-1.632492,0.999998,0.000177,-0.001345,0.002635,-0.000092,0.002637,-0.001347,-88.671680,0.002637,
1190,860,0.109233,-3.794640,0.999998,0.000000,-0.001961,0.000455,-0.000104,0.000459,-0.001966,-87.541787,0.002057,
1870,1690,-0.582968,-0.922525,0.999998,0.000160,-0.001248,0.002462,-0.000030,0.002462,-0.001249,-89.544220,0.002462,
830,590,0.437528,-3.737547,0.999997,0.000182,-0.001443,0.002646,-0.000098,0.002649,-0.001446,-88.634599,0.002652,
1290,1730,-0.028933,-0.502013,0.999998,0.000149,-0.000438,0.001819,0.000005,0.001819,-0.000438,89.883794,0.001898,
910,1630,0.249616,-0.824133,0.999998,0.000147,-0.001087,0.002344,0.000150,0.002350,-0.001094,87.499832,0.002352,
1620,1010,-0.779752,-2.565158,0.999998,0.000189,-0.000957,0.002611,-0.000098,0.002613,-0.000960,-88.422632,0.002644,
1440,1460,-0.177748,-1.115202,0.999998,0.000155,-0.001199,0.002289,-0.000478,0.002353,-0.001263,-82.339127,0.002355,
1510,870,-0.506205,-3.024812,0.999998,0.000201,-0.001732,0.003303,-0.000150,0.003308,-0.001736,-88.300205,0.003309,
1340,390,-0.063426,-4.405782,0.999998,0.000152,-0.000642,0.001870,0.000130,0.001877,-0.000649,87.038681,0.001907,
1080,1620,0.099585,-0.736302,0.999998,0.000149,-0.000794,0.001963,0.000205,0.001978,-0.000810,85.769328,0.001989,
1040,80,0.020547,-4.943867,0.999999,0.000142,-0.000156,0.001597,0.000132,0.001607,-0.000166,85.719065,0.001768,
1820,1140,-0.955494,-2.260377,0.999998,0.000162,-0.001101,0.002329,0.000145,0.002335,-0.001107,87.576603,0.002336,
1410,1680,-0.106806,-0.632546,0.999999,0.000133,-0.000753,0.001998,-0.000122,0.002004,-0.000758,-87.468175,0.002023,
1900,1140,-1.042738,-2.287910,0.999998,0.000000,-0.001065,0.002145,0.000101,0.002148,-0.001068,88.199918,0.002148,
850,60,0.034764,-4.969879,0.999999,0.000143,-0.000146,0.001806,0.000407,0.001887,-0.000227,78.692932,0.002060,
1570,730,-0.443599,-3.400507,0.999997,0.000214,-0.001667,0.002981,0.000038,0.002981,-0.001668,89.528561,0.002988,
610,1870,0.372316,-0.456669,0.999998,0.000191,-0.001227,0.002581,-0.000139,0.002586,-0.001232,-87.916749,0.002587,
1600,730,-0.493825,-3.372004,0.999997,0.000188,-0.001650,0.002944,-0.000024,0.002944,-0.001650,-89.701620,0.002951,
1880,1150,-1.015295,-2.258567,0.999998,0.000157,-0.001083,0.002197,0.000069,0.002198,-0.001085,88.802555,0.002198,
920,1330,0.391465,-1.593640,0.999998,0.000228,-0.001723,0.002987,0.000154,0.002992,-0.001728,88.130303,0.003004,
670,1040,0.960440,-2.489429,0.999998,0.000145,-0.001082,0.002349,-0.000050,0.002350,-0.001083,-89.165018,0.002352,
660,1020,0.972613,-2.536951,0.999998,0.000169,-0.001051,0.002355,0.000051,0.002356,-0.001052,89.136862,0.002361,
1340,1920,-0.019867,-0.179730,0.999999,0.000127,-0.000218,0.001624,0.000039,0.001624,-0.000219,88.798532,0.001763,
1160,1750,0.033091,-0.468500,0.999998,0.000165,-0.000448,0.001780,-0.000002,0.001780,-0.000448,-89.957128,0.001852,
1830,780,-0.865235,-3.097964,0.999999,0.000139,-0.001256,0.002455,-0.000146,0.002461,-0.001261,-87.754002,0.002461,
1610,550,-0.380721,-3.860396,0.999998,0.000182,-0.001371,0.002551,0.000148,0.002557,-0.001376,87.841587,0.002559,
1510,760,-0.364807,-3.383236,0.999998,0.000173,-0.001818,0.003080,0.000247,0.003093,-0.001830,87.116213,0.003110,
1370,280,-0.061657,-4.602775,0.999998,0.000160,-0.000472,0.001856,-0.000026,0.001856,-0.000472,-89.354590,0.001930,
1000,520,0.187099,-4.068183,0.999999,0.000148,-0.001038,0.002247,-0.000321,0.002278,-0.001069,-84.476423,0.002279,
1740,770,-0.742102,-3.169897,0.999999,0.000183,-0.001365,0.002650,-0.000209,0.002660,-0.001375,-87.033128,0.002661,
1230,1320,0.000310,-1.128217,0.999998,0.000145,-0.000495,0.000841,0.000015,0.000841,-0.000495,89.354034,0.000845,
660,1330,0.782693,-1.787436,0.999998,0.000150,-0.001291,0.002573,-0.000149,0.002579,-0.001297,-87.800544,0.002579,
740,1520,0.522982,-1.234729,0.999998,0.000184,-0.001334,0.002608,0.000056,0.002609,-0.001335,89.185311,0.002609,
1860,1440,-0.762786,-1.547975,0.999998,0.000186,-0.001251,0.002556,0.000002,0.002556,-0.001251,89.965743,0.002556,
1520,810,-0.438389,-3.210356,0.999998,0.000177,-0.001848,0.003224,-0.000001,0.003224,-0.001848,-89.992394,0.003235,
960,140,0.064311,-4.835312,0.999999,0.000141,-0.000363,0.001819,0.000182,0.001834,-0.000378,85.261713,0.001936,
1470,1000,-0.632772,-2.621630,0.999997,0.000196,-0.001196,0.003778,-0.000015,0.003778,-0.001196,-89.825568,0.003861,
1480,1740,-0.138232,-0.541172,0.999998,0.000166,-0.000687,0.002080,0.000006,0.002080,-0.000687,89.871826,0.002119,
1310,120,-0.012240,-4.886680,0.999998,0.000169,-0.000143,0.001618,-0.000049,0.001620,-0.000145,-88.418223,0.001792,
1240,1580,-0.006702,-0.760774,0.999999,0.000141,-0.000609,0.001706,-0.000037,0.001707,-0.000610,-89.096896,0.001730,
1780,60,-0.076567,-4.954838,0.999999,0.000174,-0.000331,0.002286,-0.000918,0.002576,-0.000621,-72.470611,0.002689,
790,450,0.402599,-4.064459,0.999998,0.000172,-0.001233,0.002491,-0.000078,0.002492,-0.001235,-88.799777,0.002492,
1110,2000,0.006058,-0.053881,0.999999,0.000135,-0.000059,0.001532,-0.000077,0.001535,-0.000062,-87.235118,0.001738,
770,1200,0.759073,-2.076566,0.999998,0.000157,-0.001312,0.002685,-0.000311,0.002709,-0.001337,-85.573376,0.002709,
850,1460,0.412032,-1.300736,0.999997,0.000204,-0.001443,0.002637,0.000142,0.002642,-0.001448,88.010193,0.002646,
870,310,0.227314,-4.456735,0.999998,0.000154,-0.000926,0.002297,0.000046,0.002298,-0.000927,89.186438,0.002312,
910,1610,0.259382,-0.871333,0.999998,0.000163,-0.001124,0.002375,0.000151,0.002382,-0.001130,87.536297,0.002383,
1340,370,-0.060645,-4.444279,0.999999,0.000132,-0.000620,0.001886,0.000089,0.001889,-0.000623,87.979482,0.001925,
1690,1750,-0.320676,-0.629378,0.999998,0.000186,-0.001067,0.002419,0.000058,0.002420,-0.001068,89.052641,0.002425,
700,1360,0.704336,-1.685545,0.999998,0.000175,-0.001318,0.002615,-0.000120,0.002619,-0.001321,-88.252820,0.002619,
1190,1560,0.026079,-0.802197,0.999999,0.000127,-0.000622,0.001722,0.000091,0.001726,-0.000625,87.788796,0.001747,
630,1840,0.389438,-0.510882,0.999998,0.000183,-0.001211,0.002579,-0.000124,0.002583,-0.001215,-88.122541,0.002585,
610,1850,0.400356,-0.506394,0.999997,0.000187,-0.001212,0.002524,-0.000102,0.002527,-0.001215,-88.435644,0.002528,
1880,1690,-0.595117,-0.932033,0.999998,0.000166,-0.001267,0.002455,-0.000025,0.002455,-0.001267,-89.607469,0.002455,
1030,1490,0.163772,-1.044121,0.999999,0.000139,-0.001099,0.002202,0.000410,0.002252,-0.001149,83.031897,0.002252,
1080,800,0.165831,-3.534398,0.999998,0.000182,-0.001702,0.002569,-0.001052,0.002814,-0.001947,-76.891707,0.002882,
1650,1150,-0.748681,-2.198793,0.999998,0.000170,-0.001229,0.002709,0.000323,0.002735,-0.001255,85.347826,0.002738,
700,1610,0.510825,-1.036838,0.999998,0.000160,-0.001271,0.002523,0.000047,0.002524,-0.001272,89.287099,0.002524,
1900,1130,-1.047152,-2.308681,0.999998,0.000000,-0.001061,0.002187,0.000102,0.002190,-0.001064,88.198115,0.002190,
1400,1750,-0.081903,-0.489957,0.999998,0.000188,-0.000585,0.001900,-0.000028,0.001900,-0.000586,-89.348557,0.001947,
1890,920,-1.035256,-2.745370,0.999998,0.000162,-0.001097,0.002162,-0.000036,0.002163,-0.001098,-89.369917,0.002163,
1510,850,-0.475790,-3.091373,0.999998,0.000201,-0.001797,0.003313,-0.000097,0.003315,-0.001799,-88.917847,0.003319,
1130,1770,0.044939,-0.436929,0.999998,0.000143,-0.000488,0.001816,0.000030,0.001816,-0.000488,89.242800,0.001880,
1870,280,-0.507739,-4.328331,0.999997,0.000186,-0.001222,0.002462,-0.000024,0.002462,-0.001222,-89.630484,0.002462,
1180,2020,0.002426,-0.022866,0.999999,0.000000,-0.000019,0.001487,0.000004,0.001487,-0.000019,89.834451,0.001706,
1440,1440,-0.178366,-1.164270,0.999998,0.000164,-0.001260,0.002336,-0.000555,0.002420,-0.001344,-81.422459,0.002425,
1390,1870,-0.044818,-0.268855,0.999999,0.000135,-0.000323,0.001719,0.000071,0.001722,-0.000325,88.000296,0.001829,
1570,710,-0.424438,-3.460605,0.999998,0.000210,-0.001664,0.002913,0.000098,0.002915,-0.001666,88.771491,0.002925,
830,60,0.038136,-4.968346,0.999999,0.000124,-0.000143,0.001842,0.000455,0.001941,-0.000243,77.682968,0.002116,
810,700,0.550846,-3.415480,0.999998,0.000210,-0.001508,0.002804,0.000072,0.002805,-0.001509,89.043929,0.002808,
580,1710,0.582256,-0.885101,0.999998,0.000184,-0.002662,0.002360,0.000340,0.002383,-0.002685,86.138989,0.002941,
820,450,0.365756,-4.087620,0.999997,0.000187,-0.001187,0.002452,-0.000098,0.002454,-0.001190,-88.462596,0.002455,
1180,310,0.024333,-4.564989,0.999999,0.000113,-0.000428,0.001795,0.000002,0.001795,-0.000428,89.953317,0.001875,
660,980,0.962619,-2.630749,0.999998,0.000195,-0.001057,0.002293,0.000041,0.002294,-0.001057,89.299758,0.002296,
1290,1220,-0.081289,-1.266411,0.999997,0.000201,-0.001184,0.000848,-0.000440,0.000940,-0.001275,-78.284205,0.001322,
1000,500,0.181872,-4.112034,0.999998,0.000155,-0.001019,0.002210,-0.000296,0.002237,-0.001046,-84.802243,0.002238,
1170,1680,0.034053,-0.593444,0.999999,0.000120,-0.000545,0.001782,0.000014,0.001782,-0.000545,89.657520,0.001827,
1480,980,-0.627919,-2.687505,0.999998,0.000198,-0.001129,0.003476,-0.000124,0.003480,-0.001132,-88.455633,0.003550,
1740,210,-0.276599,-4.615089,0.999998,0.000185,-0.001030,0.002490,-0.000297,0.002515,-0.001055,-85.207251,0.002526,
740,1540,0.508129,-1.181922,0.999997,0.000189,-0.001324,0.002587,0.000059,0.002588,-0.001325,89.142959,0.002588,
1770,1990,-0.084195,-0.096319,0.999999,0.000137,-0.000414,0.002284,0.000861,0.002535,-0.000666,73.726533,0.002629,
960,120,0.054594,-4.871878,0.999998,0.000157,-0.000317,0.001766,0.000222,0.001790,-0.000340,83.991513,0.001901,
790,430,0.389111,-4.114045,0.999998,0.000185,-0.001194,0.002494,-0.000052,0.002495,-0.001195,-89.188632,0.002495,
970,1480,0.237079,-1.129426,0.999998,0.000151,-0.001267,0.002446,0.000362,0.002481,-0.001302,84.482252,0.002482,
700,1340,0.721561,-1.737353,0.999998,0.000182,-0.001342,0.002624,-0.000153,0.002630,-0.001348,-87.787727,0.002630,
1690,1730,-0.336581,-0.677744,0.999998,0.000183,-0.001075,0.002485,0.000051,0.002485,-0.001076,89.183238,0.002493,
1410,440,-0.120540,-4.278682,0.999998,0.000174,-0.000823,0.002029,0.000203,0.002043,-0.000837,85.956707,0.002054,
1520,790,-0.414736,-3.275404,0.999997,0.000190,-0.001860,0.003167,0.000091,0.003168,-0.001862,88.959361,0.003184,
1900,1120,-1.052791,-2.330509,0.999999,0.000000,-0.001043,0.002176,0.000078,0.002178,-0.001045,88.609181,0.002179,
1860,1420,-0.776900,-1.599692,0.999998,0.000190,-0.001249,0.002544,0.000023,0.002544,-0.001249,89.645872,0.002544,
1880,1140,-1.021014,-2.281029,0.999998,0.000153,-0.001070,0.002188,0.000090,0.002190,-0.001072,88.414591,0.002191,
850,280,0.225630,-4.513850,0.999998,0.000190,-0.000893,0.002304,0.000118,0.002308,-0.000897,87.897185,0.002327,
1440,1420,-0.184569,-1.210512,0.999998,0.000159,-0.001313,0.002318,-0.000555,0.002401,-0.001396,-81.498719,0.002412,
650,1040,0.981439,-2.491091,0.999998,0.000163,-0.001071,0.002331,-0.000045,0.002331,-0.001071,-89.243970,0.002334,
1240,1560,-0.005390,-0.796428,0.999998,0.000146,-0.000625,0.001743,-0.000058,0.001744,-0.000627,-88.593177,0.001767,
990,880,0.456464,-3.046285,0.999997,0.000210,-0.001810,0.003452,0.000011,0.003452,-0.001810,89.877158,0.003453,
1030,1470,0.166539,-1.087277,0.999998,0.000148,-0.001126,0.002241,0.000455,0.002301,-0.001186,82.442334,0.002302,
1190,1230,0.047544,-1.220175,0.999998,0.000147,-0.001120,0.000740,0.000383,0.000816,-0.001196,78.801283,0.001222,
740,850,0.793736,-2.965958,0.999998,0.000151,-0.001323,0.002626,0.000288,0.002647,-0.001344,85.855644,0.002647,
620,320,0.512318,-4.252982,0.999998,0.000187,-0.001228,0.002515,-0.000028,0.002515,-0.001228,-89.568558,0.002515,
790,700,0.578650,-3.401320,0.999997,0.000225,-0.001456,0.002770,0.000084,0.002771,-0.001458,88.865264,0.002772,
1510,830,-0.445748,-3.157530,0.999997,0.000207,-0.001853,0.003263,-0.000032,0.003263,-0.001853,-89.639108,0.003273,
1480,490,-0.196372,-4.121912,0.999999,0.000129,-0.001018,0.002227,0.000274,0.002250,-0.001041,85.211854,0.002252,
940,1810,0.135313,-0.413699,0.999998,0.000164,-0.000670,0.002082,-0.000124,0.002088,-0.000676,-87.434693,0.002130,
1600,610,-0.401552,-3.710838,0.999998,0.000180,-0.001451,0.002692,0.000159,0.002699,-0.001457,87.806850,0.002701,
1570,690,-0.410482,-3.517857,0.999997,0.000203,-0.001643,0.002861,0.000143,0.002865,-0.001647,88.187375,0.002876,
1370,260,-0.056825,-4.639731,0.999999,0.000115,-0.000420,0.001804,-0.000017,0.001805,-0.000420,-89.565736,0.001889,
1080,780,0.148812,-3.585063,0.999998,0.000160,-0.001621,0.002429,-0.001029,0.002676,-0.001867,-76.527616,0.002745,
1330,120,-0.015590,-4.884438,0.999998,0.000147,-0.000182,0.001633,-0.000038,0.001634,-0.000183,-88.794002,0.001790,
1340,1940,-0.017019,-0.148279,0.999998,0.000149,-0.000171,0.001604,0.000056,0.001605,-0.000172,88.193697,0.001763,
710,1200,0.836313,-2.094680,0.999998,0.000148,-0.001255,0.002524,-0.000255,0.002541,-0.001272,-86.154286,0.002541,
1170,1560,0.038764,-0.807264,0.999999,0.000134,-0.000681,0.001740,0.000140,0.001748,-0.000689,86.706060,0.001761,
740,1560,0.494712,-1.131467,0.999997,0.000199,-0.001310,0.002539,0.000065,0.002541,-0.001311,89.034947,0.002541,
1830,860,-0.930355,-2.905971,0.999999,0.000143,-0.001158,0.002385,-0.000187,0.002395,-0.001168,-86.993601,0.002396,
1130,1750,0.047744,-0.475388,0.999998,0.000152,-0.000529,0.001824,0.000054,0.001825,-0.000530,88.674912,0.001878,
1360,1470,-0.091619,-1.011320,0.999999,0.000138,-0.000895,0.001919,-0.000449,0.001989,-0.000965,-81.152133,0.001989,
640,1750,0.476140,-0.730898,0.999998,0.000200,-0.001210,0.002526,-0.000023,0.002526,-0.001210,-89.641208,0.002527,
1730,1810,-0.306521,-0.505120,0.999998,0.000169,-0.001061,0.002461,0.000253,0.002479,-0.001079,85.916157,0.002486,
1610,530,-0.369433,-3.911191,0.999998,0.000173,-0.001338,0.002564,0.000138,0.002569,-0.001343,87.978980,0.002570,
660,960,0.960842,-2.677037,0.999998,0.000187,-0.001089,0.002342,0.000121,0.002346,-0.001093,87.976572,0.002348,
910,1590,0.266900,-0.919469,0.999998,0.000165,-0.001144,0.002378,0.000177,0.002387,-0.001152,87.132201,0.002388,
860,1700,0.266182,-0.694648,0.999998,0.000150,-0.001016,0.002302,-0.000002,0.002302,-0.001016,-89.964938,0.002307,
1180,1190,0.138700,-1.273183,0.999962,0.000000,-0.001925,0.000599,0.000057,0.000601,-0.001926,88.713973,0.001971,
1050,60,0.011559,-4.977031,0.999999,0.000135,-0.000106,0.001565,0.000127,0.001575,-0.000116,85.662932,0.001755,
1450,1000,-0.607700,-2.637630,0.999997,0.000225,-0.001447,0.004271,0.000130,0.004274,-0.001450,88.697109,0.004347,
960,1630,0.199494,-0.790561,0.999998,0.000153,-0.000945,0.002230,0.000158,0.002238,-0.000953,87.159080,0.002246,
840,650,0.463785,-3.581516,0.999997,0.000175,-0.001526,0.002811,-0.000084,0.002812,-0.001528,-88.888614,0.002816,
1880,1520,-0.724955,-1.358336,0.999997,0.000190,-0.001261,0.002542,-0.000009,0.002542,-0.001261,-89.859566,0.002542,
1610,520,-0.364118,-3.937848,0.999997,0.000191,-0.001311,0.002571,0.000128,0.002575,-0.001316,88.109678,0.002575,
1270,720,-0.018956,-3.907968,0.999999,0.000136,-0.000581,0.001055,0.000416,0.001155,-0.000680,76.531395,0.001161,
790,410,0.376575,-4.164324,0.999998,0.000180,-0.001174,0.002498,-0.000029,0.002498,-0.001175,-89.553429,0.002500,
1740,190,-0.252031,-4.663688,0.999998,0.000162,-0.000994,0.002450,-0.000334,0.002482,-0.001026,-84.512108,0.002494,
830,1480,0.427056,-1.265084,0.999997,0.000196,-0.001416,0.002671,0.000101,0.002673,-0.001419,88.589061,0.002675,
1880,1130,-1.026194,-2.303134,0.999999,0.000148,-0.001072,0.002194,0.000096,0.002197,-0.001075,88.311336,0.002197,
700,1320,0.738837,-1.791078,0.999998,0.000189,-0.001341,0.002622,-0.000182,0.002630,-0.001350,-87.373031,0.002630,
1690,1710,-0.353315,-0.730210,0.999998,0.000174,-0.001079,0.002471,0.000031,0.002471,-0.001079,89.499343,0.002477,
1390,1890,-0.038587,-0.234393,0.999999,0.000126,-0.000285,0.001744,0.000090,0.001748,-0.000289,87.458052,0.001875,
1290,1750,-0.027478,-0.466427,0.999999,0.000135,-0.000410,0.001763,0.000003,0.001763,-0.000410,89.923193,0.001846,
1480,1720,-0.145171,-0.581563,0.999998,0.000153,-0.000740,0.002063,-0.000040,0.002064,-0.000741,-89.180977,0.002091,
1150,2000,0.004471,-0.053410,0.999999,0.000131,-0.000044,0.001494,-0.000056,0.001496,-0.000046,-87.903783,0.001702,
850,260,0.211556,-4.558971,0.999998,0.000190,-0.000852,0.002239,0.000156,0.002246,-0.000860,87.117428,0.002267,
1440,1400,-0.189053,-1.257992,0.999998,0.000173,-0.001384,0.002422,-0.000576,0.002507,-0.001469,-81.586494,0.002520,
960,100,0.041550,-4.906712,0.999999,0.000151,-0.000288,0.001724,0.000232,0.001750,-0.000314,83.512877,0.001866,
1150,1680,0.045159,-0.596217,0.999998,0.000147,-0.000577,0.001838,0.000071,0.001840,-0.000580,88.328903,0.001881,
1660,1250,-0.662998,-1.925577,0.999998,0.000198,-0.001461,0.002799,0.000254,0.002815,-0.001476,86.594064,0.002816,
1100,890,0.298841,-3.406299,0.999997,0.000196,-0.000810,0.001887,-0.001329,0.002432,-0.001355,-67.708006,0.002437,
830,570,0.422837,-3.789071,0.999998,0.000174,-0.001408,0.002622,-0.000122,0.002625,-0.001412,-88.274019,0.002628,
990,900,0.492115,-2.976576,0.999998,0.000172,-0.001722,0.003524,0.000069,0.003525,-0.001723,89.251093,0.003525,
1700,1890,-0.189852,-0.300059,0.999998,0.000157,-0.000725,0.002273,0.000434,0.002334,-0.000787,81.928993,0.002375,
1320,370,-0.048426,-4.451258,0.999999,0.000124,-0.000595,0.001849,0.000072,0.001851,-0.000597,88.319832,0.001890,
1820,1120,-0.966905,-2.307872,0.999999,0.000151,-0.001091,0.002339,0.000154,0.002346,-0.001098,87.436333,0.002348,
1190,830,0.051841,-3.816110,0.999998,0.000162,-0.001212,0.000697,-0.000295,0.000741,-0.001257,-81.417565,0.001263,
1770,1970,-0.124090,-0.145969,0.999998,0.000136,-0.000618,0.002221,0.000727,0.002396,-0.000793,76.442417,0.002442,
950,1340,0.332262,-1.529093,0.999998,0.000165,-0.001704,0.002915,0.000326,0.002938,-0.001727,85.986548,0.002953,
1860,1400,-0.794116,-1.649995,0.999998,0.000166,-0.001263,0.002514,0.000052,0.002515,-0.001263,89.204866,0.002515,
620,340,0.530235,-4.203801,0.999998,0.000185,-0.001236,0.002486,-0.000029,0.002487,-0.001236,-89.560754,0.002487,
760,850,0.766640,-2.973848,0.999997,0.000185,-0.001306,0.002684,0.000297,0.002706,-0.001328,85.764377,0.002707,
1510,810,-0.419814,-3.223216,0.999997,0.000202,-0.001885,0.003244,0.000051,0.003244,-0.001885,89.429417,0.003259,
1030,1450,0.168730,-1.132937,0.999999,0.000139,-0.001183,0.002254,0.000497,0.002325,-0.001254,81.929582,0.002327,
1000,480,0.176608,-4.156781,0.999998,0.000154,-0.001015,0.002194,-0.000278,0.002218,-0.001039,-85.080902,0.002220,
1570,670,-0.394787,-3.576218,0.999997,0.000209,-0.001587,0.002836,0.000158,0.002841,-0.001592,87.961279,0.002848,
1010,1260,0.289918,-1.669309,0.999998,0.000181,-0.001930,0.003132,0.000512,0.003183,-0.001981,84.286058,0.003214,
1240,1540,-0.005404,-0.831390,0.999999,0.000131,-0.000637,0.001677,-0.000045,0.001678,-0.000638,-88.884254,0.001694,
1480,470,-0.191925,-4.165134,0.999999,0.000143,-0.000999,0.002189,0.000232,0.002206,-0.001016,85.852377,0.002208,
1200,1810,0.012405,-0.360796,0.999998,0.000141,-0.000351,0.001697,0.000005,0.001697,-0.000351,89.848310,0.001791,
1830,840,-0.914646,-2.953365,0.999999,0.000151,-0.001173,0.002352,-0.000155,0.002359,-0.001180,-87.480443,0.002359,
1610,510,-0.357712,-3.963584,0.999998,0.000189,-0.001282,0.002546,0.000129,0.002550,-0.001286,88.071702,0.002550,
1760,570,-0.598094,-3.685505,0.999998,0.000181,-0.001329,0.002588,0.000007,0.002588,-0.001329,89.897682,0.002588,
740,1580,0.481961,-1.079650,0.999997,0.000194,-0.001294,0.002579,0.000067,0.002580,-0.001295,89.003499,0.002580,
1130,1730,0.051262,-0.509497,0.999998,0.000157,-0.000558,0.001821,0.000064,0.001823,-0.000559,88.458584,0.001868,
860,1680,0.278385,-0.739140,0.999998,0.000149,-0.001064,0.002331,0.000026,0.002331,-0.001064,89.565811,0.002334,
690,1200,0.860188,-2.101575,0.999998,0.000160,-0.001189,0.002474,-0.000230,0.002488,-0.001203,-86.413321,0.002489,
1540,490,-0.264596,-4.071763,0.999998,0.000161,-0.001187,0.002362,0.000218,0.002376,-0.001200,86.496372,0.002376,
1140,2000,0.004792,-0.053545,0.999999,0.000119,-0.000075,0.001498,-0.000063,0.001500,-0.000078,-87.720116,0.001689,
1080,760,0.137411,-3.635131,0.999998,0.000172,-0.001523,0.002369,-0.000976,0.002600,-0.001754,-76.680824,0.002652,
1880,1120,-1.032088,-2.324460,0.999999,0.000145,-0.001066,0.002193,0.000079,0.002195,-0.001068,88.614125,0.002195,
1690,1690,-0.365518,-0.778251,0.999998,0.000167,-0.001092,0.002435,-0.000004,0.002435,-0.001092,-89.930647,0.002439,
700,1300,0.759634,-1.841713,0.999998,0.000180,-0.001319,0.002606,-0.000196,0.002616,-0.001329,-87.152448,0.002616,
790,390,0.364041,-4.212788,0.999998,0.000172,-0.001145,0.002456,-0.000033,0.002457,-0.001145,-89.470909,0.002459,
870,680,0.440051,-3.524347,0.999997,0.000203,-0.001603,0.002834,-0.000095,0.002836,-0.001605,-88.778439,0.002844,
1400,380,-0.099932,-4.403248,0.999998,0.000158,-0.000724,0.001972,0.000146,0.001980,-0.000731,86.918578,0.002002,
1290,1770,-0.026204,-0.432240,0.999998,0.000146,-0.000389,0.001750,0.000020,0.001750,-0.000389,89.464456,0.001838,
1480,1680,-0.160966,-0.666386,0.999998,0.000164,-0.000858,0.002136,-0.000124,0.002141,-0.000863,-87.627065,0.002154,
910,1570,0.277088,-0.965418,0.999998,0.000175,-0.001184,0.002390,0.000179,0.002399,-0.001193,87.142720,0.002399,
1440,1380,-0.194288,-1.305678,0.999998,0.000165,-0.001459,0.002512,-0.000618,0.002606,-0.001553,-81.359963,0.002622,
1450,980,-0.588263,-2.719011,0.999998,0.000202,-0.001458,0.004015,0.000168,0.004020,-0.001464,88.240508,0.004070,
1090,890,0.308477,-3.351857,0.999997,0.000188,-0.001017,0.002186,-0.001334,0.002669,-0.001500,-70.100963,0.002676,
1030,60,0.013831,-4.975806,0.999999,0.000128,-0.000102,0.001587,0.000142,0.001599,-0.000113,85.216062,0.001785,
1740,170,-0.226078,-4.713359,0.999998,0.000164,-0.000933,0.002406,-0.000407,0.002455,-0.000982,-83.151608,0.002471,
1640,1250,-0.633773,-1.914264,0.999998,0.000186,-0.001527,0.002876,0.000244,0.002890,-0.001540,86.837485,0.002892,
1420,570,-0.149500,-3.998691,0.999998,0.000152,-0.001090,0.002117,0.000464,0.002183,-0.001156,81.925216,0.002185,
1030,1600,0.142761,-0.805720,0.999998,0.000150,-0.000862,0.002091,0.000221,0.002108,-0.000879,85.751132,0.002117,
820,590,0.451198,-3.726017,0.999997,0.000176,-0.001437,0.002647,-0.000089,0.002649,-0.001439,-88.753646,0.002653,
1860,1380,-0.811035,-1.699111,0.999998,0.000155,-0.001263,0.002537,0.000044,0.002538,-0.001263,89.329677,0.002538,
1650,1170,-0.732799,-2.144798,0.999998,0.000193,-0.001288,0.002732,0.000316,0.002756,-0.001313,85.530606,0.002757,
1770,1950,-0.154255,-0.186674,0.999998,0.000151,-0.000817,0.002323,0.000629,0.002445,-0.000938,79.081661,0.002467,
1900,1110,-1.059134,-2.354059,0.999998,0.000000,-0.001021,0.002129,0.000036,0.002130,-0.001022,89.351585,0.002130,
1380,1810,-0.057477,-0.374852,0.999998,0.000172,-0.000409,0.001803,0.000068,0.001805,-0.000411,88.232756,0.001892,
830,1460,0.440847,-1.318170,0.999997,0.000175,-0.001432,0.002677,0.000114,0.002680,-0.001435,88.413590,0.002682,
1570,650,-0.382206,-3.630935,0.999997,0.000209,-0.001540,0.002780,0.000196,0.002789,-0.001548,87.408214,0.002795,
1510,1010,-0.679154,-2.571659,0.999998,0.000196,-0.000935,0.003140,-0.000098,0.003142,-0.000938,-88.625527,0.003226,
1820,1100,-0.976680,-2.354281,0.999998,0.000161,-0.001082,0.002300,0.000110,0.002303,-0.001086,88.144413,0.002304,
890,920,0.667944,-2.822371,0.999998,0.000162,-0.001270,0.002901,0.000360,0.002932,-0.001301,85.101430,0.002938,
1370,1620,-0.087226,-0.729849,0.999998,0.000181,-0.000746,0.001908,-0.000170,0.001919,-0.000757,-86.342022,0.001933,
860,1930,0.091029,-0.191914,0.999998,0.000170,-0.000430,0.001945,-0.000356,0.001997,-0.000483,-81.645811,0.002084,
830,550,0.411494,-3.840759,0.999998,0.000174,-0.001358,0.002616,-0.000121,0.002620,-0.001361,-88.252931,0.002621,
1030,1430,0.171132,-1.178145,0.999998,0.000161,-0.001264,0.002306,0.000544,0.002387,-0.001345,81.516370,0.002393,
1190,70,0.003091,-4.963972,0.999999,0.000147,-0.000064,0.001524,0.000047,0.001525,-0.000065,88.303897,0.001725,
1350,120,-0.019785,-4.882529,0.999998,0.000155,-0.000197,0.001633,-0.000081,0.001637,-0.000200,-87.463303,0.001785,
620,360,0.546103,-4.154123,0.999998,0.000187,-0.001250,0.002519,-0.000019,0.002519,-0.001250,-89.710650,0.002519,
1000,460,0.171660,-4.200903,0.999998,0.000163,-0.000986,0.002187,-0.000241,0.002205,-0.001004,-85.684751,0.002208,
1340,1960,-0.011479,-0.115940,0.999999,0.000143,-0.000128,0.001601,0.000056,0.001603,-0.000129,88.152790,0.001781,
1510,1340,-0.327575,-1.522627,0.999997,0.000212,-0.001741,0.002891,-0.000334,0.002915,-0.001765,-85.895849,0.002937,
860,590,0.393800,-3.762014,0.999998,0.000182,-0.001395,0.002657,-0.000152,0.002662,-0.001400,-87.848459,0.002664,
860,1660,0.287608,-0.788130,0.999998,0.000145,-0.001079,0.002404,0.000044,0.002405,-0.001080,89.282438,0.002409,
1080,1410,0.116681,-1.154826,0.999999,0.000133,-0.001120,0.002056,0.000660,0.002188,-0.001251,78.718226,0.002195,
820,1390,0.505750,-1.518772,0.999998,0.000209,-0.001524,0.002758,0.000013,0.002758,-0.001524,89.822935,0.002763,
1480,610,-0.230253,-3.839379,0.999998,0.000156,-0.001352,0.002476,0.000443,0.002526,-0.001403,83.481474,0.002532,
1240,1520,-0.004669,-0.864201,0.999999,0.000130,-0.000637,0.001644,-0.000038,0.001645,-0.000637,-89.053748,0.001659,
1610,490,-0.347914,-4.014327,0.999998,0.000182,-0.001244,0.002477,0.000155,0.002484,-0.001251,87.625066,0.002484,
1130,2000,0.005613,-0.053575,0.999999,0.000116,-0.000086,0.001505,-0.000063,0.001508,-0.000088,-87.752389,0.001692,
790,370,0.350549,-4.262166,0.999998,0.000176,-0.001138,0.002444,-0.000026,0.002444,-0.001138,-89.581481,0.002446,
1870,780,-0.914714,-3.073323,0.999999,0.000126,-0.001170,0.002387,-0.000080,0.002389,-0.001172,-88.706862,0.002389,
910,1550,0.284920,-1.014039,0.999998,0.000172,-0.001218,0.002442,0.000204,0.002454,-0.001229,86.820809,0.002454,
1540,470,-0.257072,-4.118058,0.999999,0.000151,-0.001145,0.002377,0.000189,0.002387,-0.001155,86.939921,0.002387,
1220,1750,0.005945,-0.463968,0.999998,0.000198,-0.000473,0.001772,0.000012,0.001772,-0.000473,89.688699,0.001835,
1080,740,0.131172,-3.680496,0.999998,0.000174,-0.001427,0.002281,-0.000954,0.002512,-0.001658,-76.383068,0.002554,
1300,260,-0.027794,-4.650536,0.999998,0.000141,-0.000380,0.001744,-0.000020,0.001744,-0.000380,-89.459374,0.001834,
1400,360,-0.096227,-4.444203,0.999998,0.000162,-0.000684,0.001960,0.000092,0.001963,-0.000687,88.009614,0.001992,
1360,770,-0.110018,-3.668365,0.999998,0.000170,-0.001380,0.002053,0.001083,0.002366,-0.001693,73.878648,0.002438,
1740,150,-0.198323,-4.762071,0.999998,0.000205,-0.000850,0.002367,-0.000480,0.002437,-0.000920,-81.689509,0.002462,
1080,890,0.319627,-3.298565,0.999998,0.000190,-0.001246,0.002525,-0.001298,0.002929,-0.001649,-72.732027,0.002936,
590,1200,0.977124,-2.143610,0.999999,0.000108,-0.001088,0.002305,-0.000100,0.002308,-0.001091,-88.309320,0.002309,
1480,1660,-0.166944,-0.708795,0.999998,0.000174,-0.000907,0.002143,-0.000149,0.002150,-0.000914,-87.216435,0.002159,
680,790,0.816818,-3.097777,0.999998,0.000153,-0.001278,0.002532,0.000229,0.002546,-0.001292,86.568537,0.002546,
870,660,0.425335,-3.580543,0.999997,0.000194,-0.001552,0.002806,-0.000143,0.002811,-0.001557,-88.116824,0.002816,
1570,630,-0.369692,-3.687111,0.999998,0.000175,-0.001508,0.002723,0.000220,0.002734,-0.001520,87.026798,0.002740,
590,1040,1.045170,-2.493377,0.999998,0.000164,-0.001010,0.002176,-0.000061,0.002177,-0.001011,-88.904302,0.002179,
830,530,0.401347,-3.892483,0.999998,0.000171,-0.001330,0.002589,-0.000112,0.002592,-0.001333,-88.367166,0.002592,
690,1540,0.574211,-1.222689,0.999997,0.000196,-0.001297,0.002594,0.000033,0.002594,-0.001297,89.509429,0.002594,
1900,1100,-1.060996,-2.374179,0.999998,0.000000,-0.001003,0.002059,-0.000028,0.002060,-0.001003,-89.468317,0.002060,
660,940,0.949200,-2.724141,0.999998,0.000167,-0.001112,0.002375,0.000192,0.002386,-0.001123,86.860272,0.002387,
1770,1930,-0.190326,-0.237717,0.999998,0.000153,-0.000906,0.002428,0.000584,0.002527,-0.001005,80.341919,0.002544,
1820,340,-0.501095,-4.222901,0.999998,0.000184,-0.001229,0.002553,-0.000012,0.002553,-0.001229,-89.820478,0.002554,
1510,290,-0.148343,-4.538702,0.999998,0.000161,-0.000775,0.002063,-0.000043,0.002063,-0.000775,-89.131589,0.002084,
840,590,0.422437,-3.744915,0.999998,0.000179,-0.001428,0.002656,-0.000114,0.002659,-0.001432,-88.401146,0.002661,
1030,1410,0.178177,-1.223646,0.999998,0.000168,-0.001326,0.002353,0.000586,0.002444,-0.001417,81.168263,0.002454,
1650,1610,-0.371960,-0.945987,0.999998,0.000181,-0.001177,0.002483,-0.000092,0.002485,-0.001179,-88.556806,0.002486,
860,1640,0.299169,-0.837464,0.999998,0.000157,-0.001083,0.002420,0.000053,0.002421,-0.001084,89.139706,0.002425,
1360,1810,-0.050373,-0.372350,0.999999,0.000130,-0.000415,0.001780,0.000019,0.001780,-0.000415,89.512319,0.001863,
1490,1340,-0.293957,-1.494501,0.999997,0.000210,-0.001714,0.002874,-0.000430,0.002914,-0.001754,-84.688701,0.002934,
620,380,0.563754,-4.103142,0.999998,0.000170,-0.001252,0.002511,-0.000019,0.002511,-0.001252,-89.705162,0.002511,
870,920,0.693023,-2.815939,0.999998,0.000181,-0.001238,0.002839,0.000359,0.002871,-0.001269,85.011670,0.002877,
1240,310,-0.003652,-4.568067,0.999998,0.000170,-0.000486,0.001759,0.000016,0.001759,-0.000486,89.602804,0.001817,
850,1840,0.175178,-0.380365,0.999998,0.000150,-0.000687,0.002168,-0.000248,0.002189,-0.000709,-85.075296,0.002234,
790,350,0.336753,-4.310265,0.999998,0.000176,-0.001135,0.002463,-0.000002,0.002463,-0.001135,-89.971788,0.002466,
1350,1620,-0.074529,-0.722329,0.999998,0.000201,-0.000675,0.001875,-0.000159,0.001885,-0.000685,-86.456428,0.001909,
1190,810,0.036730,-3.829588,0.999998,0.000159,-0.000915,0.000705,-0.000526,0.000861,-0.001071,-73.492464,0.001135,
1240,1500,-0.006033,-0.896550,0.999998,0.000147,-0.000625,0.001627,-0.000059,0.001628,-0.000627,-88.505456,0.001642,
1370,120,-0.023823,-4.881936,0.999999,0.000145,-0.000154,0.001630,-0.000097,0.001635,-0.000159,-86.889183,0.001803,
1210,2000,0.000864,-0.052142,0.999999,0.000134,-0.000095,0.001492,-0.000008,0.001492,-0.000095,-89.717154,0.001671,
800,1390,0.535756,-1.533460,0.999998,0.000188,-0.001503,0.002754,-0.000020,0.002754,-0.001503,-89.737337,0.002758,
1400,340,-0.090804,-4.482522,0.999998,0.000156,-0.000646,0.001916,0.000056,0.001917,-0.000647,88.752234,0.001950,
1130,60,0.006150,-4.978544,0.999999,0.000138,-0.000095,0.001529,0.000083,0.001533,-0.000099,87.091117,0.001716,
1890,1340,-0.882904,-1.823710,0.999998,0.000152,-0.001227,0.002452,0.000073,0.002454,-0.001228,88.870773,0.002454,
660,790,0.841300,-3.087854,0.999998,0.000158,-0.001248,0.002506,0.000209,0.002517,-0.001260,86.819970,0.002517,
920,310,0.184678,-4.481589,0.999998,0.000196,-0.000767,0.002170,0.000020,0.002170,-0.000767,89.608399,0.002200,
1080,720,0.126843,-3.724420,0.999998,0.000168,-0.001351,0.002194,-0.000894,0.002407,-0.001564,-76.625401,0.002443,
1010,700,0.224684,-3.645900,0.999998,0.000182,-0.001604,0.002677,-0.000590,0.002757,-0.001684,-82.290243,0.002779,
1300,240,-0.024369,-4.684868,0.999999,0.000136,-0.000346,0.001727,-0.000029,0.001727,-0.000346,-89.205752,0.001828,
640,70,0.117216,-4.921725,0.999998,0.000159,-0.000783,0.002547,0.000800,0.002729,-0.000965,77.172239,0.002768,
1590,1680,-0.263439,-0.733706,0.999998,0.000181,-0.001013,0.002335,-0.000055,0.002336,-0.001014,-89.054522,0.002343,
590,1190,0.984650,-2.166579,0.999999,0.000137,-0.001076,0.002269,-0.000086,0.002271,-0.001078,-88.520472,0.002272,
1000,440,0.165820,-4.244310,0.999998,0.000175,-0.000946,0.002163,-0.000212,0.002178,-0.000960,-86.120425,0.002183,
1860,1360,-0.828293,-1.750789,0.999998,0.000149,-0.001243,0.002538,0.000056,0.002539,-0.001244,89.151884,0.002539,
580,1040,1.054943,-2.493686,0.999999,0.000145,-0.000954,0.002122,-0.000066,0.002123,-0.000956,-88.766108,0.002127,
830,510,0.388045,-3.943874,0.999997,0.000176,-0.001292,0.002539,-0.000110,0.002542,-0.001295,-88.356057,0.002542,
1560,1800,-0.164094,-0.446651,0.999998,0.000157,-0.000688,0.002130,0.000144,0.002137,-0.000695,87.082568,0.002180,
1820,1080,-0.982834,-2.399241,0.999998,0.000202,-0.001075,0.002272,0.000040,0.002272,-0.001075,89.308594,0.002273,
1770,1910,-0.219623,-0.283538,0.999998,0.000149,-0.000975,0.002449,0.000485,0.002516,-0.001042,82.091403,0.002528,
1030,1390,0.184243,-1.273183,0.999998,0.000184,-0.001382,0.002414,0.000630,0.002516,-0.001484,80.813823,0.002529,
860,1620,0.309004,-0.884327,0.999998,0.000170,-0.001131,0.002411,0.000101,0.002414,-0.001134,88.374784,0.002415,
1520,340,-0.180667,-4.426387,0.999998,0.000194,-0.000825,0.002233,-0.000002,0.002233,-0.000825,-89.962970,0.002258,
1640,370,-0.312278,-4.286355,0.999997,0.000175,-0.001089,0.002392,0.000000,0.002392,-0.001089,89.993678,0.002395,
1450,1020,-0.613378,-2.550644,0.999997,0.000243,-0.001473,0.004255,0.000044,0.004256,-0.001473,89.559101,0.004322,
800,1590,0.400268,-1.005809,0.999998,0.000195,-0.001266,0.002518,0.000090,0.002520,-0.001268,88.632661,0.002520,
1480,1640,-0.176203,-0.753717,0.999998,0.000172,-0.000937,0.002210,-0.000149,0.002217,-0.000944,-87.292390,0.002225,
1560,1330,-0.422625,-1.612800,0.999997,0.000194,-0.001699,0.002977,-0.000122,0.002981,-0.001702,-88.503259,0.002991,
760,690,0.614027,-3.408248,0.999997,0.000221,-0.001458,0.002729,0.000099,0.002731,-0.001461,88.641662,0.002734,
1040,330,0.106168,-4.491716,0.999998,0.000172,-0.000714,0.001980,-0.000055,0.001981,-0.000715,-88.825900,0.002007,
620,820,0.914450,-2.992782,0.999999,0.000137,-0.001173,0.002325,0.000142,0.002331,-0.001179,87.684061,0.002331,
1820,710,-0.790788,-3.279236,0.999998,0.000176,-0.001247,0.002537,-0.000107,0.002540,-0.001250,-88.382302,0.002540,
800,530,0.439539,-3.867745,0.999998,0.000174,-0.001322,0.002601,-0.000110,0.002604,-0.001325,-88.398706,0.002604,
930,2000,0.021060,-0.057749,0.999999,0.000135,-0.000055,0.001636,-0.000262,0.001676,-0.000094,-81.403498,0.001883,
1850,780,-0.891017,-3.084884,0.999999,0.000122,-0.001228,0.002426,-0.000118,0.002430,-0.001232,-88.148759,0.002430,
1190,770,0.023314,-3.857548,0.999998,0.000173,-0.000667,0.000808,-0.000581,0.001009,-0.000869,-70.895633,0.001093,
790,330,0.321140,-4.360168,0.999998,0.000186,-0.001106,0.002465,0.000026,0.002465,-0.001106,89.579913,0.002470,
1610,470,-0.337296,-4.063322,0.999998,0.000179,-0.001218,0.002485,0.000131,0.002489,-0.001223,87.978583,0.002489,
1240,1480,-0.005883,-0.928738,0.999998,0.000152,-0.000603,0.001566,-0.000068,0.001568,-0.000605,-88.193264,0.001581,
1380,1750,-0.072891,-0.485446,0.999998,0.000148,-0.000491,0.001855,-0.000003,0.001855,-0.000491,-89.920783,0.001922,
910,1530,0.293448,-1.065006,0.999998,0.000184,-0.001272,0.002474,0.000255,0.002491,-0.001289,86.126901,0.002491,
1880,1340,-0.870714,-1.816430,0.999999,0.000150,-0.001231,0.002455,0.000062,0.002456,-0.001232,89.039155,0.002456,
830,1840,0.188496,-0.388278,0.999998,0.000160,-0.000715,0.002210,-0.000286,0.002238,-0.000743,-84.472424,0.002279,
790,120,0.117420,-4.844969,0.999999,0.000141,-0.000579,0.002109,0.000467,0.002187,-0.000658,80.415046,0.002245,
670,1800,0.390260,-0.579189,0.999997,0.000207,-0.001187,0.002573,-0.000147,0.002579,-0.001193,-87.769082,0.002582,
1340,1980,-0.010845,-0.084726,0.999999,0.000146,-0.000097,0.001545,0.000076,0.001549,-0.000100,87.362125,0.001734,
930,840,0.500985,-3.097673,0.999998,0.000186,-0.001765,0.003235,0.000167,0.003240,-0.001770,88.091769,0.003245,
1010,680,0.215299,-3.699246,0.999998,0.000171,-0.001524,0.002595,-0.000586,0.002677,-0.001606,-82.063210,0.002694,
1900,1090,-1.061878,-2.393302,0.999998,0.000000,-0.000987,0.001971,-0.000063,0.001973,-0.000988,-88.781431,0.001973,
840,1350,0.508866,-1.614536,0.999997,0.000223,-0.001607,0.002854,-0.000022,0.002855,-0.001607,-89.717080,0.002862,
570,1040,1.064324,-2.493550,0.999995,0.000264,-0.000916,0.002063,-0.000078,0.002066,-0.000918,-88.507068,0.002070,
880,470,0.305144,-4.085283,0.999998,0.000189,-0.001198,0.002433,-0.000166,0.002441,-0.001206,-87.387276,0.002441,
1400,320,-0.086805,-4.521060,0.999998,0.000169,-0.000602,0.001914,0.000034,0.001914,-0.000602,89.216331,0.001957,
660,920,0.938146,-2.770866,0.999998,0.000164,-0.001118,0.002339,0.000169,0.002347,-0.001126,87.203160,0.002347,
1300,220,-0.022276,-4.719681,0.999998,0.000157,-0.000326,0.001708,-0.000039,0.001708,-0.000327,-88.903724,0.001814,
1570,1680,-0.243327,-0.720966,0.999997,0.000182,-0.001047,0.002294,-0.000057,0.002295,-0.001048,-89.023466,0.002298,
1080,700,0.120752,-3.769849,0.999998,0.000159,-0.001256,0.002180,-0.000815,0.002363,-0.001440,-77.304623,0.002382,
1570,610,-0.359525,-3.740460,0.999998,0.000198,-0.001467,0.002664,0.000230,0.002677,-0.001480,86.824157,0.002682,
1860,1340,-0.846596,-1.800810,0.999998,0.000147,-0.001240,0.002464,0.000063,0.002465,-0.001241,89.018513,0.002465,
680,510,0.582810,-3.823092,0.999998,0.000179,-0.001276,0.002560,-0.000035,0.002560,-0.001276,-89.476987,0.002560,
1000,420,0.160450,-4.288699,0.999998,0.000176,-0.000906,0.002143,-0.000171,0.002153,-0.000916,-86.804506,0.002161,
860,1600,0.321249,-0.933229,0.999998,0.000169,-0.001174,0.002457,0.000134,0.002462,-0.001179,87.887298,0.002462,
1270,1620,-0.025407,-0.697907,0.999998,0.000185,-0.000630,0.001799,-0.000054,0.001801,-0.000631,-88.734867,0.001827,
590,320,0.549494,-4.225866,0.999998,0.000181,-0.001403,0.002577,-0.000030,0.002577,-0.001403,-89.574164,0.002580,
1520,380,-0.199278,-4.338773,0.999998,0.000162,-0.000887,0.002170,0.000105,0.002174,-0.000891,88.026409,0.002186,
1480,1620,-0.180856,-0.796835,0.999998,0.000170,-0.000968,0.002194,-0.000193,0.002206,-0.000979,-86.527483,0.002211,
1540,1350,-0.372384,-1.530958,0.999997,0.000192,-0.001684,0.002883,-0.000202,0.002892,-0.001693,-87.468443,0.002906,
1570,260,-0.175381,-4.578491,0.999998,0.000155,-0.000769,0.002133,-0.000107,0.002137,-0.000773,-87.883116,0.002164,
830,1520,0.401722,-1.159866,0.999997,0.000195,-0.001326,0.002563,0.000118,0.002566,-0.001330,88.267306,0.002567,
1650,1590,-0.382983,-0.996643,0.999998,0.000163,-0.001215,0.002489,-0.000105,0.002492,-0.001218,-88.376401,0.002492,
830,490,0.376772,-3.994599,0.999998,0.000164,-0.001256,0.002520,-0.000102,0.002522,-0.001259,-88.447113,0.002522,
780,1500,0.483272,-1.254177,0.999998,0.000184,-0.001383,0.002624,0.000063,0.002625,-0.001384,89.094884,0.002626,
940,2000,0.020595,-0.058504,0.999999,0.000135,-0.000095,0.001619,-0.000251,0.001655,-0.000131,-81.839526,0.001840,
940,690,0.332692,-3.571542,0.999997,0.000198,-0.001664,0.002833,-0.000301,0.002853,-0.001684,-86.183732,0.002869,
1360,1750,-0.062981,-0.480540,0.999998,0.000167,-0.000496,0.001833,-0.000023,0.001834,-0.000496,-89.436992,0.001897,
850,1260,0.580533,-1.870012,0.999997,0.000184,-0.001585,0.002964,-0.000209,0.002973,-0.001595,-87.378172,0.002976,
650,1800,0.412633,-0.595332,0.999997,0.000193,-0.001182,0.002576,-0.000127,0.002581,-0.001187,-88.062220,0.002584,
1780,380,-0.485571,-4.154563,0.999998,0.000182,-0.001204,0.002510,0.000021,0.002510,-0.001204,89.671534,0.002511,
1470,560,-0.204258,-3.970206,0.999999,0.000143,-0.001203,0.002317,0.000368,0.002355,-0.001241,84.097994,0.002356,
1010,380,0.141519,-4.376991,0.999998,0.000171,-0.000766,0.002093,-0.000098,0.002096,-0.000770,-88.040013,0.002121,
1900,1080,-1.063169,-2.413804,0.999998,0.000000,-0.000994,0.001912,0.000005,0.001912,-0.000994,89.898246,0.001913,
630,1200,0.930668,-2.122552,0.999998,0.000151,-0.001176,0.002394,-0.000174,0.002402,-0.001185,-87.213544,0.002402,
1350,490,-0.080365,-4.215299,0.999998,0.000139,-0.000719,0.001892,0.000213,0.001910,-0.000736,85.370966,0.001926,
1400,300,-0.080974,-4.558845,0.999998,0.000168,-0.000564,0.001905,0.000032,0.001905,-0.000565,89.255841,0.001957,
1430,1020,-0.583502,-2.557972,0.999996,0.000231,-0.002107,0.005140,0.000158,0.005144,-0.002111,88.749149,0.005171,
660,900,0.926970,-2.819237,0.999998,0.000155,-0.001138,0.002368,0.000151,0.002375,-0.001144,87.537298,0.002375,
740,1070,0.878778,-2.415435,0.999998,0.000171,-0.001080,0.002489,-0.000094,0.002491,-0.001083,-88.494801,0.002498,
1240,1460,-0.005001,-0.959402,0.999999,0.000130,-0.000587,0.001490,-0.000077,0.001493,-0.000589,-87.890719,0.001504,
1620,1930,-0.099021,-0.196070,0.999998,0.000146,-0.000397,0.002002,0.000388,0.002064,-0.000458,81.029284,0.002167,
1300,200,-0.019186,-4.754377,0.999998,0.000174,-0.000285,0.001706,-0.000049,0.001707,-0.000287,-88.593390,0.001829,
1050,260,0.077097,-4.631052,0.999998,0.000154,-0.000537,0.001857,0.000018,0.001857,-0.000537,89.569060,0.001911,
1080,680,0.120202,-3.811891,0.999999,0.000141,-0.001189,0.002136,-0.000736,0.002291,-0.001344,-78.063148,0.002303,
1570,570,-0.337934,-3.845156,0.999998,0.000184,-0.001378,0.002590,0.000201,0.002601,-0.001388,87.105465,0.002602,
860,1580,0.331960,-0.984008,0.999998,0.000178,-0.001225,0.002476,0.000138,0.002481,-0.001230,87.867388,0.002481,
930,820,0.474704,-3.161894,0.999998,0.000182,-0.001807,0.003200,0.000069,0.003201,-0.001808,89.206037,0.003210,
1030,1370,0.187013,-1.320087,0.999998,0.000169,-0.001449,0.002517,0.000668,0.002626,-0.001559,80.694583,0.002642,
1480,1600,-0.187624,-0.841121,0.999998,0.000155,-0.000984,0.002186,-0.000207,0.002200,-0.000998,-86.278620,0.002203,
580,320,0.561874,-4.216253,0.999998,0.000181,-0.002193,0.002942,-0.000205,0.002950,-0.002201,-87.712190,0.003067,
690,1420,0.665693,-1.533812,0.999997,0.000199,-0.001356,0.002604,-0.000072,0.002606,-0.001357,-88.960671,0.002606,
720,1750,0.379107,-0.665477,0.999998,0.000192,-0.001149,0.002520,-0.000060,0.002521,-0.001150,-89.061706,0.002524,
910,770,0.451779,-3.297587,0.999997,0.000188,-0.001773,0.003107,-0.000004,0.003107,-0.001773,-89.957825,0.003118,
830,180,0.157568,-4.728538,0.999998,0.000179,-0.000595,0.002134,0.000332,0.002174,-0.000634,83.169051,0.002236,
1250,1620,-0.011985,-0.695053,0.999998,0.000165,-0.000625,0.001792,-0.000073,0.001794,-0.000627,-88.277109,0.001821,
1820,1040,-0.989385,-2.491323,0.999998,0.000162,-0.001066,0.002305,0.000056,0.002306,-0.001067,89.053584,0.002308,
1650,1570,-0.394641,-1.044273,0.999997,0.000173,-0.001252,0.002520,-0.000093,0.002522,-0.001254,-88.594610,0.002522,
650,1140,0.948219,-2.258622,0.999999,0.000140,-0.001141,0.002337,-0.000140,0.002343,-0.001146,-87.701924,0.002343,
810,120,0.106026,-4.850685,0.999999,0.000140,-0.000484,0.002054,0.000437,0.002127,-0.000558,80.493231,0.002206,
1520,1820,-0.126261,-0.392846,0.999998,0.000161,-0.000635,0.002016,0.000124,0.002022,-0.000641,87.328738,0.002067,
790,310,0.307275,-4.409794,0.999998,0.000193,-0.001081,0.002405,0.000064,0.002406,-0.001083,88.945333,0.002410,
830,690,0.510519,-3.459721,0.999997,0.000223,-0.001569,0.002793,0.000024,0.002793,-0.001569,89.685822,0.002800,
1420,1810,-0.076515,-0.383314,0.999998,0.000147,-0.000530,0.001867,0.000007,0.001867,-0.000530,89.842867,0.001925,
770,920,0.814562,-2.791348,0.999999,0.000144,-0.001178,0.002572,0.000236,0.002587,-0.001192,86.419741,0.002589,
1550,1680,-0.223239,-0.706994,0.999998,0.000164,-0.000941,0.002238,-0.000037,0.002238,-0.000941,-89.328370,0.002248,
1260,1750,-0.013731,-0.465116,0.999998,0.000177,-0.000487,0.001766,-0.000021,0.001766,-0.000488,-89.469888,0.001824,
1860,1320,-0.863298,-1.849549,0.999998,0.000138,-0.001232,0.002455,0.000069,0.002456,-0.001233,88.923185,0.002456,
680,490,0.568658,-3.873374,0.999998,0.000155,-0.001268,0.002568,-0.000052,0.002569,-0.001268,-89.220807,0.002569,
1190,750,0.022389,-3.873206,0.999998,0.000147,-0.000618,0.000891,-0.000514,0.001049,-0.000776,-72.864835,0.001089,
1700,750,-0.666840,-3.245457,0.999998,0.000167,-0.001441,0.002729,-0.000188,0.002738,-0.001449,-87.421325,0.002739,
620,800,0.899892,-3.040219,0.999999,0.000146,-0.001208,0.002422,0.000129,0.002426,-0.001213,87.973042,0.002426,
850,1240,0.603845,-1.928846,0.999998,0.000167,-0.001561,0.002938,-0.000247,0.002951,-0.001575,-86.864023,0.002953,
1610,450,-0.327436,-4.111951,0.999998,0.000165,-0.001178,0.002466,0.000130,0.002470,-0.001183,87.960228,0.002471,
1250,2000,-0.000514,-0.053557,0.999999,0.000115,-0.000013,0.001501,-0.000002,0.001501,-0.000013,-89.914650,0.001726,
650,1780,0.435093,-0.645379,0.999997,0.000192,-0.001220,0.002525,-0.000086,0.002527,-0.001221,-88.681068,0.002528,
1780,400,-0.499529,-4.104532,0.999997,0.000188,-0.001235,0.002526,0.000024,0.002526,-0.001235,89.634744,0.002526,
1450,620,-0.195415,-3.850319,0.999998,0.000155,-0.001283,0.002370,0.000521,0.002443,-0.001356,82.038747,0.002448,
1010,400,0.146384,-4.336571,0.999998,0.000163,-0.000803,0.002073,-0.000130,0.002079,-0.000809,-87.413769,0.002096,
1400,280,-0.076121,-4.597658,0.999998,0.000159,-0.000543,0.001888,-0.000006,0.001888,-0.000543,-89.850476,0.001944,
610,1200,0.955095,-2.133245,0.999999,0.000127,-0.001128,0.002355,-0.000142,0.002361,-0.001134,-87.672475,0.002362,
730,980,0.888729,-2.636527,0.999998,0.000145,-0.001102,0.002446,0.000091,0.002448,-0.001105,88.531271,0.002452,
1300,180,-0.016919,-4.788453,0.999999,0.000150,-0.000250,0.001654,-0.000034,0.001655,-0.000251,-88.975696,0.001783,
1900,1070,-1.065256,-2.432761,0.999998,0.000000,-0.001019,0.001914,0.000071,0.001916,-0.001020,88.607320,0.001917,
1080,660,0.117774,-3.854672,0.999998,0.000153,-0.001136,0.002070,-0.000680,0.002208,-0.001274,-78.510928,0.002217,
720,1730,0.396553,-0.715446,0.999998,0.000171,-0.001177,0.002492,-0.000019,0.002492,-0.001177,-89.704884,0.002493,
980,190,0.081297,-4.745929,0.999998,0.000147,-0.000460,0.001853,0.000162,0.001864,-0.000472,86.017317,0.001939,
1440,1360,-0.201778,-1.358977,0.999998,0.000168,-0.001534,0.002611,-0.000651,0.002711,-0.001634,-81.280600,0.002730,
1580,1870,-0.127352,-0.306724,0.999998,0.000172,-0.000622,0.002035,0.000258,0.002059,-0.000646,84.508261,0.002106,
1700,930,-0.827332,-2.766075,0.999998,0.000212,-0.001139,0.002542,-0.000219,0.002555,-0.001152,-86.606641,0.002559,
1050,280,0.083962,-4.592724,0.999998,0.000178,-0.000594,0.001893,-0.000003,0.001893,-0.000594,-89.927895,0.001936,
1480,1580,-0.193902,-0.885479,0.999998,0.000155,-0.000997,0.002212,-0.000239,0.002230,-0.001015,-85.764496,0.002233,
750,90,0.098351,-4.901926,0.999999,0.000143,-0.000341,0.002006,0.000607,0.002154,-0.000489,76.320351,0.002259,
630,720,0.817523,-3.245962,0.999998,0.000179,-0.001256,0.002504,0.000130,0.002508,-0.001261,88.019769,0.002508,
860,1560,0.341968,-1.032470,0.999998,0.000174,-0.001257,0.002487,0.000144,0.002492,-0.001262,87.800953,0.002492,
750,1520,0.509761,-1.226785,0.999998,0.000187,-0.001316,0.002606,0.000064,0.002607,-0.001317,89.071245,0.002607,
1000,400,0.152495,-4.332431,0.999998,0.000164,-0.000852,0.002101,-0.000143,0.002108,-0.000858,-87.240142,0.002120,
1350,470,-0.075710,-4.256544,0.999999,0.000135,-0.000701,0.001876,0.000190,0.001890,-0.000715,85.805867,0.001909,
1730,1790,-0.326512,-0.554511,0.999998,0.000194,-0.001080,0.002483,0.000193,0.002493,-0.001090,86.915733,0.002500,
1140,200,0.026176,-4.753385,0.999999,0.000135,-0.000317,0.001681,0.000034,0.001682,-0.000317,89.011559,0.001787,
1570,550,-0.327022,-3.897719,0.999998,0.000177,-0.001309,0.002522,0.000199,0.002532,-0.001319,87.032139,0.002533,
1240,1440,-0.004665,-0.988056,0.999999,0.000116,-0.000582,0.001462,-0.000071,0.001465,-0.000585,-88.009699,0.001475,
780,1070,0.836604,-2.412636,0.999998,0.000160,-0.001064,0.002539,-0.000114,0.002543,-0.001067,-88.182005,0.002554,
1020,1010,0.602688,-2.596938,0.999997,0.000203,-0.001649,0.004595,-0.000142,0.004599,-0.001653,-88.696932,0.004659,
1180,860,0.127742,-3.772751,0.999998,0.000000,-0.001780,0.000636,-0.000097,0.000639,-0.001784,-87.705627,0.001808,
1870,90,-0.219449,-4.814454,0.999998,0.000173,-0.001157,0.002903,-0.000633,0.003000,-0.001253,-81.334482,0.003013,
620,780,0.882505,-3.090179,0.999998,0.000144,-0.001229,0.002443,0.000125,0.002447,-0.001233,88.057493,0.002447,
910,1510,0.301634,-1.115414,0.999998,0.000186,-0.001315,0.002503,0.000254,0.002520,-0.001332,86.210558,0.002521,
620,1450,0.731497,-1.508967,0.999998,0.000194,-0.001278,0.002578,-0.000013,0.002578,-0.001278,-89.804761,0.002578,
1650,1550,-0.407781,-1.097830,0.999997,0.000177,-0.001286,0.002570,-0.000096,0.002573,-0.001288,-88.580013,0.002573,
960,80,0.030150,-4.940221,0.999999,0.000158,-0.000230,0.001714,0.000211,0.001737,-0.000253,83.872432,0.001876,
1820,1020,-0.990063,-2.536009,0.999998,0.000182,-0.001085,0.002294,-0.000031,0.002295,-0.001085,-89.471880,0.002296,
1250,720,-0.009053,-3.919031,0.999999,0.000109,-0.000511,0.000965,0.000216,0.000996,-0.000542,81.843653,0.000997,
700,1280,0.776350,-1.894095,0.999998,0.000177,-0.001285,0.002562,-0.000202,0.002572,-0.001295,-87.001621,0.002572,
1690,1560,-0.451902,-1.103723,0.999998,0.000182,-0.001296,0.002565,-0.000080,0.002567,-0.001297,-88.818498,0.002567,
810,1260,0.640792,-1.893426,0.999999,0.000195,-0.001500,0.002840,-0.000246,0.002854,-0.001514,-86.772336,0.002856,
1030,1350,0.194753,-1.373142,0.999998,0.000163,-0.001537,0.002605,0.000678,0.002713,-0.001645,80.930391,0.002734,
990,320,0.135766,-4.493471,0.999998,0.000156,-0.000674,0.002077,0.000002,0.002077,-0.000674,89.961442,0.002119,
670,1840,0.342678,-0.476427,0.999997,0.000190,-0.001117,0.002532,-0.000284,0.002554,-0.001139,-85.581349,0.002559,
750,920,0.837249,-2.789428,0.999999,0.000125,-0.001149,0.002518,0.000230,0.002532,-0.001163,86.429113,0.002535,
1400,260,-0.069807,-4.634645,0.999998,0.000160,-0.000504,0.001837,-0.000027,0.001837,-0.000504,-89.350825,0.001899,
1690,1670,-0.378512,-0.825319,0.999998,0.000173,-0.001114,0.002471,-0.000026,0.002471,-0.001115,-89.580831,0.002475,
1900,1060,-1.069637,-2.450248,0.999998,0.000000,-0.001023,0.001981,0.000081,0.001984,-0.001025,88.451616,0.001984,
1680,750,-0.637496,-3.257440,0.999998,0.000177,-0.001471,0.002768,-0.000186,0.002776,-0.001479,-87.497004,0.002778,
1520,1800,-0.138358,-0.432636,0.999998,0.000184,-0.000675,0.002015,0.000095,0.002018,-0.000679,87.983452,0.002054,
1300,160,-0.015795,-4.820552,0.999998,0.000147,-0.000183,0.001605,-0.000044,0.001606,-0.000184,-88.606765,0.001758,
570,1180,1.011717,-2.200431,0.999998,0.000167,-0.001001,0.002163,-0.000011,0.002163,-0.001001,-89.796712,0.002165,
860,1670,0.283315,-0.763879,0.999998,0.000139,-0.001065,0.002365,0.000038,0.002366,-0.001065,89.363552,0.002370,
1190,730,0.020531,-3.894605,0.999999,0.000146,-0.000608,0.001054,-0.000467,0.001176,-0.000731,-75.323772,0.001187,
820,860,0.695812,-2.967197,0.999998,0.000180,-0.001389,0.002797,0.000340,0.002824,-0.001416,85.392140,0.002824,
1130,860,0.188684,-3.599401,0.999997,0.000193,-0.001037,0.001189,-0.000844,0.001472,-0.001321,-71.420724,0.001620,
750,320,0.357761,-4.357573,0.999998,0.000192,-0.001065,0.002461,0.000068,0.002462,-0.001066,88.902157,0.002470,
1080,640,0.115405,-3.895821,0.999998,0.000141,-0.001102,0.002051,-0.000646,0.002178,-0.001229,-78.864089,0.002184,
990,1590,0.183494,-0.856882,0.999998,0.000145,-0.001017,0.002217,0.000247,0.002236,-0.001036,85.652642,0.002238,
690,1560,0.559096,-1.170362,0.999998,0.000181,-0.001296,0.002572,0.000043,0.002572,-0.001297,89.362993,0.002573,
960,190,0.091391,-4.742473,0.999998,0.000173,-0.000536,0.001920,0.000168,0.001932,-0.000547,86.094912,0.001991,
1240,1420,-0.004979,-1.017945,0.999999,0.000117,-0.000558,0.001368,-0.000065,0.001370,-0.000560,-88.062092,0.001378,
1700,830,-0.742902,-3.028867,0.999998,0.000152,-0.001352,0.002690,-0.000295,0.002712,-0.001374,-85.845050,0.002712,
1480,1560,-0.197934,-0.928610,0.999998,0.000159,-0.001038,0.002242,-0.000260,0.002263,-0.001058,-85.490608,0.002264,
1560,1870,-0.116554,-0.300071,0.999998,0.000150,-0.000513,0.001993,0.000237,0.002015,-0.000535,84.650114,0.002088,
1450,700,-0.218849,-3.650291,0.999998,0.000215,-0.001585,0.002674,0.000605,0.002759,-0.001669,82.073908,0.002779,
960,1610,0.206583,-0.835105,0.999999,0.000127,-0.000981,0.002212,0.000149,0.002219,-0.000988,87.328233,0.002223,
1780,420,-0.514638,-4.054204,0.999998,0.000181,-0.001242,0.002538,0.000021,0.002538,-0.001242,89.681008,0.002538,
790,270,0.274029,-4.506788,0.999998,0.000183,-0.001043,0.002394,0.000141,0.002400,-0.001049,87.646691,0.002406,
1570,530,-0.319246,-3.947719,0.999998,0.000174,-0.001265,0.002502,0.000222,0.002515,-0.001278,86.639574,0.002515,
1440,1340,-0.208622,-1.411175,0.999998,0.000178,-0.001614,0.002640,-0.000670,0.002743,-0.001717,-81.255225,0.002772,
750,1500,0.522531,-1.278622,0.999998,0.000176,-0.001343,0.002623,0.000052,0.002624,-0.001343,89.254571,0.002624,
810,180,0.169034,-4.723505,0.999998,0.000142,-0.000727,0.002194,0.000340,0.002233,-0.000766,83.444384,0.002269,
750,70,0.069533,-4.941335,0.999998,0.000146,-0.000257,0.001930,0.000617,0.002092,-0.000419,75.286230,0.002214,
860,1540,0.351911,-1.083602,0.999998,0.000173,-0.001285,0.002526,0.000170,0.002534,-0.001293,87.452879,0.002534,
1180,30,0.000021,-5.024617,0.999999,0.000000,-0.000049,0.001528,0.000003,0.001528,-0.000049,89.901102,0.001737,
1350,450,-0.076383,-4.292228,0.999999,0.000132,-0.000680,0.001856,0.000186,0.001869,-0.000693,85.829940,0.001890,
650,1860,0.337873,-0.438159,0.999997,0.000202,-0.001101,0.002573,-0.000273,0.002593,-0.001121,-85.775832,0.002601,
1900,1050,-1.071558,-2.470853,0.999998,0.000000,-0.001020,0.002084,0.000072,0.002086,-0.001022,88.675403,0.002086,
1650,1530,-0.419946,-1.147858,0.999998,0.000171,-0.001315,0.002565,-0.000117,0.002569,-0.001318,-88.277502,0.002569,
1730,1770,-0.344857,-0.604785,0.999997,0.000215,-0.001109,0.002522,0.000130,0.002527,-0.001113,87.944391,0.002533,
1690,1540,-0.464935,-1.155493,0.999998,0.000176,-0.001326,0.002584,-0.000075,0.002585,-0.001327,-88.895846,0.002586,
780,850,0.741279,-2.979727,0.999998,0.000153,-0.001331,0.002733,0.000319,0.002758,-0.001356,85.536988,0.002758,
910,1470,0.320842,-1.217242,0.999998,0.000178,-0.001385,0.002612,0.000259,0.002629,-0.001401,86.314309,0.002631,
1140,220,0.030945,-4.720150,0.999999,0.000127,-0.000368,0.001733,0.000010,0.001733,-0.000368,89.719753,0.001826,
1190,710,0.022745,-3.917079,0.999999,0.000137,-0.000622,0.001157,-0.000437,0.001259,-0.000724,-76.933418,0.001263,
960,950,0.617671,-2.770530,0.999997,0.000173,-0.001263,0.003271,0.000291,0.003289,-0.001281,86.340698,0.003316,
1020,990,0.589144,-2.689848,0.999997,0.000213,-0.001602,0.004343,-0.000267,0.004355,-0.001614,-87.433194,0.004403,
620,1430,0.748609,-1.560638,0.999997,0.000206,-0.001283,0.002572,-0.000025,0.002573,-0.001283,-89.632382,0.002573,
620,760,0.864400,-3.139531,0.999999,0.000133,-0.001226,0.002463,0.000121,0.002467,-0.001230,88.128535,0.002467,
890,1260,0.515403,-1.837775,0.999997,0.000189,-0.001696,0.003063,-0.000123,0.003066,-0.001699,-88.515822,0.003072,
760,1070,0.857192,-2.414854,0.999998,0.000178,-0.001041,0.002519,-0.000093,0.002521,-0.001043,-88.511838,0.002534,
1110,820,0.136612,-3.585825,0.999998,0.000185,-0.001479,0.002019,-0.001134,0.002354,-0.001814,-73.523858,0.002467,
660,880,0.914161,-2.867334,0.999998,0.000148,-0.001157,0.002410,0.000202,0.002421,-0.001168,86.770899,0.002421,
1820,1000,-0.985517,-2.582698,0.999998,0.000171,-0.001092,0.002281,-0.000077,0.002283,-0.001093,-88.692766,0.002283,
1030,1330,0.202199,-1.426360,0.999998,0.000181,-0.001627,0.002653,0.000684,0.002760,-0.001734,81.141539,0.002790,
820,1880,0.157425,-0.302822,0.999998,0.000140,-0.000614,0.002169,-0.000343,0.002211,-0.000655,-83.067309,0.002271,
1300,140,-0.013968,-4.852933,0.999999,0.000150,-0.000145,0.001633,-0.000055,0.001635,-0.000146,-88.228315,0.001809,
840,1670,0.304723,-0.778077,0.999998,0.000158,-0.001076,0.002401,0.000062,0.002402,-0.001077,88.978526,0.002406,
1400,240,-0.064789,-4.670495,0.999998,0.000159,-0.000460,0.001834,-0.000056,0.001836,-0.000462,-88.599946,0.001910,
1350,620,-0.082492,-3.973015,0.999999,0.000140,-0.000918,0.001825,0.000515,0.001918,-0.001011,79.713558,0.001919,
670,1200,0.883740,-2.108352,0.999998,0.000163,-0.001197,0.002452,-0.000220,0.002465,-0.001210,-86.563681,0.002465,
1000,380,0.149562,-4.372051,0.999998,0.000175,-0.000785,0.002119,-0.000101,0.002122,-0.000789,-88.005029,0.002145,
1080,620,0.114553,-3.937464,0.999999,0.000137,-0.001048,0.002011,-0.000584,0.002119,-0.001156,-79.557253,0.002122,
1480,1540,-0.203149,-0.973782,0.999998,0.000160,-0.001107,0.002289,-0.000288,0.002313,-0.001131,-85.186241,0.002313,
1700,810,-0.724380,-3.082068,0.999998,0.000179,-0.001375,0.002681,-0.000270,0.002699,-0.001393,-86.208719,0.002700,
680,290,0.414391,-4.382158,0.999997,0.000203,-0.001186,0.002566,0.000064,0.002567,-0.001187,89.018662,0.002570,
1780,440,-0.530169,-4.004711,0.999998,0.000171,-0.001244,0.002532,0.000025,0.002532,-0.001244,89.618093,0.002532,
950,200,0.103704,-4.719698,0.999998,0.000159,-0.000543,0.001951,0.000152,0.001961,-0.000552,86.531483,0.002022,
1690,1650,-0.393956,-0.876854,0.999998,0.000175,-0.001166,0.002501,-0.000016,0.002501,-0.001166,-89.744962,0.002503,
790,250,0.255472,-4.552789,0.999998,0.000173,-0.000997,0.002351,0.000183,0.002361,-0.001007,86.873606,0.002370,
1570,510,-0.309082,-3.996337,0.999998,0.000172,-0.001218,0.002494,0.000201,0.002504,-0.001229,86.911817,0.002505,
760,1630,0.423044,-0.937158,0.999997,0.000186,-0.001241,0.002516,0.000069,0.002517,-0.001243,88.948735,0.002517,
1500,150,-0.068046,-4.816807,0.999999,0.000129,-0.000399,0.001829,-0.000187,0.001844,-0.000414,-85.241743,0.001935,
940,310,0.169590,-4.489930,0.999998,0.000176,-0.000792,0.002132,0.000025,0.002133,-0.000792,89.513003,0.002156,
1440,580,-0.172703,-3.957437,0.999998,0.000144,-0.001153,0.002223,0.000445,0.002281,-0.001210,82.616957,0.002282,
790,1380,0.559027,-1.569688,0.999997,0.000218,-0.001486,0.002773,-0.000042,0.002773,-0.001487,-89.440712,0.002776,
1650,1510,-0.431715,-1.200699,0.999998,0.000163,-0.001345,0.002628,-0.000117,0.002632,-0.001348,-88.310133,0.002632,
1900,1040,-1.071493,-2.493745,0.999998,0.000000,-0.001036,0.002181,0.000048,0.002182,-0.001037,89.143058,0.002183,
1310,1620,-0.046445,-0.704617,0.999998,0.000161,-0.000633,0.001808,-0.000138,0.001815,-0.000640,-86.785221,0.001841,
860,1520,0.363945,-1.132635,0.999998,0.000161,-0.001319,0.002545,0.000169,0.002553,-0.001327,87.503371,0.002553,
1520,1780,-0.148311,-0.473021,0.999998,0.000152,-0.000738,0.002080,0.000059,0.002081,-0.000739,88.800904,0.002110,
910,1450,0.331359,-1.268735,0.999998,0.000195,-0.001444,0.002601,0.000259,0.002618,-0.001460,86.349253,0.002624,
1730,1750,-0.363277,-0.656307,0.999997,0.000199,-0.001124,0.002492,0.000084,0.002494,-0.001126,88.664483,0.002498,
1680,1890,-0.174507,-0.293723,0.999998,0.000190,-0.000744,0.002205,0.000397,0.002258,-0.000797,82.462732,0.002290,
1140,240,0.033764,-4.682830,0.999999,0.000137,-0.000396,0.001749,-0.000005,0.001749,-0.000396,-89.863484,0.001834,
1630,1080,-0.778397,-2.382490,0.999997,0.000208,-0.001041,0.002638,0.000203,0.002649,-0.001052,86.847563,0.002668,
1240,1750,-0.003834,-0.463652,0.999998,0.000141,-0.000480,0.001772,-0.000035,0.001773,-0.000480,-89.101145,0.001833,
740,1450,0.574041,-1.417602,0.999997,0.000191,-0.001364,0.002632,-0.000014,0.002632,-0.001364,-89.798401,0.002633,
1760,890,-0.871395,-2.854884,0.999998,0.000155,-0.001198,0.002504,-0.000260,0.002522,-0.001216,-86.005546,0.002522,
1170,2020,0.003356,-0.023516,0.999998,0.000000,0.000027,0.001495,-0.000011,0.001495,0.000027,-89.577255,0.001742,
1240,1400,-0.004760,-1.042232,0.999999,0.000124,-0.000533,0.001288,-0.000079,0.001291,-0.000537,-87.535766,0.001297,
660,860,0.900325,-2.915533,0.999998,0.000140,-0.001192,0.002444,0.000219,0.002457,-0.001205,86.565787,0.002457,
1400,220,-0.058315,-4.707559,0.999998,0.000158,-0.000423,0.001799,-0.000064,0.001801,-0.000424,-88.341216,0.001883,
1790,1460,-0.655703,-1.442542,0.999997,0.000204,-0.001303,0.002587,0.000014,0.002587,-0.001303,89.799756,0.002587,
1110,800,0.118110,-3.628045,0.999998,0.000157,-0.001446,0.002051,-0.001142,0.002391,-0.001786,-73.425770,0.002486,
1350,600,-0.081218,-4.009516,0.999999,0.000129,-0.000905,0.001855,0.000485,0.001938,-0.000988,80.312184,0.001938,
1890,1870,-0.417868,-0.501425,0.999998,0.000173,-0.001217,0.002496,0.000130,0.002500,-0.001222,88.000997,0.002500,
1590,820,-0.572046,-3.111729,0.999998,0.000185,-0.001612,0.002989,-0.000241,0.003002,-0.001624,-87.005782,0.003005,
1300,120,-0.010513,-4.885738,0.999999,0.000157,-0.000132,0.001616,-0.000053,0.001618,-0.000133,-88.264796,0.001796,
1190,690,0.021827,-3.941984,0.999999,0.000140,-0.000616,0.001237,-0.000376,0.001310,-0.000689,-78.962385,0.001310,
720,1050,0.904023,-2.465192,0.999998,0.000175,-0.001088,0.002434,-0.000086,0.002436,-0.001091,-88.594273,0.002440,
820,1840,0.195679,-0.391754,0.999998,0.000156,-0.000762,0.002226,-0.000285,0.002253,-0.000789,-84.606024,0.002287,
1340,1190,-0.211214,-1.477481,0.999998,0.000180,-0.000884,0.001327,-0.000892,0.001642,-0.001199,-70.552890,0.001699,
650,1200,0.907371,-2.115815,0.999999,0.000128,-0.001198,0.002426,-0.000204,0.002437,-0.001209,-86.791818,0.002437,
1820,980,-0.981391,-2.629619,0.999998,0.000160,-0.001079,0.002271,-0.000051,0.002272,-0.001080,-89.121118,0.002273,
1610,430,-0.314706,-4.162997,0.999998,0.000159,-0.001143,0.002445,0.000111,0.002449,-0.001147,88.228602,0.002450,
740,1980,0.078154,-0.108694,0.999999,0.000138,-0.000290,0.002015,-0.000635,0.002178,-0.000453,-75.576231,0.002298,
1260,2000,-0.000978,-0.053682,0.999999,0.000137,-0.000037,0.001506,0.000017,0.001506,-0.000037,89.384052,0.001718,
1480,1520,-0.209859,-1.019896,0.999999,0.000141,-0.001186,0.002343,-0.000340,0.002376,-0.001218,-84.544780,0.002376,
1000,340,0.135885,-4.453645,0.999998,0.000148,-0.000690,0.002043,-0.000034,0.002044,-0.000691,-89.297546,0.002079,
1080,600,0.113752,-3.976238,0.999999,0.000135,-0.000997,0.002004,-0.000531,0.002095,-0.001088,-80.247786,0.002096,
650,1840,0.365462,-0.490209,0.999997,0.000189,-0.001146,0.002572,-0.000219,0.002585,-0.001159,-86.644388,0.002589,
1350,430,-0.073957,-4.328747,0.999998,0.000166,-0.000666,0.001860,0.000130,0.001867,-0.000672,87.068143,0.001891,
1290,1620,-0.035954,-0.699997,0.999999,0.000147,-0.000566,0.001789,-0.000079,0.001792,-0.000569,-88.079678,0.001831,
1550,260,-0.160697,-4.585402,0.999998,0.000172,-0.000670,0.002105,-0.000117,0.002110,-0.000675,-87.587224,0.002156,
1680,810,-0.697623,-3.090417,0.999999,0.000156,-0.001398,0.002748,-0.000271,0.002766,-0.001416,-86.273297,0.002766,
1180,1810,0.018871,-0.362529,0.999998,0.000137,-0.000354,0.001699,-0.000016,0.001700,-0.000354,-89.546666,0.001793,
760,1610,0.436663,-0.986978,0.999998,0.000172,-0.001247,0.002504,0.000058,0.002505,-0.001248,89.109390,0.002505,
1650,1490,-0.444451,-1.251895,0.999997,0.000172,-0.001388,0.002646,-0.000105,0.002649,-0.001391,-88.510551,0.002650,
1440,1320,-0.219146,-1.465611,0.999998,0.000180,-0.001709,0.002758,-0.000666,0.002855,-0.001806,-81.692811,0.002888,
1900,1030,-1.072774,-2.515083,0.999998,0.000000,-0.001039,0.002146,0.000034,0.002146,-0.001040,89.387418,0.002147,
1780,880,-0.887659,-2.873867,0.999998,0.000161,-0.001195,0.002457,-0.000227,0.002471,-0.001209,-86.461396,0.002471,
1690,1630,-0.406672,-0.926247,0.999998,0.000162,-0.001211,0.002509,-0.000053,0.002510,-0.001212,-89.187171,0.002510,
1010,900,0.456809,-3.014817,0.999997,0.000200,-0.001762,0.003574,-0.000119,0.003576,-0.001765,-88.727989,0.003576,
790,230,0.235410,-4.599358,0.999998,0.000163,-0.000958,0.002345,0.000214,0.002359,-0.000972,86.310181,0.002371,
1030,1310,0.212443,-1.479477,0.999998,0.000207,-0.001720,0.002745,0.000704,0.002853,-0.001828,81.250337,0.002891,
1040,790,0.228927,-3.453110,0.999998,0.000148,-0.001863,0.002919,-0.000744,0.003032,-0.001976,-81.353719,0.003078,
660,840,0.884820,-2.964658,0.999999,0.000149,-0.001187,0.002444,0.000211,0.002457,-0.001200,86.678706,0.002457,
1860,710,-0.842521,-3.251779,0.999998,0.000164,-0.001243,0.002496,-0.000059,0.002497,-0.001244,-89.094210,0.002497,
1540,350,-0.203702,-4.393412,0.999998,0.000188,-0.000833,0.002247,-0.000009,0.002247,-0.000833,-89.835165,0.002272,
800,1730,0.306554,-0.659958,0.999998,0.000161,-0.001090,0.002445,-0.000052,0.002446,-0.001091,-89.153604,0.002451,
1730,1730,-0.380346,-0.704071,0.999998,0.000187,-0.001162,0.002473,0.000050,0.002474,-0.001163,89.211225,0.002475,
1570,490,-0.297864,-4.048099,0.999998,0.000161,-0.001171,0.002442,0.000186,0.002452,-0.001181,87.064636,0.002452,
1300,100,-0.008854,-4.917027,0.999999,0.000152,-0.000122,0.001559,-0.000049,0.001561,-0.000123,-88.345091,0.001735,
700,1050,0.924877,-2.466895,0.999998,0.000155,-0.001070,0.002385,-0.000079,0.002387,-0.001072,-88.697567,0.002391,
1170,1190,0.159474,-1.294556,0.999998,0.000000,-0.001672,0.000725,0.000082,0.000728,-0.001675,88.039301,0.001679,
640,910,0.955607,-2.789618,0.999999,0.000143,-0.001123,0.002305,0.000130,0.002310,-0.001128,87.835105,0.002310,
1770,1460,-0.629945,-1.427823,0.999997,0.000204,-0.001333,0.002574,-0.000004,0.002574,-0.001333,-89.946756,0.002575,
1340,1470,-0.073893,-0.992638,0.999999,0.000156,-0.000812,0.001820,-0.000407,0.001881,-0.000874,-81.404639,0.001883,
1890,1860,-0.431594,-0.526559,0.999998,0.000158,-0.001210,0.002438,0.000107,0.002442,-0.001213,88.318677,0.002442,
1480,1500,-0.214382,-1.069225,0.999998,0.000153,-0.001231,0.002351,-0.000370,0.002388,-0.001269,-84.170731,0.002390,
950,560,0.256160,-3.926420,0.999998,0.000177,-0.001244,0.002434,-0.000326,0.002462,-0.001272,-84.966051,0.002463,
860,1500,0.374533,-1.186277,0.999998,0.000161,-0.001352,0.002644,0.000170,0.002651,-0.001359,87.561351,0.002652,
910,1430,0.342049,-1.320167,0.999998,0.000188,-0.001489,0.002663,0.000259,0.002679,-0.001506,86.444363,0.002686,
1140,260,0.036025,-4.650529,0.999999,0.000137,-0.000437,0.001759,-0.000007,0.001759,-0.000437,-89.809624,0.001832,
720,1390,0.650042,-1.591662,0.999997,0.000195,-0.001382,0.002643,-0.000096,0.002645,-0.001384,-88.637714,0.002646,
1000,320,0.128191,-4.498337,0.999998,0.000166,-0.000642,0.002052,0.000011,0.002052,-0.000642,89.773959,0.002099,
1400,200,-0.052047,-4.742833,0.999998,0.000187,-0.000406,0.001781,-0.000068,0.001783,-0.000408,-88.221305,0.001868,
1080,650,0.117453,-3.875084,0.999998,0.000147,-0.001124,0.002055,-0.000672,0.002191,-0.001260,-78.541549,0.002200,
1870,1910,-0.329390,-0.373673,0.999997,0.000227,-0.001200,0.002584,0.000261,0.002602,-0.001218,86.077062,0.002603,
1080,580,0.112706,-4.016352,0.999999,0.000148,-0.000955,0.001993,-0.000470,0.002066,-0.001028,-81.164162,0.002066,
1190,670,0.022244,-3.965577,0.999999,0.000137,-0.000617,0.001305,-0.000328,0.001360,-0.000672,-80.567993,0.001360,
1900,1240,-0.977114,-2.067948,0.999999,0.000000,-0.001147,0.002307,0.000063,0.002308,-0.001148,88.957168,0.002308,
820,1300,0.587983,-1.773214,0.999998,0.000194,-0.001519,0.002872,-0.000164,0.002878,-0.001525,-87.864655,0.002880,
620,740,0.846661,-3.190838,0.999998,0.000142,-0.001235,0.002479,0.000106,0.002482,-0.001238,88.372624,0.002482,
1080,1530,0.109690,-0.915096,0.999999,0.000137,-0.000899,0.001988,0.000357,0.002031,-0.000942,83.047059,0.002033,
1440,1280,-0.245965,-1.580174,0.999998,0.000175,-0.001851,0.002982,-0.000671,0.003073,-0.001943,-82.241765,0.003109,
1010,880,0.417901,-3.087530,0.999998,0.000183,-0.001855,0.003482,-0.000175,0.003488,-0.001860,-88.125178,0.003491,
1650,1470,-0.457685,-1.308430,0.999997,0.000195,-0.001404,0.002655,-0.000070,0.002656,-0.001406,-89.007016,0.002658,
590,1180,0.991051,-2.189256,0.999998,0.000146,-0.001067,0.002230,-0.000073,0.002232,-0.001068,-88.739873,0.002232,
1670,1020,-0.830812,-2.540850,0.999998,0.000151,-0.001016,0.002538,-0.000043,0.002539,-0.001016,-89.309977,0.002556,
1180,1870,0.013442,-0.259543,0.999999,0.000131,-0.000256,0.001649,-0.000024,0.001649,-0.000257,-89.293257,0.001774,
1690,1610,-0.419630,-0.975560,0.999998,0.000187,-0.001252,0.002516,-0.000076,0.002517,-0.001253,-88.849060,0.002517,
1840,710,-0.816323,-3.266518,0.999998,0.000175,-0.001271,0.002521,-0.000089,0.002523,-0.001273,-88.656879,0.002523,
740,1960,0.108474,-0.149940,0.999999,0.000149,-0.000402,0.002090,-0.000605,0.002229,-0.000541,-77.056728,0.002325,
1520,1760,-0.160655,-0.516110,0.999998,0.000155,-0.000772,0.002138,0.000031,0.002138,-0.000772,89.399295,0.002165,
1350,410,-0.070628,-4.365800,0.999998,0.000184,-0.000653,0.001868,0.000128,0.001874,-0.000660,87.105724,0.001902,
660,820,0.868011,-3.011865,0.999998,0.000148,-0.001211,0.002454,0.000206,0.002466,-0.001222,86.788831,0.002466,
820,1670,0.326138,-0.791655,0.999998,0.000156,-0.001122,0.002450,0.000033,0.002451,-0.001123,89.474407,0.002454,
1300,80,-0.006265,-4.947661,0.999999,0.000126,-0.000078,0.001536,-0.000056,0.001538,-0.000080,-88.026250,0.001732,
1730,1710,-0.397452,-0.754441,0.999998,0.000181,-0.001192,0.002504,0.000032,0.002504,-0.001192,89.509295,0.002505,
1780,860,-0.871881,-2.922829,0.999999,0.000145,-0.001227,0.002470,-0.000223,0.002483,-0.001241,-86.555509,0.002483,
1570,470,-0.289847,-4.095788,0.999998,0.000168,-0.001116,0.002413,0.000157,0.002419,-0.001123,87.456373,0.002422,
790,210,0.216688,-4.646782,0.999998,0.000166,-0.000901,0.002312,0.000247,0.002331,-0.000920,85.634050,0.002348,
860,1610,0.315320,-0.908901,0.999998,0.000184,-0.001151,0.002425,0.000117,0.002429,-0.001155,88.128196,0.002430,
1170,870,0.174862,-3.743823,0.999991,0.000000,-0.001285,0.000502,-0.000208,0.000526,-0.001309,-83.443102,0.001318,
1550,620,-0.334053,-3.735094,0.999997,0.000197,-0.001476,0.002669,0.000269,0.002686,-0.001493,86.307368,0.002692,
1630,1060,-0.784567,-2.434712,0.999998,0.000214,-0.001011,0.002579,0.000117,0.002583,-0.001015,88.137594,0.002602,
1890,1850,-0.445569,-0.550260,0.999998,0.000190,-0.001209,0.002399,0.000099,0.002401,-0.001212,88.432647,0.002401,
920,390,0.223034,-4.302954,0.999998,0.000180,-0.000948,0.002267,-0.000091,0.002270,-0.000950,-88.373242,0.002280,
990,1260,0.330525,-1.708496,0.999997,0.000185,-0.001972,0.003182,0.000371,0.003208,-0.001999,85.909516,0.003241,
780,1750,0.312858,-0.625520,0.999998,0.000159,-0.001104,0.002423,-0.000060,0.002424,-0.001105,-89.024678,0.002427,
1480,1700,-0.153084,-0.621936,0.999998,0.000143,-0.000804,0.002096,-0.000080,0.002099,-0.000806,-88.423295,0.002117,
910,1410,0.352439,-1.376495,0.999998,0.000198,-0.001531,0.002751,0.000252,0.002766,-0.001546,86.647743,0.002772,
950,540,0.250382,-3.974775,0.999998,0.000154,-0.001194,0.002416,-0.000289,0.002439,-0.001217,-85.449164,0.002439,
1410,930,-0.445330,-3.037911,0.999997,0.000204,-0.001609,0.003719,0.001290,0.004015,-0.001905,77.079196,0.004016,
1820,960,-0.978366,-2.673546,0.999998,0.000163,-0.001077,0.002291,-0.000076,0.002293,-0.001078,-88.710019,0.002294,
1140,700,0.057163,-3.870529,0.999999,0.000143,-0.000850,0.001593,-0.000735,0.001798,-0.001054,-74.474097,0.001807,
1000,300,0.121234,-4.535560,0.999998,0.000174,-0.000620,0.001984,0.000017,0.001984,-0.000620,89.617141,0.002030,
1020,1290,0.245367,-1.557198,0.999998,0.000188,-0.001843,0.002905,0.000635,0.002989,-0.001927,82.514858,0.003030,
1080,710,0.124005,-3.747422,0.999998,0.000159,-0.001303,0.002188,-0.000854,0.002386,-0.001501,-76.966659,0.002412,
860,1480,0.386103,-1.238934,0.999998,0.000187,-0.001392,0.002653,0.000169,0.002660,-0.001399,87.607611,0.002662,
1080,560,0.111220,-4.055450,0.999999,0.000136,-0.000911,0.001979,-0.000425,0.002040,-0.000972,-81.796399,0.002041,
1390,1390,-0.127248,-1.208175,0.999998,0.000139,-0.001192,0.002129,-0.000677,0.002262,-0.001325,-78.903300,0.002273,
1190,650,0.022758,-3.992645,0.999999,0.000144,-0.000631,0.001359,-0.000290,0.001400,-0.000672,-81.882974,0.001401,
1900,1250,-0.968723,-2.045861,0.999999,0.000000,-0.001153,0.002272,0.000065,0.002273,-0.001154,88.915503,0.002274,
1670,1000,-0.826741,-2.589769,0.999998,0.000166,-0.001035,0.002520,-0.000105,0.002523,-0.001039,-88.308075,0.002536,
900,1330,0.428484,-1.616740,0.999997,0.000229,-0.001745,0.002964,0.000105,0.002967,-0.001748,88.725989,0.002982,
1160,1870,0.019916,-0.260533,0.999998,0.000169,-0.000253,0.001664,-0.000026,0.001664,-0.000253,-89.234694,0.001793,
1440,1260,-0.266390,-1.644177,0.999998,0.000170,-0.001899,0.003049,-0.000618,0.003125,-0.001975,-82.988154,0.003161,
1650,1450,-0.470805,-1.359452,0.999997,0.000191,-0.001452,0.002701,-0.000059,0.002702,-0.001452,-89.191939,0.002704,
870,900,0.672469,-2.872591,0.999998,0.000179,-0.001311,0.002895,0.000353,0.002924,-0.001340,85.240343,0.002928,
820,1280,0.606432,-1.831679,0.999998,0.000187,-0.001515,0.002862,-0.000181,0.002869,-0.001523,-87.637551,0.002871,
1880,1680,-0.603687,-0.957120,0.999999,0.000144,-0.001256,0.002455,-0.000022,0.002455,-0.001256,-89.653204,0.002455,
620,720,0.829947,-3.239761,0.999998,0.000158,-0.001254,0.002482,0.000112,0.002485,-0.001258,88.282122,0.002485,
580,1180,1.001817,-2.194594,0.999998,0.000143,-0.001026,0.002199,-0.000033,0.002199,-0.001027,-89.420911,0.002201,
800,1670,0.347736,-0.807465,0.999998,0.000176,-0.001151,0.002477,0.000017,0.002477,-0.001151,89.732102,0.002479,
1290,1270,-0.038014,-1.221706,0.999998,0.000186,-0.000835,0.000944,-0.000776,0.001235,-0.001126,-69.447937,0.001367,
660,800,0.851627,-3.064419,0.999998,0.000152,-0.001233,0.002513,0.000217,0.002525,-0.001246,86.690729,0.002525,
1780,840,-0.857551,-2.972933,0.999998,0.000153,-0.001239,0.002493,-0.000226,0.002506,-0.001252,-86.548689,0.002506,
1850,580,-0.721063,-3.588800,0.999998,0.000167,-0.001284,0.002555,-0.000018,0.002555,-0.001284,-89.736731,0.002555,
1170,860,0.146006,-3.746951,0.999998,0.000000,-0.001358,0.000651,-0.000185,0.000668,-0.001375,-84.777725,0.001376,
1570,620,-0.364233,-3.714135,0.999998,0.000195,-0.001483,0.002685,0.000230,0.002697,-0.001496,86.851453,0.002703,
1570,450,-0.280352,-4.142846,0.999998,0.000172,-0.001094,0.002386,0.000139,0.002391,-0.001099,87.720779,0.002394,
1690,1810,-0.268947,-0.482672,0.999998,0.000166,-0.000971,0.002408,0.000206,0.002420,-0.000983,86.524865,0.002434,
970,1260,0.369515,-1.742726,0.999998,0.000191,-0.001910,0.003197,0.000227,0.003207,-0.001920,87.457725,0.003228,
900,390,0.243836,-4.290130,0.999998,0.000159,-0.001023,0.002311,-0.000083,0.002313,-0.001025,-88.576124,0.002318,
1730,1690,-0.412531,-0.806814,0.999998,0.000171,-0.001201,0.002541,-0.000002,0.002541,-0.001201,-89.976840,0.002542,
910,1390,0.366802,-1.432183,0.999998,0.000201,-0.001586,0.002812,0.000229,0.002824,-0.001598,87.024695,0.002832,
1240,1600,-0.005956,-0.727464,0.999999,0.000140,-0.000610,0.001711,-0.000040,0.001712,-0.000611,-89.003841,0.001735,
1650,1480,-0.451026,-1.279484,0.999997,0.000196,-0.001399,0.002637,-0.000088,0.002639,-0.001401,-88.749141,0.002641,
830,960,0.771930,-2.697255,0.999998,0.000185,-0.001074,0.002642,0.000237,0.002657,-0.001089,86.370043,0.002671,
1350,390,-0.070692,-4.401628,0.999998,0.000165,-0.000655,0.001879,0.000118,0.001885,-0.000660,87.329734,0.001913,
1330,840,-0.135975,-3.635858,0.999998,0.000193,-0.001128,0.001421,0.000939,0.001729,-0.001436,71.804041,0.001851,
1140,680,0.058343,-3.901226,0.999998,0.000152,-0.000830,0.001606,-0.000678,0.001782,-0.001006,-75.452981,0.001787,
1550,240,-0.148551,-4.629346,0.999998,0.000184,-0.000629,0.002109,-0.000163,0.002119,-0.000639,-86.613760,0.002174,
1400,180,-0.046504,-4.779026,0.999998,0.000173,-0.000378,0.001755,-0.000075,0.001757,-0.000380,-87.986125,0.001849,
1000,280,0.113810,-4.576008,0.999998,0.000164,-0.000566,0.001977,0.000058,0.001979,-0.000567,88.684142,0.002038,
860,1460,0.397728,-1.291655,0.999997,0.000193,-0.001438,0.002616,0.000160,0.002622,-0.001444,87.737846,0.002627,
680,1050,0.947902,-2.465898,0.999998,0.000145,-0.001083,0.002352,-0.000076,0.002354,-0.001085,-88.728778,0.002356,
1470,1890,-0.065790,-0.246385,0.999998,0.000150,-0.000314,0.001819,0.000162,0.001832,-0.000326,85.692454,0.001954,
1520,1740,-0.168717,-0.559399,0.999998,0.000166,-0.000806,0.002148,0.000008,0.002148,-0.000806,89.836850,0.002171,
740,1940,0.133946,-0.190958,0.999998,0.000157,-0.000513,0.002236,-0.000637,0.002376,-0.000654,-77.569874,0.002455,
780,1730,0.328697,-0.674777,0.999998,0.000154,-0.001106,0.002485,-0.000024,0.002485,-0.001106,-89.616862,0.002490,
1900,1260,-0.961090,-2.023316,0.999999,0.000000,-0.001156,0.002305,0.000063,0.002306,-0.001157,88.955637,0.002306,
1550,1380,-0.367903,-1.457713,0.999997,0.000190,-0.001587,0.002836,-0.000220,0.002847,-0.001598,-87.165329,0.002854,
1140,450,0.056785,-4.302029,0.999998,0.000169,-0.000693,0.001847,-0.000182,0.001860,-0.000706,-85.915481,0.001878,
1080,540,0.110649,-4.094183,0.999999,0.000140,-0.000884,0.001991,-0.000385,0.002042,-0.000935,-82.512677,0.002044,
790,190,0.197289,-4.693553,0.999998,0.000164,-0.000849,0.002312,0.000301,0.002341,-0.000877,84.611065,0.002365,
1650,1430,-0.483996,-1.413947,0.999997,0.000195,-0.001477,0.002703,-0.000034,0.002703,-0.001477,-89.531918,0.002707,
880,1350,0.445117,-1.579319,0.999997,0.000203,-0.001649,0.002890,0.000077,0.002892,-0.001650,89.032808,0.002901,
1440,1240,-0.290251,-1.702644,0.999997,0.000200,-0.001951,0.003128,-0.000566,0.003191,-0.002014,-83.714405,0.003227,
1190,630,0.024088,-4.019868,0.999999,0.000145,-0.000642,0.001449,-0.000250,0.001478,-0.000671,-83.280030,0.001481,
1650,1020,-0.811121,-2.539476,0.999998,0.000169,-0.000991,0.002577,-0.000063,0.002578,-0.000992,-88.988247,0.002601,
1200,1870,0.008686,-0.259667,0.999999,0.000127,-0.000254,0.001648,-0.000008,0.001648,-0.000254,-89.767192,0.001774,
820,1260,0.626161,-1.887563,0.999998,0.000190,-0.001498,0.002864,-0.000244,0.002877,-0.001511,-86.808546,0.002879,
1080,1510,0.110604,-0.955046,0.999998,0.000152,-0.000892,0.001983,0.000382,0.002033,-0.000942,82.549270,0.002035,
620,700,0.811995,-3.289420,0.999998,0.000157,-0.001274,0.002532,0.000092,0.002534,-0.001276,88.615035,0.002534,
1300,60,-0.003528,-4.979065,0.999999,0.000121,-0.000045,0.001507,-0.000048,0.001509,-0.000046,-88.233011,0.001716,
1170,30,0.001811,-5.023795,0.999999,0.000000,-0.000065,0.001514,0.000005,0.001514,-0.000065,89.808754,0.001712,
1010,980,0.593897,-2.714789,0.999997,0.000204,-0.001404,0.003902,-0.000142,0.003906,-0.001408,-88.472529,0.003956,
1680,1980,-0.067550,-0.105120,0.999999,0.000138,-0.000354,0.001938,0.000531,0.002055,-0.000471,77.574606,0.002153,
1780,1210,-0.859615,-2.078778,0.999998,0.000151,-0.001224,0.002472,0.000208,0.002484,-0.001236,86.786275,0.002484,
800,1650,0.363601,-0.856693,0.999998,0.000181,-0.001160,0.002483,0.000029,0.002484,-0.001160,89.545580,0.002485,
1400,870,-0.302288,-3.280658,0.999998,0.000171,-0.001781,0.003018,0.000857,0.003166,-0.001929,80.172674,0.003191,
1330,820,-0.107047,-3.666551,0.999998,0.000176,-0.001249,0.001531,0.001071,0.001896,-0.001614,71.200814,0.002046,
860,1440,0.409549,-1.343833,0.999997,0.000195,-0.001475,0.002679,0.000151,0.002684,-0.001481,87.915793,0.002689,
910,1370,0.379298,-1.489893,0.999998,0.000203,-0.001639,0.002857,0.000219,0.002868,-0.001649,87.219528,0.002879,
900,370,0.232742,-4.336089,0.999997,0.000179,-0.000988,0.002290,-0.000039,0.002290,-0.000988,-89.310908,0.002297,
1480,960,-0.603709,-2.753903,0.999997,0.000186,-0.001252,0.003490,-0.000190,0.003497,-0.001260,-87.710006,0.003542,
1890,560,-0.758014,-3.610387,0.999997,0.000202,-0.001332,0.002551,0.000012,0.002551,-0.001332,89.820542,0.002552,
1030,1290,0.226341,-1.537241,0.999998,0.000195,-0.001808,0.002840,0.000700,0.002943,-0.001911,81.620993,0.002987,
830,940,0.758966,-2.749562,0.999998,0.000168,-0.001142,0.002676,0.000285,0.002697,-0.001163,85.757740,0.002706,
1510,1320,-0.343318,-1.581288,0.999998,0.000181,-0.001773,0.002982,-0.000279,0.002999,-0.001789,-86.654573,0.003017,
1400,140,-0.033730,-4.846880,0.999999,0.000146,-0.000268,0.001682,-0.000107,0.001687,-0.000274,-86.877736,0.001811,
1000,260,0.105118,-4.615396,0.999998,0.000165,-0.000514,0.001953,0.000091,0.001956,-0.000517,87.883036,0.002027,
1230,1390,-0.000060,-1.055316,0.999999,0.000129,-0.000538,0.001264,0.000023,0.001264,-0.000539,89.263888,0.001269,
1570,430,-0.271668,-4.189935,0.999998,0.000165,-0.001087,0.002364,0.000124,0.002369,-0.001091,87.939189,0.002371,
1860,1300,-0.880179,-1.899428,0.999998,0.000145,-0.001206,0.002464,0.000078,0.002466,-0.001207,88.775407,0.002466,
1730,1670,-0.427742,-0.856354,0.999998,0.000184,-0.001227,0.002516,-0.000007,0.002516,-0.001227,-89.896827,0.002516,
1140,660,0.057498,-3.934642,0.999999,0.000143,-0.000811,0.001626,-0.000590,0.001762,-0.000946,-77.075782,0.001763,
600,850,0.962027,-2.914541,0.999999,0.000128,-0.001135,0.002348,0.000117,0.002352,-0.001139,88.075015,0.002353,
1900,1270,-0.953830,-1.999982,0.999999,0.000000,-0.001157,0.002372,0.000076,0.002374,-0.001159,88.763133,0.002374,
1280,1270,-0.032112,-1.204465,0.999998,0.000183,-0.000769,0.000833,-0.000666,0.001074,-0.001010,-70.122899,0.001205,
940,650,0.309604,-3.684039,0.999998,0.000169,-0.001511,0.002696,-0.000324,0.002720,-0.001536,-85.626621,0.002728,
960,60,0.021013,-4.974697,0.999999,0.000175,-0.000171,0.001646,0.000217,0.001672,-0.000196,83.270410,0.001827,
1510,1260,-0.401048,-1.767144,0.999998,0.000173,-0.001865,0.003168,-0.000124,0.003171,-0.001868,-88.591104,0.003188,
1820,940,-0.967943,-2.720092,0.999998,0.000173,-0.001109,0.002338,-0.000139,0.002344,-0.001114,-87.688735,0.002345,
790,170,0.173850,-4.737852,0.999998,0.000152,-0.000779,0.002207,0.000376,0.002253,-0.000826,82.936408,0.002280,
1870,100,-0.241492,-4.786751,0.999998,0.000166,-0.001166,0.002768,-0.000541,0.002842,-0.001239,-82.313007,0.002849,
1440,1220,-0.316954,-1.765777,0.999998,0.000187,-0.001976,0.003263,-0.000492,0.003309,-0.002022,-84.678964,0.003336,
600,1450,0.757732,-1.524087,0.999997,0.000210,-0.001290,0.002564,-0.000015,0.002564,-0.001290,-89.770799,0.002564,
820,1240,0.647980,-1.945741,0.999998,0.000176,-0.001469,0.002861,-0.000289,0.002881,-0.001488,-86.195192,0.002881,
1780,820,-0.839909,-3.023618,0.999998,0.000158,-0.001250,0.002515,-0.000246,0.002531,-0.001266,-86.273851,0.002531,
1720,1270,-0.728289,-1.900324,0.999998,0.000204,-0.001395,0.002671,0.000243,0.002685,-0.001409,86.597285,0.002686,
1730,140,-0.176357,-4.788699,0.999998,0.000158,-0.000723,0.002291,-0.000529,0.002381,-0.000813,-80.330978,0.002420,
1560,2000,-0.023341,-0.059028,0.999999,0.000151,-0.000117,0.001684,0.000329,0.001742,-0.000175,79.958239,0.001918,
570,220,0.450350,-4.436374,0.999912,0.001167,-0.001494,0.002130,0.000522,0.002203,-0.001568,81.972344,0.002268,
1590,800,-0.549024,-3.171814,0.999997,0.000207,-0.001636,0.003046,-0.000204,0.003055,-0.001644,-87.507373,0.003058,
1350,370,-0.066692,-4.441713,0.999998,0.000146,-0.000634,0.001899,0.000087,0.001902,-0.000637,88.040766,0.001936,
1540,1870,-0.106509,-0.297097,0.999998,0.000165,-0.000436,0.001969,0.000233,0.001992,-0.000458,84.518330,0.002086,
1480,1470,-0.223460,-1.139650,0.999998,0.000173,-0.001263,0.002427,-0.000395,0.002469,-0.001305,-83.957736,0.002470,
590,1910,0.333520,-0.376594,0.999998,0.000184,-0.001174,0.002626,-0.000234,0.002641,-0.001188,-86.486333,0.002645,
860,1590,0.326548,-0.958009,0.999998,0.000166,-0.001208,0.002483,0.000141,0.002488,-0.001213,87.819457,0.002488,
1310,840,-0.112670,-3.709810,0.999998,0.000161,-0.001109,0.001050,0.000623,0.001217,-0.001275,75.001480,0.001440,
1690,1070,-0.842460,-2.414600,0.999998,0.000161,-0.001046,0.002535,0.000104,0.002538,-0.001049,88.343690,0.002550,
1180,450,0.030037,-4.313114,0.999998,0.000184,-0.000583,0.001771,-0.000059,0.001773,-0.000584,-88.572429,0.001807,
1660,1930,-0.115770,-0.201295,0.999999,0.000138,-0.000555,0.002070,0.000438,0.002141,-0.000626,80.782004,0.002202,
1030,1270,0.242870,-1.593794,0.999997,0.000205,-0.001865,0.002970,0.000677,0.003063,-0.001958,82.183146,0.003102,
680,270,0.393148,-4.431295,0.999997,0.000226,-0.001189,0.002506,0.000128,0.002511,-0.001194,88.014766,0.002512,
740,1920,0.165726,-0.238421,0.999998,0.000165,-0.000614,0.002267,-0.000567,0.002375,-0.000722,-79.266352,0.002435,
1610,410,-0.304260,-4.210444,0.999998,0.000155,-0.001090,0.002394,0.000080,0.002396,-0.001092,88.682741,0.002399,
910,1350,0.393004,-1.546311,0.999998,0.000213,-0.001696,0.002903,0.000178,0.002910,-0.001703,87.787926,0.002924,
980,1810,0.109344,-0.399838,0.999998,0.000152,-0.000571,0.001999,-0.000077,0.002002,-0.000574,-88.278375,0.002061,
1480,920,-0.539581,-2.894814,0.999998,0.000181,-0.001584,0.003466,-0.000138,0.003470,-0.001588,-88.437912,0.003474,
1850,280,-0.484110,-4.347770,0.999998,0.000177,-0.001207,0.002513,-0.000028,0.002513,-0.001207,-89.569467,0.002514,
860,1420,0.423538,-1.399974,0.999997,0.000185,-0.001503,0.002792,0.000138,0.002796,-0.001507,88.160487,0.002799,
1860,1280,-0.897746,-1.947223,0.999998,0.000143,-0.001185,0.002417,0.000099,0.002419,-0.001188,88.420622,0.002420,
1520,1720,-0.178136,-0.602308,0.999998,0.000151,-0.000817,0.002224,-0.000015,0.002224,-0.000817,-89.718256,0.002250,
1140,640,0.058301,-3.968938,0.999999,0.000146,-0.000801,0.001655,-0.000507,0.001755,-0.000901,-78.779210,0.001755,
1000,240,0.094239,-4.654796,0.999998,0.000158,-0.000489,0.001950,0.000104,0.001955,-0.000494,87.551625,0.002033,
930,240,0.137987,-4.633925,0.999998,0.000151,-0.000614,0.002065,0.000146,0.002073,-0.000622,86.890235,0.002128,
1730,1650,-0.441629,-0.908076,0.999998,0.000180,-0.001227,0.002520,-0.000046,0.002520,-0.001228,-89.293473,0.002521,
1570,410,-0.261953,-4.237319,0.999998,0.000171,-0.001073,0.002372,0.000097,0.002374,-0.001075,88.395097,0.002378,
880,1330,0.461533,-1.637209,0.999997,0.000214,-0.001656,0.002948,0.000025,0.002948,-0.001657,89.685326,0.002956,
1240,460,-0.005660,-4.303343,0.999998,0.000159,-0.000644,0.001743,0.000026,0.001744,-0.000644,89.379224,0.001763,
1540,650,-0.336878,-3.663659,0.999998,0.000178,-0.001536,0.002755,0.000276,0.002772,-0.001553,86.340236,0.002779,
1900,1490,-0.774192,-1.450546,0.999998,0.000000,-0.001281,0.002598,0.000041,0.002599,-0.001282,89.391452,0.002599,
1490,1260,-0.364112,-1.738108,0.999998,0.000158,-0.001920,0.003183,-0.000261,0.003196,-0.001934,-87.076954,0.003219,
600,350,0.563413,-4.160577,0.999997,0.000172,-0.001222,0.002485,-0.000032,0.002485,-0.001222,-89.504540,0.002485,
1820,920,-0.958691,-2.768827,0.999999,0.000151,-0.001136,0.002343,-0.000141,0.002348,-0.001142,-87.686561,0.002349,
890,980,0.722973,-2.651041,0.999997,0.000220,-0.001004,0.002794,0.000230,0.002808,-0.001018,86.540631,0.002843,
1510,1300,-0.360322,-1.642856,0.999997,0.000178,-0.001803,0.003083,-0.000230,0.003094,-0.001813,-87.310683,0.003109,
1440,1200,-0.349173,-1.835222,0.999998,0.000175,-0.001959,0.003424,-0.000431,0.003458,-0.001994,-85.450811,0.003472,
1840,1270,-0.882553,-1.960007,0.999998,0.000167,-0.001208,0.002448,0.000143,0.002454,-0.001213,87.764012,0.002454,
1160,2020,0.002463,-0.024821,0.999999,0.000000,0.000051,0.001483,-0.000038,0.001484,0.000050,-88.493704,0.001743,
1400,120,-0.026989,-4.881120,0.999998,0.000158,-0.000215,0.001671,-0.000110,0.001677,-0.000222,-86.668879,0.001823,
1010,1040,0.618531,-2.470203,0.999997,0.000219,-0.001424,0.004183,0.000050,0.004183,-0.001424,89.484057,0.004254,
790,150,0.151270,-4.782229,0.999998,0.000162,-0.000725,0.002178,0.000417,0.002237,-0.000784,81.985028,0.002270,
950,1990,0.024223,-0.073643,0.999999,0.000124,-0.000167,0.001655,-0.000235,0.001685,-0.000197,-82.778345,0.001843,
1550,2000,-0.022568,-0.059423,0.999998,0.000159,-0.000087,0.001661,0.000304,0.001712,-0.000139,80.400208,0.001902,
820,1220,0.671297,-2.002454,0.999998,0.000176,-0.001434,0.002836,-0.000309,0.002858,-0.001457,-85.883619,0.002858,
1490,1460,-0.239760,-1.174727,0.999998,0.000169,-0.001311,0.002474,-0.000389,0.002514,-0.001350,-84.186212,0.002516,
1520,1870,-0.098448,-0.292388,0.999998,0.000166,-0.000466,0.001939,0.000196,0.001955,-0.000482,85.367311,0.002037,
1270,840,-0.065738,-3.812596,0.999998,0.000164,-0.001457,0.000763,0.000101,0.000768,-0.001462,87.391511,0.001462,
930,700,0.356200,-3.531716,0.999997,0.000196,-0.001676,0.002883,-0.000240,0.002895,-0.001689,-86.993346,0.002909,
1730,120,-0.148914,-4.833711,0.999999,0.000143,-0.000627,0.002256,-0.000583,0.002370,-0.000740,-78.990039,0.002425,
1480,380,-0.163696,-4.363839,0.999998,0.000163,-0.000872,0.002145,0.000113,0.002149,-0.000876,87.865631,0.002162,
1610,390,-0.292864,-4.258037,0.999998,0.000158,-0.001044,0.002360,0.000047,0.002360,-0.001044,89.207011,0.002366,
1570,820,-0.539753,-3.126775,0.999997,0.000184,-0.001680,0.003058,-0.000203,0.003067,-0.001688,-87.549282,0.003072,
1190,610,0.024652,-4.050661,0.999999,0.000138,-0.000641,0.001553,-0.000197,0.001571,-0.000659,-84.901424,0.001578,
1550,220,-0.135026,-4.670336,0.999998,0.000170,-0.000575,0.002050,-0.000195,0.002064,-0.000589,-85.776373,0.002126,
860,1400,0.435774,-1.456687,0.999997,0.000197,-0.001529,0.002779,0.000114,0.002782,-0.001532,88.478340,0.002786,
960,1810,0.121974,-0.406955,0.999998,0.000140,-0.000646,0.002049,-0.000088,0.002051,-0.000649,-88.127219,0.002097,
1860,1480,-0.730237,-1.444432,0.999998,0.000162,-0.001278,0.002562,-0.000017,0.002562,-0.001278,-89.749083,0.002562,
1690,1030,-0.850918,-2.513230,0.999998,0.000162,-0.001021,0.002511,0.000016,0.002511,-0.001021,89.746770,0.002526,
1350,350,-0.063289,-4.479072,0.999998,0.000167,-0.000598,0.001854,0.000095,0.001858,-0.000602,87.783940,0.001896,
1580,1770,-0.200038,-0.520551,0.999998,0.000192,-0.000886,0.002232,0.000067,0.002234,-0.000888,88.770262,0.002249,
1000,220,0.088295,-4.692199,0.999998,0.000159,-0.000449,0.001918,0.000101,0.001922,-0.000453,87.566188,0.002010,
1900,1480,-0.782150,-1.476120,0.999998,0.000000,-0.001286,0.002583,0.000038,0.002583,-0.001287,89.430682,0.002583,
1540,630,-0.325302,-3.718990,0.999998,0.000170,-0.001488,0.002686,0.000276,0.002704,-0.001506,86.238048,0.002710,
930,1140,0.609646,-2.182073,0.999998,0.000189,-0.001382,0.003141,-0.000361,0.003170,-0.001410,-85.462809,0.003176,
910,1330,0.411283,-1.605318,0.999998,0.000226,-0.001750,0.002975,0.000134,0.002979,-0.001754,88.372576,0.002995,
1140,620,0.058949,-4.000202,0.999999,0.000142,-0.000780,0.001685,-0.000441,0.001761,-0.000857,-80.161453,0.001761,
1820,900,-0.946349,-2.815161,0.999999,0.000144,-0.001138,0.002334,-0.000137,0.002339,-0.001143,-87.751020,0.002340,
1730,1630,-0.455455,-0.957603,0.999999,0.000156,-0.001233,0.002536,-0.000042,0.002536,-0.001234,-89.362261,0.002536,
970,1000,0.657241,-2.612307,0.999998,0.000179,-0.001056,0.003368,0.000097,0.003370,-0.001058,88.745416,0.003447,
1440,1180,-0.382912,-1.906992,0.999998,0.000178,-0.001849,0.003459,-0.000384,0.003487,-0.001876,-85.887797,0.003490,
1010,1020,0.620924,-2.548890,0.999996,0.000253,-0.001414,0.004159,-0.000036,0.004159,-0.001414,-89.631934,0.004229,
1700,970,-0.850616,-2.663410,0.999998,0.000173,-0.001091,0.002507,-0.000151,0.002514,-0.001097,-87.603400,0.002520,
870,980,0.744292,-2.647974,0.999997,0.000217,-0.000987,0.002709,0.000195,0.002720,-0.000997,86.982267,0.002752,
1010,1240,0.314492,-1.732910,0.999997,0.000199,-0.001946,0.003195,0.000448,0.003234,-0.001985,85.058203,0.003262,
1590,2000,-0.027311,-0.060952,0.999999,0.000131,-0.000192,0.001732,0.000371,0.001801,-0.000260,79.465076,0.001947,
1400,100,-0.021650,-4.914090,0.999999,0.000142,-0.000187,0.001623,-0.000127,0.001632,-0.000196,-85.994249,0.001782,
950,1970,0.035650,-0.108646,0.999999,0.000142,-0.000210,0.001754,-0.000239,0.001782,-0.000238,-83.169471,0.001935,
1260,840,-0.050536,-3.827585,0.999998,0.000151,-0.001535,0.000705,0.000003,0.000705,-0.001535,89.926910,0.001537,
1850,440,-0.616542,-3.947322,0.999997,0.000192,-0.001253,0.002497,0.000023,0.002497,-0.001253,89.652853,0.002497,
1240,420,-0.005452,-4.374759,0.999998,0.000163,-0.000615,0.001789,0.000024,0.001789,-0.000615,89.417921,0.001818,
910,240,0.149700,-4.627709,0.999998,0.000151,-0.000617,0.002105,0.000163,0.002115,-0.000627,86.582026,0.002172,
1780,800,-0.820212,-3.074217,0.999999,0.000146,-0.001265,0.002505,-0.000229,0.002519,-0.001279,-86.537306,0.002519,
1440,950,-0.530975,-2.858289,0.999997,0.000205,-0.001568,0.003964,0.000359,0.003988,-0.001592,86.301444,0.004015,
960,1870,0.089838,-0.290041,0.999999,0.000134,-0.000499,0.001916,-0.000163,0.001926,-0.000510,-86.165991,0.001996,
980,1310,0.303030,-1.571038,0.999997,0.000215,-0.001784,0.002993,0.000408,0.003027,-0.001818,85.153969,0.003048,
1660,1910,-0.136806,-0.243276,0.999998,0.000164,-0.000641,0.002126,0.000417,0.002187,-0.000703,81.605232,0.002233,
1310,1480,-0.052295,-0.954433,0.999998,0.000170,-0.000747,0.001675,-0.000319,0.001716,-0.000789,-82.614060,0.001718,
1150,120,0.012036,-4.885321,0.999999,0.000142,-0.000153,0.001609,0.000059,0.001611,-0.000155,88.072069,0.001778,
820,1200,0.691279,-2.058423,0.999998,0.000183,-0.001395,0.002787,-0.000331,0.002813,-0.001421,-85.505434,0.002813,
860,1380,0.452545,-1.510854,0.999997,0.000207,-0.001551,0.002825,0.000060,0.002825,-0.001552,89.208580,0.002830,
1160,450,0.043404,-4.310418,0.999998,0.000171,-0.000667,0.001813,-0.000117,0.001818,-0.000672,-87.307847,0.001839,
1580,1810,-0.172282,-0.433677,0.999998,0.000163,-0.000802,0.002165,0.000144,0.002171,-0.000809,87.236667,0.002195,
740,1900,0.192265,-0.283292,0.999998,0.000159,-0.000700,0.002332,-0.000498,0.002412,-0.000780,-80.903170,0.002461,
1900,1470,-0.789344,-1.501598,0.999998,0.000000,-0.001291,0.002541,0.000022,0.002542,-0.001291,89.669798,0.002542,
1480,360,-0.154146,-4.405780,0.999998,0.000164,-0.000817,0.002086,0.000066,0.002087,-0.000818,88.692945,0.002104,
1610,370,-0.281523,-4.306178,0.999998,0.000162,-0.001000,0.002356,0.000018,0.002356,-0.001000,89.685908,0.002365,
680,250,0.371789,-4.481596,0.999997,0.000217,-0.001181,0.002546,0.000145,0.002552,-0.001187,87.774009,0.002554,
1000,200,0.077141,-4.732892,0.999998,0.000149,-0.000383,0.001847,0.000134,0.001855,-0.000391,86.582006,0.001956,
1030,1250,0.263939,-1.656323,0.999997,0.000204,-0.001905,0.003070,0.000614,0.003144,-0.001979,83.065880,0.003179,
1190,30,0.001112,-5.024671,0.999999,0.000000,-0.000004,0.001522,0.000009,0.001522,-0.000004,89.671106,0.001755,
910,1140,0.636852,-2.193426,0.999998,0.000178,-0.001343,0.003010,-0.000359,0.003039,-0.001372,-85.311628,0.003044,
1720,470,-0.474171,-3.976056,0.999997,0.000201,-0.001283,0.002540,0.000073,0.002541,-0.001285,88.908192,0.002541,
1820,880,-0.935920,-2.860800,0.999999,0.000144,-0.001138,0.002377,-0.000177,0.002386,-0.001147,-87.116421,0.002386,
1570,390,-0.250398,-4.285522,0.999998,0.000154,-0.001052,0.002327,0.000084,0.002329,-0.001055,88.573108,0.002333,
910,1310,0.427528,-1.665451,0.999998,0.000205,-0.001775,0.003049,0.000089,0.003051,-0.001776,88.937900,0.003065,
1520,650,-0.305347,-3.688279,0.999998,0.000185,-0.001553,0.002702,0.000341,0.002729,-0.001580,85.440781,0.002740,
1140,600,0.060006,-4.033457,0.999999,0.000146,-0.000770,0.001708,-0.000389,0.001767,-0.000830,-81.286931,0.001768,
1690,490,-0.449835,-3.949387,0.999998,0.000162,-0.001259,0.002550,0.000071,0.002551,-0.001261,88.932202,0.002551,
1850,1670,-0.576006,-0.955649,0.999998,0.000182,-0.001232,0.002512,-0.000016,0.002513,-0.001233,-89.751123,0.002513,
1720,110,-0.127023,-4.858911,0.999999,0.000135,-0.000483,0.002194,-0.000614,0.002328,-0.000617,-77.670185,0.002412,
790,130,0.128596,-4.825380,0.999998,0.000148,-0.000632,0.002108,0.000435,0.002175,-0.000700,81.196353,0.002221,
1440,1160,-0.423193,-1.977424,0.999998,0.000181,-0.001744,0.003558,-0.000325,0.003578,-0.001763,-86.504441,0.003578,
1730,1610,-0.470095,-1.008420,0.999998,0.000170,-0.001254,0.002517,-0.000045,0.002518,-0.001255,-89.310305,0.002518,
1580,2000,-0.026548,-0.060971,0.999999,0.000129,-0.000164,0.001724,0.000354,0.001788,-0.000229,79.711446,0.001947,
1540,1170,-0.577423,-2.092124,0.999997,0.000197,-0.001540,0.003142,0.000325,0.003164,-0.001563,86.052272,0.003164,
1250,840,-0.035914,-3.840634,0.999998,0.000152,-0.001711,0.000648,-0.000057,0.000649,-0.001712,-88.628384,0.001729,
740,650,0.610811,-3.502434,0.999997,0.000194,-0.001389,0.002667,0.000057,0.002668,-0.001390,89.197470,0.002668,
1500,1870,-0.087617,-0.287867,0.999998,0.000185,-0.000541,0.001885,0.000165,0.001896,-0.000552,86.127005,0.001951,
1810,1080,-0.970325,-2.398039,0.999997,0.000227,-0.001089,0.002292,0.000043,0.002292,-0.001090,89.270197,0.002293,
830,1260,0.612059,-1.881651,0.999997,0.000195,-0.001503,0.002892,-0.000236,0.002904,-0.001515,-86.930352,0.002905,
1820,270,-0.436087,-4.402222,0.999997,0.000187,-0.001196,0.002542,-0.000081,0.002544,-0.001198,-88.762668,0.002545,
1350,1480,-0.082137,-0.982146,0.999999,0.000136,-0.000839,0.001872,-0.000409,0.001932,-0.000900,-81.610532,0.001934,
860,1360,0.468103,-1.568905,0.999997,0.000207,-0.001581,0.002871,0.000037,0.002871,-0.001581,89.518441,0.002876,
950,1950,0.045988,-0.142988,0.999998,0.000152,-0.000273,0.001757,-0.000236,0.001784,-0.000300,-83.464850,0.001910,
1400,80,-0.015761,-4.945579,0.999999,0.000127,-0.000143,0.001591,-0.000128,0.001601,-0.000152,-85.789671,0.001767,
1900,1460,-0.797255,-1.526858,0.999998,0.000000,-0.001301,0.002569,0.000026,0.002569,-0.001301,89.620586,0.002569,
1870,140,-0.320920,-4.678555,0.999997,0.000212,-0.001226,0.002633,-0.000309,0.002658,-0.001251,-85.447201,0.002659,
820,1180,0.712234,-2.115235,0.999997,0.000190,-0.001336,0.002781,-0.000332,0.002807,-0.001363,-85.416518,0.002808,
1350,330,-0.061145,-4.516009,0.999998,0.000175,-0.000560,0.001865,0.000080,0.001868,-0.000563,88.115555,0.001917,
1520,1700,-0.189813,-0.647363,0.999998,0.000169,-0.000847,0.002201,-0.000046,0.002201,-0.000848,-89.137926,0.002221,
1230,1830,-0.000061,-0.325932,0.999998,0.000149,-0.000372,0.001721,-0.000008,0.001721,-0.000372,-89.768572,0.001811,
1040,30,0.004768,-5.021539,0.999999,0.000000,-0.000049,0.001554,0.000124,0.001564,-0.000059,85.605298,0.001773,
1470,1160,-0.476784,-2.040454,0.999998,0.000181,-0.001765,0.003483,0.000041,0.003484,-0.001765,89.556946,0.003484,
1580,1790,-0.186248,-0.476744,0.999998,0.000171,-0.000853,0.002176,0.000096,0.002179,-0.000856,88.184293,0.002195,
1000,180,0.069994,-4.765841,0.999999,0.000134,-0.000347,0.001812,0.000149,0.001822,-0.000357,86.071057,0.001931,
1190,590,0.026320,-4.083472,0.999999,0.000130,-0.000642,0.001576,-0.000162,0.001588,-0.000654,-85.841976,0.001596,
1820,860,-0.918562,-2.909895,0.999999,0.000137,-0.001141,0.002410,-0.000198,0.002421,-0.001152,-86.817715,0.002422,
1140,580,0.060403,-4.067583,0.999999,0.000157,-0.000775,0.001756,-0.000335,0.001800,-0.000819,-82.578863,0.001802,
1690,470,-0.436333,-3.997559,0.999998,0.000152,-0.001251,0.002539,0.000072,0.002540,-0.001253,88.917213,0.002541,
1540,1190,-0.548173,-2.028159,0.999998,0.000165,-0.001622,0.003182,0.000269,0.003197,-0.001637,86.803222,0.003198,
1610,350,-0.269633,-4.353258,0.999998,0.000151,-0.000959,0.002365,-0.000016,0.002365,-0.000959,-89.723606,0.002379,
1480,340,-0.147831,-4.448472,0.999998,0.000171,-0.000761,0.002077,0.000054,0.002078,-0.000763,88.900815,0.002103,
1720,90,-0.099637,-4.899508,0.999999,0.000142,-0.000389,0.002044,-0.000604,0.002185,-0.000530,-76.798147,0.002280,
790,110,0.106249,-4.866487,0.999998,0.000153,-0.000526,0.002093,0.000499,0.002185,-0.000618,79.569823,0.002252,
620,510,0.659464,-3.774669,0.999997,0.000222,-0.001242,0.002522,-0.000024,0.002522,-0.001242,-89.638945,0.002522,
1440,1140,-0.463291,-2.050936,0.999998,0.000188,-0.001655,0.003703,-0.000313,0.003722,-0.001673,-86.669939,0.003728,
1730,1590,-0.484136,-1.059242,0.999998,0.000175,-0.001285,0.002544,-0.000059,0.002545,-0.001286,-89.117210,0.002545,
1500,650,-0.275683,-3.712735,0.999998,0.000196,-0.001528,0.002647,0.000397,0.002684,-0.001565,84.621475,0.002697,
1470,500,-0.189801,-4.108050,0.999998,0.000147,-0.001029,0.002227,0.000289,0.002253,-0.001054,84.969132,0.002254,
590,790,0.926552,-3.046338,0.999999,0.000136,-0.001180,0.002344,0.000071,0.002345,-0.001182,88.845276,0.002345,
910,1290,0.447470,-1.726555,0.999997,0.000187,-0.001769,0.003035,0.000027,0.003035,-0.001769,89.674810,0.003049,
1570,2000,-0.024790,-0.059997,0.999999,0.000136,-0.000128,0.001713,0.000339,0.001774,-0.000188,79.891524,0.001948,
1480,1870,-0.077117,-0.283976,0.999999,0.000110,-0.000425,0.001848,0.000147,0.001857,-0.000434,86.303884,0.001943,
1860,740,-0.866266,-3.178480,0.999999,0.000154,-0.001238,0.002485,-0.000093,0.002488,-0.001241,-88.577057,0.002488,
720,650,0.637054,-3.487612,0.999997,0.000197,-0.001351,0.002645,0.000053,0.002645,-0.001351,89.243655,0.002646,
860,1340,0.484085,-1.624986,0.999997,0.000194,-0.001613,0.002878,-0.000009,0.002878,-0.001613,-89.885744,0.002885,
950,1190,0.503252,-2.001231,0.999997,0.000198,-0.001718,0.003296,-0.000165,0.003302,-0.001723,-88.113141,0.003303,
1870,130,-0.302205,-4.705838,0.999998,0.000186,-0.001213,0.002682,-0.000368,0.002717,-0.001247,-84.648071,0.002720,
1030,1230,0.289069,-1.716378,0.999998,0.000177,-0.001944,0.003162,0.000559,0.003223,-0.002004,83.822260,0.003254,
820,1160,0.731547,-2.169838,0.999998,0.000174,-0.001268,0.002737,-0.000333,0.002765,-0.001295,-85.277232,0.002767,
1590,660,-0.419956,-3.584101,0.999997,0.000200,-0.001562,0.002798,0.000129,0.002801,-0.001566,88.310387,0.002808,
1690,1140,-0.806869,-2.234409,0.999998,0.000152,-0.001202,0.002602,0.000287,0.002623,-0.001223,85.712768,0.002625,
1010,1220,0.341630,-1.797906,0.999998,0.000162,-0.001965,0.003355,0.000383,0.003383,-0.001992,85.902022,0.003401,
1900,1450,-0.804565,-1.552478,0.999998,0.000000,-0.001311,0.002613,0.000023,0.002613,-0.001311,89.662807,0.002613,
1570,590,-0.348303,-3.792837,0.999998,0.000188,-0.001420,0.002616,0.000235,0.002630,-0.001434,86.674821,0.002633,
1400,60,-0.009667,-4.977377,0.999999,0.000122,-0.000109,0.001566,-0.000116,0.001575,-0.000117,-86.044793,0.001754,
1580,1750,-0.213158,-0.565757,0.999998,0.000155,-0.000916,0.002241,0.000047,0.002242,-0.000917,89.139152,0.002254,
740,1880,0.219000,-0.331511,0.999998,0.000159,-0.000784,0.002394,-0.000426,0.002450,-0.000840,-82.498311,0.002490,
1380,1490,-0.108940,-0.991114,0.999999,0.000131,-0.000964,0.001970,-0.000442,0.002035,-0.001029,-81.620977,0.002035,
1200,450,0.020112,-4.316598,0.999998,0.000180,-0.000580,0.001759,-0.000085,0.001762,-0.000583,-87.916090,0.001796,
1090,180,0.039390,-4.781043,0.999999,0.000138,-0.000278,0.001729,0.000071,0.001732,-0.000280,87.981196,0.001859,
1820,1060,-0.985409,-2.445192,0.999998,0.000174,-0.001070,0.002288,0.000060,0.002289,-0.001071,88.978892,0.002290,
1420,950,-0.499546,-2.916385,0.999997,0.000218,-0.001752,0.004190,0.001037,0.004366,-0.001928,80.378007,0.004376,
1780,780,-0.801931,-3.123846,0.999999,0.000152,-0.001291,0.002539,-0.000203,0.002550,-0.001301,-86.966911,0.002550,
1640,1930,-0.106047,-0.197850,0.999999,0.000150,-0.000413,0.002042,0.000424,0.002113,-0.000485,80.463210,0.002214,
730,1140,0.856582,-2.242140,0.999998,0.000145,-0.001135,0.002522,-0.000213,0.002535,-0.001148,-86.681594,0.002539,
1520,950,-0.638471,-2.758281,0.999997,0.000205,-0.001211,0.003133,-0.000297,0.003153,-0.001231,-86.111225,0.003178,
1420,1790,-0.081054,-0.420634,0.999998,0.000148,-0.000575,0.001895,-0.000003,0.001895,-0.000575,-89.925030,0.001943,
1230,1810,0.000452,-0.359410,0.999998,0.000162,-0.000384,0.001687,0.000000,0.001687,-0.000384,89.989420,0.001768,
1390,120,-0.024401,-4.880219,0.999998,0.000158,-0.000171,0.001654,-0.000106,0.001660,-0.000177,-86.698148,0.001823,
1610,330,-0.255870,-4.400508,0.999998,0.000189,-0.000939,0.002370,-0.000037,0.002370,-0.000939,-89.365913,0.002387,
1000,160,0.058883,-4.804450,0.999999,0.000144,-0.000304,0.001820,0.000176,0.001835,-0.000318,85.291928,0.001961,
1140,560,0.061946,-4.103239,0.999999,0.000141,-0.000759,0.001768,-0.000291,0.001801,-0.000792,-83.506298,0.001805,
610,1040,1.023798,-2.492065,0.999998,0.000179,-0.001038,0.002237,-0.000044,0.002238,-0.001039,-89.233777,0.002240,
1440,1120,-0.503428,-2.124484,0.999997,0.000201,-0.001591,0.003809,-0.000330,0.003829,-0.001612,-86.512583,0.003845,
1520,1680,-0.196027,-0.690603,0.999998,0.000156,-0.000883,0.002167,-0.000086,0.002170,-0.000885,-88.376777,0.002182,
1480,320,-0.139141,-4.488154,0.999998,0.000164,-0.000717,0.002091,0.000014,0.002091,-0.000717,89.716456,0.002125,
1690,450,-0.423960,-4.050194,0.999998,0.000167,-0.001246,0.002534,0.000068,0.002535,-0.001247,88.962798,0.002535,
1730,1570,-0.498185,-1.111376,0.999998,0.000173,-0.001277,0.002564,-0.000071,0.002565,-0.001278,-88.944984,0.002565,
790,90,0.081236,-4.907961,0.999999,0.000133,-0.000419,0.001976,0.000500,0.002076,-0.000520,78.663433,0.002161,
1470,480,-0.184102,-4.151684,0.999998,0.000135,-0.001003,0.002172,0.000264,0.002194,-0.001025,85.275469,0.002195,
1030,1210,0.317936,-1.784333,0.999998,0.000183,-0.001953,0.003312,0.000516,0.003362,-0.002003,84.459592,0.003382,
1080,790,0.156925,-3.560241,0.999998,0.000154,-0.001671,0.002502,-0.001042,0.002748,-0.001916,-76.730993,0.002818,
1350,310,-0.056486,-4.551905,0.999998,0.000173,-0.000542,0.001813,0.000044,0.001814,-0.000543,88.941502,0.001862,
1860,700,-0.833909,-3.276963,0.999998,0.000168,-0.001244,0.002508,-0.000047,0.002509,-0.001245,-89.279217,0.002509,
1530,2000,-0.020192,-0.058539,0.999998,0.000157,-0.000074,0.001634,0.000260,0.001673,-0.000112,81.546780,0.001870,
860,1320,0.503373,-1.684050,0.999997,0.000198,-0.001645,0.002943,-0.000041,0.002943,-0.001646,-89.481944,0.002950,
640,130,0.244798,-4.762119,0.999998,0.000159,-0.001065,0.002651,0.000473,0.002710,-0.001124,82.853975,0.002724,
1110,1160,0.309369,-1.586194,0.999998,0.000000,-0.000572,0.001599,0.001378,0.002268,-0.001241,64.114896,0.002271,
950,1930,0.059049,-0.179140,0.999999,0.000144,-0.000332,0.001809,-0.000225,0.001832,-0.000355,-84.060735,0.001943,
620,330,0.521387,-4.228280,0.999998,0.000180,-0.001237,0.002494,-0.000025,0.002495,-0.001237,-89.620483,0.002495,
1140,1870,0.024300,-0.262008,0.999999,0.000139,-0.000284,0.001711,-0.000043,0.001712,-0.000285,-88.772619,0.001835,
590,150,0.342708,-4.649415,0.999998,0.000195,-0.001201,0.002537,0.000238,0.002552,-0.001216,86.371676,0.002553,
750,1200,0.783972,-2.082778,0.999999,0.000164,-0.001277,0.002629,-0.000280,0.002649,-0.001297,-85.916927,0.002649,
910,1490,0.311185,-1.165216,0.999998,0.000190,-0.001347,0.002574,0.000241,0.002589,-0.001362,86.501114,0.002590,
1730,1140,-0.853702,-2.242461,0.999998,0.000163,-0.001179,0.002467,0.000214,0.002479,-0.001191,86.657163,0.002480,
1560,760,-0.455272,-3.320267,0.999998,0.000184,-0.001738,0.003034,0.000023,0.003034,-0.001738,89.718469,0.003045,
1190,790,0.027004,-3.842981,0.999998,0.000172,-0.000753,0.000776,-0.000580,0.000971,-0.000948,-71.392519,0.001108,
580,790,0.937756,-3.039581,0.999998,0.000152,-0.001239,0.002282,0.000020,0.002283,-0.001239,89.671485,0.002285,
1400,910,-0.388867,-3.155336,0.999996,0.000237,-0.001421,0.003205,0.001298,0.003544,-0.001760,75.353824,0.003544,
1390,1990,-0.010572,-0.071668,0.999999,0.000146,-0.000056,0.001573,0.000110,0.001580,-0.000063,86.160266,0.001789,
820,1140,0.749967,-2.224377,0.999998,0.000178,-0.001195,0.002720,-0.000341,0.002750,-0.001225,-85.063524,0.002755,
1160,1250,0.061084,-1.273560,0.999998,0.000150,-0.001020,0.001072,0.000904,0.001409,-0.001356,69.578043,0.001597,
1010,1200,0.376063,-1.866746,0.999998,0.000184,-0.001956,0.003443,0.000297,0.003460,-0.001972,86.856130,0.003471,
920,1610,0.248236,-0.863733,0.999998,0.000160,-0.001104,0.002353,0.000158,0.002360,-0.001111,87.390257,0.002361,
740,1860,0.243307,-0.378737,0.999998,0.000167,-0.000840,0.002384,-0.000382,0.002429,-0.000884,-83.336801,0.002458,
1900,1440,-0.812884,-1.579518,0.999998,0.000000,-0.001323,0.002615,0.000019,0.002615,-0.001323,89.724039,0.002616,
1120,450,0.071899,-4.293532,0.999998,0.000185,-0.000677,0.001874,-0.000160,0.001884,-0.000687,-86.415788,0.001907,
1870,1340,-0.858732,-1.808830,0.999999,0.000156,-0.001233,0.002457,0.000050,0.002457,-0.001234,89.216101,0.002457,
1620,950,-0.751590,-2.724828,0.999999,0.000144,-0.001090,0.002681,-0.000266,0.002700,-0.001109,-85.981991,0.002714,
1000,360,0.142416,-4.415011,0.999998,0.000158,-0.000722,0.002057,-0.000073,0.002059,-0.000724,-88.498423,0.002089,
1610,310,-0.242936,-4.446564,0.999998,0.000193,-0.000925,0.002279,-0.000055,0.002280,-0.000926,-89.019898,0.002294,
1140,540,0.060617,-4.138727,0.999999,0.000145,-0.000766,0.001763,-0.000245,0.001786,-0.000790,-84.518677,0.001790,
1780,760,-0.784086,-3.175317,0.999998,0.000169,-0.001301,0.002565,-0.000183,0.002573,-0.001310,-87.302401,0.002573,
1440,1100,-0.539799,-2.202532,0.999997,0.000215,-0.001563,0.004017,-0.000365,0.004041,-0.001586,-86.277709,0.004072,
850,1500,0.388113,-1.194906,0.999998,0.000154,-0.001339,0.002646,0.000153,0.002652,-0.001344,87.805117,0.002652,
1230,1790,-0.000472,-0.391991,0.999998,0.000149,-0.000421,0.001707,0.000004,0.001707,-0.000421,89.902373,0.001779,
1500,1030,-0.673178,-2.512593,0.999998,0.000197,-0.000945,0.003156,0.000013,0.003156,-0.000945,89.819921,0.003239,
1480,300,-0.131208,-4.531199,0.999998,0.000182,-0.000682,0.002029,-0.000014,0.002029,-0.000682,-89.706760,0.002065,
1690,430,-0.410770,-4.101257,0.999997,0.000176,-0.001219,0.002510,0.000045,0.002510,-0.001219,89.313943,0.002511,
1730,1550,-0.510549,-1.162613,0.999998,0.000170,-0.001264,0.002568,-0.000069,0.002569,-0.001265,-88.971319,0.002569,
1810,1250,-0.864880,-1.993369,0.999998,0.000143,-0.001216,0.002465,0.000204,0.002476,-0.001227,86.844454,0.002476,
1470,520,-0.193792,-4.062821,0.999998,0.000159,-0.001060,0.002294,0.000326,0.002325,-0.001091,84.496774,0.002327,
1130,120,0.016041,-4.884223,0.999998,0.000148,-0.000185,0.001619,0.000064,0.001621,-0.000187,87.978272,0.001774,
1520,2000,-0.020046,-0.058027,0.999999,0.000165,-0.000113,0.001619,0.000253,0.001656,-0.000149,81.844142,0.001832,
1520,1660,-0.205955,-0.735730,0.999998,0.000154,-0.000914,0.002209,-0.000112,0.002213,-0.000918,-87.953111,0.002224,
1340,1480,-0.073625,-0.973625,0.999999,0.000139,-0.000785,0.001832,-0.000376,0.001885,-0.000838,-81.992578,0.001889,
790,290,0.290271,-4.456538,0.999998,0.000184,-0.001059,0.002391,0.000112,0.002394,-0.001062,88.139449,0.002399,
1670,1480,-0.478213,-1.296383,0.999997,0.000201,-0.001378,0.002626,-0.000070,0.002627,-0.001379,-88.999744,0.002629,
1400,890,-0.342912,-3.215791,0.999997,0.000197,-0.001607,0.003035,0.001013,0.003246,-0.001818,78.208372,0.003254,
1250,180,-0.005413,-4.789978,0.999998,0.000161,-0.000284,0.001663,0.000018,0.001663,-0.000284,89.473083,0.001779,
1880,1940,-0.282873,-0.305848,0.999998,0.000178,-0.001197,0.002753,0.000432,0.002800,-0.001244,83.825419,0.002806,
720,1610,0.485808,-1.018476,0.999998,0.000153,-0.001238,0.002519,0.000050,0.002520,-0.001238,89.239727,0.002520,
860,1300,0.522498,-1.743285,0.999997,0.000194,-0.001652,0.002943,-0.000097,0.002945,-0.001654,-88.792048,0.002953,
660,1000,0.966818,-2.584999,0.999998,0.000177,-0.001038,0.002327,0.000078,0.002329,-0.001040,88.669012,0.002333,
1430,1620,-0.136475,-0.764322,0.999998,0.000154,-0.000821,0.002058,-0.000188,0.002070,-0.000834,-86.272654,0.002083,
900,1660,0.247196,-0.762517,0.999998,0.000157,-0.001021,0.002309,0.000100,0.002312,-0.001024,88.275133,0.002317,
900,350,0.221717,-4.382098,0.999998,0.000149,-0.000959,0.002264,-0.000030,0.002264,-0.000959,-89.463488,0.002273,
680,530,0.596565,-3.771626,0.999998,0.000160,-0.001295,0.002590,-0.000022,0.002590,-0.001295,-89.670590,0.002590,
1710,1140,-0.830664,-2.237395,0.999998,0.000175,-0.001176,0.002514,0.000248,0.002531,-0.001193,86.169624,0.002532,
590,160,0.357295,-4.623911,0.999998,0.000188,-0.001193,0.002588,0.000163,0.002595,-0.001201,87.530366,0.002597,
1390,1970,-0.016305,-0.101940,0.999998,0.000155,-0.000108,0.001596,0.000104,0.001602,-0.000115,86.504342,0.001788,
600,330,0.545792,-4.209578,0.999997,0.000179,-0.001216,0.002471,-0.000020,0.002471,-0.001216,-89.688600,0.002471,
1900,1430,-0.820982,-1.606399,0.999998,0.000000,-0.001322,0.002580,0.000013,0.002580,-0.001322,89.806050,0.002581,
950,1890,0.083949,-0.252803,0.999999,0.000139,-0.000418,0.001892,-0.000223,0.001913,-0.000439,-84.538179,0.002004,
1180,580,0.032392,-4.094038,0.999999,0.000123,-0.000655,0.001594,-0.000222,0.001616,-0.000677,-84.406051,0.001623,
1030,1190,0.350005,-1.852808,0.999998,0.000181,-0.001903,0.003397,0.000503,0.003444,-0.001950,84.628695,0.003454,
820,1120,0.766654,-2.278532,0.999998,0.000181,-0.001140,0.002661,-0.000280,0.002682,-0.001160,-85.803021,0.002690,
1780,740,-0.766661,-3.226800,0.999998,0.000182,-0.001318,0.002600,-0.000154,0.002606,-0.001324,-87.756190,0.002606,
740,1840,0.268363,-0.428678,0.999998,0.000184,-0.000905,0.002423,-0.000334,0.002456,-0.000938,-84.331471,0.002479,
1880,1400,-0.820886,-1.664761,0.999998,0.000160,-0.001285,0.002510,0.000032,0.002510,-0.001285,89.520392,0.002510,
1820,230,-0.391936,-4.504901,0.999997,0.000204,-0.001191,0.002557,-0.000168,0.002564,-0.001198,-87.438674,0.002566,
1560,1780,-0.176889,-0.488519,0.999998,0.000169,-0.000728,0.002157,0.000107,0.002161,-0.000732,87.881263,0.002199,
1510,2000,-0.018865,-0.057190,0.999999,0.000174,-0.000154,0.001617,0.000239,0.001649,-0.000185,82.451747,0.001806,
1690,410,-0.395618,-4.151331,0.999998,0.000181,-0.001181,0.002525,0.000034,0.002526,-0.001182,89.470027,0.002528,
870,1260,0.548765,-1.853730,0.999997,0.000200,-0.001664,0.003023,-0.000170,0.003029,-0.001671,-87.925539,0.003034,
1140,520,0.059610,-4.173581,0.999998,0.000158,-0.000762,0.001778,-0.000251,0.001803,-0.000786,-84.421036,0.001808,
570,790,0.950564,-3.031982,0.999997,0.000205,-0.001275,0.002223,-0.000016,0.002223,-0.001275,-89.735925,0.002231,
1210,720,0.009596,-3.918207,0.999999,0.000134,-0.000512,0.001019,-0.000265,0.001063,-0.000557,-80.448091,0.001064,
1860,160,-0.342334,-4.640397,0.999998,0.000179,-0.001224,0.002564,-0.000196,0.002574,-0.001235,-87.043594,0.002575,
1410,380,-0.107915,-4.398513,0.999998,0.000170,-0.000766,0.002004,0.000144,0.002012,-0.000774,87.024306,0.002030,
990,550,0.204878,-3.990250,0.999998,0.000153,-0.001180,0.002332,-0.000346,0.002365,-0.001214,-84.424289,0.002366,
1820,320,-0.485366,-4.275759,0.999997,0.000194,-0.001222,0.002501,-0.000016,0.002501,-0.001222,-89.756738,0.002502,
880,1850,0.145923,-0.350046,0.999998,0.000154,-0.000708,0.002119,-0.000214,0.002135,-0.000724,-85.692839,0.002172,
770,120,0.129300,-4.841240,0.999998,0.000145,-0.000530,0.002191,0.000532,0.002291,-0.000631,79.327804,0.002367,
680,1650,0.507000,-0.951190,0.999997,0.000202,-0.001254,0.002539,0.000037,0.002539,-0.001254,89.437293,0.002539,
1530,1680,-0.205826,-0.695799,0.999998,0.000160,-0.000856,0.002186,-0.000055,0.002187,-0.000857,-88.971852,0.002203,
1410,1620,-0.120594,-0.752144,0.999998,0.000159,-0.000805,0.002023,-0.000204,0.002038,-0.000819,-85.887313,0.002051,
940,1610,0.225828,-0.847631,0.999998,0.000156,-0.001030,0.002277,0.000146,0.002283,-0.001037,87.471014,0.002286,
590,330,0.558058,-4.200791,0.999997,0.000181,-0.001432,0.002485,-0.000036,0.002486,-0.001432,-89.480042,0.002495,
1520,1640,-0.212748,-0.778870,0.999998,0.000167,-0.000946,0.002220,-0.000142,0.002226,-0.000953,-87.440893,0.002234,
1110,910,0.348137,-3.422495,0.999997,0.000000,-0.000511,0.001884,-0.001669,0.002741,-0.001368,-62.825200,0.002741,
1160,1230,0.081966,-1.292850,0.999999,0.000122,-0.001072,0.001047,0.000780,0.001303,-0.001328,71.812182,0.001520,
620,680,0.794330,-3.339536,0.999998,0.000164,-0.001275,0.002540,0.000080,0.002541,-0.001276,88.794324,0.002541,
1080,520,0.109366,-4.135536,0.999999,0.000137,-0.000862,0.001997,-0.000354,0.002040,-0.000906,-83.046300,0.002045,
1540,390,-0.220656,-4.305191,0.999998,0.000173,-0.000927,0.002258,0.000071,0.002260,-0.000928,88.728183,0.002272,
1850,1340,-0.833902,-1.793386,0.999998,0.000148,-0.001256,0.002473,0.000090,0.002476,-0.001258,88.621079,0.002476,
700,1260,0.795263,-1.945728,0.999998,0.000166,-0.001278,0.002579,-0.000224,0.002592,-0.001291,-86.689375,0.002592,
1480,280,-0.123406,-4.571406,0.999998,0.000159,-0.000623,0.002016,-0.000038,0.002016,-0.000623,-89.179537,0.002065,
1280,1230,-0.057038,-1.234293,0.999998,0.000152,-0.001127,0.000761,-0.000466,0.000869,-0.001236,-76.874458,0.001270,
1290,1970,-0.005685,-0.098879,0.999999,0.000137,-0.000096,0.001551,0.000052,0.001553,-0.000098,88.178990,0.001740,
1170,180,0.016292,-4.788268,0.999998,0.000173,-0.000207,0.001666,0.000032,0.001667,-0.000207,89.026275,0.001817,
940,1070,0.677986,-2.392259,0.999998,0.000172,-0.000987,0.003072,-0.000200,0.003082,-0.000997,-87.188331,0.003145,
950,480,0.229787,-4.117781,0.999999,0.000144,-0.001107,0.002327,-0.000230,0.002342,-0.001122,-86.184118,0.002343,
590,1450,0.770995,-1.531630,0.999997,0.000224,-0.001395,0.002534,-0.000019,0.002534,-0.001395,-89.727915,0.002538,
1880,1930,-0.302392,-0.333468,0.999998,0.000182,-0.001211,0.002716,0.000357,0.002748,-0.001243,84.849258,0.002752,
1230,1770,0.000894,-0.426416,0.999998,0.000164,-0.000450,0.001774,-0.000004,0.001774,-0.000450,-89.895748,0.001844,
830,680,0.502064,-3.488035,0.999997,0.000236,-0.001559,0.002782,-0.000003,0.002782,-0.001559,-89.962568,0.002788,
920,630,0.329388,-3.715084,0.999998,0.000164,-0.001504,0.002703,-0.000264,0.002720,-0.001521,-86.422736,0.002726,
1880,1110,-1.038019,-2.345995,0.999998,0.000167,-0.001046,0.002164,0.000041,0.002165,-0.001047,89.267791,0.002165,
1610,290,-0.230281,-4.491039,0.999998,0.000178,-0.000907,0.002289,-0.000099,0.002292,-0.000910,-88.220474,0.002308,
870,880,0.648768,-2.931896,0.999998,0.000178,-0.001408,0.002928,0.000365,0.002958,-0.001438,85.221708,0.002959,
1780,720,-0.749166,-3.279182,0.999998,0.000180,-0.001331,0.002604,-0.000141,0.002609,-0.001336,-87.952462,0.002610,
820,1100,0.779187,-2.331268,0.999998,0.000155,-0.001097,0.002663,-0.000237,0.002678,-0.001112,-86.406957,0.002690,
780,460,0.420194,-4.031032,0.999998,0.000175,-0.001258,0.002520,-0.000070,0.002521,-0.001259,-88.934920,0.002521,
1900,1420,-0.829302,-1.630977,0.999998,0.000000,-0.001313,0.002543,-0.000005,0.002543,-0.001313,-89.921845,0.002543,
650,1190,0.915680,-2.140527,0.999998,0.000147,-0.001183,0.002443,-0.000211,0.002456,-0.001195,-86.677602,0.002456,
830,1500,0.414789,-1.211661,0.999998,0.000174,-0.001381,0.002643,0.000105,0.002646,-0.001384,88.501752,0.002647,
750,280,0.322697,-4.457959,0.999997,0.000244,-0.001040,0.002480,0.000164,0.002488,-0.001048,87.333601,0.002498,
670,300,0.434123,-4.346764,0.999997,0.000192,-0.001198,0.002567,0.000044,0.002568,-0.001198,89.335298,0.002570,
1030,1170,0.391331,-1.923080,0.999998,0.000174,-0.001807,0.003481,0.000469,0.003523,-0.001848,84.967266,0.003524,
1440,1300,-0.231686,-1.522491,0.999998,0.000170,-0.001784,0.002872,-0.000680,0.002969,-0.001881,-81.856498,0.003004,
750,300,0.341676,-4.406354,0.999997,0.000219,-0.001059,0.002474,0.000121,0.002478,-0.001063,88.039380,0.002486,
950,1870,0.093905,-0.291279,0.999998,0.000144,-0.000482,0.001933,-0.000185,0.001948,-0.000496,-85.645389,0.002024,
1520,1620,-0.217503,-0.822147,0.999998,0.000169,-0.000966,0.002265,-0.000165,0.002273,-0.000974,-87.085967,0.002281,
800,350,0.325140,-4.318282,0.999998,0.000156,-0.001147,0.002441,-0.000023,0.002441,-0.001147,-89.638366,0.002443,
1180,1980,0.004784,-0.083819,0.999999,0.000125,-0.000067,0.001521,-0.000042,0.001522,-0.000068,-88.500590,0.001720,
1820,280,-0.446248,-4.377564,0.999997,0.000195,-0.001208,0.002560,-0.000067,0.002561,-0.001209,-88.987273,0.002563,
950,960,0.643280,-2.730989,0.999997,0.000190,-0.001162,0.003166,0.000294,0.003186,-0.001182,86.128008,0.003221,
860,1910,0.107133,-0.230840,0.999998,0.000148,-0.000518,0.002005,-0.000338,0.002049,-0.000563,-82.509707,0.002118,
910,750,0.432995,-3.358712,0.999997,0.000214,-0.001739,0.003068,-0.000078,0.003069,-0.001740,-89.070665,0.003078,
1650,670,-0.519199,-3.501576,0.999998,0.000200,-0.001488,0.002767,-0.000001,0.002767,-0.001488,-89.982167,0.002769,
770,140,0.152889,-4.798562,0.999998,0.000146,-0.000640,0.002185,0.000475,0.002263,-0.000718,80.711943,0.002313,
1310,2000,-0.004102,-0.052838,0.999999,0.000155,-0.000061,0.001520,0.000046,0.001521,-0.000063,88.324479,0.001722,
1230,720,0.001115,-3.925563,0.999999,0.000117,-0.000474,0.000962,-0.000022,0.000962,-0.000474,-89.105319,0.000963,
1690,390,-0.382965,-4.202322,0.999998,0.000173,-0.001145,0.002481,0.000029,0.002481,-0.001145,89.541990,0.002483,
1890,1400,-0.833204,-1.672995,0.999998,0.000158,-0.001276,0.002520,0.000023,0.002520,-0.001276,89.656438,0.002521,
860,1720,0.253702,-0.649568,0.999998,0.000176,-0.000959,0.002354,-0.000024,0.002354,-0.000959,-89.583815,0.002367,
1560,1740,-0.201341,-0.577619,0.999998,0.000185,-0.000841,0.002227,0.000029,0.002227,-0.000841,89.464880,0.002250,
1110,380,0.070320,-4.419828,0.999998,0.000194,-0.000630,0.001893,-0.000101,0.001897,-0.000634,-87.719631,0.001931,
970,880,0.491896,-3.014856,0.999997,0.000192,-0.001761,0.003383,0.000140,0.003387,-0.001765,88.443983,0.003388,
610,1520,0.691199,-1.336908,0.999998,0.000166,-0.001269,0.002559,0.000029,0.002559,-0.001270,89.569074,0.002559,
1390,1950,-0.020942,-0.134869,0.999998,0.000163,-0.000133,0.001610,0.000111,0.001617,-0.000140,86.355281,0.001792,
740,1080,0.875933,-2.388640,0.999998,0.000162,-0.001090,0.002495,-0.000129,0.002500,-0.001095,-87.944265,0.002506,
1070,1080,0.477998,-2.115389,0.999995,0.000000,-0.002040,0.006232,0.001845,0.006625,-0.002433,77.979078,0.006702,
1020,1570,0.157981,-0.878777,0.999998,0.000141,-0.000981,0.002162,0.000286,0.002188,-0.001007,84.836583,0.002190,
1350,290,-0.054011,-4.588476,0.999998,0.000147,-0.000513,0.001832,0.000024,0.001832,-0.000513,89.401776,0.001890,
730,1760,0.358612,-0.632458,0.999997,0.000204,-0.001114,0.002531,-0.000112,0.002534,-0.001117,-88.237276,0.002540,
620,660,0.777234,-3.391106,0.999998,0.000173,-0.001277,0.002542,0.000057,0.002542,-0.001278,89.150261,0.002543,
580,330,0.569969,-4.191723,0.999998,0.000177,-0.002185,0.002595,-0.000202,0.002603,-0.002194,-87.585448,0.002800,
1430,1840,-0.071448,-0.330303,0.999999,0.000142,-0.000440,0.001817,0.000071,0.001819,-0.000443,88.195838,0.001898,
1730,1530,-0.524867,-1.212555,0.999997,0.000183,-0.001285,0.002593,-0.000043,0.002593,-0.001285,-89.365811,0.002593,
990,1570,0.187252,-0.902215,0.999998,0.000144,-0.001034,0.002205,0.000267,0.002227,-0.001056,85.318903,0.002228,
1880,1920,-0.323005,-0.360093,0.999998,0.000205,-0.001212,0.002661,0.000304,0.002685,-0.001235,85.539072,0.002687,
1860,140,-0.308592,-4.690593,0.999998,0.000189,-0.001217,0.002619,-0.000293,0.002641,-0.001240,-85.652037,0.002643,
630,1320,0.831284,-1.832540,0.999999,0.000132,-0.001256,0.002483,-0.000125,0.002487,-0.001260,-88.084338,0.002487,
1310,180,-0.019431,-4.788536,0.999998,0.000171,-0.000291,0.001653,-0.000036,0.001654,-0.000292,-88.926044,0.001766,
1080,500,0.106090,-4.176158,0.999998,0.000141,-0.000851,0.001994,-0.000321,0.002030,-0.000886,-83.645208,0.002035,
1880,960,-1.041759,-2.662412,0.999998,0.000165,-0.001005,0.002089,-0.000008,0.002089,-0.001005,-89.860389,0.002089,
580,1450,0.784050,-1.540401,0.999998,0.000186,-0.001708,0.002502,-0.000025,0.002502,-0.001708,-89.657212,0.002557,
820,1080,0.792472,-2.384299,0.999998,0.000147,-0.001049,0.002596,-0.000185,0.002606,-0.001059,-87.101668,0.002621,
1540,370,-0.212596,-4.349968,0.999999,0.000143,-0.000860,0.002195,0.000042,0.002195,-0.000861,89.207414,0.002212,
1240,1490,-0.004729,-0.912804,0.999998,0.000147,-0.000613,0.001600,-0.000071,0.001603,-0.000615,-88.164994,0.001617,
1740,1410,-0.628660,-1.537435,0.999998,0.000152,-0.001360,0.002647,0.000045,0.002648,-0.001360,89.358994,0.002648,
1480,260,-0.113945,-4.611616,0.999998,0.000158,-0.000582,0.001990,-0.000058,0.001992,-0.000583,-88.699257,0.002048,
1230,1750,0.000758,-0.463407,0.999998,0.000167,-0.000473,0.001770,-0.000014,0.001770,-0.000473,-89.648661,0.001832,
950,1620,0.212859,-0.819806,0.999998,0.000150,-0.000976,0.002243,0.000135,0.002249,-0.000982,87.608627,0.002255,
1780,700,-0.729496,-3.331047,0.999998,0.000186,-0.001332,0.002591,-0.000118,0.002594,-0.001335,-88.272812,0.002594,
810,680,0.533216,-3.472058,0.999997,0.000238,-0.001517,0.002771,0.000026,0.002771,-0.001518,89.657826,0.002775,
1030,1150,0.432253,-1.992183,0.999998,0.000167,-0.001705,0.003616,0.000446,0.003653,-0.001743,85.242002,0.003655,
780,1480,0.496962,-1.306080,0.999997,0.000207,-0.001399,0.002619,0.000033,0.002619,-0.001399,89.530898,0.002621,
1900,1410,-0.837060,-1.655970,0.999998,0.000000,-0.001294,0.002513,-0.000009,0.002513,-0.001294,-89.865960,0.002514,
650,1120,0.957967,-2.304857,0.999998,0.000154,-0.001126,0.002340,-0.000156,0.002347,-0.001133,-87.420280,0.002348,
660,260,0.407128,-4.440794,0.999998,0.000214,-0.001135,0.002540,0.000141,0.002545,-0.001140,87.802491,0.002550,
1610,710,-0.489991,-3.422588,0.999997,0.000209,-0.001598,0.002889,0.000008,0.002890,-0.001598,89.902657,0.002895,
1130,1710,0.054315,-0.547448,0.999998,0.000168,-0.000599,0.001815,0.000096,0.001819,-0.000603,87.716970,0.001853,
700,1240,0.812635,-1.996702,0.999998,0.000154,-0.001269,0.002574,-0.000234,0.002588,-0.001284,-86.527936,0.002588,
1430,1490,-0.160438,-1.040952,0.999998,0.000164,-0.001091,0.002174,-0.000430,0.002230,-0.001147,-82.629486,0.002230,
1520,1600,-0.226327,-0.868392,0.999999,0.000156,-0.001041,0.002318,-0.000175,0.002327,-0.001050,-87.033211,0.002330,
1810,1690,-0.509480,-0.869455,0.999997,0.000185,-0.001266,0.002527,-0.000012,0.002527,-0.001266,-89.818544,0.002527,
1020,890,0.418807,-3.073384,0.999998,0.000191,-0.001795,0.003519,-0.000286,0.003534,-0.001810,-86.926812,0.003534,
1750,1120,-0.887846,-2.294273,0.999999,0.000147,-0.001145,0.002456,0.000199,0.002467,-0.001156,86.853818,0.002468,
940,1050,0.687990,-2.453222,0.999998,0.000186,-0.000922,0.003032,-0.000119,0.003035,-0.000925,-88.281529,0.003111,
780,790,0.682053,-3.145181,0.999998,0.000159,-0.001445,0.002752,0.000253,0.002767,-0.001460,86.564529,0.002769,
1400,1170,-0.332046,-1.807878,0.999998,0.000172,-0.001669,0.003058,-0.000960,0.003245,-0.001857,-78.947038,0.003256,
730,280,0.344729,-4.445448,0.999997,0.000198,-0.001101,0.002498,0.000131,0.002503,-0.001106,87.923944,0.002509,
1750,1760,-0.378971,-0.645736,0.999998,0.000201,-0.001201,0.002532,0.000068,0.002533,-0.001202,88.962060,0.002534,
1300,2000,-0.003876,-0.052959,0.999999,0.000143,-0.000039,0.001514,0.000038,0.001515,-0.000040,88.596922,0.001727,
830,1860,0.170133,-0.343442,0.999998,0.000170,-0.000641,0.002193,-0.000299,0.002224,-0.000672,-84.047731,0.002281,
950,1850,0.107584,-0.331986,0.999998,0.000187,-0.000543,0.001935,-0.000147,0.001943,-0.000551,-86.614999,0.002003,
1180,1940,0.007564,-0.145799,0.999999,0.000155,-0.000132,0.001593,-0.000038,0.001594,-0.000133,-88.747239,0.001769,
610,1500,0.706351,-1.388792,0.999998,0.000180,-0.001261,0.002571,0.000022,0.002571,-0.001261,89.665409,0.002571,
620,640,0.760446,-3.442142,0.999998,0.000172,-0.001257,0.002546,0.000037,0.002546,-0.001257,89.436214,0.002546,
1560,1200,-0.566812,-2.012429,0.999998,0.000175,-0.001627,0.003092,0.000283,0.003109,-0.001644,86.575563,0.003111,
640,790,0.865950,-3.077922,0.999998,0.000148,-0.001215,0.002476,0.000167,0.002484,-0.001223,87.414469,0.002484,
570,330,0.587393,-4.170550,0.999417,0.002901,-0.002629,0.002709,-0.000258,0.002721,-0.002641,-87.236995,0.003097,
1690,370,-0.369550,-4.250143,0.999998,0.000162,-0.001122,0.002447,0.000009,0.002447,-0.001122,89.861089,0.002450,
1090,380,0.083846,-4.415246,0.999998,0.000140,-0.000605,0.001920,-0.000083,0.001923,-0.000608,-88.110258,0.001966,
1330,440,-0.062429,-4.317311,0.999998,0.000165,-0.000682,0.001832,0.000161,0.001843,-0.000693,86.341924,0.001861,
1800,2010,-0.055470,-0.055450,0.999998,0.000180,-0.000135,0.002187,0.000944,0.002523,-0.000470,70.442291,0.002683,
1020,1550,0.162868,-0.921595,0.999998,0.000135,-0.001028,0.002136,0.000317,0.002167,-0.001059,84.330050,0.002167,
1860,120,-0.269966,-4.744707,0.999998,0.000167,-0.001199,0.002689,-0.000393,0.002728,-0.001238,-84.287670,0.002732,
860,1740,0.240380,-0.600189,0.999998,0.000189,-0.000931,0.002307,-0.000037,0.002308,-0.000932,-89.344735,0.002322,
1290,1950,-0.006542,-0.130100,0.999999,0.000142,-0.000131,0.001570,0.000064,0.001572,-0.000134,87.843644,0.001743,
1480,240,-0.104083,-4.650473,0.999998,0.000157,-0.000531,0.001964,-0.000099,0.001968,-0.000535,-87.737854,0.002035,
1330,1420,-0.065526,-1.070954,0.999999,0.000133,-0.000836,0.001682,-0.000537,0.001792,-0.000945,-78.454101,0.001792,
1370,300,-0.067758,-4.566044,0.999998,0.000163,-0.000502,0.001844,0.000012,0.001844,-0.000502,89.712562,0.001907,
1900,1400,-0.845380,-1.682039,0.999998,0.000000,-0.001274,0.002527,-0.000002,0.002527,-0.001274,-89.965282,0.002527,
650,1920,0.243067,-0.281591,0.999997,0.000234,-0.000939,0.002595,-0.000549,0.002678,-0.001022,-81.370485,0.002703,
1570,1440,-0.361760,-1.312500,0.999997,0.000183,-0.001478,0.002702,-0.000212,0.002713,-0.001488,-87.102559,0.002717,
810,220,0.207981,-4.633799,0.999998,0.000170,-0.000831,0.002284,0.000247,0.002304,-0.000851,85.503869,0.002330,
1470,440,-0.172736,-4.239334,0.999999,0.000146,-0.000952,0.002204,0.000210,0.002217,-0.000966,86.212296,0.002224,
740,1820,0.287933,-0.476708,0.999998,0.000172,-0.000939,0.002473,-0.000259,0.002492,-0.000958,-85.679169,0.002514,
790,1260,0.671377,-1.904749,0.999998,0.000169,-0.001468,0.002799,-0.000257,0.002815,-0.001484,-86.569751,0.002816,
1730,1510,-0.540058,-1.267192,0.999997,0.000201,-0.001307,0.002632,-0.000037,0.002632,-0.001307,-89.469070,0.002632,
990,1530,0.196878,-0.992133,0.999998,0.000155,-0.001093,0.002283,0.000318,0.002312,-0.001122,84.670707,0.002313,
1440,1830,-0.079630,-0.350157,0.999998,0.000196,-0.000439,0.001867,0.000071,0.001869,-0.000441,88.227977,0.001954,
800,590,0.479794,-3.711009,0.999996,0.000208,-0.001402,0.002636,-0.000068,0.002637,-0.001403,-89.041818,0.002638,
1520,1580,-0.236645,-0.917707,0.999998,0.000159,-0.001128,0.002347,-0.000217,0.002361,-0.001142,-86.439438,0.002361,
1810,1670,-0.525608,-0.922844,0.999997,0.000188,-0.001259,0.002522,-0.000022,0.002523,-0.001259,-89.673508,0.002523,
1440,560,-0.169911,-3.999165,0.999998,0.000144,-0.001099,0.002205,0.000410,0.002255,-0.001149,83.029211,0.002255,
1770,1890,-0.251504,-0.335313,0.999998,0.000159,-0.001049,0.002519,0.000412,0.002566,-0.001096,83.502421,0.002575,
820,1060,0.799096,-2.435547,0.999998,0.000160,-0.001005,0.002589,-0.000099,0.002592,-0.001007,-88.422489,0.002614,
820,350,0.301416,-4.334773,0.999998,0.000174,-0.001066,0.002403,0.000011,0.002403,-0.001066,89.823686,0.002408,
1880,1100,-1.041206,-2.367900,0.999998,0.000153,-0.001033,0.002131,-0.000007,0.002131,-0.001033,-89.869701,0.002131,
1610,460,-0.332008,-4.088077,0.999998,0.000177,-0.001202,0.002472,0.000124,0.002476,-0.001206,88.069992,0.002477,
1030,1130,0.473001,-2.066180,0.999998,0.000181,-0.001635,0.003757,0.000478,0.003799,-0.001677,84.976947,0.003808,
700,1220,0.830663,-2.048545,0.999998,0.000150,-0.001235,0.002515,-0.000245,0.002531,-0.001251,-86.285110,0.002531,
1080,480,0.103405,-4.214955,0.999998,0.000158,-0.000840,0.001980,-0.000285,0.002009,-0.000869,-84.282965,0.002015,
1350,250,-0.047977,-4.660044,0.999999,0.000131,-0.000417,0.001760,-0.000017,0.001760,-0.000417,-89.540004,0.001839,
660,220,0.361878,-4.542658,0.999998,0.000191,-0.001116,0.002559,0.000237,0.002574,-0.001131,86.327911,0.002580,
1830,580,-0.695314,-3.604565,0.999998,0.000184,-0.001270,0.002566,0.000004,0.002566,-0.001270,89.944903,0.002566,
1070,980,0.467308,-2.899221,0.999940,0.000000,-0.002418,0.005985,-0.001885,0.006388,-0.002821,-77.919763,0.006403,
1610,730,-0.510775,-3.362521,0.999997,0.000194,-0.001615,0.002928,-0.000044,0.002928,-0.001615,-89.443296,0.002934,
610,1830,0.426555,-0.557939,0.999997,0.000205,-0.001206,0.002527,-0.000069,0.002528,-0.001208,-88.941300,0.002529,
1200,2000,0.001199,-0.052831,0.999999,0.000116,-0.000083,0.001498,-0.000010,0.001498,-0.000083,-89.621796,0.001684,
1230,1730,0.002161,-0.498376,0.999998,0.000148,-0.000495,0.001733,0.000014,0.001733,-0.000495,89.632047,0.001785,
810,1200,0.704956,-2.062173,0.999998,0.000163,-0.001367,0.002770,-0.000329,0.002796,-0.001393,-85.477868,0.002796,
570,320,0.578579,-4.198302,0.999392,0.002809,-0.002644,0.003355,-0.000308,0.003371,-0.002660,-87.071499,0.003554,
1690,350,-0.355832,-4.299548,0.999998,0.000159,-0.001097,0.002462,-0.000013,0.002462,-0.001097,-89.795221,0.002467,
1560,1180,-0.593691,-2.074590,0.999998,0.000167,-0.001546,0.003063,0.000333,0.003087,-0.001570,85.894664,0.003087,
590,1520,0.717273,-1.354414,0.999998,0.000143,-0.001387,0.002642,0.000076,0.002643,-0.001388,88.922621,0.002644,
1140,500,0.060027,-4.208650,0.999998,0.000143,-0.000742,0.001813,-0.000231,0.001834,-0.000762,-84.873947,0.001842,
710,2010,0.044296,-0.051083,0.999998,0.000152,-0.000327,0.002041,-0.000737,0.002252,-0.000537,-74.051853,0.002352,
950,1830,0.116159,-0.367881,0.999998,0.000155,-0.000614,0.001975,-0.000115,0.001980,-0.000619,-87.451997,0.002026,
1180,1400,0.030092,-1.061472,0.999999,0.000153,-0.000665,0.001401,0.000388,0.001471,-0.000736,79.718942,0.001471,
690,300,0.409716,-4.362747,0.999997,0.000200,-0.001186,0.002543,0.000040,0.002543,-0.001186,89.383777,0.002545,
770,760,0.666298,-3.222237,0.999997,0.000191,-0.001435,0.002738,0.000202,0.002747,-0.001445,87.236166,0.002749,
1900,1510,-0.757837,-1.398151,0.999998,0.000000,-0.001280,0.002525,0.000008,0.002525,-0.001280,89.886945,0.002525,
1310,1420,-0.049635,-1.053120,0.999999,0.000139,-0.000750,0.001584,-0.000442,0.001665,-0.000831,-79.617932,0.001665,
1520,1560,-0.242179,-0.963771,0.999998,0.000176,-0.001192,0.002357,-0.000255,0.002375,-0.001210,-85.906619,0.002375,
780,770,0.660799,-3.198755,0.999997,0.000186,-0.001448,0.002752,0.000221,0.002763,-0.001459,86.991682,0.002765,
1420,330,-0.102002,-4.493535,0.999998,0.000175,-0.000683,0.001948,0.000076,0.001950,-0.000685,88.355382,0.001978,
1810,1650,-0.541553,-0.971282,0.999997,0.000180,-0.001275,0.002536,-0.000035,0.002536,-0.001276,-89.477730,0.002536,
910,710,0.396464,-3.479518,0.999997,0.000207,-0.001681,0.002903,-0.000162,0.002909,-0.001686,-87.984505,0.002921,
580,1440,0.791205,-1.565569,0.999997,0.000195,-0.001734,0.002567,0.000005,0.002567,-0.001734,89.927111,0.002619,
1880,1910,-0.340738,-0.386730,0.999998,0.000221,-0.001219,0.002594,0.000255,0.002611,-0.001236,86.197549,0.002613,
1480,220,-0.095306,-4.690053,0.999998,0.000153,-0.000477,0.001930,-0.000117,0.001936,-0.000483,-87.221073,0.002015,
820,1040,0.803941,-2.487643,0.999998,0.000172,-0.000974,0.002597,-0.000048,0.002598,-0.000975,-89.228383,0.002625,
1560,50,-0.019539,-4.989576,0.999999,0.000128,-0.000091,0.001655,-0.000317,0.001711,-0.000147,-80.009447,0.001897,
1780,680,-0.715245,-3.383142,0.999997,0.000192,-0.001322,0.002604,-0.000085,0.002606,-0.001324,-88.763278,0.002606,
1030,1110,0.512631,-2.143937,0.999998,0.000198,-0.001619,0.003973,0.000549,0.004026,-0.001672,84.443280,0.004045,
1410,1940,-0.028609,-0.151450,0.999999,0.000140,-0.000219,0.001657,0.000124,0.001665,-0.000227,86.238802,0.001806,
1610,440,-0.321090,-4.137296,0.999998,0.000154,-0.001159,0.002462,0.000121,0.002466,-0.001163,88.085105,0.002467,
1880,1180,-0.997981,-2.193047,0.999998,0.000153,-0.001115,0.002178,0.000045,0.002179,-0.001116,89.218871,0.002179,
1530,160,-0.086482,-4.793397,0.999998,0.000148,-0.000402,0.001918,-0.000236,0.001942,-0.000426,-84.243978,0.002041,
1650,1400,-0.508242,-1.495101,0.999997,0.000188,-0.001530,0.002760,-0.000008,0.002760,-0.001530,-89.894422,0.002766,
1390,1930,-0.027516,-0.167124,0.999999,0.000122,-0.000197,0.001619,0.000124,0.001627,-0.000206,86.123731,0.001772,
690,1440,0.648620,-1.483566,0.999997,0.000172,-0.001323,0.002583,-0.000030,0.002583,-0.001323,-89.553782,0.002584,
1430,1360,-0.186603,-1.341953,0.999998,0.000175,-0.001483,0.002562,-0.000678,0.002673,-0.001594,-80.733929,0.002689,
780,1440,0.526154,-1.414036,0.999997,0.000195,-0.001409,0.002707,0.000032,0.002707,-0.001409,89.560309,0.002708,
740,1780,0.328437,-0.574935,0.999997,0.000173,-0.001025,0.002451,-0.000187,0.002461,-0.001035,-86.936067,0.002471,
1440,520,-0.162220,-4.087769,0.999998,0.000151,-0.001072,0.002210,0.000348,0.002246,-0.001108,84.016595,0.002246,
1860,100,-0.229582,-4.799255,0.999998,0.000167,-0.001178,0.002707,-0.000522,0.002776,-0.001247,-82.481764,0.002781,
1350,230,-0.042098,-4.696818,0.999998,0.000143,-0.000381,0.001768,-0.000030,0.001769,-0.000381,-89.190871,0.001862,
650,1630,0.559861,-1.025247,0.999998,0.000189,-0.001271,0.002521,0.000036,0.002522,-0.001272,89.453417,0.002522,
1650,1410,-0.500998,-1.468119,0.999997,0.000203,-0.001519,0.002722,-0.000012,0.002722,-0.001519,-89.833241,0.002728,
1440,1850,-0.071428,-0.315229,0.999998,0.000151,-0.000388,0.001820,0.000107,0.001825,-0.000394,87.230372,0.001921,
950,1810,0.128840,-0.410529,0.999998,0.000155,-0.000662,0.002063,-0.000103,0.002067,-0.000666,-87.842428,0.002110,
1560,1160,-0.620292,-2.135721,0.999998,0.000185,-0.001432,0.003067,0.000368,0.003097,-0.001462,85.358772,0.003099,
1370,2000,-0.007928,-0.054311,0.999999,0.000124,-0.000059,0.001541,0.000082,0.001545,-0.000063,87.090292,0.001748,
620,620,0.745141,-3.492595,0.999998,0.000179,-0.001257,0.002560,0.000015,0.002560,-0.001258,89.770842,0.002560,
1350,440,-0.075698,-4.310428,0.999999,0.000127,-0.000673,0.001858,0.000153,0.001868,-0.000682,86.549193,0.001890,
1690,330,-0.340263,-4.348025,0.999997,0.000182,-0.001102,0.002471,-0.000020,0.002471,-0.001103,-89.683612,0.002476,
990,1540,0.194911,-0.969244,0.999998,0.000163,-0.001071,0.002252,0.000292,0.002278,-0.001096,85.014276,0.002278,
1890,340,-0.587555,-4.161521,0.999998,0.000186,-0.001230,0.002456,-0.000021,0.002456,-0.001230,-89.672665,0.002456,
1090,1600,0.092337,-0.768779,0.999998,0.000157,-0.000785,0.001927,0.000222,0.001945,-0.000803,85.355169,0.001955,
590,660,0.815635,-3.367936,0.999998,0.000168,-0.001307,0.002519,0.000047,0.002520,-0.001307,89.289964,0.002520,
1290,1930,-0.010875,-0.161755,0.999999,0.000134,-0.000175,0.001589,0.000056,0.001591,-0.000177,88.180356,0.001744,
1070,970,0.463830,-2.948901,0.999940,0.000000,-0.002210,0.005362,-0.002171,0.005941,-0.002788,-75.086165,0.005944,
1440,1130,-0.484029,-2.086736,0.999997,0.000203,-0.001621,0.003756,-0.000318,0.003775,-0.001640,-86.627337,0.003786,
1220,1490,0.007528,-0.913767,0.999998,0.000169,-0.000619,0.001577,0.000070,0.001579,-0.000621,88.168861,0.001591,
1410,420,-0.117127,-4.319356,0.999998,0.000148,-0.000802,0.002015,0.000198,0.002029,-0.000816,86.002052,0.002042,
620,790,0.891199,-3.065720,0.999998,0.000161,-0.001218,0.002439,0.000130,0.002444,-0.001223,87.966530,0.002444,
710,2000,0.059394,-0.070664,0.999999,0.000144,-0.000407,0.002106,-0.000744,0.002310,-0.000611,-74.687118,0.002394,
1470,420,-0.166960,-4.283171,0.999999,0.000142,-0.000926,0.002157,0.000190,0.002169,-0.000938,86.481767,0.002175,
1520,1540,-0.250224,-1.011088,0.999998,0.000165,-0.001188,0.002385,-0.000254,0.002403,-0.001206,-85.956729,0.002403,
780,830,0.721413,-3.034901,0.999998,0.000168,-0.001375,0.002725,0.000293,0.002746,-0.001396,85.928571,0.002746,
1900,1390,-0.854001,-1.706522,0.999998,0.000000,-0.001250,0.002509,0.000002,0.002509,-0.001250,89.970092,0.002509,
610,1320,0.856323,-1.845301,0.999999,0.000151,-0.001200,0.002454,-0.000095,0.002457,-0.001202,-88.515057,0.002457,
1810,1630,-0.555106,-1.023910,0.999998,0.000173,-0.001291,0.002552,-0.000008,0.002552,-0.001291,-89.882861,0.002552,
570,50,0.130801,-4.916585,0.999990,0.000354,-0.000139,0.003632,0.001532,0.004176,-0.000683,70.453328,0.004480,
1610,750,-0.529280,-3.305233,0.999997,0.000184,-0.001611,0.002930,-0.000098,0.002932,-0.001613,-88.769559,0.002937,
1180,1380,0.028929,-1.087660,0.999999,0.000160,-0.000660,0.001329,0.000413,0.001412,-0.000743,78.719900,0.001412,
690,1140,0.903173,-2.249029,0.999998,0.000156,-0.001142,0.002456,-0.000163,0.002463,-0.001149,-87.416067,0.002465,
1140,460,0.057833,-4.283576,0.999998,0.000174,-0.000705,0.001837,-0.000193,0.001852,-0.000720,-85.694267,0.001867,
1030,1090,0.543583,-2.227877,0.999997,0.000239,-0.001705,0.004266,0.000576,0.004321,-0.001760,84.539891,0.004345,
900,530,0.308273,-3.953895,0.999998,0.000163,-0.001295,0.002526,-0.000210,0.002537,-0.001306,-86.859204,0.002538,
910,170,0.103579,-4.769709,0.999999,0.000144,-0.000456,0.001966,0.000237,0.001989,-0.000479,84.462716,0.002077,
820,1020,0.804327,-2.539082,0.999998,0.000180,-0.000984,0.002568,0.000038,0.002568,-0.000984,89.392622,0.002591,
1780,640,-0.678932,-3.487427,0.999998,0.000174,-0.001330,0.002605,-0.000058,0.002606,-0.001331,-89.155965,0.002606,
1420,1550,-0.139436,-0.901186,0.999999,0.000133,-0.000947,0.002084,-0.000293,0.002112,-0.000975,-84.535530,0.002114,
990,990,0.626818,-2.659599,0.999998,0.000188,-0.001177,0.003613,0.000056,0.003614,-0.001178,89.331094,0.003686,
1870,1990,-0.156659,-0.150338,0.999998,0.000134,-0.000979,0.002910,0.000865,0.003093,-0.001163,78.014504,0.003125,
1510,160,-0.078389,-4.796492,0.999999,0.000130,-0.000436,0.001878,-0.000203,0.001896,-0.000453,-85.016335,0.001980,
1230,1710,0.000073,-0.531347,0.999998,0.000158,-0.000521,0.001764,0.000012,0.001764,-0.000521,89.694546,0.001813,
1480,200,-0.084868,-4.729121,0.999999,0.000152,-0.000412,0.001914,-0.000141,0.001922,-0.000421,-86.542268,0.002021,
1690,1760,-0.313049,-0.605484,0.999998,0.000194,-0.001051,0.002423,0.000079,0.002425,-0.001053,88.698538,0.002432,
1390,180,-0.042395,-4.780333,0.999998,0.000158,-0.000302,0.001746,-0.000082,0.001749,-0.000305,-87.706124,0.001869,
1650,1370,-0.533216,-1.579305,0.999997,0.000212,-0.001551,0.002804,0.000049,0.002805,-0.001551,89.354185,0.002810,
740,1760,0.347427,-0.626300,0.999998,0.000181,-0.001086,0.002520,-0.000143,0.002526,-0.001092,-87.724958,0.002533,
790,900,0.774001,-2.849883,0.999998,0.000184,-0.001212,0.002661,0.000317,0.002687,-0.001238,85.348373,0.002689,
1110,890,0.292717,-3.460990,0.999998,0.000169,-0.000644,0.001621,-0.001294,0.002208,-0.001231,-65.595982,0.002213,
590,650,0.807274,-3.393503,0.999998,0.000199,-0.001334,0.002557,0.000061,0.002558,-0.001335,89.096192,0.002559,
1210,1620,0.011706,-0.693976,0.999998,0.000188,-0.000579,0.001771,0.000054,0.001772,-0.000580,88.695712,0.001807,
1560,1140,-0.646687,-2.198760,0.999998,0.000181,-0.001321,0.003009,0.000338,0.003035,-0.001347,85.559836,0.003041,
1550,50,-0.018636,-4.989357,0.999999,0.000146,-0.000053,0.001650,-0.000297,0.001701,-0.000103,-80.371657,0.001907,
1880,1170,-1.004217,-2.214039,0.999998,0.000152,-0.001106,0.002164,0.000046,0.002164,-0.001106,89.187239,0.002164,
1730,600,-0.579646,-3.629737,0.999997,0.000196,-0.001381,0.002631,-0.000025,0.002631,-0.001382,-89.650034,0.002632,
1690,310,-0.325150,-4.399073,0.999998,0.000170,-0.001098,0.002456,-0.000057,0.002457,-0.001099,-89.073588,0.002461,
1650,1940,-0.099252,-0.178862,0.999999,0.000157,-0.000413,0.002041,0.000448,0.002120,-0.000492,79.972886,0.002219,
1900,1370,-0.869796,-1.756311,0.999999,0.000000,-0.001240,0.002487,0.000024,0.002487,-0.001241,89.623746,0.002487,
1820,1990,-0.102100,-0.105125,0.999998,0.000146,-0.000675,0.002467,0.000828,0.002672,-0.000880,76.096960,0.002723,
1350,2000,-0.006399,-0.054518,0.999998,0.000156,-0.000054,0.001532,0.000075,0.001535,-0.000057,87.293962,0.001740,
620,580,0.712941,-3.593503,0.999998,0.000162,-0.001277,0.002524,0.000005,0.002524,-0.001277,89.930297,0.002524,
1360,1490,-0.088809,-0.971744,0.999999,0.000139,-0.000884,0.001901,-0.000420,0.001963,-0.000946,-81.604736,0.001963,
1520,1520,-0.257833,-1.059657,0.999998,0.000163,-0.001201,0.002419,-0.000283,0.002441,-0.001223,-85.561668,0.002441,
1470,1880,-0.069500,-0.264231,0.999999,0.000136,-0.000341,0.001823,0.000144,0.001833,-0.000350,86.212965,0.001946,
1430,1300,-0.215271,-1.500355,0.999998,0.000159,-0.001739,0.002799,-0.000735,0.002915,-0.001855,-81.021487,0.002951,
1810,1610,-0.570875,-1.075881,0.999998,0.000172,-0.001287,0.002513,-0.000034,0.002513,-0.001287,-89.492044,0.002513,
570,40,0.089615,-4.958090,0.999993,0.000300,0.000064,0.003815,0.001847,0.004572,-0.000693,67.717978,0.004928,
780,900,0.786105,-2.847487,0.999998,0.000174,-0.001208,0.002637,0.000307,0.002661,-0.001233,85.465755,0.002664,
670,1140,0.924389,-2.254361,0.999999,0.000102,-0.001133,0.002389,-0.000155,0.002396,-0.001140,-87.491401,0.002397,
950,1790,0.137670,-0.451631,0.999998,0.000159,-0.000716,0.002069,-0.000069,0.002071,-0.000718,-88.583326,0.002103,
1390,1910,-0.033043,-0.198559,0.999999,0.000119,-0.000227,0.001735,0.000111,0.001742,-0.000233,86.761777,0.001891,
880,530,0.335175,-3.936676,0.999998,0.000191,-0.001283,0.002555,-0.000184,0.002564,-0.001292,-87.266918,0.002564,
590,1320,0.879029,-1.860175,0.999998,0.000164,-0.001188,0.002454,-0.000054,0.002455,-0.001189,-89.149199,0.002455,
1100,1410,0.095115,-1.127873,0.999999,0.000121,-0.001007,0.001937,0.000636,0.002068,-0.001139,78.307862,0.002072,
1610,770,-0.549425,-3.247232,0.999997,0.000190,-0.001625,0.002929,-0.000128,0.002932,-0.001628,-88.396940,0.002938,
1290,1910,-0.011410,-0.194377,0.999999,0.000128,-0.000190,0.001633,0.000021,0.001633,-0.000190,89.343933,0.001786,
1480,180,-0.075756,-4.766020,0.999999,0.000149,-0.000385,0.001859,-0.000169,0.001871,-0.000397,-85.719793,0.001972,
920,1070,0.696017,-2.397959,0.999998,0.000188,-0.000972,0.002938,-0.000221,0.002951,-0.000985,-86.777094,0.003005,
1430,1930,-0.037253,-0.171859,0.999998,0.000154,-0.000249,0.001719,0.000106,0.001725,-0.000254,86.936588,0.001862,
730,260,0.324614,-4.495061,0.999998,0.000183,-0.001056,0.002490,0.000170,0.002498,-0.001064,87.264613,0.002507,
600,790,0.915113,-3.054329,0.999999,0.000139,-0.001172,0.002381,0.000105,0.002385,-0.001175,88.311140,0.002385,
1370,180,-0.038704,-4.782211,0.999999,0.000128,-0.000265,0.001749,-0.000081,0.001753,-0.000268,-87.698019,0.001888,
1900,1360,-0.877904,-1.780967,0.999999,0.000000,-0.001241,0.002479,0.000048,0.002480,-0.001242,89.263459,0.002480,
1690,290,-0.308752,-4.447308,0.999998,0.000172,-0.001075,0.002422,-0.000105,0.002425,-0.001078,-88.284972,0.002430,
570,610,0.802897,-3.471816,0.999956,0.000786,-0.001854,0.002115,0.000009,0.002115,-0.001854,89.869475,0.002306,
620,910,0.977311,-2.783806,0.999998,0.000145,-0.001089,0.002253,0.000122,0.002258,-0.001094,87.912965,0.002258,
1030,1510,0.159742,-0.999660,0.999999,0.000136,-0.001080,0.002183,0.000384,0.002228,-0.001125,83.380263,0.002228,
1070,440,0.107171,-4.286781,0.999999,0.000140,-0.000816,0.001995,-0.000231,0.002014,-0.000835,-85.340927,0.002024,
1180,1360,0.028836,-1.115556,0.999999,0.000151,-0.000640,0.001260,0.000473,0.001371,-0.000751,76.768466,0.001373,
1140,440,0.055601,-4.320954,0.999998,0.000170,-0.000673,0.001847,-0.000179,0.001860,-0.000685,-85.959825,0.001881,
1540,730,-0.393284,-3.435134,0.999998,0.000268,-0.001767,0.002997,0.000164,0.003003,-0.001773,88.027865,0.003019,
1820,1930,-0.233142,-0.260950,0.999998,0.000185,-0.001025,0.002638,0.000510,0.002707,-0.001095,82.223466,0.002724,
1350,210,-0.038755,-4.730800,0.999998,0.000157,-0.000337,0.001745,-0.000013,0.001745,-0.000337,-89.652732,0.001851,
1860,80,-0.181465,-4.852101,0.999998,0.000159,-0.001148,0.002901,-0.000677,0.003011,-0.001259,-80.754951,0.003024,
1780,620,-0.663712,-3.540855,0.999998,0.000163,-0.001327,0.002611,-0.000031,0.002611,-0.001328,-89.552290,0.002611,
910,150,0.090003,-4.810532,0.999998,0.000152,-0.000376,0.001921,0.000276,0.001954,-0.000409,83.236457,0.002061,
1420,590,-0.152339,-3.955930,0.999998,0.000141,-0.001123,0.002185,0.000472,0.002251,-0.001189,82.033156,0.002252,
1670,1920,-0.132295,-0.224243,0.999999,0.000141,-0.000646,0.002117,0.000426,0.002181,-0.000711,81.425115,0.002225,
1560,1120,-0.668189,-2.256593,0.999998,0.000175,-0.001177,0.002942,0.000363,0.002974,-0.001208,85.000389,0.002992,
800,1450,0.490694,-1.370251,0.999997,0.000169,-0.001433,0.002691,0.000037,0.002692,-0.001433,89.484653,0.002693,
820,1000,0.801924,-2.591426,0.999998,0.000167,-0.000999,0.002591,0.000107,0.002595,-0.001002,88.295869,0.002617,
880,170,0.117557,-4.762187,0.999999,0.000141,-0.000591,0.002007,0.000269,0.002035,-0.000619,84.159639,0.002086,
1650,1350,-0.550129,-1.636067,0.999997,0.000217,-0.001545,0.002813,0.000077,0.002814,-0.001546,88.981790,0.002819,
1230,1690,0.001578,-0.568590,0.999998,0.000161,-0.000535,0.001780,-0.000015,0.001780,-0.000535,-89.639446,0.001826,
950,520,0.243866,-4.022803,0.999999,0.000145,-0.001186,0.002383,-0.000274,0.002404,-0.001207,-85.637034,0.002404,
1350,1880,-0.031759,-0.247517,0.999998,0.000153,-0.000298,0.001681,0.000054,0.001683,-0.000299,88.450360,0.001796,
1190,1620,0.024460,-0.697554,0.999998,0.000154,-0.000618,0.001777,0.000068,0.001779,-0.000620,88.379273,0.001806,
880,510,0.323977,-3.986329,0.999998,0.000183,-0.001270,0.002483,-0.000179,0.002492,-0.001279,-87.268834,0.002492,
950,1770,0.150233,-0.492300,0.999998,0.000164,-0.000757,0.002065,-0.000040,0.002065,-0.000757,-89.183955,0.002090,
1290,1400,-0.033958,-1.066966,0.999999,0.000179,-0.000696,0.001457,-0.000427,0.001538,-0.000778,-79.173388,0.001538,
1810,1590,-0.585569,-1.124031,0.999998,0.000167,-0.001268,0.002517,-0.000048,0.002517,-0.001269,-89.272214,0.002517,
1520,1500,-0.262898,-1.107165,0.999998,0.000171,-0.001255,0.002469,-0.000300,0.002492,-0.001279,-85.429077,0.002493,
620,560,0.698276,-3.646728,0.999998,0.000165,-0.001276,0.002562,-0.000017,0.002562,-0.001276,-89.752132,0.002562,
990,970,0.607924,-2.725476,0.999997,0.000186,-0.001260,0.003531,0.000090,0.003533,-0.001261,88.924439,0.003580,
880,750,0.483745,-3.329202,0.999997,0.000209,-0.001694,0.002995,0.000023,0.002995,-0.001694,89.712898,0.003003,
740,1740,0.364905,-0.675166,0.999998,0.000172,-0.001131,0.002482,-0.000074,0.002483,-0.001133,-88.831962,0.002487,
780,810,0.701866,-3.089644,0.999998,0.000189,-0.001424,0.002741,0.000265,0.002758,-0.001441,86.371687,0.002759,
780,880,0.768563,-2.898609,0.999998,0.000180,-0.001259,0.002632,0.000304,0.002656,-0.001282,85.560920,0.002656,
1290,1890,-0.014857,-0.227503,0.999998,0.000157,-0.000216,0.001671,0.000038,0.001671,-0.000216,88.850876,0.001818,
700,1200,0.849373,-2.097216,0.999998,0.000149,-0.001210,0.002497,-0.000242,0.002512,-0.001226,-86.274603,0.002513,
1480,160,-0.064530,-4.802929,0.999998,0.000154,-0.000352,0.001806,-0.000171,0.001819,-0.000365,-85.484460,0.001925,
1380,1730,-0.075942,-0.522828,0.999999,0.000144,-0.000528,0.001905,-0.000034,0.001905,-0.000528,-89.203098,0.001967,
1730,1930,-0.153117,-0.216776,0.999998,0.000145,-0.000647,0.002266,0.000592,0.002381,-0.000763,78.947094,0.002432,
1540,50,-0.019705,-4.989027,0.999999,0.000138,-0.000047,0.001650,-0.000278,0.001694,-0.000091,-80.936839,0.001906,
1810,120,-0.213054,-4.799348,0.999998,0.000177,-0.000892,0.002575,-0.000627,0.002685,-0.001002,-80.060176,0.002714,
860,1760,0.229662,-0.556239,0.999998,0.000172,-0.000927,0.002267,-0.000075,0.002268,-0.000929,-88.660468,0.002281,
1610,1210,-0.633342,-2.016457,0.999998,0.000166,-0.001474,0.002897,0.000288,0.002916,-0.001492,86.241122,0.002916,
1410,1300,-0.180828,-1.456520,0.999998,0.000153,-0.001671,0.002634,-0.000815,0.002783,-0.001820,-79.635028,0.002826,
1700,1270,-0.700707,-1.889793,0.999998,0.000167,-0.001413,0.002725,0.000235,0.002738,-0.001426,86.758954,0.002739,
1570,1500,-0.329738,-1.156061,0.999997,0.000194,-0.001313,0.002537,-0.000218,0.002549,-0.001325,-86.766273,0.002550,
1670,620,-0.510190,-3.622587,0.999998,0.000161,-0.001419,0.002682,0.000033,0.002683,-0.001419,89.538210,0.002684,
1030,1530,0.155397,-0.955463,0.999998,0.000147,-0.001050,0.002161,0.000370,0.002203,-0.001092,83.516042,0.002203,
1690,270,-0.290207,-4.496629,0.999997,0.000193,-0.001057,0.002418,-0.000140,0.002423,-0.001063,-87.697708,0.002430,
1820,930,-0.963270,-2.744426,0.999998,0.000170,-0.001123,0.002348,-0.000144,0.002354,-0.001129,-87.633169,0.002354,
1140,420,0.055603,-4.358070,0.999998,0.000168,-0.000651,0.001840,-0.000148,0.001848,-0.000660,-86.608696,0.001873,
1400,160,-0.039103,-4.812887,0.999999,0.000168,-0.000325,0.001726,-0.000097,0.001731,-0.000329,-87.302551,0.001838,
590,640,0.798486,-3.418661,0.999997,0.000210,-0.001324,0.002554,0.000059,0.002555,-0.001325,89.126422,0.002556,
1630,300,-0.256119,-4.458119,0.999998,0.000164,-0.000924,0.002319,-0.000098,0.002322,-0.000927,-88.274369,0.002338,
1430,1910,-0.043121,-0.205964,0.999998,0.000136,-0.000291,0.001722,0.000118,0.001729,-0.000298,86.645956,0.001848,
710,1920,0.188910,-0.249759,0.999998,0.000173,-0.000942,0.002357,-0.000489,0.002428,-0.001013,-81.747501,0.002439,
1290,720,-0.031970,-3.887223,0.999998,0.000155,-0.000669,0.001230,0.000606,0.001407,-0.000846,73.726654,0.001416,
1080,460,0.101219,-4.255138,0.999999,0.000150,-0.000828,0.001946,-0.000251,0.001969,-0.000851,-84.868956,0.001975,
770,580,0.513552,-3.711157,0.999998,0.000181,-0.001388,0.002656,-0.000046,0.002656,-0.001388,-89.346812,0.002657,
1120,390,0.064674,-4.404958,0.999998,0.000178,-0.000645,0.001844,-0.000125,0.001850,-0.000652,-87.142561,0.001877,
910,130,0.073764,-4.845114,0.999999,0.000136,-0.000328,0.001853,0.000312,0.001897,-0.000372,82.022548,0.002010,
1900,1350,-0.886739,-1.806193,0.999998,0.000000,-0.001237,0.002481,0.000069,0.002483,-0.001239,88.936717,0.002483,
1610,1020,-0.772609,-2.540599,0.999998,0.000198,-0.000951,0.002660,-0.000050,0.002661,-0.000952,-89.205342,0.002696,
1780,600,-0.647258,-3.592130,0.999998,0.000167,-0.001309,0.002603,-0.000020,0.002604,-0.001309,-89.703111,0.002604,
920,270,0.162049,-4.567604,0.999998,0.000181,-0.000659,0.002119,0.000102,0.002123,-0.000663,87.903818,0.002172,
1860,60,-0.134878,-4.915433,0.999998,0.000164,-0.000982,0.002790,-0.000853,0.002974,-0.001166,-77.823473,0.002997,
1210,1340,0.010524,-1.117308,0.999999,0.000134,-0.000526,0.001005,0.000257,0.001047,-0.000569,80.716319,0.001048,
1560,1100,-0.691803,-2.316030,0.999998,0.000175,-0.001104,0.002890,0.000330,0.002917,-0.001131,85.309476,0.002941,
950,500,0.236740,-4.070746,0.999998,0.000193,-0.001177,0.002365,-0.000270,0.002386,-0.001198,-85.667805,0.002386,
1110,120,0.019962,-4.882115,0.999998,0.000149,-0.000189,0.001625,0.000084,0.001629,-0.000193,87.352871,0.001780,
1650,1330,-0.568441,-1.692304,0.999998,0.000184,-0.001537,0.002828,0.000104,0.002831,-0.001539,88.635685,0.002834,
1230,1670,0.001349,-0.604544,0.999998,0.000146,-0.000542,0.001774,-0.000005,0.001774,-0.000542,-89.875964,0.001819,
1460,290,-0.115911,-4.557619,0.999998,0.000167,-0.000610,0.001996,-0.000033,0.001997,-0.000610,-89.263598,0.002046,
620,540,0.683234,-3.695796,0.999998,0.000176,-0.001262,0.002594,-0.000014,0.002594,-0.001262,-89.794989,0.002594,
1290,1380,-0.033275,-1.096109,0.999998,0.000166,-0.000682,0.001387,-0.000465,0.001487,-0.000782,-77.905814,0.001488,
1180,1340,0.027948,-1.140551,0.999999,0.000143,-0.000633,0.001171,0.000523,0.001311,-0.000774,74.938897,0.001319,
990,950,0.580598,-2.799138,0.999997,0.000180,-0.001378,0.003612,0.000140,0.003616,-0.001382,88.399074,0.003649,
1330,1880,-0.024113,-0.245727,0.999999,0.000135,-0.000308,0.001677,0.000039,0.001678,-0.000309,88.877708,0.001786,
1810,1570,-0.600366,-1.175001,0.999998,0.000172,-0.001258,0.002549,-0.000035,0.002549,-0.001259,-89.469546,0.002549,
740,1720,0.380500,-0.725329,0.999998,0.000172,-0.001169,0.002499,-0.000045,0.002499,-0.001169,-89.294501,0.002501,
820,980,0.792810,-2.642777,0.999998,0.000174,-0.001049,0.002615,0.000160,0.002622,-0.001056,87.503096,0.002639,
1290,1870,-0.015795,-0.260219,0.999999,0.000142,-0.000252,0.001659,0.000042,0.001660,-0.000253,88.743935,0.001788,
660,1790,0.412047,-0.612381,0.999998,0.000180,-0.001199,0.002533,-0.000127,0.002537,-0.001203,-88.060050,0.002538,
1350,190,-0.034541,-4.766563,0.999998,0.000150,-0.000315,0.001729,-0.000042,0.001730,-0.000316,-88.836782,0.001842,
700,1400,0.668917,-1.579586,0.999997,0.000191,-0.001365,0.002632,-0.000085,0.002633,-0.001366,-88.787461,0.002634,
780,860,0.750349,-2.952782,0.999998,0.000163,-0.001308,0.002718,0.000320,0.002744,-0.001333,85.489186,0.002744,
1670,1940,-0.110293,-0.183819,0.999998,0.000157,-0.000545,0.002088,0.000483,0.002174,-0.000631,79.920875,0.002236,
1810,160,-0.282318,-4.694923,0.999998,0.000214,-0.001049,0.002629,-0.000456,0.002684,-0.001105,-83.036107,0.002698,
1170,1620,0.036694,-0.701437,0.999998,0.000154,-0.000615,0.001796,0.000076,0.001799,-0.000618,88.189888,0.001828,
1520,1480,-0.273038,-1.157240,0.999998,0.000182,-0.001327,0.002500,-0.000320,0.002527,-0.001353,-85.247088,0.002529,
950,1750,0.159107,-0.535202,0.999998,0.000169,-0.000794,0.002096,0.000017,0.002096,-0.000794,89.653671,0.002116,
860,1780,0.211922,-0.510039,0.999998,0.000171,-0.000891,0.002268,-0.000121,0.002272,-0.000895,-87.803021,0.002289,
1430,1890,-0.051830,-0.240803,0.999998,0.000159,-0.000334,0.001797,0.000119,0.001803,-0.000341,86.803668,0.001916,
1630,280,-0.239728,-4.505777,0.999997,0.000190,-0.000895,0.002327,-0.000151,0.002334,-0.000902,-87.329605,0.002354,
880,1610,0.292645,-0.893720,0.999998,0.000199,-0.001108,0.002385,0.000109,0.002389,-0.001112,88.215152,0.002391,
1730,1950,-0.122956,-0.172243,0.999998,0.000151,-0.000560,0.002172,0.000613,0.002303,-0.000692,77.908667,0.002363,
1400,1150,-0.377308,-1.871908,0.999997,0.000195,-0.001420,0.003130,-0.001227,0.003439,-0.001730,-75.831079,0.003439,
1690,250,-0.272175,-4.543371,0.999998,0.000182,-0.001012,0.002415,-0.000202,0.002427,-0.001023,-86.639696,0.002437,
1030,1550,0.153240,-0.912182,0.999998,0.000146,-0.001000,0.002099,0.000326,0.002133,-0.001034,84.059087,0.002133,
840,930,0.739780,-2.779075,0.999998,0.000169,-0.001161,0.002746,0.000329,0.002774,-0.001188,85.220436,0.002783,
1420,50,-0.009815,-4.992569,0.999999,0.000118,-0.000089,0.001548,-0.000118,0.001556,-0.000098,-85.898169,0.001744,
1650,620,-0.482487,-3.640863,0.999997,0.000187,-0.001443,0.002684,0.000055,0.002685,-0.001444,89.240439,0.002687,
1670,1080,-0.820632,-2.387133,0.999998,0.000171,-0.001045,0.002591,0.000170,0.002599,-0.001053,87.329301,0.002614,
580,1800,0.497562,-0.665767,0.999997,0.000182,-0.003056,0.001990,0.000241,0.002001,-0.003067,87.276769,0.003114,
1140,400,0.054021,-4.394304,0.999998,0.000149,-0.000626,0.001807,-0.000114,0.001813,-0.000631,-87.326095,0.001840,
1070,500,0.113842,-4.168303,0.999998,0.000140,-0.000864,0.002016,-0.000308,0.002049,-0.000897,-83.967098,0.002054,
1080,440,0.098595,-4.294856,0.999998,0.000156,-0.000794,0.001974,-0.000230,0.001993,-0.000813,-85.277959,0.002005,
580,520,0.717464,-3.718406,0.999998,0.000168,-0.001725,0.002584,-0.000093,0.002586,-0.001727,-88.763629,0.002634,
1610,1190,-0.656035,-2.071190,0.999998,0.000168,-0.001413,0.002882,0.000345,0.002909,-0.001441,85.438059,0.002909,
1480,140,-0.055531,-4.838607,0.999998,0.000153,-0.000328,0.001754,-0.000164,0.001767,-0.000341,-85.527442,0.001875,
1470,600,-0.215147,-3.873830,0.999999,0.000134,-0.001286,0.002424,0.000443,0.002476,-0.001338,83.286292,0.002479,
1390,90,-0.017676,-4.929505,0.999999,0.000132,-0.000131,0.001587,-0.000128,0.001597,-0.000140,-85.773496,0.001769,
910,110,0.059148,-4.884097,0.999999,0.000136,-0.000252,0.001846,0.000330,0.001896,-0.000303,81.266365,0.002038,
1820,1970,-0.147830,-0.156561,0.999998,0.000142,-0.000793,0.002571,0.000810,0.002756,-0.000978,77.141371,0.002795,
1490,120,-0.048813,-4.872870,0.999999,0.000125,-0.000285,0.001774,-0.000193,0.001792,-0.000303,-84.698066,0.001918,
1780,580,-0.631095,-3.645059,0.999998,0.000162,-0.001293,0.002592,0.000008,0.002592,-0.001293,89.886485,0.002592,
1440,310,-0.109768,-4.524811,0.999998,0.000189,-0.000655,0.001978,0.000028,0.001978,-0.000655,89.390795,0.002015,
750,580,0.540937,-3.695590,0.999997,0.000184,-0.001347,0.002646,-0.000033,0.002646,-0.001347,-89.529035,0.002647,
1650,1310,-0.587740,-1.749126,0.999997,0.000195,-0.001539,0.002850,0.000137,0.002854,-0.001543,88.217295,0.002857,
1230,1650,0.001425,-0.639460,0.999998,0.000154,-0.000545,0.001775,0.000012,0.001775,-0.000546,89.691417,0.001818,
1280,1330,-0.025547,-1.147789,0.999998,0.000152,-0.000658,0.001072,-0.000534,0.001224,-0.000809,-74.145414,0.001245,
620,520,0.667260,-3.749893,0.999997,0.000204,-0.001248,0.002569,-0.000009,0.002569,-0.001248,-89.864117,0.002570,
1010,420,0.150745,-4.294139,0.999998,0.000188,-0.000850,0.002120,-0.000149,0.002127,-0.000857,-87.141047,0.002140,
1810,1550,-0.615539,-1.227105,0.999998,0.000194,-0.001263,0.002571,-0.000042,0.002572,-0.001264,-89.374161,0.002572,
1180,1320,0.027348,-1.161025,0.999998,0.000153,-0.000651,0.001098,0.000582,0.001274,-0.000827,73.173130,0.001293,
1350,170,-0.030388,-4.800446,0.999998,0.000147,-0.000271,0.001706,-0.000075,0.001709,-0.000274,-87.836748,0.001836,
1420,1490,-0.149252,-1.030805,0.999998,0.000157,-0.001072,0.002145,-0.000458,0.002209,-0.001136,-82.048810,0.002209,
1560,1080,-0.708193,-2.372624,0.999997,0.000199,-0.001015,0.002836,0.000238,0.002851,-0.001029,86.479427,0.002887,
690,1590,0.537440,-1.094286,0.999998,0.000183,-0.001285,0.002536,0.000041,0.002536,-0.001286,89.382689,0.002536,
780,840,0.731296,-3.008077,0.999998,0.000161,-0.001350,0.002733,0.000311,0.002756,-0.001373,85.669459,0.002756,
1850,1990,-0.135077,-0.130549,0.999998,0.000137,-0.001140,0.002702,0.000691,0.002823,-0.001261,80.102725,0.002828,
1290,1850,-0.018849,-0.294289,0.999998,0.000142,-0.000282,0.001688,0.000033,0.001689,-0.000282,89.038254,0.001809,
1810,140,-0.249970,-4.747104,0.999998,0.000201,-0.000999,0.002575,-0.000527,0.002651,-0.001075,-81.780711,0.002667,
740,1700,0.394628,-0.776183,0.999997,0.000187,-0.001195,0.002489,-0.000023,0.002489,-0.001196,-89.647301,0.002490,
820,960,0.782911,-2.696075,0.999998,0.000182,-0.001094,0.002637,0.000227,0.002650,-0.001107,86.537135,0.002662,
950,1730,0.169264,-0.577398,0.999998,0.000175,-0.000832,0.002201,0.000022,0.002201,-0.000832,89.592016,0.002223,
1150,1620,0.049393,-0.705490,0.999999,0.000131,-0.000676,0.001818,0.000136,0.001825,-0.000683,86.881046,0.001844,
1430,1940,-0.032882,-0.153508,0.999999,0.000172,-0.000237,0.001733,0.000129,0.001742,-0.000245,86.273686,0.001885,
1650,1080,-0.799131,-2.385757,0.999998,0.000181,-0.001049,0.002608,0.000185,0.002617,-0.001059,87.106968,0.002633,
1730,1970,-0.094296,-0.129806,0.999998,0.000143,-0.000464,0.002050,0.000605,0.002188,-0.000602,77.154393,0.002261,
680,1830,0.343401,-0.494768,0.999997,0.000184,-0.001153,0.002517,-0.000239,0.002533,-0.001168,-86.295134,0.002535,
570,530,0.743172,-3.684587,0.999837,0.001442,-0.001909,0.002791,-0.000039,0.002792,-0.001909,-89.519047,0.002854,
1030,1570,0.147294,-0.871731,0.999998,0.000142,-0.000941,0.002131,0.000280,0.002157,-0.000966,84.832269,0.002161,
1070,480,0.112588,-4.208280,0.999998,0.000175,-0.000868,0.002003,-0.000297,0.002033,-0.000898,-84.149471,0.002038,
1690,230,-0.252395,-4.592676,0.999998,0.000168,-0.000960,0.002390,-0.000256,0.002410,-0.000979,-85.660409,0.002424,
1810,820,-0.876011,-3.009048,0.999998,0.000149,-0.001198,0.002430,-0.000179,0.002439,-0.001207,-87.176435,0.002439,
1140,380,0.051060,-4.431282,0.999998,0.000150,-0.000616,0.001832,-0.000113,0.001837,-0.000621,-87.361636,0.001869,
590,1900,0.350360,-0.402731,0.999998,0.000177,-0.001188,0.002600,-0.000192,0.002610,-0.001198,-87.099205,0.002613,
870,290,0.214968,-4.501302,0.999998,0.000183,-0.000906,0.002276,0.000078,0.002278,-0.000908,88.599680,0.002294,
810,1500,0.442419,-1.228542,0.999998,0.000180,-0.001341,0.002639,0.000112,0.002642,-0.001344,88.390989,0.002643,
1470,120,-0.043861,-4.874465,0.999999,0.000137,-0.000239,0.001755,-0.000201,0.001775,-0.000259,-84.301456,0.001918,
1830,1400,-0.756561,-1.628034,0.999998,0.000175,-0.001275,0.002561,0.000064,0.002562,-0.001276,89.044875,0.002562,
990,930,0.545601,-2.870943,0.999997,0.000188,-0.001522,0.003540,0.000117,0.003543,-0.001525,88.675739,0.003554,
1820,1950,-0.194207,-0.207310,0.999998,0.000186,-0.000912,0.002619,0.000644,0.002733,-0.001026,79.974954,0.002761,
1610,1170,-0.677622,-2.129994,0.999998,0.000174,-0.001346,0.002891,0.000364,0.002922,-0.001377,85.119461,0.002924,
1480,120,-0.045024,-4.874934,0.999999,0.000135,-0.000257,0.001772,-0.000206,0.001793,-0.000278,-84.247715,0.001930,
1780,560,-0.617641,-3.696360,0.999998,0.000178,-0.001302,0.002588,0.000007,0.002588,-0.001302,89.901093,0.002588,
1000,1250,0.321397,-1.722021,0.999997,0.000181,-0.001975,0.003189,0.000406,0.003221,-0.002007,85.529220,0.003254,
1080,420,0.096566,-4.333864,0.999998,0.000158,-0.000737,0.001971,-0.000168,0.001982,-0.000748,-86.464300,0.002001,
1810,1530,-0.628898,-1.277857,0.999998,0.000187,-0.001302,0.002578,-0.000009,0.002578,-0.001302,-89.872267,0.002578,
1280,1310,-0.026272,-1.168358,0.999999,0.000132,-0.000680,0.001004,-0.000595,0.001193,-0.000869,-72.379248,0.001234,
1440,290,-0.102987,-4.563588,0.999998,0.000160,-0.000597,0.001960,-0.000007,0.001960,-0.000597,-89.835669,0.002009,
1650,1290,-0.607408,-1.806695,0.999998,0.000178,-0.001536,0.002844,0.000181,0.002851,-0.001544,87.634617,0.002855,
1880,1160,-1.009395,-2.236140,0.999998,0.000151,-0.001100,0.002179,0.000056,0.002180,-0.001101,89.025204,0.002180,
1410,700,-0.158979,-3.719374,0.999998,0.000149,-0.001428,0.002400,0.000751,0.002542,-0.001570,79.285468,0.002566,
620,500,0.652401,-3.799676,0.999997,0.000191,-0.001241,0.002513,-0.000038,0.002513,-0.001241,-89.421690,0.002513,
1540,1730,-0.190210,-0.589614,0.999998,0.000165,-0.000808,0.002208,0.000003,0.002208,-0.000808,89.943448,0.002234,
1780,230,-0.346285,-4.535177,0.999997,0.000183,-0.001145,0.002507,-0.000195,0.002517,-0.001155,-86.956034,0.002520,
1230,1630,0.002130,-0.674259,0.999998,0.000157,-0.000573,0.001779,-0.000009,0.001779,-0.000573,-89.791842,0.001816,
1560,1060,-0.719104,-2.430302,0.999998,0.000199,-0.000961,0.002841,0.000162,0.002848,-0.000968,87.571374,0.002896,
780,820,0.710862,-3.061360,0.999998,0.000176,-0.001402,0.002717,0.000276,0.002735,-0.001420,86.185816,0.002736,
910,90,0.046466,-4.921727,0.999999,0.000132,-0.000215,0.001793,0.000324,0.001844,-0.000266,81.058904,0.001994,
700,660,0.673418,-3.447281,0.999997,0.000216,-0.001368,0.002638,0.000057,0.002639,-0.001368,89.182259,0.002639,
1180,1300,0.027359,-1.183897,0.999998,0.000161,-0.000673,0.001033,0.000654,0.001255,-0.000895,71.255375,0.001293,
1850,1970,-0.183147,-0.188806,0.999998,0.000141,-0.001181,0.002758,0.000599,0.002847,-0.001270,81.536785,0.002853,
1350,150,-0.026638,-4.835162,0.999999,0.000131,-0.000247,0.001648,-0.000088,0.001652,-0.000251,-87.355012,0.001780,
1750,360,-0.432538,-4.230512,0.999997,0.000186,-0.001219,0.002507,0.000006,0.002507,-0.001219,89.903214,0.002508,
1410,50,-0.008712,-4.992894,0.999999,0.000109,-0.000100,0.001539,-0.000120,0.001548,-0.000109,-85.819957,0.001728,
740,1680,0.410633,-0.825580,0.999998,0.000190,-0.001204,0.002530,-0.000019,0.002530,-0.001204,-89.701991,0.002531,
1290,1830,-0.020327,-0.328772,0.999998,0.000149,-0.000315,0.001705,0.000002,0.001705,-0.000315,89.956547,0.001815,
820,940,0.770720,-2.747736,0.999998,0.000166,-0.001151,0.002643,0.000277,0.002663,-0.001171,85.842748,0.002669,
1400,1490,-0.128471,-1.009770,0.999999,0.000132,-0.001009,0.002062,-0.000457,0.002129,-0.001075,-81.715532,0.002129,
1870,1950,-0.252650,-0.266660,0.999998,0.000160,-0.001158,0.002762,0.000498,0.002824,-0.001220,82.869069,0.002833,
1390,1370,-0.128677,-1.249925,0.999998,0.000164,-0.001262,0.002191,-0.000742,0.002344,-0.001415,-78.367242,0.002360,
570,520,0.733010,-3.711934,0.999854,0.001373,-0.001933,0.002614,-0.000159,0.002619,-0.001939,-88.000561,0.002718,
1470,580,-0.210462,-3.923190,0.999999,0.000147,-0.001254,0.002361,0.000416,0.002408,-0.001301,83.522758,0.002411,
1140,360,0.048991,-4.467766,0.999998,0.000161,-0.000604,0.001843,-0.000087,0.001847,-0.000607,-87.960029,0.001882,
830,600,0.444259,-3.709741,0.999997,0.000199,-0.001462,0.002695,-0.000096,0.002697,-0.001464,-88.679431,0.002700,
950,1710,0.178780,-0.623046,0.999998,0.000197,-0.000856,0.002176,0.000051,0.002176,-0.000857,89.027972,0.002193,
1710,700,-0.634775,-3.375028,0.999998,0.000189,-0.001421,0.002703,-0.000107,0.002706,-0.001424,-88.516546,0.002707,
1350,660,-0.082921,-3.899918,0.999999,0.000156,-0.000941,0.001856,0.000661,0.002004,-0.001090,77.344298,0.002007,
1730,1990,-0.068205,-0.090134,0.999998,0.000148,-0.000300,0.002025,0.000672,0.002206,-0.000480,74.990123,0.002320,
1790,2010,-0.054182,-0.054473,0.999999,0.000156,-0.000131,0.002143,0.000926,0.002473,-0.000461,70.418096,0.002630,
590,1920,0.316078,-0.350864,0.999998,0.000175,-0.001144,0.002664,-0.000303,0.002688,-0.001168,-85.471359,0.002696,
1690,210,-0.231797,-4.637973,0.999998,0.000174,-0.000895,0.002342,-0.000301,0.002369,-0.000922,-84.739391,0.002389,
1450,120,-0.039190,-4.875351,0.999998,0.000177,-0.000241,0.001732,-0.000174,0.001747,-0.000256,-85.011860,0.001887,
990,910,0.512088,-2.941836,0.999998,0.000189,-0.001654,0.003538,0.000094,0.003540,-0.001656,88.958263,0.003542,
870,270,0.199710,-4.545695,0.999997,0.000192,-0.000885,0.002211,0.000106,0.002214,-0.000889,88.044675,0.002229,
1810,1510,-0.643991,-1.330578,0.999998,0.000171,-0.001309,0.002545,-0.000025,0.002545,-0.001310,-89.632688,0.002546,
1430,1420,-0.170969,-1.196364,0.999999,0.000141,-0.001280,0.002279,-0.000572,0.002369,-0.001370,-81.091628,0.002379,
1610,1150,-0.700635,-2.187882,0.999998,0.000158,-0.001282,0.002823,0.000347,0.002852,-0.001311,85.200657,0.002855,
730,1200,0.809892,-2.089443,0.999998,0.000176,-0.001286,0.002572,-0.000274,0.002592,-0.001306,-85.958993,0.002592,
1480,100,-0.036355,-4.908466,0.999999,0.000137,-0.000206,0.001728,-0.000215,0.001751,-0.000230,-83.730684,0.001903,
1760,230,-0.324214,-4.550529,0.999997,0.000197,-0.001156,0.002496,-0.000189,0.002506,-0.001166,-87.041996,0.002508,
1890,1690,-0.609516,-0.940130,0.999998,0.000173,-0.001279,0.002453,-0.000024,0.002453,-0.001279,-89.638265,0.002454,
1840,1850,-0.383172,-0.492576,0.999997,0.000218,-0.001217,0.002560,0.000122,0.002564,-0.001221,88.147168,0.002565,
1310,1940,-0.012280,-0.145466,0.999999,0.000140,-0.000152,0.001587,0.000067,0.001590,-0.000154,87.789235,0.001754,
1650,1270,-0.629229,-1.863302,0.999997,0.000198,-0.001525,0.002855,0.000216,0.002866,-0.001535,87.184461,0.002868,
1230,2000,0.000019,-0.054418,0.999999,0.000121,-0.000055,0.001493,-0.000018,0.001493,-0.000055,-89.333449,0.001693,
1040,60,0.012289,-4.977234,0.999999,0.000128,-0.000110,0.001575,0.000133,0.001585,-0.000121,85.506702,0.001765,
880,410,0.274558,-4.228514,0.999998,0.000167,-0.001072,0.002365,-0.000083,0.002367,-0.001074,-88.616286,0.002370,
650,1610,0.574992,-1.076948,0.999998,0.000172,-0.001282,0.002528,0.000029,0.002528,-0.001282,89.556744,0.002528,
910,70,0.031690,-4.954095,0.999999,0.000132,-0.000143,0.001712,0.000324,0.001767,-0.000198,80.358603,0.001937,
1760,830,-0.823029,-3.004942,0.999998,0.000175,-0.001265,0.002561,-0.000251,0.002577,-0.001281,-86.263261,0.002577,
1560,1040,-0.724419,-2.484835,0.999997,0.000215,-0.000903,0.002801,0.000068,0.002802,-0.000905,88.951396,0.002860,
1850,1950,-0.227682,-0.241804,0.999998,0.000147,-0.001195,0.002687,0.000440,0.002736,-0.001245,83.611929,0.002740,
620,480,0.638424,-3.849316,0.999998,0.000180,-0.001236,0.002559,-0.000051,0.002560,-0.001236,-89.226562,0.002560,
1780,540,-0.601251,-3.747673,0.999997,0.000193,-0.001294,0.002572,0.000016,0.002572,-0.001294,89.764742,0.002572,
1230,1610,0.000692,-0.709969,0.999998,0.000161,-0.000595,0.001750,-0.000020,0.001750,-0.000595,-89.519578,0.001780,
780,800,0.692959,-3.116789,0.999998,0.000171,-0.001436,0.002754,0.000260,0.002770,-0.001452,86.461265,0.002772,
1080,400,0.089861,-4.374438,0.999998,0.000160,-0.000678,0.001918,-0.000140,0.001926,-0.000685,-86.918757,0.001952,
1730,360,-0.408849,-4.246824,0.999998,0.000182,-0.001204,0.002499,-0.000020,0.002499,-0.001204,-89.694650,0.002499,
1180,1280,0.030734,-1.200261,0.999999,0.000144,-0.000731,0.000906,0.000710,0.001171,-0.000996,69.532296,0.001263,
1350,130,-0.021251,-4.865744,0.999999,0.000137,-0.000206,0.001613,-0.000073,0.001616,-0.000209,-87.696176,0.001757,
1220,390,0.006649,-4.427170,0.999998,0.000173,-0.000552,0.001778,-0.000047,0.001779,-0.000553,-88.847232,0.001821,
1290,1810,-0.020959,-0.362157,0.999999,0.000133,-0.000346,0.001713,0.000023,0.001713,-0.000346,89.362773,0.001811,
1070,960,0.464767,-2.998076,0.999997,0.000000,-0.001924,0.004949,-0.002160,0.005571,-0.002546,-73.924963,0.005578,
700,620,0.640797,-3.552908,0.999997,0.000193,-0.001353,0.002608,0.000029,0.002608,-0.001354,89.581608,0.002609,
950,1910,0.070551,-0.216209,0.999999,0.000137,-0.000395,0.001842,-0.000221,0.001864,-0.000417,-84.410140,0.001956,
820,920,0.754002,-2.800941,0.999998,0.000167,-0.001211,0.002698,0.000327,0.002725,-0.001238,85.247253,0.002729,
740,1660,0.428532,-0.876169,0.999998,0.000180,-0.001208,0.002544,0.000018,0.002544,-0.001208,89.730722,0.002545,
1790,520,-0.599796,-3.790621,0.999998,0.000173,-0.001305,0.002560,0.000032,0.002560,-0.001305,89.518904,0.002560,
1140,340,0.047183,-4.505981,0.999997,0.000196,-0.000586,0.001840,-0.000062,0.001842,-0.000588,-88.534370,0.001882,
1350,640,-0.082307,-3.935583,0.999999,0.000156,-0.000931,0.001815,0.000576,0.001931,-0.001047,78.629354,0.001933,
1780,2010,-0.052260,-0.054222,0.999999,0.000136,-0.000210,0.002125,0.000888,0.002424,-0.000510,71.374170,0.002556,
710,1820,0.320949,-0.496256,0.999998,0.000175,-0.001171,0.002515,-0.000168,0.002523,-0.001178,-87.397461,0.002525,
1410,1420,-0.146814,-1.169730,0.999999,0.000141,-0.001191,0.002190,-0.000584,0.002289,-0.001290,-80.467128,0.002295,
1430,120,-0.034411,-4.877461,0.999999,0.000124,-0.000218,0.001705,-0.000157,0.001717,-0.000231,-85.367534,0.001864,
1810,1490,-0.657268,-1.379484,0.999998,0.000168,-0.001273,0.002568,-0.000007,0.002568,-0.001273,-89.900402,0.002568,
1650,1250,-0.649147,-1.920859,0.999998,0.000190,-0.001505,0.002840,0.000248,0.002854,-0.001519,86.750172,0.002856,
870,250,0.187672,-4.588482,0.999998,0.000174,-0.000840,0.002198,0.000136,0.002205,-0.000846,87.434900,0.002224,
1580,1290,-0.494076,-1.753325,0.999996,0.000200,-0.001685,0.002999,0.000079,0.003000,-0.001686,89.032503,0.003008,
1690,190,-0.209733,-4.686357,0.999998,0.000164,-0.000834,0.002309,-0.000345,0.002347,-0.000871,-83.809385,0.002373,
1690,720,-0.623658,-3.334663,0.999998,0.000167,-0.001493,0.002758,-0.000133,0.002762,-0.001497,-88.214232,0.002766,
1070,1740,0.080484,-0.507934,0.999998,0.000154,-0.000580,0.001920,0.000018,0.001920,-0.000580,89.587338,0.001970,
1400,50,-0.007522,-4.993244,0.999999,0.000124,-0.000076,0.001535,-0.000113,0.001543,-0.000084,-86.022167,0.001735,
670,280,0.415308,-4.398201,0.999998,0.000203,-0.001187,0.002546,0.000095,0.002548,-0.001189,88.538843,0.002550,
1030,1990,0.014997,-0.072341,0.999999,0.000122,-0.000099,0.001598,-0.000161,0.001613,-0.000114,-84.621981,0.001800,
1610,1130,-0.719182,-2.243476,0.999998,0.000170,-0.001195,0.002801,0.000351,0.002831,-0.001226,85.021056,0.002840,
930,320,0.182044,-4.464498,0.999998,0.000180,-0.000779,0.002177,0.000012,0.002177,-0.000779,89.774542,0.002206,
590,1500,0.730432,-1.404503,0.999998,0.000176,-0.001377,0.002549,0.000088,0.002551,-0.001379,88.718778,0.002553,
1740,480,-0.507305,-3.932402,0.999998,0.000176,-0.001290,0.002558,0.000058,0.002559,-0.001291,89.135972,0.002559,
1780,520,-0.586149,-3.798710,0.999998,0.000179,-0.001300,0.002561,0.000028,0.002561,-0.001300,89.590286,0.002562,
1710,620,-0.568293,-3.592704,0.999997,0.000210,-0.001415,0.002672,-0.000012,0.002672,-0.001415,-89.827219,0.002674,
620,460,0.623725,-3.901784,0.999998,0.000167,-0.001238,0.002539,-0.000040,0.002539,-0.001238,-89.390322,0.002540,
780,780,0.670254,-3.172529,0.999998,0.000168,-0.001445,0.002752,0.000238,0.002765,-0.001459,86.761939,0.002767,
1290,1940,-0.008210,-0.146113,0.999999,0.000146,-0.000156,0.001589,0.000070,0.001592,-0.000159,87.709723,0.001754,
1760,810,-0.805722,-3.057449,0.999998,0.000181,-0.001262,0.002564,-0.000252,0.002581,-0.001278,-86.245202,0.002581,
1230,1590,0.001063,-0.744028,0.999999,0.000146,-0.000624,0.001699,0.000017,0.001699,-0.000625,89.590555,0.001719,
1480,80,-0.026423,-4.943208,0.999999,0.000117,-0.000154,0.001682,-0.000210,0.001706,-0.000177,-83.552993,0.001876,
1080,820,0.183905,-3.481640,0.999998,0.000176,-0.001729,0.002618,-0.001040,0.002854,-0.001965,-77.216611,0.002921,
1220,1470,0.006999,-0.943822,0.999999,0.000142,-0.000617,0.001539,0.000083,0.001542,-0.000620,87.800919,0.001551,
900,1980,0.037303,-0.093213,0.999998,0.000144,-0.000186,0.001746,-0.000331,0.001801,-0.000241,-80.552692,0.001956,
1320,390,-0.050955,-4.414190,0.999998,0.000148,-0.000624,0.001842,0.000096,0.001845,-0.000628,87.765851,0.001877,
1390,1330,-0.137626,-1.341543,0.999998,0.000173,-0.001439,0.002295,-0.000890,0.002496,-0.001641,-77.253614,0.002537,
1190,320,0.020364,-4.547181,0.999998,0.000160,-0.000453,0.001796,-0.000023,0.001797,-0.000453,-89.415241,0.001869,
1410,1280,-0.192692,-1.510671,0.999998,0.000172,-0.001770,0.002735,-0.000854,0.002891,-0.001927,-79.619753,0.002944,
700,80,0.111421,-4.906710,0.999998,0.000149,-0.000622,0.002207,0.000705,0.002373,-0.000788,76.744085,0.002417,
1850,1930,-0.268543,-0.297257,0.999998,0.000158,-0.001204,0.002686,0.000332,0.002714,-0.001232,85.152392,0.002718,
1350,110,-0.017021,-4.898970,0.999999,0.000152,-0.000169,0.001623,-0.000085,0.001627,-0.000173,-87.293524,0.001787,
1180,1260,0.035882,-1.217422,0.999999,0.000140,-0.000831,0.000819,0.000714,0.001086,-0.001097,69.554228,0.001260,
990,890,0.474261,-3.011055,0.999998,0.000193,-0.001776,0.003481,0.000043,0.003481,-0.001777,89.531132,0.003481,
1810,100,-0.177267,-4.850009,0.999999,0.000145,-0.000731,0.002527,-0.000760,0.002695,-0.000899,-77.499178,0.002744,
1290,1790,-0.023565,-0.395994,0.999998,0.000156,-0.000367,0.001749,0.000025,0.001749,-0.000367,89.311535,0.001844,
1770,520,-0.573629,-3.806206,0.999997,0.000188,-0.001291,0.002570,0.000031,0.002570,-0.001291,89.537951,0.002570,
820,900,0.736083,-2.856850,0.999998,0.000163,-0.001287,0.002723,0.000324,0.002749,-0.001313,85.415217,0.002750,
1690,1580,-0.439654,-1.053597,0.999998,0.000149,-0.001272,0.002531,-0.000072,0.002533,-0.001273,-88.911869,0.002533,
1810,1200,-0.903738,-2.115330,0.999999,0.000141,-0.001187,0.002423,0.000209,0.002435,-0.001199,86.702988,0.002436,
1140,320,0.044439,-4.543155,0.999998,0.000160,-0.000551,0.001825,-0.000046,0.001826,-0.000552,-88.898821,0.001873,
1310,440,-0.046870,-4.326577,0.999999,0.000136,-0.000688,0.001802,0.000146,0.001810,-0.000696,86.649383,0.001826,
1750,1720,-0.411904,-0.747120,0.999998,0.000172,-0.001200,0.002500,0.000017,0.002500,-0.001200,89.742377,0.002500,
1810,1470,-0.674047,-1.431542,0.999997,0.000192,-0.001271,0.002611,0.000017,0.002611,-0.001272,89.749543,0.002611,
980,1250,0.360936,-1.758053,0.999998,0.000188,-0.001957,0.003232,0.000256,0.003245,-0.001969,87.178576,0.003270,
650,1590,0.589698,-1.126896,0.999998,0.000178,-0.001266,0.002543,0.000035,0.002543,-0.001266,89.467955,0.002543,
1220,2000,0.000135,-0.052884,0.999999,0.000136,-0.000095,0.001485,-0.000017,0.001485,-0.000095,-89.369084,0.001663,
1230,1570,-0.001036,-0.777674,0.999998,0.000153,-0.000646,0.001736,0.000010,0.001736,-0.000646,89.765647,0.001755,
1880,1870,-0.405890,-0.489182,0.999998,0.000182,-0.001214,0.002512,0.000131,0.002516,-0.001219,87.982085,0.002517,
1300,390,-0.038750,-4.417851,0.999998,0.000146,-0.000565,0.001807,0.000048,0.001808,-0.000566,88.850141,0.001849,
1590,1020,-0.753508,-2.540757,0.999998,0.000199,-0.000933,0.002727,-0.000053,0.002728,-0.000934,-89.171882,0.002773,
740,1640,0.440063,-0.929344,0.999997,0.000189,-0.001223,0.002517,0.000047,0.002518,-0.001223,89.277024,0.002518,
1650,1230,-0.669683,-1.976769,0.999998,0.000161,-0.001460,0.002822,0.000298,0.002842,-0.001481,86.042563,0.002843,
1480,1350,-0.270852,-1.450783,0.999998,0.000190,-0.001669,0.002797,-0.000487,0.002850,-0.001722,-83.848670,0.002870,
960,1350,0.310154,-1.483813,0.999998,0.000180,-0.001675,0.002885,0.000375,0.002915,-0.001706,85.325379,0.002930,
1560,1020,-0.727629,-2.540698,0.999997,0.000203,-0.000885,0.002787,-0.000058,0.002788,-0.000886,-89.096654,0.002849,
1620,650,-0.459592,-3.584218,0.999997,0.000186,-0.001559,0.002782,0.000065,0.002783,-0.001560,89.135993,0.002789,
620,440,0.607511,-3.952630,0.999998,0.000170,-0.001253,0.002500,-0.000039,0.002500,-0.001253,-89.411926,0.002500,
1550,200,-0.121126,-4.711700,0.999998,0.000148,-0.000523,0.002020,-0.000214,0.002038,-0.000541,-85.223588,0.002111,
780,760,0.651846,-3.226639,0.999998,0.000176,-0.001464,0.002769,0.000197,0.002778,-0.001473,87.335344,0.002779,
1610,1110,-0.737984,-2.300192,0.999998,0.000170,-0.001108,0.002727,0.000296,0.002750,-0.001131,85.618514,0.002764,
1070,950,0.452591,-3.042268,0.999997,0.000000,-0.001571,0.004545,-0.002037,0.005161,-0.002187,-73.168796,0.005181,
1890,870,-1.007005,-2.852149,0.999998,0.000153,-0.001117,0.002173,-0.000074,0.002175,-0.001118,-88.716733,0.002175,
1690,170,-0.188656,-4.731470,0.999998,0.000148,-0.000769,0.002256,-0.000394,0.002306,-0.000819,-82.693936,0.002338,
870,230,0.171676,-4.634767,0.999998,0.000173,-0.000794,0.002160,0.000167,0.002170,-0.000803,86.782940,0.002194,
1030,1970,0.023063,-0.104671,0.999999,0.000145,-0.000156,0.001627,-0.000156,0.001641,-0.000170,-85.038937,0.001805,
1210,180,0.005750,-4.789539,0.999998,0.000155,-0.000276,0.001655,-0.000013,0.001655,-0.000276,-89.611815,0.001774,
1530,1100,-0.657474,-2.303847,0.999998,0.000179,-0.001151,0.003062,0.000297,0.003083,-0.001171,85.980829,0.003112,
990,1320,0.277966,-1.525328,0.999997,0.000221,-0.001782,0.002917,0.000476,0.002965,-0.001829,84.276873,0.002992,
1430,1740,-0.104944,-0.520398,0.999998,0.000177,-0.000678,0.001961,-0.000032,0.001961,-0.000679,-89.309178,0.001992,
1080,840,0.215963,-3.425873,0.999998,0.000174,-0.001759,0.002653,-0.000997,0.002868,-0.001973,-77.843136,0.002935,
1780,500,-0.571278,-3.850674,0.999998,0.000173,-0.001286,0.002579,0.000052,0.002579,-0.001287,89.234690,0.002579,
840,1810,0.206377,-0.451983,0.999998,0.000184,-0.000797,0.002269,-0.000207,0.002283,-0.000811,-86.153204,0.002314,
1080,770,0.143855,-3.610492,0.999998,0.000159,-0.001568,0.002387,-0.001003,0.002627,-0.001808,-76.552703,0.002688,
1900,1340,-0.895801,-1.831160,0.999998,0.000000,-0.001247,0.002459,0.000081,0.002461,-0.001249,88.742678,0.002461,
1690,700,-0.606487,-3.389396,0.999998,0.000195,-0.001460,0.002730,-0.000088,0.002732,-0.001462,-88.795347,0.002734,
1740,460,-0.493197,-3.985194,0.999998,0.000166,-0.001294,0.002536,0.000044,0.002536,-0.001294,89.346395,0.002536,
1210,1300,0.012308,-1.150870,0.999999,0.000136,-0.000553,0.000775,0.000303,0.000841,-0.000618,77.753070,0.000872,
1370,800,-0.144509,-3.574653,0.999998,0.000167,-0.001581,0.002334,0.001099,0.002621,-0.001868,75.343510,0.002699,
1760,790,-0.787004,-3.108346,0.999998,0.000181,-0.001259,0.002553,-0.000227,0.002567,-0.001273,-86.602753,0.002567,
1870,120,-0.282039,-4.733156,0.999998,0.000175,-0.001199,0.002692,-0.000408,0.002735,-0.001241,-84.077844,0.002739,
1110,720,0.088186,-3.784164,0.999998,0.000163,-0.001159,0.001874,-0.000901,0.002121,-0.001407,-74.651226,0.002159,
1810,1450,-0.690413,-1.484962,0.999997,0.000202,-0.001289,0.002587,0.000011,0.002587,-0.001289,89.844505,0.002587,
1810,80,-0.131929,-4.900860,0.999998,0.000143,-0.000569,0.002541,-0.000922,0.002794,-0.000822,-74.666877,0.002872,
800,630,0.508074,-3.602265,0.999997,0.000186,-0.001454,0.002719,-0.000029,0.002720,-0.001454,-89.598315,0.002722,
1700,290,-0.319397,-4.440382,0.999997,0.000185,-0.001070,0.002440,-0.000120,0.002444,-0.001074,-88.041460,0.002450,
1670,1600,-0.401550,-0.986659,0.999999,0.000155,-0.001234,0.002522,-0.000076,0.002523,-0.001235,-88.835827,0.002523,
700,60,0.072299,-4.956715,0.999998,0.000163,-0.000422,0.002211,0.000807,0.002439,-0.000649,74.253833,0.002526,
1520,1460,-0.280765,-1.208100,0.999998,0.000179,-0.001379,0.002549,-0.000322,0.002575,-0.001405,-85.342445,0.002579,
1180,1240,0.049853,-1.231584,0.999999,0.000140,-0.000977,0.000798,0.000624,0.000995,-0.001174,72.449044,0.001265,
670,260,0.394177,-4.448228,0.999998,0.000226,-0.001161,0.002533,0.000143,0.002538,-0.001167,87.789933,0.002541,
1010,1800,0.098782,-0.411121,0.999998,0.000161,-0.000506,0.001922,-0.000071,0.001924,-0.000508,-88.324160,0.001994,
950,150,0.072232,-4.815729,0.999999,0.000141,-0.000399,0.001868,0.000199,0.001885,-0.000417,85.030859,0.001980,
820,1320,0.565893,-1.715827,0.999998,0.000207,-0.001521,0.002844,-0.000104,0.002846,-0.001524,-88.630944,0.002849,
1480,750,-0.300997,-3.458952,0.999997,0.000245,-0.001811,0.002998,0.000424,0.003035,-0.001849,84.996931,0.003059,
1290,1990,-0.002344,-0.067528,0.999999,0.000132,-0.000067,0.001531,0.000043,0.001532,-0.000068,88.463901,0.001731,
700,790,0.791054,-3.106856,0.999998,0.000169,-0.001303,0.002565,0.000220,0.002577,-0.001315,86.747328,0.002577,
1350,90,-0.012845,-4.931030,0.999999,0.000151,-0.000120,0.001585,-0.000070,0.001588,-0.000122,-87.658033,0.001767,
1350,1940,-0.018460,-0.149148,0.999998,0.000149,-0.000162,0.001615,0.000091,0.001619,-0.000167,87.085327,0.001781,
740,1620,0.455386,-0.978385,0.999998,0.000176,-0.001234,0.002499,0.000052,0.002500,-0.001235,89.205565,0.002500,
1040,1100,0.513401,-2.154917,0.999998,0.000225,-0.001759,0.004287,0.000942,0.004430,-0.001902,81.348415,0.004445,
1430,1870,-0.059302,-0.275864,0.999998,0.000161,-0.000382,0.001782,0.000107,0.001788,-0.000387,87.170711,0.001881,
1870,1940,-0.272328,-0.294340,0.999998,0.000159,-0.001178,0.002725,0.000418,0.002770,-0.001222,83.953273,0.002776,
770,480,0.447388,-3.972111,0.999998,0.000170,-0.001283,0.002557,-0.000068,0.002558,-0.001285,-88.982981,0.002558,
1650,1210,-0.691409,-2.033546,0.999998,0.000176,-0.001437,0.002791,0.000319,0.002815,-0.001461,85.703219,0.002816,
1070,30,0.002421,-5.024356,0.999999,0.000000,-0.000046,0.001548,0.000116,0.001556,-0.000055,85.859727,0.001766,
1550,180,-0.108061,-4.751266,0.999998,0.000164,-0.000470,0.001966,-0.000231,0.001988,-0.000492,-84.627831,0.002071,
1390,530,-0.116626,-4.109807,0.999999,0.000135,-0.000892,0.002022,0.000353,0.002064,-0.000935,83.182673,0.002067,
620,420,0.593303,-4.002494,0.999998,0.000176,-0.001266,0.002523,-0.000040,0.002524,-0.001266,-89.393216,0.002524,
650,1570,0.603723,-1.176637,0.999997,0.000207,-0.001255,0.002539,0.000053,0.002540,-0.001256,89.199440,0.002540,
1560,1000,-0.721555,-2.596647,0.999998,0.000198,-0.000909,0.002814,-0.000163,0.002821,-0.000916,-87.491897,0.002879,
1030,1950,0.028681,-0.136677,0.999999,0.000148,-0.000221,0.001684,-0.000150,0.001696,-0.000233,-85.518111,0.001839,
1610,1090,-0.750923,-2.353538,0.999998,0.000174,-0.001034,0.002704,0.000243,0.002720,-0.001050,86.303329,0.002743,
1030,180,0.058350,-4.772917,0.999998,0.000152,-0.000370,0.001774,0.000119,0.001780,-0.000376,86.821538,0.001877,
1600,650,-0.427716,-3.601396,0.999997,0.000214,-0.001528,0.002779,0.000114,0.002782,-0.001531,88.489057,0.002786,
1850,1910,-0.305247,-0.349545,0.999998,0.000181,-0.001219,0.002600,0.000253,0.002616,-0.001235,86.228196,0.002618,
1670,420,-0.379835,-4.140166,0.999998,0.000167,-0.001195,0.002490,0.000049,0.002490,-0.001196,89.241164,0.002491,
780,740,0.632126,-3.283344,0.999998,0.000174,-0.001479,0.002792,0.000167,0.002799,-0.001486,87.758779,0.002800,
990,1740,0.132379,-0.538202,0.999998,0.000145,-0.000646,0.002010,-0.000013,0.002011,-0.000646,-89.728749,0.002053,
1320,250,-0.033334,-4.666551,0.999998,0.000159,-0.000407,0.001723,0.000007,0.001723,-0.000407,89.813889,0.001802,
900,1960,0.052965,-0.128847,0.999998,0.000159,-0.000253,0.001805,-0.000308,0.001850,-0.000298,-81.655510,0.001987,
1480,60,-0.017810,-4.975361,0.999999,0.000114,-0.000094,0.001591,-0.000202,0.001615,-0.000118,-83.260974,0.001800,
1080,860,0.251002,-3.371694,0.999998,0.000183,-0.001678,0.002657,-0.001039,0.002893,-0.001914,-77.192459,0.002943,
1810,1430,-0.704732,-1.534768,0.999997,0.000199,-0.001298,0.002568,0.000037,0.002568,-0.001298,89.456237,0.002568,
1870,1680,-0.591408,-0.947264,0.999999,0.000143,-0.001246,0.002472,-0.000020,0.002472,-0.001246,-89.688338,0.002472,
1690,150,-0.163254,-4.777291,0.999998,0.000159,-0.000708,0.002243,-0.000441,0.002308,-0.000772,-81.683292,0.002349,
990,2000,0.014824,-0.055734,0.999998,0.000136,-0.000070,0.001578,-0.000191,0.001600,-0.000091,-83.485081,0.001797,
1630,520,-0.390050,-3.921743,0.999997,0.000176,-0.001339,0.002569,0.000122,0.002573,-0.001343,88.206198,0.002573,
870,860,0.625485,-2.990447,0.999998,0.000157,-0.001506,0.002965,0.000333,0.002989,-0.001530,85.765500,0.002990,
1550,820,-0.504954,-3.145568,0.999996,0.000226,-0.001754,0.003134,-0.000153,0.003139,-0.001759,-88.210521,0.003147,
1470,640,-0.227154,-3.777427,0.999998,0.000151,-0.001391,0.002498,0.000489,0.002559,-0.001452,82.938753,0.002567,
1210,1280,0.012061,-1.164362,0.999998,0.000148,-0.000597,0.000646,0.000335,0.000731,-0.000682,75.858317,0.000817,
1350,560,-0.081915,-4.084916,0.999999,0.000122,-0.000837,0.001847,0.000377,0.001899,-0.000889,82.150907,0.001900,
620,450,0.615354,-3.927177,0.999998,0.000166,-0.001241,0.002516,-0.000037,0.002516,-0.001242,-89.434835,0.002516,
630,1580,0.621681,-1.167479,0.999997,0.000182,-0.001245,0.002547,0.000049,0.002548,-0.001246,89.257854,0.002548,
1520,1440,-0.288913,-1.259778,0.999998,0.000184,-0.001422,0.002620,-0.000343,0.002649,-0.001451,-85.189479,0.002653,
820,1340,0.550441,-1.659748,0.999998,0.000252,-0.001512,0.002820,-0.000070,0.002822,-0.001513,-89.074191,0.002824,
1530,1080,-0.675292,-2.363185,0.999998,0.000179,-0.001041,0.002985,0.000230,0.002998,-0.001054,86.741717,0.003042,
800,610,0.494346,-3.656390,0.999997,0.000188,-0.001427,0.002693,-0.000056,0.002694,-0.001428,-89.214703,0.002696,
1740,440,-0.479267,-4.036286,0.999998,0.000169,-0.001280,0.002532,0.000039,0.002533,-0.001281,89.407821,0.002533,
1000,1230,0.348326,-1.786814,0.999998,0.000201,-0.001966,0.003292,0.000323,0.003312,-0.001986,86.498899,0.003334,
950,1800,0.133248,-0.431096,0.999998,0.000165,-0.000697,0.002072,-0.000079,0.002074,-0.000699,-88.358206,0.002110,
1700,950,-0.839350,-2.714407,0.999999,0.000148,-0.001113,0.002550,-0.000230,0.002564,-0.001127,-86.423713,0.002570,
1140,300,0.041333,-4.576870,0.999998,0.000141,-0.000522,0.001774,-0.000039,0.001775,-0.000523,-89.023153,0.001824,
990,870,0.437072,-3.079429,0.999998,0.000190,-0.001847,0.003421,-0.000037,0.003421,-0.001847,-89.594737,0.003425,
1280,1780,-0.020749,-0.414120,0.999998,0.000162,-0.000409,0.001753,0.000018,0.001753,-0.000409,89.524337,0.001834,
740,1600,0.467820,-1.027800,0.999998,0.000173,-0.001254,0.002543,0.000067,0.002544,-0.001255,88.992072,0.002545,
710,1140,0.879349,-2.245790,0.999998,0.000153,-0.001169,0.002492,-0.000191,0.002502,-0.001179,-87.018117,0.002503,
1650,1190,-0.713729,-2.089495,0.999998,0.000190,-0.001362,0.002777,0.000346,0.002806,-0.001391,85.253756,0.002806,
650,1550,0.617050,-1.228673,0.999998,0.000183,-0.001266,0.002569,0.000041,0.002569,-0.001267,89.394476,0.002569,
620,400,0.578459,-4.053207,0.999998,0.000185,-0.001268,0.002511,-0.000041,0.002512,-0.001268,-89.374847,0.002512,
1870,1930,-0.291133,-0.321157,0.999998,0.000167,-0.001187,0.002699,0.000357,0.002732,-0.001219,84.792067,0.002737,
710,1400,0.654841,-1.572577,0.999997,0.000193,-0.001368,0.002634,-0.000084,0.002635,-0.001370,-88.796240,0.002636,
1060,2020,0.006076,-0.024622,0.999999,0.000000,-0.000057,0.001518,-0.000078,0.001522,-0.000060,-87.166496,0.001724,
950,1170,0.534285,-2.066484,0.999998,0.000182,-0.001619,0.003289,-0.000254,0.003302,-0.001632,-87.040121,0.003302,
1780,480,-0.557843,-3.901934,0.999998,0.000187,-0.001276,0.002549,0.000062,0.002550,-0.001277,89.070137,0.002550,
810,200,0.188397,-4.678463,0.999998,0.000180,-0.000796,0.002251,0.000289,0.002278,-0.000823,84.636245,0.002307,
1150,180,0.021024,-4.787384,0.999999,0.000145,-0.000242,0.001664,0.000037,0.001665,-0.000242,88.892465,0.001799,
780,720,0.613358,-3.338795,0.999998,0.000186,-0.001491,0.002769,0.000151,0.002774,-0.001497,87.974225,0.002777,
1350,70,-0.009445,-4.962494,0.999999,0.000121,-0.000075,0.001561,-0.000072,0.001564,-0.000079,-87.484387,0.001762,
1560,980,-0.709507,-2.653242,0.999998,0.000185,-0.000975,0.002850,-0.000239,0.002865,-0.000989,-86.443231,0.002910,
950,320,0.166372,-4.473343,0.999998,0.000166,-0.000810,0.002151,-0.000007,0.002151,-0.000810,-89.873783,0.002173,
850,700,0.487843,-3.449316,0.999997,0.000202,-0.001573,0.002861,-0.000011,0.002861,-0.001573,-89.861466,0.002866,
1810,1410,-0.723175,-1.587151,0.999997,0.000195,-0.001304,0.002566,0.000066,0.002567,-0.001305,89.029567,0.002568,
1080,880,0.291790,-3.320389,0.999998,0.000184,-0.001424,0.002529,-0.001153,0.002841,-0.001736,-74.868657,0.002864,
1190,1940,0.006950,-0.145890,0.999998,0.000162,-0.000147,0.001594,-0.000021,0.001594,-0.000147,-89.301239,0.001762,
1430,1850,-0.068816,-0.312241,0.999999,0.000155,-0.000417,0.001800,0.000086,0.001804,-0.000420,87.773942,0.001887,
1610,1070,-0.761911,-2.408151,0.999998,0.000187,-0.000991,0.002646,0.000168,0.002654,-0.000999,87.357417,0.002681,
750,480,0.472770,-3.955726,0.999998,0.000169,-0.001300,0.002547,-0.000079,0.002549,-0.001301,-88.823919,0.002549,
1040,1090,0.528998,-2.197913,0.999998,0.000249,-0.001849,0.004519,0.000941,0.004655,-0.001985,81.768645,0.004672,
1900,1330,-0.904236,-1.855767,0.999998,0.000000,-0.001249,0.002453,0.000065,0.002454,-0.001250,88.986760,0.002454,
1210,1360,0.011619,-1.097191,0.999999,0.000121,-0.000548,0.001105,0.000216,0.001133,-0.000576,82.667331,0.001133,
1750,1060,-0.908857,-2.441108,0.999998,0.000136,-0.001080,0.002392,0.000083,0.002394,-0.001082,88.629638,0.002398,
820,1360,0.531440,-1.602824,0.999998,0.000216,-0.001517,0.002838,-0.000061,0.002839,-0.001518,-89.201820,0.002841,
1470,660,-0.234029,-3.726559,0.999998,0.000175,-0.001483,0.002580,0.000513,0.002644,-0.001547,82.919651,0.002657,
1690,130,-0.141054,-4.819063,0.999998,0.000158,-0.000585,0.002153,-0.000494,0.002239,-0.000671,-80.078410,0.002298,
1350,540,-0.081998,-4.122607,0.999999,0.000134,-0.000808,0.001878,0.000320,0.001916,-0.000846,83.291938,0.001920,
1270,1740,-0.018547,-0.483919,0.999998,0.000180,-0.000494,0.001792,-0.000002,0.001792,-0.000494,-89.947196,0.001851,
1730,1120,-0.863824,-2.288876,0.999998,0.000146,-0.001147,0.002483,0.000199,0.002494,-0.001158,86.874644,0.002496,
1030,1930,0.038772,-0.171960,0.999999,0.000144,-0.000256,0.001681,-0.000137,0.001691,-0.000265,-85.984909,0.001819,
1680,1270,-0.672482,-1.880500,0.999998,0.000178,-0.001433,0.002779,0.000246,0.002793,-0.001448,86.669560,0.002793,
1390,510,-0.114192,-4.149980,0.999999,0.000128,-0.000870,0.002004,0.000312,0.002038,-0.000903,83.877248,0.002042,
1470,1990,-0.017157,-0.072033,0.999998,0.000179,-0.000075,0.001634,0.000210,0.001659,-0.000100,83.102728,0.001860,
1520,1420,-0.297373,-1.312465,0.999998,0.000172,-0.001474,0.002654,-0.000345,0.002682,-0.001502,-85.258704,0.002689,
1850,1890,-0.337369,-0.399832,0.999998,0.000185,-0.001233,0.002611,0.000203,0.002622,-0.001244,86.989914,0.002623,
980,2000,0.015171,-0.055996,0.999998,0.000136,-0.000090,0.001582,-0.000199,0.001605,-0.000114,-83.302027,0.001792,
1740,420,-0.464190,-4.087081,0.999998,0.000178,-0.001250,0.002542,0.000047,0.002543,-0.001250,89.290262,0.002543,
1230,1550,0.002057,-0.813877,0.999999,0.000143,-0.000638,0.001721,0.000005,0.001721,-0.000638,89.886110,0.001740,
740,350,0.392415,-4.277458,0.999997,0.000193,-0.001162,0.002520,0.000035,0.002520,-0.001162,89.451142,0.002523,
1840,570,-0.700516,-3.622851,0.999998,0.000184,-0.001266,0.002562,-0.000002,0.002562,-0.001266,-89.965934,0.002562,
990,850,0.404044,-3.148566,0.999998,0.000195,-0.001907,0.003391,-0.000117,0.003394,-0.001910,-88.730540,0.003403,
710,1960,0.124206,-0.158188,0.999998,0.000168,-0.000759,0.002177,-0.000589,0.002290,-0.000873,-79.073422,0.002312,
750,180,0.218410,-4.699927,0.999998,0.000143,-0.000758,0.002352,0.000425,0.002409,-0.000815,82.353615,0.002451,
620,490,0.645736,-3.824659,0.999998,0.000170,-0.001238,0.002534,-0.000045,0.002535,-0.001238,-89.315034,0.002535,
840,1790,0.223072,-0.496016,0.999998,0.000157,-0.000842,0.002248,-0.000176,0.002258,-0.000852,-86.755877,0.002281,
1280,390,-0.027816,-4.421534,0.999998,0.000157,-0.000547,0.001782,0.000042,0.001782,-0.000548,88.977023,0.001826,
1130,1680,0.056466,-0.602938,0.999998,0.000166,-0.000627,0.001887,0.000110,0.001892,-0.000632,87.495057,0.001926,
1770,1580,-0.541286,-1.118051,0.999998,0.000161,-0.001291,0.002546,-0.000063,0.002547,-0.001292,-89.066600,0.002547,
1780,460,-0.543725,-3.953699,0.999998,0.000189,-0.001253,0.002549,0.000043,0.002549,-0.001253,89.352188,0.002549,
1430,880,-0.375524,-3.144936,0.999997,0.000192,-0.001794,0.003472,0.000520,0.003523,-0.001845,84.414904,0.003524,
740,1800,0.309195,-0.526867,0.999998,0.000192,-0.000992,0.002484,-0.000216,0.002498,-0.001005,-86.460418,0.002513,
1130,180,0.025533,-4.784490,0.999999,0.000140,-0.000334,0.001671,0.000027,0.001671,-0.000334,89.227820,0.001769,
1650,1390,-0.515886,-1.522512,0.999997,0.000201,-0.001538,0.002794,-0.000002,0.002794,-0.001538,-89.979365,0.002799,
1200,130,0.005506,-4.869068,0.999999,0.000130,-0.000186,0.001567,0.000009,0.001567,-0.000186,89.697942,0.001713,
780,700,0.594207,-3.393629,0.999997,0.000222,-0.001454,0.002758,0.000096,0.002761,-0.001456,88.700398,0.002762,
1530,480,-0.248323,-4.102926,0.999998,0.000143,-0.001187,0.002364,0.000221,0.002377,-0.001201,86.451788,0.002377,
1060,1080,0.493817,-2.171520,0.999996,0.000000,-0.002150,0.005798,0.001572,0.006098,-0.002449,79.209377,0.006137,
650,1530,0.633055,-1.280313,0.999998,0.000181,-0.001278,0.002593,0.000018,0.002593,-0.001278,89.732264,0.002594,
1610,1050,-0.768657,-2.459910,0.999997,0.000204,-0.000962,0.002637,0.000112,0.002641,-0.000965,88.217781,0.002673,
1750,860,-0.835561,-2.933242,0.999999,0.000135,-0.001224,0.002518,-0.000247,0.002535,-0.001241,-86.234080,0.002535,
1300,1490,-0.043638,-0.932689,0.999999,0.000097,-0.000729,0.001672,-0.000272,0.001702,-0.000759,-83.619075,0.001705,
1810,1390,-0.740143,-1.637668,0.999998,0.000186,-0.001292,0.002591,0.000084,0.002593,-0.001294,88.760587,0.002593,
1730,1500,-0.546969,-1.293083,0.999997,0.000212,-0.001323,0.002641,-0.000042,0.002641,-0.001323,-89.385776,0.002641,
1190,1800,0.017087,-0.378268,0.999998,0.000146,-0.000383,0.001707,0.000015,0.001707,-0.000383,89.596486,0.001792,
1080,1600,0.100777,-0.774610,0.999998,0.000149,-0.000825,0.001960,0.000253,0.001983,-0.000848,84.860712,0.001990,
600,190,0.391864,-4.559052,0.999997,0.000201,-0.001212,0.002507,0.000139,0.002512,-0.001217,87.868970,0.002513,
1290,840,-0.089663,-3.770561,0.999998,0.000167,-0.001272,0.000857,0.000325,0.000905,-0.001321,81.502296,0.001351,
1170,1940,0.008645,-0.146394,0.999999,0.000172,-0.000135,0.001596,-0.000043,0.001597,-0.000136,-88.574325,0.001771,
1870,1920,-0.310793,-0.347356,0.999998,0.000188,-0.001185,0.002645,0.000313,0.002670,-0.001210,85.361506,0.002674,
1560,960,-0.694549,-2.710837,0.999998,0.000160,-0.001088,0.002895,-0.000278,0.002914,-0.001107,-86.030695,0.002942,
1350,270,-0.050026,-4.625536,0.999998,0.000141,-0.000458,0.001794,0.000008,0.001794,-0.000458,89.801523,0.001865,
1520,1840,-0.116975,-0.352863,0.999998,0.000162,-0.000555,0.001995,0.000139,0.002002,-0.000563,86.890527,0.002065,
620,600,0.729517,-3.544619,0.999997,0.000194,-0.001274,0.002557,0.000028,0.002557,-0.001275,89.585491,0.002557,
1690,110,-0.112421,-4.864633,0.999999,0.000136,-0.000496,0.002114,-0.000559,0.002229,-0.000610,-78.400682,0.002304,
1020,1090,0.557930,-2.249164,0.999996,0.000243,-0.001532,0.004069,0.000306,0.004086,-0.001548,86.880459,0.004126,
1740,400,-0.452442,-4.136231,0.999998,0.000190,-0.001227,0.002552,0.000028,0.002552,-0.001227,89.579473,0.002553,
820,1380,0.513722,-1.547246,0.999998,0.000201,-0.001524,0.002792,-0.000010,0.002792,-0.001524,-89.862493,0.002795,
1250,1740,-0.008265,-0.482397,0.999999,0.000130,-0.000507,0.001771,-0.000035,0.001771,-0.000507,-89.122842,0.001824,
1080,530,0.109039,-4.114649,0.999999,0.000134,-0.000872,0.001989,-0.000366,0.002035,-0.000918,-82.833094,0.002039,
980,870,0.455380,-3.063656,0.999998,0.000169,-0.001838,0.003388,0.000045,0.003389,-0.001838,89.510672,0.003393,
570,1580,0.700793,-1.217102,0.999886,0.001362,-0.002226,0.002221,0.000224,0.002233,-0.002237,87.119435,0.002581,
620,430,0.601565,-3.977801,0.999998,0.000170,-0.001266,0.002506,-0.000038,0.002506,-0.001266,-89.426000,0.002507,
1640,1560,-0.388349,-1.061716,0.999997,0.000174,-0.001278,0.002539,-0.000100,0.002541,-0.001281,-88.505677,0.002541,
1470,1970,-0.028531,-0.105850,0.999999,0.000161,-0.000116,0.001667,0.000221,0.001695,-0.000144,83.029506,0.001879,
940,970,0.664569,-2.694011,0.999997,0.000191,-0.001076,0.003093,0.000262,0.003110,-0.001092,86.412484,0.003155,
730,1990,0.067833,-0.090938,0.999998,0.000160,-0.000326,0.002049,-0.000666,0.002223,-0.000500,-75.360719,0.002333,
1900,1320,-0.913582,-1.879726,0.999998,0.000000,-0.001229,0.002428,0.000049,0.002429,-0.001229,89.237644,0.002429,
1290,180,-0.015246,-4.787959,0.999999,0.000125,-0.000221,0.001655,-0.000026,0.001655,-0.000221,-89.200633,0.001797,
1630,260,-0.225558,-4.550876,0.999998,0.000168,-0.000836,0.002270,-0.000188,0.002281,-0.000848,-86.550434,0.002306,
650,1510,0.647871,-1.332252,0.999998,0.000173,-0.001272,0.002549,0.000006,0.002549,-0.001272,89.911053,0.002549,
990,830,0.373909,-3.217149,0.999998,0.000190,-0.001955,0.003355,-0.000202,0.003363,-0.001963,-87.827486,0.003379,
850,720,0.505890,-3.392083,0.999997,0.000198,-0.001608,0.002902,0.000035,0.002902,-0.001608,89.555642,0.002908,
1610,1030,-0.773484,-2.513231,0.999998,0.000210,-0.000947,0.002674,0.000021,0.002675,-0.000947,89.670164,0.002712,
900,1870,0.117601,-0.301333,0.999998,0.000187,-0.000556,0.002009,-0.000248,0.002033,-0.000580,-84.517641,0.002094,
1290,1250,-0.049513,-1.240821,0.999999,0.000151,-0.000940,0.000898,-0.000757,0.001169,-0.001212,-70.269262,0.001375,
1470,300,-0.124890,-4.534388,0.999998,0.000163,-0.000640,0.002016,-0.000017,0.002016,-0.000640,-89.633841,0.002061,
1560,940,-0.676174,-2.769455,0.999998,0.000173,-0.001182,0.002955,-0.000342,0.002983,-0.001210,-85.309819,0.003001,
1490,1180,-0.477016,-2.003151,0.999998,0.000189,-0.001807,0.003390,0.000098,0.003392,-0.001809,88.924244,0.003394,
1810,1370,-0.756933,-1.690154,0.999998,0.000166,-0.001273,0.002554,0.000101,0.002557,-0.001276,88.485556,0.002557,
780,630,0.536724,-3.586821,0.999997,0.000182,-0.001417,0.002697,-0.000009,0.002697,-0.001417,-89.877914,0.002698,
780,680,0.577581,-3.449428,0.999997,0.000211,-0.001427,0.002754,0.000058,0.002755,-0.001428,89.202522,0.002755,
1140,1330,0.058980,-1.209599,0.999998,0.000159,-0.000908,0.001526,0.000835,0.001785,-0.001166,72.777712,0.001813,
1550,700,-0.384249,-3.511351,0.999997,0.000223,-0.001654,0.002894,0.000197,0.002903,-0.001663,87.522041,0.002913,
1430,1830,-0.075666,-0.347680,0.999998,0.000173,-0.000468,0.001851,0.000052,0.001852,-0.000469,88.721062,0.001925,
1630,360,-0.295347,-4.316104,0.999997,0.000176,-0.001022,0.002375,-0.000015,0.002375,-0.001022,-89.739251,0.002383,
990,1800,0.107140,-0.416986,0.999998,0.000175,-0.000538,0.001980,-0.000071,0.001982,-0.000540,-88.389802,0.002049,
970,320,0.149787,-4.483383,0.999998,0.000158,-0.000775,0.002119,-0.000028,0.002119,-0.000775,-89.447409,0.002145,
1520,1860,-0.103960,-0.311814,0.999998,0.000166,-0.000496,0.001976,0.000179,0.001989,-0.000509,85.882723,0.002067,
1080,1580,0.104542,-0.815978,0.999999,0.000145,-0.000832,0.001991,0.000305,0.002024,-0.000865,83.900022,0.002031,
770,740,0.647782,-3.277111,0.999998,0.000175,-0.001445,0.002759,0.000188,0.002767,-0.001453,87.438300,0.002768,
1060,1070,0.502261,-2.229209,0.999997,0.000000,-0.002319,0.006277,0.001330,0.006478,-0.002520,81.404719,0.006531,
1000,1210,0.378281,-1.855067,0.999998,0.000189,-0.001926,0.003426,0.000237,0.003436,-0.001937,87.472075,0.003446,
590,1510,0.724057,-1.379777,0.999998,0.000152,-0.001382,0.002614,0.000084,0.002616,-0.001384,88.796296,0.002617,
900,1940,0.065240,-0.166651,0.999999,0.000144,-0.000312,0.001879,-0.000314,0.001923,-0.000356,-82.007973,0.002047,
1030,1940,0.033657,-0.154302,0.999999,0.000141,-0.000247,0.001682,-0.000149,0.001693,-0.000258,-85.601230,0.001824,
1340,120,-0.017954,-4.883515,0.999998,0.000141,-0.000193,0.001634,-0.000060,0.001636,-0.000195,-88.128564,0.001787,
1870,1970,-0.206391,-0.212323,0.999998,0.000139,-0.001138,0.002920,0.000683,0.003032,-0.001250,80.693471,0.003047,
1140,280,0.038447,-4.612965,0.999999,0.000145,-0.000487,0.001800,-0.000027,0.001800,-0.000488,-89.328034,0.001862,
890,1600,0.286604,-0.911197,0.999998,0.000175,-0.001129,0.002397,0.000143,0.002402,-0.001135,87.673933,0.002404,
950,1130,0.596225,-2.197584,0.999998,0.000186,-0.001377,0.003222,-0.000311,0.003243,-0.001398,-86.145532,0.003254,
1690,90,-0.088845,-4.905192,0.999999,0.000129,-0.000378,0.002010,-0.000551,0.002131,-0.000499,-77.615024,0.002229,
940,870,0.526848,-3.010416,0.999998,0.000186,-0.001670,0.003247,0.000216,0.003256,-0.001680,87.484101,0.003257,
610,790,0.903309,-3.061163,0.999999,0.000150,-0.001201,0.002412,0.000118,0.002416,-0.001205,88.125536,0.002416,
580,1580,0.684478,-1.207754,0.999998,0.000157,-0.001921,0.002375,0.000151,0.002381,-0.001927,87.994430,0.002528,
1740,380,-0.435343,-4.187804,0.999998,0.000189,-0.001228,0.002528,0.000007,0.002528,-0.001228,89.887629,0.002528,
1070,520,0.116924,-4.126935,0.999999,0.000117,-0.000882,0.002031,-0.000335,0.002069,-0.000920,-83.530615,0.002073,
820,1820,0.214249,-0.435369,0.999998,0.000166,-0.000809,0.002281,-0.000249,0.002301,-0.000829,-85.424740,0.002330,
1800,50,-0.065168,-4.975182,0.999999,0.000139,-0.000223,0.002205,-0.000956,0.002536,-0.000555,-70.888156,0.002666,
740,1060,0.881044,-2.439916,0.999998,0.000156,-0.001070,0.002477,-0.000087,0.002479,-0.001072,-88.601767,0.002487,
1650,650,-0.504964,-3.557913,0.999997,0.000210,-0.001462,0.002786,0.000029,0.002786,-0.001462,89.602529,0.002788,
1060,1270,0.185976,-1.522925,0.999998,0.000175,-0.001762,0.002707,0.000891,0.002878,-0.001933,79.131530,0.002934,
1270,180,-0.010748,-4.788360,0.999999,0.000128,-0.000238,0.001654,-0.000003,0.001654,-0.000238,-89.914610,0.001788,
1450,300,-0.112997,-4.541002,0.999998,0.000152,-0.000612,0.001981,-0.000009,0.001981,-0.000612,-89.812070,0.002028,
1890,200,-0.438792,-4.502306,0.999997,0.000187,-0.001232,0.002456,-0.000089,0.002458,-0.001234,-88.623378,0.002458,
780,660,0.559849,-3.505306,0.999997,0.000196,-0.001422,0.002736,0.000032,0.002736,-0.001422,89.559647,0.002736,
1810,1350,-0.774589,-1.741056,0.999998,0.000161,-0.001266,0.002531,0.000114,0.002535,-0.001270,88.286452,0.002535,
690,440,0.521554,-4.009105,0.999997,0.000201,-0.001216,0.002522,-0.000044,0.002523,-0.001217,-89.319398,0.002523,
1220,1450,0.006800,-0.975167,0.999999,0.000112,-0.000598,0.001481,0.000086,0.001484,-0.000601,87.647181,0.001493,
970,1800,0.120234,-0.423424,0.999998,0.000143,-0.000642,0.002035,-0.000062,0.002036,-0.000643,-88.664942,0.002082,
900,1920,0.080443,-0.203052,0.999999,0.000134,-0.000383,0.001885,-0.000305,0.001925,-0.000424,-82.483320,0.002023,
910,2000,0.021774,-0.059726,0.999999,0.000128,-0.000079,0.001670,-0.000284,0.001715,-0.000124,-80.997328,0.001912,
1610,270,-0.214172,-4.539773,0.999998,0.000164,-0.000869,0.002246,-0.000118,0.002250,-0.000874,-87.841025,0.002269,
1250,320,-0.009704,-4.549166,0.999998,0.000154,-0.000501,0.001761,0.000033,0.001762,-0.000501,89.173323,0.001815,
1080,1560,0.105861,-0.855793,0.999999,0.000129,-0.000861,0.001979,0.000322,0.002016,-0.000897,83.608468,0.002020,
1060,1060,0.505520,-2.297270,0.999997,0.000000,-0.002448,0.006744,0.001062,0.006865,-0.002569,83.496369,0.006937,
1520,1880,-0.093853,-0.274275,0.999998,0.000159,-0.000433,0.001892,0.000201,0.001910,-0.000450,85.085549,0.001997,
1390,490,-0.110348,-4.189646,0.999998,0.000150,-0.000871,0.001986,0.000314,0.002020,-0.000905,83.808821,0.002024,
1690,1660,-0.385693,-0.850919,0.999998,0.000184,-0.001135,0.002480,-0.000021,0.002480,-0.001135,-89.665795,0.002483,
1820,1450,-0.702879,-1.493349,0.999997,0.000191,-0.001280,0.002580,0.000018,0.002580,-0.001280,89.733770,0.002580,
1360,830,-0.162076,-3.541355,0.999998,0.000185,-0.001568,0.002204,0.001128,0.002516,-0.001880,74.554529,0.002616,
1800,670,-0.731295,-3.394913,0.999997,0.000201,-0.001310,0.002603,-0.000094,0.002605,-0.001312,-88.630573,0.002605,
1660,1270,-0.643438,-1.869449,0.999997,0.000194,-0.001481,0.002835,0.000231,0.002847,-0.001494,86.939304,0.002848,
910,740,0.423983,-3.391010,0.999997,0.000235,-0.001734,0.003021,-0.000103,0.003024,-0.001736,-88.760955,0.003035,
1130,1940,0.015730,-0.148057,0.999998,0.000139,-0.000182,0.001657,-0.000049,0.001659,-0.000184,-88.474767,0.001818,
1030,1910,0.045001,-0.204914,0.999998,0.000154,-0.000285,0.001725,-0.000129,0.001733,-0.000294,-86.335569,0.001855,
1340,1460,-0.073459,-1.009894,0.999999,0.000140,-0.000843,0.001817,-0.000441,0.001888,-0.000914,-80.834155,0.001888,
1850,1870,-0.369471,-0.453431,0.999997,0.000191,-0.001235,0.002546,0.000162,0.002553,-0.001242,87.556149,0.002554,
1130,720,0.067421,-3.820881,0.999998,0.000154,-0.000956,0.001668,-0.000848,0.001918,-0.001206,-73.559367,0.001939,
930,1600,0.242394,-0.879494,0.999999,0.000153,-0.001080,0.002345,0.000182,0.002355,-0.001089,86.965611,0.002357,
1790,1400,-0.704095,-1.599708,0.999997,0.000208,-0.001329,0.002600,0.000069,0.002601,-0.001330,88.994666,0.002601,
650,1490,0.663889,-1.381050,0.999997,0.000179,-0.001273,0.002570,0.000012,0.002570,-0.001273,89.818470,0.002570,
1690,510,-0.463046,-3.898539,0.999998,0.000167,-0.001282,0.002587,0.000093,0.002589,-0.001284,88.627516,0.002589,
610,1810,0.449369,-0.607080,0.999997,0.000211,-0.001204,0.002506,-0.000043,0.002507,-0.001205,-89.331860,0.002507,
1810,1740,-0.468539,-0.744326,0.999998,0.000193,-0.001238,0.002529,0.000015,0.002529,-0.001238,89.771993,0.002529,
820,1800,0.232179,-0.482683,0.999998,0.000170,-0.000855,0.002311,-0.000189,0.002322,-0.000866,-86.601333,0.002347,
740,1020,0.885472,-2.539037,0.999998,0.000156,-0.001062,0.002460,0.000032,0.002460,-0.001062,89.472619,0.002468,
1560,920,-0.651775,-2.828748,0.999998,0.000179,-0.001305,0.002965,-0.000361,0.002995,-0.001336,-85.195687,0.003001,
1740,360,-0.421510,-4.238407,0.999998,0.000181,-0.001222,0.002507,-0.000006,0.002508,-0.001222,-89.903311,0.002508,
1870,1960,-0.230021,-0.239357,0.999998,0.000146,-0.001147,0.002823,0.000596,0.002910,-0.001235,81.647043,0.002922,
1650,820,-0.664045,-3.076593,0.999998,0.000179,-0.001466,0.002807,-0.000290,0.002827,-0.001485,-86.128832,0.002828,
950,590,0.267561,-3.853612,0.999998,0.000175,-0.001358,0.002531,-0.000334,0.002559,-0.001386,-85.119051,0.002562,
1140,480,0.058358,-4.246711,0.999998,0.000155,-0.000716,0.001862,-0.000213,0.001879,-0.000734,-85.309719,0.001894,
1070,180,0.044414,-4.779631,0.999999,0.000118,-0.000299,0.001738,0.000087,0.001742,-0.000303,87.569745,0.001861,
1880,200,-0.426614,-4.513550,0.999997,0.000200,-0.001243,0.002482,-0.000090,0.002484,-0.001245,-88.610899,0.002484,
1790,50,-0.062629,-4.975839,0.999999,0.000167,-0.000187,0.002166,-0.000947,0.002500,-0.000521,-70.579582,0.002638,
1650,610,-0.474312,-3.667054,0.999997,0.000187,-0.001438,0.002676,0.000066,0.002677,-0.001439,89.079676,0.002680,
1360,290,-0.059846,-4.587221,0.999998,0.000158,-0.000502,0.001845,0.000002,0.001845,-0.000502,89.948384,0.001908,
1810,1330,-0.792827,-1.791608,0.999998,0.000156,-0.001279,0.002542,0.000118,0.002546,-0.001282,88.236822,0.002546,
1340,1490,-0.073461,-0.955964,0.999999,0.000132,-0.000773,0.001840,-0.000348,0.001885,-0.000818,-82.542652,0.001891,
1610,1010,-0.769148,-2.566491,0.999998,0.000184,-0.000954,0.002640,-0.000094,0.002643,-0.000956,-88.506996,0.002676,
950,380,0.192637,-4.343138,0.999998,0.000160,-0.000923,0.002180,-0.000111,0.002184,-0.000927,-87.955499,0.002192,
720,550,0.560280,-3.750832,0.999997,0.000181,-0.001339,0.002618,-0.000028,0.002618,-0.001339,-89.589729,0.002618,
1740,1050,-0.900743,-2.464773,0.999998,0.000153,-0.001070,0.002426,0.000073,0.002427,-0.001072,88.806236,0.002433,
1350,680,-0.082761,-3.863235,0.999998,0.000148,-0.000988,0.001831,0.000726,0.002008,-0.001164,76.366848,0.002016,
1520,1900,-0.080374,-0.235610,0.999999,0.000142,-0.000386,0.001871,0.000224,0.001893,-0.000408,84.382909,0.001993,
910,720,0.405542,-3.449959,0.999996,0.000226,-0.001698,0.002930,-0.000138,0.002934,-0.001702,-88.290708,0.002947,
1340,1420,-0.074320,-1.083813,0.999999,0.000133,-0.000901,0.001744,-0.000574,0.001863,-0.001020,-78.261805,0.001866,
1810,1720,-0.485287,-0.795280,0.999998,0.000187,-0.001256,0.002544,-0.000015,0.002544,-0.001256,-89.779775,0.002544,
740,480,0.485913,-3.947001,0.999998,0.000163,-0.001278,0.002554,-0.000071,0.002556,-0.001279,-88.931593,0.002556,
820,1780,0.246188,-0.527637,0.999998,0.000158,-0.000890,0.002348,-0.000145,0.002355,-0.000897,-87.441228,0.002377,
1890,1070,-1.055948,-2.430700,0.999998,0.000149,-0.001025,0.001999,0.000052,0.002000,-0.001026,89.009427,0.002001,
870,210,0.157116,-4.676156,0.999998,0.000168,-0.000720,0.002116,0.000212,0.002132,-0.000736,85.752418,0.002165,
1060,1050,0.508760,-2.364712,0.999996,0.000000,-0.002566,0.006802,0.000710,0.006855,-0.002619,85.692792,0.006919,
1110,1940,0.019227,-0.148665,0.999998,0.000156,-0.000189,0.001648,-0.000077,0.001652,-0.000192,-87.600590,0.001806,
930,1780,0.157841,-0.479908,0.999998,0.000168,-0.000714,0.002130,-0.000086,0.002133,-0.000717,-88.265771,0.002170,
780,640,0.545220,-3.559885,0.999997,0.000190,-0.001433,0.002709,0.000002,0.002709,-0.001433,89.973357,0.002711,
1290,830,-0.071042,-3.778794,0.999998,0.000150,-0.001136,0.000847,0.000511,0.000971,-0.001260,76.373437,0.001320,
1180,1220,0.073027,-1.248753,0.999998,0.000151,-0.001243,0.000791,0.000341,0.000846,-0.001298,80.733479,0.001318,
1560,900,-0.625846,-2.888424,0.999998,0.000181,-0.001416,0.003030,-0.000365,0.003060,-0.001445,-85.336212,0.003061,
650,1470,0.677746,-1.437185,0.999998,0.000159,-0.001285,0.002570,-0.000012,0.002570,-0.001285,-89.826814,0.002570,
910,1600,0.264318,-0.895734,0.999998,0.000162,-0.001134,0.002382,0.000168,0.002390,-0.001142,87.269280,0.002391,
1080,1540,0.108270,-0.894941,0.999999,0.000134,-0.000887,0.001990,0.000335,0.002029,-0.000926,83.437683,0.002031,
900,1900,0.094872,-0.241957,0.999998,0.000148,-0.000434,0.001955,-0.000297,0.001992,-0.000471,-83.028590,0.002082,
690,1990,0.085179,-0.095685,0.999999,0.000160,-0.000440,0.002291,-0.000873,0.002546,-0.000695,-73.707746,0.002632,
1870,110,-0.261743,-4.760239,0.999998,0.000169,-0.001180,0.002700,-0.000455,0.002753,-0.001232,-83.395397,0.002758,
940,950,0.642778,-2.755748,0.999998,0.000159,-0.001196,0.003101,0.000321,0.003125,-0.001220,85.748204,0.003150,
690,420,0.506171,-4.060356,0.999998,0.000159,-0.001225,0.002550,-0.000039,0.002551,-0.001226,-89.414129,0.002551,
1430,1810,-0.082592,-0.386626,0.999998,0.000162,-0.000525,0.001893,0.000017,0.001893,-0.000525,89.598993,0.001955,
1320,1490,-0.059185,-0.943498,0.999998,0.000171,-0.000733,0.001747,-0.000299,0.001783,-0.000769,-83.214085,0.001789,
1360,270,-0.054367,-4.623338,0.999998,0.000141,-0.000458,0.001810,-0.000006,0.001810,-0.000458,-89.860204,0.001883,
880,1130,0.685196,-2.235612,0.999998,0.000172,-0.001227,0.002879,-0.000363,0.002911,-0.001259,-84.980010,0.002919,
1740,340,-0.404657,-4.288487,0.999998,0.000168,-0.001205,0.002498,-0.000015,0.002498,-0.001205,-89.768485,0.002499,
1540,230,-0.135704,-4.653368,0.999998,0.000163,-0.000578,0.002059,-0.000182,0.002072,-0.000590,-86.067643,0.002135,
1610,970,-0.754214,-2.672864,0.999998,0.000182,-0.001037,0.002708,-0.000239,0.002723,-0.001052,-86.355704,0.002746,
1810,1310,-0.809195,-1.844159,0.999998,0.000136,-0.001263,0.002523,0.000134,0.002528,-0.001267,87.974499,0.002528,
610,1770,0.492503,-0.707925,0.999997,0.000192,-0.001219,0.002477,-0.000010,0.002477,-0.001219,-89.850313,0.002477,
1050,180,0.050640,-4.776372,0.999999,0.000130,-0.000374,0.001752,0.000095,0.001756,-0.000379,87.449087,0.001849,
1690,940,-0.821631,-2.741851,0.999998,0.000184,-0.001110,0.002564,-0.000223,0.002577,-0.001124,-86.535221,0.002584,
1690,530,-0.474255,-3.844204,0.999998,0.000184,-0.001315,0.002577,0.000094,0.002580,-0.001317,88.617846,0.002580,
840,1310,0.545559,-1.730037,0.999998,0.000178,-0.001601,0.002903,-0.000100,0.002905,-0.001603,-88.725374,0.002911,
950,570,0.259689,-3.902604,0.999998,0.000171,-0.001294,0.002459,-0.000335,0.002488,-0.001324,-84.935985,0.002490,
1820,1430,-0.718251,-1.542994,0.999998,0.000181,-0.001284,0.002550,0.000034,0.002550,-0.001285,89.489587,0.002550,
1650,70,-0.050507,-4.950005,0.999998,0.000151,-0.000230,0.001880,-0.000493,0.001989,-0.000340,-77.474220,0.002128,
1850,1850,-0.396012,-0.501978,0.999997,0.000202,-0.001224,0.002536,0.000108,0.002539,-0.001227,88.357381,0.002539,
1790,40,-0.043936,-4.996532,0.999999,0.000136,-0.000087,0.002083,-0.000947,0.002438,-0.000442,-69.445683,0.002598,
830,1740,0.268641,-0.618268,0.999998,0.000161,-0.000958,0.002339,-0.000056,0.002340,-0.000959,-89.025647,0.002353,
1030,1890,0.052239,-0.240875,0.999998,0.000190,-0.000353,0.001767,-0.000126,0.001775,-0.000360,-86.607016,0.001876,
1850,1400,-0.781900,-1.641513,0.999998,0.000160,-0.001267,0.002527,0.000056,0.002528,-0.001267,89.148460,0.002528,
710,1380,0.673474,-1.625845,0.999998,0.000168,-0.001360,0.002641,-0.000101,0.002644,-0.001363,-88.554584,0.002644,
1890,1060,-1.059167,-2.449773,0.999998,0.000151,-0.001023,0.002053,0.000063,0.002054,-0.001025,88.825126,0.002054,
1320,1610,-0.054402,-0.726290,0.999998,0.000156,-0.000679,0.001835,-0.000160,0.001846,-0.000689,-86.372779,0.001865,
950,360,0.184060,-4.386081,0.999998,0.000180,-0.000899,0.002153,-0.000056,0.002154,-0.000900,-88.946704,0.002164,
1470,1950,-0.036222,-0.139641,0.999999,0.000169,-0.000169,0.001709,0.000206,0.001731,-0.000191,83.820836,0.001898,
1390,470,-0.109280,-4.230109,0.999998,0.000160,-0.000856,0.001983,0.000283,0.002011,-0.000884,84.358502,0.002016,
1720,1050,-0.879424,-2.464274,0.999998,0.000142,-0.001054,0.002452,0.000094,0.002455,-0.001056,88.461458,0.002463,
1430,960,-0.533312,-2.843314,0.999998,0.000250,-0.001715,0.004237,0.000687,0.004315,-0.001793,83.497528,0.004336,
1780,660,-0.695943,-3.435017,0.999998,0.000185,-0.001322,0.002617,-0.000092,0.002619,-0.001324,-88.657983,0.002619,
1350,480,-0.078361,-4.235506,0.999998,0.000146,-0.000712,0.001884,0.000200,0.001900,-0.000728,85.626522,0.001917,
890,740,0.456822,-3.369602,0.999997,0.000222,-0.001697,0.003000,-0.000044,0.003001,-0.001697,-89.459998,0.003009,
930,1540,0.265656,-1.022239,0.999998,0.000169,-0.001185,0.002399,0.000243,0.002415,-0.001201,86.130901,0.002415,
1900,1310,-0.921305,-1.904781,0.999999,0.000000,-0.001208,0.002388,0.000050,0.002389,-0.001209,89.210149,0.002389,
1020,410,0.140075,-4.320159,0.999998,0.000199,-0.000785,0.002069,-0.000137,0.002076,-0.000792,-87.249169,0.002095,
900,2000,0.022614,-0.059294,0.999999,0.000132,-0.000129,0.001684,-0.000296,0.001731,-0.000176,-80.971457,0.001906,
1230,1530,0.000389,-0.846631,0.999999,0.000129,-0.000627,0.001661,0.000010,0.001661,-0.000627,89.739322,0.001677,
870,190,0.140990,-4.720098,0.999998,0.000175,-0.000675,0.002095,0.000248,0.002118,-0.000697,84.921118,0.002158,
780,620,0.529993,-3.613179,0.999998,0.000185,-0.001409,0.002688,-0.000027,0.002688,-0.001409,-89.622420,0.002689,
990,810,0.347501,-3.284366,0.999997,0.000195,-0.001952,0.003240,-0.000296,0.003257,-0.001969,-86.750538,0.003281,
1210,1940,0.003740,-0.145348,0.999999,0.000146,-0.000165,0.001586,0.000004,0.001586,-0.000165,89.866602,0.001744,
860,1730,0.246260,-0.624753,0.999997,0.000209,-0.000939,0.002341,-0.000030,0.002342,-0.000939,-89.468988,0.002357,
1180,820,0.055078,-3.802271,0.999998,0.000154,-0.001016,0.000779,-0.000563,0.000941,-0.001178,-73.946496,0.001246,
910,1780,0.172503,-0.486005,0.999999,0.000131,-0.000699,0.002178,-0.000107,0.002182,-0.000703,-87.864450,0.002227,
1130,330,0.051784,-4.520261,0.999998,0.000172,-0.000577,0.001838,-0.000072,0.001840,-0.000579,-88.300618,0.001882,
650,1450,0.694278,-1.485514,0.999998,0.000176,-0.001296,0.002571,-0.000033,0.002571,-0.001297,-89.506015,0.002572,
1560,880,-0.601787,-2.950066,0.999998,0.000178,-0.001514,0.003047,-0.000322,0.003070,-0.001537,-85.980585,0.003070,
630,660,0.765224,-3.398108,0.999998,0.000177,-0.001259,0.002564,0.000062,0.002565,-0.001260,89.070025,0.002565,
1630,240,-0.207847,-4.597054,0.999998,0.000168,-0.000774,0.002281,-0.000240,0.002299,-0.000793,-85.530809,0.002336,
690,1970,0.125316,-0.144546,0.999998,0.000148,-0.000640,0.002286,-0.000753,0.002468,-0.000822,-76.387577,0.002513,
1210,1400,0.011674,-1.047440,0.999999,0.000124,-0.000577,0.001317,0.000157,0.001329,-0.000590,85.298763,0.001332,
1740,320,-0.388646,-4.339315,0.999998,0.000175,-0.001170,0.002524,-0.000033,0.002524,-0.001170,-89.481765,0.002527,
900,1130,0.661123,-2.227274,0.999998,0.000165,-0.001244,0.002953,-0.000360,0.002984,-0.001275,-85.130673,0.002995,
1560,1730,-0.206019,-0.600894,0.999998,0.000185,-0.000873,0.002237,0.000000,0.002237,-0.000873,-89.992850,0.002254,
1500,1410,-0.273288,-1.314694,0.999997,0.000189,-0.001494,0.002643,-0.000409,0.002683,-0.001534,-84.401376,0.002692,
1030,1870,0.058772,-0.275203,0.999998,0.000194,-0.000408,0.001806,-0.000100,0.001810,-0.000412,-87.418493,0.001898,
920,970,0.685328,-2.687349,0.999998,0.000181,-0.001037,0.002967,0.000275,0.002986,-0.001055,86.087294,0.003029,
950,550,0.252755,-3.951018,0.999998,0.000163,-0.001202,0.002435,-0.000310,0.002462,-0.001229,-85.164494,0.002462,
1080,1520,0.110522,-0.934960,0.999998,0.000142,-0.000899,0.001989,0.000378,0.002038,-0.000948,82.672927,0.002039,
1640,1980,-0.054551,-0.099749,0.999999,0.000143,-0.000208,0.001878,0.000491,0.001987,-0.000318,77.403458,0.002135,
1890,1050,-1.061011,-2.471621,0.999998,0.000162,-0.001016,0.002119,0.000065,0.002121,-0.001017,88.813822,0.002121,
1420,960,-0.514644,-2.872414,0.999998,0.000233,-0.001829,0.004465,0.001061,0.004639,-0.002004,80.682941,0.004653,
1290,440,-0.034631,-4.330343,0.999999,0.000142,-0.000596,0.001764,0.000060,0.001766,-0.000598,88.544732,0.001796,
1040,1190,0.333347,-1.820983,0.999998,0.000169,-0.001838,0.003346,0.000632,0.003422,-0.001913,83.151493,0.003430,
1670,600,-0.495894,-3.676761,0.999997,0.000181,-0.001393,0.002681,0.000043,0.002682,-0.001394,89.394804,0.002683,
610,1230,0.930538,-2.062316,0.999999,0.000132,-0.001154,0.002348,-0.000120,0.002352,-0.001158,-88.040865,0.002352,
1640,1730,-0.282164,-0.644771,0.999998,0.000155,-0.000966,0.002371,0.000053,0.002371,-0.000966,89.091427,0.002385,
880,870,0.622315,-2.965511,0.999998,0.000175,-0.001501,0.002981,0.000355,0.003009,-0.001529,85.501719,0.003009,
1810,1290,-0.828540,-1.892419,0.999998,0.000140,-0.001254,0.002497,0.000171,0.002505,-0.001262,87.402410,0.002505,
1300,1610,-0.041319,-0.719908,0.999998,0.000158,-0.000611,0.001816,-0.000110,0.001821,-0.000616,-87.414567,0.001852,
1030,1070,0.567874,-2.313357,0.999996,0.000246,-0.001823,0.004638,0.000501,0.004676,-0.001862,85.591136,0.004709,
1850,1830,-0.423421,-0.554625,0.999998,0.000180,-0.001225,0.002538,0.000096,0.002541,-0.001228,88.532651,0.002541,
1230,320,0.000552,-4.549127,0.999999,0.000143,-0.000494,0.001756,0.000004,0.001756,-0.000494,89.904838,0.001811,
1740,490,-0.513968,-3.907611,0.999998,0.000182,-0.001284,0.002558,0.000060,0.002559,-0.001285,89.102647,0.002559,
1610,950,-0.740540,-2.726797,0.999998,0.000163,-0.001111,0.002710,-0.000272,0.002729,-0.001130,-85.943555,0.002743,
780,600,0.514111,-3.666504,0.999997,0.000193,-0.001393,0.002672,-0.000052,0.002673,-0.001394,-89.265098,0.002674,
1390,450,-0.105787,-4.269642,0.999998,0.000156,-0.000823,0.001999,0.000227,0.002017,-0.000841,85.427405,0.002026,
1900,1300,-0.928374,-1.927968,0.999999,0.000000,-0.001203,0.002376,0.000061,0.002377,-0.001204,89.024693,0.002377,
1700,1770,-0.316224,-0.588592,0.999997,0.000204,-0.001016,0.002450,0.000120,0.002454,-0.001020,88.012741,0.002466,
990,1340,0.263524,-1.466771,0.999997,0.000238,-0.001718,0.002822,0.000496,0.002876,-0.001772,83.837582,0.002902,
870,170,0.125101,-4.759675,0.999998,0.000159,-0.000608,0.002027,0.000273,0.002055,-0.000636,84.151577,0.002104,
1770,850,-0.852396,-2.952467,0.999998,0.000155,-0.001244,0.002496,-0.000224,0.002509,-0.001258,-86.580560,0.002509,
910,1760,0.184201,-0.530748,0.999998,0.000167,-0.000747,0.002165,-0.000090,0.002167,-0.000749,-88.225622,0.002202,
1560,1930,-0.073159,-0.184453,0.999998,0.000148,-0.000320,0.001900,0.000301,0.001940,-0.000361,82.413118,0.002063,
890,2000,0.024994,-0.059671,0.999999,0.000122,-0.000177,0.001695,-0.000318,0.001748,-0.000230,-80.625518,0.001899,
1610,840,-0.627536,-3.039764,0.999997,0.000191,-0.001496,0.002927,-0.000295,0.002947,-0.001516,-86.206654,0.002947,
1020,390,0.136018,-4.361370,0.999998,0.000177,-0.000759,0.002061,-0.000122,0.002066,-0.000764,-87.529584,0.002090,
610,660,0.790033,-3.382992,0.999998,0.000162,-0.001277,0.002529,0.000049,0.002530,-0.001278,89.264358,0.002530,
1180,800,0.038091,-3.818340,0.999998,0.000169,-0.000868,0.000847,-0.000682,0.001085,-0.001106,-70.757891,0.001265,
1210,1380,0.011063,-1.072950,0.999999,0.000122,-0.000560,0.001235,0.000176,0.001252,-0.000577,84.441181,0.001253,
1560,860,-0.574152,-3.009613,0.999998,0.000172,-0.001575,0.003096,-0.000303,0.003115,-0.001595,-86.305044,0.003115,
990,790,0.325043,-3.348020,0.999998,0.000184,-0.001913,0.003128,-0.000369,0.003155,-0.001940,-85.839833,0.003182,
840,1730,0.265161,-0.635397,0.999998,0.000198,-0.000954,0.002352,-0.000028,0.002352,-0.000955,-89.508320,0.002366,
1470,1930,-0.046849,-0.173470,0.999999,0.000136,-0.000229,0.001766,0.000181,0.001782,-0.000245,84.868103,0.001932,
1230,1510,0.001514,-0.880653,0.999998,0.000142,-0.000626,0.001623,0.000016,0.001623,-0.000626,89.581930,0.001638,
650,1430,0.710390,-1.537473,0.999997,0.000196,-0.001286,0.002576,-0.000042,0.002576,-0.001286,-89.372276,0.002576,
1030,1850,0.067985,-0.312506,0.999998,0.000191,-0.000445,0.001828,-0.000089,0.001832,-0.000449,-87.764118,0.001909,
690,1950,0.156721,-0.189082,0.999998,0.000155,-0.000826,0.002351,-0.000649,0.002479,-0.000954,-78.881857,0.002500,
1130,1690,0.056140,-0.583523,0.999998,0.000148,-0.000619,0.001864,0.000101,0.001868,-0.000623,87.672735,0.001903,
1480,1410,-0.243022,-1.288092,0.999998,0.000139,-0.001476,0.002579,-0.000458,0.002630,-0.001527,-83.637990,0.002641,
660,1110,0.952445,-2.327288,0.999999,0.000134,-0.001116,0.002344,-0.000170,0.002352,-0.001124,-87.199065,0.002353,
1740,300,-0.369852,-4.390398,0.999998,0.000187,-0.001153,0.002523,-0.000068,0.002524,-0.001154,-88.942243,0.002527,
610,1210,0.947089,-2.110281,0.999999,0.000126,-0.001134,0.002339,-0.000136,0.002345,-0.001140,-87.764101,0.002345,
1080,1500,0.111566,-0.975825,0.999998,0.000142,-0.000895,0.001958,0.000387,0.002010,-0.000947,82.406178,0.002011,
770,900,0.798128,-2.845087,0.999999,0.000147,-0.001220,0.002609,0.000299,0.002632,-0.001243,85.555982,0.002633,
950,530,0.248432,-3.999116,0.999999,0.000152,-0.001193,0.002395,-0.000278,0.002417,-0.001214,-85.588313,0.002417,
1270,440,-0.023657,-4.333662,0.999998,0.000164,-0.000580,0.001754,0.000062,0.001756,-0.000582,88.484329,0.001789,
1640,1710,-0.295047,-0.693427,0.999997,0.000195,-0.001020,0.002385,0.000007,0.002385,-0.001020,89.877316,0.002393,
660,1930,0.218089,-0.252051,0.999998,0.000170,-0.000836,0.002587,-0.000675,0.002715,-0.000964,-79.237029,0.002753,
1640,1960,-0.076900,-0.137698,0.999999,0.000147,-0.000289,0.001924,0.000455,0.002014,-0.000379,78.818262,0.002141,
1610,930,-0.724603,-2.781407,0.999998,0.000190,-0.001179,0.002782,-0.000342,0.002812,-0.001208,-85.094588,0.002821,
880,850,0.596833,-3.025890,0.999998,0.000171,-0.001592,0.003038,0.000294,0.003057,-0.001610,86.381848,0.003058,
1820,1190,-0.923976,-2.143386,0.999998,0.000147,-0.001174,0.002389,0.000202,0.002400,-0.001185,86.765312,0.002400,
870,150,0.106383,-4.801344,0.999999,0.000166,-0.000552,0.002017,0.000317,0.002056,-0.000590,83.069218,0.002117,
1770,1870,-0.278518,-0.383514,0.999998,0.000168,-0.001103,0.002466,0.000315,0.002493,-0.001130,84.986502,0.002497,
1390,430,-0.102261,-4.309143,0.999998,0.000156,-0.000790,0.001996,0.000192,0.002009,-0.000803,86.080665,0.002022,
780,580,0.500294,-3.719814,0.999997,0.000190,-0.001390,0.002650,-0.000054,0.002651,-0.001391,-89.233169,0.002652,
1850,1810,-0.445152,-0.604081,0.999998,0.000184,-0.001222,0.002527,0.000030,0.002528,-0.001222,89.539693,0.002528,
630,260,0.440028,-4.413879,0.999998,0.000211,-0.001240,0.002549,0.000068,0.002550,-0.001241,88.977834,0.002550,
1400,2000,-0.008137,-0.054270,0.999999,0.000131,-0.000074,0.001566,0.000101,0.001572,-0.000080,86.506147,0.001771,
1290,1800,-0.022460,-0.379037,0.999999,0.000126,-0.000362,0.001727,0.000023,0.001727,-0.000363,89.380658,0.001822,
1420,1610,-0.130035,-0.778755,0.999999,0.000148,-0.000807,0.002021,-0.000204,0.002036,-0.000821,-85.897473,0.002049,
1810,1710,-0.494374,-0.820748,0.999998,0.000184,-0.001269,0.002517,-0.000014,0.002517,-0.001269,-89.782121,0.002517,
1560,90,-0.047848,-4.919621,0.999999,0.000126,-0.000212,0.001780,-0.000331,0.001834,-0.000265,-80.809617,0.001982,
1210,320,0.011401,-4.550435,0.999999,0.000127,-0.000512,0.001754,-0.000029,0.001755,-0.000513,-89.279570,0.001805,
1030,1060,0.577803,-2.359699,0.999997,0.000227,-0.001897,0.004879,0.000419,0.004905,-0.001923,86.476431,0.004943,
1010,1300,0.255327,-1.547995,0.999998,0.000196,-0.001830,0.002908,0.000586,0.002979,-0.001901,83.049246,0.003017,
570,1630,0.676872,-1.096186,0.999861,0.001599,-0.003469,0.001969,0.001352,0.002286,-0.003787,76.780603,0.003814,
1070,1940,0.025863,-0.150276,0.999999,0.000145,-0.000164,0.001645,-0.000121,0.001653,-0.000172,-86.186824,0.001818,
1280,1490,-0.029862,-0.922138,0.999999,0.000119,-0.000672,0.001632,-0.000184,0.001646,-0.000686,-85.467547,0.001654,
1020,1190,0.373252,-1.878449,0.999998,0.000184,-0.001946,0.003430,0.000370,0.003455,-0.001971,86.084274,0.003467,
1180,780,0.031893,-3.835875,0.999998,0.000190,-0.000762,0.000913,-0.000720,0.001180,-0.001029,-69.658181,0.001284,
1030,1830,0.075112,-0.349162,0.999998,0.000174,-0.000482,0.001870,-0.000068,0.001872,-0.000483,-88.355724,0.001943,
1850,460,-0.632800,-3.896747,0.999998,0.000160,-0.001260,0.002558,0.000014,0.002558,-0.001260,89.782651,0.002558,
1650,600,-0.468269,-3.693604,0.999998,0.000185,-0.001425,0.002669,0.000071,0.002670,-0.001427,89.009259,0.002673,
1280,1250,-0.040214,-1.219720,0.999999,0.000139,-0.000916,0.000767,-0.000632,0.000978,-0.001127,-71.545439,0.001224,
1560,840,-0.548159,-3.074351,0.999998,0.000183,-0.001652,0.003131,-0.000245,0.003144,-0.001664,-87.076223,0.003146,
650,1410,0.726260,-1.589039,0.999998,0.000185,-0.001263,0.002587,-0.000058,0.002587,-0.001264,-89.141097,0.002588,
690,1930,0.192258,-0.239091,0.999998,0.000172,-0.000921,0.002421,-0.000593,0.002523,-0.001024,-80.225606,0.002538,
1400,750,-0.160610,-3.618025,0.999998,0.000172,-0.001595,0.002506,0.000888,0.002690,-0.001779,78.298153,0.002736,
1430,1240,-0.271167,-1.679190,0.999997,0.000193,-0.001974,0.003070,-0.000642,0.003150,-0.002055,-82.860848,0.003199,
1880,1330,-0.879577,-1.840636,0.999998,0.000156,-0.001225,0.002443,0.000055,0.002444,-0.001226,89.134512,0.002444,
1730,1490,-0.554113,-1.319445,0.999997,0.000196,-0.001332,0.002626,-0.000049,0.002627,-0.001333,-89.289460,0.002627,
990,770,0.304962,-3.409131,0.999997,0.000191,-0.001879,0.003074,-0.000408,0.003108,-0.001912,-85.325964,0.003135,
1620,1870,-0.153580,-0.317875,0.999998,0.000152,-0.000627,0.002122,0.000286,0.002152,-0.000656,84.113333,0.002206,
610,1190,0.963366,-2.157484,0.999999,0.000143,-0.001119,0.002350,-0.000127,0.002355,-0.001124,-87.913739,0.002356,
1810,1060,-0.974377,-2.444490,0.999998,0.000154,-0.001085,0.002316,0.000055,0.002317,-0.001086,89.069535,0.002319,
660,1910,0.253693,-0.302829,0.999998,0.000212,-0.000900,0.002553,-0.000540,0.002635,-0.000983,-81.323224,0.002663,
1350,720,-0.086155,-3.790037,0.999998,0.000166,-0.001136,0.001865,0.000894,0.002111,-0.001382,74.607736,0.002144,
1610,910,-0.704179,-2.838586,0.999998,0.000175,-0.001254,0.002814,-0.000366,0.002846,-0.001286,-84.903450,0.002851,
950,510,0.240258,-4.046018,0.999998,0.000168,-0.001187,0.002367,-0.000268,0.002387,-0.001208,-85.711714,0.002387,
1630,1680,-0.304683,-0.759473,0.999998,0.000220,-0.001050,0.002410,-0.000009,0.002410,-0.001050,-89.854921,0.002417,
1860,1190,-0.970036,-2.159756,0.999999,0.000133,-0.001101,0.002281,0.000120,0.002285,-0.001105,87.963027,0.002286,
770,800,0.706342,-3.112181,0.999998,0.000154,-0.001404,0.002733,0.000269,0.002751,-0.001422,86.299195,0.002751,
870,130,0.090953,-4.839680,0.999998,0.000156,-0.000465,0.001939,0.000323,0.001982,-0.000507,82.473487,0.002059,
1810,1730,-0.476366,-0.769925,0.999998,0.000186,-0.001247,0.002540,0.000003,0.002540,-0.001247,89.959849,0.002540,
1850,1790,-0.466023,-0.657167,0.999997,0.000201,-0.001217,0.002516,0.000025,0.002516,-0.001217,89.611044,0.002516,
1470,380,-0.154615,-4.368453,0.999998,0.000169,-0.000828,0.002121,0.000106,0.002125,-0.000832,87.952059,0.002142,
1900,1290,-0.936375,-1.950851,0.999998,0.000000,-0.001189,0.002373,0.000082,0.002375,-0.001191,88.674222,0.002375,
760,1550,0.475959,-1.139423,0.999997,0.000192,-0.001270,0.002550,0.000069,0.002551,-0.001271,88.969710,0.002551,
780,560,0.486319,-3.773442,0.999998,0.000184,-0.001374,0.002639,-0.000054,0.002640,-0.001375,-89.230097,0.002641,
610,260,0.466337,-4.394903,0.999998,0.000193,-0.001245,0.002517,0.000026,0.002517,-0.001245,89.597572,0.002517,
1130,1800,0.040027,-0.384645,0.999998,0.000163,-0.000442,0.001757,0.000004,0.001757,-0.000442,89.889553,0.001828,
1390,410,-0.098729,-4.351115,0.999998,0.000145,-0.000747,0.001969,0.000160,0.001978,-0.000756,86.633721,0.001997,
1640,710,-0.541974,-3.397878,0.999997,0.000311,-0.001556,0.002842,-0.000038,0.002843,-0.001556,-89.500864,0.002847,
1400,1610,-0.113838,-0.767035,0.999998,0.000148,-0.000829,0.001996,-0.000220,0.002013,-0.000846,-85.575181,0.002021,
1550,1540,-0.283882,-1.036243,0.999999,0.000157,-0.001213,0.002462,-0.000224,0.002476,-0.001226,-86.529124,0.002476,
1480,400,-0.169604,-4.319563,0.999998,0.000167,-0.000912,0.002170,0.000168,0.002179,-0.000922,86.883582,0.002188,
1180,760,0.029331,-3.852479,0.999998,0.000166,-0.000695,0.000938,-0.000671,0.001179,-0.000935,-70.291623,0.001244,
1040,100,0.025318,-4.911571,0.999999,0.000144,-0.000204,0.001650,0.000134,0.001660,-0.000213,85.880451,0.001806,
1640,1940,-0.094725,-0.176292,0.999999,0.000144,-0.000361,0.002024,0.000442,0.002103,-0.000440,79.834884,0.002219,
870,1940,0.076602,-0.170800,0.999999,0.000143,-0.000414,0.001916,-0.000346,0.001966,-0.000464,-81.725312,0.002055,
1290,1360,-0.032884,-1.122741,0.999999,0.000145,-0.000681,0.001318,-0.000514,0.001443,-0.000805,-76.400048,0.001446,
690,1910,0.224150,-0.284495,0.999998,0.000182,-0.001025,0.002453,-0.000464,0.002514,-0.001086,-82.534851,0.002522,
650,1390,0.742169,-1.641213,0.999998,0.000172,-0.001263,0.002586,-0.000089,0.002589,-0.001265,-88.671930,0.002589,
1560,820,-0.523077,-3.135438,0.999997,0.000202,-0.001727,0.003100,-0.000183,0.003107,-0.001734,-87.836350,0.003114,
770,240,0.264777,-4.567126,0.999998,0.000154,-0.000984,0.002390,0.000251,0.002409,-0.001003,85.771362,0.002420,
1870,1330,-0.868187,-1.833810,0.999998,0.000150,-0.001223,0.002443,0.000052,0.002444,-0.001224,89.189592,0.002444,
1740,280,-0.352048,-4.438952,0.999997,0.000180,-0.001121,0.002504,-0.000096,0.002507,-0.001124,-88.491901,0.002511,
820,1760,0.263196,-0.575436,0.999998,0.000164,-0.000935,0.002382,-0.000101,0.002385,-0.000938,-88.249946,0.002403,
740,460,0.471725,-3.997735,0.999998,0.000158,-0.001262,0.002536,-0.000058,0.002537,-0.001263,-89.132070,0.002537,
1770,1830,-0.328584,-0.485612,0.999997,0.000206,-0.001154,0.002535,0.000200,0.002546,-0.001165,86.907262,0.002549,
1160,1290,0.045228,-1.227305,0.999998,0.000152,-0.000868,0.001230,0.000862,0.001539,-0.001177,70.302102,0.001609,
1060,1040,0.511876,-2.434148,0.999995,0.000000,-0.002681,0.006855,0.000415,0.006873,-0.002699,87.513709,0.006925,
1390,2000,-0.008285,-0.054738,0.999999,0.000145,-0.000056,0.001552,0.000098,0.001558,-0.000062,86.539787,0.001765,
1650,580,-0.454405,-3.746741,0.999997,0.000184,-0.001411,0.002669,0.000093,0.002671,-0.001413,88.699925,0.002673,
1340,560,-0.073738,-4.091675,0.999999,0.000130,-0.000795,0.001818,0.000341,0.001862,-0.000838,82.693823,0.001865,
1080,1480,0.111533,-1.011447,0.999999,0.000126,-0.000936,0.001948,0.000422,0.002009,-0.000997,81.836707,0.002009,
570,1620,0.665513,-1.114723,0.999812,0.001597,-0.002787,0.002143,0.000928,0.002312,-0.002956,79.683973,0.003109,
590,520,0.705503,-3.725988,0.999998,0.000171,-0.001364,0.002568,-0.000010,0.002569,-0.001364,-89.858019,0.002570,
1810,1040,-0.978761,-2.491298,0.999998,0.000162,-0.001078,0.002331,0.000048,0.002331,-0.001079,89.190556,0.002333,
1230,1490,0.001770,-0.911915,0.999998,0.000153,-0.000624,0.001581,0.000001,0.001581,-0.000624,89.972622,0.001593,
1060,270,0.076006,-4.614775,0.999998,0.000171,-0.000521,0.001859,0.000015,0.001859,-0.000521,89.646610,0.001918,
870,110,0.073915,-4.879955,0.999999,0.000140,-0.000400,0.001916,0.000359,0.001970,-0.000454,81.393159,0.002064,
1290,290,-0.025653,-4.599157,0.999999,0.000136,-0.000403,0.001765,-0.000015,0.001765,-0.000403,-89.612872,0.001850,
1900,1280,-0.945434,-1.975349,0.999998,0.000000,-0.001164,0.002390,0.000091,0.002392,-0.001166,88.539196,0.002392,
770,780,0.685183,-3.166672,0.999998,0.000154,-0.001409,0.002742,0.000251,0.002757,-0.001424,86.558170,0.002758,
1460,1350,-0.237194,-1.418841,0.999997,0.000218,-0.001644,0.002730,-0.000590,0.002808,-0.001722,-82.452764,0.002832,
610,1170,0.975278,-2.203882,0.999998,0.000147,-0.001083,0.002264,-0.000089,0.002266,-0.001086,-88.470797,0.002267,
900,1880,0.109702,-0.283303,0.999998,0.000167,-0.000526,0.001973,-0.000267,0.002002,-0.000555,-83.963712,0.002067,
1130,1650,0.061121,-0.658952,0.999998,0.000178,-0.000636,0.001850,0.000147,0.001858,-0.000645,86.625093,0.001887,
1430,1790,-0.087096,-0.424386,0.999998,0.000152,-0.000570,0.001898,0.000006,0.001898,-0.000570,89.858948,0.001947,
1880,1090,-1.042364,-2.388245,0.999998,0.000168,-0.001026,0.002071,-0.000028,0.002071,-0.001026,-89.485488,0.002071,
610,240,0.444008,-4.444951,0.999997,0.000237,-0.001225,0.002508,0.000052,0.002509,-0.001226,89.201781,0.002509,
1610,1680,-0.284903,-0.746626,0.999998,0.000181,-0.001025,0.002361,-0.000033,0.002362,-0.001026,-89.445653,0.002368,
660,1890,0.284165,-0.354062,0.999998,0.000184,-0.000999,0.002585,-0.000455,0.002642,-0.001056,-82.874104,0.002660,
1350,700,-0.083250,-3.827181,0.999999,0.000136,-0.001060,0.001816,0.000801,0.002024,-0.001268,75.435582,0.002045,
990,750,0.287758,-3.471465,0.999998,0.000177,-0.001839,0.002997,-0.000457,0.003040,-0.001882,-84.647230,0.003069,
950,490,0.233012,-4.093782,0.999998,0.000161,-0.001150,0.002346,-0.000262,0.002366,-0.001169,-85.738985,0.002366,
870,1660,0.277401,-0.782529,0.999998,0.000153,-0.001056,0.002392,0.000053,0.002393,-0.001057,89.119814,0.002398,
1410,1260,-0.209537,-1.566478,0.999998,0.000179,-0.001845,0.002836,-0.000841,0.002982,-0.001992,-80.118002,0.003038,
1020,670,0.197474,-3.740784,0.999998,0.000155,-0.001425,0.002482,-0.000604,0.002573,-0.001516,-81.405158,0.002587,
680,1570,0.565228,-1.152919,0.999998,0.000180,-0.001314,0.002551,0.000048,0.002551,-0.001315,89.288168,0.002552,
1180,740,0.027550,-3.871033,0.999998,0.000157,-0.000671,0.001068,-0.000598,0.001254,-0.000857,-72.733695,0.001282,
810,1720,0.303213,-0.678365,0.999998,0.000183,-0.001077,0.002431,-0.000038,0.002431,-0.001077,-89.387356,0.002436,
780,540,0.472593,-3.825073,0.999997,0.000184,-0.001343,0.002596,-0.000059,0.002597,-0.001344,-89.138044,0.002597,
1030,1810,0.083479,-0.388843,0.999998,0.000188,-0.000562,0.001886,-0.000061,0.001887,-0.000563,-88.566650,0.001938,
1640,1920,-0.116037,-0.218847,0.999998,0.000158,-0.000461,0.002060,0.000403,0.002123,-0.000524,81.143929,0.002212,
1810,1750,-0.458856,-0.719851,0.999998,0.000189,-0.001212,0.002530,0.000033,0.002530,-0.001212,89.488593,0.002531,
1850,1770,-0.490745,-0.704772,0.999998,0.000208,-0.001218,0.002471,0.000019,0.002471,-0.001218,89.710583,0.002471,
1560,800,-0.498062,-3.196637,0.999997,0.000191,-0.001755,0.003092,-0.000109,0.003094,-0.001757,-88.709789,0.003104,
1610,890,-0.683644,-2.894196,0.999998,0.000189,-0.001342,0.002868,-0.000363,0.002899,-0.001373,-85.110020,0.002900,
670,1320,0.780624,-1.807079,0.999999,0.000137,-0.001276,0.002579,-0.000164,0.002586,-0.001283,-87.563684,0.002586,
1860,1330,-0.854757,-1.824872,0.999999,0.000128,-0.001235,0.002448,0.000067,0.002449,-0.001236,88.962469,0.002449,
1480,420,-0.175562,-4.276544,0.999998,0.000159,-0.000950,0.002183,0.000188,0.002194,-0.000961,86.584472,0.002200,
890,1380,0.404500,-1.481920,0.999997,0.000181,-0.001602,0.002845,0.000153,0.002851,-0.001607,88.029318,0.002858,
1100,1530,0.091197,-0.898594,0.999998,0.000159,-0.000856,0.001917,0.000339,0.001958,-0.000897,83.121282,0.001960,
690,1890,0.254169,-0.337551,0.999998,0.000198,-0.001081,0.002513,-0.000414,0.002560,-0.001128,-83.512977,0.002566,
650,1370,0.760296,-1.693155,0.999998,0.000181,-0.001275,0.002524,-0.000104,0.002527,-0.001278,-88.437943,0.002527,
1470,360,-0.147085,-4.411229,0.999998,0.000149,-0.000759,0.002071,0.000058,0.002072,-0.000760,88.833265,0.002097,
1160,1310,0.042988,-1.201632,0.999999,0.000135,-0.000810,0.001263,0.000804,0.001538,-0.001085,71.110399,0.001581,
1060,1030,0.513300,-2.502143,0.999994,0.000000,-0.002672,0.006962,0.000062,0.006963,-0.002672,89.628430,0.007025,
1390,390,-0.095094,-4.390428,0.999998,0.000140,-0.000686,0.001936,0.000144,0.001944,-0.000694,86.876110,0.001970,
630,360,0.534463,-4.162493,0.999998,0.000183,-0.001245,0.002516,-0.000003,0.002516,-0.001245,-89.947542,0.002516,
740,440,0.457791,-4.049371,0.999998,0.000164,-0.001247,0.002512,-0.000060,0.002513,-0.001248,-89.091469,0.002513,
820,1740,0.278972,-0.625924,0.999998,0.000173,-0.000993,0.002365,-0.000074,0.002367,-0.000995,-88.730100,0.002377,
1740,240,-0.310966,-4.541077,0.999998,0.000176,-0.001059,0.002473,-0.000212,0.002486,-0.001072,-86.575738,0.002493,
1560,1530,-0.302579,-1.071309,0.999998,0.000164,-0.001263,0.002527,-0.000207,0.002538,-0.001274,-86.889207,0.002538,
610,1150,0.985914,-2.247574,0.999999,0.000140,-0.001064,0.002252,-0.000100,0.002255,-0.001067,-88.270553,0.002256,
810,820,0.668402,-3.075702,0.999999,0.000153,-0.001445,0.002820,0.000304,0.002841,-0.001467,85.941082,0.002842,
910,1940,0.063182,-0.165975,0.999999,0.000149,-0.000268,0.001864,-0.000311,0.001908,-0.000313,-81.860004,0.002047,
870,330,0.240641,-4.407443,0.999998,0.000149,-0.000958,0.002325,0.000015,0.002325,-0.000958,89.739044,0.002337,
770,840,0.743737,-3.005436,0.999998,0.000152,-0.001335,0.002704,0.000299,0.002726,-0.001357,85.783420,0.002726,
1340,540,-0.073615,-4.128052,0.999999,0.000131,-0.000764,0.001848,0.000284,0.001879,-0.000795,83.876009,0.001886,
1360,1730,-0.066206,-0.518330,0.999998,0.000171,-0.000542,0.001872,-0.000039,0.001873,-0.000542,-89.081794,0.001927,
1870,1980,-0.181789,-0.181358,0.999998,0.000137,-0.001090,0.002959,0.000752,0.003094,-0.001225,79.811497,0.003116,
1900,1380,-0.862376,-1.731995,0.999998,0.000000,-0.001238,0.002484,0.000006,0.002484,-0.001238,89.908392,0.002484,
1230,1470,0.000677,-0.943147,0.999999,0.000140,-0.000607,0.001536,0.000010,0.001536,-0.000607,89.728604,0.001547,
1680,1750,-0.310504,-0.622531,0.999998,0.000184,-0.001100,0.002417,0.000063,0.002419,-0.001101,88.977400,0.002422,
1290,270,-0.023500,-4.635000,0.999999,0.000139,-0.000381,0.001756,-0.000009,0.001756,-0.000382,-89.769095,0.001847,
1110,280,0.053790,-4.606365,0.999998,0.000166,-0.000465,0.001812,-0.000006,0.001812,-0.000465,-89.841339,0.001882,
620,170,0.337099,-4.634297,0.999998,0.000191,-0.001236,0.002621,0.000221,0.002634,-0.001249,86.730880,0.002635,
900,1860,0.124726,-0.321070,0.999998,0.000175,-0.000576,0.002060,-0.000244,0.002082,-0.000599,-84.753917,0.002144,
1430,1770,-0.097092,-0.463242,0.999998,0.000175,-0.000629,0.001948,-0.000008,0.001948,-0.000629,-89.812078,0.001988,
950,470,0.226088,-4.141729,0.999999,0.000153,-0.001061,0.002307,-0.000198,0.002319,-0.001073,-86.653201,0.002321,
1370,1800,-0.056115,-0.391804,0.999998,0.000145,-0.000421,0.001792,0.000039,0.001793,-0.000421,88.994283,0.001875,
1330,720,-0.063642,-3.825411,0.999999,0.000127,-0.000973,0.001637,0.000841,0.001885,-0.001221,73.596700,0.001912,
1720,1750,-0.351699,-0.649612,0.999997,0.000219,-0.001071,0.002470,0.000097,0.002473,-0.001074,88.431299,0.002480,
1610,870,-0.661672,-2.952402,0.999998,0.000191,-0.001411,0.002893,-0.000352,0.002921,-0.001440,-85.353000,0.002921,
1130,770,0.074698,-3.738399,0.999998,0.000186,-0.001153,0.001639,-0.001062,0.001997,-0.001511,-71.372443,0.002083,
1500,1330,-0.317322,-1.538122,0.999997,0.000185,-0.001749,0.002931,-0.000348,0.002957,-0.001775,-85.774486,0.002977,
750,160,0.191897,-4.747522,0.999998,0.000153,-0.000679,0.002310,0.000509,0.002395,-0.000763,80.588456,0.002446,
890,1940,0.069562,-0.167581,0.999999,0.000133,-0.000354,0.001891,-0.000309,0.001933,-0.000396,-82.303663,0.002042,
1030,1770,0.098198,-0.464718,0.999998,0.000161,-0.000614,0.001973,0.000002,0.001973,-0.000614,89.954471,0.002019,
1850,1750,-0.507110,-0.755815,0.999998,0.000201,-0.001233,0.002507,0.000010,0.002507,-0.001233,89.845389,0.002507,
1810,1770,-0.441308,-0.667566,0.999998,0.000192,-0.001195,0.002532,0.000072,0.002534,-0.001196,88.899062,0.002535,
780,520,0.459270,-3.877248,0.999998,0.000172,-0.001316,0.002578,-0.000072,0.002579,-0.001317,-88.937437,0.002579,
770,820,0.725017,-3.057914,0.999998,0.000163,-0.001371,0.002688,0.000266,0.002705,-0.001388,86.271000,0.002705,
1440,830,-0.309970,-3.290802,0.999998,0.000159,-0.001968,0.003246,0.000509,0.003295,-0.002017,84.473891,0.003323,
690,1320,0.753364,-1.796053,0.999999,0.000177,-0.001338,0.002605,-0.000186,0.002614,-0.001346,-87.298551,0.002614,
650,1350,0.779463,-1.741497,0.999998,0.000166,-0.001289,0.002541,-0.000100,0.002543,-0.001292,-88.502290,0.002544,
1560,1220,-0.540935,-1.951090,0.999998,0.000184,-0.001680,0.003098,0.000217,0.003108,-0.001690,87.399777,0.003112,
1480,440,-0.182899,-4.232493,0.999998,0.000148,-0.000966,0.002228,0.000199,0.002241,-0.000978,86.445790,0.002247,
610,1130,0.997875,-2.293042,0.999998,0.000159,-0.001068,0.002266,-0.000125,0.002271,-0.001073,-87.855290,0.002272,
640,230,0.394902,-4.501629,0.999998,0.000187,-0.001185,0.002559,0.000134,0.002564,-0.001189,87.951257,0.002566,
1630,340,-0.281211,-4.364278,0.999998,0.000175,-0.000992,0.002428,-0.000036,0.002429,-0.000992,-89.393870,0.002442,
1360,2000,-0.007214,-0.053872,0.999999,0.000137,-0.000061,0.001534,0.000082,0.001538,-0.000065,87.071906,0.001740,
1530,1140,-0.605987,-2.178976,0.999998,0.000188,-0.001426,0.003165,0.000350,0.003191,-0.001453,85.664719,0.003195,
1340,1730,-0.054374,-0.512703,0.999998,0.000177,-0.000550,0.001822,-0.000066,0.001823,-0.000552,-88.397430,0.001870,
950,780,0.389898,-3.317575,0.999997,0.000198,-0.001854,0.003167,-0.000165,0.003172,-0.001859,-88.119972,0.003188,
830,800,0.616953,-3.142334,0.999997,0.000191,-0.001530,0.002874,0.000240,0.002887,-0.001543,86.891702,0.002890,
1180,720,0.027872,-3.895043,0.999999,0.000148,-0.000655,0.001166,-0.000551,0.001320,-0.000809,-74.411443,0.001331,
1530,410,-0.220512,-4.265439,0.999998,0.000180,-0.000969,0.002265,0.000118,0.002269,-0.000973,87.910494,0.002277,
690,1870,0.282555,-0.386108,0.999998,0.000175,-0.001110,0.002514,-0.000347,0.002547,-0.001143,-84.582796,0.002551,
790,820,0.697445,-3.066615,0.999998,0.000185,-0.001425,0.002754,0.000282,0.002773,-0.001444,86.160966,0.002774,
870,1380,0.436672,-1.501243,0.999997,0.000194,-0.001575,0.002833,0.000088,0.002835,-0.001577,88.858219,0.002841,
1160,1610,0.043799,-0.720940,0.999999,0.000133,-0.000669,0.001807,0.000111,0.001812,-0.000674,87.436463,0.001832,
1560,1510,-0.312387,-1.122102,0.999998,0.000181,-0.001296,0.002519,-0.000235,0.002533,-0.001311,-86.489432,0.002534,
1640,1900,-0.134584,-0.259967,0.999998,0.000167,-0.000536,0.002091,0.000421,0.002157,-0.000602,81.114910,0.002226,
1690,280,-0.299758,-4.470897,0.999998,0.000167,-0.001062,0.002409,-0.000117,0.002413,-0.001066,-88.077881,0.002418,
1060,1020,0.508295,-2.573449,0.999995,0.000000,-0.002592,0.007044,-0.000356,0.007058,-0.002605,-87.884316,0.007138,
660,1990,0.096759,-0.099359,0.999998,0.000161,-0.000342,0.002392,-0.000992,0.002714,-0.000663,-72.019358,0.002830,
1410,1240,-0.230733,-1.625084,0.999998,0.000183,-0.001901,0.002974,-0.000806,0.003104,-0.002031,-80.854739,0.003153,
570,600,0.796496,-3.502607,0.999950,0.000827,-0.001782,0.002609,-0.000202,0.002618,-0.001792,-87.373502,0.002677,
1030,1750,0.104531,-0.502475,0.999998,0.000193,-0.000643,0.001955,0.000038,0.001955,-0.000644,89.166941,0.001993,
1060,390,0.105332,-4.382283,0.999999,0.000145,-0.000779,0.001975,-0.000155,0.001984,-0.000788,-86.793305,0.001998,
1390,370,-0.090992,-4.428600,0.999998,0.000146,-0.000646,0.001943,0.000097,0.001946,-0.000649,87.858934,0.001982,
870,90,0.057784,-4.916133,0.999999,0.000139,-0.000299,0.001829,0.000349,0.001885,-0.000355,80.920309,0.002003,
950,450,0.216455,-4.187074,0.999998,0.000163,-0.000973,0.002285,-0.000170,0.002293,-0.000982,-87.017957,0.002301,
1010,180,0.066320,-4.769491,0.999999,0.000149,-0.000338,0.001789,0.000141,0.001799,-0.000347,86.233054,0.001908,
1350,1800,-0.047621,-0.388059,0.999998,0.000171,-0.000422,0.001758,-0.000006,0.001758,-0.000422,-89.853350,0.001835,
1430,1750,-0.101288,-0.501434,0.999998,0.000176,-0.000662,0.001949,-0.000040,0.001950,-0.000663,-89.131218,0.001983,
1690,550,-0.489523,-3.793476,0.999998,0.000188,-0.001342,0.002604,0.000064,0.002605,-0.001343,89.076575,0.002605,
1270,1940,-0.005197,-0.146075,0.999999,0.000134,-0.000159,0.001575,0.000034,0.001575,-0.000159,88.890593,0.001735,
740,420,0.444840,-4.098612,0.999998,0.000181,-0.001241,0.002544,-0.000053,0.002545,-0.001241,-89.195687,0.002545,
1220,850,0.028610,-3.835671,0.999997,0.000000,-0.002552,0.000386,0.000075,0.000388,-0.002554,88.531301,0.002753,
1500,1310,-0.333805,-1.598054,0.999998,0.000164,-0.001811,0.003001,-0.000305,0.003020,-0.001830,-86.383601,0.003043,
820,1720,0.291431,-0.671132,0.999998,0.000177,-0.001041,0.002405,-0.000040,0.002405,-0.001041,-89.334422,0.002412,
1850,1730,-0.526086,-0.804797,0.999998,0.000179,-0.001230,0.002505,-0.000012,0.002505,-0.001230,-89.815327,0.002505,
1770,1290,-0.777772,-1.873967,0.999998,0.000159,-0.001307,0.002642,0.000198,0.002652,-0.001317,87.137101,0.002652,
1450,360,-0.133150,-4.420957,0.999998,0.000179,-0.000739,0.002028,0.000074,0.002030,-0.000741,88.470947,0.002054,
770,1320,0.642448,-1.749352,0.999997,0.000190,-0.001435,0.002750,-0.000170,0.002757,-0.001442,-87.674723,0.002758,
900,1840,0.138220,-0.364175,0.999998,0.000169,-0.000620,0.002098,-0.000202,0.002113,-0.000635,-85.767208,0.002168,
1690,920,-0.811191,-2.792053,0.999998,0.000184,-0.001146,0.002579,-0.000265,0.002598,-0.001165,-85.946938,0.002602,
1660,1750,-0.286950,-0.610341,0.999998,0.000211,-0.001055,0.002398,0.000068,0.002399,-0.001056,88.873843,0.002405,
780,500,0.446311,-3.928859,0.999998,0.000170,-0.001294,0.002558,-0.000083,0.002560,-0.001295,-88.770399,0.002560,
1350,580,-0.083118,-4.047832,0.999998,0.000169,-0.000868,0.001872,0.000432,0.001939,-0.000935,81.246340,0.001939,
1210,1320,0.010245,-1.134603,0.999999,0.000113,-0.000528,0.000900,0.000263,0.000947,-0.000575,79.878508,0.000954,
1820,260,-0.426486,-4.428644,0.999997,0.000199,-0.001193,0.002532,-0.000102,0.002535,-0.001196,-88.437885,0.002536,
990,730,0.275222,-3.530107,0.999997,0.000200,-0.001756,0.002860,-0.000497,0.002913,-0.001809,-83.925261,0.002941,
1340,520,-0.072995,-4.164637,0.999999,0.000122,-0.000734,0.001855,0.000232,0.001876,-0.000754,84.927041,0.001888,
1290,250,-0.021966,-4.669031,0.999999,0.000135,-0.000362,0.001718,-0.000018,0.001718,-0.000362,-89.491492,0.001812,
650,1330,0.795034,-1.794406,0.999998,0.000152,-0.001286,0.002557,-0.000140,0.002562,-0.001291,-87.915728,0.002562,
1110,260,0.049459,-4.642230,0.999999,0.000150,-0.000448,0.001789,-0.000014,0.001789,-0.000448,-89.654152,0.001862,
1740,220,-0.288619,-4.591108,0.999998,0.000184,-0.001044,0.002484,-0.000276,0.002506,-0.001066,-85.549432,0.002515,
950,760,0.370604,-3.378125,0.999997,0.000174,-0.001815,0.003065,-0.000225,0.003075,-0.001826,-87.362821,0.003093,
1610,850,-0.639045,-3.010465,0.999998,0.000186,-0.001467,0.002924,-0.000308,0.002945,-0.001489,-86.004021,0.002945,
1460,130,-0.046651,-4.856736,0.999999,0.000148,-0.000252,0.001736,-0.000163,0.001750,-0.000265,-85.352689,0.001886,
1560,1240,-0.515885,-1.887860,0.999998,0.000190,-0.001721,0.003122,0.000133,0.003126,-0.001725,88.430223,0.003131,
1760,1270,-0.782916,-1.918912,0.999998,0.000163,-0.001305,0.002544,0.000219,0.002556,-0.001317,86.753363,0.002557,
1340,1990,-0.007335,-0.069231,0.999999,0.000144,-0.000088,0.001535,0.000072,0.001538,-0.000091,87.476919,0.001726,
830,280,0.242466,-4.504053,0.999998,0.000207,-0.000850,0.002344,0.000150,0.002351,-0.000857,87.321615,0.002379,
1480,460,-0.188475,-4.187343,0.999998,0.000149,-0.000988,0.002208,0.000225,0.002224,-0.001004,85.988086,0.002227,
1080,1460,0.114396,-1.050429,0.999999,0.000134,-0.000985,0.002049,0.000498,0.002129,-0.001065,80.908587,0.002129,
1180,700,0.030015,-3.919215,0.999999,0.000145,-0.000653,0.001260,-0.000489,0.001377,-0.000770,-76.469990,0.001381,
1230,1450,0.000038,-0.972491,0.999999,0.000118,-0.000595,0.001485,0.000000,0.001485,-0.000595,-89.987531,0.001494,
610,1110,1.008301,-2.338017,0.999998,0.000169,-0.001064,0.002208,-0.000080,0.002210,-0.001066,-88.608356,0.002210,
1880,950,-1.039018,-2.683493,0.999998,0.000159,-0.001018,0.002138,-0.000028,0.002138,-0.001018,-89.491200,0.002139,
640,210,0.369764,-4.552887,0.999998,0.000192,-0.001162,0.002565,0.000183,0.002574,-0.001171,87.199905,0.002577,
690,1850,0.308426,-0.436979,0.999998,0.000179,-0.001118,0.002518,-0.000274,0.002538,-0.001139,-85.707413,0.002543,
950,430,0.210990,-4.231789,0.999998,0.000174,-0.000935,0.002238,-0.000161,0.002246,-0.000943,-87.101291,0.002256,
1370,1720,-0.072724,-0.539591,0.999998,0.000185,-0.000537,0.001891,-0.000037,0.001892,-0.000538,-89.128724,0.001949,
640,610,0.711152,-3.533366,0.999997,0.000183,-0.001291,0.002573,0.000026,0.002573,-0.001291,89.611340,0.002573,
1330,1800,-0.039770,-0.383836,0.999999,0.000139,-0.000460,0.001753,-0.000014,0.001753,-0.000460,-89.643498,0.001818,
860,1980,0.048823,-0.096986,0.999998,0.000148,-0.000222,0.001831,-0.000403,0.001908,-0.000298,-79.276976,0.002052,
670,900,0.916346,-2.820843,0.999998,0.000140,-0.001125,0.002397,0.000162,0.002404,-0.001133,87.372760,0.002406,
1530,390,-0.211042,-4.310963,0.999998,0.000175,-0.000905,0.002228,0.000090,0.002231,-0.000908,88.362679,0.002243,
1390,350,-0.087347,-4.467480,0.999998,0.000149,-0.000613,0.001915,0.000049,0.001916,-0.000614,88.880473,0.001956,
660,1970,0.141376,-0.150535,0.999998,0.000158,-0.000537,0.002494,-0.000923,0.002753,-0.000797,-74.325829,0.002834,
1040,950,0.504028,-2.906925,0.999996,0.000234,-0.001732,0.004155,-0.000942,0.004302,-0.001879,-81.131897,0.004314,
740,400,0.429510,-4.151216,0.999998,0.000194,-0.001237,0.002542,-0.000043,0.002542,-0.001237,-89.341931,0.002543,
1060,1010,0.513010,-2.645616,0.999996,0.000000,-0.002538,0.006916,-0.000665,0.006962,-0.002584,-85.998255,0.007039,
1640,1880,-0.157049,-0.302931,0.999998,0.000165,-0.000621,0.002146,0.000354,0.002191,-0.000666,82.832112,0.002246,
1220,1610,0.007777,-0.710643,0.999998,0.000173,-0.000581,0.001760,0.000038,0.001761,-0.000582,89.075929,0.001794,
1580,1410,-0.393932,-1.404980,0.999998,0.000190,-0.001530,0.002758,-0.000170,0.002764,-0.001537,-87.738301,0.002770,
1850,1710,-0.542728,-0.855496,0.999998,0.000166,-0.001214,0.002485,-0.000043,0.002486,-0.001215,-89.340594,0.002486,
1490,1940,-0.046301,-0.158647,0.999998,0.000202,-0.000271,0.001779,0.000193,0.001797,-0.000289,84.659720,0.001929,
1430,1730,-0.109930,-0.540519,0.999998,0.000173,-0.000692,0.001977,-0.000044,0.001978,-0.000692,-89.049757,0.002008,
1870,1400,-0.807542,-1.657606,0.999998,0.000167,-0.001274,0.002508,0.000043,0.002508,-0.001275,89.350707,0.002508,
990,710,0.262245,-3.584690,0.999998,0.000195,-0.001664,0.002800,-0.000492,0.002854,-0.001717,-83.784745,0.002873,
1390,1680,-0.092842,-0.622665,0.999998,0.000153,-0.000661,0.001950,-0.000096,0.001954,-0.000664,-87.901718,0.001987,
820,1700,0.305361,-0.720344,0.999998,0.000156,-0.001072,0.002394,-0.000007,0.002394,-0.001072,-89.888909,0.002398,
1690,570,-0.501288,-3.741370,0.999998,0.000181,-0.001371,0.002646,0.000071,0.002647,-0.001372,88.985229,0.002648,
1350,460,-0.076158,-4.273531,0.999999,0.000132,-0.000688,0.001860,0.000194,0.001874,-0.000702,85.676647,0.001894,
610,780,0.895126,-3.084679,0.999999,0.000146,-0.001206,0.002425,0.000112,0.002428,-0.001210,88.235205,0.002428,
900,1820,0.153431,-0.405942,0.999998,0.000154,-0.000641,0.002086,-0.000172,0.002097,-0.000652,-86.408123,0.002146,
1820,240,-0.404354,-4.479049,0.999997,0.000204,-0.001191,0.002552,-0.000139,0.002557,-0.001196,-87.877260,0.002559,
1510,1400,-0.292618,-1.353845,0.999998,0.000195,-0.001528,0.002695,-0.000374,0.002728,-0.001561,-84.978825,0.002738,
1350,1240,-0.125746,-1.433497,0.999998,0.000152,-0.001462,0.001948,-0.001130,0.002289,-0.001802,-73.227013,0.002411,
650,1310,0.813949,-1.845670,0.999999,0.000143,-0.001264,0.002509,-0.000136,0.002514,-0.001269,-87.934243,0.002514,
810,280,0.260375,-4.493472,0.999998,0.000194,-0.000987,0.002368,0.000140,0.002374,-0.000993,87.621570,0.002384,
1480,900,-0.503621,-2.963795,0.999997,0.000188,-0.001703,0.003445,-0.000120,0.003448,-0.001706,-88.670754,0.003448,
1080,1350,0.121972,-1.282293,0.999998,0.000146,-0.001293,0.002169,0.000822,0.002355,-0.001478,77.297736,0.002380,
610,1090,1.014185,-2.381413,0.999998,0.000182,-0.001030,0.002189,-0.000033,0.002190,-0.001030,-89.416553,0.002191,
1620,1290,-0.560169,-1.785524,0.999998,0.000163,-0.001590,0.002910,0.000148,0.002915,-0.001595,88.117857,0.002920,
1470,400,-0.160485,-4.327570,0.999998,0.000161,-0.000881,0.002138,0.000158,0.002146,-0.000890,87.008589,0.002156,
1190,2000,0.001930,-0.053819,0.999999,0.000118,-0.000062,0.001495,-0.000015,0.001495,-0.000062,-89.456192,0.001692,
1290,230,-0.020049,-4.703436,0.999999,0.000143,-0.000327,0.001720,-0.000019,0.001720,-0.000327,-89.456549,0.001827,
1340,500,-0.072026,-4.202465,0.999999,0.000131,-0.000712,0.001870,0.000208,0.001887,-0.000728,85.420764,0.001903,
1530,460,-0.240680,-4.150962,0.999998,0.000168,-0.001135,0.002356,0.000197,0.002367,-0.001147,86.774004,0.002367,
760,350,0.368738,-4.290390,0.999997,0.000192,-0.001099,0.002504,0.000040,0.002505,-0.001100,89.359913,0.002511,
1560,1260,-0.493102,-1.826315,0.999998,0.000188,-0.001750,0.003108,0.000088,0.003110,-0.001751,88.957791,0.003118,
1770,1270,-0.795939,-1.924206,0.999998,0.000154,-0.001282,0.002530,0.000216,0.002542,-0.001294,86.774072,0.002542,
950,410,0.204421,-4.276859,0.999998,0.000167,-0.000939,0.002216,-0.000123,0.002221,-0.000944,-87.772366,0.002229,
860,1960,0.065067,-0.136000,0.999998,0.000155,-0.000305,0.001859,-0.000359,0.001917,-0.000363,-80.825858,0.002037,
1610,830,-0.616448,-3.068759,0.999997,0.000188,-0.001528,0.002917,-0.000276,0.002934,-0.001545,-86.454573,0.002936,
660,1950,0.181518,-0.199071,0.999999,0.000147,-0.000706,0.002520,-0.000772,0.002696,-0.000881,-77.218627,0.002749,
1870,1150,-1.004311,-2.254840,0.999998,0.000162,-0.001074,0.002220,0.000066,0.002221,-0.001075,88.852841,0.002222,
1430,1710,-0.113469,-0.581081,0.999998,0.000191,-0.000712,0.001988,-0.000096,0.001992,-0.000715,-87.956452,0.002018,
1180,680,0.027194,-3.944738,0.999999,0.000147,-0.000656,0.001331,-0.000428,0.001419,-0.000744,-78.342226,0.001419,
1800,70,-0.106086,-4.928205,0.999999,0.000166,-0.000352,0.002454,-0.000993,0.002770,-0.000668,-72.355998,0.002891,
1370,1940,-0.021511,-0.148580,0.999998,0.000156,-0.000156,0.001626,0.000116,0.001633,-0.000164,86.281139,0.001799,
1650,1780,-0.253670,-0.532096,0.999998,0.000219,-0.000949,0.002356,0.000158,0.002364,-0.000956,87.268487,0.002378,
1660,1130,-0.779033,-2.254810,0.999998,0.000169,-0.001159,0.002658,0.000285,0.002679,-0.001180,85.748220,0.002685,
1390,330,-0.083406,-4.504871,0.999998,0.000164,-0.000574,0.001905,0.000030,0.001905,-0.000575,89.307105,0.001954,
1690,1010,-0.848753,-2.564152,0.999998,0.000165,-0.001030,0.002499,-0.000068,0.002500,-0.001032,-88.900760,0.002513,
1530,370,-0.204472,-4.354527,0.999998,0.000160,-0.000853,0.002168,0.000060,0.002169,-0.000854,88.865321,0.002186,
1090,1500,0.102081,-0.966686,0.999998,0.000138,-0.000906,0.001935,0.000404,0.001991,-0.000962,82.056302,0.001992,
690,1830,0.332459,-0.487810,0.999998,0.000173,-0.001152,0.002497,-0.000218,0.002510,-0.001165,-86.598280,0.002512,
1670,1420,-0.522777,-1.457517,0.999997,0.000199,-0.001461,0.002698,-0.000007,0.002698,-0.001461,-89.909171,0.002701,
910,1200,0.556150,-2.006122,0.999998,0.000167,-0.001667,0.003124,-0.000273,0.003140,-0.001683,-86.744310,0.003142,
900,1800,0.166726,-0.446276,0.999998,0.000152,-0.000697,0.002112,-0.000131,0.002118,-0.000703,-87.339011,0.002158,
1580,1390,-0.408760,-1.460593,0.999998,0.000167,-0.001583,0.002824,-0.000140,0.002829,-0.001588,-88.181238,0.002836,
1150,720,0.050553,-3.854113,0.999999,0.000152,-0.000840,0.001426,-0.000767,0.001662,-0.001075,-72.944577,0.001685,
1640,1860,-0.174515,-0.345034,0.999998,0.000179,-0.000674,0.002216,0.000310,0.002249,-0.000707,83.945738,0.002300,
820,1680,0.319158,-0.767304,0.999998,0.000164,-0.001095,0.002412,0.000021,0.002412,-0.001095,89.657772,0.002416,
590,780,0.917359,-3.070077,0.999998,0.000161,-0.001192,0.002369,0.000067,0.002371,-0.001194,88.929786,0.002371,
1670,1580,-0.413960,-1.036451,0.999998,0.000179,-0.001258,0.002504,-0.000096,0.002506,-0.001261,-88.542356,0.002506,
1860,180,-0.373241,-4.587895,0.999997,0.000193,-0.001232,0.002580,-0.000147,0.002586,-0.001238,-87.798569,0.002587,
1820,220,-0.379091,-4.530878,0.999997,0.000192,-0.001186,0.002563,-0.000194,0.002573,-0.001196,-87.044189,0.002575,
1310,1800,-0.029511,-0.380127,0.999998,0.000141,-0.000418,0.001733,0.000007,0.001733,-0.000418,89.815627,0.001809,
1350,1220,-0.155599,-1.470971,0.999998,0.000175,-0.001429,0.001937,-0.001110,0.002270,-0.001762,-73.296390,0.002383,
650,1290,0.830952,-1.895019,0.999999,0.000142,-0.001247,0.002501,-0.000151,0.002507,-0.001253,-87.700918,0.002507,
1530,1120,-0.632208,-2.241253,0.999998,0.000191,-0.001305,0.003119,0.000332,0.003144,-0.001329,85.733290,0.003156,
1510,1380,-0.303389,-1.409008,0.999997,0.000186,-0.001611,0.002796,-0.000375,0.002828,-0.001643,-85.177350,0.002840,
1060,1000,0.516321,-2.717477,0.999995,0.000000,-0.002575,0.006794,-0.000927,0.006885,-0.002665,-84.400744,0.006943,
740,380,0.416342,-4.201387,0.999998,0.000195,-0.001208,0.002497,0.000000,0.002497,-0.001208,-89.995945,0.002498,
1020,1330,0.218999,-1.444460,0.999998,0.000197,-0.001658,0.002727,0.000624,0.002814,-0.001745,82.053333,0.002841,
1630,50,-0.029782,-4.986626,0.999999,0.000135,-0.000086,0.001758,-0.000427,0.001851,-0.000180,-77.578729,0.002042,
610,1070,1.018750,-2.425952,0.999998,0.000175,-0.001004,0.002186,-0.000045,0.002186,-0.001005,-89.196500,0.002189,
1620,1270,-0.580598,-1.844384,0.999997,0.000208,-0.001559,0.002924,0.000201,0.002933,-0.001568,87.435170,0.002936,
1010,320,0.121915,-4.500544,0.999998,0.000180,-0.000643,0.002029,0.000000,0.002029,-0.000643,89.998950,0.002074,
1040,2000,0.010918,-0.056176,0.999999,0.000106,-0.000084,0.001561,-0.000121,0.001569,-0.000093,-85.805491,0.001761,
1560,1280,-0.469980,-1.764738,0.999997,0.000182,-0.001757,0.003048,0.000020,0.003048,-0.001758,89.755994,0.003060,
860,1940,0.080606,-0.171640,0.999998,0.000155,-0.000391,0.001936,-0.000371,0.001994,-0.000449,-81.166771,0.002092,
1480,880,-0.468431,-3.032957,0.999998,0.000176,-0.001795,0.003415,-0.000053,0.003415,-0.001796,-89.414470,0.003417,
1610,810,-0.592752,-3.127825,0.999997,0.000187,-0.001577,0.002960,-0.000236,0.002972,-0.001589,-87.025507,0.002975,
950,390,0.197142,-4.320314,0.999998,0.000168,-0.000928,0.002214,-0.000118,0.002218,-0.000933,-87.855081,0.002228,
670,600,0.663920,-3.581835,0.999998,0.000190,-0.001309,0.002597,0.000037,0.002597,-0.001309,89.450282,0.002597,
660,2010,0.055169,-0.054187,0.999998,0.000156,-0.000182,0.002179,-0.000947,0.002512,-0.000515,-70.628641,0.002653,
640,110,0.205828,-4.817769,0.999998,0.000174,-0.000975,0.002620,0.000555,0.002704,-0.001059,81.422501,0.002725,
990,690,0.251589,-3.641655,0.999998,0.000174,-0.001588,0.002722,-0.000504,0.002780,-0.001646,-83.421484,0.002796,
1250,1940,-0.002292,-0.145284,0.999999,0.000147,-0.000144,0.001559,-0.000016,0.001559,-0.000145,-89.465230,0.001722,
1430,1690,-0.120099,-0.621080,0.999998,0.000182,-0.000746,0.002060,-0.000083,0.002062,-0.000748,-88.300529,0.002088,
1670,1520,-0.451850,-1.190455,0.999997,0.000196,-0.001311,0.002621,-0.000093,0.002623,-0.001313,-88.646018,0.002623,
890,1200,0.588877,-2.021927,0.999997,0.000198,-0.001545,0.003050,-0.000294,0.003069,-0.001564,-86.356662,0.003069,
1560,1390,-0.375434,-1.440056,0.999998,0.000181,-0.001556,0.002809,-0.000196,0.002818,-0.001564,-87.438291,0.002823,
1660,1410,-0.516102,-1.475227,0.999996,0.000208,-0.001492,0.002716,-0.000006,0.002716,-0.001492,-89.918023,0.002720,
1720,1130,-0.847151,-2.263865,0.999998,0.000155,-0.001151,0.002472,0.000197,0.002483,-0.001162,86.896621,0.002485,
1530,350,-0.195190,-4.398057,0.999998,0.000188,-0.000829,0.002224,0.000000,0.002224,-0.000829,-89.992135,0.002248,
1390,310,-0.076581,-4.542202,0.999998,0.000176,-0.000530,0.001891,0.000021,0.001891,-0.000530,89.514035,0.001951,
1090,1480,0.103521,-1.003206,0.999999,0.000130,-0.000933,0.001912,0.000415,0.001971,-0.000993,81.870359,0.001971,
1860,200,-0.400910,-4.538415,0.999997,0.000185,-0.001229,0.002525,-0.000101,0.002527,-0.001232,-88.462753,0.002528,
1370,1680,-0.079780,-0.615931,0.999999,0.000132,-0.000591,0.001912,-0.000067,0.001913,-0.000593,-88.459470,0.001959,
1870,1450,-0.766904,-1.530877,0.999998,0.000189,-0.001250,0.002562,-0.000004,0.002562,-0.001250,-89.939256,0.002562,
580,780,0.929083,-3.062988,0.999998,0.000148,-0.001263,0.002348,0.000020,0.002348,-0.001263,89.688711,0.002351,
1370,1420,-0.101994,-1.117393,0.999998,0.000147,-0.001012,0.001963,-0.000600,0.002080,-0.001128,-79.018814,0.002082,
1340,480,-0.070920,-4.239187,0.999999,0.000153,-0.000681,0.001869,0.000179,0.001881,-0.000693,85.999148,0.001903,
1690,990,-0.845252,-2.614628,0.999998,0.000182,-0.001049,0.002515,-0.000081,0.002517,-0.001051,-88.699246,0.002528,
650,1270,0.849591,-1.944335,0.999999,0.000150,-0.001239,0.002509,-0.000178,0.002518,-0.001247,-87.292291,0.002518,
1770,1250,-0.812452,-1.974045,0.999998,0.000155,-0.001282,0.002537,0.000228,0.002550,-0.001296,86.593615,0.002550,
900,1780,0.179032,-0.490319,0.999998,0.000141,-0.000733,0.002188,-0.000095,0.002191,-0.000737,-88.142356,0.002230,
1290,210,-0.018658,-4.737823,0.999998,0.000178,-0.000277,0.001703,-0.000034,0.001704,-0.000277,-89.012537,0.001828,
1090,460,0.092820,-4.260878,0.999999,0.000154,-0.000786,0.001925,-0.000231,0.001944,-0.000805,-85.161587,0.001954,
890,1660,0.257297,-0.768776,0.999999,0.000155,-0.001043,0.002353,0.000093,0.002356,-0.001045,88.436338,0.002361,
1530,520,-0.262111,-4.008762,0.999998,0.000148,-0.001201,0.002409,0.000239,0.002425,-0.001217,86.234766,0.002425,
1600,1290,-0.528058,-1.770725,0.999997,0.000194,-0.001664,0.002962,0.000120,0.002965,-0.001667,88.515147,0.002973,
1320,1990,-0.005353,-0.068510,0.999998,0.000158,-0.000089,0.001532,0.000055,0.001534,-0.000091,88.069188,0.001721,
1820,200,-0.352306,-4.583232,0.999998,0.000187,-0.001143,0.002590,-0.000222,0.002603,-0.001156,-86.607149,0.002608,
610,1050,1.021977,-2.470015,0.999998,0.000172,-0.001019,0.002203,-0.000053,0.002204,-0.001020,-89.066108,0.002206,
740,360,0.399559,-4.252016,0.999998,0.000180,-0.001171,0.002505,0.000033,0.002506,-0.001172,89.491644,0.002507,
1560,1720,-0.210232,-0.621991,0.999998,0.000167,-0.000906,0.002253,-0.000014,0.002253,-0.000906,-89.747397,0.002267,
1660,70,-0.054563,-4.948317,0.999998,0.000182,-0.000279,0.001891,-0.000498,0.002000,-0.000388,-77.679575,0.002121,
820,1660,0.333314,-0.817333,0.999998,0.000160,-0.001132,0.002468,0.000056,0.002469,-0.001133,89.103901,0.002472,
1150,320,0.039010,-4.544285,0.999998,0.000166,-0.000519,0.001822,-0.000021,0.001822,-0.000519,-89.479978,0.001877,
1480,860,-0.434095,-3.102484,0.999998,0.000185,-0.001880,0.003406,0.000045,0.003407,-0.001881,89.513691,0.003413,
860,1920,0.100608,-0.211414,0.999998,0.000157,-0.000471,0.001962,-0.000339,0.002008,-0.000517,-82.220424,0.002085,
1060,990,0.506562,-2.778241,0.999995,0.000000,-0.002409,0.006373,-0.001167,0.006526,-0.002561,-82.555727,0.006576,
1600,1250,-0.570986,-1.890756,0.999998,0.000188,-0.001608,0.003007,0.000212,0.003017,-0.001618,87.379647,0.003020,
660,2000,0.076019,-0.075977,0.999998,0.000168,-0.000267,0.002261,-0.000962,0.002586,-0.000592,-71.364629,0.002710,
1640,1840,-0.193233,-0.390471,0.999998,0.000181,-0.000745,0.002230,0.000280,0.002256,-0.000771,84.679558,0.002293,
1230,1940,-0.000190,-0.144381,0.999999,0.000090,-0.000145,0.001567,0.000003,0.001567,-0.000145,89.901356,0.001731,
1610,790,-0.569323,-3.189145,0.999997,0.000189,-0.001606,0.002981,-0.000184,0.002989,-0.001613,-87.709900,0.002992,
1630,600,-0.438577,-3.710635,0.999997,0.000183,-0.001442,0.002663,0.000106,0.002665,-0.001445,88.522061,0.002669,
950,370,0.188457,-4.364805,0.999998,0.000168,-0.000921,0.002161,-0.000089,0.002163,-0.000923,-88.350085,0.002171,
1800,150,-0.256054,-4.727182,0.999998,0.000199,-0.000951,0.002584,-0.000547,0.002667,-0.001034,-81.394667,0.002689,
690,1810,0.355342,-0.538648,0.999997,0.000199,-0.001177,0.002555,-0.000150,0.002561,-0.001183,-87.696770,0.002563,
1180,660,0.030036,-3.972016,0.999999,0.000135,-0.000683,0.001372,-0.000381,0.001440,-0.000751,-79.826068,0.001441,
1870,1130,-1.015550,-2.298790,0.999998,0.000150,-0.001080,0.002216,0.000100,0.002220,-0.001083,88.257607,0.002220,
1400,1190,-0.292537,-1.741797,0.999998,0.000187,-0.001815,0.002994,-0.000830,0.003134,-0.001954,-80.476513,0.003165,
1430,1670,-0.124708,-0.663254,0.999999,0.000168,-0.000761,0.002019,-0.000111,0.002024,-0.000765,-87.726486,0.002044,
1390,290,-0.075060,-4.580139,0.999998,0.000167,-0.000493,0.001885,-0.000001,0.001885,-0.000493,-89.970984,0.001955,
1870,1440,-0.774431,-1.555781,0.999998,0.000199,-0.001249,0.002559,0.000004,0.002559,-0.001249,89.936521,0.002559,
1530,330,-0.183142,-4.444268,0.999998,0.000193,-0.000789,0.002228,-0.000013,0.002228,-0.000790,-89.745524,0.002259,
1860,220,-0.427831,-4.486400,0.999997,0.000176,-0.001223,0.002510,-0.000083,0.002512,-0.001224,-88.729151,0.002512,
750,140,0.165837,-4.791974,0.999998,0.000133,-0.000573,0.002246,0.000547,0.002348,-0.000675,79.399579,0.002418,
1650,1640,-0.353480,-0.871371,0.999998,0.000175,-0.001153,0.002476,-0.000064,0.002477,-0.001154,-88.996551,0.002479,
1050,1110,0.477602,-2.074272,0.999997,0.000234,-0.001696,0.004110,0.001295,0.004385,-0.001971,77.979023,0.004393,
650,1250,0.867297,-1.994432,0.999998,0.000153,-0.001231,0.002449,-0.000192,0.002459,-0.001241,-87.016617,0.002459,
570,780,0.943201,-3.054134,0.999998,0.000159,-0.001309,0.002325,-0.000009,0.002325,-0.001309,-89.854762,0.002332,
1130,750,0.071192,-3.772526,0.999998,0.000189,-0.001069,0.001645,-0.000985,0.001964,-0.001389,-72.016402,0.002020,
1540,1610,-0.244017,-0.861598,0.999999,0.000148,-0.001127,0.002334,-0.000190,0.002345,-0.001137,-86.865360,0.002345,
1690,970,-0.840917,-2.664751,0.999998,0.000165,-0.001093,0.002528,-0.000160,0.002535,-0.001100,-87.480211,0.002542,
570,1440,0.808012,-1.569763,0.999939,0.000937,-0.001934,0.002565,0.000032,0.002565,-0.001934,89.592867,0.002673,
1820,180,-0.325708,-4.634638,0.999998,0.000190,-0.001124,0.002613,-0.000295,0.002636,-0.001148,-85.509143,0.002643,
1680,1490,-0.484982,-1.278676,0.999997,0.000204,-0.001373,0.002613,-0.000059,0.002614,-0.001373,-89.152672,0.002615,
900,1760,0.190799,-0.535036,0.999998,0.000172,-0.000792,0.002186,-0.000076,0.002188,-0.000794,-88.546564,0.002215,
1100,710,0.099447,-3.784395,0.999998,0.000155,-0.001203,0.001978,-0.000867,0.002199,-0.001424,-75.703692,0.002231,
1690,1480,-0.505703,-1.312120,0.999997,0.000206,-0.001397,0.002629,-0.000040,0.002629,-0.001397,-89.429245,0.002631,
1800,1110,-0.949397,-2.327009,0.999998,0.000179,-0.001124,0.002360,0.000154,0.002367,-0.001131,87.468596,0.002368,
750,340,0.373013,-4.308117,0.999998,0.000176,-0.001107,0.002513,0.000043,0.002513,-0.001107,89.321102,0.002519,
610,1030,1.026400,-2.515198,0.999998,0.000179,-0.001051,0.002240,0.000001,0.002240,-0.001051,89.980457,0.002242,
740,340,0.384141,-4.302231,0.999997,0.000188,-0.001153,0.002521,0.000036,0.002521,-0.001153,89.433015,0.002524,
990,670,0.243088,-3.694140,0.999998,0.000158,-0.001552,0.002645,-0.000498,0.002703,-0.001610,-83.328003,0.002720,
820,1640,0.345409,-0.868499,0.999998,0.000163,-0.001183,0.002467,0.000096,0.002469,-0.001186,88.500015,0.002470,
1660,90,-0.075994,-4.909537,0.999999,0.000137,-0.000390,0.001969,-0.000466,0.002057,-0.000478,-79.227762,0.002153,
1480,840,-0.403876,-3.171696,0.999997,0.000203,-0.001921,0.003357,0.000123,0.003360,-0.001924,88.668028,0.003371,
950,440,0.213299,-4.209851,0.999998,0.000173,-0.000949,0.002259,-0.000177,0.002269,-0.000959,-86.854112,0.002278,
860,1900,0.116439,-0.251749,0.999998,0.000150,-0.000562,0.002043,-0.000338,0.002086,-0.000605,-82.733894,0.002147,
1380,1990,-0.010823,-0.070633,0.999999,0.000141,-0.000051,0.001564,0.000105,0.001571,-0.000058,86.301637,0.001782,
1580,1210,-0.587066,-1.997096,0.999998,0.000182,-0.001583,0.003030,0.000293,0.003048,-0.001602,86.378568,0.003049,
1270,1800,-0.015694,-0.378864,0.999998,0.000165,-0.000379,0.001719,0.000004,0.001719,-0.000379,89.883198,0.001806,
1560,1700,-0.220708,-0.667446,0.999998,0.000165,-0.000947,0.002288,-0.000026,0.002288,-0.000947,-89.534054,0.002299,
1470,1940,-0.041383,-0.156721,0.999999,0.000154,-0.000204,0.001751,0.000194,0.001771,-0.000223,84.381041,0.001929,
1610,990,-0.764122,-2.618950,0.999998,0.000196,-0.000984,0.002655,-0.000132,0.002659,-0.000988,-87.930788,0.002688,
1610,600,-0.410161,-3.728978,0.999997,0.000193,-0.001435,0.002685,0.000149,0.002691,-0.001441,87.938249,0.002693,
1430,1650,-0.130401,-0.701886,0.999998,0.000183,-0.000788,0.002017,-0.000149,0.002025,-0.000796,-86.970721,0.002040,
1870,2010,-0.106483,-0.095788,0.999996,0.000232,-0.000507,0.002835,0.001211,0.003228,-0.000900,72.033553,0.003332,
1290,190,-0.014917,-4.770959,0.999999,0.000147,-0.000231,0.001672,-0.000029,0.001672,-0.000231,-89.134871,0.001812,
690,1790,0.375840,-0.587826,0.999997,0.000199,-0.001193,0.002524,-0.000104,0.002527,-0.001196,-88.399137,0.002528,
670,780,0.819928,-3.117983,0.999998,0.000151,-0.001269,0.002515,0.000208,0.002526,-0.001281,86.867727,0.002526,
1530,500,-0.255537,-4.055499,0.999998,0.000157,-0.001195,0.002361,0.000238,0.002377,-0.001211,86.183345,0.002377,
1770,1230,-0.831095,-2.025440,0.999999,0.000140,-0.001260,0.002539,0.000232,0.002553,-0.001274,86.524835,0.002553,
1060,980,0.498998,-2.832320,0.999996,0.000000,-0.002297,0.005758,-0.001469,0.006017,-0.002556,-79.982824,0.006040,
1650,1620,-0.365151,-0.920829,0.999998,0.000174,-0.001167,0.002475,-0.000081,0.002477,-0.001169,-88.732784,0.002478,
950,350,0.178989,-4.408458,0.999998,0.000183,-0.000872,0.002172,-0.000042,0.002172,-0.000872,-89.203528,0.002186,
770,680,0.590964,-3.443233,0.999997,0.000228,-0.001433,0.002736,0.000067,0.002737,-0.001434,89.073207,0.002739,
650,1230,0.884476,-2.042378,0.999998,0.000155,-0.001209,0.002421,-0.000193,0.002432,-0.001219,-86.968249,0.002432,
1530,310,-0.174659,-4.487578,0.999998,0.000183,-0.000770,0.002140,-0.000007,0.002140,-0.000770,-89.866274,0.002168,
1050,1100,0.491324,-2.116315,0.999997,0.000225,-0.001794,0.004424,0.001373,0.004714,-0.002083,78.084825,0.004725,
1860,240,-0.452979,-4.437097,0.999997,0.000201,-0.001220,0.002472,-0.000038,0.002473,-0.001221,-89.409354,0.002473,
620,590,0.721138,-3.570042,0.999998,0.000181,-0.001280,0.002524,0.000019,0.002524,-0.001280,89.711854,0.002524,
900,1740,0.203024,-0.578654,0.999998,0.000181,-0.000839,0.002222,-0.000042,0.002223,-0.000840,-89.208137,0.002245,
1520,1490,-0.268215,-1.132797,0.999998,0.000170,-0.001294,0.002490,-0.000320,0.002517,-0.001320,-85.203310,0.002518,
1810,1400,-0.731072,-1.612494,0.999997,0.000192,-0.001300,0.002577,0.000075,0.002578,-0.001301,88.885057,0.002578,
1520,1610,-0.221811,-0.845204,0.999998,0.000169,-0.000997,0.002289,-0.000172,0.002298,-0.001006,-87.004396,0.002304,
1890,1610,-0.671786,-1.138666,0.999998,0.000172,-0.001254,0.002472,-0.000002,0.002472,-0.001254,-89.974534,0.002472,
1390,270,-0.066999,-4.617965,0.999998,0.000150,-0.000484,0.001852,-0.000036,0.001852,-0.000485,-89.122750,0.001921,
1820,160,-0.293493,-4.687812,0.999998,0.000210,-0.001121,0.002631,-0.000363,0.002666,-0.001156,-84.519928,0.002674,
1180,640,0.029986,-4.000082,0.999999,0.000138,-0.000688,0.001436,-0.000341,0.001490,-0.000741,-81.097980,0.001490,
1340,460,-0.068807,-4.277297,0.999999,0.000134,-0.000678,0.001842,0.000171,0.001853,-0.000690,86.146761,0.001873,
1690,950,-0.827031,-2.715421,0.999998,0.000158,-0.001102,0.002559,-0.000228,0.002574,-0.001116,-86.454652,0.002581,
750,840,0.770497,-2.996345,0.999998,0.000157,-0.001332,0.002667,0.000291,0.002688,-0.001353,85.866359,0.002688,
1440,810,-0.283549,-3.352355,0.999997,0.000187,-0.001936,0.003106,0.000559,0.003167,-0.001997,83.745654,0.003203,
880,1550,0.322290,-1.041108,0.999998,0.000165,-0.001233,0.002492,0.000183,0.002501,-0.001242,87.188451,0.002501,
610,1010,1.022307,-2.559554,0.999998,0.000166,-0.001055,0.002205,0.000079,0.002207,-0.001057,88.604515,0.002207,
1480,820,-0.374780,-3.237483,0.999998,0.000182,-0.001950,0.003298,0.000181,0.003304,-0.001956,88.030617,0.003323,
1720,1730,-0.368501,-0.698203,0.999997,0.000199,-0.001129,0.002466,0.000068,0.002467,-0.001131,88.909789,0.002470,
1340,490,-0.071175,-4.220836,0.999998,0.000152,-0.000693,0.001880,0.000192,0.001894,-0.000707,85.755741,0.001914,
860,1880,0.134822,-0.293028,0.999998,0.000168,-0.000604,0.002056,-0.000293,0.002088,-0.000635,-83.791954,0.002141,
770,60,0.050768,-4.962812,0.999999,0.000153,-0.000213,0.001882,0.000560,0.002022,-0.000353,75.926115,0.002160,
1020,1990,0.015672,-0.072690,0.999999,0.000133,-0.000084,0.001603,-0.000177,0.001622,-0.000102,-84.071313,0.001817,
1430,900,-0.416249,-3.075050,0.999997,0.000179,-0.001704,0.003575,0.000486,0.003619,-0.001749,84.780488,0.003620,
1450,1940,-0.037636,-0.155172,0.999999,0.000163,-0.000213,0.001759,0.000169,0.001773,-0.000228,85.140466,0.001930,
650,780,0.845197,-3.107770,0.999998,0.000151,-0.001232,0.002483,0.000180,0.002491,-0.001240,87.238448,0.002491,
1470,1680,-0.152354,-0.660243,0.999998,0.000186,-0.000805,0.002133,-0.000107,0.002136,-0.000809,-87.924257,0.002157,
1860,680,-0.816160,-3.328145,0.999998,0.000171,-0.001258,0.002512,-0.000046,0.002513,-0.001258,-89.298412,0.002513,
840,910,0.720370,-2.834361,0.999998,0.000179,-0.001244,0.002762,0.000338,0.002790,-0.001273,85.210418,0.002794,
1030,1730,0.111316,-0.543972,0.999998,0.000185,-0.000681,0.001976,0.000052,0.001977,-0.000682,88.870990,0.002009,
1880,30,-0.047922,-4.997647,0.999998,0.000000,0.000176,0.003501,-0.001933,0.004388,-0.000712,-65.349084,0.004711,
1530,290,-0.164778,-4.529364,0.999998,0.000161,-0.000729,0.002126,-0.000059,0.002127,-0.000730,-88.807951,0.002161,
990,650,0.233472,-3.749367,0.999998,0.000157,-0.001489,0.002560,-0.000476,0.002615,-0.001544,-83.387512,0.002629,
1600,1160,-0.675862,-2.157585,0.999998,0.000176,-0.001321,0.002911,0.000363,0.002942,-0.001352,85.128770,0.002945,
740,320,0.368531,-4.353018,0.999997,0.000194,-0.001112,0.002478,0.000073,0.002480,-0.001113,88.829632,0.002484,
1040,390,0.120771,-4.371086,0.999998,0.000176,-0.000778,0.002035,-0.000139,0.002042,-0.000785,-87.168574,0.002060,
760,1190,0.780603,-2.106100,0.999998,0.000161,-0.001273,0.002626,-0.000303,0.002650,-0.001296,-85.581734,0.002650,
750,680,0.621166,-3.427815,0.999998,0.000251,-0.001444,0.002712,0.000088,0.002714,-0.001445,88.793362,0.002716,
820,1860,0.176514,-0.346691,0.999998,0.000155,-0.000693,0.002211,-0.000312,0.002245,-0.000726,-83.940409,0.002291,
1050,1090,0.506983,-2.161466,0.999997,0.000238,-0.001904,0.004784,0.001368,0.005053,-0.002173,78.875226,0.005070,
610,990,1.017587,-2.603606,0.999998,0.000154,-0.001043,0.002204,0.000050,0.002204,-0.001044,89.114646,0.002205,
720,350,0.415636,-4.260611,0.999998,0.000165,-0.001218,0.002538,0.000000,0.002538,-0.001218,-89.996714,0.002539,
1820,140,-0.257934,-4.742000,0.999998,0.000197,-0.001098,0.002599,-0.000432,0.002649,-0.001147,-83.425210,0.002656,
1640,1820,-0.210724,-0.435804,0.999998,0.000173,-0.000800,0.002282,0.000242,0.002301,-0.000819,85.531193,0.002333,
650,1650,0.545359,-0.974479,0.999998,0.000193,-0.001235,0.002522,0.000026,0.002522,-0.001236,89.603833,0.002522,
740,970,0.875485,-2.661545,0.999998,0.000142,-0.001092,0.002496,0.000145,0.002502,-0.001098,87.685670,0.002508,
960,130,0.059453,-4.853928,0.999999,0.000134,-0.000337,0.001789,0.000193,0.001806,-0.000354,84.851571,0.001914,
990,180,0.073470,-4.765301,0.999999,0.000111,-0.000383,0.001831,0.000159,0.001842,-0.000394,85.901331,0.001940,
1780,50,-0.062016,-4.975434,0.999999,0.000174,-0.000218,0.002136,-0.000896,0.002438,-0.000520,-71.367612,0.002568,
1290,170,-0.014627,-4.803441,0.999999,0.000130,-0.000206,0.001632,-0.000030,0.001632,-0.000207,-89.066649,0.001777,
1170,1800,0.024144,-0.381151,0.999998,0.000140,-0.000377,0.001729,-0.000028,0.001729,-0.000377,-89.233682,0.001818,
700,1830,0.320689,-0.479031,0.999998,0.000162,-0.001169,0.002495,-0.000196,0.002505,-0.001180,-86.946312,0.002506,
1480,1990,-0.019542,-0.072646,0.999998,0.000164,-0.000115,0.001640,0.000205,0.001663,-0.000139,83.411783,0.001846,
1060,30,0.002854,-5.024091,0.999999,0.000000,-0.000056,0.001535,0.000099,0.001541,-0.000062,86.451720,0.001745,
1480,800,-0.347963,-3.303831,0.999997,0.000208,-0.001930,0.003212,0.000311,0.003231,-0.001948,86.553692,0.003253,
940,1870,0.098183,-0.292598,0.999999,0.000123,-0.000450,0.001955,-0.000206,0.001973,-0.000467,-85.149009,0.002062,
1130,730,0.067082,-3.805697,0.999998,0.000172,-0.000975,0.001642,-0.000895,0.001919,-0.001252,-72.807870,0.001949,
1390,250,-0.062668,-4.652897,0.999998,0.000152,-0.000461,0.001817,-0.000044,0.001818,-0.000462,-88.893702,0.001890,
1330,320,-0.048774,-4.540500,0.999998,0.000171,-0.000554,0.001804,0.000044,0.001805,-0.000555,88.922481,0.001849,
1430,1630,-0.134264,-0.744776,0.999998,0.000168,-0.000809,0.002075,-0.000169,0.002085,-0.000819,-86.652022,0.002101,
1560,1680,-0.232798,-0.712997,0.999998,0.000166,-0.001012,0.002264,-0.000053,0.002265,-0.001013,-89.068308,0.002269,
1340,440,-0.069576,-4.314923,0.999999,0.000147,-0.000671,0.001847,0.000150,0.001855,-0.000680,86.602862,0.001877,
950,330,0.170960,-4.451007,0.999998,0.000166,-0.000834,0.002180,-0.000023,0.002180,-0.000834,-89.567574,0.002200,
1750,800,-0.783567,-3.087709,0.999998,0.000158,-0.001292,0.002568,-0.000250,0.002584,-0.001308,-86.310563,0.002584,
1780,570,-0.624361,-3.669325,0.999998,0.000158,-0.001296,0.002590,0.000015,0.002590,-0.001296,89.779634,0.002590,
1870,30,-0.048039,-4.997126,0.999998,0.000000,0.000182,0.003243,-0.001724,0.004019,-0.000593,-65.796806,0.004339,
1860,660,-0.799747,-3.378781,0.999998,0.000167,-0.001273,0.002521,-0.000058,0.002522,-0.001274,-89.126225,0.002522,
1100,750,0.106568,-3.703268,0.999998,0.000195,-0.001320,0.002065,-0.000991,0.002333,-0.001588,-74.824034,0.002384,
1230,1430,0.001129,-1.000555,0.999999,0.000110,-0.000579,0.001408,0.000012,0.001408,-0.000579,89.645095,0.001415,
930,1520,0.272583,-1.070049,0.999998,0.000167,-0.001231,0.002446,0.000285,0.002468,-0.001253,85.588667,0.002468,
660,1510,0.635153,-1.324195,0.999998,0.000164,-0.001294,0.002558,0.000004,0.002558,-0.001294,89.942912,0.002558,
820,910,0.743911,-2.829046,0.999998,0.000152,-0.001254,0.002707,0.000329,0.002734,-0.001281,85.286284,0.002736,
860,1860,0.151470,-0.334899,0.999998,0.000166,-0.000653,0.002134,-0.000262,0.002159,-0.000677,-84.680182,0.002208,
1560,1210,-0.553869,-1.980858,0.999998,0.000178,-0.001662,0.003096,0.000250,0.003109,-0.001675,86.996040,0.003112,
1690,930,-0.817433,-2.766934,0.999998,0.000187,-0.001126,0.002561,-0.000231,0.002575,-0.001141,-86.424224,0.002581,
690,1770,0.396158,-0.638903,0.999998,0.000182,-0.001198,0.002511,-0.000098,0.002514,-0.001200,-88.490980,0.002514,
1880,1610,-0.659018,-1.130014,0.999998,0.000175,-0.001257,0.002477,-0.000013,0.002477,-0.001257,-89.801696,0.002477,
1770,1210,-0.848660,-2.074854,0.999999,0.000141,-0.001232,0.002485,0.000233,0.002499,-0.001246,86.420826,0.002499,
1100,1590,0.086457,-0.782430,0.999999,0.000132,-0.000755,0.001913,0.000209,0.001930,-0.000771,85.556045,0.001942,
1290,1420,-0.034404,-1.036764,0.999998,0.000151,-0.000697,0.001488,-0.000376,0.001550,-0.000760,-80.516072,0.001551,
1530,270,-0.153211,-4.572817,0.999998,0.000169,-0.000686,0.002086,-0.000081,0.002088,-0.000688,-88.331752,0.002128,
700,650,0.665106,-3.473415,0.999997,0.000212,-0.001364,0.002636,0.000050,0.002637,-0.001364,89.279301,0.002637,
840,1250,0.607559,-1.904833,0.999998,0.000184,-0.001529,0.002912,-0.000253,0.002926,-0.001543,-86.751027,0.002928,
1610,250,-0.201860,-4.582040,0.999998,0.000167,-0.000798,0.002228,-0.000168,0.002238,-0.000807,-86.833749,0.002266,
990,630,0.226906,-3.797468,0.999998,0.000154,-0.001413,0.002465,-0.000470,0.002521,-0.001469,-83.180601,0.002532,
700,350,0.440674,-4.245843,0.999998,0.000180,-0.001223,0.002533,0.000007,0.002533,-0.001223,89.896053,0.002533,
820,1620,0.356248,-0.915769,0.999998,0.000167,-0.001190,0.002462,0.000089,0.002464,-0.001192,88.600711,0.002465,
740,300,0.351186,-4.401945,0.999998,0.000198,-0.001085,0.002496,0.000121,0.002500,-0.001089,88.063863,0.002507,
1440,1290,-0.239136,-1.551434,0.999998,0.000165,-0.001816,0.002940,-0.000671,0.003033,-0.001909,-82.120350,0.003066,
720,250,0.324648,-4.513402,0.999998,0.000178,-0.001095,0.002518,0.000174,0.002526,-0.001103,87.242786,0.002533,
1200,710,0.015390,-3.923372,0.999999,0.000141,-0.000567,0.001118,-0.000339,0.001184,-0.000633,-79.028708,0.001185,
1140,130,0.015546,-4.868529,0.999998,0.000156,-0.000191,0.001610,0.000054,0.001611,-0.000193,88.273248,0.001760,
610,970,1.015445,-2.647688,0.999998,0.000147,-0.001045,0.002167,0.000020,0.002167,-0.001045,89.647099,0.002168,
940,670,0.320935,-3.628618,0.999997,0.000194,-0.001589,0.002804,-0.000318,0.002827,-0.001612,-85.879039,0.002836,
1870,1180,-0.986413,-2.186931,0.999998,0.000167,-0.001090,0.002215,0.000069,0.002217,-0.001091,88.809721,0.002217,
1640,1800,-0.228273,-0.482130,0.999998,0.000179,-0.000851,0.002304,0.000200,0.002317,-0.000863,86.380370,0.002341,
1310,320,-0.037039,-4.542936,0.999998,0.000181,-0.000491,0.001805,0.000018,0.001805,-0.000491,89.559525,0.001867,
1150,1800,0.031565,-0.380897,0.999999,0.000148,-0.000401,0.001746,-0.000020,0.001746,-0.000402,-89.460125,0.001829,
1290,150,-0.012374,-4.836533,0.999999,0.000140,-0.000179,0.001619,-0.000037,0.001620,-0.000179,-88.833648,0.001776,
1030,1710,0.116211,-0.580760,0.999998,0.000176,-0.000719,0.001983,0.000081,0.001985,-0.000721,88.282243,0.002010,
1340,770,-0.083567,-3.721405,0.999998,0.000160,-0.001218,0.001751,0.001081,0.002103,-0.001570,71.963691,0.002187,
650,1670,0.528272,-0.923769,0.999998,0.000190,-0.001231,0.002518,0.000025,0.002518,-0.001231,89.612732,0.002518,
1050,2020,0.005920,-0.023280,0.999999,0.000000,-0.000042,0.001515,-0.000075,0.001519,-0.000045,-87.244537,0.001728,
1760,1950,-0.145642,-0.182792,0.999998,0.000140,-0.000837,0.002284,0.000585,0.002390,-0.000943,79.722301,0.002408,
1560,1660,-0.242800,-0.759667,0.999998,0.000148,-0.001055,0.002305,-0.000111,0.002309,-0.001058,-88.114219,0.002312,
1130,710,0.066830,-3.836779,0.999998,0.000143,-0.000934,0.001680,-0.000797,0.001904,-0.001157,-74.318090,0.001919,
1480,780,-0.330099,-3.366484,0.999998,0.000216,-0.001887,0.003118,0.000354,0.003143,-0.001912,85.971405,0.003168,
1820,120,-0.222611,-4.793721,0.999998,0.000165,-0.001000,0.002607,-0.000523,0.002681,-0.001075,-81.911047,0.002699,
1780,40,-0.044895,-4.995527,0.999999,0.000172,-0.000107,0.002046,-0.000881,0.002361,-0.000421,-70.341472,0.002518,
1390,230,-0.058288,-4.690940,0.999998,0.000152,-0.000413,0.001809,-0.000067,0.001811,-0.000415,-88.286653,0.001897,
860,1840,0.168811,-0.376380,0.999998,0.000170,-0.000702,0.002157,-0.000231,0.002176,-0.000720,-85.415255,0.002217,
1230,1850,-0.000124,-0.289725,0.999998,0.000181,-0.000354,0.001667,-0.000013,0.001667,-0.000354,-89.628559,0.001757,
840,1070,0.775288,-2.409020,0.999998,0.000160,-0.001019,0.002624,-0.000183,0.002633,-0.001029,-87.137851,0.002654,
1870,1610,-0.644721,-1.120858,0.999998,0.000181,-0.001253,0.002485,-0.000022,0.002485,-0.001253,-89.662802,0.002485,
950,310,0.161933,-4.494740,0.999998,0.000176,-0.000796,0.002122,0.000004,0.002122,-0.000796,89.914832,0.002144,
1040,1470,0.155473,-1.077487,0.999999,0.000132,-0.001097,0.002200,0.000482,0.002269,-0.001166,81.849029,0.002269,
1530,250,-0.143594,-4.613059,0.999998,0.000157,-0.000629,0.002097,-0.000136,0.002104,-0.000636,-87.153578,0.002158,
1340,420,-0.065669,-4.349353,0.999998,0.000183,-0.000659,0.001858,0.000143,0.001866,-0.000667,86.752611,0.001891,
1790,1500,-0.625444,-1.338993,0.999998,0.000167,-0.001272,0.002585,-0.000001,0.002585,-0.001272,-89.991301,0.002585,
1770,1190,-0.863350,-2.124627,0.999998,0.000161,-0.001204,0.002498,0.000246,0.002514,-0.001220,86.219784,0.002515,
1040,1170,0.373181,-1.888466,0.999998,0.000160,-0.001771,0.003435,0.000613,0.003507,-0.001842,83.378248,0.003508,
990,610,0.222157,-3.847435,0.999999,0.000156,-0.001325,0.002456,-0.000452,0.002509,-0.001378,-83.277876,0.002513,
1700,1130,-0.825192,-2.261125,0.999998,0.000171,-0.001158,0.002525,0.000235,0.002540,-0.001173,86.366152,0.002542,
690,1750,0.415083,-0.688793,0.999998,0.000190,-0.001204,0.002535,-0.000074,0.002536,-0.001205,-88.865131,0.002537,
680,390,0.495496,-4.126915,0.999998,0.000151,-0.001236,0.002508,-0.000017,0.002508,-0.001236,-89.741309,0.002508,
1610,210,-0.169735,-4.671460,0.999998,0.000150,-0.000710,0.002134,-0.000245,0.002155,-0.000731,-85.122427,0.002192,
940,130,0.065360,-4.850205,0.999998,0.000171,-0.000307,0.001813,0.000221,0.001836,-0.000330,84.107048,0.001957,
1780,550,-0.609349,-3.722051,0.999997,0.000191,-0.001299,0.002585,0.000004,0.002585,-0.001299,89.946660,0.002585,
720,230,0.303250,-4.563701,0.999998,0.000179,-0.001079,0.002499,0.000213,0.002511,-0.001092,86.608678,0.002518,
740,280,0.334872,-4.451173,0.999997,0.000215,-0.001055,0.002493,0.000154,0.002500,-0.001062,87.512252,0.002509,
900,690,0.399175,-3.525006,0.999997,0.000194,-0.001625,0.002865,-0.000161,0.002870,-0.001631,-87.944173,0.002879,
1750,780,-0.764515,-3.139316,0.999998,0.000197,-0.001293,0.002599,-0.000221,0.002611,-0.001306,-86.759965,0.002611,
1370,30,-0.004565,-5.025360,0.999999,0.000000,0.000015,0.001544,-0.000092,0.001550,0.000009,-86.574551,0.001795,
820,1580,0.379514,-1.015916,0.999998,0.000169,-0.001264,0.002503,0.000098,0.002505,-0.001267,88.507797,0.002505,
660,1490,0.650180,-1.375547,0.999997,0.000187,-0.001290,0.002571,0.000016,0.002571,-0.001290,89.761429,0.002571,
1180,710,0.027728,-3.906300,0.999999,0.000139,-0.000660,0.001220,-0.000527,0.001357,-0.000797,-75.367433,0.001364,
1860,640,-0.781053,-3.428012,0.999998,0.000184,-0.001276,0.002552,-0.000035,0.002553,-0.001276,-89.473356,0.002553,
1030,1690,0.120699,-0.623267,0.999998,0.000159,-0.000757,0.002057,0.000092,0.002060,-0.000760,88.134029,0.002083,
930,1500,0.279742,-1.119831,0.999998,0.000179,-0.001290,0.002529,0.000277,0.002549,-0.001310,85.868839,0.002549,
610,950,1.009523,-2.690061,0.999999,0.000132,-0.001067,0.002202,0.000080,0.002204,-0.001069,88.599730,0.002204,
1290,130,-0.011450,-4.868743,0.999999,0.000142,-0.000138,0.001622,-0.000039,0.001623,-0.000139,-88.729091,0.001799,
1570,1800,-0.170750,-0.451190,0.999998,0.000154,-0.000755,0.002144,0.000134,0.002150,-0.000761,87.351927,0.002181,
1020,650,0.192791,-3.788564,0.999998,0.000161,-0.001348,0.002438,-0.000574,0.002523,-0.001433,-81.570426,0.002531,
1050,30,0.005407,-5.023296,0.999999,0.000000,-0.000065,0.001545,0.000097,0.001551,-0.000071,86.564433,0.001751,
860,1820,0.183080,-0.420649,0.999998,0.000193,-0.000765,0.002212,-0.000185,0.002223,-0.000776,-86.455416,0.002257,
1690,910,-0.802622,-2.818519,0.999998,0.000178,-0.001175,0.002614,-0.000299,0.002637,-0.001198,-85.512249,0.002641,
1130,690,0.066572,-3.870158,0.999998,0.000151,-0.000901,0.001689,-0.000731,0.001881,-0.001093,-75.281040,0.001890,
650,1690,0.513900,-0.875035,0.999998,0.000178,-0.001256,0.002522,0.000020,0.002522,-0.001256,89.699372,0.002522,
1820,100,-0.183007,-4.845806,0.999998,0.000163,-0.000893,0.002571,-0.000662,0.002693,-0.001015,-79.540372,0.002720,
1530,230,-0.128632,-4.656503,0.999998,0.000147,-0.000570,0.002043,-0.000172,0.002054,-0.000581,-86.260038,0.002118,
1760,1930,-0.179344,-0.231594,0.999998,0.000151,-0.000920,0.002381,0.000548,0.002470,-0.001009,80.815240,0.002484,
1640,1780,-0.245125,-0.527912,0.999998,0.000198,-0.000872,0.002342,0.000179,0.002352,-0.000882,86.824934,0.002377,
1530,440,-0.231519,-4.197702,0.999998,0.000165,-0.001066,0.002332,0.000158,0.002339,-0.001073,87.346733,0.002341,
1170,840,0.093576,-3.762125,0.999998,0.000184,-0.001242,0.000834,-0.000365,0.000896,-0.001304,-80.301100,0.001335,
1790,1480,-0.641661,-1.392300,0.999998,0.000190,-0.001270,0.002579,0.000021,0.002579,-0.001270,89.693277,0.002579,
1040,1150,0.415693,-1.957975,0.999998,0.000143,-0.001694,0.003546,0.000632,0.003621,-0.001769,83.216167,0.003622,
950,290,0.151435,-4.535725,0.999998,0.000168,-0.000765,0.002112,0.000037,0.002112,-0.000765,89.262033,0.002139,
780,920,0.802866,-2.794567,0.999998,0.000167,-0.001163,0.002589,0.000250,0.002606,-0.001179,86.199006,0.002610,
1180,620,0.031617,-4.030878,0.999999,0.000136,-0.000683,0.001546,-0.000296,0.001585,-0.000722,-82.557755,0.001587,
990,590,0.216662,-3.895331,0.999998,0.000172,-0.001267,0.002412,-0.000428,0.002461,-0.001316,-83.444249,0.002463,
690,1730,0.432278,-0.740420,0.999998,0.000187,-0.001202,0.002530,-0.000022,0.002530,-0.001202,-89.660515,0.002531,
840,1050,0.781088,-2.460705,0.999998,0.000169,-0.000986,0.002616,-0.000099,0.002618,-0.000989,-88.425264,0.002644,
1470,980,-0.616810,-2.695918,0.999998,0.000187,-0.001235,0.003605,-0.000052,0.003606,-0.001236,-89.385689,0.003665,
840,950,0.754329,-2.725407,0.999998,0.000173,-0.001089,0.002687,0.000266,0.002706,-0.001108,85.993595,0.002721,
1480,760,-0.309960,-3.428180,0.999997,0.000233,-0.001831,0.003054,0.000388,0.003084,-0.001862,85.484782,0.003106,
1010,1400,0.207216,-1.277769,0.999998,0.000158,-0.001400,0.002497,0.000556,0.002575,-0.001478,82.043020,0.002584,
1600,1600,-0.316514,-0.930704,0.999998,0.000188,-0.001207,0.002433,-0.000124,0.002437,-0.001211,-88.057130,0.002437,
740,260,0.315362,-4.501377,0.999998,0.000177,-0.001020,0.002471,0.000179,0.002480,-0.001029,87.079887,0.002492,
820,1560,0.392171,-1.066074,0.999998,0.000171,-0.001278,0.002540,0.000100,0.002543,-0.001280,88.506772,0.002543,
640,470,0.605762,-3.893662,0.999998,0.000167,-0.001289,0.002549,-0.000049,0.002550,-0.001290,-89.266109,0.002550,
1360,2020,-0.004075,-0.024528,0.999998,0.000000,-0.000029,0.001550,0.000074,0.001553,-0.000032,87.318709,0.001775,
1870,1170,-0.993043,-2.208796,0.999999,0.000144,-0.001074,0.002196,0.000061,0.002198,-0.001075,88.931567,0.002198,
920,130,0.071812,-4.846918,0.999999,0.000134,-0.000318,0.001834,0.000292,0.001873,-0.000357,82.398269,0.001989,
1020,1470,0.176767,-1.098402,0.999998,0.000169,-0.001169,0.002287,0.000449,0.002344,-0.001226,82.708923,0.002345,
1770,1170,-0.880889,-2.176263,0.999999,0.000148,-0.001197,0.002475,0.000230,0.002490,-0.001212,86.427838,0.002490,
1390,210,-0.050968,-4.725922,0.999999,0.000148,-0.000373,0.001777,-0.000071,0.001779,-0.000375,-88.108175,0.001876,
1450,1140,-0.480718,-2.072890,0.999998,0.000169,-0.001676,0.003645,-0.000132,0.003649,-0.001679,-88.575813,0.003653,
1230,1870,-0.000743,-0.258356,0.999999,0.000150,-0.000327,0.001644,0.000008,0.001644,-0.000327,89.777001,0.001740,
1730,780,-0.737211,-3.147969,0.999998,0.000183,-0.001399,0.002654,-0.000229,0.002667,-0.001412,-86.779393,0.002669,
1290,110,-0.006914,-4.901469,0.999999,0.000143,-0.000106,0.001586,-0.000048,0.001587,-0.000108,-88.374169,0.001774,
1190,180,0.011506,-4.788723,0.999999,0.000141,-0.000264,0.001670,-0.000005,0.001670,-0.000264,-89.850912,0.001795,
1560,1640,-0.253216,-0.805343,0.999998,0.000160,-0.001088,0.002362,-0.000128,0.002367,-0.001092,-87.876904,0.002369,
680,370,0.480744,-4.177791,0.999997,0.000176,-0.001222,0.002542,-0.000005,0.002542,-0.001222,-89.919603,0.002543,
750,1780,0.318103,-0.569964,0.999997,0.000166,-0.000998,0.002440,-0.000187,0.002450,-0.001009,-86.894458,0.002463,
1340,400,-0.064585,-4.387852,0.999998,0.000175,-0.000641,0.001857,0.000150,0.001866,-0.000650,86.581029,0.001894,
1010,1540,0.175427,-0.951349,0.999998,0.000152,-0.001034,0.002187,0.000323,0.002219,-0.001066,84.332384,0.002220,
1070,1090,0.468436,-2.065873,0.999995,0.000000,-0.001873,0.005360,0.002064,0.005908,-0.002420,75.140678,0.005940,
1030,1670,0.127376,-0.663703,0.999998,0.000160,-0.000792,0.002034,0.000105,0.002038,-0.000796,87.872330,0.002055,
1750,1740,-0.395087,-0.696593,0.999998,0.000192,-0.001210,0.002502,0.000033,0.002502,-0.001210,89.486463,0.002503,
610,930,0.999078,-2.736471,0.999998,0.000138,-0.001087,0.002275,0.000136,0.002280,-0.001092,87.694985,0.002281,
1610,940,-0.733790,-2.753056,0.999998,0.000200,-0.001148,0.002738,-0.000299,0.002761,-0.001171,-85.629407,0.002772,
1860,620,-0.764663,-3.480452,0.999998,0.000204,-0.001277,0.002568,-0.000007,0.002568,-0.001277,-89.892826,0.002568,
860,1800,0.198923,-0.466751,0.999998,0.000172,-0.000824,0.002200,-0.000152,0.002207,-0.000832,-87.120587,0.002229,
1130,670,0.067231,-3.904345,0.999999,0.000135,-0.000875,0.001692,-0.000669,0.001856,-0.001039,-76.231252,0.001860,
1740,1950,-0.129942,-0.175206,0.999998,0.000152,-0.000685,0.002206,0.000587,0.002321,-0.000799,78.949713,0.002358,
1820,80,-0.134975,-4.898964,0.999998,0.000156,-0.000785,0.002599,-0.000802,0.002780,-0.000965,-77.324433,0.002823,
1620,330,-0.265246,-4.394747,0.999998,0.000196,-0.000945,0.002389,-0.000043,0.002389,-0.000945,-89.264544,0.002407,
1520,1400,-0.307533,-1.366114,0.999998,0.000181,-0.001534,0.002711,-0.000338,0.002737,-0.001561,-85.472316,0.002746,
1080,570,0.112236,-4.035634,0.999999,0.000135,-0.000933,0.001979,-0.000445,0.002045,-0.001000,-81.509296,0.002046,
1320,770,-0.061623,-3.770329,0.999998,0.000156,-0.001023,0.001428,0.001003,0.001786,-0.001381,70.351388,0.001873,
780,1250,0.696235,-1.937663,0.999998,0.000169,-0.001417,0.002747,-0.000271,0.002765,-0.001435,-86.290674,0.002765,
950,270,0.141199,-4.580001,0.999998,0.000176,-0.000726,0.002067,0.000062,0.002068,-0.000727,88.727454,0.002098,
1870,1520,-0.712457,-1.350429,0.999998,0.000161,-0.001262,0.002551,-0.000005,0.002551,-0.001263,-89.928670,0.002551,
1750,680,-0.672755,-3.402863,0.999998,0.000173,-0.001365,0.002654,-0.000108,0.002657,-0.001368,-88.460201,0.002657,
990,1010,0.643416,-2.581612,0.999997,0.000202,-0.001111,0.003706,0.000044,0.003706,-0.001112,89.473636,0.003804,
690,1710,0.448767,-0.790394,0.999998,0.000179,-0.001195,0.002517,-0.000003,0.002517,-0.001195,-89.955531,0.002519,
1640,1760,-0.261315,-0.574872,0.999998,0.000192,-0.000914,0.002367,0.000121,0.002371,-0.000918,87.896728,0.002391,
1530,420,-0.223468,-4.244692,0.999998,0.000155,-0.000995,0.002275,0.000134,0.002281,-0.001001,87.657786,0.002287,
1770,560,-0.604373,-3.704315,0.999998,0.000181,-0.001321,0.002587,0.000002,0.002587,-0.001321,89.963895,0.002588,
1870,1160,-0.998974,-2.231969,0.999998,0.000151,-0.001074,0.002200,0.000061,0.002201,-0.001075,88.935580,0.002201,
1360,1150,-0.336451,-1.647395,0.999998,0.000000,-0.000673,0.002055,-0.001502,0.002720,-0.001339,-66.121597,0.002720,
1730,700,-0.662599,-3.362620,0.999998,0.000185,-0.001406,0.002671,-0.000117,0.002674,-0.001409,-88.357354,0.002676,
1770,1150,-0.893292,-2.223533,0.999999,0.000145,-0.001172,0.002420,0.000190,0.002430,-0.001182,86.986080,0.002431,
650,1710,0.496488,-0.823454,0.999998,0.000171,-0.001256,0.002540,-0.000004,0.002540,-0.001256,-89.944990,0.002540,
1480,740,-0.292813,-3.488578,0.999997,0.000215,-0.001786,0.002941,0.000442,0.002982,-0.001827,84.703062,0.003007,
1600,1580,-0.328043,-0.981372,0.999998,0.000189,-0.001240,0.002469,-0.000147,0.002475,-0.001245,-87.737077,0.002475,
1150,840,0.116948,-3.699110,0.999997,0.000190,-0.001109,0.001094,-0.000668,0.001281,-0.001296,-74.376888,0.001488,
820,1540,0.404892,-1.116240,0.999998,0.000153,-0.001305,0.002560,0.000131,0.002565,-0.001310,88.061571,0.002565,
740,240,0.294133,-4.550637,0.999998,0.000168,-0.000970,0.002474,0.000252,0.002493,-0.000989,85.836002,0.002510,
1750,900,-0.867189,-2.832104,0.999998,0.000167,-0.001194,0.002521,-0.000244,0.002537,-0.001210,-86.256214,0.002538,
1400,130,-0.030491,-4.864093,0.999998,0.000151,-0.000246,0.001670,-0.000105,0.001676,-0.000251,-86.872377,0.001808,
730,1780,0.338902,-0.581019,0.999998,0.000169,-0.001084,0.002478,-0.000159,0.002485,-0.001091,-87.443599,0.002492,
1690,890,-0.785859,-2.871913,0.999998,0.000169,-0.001233,0.002653,-0.000322,0.002679,-0.001260,-85.296670,0.002681,
1430,1140,-0.446958,-2.019627,0.999997,0.000208,-0.001664,0.003686,-0.000524,0.003737,-0.001715,-84.452899,0.003741,
1290,90,-0.006373,-4.932317,0.999999,0.000138,-0.000076,0.001535,-0.000034,0.001536,-0.000077,-88.804196,0.001731,
1510,1680,-0.187811,-0.685178,0.999998,0.000142,-0.000912,0.002169,-0.000113,0.002173,-0.000917,-87.910574,0.002182,
1340,380,-0.062452,-4.424012,0.999998,0.000146,-0.000635,0.001892,0.000103,0.001896,-0.000640,87.658688,0.001929,
610,1440,0.752146,-1.542655,0.999998,0.000188,-0.001280,0.002586,-0.000024,0.002586,-0.001281,-89.643334,0.002586,
1030,1650,0.132567,-0.704640,0.999998,0.000160,-0.000805,0.002053,0.000151,0.002061,-0.000813,86.992136,0.002076,
1390,190,-0.045978,-4.762303,0.999998,0.000161,-0.000318,0.001764,-0.000075,0.001767,-0.000320,-87.925866,0.001883,
1070,1100,0.459902,-2.017650,0.999997,0.000000,-0.001726,0.004662,0.002219,0.005358,-0.002421,72.605204,0.005366,
1200,1610,0.018410,-0.714201,0.999999,0.000140,-0.000591,0.001780,0.000065,0.001782,-0.000593,88.422306,0.001815,
1820,1810,-0.409943,-0.574624,0.999997,0.000212,-0.001183,0.002557,0.000111,0.002561,-0.001187,88.298743,0.002563,
610,910,0.988457,-2.782448,0.999998,0.000155,-0.001092,0.002252,0.000111,0.002256,-0.001095,88.093184,0.002256,
870,70,0.040675,-4.952103,0.999999,0.000124,-0.000229,0.001789,0.000376,0.001857,-0.000296,79.790885,0.001995,
1230,1890,-0.000029,-0.224363,0.999999,0.000130,-0.000273,0.001639,0.000010,0.001639,-0.000273,89.712484,0.001756,
1590,360,-0.256045,-4.341412,0.999998,0.000181,-0.001018,0.002340,0.000034,0.002341,-0.001018,89.412314,0.002347,
660,710,0.770452,-3.290669,0.999997,0.000178,-0.001283,0.002556,0.000111,0.002559,-0.001286,88.350392,0.002559,
700,550,0.587141,-3.734563,0.999997,0.000181,-0.001311,0.002604,-0.000009,0.002604,-0.001311,-89.865682,0.002604,
1820,300,-0.467186,-4.325109,0.999997,0.000200,-0.001214,0.002541,-0.000053,0.002542,-0.001214,-89.190759,0.002543,
1660,1990,-0.048229,-0.082588,0.999998,0.000173,-0.000274,0.001881,0.000484,0.001985,-0.000378,77.897542,0.002108,
1130,650,0.067851,-3.939399,0.999999,0.000139,-0.000876,0.001715,-0.000600,0.001847,-0.001009,-77.570359,0.001850,
1860,600,-0.751021,-3.531569,0.999998,0.000180,-0.001277,0.002546,-0.000016,0.002546,-0.001277,-89.766646,0.002546,
1350,1260,-0.110022,-1.393388,0.999998,0.000167,-0.001412,0.001998,-0.001173,0.002363,-0.001776,-72.734626,0.002461,
710,1320,0.726698,-1.784611,0.999997,0.000200,-0.001358,0.002632,-0.000181,0.002640,-0.001366,-87.401133,0.002641,
1530,210,-0.118857,-4.694399,0.999998,0.000150,-0.000517,0.001985,-0.000187,0.001999,-0.000531,-85.747339,0.002071,
1560,1620,-0.263551,-0.853992,0.999998,0.000159,-0.001125,0.002349,-0.000163,0.002356,-0.001133,-87.315807,0.002357,
1360,1140,-0.363902,-1.670690,0.999998,0.000000,-0.000527,0.002137,-0.001728,0.002987,-0.001377,-63.814783,0.002990,
950,250,0.130875,-4.619477,0.999998,0.000169,-0.000688,0.002027,0.000098,0.002031,-0.000691,87.941439,0.002065,
690,1690,0.465472,-0.840883,0.999998,0.000181,-0.001210,0.002529,-0.000003,0.002529,-0.001210,-89.955417,0.002530,
990,1030,0.645812,-2.511714,0.999998,0.000199,-0.001105,0.003596,0.000010,0.003596,-0.001105,89.883372,0.003684,
1600,330,-0.247515,-4.406402,0.999998,0.000203,-0.000951,0.002332,-0.000034,0.002333,-0.000951,-89.399292,0.002346,
1770,540,-0.588510,-3.756450,0.999996,0.000216,-0.001299,0.002577,0.000014,0.002577,-0.001299,89.791448,0.002577,
1480,720,-0.279950,-3.546001,0.999998,0.000185,-0.001724,0.002871,0.000458,0.002916,-0.001770,84.366684,0.002939,
1080,550,0.111735,-4.075045,0.999999,0.000132,-0.000895,0.001986,-0.000402,0.002041,-0.000950,-82.210897,0.002043,
660,200,0.333692,-4.595113,0.999998,0.000176,-0.001115,0.002568,0.000300,0.002592,-0.001139,85.373540,0.002598,
1300,770,-0.042358,-3.812393,0.999998,0.000164,-0.000856,0.001130,0.000858,0.001449,-0.001175,69.581232,0.001540,
1730,660,-0.627841,-3.469348,0.999998,0.000184,-0.001390,0.002681,-0.000076,0.002683,-0.001392,-88.924653,0.002684,
900,970,0.704582,-2.682071,0.999997,0.000185,-0.001042,0.002855,0.000270,0.002873,-0.001060,86.061258,0.002906,
1040,130,0.036434,-4.860859,0.999998,0.000155,-0.000275,0.001703,0.000120,0.001710,-0.000283,86.527800,0.001834,
740,220,0.273068,-4.600156,0.999998,0.000164,-0.000938,0.002440,0.000331,0.002472,-0.000970,84.459189,0.002491,
1850,1180,-0.966207,-2.179003,0.999999,0.000148,-0.001104,0.002290,0.000112,0.002293,-0.001108,88.106326,0.002294,
1750,820,-0.800908,-3.035632,0.999998,0.000164,-0.001262,0.002601,-0.000261,0.002619,-0.001280,-86.150827,0.002619,
1640,1740,-0.275627,-0.621841,0.999998,0.000176,-0.000935,0.002347,0.000074,0.002349,-0.000936,88.713964,0.002365,
950,460,0.220699,-4.164966,0.999999,0.000139,-0.001011,0.002294,-0.000173,0.002303,-0.001020,-87.006027,0.002308,
1770,1130,-0.904043,-2.272911,0.999999,0.000143,-0.001145,0.002435,0.000182,0.002445,-0.001154,87.090687,0.002446,
1210,260,0.009092,-4.654091,0.999998,0.000150,-0.000402,0.001740,-0.000027,0.001740,-0.000403,-89.280675,0.001822,
820,1520,0.416420,-1.168554,0.999998,0.000172,-0.001323,0.002571,0.000118,0.002575,-0.001326,88.270470,0.002575,
710,1940,0.157164,-0.203440,0.999998,0.000158,-0.000851,0.002309,-0.000579,0.002411,-0.000954,-79.941797,0.002429,
1290,70,-0.003919,-4.963732,0.999999,0.000122,-0.000050,0.001518,-0.000042,0.001519,-0.000051,-88.452377,0.001725,
1390,170,-0.040447,-4.796791,0.999999,0.000152,-0.000286,0.001729,-0.000085,0.001733,-0.000289,-87.590829,0.001856,
1600,1560,-0.336261,-1.030238,0.999998,0.000187,-0.001245,0.002483,-0.000148,0.002488,-0.001251,-87.727686,0.002488,
1030,1630,0.135879,-0.745749,0.999999,0.000136,-0.000820,0.002043,0.000162,0.002052,-0.000830,86.766979,0.002065,
1340,360,-0.058712,-4.465195,0.999998,0.000143,-0.000605,0.001865,0.000089,0.001868,-0.000608,87.931977,0.001905,
660,690,0.752642,-3.341362,0.999997,0.000190,-0.001294,0.002552,0.000113,0.002556,-0.001297,88.322484,0.002556,
1840,1810,-0.433978,-0.594871,0.999998,0.000187,-0.001192,0.002546,0.000034,0.002546,-0.001192,89.471303,0.002548,
1070,2020,0.004866,-0.024661,0.999999,0.000000,-0.000046,0.001528,-0.000086,0.001533,-0.000051,-86.878645,0.001741,
1890,1390,-0.841194,-1.698025,0.999998,0.000162,-0.001260,0.002518,0.000016,0.002518,-0.001260,89.750605,0.002518,
610,890,0.978495,-2.825638,0.999998,0.000147,-0.001105,0.002265,0.000103,0.002268,-0.001108,88.250962,0.002268,
830,970,0.777871,-2.669775,0.999998,0.000180,-0.001048,0.002630,0.000209,0.002642,-0.001060,86.751350,0.002659,
1360,920,-0.372317,-3.357960,0.999997,0.000000,-0.000463,0.002315,0.001929,0.003303,-0.001451,62.879039,0.003311,
1490,1680,-0.169872,-0.672827,0.999998,0.000159,-0.000897,0.002152,-0.000134,0.002158,-0.000903,-87.493221,0.002167,
1230,1910,0.001071,-0.192442,0.999998,0.000149,-0.000203,0.001624,0.000004,0.001624,-0.000203,89.866119,0.001769,
1690,870,-0.768409,-2.924487,0.999998,0.000166,-0.001275,0.002656,-0.000305,0.002680,-0.001298,-85.591300,0.002680,
1530,170,-0.092817,-4.773808,0.999998,0.000155,-0.000419,0.001918,-0.000225,0.001940,-0.000441,-84.542211,0.002033,
1860,580,-0.733289,-3.582058,0.999998,0.000164,-0.001285,0.002565,-0.000015,0.002565,-0.001285,-89.771687,0.002565,
1820,60,-0.090188,-4.949055,0.999998,0.000166,-0.000691,0.002429,-0.000821,0.002632,-0.000894,-76.125651,0.002677,
610,1420,0.768957,-1.594354,0.999998,0.000203,-0.001276,0.002553,-0.000029,0.002553,-0.001276,-89.564502,0.002553,
1700,1990,-0.060304,-0.085636,0.999999,0.000151,-0.000256,0.001936,0.000567,0.002074,-0.000394,76.313904,0.002203,
750,1320,0.670495,-1.761844,0.999998,0.000183,-0.001413,0.002715,-0.000171,0.002722,-0.001420,-87.635716,0.002723,
1360,1270,-0.117274,-1.402493,0.999998,0.000187,-0.001479,0.002120,-0.001131,0.002446,-0.001805,-73.922024,0.002537,
1180,1610,0.030759,-0.717608,0.999999,0.000139,-0.000628,0.001785,0.000065,0.001786,-0.000630,88.454525,0.001812,
1560,1600,-0.271881,-0.901321,0.999998,0.000161,-0.001127,0.002354,-0.000169,0.002363,-0.001136,-87.225054,0.002363,
950,230,0.119571,-4.660988,0.999998,0.000156,-0.000646,0.002010,0.000122,0.002016,-0.000651,87.366585,0.002057,
680,550,0.612836,-3.718976,0.999998,0.000154,-0.001284,0.002592,-0.000013,0.002592,-0.001284,-89.809905,0.002592,
920,250,0.150233,-4.610010,0.999998,0.000150,-0.000607,0.002095,0.000143,0.002103,-0.000615,86.985322,0.002162,
1130,630,0.066735,-3.974838,0.999998,0.000144,-0.000869,0.001724,-0.000523,0.001826,-0.000970,-79.021379,0.001827,
990,1050,0.641040,-2.439860,0.999998,0.000187,-0.001119,0.003739,-0.000030,0.003739,-0.001119,-89.641888,0.003838,
1120,130,0.019501,-4.867666,0.999998,0.000132,-0.000216,0.001633,0.000071,0.001636,-0.000219,87.793212,0.001776,
840,850,0.657070,-3.002751,0.999997,0.000180,-0.001457,0.002860,0.000322,0.002884,-0.001481,85.759949,0.002884,
1480,940,-0.572873,-2.825914,0.999997,0.000183,-0.001418,0.003527,-0.000176,0.003534,-0.001425,-87.966474,0.003556,
1200,390,0.018148,-4.424397,0.999998,0.000176,-0.000568,0.001786,-0.000054,0.001787,-0.000569,-88.674831,0.001826,
740,200,0.247881,-4.649441,0.999998,0.000158,-0.000880,0.002419,0.000384,0.002463,-0.000925,83.452279,0.002488,
820,1500,0.430411,-1.218217,0.999998,0.000178,-0.001370,0.002643,0.000108,0.002645,-0.001372,88.459694,0.002646,
690,1670,0.480889,-0.891427,0.999998,0.000177,-0.001232,0.002538,0.000037,0.002538,-0.001232,89.434196,0.002539,
660,180,0.308210,-4.646326,0.999998,0.000186,-0.001061,0.002542,0.000382,0.002582,-0.001101,84.006482,0.002591,
1280,1980,-0.004126,-0.083182,0.999999,0.000135,-0.000085,0.001532,0.000053,0.001534,-0.000086,88.121096,0.001724,
1870,1860,-0.407833,-0.501969,0.999997,0.000206,-0.001234,0.002492,0.000109,0.002495,-0.001237,88.325811,0.002495,
1750,560,-0.577476,-3.718803,0.999997,0.000208,-0.001357,0.002614,0.000010,0.002614,-0.001357,89.852396,0.002615,
1600,1540,-0.348125,-1.080526,0.999998,0.000201,-0.001266,0.002510,-0.000139,0.002516,-0.001271,-87.887873,0.002516,
880,1070,0.736373,-2.405944,0.999998,0.000177,-0.000971,0.002755,-0.000194,0.002765,-0.000981,-87.033263,0.002803,
1390,150,-0.034304,-4.831700,0.999999,0.000135,-0.000239,0.001705,-0.000100,0.001710,-0.000244,-87.057314,0.001850,
1030,1610,0.142075,-0.785332,0.999998,0.000152,-0.000839,0.002065,0.000197,0.002079,-0.000852,86.132940,0.002090,
1080,30,0.003386,-5.022951,0.999999,0.000000,-0.000024,0.001528,0.000144,0.001542,-0.000037,84.732167,0.001759,
1050,1940,0.029149,-0.152462,0.999999,0.000142,-0.000200,0.001662,-0.000128,0.001671,-0.000209,-86.088744,0.001821,
1620,850,-0.652316,-3.005378,0.999998,0.000182,-0.001431,0.002879,-0.000317,0.002902,-0.001455,-85.821597,0.002902,
1710,760,-0.689898,-3.212354,0.999998,0.000175,-0.001418,0.002717,-0.000204,0.002727,-0.001428,-87.181458,0.002729,
1860,560,-0.718554,-3.633581,0.999998,0.000179,-0.001283,0.002583,-0.000006,0.002583,-0.001283,-89.911687,0.002583,
900,1720,0.213401,-0.623055,0.999998,0.000177,-0.000910,0.002276,0.000014,0.002276,-0.000910,89.755418,0.002291,
1500,1490,-0.243418,-1.111878,0.999998,0.000161,-0.001261,0.002419,-0.000338,0.002450,-0.001292,-84.796213,0.002451,
1340,710,-0.074144,-3.826797,0.999999,0.000134,-0.001029,0.001749,0.000813,0.001969,-0.001249,74.828323,0.001993,
1420,190,-0.058837,-4.756825,0.999998,0.000191,-0.000404,0.001785,-0.000081,0.001788,-0.000407,-87.892289,0.001875,
880,1530,0.331766,-1.091430,0.999997,0.000184,-0.001277,0.002506,0.000188,0.002515,-0.001286,87.161897,0.002515,
630,780,0.869200,-3.097483,0.999999,0.000135,-0.001233,0.002467,0.000142,0.002472,-0.001239,87.800186,0.002472,
1860,1610,-0.632784,-1.113506,0.999998,0.000175,-0.001236,0.002496,-0.000029,0.002497,-0.001236,-89.549925,0.002497,
1080,1440,0.112392,-1.094222,0.999999,0.000143,-0.001032,0.002025,0.000557,0.002124,-0.001130,79.983508,0.002125,
1360,1290,-0.108730,-1.359862,0.999997,0.000222,-0.001381,0.002057,-0.001066,0.002360,-0.001684,-74.096125,0.002431,
1250,1680,-0.010587,-0.587375,0.999998,0.000148,-0.000566,0.001783,-0.000049,0.001784,-0.000567,-88.808038,0.001823,
610,870,0.965998,-2.871284,0.999998,0.000142,-0.001132,0.002308,0.000123,0.002313,-0.001136,87.956005,0.002313,
1560,1580,-0.280028,-0.948061,0.999998,0.000168,-0.001137,0.002392,-0.000166,0.002400,-0.001145,-87.318208,0.002400,
1620,870,-0.675434,-2.948774,0.999997,0.000187,-0.001393,0.002871,-0.000351,0.002899,-0.001421,-85.321649,0.002900,
1670,1460,-0.493108,-1.348470,0.999995,0.000231,-0.001407,0.002660,-0.000045,0.002660,-0.001407,-89.363818,0.002662,
570,1700,0.618835,-0.927756,0.999640,0.002263,-0.003247,0.001484,0.000566,0.001551,-0.003314,83.271153,0.003316,
1260,1610,-0.016703,-0.715024,0.999998,0.000157,-0.000627,0.001761,-0.000082,0.001764,-0.000629,-88.039351,0.001788,
1810,1970,-0.143108,-0.151224,0.999998,0.000137,-0.000607,0.002511,0.000909,0.002756,-0.000852,74.876744,0.002822,
1860,190,-0.387636,-4.562698,0.999997,0.000204,-0.001233,0.002544,-0.000121,0.002548,-0.001237,-88.173719,0.002548,
770,220,0.244874,-4.612176,0.999998,0.000168,-0.000922,0.002348,0.000289,0.002373,-0.000947,84.995305,0.002389,
1360,910,-0.347805,-3.383354,0.999997,0.000000,-0.000641,0.002177,0.001724,0.002995,-0.001459,64.627341,0.002996,
1130,610,0.066942,-4.009532,0.999999,0.000141,-0.000863,0.001736,-0.000457,0.001814,-0.000941,-80.313387,0.001815,
1480,700,-0.267574,-3.603398,0.999998,0.000200,-0.001669,0.002812,0.000481,0.002864,-0.001720,83.941302,0.002883,
850,640,0.441272,-3.618422,0.999997,0.000193,-0.001530,0.002763,-0.000092,0.002765,-0.001532,-88.766966,0.002770,
1530,150,-0.079396,-4.813509,0.999999,0.000136,-0.000374,0.001886,-0.000234,0.001910,-0.000398,-84.153472,0.002015,
1870,1870,-0.393432,-0.477072,0.999997,0.000194,-0.001227,0.002530,0.000136,0.002535,-0.001232,87.937167,0.002535,
1810,1180,-0.920179,-2.163811,0.999999,0.000156,-0.001166,0.002391,0.000201,0.002403,-0.001177,86.776606,0.002403,
1740,200,-0.264230,-4.640748,0.999998,0.000173,-0.001008,0.002480,-0.000317,0.002508,-0.001036,-84.851367,0.002521,
1430,1610,-0.138206,-0.784031,0.999998,0.000149,-0.000829,0.002042,-0.000206,0.002057,-0.000844,-85.915866,0.002068,
1770,1110,-0.916642,-2.322208,0.999998,0.000147,-0.001117,0.002424,0.000188,0.002434,-0.001127,86.968447,0.002437,
1180,1420,0.030075,-1.032328,0.999999,0.000130,-0.000669,0.001473,0.000324,0.001521,-0.000717,81.577627,0.001522,
1390,130,-0.027277,-4.864497,0.999998,0.000148,-0.000199,0.001651,-0.000097,0.001656,-0.000204,-87.004607,0.001806,
950,420,0.208260,-4.254221,0.999998,0.000172,-0.000931,0.002220,-0.000141,0.002226,-0.000937,-87.437833,0.002235,
1340,340,-0.057269,-4.500432,0.999998,0.000170,-0.000577,0.001838,0.000082,0.001840,-0.000580,88.054888,0.001882,
950,210,0.109517,-4.699453,0.999998,0.000171,-0.000567,0.001961,0.000133,0.001967,-0.000574,87.005469,0.002024,
730,1320,0.698746,-1.772845,0.999998,0.000168,-0.001408,0.002683,-0.000190,0.002692,-0.001416,-87.349398,0.002693,
970,1340,0.299396,-1.498495,0.999997,0.000209,-0.001711,0.002879,0.000422,0.002918,-0.001749,84.785551,0.002937,
780,940,0.813348,-2.743378,0.999998,0.000156,-0.001104,0.002559,0.000221,0.002572,-0.001117,86.557353,0.002580,
850,1170,0.681782,-2.133397,0.999998,0.000191,-0.001347,0.002865,-0.000346,0.002894,-0.001375,-85.337644,0.002895,
1660,170,-0.162405,-4.743679,0.999998,0.000135,-0.000705,0.002183,-0.000369,0.002229,-0.000752,-82.826887,0.002268,
1690,760,-0.662235,-3.223701,0.999998,0.000159,-0.001452,0.002743,-0.000192,0.002752,-0.001461,-87.387876,0.002754,
1680,1990,-0.055645,-0.084427,0.999999,0.000142,-0.000322,0.001899,0.000534,0.002021,-0.000444,77.167107,0.002124,
1660,1490,-0.458297,-1.261015,0.999998,0.000169,-0.001366,0.002635,-0.000092,0.002637,-0.001368,-88.686406,0.002638,
920,1870,0.107746,-0.297801,0.999998,0.000162,-0.000447,0.001978,-0.000234,0.002000,-0.000470,-84.532287,0.002092,
1100,130,0.024670,-4.865500,0.999998,0.000128,-0.000184,0.001651,0.000085,0.001655,-0.000188,87.363045,0.001812,
1030,1590,0.143797,-0.826145,0.999998,0.000162,-0.000887,0.002123,0.000245,0.002143,-0.000907,85.380502,0.002152,
1640,1720,-0.289336,-0.669129,0.999998,0.000180,-0.001001,0.002385,0.000023,0.002385,-0.001001,89.602604,0.002395,
990,1070,0.624387,-2.363709,0.999998,0.000188,-0.001191,0.003606,-0.000086,0.003607,-0.001192,-88.974571,0.003676,
1240,400,-0.003933,-4.409708,0.999999,0.000136,-0.000585,0.001794,0.000031,0.001794,-0.000586,89.258357,0.001830,
900,1700,0.224835,-0.668432,0.999998,0.000166,-0.000953,0.002271,0.000036,0.002272,-0.000954,89.354339,0.002281,
1860,540,-0.703850,-3.685579,0.999998,0.000152,-0.001257,0.002531,-0.000002,0.002531,-0.001257,-89.964335,0.002531,
1110,900,0.321600,-3.447060,0.999998,0.000000,-0.000587,0.001743,-0.001482,0.002463,-0.001307,-64.082547,0.002464,
890,520,0.316630,-3.970373,0.999998,0.000174,-0.001289,0.002505,-0.000192,0.002515,-0.001298,-87.113435,0.002515,
860,1070,0.755685,-2.407208,0.999998,0.000203,-0.000994,0.002679,-0.000202,0.002690,-0.001005,-86.855396,0.002718,
1820,910,-0.952862,-2.791326,0.999999,0.000128,-0.001138,0.002341,-0.000141,0.002346,-0.001144,-87.687711,0.002347,
1760,1610,-0.507407,-1.033711,0.999997,0.000191,-0.001261,0.002546,-0.000048,0.002547,-0.001261,-89.278843,0.002547,
820,1480,0.441876,-1.273237,0.999997,0.000188,-0.001392,0.002667,0.000100,0.002670,-0.001394,88.595475,0.002671,
1810,1950,-0.186401,-0.202088,0.999998,0.000152,-0.000774,0.002567,0.000735,0.002721,-0.000929,78.123559,0.002767,
1060,190,0.050175,-4.760955,0.999999,0.000120,-0.000363,0.001776,0.000090,0.001780,-0.000367,87.584303,0.001880,
590,1580,0.672747,-1.200005,0.999998,0.000175,-0.001420,0.002495,0.000064,0.002496,-0.001421,89.064801,0.002504,
740,180,0.225440,-4.698219,0.999998,0.000161,-0.000794,0.002375,0.000421,0.002430,-0.000849,82.562686,0.002467,
1240,1610,-0.005145,-0.712095,0.999998,0.000152,-0.000618,0.001743,-0.000061,0.001745,-0.000620,-88.526025,0.001769,
1820,1590,-0.598015,-1.132633,0.999998,0.000182,-0.001274,0.002523,-0.000034,0.002523,-0.001274,-89.493130,0.002523,
1600,1520,-0.359131,-1.131749,0.999998,0.000171,-0.001322,0.002588,-0.000165,0.002595,-0.001329,-87.590157,0.002595,
1880,310,-0.550156,-4.243390,0.999997,0.000205,-0.001217,0.002495,0.000000,0.002495,-0.001217,89.997728,0.002495,
690,1650,0.494814,-0.942725,0.999997,0.000191,-0.001248,0.002533,0.000049,0.002534,-0.001249,89.262704,0.002534,
1280,1960,-0.006280,-0.114885,0.999999,0.000144,-0.000118,0.001565,0.000042,0.001566,-0.000119,88.583385,0.001744,
680,470,0.556014,-3.925106,0.999998,0.000178,-0.001248,0.002534,-0.000050,0.002534,-0.001248,-89.242531,0.002535,
660,160,0.275448,-4.697266,0.999998,0.000176,-0.000981,0.002604,0.000460,0.002662,-0.001039,82.803184,0.002683,
900,1670,0.241308,-0.738282,0.999998,0.000178,-0.001004,0.002303,0.000076,0.002305,-0.001006,88.686195,0.002311,
610,850,0.950711,-2.917010,0.999999,0.000125,-0.001143,0.002367,0.000127,0.002372,-0.001147,87.925487,0.002372,
860,1890,0.126694,-0.273114,0.999998,0.000168,-0.000585,0.002053,-0.000326,0.002093,-0.000625,-83.052000,0.002149,
1860,350,-0.558324,-4.162560,0.999998,0.000177,-0.001239,0.002500,0.000042,0.002500,-0.001239,89.354012,0.002500,
1470,960,-0.590243,-2.766284,0.999997,0.000183,-0.001340,0.003610,-0.000105,0.003612,-0.001343,-88.781723,0.003652,
1690,850,-0.751648,-2.978309,0.999998,0.000171,-0.001312,0.002686,-0.000298,0.002708,-0.001334,-85.759235,0.002708,
1610,140,-0.106757,-4.817236,0.999998,0.000185,-0.000457,0.002018,-0.000362,0.002070,-0.000508,-81.847235,0.002158,
600,530,0.700472,-3.708028,0.999998,0.000169,-0.001243,0.002585,0.000005,0.002585,-0.001243,89.921142,0.002586,
1080,1420,0.116554,-1.135008,0.999999,0.000133,-0.001077,0.002037,0.000635,0.002161,-0.001201,78.911415,0.002166,
1870,1120,-1.022322,-2.319409,0.999998,0.000154,-0.001083,0.002215,0.000094,0.002218,-0.001085,88.363619,0.002218,
1360,900,-0.320922,-3.401987,0.999998,0.000000,-0.000677,0.001973,0.001497,0.002647,-0.001351,65.757253,0.002647,
1430,1590,-0.141362,-0.824966,0.999999,0.000142,-0.000874,0.002087,-0.000230,0.002104,-0.000892,-85.588480,0.002112,
1670,1440,-0.507787,-1.402510,0.999997,0.000186,-0.001444,0.002715,-0.000031,0.002715,-0.001445,-89.577521,0.002717,
770,1700,0.361292,-0.755847,0.999998,0.000148,-0.001099,0.002422,-0.000024,0.002423,-0.001099,-89.616257,0.002426,
1600,850,-0.624026,-3.015940,0.999997,0.000196,-0.001515,0.002970,-0.000299,0.002989,-0.001535,-86.199701,0.002990,
730,320,0.379509,-4.345576,0.999997,0.000203,-0.001169,0.002499,0.000053,0.002500,-0.001170,89.179281,0.002501,
1180,1440,0.031409,-1.002450,0.999999,0.000133,-0.000671,0.001517,0.000292,0.001556,-0.000709,82.517335,0.001558,
1130,590,0.067607,-4.044655,0.999999,0.000140,-0.000828,0.001783,-0.000383,0.001838,-0.000883,-81.816780,0.001838,
1560,1560,-0.288428,-0.995744,0.999998,0.000170,-0.001161,0.002428,-0.000204,0.002439,-0.001173,-86.760492,0.002440,
1780,1450,-0.649341,-1.461187,0.999998,0.000202,-0.001322,0.002608,0.000019,0.002608,-0.001322,89.722879,0.002608,
1340,690,-0.073122,-3.860193,0.999999,0.000138,-0.000953,0.001733,0.000744,0.001926,-0.001145,75.508844,0.001937,
950,190,0.097680,-4.740247,0.999998,0.000162,-0.000516,0.001944,0.000176,0.001956,-0.000528,85.917533,0.002024,
1640,1490,-0.430875,-1.244680,0.999998,0.000163,-0.001397,0.002650,-0.000117,0.002654,-0.001400,-88.343843,0.002655,
1390,550,-0.117600,-4.069320,0.999998,0.000144,-0.000921,0.002008,0.000406,0.002063,-0.000976,82.259610,0.002064,
650,840,0.896263,-2.960164,0.999999,0.000140,-0.001190,0.002415,0.000208,0.002427,-0.001202,86.705779,0.002427,
1530,130,-0.069158,-4.848906,0.999999,0.000138,-0.000317,0.001808,-0.000255,0.001838,-0.000348,-83.258118,0.001953,
1110,30,0.003001,-5.021888,0.999999,0.000000,-0.000019,0.001477,0.000057,0.001480,-0.000021,87.816363,0.001696,
1220,1990,0.000019,-0.068124,0.999999,0.000129,-0.000105,0.001488,-0.000020,0.001489,-0.000106,-89.281756,0.001661,
1340,320,-0.055120,-4.537846,0.999998,0.000172,-0.000560,0.001814,0.000057,0.001815,-0.000562,88.631774,0.001859,
1040,190,0.058681,-4.756768,0.999999,0.000149,-0.000423,0.001788,0.000106,0.001793,-0.000428,87.260391,0.001873,
1030,1790,0.090976,-0.423300,0.999998,0.000193,-0.000590,0.001898,-0.000023,0.001898,-0.000590,-89.464123,0.001943,
1160,130,0.011786,-4.868551,0.999998,0.000146,-0.000149,0.001575,0.000050,0.001576,-0.000151,88.324014,0.001740,
820,1460,0.454630,-1.326973,0.999997,0.000187,-0.001415,0.002687,0.000087,0.002689,-0.001417,88.780031,0.002690,
1480,660,-0.248141,-3.711919,0.999998,0.000171,-0.001510,0.002623,0.000474,0.002676,-0.001564,83.546876,0.002689,
1290,1340,-0.031502,-1.148027,0.999998,0.000171,-0.000705,0.001232,-0.000575,0.001390,-0.000863,-74.656034,0.001403,
630,1040,1.002967,-2.490470,0.999997,0.000237,-0.001079,0.002293,-0.000047,0.002293,-0.001079,-89.204828,0.002294,
1350,260,-0.047724,-4.643411,0.999999,0.000135,-0.000433,0.001768,-0.000001,0.001768,-0.000433,-89.978326,0.001844,
910,190,0.115829,-4.729662,0.999998,0.000171,-0.000488,0.002004,0.000226,0.002024,-0.000508,84.859229,0.002106,
1740,180,-0.238344,-4.688774,0.999998,0.000166,-0.000973,0.002408,-0.000364,0.002447,-0.001012,-83.922239,0.002459,
780,910,0.794150,-2.820751,0.999998,0.000204,-0.001185,0.002628,0.000291,0.002650,-0.001208,85.657739,0.002654,
1880,300,-0.540366,-4.269289,0.999998,0.000195,-0.001220,0.002482,-0.000003,0.002482,-0.001220,-89.953510,0.002482,
780,960,0.825795,-2.691806,0.999998,0.000148,-0.001074,0.002599,0.000216,0.002612,-0.001086,86.639447,0.002624,
700,110,0.158282,-4.843786,0.999998,0.000156,-0.000872,0.002325,0.000584,0.002428,-0.000975,79.971819,0.002444,
1240,380,-0.003714,-4.445755,0.999998,0.000150,-0.000570,0.001759,0.000033,0.001759,-0.000570,89.182917,0.001795,
1860,520,-0.688736,-3.734162,0.999998,0.000159,-0.001248,0.002553,0.000009,0.002553,-0.001248,89.860249,0.002554,
1100,1570,0.087730,-0.820886,0.999999,0.000120,-0.000794,0.001936,0.000257,0.001959,-0.000818,84.673307,0.001968,
610,830,0.934553,-2.966916,0.999999,0.000132,-0.001158,0.002322,0.000135,0.002327,-0.001163,87.789610,0.002327,
660,140,0.245141,-4.750529,0.999998,0.000160,-0.000903,0.002585,0.000566,0.002675,-0.000993,81.014759,0.002704,
1840,370,-0.551145,-4.130858,0.999997,0.000198,-0.001233,0.002493,0.000009,0.002493,-0.001233,89.864313,0.002493,
740,160,0.198201,-4.744594,0.999998,0.000158,-0.000711,0.002338,0.000509,0.002421,-0.000793,80.768511,0.002468,
1760,1630,-0.494021,-0.982423,0.999998,0.000163,-0.001258,0.002541,-0.000044,0.002542,-0.001258,-89.341911,0.002542,
1770,1090,-0.924623,-2.370486,0.999998,0.000143,-0.001104,0.002404,0.000118,0.002408,-0.001108,88.068220,0.002411,
780,350,0.347402,-4.303459,0.999998,0.000188,-0.001114,0.002477,0.000018,0.002477,-0.001114,89.715073,0.002481,
1080,1640,0.093572,-0.696441,0.999998,0.000154,-0.000743,0.001947,0.000158,0.001956,-0.000752,86.655530,0.001974,
1600,1500,-0.370068,-1.184200,0.999998,0.000178,-0.001362,0.002590,-0.000179,0.002598,-0.001370,-87.413200,0.002599,
1430,1570,-0.144680,-0.867310,0.999998,0.000144,-0.000936,0.002117,-0.000286,0.002144,-0.000962,-84.696405,0.002147,
1360,30,-0.002416,-5.024821,0.999999,0.000000,-0.000003,0.001519,-0.000101,0.001525,-0.000009,-86.210451,0.001756,
1350,1320,-0.086403,-1.278704,0.999998,0.000178,-0.001147,0.001874,-0.000953,0.002150,-0.001423,-73.877348,0.002187,
1100,2020,0.004022,-0.022993,0.999999,0.000000,0.000005,0.001501,-0.000083,0.001505,0.000001,-86.849379,0.001739,
1390,570,-0.116483,-4.031087,0.999998,0.000143,-0.000963,0.002001,0.000433,0.002063,-0.001025,81.861145,0.002063,
730,300,0.362038,-4.395513,0.999998,0.000163,-0.001135,0.002496,0.000102,0.002499,-0.001138,88.389522,0.002502,
1560,1540,-0.295460,-1.044537,0.999999,0.000160,-0.001237,0.002485,-0.000216,0.002497,-0.001250,-86.690703,0.002497,
650,1700,0.506040,-0.850210,0.999998,0.000160,-0.001259,0.002528,-0.000002,0.002528,-0.001259,-89.972907,0.002528,
1130,570,0.069355,-4.080010,0.999999,0.000145,-0.000788,0.001822,-0.000341,0.001866,-0.000832,-82.687173,0.001870,
690,1800,0.365587,-0.563452,0.999997,0.000215,-0.001190,0.002553,-0.000119,0.002557,-0.001193,-88.182878,0.002559,
660,1430,0.697733,-1.530420,0.999998,0.000191,-0.001296,0.002571,-0.000045,0.002572,-0.001296,-89.338640,0.002572,
600,1630,0.622324,-1.067760,0.999997,0.000192,-0.001238,0.002507,0.000024,0.002507,-0.001238,89.630617,0.002507,
820,1440,0.467490,-1.381696,0.999997,0.000195,-0.001448,0.002696,0.000073,0.002697,-0.001449,88.996316,0.002699,
1340,300,-0.049697,-4.571928,0.999998,0.000151,-0.000520,0.001814,0.000054,0.001815,-0.000521,88.669867,0.001869,
1180,1460,0.031512,-0.970960,0.999999,0.000152,-0.000669,0.001589,0.000242,0.001614,-0.000694,83.945943,0.001619,
1800,1590,-0.572067,-1.116030,0.999998,0.000164,-0.001263,0.002512,-0.000044,0.002513,-0.001264,-89.337256,0.002513,
910,380,0.228403,-4.319266,0.999998,0.000159,-0.000959,0.002271,-0.000056,0.002272,-0.000960,-89.013330,0.002282,
1750,880,-0.851262,-2.882025,0.999998,0.000179,-0.001215,0.002524,-0.000265,0.002542,-0.001234,-85.971390,0.002543,
1530,110,-0.052233,-4.885763,0.999999,0.000131,-0.000272,0.001834,-0.000273,0.001868,-0.000307,-82.737389,0.002004,
1620,1250,-0.602764,-1.902686,0.999997,0.000184,-0.001538,0.002943,0.000236,0.002956,-0.001550,86.993732,0.002957,
1280,130,-0.008974,-4.869195,0.999999,0.000140,-0.000161,0.001610,-0.000018,0.001610,-0.000161,-89.431160,0.001774,
910,210,0.131093,-4.689744,0.999998,0.000180,-0.000562,0.002036,0.000209,0.002053,-0.000578,85.437873,0.002117,
1000,640,0.216249,-3.786347,0.999998,0.000158,-0.001400,0.002462,-0.000493,0.002524,-0.001462,-82.833541,0.002535,
1480,640,-0.240103,-3.764046,0.999998,0.000168,-0.001441,0.002523,0.000470,0.002578,-0.001495,83.333583,0.002589,
1430,220,-0.072878,-4.701281,0.999998,0.000187,-0.000454,0.001849,-0.000057,0.001851,-0.000456,-88.581138,0.001929,
780,890,0.777171,-2.873469,0.999998,0.000163,-0.001236,0.002632,0.000304,0.002656,-0.001260,85.540534,0.002657,
1240,360,-0.005193,-4.480356,0.999998,0.000152,-0.000542,0.001758,0.000049,0.001759,-0.000543,88.787213,0.001802,
1880,290,-0.530398,-4.294818,0.999997,0.000189,-0.001235,0.002454,0.000002,0.002454,-0.001235,89.966512,0.002454,
1810,1930,-0.222496,-0.255084,0.999998,0.000161,-0.000926,0.002603,0.000596,0.002701,-0.001024,80.664095,0.002727,
1860,1750,-0.520385,-0.764483,0.999998,0.000191,-0.001220,0.002495,-0.000002,0.002495,-0.001220,-89.975551,0.002495,
1740,160,-0.213932,-4.737835,0.999998,0.000177,-0.000888,0.002403,-0.000447,0.002463,-0.000948,-82.401103,0.002484,
1860,500,-0.674201,-3.787145,0.999998,0.000159,-0.001247,0.002545,0.000025,0.002545,-0.001247,89.618302,0.002546,
610,1250,0.914677,-2.016848,0.999998,0.000142,-0.001191,0.002344,-0.000113,0.002348,-0.001195,-88.173663,0.002348,
1700,330,-0.351147,-4.341263,0.999997,0.000186,-0.001085,0.002484,-0.000032,0.002484,-0.001085,-89.488916,0.002491,
1100,1550,0.089285,-0.859746,0.999999,0.000121,-0.000829,0.001922,0.000290,0.001952,-0.000860,84.041644,0.001957,
670,1420,0.691886,-1.548563,0.999997,0.000184,-0.001311,0.002587,-0.000061,0.002588,-0.001312,-89.100688,0.002589,
1710,1480,-0.533707,-1.329462,0.999997,0.000189,-0.001353,0.002628,-0.000056,0.002629,-0.001354,-89.191113,0.002629,
780,980,0.835435,-2.639502,0.999998,0.000151,-0.001044,0.002535,0.000135,0.002541,-0.001049,87.839011,0.002553,
740,140,0.172015,-4.789566,0.999998,0.000147,-0.000622,0.002279,0.000560,0.002383,-0.000726,79.438083,0.002443,
660,120,0.208549,-4.801379,0.999999,0.000140,-0.000807,0.002582,0.000679,0.002713,-0.000938,79.074077,0.002756,
1430,1550,-0.149031,-0.909313,0.999998,0.000146,-0.000987,0.002115,-0.000314,0.002146,-0.001019,-84.278974,0.002147,
1770,1070,-0.928609,-2.418501,0.999998,0.000144,-0.001094,0.002370,0.000084,0.002372,-0.001096,88.614273,0.002374,
1330,1680,-0.055526,-0.602215,0.999998,0.000169,-0.000641,0.001840,-0.000118,0.001846,-0.000647,-87.278389,0.001873,
1390,590,-0.119511,-3.988680,0.999999,0.000132,-0.000997,0.002037,0.000477,0.002110,-0.001070,81.264226,0.002110,
1080,1400,0.117141,-1.176670,0.999999,0.000136,-0.001155,0.002091,0.000685,0.002230,-0.001294,78.565882,0.002239,
1560,1760,-0.188179,-0.533704,0.999998,0.000178,-0.000794,0.002209,0.000089,0.002212,-0.000796,88.310189,0.002240,
590,1630,0.634162,-1.074853,0.999998,0.000176,-0.001554,0.002441,0.000180,0.002449,-0.001562,87.420550,0.002480,
590,530,0.713181,-3.700510,0.999998,0.000166,-0.001361,0.002603,-0.000019,0.002603,-0.001361,-89.724657,0.002604,
1610,120,-0.089374,-4.857053,0.999998,0.000169,-0.000386,0.001969,-0.000395,0.002033,-0.000450,-80.736886,0.002136,
710,300,0.386828,-4.379319,0.999998,0.000191,-0.001205,0.002509,0.000061,0.002510,-0.001206,89.065130,0.002511,
1350,1300,-0.091382,-1.315936,0.999998,0.000155,-0.001244,0.001893,-0.001020,0.002195,-0.001547,-73.477364,0.002256,
1130,550,0.069084,-4.115408,0.999999,0.000132,-0.000759,0.001794,-0.000281,0.001824,-0.000789,-83.786614,0.001830,
690,1820,0.344149,-0.512010,0.999998,0.000177,-0.001169,0.002527,-0.000188,0.002537,-0.001179,-87.095897,0.002539,
650,1680,0.520584,-0.899056,0.999998,0.000202,-0.001242,0.002509,0.000028,0.002509,-0.001242,89.571696,0.002509,
1600,1480,-0.381421,-1.233939,0.999997,0.000185,-0.001384,0.002626,-0.000187,0.002635,-0.001393,-87.340016,0.002636,
1340,280,-0.047949,-4.610627,0.999998,0.000141,-0.000485,0.001822,0.000019,0.001822,-0.000486,89.535126,0.001887,
1700,310,-0.336513,-4.391519,0.999998,0.000183,-0.001083,0.002479,-0.000066,0.002480,-0.001084,-88.939965,0.002487,
910,230,0.144594,-4.647958,0.999998,0.000178,-0.000595,0.002071,0.000173,0.002082,-0.000606,86.310666,0.002141,
1350,2020,-0.003477,-0.022888,0.999998,0.000000,-0.000028,0.001551,0.000041,0.001552,-0.000029,88.514837,0.001776,
1180,1480,0.030862,-0.938434,0.999998,0.000163,-0.000661,0.001615,0.000217,0.001636,-0.000682,84.606392,0.001643,
1570,1340,-0.430533,-1.594371,0.999997,0.000188,-0.001667,0.002928,-0.000104,0.002931,-0.001669,-88.701532,0.002940,
820,1420,0.483759,-1.435731,0.999997,0.000196,-0.001485,0.002730,0.000065,0.002731,-0.001486,89.110057,0.002735,
1550,1180,-0.578391,-2.068809,0.999998,0.000158,-0.001542,0.003110,0.000318,0.003132,-0.001564,86.112052,0.003132,
630,840,0.920616,-2.953528,0.999999,0.000131,-0.001165,0.002384,0.000161,0.002391,-0.001172,87.406199,0.002391,
910,360,0.217446,-4.364712,0.999998,0.000178,-0.000893,0.002263,-0.000015,0.002263,-0.000893,-89.731250,0.002279,
1100,1150,0.339527,-1.663094,0.999998,0.000000,-0.000702,0.001984,0.001673,0.002786,-0.001504,64.381685,0.002789,
890,180,0.119466,-4.745745,0.999998,0.000147,-0.000582,0.002008,0.000249,0.002032,-0.000606,84.564321,0.002086,
1530,90,-0.044229,-4.922031,0.999999,0.000125,-0.000204,0.001743,-0.000284,0.001783,-0.000245,-81.870208,0.001933,
1430,200,-0.065444,-4.737067,0.999998,0.000176,-0.000403,0.001810,-0.000084,0.001813,-0.000407,-87.818584,0.001903,
1870,290,-0.517673,-4.303852,0.999998,0.000179,-0.001225,0.002478,-0.000015,0.002478,-0.001225,-89.761513,0.002478,
760,910,0.818801,-2.815347,0.999999,0.000125,-0.001190,0.002573,0.000270,0.002593,-0.001210,85.913035,0.002595,
1480,620,-0.233365,-3.815291,0.999998,0.000167,-0.001383,0.002482,0.000448,0.002534,-0.001434,83.469420,0.002541,
1160,1330,0.041254,-1.176233,0.999998,0.000155,-0.000760,0.001298,0.000726,0.001528,-0.000990,72.399648,0.001550,
1740,140,-0.182884,-4.785460,0.999998,0.000170,-0.000810,0.002318,-0.000507,0.002399,-0.000891,-81.013884,0.002425,
1860,720,-0.850958,-3.226885,0.999999,0.000155,-0.001245,0.002478,-0.000070,0.002479,-0.001246,-88.924326,0.002479,
1690,1680,-0.372791,-0.801711,0.999998,0.000168,-0.001107,0.002454,-0.000023,0.002454,-0.001107,-89.630288,0.002458,
1240,340,-0.004066,-4.515259,0.999998,0.000157,-0.000522,0.001746,0.000044,0.001747,-0.000523,88.888368,0.001794,
610,1270,0.899216,-1.969315,0.999998,0.000142,-0.001215,0.002409,-0.000127,0.002413,-0.001219,-87.990680,0.002413,
1720,310,-0.357726,-4.378634,0.999997,0.000216,-0.001070,0.002507,-0.000088,0.002509,-0.001072,-88.591710,0.002518,
1430,1530,-0.152785,-0.953045,0.999999,0.000147,-0.001021,0.002174,-0.000361,0.002214,-0.001061,-83.632729,0.002215,
1150,1440,0.053181,-1.023558,0.999999,0.000137,-0.000732,0.001630,0.000386,0.001691,-0.000794,80.947322,0.001692,
740,120,0.142679,-4.837719,0.999998,0.000142,-0.000523,0.002283,0.000611,0.002410,-0.000651,78.237494,0.002494,
660,100,0.173053,-4.852729,0.999999,0.000136,-0.000650,0.002493,0.000799,0.002685,-0.000842,76.525469,0.002746,
1810,1910,-0.258241,-0.305049,0.999998,0.000179,-0.000980,0.002594,0.000503,0.002664,-0.001049,82.133299,0.002684,
1770,1050,-0.933955,-2.463400,0.999998,0.000157,-0.001077,0.002413,0.000091,0.002415,-0.001080,88.507724,0.002419,
1010,1740,0.120740,-0.530285,0.999998,0.000172,-0.000635,0.001978,-0.000006,0.001978,-0.000635,-89.866975,0.002020,
1390,610,-0.121631,-3.948625,0.999998,0.000161,-0.001055,0.002088,0.000567,0.002187,-0.001154,80.087710,0.002188,
810,1660,0.343819,-0.824220,0.999998,0.000158,-0.001150,0.002484,0.000029,0.002484,-0.001150,89.549013,0.002487,
770,1420,0.554711,-1.475014,0.999998,0.000173,-0.001425,0.002696,-0.000010,0.002696,-0.001425,-89.866468,0.002697,
780,1420,0.539566,-1.468423,0.999997,0.000183,-0.001428,0.002700,0.000001,0.002700,-0.001428,89.990965,0.002702,
1400,730,-0.153105,-3.667598,0.999998,0.000165,-0.001497,0.002405,0.000842,0.002579,-0.001671,78.329786,0.002616,
1080,1360,0.120427,-1.258509,0.999998,0.000142,-0.001255,0.002142,0.000793,0.002318,-0.001431,77.484286,0.002339,
1770,420,-0.503057,-4.062009,0.999997,0.000192,-0.001237,0.002540,0.000027,0.002540,-0.001237,89.589574,0.002540,
1020,840,0.330367,-3.248977,0.999997,0.000191,-0.001951,0.003369,-0.000451,0.003407,-0.001989,-85.188332,0.003423,
1350,1160,-0.305847,-1.572775,0.999998,0.000000,-0.000607,0.001680,-0.001326,0.002288,-0.001215,-65.388811,0.002289,
1180,1920,0.010047,-0.177815,0.999999,0.000143,-0.000183,0.001601,-0.000038,0.001601,-0.000184,-88.788785,0.001753,
910,250,0.156435,-4.606613,0.999998,0.000158,-0.000639,0.002116,0.000149,0.002124,-0.000648,86.904796,0.002178,
1130,530,0.067946,-4.150702,0.999999,0.000145,-0.000753,0.001790,-0.000251,0.001815,-0.000777,-84.412059,0.001821,
1550,1360,-0.381836,-1.514302,0.999997,0.000209,-0.001644,0.002870,-0.000194,0.002879,-0.001652,-87.542997,0.002889,
820,1400,0.496903,-1.489993,0.999997,0.000208,-0.001520,0.002754,0.000031,0.002754,-0.001520,89.586324,0.002759,
1420,1670,-0.117635,-0.657925,0.999998,0.000164,-0.000773,0.002001,-0.000127,0.002007,-0.000779,-87.381457,0.002024,
1100,1140,0.363131,-1.683149,0.999997,0.000000,-0.000702,0.002197,0.001961,0.003186,-0.001691,63.232615,0.003188,
890,160,0.105008,-4.784813,0.999998,0.000159,-0.000491,0.001985,0.000272,0.002015,-0.000521,83.808840,0.002092,
1530,70,-0.028474,-4.955561,0.999999,0.000110,-0.000127,0.001685,-0.000301,0.001733,-0.000176,-80.822196,0.001908,
1380,190,-0.042738,-4.763682,0.999999,0.000145,-0.000272,0.001770,-0.000083,0.001773,-0.000275,-87.667099,0.001908,
1480,600,-0.227072,-3.863049,0.999998,0.000152,-0.001320,0.002461,0.000428,0.002509,-0.001368,83.616414,0.002512,
580,530,0.725180,-3.692325,0.999998,0.000168,-0.001708,0.002688,-0.000040,0.002688,-0.001708,-89.481597,0.002721,
1740,1270,-0.755470,-1.910303,0.999998,0.000182,-0.001361,0.002610,0.000242,0.002625,-0.001375,86.531470,0.002626,
890,1360,0.419664,-1.539264,0.999997,0.000218,-0.001656,0.002885,0.000130,0.002888,-0.001660,88.365049,0.002899,
1340,260,-0.043050,-4.645348,0.999999,0.000139,-0.000455,0.001758,0.000012,0.001758,-0.000456,89.701651,0.001825,
610,840,0.943252,-2.942718,0.999999,0.000126,-0.001154,0.002352,0.000135,0.002358,-0.001159,87.792377,0.002358,
1610,100,-0.070145,-4.896603,0.999999,0.000140,-0.000307,0.001878,-0.000371,0.001939,-0.000368,-80.612899,0.002060,
890,500,0.306545,-4.019922,0.999998,0.000179,-0.001248,0.002450,-0.000199,0.002460,-0.001258,-86.929758,0.002461,
630,1680,0.546899,-0.915915,0.999998,0.000189,-0.001250,0.002514,0.000031,0.002514,-0.001250,89.529208,0.002514,
1600,1460,-0.393252,-1.288265,0.999997,0.000187,-0.001416,0.002648,-0.000157,0.002654,-0.001422,-87.797949,0.002656,
1630,580,-0.425564,-3.763928,0.999997,0.000182,-0.001413,0.002670,0.000127,0.002674,-0.001417,88.221262,0.002675,
1560,1520,-0.308399,-1.097138,0.999998,0.000177,-0.001283,0.002533,-0.000215,0.002545,-0.001295,-86.792957,0.002545,
1320,1550,-0.057392,-0.837314,0.999998,0.000143,-0.000730,0.001828,-0.000245,0.001851,-0.000753,-84.587669,0.001862,
670,1260,0.832767,-1.960133,0.999998,0.000157,-0.001264,0.002528,-0.000213,0.002540,-0.001275,-86.789462,0.002540,
1240,320,-0.003447,-4.549721,0.999998,0.000156,-0.000488,0.001756,0.000025,0.001756,-0.000489,89.358295,0.001813,
1860,290,-0.504887,-4.312740,0.999998,0.000174,-0.001220,0.002502,-0.000017,0.002503,-0.001220,-89.740696,0.002503,
1820,1010,-0.987543,-2.559858,0.999998,0.000194,-0.001092,0.002284,-0.000062,0.002285,-0.001093,-88.952950,0.002286,
1430,1950,-0.029089,-0.135348,0.999998,0.000165,-0.000225,0.001689,0.000147,0.001701,-0.000236,85.641020,0.001842,
1720,330,-0.372527,-4.328356,0.999997,0.000194,-0.001121,0.002508,-0.000047,0.002508,-0.001122,-89.261372,0.002513,
1710,1680,-0.395955,-0.817572,0.999998,0.000180,-0.001202,0.002480,-0.000010,0.002480,-0.001202,-89.845196,0.002481,
1770,1030,-0.937089,-2.515508,0.999998,0.000163,-0.001072,0.002424,0.000015,0.002424,-0.001072,89.752537,0.002430,
1860,480,-0.661148,-3.836779,0.999998,0.000171,-0.001240,0.002522,0.000029,0.002522,-0.001240,89.560026,0.002522,
620,1390,0.781690,-1.661981,0.999997,0.000181,-0.001275,0.002556,-0.000062,0.002557,-0.001276,-89.072716,0.002557,
1810,1890,-0.291400,-0.358046,0.999998,0.000182,-0.001021,0.002631,0.000429,0.002681,-0.001070,83.394724,0.002699,
1390,1310,-0.142942,-1.387301,0.999998,0.000175,-0.001520,0.002385,-0.000892,0.002579,-0.001715,-77.726886,0.002626,
970,1620,0.193806,-0.807008,0.999998,0.000137,-0.000972,0.002208,0.000176,0.002218,-0.000982,86.838904,0.002222,
850,620,0.427166,-3.672510,0.999998,0.000164,-0.001500,0.002715,-0.000128,0.002718,-0.001503,-88.258483,0.002724,
910,690,0.383322,-3.536651,0.999997,0.000199,-0.001637,0.002865,-0.000193,0.002874,-0.001645,-87.544090,0.002884,
1180,1900,0.012025,-0.209703,0.999998,0.000141,-0.000222,0.001644,-0.000038,0.001645,-0.000223,-88.829758,0.001785,
1080,1340,0.123684,-1.304715,0.999998,0.000153,-0.001333,0.002193,0.000852,0.002388,-0.001528,77.102666,0.002419,
810,1640,0.356122,-0.874455,0.999998,0.000169,-0.001183,0.002465,0.000069,0.002467,-0.001185,88.917815,0.002467,
1020,800,0.276990,-3.376379,0.999998,0.000179,-0.001939,0.003071,-0.000571,0.003135,-0.002003,-83.575749,0.003175,
1020,510,0.164360,-4.108052,0.999998,0.000148,-0.001006,0.002205,-0.000328,0.002238,-0.001039,-84.227520,0.002240,
1550,1340,-0.396757,-1.571528,0.999998,0.000175,-0.001692,0.002927,-0.000167,0.002933,-0.001698,-87.928151,0.002945,
780,1400,0.558643,-1.520644,0.999997,0.000197,-0.001444,0.002712,-0.000024,0.002712,-0.001444,-89.666739,0.002714,
1780,1270,-0.807786,-1.929177,0.999999,0.000132,-0.001259,0.002525,0.000215,0.002537,-0.001271,86.757005,0.002537,
820,1600,0.370051,-0.964974,0.999998,0.000180,-0.001227,0.002494,0.000094,0.002496,-0.001229,88.556775,0.002496,
1310,1680,-0.043130,-0.596011,0.999998,0.000150,-0.000568,0.001792,-0.000059,0.001794,-0.000569,-88.556901,0.001833,
1610,1000,-0.766242,-2.592555,0.999998,0.000200,-0.000967,0.002639,-0.000106,0.002642,-0.000970,-88.317848,0.002673,
1130,510,0.067774,-4.186827,0.999999,0.000135,-0.000751,0.001792,-0.000229,0.001812,-0.000772,-84.896016,0.001819,
660,80,0.130331,-4.903325,0.999999,0.000136,-0.000478,0.002505,0.000977,0.002797,-0.000770,73.384170,0.002890,
1100,920,0.375996,-3.339269,0.999998,0.000000,-0.000562,0.002494,-0.001893,0.003398,-0.001466,-64.453128,0.003409,
1360,190,-0.037542,-4.764939,0.999998,0.000147,-0.000299,0.001751,-0.000057,0.001752,-0.000301,-88.401832,0.001874,
1560,1550,-0.291720,-1.019557,0.999999,0.000161,-0.001201,0.002458,-0.000212,0.002471,-0.001213,-86.701903,0.002471,
740,100,0.113532,-4.880796,0.999998,0.000148,-0.000431,0.002113,0.000610,0.002252,-0.000570,77.185452,0.002342,
1820,990,-0.982847,-2.605842,0.999999,0.000152,-0.001086,0.002279,-0.000063,0.002280,-0.001087,-88.928507,0.002281,
1880,340,-0.575517,-4.169287,0.999998,0.000186,-0.001238,0.002478,0.000006,0.002478,-0.001238,89.902941,0.002478,
1740,120,-0.153578,-4.829765,0.999999,0.000149,-0.000725,0.002278,-0.000575,0.002384,-0.000832,-79.531666,0.002420,
1750,940,-0.889910,-2.733461,0.999998,0.000148,-0.001121,0.002471,-0.000186,0.002481,-0.001131,-87.041940,0.002484,
1490,320,-0.147113,-4.484806,0.999998,0.000196,-0.000781,0.002121,0.000016,0.002121,-0.000781,89.692148,0.002145,
1560,1480,-0.326224,-1.197094,0.999998,0.000170,-0.001348,0.002563,-0.000250,0.002579,-0.001364,-86.361342,0.002580,
1770,1010,-0.933496,-2.561681,0.999998,0.000169,-0.001068,0.002378,-0.000068,0.002379,-0.001070,-88.866293,0.002383,
1100,1610,0.083728,-0.745478,0.999998,0.000162,-0.000713,0.001899,0.000166,0.001909,-0.000724,86.371640,0.001928,
1860,440,-0.629625,-3.938911,0.999998,0.000179,-0.001246,0.002494,0.000030,0.002494,-0.001247,89.546954,0.002494,
820,650,0.493766,-3.563337,0.999997,0.000200,-0.001506,0.002799,-0.000041,0.002800,-0.001506,-89.457693,0.002803,
710,1260,0.782099,-1.940504,0.999998,0.000180,-0.001280,0.002587,-0.000233,0.002601,-0.001294,-86.562329,0.002601,
610,1290,0.881294,-1.918823,0.999998,0.000142,-0.001205,0.002478,-0.000092,0.002480,-0.001207,-88.574917,0.002480,
1600,1440,-0.405546,-1.341919,0.999998,0.000165,-0.001471,0.002704,-0.000166,0.002711,-0.001477,-87.727364,0.002714,
850,600,0.413813,-3.725937,0.999998,0.000177,-0.001440,0.002693,-0.000133,0.002697,-0.001444,-88.162582,0.002700,
1700,1830,-0.255961,-0.442261,0.999998,0.000143,-0.000906,0.002383,0.000275,0.002406,-0.000929,85.257949,0.002427,
1080,1320,0.128373,-1.347724,0.999998,0.000180,-0.001437,0.002259,0.000928,0.002478,-0.001657,76.668186,0.002525,
950,400,0.200555,-4.298582,0.999998,0.000170,-0.000939,0.002224,-0.000116,0.002228,-0.000943,-87.903761,0.002237,
1810,1870,-0.322235,-0.410754,0.999998,0.000190,-0.001053,0.002569,0.000338,0.002600,-0.001084,84.707744,0.002612,
1350,1150,-0.333190,-1.590805,0.999998,0.000000,-0.000598,0.001808,-0.001479,0.002511,-0.001302,-64.564082,0.002512,
1480,580,-0.222730,-3.912707,0.999998,0.000155,-0.001266,0.002391,0.000392,0.002433,-0.001307,83.954356,0.002435,
990,1510,0.203431,-1.036591,0.999998,0.000157,-0.001152,0.002301,0.000362,0.002338,-0.001190,84.078798,0.002338,
1640,1700,-0.300366,-0.716494,0.999998,0.000185,-0.001034,0.002396,0.000004,0.002396,-0.001034,89.930866,0.002403,
1690,830,-0.730776,-3.032550,0.999998,0.000169,-0.001342,0.002700,-0.000295,0.002722,-0.001364,-85.852454,0.002722,
1340,240,-0.041863,-4.678544,0.999999,0.000141,-0.000430,0.001752,-0.000004,0.001752,-0.000430,-89.886040,0.001826,
850,820,0.608520,-3.096208,0.999997,0.000204,-0.001551,0.002940,0.000266,0.002956,-0.001566,86.625642,0.002957,
1130,490,0.067696,-4.224281,0.999999,0.000137,-0.000720,0.001858,-0.000199,0.001873,-0.000736,-85.608930,0.001888,
1860,170,-0.358201,-4.614186,0.999997,0.000188,-0.001231,0.002580,-0.000168,0.002587,-0.001239,-87.482447,0.002588,
1520,1980,-0.032390,-0.092147,0.999999,0.000135,-0.000170,0.001718,0.000262,0.001754,-0.000206,82.243934,0.001917,
1160,1470,0.045713,-0.967149,0.999999,0.000133,-0.000738,0.001678,0.000317,0.001719,-0.000779,82.648343,0.001722,
1870,340,-0.562260,-4.178331,0.999998,0.000167,-0.001250,0.002504,0.000032,0.002505,-0.001250,89.505199,0.002505,
740,80,0.086559,-4.920034,0.999998,0.000151,-0.000357,0.001966,0.000624,0.002123,-0.000514,75.879278,0.002215,
820,810,0.643481,-3.108806,0.999998,0.000211,-0.001486,0.002845,0.000280,0.002863,-0.001504,86.311726,0.002864,
1390,1800,-0.065375,-0.394252,0.999998,0.000186,-0.000447,0.001823,0.000057,0.001825,-0.000448,88.565024,0.001902,
1490,1420,-0.254279,-1.275735,0.999998,0.000176,-0.001472,0.002569,-0.000433,0.002615,-0.001518,-83.948556,0.002626,
1120,1610,0.071223,-0.736583,0.999998,0.000155,-0.000663,0.001850,0.000168,0.001862,-0.000674,86.192433,0.001885,
600,1390,0.808161,-1.676936,0.999998,0.000168,-0.001258,0.002522,-0.000033,0.002522,-0.001258,-89.504695,0.002522,
1430,1970,-0.021618,-0.103039,0.999998,0.000159,-0.000172,0.001606,0.000145,0.001618,-0.000184,85.359581,0.001771,
1800,330,-0.469016,-4.265580,0.999998,0.000166,-0.001213,0.002524,-0.000009,0.002524,-0.001213,-89.867185,0.002524,
1770,990,-0.930480,-2.610062,0.999998,0.000161,-0.001082,0.002371,-0.000075,0.002373,-0.001084,-88.750589,0.002376,
850,1130,0.723127,-2.244815,0.999998,0.000176,-0.001222,0.002785,-0.000367,0.002819,-0.001255,-84.814567,0.002824,
1610,180,-0.143176,-4.734367,0.999998,0.000170,-0.000622,0.002108,-0.000285,0.002138,-0.000651,-84.094717,0.002192,
1180,1880,0.013190,-0.243536,0.999999,0.000127,-0.000248,0.001651,-0.000023,0.001651,-0.000248,-89.305884,0.001781,
1870,1110,-1.026886,-2.342611,0.999998,0.000154,-0.001069,0.002181,0.000059,0.002182,-0.001070,88.956890,0.002182,
640,1770,0.456879,-0.679269,0.999997,0.000203,-0.001202,0.002515,-0.000037,0.002515,-0.001203,-89.433260,0.002516,
1730,340,-0.392648,-4.295922,0.999998,0.000158,-0.001182,0.002493,-0.000031,0.002493,-0.001183,-89.512754,0.002494,
1320,710,-0.055226,-3.857541,0.999999,0.000144,-0.000876,0.001544,0.000781,0.001774,-0.001106,73.579671,0.001792,
780,1380,0.572901,-1.577281,0.999997,0.000197,-0.001472,0.002757,-0.000052,0.002758,-0.001472,-89.291665,0.002760,
1240,300,-0.002739,-4.585769,0.999998,0.000170,-0.000475,0.001769,0.000013,0.001770,-0.000475,89.656876,0.001832,
1140,190,0.024238,-4.769867,0.999999,0.000140,-0.000304,0.001676,0.000037,0.001677,-0.000305,88.926856,0.001787,
740,430,0.450957,-4.074251,0.999998,0.000171,-0.001243,0.002527,-0.000056,0.002528,-0.001244,-89.148551,0.002528,
900,750,0.450080,-3.347586,0.999996,0.000220,-0.001717,0.003055,-0.000046,0.003055,-0.001718,-89.443879,0.003063,
830,930,0.751796,-2.776814,0.999998,0.000173,-0.001169,0.002709,0.000317,0.002735,-0.001194,85.351516,0.002742,
730,840,0.798279,-2.989247,0.999998,0.000159,-0.001290,0.002608,0.000291,0.002630,-0.001311,85.759290,0.002630,
1580,810,-0.544987,-3.149847,0.999998,0.000167,-0.001648,0.003044,-0.000207,0.003053,-0.001657,-87.482138,0.003057,
990,1490,0.208315,-1.083197,0.999998,0.000154,-0.001213,0.002343,0.000387,0.002384,-0.001254,83.861109,0.002385,
1600,1420,-0.416651,-1.397545,0.999998,0.000181,-0.001517,0.002772,-0.000148,0.002777,-0.001522,-88.030264,0.002781,
950,600,0.272015,-3.826544,0.999997,0.000192,-0.001391,0.002564,-0.000339,0.002593,-0.001420,-85.133219,0.002597,
1450,1680,-0.136773,-0.651336,0.999998,0.000168,-0.000747,0.002082,-0.000076,0.002084,-0.000749,-88.455854,0.002111,
690,1260,0.807430,-1.950223,0.999998,0.000160,-0.001279,0.002563,-0.000214,0.002575,-0.001291,-86.822669,0.002575,
1350,900,-0.322225,-3.460782,0.999996,0.000000,-0.000529,0.001686,0.001445,0.002399,-0.001242,63.733890,0.002399,
1640,1680,-0.315476,-0.766351,0.999998,0.000199,-0.001093,0.002418,-0.000007,0.002418,-0.001093,-89.886763,0.002422,
1810,1850,-0.349208,-0.463426,0.999997,0.000202,-0.001107,0.002567,0.000261,0.002586,-0.001125,85.951484,0.002593,
1220,1930,0.001439,-0.161413,0.999999,0.000131,-0.000176,0.001589,0.000014,0.001589,-0.000176,89.560577,0.001742,
1480,560,-0.216894,-3.959368,0.999998,0.000154,-0.001232,0.002365,0.000360,0.002400,-0.001267,84.331936,0.002402,
1740,100,-0.123570,-4.876280,0.999998,0.000158,-0.000651,0.002161,-0.000604,0.002285,-0.000775,-78.381351,0.002324,
1100,910,0.353181,-3.365102,0.999998,0.000000,-0.000652,0.002255,-0.001678,0.003021,-0.001419,-65.447257,0.003023,
1080,1300,0.135746,-1.395348,0.999998,0.000174,-0.001532,0.002365,0.000970,0.002593,-0.001760,76.764593,0.002648,
1340,220,-0.035097,-4.715610,0.999998,0.000158,-0.000378,0.001740,0.000003,0.001740,-0.000378,89.914329,0.001830,
1690,1050,-0.849025,-2.464244,0.999998,0.000140,-0.001028,0.002499,0.000097,0.002502,-0.001030,88.426803,0.002515,
1860,150,-0.325801,-4.664740,0.999998,0.000182,-0.001225,0.002574,-0.000239,0.002589,-0.001240,-86.420833,0.002589,
1130,470,0.065792,-4.261156,0.999998,0.000157,-0.000713,0.001861,-0.000189,0.001875,-0.000727,-85.829845,0.001891,
1420,1270,-0.220021,-1.564210,0.999998,0.000169,-0.001829,0.002879,-0.000798,0.003010,-0.001960,-80.641032,0.003056,
1560,1460,-0.335052,-1.248965,0.999998,0.000176,-0.001416,0.002620,-0.000240,0.002634,-0.001431,-86.610855,0.002637,
890,1120,0.683743,-2.260086,0.999997,0.000200,-0.001167,0.002910,-0.000355,0.002941,-0.001198,-85.063269,0.002958,
1520,1960,-0.042993,-0.125782,0.999999,0.000139,-0.000225,0.001752,0.000254,0.001785,-0.000257,82.785676,0.001929,
740,500,0.498826,-3.897376,0.999998,0.000163,-0.001278,0.002559,-0.000066,0.002560,-0.001279,-89.011023,0.002560,
1460,1550,-0.180520,-0.935520,0.999999,0.000135,-0.001046,0.002201,-0.000284,0.002226,-0.001071,-85.031462,0.002227,
780,1360,0.590978,-1.632071,0.999997,0.000201,-0.001484,0.002764,-0.000092,0.002766,-0.001486,-88.754402,0.002769,
1160,1210,0.116432,-1.311887,0.999998,0.000135,-0.001188,0.000895,0.000417,0.000976,-0.001268,79.092149,0.001328,
1340,530,-0.073446,-4.145942,0.999999,0.000133,-0.000750,0.001858,0.000257,0.001883,-0.000775,84.427479,0.001893,
1180,1860,0.015541,-0.275779,0.999998,0.000163,-0.000273,0.001664,-0.000031,0.001665,-0.000274,-89.089341,0.001785,
1560,950,-0.685982,-2.739638,0.999998,0.000160,-0.001133,0.002933,-0.000313,0.002957,-0.001156,-85.628615,0.002980,
1470,1420,-0.224360,-1.249852,0.999998,0.000148,-0.001394,0.002464,-0.000463,0.002518,-0.001448,-83.256080,0.002528,
580,1510,0.735898,-1.386546,0.999998,0.000184,-0.001720,0.002738,0.000225,0.002750,-0.001731,87.112838,0.002780,
1610,160,-0.125850,-4.776116,0.999998,0.000140,-0.000534,0.002061,-0.000333,0.002103,-0.000576,-82.801069,0.002173,
620,1770,0.480106,-0.698570,0.999997,0.000206,-0.001191,0.002496,-0.000015,0.002496,-0.001191,-89.771122,0.002497,
1870,1100,-1.030067,-2.364920,0.999999,0.000140,-0.001056,0.002156,0.000018,0.002156,-0.001056,89.687768,0.002156,
1240,280,-0.004424,-4.621507,0.999998,0.000152,-0.000442,0.001764,0.000014,0.001764,-0.000442,89.634134,0.001836,
1820,630,-0.722278,-3.484109,0.999997,0.000211,-0.001304,0.002567,-0.000037,0.002567,-0.001305,-89.450066,0.002567,
800,810,0.671517,-3.099243,0.999998,0.000183,-0.001461,0.002798,0.000269,0.002815,-0.001478,86.396386,0.002817,
1490,340,-0.154653,-4.442032,0.999998,0.000190,-0.000833,0.002107,0.000053,0.002108,-0.000834,88.959374,0.002123,
1770,970,-0.925768,-2.656698,0.999998,0.000166,-0.001102,0.002374,-0.000099,0.002377,-0.001104,-88.363749,0.002379,
1390,1780,-0.070185,-0.431684,0.999998,0.000201,-0.000481,0.001864,0.000031,0.001864,-0.000481,89.231044,0.001936,
1430,1990,-0.014341,-0.070846,0.999999,0.000146,-0.000116,0.001603,0.000141,0.001614,-0.000127,85.331706,0.001795,
740,410,0.438142,-4.124669,0.999998,0.000189,-0.001242,0.002554,-0.000048,0.002555,-0.001243,-89.277356,0.002555,
840,480,0.358313,-4.026571,0.999998,0.000156,-0.001235,0.002515,-0.000120,0.002519,-0.001238,-88.170149,0.002519,
920,750,0.415210,-3.370849,0.999996,0.000218,-0.001760,0.003071,-0.000119,0.003074,-0.001763,-88.589055,0.003085,
950,580,0.264085,-3.878923,0.999998,0.000175,-0.001328,0.002497,-0.000334,0.002526,-0.001357,-85.040536,0.002529,
1120,190,0.030833,-4.767212,0.999998,0.000161,-0.000342,0.001706,0.000037,0.001706,-0.000343,88.975227,0.001805,
1600,1400,-0.432067,-1.451174,0.999997,0.000186,-0.001544,0.002784,-0.000105,0.002786,-0.001547,-88.609034,0.002792,
1640,1650,-0.334937,-0.839126,0.999998,0.000170,-0.001139,0.002454,-0.000043,0.002455,-0.001140,-89.311864,0.002457,
1580,790,-0.521095,-3.211022,0.999997,0.000188,-0.001686,0.003049,-0.000144,0.003054,-0.001691,-88.254997,0.003060,
880,830,0.573741,-3.087092,0.999998,0.000169,-0.001622,0.003004,0.000234,0.003016,-0.001634,87.110713,0.003019,
1350,30,-0.002571,-5.023662,0.999999,0.000000,-0.000014,0.001507,-0.000107,0.001515,-0.000021,-86.009963,0.001737,
1480,540,-0.208788,-4.006449,0.999998,0.000162,-0.001188,0.002340,0.000340,0.002373,-0.001220,84.552833,0.002373,
1810,1830,-0.375847,-0.514576,0.999997,0.000211,-0.001152,0.002565,0.000203,0.002576,-0.001163,86.887479,0.002580,
1080,1280,0.146175,-1.442088,0.999998,0.000163,-0.001596,0.002434,0.001005,0.002671,-0.001833,76.742604,0.002732,
570,1260,0.954669,-2.018851,0.999997,0.000210,-0.001228,0.002284,0.000010,0.002284,-0.001228,89.831151,0.002286,
1690,810,-0.710778,-3.085704,0.999998,0.000167,-0.001372,0.002714,-0.000269,0.002731,-0.001390,-86.254060,0.002731,
1340,200,-0.034553,-4.750613,0.999998,0.000150,-0.000337,0.001734,-0.000003,0.001734,-0.000337,-89.910121,0.001839,
990,1470,0.214948,-1.133224,0.999998,0.000156,-0.001272,0.002403,0.000423,0.002451,-0.001320,83.520523,0.002453,
1640,1660,-0.329048,-0.815337,0.999998,0.000187,-0.001121,0.002437,-0.000030,0.002438,-0.001121,-89.522878,0.002440,
740,520,0.512757,-3.844991,0.999998,0.000162,-0.001296,0.002576,-0.000057,0.002577,-0.001297,-89.159481,0.002577,
880,1930,0.082190,-0.188816,0.999999,0.000126,-0.000429,0.001913,-0.000316,0.001955,-0.000471,-82.448430,0.002040,
1130,450,0.064019,-4.297020,0.999998,0.000178,-0.000675,0.001867,-0.000171,0.001879,-0.000687,-86.159634,0.001901,
1100,30,0.001181,-5.022031,0.999999,0.000000,0.000000,0.001477,0.000090,0.001483,-0.000005,86.528550,0.001709,
780,1340,0.608698,-1.688009,0.999998,0.000198,-0.001486,0.002765,-0.000132,0.002769,-0.001490,-88.223100,0.002772,
1140,1210,0.138661,-1.383228,0.999997,0.000237,-0.001087,0.001207,0.000764,0.001438,-0.001318,73.170862,0.001596,
1440,1870,-0.063588,-0.277749,0.999998,0.000164,-0.000355,0.001808,0.000126,0.001816,-0.000362,86.678898,0.001922,
820,70,0.049961,-4.949428,0.999998,0.000159,-0.000202,0.001878,0.000487,0.001987,-0.000310,77.450960,0.002138,
1800,1190,-0.900120,-2.136150,0.999999,0.000140,-0.001187,0.002436,0.000220,0.002450,-0.001200,86.542832,0.002450,
1440,1550,-0.158959,-0.918432,0.999998,0.000157,-0.001012,0.002149,-0.000320,0.002181,-0.001044,-84.276217,0.002182,
1180,1840,0.015544,-0.310080,0.999998,0.000169,-0.000296,0.001721,-0.000006,0.001721,-0.000296,-89.818132,0.001841,
1280,1290,-0.027306,-1.188312,0.999999,0.000162,-0.000685,0.000958,-0.000653,0.001186,-0.000913,-70.757627,0.001242,
1000,1470,0.202332,-1.120646,0.999998,0.000175,-0.001263,0.002376,0.000440,0.002428,-0.001316,83.209919,0.002431,
1240,260,-0.003741,-4.655625,0.999998,0.000152,-0.000417,0.001715,0.000008,0.001715,-0.000417,89.796050,0.001789,
1440,690,-0.200104,-3.693228,0.999998,0.000181,-0.001504,0.002580,0.000648,0.002680,-0.001605,81.192023,0.002697,
1800,350,-0.485896,-4.213685,0.999998,0.000168,-0.001239,0.002520,0.000007,0.002520,-0.001239,89.890162,0.002521,
590,910,1.010052,-2.773818,0.999998,0.000150,-0.001076,0.002210,0.000065,0.002212,-0.001077,88.868147,0.002212,
1620,930,-0.736136,-2.779227,0.999998,0.000180,-0.001149,0.002763,-0.000330,0.002790,-0.001177,-85.207296,0.002802,
1770,950,-0.918254,-2.704648,0.999998,0.000151,-0.001136,0.002425,-0.000166,0.002432,-0.001144,-87.343171,0.002434,
1440,60,-0.013013,-4.976153,0.999999,0.000115,-0.000074,0.001581,-0.000148,0.001595,-0.000087,-84.915190,0.001793,
910,1680,0.225511,-0.708641,0.999998,0.000142,-0.000946,0.002267,0.000038,0.002267,-0.000946,89.327827,0.002277,
1340,510,-0.072659,-4.184023,0.999999,0.000112,-0.000725,0.001864,0.000223,0.001883,-0.000744,85.116162,0.001897,
810,770,0.617200,-3.216901,0.999998,0.000185,-0.001534,0.002842,0.000191,0.002851,-0.001542,87.508095,0.002854,
1080,1260,0.162429,-1.493545,0.999998,0.000185,-0.001670,0.002484,0.001037,0.002728,-0.001915,76.735202,0.002801,
840,460,0.348266,-4.078850,0.999998,0.000163,-0.001218,0.002485,-0.000097,0.002487,-0.001221,-88.503731,0.002488,
1560,810,-0.509910,-3.166847,0.999997,0.000213,-0.001745,0.003095,-0.000146,0.003100,-0.001749,-88.279797,0.003108,
1730,320,-0.375748,-4.346553,0.999997,0.000189,-0.001135,0.002522,-0.000049,0.002523,-0.001135,-89.238197,0.002527,
1470,460,-0.178358,-4.194940,0.999998,0.000156,-0.000978,0.002200,0.000245,0.002219,-0.000997,85.612617,0.002223,
1380,1140,-0.378928,-1.787078,0.999998,0.000179,-0.000885,0.002806,-0.001753,0.003506,-0.001585,-68.234751,0.003512,
1480,520,-0.205126,-4.054235,0.999998,0.000159,-0.001107,0.002307,0.000318,0.002337,-0.001136,84.728155,0.002337,
1690,770,-0.671001,-3.197202,0.999998,0.000169,-0.001438,0.002750,-0.000202,0.002759,-0.001448,-87.251216,0.002760,
1560,630,-0.355229,-3.697798,0.999998,0.000176,-0.001496,0.002722,0.000236,0.002735,-0.001509,86.808249,0.002740,
1810,1810,-0.396940,-0.565948,0.999998,0.000213,-0.001180,0.002567,0.000161,0.002574,-0.001187,87.537806,0.002577,
780,410,0.388050,-4.155929,0.999998,0.000172,-0.001186,0.002511,-0.000026,0.002511,-0.001187,-89.591967,0.002512,
1600,1380,-0.446660,-1.508945,0.999997,0.000190,-0.001566,0.002827,-0.000089,0.002829,-0.001568,-88.835483,0.002834,
610,1260,0.907184,-1.993070,0.999999,0.000135,-0.001207,0.002366,-0.000119,0.002370,-0.001211,-88.089267,0.002370,
1840,450,-0.611730,-3.929539,0.999998,0.000157,-0.001259,0.002523,0.000014,0.002523,-0.001259,89.782653,0.002523,
1130,430,0.062806,-4.335010,0.999998,0.000178,-0.000653,0.001871,-0.000168,0.001882,-0.000665,-86.197912,0.001909,
1420,1250,-0.239053,-1.621732,0.999998,0.000174,-0.001926,0.002975,-0.000752,0.003088,-0.002039,-81.470565,0.003140,
740,540,0.526099,-3.791811,0.999997,0.000193,-0.001321,0.002611,-0.000041,0.002611,-0.001322,-89.398497,0.002611,
900,830,0.539927,-3.102353,0.999998,0.000171,-0.001682,0.003098,0.000204,0.003106,-0.001691,87.564028,0.003110,
990,1450,0.220609,-1.179564,0.999998,0.000152,-0.001316,0.002434,0.000433,0.002483,-0.001365,83.495946,0.002487,
1740,80,-0.092590,-4.918111,0.999999,0.000134,-0.000527,0.002078,-0.000643,0.002228,-0.000677,-76.868268,0.002285,
780,1320,0.629125,-1.742609,0.999998,0.000178,-0.001478,0.002769,-0.000168,0.002775,-0.001485,-87.739962,0.002777,
1340,2020,-0.002976,-0.022126,0.999999,0.000000,-0.000046,0.001565,0.000027,0.001566,-0.000047,89.039920,0.001782,
1640,1640,-0.342507,-0.864782,0.999998,0.000168,-0.001150,0.002471,-0.000068,0.002472,-0.001152,-88.929759,0.002474,
1340,180,-0.029389,-4.785276,0.999999,0.000146,-0.000303,0.001703,-0.000052,0.001705,-0.000304,-88.508498,0.001818,
1300,1930,-0.012751,-0.162212,0.999999,0.000136,-0.000166,0.001600,0.000062,0.001602,-0.000169,88.002532,0.001761,
1640,1630,-0.348630,-0.889083,0.999998,0.000155,-0.001164,0.002483,-0.000081,0.002485,-0.001166,-88.736184,0.002486,
1350,1420,-0.082659,-1.094115,0.999999,0.000128,-0.000929,0.001821,-0.000575,0.001936,-0.001044,-78.655467,0.001938,
1460,1610,-0.164629,-0.804455,0.999998,0.000172,-0.000954,0.002137,-0.000238,0.002155,-0.000973,-85.632392,0.002159,
1260,1490,-0.016624,-0.918033,0.999998,0.000162,-0.000608,0.001622,-0.000138,0.001630,-0.000616,-86.474789,0.001646,
580,910,1.020522,-2.770462,0.999999,0.000145,-0.001047,0.002196,0.000039,0.002197,-0.001048,89.319671,0.002197,
1240,1550,-0.005460,-0.814399,0.999999,0.000121,-0.000630,0.001713,-0.000056,0.001715,-0.000632,-88.642137,0.001734,
1770,930,-0.907215,-2.754613,0.999998,0.000142,-0.001138,0.002427,-0.000177,0.002436,-0.001146,-87.169626,0.002437,
1630,920,-0.737993,-2.804976,0.999998,0.000171,-0.001173,0.002774,-0.000341,0.002804,-0.001202,-85.094506,0.002813,
990,860,0.420018,-3.114999,0.999998,0.000179,-0.001882,0.003399,-0.000079,0.003401,-0.001883,-89.139100,0.003407,
850,1660,0.297896,-0.792716,0.999998,0.000136,-0.001093,0.002429,0.000060,0.002430,-0.001094,89.016486,0.002434,
1180,1820,0.017208,-0.345146,0.999999,0.000123,-0.000331,0.001715,-0.000019,0.001715,-0.000331,-89.474625,0.001820,
1340,610,-0.072970,-4.000413,0.999999,0.000105,-0.000839,0.001793,0.000485,0.001879,-0.000925,79.891532,0.001879,
1390,1290,-0.152873,-1.437047,0.999998,0.000175,-0.001604,0.002475,-0.000937,0.002680,-0.001810,-77.658785,0.002734,
1020,710,0.213425,-3.635660,0.999998,0.000192,-0.001609,0.002679,-0.000645,0.002774,-0.001704,-81.624332,0.002798,
1480,500,-0.199056,-4.099296,0.999998,0.000143,-0.001043,0.002257,0.000287,0.002282,-0.001068,85.059801,0.002284,
1080,1240,0.178917,-1.543617,0.999998,0.000180,-0.001723,0.002612,0.001054,0.002854,-0.001965,77.034985,0.002921,
760,410,0.410853,-4.142431,0.999998,0.000163,-0.001224,0.002544,-0.000035,0.002544,-0.001225,-89.474476,0.002545,
1300,130,-0.012832,-4.869305,0.999999,0.000162,-0.000138,0.001635,-0.000053,0.001637,-0.000139,-88.305487,0.001815,
650,600,0.690863,-3.566761,0.999998,0.000178,-0.001289,0.002592,0.000027,0.002593,-0.001289,89.602446,0.002593,
1810,1790,-0.421327,-0.616950,0.999998,0.000210,-0.001184,0.002541,0.000121,0.002545,-0.001188,88.142628,0.002547,
840,440,0.336222,-4.126994,0.999998,0.000194,-0.001194,0.002442,-0.000109,0.002445,-0.001197,-88.284154,0.002445,
1600,1360,-0.464009,-1.566967,0.999997,0.000189,-0.001594,0.002885,-0.000059,0.002885,-0.001595,-89.243471,0.002891,
1690,750,-0.652234,-3.250807,0.999998,0.000170,-0.001467,0.002747,-0.000182,0.002755,-0.001475,-87.525225,0.002757,
1520,1940,-0.053891,-0.162972,0.999999,0.000144,-0.000287,0.001822,0.000252,0.001852,-0.000317,83.271541,0.001981,
1100,810,0.141470,-3.574001,0.999997,0.000193,-0.001552,0.002240,-0.001136,0.002554,-0.001867,-74.538632,0.002643,
1560,1440,-0.345845,-1.302653,0.999997,0.000182,-0.001468,0.002690,-0.000233,0.002703,-0.001481,-86.805879,0.002707,
1460,1870,-0.069497,-0.280264,0.999998,0.000155,-0.000352,0.001829,0.000139,0.001838,-0.000360,86.373477,0.001948,
590,1950,0.255310,-0.269719,0.999998,0.000158,-0.001106,0.002731,-0.000499,0.002795,-0.001169,-82.707365,0.002807,
780,1300,0.647286,-1.799022,0.999998,0.000173,-0.001469,0.002771,-0.000193,0.002780,-0.001478,-87.405871,0.002782,
1280,1940,-0.007158,-0.145098,0.999999,0.000140,-0.000158,0.001585,0.000059,0.001587,-0.000160,88.076813,0.001748,
1730,160,-0.204629,-4.741853,0.999998,0.000165,-0.000807,0.002379,-0.000484,0.002451,-0.000879,-81.550834,0.002483,
1480,1090,-0.610133,-2.302225,0.999998,0.000180,-0.001256,0.003465,0.000148,0.003470,-0.001261,88.208053,0.003513,
680,1730,0.444190,-0.748457,0.999998,0.000186,-0.001201,0.002529,-0.000016,0.002530,-0.001201,-89.748734,0.002531,
740,560,0.541221,-3.739836,0.999997,0.000198,-0.001338,0.002624,-0.000046,0.002625,-0.001339,-89.329888,0.002625,
1340,160,-0.025217,-4.819049,0.999999,0.000123,-0.000277,0.001651,-0.000079,0.001654,-0.000280,-87.667212,0.001770,
580,1320,0.889929,-1.868231,0.999999,0.000154,-0.001319,0.002460,-0.000012,0.002461,-0.001319,-89.811788,0.002463,
1570,660,-0.388938,-3.603969,0.999996,0.000237,-0.001562,0.002812,0.000174,0.002819,-0.001569,87.730447,0.002825,
1770,910,-0.897426,-2.801787,0.999999,0.000140,-0.001142,0.002452,-0.000194,0.002463,-0.001152,-86.913293,0.002464,
980,1470,0.227459,-1.143304,0.999998,0.000148,-0.001279,0.002434,0.000390,0.002474,-0.001319,84.060262,0.002476,
1340,590,-0.073956,-4.038431,0.999999,0.000143,-0.000817,0.001827,0.000431,0.001895,-0.000885,80.980074,0.001897,
1130,410,0.061700,-4.373414,0.999998,0.000169,-0.000633,0.001828,-0.000142,0.001836,-0.000641,-86.704606,0.001864,
650,1260,0.858342,-1.969590,0.999999,0.000152,-0.001229,0.002490,-0.000185,0.002499,-0.001239,-87.161676,0.002499,
1690,1740,-0.328689,-0.653416,0.999998,0.000182,-0.001069,0.002452,0.000050,0.002453,-0.001069,89.183968,0.002459,
1640,1620,-0.353652,-0.912964,0.999998,0.000174,-0.001173,0.002473,-0.000082,0.002475,-0.001174,-88.706162,0.002476,
1340,1170,-0.271489,-1.502744,0.999998,0.000000,-0.000594,0.001294,-0.001095,0.001796,-0.001096,-65.383015,0.001810,
1180,1800,0.020697,-0.380076,0.999998,0.000142,-0.000379,0.001717,-0.000008,0.001717,-0.000379,-89.778511,0.001804,
990,1430,0.225833,-1.229010,0.999998,0.000157,-0.001371,0.002485,0.000462,0.002540,-0.001425,83.261815,0.002546,
1490,1000,-0.654870,-2.612221,0.999997,0.000217,-0.001034,0.003436,-0.000105,0.003438,-0.001036,-88.650321,0.003528,
1830,700,-0.794839,-3.297713,0.999998,0.000169,-0.001255,0.002537,-0.000083,0.002539,-0.001257,-88.744319,0.002539,
1280,1930,-0.009231,-0.161861,0.999999,0.000135,-0.000182,0.001578,0.000052,0.001580,-0.000184,88.309423,0.001728,
1410,1220,-0.256914,-1.685860,0.999998,0.000150,-0.001902,0.003005,-0.000738,0.003114,-0.002010,-81.626116,0.003158,
1710,1260,-0.724267,-1.922971,0.999998,0.000183,-0.001387,0.002689,0.000237,0.002703,-0.001401,86.687728,0.002704,
810,730,0.576787,-3.332942,0.999997,0.000193,-0.001519,0.002833,0.000121,0.002837,-0.001522,88.410876,0.002839,
1890,770,-0.929686,-3.082486,0.999998,0.000162,-0.001144,0.002384,-0.000069,0.002386,-0.001145,-88.878820,0.002386,
1540,1550,-0.270086,-1.003903,0.999999,0.000159,-0.001155,0.002401,-0.000216,0.002414,-0.001168,-86.530728,0.002415,
1480,1490,-0.217861,-1.091626,0.999998,0.000160,-0.001239,0.002365,-0.000378,0.002404,-0.001278,-84.082258,0.002405,
1600,950,-0.728929,-2.729624,0.999999,0.000151,-0.001113,0.002743,-0.000275,0.002762,-0.001133,-85.941066,0.002777,
1810,1990,-0.096298,-0.099612,0.999998,0.000148,-0.000434,0.002425,0.000936,0.002703,-0.000713,73.395769,0.002802,
1740,60,-0.063074,-4.958749,0.999998,0.000147,-0.000378,0.002076,-0.000694,0.002259,-0.000561,-75.248468,0.002352,
590,1940,0.276387,-0.297466,0.999998,0.000154,-0.001104,0.002681,-0.000424,0.002728,-0.001151,-83.684349,0.002739,
830,1660,0.321799,-0.809780,0.999998,0.000160,-0.001123,0.002451,0.000088,0.002453,-0.001125,88.589032,0.002456,
730,240,0.303716,-4.544429,0.999998,0.000155,-0.001007,0.002509,0.000222,0.002523,-0.001021,86.394889,0.002539,
1080,1220,0.206962,-1.602054,0.999998,0.000177,-0.001769,0.002668,0.000989,0.002878,-0.001979,77.984242,0.002945,
1840,430,-0.596754,-3.979494,0.999998,0.000172,-0.001235,0.002521,0.000031,0.002521,-0.001235,89.530147,0.002521,
1480,480,-0.194689,-4.144169,0.999998,0.000136,-0.001005,0.002200,0.000247,0.002219,-0.001024,85.624737,0.002221,
740,1000,0.881186,-2.588799,0.999998,0.000160,-0.001076,0.002477,0.000092,0.002480,-0.001079,88.517061,0.002487,
780,1280,0.666956,-1.853575,0.999998,0.000177,-0.001467,0.002758,-0.000233,0.002771,-0.001480,-86.857471,0.002773,
1440,500,-0.157841,-4.133586,0.999998,0.000139,-0.001025,0.002170,0.000324,0.002203,-0.001058,84.260033,0.002203,
1560,1420,-0.357523,-1.356756,0.999997,0.000185,-0.001499,0.002724,-0.000231,0.002737,-0.001511,-86.871609,0.002742,
1520,1920,-0.068221,-0.198126,0.999999,0.000140,-0.000332,0.001826,0.000227,0.001849,-0.000356,84.066364,0.001962,
1600,1340,-0.479834,-1.624638,0.999997,0.000183,-0.001639,0.002890,-0.000015,0.002890,-0.001639,-89.808069,0.002899,
1690,730,-0.633193,-3.306661,0.999998,0.000173,-0.001489,0.002763,-0.000160,0.002769,-0.001495,-87.850391,0.002772,
590,140,0.324478,-4.675239,0.999997,0.000214,-0.001178,0.002598,0.000311,0.002623,-0.001203,85.325146,0.002626,
990,340,0.142606,-4.450813,0.999998,0.000141,-0.000722,0.002073,-0.000045,0.002074,-0.000723,-89.079355,0.002105,
1090,2020,0.004590,-0.023130,0.999999,0.000000,-0.000008,0.001507,-0.000079,0.001511,-0.000012,-87.018890,0.001738,
1010,60,0.016590,-4.974935,0.999999,0.000138,-0.000074,0.001595,0.000174,0.001613,-0.000092,84.106981,0.001811,
1880,870,-0.995807,-2.857542,0.999998,0.000151,-0.001109,0.002206,-0.000078,0.002208,-0.001111,-88.658839,0.002208,
1240,240,-0.003351,-4.688532,0.999998,0.000153,-0.000383,0.001696,-0.000005,0.001696,-0.000383,-89.856344,0.001779,
1570,640,-0.375303,-3.659651,0.999998,0.000176,-0.001522,0.002755,0.000207,0.002765,-0.001532,87.241107,0.002771,
1460,670,-0.221961,-3.714006,0.999997,0.000191,-0.001487,0.002573,0.000550,0.002646,-0.001560,82.418148,0.002660,
1480,1070,-0.631669,-2.370611,0.999997,0.000184,-0.001159,0.003504,0.000101,0.003506,-0.001161,88.754855,0.003572,
1340,580,-0.074228,-4.056988,0.999998,0.000149,-0.000805,0.001814,0.000396,0.001873,-0.000864,81.580747,0.001875,
570,1320,0.901445,-1.878014,0.999991,0.000386,-0.001386,0.002461,0.000016,0.002461,-0.001386,89.761271,0.002468,
1240,710,-0.003886,-3.932738,0.999999,0.000146,-0.000504,0.001007,0.000118,0.001017,-0.000513,85.549884,0.001017,
1770,890,-0.882916,-2.851781,0.999998,0.000151,-0.001176,0.002475,-0.000247,0.002492,-0.001193,-86.142007,0.002492,
1130,390,0.058511,-4.408790,0.999998,0.000155,-0.000644,0.001829,-0.000130,0.001835,-0.000651,-86.998304,0.001861,
960,1470,0.252786,-1.164504,0.999998,0.000150,-0.001314,0.002488,0.000368,0.002523,-0.001349,84.526748,0.002525,
1180,1780,0.021762,-0.413377,0.999998,0.000149,-0.000395,0.001773,0.000004,0.001773,-0.000395,89.905824,0.001862,
1060,1930,0.030250,-0.168723,0.999999,0.000129,-0.000205,0.001654,-0.000115,0.001661,-0.000212,-86.461208,0.001808,
1670,820,-0.693329,-3.067373,0.999997,0.000191,-0.001409,0.002753,-0.000283,0.002773,-0.001428,-86.127727,0.002773,
1520,1550,-0.246951,-0.987364,0.999998,0.000180,-0.001191,0.002373,-0.000247,0.002390,-0.001208,-86.058884,0.002390,
570,910,1.031530,-2.765743,0.999998,0.000163,-0.001024,0.002168,0.000021,0.002168,-0.001024,89.623919,0.002169,
840,420,0.325551,-4.177103,0.999998,0.000183,-0.001156,0.002446,-0.000102,0.002448,-0.001159,-88.377710,0.002450,
630,1260,0.882733,-1.981668,0.999999,0.000155,-0.001218,0.002434,-0.000143,0.002440,-0.001224,-87.767061,0.002440,
1340,1160,-0.301070,-1.518822,0.999997,0.000000,-0.000474,0.001313,-0.001269,0.001972,-0.001133,-62.567462,0.001979,
590,1970,0.209963,-0.215119,0.999998,0.000155,-0.001097,0.002968,-0.000678,0.003078,-0.001208,-80.771172,0.003102,
1580,950,-0.707712,-2.733610,0.999998,0.000170,-0.001102,0.002832,-0.000294,0.002854,-0.001124,-85.746413,0.002875,
1820,1300,-0.830303,-1.875631,0.999999,0.000127,-0.001262,0.002492,0.000147,0.002497,-0.001268,87.758646,0.002498,
1670,1740,-0.306110,-0.640442,0.999998,0.000200,-0.001119,0.002425,0.000065,0.002426,-0.001120,88.943151,0.002429,
980,930,0.561114,-2.856980,0.999997,0.000183,-0.001449,0.003451,0.000178,0.003458,-0.001455,87.927795,0.003472,
740,980,0.877288,-2.636893,0.999998,0.000153,-0.001080,0.002461,0.000098,0.002464,-0.001083,88.418745,0.002470,
1640,1830,-0.202073,-0.413190,0.999998,0.000180,-0.000773,0.002250,0.000257,0.002272,-0.000795,85.166931,0.002305,
990,1410,0.232166,-1.278229,0.999998,0.000154,-0.001439,0.002537,0.000481,0.002594,-0.001496,83.202077,0.002604,
1080,1200,0.243228,-1.654529,0.999997,0.000183,-0.001702,0.002664,0.001020,0.002890,-0.001929,77.471920,0.002944,
1640,1600,-0.366374,-0.962148,0.999998,0.000178,-0.001195,0.002485,-0.000106,0.002488,-0.001198,-88.357441,0.002489,
700,150,0.221103,-4.748118,0.999998,0.000146,-0.001025,0.002465,0.000445,0.002521,-0.001081,82.848244,0.002530,
1210,1220,0.034197,-1.198750,0.999998,0.000169,-0.001557,0.000728,0.000054,0.000729,-0.001558,88.648142,0.001559,
1740,260,-0.332430,-4.491959,0.999998,0.000193,-0.001099,0.002508,-0.000166,0.002516,-0.001107,-87.363979,0.002522,
1480,680,-0.257995,-3.659290,0.999998,0.000174,-0.001600,0.002696,0.000466,0.002746,-0.001650,83.879238,0.002765,
780,1260,0.686188,-1.909606,0.999998,0.000177,-0.001435,0.002763,-0.000258,0.002779,-0.001450,-86.493928,0.002780,
1690,710,-0.615992,-3.362659,0.999998,0.000188,-0.001478,0.002755,-0.000111,0.002758,-0.001480,-88.501883,0.002761,
800,80,0.066403,-4.927905,0.999999,0.000128,-0.000367,0.001912,0.000493,0.002014,-0.000469,78.312338,0.002107,
590,130,0.304812,-4.701213,0.999997,0.000217,-0.001159,0.002682,0.000381,0.002719,-0.001197,84.395583,0.002726,
1440,480,-0.153787,-4.177220,0.999998,0.000151,-0.000964,0.002111,0.000287,0.002137,-0.000991,84.714940,0.002139,
1560,1400,-0.370558,-1.411495,0.999998,0.000181,-0.001543,0.002769,-0.000206,0.002779,-0.001553,-87.265807,0.002786,
1600,1320,-0.498849,-1.681180,0.999997,0.000203,-0.001664,0.002912,0.000024,0.002912,-0.001664,89.694605,0.002922,
1510,1800,-0.131111,-0.429454,0.999997,0.000205,-0.000683,0.001995,0.000087,0.001998,-0.000686,88.131961,0.002030,
680,1030,0.950905,-2.514008,0.999998,0.000179,-0.001096,0.002386,-0.000022,0.002386,-0.001096,-89.634701,0.002388,
930,1120,0.634859,-2.241836,0.999998,0.000164,-0.001273,0.003086,-0.000354,0.003114,-0.001301,-85.392508,0.003128,
1090,1140,0.372781,-1.741352,0.999997,0.000000,-0.000852,0.002596,0.001886,0.003428,-0.001684,66.213621,0.003428,
1240,220,-0.002620,-4.724129,0.999998,0.000170,-0.000348,0.001682,-0.000001,0.001682,-0.000348,-89.970588,0.001776,
970,340,0.158344,-4.440466,0.999998,0.000165,-0.000807,0.002126,-0.000078,0.002128,-0.000809,-88.475133,0.002148,
650,1320,0.805005,-1.819643,0.999999,0.000144,-0.001280,0.002534,-0.000147,0.002540,-0.001285,-87.793869,0.002540,
1620,230,-0.191533,-4.622666,0.999998,0.000161,-0.000740,0.002235,-0.000227,0.002252,-0.000758,-85.667715,0.002292,
620,970,1.005176,-2.649049,0.999998,0.000142,-0.001044,0.002202,0.000028,0.002203,-0.001044,89.511325,0.002204,
1550,680,-0.370729,-3.568375,0.999998,0.000212,-0.001597,0.002843,0.000233,0.002855,-0.001609,86.997522,0.002863,
960,1450,0.260799,-1.215345,0.999998,0.000172,-0.001376,0.002506,0.000376,0.002542,-0.001413,84.515522,0.002547,
880,1190,0.614875,-2.058498,0.999997,0.000192,-0.001493,0.002998,-0.000310,0.003019,-0.001515,-86.068088,0.003019,
1220,710,0.006012,-3.933131,0.999999,0.000131,-0.000479,0.001035,-0.000152,0.001050,-0.000494,-84.321601,0.001051,
1130,370,0.057261,-4.446494,0.999998,0.000160,-0.000627,0.001873,-0.000110,0.001877,-0.000632,-87.482592,0.001911,
1100,250,0.053560,-4.657174,0.999999,0.000111,-0.000442,0.001808,0.000008,0.001808,-0.000442,89.784605,0.001885,
1840,410,-0.582296,-4.031141,0.999998,0.000166,-0.001234,0.002518,0.000038,0.002519,-0.001235,89.424974,0.002519,
1770,1310,-0.759082,-1.817942,0.999998,0.000151,-0.001320,0.002624,0.000187,0.002633,-0.001329,87.289118,0.002633,
1690,960,-0.834071,-2.689727,0.999998,0.000149,-0.001096,0.002545,-0.000207,0.002557,-0.001108,-86.751427,0.002565,
1530,190,-0.105065,-4.735336,0.999998,0.000151,-0.000468,0.001955,-0.000222,0.001975,-0.000488,-84.808463,0.002058,
780,1240,0.705674,-1.964999,0.999998,0.000177,-0.001404,0.002723,-0.000285,0.002743,-0.001423,-86.064381,0.002744,
1370,1360,-0.106428,-1.239186,0.999998,0.000157,-0.001164,0.002019,-0.000805,0.002211,-0.001356,-76.579621,0.002230,
1840,770,-0.869962,-3.116214,0.999999,0.000128,-0.001256,0.002456,-0.000131,0.002461,-0.001261,-87.976635,0.002461,
1660,50,-0.032144,-4.985077,0.999999,0.000131,-0.000200,0.001797,-0.000476,0.001905,-0.000307,-77.252930,0.002045,
1650,90,-0.072536,-4.911840,0.999999,0.000133,-0.000340,0.001940,-0.000465,0.002031,-0.000431,-78.893101,0.002141,
990,1390,0.240939,-1.332286,0.999998,0.000178,-0.001519,0.002620,0.000502,0.002680,-0.001579,83.179294,0.002694,
1480,1940,-0.043486,-0.157407,0.999999,0.000169,-0.000230,0.001761,0.000188,0.001779,-0.000248,84.660106,0.001927,
1650,760,-0.602320,-3.247510,0.999998,0.000200,-0.001537,0.002859,-0.000183,0.002867,-0.001544,-87.620402,0.002870,
1180,1760,0.024180,-0.451111,0.999998,0.000143,-0.000433,0.001758,0.000011,0.001758,-0.000433,89.709447,0.001832,
1600,1990,-0.037279,-0.079257,0.999999,0.000136,-0.000202,0.001785,0.000402,0.001863,-0.000280,78.981743,0.002009,
1690,690,-0.596769,-3.416748,0.999997,0.000188,-0.001452,0.002730,-0.000077,0.002731,-0.001454,-88.941430,0.002733,
970,1640,0.186828,-0.761775,0.999998,0.000155,-0.000946,0.002223,0.000168,0.002232,-0.000955,86.967563,0.002240,
630,580,0.700139,-3.601672,0.999998,0.000165,-0.001295,0.002540,0.000000,0.002540,-0.001295,-89.999681,0.002540,
1140,1350,0.057796,-1.179475,0.999998,0.000141,-0.000861,0.001577,0.000778,0.001804,-0.001088,73.734141,0.001817,
570,720,0.895841,-3.205060,0.999991,0.000348,-0.001418,0.002464,0.000148,0.002470,-0.001424,87.823137,0.002479,
1010,170,0.061467,-4.787586,0.999999,0.000151,-0.000324,0.001806,0.000149,0.001817,-0.000335,86.011192,0.001934,
1340,600,-0.072316,-4.019676,0.999999,0.000126,-0.000830,0.001810,0.000462,0.001888,-0.000908,80.360871,0.001889,
690,1630,0.509719,-0.993488,0.999998,0.000172,-0.001259,0.002524,0.000036,0.002524,-0.001259,89.456678,0.002524,
1080,1180,0.279820,-1.707584,0.999998,0.000170,-0.001487,0.002579,0.001113,0.002864,-0.001771,75.654384,0.002890,
1800,1140,-0.932646,-2.255501,0.999998,0.000171,-0.001128,0.002363,0.000161,0.002370,-0.001135,87.368672,0.002371,
1240,440,-0.004831,-4.338751,0.999998,0.000175,-0.000636,0.001767,0.000037,0.001768,-0.000636,89.112106,0.001791,
840,400,0.315102,-4.224969,0.999998,0.000193,-0.001122,0.002419,-0.000062,0.002420,-0.001123,-89.001154,0.002422,
1020,1870,0.065231,-0.277521,0.999999,0.000213,-0.000410,0.001817,-0.000106,0.001822,-0.000415,-87.292098,0.001910,
1730,450,-0.472896,-4.015989,0.999998,0.000170,-0.001277,0.002526,0.000052,0.002526,-0.001277,89.212851,0.002526,
1560,1380,-0.382505,-1.468086,0.999998,0.000186,-0.001578,0.002830,-0.000184,0.002838,-0.001586,-87.616244,0.002845,
590,1960,0.233471,-0.243855,0.999998,0.000168,-0.001098,0.002834,-0.000589,0.002920,-0.001184,-81.664671,0.002937,
800,60,0.043772,-4.966517,0.999999,0.000130,-0.000283,0.001854,0.000501,0.001965,-0.000394,77.440623,0.002079,
1110,1150,0.333986,-1.606667,0.999998,0.000000,-0.000478,0.001661,0.001580,0.002500,-0.001316,62.046353,0.002501,
1770,1330,-0.740354,-1.767251,0.999998,0.000157,-0.001324,0.002574,0.000162,0.002581,-0.001331,87.629015,0.002582,
1140,1410,0.058710,-1.080542,0.999998,0.000158,-0.000814,0.001658,0.000537,0.001769,-0.000925,78.255418,0.001770,
1300,710,-0.038927,-3.887822,0.999998,0.000156,-0.000724,0.001358,0.000652,0.001546,-0.000912,73.968831,0.001554,
890,1340,0.435735,-1.597186,0.999998,0.000206,-0.001685,0.002926,0.000092,0.002927,-0.001687,88.863235,0.002939,
600,970,1.025735,-2.645622,0.999998,0.000178,-0.001058,0.002127,0.000013,0.002127,-0.001058,89.763563,0.002127,
1340,900,-0.318649,-3.514264,0.999996,0.000000,-0.000207,0.001265,0.001327,0.002047,-0.000989,59.504264,0.002047,
1600,1300,-0.517648,-1.741237,0.999997,0.000198,-0.001673,0.002968,0.000086,0.002969,-0.001674,88.942607,0.002977,
610,1310,0.865664,-1.869023,0.999999,0.000143,-0.001198,0.002456,-0.000076,0.002457,-0.001200,-88.813700,0.002457,
740,960,0.871103,-2.688266,0.999998,0.000151,-0.001099,0.002510,0.000188,0.002520,-0.001109,87.025209,0.002526,
1440,460,-0.149419,-4.218575,0.999998,0.000146,-0.000905,0.002117,0.000251,0.002138,-0.000925,85.293355,0.002145,
1390,1420,-0.123672,-1.144176,0.999998,0.000154,-0.001128,0.002087,-0.000613,0.002200,-0.001240,-79.568165,0.002206,
1040,1930,0.034811,-0.169734,0.999999,0.000131,-0.000260,0.001676,-0.000129,0.001684,-0.000269,-86.213722,0.001810,
990,1370,0.248915,-1.384597,0.999998,0.000193,-0.001597,0.002689,0.000516,0.002751,-0.001658,83.235703,0.002770,
1650,110,-0.091967,-4.871931,0.999998,0.000152,-0.000412,0.002007,-0.000455,0.002089,-0.000494,-79.693977,0.002184,
1280,1920,-0.008754,-0.177890,0.999999,0.000126,-0.000198,0.001589,0.000032,0.001590,-0.000198,88.959523,0.001733,
860,1190,0.646655,-2.069956,0.999998,0.000180,-0.001465,0.002919,-0.000327,0.002943,-0.001489,-85.760381,0.002943,
1770,1760,-0.402251,-0.661516,0.999998,0.000162,-0.001199,0.002516,0.000076,0.002518,-0.001201,88.828601,0.002519,
1130,790,0.084008,-3.706409,0.999998,0.000177,-0.001225,0.001673,-0.001116,0.002053,-0.001604,-71.202592,0.002159,
1650,50,-0.030973,-4.985750,0.999999,0.000130,-0.000167,0.001789,-0.000468,0.001895,-0.000273,-77.226991,0.002049,
1580,1990,-0.033916,-0.078128,0.999999,0.000128,-0.000204,0.001757,0.000350,0.001817,-0.000265,80.182382,0.001964,
1430,600,-0.165737,-3.923203,0.999999,0.000146,-0.001179,0.002266,0.000486,0.002333,-0.001246,82.121428,0.002335,
1820,770,-0.845304,-3.128352,0.999998,0.000153,-0.001236,0.002482,-0.000163,0.002489,-0.001243,-87.489739,0.002489,
910,670,0.367554,-3.593263,0.999997,0.000195,-0.001580,0.002828,-0.000219,0.002839,-0.001591,-87.157536,0.002846,
1460,1670,-0.147623,-0.675872,0.999998,0.000181,-0.000788,0.002100,-0.000102,0.002104,-0.000791,-87.973435,0.002125,
1690,1640,-0.400154,-0.901381,0.999998,0.000166,-0.001191,0.002504,-0.000033,0.002504,-0.001191,-89.488213,0.002505,
620,1030,1.015395,-2.514551,0.999998,0.000182,-0.001058,0.002274,-0.000003,0.002274,-0.001058,-89.949757,0.002275,
1450,1360,-0.217744,-1.376311,0.999998,0.000171,-0.001571,0.002661,-0.000624,0.002751,-0.001661,-81.787908,0.002771,
690,780,0.794279,-3.127569,0.999999,0.000144,-0.001301,0.002557,0.000218,0.002569,-0.001313,86.777047,0.002569,
1180,1740,0.024601,-0.485231,0.999998,0.000165,-0.000445,0.001793,0.000030,0.001794,-0.000445,89.236763,0.001868,
1630,760,-0.570878,-3.261556,0.999998,0.000198,-0.001593,0.002886,-0.000141,0.002890,-0.001598,-88.196963,0.002896,
780,1460,0.511911,-1.357726,0.999997,0.000186,-0.001407,0.002662,0.000028,0.002662,-0.001407,89.609994,0.002664,
1570,1740,-0.210456,-0.582498,0.999998,0.000177,-0.000890,0.002254,0.000030,0.002255,-0.000890,89.459207,0.002271,
1460,1780,-0.109817,-0.453192,0.999998,0.000157,-0.000552,0.001965,0.000064,0.001966,-0.000553,88.549269,0.002028,
1380,130,-0.026584,-4.865536,0.999998,0.000152,-0.000166,0.001631,-0.000094,0.001636,-0.000171,-87.002592,0.001798,
1020,690,0.203837,-3.688487,0.999998,0.000155,-0.001524,0.002562,-0.000627,0.002656,-0.001618,-81.472465,0.002677,
1340,620,-0.073519,-3.983160,0.999999,0.000142,-0.000861,0.001766,0.000516,0.001864,-0.000959,79.272945,0.001864,
660,60,0.086426,-4.953381,0.999999,0.000145,-0.000290,0.002310,0.000986,0.002641,-0.000622,71.413069,0.002762,
1570,880,-0.615503,-2.943398,0.999998,0.000178,-0.001476,0.003013,-0.000331,0.003037,-0.001500,-85.810961,0.003037,
1390,1270,-0.165093,-1.486055,0.999998,0.000175,-0.001694,0.002543,-0.000981,0.002759,-0.001910,-77.569390,0.002826,
1010,150,0.052150,-4.823918,0.999999,0.000127,-0.000274,0.001764,0.000155,0.001776,-0.000285,85.681019,0.001907,
1860,420,-0.614632,-3.987665,0.999998,0.000170,-0.001258,0.002512,0.000044,0.002512,-0.001258,89.333238,0.002512,
1530,680,-0.337568,-3.592757,0.999998,0.000177,-0.001633,0.002818,0.000307,0.002839,-0.001654,86.073892,0.002852,
1870,1740,-0.542340,-0.798718,0.999997,0.000174,-0.001211,0.002499,-0.000022,0.002499,-0.001211,-89.660438,0.002500,
1800,1100,-0.954773,-2.351252,0.999998,0.000173,-0.001120,0.002339,0.000121,0.002343,-0.001124,87.992004,0.002344,
640,90,0.164283,-4.868973,0.999998,0.000163,-0.000884,0.002617,0.000700,0.002752,-0.001019,79.108046,0.002783,
840,380,0.301303,-4.273788,0.999998,0.000208,-0.001071,0.002405,0.000003,0.002405,-0.001071,89.944396,0.002410,
1080,1380,0.119349,-1.218499,0.999999,0.000133,-0.001211,0.002114,0.000745,0.002273,-0.001370,77.927084,0.002289,
930,1100,0.661122,-2.306167,0.999997,0.000207,-0.001138,0.003055,-0.000315,0.003078,-0.001161,-85.721499,0.003109,
1560,1360,-0.397731,-1.526501,0.999998,0.000185,-0.001626,0.002869,-0.000168,0.002875,-0.001633,-87.863260,0.002884,
1240,200,-0.002314,-4.755753,0.999998,0.000180,-0.000319,0.001667,0.000010,0.001667,-0.000319,89.708530,0.001770,
1100,70,0.010524,-4.962292,0.999999,0.000135,-0.000088,0.001573,0.000102,0.001579,-0.000094,86.485062,0.001772,
790,1990,0.052444,-0.084497,0.999998,0.000147,-0.000278,0.001890,-0.000511,0.002004,-0.000393,-77.383515,0.002124,
1090,1130,0.392727,-1.770423,0.999992,0.000000,-0.000861,0.002801,0.002141,0.003787,-0.001847,65.268698,0.003787,
1140,250,0.034722,-4.666220,0.999998,0.000147,-0.000411,0.001740,-0.000002,0.001740,-0.000411,-89.948844,0.001819,
1730,1470,-0.567203,-1.370320,0.999997,0.000193,-0.001342,0.002624,-0.000014,0.002624,-0.001342,-89.804618,0.002625,
1250,1860,-0.006115,-0.274846,0.999998,0.000164,-0.000283,0.001651,-0.000009,0.001651,-0.000283,-89.730550,0.001766,
1770,1350,-0.721449,-1.716667,0.999998,0.000181,-0.001343,0.002582,0.000141,0.002587,-0.001348,87.949160,0.002587,
1340,890,-0.285465,-3.531722,0.999997,0.000000,-0.000471,0.001248,0.001159,0.001831,-0.001055,63.277528,0.001838,
1890,830,-0.976773,-2.943572,0.999999,0.000114,-0.001100,0.002317,-0.000063,0.002319,-0.001101,-88.938749,0.002320,
990,1350,0.258247,-1.438555,0.999997,0.000220,-0.001689,0.002773,0.000517,0.002832,-0.001748,83.470060,0.002858,
610,1750,0.510788,-0.758497,0.999998,0.000173,-0.001213,0.002482,0.000014,0.002482,-0.001213,89.781686,0.002482,
1270,1220,-0.057005,-1.221880,0.999998,0.000166,-0.001390,0.000721,-0.000168,0.000734,-0.001404,-85.478090,0.001404,
590,2010,0.107152,-0.096326,0.999997,0.000235,-0.000371,0.002923,-0.001319,0.003386,-0.000833,-70.655884,0.003528,
1880,770,-0.918341,-3.089557,0.999998,0.000158,-0.001158,0.002395,-0.000077,0.002397,-0.001160,-88.753156,0.002397,
660,1190,0.903375,-2.136425,0.999999,0.000129,-0.001200,0.002447,-0.000214,0.002459,-0.001212,-86.653110,0.002459,
1650,130,-0.114789,-4.830753,0.999999,0.000153,-0.000503,0.002039,-0.000444,0.002115,-0.000579,-80.366985,0.002186,
1520,360,-0.191435,-4.381236,0.999998,0.000173,-0.000871,0.002174,0.000056,0.002175,-0.000872,88.947535,0.002189,
1040,1990,0.013814,-0.071728,0.999999,0.000101,-0.000115,0.001591,-0.000143,0.001603,-0.000127,-85.247997,0.001782,
830,420,0.337335,-4.168352,0.999998,0.000179,-0.001150,0.002465,-0.000093,0.002467,-0.001153,-88.523338,0.002469,
1340,640,-0.074443,-3.946947,0.999998,0.000159,-0.000889,0.001742,0.000572,0.001861,-0.001008,78.247087,0.001863,
1690,1620,-0.413752,-0.951499,0.999998,0.000171,-0.001233,0.002518,-0.000063,0.002519,-0.001234,-89.040144,0.002519,
780,1220,0.726524,-2.018277,0.999998,0.000162,-0.001366,0.002731,-0.000305,0.002754,-0.001388,-85.769034,0.002754,
1860,400,-0.598729,-4.038580,0.999998,0.000163,-0.001244,0.002511,0.000052,0.002512,-0.001245,89.203874,0.002512,
1390,1250,-0.183560,-1.538895,0.999998,0.000177,-0.001775,0.002688,-0.000976,0.002892,-0.001979,-78.191450,0.002957,
840,360,0.288746,-4.320758,0.999998,0.000190,-0.001010,0.002381,0.000039,0.002381,-0.001011,89.341722,0.002390,
1090,710,0.111595,-3.765643,0.999998,0.000162,-0.001248,0.002091,-0.000861,0.002300,-0.001457,-76.359111,0.002327,
1010,130,0.044611,-4.857550,0.999999,0.000138,-0.000221,0.001736,0.000164,0.001749,-0.000235,85.235178,0.001899,
650,1990,0.098873,-0.098828,0.999998,0.000166,-0.000500,0.002436,-0.000903,0.002692,-0.000756,-74.204031,0.002777,
1280,1900,-0.010962,-0.210082,0.999999,0.000139,-0.000237,0.001651,0.000016,0.001651,-0.000237,89.510464,0.001785,
1460,1740,-0.124890,-0.532687,0.999998,0.000163,-0.000630,0.002024,0.000003,0.002024,-0.000630,89.942694,0.002072,
1350,1360,-0.083359,-1.203434,0.999999,0.000155,-0.001054,0.001827,-0.000784,0.002026,-0.001254,-75.727967,0.002045,
1180,1960,0.006231,-0.114572,0.999999,0.000146,-0.000077,0.001557,-0.000023,0.001558,-0.000077,-89.181271,0.001756,
1410,1740,-0.091088,-0.513128,0.999998,0.000185,-0.000672,0.001927,-0.000042,0.001927,-0.000673,-89.084269,0.001956,
1560,1340,-0.414010,-1.582959,0.999997,0.000183,-0.001678,0.002935,-0.000134,0.002939,-0.001682,-88.337006,0.002949,
920,910,0.616642,-2.868108,0.999998,0.000170,-0.001402,0.003100,0.000362,0.003129,-0.001431,85.431158,0.003133,
1550,880,-0.585619,-2.956431,0.999998,0.000196,-0.001550,0.003089,-0.000313,0.003110,-0.001571,-86.158690,0.003111,
790,1970,0.076607,-0.121903,0.999999,0.000136,-0.000370,0.001938,-0.000494,0.002039,-0.000471,-78.412924,0.002135,
750,1700,0.383718,-0.769766,0.999997,0.000192,-0.001151,0.002465,-0.000037,0.002466,-0.001152,-89.417345,0.002467,
1120,250,0.043580,-4.662369,0.999998,0.000168,-0.000446,0.001773,-0.000022,0.001774,-0.000446,-89.429828,0.001845,
920,1270,0.451799,-1.777712,0.999997,0.000208,-0.001820,0.003124,-0.000021,0.003124,-0.001820,-89.756882,0.003138,
1240,160,-0.003603,-4.824125,0.999999,0.000140,-0.000238,0.001633,0.000011,0.001633,-0.000238,89.661876,0.001764,
1730,1430,-0.600560,-1.476165,0.999998,0.000185,-0.001386,0.002645,0.000015,0.002646,-0.001386,89.782047,0.002647,
1600,1870,-0.140584,-0.312368,0.999998,0.000205,-0.000648,0.002083,0.000270,0.002109,-0.000674,84.415673,0.002154,
1220,1550,0.007249,-0.814450,0.999998,0.000160,-0.000637,0.001722,0.000063,0.001724,-0.000639,88.463773,0.001743,
950,610,0.276133,-3.800975,0.999998,0.000182,-0.001407,0.002585,-0.000349,0.002615,-0.001438,-85.045099,0.002619,
710,760,0.749476,-3.190363,0.999998,0.000157,-0.001328,0.002625,0.000199,0.002635,-0.001338,87.126780,0.002635,
1090,930,0.405151,-3.249016,0.999997,0.000000,-0.000783,0.003194,-0.002128,0.004118,-0.001707,-66.528601,0.004138,
1540,1130,-0.633707,-2.216361,0.999998,0.000183,-0.001319,0.003087,0.000341,0.003113,-0.001345,85.605704,0.003123,
1600,1280,-0.538242,-1.800618,0.999997,0.000194,-0.001651,0.002963,0.000153,0.002968,-0.001656,88.106061,0.002974,
1880,830,-0.965954,-2.949785,0.999999,0.000111,-0.001119,0.002327,-0.000074,0.002329,-0.001120,-88.771352,0.002329,
990,1330,0.270518,-1.495730,0.999997,0.000219,-0.001757,0.002873,0.000482,0.002923,-0.001806,84.124938,0.002950,
910,1120,0.660453,-2.253527,0.999998,0.000183,-0.001208,0.002998,-0.000375,0.003031,-0.001241,-84.938807,0.003048,
1770,1370,-0.703524,-1.664450,0.999998,0.000195,-0.001338,0.002612,0.000115,0.002615,-0.001341,88.331430,0.002616,
1340,30,-0.004094,-5.021568,0.999999,0.000000,-0.000003,0.001483,-0.000078,0.001487,-0.000007,-86.986025,0.001714,
1790,470,-0.563261,-3.919221,0.999998,0.000186,-0.001276,0.002562,0.000058,0.002563,-0.001277,89.129460,0.002563,
1100,390,0.078296,-4.397338,0.999998,0.000156,-0.000635,0.001876,-0.000098,0.001879,-0.000639,-87.766413,0.001911,
740,940,0.860943,-2.736852,0.999998,0.000148,-0.001111,0.002490,0.000217,0.002503,-0.001124,86.559535,0.002508,
1370,1400,-0.102403,-1.157179,0.999998,0.000151,-0.001079,0.001985,-0.000670,0.002125,-0.001218,-78.195519,0.002133,
1440,440,-0.146073,-4.261771,0.999998,0.000144,-0.000861,0.002084,0.000185,0.002095,-0.000873,86.412911,0.002105,
1370,60,-0.008458,-4.977679,0.999999,0.000124,-0.000032,0.001552,-0.000083,0.001556,-0.000036,-87.001372,0.001776,
1380,1930,-0.026688,-0.166530,0.999999,0.000116,-0.000174,0.001626,0.000127,0.001635,-0.000183,85.985369,0.001791,
590,2000,0.136869,-0.124375,0.999998,0.000166,-0.000679,0.002952,-0.001133,0.003277,-0.001003,-74.022991,0.003358,
1340,1400,-0.073272,-1.118439,0.999999,0.000139,-0.000913,0.001764,-0.000641,0.001910,-0.001058,-77.208373,0.001913,
780,1180,0.765202,-2.127384,0.999998,0.000164,-0.001276,0.002649,-0.000298,0.002672,-0.001298,-85.676803,0.002672,
1860,380,-0.586554,-4.090892,0.999998,0.000175,-0.001246,0.002453,0.000042,0.002453,-0.001246,89.345755,0.002453,
1520,1380,-0.318566,-1.422132,0.999997,0.000202,-0.001609,0.002811,-0.000322,0.002834,-0.001632,-85.858404,0.002845,
1490,1800,-0.116415,-0.422039,0.999998,0.000192,-0.000618,0.002000,0.000080,0.002003,-0.000621,88.261952,0.002050,
940,1530,0.258196,-1.037615,0.999998,0.000154,-0.001205,0.002396,0.000263,0.002415,-0.001224,85.847092,0.002415,
1560,1990,-0.030558,-0.076977,0.999999,0.000136,-0.000155,0.001731,0.000317,0.001782,-0.000207,80.720590,0.001950,
1270,800,-0.028935,-3.839425,0.999999,0.000144,-0.000800,0.000686,0.000512,0.000845,-0.000960,72.713840,0.001049,
1650,150,-0.134719,-4.790857,0.999998,0.000153,-0.000544,0.002128,-0.000404,0.002188,-0.000604,-81.589182,0.002260,
910,650,0.355317,-3.649328,0.999997,0.000190,-0.001549,0.002756,-0.000240,0.002770,-0.001563,-86.813027,0.002777,
1060,1940,0.027529,-0.152009,0.999999,0.000138,-0.000175,0.001647,-0.000121,0.001655,-0.000183,-86.203368,0.001815,
840,340,0.276699,-4.367845,0.999997,0.000193,-0.000964,0.002377,0.000051,0.002378,-0.000965,89.129629,0.002392,
590,1260,0.932149,-2.003658,0.999999,0.000177,-0.001180,0.002325,-0.000067,0.002326,-0.001181,-88.900735,0.002326,
790,1950,0.097894,-0.161017,0.999998,0.000143,-0.000495,0.002048,-0.000475,0.002134,-0.000580,-79.759525,0.002207,
1010,110,0.036254,-4.892314,0.999999,0.000155,-0.000185,0.001715,0.000173,0.001731,-0.000200,84.853426,0.001894,
1280,1880,-0.012669,-0.243203,0.999998,0.000152,-0.000253,0.001663,0.000018,0.001663,-0.000253,89.463451,0.001792,
610,1730,0.527856,-0.807010,0.999998,0.000171,-0.001205,0.002482,0.000040,0.002483,-0.001206,89.382415,0.002483,
1410,1200,-0.292686,-1.745414,0.999998,0.000168,-0.001853,0.003102,-0.000712,0.003202,-0.001954,-81.983959,0.003228,
1870,770,-0.906191,-3.096826,0.999999,0.000129,-0.001180,0.002410,-0.000091,0.002412,-0.001183,-88.541168,0.002412,
1580,1610,-0.289528,-0.892181,0.999998,0.000172,-0.001100,0.002374,-0.000128,0.002379,-0.001104,-87.892606,0.002381,
1560,1320,-0.430975,-1.642717,0.999997,0.000191,-0.001708,0.003012,-0.000092,0.003014,-0.001710,-88.889875,0.003023,
650,1970,0.144108,-0.151092,0.999998,0.000166,-0.000660,0.002546,-0.000851,0.002758,-0.000871,-76.018402,0.002820,
1320,130,-0.013954,-4.869319,0.999998,0.000136,-0.000182,0.001643,-0.000042,0.001644,-0.000183,-88.697191,0.001802,
1890,700,-0.869862,-3.253054,0.999998,0.000194,-0.001231,0.002472,-0.000003,0.002472,-0.001231,-89.946930,0.002472,
1730,890,-0.834488,-2.862175,0.999998,0.000153,-0.001197,0.002566,-0.000283,0.002588,-0.001218,-85.725515,0.002589,
1220,1870,0.003865,-0.258440,0.999998,0.000162,-0.000327,0.001636,0.000015,0.001636,-0.000327,89.551160,0.001732,
830,400,0.325081,-4.217451,0.999998,0.000173,-0.001108,0.002441,-0.000063,0.002442,-0.001110,-88.975334,0.002445,
640,40,0.050072,-4.991727,0.999998,0.000173,-0.000669,0.002188,0.000826,0.002410,-0.000891,74.974809,0.002437,
940,850,0.497575,-3.077010,0.999998,0.000173,-0.001769,0.003275,0.000155,0.003280,-0.001773,88.244709,0.003283,
1240,140,-0.001938,-4.855506,0.999999,0.000139,-0.000208,0.001601,0.000012,0.001601,-0.000208,89.624852,0.001741,
1770,1810,-0.351168,-0.535017,0.999997,0.000209,-0.001159,0.002525,0.000144,0.002531,-0.001164,87.759571,0.002533,
1880,860,-0.988746,-2.879237,0.999999,0.000132,-0.001109,0.002270,-0.000083,0.002272,-0.001111,-88.595007,0.002272,
990,1550,0.192934,-0.945386,0.999998,0.000152,-0.001056,0.002244,0.000279,0.002267,-0.001080,85.200585,0.002268,
1090,920,0.383307,-3.282118,0.999998,0.000000,-0.000768,0.002818,-0.001907,0.003642,-0.001593,-66.621722,0.003652,
950,630,0.285166,-3.748787,0.999998,0.000176,-0.001439,0.002617,-0.000357,0.002648,-0.001470,-85.012191,0.002653,
1180,1720,0.026212,-0.521423,0.999998,0.000154,-0.000495,0.001782,0.000024,0.001783,-0.000495,89.407087,0.001840,
950,1600,0.221258,-0.863563,0.999999,0.000145,-0.001025,0.002281,0.000167,0.002290,-0.001033,87.119549,0.002293,
920,1250,0.474040,-1.841069,0.999996,0.000213,-0.001795,0.003142,-0.000068,0.003143,-0.001795,-89.214525,0.003154,
1450,1110,-0.537351,-2.186081,0.999997,0.000199,-0.001534,0.003835,-0.000136,0.003838,-0.001537,-88.547544,0.003863,
1120,1410,0.076411,-1.103663,0.999998,0.000172,-0.000918,0.001799,0.000616,0.001933,-0.001051,77.797487,0.001935,
740,920,0.848252,-2.787801,0.999998,0.000139,-0.001142,0.002497,0.000215,0.002509,-0.001155,86.629560,0.002512,
1440,420,-0.140734,-4.301724,0.999998,0.000146,-0.000822,0.002069,0.000151,0.002077,-0.000830,87.021023,0.002091,
1360,1930,-0.022945,-0.165507,0.999999,0.000122,-0.000181,0.001635,0.000099,0.001640,-0.000186,86.877851,0.001796,
1860,360,-0.566037,-4.136347,0.999997,0.000190,-0.001237,0.002463,0.000030,0.002463,-0.001237,89.532627,0.002463,
1790,450,-0.550013,-3.971661,0.999998,0.000178,-0.001269,0.002540,0.000056,0.002541,-0.001270,89.153043,0.002541,
670,1300,0.798152,-1.858311,0.999998,0.000165,-0.001272,0.002537,-0.000162,0.002544,-0.001279,-87.575836,0.002544,
590,1990,0.160791,-0.152254,0.999998,0.000161,-0.000933,0.002975,-0.000908,0.003175,-0.001134,-77.540765,0.003218,
810,1580,0.391903,-1.022890,0.999998,0.000183,-0.001297,0.002514,0.000095,0.002516,-0.001300,88.566934,0.002517,
780,1160,0.781857,-2.179504,0.999998,0.000177,-0.001257,0.002650,-0.000308,0.002674,-0.001281,-85.523753,0.002675,
1540,1990,-0.027357,-0.075361,0.999998,0.000171,-0.000092,0.001704,0.000286,0.001748,-0.000136,81.175698,0.001944,
1030,360,0.119263,-4.428000,0.999997,0.000187,-0.000755,0.002001,-0.000106,0.002005,-0.000759,-87.809675,0.002024,
1650,590,-0.462279,-3.720778,0.999997,0.000183,-0.001420,0.002668,0.000080,0.002670,-0.001421,88.883881,0.002672,
1340,1380,-0.074161,-1.153265,0.999998,0.000149,-0.000921,0.001758,-0.000698,0.001929,-0.001092,-76.238239,0.001935,
840,320,0.262994,-4.416662,0.999997,0.000205,-0.000932,0.002319,0.000057,0.002320,-0.000933,88.998076,0.002335,
1060,1900,0.039610,-0.218706,0.999998,0.000184,-0.000277,0.001729,-0.000106,0.001735,-0.000283,-86.974727,0.001862,
1010,90,0.028159,-4.926570,0.999999,0.000154,-0.000147,0.001652,0.000179,0.001670,-0.000165,84.380965,0.001840,
580,1260,0.942553,-2.010843,0.999999,0.000171,-0.001214,0.002302,-0.000025,0.002302,-0.001214,-89.591311,0.002303,
570,410,0.659030,-3.985888,0.999901,0.001220,-0.003585,0.003121,-0.000122,0.003123,-0.003587,-88.960668,0.003902,
1590,100,-0.063626,-4.898743,0.999998,0.000163,-0.000356,0.001847,-0.000348,0.001901,-0.000410,-81.237982,0.002001,
840,1470,0.419845,-1.283065,0.999998,0.000171,-0.001418,0.002661,0.000118,0.002664,-0.001421,88.339754,0.002666,
1410,1180,-0.331043,-1.809719,0.999998,0.000168,-0.001796,0.003256,-0.000764,0.003369,-0.001909,-81.584806,0.003379,
610,1710,0.544154,-0.857973,0.999998,0.000183,-0.001196,0.002502,0.000015,0.002502,-0.001196,89.773396,0.002503,
1330,2020,-0.002920,-0.022105,0.999999,0.000000,-0.000047,0.001564,0.000059,0.001566,-0.000049,87.903780,0.001781,
790,1930,0.123662,-0.205144,0.999998,0.000152,-0.000599,0.002102,-0.000446,0.002174,-0.000671,-80.862079,0.002227,
1560,1300,-0.450345,-1.704666,0.999997,0.000181,-0.001735,0.003038,-0.000040,0.003038,-0.001735,-89.516832,0.003049,
1390,1230,-0.204590,-1.595043,0.999998,0.000180,-0.001778,0.002765,-0.000931,0.002948,-0.001961,-78.859303,0.003001,
1180,250,0.020534,-4.669965,0.999998,0.000156,-0.000363,0.001733,0.000018,0.001733,-0.000363,89.514642,0.001828,
1280,1860,-0.013986,-0.276557,0.999999,0.000143,-0.000282,0.001673,0.000032,0.001673,-0.000283,89.072294,0.001791,
1580,1590,-0.297712,-0.940202,0.999998,0.000182,-0.001150,0.002407,-0.000164,0.002415,-0.001158,-87.372033,0.002416,
940,1510,0.263273,-1.084501,0.999998,0.000156,-0.001231,0.002456,0.000284,0.002477,-0.001253,85.626299,0.002477,
1480,1170,-0.477241,-2.022491,0.999998,0.000168,-0.001778,0.003425,0.000075,0.003426,-0.001779,89.172209,0.003427,
1880,700,-0.857017,-3.261512,0.999998,0.000185,-0.001227,0.002488,-0.000016,0.002488,-0.001227,-89.753886,0.002488,
1240,120,-0.001641,-4.886755,0.999999,0.000132,-0.000175,0.001565,0.000001,0.001565,-0.000175,89.979107,0.001715,
910,630,0.344769,-3.704937,0.999998,0.000174,-0.001512,0.002709,-0.000239,0.002722,-0.001525,-86.774847,0.002729,
1730,870,-0.818959,-2.913339,0.999999,0.000150,-0.001231,0.002543,-0.000260,0.002561,-0.001249,-86.074053,0.002561,
1860,770,-0.894602,-3.103967,0.999999,0.000108,-0.001210,0.002417,-0.000108,0.002421,-0.001213,-88.296363,0.002421,
660,240,0.383652,-4.492666,0.999997,0.000220,-0.001121,0.002563,0.000167,0.002570,-0.001128,87.401820,0.002577,
1770,1790,-0.371266,-0.586316,0.999997,0.000219,-0.001173,0.002518,0.000113,0.002522,-0.001176,88.248069,0.002524,
1880,850,-0.980643,-2.902949,0.999999,0.000120,-0.001116,0.002316,-0.000082,0.002318,-0.001118,-88.626587,0.002319,
990,1310,0.283365,-1.554742,0.999997,0.000229,-0.001802,0.002961,0.000469,0.003006,-0.001848,84.433152,0.003033,
950,650,0.294632,-3.696771,0.999998,0.000174,-0.001503,0.002670,-0.000362,0.002701,-0.001534,-85.080525,0.002710,
1180,1680,0.029091,-0.591406,0.999998,0.000140,-0.000545,0.001771,0.000022,0.001771,-0.000545,89.455802,0.001814,
1450,1090,-0.570227,-2.264267,0.999997,0.000205,-0.001468,0.003911,-0.000165,0.003916,-0.001473,-88.242527,0.003956,
940,830,0.468961,-3.141823,0.999998,0.000161,-0.001812,0.003242,0.000077,0.003243,-0.001813,89.125386,0.003251,
970,1720,0.155994,-0.588210,0.999998,0.000189,-0.000833,0.002124,0.000065,0.002125,-0.000835,88.738747,0.002142,
1870,1850,-0.420568,-0.525680,0.999998,0.000205,-0.001223,0.002477,0.000086,0.002479,-0.001225,88.667797,0.002479,
1090,30,0.002731,-5.023302,0.999999,0.000000,-0.000007,0.001498,0.000138,0.001510,-0.000019,84.818196,0.001733,
1790,430,-0.533585,-4.020663,0.999998,0.000174,-0.001255,0.002526,0.000035,0.002526,-0.001255,89.463862,0.002526,
1860,340,-0.550084,-4.188108,0.999998,0.000177,-0.001236,0.002521,0.000055,0.002522,-0.001237,89.167769,0.002522,
850,1480,0.399574,-1.248635,0.999998,0.000184,-0.001387,0.002651,0.000138,0.002656,-0.001392,88.041880,0.002657,
1010,360,0.134773,-4.420158,0.999998,0.000160,-0.000727,0.002034,-0.000082,0.002037,-0.000729,-88.299952,0.002064,
840,300,0.249142,-4.461002,0.999998,0.000192,-0.000899,0.002314,0.000102,0.002317,-0.000902,88.191573,0.002336,
1060,1990,0.011901,-0.070338,0.999999,0.000115,-0.000099,0.001586,-0.000119,0.001594,-0.000107,-85.981202,0.001782,
590,1980,0.185721,-0.183303,0.999998,0.000149,-0.001063,0.003011,-0.000770,0.003152,-0.001204,-79.651214,0.003181,
610,1280,0.890001,-1.943682,0.999998,0.000145,-0.001214,0.002445,-0.000121,0.002449,-0.001218,-88.115302,0.002449,
1650,570,-0.447704,-3.774342,0.999998,0.000185,-0.001391,0.002667,0.000106,0.002669,-0.001393,88.509660,0.002670,
780,1140,0.799077,-2.232970,0.999998,0.000200,-0.001212,0.002631,-0.000277,0.002651,-0.001232,-85.903891,0.002653,
610,1690,0.562848,-0.907277,0.999998,0.000182,-0.001225,0.002500,0.000021,0.002500,-0.001225,89.671393,0.002501,
1440,400,-0.136568,-4.342877,0.999998,0.000144,-0.000793,0.002070,0.000130,0.002076,-0.000799,87.398714,0.002094,
1340,1360,-0.072600,-1.188621,0.999998,0.000149,-0.000975,0.001755,-0.000774,0.001959,-0.001179,-75.227906,0.001973,
740,900,0.835605,-2.836783,0.999998,0.000148,-0.001196,0.002549,0.000269,0.002569,-0.001215,85.917551,0.002570,
1010,70,0.019610,-4.958938,0.999999,0.000161,-0.000094,0.001615,0.000182,0.001634,-0.000113,83.998130,0.001826,
1050,830,0.254529,-3.358289,0.999997,0.000193,-0.001958,0.003029,-0.000722,0.003132,-0.002061,-81.924420,0.003184,
810,640,0.500823,-3.583597,0.999997,0.000182,-0.001472,0.002741,-0.000025,0.002741,-0.001472,-89.654774,0.002744,
1340,1930,-0.018620,-0.164936,0.999998,0.000141,-0.000190,0.001614,0.000043,0.001615,-0.000191,88.620902,0.001765,
870,280,0.207565,-4.523945,0.999997,0.000198,-0.000898,0.002245,0.000095,0.002248,-0.000901,88.269632,0.002263,
790,1910,0.145565,-0.245722,0.999998,0.000162,-0.000710,0.002199,-0.000410,0.002255,-0.000766,-82.123473,0.002293,
1560,1500,-0.316545,-1.147243,0.999998,0.000186,-0.001315,0.002531,-0.000244,0.002547,-0.001331,-86.383507,0.002547,
910,610,0.333196,-3.758960,0.999998,0.000186,-0.001459,0.002644,-0.000257,0.002660,-0.001475,-86.426500,0.002666,
1600,1260,-0.560761,-1.859802,0.999998,0.000199,-0.001624,0.003006,0.000196,0.003015,-0.001633,87.579893,0.003018,
1240,1670,-0.003394,-0.604587,0.999998,0.000161,-0.000565,0.001775,-0.000031,0.001776,-0.000565,-89.240563,0.001814,
1880,840,-0.973118,-2.925768,0.999999,0.000116,-0.001117,0.002337,-0.000078,0.002338,-0.001118,-88.704114,0.002339,
570,400,0.675731,-4.022451,0.999856,0.001538,-0.003651,0.002834,-0.000078,0.002834,-0.003652,-89.307902,0.003833,
600,1510,0.710862,-1.370267,0.999999,0.000140,-0.001243,0.002560,0.000025,0.002561,-0.001244,89.629233,0.002561,
1820,870,-0.927385,-2.884416,0.999999,0.000149,-0.001139,0.002401,-0.000200,0.002413,-0.001150,-86.784498,0.002413,
1540,1110,-0.657379,-2.278267,0.999998,0.000191,-0.001193,0.003035,0.000343,0.003063,-0.001221,85.398073,0.003084,
1280,1840,-0.017305,-0.310666,0.999998,0.000160,-0.000312,0.001694,-0.000009,0.001694,-0.000312,-89.745171,0.001803,
1240,100,-0.000991,-4.918154,0.999999,0.000125,-0.000163,0.001539,-0.000019,0.001540,-0.000163,-89.372137,0.001692,
780,1710,0.343507,-0.724306,0.999997,0.000186,-0.001100,0.002424,-0.000009,0.002424,-0.001100,-89.854446,0.002427,
1080,390,0.090418,-4.392745,0.999998,0.000160,-0.000650,0.001924,-0.000123,0.001930,-0.000656,-87.260578,0.001963,
1770,1770,-0.392776,-0.636702,0.999997,0.000205,-0.001178,0.002523,0.000083,0.002525,-0.001180,88.715130,0.002527,
1720,450,-0.460889,-4.025640,0.999998,0.000176,-0.001250,0.002522,0.000062,0.002523,-0.001251,89.052851,0.002523,
1730,850,-0.803750,-2.963400,0.999999,0.000153,-0.001276,0.002587,-0.000267,0.002605,-0.001295,-86.062111,0.002605,
1880,1390,-0.829025,-1.689606,0.999998,0.000170,-0.001275,0.002516,0.000022,0.002516,-0.001275,89.671222,0.002516,
1330,1170,-0.265398,-1.451010,0.999985,0.000000,-0.000603,0.000949,-0.000988,0.001429,-0.001084,-64.065303,0.001491,
1180,1660,0.028829,-0.627971,0.999998,0.000156,-0.000566,0.001809,0.000046,0.001810,-0.000567,88.896459,0.001852,
990,1270,0.320302,-1.676804,0.999998,0.000195,-0.001951,0.003141,0.000410,0.003174,-0.001984,85.422598,0.003207,
1640,1070,-0.792927,-2.410729,0.999998,0.000180,-0.001014,0.002585,0.000144,0.002591,-0.001020,87.719331,0.002610,
650,1950,0.187950,-0.201599,0.999998,0.000152,-0.000788,0.002569,-0.000702,0.002710,-0.000929,-78.644767,0.002755,
1390,1210,-0.237030,-1.652326,0.999998,0.000182,-0.001784,0.002761,-0.000896,0.002931,-0.001954,-79.239428,0.002985,
1860,1850,-0.408377,-0.514508,0.999997,0.000219,-0.001225,0.002512,0.000097,0.002514,-0.001227,88.514602,0.002515,
970,1700,0.164128,-0.630847,0.999998,0.000183,-0.000881,0.002146,0.000126,0.002152,-0.000886,87.615697,0.002163,
1450,1070,-0.594526,-2.340201,0.999997,0.000196,-0.001465,0.004062,-0.000165,0.004067,-0.001470,-88.290123,0.004119,
1080,2020,0.004472,-0.023960,0.999999,0.000000,-0.000045,0.001518,-0.000065,0.001521,-0.000048,-87.630207,0.001729,
700,1130,0.896007,-2.272325,0.999998,0.000142,-0.001144,0.002461,-0.000181,0.002470,-0.001153,-87.139830,0.002471,
1180,130,0.008964,-4.869710,0.999999,0.000126,-0.000172,0.001570,0.000031,0.001571,-0.000172,88.984258,0.001723,
1100,1990,0.009727,-0.069386,0.999999,0.000124,-0.000057,0.001574,-0.000095,0.001580,-0.000062,-86.687152,0.001789,
1520,1340,-0.344969,-1.537076,0.999997,0.000200,-0.001738,0.002901,-0.000284,0.002919,-0.001755,-86.510001,0.002939,
940,810,0.443720,-3.206502,0.999997,0.000206,-0.001823,0.003194,-0.000025,0.003194,-0.001823,-89.715339,0.003205,
910,1500,0.306975,-1.140014,0.999998,0.000199,-0.001331,0.002542,0.000244,0.002558,-0.001347,86.408101,0.002559,
1230,800,-0.000427,-3.871345,0.999998,0.000193,-0.000816,0.000518,-0.000029,0.000519,-0.000816,-88.739626,0.000826,
950,670,0.306255,-3.640836,0.999998,0.000180,-0.001586,0.002781,-0.000374,0.002812,-0.001617,-85.140002,0.002823,
1860,320,-0.535056,-4.237266,0.999998,0.000194,-0.001226,0.002481,0.000033,0.002482,-0.001226,89.489437,0.002482,
1650,550,-0.436845,-3.827109,0.999998,0.000183,-0.001352,0.002618,0.000114,0.002621,-0.001355,88.352919,0.002621,
840,280,0.234790,-4.508670,0.999998,0.000189,-0.000853,0.002325,0.000138,0.002331,-0.000859,87.524136,0.002358,
1160,250,0.026756,-4.668011,0.999999,0.000131,-0.000377,0.001721,0.000024,0.001722,-0.000377,89.345229,0.001810,
1530,1360,-0.349046,-1.491622,0.999997,0.000199,-0.001685,0.002854,-0.000256,0.002869,-0.001699,-86.783277,0.002885,
1330,1340,-0.063801,-1.205294,0.999998,0.000150,-0.000930,0.001642,-0.000830,0.001886,-0.001174,-73.574597,0.001905,
1420,1100,-0.507281,-2.142584,0.999996,0.000225,-0.001790,0.004314,-0.001066,0.004495,-0.001971,-80.373991,0.004506,
1790,410,-0.519763,-4.072535,0.999997,0.000187,-0.001243,0.002514,0.000016,0.002515,-0.001243,89.749349,0.002515,
1200,1550,0.019308,-0.819001,0.999998,0.000162,-0.000627,0.001707,0.000095,0.001711,-0.000631,87.678855,0.001731,
1050,810,0.229625,-3.420966,0.999998,0.000182,-0.001938,0.002956,-0.000769,0.003074,-0.002056,-81.273344,0.003132,
780,1120,0.810566,-2.285304,0.999998,0.000187,-0.001141,0.002588,-0.000230,0.002602,-0.001155,-86.491098,0.002607,
610,1670,0.580236,-0.957811,0.999998,0.000174,-0.001255,0.002509,0.000019,0.002509,-0.001256,89.713706,0.002509,
810,620,0.486731,-3.637429,0.999997,0.000206,-0.001452,0.002729,-0.000057,0.002730,-0.001453,-89.224584,0.002732,
1600,1240,-0.581953,-1.920691,0.999998,0.000184,-0.001596,0.002996,0.000232,0.003008,-0.001608,87.119656,0.003010,
790,1890,0.168481,-0.292160,0.999998,0.000157,-0.000778,0.002242,-0.000371,0.002287,-0.000823,-83.097332,0.002317,
870,260,0.192865,-4.567559,0.999998,0.000184,-0.000860,0.002188,0.000117,0.002192,-0.000865,87.810687,0.002208,
1000,1980,0.022111,-0.089412,0.999999,0.000126,-0.000115,0.001658,-0.000212,0.001683,-0.000140,-83.277364,0.001868,
1660,590,-0.474998,-3.712401,0.999998,0.000180,-0.001402,0.002671,0.000063,0.002672,-0.001403,89.114549,0.002673,
1570,830,-0.552842,-3.095388,0.999997,0.000174,-0.001649,0.003075,-0.000230,0.003086,-0.001660,-87.222962,0.003089,
1870,1070,-1.035731,-2.428040,0.999998,0.000157,-0.001030,0.002118,0.000021,0.002118,-0.001030,89.609290,0.002118,
830,1720,0.282149,-0.665305,0.999998,0.000186,-0.001004,0.002385,-0.000028,0.002385,-0.001005,-89.525616,0.002395,
710,1040,0.916996,-2.489096,0.999998,0.000156,-0.001056,0.002400,-0.000058,0.002401,-0.001057,-89.039004,0.002407,
1440,380,-0.130697,-4.384401,0.999998,0.000156,-0.000759,0.002060,0.000114,0.002065,-0.000764,87.685688,0.002088,
630,560,0.684375,-3.653961,0.999998,0.000177,-0.001302,0.002550,-0.000032,0.002550,-0.001302,-89.528765,0.002550,
700,100,0.140367,-4.869766,0.999998,0.000151,-0.000811,0.002221,0.000593,0.002333,-0.000923,79.327840,0.002350,
1230,780,0.001559,-3.880664,0.999998,0.000169,-0.000587,0.000562,-0.000023,0.000562,-0.000588,-88.838588,0.000664,
1340,1340,-0.072722,-1.222500,0.999998,0.000154,-0.001015,0.001740,-0.000859,0.001986,-0.001261,-74.027868,0.002010,
1560,1610,-0.267923,-0.877514,0.999998,0.000164,-0.001130,0.002344,-0.000171,0.002352,-0.001138,-87.191237,0.002352,
590,360,0.583799,-4.126734,0.999998,0.000162,-0.001620,0.002491,-0.000062,0.002492,-0.001621,-89.134979,0.002529,
1730,830,-0.785353,-3.016864,0.999998,0.000166,-0.001318,0.002642,-0.000283,0.002662,-0.001338,-85.929583,0.002662,
1080,1120,0.418056,-1.872819,0.999996,0.000000,-0.001300,0.003441,0.002343,0.004403,-0.002262,67.669296,0.004404,
650,1910,0.261420,-0.307444,0.999998,0.000222,-0.000966,0.002573,-0.000486,0.002638,-0.001031,-82.317750,0.002659,
1690,670,-0.580222,-3.471898,0.999997,0.000196,-0.001448,0.002727,-0.000059,0.002728,-0.001449,-89.196552,0.002730,
1870,1390,-0.816315,-1.682172,0.999998,0.000167,-0.001271,0.002522,0.000033,0.002522,-0.001272,89.503510,0.002522,
990,1250,0.340335,-1.740458,0.999998,0.000186,-0.001978,0.003217,0.000324,0.003237,-0.001999,86.441145,0.003267,
1770,1750,-0.411010,-0.687402,0.999998,0.000174,-0.001208,0.002507,0.000061,0.002508,-0.001209,89.057543,0.002509,
1860,300,-0.514290,-4.287541,0.999998,0.000196,-0.001225,0.002508,-0.000008,0.002508,-0.001225,-89.881116,0.002508,
1890,640,-0.820394,-3.405855,0.999998,0.000167,-0.001259,0.002496,0.000000,0.002496,-0.001259,89.993088,0.002496,
1280,710,-0.026371,-3.909652,0.999999,0.000150,-0.000620,0.001180,0.000490,0.001305,-0.000745,75.726118,0.001309,
1360,250,-0.051377,-4.658721,0.999999,0.000122,-0.000408,0.001781,-0.000028,0.001781,-0.000409,-89.275291,0.001866,
1650,530,-0.422451,-3.878080,0.999998,0.000160,-0.001317,0.002568,0.000108,0.002571,-0.001320,88.410040,0.002572,
1130,810,0.098696,-3.672678,0.999998,0.000167,-0.001258,0.001631,-0.001107,0.002007,-0.001634,-71.271417,0.002135,
1820,850,-0.911196,-2.933095,0.999999,0.000120,-0.001144,0.002398,-0.000177,0.002407,-0.001153,-87.145597,0.002407,
1390,1190,-0.270718,-1.707966,0.999997,0.000191,-0.001714,0.002775,-0.000963,0.002973,-0.001912,-78.385559,0.003013,
660,1870,0.315421,-0.406763,0.999997,0.000204,-0.001055,0.002572,-0.000364,0.002609,-0.001092,-84.330151,0.002620,
590,720,0.867525,-3.216384,0.999999,0.000156,-0.001264,0.002444,0.000065,0.002445,-0.001266,89.003509,0.002446,
1280,1820,-0.016061,-0.343255,0.999999,0.000152,-0.000341,0.001705,-0.000002,0.001705,-0.000341,-89.954237,0.001805,
590,1640,0.626944,-1.049351,0.999998,0.000178,-0.001591,0.002512,0.000114,0.002515,-0.001594,88.404906,0.002545,
1640,1050,-0.798728,-2.461183,0.999998,0.000193,-0.000983,0.002579,0.000088,0.002581,-0.000986,88.579776,0.002605,
780,1100,0.823839,-2.337232,0.999998,0.000166,-0.001104,0.002569,-0.000232,0.002583,-0.001119,-86.396755,0.002591,
910,590,0.322487,-3.810998,0.999998,0.000177,-0.001398,0.002582,-0.000247,0.002597,-0.001413,-86.460591,0.002601,
1640,630,-0.474832,-3.622136,0.999997,0.000213,-0.001474,0.002716,0.000065,0.002717,-0.001475,89.117096,0.002721,
1720,430,-0.447098,-4.076573,0.999997,0.000185,-0.001241,0.002546,0.000046,0.002547,-0.001241,89.299963,0.002547,
610,1650,0.595445,-1.008181,0.999998,0.000178,-0.001261,0.002512,0.000032,0.002512,-0.001261,89.521626,0.002512,
980,130,0.051959,-4.856198,0.999999,0.000143,-0.000310,0.001759,0.000194,0.001777,-0.000328,84.677925,0.001891,
1550,670,-0.364425,-3.596863,0.999998,0.000192,-0.001574,0.002815,0.000235,0.002827,-0.001586,86.942027,0.002834,
600,1030,1.036528,-2.514440,0.999998,0.000177,-0.001039,0.002206,-0.000006,0.002206,-0.001039,-89.888181,0.002207,
1450,1050,-0.611044,-2.424909,0.999997,0.000213,-0.001491,0.004333,-0.000095,0.004335,-0.001492,-89.061668,0.004405,
1120,1350,0.075310,-1.210156,0.999998,0.000172,-0.001007,0.001772,0.000802,0.001987,-0.001222,75.005964,0.002004,
840,260,0.220733,-4.555678,0.999998,0.000182,-0.000807,0.002264,0.000165,0.002273,-0.000816,86.941168,0.002302,
1520,800,-0.426789,-3.243946,0.999997,0.000185,-0.001855,0.003195,0.000046,0.003196,-0.001855,89.474290,0.003209,
1210,800,0.016068,-3.860135,0.999998,0.000173,-0.000780,0.000585,-0.000299,0.000648,-0.000843,-78.177594,0.000882,
1440,360,-0.126057,-4.426047,0.999998,0.000177,-0.000742,0.002011,0.000084,0.002013,-0.000744,88.254151,0.002036,
1330,1320,-0.066171,-1.237059,0.999998,0.000158,-0.000972,0.001608,-0.000904,0.001893,-0.001257,-72.492795,0.001927,
1660,150,-0.142841,-4.786349,0.999999,0.000160,-0.000627,0.002152,-0.000400,0.002208,-0.000683,-81.967962,0.002261,
790,1870,0.189372,-0.335121,0.999998,0.000154,-0.000854,0.002217,-0.000328,0.002251,-0.000889,-83.975525,0.002268,
1790,390,-0.504911,-4.122149,0.999998,0.000183,-0.001221,0.002516,0.000019,0.002516,-0.001222,89.709279,0.002516,
1080,1990,0.010535,-0.069877,0.999999,0.000137,-0.000071,0.001584,-0.000116,0.001593,-0.000080,-86.004302,0.001795,
700,120,0.175271,-4.818210,0.999998,0.000155,-0.000918,0.002388,0.000567,0.002483,-0.001013,80.535417,0.002497,
600,1190,0.973799,-2.161527,0.999999,0.000133,-0.001096,0.002304,-0.000112,0.002307,-0.001100,-88.110086,0.002308,
580,40,0.090388,-4.958099,0.999998,0.000162,0.000013,0.003458,0.001682,0.004143,-0.000672,67.843610,0.004447,
1280,1610,-0.029981,-0.716157,0.999998,0.000186,-0.000607,0.001782,-0.000070,0.001784,-0.000609,-88.324122,0.001814,
1660,570,-0.461858,-3.765794,0.999997,0.000186,-0.001368,0.002654,0.000088,0.002656,-0.001370,88.751411,0.002657,
1000,1960,0.031440,-0.122002,0.999999,0.000137,-0.000143,0.001698,-0.000190,0.001718,-0.000162,-84.172067,0.001897,
1250,780,-0.010702,-3.873373,0.999998,0.000160,-0.000602,0.000612,0.000287,0.000676,-0.000666,77.359977,0.000775,
890,1520,0.323617,-1.107501,0.999998,0.000165,-0.001298,0.002503,0.000198,0.002513,-0.001309,87.031034,0.002514,
1080,1110,0.425498,-1.900741,0.999922,0.000000,-0.001493,0.003781,0.002591,0.004841,-0.002553,67.753750,0.004843,
950,1110,0.623585,-2.262017,0.999998,0.000186,-0.001248,0.003200,-0.000297,0.003220,-0.001268,-86.198688,0.003244,
1690,650,-0.562952,-3.526437,0.999997,0.000192,-0.001454,0.002714,-0.000034,0.002714,-0.001455,-89.526161,0.002716,
1650,510,-0.410645,-3.929184,0.999998,0.000169,-0.001302,0.002557,0.000112,0.002560,-0.001306,88.334266,0.002560,
1730,810,-0.767389,-3.070218,0.999998,0.000172,-0.001355,0.002616,-0.000273,0.002635,-0.001374,-86.081369,0.002636,
650,1890,0.292981,-0.360220,0.999998,0.000191,-0.001027,0.002606,-0.000402,0.002650,-0.001071,-83.764475,0.002667,
660,1850,0.341221,-0.457438,0.999998,0.000162,-0.001107,0.002567,-0.000283,0.002589,-0.001129,-85.625048,0.002596,
1860,280,-0.495553,-4.338187,0.999998,0.000181,-0.001210,0.002488,-0.000027,0.002489,-0.001211,-89.589321,0.002489,
700,910,0.887667,-2.805538,0.999999,0.000152,-0.001167,0.002444,0.000182,0.002453,-0.001177,87.117425,0.002453,
1130,830,0.123928,-3.642042,0.999998,0.000169,-0.001200,0.001582,-0.001061,0.001941,-0.001559,-71.331700,0.002057,
1290,310,-0.028652,-4.563951,0.999999,0.000152,-0.000432,0.001777,0.000016,0.001777,-0.000433,89.586745,0.001853,
780,1080,0.834080,-2.387115,0.999998,0.000159,-0.001078,0.002544,-0.000152,0.002550,-0.001085,-87.601762,0.002560,
1880,640,-0.807814,-3.412981,0.999998,0.000157,-0.001278,0.002517,-0.000012,0.002517,-0.001278,-89.813163,0.002517,
610,1630,0.609780,-1.059427,0.999997,0.000188,-0.001244,0.002497,0.000042,0.002497,-0.001244,89.359430,0.002497,
1650,640,-0.497349,-3.585040,0.999997,0.000207,-0.001452,0.002752,0.000036,0.002752,-0.001453,89.507354,0.002754,
1190,460,0.025759,-4.297338,0.999998,0.000184,-0.000584,0.001730,-0.000075,0.001733,-0.000586,-88.145438,0.001763,
1390,1170,-0.315688,-1.765307,0.999997,0.000196,-0.001491,0.002761,-0.001128,0.003041,-0.001771,-76.022872,0.003055,
960,1030,0.675124,-2.512655,0.999998,0.000192,-0.000974,0.003148,-0.000026,0.003148,-0.000975,-89.643359,0.003223,
1210,1260,0.015111,-1.177288,0.999998,0.000160,-0.000727,0.000576,0.000307,0.000645,-0.000795,77.376046,0.000845,
1550,630,-0.340285,-3.708392,0.999998,0.000180,-0.001491,0.002710,0.000254,0.002725,-0.001507,86.551724,0.002730,
1340,250,-0.042116,-4.662298,0.999999,0.000136,-0.000447,0.001749,0.000005,0.001749,-0.000447,89.858226,0.001818,
840,240,0.203757,-4.599962,0.999998,0.000189,-0.000759,0.002261,0.000214,0.002276,-0.000775,85.960760,0.002314,
1450,1030,-0.615229,-2.510668,0.999997,0.000239,-0.001495,0.004238,-0.000019,0.004238,-0.001495,-89.805481,0.004299,
910,570,0.313665,-3.862183,0.999998,0.000175,-0.001353,0.002555,-0.000257,0.002572,-0.001370,-86.258799,0.002574,
1520,780,-0.403349,-3.306290,0.999997,0.000184,-0.001863,0.003134,0.000138,0.003138,-0.001867,88.416329,0.003157,
1390,360,-0.089426,-4.448307,0.999998,0.000153,-0.000622,0.001933,0.000067,0.001934,-0.000624,88.504527,0.001975,
1520,170,-0.088667,-4.775772,0.999998,0.000147,-0.000443,0.001904,-0.000207,0.001922,-0.000461,-84.996867,0.002007,
790,1850,0.211978,-0.382270,0.999998,0.000156,-0.000888,0.002283,-0.000280,0.002308,-0.000912,-85.000462,0.002325,
700,140,0.205227,-4.773084,0.999998,0.000156,-0.000996,0.002424,0.000483,0.002491,-0.001063,82.120585,0.002500,
1440,340,-0.118920,-4.463388,0.999998,0.000175,-0.000721,0.001987,0.000049,0.001988,-0.000722,88.963072,0.002013,
1700,430,-0.422964,-4.092271,0.999997,0.000190,-0.001224,0.002525,0.000051,0.002525,-0.001225,89.220589,0.002526,
580,50,0.129581,-4.922382,0.999998,0.000185,-0.000254,0.003326,0.001401,0.003809,-0.000737,70.976422,0.004040,
1790,370,-0.487837,-4.173001,0.999998,0.000182,-0.001204,0.002523,0.000021,0.002523,-0.001205,89.678649,0.002524,
700,1190,0.856396,-2.122577,0.999999,0.000149,-0.001205,0.002500,-0.000245,0.002516,-0.001221,-86.239730,0.002517,
1210,780,0.012820,-3.872212,0.999999,0.000145,-0.000620,0.000624,-0.000329,0.000705,-0.000701,-76.071169,0.000812,
1470,1800,-0.106143,-0.416034,0.999998,0.000165,-0.000536,0.001988,0.000097,0.001992,-0.000540,87.801516,0.002060,
1360,1610,-0.082145,-0.744238,0.999998,0.000168,-0.000710,0.001872,-0.000155,0.001882,-0.000720,-86.573967,0.001899,
1160,1550,0.046573,-0.828442,0.999998,0.000143,-0.000692,0.001754,0.000202,0.001770,-0.000708,85.319258,0.001782,
1370,920,-0.383674,-3.299617,0.999997,0.000000,-0.000754,0.002641,0.001968,0.003542,-0.001655,65.395874,0.003545,
590,1930,0.296965,-0.324622,0.999998,0.000157,-0.001115,0.002664,-0.000375,0.002701,-0.001152,-84.385830,0.002711,
950,1090,0.648987,-2.325553,0.999998,0.000193,-0.001138,0.003164,-0.000245,0.003178,-0.001152,-86.756828,0.003218,
1730,790,-0.746113,-3.120776,0.999998,0.000182,-0.001379,0.002633,-0.000252,0.002648,-0.001395,-86.416229,0.002650,
1690,630,-0.546484,-3.580430,0.999998,0.000174,-0.001448,0.002706,-0.000005,0.002706,-0.001448,-89.930678,0.002708,
650,1870,0.326411,-0.412133,0.999997,0.000198,-0.001076,0.002593,-0.000321,0.002621,-0.001103,-85.042313,0.002631,
780,1060,0.839808,-2.437152,0.999998,0.000161,-0.001048,0.002524,-0.000098,0.002526,-0.001050,-88.427818,0.002538,
1080,1100,0.435293,-1.936219,0.999922,0.000000,-0.001725,0.004365,0.002710,0.005397,-0.002756,69.162806,0.005397,
960,1010,0.672636,-2.574671,0.999997,0.000187,-0.001004,0.003194,0.000056,0.003195,-0.001004,89.231236,0.003268,
1860,260,-0.473714,-4.387049,0.999997,0.000211,-0.001222,0.002483,-0.000028,0.002483,-0.001222,-89.574393,0.002483,
1660,130,-0.120747,-4.828564,0.999999,0.000154,-0.000576,0.002054,-0.000430,0.002122,-0.000644,-80.945398,0.002176,
1350,1380,-0.083012,-1.167720,0.999998,0.000169,-0.000988,0.001854,-0.000704,0.002019,-0.001153,-76.822795,0.002025,
960,1250,0.400787,-1.790059,0.999997,0.000201,-0.001900,0.003218,0.000129,0.003221,-0.001903,88.555903,0.003239,
1650,490,-0.397152,-3.980810,0.999998,0.000166,-0.001281,0.002534,0.000108,0.002537,-0.001284,88.380525,0.002537,
1870,640,-0.795118,-3.420463,0.999998,0.000187,-0.001288,0.002536,-0.000031,0.002537,-0.001288,-89.534642,0.002537,
1290,330,-0.029052,-4.528021,0.999998,0.000172,-0.000470,0.001793,0.000027,0.001793,-0.000470,89.326633,0.001860,
1110,700,0.086986,-3.822586,0.999998,0.000169,-0.001121,0.001874,-0.000816,0.002082,-0.001329,-75.705874,0.002108,
630,1800,0.436176,-0.611851,0.999997,0.000218,-0.001198,0.002567,-0.000075,0.002568,-0.001200,-88.851747,0.002570,
610,1610,0.624878,-1.108418,0.999998,0.000169,-0.001246,0.002491,0.000036,0.002492,-0.001246,89.451541,0.002492,
1530,1930,-0.065470,-0.182728,0.999999,0.000149,-0.000304,0.001844,0.000268,0.001877,-0.000337,82.988956,0.002001,
1130,850,0.158178,-3.610707,0.999998,0.000188,-0.001037,0.001362,-0.000859,0.001638,-0.001313,-72.192555,0.001734,
1460,1990,-0.016647,-0.072013,0.999998,0.000187,-0.000068,0.001625,0.000204,0.001649,-0.000093,83.224167,0.001853,
910,550,0.304996,-3.912132,0.999998,0.000177,-0.001328,0.002528,-0.000242,0.002543,-0.001343,-86.417863,0.002545,
1520,760,-0.383382,-3.368290,0.999998,0.000165,-0.001826,0.003088,0.000207,0.003097,-0.001834,87.591593,0.003114,
680,910,0.911130,-2.799692,0.999998,0.000174,-0.001118,0.002401,0.000162,0.002408,-0.001126,87.364590,0.002410,
990,1230,0.367310,-1.806498,0.999998,0.000193,-0.001964,0.003309,0.000226,0.003319,-0.001974,87.549555,0.003339,
1340,1320,-0.075023,-1.256961,0.999998,0.000163,-0.001048,0.001725,-0.000941,0.002015,-0.001337,-72.913493,0.002050,
1300,250,-0.025840,-4.667440,0.999998,0.000144,-0.000361,0.001728,-0.000021,0.001728,-0.000361,-89.422109,0.001823,
1860,90,-0.206292,-4.825219,0.999998,0.000161,-0.001167,0.002815,-0.000613,0.002907,-0.001259,-81.446614,0.002915,
700,160,0.236914,-4.722448,0.999998,0.000159,-0.001037,0.002485,0.000408,0.002532,-0.001083,83.473249,0.002540,
1390,890,-0.326071,-3.260163,0.999997,0.000191,-0.001423,0.002730,0.001184,0.003044,-0.001737,75.148660,0.003054,
1500,170,-0.078414,-4.780103,0.999998,0.000161,-0.000455,0.001855,-0.000171,0.001868,-0.000468,-85.784417,0.001943,
840,220,0.186447,-4.645103,0.999998,0.000169,-0.000692,0.002198,0.000269,0.002223,-0.000717,84.734326,0.002269,
790,1830,0.230595,-0.428303,0.999998,0.000171,-0.000929,0.002335,-0.000230,0.002351,-0.000945,-85.990667,0.002366,
580,720,0.879231,-3.209018,0.999999,0.000144,-0.001362,0.002451,0.000113,0.002454,-0.001366,88.306424,0.002460,
780,230,0.245270,-4.594415,0.999998,0.000153,-0.000952,0.002351,0.000236,0.002368,-0.000969,85.928369,0.002381,
1210,1240,0.022369,-1.186626,0.999998,0.000175,-0.001010,0.000573,0.000245,0.000610,-0.001047,81.410989,0.001052,
1450,1010,-0.612535,-2.591715,0.999996,0.000231,-0.001449,0.004310,0.000097,0.004311,-0.001450,89.033162,0.004388,
1370,360,-0.078153,-4.453436,0.999998,0.000156,-0.000605,0.001882,0.000058,0.001884,-0.000607,88.668412,0.001923,
680,1190,0.879777,-2.129854,0.999998,0.000182,-0.001183,0.002476,-0.000228,0.002490,-0.001197,-86.446232,0.002491,
1120,1930,0.018492,-0.165084,0.999999,0.000125,-0.000222,0.001641,-0.000065,0.001643,-0.000224,-88.016750,0.001782,
1340,1610,-0.068849,-0.736461,0.999998,0.000171,-0.000669,0.001860,-0.000170,0.001871,-0.000680,-86.169366,0.001894,
1870,980,-1.034983,-2.622120,0.999998,0.000174,-0.001044,0.002112,-0.000035,0.002112,-0.001045,-89.371102,0.002112,
1210,1860,0.007061,-0.275368,0.999998,0.000167,-0.000304,0.001647,0.000003,0.001647,-0.000304,89.902426,0.001753,
1160,1530,0.046670,-0.863978,0.999998,0.000156,-0.000699,0.001770,0.000245,0.001794,-0.000723,84.390122,0.001805,
1440,320,-0.114125,-4.504497,0.999998,0.000198,-0.000684,0.002006,0.000032,0.002007,-0.000685,89.309743,0.002040,
580,60,0.158891,-4.893485,0.999998,0.000172,-0.000509,0.003156,0.001113,0.003468,-0.000821,74.365567,0.003624,
950,1070,0.667543,-2.387621,0.999998,0.000190,-0.001015,0.003142,-0.000192,0.003150,-0.001023,-87.363701,0.003214,
1030,1800,0.087751,-0.406281,0.999998,0.000201,-0.000577,0.001863,-0.000041,0.001864,-0.000578,-89.029692,0.001908,
1750,1040,-0.913749,-2.490030,0.999998,0.000146,-0.001102,0.002445,0.000045,0.002446,-0.001102,89.267025,0.002450,
1600,1230,-0.593778,-1.949178,0.999998,0.000178,-0.001577,0.002985,0.000257,0.002999,-0.001592,86.788177,0.003001,
580,1640,0.638640,-1.056285,0.999998,0.000171,-0.003290,0.002409,0.000626,0.002477,-0.003358,83.801045,0.003482,
1860,460,-0.644913,-3.889271,0.999998,0.000171,-0.001248,0.002543,0.000013,0.002543,-0.001248,89.796082,0.002544,
1730,770,-0.728924,-3.175040,0.999998,0.000176,-0.001400,0.002681,-0.000207,0.002691,-0.001410,-87.105425,0.002692,
1600,1220,-0.605541,-1.977807,0.999998,0.000179,-0.001537,0.002974,0.000279,0.002991,-0.001554,86.472360,0.002992,
650,1850,0.352200,-0.464243,0.999997,0.000190,-0.001130,0.002570,-0.000234,0.002585,-0.001145,-86.394313,0.002591,
1630,820,-0.634298,-3.086798,0.999998,0.000178,-0.001506,0.002870,-0.000281,0.002888,-0.001524,-86.339103,0.002890,
1150,780,0.057524,-3.774065,0.999998,0.000165,-0.000990,0.001339,-0.000993,0.001705,-0.001356,-69.772380,0.001801,
780,1040,0.843056,-2.489262,0.999998,0.000168,-0.001046,0.002513,-0.000078,0.002515,-0.001047,-88.749531,0.002527,
1770,1730,-0.429382,-0.736122,0.999998,0.000169,-0.001208,0.002516,0.000025,0.002516,-0.001209,89.611584,0.002517,
1080,950,0.444920,-3.106975,0.999996,0.000000,-0.001370,0.004554,-0.002260,0.005318,-0.002134,-71.329624,0.005352,
630,1780,0.458599,-0.664128,0.999997,0.000191,-0.001192,0.002531,-0.000045,0.002532,-0.001193,-89.301879,0.002533,
1530,1910,-0.076295,-0.218942,0.999999,0.000136,-0.000339,0.001857,0.000233,0.001881,-0.000363,84.002681,0.001996,
1790,350,-0.473542,-4.224679,0.999998,0.000173,-0.001215,0.002522,0.000002,0.002522,-0.001215,89.963014,0.002523,
1290,350,-0.030121,-4.491872,0.999998,0.000158,-0.000505,0.001804,0.000020,0.001804,-0.000506,89.509233,0.001861,
1330,1380,-0.064600,-1.139714,0.999998,0.000153,-0.000873,0.001658,-0.000683,0.001831,-0.001046,-75.817005,0.001837,
1090,700,0.110397,-3.785876,0.999998,0.000157,-0.001216,0.002082,-0.000826,0.002277,-0.001412,-76.693986,0.002299,
1000,1190,0.411534,-1.923133,0.999998,0.000185,-0.001882,0.003439,0.000158,0.003444,-0.001886,88.295859,0.003449,
910,530,0.295434,-3.963528,0.999998,0.000174,-0.001269,0.002502,-0.000228,0.002516,-0.001283,-86.546255,0.002516,
1650,470,-0.387583,-4.032271,0.999998,0.000186,-0.001256,0.002513,0.000102,0.002515,-0.001259,88.453194,0.002515,
1660,110,-0.097581,-4.869312,0.999999,0.000149,-0.000488,0.002033,-0.000458,0.002113,-0.000569,-80.007597,0.002187,
1130,1630,0.062750,-0.696778,0.999998,0.000160,-0.000666,0.001847,0.000167,0.001858,-0.000677,86.209233,0.001881,
610,1590,0.639615,-1.159656,0.999998,0.000163,-0.001270,0.002555,0.000042,0.002556,-0.001270,89.374283,0.002556,
1690,610,-0.531229,-3.634391,0.999997,0.000183,-0.001420,0.002665,0.000019,0.002665,-0.001420,89.734721,0.002667,
1280,250,-0.018682,-4.669963,0.999999,0.000134,-0.000357,0.001713,-0.000002,0.001713,-0.000357,-89.957127,0.001807,
1520,740,-0.364121,-3.429397,0.999998,0.000170,-0.001784,0.003009,0.000253,0.003022,-0.001798,86.992531,0.003040,
1650,1100,-0.787241,-2.332242,0.999998,0.000185,-0.001099,0.002634,0.000247,0.002650,-0.001115,86.232263,0.002661,
700,600,0.624551,-3.603537,0.999997,0.000188,-0.001343,0.002599,0.000012,0.002599,-0.001343,89.832833,0.002600,
1310,800,-0.064799,-3.754327,0.999998,0.000172,-0.001039,0.001250,0.000971,0.001606,-0.001395,69.847721,0.001746,
1860,1390,-0.802580,-1.674163,0.999998,0.000168,-0.001266,0.002526,0.000049,0.002527,-0.001266,89.254507,0.002527,
780,210,0.226401,-4.641036,0.999998,0.000146,-0.000879,0.002345,0.000264,0.002366,-0.000900,85.340323,0.002389,
790,1810,0.251135,-0.475462,0.999998,0.000159,-0.000980,0.002359,-0.000194,0.002370,-0.000992,-86.691563,0.002381,
840,200,0.167117,-4.688355,0.999998,0.000162,-0.000628,0.002166,0.000311,0.002200,-0.000663,83.722344,0.002258,
1540,250,-0.149160,-4.610837,0.999998,0.000154,-0.000624,0.002113,-0.000143,0.002120,-0.000631,-87.009979,0.002177,
1380,1610,-0.097248,-0.753204,0.999998,0.000171,-0.000810,0.001933,-0.000208,0.001948,-0.000826,-85.692551,0.001956,
650,1830,0.378593,-0.515815,0.999997,0.000211,-0.001149,0.002567,-0.000191,0.002577,-0.001159,-87.065557,0.002581,
1410,1100,-0.487808,-2.102932,0.999997,0.000217,-0.002002,0.004346,-0.001628,0.004739,-0.002396,-76.419896,0.004739,
1440,540,-0.166782,-4.044339,0.999998,0.000147,-0.001075,0.002211,0.000376,0.002253,-0.001118,83.560541,0.002253,
610,1800,0.461012,-0.632758,0.999997,0.000219,-0.001209,0.002521,-0.000041,0.002522,-0.001210,-89.369324,0.002522,
780,1020,0.844532,-2.538316,0.999998,0.000160,-0.001036,0.002525,0.000042,0.002525,-0.001036,89.325387,0.002539,
710,740,0.731003,-3.243234,0.999998,0.000179,-0.001360,0.002615,0.000187,0.002624,-0.001369,87.306119,0.002625,
1790,60,-0.080323,-4.953656,0.999999,0.000189,-0.000276,0.002314,-0.000963,0.002633,-0.000595,-71.683330,0.002762,
620,650,0.768902,-3.416237,0.999998,0.000168,-0.001265,0.002542,0.000043,0.002542,-0.001266,89.354953,0.002542,
910,510,0.285087,-4.014030,0.999998,0.000181,-0.001212,0.002447,-0.000214,0.002460,-0.001225,-86.666412,0.002460,
950,1050,0.680088,-2.451418,0.999998,0.000194,-0.000963,0.003131,-0.000119,0.003135,-0.000967,-88.337785,0.003211,
1530,1890,-0.090353,-0.256502,0.999998,0.000151,-0.000385,0.001897,0.000240,0.001922,-0.000410,84.060528,0.002024,
1600,1210,-0.617009,-2.008972,0.999998,0.000190,-0.001507,0.002940,0.000295,0.002959,-0.001526,86.220681,0.002960,
1080,940,0.427398,-3.148048,0.999996,0.000000,-0.001097,0.003983,-0.002106,0.004743,-0.001857,-70.167949,0.004780,
930,1800,0.148365,-0.437417,0.999998,0.000166,-0.000681,0.002091,-0.000126,0.002097,-0.000687,-87.406984,0.002138,
1370,930,-0.401659,-3.266891,0.999996,0.000000,-0.000881,0.002734,0.002383,0.003917,-0.002064,63.585335,0.003919,
1350,1200,-0.191712,-1.511602,0.999997,0.000230,-0.001174,0.001776,-0.001064,0.002119,-0.001517,-72.097136,0.002184,
1730,750,-0.708628,-3.229930,0.999998,0.000172,-0.001396,0.002692,-0.000194,0.002701,-0.001405,-87.283915,0.002702,
1650,450,-0.374557,-4.081688,0.999998,0.000166,-0.001221,0.002493,0.000082,0.002495,-0.001223,88.737047,0.002495,
1840,1560,-0.645295,-1.225685,0.999998,0.000177,-0.001277,0.002537,-0.000043,0.002537,-0.001278,-89.355332,0.002537,
1410,620,-0.144289,-3.900643,0.999998,0.000155,-0.001165,0.002191,0.000558,0.002281,-0.001256,80.808572,0.002285,
1290,370,-0.031618,-4.454795,0.999998,0.000145,-0.000532,0.001795,0.000022,0.001795,-0.000532,89.448452,0.001844,
1090,540,0.101486,-4.103949,0.999998,0.000153,-0.000886,0.001967,-0.000395,0.002021,-0.000940,-82.268672,0.002022,
1130,1610,0.064506,-0.730775,0.999998,0.000153,-0.000689,0.001853,0.000176,0.001865,-0.000701,86.060924,0.001884,
610,1570,0.653967,-1.210162,0.999998,0.000154,-0.001282,0.002558,0.000042,0.002559,-0.001282,89.375042,0.002559,
1690,590,-0.516515,-3.687962,0.999997,0.000190,-0.001396,0.002659,0.000037,0.002660,-0.001396,89.477187,0.002661,
1520,720,-0.350463,-3.488115,0.999998,0.000176,-0.001731,0.002944,0.000278,0.002960,-0.001747,86.607335,0.002976,
990,1210,0.396881,-1.874639,0.999998,0.000193,-0.001903,0.003397,0.000138,0.003400,-0.001906,88.511497,0.003408,
1090,260,0.058355,-4.639043,0.999998,0.000155,-0.000432,0.001803,0.000011,0.001803,-0.000432,89.717020,0.001883,
1290,800,-0.044494,-3.802323,0.999999,0.000122,-0.000917,0.000924,0.000759,0.001196,-0.001189,70.247154,0.001377,
1460,1490,-0.193048,-1.069666,0.999998,0.000182,-0.001174,0.002286,-0.000401,0.002332,-0.001220,-83.476619,0.002333,
1340,1300,-0.080103,-1.292496,0.999998,0.000173,-0.001128,0.001741,-0.001024,0.002069,-0.001457,-72.236114,0.002126,
840,180,0.151851,-4.730917,0.999998,0.000169,-0.000567,0.002114,0.000312,0.002150,-0.000603,83.445483,0.002218,
700,580,0.610043,-3.657564,0.999997,0.000193,-0.001334,0.002615,-0.000021,0.002615,-0.001334,-89.689179,0.002615,
1810,580,-0.671377,-3.620205,0.999998,0.000153,-0.001285,0.002582,0.000021,0.002582,-0.001285,89.688202,0.002582,
1840,1390,-0.777737,-1.660359,0.999998,0.000190,-0.001266,0.002555,0.000070,0.002556,-0.001267,88.947077,0.002556,
1440,1990,-0.015656,-0.071624,0.999999,0.000148,-0.000095,0.001613,0.000163,0.001629,-0.000111,84.588891,0.001820,
780,1000,0.839719,-2.590585,0.999998,0.000138,-0.001025,0.002508,0.000096,0.002511,-0.001028,88.442588,0.002525,
800,130,0.121739,-4.827810,0.999999,0.000144,-0.000595,0.002086,0.000414,0.002148,-0.000657,81.407184,0.002202,
790,1790,0.268237,-0.521534,0.999998,0.000155,-0.001025,0.002397,-0.000140,0.002403,-0.001031,-87.657147,0.002411,
650,1810,0.401869,-0.567971,0.999997,0.000203,-0.001168,0.002589,-0.000142,0.002594,-0.001174,-87.835117,0.002598,
1660,1010,-0.818377,-2.564731,0.999998,0.000139,-0.001022,0.002538,-0.000097,0.002541,-0.001025,-88.447300,0.002557,
1770,1710,-0.444602,-0.787079,0.999998,0.000174,-0.001200,0.002540,0.000013,0.002540,-0.001200,89.805173,0.002541,
1390,870,-0.281341,-3.317384,0.999997,0.000193,-0.001683,0.002781,0.000980,0.002986,-0.001888,78.148363,0.003021,
910,730,0.414197,-3.421355,0.999997,0.000215,-0.001718,0.002977,-0.000116,0.002979,-0.001721,-88.586937,0.002991,
1590,1200,-0.615205,-2.033514,0.999998,0.000189,-0.001517,0.002956,0.000322,0.002979,-0.001540,85.906111,0.002979,
1530,1870,-0.101285,-0.295329,0.999998,0.000158,-0.000440,0.001956,0.000217,0.001976,-0.000459,84.862965,0.002068,
620,570,0.704755,-3.619387,0.999998,0.000155,-0.001278,0.002532,-0.000009,0.002532,-0.001278,-89.871447,0.002532,
1080,930,0.413058,-3.189514,0.999997,0.000000,-0.001021,0.003521,-0.001997,0.004274,-0.001774,-69.339924,0.004295,
1380,1550,-0.104436,-0.873600,0.999999,0.000137,-0.000865,0.001985,-0.000329,0.002023,-0.000903,-83.496403,0.002027,
1800,1450,-0.678067,-1.476096,0.999997,0.000220,-0.001297,0.002590,0.000006,0.002590,-0.001297,89.913892,0.002590,
1250,380,-0.010170,-4.443558,0.999998,0.000159,-0.000578,0.001758,0.000060,0.001760,-0.000579,88.521694,0.001794,
1650,430,-0.361835,-4.131429,0.999998,0.000169,-0.001183,0.002470,0.000082,0.002472,-0.001185,88.714300,0.002473,
1170,460,0.037467,-4.295270,0.999998,0.000150,-0.000638,0.001773,-0.000085,0.001776,-0.000641,-87.976135,0.001799,
1840,1540,-0.658894,-1.276440,0.999998,0.000192,-0.001277,0.002569,-0.000008,0.002569,-0.001277,-89.875663,0.002569,
1540,270,-0.159792,-4.569306,0.999998,0.000175,-0.000669,0.002100,-0.000102,0.002104,-0.000673,-87.898383,0.002149,
1090,1520,0.101040,-0.926313,0.999998,0.000137,-0.000900,0.001957,0.000390,0.002009,-0.000952,82.362702,0.002010,
1890,270,-0.522202,-4.331889,0.999996,0.000226,-0.001221,0.002409,-0.000021,0.002409,-0.001221,-89.668928,0.002409,
950,1030,0.686897,-2.511410,0.999998,0.000193,-0.000939,0.003042,-0.000022,0.003042,-0.000940,-89.680341,0.003115,
1210,1800,0.008837,-0.377750,0.999998,0.000184,-0.000396,0.001689,0.000011,0.001689,-0.000397,89.704923,0.001767,
1730,730,-0.689355,-3.282986,0.999998,0.000173,-0.001388,0.002658,-0.000179,0.002666,-0.001396,-87.472371,0.002667,
1130,1590,0.066181,-0.770383,0.999998,0.000153,-0.000699,0.001863,0.000184,0.001877,-0.000712,85.923682,0.001895,
1370,1130,-0.397293,-1.753902,0.999998,0.000000,-0.000637,0.002832,-0.002029,0.003767,-0.001572,-65.259529,0.003784,
1440,300,-0.106782,-4.544789,0.999998,0.000176,-0.000626,0.001959,0.000006,0.001960,-0.000626,89.875146,0.002002,
680,1790,0.387343,-0.597745,0.999997,0.000181,-0.001191,0.002523,-0.000112,0.002527,-0.001195,-88.270426,0.002528,
1520,700,-0.334092,-3.547821,0.999998,0.000193,-0.001670,0.002893,0.000312,0.002914,-0.001691,86.109525,0.002927,
600,650,0.794948,-3.400605,0.999998,0.000186,-0.001267,0.002524,0.000041,0.002524,-0.001267,89.383089,0.002524,
1690,790,-0.692097,-3.141360,0.999998,0.000173,-0.001421,0.002771,-0.000253,0.002787,-0.001437,-86.555191,0.002787,
1290,810,-0.051747,-3.793218,0.999998,0.000140,-0.000983,0.000873,0.000738,0.001131,-0.001240,70.750129,0.001373,
990,1190,0.429755,-1.943613,0.999998,0.000190,-0.001858,0.003404,0.000070,0.003404,-0.001859,89.240061,0.003409,
1170,360,0.032896,-4.472858,0.999999,0.000130,-0.000522,0.001791,-0.000024,0.001791,-0.000522,-89.403400,0.001842,
1060,790,0.192187,-3.505116,0.999998,0.000177,-0.001796,0.002755,-0.000901,0.002927,-0.001968,-79.195027,0.002985,
730,360,0.411857,-4.244227,0.999998,0.000179,-0.001201,0.002515,0.000011,0.002515,-0.001201,89.830562,0.002516,
700,560,0.595711,-3.706096,0.999997,0.000182,-0.001322,0.002613,-0.000011,0.002613,-0.001322,-89.841920,0.002613,
1000,1940,0.039316,-0.158039,0.999999,0.000141,-0.000186,0.001723,-0.000195,0.001743,-0.000206,-84.237883,0.001905,
1640,1010,-0.798038,-2.565655,0.999998,0.000169,-0.000961,0.002578,-0.000101,0.002581,-0.000963,-88.370994,0.002608,
1600,170,-0.129533,-4.758358,0.999999,0.000159,-0.000587,0.002062,-0.000275,0.002090,-0.000615,-84.132698,0.002148,
650,1790,0.424476,-0.621175,0.999997,0.000191,-0.001198,0.002551,-0.000107,0.002554,-0.001201,-88.362806,0.002555,
570,1760,0.568494,-0.785106,0.999549,0.002653,-0.003467,0.001779,-0.000154,0.001784,-0.003472,-88.322242,0.003472,
610,1790,0.471587,-0.658747,0.999997,0.000199,-0.001212,0.002519,-0.000034,0.002520,-0.001212,-89.474316,0.002520,
640,1190,0.927299,-2.143633,0.999998,0.000178,-0.001178,0.002427,-0.000197,0.002438,-0.001188,-86.878513,0.002438,
1870,1140,-1.009366,-2.276821,0.999998,0.000155,-0.001076,0.002217,0.000087,0.002219,-0.001078,88.480233,0.002219,
790,1770,0.286067,-0.571643,0.999998,0.000165,-0.001074,0.002422,-0.000112,0.002425,-0.001078,-88.169528,0.002430,
1530,1850,-0.115716,-0.336285,0.999998,0.000164,-0.000516,0.002025,0.000187,0.002039,-0.000530,85.815903,0.002116,
1090,1120,0.414478,-1.802770,0.999992,0.000000,-0.001123,0.003006,0.002600,0.004261,-0.002378,64.226586,0.004271,
780,1200,0.744780,-2.073331,0.999998,0.000166,-0.001328,0.002705,-0.000315,0.002729,-0.001352,-85.562403,0.002729,
840,160,0.132440,-4.772236,0.999998,0.000159,-0.000514,0.002108,0.000369,0.002159,-0.000565,82.132310,0.002240,
1340,1280,-0.084587,-1.326977,0.999998,0.000184,-0.001237,0.001773,-0.001091,0.002126,-0.001591,-72.029448,0.002212,
1760,470,-0.525900,-3.943385,0.999998,0.000187,-0.001261,0.002546,0.000046,0.002546,-0.001261,89.300351,0.002546,
910,490,0.278200,-4.060519,0.999998,0.000168,-0.001153,0.002388,-0.000187,0.002397,-0.001163,-86.988410,0.002398,
830,1060,0.789022,-2.433668,0.999998,0.000162,-0.001019,0.002596,-0.000123,0.002600,-0.001023,-88.058946,0.002620,
1630,900,-0.719111,-2.860730,0.999998,0.000156,-0.001267,0.002757,-0.000332,0.002784,-0.001294,-85.315802,0.002786,
1100,1930,0.024213,-0.166107,0.999999,0.000156,-0.000191,0.001634,-0.000085,0.001638,-0.000195,-87.330156,0.001790,
1840,1520,-0.676899,-1.327017,0.999998,0.000179,-0.001271,0.002539,-0.000005,0.002539,-0.001271,-89.918938,0.002539,
1150,460,0.051167,-4.288377,0.999998,0.000179,-0.000689,0.001813,-0.000168,0.001824,-0.000701,-86.173113,0.001840,
1770,1690,-0.461394,-0.838193,0.999997,0.000176,-0.001213,0.002534,-0.000018,0.002534,-0.001213,-89.724791,0.002535,
1350,1340,-0.085229,-1.241552,0.999998,0.000162,-0.001103,0.001834,-0.000887,0.002081,-0.001350,-74.441145,0.002112,
800,910,0.770335,-2.824145,0.999998,0.000171,-0.001211,0.002666,0.000321,0.002693,-0.001237,85.305386,0.002696,
1450,990,-0.601065,-2.679909,0.999998,0.000191,-0.001457,0.004160,0.000159,0.004164,-0.001462,88.384288,0.004226,
740,70,0.071815,-4.939003,0.999998,0.000157,-0.000295,0.001965,0.000641,0.002133,-0.000464,75.223536,0.002244,
950,1010,0.681463,-2.572854,0.999998,0.000175,-0.000949,0.003083,0.000087,0.003085,-0.000951,88.760263,0.003160,
1730,710,-0.670483,-3.336175,0.999998,0.000189,-0.001405,0.002653,-0.000141,0.002658,-0.001410,-88.019138,0.002660,
1560,270,-0.174221,-4.560933,0.999998,0.000146,-0.000735,0.002137,-0.000098,0.002140,-0.000738,-88.055044,0.002175,
1330,1360,-0.064550,-1.173781,0.999999,0.000147,-0.000906,0.001667,-0.000766,0.001878,-0.001117,-74.617673,0.001889,
1440,1490,-0.170778,-1.050462,0.999998,0.000169,-0.001099,0.002205,-0.000404,0.002254,-0.001148,-83.129668,0.002254,
900,1990,0.029961,-0.076184,0.999999,0.000121,-0.000162,0.001726,-0.000321,0.001780,-0.000215,-80.607606,0.001943,
1240,80,-0.000564,-4.948991,0.999999,0.000125,-0.000123,0.001548,-0.000007,0.001548,-0.000123,-89.753079,0.001720,
1030,960,0.536355,-2.834796,0.999997,0.000231,-0.001679,0.004182,-0.000598,0.004243,-0.001739,-84.233262,0.004266,
1080,1470,0.112441,-1.030829,0.999999,0.000123,-0.000966,0.002013,0.000459,0.002082,-0.001035,81.433782,0.002082,
1290,790,-0.040569,-3.814331,0.999999,0.000141,-0.000862,0.000966,0.000780,0.001254,-0.001150,69.764286,0.001392,
1370,1140,-0.373876,-1.726207,0.999998,0.000000,-0.000682,0.002499,-0.001762,0.003282,-0.001465,-66.042377,0.003289,
1230,380,0.001203,-4.445795,0.999998,0.000150,-0.000561,0.001758,-0.000008,0.001758,-0.000561,-89.793429,0.001796,
740,880,0.817783,-2.890341,0.999999,0.000156,-0.001262,0.002560,0.000274,0.002580,-0.001282,85.924416,0.002580,
630,320,0.500475,-4.262670,0.999997,0.000203,-0.001227,0.002526,-0.000020,0.002526,-0.001227,-89.693280,0.002527,
1130,1570,0.065762,-0.806194,0.999999,0.000139,-0.000690,0.001849,0.000215,0.001868,-0.000708,85.197829,0.001886,
1360,1550,-0.087042,-0.857823,0.999998,0.000148,-0.000785,0.001918,-0.000290,0.001949,-0.000816,-83.954679,0.001958,
1440,260,-0.091732,-4.622253,0.999998,0.000173,-0.000538,0.001901,-0.000029,0.001901,-0.000539,-89.324327,0.001960,
1520,680,-0.321248,-3.604778,0.999998,0.000183,-0.001627,0.002802,0.000336,0.002827,-0.001653,85.687930,0.002840,
1000,1920,0.048671,-0.190519,0.999998,0.000152,-0.000229,0.001721,-0.000174,0.001736,-0.000245,-84.945776,0.001880,
710,360,0.436792,-4.227128,0.999998,0.000185,-0.001230,0.002521,0.000001,0.002521,-0.001230,89.983598,0.002521,
1600,1200,-0.628895,-2.038924,0.999998,0.000180,-0.001476,0.002905,0.000313,0.002927,-0.001498,85.929323,0.002927,
1750,1020,-0.914250,-2.537996,0.999998,0.000179,-0.001092,0.002438,-0.000058,0.002439,-0.001093,-89.056625,0.002444,
1650,410,-0.349351,-4.180993,0.999998,0.000168,-0.001172,0.002468,0.000060,0.002469,-0.001173,89.061806,0.002470,
610,1550,0.668316,-1.261395,0.999998,0.000155,-0.001281,0.002534,0.000019,0.002534,-0.001281,89.719547,0.002535,
1600,230,-0.177516,-4.631706,0.999998,0.000177,-0.000760,0.002216,-0.000196,0.002229,-0.000772,-86.239234,0.002263,
1030,840,0.311391,-3.273393,0.999997,0.000198,-0.001967,0.003296,-0.000524,0.003347,-0.002018,-84.372366,0.003371,
1100,1670,0.077377,-0.632123,0.999998,0.000164,-0.000621,0.001885,0.000101,0.001889,-0.000625,87.684773,0.001924,
1210,2020,0.000521,-0.023706,0.999999,0.000000,-0.000104,0.001506,0.000006,0.001506,-0.000104,89.772301,0.001683,
570,1640,0.686469,-1.082844,0.999925,0.001330,-0.004249,0.002307,0.001101,0.002487,-0.004429,80.721515,0.004440,
1590,520,-0.338212,-3.955044,0.999997,0.000173,-0.001252,0.002534,0.000179,0.002543,-0.001261,87.306616,0.002543,
1340,1260,-0.095618,-1.362369,0.999998,0.000183,-0.001295,0.001809,-0.001157,0.002193,-0.001679,-71.643500,0.002294,
840,140,0.112633,-4.815586,0.999999,0.000144,-0.000428,0.002032,0.000389,0.002092,-0.000488,81.220862,0.002190,
1080,750,0.133971,-3.657205,0.999998,0.000174,-0.001472,0.002329,-0.000960,0.002558,-0.001701,-76.594995,0.002604,
1080,610,0.113176,-3.956942,0.999999,0.000132,-0.001025,0.002001,-0.000549,0.002097,-0.001121,-80.020800,0.002099,
790,1750,0.301709,-0.618012,0.999998,0.000154,-0.001103,0.002403,-0.000055,0.002404,-0.001104,-89.100103,0.002406,
1730,690,-0.655066,-3.389091,0.999997,0.000184,-0.001402,0.002684,-0.000102,0.002686,-0.001405,-88.566464,0.002687,
1180,1640,0.031288,-0.663522,0.999998,0.000155,-0.000600,0.001797,0.000065,0.001799,-0.000602,88.449159,0.001832,
1450,970,-0.578011,-2.757251,0.999997,0.000222,-0.001463,0.003932,0.000163,0.003937,-0.001468,88.266901,0.003979,
830,1040,0.793323,-2.487155,0.999997,0.000190,-0.000987,0.002614,-0.000060,0.002615,-0.000988,-89.038532,0.002641,
1050,790,0.209878,-3.477859,0.999998,0.000172,-0.001831,0.002845,-0.000826,0.002987,-0.001973,-80.275896,0.003037,
1540,1930,-0.067703,-0.183650,0.999999,0.000150,-0.000291,0.001868,0.000288,0.001906,-0.000328,82.532480,0.002038,
1830,870,-0.938278,-2.881518,0.999999,0.000145,-0.001146,0.002371,-0.000183,0.002380,-0.001156,-87.031240,0.002381,
1830,1040,-0.999860,-2.491408,0.999998,0.000182,-0.001063,0.002277,0.000060,0.002278,-0.001064,88.975613,0.002280,
1390,1350,-0.130242,-1.294223,0.999998,0.000170,-0.001353,0.002244,-0.000827,0.002425,-0.001534,-77.659168,0.002453,
1670,1890,-0.166691,-0.289131,0.999998,0.000165,-0.000751,0.002164,0.000387,0.002215,-0.000802,82.565251,0.002242,
1290,770,-0.033474,-3.832383,0.999998,0.000166,-0.000774,0.001005,0.000769,0.001292,-0.001061,69.571659,0.001378,
1130,1550,0.067980,-0.843883,0.999999,0.000115,-0.000710,0.001813,0.000230,0.001834,-0.000731,84.842119,0.001846,
1240,60,-0.000210,-4.980977,0.999999,0.000121,-0.000083,0.001522,-0.000009,0.001522,-0.000083,-89.686564,0.001711,
960,870,0.492555,-3.035618,0.999997,0.000208,-0.001783,0.003331,0.000122,0.003334,-0.001786,88.636176,0.003337,
1300,1550,-0.044071,-0.825826,0.999998,0.000141,-0.000670,0.001779,-0.000187,0.001793,-0.000684,-85.651383,0.001810,
930,1860,0.109342,-0.315874,0.999998,0.000164,-0.000484,0.001999,-0.000221,0.002019,-0.000504,-84.953350,0.002102,
1400,990,-0.496797,-2.789660,0.999996,0.000000,-0.002166,0.006759,0.001061,0.006884,-0.002291,83.310723,0.007011,
1790,330,-0.456910,-4.273217,0.999998,0.000165,-0.001216,0.002517,-0.000006,0.002517,-0.001216,-89.903532,0.002517,
1540,210,-0.122964,-4.693430,0.999998,0.000154,-0.000518,0.002012,-0.000206,0.002028,-0.000535,-85.366256,0.002103,
770,370,0.373411,-4.247387,0.999998,0.000172,-0.001139,0.002447,0.000004,0.002447,-0.001139,89.933705,0.002449,
1440,1010,-0.598371,-2.599998,0.999997,0.000205,-0.001692,0.004678,0.000173,0.004683,-0.001697,88.449065,0.004741,
1880,880,-1.001429,-2.836744,0.999999,0.000133,-0.001111,0.002175,-0.000055,0.002176,-0.001112,-89.049881,0.002176,
590,1700,0.579874,-0.901361,0.999998,0.000177,-0.001535,0.002308,0.000145,0.002314,-0.001540,87.846200,0.002356,
1070,380,0.095461,-4.405889,0.999998,0.000163,-0.000697,0.001955,-0.000122,0.001961,-0.000703,-87.371002,0.001987,
1440,240,-0.085416,-4.659144,0.999998,0.000174,-0.000508,0.001913,-0.000063,0.001915,-0.000510,-88.507134,0.001983,
1520,660,-0.310561,-3.660824,0.999998,0.000180,-0.001578,0.002738,0.000352,0.002766,-0.001606,85.371051,0.002778,
650,1770,0.444881,-0.670585,0.999997,0.000193,-0.001235,0.002520,-0.000063,0.002522,-0.001236,-89.042373,0.002522,
780,1190,0.755043,-2.100748,0.999998,0.000165,-0.001297,0.002674,-0.000307,0.002697,-0.001321,-85.598814,0.002698,
1770,1670,-0.475557,-0.889709,0.999998,0.000170,-0.001211,0.002531,-0.000020,0.002532,-0.001211,-89.700957,0.002532,
610,1510,0.698145,-1.362205,0.999998,0.000167,-0.001266,0.002562,0.000027,0.002562,-0.001266,89.591261,0.002562,
650,200,0.345399,-4.587703,0.999998,0.000183,-0.001119,0.002558,0.000258,0.002576,-0.001137,86.011603,0.002582,
740,860,0.803251,-2.940197,0.999998,0.000163,-0.001307,0.002599,0.000275,0.002618,-0.001326,85.998563,0.002618,
1600,1620,-0.305494,-0.882543,0.999998,0.000191,-0.001141,0.002415,-0.000105,0.002418,-0.001145,-88.306473,0.002420,
1000,1900,0.057028,-0.225958,0.999999,0.000148,-0.000272,0.001790,-0.000183,0.001806,-0.000288,-84.974330,0.001941,
1060,1470,0.133633,-1.053643,0.999998,0.000135,-0.001055,0.002098,0.000520,0.002182,-0.001138,80.876975,0.002183,
610,320,0.525795,-4.243828,0.999998,0.000175,-0.001236,0.002495,-0.000019,0.002495,-0.001236,-89.701454,0.002495,
1620,1670,-0.299948,-0.776567,0.999998,0.000226,-0.001070,0.002387,-0.000031,0.002387,-0.001070,-89.480864,0.002391,
870,380,0.268862,-4.293298,0.999998,0.000177,-0.001061,0.002335,-0.000054,0.002336,-0.001062,-89.092943,0.002339,
1630,1460,-0.435955,-1.315770,0.999997,0.000199,-0.001431,0.002676,-0.000117,0.002679,-0.001435,-88.373406,0.002681,
560,1950,0.273489,-0.309167,0.999938,0.000000,-0.000716,0.002970,-0.000400,0.003013,-0.000759,-83.870810,0.003134,
840,120,0.094437,-4.853679,0.999998,0.000149,-0.000368,0.001980,0.000420,0.002053,-0.000441,80.171703,0.002162,
710,1280,0.764438,-1.889697,0.999998,0.000182,-0.001306,0.002586,-0.000214,0.002598,-0.001318,-86.862766,0.002598,
1600,150,-0.111842,-4.798510,0.999998,0.000142,-0.000506,0.002017,-0.000334,0.002061,-0.000550,-82.584987,0.002134,
1730,670,-0.637309,-3.442689,0.999998,0.000180,-0.001401,0.002689,-0.000089,0.002690,-0.001403,-88.760096,0.002691,
1080,630,0.116218,-3.916283,0.999999,0.000127,-0.001074,0.002037,-0.000610,0.002153,-0.001189,-79.288246,0.002157,
910,450,0.262083,-4.155766,0.999998,0.000158,-0.001115,0.002376,-0.000157,0.002383,-0.001122,-87.432542,0.002385,
970,1680,0.171324,-0.674530,0.999998,0.000185,-0.000913,0.002151,0.000115,0.002155,-0.000917,87.852771,0.002163,
1180,1620,0.029915,-0.700682,0.999998,0.000149,-0.000620,0.001784,0.000061,0.001786,-0.000621,88.551065,0.001813,
760,630,0.564956,-3.569967,0.999998,0.000202,-0.001416,0.002667,0.000016,0.002667,-0.001416,89.771130,0.002668,
570,390,0.663210,-4.042629,0.999813,0.001640,-0.003925,0.002297,0.000115,0.002299,-0.003927,88.937111,0.003946,
1290,750,-0.033401,-3.853428,0.999998,0.000159,-0.000708,0.001102,0.000718,0.001353,-0.000958,70.789227,0.001391,
1050,770,0.194883,-3.535926,0.999998,0.000167,-0.001760,0.002741,-0.000829,0.002889,-0.001908,-79.886771,0.002938,
810,1060,0.808686,-2.436444,0.999998,0.000163,-0.000995,0.002580,-0.000088,0.002582,-0.000997,-88.593185,0.002604,
1670,1870,-0.188644,-0.333495,0.999998,0.000155,-0.000826,0.002304,0.000315,0.002336,-0.000857,84.312220,0.002363,
790,1730,0.316869,-0.666579,0.999998,0.000160,-0.001109,0.002471,-0.000029,0.002471,-0.001109,-89.540662,0.002475,
1520,1930,-0.062243,-0.180885,0.999999,0.000156,-0.000310,0.001829,0.000245,0.001856,-0.000338,83.543124,0.001978,
930,640,0.319574,-3.698286,0.999998,0.000165,-0.001505,0.002691,-0.000295,0.002712,-0.001525,-86.004404,0.002719,
1390,850,-0.246082,-3.373354,0.999998,0.000177,-0.001784,0.002788,0.000909,0.002962,-0.001958,79.157884,0.003013,
1060,1350,0.149882,-1.318759,0.999998,0.000156,-0.001427,0.002360,0.000809,0.002525,-0.001593,78.433863,0.002554,
1720,1950,-0.119067,-0.170683,0.999998,0.000161,-0.000450,0.002154,0.000622,0.002295,-0.000591,77.242997,0.002383,
1280,1550,-0.030981,-0.822898,0.999999,0.000132,-0.000632,0.001730,-0.000097,0.001734,-0.000636,-87.641906,0.001755,
1830,850,-0.923020,-2.929453,0.999999,0.000140,-0.001166,0.002382,-0.000169,0.002390,-0.001174,-87.271705,0.002391,
1450,950,-0.546850,-2.834480,0.999997,0.000214,-0.001493,0.003866,0.000144,0.003870,-0.001497,88.462685,0.003903,
1130,1530,0.066813,-0.880741,0.999999,0.000133,-0.000731,0.001829,0.000250,0.001853,-0.000755,84.479544,0.001864,
1340,1240,-0.110823,-1.400242,0.999998,0.000175,-0.001362,0.001745,-0.001115,0.002104,-0.001721,-72.158254,0.002241,
1430,1010,-0.580319,-2.607240,0.999996,0.000242,-0.002042,0.005155,0.000302,0.005168,-0.002055,87.598875,0.005204,
780,730,0.623039,-3.310930,0.999998,0.000170,-0.001486,0.002795,0.000162,0.002801,-0.001492,87.834570,0.002803,
1230,1990,-0.001166,-0.067102,0.999999,0.000129,-0.000073,0.001492,-0.000008,0.001492,-0.000074,-89.716378,0.001682,
1400,980,-0.494669,-2.852672,0.999996,0.000000,-0.002299,0.006175,0.001487,0.006428,-0.002553,80.331942,0.006474,
610,1490,0.714561,-1.415822,0.999998,0.000187,-0.001254,0.002557,0.000015,0.002557,-0.001254,89.772276,0.002558,
770,350,0.358040,-4.297467,0.999998,0.000184,-0.001100,0.002486,0.000027,0.002486,-0.001100,89.564418,0.002491,
1880,890,-1.006260,-2.814364,0.999999,0.000120,-0.001109,0.002172,-0.000040,0.002172,-0.001109,-89.307547,0.002173,
650,180,0.316721,-4.639134,0.999998,0.000185,-0.001097,0.002564,0.000337,0.002595,-0.001127,84.790419,0.002603,
1050,380,0.110311,-4.397646,0.999998,0.000173,-0.000767,0.002013,-0.000120,0.002018,-0.000772,-87.539356,0.002036,
1440,1610,-0.146559,-0.790512,0.999998,0.000155,-0.000871,0.002070,-0.000217,0.002086,-0.000887,-85.800687,0.002094,
1000,1880,0.067782,-0.262689,0.999998,0.000158,-0.000334,0.001824,-0.000175,0.001838,-0.000349,-85.386375,0.001953,
650,1750,0.464047,-0.721934,0.999997,0.000202,-0.001241,0.002534,-0.000030,0.002534,-0.001242,-89.542719,0.002535,
1790,310,-0.440450,-4.322938,0.999998,0.000184,-0.001206,0.002538,-0.000045,0.002538,-0.001207,-89.318639,0.002540,
1650,630,-0.489606,-3.613610,0.999997,0.000198,-0.001446,0.002714,0.000048,0.002715,-0.001447,89.342020,0.002717,
1740,470,-0.500044,-3.958658,0.999998,0.000174,-0.001295,0.002540,0.000051,0.002540,-0.001295,89.232697,0.002540,
1800,690,-0.748105,-3.343341,0.999998,0.000189,-0.001314,0.002559,-0.000096,0.002561,-0.001316,-88.584301,0.002562,
1600,1670,-0.278917,-0.763304,0.999998,0.000203,-0.001041,0.002353,-0.000042,0.002354,-0.001042,-89.294134,0.002359,
1560,1010,-0.723722,-2.568815,0.999998,0.000192,-0.000887,0.002802,-0.000119,0.002806,-0.000891,-88.154337,0.002868,
850,380,0.291220,-4.279753,0.999999,0.000178,-0.001078,0.002376,-0.000012,0.002376,-0.001078,-89.799067,0.002380,
740,840,0.784707,-2.992487,0.999998,0.000161,-0.001321,0.002640,0.000288,0.002660,-0.001342,85.866100,0.002661,
910,430,0.251828,-4.203331,0.999998,0.000167,-0.001098,0.002339,-0.000144,0.002345,-0.001104,-87.598118,0.002347,
800,1190,0.728784,-2.093547,0.999998,0.000176,-0.001327,0.002730,-0.000322,0.002756,-0.001353,-85.489618,0.002756,
560,1930,0.322737,-0.364214,0.999948,0.000000,-0.000398,0.002453,-0.000437,0.002519,-0.000464,-81.488049,0.002681,
1730,650,-0.618758,-3.496454,0.999997,0.000191,-0.001389,0.002669,-0.000062,0.002670,-0.001389,-89.129694,0.002671,
1630,1440,-0.448886,-1.370964,0.999997,0.000188,-0.001447,0.002688,-0.000113,0.002691,-0.001450,-88.434318,0.002694,
1770,1650,-0.492313,-0.939219,0.999998,0.000188,-0.001223,0.002527,-0.000038,0.002527,-0.001223,-89.417975,0.002528,
970,1660,0.180045,-0.717500,0.999998,0.000150,-0.000920,0.002182,0.000128,0.002188,-0.000925,87.641423,0.002196,
840,100,0.074265,-4.893758,0.999999,0.000138,-0.000278,0.001900,0.000414,0.001976,-0.000354,79.589587,0.002108,
590,1030,1.047818,-2.515431,0.999998,0.000170,-0.001013,0.002179,-0.000011,0.002179,-0.001013,-89.795186,0.002180,
1340,570,-0.073621,-4.074377,0.999999,0.000144,-0.000803,0.001802,0.000365,0.001852,-0.000853,82.179366,0.001854,
1290,730,-0.030627,-3.874849,0.999998,0.000154,-0.000680,0.001190,0.000638,0.001387,-0.000877,72.839172,0.001403,
1390,810,-0.186882,-3.488315,0.999998,0.000198,-0.001780,0.002708,0.000973,0.002910,-0.001982,78.282413,0.002973,
1180,1600,0.031698,-0.734001,0.999999,0.000132,-0.000629,0.001782,0.000072,0.001785,-0.000631,88.282388,0.001810,
1830,830,-0.906729,-2.976642,0.999999,0.000139,-0.001183,0.002363,-0.000159,0.002370,-0.001191,-87.440885,0.002370,
1860,130,-0.289799,-4.718026,0.999998,0.000183,-0.001209,0.002673,-0.000351,0.002705,-0.001240,-84.871069,0.002708,
1450,930,-0.509520,-2.910578,0.999997,0.000205,-0.001565,0.003729,0.000127,0.003732,-0.001568,88.625447,0.003748,
790,1710,0.333464,-0.717408,0.999998,0.000176,-0.001113,0.002420,0.000000,0.002420,-0.001113,-89.998104,0.002423,
1460,1930,-0.043925,-0.173346,0.999999,0.000125,-0.000225,0.001765,0.000175,0.001781,-0.000240,85.011740,0.001932,
830,120,0.097609,-4.853738,0.999998,0.000160,-0.000375,0.002001,0.000439,0.002079,-0.000454,79.860843,0.002187,
1340,1220,-0.140577,-1.431706,0.999998,0.000180,-0.001287,0.001702,-0.001052,0.002035,-0.001620,-72.426990,0.002150,
1130,1510,0.068812,-0.917137,0.999999,0.000124,-0.000749,0.001805,0.000280,0.001836,-0.000779,83.822415,0.001843,
1050,750,0.181712,-3.587648,0.999998,0.000154,-0.001690,0.002607,-0.000829,0.002761,-0.001845,-79.454250,0.002813,
1160,1510,0.045572,-0.900190,0.999999,0.000143,-0.000714,0.001739,0.000253,0.001764,-0.000740,84.181015,0.001772,
880,770,0.504041,-3.268361,0.999998,0.000156,-0.001669,0.003026,0.000087,0.003028,-0.001671,88.941911,0.003033,
770,330,0.344658,-4.348211,0.999997,0.000201,-0.001086,0.002474,0.000032,0.002475,-0.001086,89.478351,0.002481,
610,1470,0.728859,-1.464702,0.999998,0.000172,-0.001270,0.002533,0.000001,0.002533,-0.001270,89.983762,0.002533,
690,1280,0.789408,-1.898712,0.999998,0.000178,-0.001282,0.002554,-0.000193,0.002564,-0.001292,-87.129588,0.002564,
1720,150,-0.183156,-4.767961,0.999998,0.000189,-0.000682,0.002319,-0.000520,0.002406,-0.000769,-80.440770,0.002458,
1580,1670,-0.259194,-0.750296,0.999998,0.000156,-0.001039,0.002331,-0.000066,0.002332,-0.001041,-88.886476,0.002336,
1000,1860,0.076306,-0.299418,0.999998,0.000177,-0.000389,0.001876,-0.000122,0.001882,-0.000396,-86.932110,0.001985,
1500,1610,-0.204014,-0.832408,0.999998,0.000162,-0.000955,0.002236,-0.000168,0.002245,-0.000964,-86.992101,0.002253,
1010,440,0.156536,-4.252643,0.999998,0.000174,-0.000907,0.002128,-0.000204,0.002142,-0.000921,-86.179629,0.002149,
1440,220,-0.078107,-4.699055,0.999998,0.000180,-0.000467,0.001863,-0.000071,0.001865,-0.000469,-88.254922,0.001941,
910,1860,0.119402,-0.319403,0.999998,0.000163,-0.000511,0.002029,-0.000243,0.002052,-0.000534,-84.576272,0.002129,
1490,300,-0.138524,-4.527227,0.999998,0.000222,-0.000730,0.002048,-0.000017,0.002048,-0.000730,-89.642692,0.002076,
1230,1970,-0.000940,-0.098255,0.999999,0.000133,-0.000117,0.001539,-0.000011,0.001539,-0.000117,-89.632078,0.001714,
1730,630,-0.604032,-3.549553,0.999997,0.000190,-0.001375,0.002663,-0.000028,0.002663,-0.001375,-89.607214,0.002663,
1400,970,-0.487436,-2.907737,0.999996,0.000000,-0.002168,0.005620,0.001788,0.006011,-0.002559,77.668036,0.006033,
1420,1010,-0.557312,-2.617544,0.999995,0.000320,-0.002426,0.005746,0.000508,0.005777,-0.002458,86.453732,0.005799,
840,80,0.057081,-4.930628,0.999999,0.000130,-0.000223,0.001863,0.000434,0.001950,-0.000310,78.715873,0.002096,
1520,690,-0.328074,-3.576323,0.999998,0.000197,-0.001645,0.002846,0.000322,0.002869,-0.001668,85.925026,0.002881,
560,640,0.848518,-3.399753,0.999970,0.000000,-0.001949,0.002810,0.000185,0.002817,-0.001956,87.776395,0.002887,
740,820,0.765435,-3.046080,0.999998,0.000167,-0.001331,0.002647,0.000269,0.002665,-0.001349,86.152619,0.002665,
580,1030,1.057589,-2.515506,0.999998,0.000155,-0.000938,0.002133,-0.000010,0.002133,-0.000938,-89.815612,0.002139,
1290,710,-0.033245,-3.898907,0.999999,0.000148,-0.000664,0.001274,0.000574,0.001431,-0.000821,74.685255,0.001436,
1770,1630,-0.507384,-0.989047,0.999997,0.000187,-0.001228,0.002537,-0.000049,0.002537,-0.001229,-89.252309,0.002538,
1040,1350,0.179042,-1.356937,0.999998,0.000146,-0.001501,0.002533,0.000720,0.002658,-0.001626,80.172230,0.002680,
1340,550,-0.074203,-4.109518,0.999999,0.000130,-0.000774,0.001826,0.000316,0.001863,-0.000812,83.171091,0.001869,
580,1700,0.590804,-0.909896,0.999998,0.000180,-0.002629,0.001940,0.000404,0.001976,-0.002665,84.983154,0.002766,
1580,270,-0.189738,-4.552404,0.999998,0.000161,-0.000823,0.002166,-0.000091,0.002168,-0.000826,-88.266693,0.002189,
1720,1970,-0.092501,-0.129604,0.999998,0.000156,-0.000355,0.002035,0.000596,0.002175,-0.000495,76.755935,0.002280,
1390,790,-0.168324,-3.541466,0.999997,0.000198,-0.001726,0.002577,0.000977,0.002788,-0.001938,77.784341,0.002858,
1860,110,-0.249775,-4.772083,0.999998,0.000171,-0.001192,0.002681,-0.000437,0.002730,-0.001240,-83.636839,0.002733,
1830,810,-0.893117,-3.024743,0.999999,0.000149,-0.001216,0.002415,-0.000166,0.002423,-0.001224,-87.383403,0.002423,
1130,1490,0.067671,-0.952167,0.999999,0.000130,-0.000757,0.001783,0.000332,0.001826,-0.000800,82.678246,0.001831,
1670,1850,-0.208952,-0.381457,0.999998,0.000165,-0.000883,0.002296,0.000280,0.002320,-0.000907,85.006510,0.002339,
1790,290,-0.420509,-4.375042,0.999998,0.000184,-0.001188,0.002574,-0.000070,0.002575,-0.001189,-88.932007,0.002577,
1450,910,-0.471218,-2.983726,0.999997,0.000197,-0.001687,0.003589,0.000133,0.003593,-0.001691,88.553691,0.003595,
1160,1490,0.046256,-0.933894,0.999999,0.000148,-0.000733,0.001662,0.000287,0.001696,-0.000766,83.267750,0.001698,
1600,1640,-0.296206,-0.833742,0.999998,0.000175,-0.001087,0.002403,-0.000064,0.002404,-0.001088,-88.951236,0.002408,
1760,1430,-0.640581,-1.498784,0.999997,0.000184,-0.001337,0.002619,0.000045,0.002620,-0.001338,89.345783,0.002620,
1010,780,0.278024,-3.416474,0.999997,0.000214,-0.001913,0.003038,-0.000545,0.003097,-0.001972,-83.788042,0.003136,
1750,1000,-0.910258,-2.587112,0.999998,0.000173,-0.001083,0.002420,-0.000076,0.002422,-0.001084,-88.757709,0.002426,
1650,390,-0.336629,-4.229210,0.999998,0.000167,-0.001161,0.002479,0.000046,0.002480,-0.001162,89.268828,0.002481,
660,470,0.579960,-3.909321,0.999998,0.000173,-0.001265,0.002537,-0.000034,0.002537,-0.001266,-89.485662,0.002537,
1340,1440,-0.073104,-1.047025,0.999999,0.000135,-0.000878,0.001792,-0.000513,0.001887,-0.000973,-79.497466,0.001887,
790,1690,0.347339,-0.763441,0.999998,0.000175,-0.001144,0.002438,0.000019,0.002438,-0.001144,89.698530,0.002440,
910,410,0.242690,-4.250998,0.999998,0.000160,-0.001056,0.002315,-0.000127,0.002320,-0.001060,-87.842810,0.002323,
1520,640,-0.299620,-3.715114,0.999998,0.000180,-0.001512,0.002652,0.000329,0.002677,-0.001538,85.513664,0.002687,
1440,1930,-0.039692,-0.173628,0.999998,0.000162,-0.000248,0.001747,0.000144,0.001757,-0.000258,85.890535,0.001898,
1050,730,0.174048,-3.640011,0.999998,0.000151,-0.001600,0.002539,-0.000809,0.002692,-0.001753,-79.320502,0.002732,
1180,1580,0.031667,-0.771390,0.999999,0.000133,-0.000641,0.001755,0.000083,0.001758,-0.000644,88.020852,0.001779,
1830,720,-0.812339,-3.247849,0.999999,0.000144,-0.001236,0.002514,-0.000113,0.002518,-0.001239,-88.276617,0.002518,
880,70,0.038722,-4.954109,0.999999,0.000127,-0.000232,0.001762,0.000349,0.001822,-0.000291,80.345932,0.001957,
1720,130,-0.157155,-4.813490,0.999998,0.000150,-0.000596,0.002239,-0.000566,0.002348,-0.000705,-79.107386,0.002410,
610,1450,0.743480,-1.516890,0.999998,0.000192,-0.001279,0.002571,-0.000016,0.002571,-0.001279,-89.766205,0.002571,
750,1610,0.449168,-0.993928,0.999998,0.000173,-0.001248,0.002501,0.000063,0.002502,-0.001249,89.032084,0.002502,
1000,1840,0.086597,-0.337804,0.999998,0.000173,-0.000447,0.001870,-0.000117,0.001876,-0.000453,-87.121259,0.001958,
1480,1610,-0.184558,-0.819286,0.999998,0.000156,-0.000975,0.002187,-0.000204,0.002200,-0.000989,-86.320917,0.002204,
1010,600,0.193331,-3.894902,0.999999,0.000148,-0.001283,0.002366,-0.000492,0.002431,-0.001348,-82.447649,0.002436,
1180,1670,0.029152,-0.608720,0.999998,0.000147,-0.000553,0.001785,0.000033,0.001786,-0.000553,89.180650,0.001828,
1440,200,-0.068091,-4.734714,0.999998,0.000203,-0.000411,0.001835,-0.000097,0.001839,-0.000415,-87.542457,0.001929,
1340,670,-0.073311,-3.894127,0.999998,0.000156,-0.000901,0.001774,0.000685,0.001939,-0.001067,76.436814,0.001942,
1230,1950,-0.000064,-0.129523,0.999999,0.000120,-0.000148,0.001554,-0.000006,0.001554,-0.000148,-89.783316,0.001715,
1190,1860,0.011840,-0.276033,0.999998,0.000151,-0.000252,0.001654,-0.000026,0.001654,-0.000252,-89.204578,0.001782,
1400,30,-0.003612,-5.022951,0.999999,0.000000,-0.000056,0.001504,-0.000115,0.001512,-0.000064,-85.787249,0.001711,
1320,190,-0.024546,-4.770460,0.999998,0.000177,-0.000345,0.001695,-0.000030,0.001696,-0.000345,-89.157249,0.001792,
740,1040,0.883751,-2.491193,0.999998,0.000148,-0.001069,0.002449,-0.000079,0.002451,-0.001070,-88.718809,0.002457,
570,1030,1.067133,-2.514730,0.999995,0.000258,-0.000885,0.002085,-0.000012,0.002085,-0.000885,-89.776258,0.002093,
560,630,0.857447,-3.455106,0.999963,0.000000,-0.002021,0.002076,0.000022,0.002076,-0.002021,89.695435,0.002366,
840,500,0.369701,-3.978070,0.999998,0.000169,-0.001269,0.002500,-0.000128,0.002504,-0.001273,-88.050057,0.002504,
1100,1350,0.098966,-1.246192,0.999998,0.000156,-0.001180,0.001993,0.000846,0.002205,-0.001391,75.958429,0.002230,
1070,1120,0.430666,-1.930555,0.999996,0.000222,-0.001373,0.003635,0.002080,0.004386,-0.002124,70.144570,0.004387,
900,1190,0.586486,-2.045508,0.999998,0.000156,-0.001554,0.003086,-0.000304,0.003106,-0.001573,-86.271031,0.003106,
1130,1470,0.067700,-0.986637,0.999999,0.000150,-0.000763,0.001780,0.000396,0.001840,-0.000823,81.355479,0.001843,
1830,790,-0.874516,-3.072727,0.999999,0.000145,-0.001243,0.002451,-0.000152,0.002457,-0.001249,-87.640643,0.002457,
650,1730,0.481546,-0.772458,0.999998,0.000190,-0.001238,0.002526,0.000010,0.002526,-0.001238,89.843027,0.002526,
1830,1180,-0.943453,-2.170103,0.999998,0.000154,-0.001163,0.002346,0.000163,0.002354,-0.001170,87.343942,0.002354,
1290,690,-0.033234,-3.923900,0.999999,0.000144,-0.000682,0.001316,0.000507,0.001437,-0.000804,76.534859,0.001440,
1730,610,-0.588637,-3.603794,0.999997,0.000189,-0.001381,0.002653,-0.000025,0.002653,-0.001381,-89.639310,0.002654,
840,1990,0.040657,-0.079112,0.999999,0.000126,-0.000158,0.001819,-0.000447,0.001916,-0.000254,-77.826176,0.002081,
1860,210,-0.414587,-4.512051,0.999998,0.000168,-0.001225,0.002525,-0.000097,0.002527,-0.001228,-88.520491,0.002528,
1390,770,-0.154794,-3.593018,0.999998,0.000181,-0.001626,0.002481,0.000957,0.002693,-0.001838,77.510277,0.002752,
1310,1740,-0.036301,-0.486436,0.999998,0.000168,-0.000502,0.001789,-0.000040,0.001790,-0.000503,-88.998538,0.001846,
1150,1420,0.051564,-1.055790,0.999999,0.000152,-0.000731,0.001617,0.000442,0.001698,-0.000811,79.686984,0.001698,
1050,710,0.165119,-3.691176,0.999998,0.000160,-0.001496,0.002486,-0.000756,0.002625,-0.001634,-79.603745,0.002651,
1500,830,-0.427814,-3.171787,0.999998,0.000200,-0.001890,0.003281,0.000030,0.003281,-0.001890,89.663099,0.003294,
1450,890,-0.430523,-3.057651,0.999998,0.000179,-0.001809,0.003537,0.000179,0.003543,-0.001815,88.081134,0.003544,
1340,1200,-0.178819,-1.466264,0.999997,0.000201,-0.001054,0.001487,-0.000912,0.001781,-0.001347,-72.159501,0.001857,
1770,1850,-0.304917,-0.434680,0.999997,0.000191,-0.001130,0.002516,0.000262,0.002534,-0.001148,85.910875,0.002538,
1530,540,-0.270545,-3.959721,0.999998,0.000179,-0.001240,0.002467,0.000280,0.002488,-0.001261,85.703896,0.002488,
1810,720,-0.787618,-3.260033,0.999998,0.000176,-0.001258,0.002555,-0.000123,0.002559,-0.001262,-88.158568,0.002559,
790,1670,0.358642,-0.815113,0.999998,0.000180,-0.001161,0.002470,0.000017,0.002470,-0.001161,89.735403,0.002472,
1180,1560,0.031756,-0.804470,0.999999,0.000126,-0.000655,0.001736,0.000096,0.001739,-0.000658,87.692122,0.001756,
750,1590,0.462492,-1.045397,0.999997,0.000187,-0.001272,0.002566,0.000069,0.002568,-0.001273,88.965466,0.002568,
610,1430,0.761080,-1.568387,0.999998,0.000193,-0.001279,0.002577,-0.000028,0.002577,-0.001279,-89.584749,0.002577,
860,70,0.043133,-4.951762,0.999999,0.000128,-0.000213,0.001810,0.000401,0.001887,-0.000290,79.179679,0.002032,
1610,1460,-0.406490,-1.297579,0.999998,0.000180,-0.001411,0.002668,-0.000150,0.002674,-0.001417,-87.899115,0.002675,
800,410,0.365265,-4.170912,0.999998,0.000184,-0.001164,0.002489,-0.000041,0.002489,-0.001164,-89.352537,0.002491,
650,160,0.285517,-4.691849,0.999997,0.000198,-0.001030,0.002634,0.000406,0.002678,-0.001074,83.750935,0.002696,
1140,1610,0.056921,-0.728501,0.999998,0.000156,-0.000687,0.001843,0.000170,0.001854,-0.000699,86.177589,0.001873,
1790,270,-0.402343,-4.426155,0.999998,0.000182,-0.001179,0.002522,-0.000110,0.002526,-0.001183,-88.300586,0.002527,
590,1280,0.913678,-1.958213,0.999999,0.000142,-0.001198,0.002394,-0.000092,0.002396,-0.001200,-88.530203,0.002396,
1160,1670,0.040159,-0.611489,0.999998,0.000142,-0.000575,0.001813,0.000052,0.001814,-0.000576,88.762551,0.001853,
750,660,0.604733,-3.481971,0.999997,0.000222,-0.001429,0.002683,0.000046,0.002683,-0.001429,89.358880,0.002685,
1690,600,-0.524520,-3.660896,0.999997,0.000183,-0.001412,0.002664,0.000025,0.002664,-0.001412,89.649425,0.002665,
840,1750,0.252830,-0.589596,0.999997,0.000181,-0.000915,0.002329,-0.000066,0.002331,-0.000916,-88.832944,0.002348,
810,1600,0.380767,-0.973104,0.999998,0.000182,-0.001241,0.002504,0.000091,0.002506,-0.001243,88.604634,0.002506,
1060,1120,0.444491,-1.987036,0.999996,0.000229,-0.001577,0.003711,0.001683,0.004201,-0.002068,73.761778,0.004201,
1340,190,-0.031785,-4.767734,0.999998,0.000151,-0.000321,0.001712,-0.000029,0.001712,-0.000321,-89.170470,0.001820,
1570,1200,-0.583345,-2.020184,0.999998,0.000183,-0.001593,0.003055,0.000294,0.003073,-0.001612,86.396421,0.003074,
1340,650,-0.074501,-3.930070,0.999999,0.000155,-0.000897,0.001751,0.000613,0.001886,-0.001032,77.578884,0.001889,
1000,1820,0.092918,-0.374061,0.999998,0.000163,-0.000467,0.001932,-0.000111,0.001937,-0.000473,-87.348763,0.002020,
560,620,0.827780,-3.447119,0.999936,0.000000,-0.002145,0.001684,0.000019,0.001684,-0.002145,89.719649,0.002258,
840,520,0.381371,-3.926560,0.999998,0.000180,-0.001322,0.002560,-0.000146,0.002566,-0.001328,-87.851871,0.002566,
1830,770,-0.856661,-3.122996,0.999999,0.000142,-0.001257,0.002468,-0.000147,0.002474,-0.001262,-87.742728,0.002474,
700,970,0.918594,-2.658282,0.999998,0.000140,-0.001109,0.002399,0.000088,0.002402,-0.001111,88.568047,0.002404,
1150,360,0.043457,-4.470431,0.999998,0.000142,-0.000578,0.001825,-0.000056,0.001827,-0.000579,-88.660532,0.001867,
1410,1160,-0.371523,-1.879222,0.999998,0.000187,-0.001675,0.003318,-0.000860,0.003462,-0.001819,-80.491208,0.003464,
740,800,0.745877,-3.098324,0.999998,0.000181,-0.001340,0.002645,0.000268,0.002663,-0.001358,86.176880,0.002663,
1390,380,-0.093659,-4.408897,0.999998,0.000137,-0.000662,0.001944,0.000126,0.001951,-0.000668,87.248887,0.001982,
1600,1660,-0.284927,-0.787370,0.999998,0.000181,-0.001051,0.002361,-0.000036,0.002361,-0.001051,-89.387742,0.002366,
1730,590,-0.570794,-3.655696,0.999997,0.000191,-0.001381,0.002615,-0.000011,0.002615,-0.001381,-89.845724,0.002616,
700,540,0.578685,-3.761110,0.999998,0.000168,-0.001305,0.002598,-0.000009,0.002598,-0.001305,-89.865758,0.002599,
1130,1450,0.066889,-1.022156,0.999998,0.000147,-0.000792,0.001733,0.000433,0.001805,-0.000865,80.528175,0.001806,
1800,190,-0.319019,-4.623109,0.999998,0.000176,-0.001073,0.002575,-0.000339,0.002606,-0.001104,-84.730131,0.002617,
1650,350,-0.309961,-4.327169,0.999997,0.000172,-0.001124,0.002424,-0.000025,0.002424,-0.001124,-89.603417,0.002426,
660,1670,0.516726,-0.915576,0.999998,0.000175,-0.001222,0.002521,0.000020,0.002521,-0.001222,89.696328,0.002521,
580,360,0.596345,-4.117564,0.999998,0.000146,-0.002835,0.002252,0.000046,0.002252,-0.002836,89.484801,0.002995,
1440,180,-0.061141,-4.772336,0.999998,0.000208,-0.000327,0.001809,-0.000132,0.001817,-0.000335,-86.482897,0.001934,
1290,670,-0.033886,-3.950670,0.999999,0.000155,-0.000684,0.001371,0.000468,0.001473,-0.000785,77.763350,0.001474,
1390,750,-0.143688,-3.641384,0.999998,0.000181,-0.001526,0.002407,0.000919,0.002611,-0.001730,77.469940,0.002657,
850,1780,0.222495,-0.514267,0.999997,0.000208,-0.000885,0.002283,-0.000146,0.002289,-0.000892,-87.365536,0.002308,
1390,2020,-0.005815,-0.023347,0.999999,0.000000,-0.000030,0.001532,0.000082,0.001536,-0.000034,86.985266,0.001755,
1230,1930,0.000185,-0.159785,0.999999,0.000118,-0.000153,0.001586,0.000002,0.001586,-0.000153,89.917717,0.001750,
1050,690,0.160854,-3.739499,0.999998,0.000152,-0.001413,0.002368,-0.000726,0.002503,-0.001548,-79.499376,0.002526,
1150,1460,0.053305,-0.990949,0.999999,0.000143,-0.000731,0.001686,0.000344,0.001734,-0.000779,82.056021,0.001736,
840,70,0.045738,-4.949189,0.999999,0.000128,-0.000177,0.001855,0.000432,0.001943,-0.000266,78.480096,0.002107,
1030,2000,0.012056,-0.055766,0.999999,0.000114,-0.000075,0.001569,-0.000134,0.001580,-0.000086,-85.372008,0.001777,
1520,620,-0.290628,-3.767867,0.999998,0.000173,-0.001437,0.002605,0.000328,0.002631,-0.001463,85.396684,0.002637,
790,1650,0.375601,-0.863469,0.999998,0.000169,-0.001173,0.002478,0.000030,0.002478,-0.001173,89.523409,0.002479,
1620,590,-0.417832,-3.746296,0.999998,0.000181,-0.001418,0.002678,0.000141,0.002683,-0.001423,88.035890,0.002684,
1660,1180,-0.735456,-2.119831,0.999998,0.000193,-0.001257,0.002727,0.000319,0.002752,-0.001283,85.450866,0.002754,
1680,1070,-0.833557,-2.413608,0.999998,0.000167,-0.001041,0.002549,0.000111,0.002553,-0.001044,88.223263,0.002567,
1500,810,-0.400671,-3.236994,0.999997,0.000222,-0.001917,0.003263,0.000117,0.003266,-0.001920,88.711790,0.003283,
960,1530,0.233333,-1.019164,0.999999,0.000140,-0.001200,0.002359,0.000294,0.002383,-0.001224,85.306390,0.002384,
1030,1420,0.175422,-1.201121,0.999998,0.000169,-0.001294,0.002326,0.000571,0.002414,-0.001382,81.252371,0.002422,
1220,1220,0.018688,-1.192120,0.999998,0.000163,-0.001699,0.000734,0.000008,0.000734,-0.001699,89.803128,0.001705,
1080,590,0.112915,-3.996090,0.999999,0.000127,-0.000978,0.002004,-0.000508,0.002088,-0.001062,-80.592214,0.002088,
910,390,0.232976,-4.296267,0.999998,0.000166,-0.000991,0.002286,-0.000090,0.002289,-0.000994,-88.420099,0.002295,
1780,510,-0.579020,-3.824455,0.999998,0.000171,-0.001295,0.002575,0.000041,0.002575,-0.001296,89.389984,0.002575,
1340,840,-0.147344,-3.596977,0.999998,0.000203,-0.001230,0.001671,0.001054,0.002013,-0.001573,71.994045,0.002117,
750,60,0.056965,-4.959877,0.999998,0.000144,-0.000187,0.001933,0.000612,0.002098,-0.000351,74.999529,0.002247,
1180,1540,0.032469,-0.838981,0.999999,0.000127,-0.000662,0.001718,0.000126,0.001725,-0.000669,86.983401,0.001739,
1050,1740,0.094962,-0.514285,0.999998,0.000186,-0.000674,0.001957,0.000053,0.001958,-0.000675,88.847645,0.001990,
1070,780,0.167444,-3.558812,0.999999,0.000139,-0.001698,0.002567,-0.000969,0.002777,-0.001908,-77.782739,0.002841,
1830,750,-0.839057,-3.172446,0.999999,0.000151,-0.001238,0.002495,-0.000148,0.002501,-0.001244,-87.735368,0.002501,
1650,330,-0.295760,-4.377629,0.999998,0.000173,-0.001081,0.002425,-0.000037,0.002425,-0.001081,-89.399531,0.002430,
610,1410,0.777314,-1.620102,0.999998,0.000187,-0.001277,0.002527,-0.000037,0.002527,-0.001277,-89.441447,0.002528,
720,1130,0.872706,-2.268995,0.999999,0.000138,-0.001136,0.002483,-0.000198,0.002494,-0.001147,-86.872397,0.002496,
560,610,0.830753,-3.447210,0.999956,0.000000,-0.002186,0.001708,0.000050,0.001709,-0.002186,89.269919,0.002299,
1290,650,-0.034752,-3.980165,0.999999,0.000159,-0.000692,0.001467,0.000419,0.001545,-0.000771,79.400142,0.001545,
1180,1550,0.032696,-0.822039,0.999999,0.000112,-0.000660,0.001724,0.000111,0.001730,-0.000665,87.340231,0.001745,
1600,1680,-0.273424,-0.740585,0.999998,0.000178,-0.001024,0.002343,-0.000044,0.002343,-0.001025,-89.256119,0.002350,
990,580,0.213755,-3.919264,0.999998,0.000173,-0.001239,0.002379,-0.000419,0.002427,-0.001287,-83.479987,0.002429,
580,1280,0.926133,-1.965567,0.999999,0.000148,-0.001248,0.002385,-0.000074,0.002386,-0.001250,-88.829389,0.002387,
1830,1260,-0.879390,-1.978453,0.999999,0.000136,-0.001212,0.002465,0.000155,0.002472,-0.001218,87.597770,0.002472,
1530,1830,-0.125963,-0.374513,0.999998,0.000169,-0.000584,0.002005,0.000151,0.002014,-0.000592,86.677265,0.002070,
1660,470,-0.398895,-4.023314,0.999998,0.000181,-0.001257,0.002521,0.000102,0.002524,-0.001260,88.455300,0.002524,
1600,410,-0.292914,-4.218642,0.999998,0.000161,-0.001061,0.002376,0.000069,0.002377,-0.001062,88.842651,0.002382,
1790,250,-0.380988,-4.476609,0.999998,0.000190,-0.001157,0.002526,-0.000169,0.002534,-0.001165,-87.380706,0.002537,
1010,820,0.321669,-3.291438,0.999997,0.000212,-0.001934,0.003247,-0.000429,0.003282,-0.001969,-85.294882,0.003304,
1660,1160,-0.753758,-2.174043,0.999998,0.000193,-0.001210,0.002705,0.000311,0.002729,-0.001234,85.492106,0.002733,
1770,1610,-0.520040,-1.041748,0.999998,0.000180,-0.001253,0.002541,-0.000046,0.002542,-0.001254,-89.307287,0.002542,
1130,1670,0.057940,-0.622074,0.999998,0.000165,-0.000639,0.001869,0.000119,0.001875,-0.000645,87.288422,0.001905,
1730,570,-0.556067,-3.708086,0.999997,0.000195,-0.001374,0.002621,0.000024,0.002621,-0.001374,89.648996,0.002622,
770,1860,0.218807,-0.366930,0.999998,0.000151,-0.000852,0.002317,-0.000347,0.002355,-0.000890,-83.815449,0.002378,
1660,1070,-0.813343,-2.412246,0.999998,0.000147,-0.001044,0.002561,0.000128,0.002565,-0.001049,87.972610,0.002579,
1620,1390,-0.470171,-1.499066,0.999997,0.000191,-0.001530,0.002802,-0.000067,0.002803,-0.001531,-89.111303,0.002807,
1520,600,-0.282506,-3.817835,0.999998,0.000174,-0.001382,0.002581,0.000313,0.002606,-0.001407,85.506865,0.002609,
1690,980,-0.842751,-2.639978,0.999998,0.000186,-0.001072,0.002525,-0.000111,0.002528,-0.001075,-88.240331,0.002538,
1390,1110,-0.442502,-1.958173,0.999997,0.000000,-0.001608,0.004249,-0.002265,0.005023,-0.002382,-71.138026,0.005025,
1760,1010,-0.924087,-2.562639,0.999998,0.000187,-0.001085,0.002413,-0.000069,0.002414,-0.001087,-88.870231,0.002418,
840,1370,0.490858,-1.556951,0.999997,0.000204,-0.001573,0.002826,0.000010,0.002826,-0.001573,89.870209,0.002832,
810,600,0.472534,-3.693458,0.999997,0.000180,-0.001431,0.002693,-0.000075,0.002695,-0.001432,-88.955462,0.002696,
1080,1450,0.113631,-1.073611,0.999999,0.000137,-0.001006,0.002053,0.000534,0.002144,-0.001097,80.379547,0.002144,
990,1170,0.463916,-2.010944,0.999998,0.000180,-0.001781,0.003450,-0.000009,0.003450,-0.001781,-89.904542,0.003451,
1000,1800,0.103904,-0.413242,0.999998,0.000159,-0.000514,0.001952,-0.000074,0.001954,-0.000517,-88.291896,0.002025,
750,1570,0.474588,-1.098342,0.999997,0.000198,-0.001283,0.002562,0.000075,0.002563,-0.001285,88.887695,0.002563,
1800,170,-0.289054,-4.674529,0.999998,0.000182,-0.001025,0.002597,-0.000475,0.002658,-0.001086,-82.655493,0.002673,
740,760,0.707885,-3.205937,0.999998,0.000177,-0.001397,0.002669,0.000194,0.002679,-0.001407,87.280910,0.002680,
1240,180,-0.001824,-4.790465,0.999998,0.000152,-0.000294,0.001658,0.000021,0.001658,-0.000294,89.392639,0.001769,
1600,210,-0.161527,-4.674428,0.999999,0.000140,-0.000721,0.002109,-0.000236,0.002129,-0.000741,-85.262011,0.002161,
1390,730,-0.138705,-3.687117,0.999998,0.000156,-0.001435,0.002320,0.000882,0.002517,-0.001632,77.418380,0.002553,
1160,710,0.041390,-3.882614,0.999998,0.000164,-0.000755,0.001386,-0.000657,0.001571,-0.000940,-74.220339,0.001581,
1760,1770,-0.381229,-0.628193,0.999997,0.000243,-0.001180,0.002531,0.000079,0.002532,-0.001181,88.783770,0.002534,
1620,570,-0.406142,-3.800746,0.999997,0.000184,-0.001382,0.002649,0.000153,0.002655,-0.001388,87.831638,0.002656,
1050,670,0.156228,-3.784706,0.999998,0.000143,-0.001349,0.002297,-0.000690,0.002423,-0.001475,-79.628787,0.002442,
1180,1520,0.032658,-0.873391,0.999999,0.000131,-0.000662,0.001705,0.000166,0.001717,-0.000674,86.006958,0.001730,
1820,490,-0.615359,-3.843950,0.999998,0.000192,-0.001263,0.002517,0.000031,0.002517,-0.001264,89.534538,0.002517,
1050,780,0.202578,-3.507392,0.999998,0.000171,-0.001792,0.002787,-0.000836,0.002935,-0.001940,-79.974723,0.002985,
1440,160,-0.053360,-4.807085,0.999999,0.000168,-0.000275,0.001773,-0.000167,0.001786,-0.000289,-85.369326,0.001918,
850,1760,0.237426,-0.561603,0.999998,0.000201,-0.000918,0.002304,-0.000093,0.002307,-0.000920,-88.347491,0.002322,
910,370,0.222952,-4.342213,0.999998,0.000166,-0.000920,0.002260,-0.000033,0.002261,-0.000920,-89.398432,0.002274,
1290,1740,-0.027217,-0.484091,0.999998,0.000146,-0.000425,0.001798,0.000003,0.001798,-0.000425,89.923606,0.001879,
1680,250,-0.261748,-4.548862,0.999998,0.000155,-0.001004,0.002390,-0.000196,0.002401,-0.001015,-86.699867,0.002411,
1340,820,-0.117947,-3.633260,0.999998,0.000188,-0.001349,0.001746,0.001099,0.002097,-0.001700,72.309042,0.002228,
1830,730,-0.821013,-3.221870,0.999999,0.000139,-0.001237,0.002515,-0.000121,0.002519,-0.001241,-88.156337,0.002519,
610,1390,0.794412,-1.669260,0.999998,0.000167,-0.001268,0.002533,-0.000045,0.002533,-0.001268,-89.314807,0.002533,
1800,1330,-0.779473,-1.786062,0.999998,0.000154,-0.001282,0.002559,0.000127,0.002563,-0.001286,88.104480,0.002563,
660,1650,0.533036,-0.966708,0.999998,0.000183,-0.001248,0.002537,0.000023,0.002537,-0.001248,89.655666,0.002537,
570,1280,0.938661,-1.972961,0.999997,0.000239,-0.001276,0.002396,-0.000060,0.002397,-0.001277,-89.065042,0.002398,
1790,230,-0.357077,-4.527527,0.999997,0.000195,-0.001137,0.002532,-0.000213,0.002544,-0.001150,-86.691415,0.002548,
1290,630,-0.036316,-4.011189,0.999999,0.000131,-0.000683,0.001503,0.000374,0.001565,-0.000746,80.550240,0.001566,
990,560,0.207744,-3.966675,0.999998,0.000162,-0.001203,0.002329,-0.000372,0.002367,-0.001242,-84.053060,0.002368,
680,970,0.941217,-2.656650,0.999998,0.000145,-0.001103,0.002360,0.000077,0.002362,-0.001105,88.720516,0.002364,
1140,1450,0.060425,-1.014181,0.999999,0.000144,-0.000744,0.001692,0.000385,0.001752,-0.000803,81.226186,0.001754,
790,1630,0.386441,-0.913594,0.999998,0.000172,-0.001194,0.002500,0.000058,0.002501,-0.001195,89.102854,0.002502,
1650,310,-0.281040,-4.422987,0.999998,0.000160,-0.001016,0.002357,-0.000056,0.002358,-0.001017,-89.046882,0.002365,
1010,800,0.297005,-3.354358,0.999998,0.000177,-0.001939,0.003117,-0.000495,0.003165,-0.001987,-84.459866,0.003199,
1610,190,-0.151782,-4.713452,0.999998,0.000166,-0.000664,0.002122,-0.000277,0.002149,-0.000691,-84.383610,0.002194,
880,690,0.431056,-3.505467,0.999997,0.000196,-0.001639,0.002874,-0.000094,0.002876,-0.001641,-88.807983,0.002886,
1690,900,-0.794156,-2.845174,0.999998,0.000195,-0.001208,0.002639,-0.000315,0.002665,-0.001233,-85.357068,0.002667,
830,1380,0.497813,-1.538153,0.999997,0.000214,-0.001539,0.002797,0.000009,0.002797,-0.001539,89.876739,0.002801,
770,1900,0.171961,-0.275981,0.999998,0.000154,-0.000720,0.002276,-0.000462,0.002345,-0.000790,-81.427906,0.002387,
960,930,0.588349,-2.834704,0.999998,0.000175,-0.001392,0.003296,0.000288,0.003313,-0.001410,86.502544,0.003326,
1770,1570,-0.548230,-1.143057,0.999998,0.000167,-0.001305,0.002570,-0.000050,0.002570,-0.001305,-89.267279,0.002570,
1130,1430,0.067313,-1.056233,0.999999,0.000150,-0.000839,0.001727,0.000501,0.001821,-0.000933,79.341821,0.001821,
1600,430,-0.304001,-4.170461,0.999998,0.000159,-0.001107,0.002432,0.000096,0.002434,-0.001109,88.448594,0.002437,
690,1040,0.937898,-2.489621,0.999998,0.000145,-0.001083,0.002383,-0.000061,0.002384,-0.001084,-88.983846,0.002387,
860,190,0.146451,-4.715234,0.999998,0.000174,-0.000640,0.002115,0.000262,0.002139,-0.000665,84.616495,0.002190,
1660,1140,-0.770279,-2.227052,0.999998,0.000163,-0.001179,0.002674,0.000307,0.002698,-0.001203,85.479158,0.002703,
1890,2010,-0.113060,-0.101570,0.999998,0.000141,-0.000179,0.003423,0.001700,0.004099,-0.000855,68.329316,0.004325,
560,600,0.824483,-3.484258,0.999950,0.000000,-0.002090,0.002659,-0.000309,0.002679,-0.002110,-86.296748,0.002822,
790,640,0.530732,-3.566385,0.999997,0.000193,-0.001446,0.002724,-0.000003,0.002724,-0.001446,-89.954691,0.002726,
1520,580,-0.273724,-3.870335,0.999998,0.000164,-0.001345,0.002482,0.000300,0.002505,-0.001369,85.540175,0.002509,
1530,1810,-0.139076,-0.415439,0.999998,0.000165,-0.000663,0.002038,0.000130,0.002044,-0.000669,87.251141,0.002085,
1730,550,-0.542356,-3.761609,0.999997,0.000197,-0.001358,0.002594,0.000044,0.002594,-0.001358,89.358286,0.002595,
1390,1100,-0.454413,-1.999956,0.999996,0.000000,-0.002146,0.004431,-0.002560,0.005310,-0.003025,-71.052987,0.005327,
740,740,0.690761,-3.260049,0.999998,0.000194,-0.001392,0.002676,0.000201,0.002686,-0.001401,87.180041,0.002686,
1400,1590,-0.117235,-0.806791,0.999999,0.000125,-0.000844,0.002012,-0.000262,0.002036,-0.000867,-84.808921,0.002043,
1000,1780,0.110294,-0.453418,0.999998,0.000158,-0.000545,0.002013,-0.000052,0.002014,-0.000546,-88.829236,0.002083,
1180,1500,0.032295,-0.907088,0.999999,0.000148,-0.000661,0.001661,0.000184,0.001676,-0.000676,85.486668,0.001686,
890,420,0.269454,-4.211557,0.999998,0.000155,-0.001078,0.002353,-0.000117,0.002357,-0.001082,-88.041311,0.002360,
1140,710,0.058404,-3.853724,0.999999,0.000136,-0.000866,0.001568,-0.000761,0.001787,-0.001084,-73.991117,0.001800,
910,350,0.211653,-4.387247,0.999998,0.000170,-0.000879,0.002261,-0.000009,0.002261,-0.000879,-89.841143,0.002280,
1830,710,-0.803327,-3.272750,0.999998,0.000166,-0.001244,0.002532,-0.000096,0.002534,-0.001246,-88.551347,0.002534,
1800,90,-0.150621,-4.876869,0.999998,0.000157,-0.000557,0.002454,-0.000880,0.002692,-0.000795,-74.852888,0.002766,
950,1760,0.154618,-0.513754,0.999998,0.000175,-0.000774,0.002060,-0.000012,0.002060,-0.000774,-89.764996,0.002081,
1190,1450,0.024629,-0.983324,0.999999,0.000139,-0.000632,0.001535,0.000207,0.001555,-0.000651,84.603065,0.001562,
700,630,0.647558,-3.526029,0.999997,0.000206,-0.001361,0.002633,0.000036,0.002633,-0.001361,89.476615,0.002634,
1680,230,-0.242740,-4.598018,0.999998,0.000175,-0.000960,0.002367,-0.000246,0.002385,-0.000978,-85.799789,0.002398,
1050,650,0.152128,-3.832478,0.999998,0.000152,-0.001273,0.002273,-0.000639,0.002385,-0.001384,-80.082150,0.002395,
1450,1740,-0.118631,-0.528864,0.999998,0.000173,-0.000638,0.001999,-0.000008,0.001999,-0.000638,-89.820176,0.002042,
1340,800,-0.099662,-3.666967,0.999998,0.000180,-0.001300,0.001794,0.001141,0.002170,-0.001675,71.794576,0.002274,
1820,1330,-0.804832,-1.797549,0.999998,0.000161,-0.001273,0.002520,0.000122,0.002524,-0.001277,88.163873,0.002524,
650,1280,0.840325,-1.919556,0.999999,0.000140,-0.001248,0.002515,-0.000164,0.002522,-0.001256,-87.506961,0.002522,
1600,590,-0.389947,-3.765154,0.999997,0.000187,-0.001408,0.002674,0.000165,0.002680,-0.001415,87.691163,0.002682,
1600,190,-0.144245,-4.716639,0.999998,0.000155,-0.000677,0.002108,-0.000259,0.002132,-0.000701,-84.739744,0.002174,
610,1370,0.809996,-1.721309,0.999998,0.000163,-0.001258,0.002528,-0.000056,0.002529,-0.001259,-89.157433,0.002529,
990,520,0.196661,-4.060873,0.999998,0.000160,-0.001078,0.002277,-0.000303,0.002304,-0.001105,-84.874134,0.002305,
1440,140,-0.044820,-4.843301,0.999999,0.000143,-0.000252,0.001713,-0.000142,0.001723,-0.000263,-85.877383,0.001857,
1610,170,-0.135825,-4.754837,0.999998,0.000153,-0.000583,0.002079,-0.000301,0.002113,-0.000616,-83.623816,0.002173,
1790,210,-0.333649,-4.577198,0.999998,0.000176,-0.001120,0.002550,-0.000277,0.002571,-0.001141,-85.710474,0.002576,
1810,220,-0.368459,-4.538396,0.999998,0.000167,-0.001143,0.002563,-0.000236,0.002578,-0.001158,-86.369333,0.002583,
1650,290,-0.266165,-4.472530,0.999998,0.000161,-0.000971,0.002380,-0.000106,0.002383,-0.000974,-88.195337,0.002396,
1670,1260,-0.667385,-1.903476,0.999998,0.000174,-0.001445,0.002796,0.000257,0.002811,-0.001461,86.545107,0.002812,
710,700,0.695767,-3.348673,0.999998,0.000171,-0.001388,0.002667,0.000130,0.002671,-0.001392,88.166629,0.002672,
940,930,0.617198,-2.818099,0.999998,0.000181,-0.001357,0.003159,0.000331,0.003183,-0.001381,85.827650,0.003193,
1230,1860,-0.000233,-0.274679,0.999998,0.000162,-0.000345,0.001646,-0.000008,0.001646,-0.000345,-89.761771,0.001736,
1660,1120,-0.786677,-2.281206,0.999998,0.000179,-0.001132,0.002626,0.000254,0.002643,-0.001149,86.149356,0.002650,
880,190,0.134424,-4.722847,0.999998,0.000175,-0.000675,0.002073,0.000236,0.002093,-0.000695,85.117572,0.002132,
1260,190,-0.008469,-4.771688,0.999999,0.000140,-0.000289,0.001656,0.000006,0.001656,-0.000289,89.809824,0.001769,
1390,1090,-0.437863,-2.042332,0.999723,0.000000,-0.002594,0.004783,-0.002687,0.005658,-0.003469,-71.965481,0.005706,
1290,1230,-0.066978,-1.257219,0.999998,0.000166,-0.001074,0.000865,-0.000619,0.001046,-0.001255,-73.718981,0.001344,
1390,710,-0.132488,-3.733367,0.999999,0.000134,-0.001361,0.002234,0.000827,0.002415,-0.001542,77.650610,0.002446,
1850,260,-0.463278,-4.397464,0.999997,0.000225,-0.001224,0.002506,-0.000031,0.002506,-0.001224,-89.517394,0.002506,
1770,1550,-0.563731,-1.195718,0.999998,0.000180,-0.001316,0.002570,-0.000042,0.002571,-0.001316,-89.377274,0.002571,
1530,1790,-0.149123,-0.455662,0.999998,0.000173,-0.000702,0.002079,0.000090,0.002081,-0.000705,88.147483,0.002117,
1520,560,-0.265245,-3.919333,0.999998,0.000165,-0.001279,0.002489,0.000304,0.002514,-0.001304,85.419350,0.002514,
1730,530,-0.528690,-3.812749,0.999998,0.000177,-0.001336,0.002601,0.000041,0.002601,-0.001337,89.404548,0.002602,
810,1380,0.528793,-1.553827,0.999998,0.000173,-0.001513,0.002791,-0.000024,0.002791,-0.001513,-89.678194,0.002794,
770,1880,0.196190,-0.322504,0.999998,0.000143,-0.000781,0.002277,-0.000398,0.002328,-0.000832,-82.714272,0.002359,
1120,1430,0.076814,-1.067570,0.999998,0.000164,-0.000900,0.001783,0.000535,0.001885,-0.001003,79.132958,0.001887,
1000,1760,0.119363,-0.494245,0.999998,0.000146,-0.000585,0.002015,-0.000032,0.002015,-0.000586,-89.303160,0.002073,
1130,1390,0.067160,-1.126499,0.999998,0.000162,-0.000890,0.001709,0.000661,0.001867,-0.001048,76.519867,0.001872,
890,400,0.258843,-4.259640,0.999998,0.000173,-0.001051,0.002340,-0.000084,0.002342,-0.001053,-88.575993,0.002346,
750,1550,0.488542,-1.147686,0.999997,0.000195,-0.001291,0.002551,0.000062,0.002552,-0.001292,89.071903,0.002552,
1220,1670,0.006230,-0.605435,0.999999,0.000132,-0.000543,0.001780,0.000025,0.001780,-0.000543,89.392792,0.001825,
560,590,0.813205,-3.518819,0.999937,0.000000,-0.002294,0.002765,-0.000377,0.002793,-0.002322,-85.760820,0.002990,
1830,690,-0.786801,-3.323604,0.999998,0.000173,-0.001255,0.002532,-0.000081,0.002534,-0.001257,-88.774106,0.002534,
1120,710,0.075996,-3.820812,0.999999,0.000144,-0.001031,0.001770,-0.000835,0.002000,-0.001261,-74.594651,0.002023,
1000,970,0.595661,-2.737489,0.999997,0.000193,-0.001329,0.003661,-0.000007,0.003661,-0.001329,-89.923489,0.003706,
910,330,0.201681,-4.432749,0.999998,0.000162,-0.000848,0.002243,0.000002,0.002243,-0.000848,89.968078,0.002265,
1380,1530,-0.105951,-0.913957,0.999999,0.000129,-0.000888,0.001948,-0.000363,0.001994,-0.000934,-82.811857,0.001995,
1180,1700,0.027204,-0.557493,0.999998,0.000155,-0.000511,0.001761,0.000020,0.001761,-0.000512,89.484205,0.001812,
1770,820,-0.827236,-3.027741,0.999998,0.000174,-0.001258,0.002551,-0.000256,0.002568,-0.001276,-86.172928,0.002568,
630,1280,0.865195,-1.930753,0.999998,0.000150,-0.001241,0.002495,-0.000142,0.002500,-0.001247,-87.826104,0.002500,
680,650,0.691717,-3.458792,0.999997,0.000195,-0.001328,0.002613,0.000062,0.002614,-0.001329,89.093061,0.002614,
1610,150,-0.115238,-4.797573,0.999998,0.000158,-0.000495,0.002046,-0.000352,0.002094,-0.000543,-82.247903,0.002173,
610,1350,0.827465,-1.771333,0.999998,0.000162,-0.001231,0.002517,-0.000077,0.002518,-0.001232,-88.821537,0.002518,
990,500,0.192150,-4.105220,0.999999,0.000140,-0.001034,0.002230,-0.000276,0.002253,-0.001058,-85.199423,0.002255,
740,720,0.669276,-3.313185,0.999998,0.000203,-0.001405,0.002694,0.000165,0.002700,-0.001412,87.699743,0.002701,
1550,80,-0.038881,-4.938131,0.999999,0.000122,-0.000153,0.001750,-0.000332,0.001806,-0.000210,-80.379885,0.001975,
1220,480,0.006901,-4.268628,0.999999,0.000128,-0.000628,0.001716,-0.000045,0.001717,-0.000629,-88.905258,0.001737,
1790,190,-0.306806,-4.629870,0.999998,0.000171,-0.001084,0.002559,-0.000332,0.002589,-0.001114,-84.837251,0.002597,
1650,270,-0.250529,-4.520796,0.999998,0.000159,-0.000921,0.002326,-0.000155,0.002333,-0.000928,-87.267278,0.002350,
930,1740,0.180127,-0.564163,0.999997,0.000230,-0.000780,0.002161,-0.000027,0.002161,-0.000780,-89.480102,0.002189,
710,680,0.676984,-3.400942,0.999998,0.000205,-0.001376,0.002634,0.000113,0.002637,-0.001380,88.384181,0.002638,
1440,120,-0.036753,-4.877428,0.999999,0.000150,-0.000230,0.001716,-0.000162,0.001730,-0.000243,-85.282381,0.001873,
1730,560,-0.549644,-3.735262,0.999997,0.000205,-0.001358,0.002614,0.000033,0.002614,-0.001359,89.524467,0.002615,
740,310,0.360035,-4.376733,0.999998,0.000194,-0.001094,0.002477,0.000095,0.002480,-0.001097,88.474765,0.002485,
1050,630,0.149569,-3.876452,0.999998,0.000149,-0.001191,0.002204,-0.000571,0.002297,-0.001284,-80.705265,0.002303,
1640,50,-0.029795,-4.986547,0.999999,0.000129,-0.000119,0.001772,-0.000452,0.001875,-0.000222,-77.228299,0.002049,
850,1720,0.261869,-0.654035,0.999998,0.000164,-0.000960,0.002363,-0.000036,0.002364,-0.000960,-89.381847,0.002377,
1130,1740,0.049573,-0.491854,0.999998,0.000146,-0.000546,0.001811,0.000059,0.001813,-0.000548,88.570495,0.001860,
810,400,0.346403,-4.203027,0.999997,0.000190,-0.001128,0.002465,-0.000047,0.002465,-0.001129,-89.243873,0.002468,
1390,1080,-0.443510,-2.081027,0.999723,0.000000,-0.002914,0.005549,-0.002384,0.006175,-0.003539,-75.303178,0.006197,
1660,1100,-0.798422,-2.333101,0.999998,0.000178,-0.001101,0.002618,0.000248,0.002634,-0.001117,86.205344,0.002644,
940,910,0.587648,-2.882370,0.999998,0.000197,-0.001492,0.003203,0.000329,0.003226,-0.001515,86.008055,0.003228,
1690,1260,-0.696022,-1.912272,0.999998,0.000173,-0.001410,0.002735,0.000254,0.002750,-0.001425,86.505691,0.002751,
1000,190,0.073381,-4.749371,0.999999,0.000123,-0.000360,0.001824,0.000137,0.001832,-0.000369,86.429520,0.001938,
1710,400,-0.413844,-4.161234,0.999998,0.000165,-0.001227,0.002534,0.000057,0.002534,-0.001228,89.126273,0.002535,
1390,690,-0.127698,-3.778924,0.999998,0.000158,-0.001297,0.002191,0.000760,0.002350,-0.001455,78.224135,0.002372,
1290,610,-0.036590,-4.041619,0.999999,0.000138,-0.000695,0.001558,0.000331,0.001606,-0.000742,81.822483,0.001607,
590,1100,1.032444,-2.365466,0.999998,0.000173,-0.001018,0.002107,-0.000010,0.002107,-0.001018,-89.808354,0.002108,
1520,540,-0.259127,-3.969263,0.999998,0.000170,-0.001199,0.002441,0.000288,0.002463,-0.001222,85.501558,0.002463,
860,1430,0.416770,-1.371281,0.999997,0.000193,-0.001486,0.002743,0.000144,0.002748,-0.001491,88.050626,0.002751,
1750,1860,-0.270074,-0.393802,0.999998,0.000171,-0.001093,0.002460,0.000296,0.002484,-0.001117,85.271045,0.002489,
1730,510,-0.514416,-3.865554,0.999998,0.000174,-0.001320,0.002570,0.000041,0.002570,-0.001320,89.393081,0.002571,
1340,780,-0.085824,-3.705291,0.999998,0.000166,-0.001261,0.001769,0.001108,0.002131,-0.001623,71.910466,0.002226,
1130,1370,0.066999,-1.161506,0.999999,0.000138,-0.000888,0.001701,0.000725,0.001891,-0.001077,75.370971,0.001897,
1530,400,-0.216554,-4.288585,0.999998,0.000193,-0.000937,0.002240,0.000101,0.002243,-0.000941,88.178973,0.002253,
1240,450,-0.004407,-4.320496,0.999998,0.000167,-0.000643,0.001762,0.000031,0.001762,-0.000644,89.249794,0.001783,
1530,1770,-0.162849,-0.499462,0.999998,0.000148,-0.000746,0.002139,0.000055,0.002140,-0.000747,88.901646,0.002173,
1060,1430,0.137261,-1.139932,0.999999,0.000125,-0.001154,0.002138,0.000573,0.002235,-0.001250,80.402743,0.002240,
1830,670,-0.768893,-3.374038,0.999998,0.000166,-0.001273,0.002538,-0.000082,0.002540,-0.001275,-88.770319,0.002540,
1000,950,0.564975,-2.813647,0.999997,0.000187,-0.001435,0.003724,0.000035,0.003724,-0.001435,89.612743,0.003756,
1000,1740,0.126757,-0.534018,0.999998,0.000148,-0.000621,0.001979,-0.000014,0.001979,-0.000621,-89.691198,0.002024,
1190,1410,0.023254,-1.039554,0.999999,0.000133,-0.000625,0.001404,0.000286,0.001443,-0.000665,82.119519,0.001445,
660,310,0.455020,-4.312520,0.999998,0.000191,-0.001222,0.002546,0.000048,0.002547,-0.001222,89.276983,0.002547,
1550,1500,-0.303632,-1.137947,0.999998,0.000179,-0.001334,0.002518,-0.000260,0.002535,-0.001352,-86.153821,0.002537,
910,310,0.191486,-4.476213,0.999998,0.000179,-0.000808,0.002196,0.000025,0.002196,-0.000808,89.529942,0.002221,
1760,1470,-0.608662,-1.394352,0.999998,0.000192,-0.001350,0.002597,-0.000004,0.002597,-0.001350,-89.941810,0.002597,
740,700,0.652979,-3.367045,0.999997,0.000229,-0.001424,0.002716,0.000123,0.002720,-0.001428,88.303334,0.002721,
610,1330,0.845952,-1.821091,0.999999,0.000149,-0.001209,0.002467,-0.000104,0.002470,-0.001212,-88.381406,0.002470,
690,680,0.703499,-3.387158,0.999998,0.000194,-0.001338,0.002594,0.000113,0.002597,-0.001341,88.354879,0.002598,
1790,170,-0.279793,-4.679640,0.999998,0.000186,-0.001022,0.002568,-0.000472,0.002630,-0.001083,-82.633537,0.002643,
960,710,0.311835,-3.542383,0.999997,0.000217,-0.001696,0.002875,-0.000355,0.002902,-0.001723,-85.583860,0.002919,
1720,1070,-0.875876,-2.414850,0.999998,0.000185,-0.001074,0.002459,0.000088,0.002461,-0.001076,88.575720,0.002467,
1650,250,-0.231934,-4.565162,0.999998,0.000173,-0.000874,0.002339,-0.000203,0.002351,-0.000886,-86.400241,0.002375,
560,580,0.808480,-3.544923,0.999956,0.000000,-0.002534,0.002197,-0.000554,0.002261,-0.002598,-83.404582,0.002826,
1220,440,0.007393,-4.337330,0.999998,0.000161,-0.000614,0.001778,-0.000042,0.001778,-0.000615,-88.982476,0.001806,
1400,1100,-0.470292,-2.053916,0.999996,0.000235,-0.002047,0.004474,-0.002089,0.005086,-0.002658,-73.675863,0.005088,
1770,1530,-0.577355,-1.246527,0.999998,0.000166,-0.001309,0.002577,-0.000037,0.002577,-0.001310,-89.454862,0.002577,
970,1740,0.146673,-0.545276,0.999998,0.000177,-0.000778,0.002089,0.000022,0.002089,-0.000779,89.564166,0.002111,
1870,1250,-0.935351,-2.026095,0.999999,0.000126,-0.001149,0.002342,0.000080,0.002344,-0.001150,88.692322,0.002344,
1660,1080,-0.809564,-2.387005,0.999998,0.000168,-0.001059,0.002600,0.000182,0.002609,-0.001068,87.164895,0.002624,
1110,1740,0.059340,-0.497931,0.999998,0.000155,-0.000527,0.001848,0.000033,0.001849,-0.000528,89.211845,0.001904,
1080,70,0.012267,-4.961363,0.999999,0.000141,-0.000077,0.001561,0.000110,0.001569,-0.000084,86.176547,0.001765,
1430,500,-0.147993,-4.141131,0.999999,0.000123,-0.000975,0.002148,0.000315,0.002180,-0.001006,84.301087,0.002182,
1610,130,-0.099576,-4.837290,0.999998,0.000171,-0.000416,0.001991,-0.000380,0.002049,-0.000475,-81.247787,0.002145,
740,290,0.343484,-4.426326,0.999997,0.000215,-0.001076,0.002510,0.000141,0.002515,-0.001081,87.745244,0.002523,
700,130,0.190124,-4.795692,0.999998,0.000171,-0.000957,0.002389,0.000528,0.002470,-0.001038,81.248362,0.002480,
1710,380,-0.399641,-4.211154,0.999998,0.000167,-0.001192,0.002492,0.000014,0.002492,-0.001192,89.780451,0.002493,
950,220,0.113600,-4.681093,0.999998,0.000166,-0.000599,0.001976,0.000119,0.001981,-0.000604,87.357647,0.002031,
1390,670,-0.127083,-3.821120,0.999998,0.000150,-0.001212,0.002182,0.000721,0.002328,-0.001359,78.489008,0.002339,
840,190,0.159241,-4.709995,0.999998,0.000156,-0.000600,0.002148,0.000308,0.002182,-0.000634,83.692575,0.002246,
1390,970,-0.458291,-2.973157,0.999972,0.000000,-0.002215,0.005905,0.002167,0.006447,-0.002757,75.956869,0.006469,
580,1100,1.042084,-2.368276,0.999998,0.000171,-0.000990,0.002060,0.000011,0.002060,-0.000990,89.789496,0.002061,
1520,520,-0.250353,-4.016803,0.999998,0.000152,-0.001163,0.002375,0.000247,0.002392,-0.001180,86.024003,0.002392,
1340,760,-0.081800,-3.738300,0.999998,0.000170,-0.001174,0.001745,0.001046,0.002082,-0.001510,72.183933,0.002151,
1830,650,-0.753806,-3.426363,0.999998,0.000177,-0.001267,0.002579,-0.000047,0.002579,-0.001267,-89.303310,0.002579,
1160,1570,0.045559,-0.792994,0.999998,0.000144,-0.000698,0.001775,0.000170,0.001787,-0.000709,86.074088,0.001799,
1220,450,0.007968,-4.319562,0.999998,0.000162,-0.000620,0.001760,-0.000051,0.001761,-0.000621,-88.782450,0.001786,
1410,340,-0.097962,-4.478441,0.999998,0.000151,-0.000672,0.001927,0.000078,0.001929,-0.000675,88.287240,0.001958,
730,640,0.615349,-3.521625,0.999998,0.000185,-0.001369,0.002644,0.000053,0.002645,-0.001369,89.240586,0.002645,
910,290,0.181977,-4.520335,0.999998,0.000176,-0.000760,0.002192,0.000085,0.002195,-0.000763,88.347126,0.002228,
1530,1750,-0.171734,-0.542627,0.999998,0.000173,-0.000777,0.002143,0.000017,0.002143,-0.000778,89.666719,0.002170,
1000,1720,0.136124,-0.572314,0.999998,0.000147,-0.000658,0.002015,0.000029,0.002015,-0.000658,89.371232,0.002055,
1730,490,-0.501486,-3.915675,0.999998,0.000187,-0.001297,0.002569,0.000067,0.002570,-0.001298,89.000938,0.002570,
590,200,0.417511,-4.522755,0.999997,0.000213,-0.001060,0.002493,-0.000010,0.002493,-0.001060,-89.844609,0.002502,
1740,1470,-0.581803,-1.379558,0.999997,0.000186,-0.001349,0.002617,-0.000008,0.002617,-0.001349,-89.880708,0.002617,
1170,110,0.008772,-4.902168,0.999999,0.000148,-0.000121,0.001608,0.000040,0.001609,-0.000121,88.682253,0.001792,
1290,570,-0.036128,-4.105992,0.999999,0.000135,-0.000694,0.001640,0.000243,0.001665,-0.000719,84.130266,0.001670,
1050,610,0.146759,-3.920484,0.999998,0.000154,-0.001138,0.002162,-0.000527,0.002244,-0.001221,-81.138171,0.002247,
1200,1230,0.037384,-1.204342,0.999999,0.000146,-0.001180,0.000691,0.000257,0.000725,-0.001215,82.327059,0.001222,
1690,880,-0.777284,-2.898504,0.999998,0.000160,-0.001252,0.002656,-0.000318,0.002682,-0.001278,-85.378736,0.002683,
1440,100,-0.027873,-4.911400,0.999999,0.000151,-0.000164,0.001678,-0.000150,0.001690,-0.000176,-85.365919,0.001858,
580,1760,0.538388,-0.761835,0.999998,0.000187,-0.002781,0.002097,-0.000088,0.002098,-0.002782,-88.967987,0.002900,
740,680,0.635724,-3.422813,0.999997,0.000222,-0.001424,0.002689,0.000100,0.002691,-0.001427,88.614386,0.002693,
1130,1350,0.066124,-1.195370,0.999998,0.000147,-0.000915,0.001682,0.000789,0.001903,-0.001136,74.357377,0.001915,
770,1960,0.096007,-0.145006,0.999999,0.000130,-0.000411,0.002045,-0.000535,0.002156,-0.000523,-78.218614,0.002250,
1770,1510,-0.591979,-1.297209,0.999998,0.000163,-0.001305,0.002604,-0.000010,0.002604,-0.001305,-89.858474,0.002604,
1200,1360,0.017236,-1.101403,0.999999,0.000125,-0.000574,0.001156,0.000292,0.001204,-0.000622,80.668720,0.001204,
1660,1060,-0.815174,-2.436085,0.999998,0.000164,-0.001018,0.002529,0.000090,0.002531,-0.001021,88.546201,0.002547,
860,650,0.433299,-3.598253,0.999997,0.000193,-0.001534,0.002792,-0.000111,0.002795,-0.001537,-88.537808,0.002800,
1790,150,-0.246494,-4.732859,0.999998,0.000191,-0.000952,0.002547,-0.000533,0.002627,-0.001032,-81.532673,0.002647,
730,540,0.539166,-3.784397,0.999997,0.000190,-0.001316,0.002617,-0.000035,0.002617,-0.001316,-89.493287,0.002617,
1700,1070,-0.853368,-2.414104,0.999998,0.000153,-0.001061,0.002518,0.000094,0.002520,-0.001064,88.503436,0.002530,
1650,230,-0.215115,-4.613728,0.999998,0.000161,-0.000819,0.002284,-0.000228,0.002301,-0.000836,-85.820584,0.002329,
1430,480,-0.144038,-4.183898,0.999998,0.000159,-0.000916,0.002088,0.000266,0.002112,-0.000939,84.969905,0.002116,
1430,1760,-0.099557,-0.482307,0.999998,0.000171,-0.000648,0.001941,-0.000032,0.001942,-0.000648,-89.281761,0.001977,
1230,1740,0.001631,-0.481022,0.999998,0.000158,-0.000483,0.001760,-0.000001,0.001760,-0.000483,-89.974927,0.001818,
1610,110,-0.078847,-4.877738,0.999999,0.000149,-0.000357,0.001928,-0.000386,0.001991,-0.000420,-80.657805,0.002099,
610,1530,0.684071,-1.311978,0.999998,0.000165,-0.001280,0.002556,0.000022,0.002556,-0.001280,89.670620,0.002556,
560,570,0.808845,-3.556624,0.999949,0.000000,-0.002641,0.002219,-0.000522,0.002275,-0.002696,-83.939712,0.002901,
1330,890,-0.278890,-3.583140,0.999997,0.000000,-0.000714,0.000922,0.001024,0.001415,-0.001206,64.310537,0.001528,
720,290,0.364401,-4.412691,0.999998,0.000173,-0.001163,0.002502,0.000091,0.002504,-0.001165,88.576470,0.002506,
1530,560,-0.278612,-3.909140,0.999998,0.000157,-0.001310,0.002497,0.000285,0.002518,-0.001331,85.748332,0.002519,
1520,500,-0.243976,-4.063589,0.999998,0.000142,-0.001164,0.002349,0.000256,0.002367,-0.001183,85.846536,0.002367,
1750,260,-0.344746,-4.483330,0.999998,0.000228,-0.001149,0.002523,-0.000141,0.002529,-0.001155,-87.797570,0.002532,
1690,380,-0.376815,-4.226856,0.999998,0.000168,-0.001135,0.002462,0.000018,0.002462,-0.001135,89.709890,0.002465,
1830,630,-0.736704,-3.476964,0.999997,0.000205,-0.001278,0.002573,-0.000028,0.002573,-0.001279,-89.587227,0.002573,
1400,1570,-0.118952,-0.847286,0.999998,0.000151,-0.000859,0.002043,-0.000279,0.002070,-0.000886,-84.567734,0.002077,
580,200,0.430323,-4.511461,0.999998,0.000185,-0.000611,0.002502,-0.000222,0.002518,-0.000627,-85.941990,0.002622,
1530,1730,-0.181795,-0.582980,0.999998,0.000156,-0.000804,0.002198,-0.000003,0.002198,-0.000804,-89.945496,0.002224,
930,680,0.342273,-3.588578,0.999997,0.000202,-0.001613,0.002821,-0.000269,0.002837,-0.001630,-86.544636,0.002848,
1730,910,-0.850403,-2.810011,0.999998,0.000165,-0.001171,0.002528,-0.000226,0.002542,-0.001185,-86.519338,0.002544,
1340,740,-0.076043,-3.773208,0.999998,0.000179,-0.001116,0.001732,0.000959,0.002025,-0.001408,73.020756,0.002076,
820,190,0.171452,-4.704927,0.999998,0.000160,-0.000684,0.002203,0.000314,0.002237,-0.000718,83.872895,0.002284,
1890,1250,-0.958008,-2.039141,0.999999,0.000121,-0.001144,0.002296,0.000064,0.002297,-0.001145,88.927736,0.002297,
910,270,0.168715,-4.563636,0.999998,0.000171,-0.000683,0.002145,0.000128,0.002150,-0.000689,87.413931,0.002196,
840,1430,0.446577,-1.389299,0.999997,0.000199,-0.001490,0.002732,0.000115,0.002735,-0.001493,88.441921,0.002739,
1290,550,-0.036696,-4.139794,0.999999,0.000124,-0.000681,0.001692,0.000214,0.001711,-0.000700,84.891394,0.001720,
730,620,0.599065,-3.573724,0.999997,0.000209,-0.001367,0.002637,0.000029,0.002637,-0.001367,89.579800,0.002638,
1390,650,-0.125400,-3.864282,0.999998,0.000136,-0.001140,0.002100,0.000673,0.002234,-0.001275,78.714294,0.002242,
1460,690,-0.230728,-3.662679,0.999998,0.000207,-0.001571,0.002680,0.000558,0.002752,-0.001643,82.643563,0.002769,
1170,70,0.004122,-4.964179,0.999999,0.000132,-0.000062,0.001524,0.000053,0.001526,-0.000063,88.083708,0.001727,
950,260,0.136090,-4.600099,0.999997,0.000196,-0.000706,0.002034,0.000068,0.002035,-0.000708,88.569988,0.002067,
1100,450,0.084721,-4.285110,0.999998,0.000165,-0.000724,0.001912,-0.000178,0.001924,-0.000736,-86.144679,0.001941,
1690,860,-0.760023,-2.951475,0.999998,0.000170,-0.001296,0.002670,-0.000297,0.002692,-0.001318,-85.745082,0.002693,
790,1960,0.086606,-0.141855,0.999999,0.000128,-0.000432,0.001992,-0.000481,0.002084,-0.000523,-79.182935,0.002168,
1810,1600,-0.577806,-1.099165,0.999998,0.000168,-0.001276,0.002513,-0.000043,0.002514,-0.001277,-89.344241,0.002514,
1660,1040,-0.819359,-2.488378,0.999998,0.000168,-0.001003,0.002582,0.000053,0.002583,-0.001004,89.150517,0.002604,
740,660,0.619043,-3.475644,0.999997,0.000202,-0.001394,0.002671,0.000058,0.002672,-0.001395,89.176616,0.002673,
1650,210,-0.196418,-4.656948,0.999998,0.000164,-0.000765,0.002245,-0.000276,0.002270,-0.000790,-84.812359,0.002305,
1520,480,-0.235972,-4.111357,0.999998,0.000159,-0.001158,0.002351,0.000229,0.002366,-0.001173,86.279409,0.002366,
1730,760,-0.719614,-3.202822,0.999998,0.000180,-0.001398,0.002689,-0.000196,0.002699,-0.001407,-87.256046,0.002699,
640,590,0.694394,-3.584916,0.999997,0.000241,-0.001295,0.002562,0.000015,0.002562,-0.001295,89.775654,0.002562,
1350,890,-0.292239,-3.476740,0.999996,0.000245,-0.000592,0.001545,0.001260,0.002128,-0.001175,65.148877,0.002132,
1410,1760,-0.085409,-0.474536,0.999998,0.000208,-0.000606,0.001907,-0.000033,0.001908,-0.000607,-89.238595,0.001949,
1450,870,-0.395699,-3.127759,0.999998,0.000179,-0.001916,0.003446,0.000256,0.003458,-0.001928,87.275135,0.003466,
840,540,0.392719,-3.875403,0.999998,0.000172,-0.001353,0.002604,-0.000139,0.002609,-0.001358,-87.993382,0.002610,
1650,1920,-0.119554,-0.220009,0.999998,0.000160,-0.000534,0.002076,0.000414,0.002140,-0.000598,81.204400,0.002208,
1530,1710,-0.190993,-0.631658,0.999998,0.000162,-0.000813,0.002250,-0.000016,0.002250,-0.000813,-89.703672,0.002279,
1790,130,-0.215253,-4.780541,0.999998,0.000176,-0.000871,0.002499,-0.000620,0.002609,-0.000982,-79.898105,0.002636,
690,1480,0.618230,-1.378104,0.999998,0.000160,-0.001327,0.002597,-0.000003,0.002597,-0.001327,-89.955310,0.002597,
1380,1570,-0.102236,-0.833071,0.999999,0.000145,-0.000853,0.001988,-0.000296,0.002019,-0.000884,-84.106743,0.002024,
1440,910,-0.453845,-3.009198,0.999997,0.000214,-0.001681,0.003621,0.000308,0.003639,-0.001698,86.691082,0.003642,
1080,470,0.102784,-4.234502,0.999998,0.000162,-0.000835,0.001958,-0.000266,0.001983,-0.000860,-84.600145,0.001989,
1750,240,-0.322784,-4.532778,0.999998,0.000177,-0.001126,0.002486,-0.000169,0.002494,-0.001134,-87.322872,0.002497,
1200,1340,0.015841,-1.119533,0.999999,0.000137,-0.000563,0.001042,0.000353,0.001116,-0.000637,78.130698,0.001120,
950,990,0.672477,-2.635289,0.999998,0.000174,-0.000981,0.003143,0.000175,0.003150,-0.000988,87.578384,0.003222,
820,130,0.111965,-4.831967,0.999998,0.000181,-0.000451,0.002049,0.000420,0.002118,-0.000519,80.706450,0.002208,
1370,380,-0.081621,-4.415140,0.999999,0.000140,-0.000615,0.001917,0.000075,0.001919,-0.000617,88.314639,0.001959,
1830,610,-0.720720,-3.528604,0.999998,0.000175,-0.001290,0.002553,-0.000026,0.002553,-0.001291,-89.615209,0.002553,
1000,1700,0.139691,-0.615615,0.999998,0.000158,-0.000692,0.002101,0.000065,0.002102,-0.000693,88.672312,0.002142,
910,470,0.269735,-4.107650,0.999998,0.000165,-0.001131,0.002363,-0.000182,0.002373,-0.001141,-87.026309,0.002373,
750,1530,0.501921,-1.200209,0.999998,0.000191,-0.001306,0.002608,0.000066,0.002609,-0.001307,89.038912,0.002609,
570,970,1.055229,-2.637896,0.999996,0.000234,-0.000865,0.002065,-0.000058,0.002066,-0.000866,-88.866918,0.002075,
1730,930,-0.861919,-2.762025,0.999998,0.000162,-0.001140,0.002467,-0.000203,0.002478,-0.001152,-86.789884,0.002480,
1630,880,-0.700012,-2.916404,0.999998,0.000176,-0.001330,0.002814,-0.000344,0.002842,-0.001358,-85.292380,0.002843,
1210,1740,0.010240,-0.482346,0.999998,0.000175,-0.000478,0.001774,0.000032,0.001775,-0.000479,89.182005,0.001836,
1230,360,0.000374,-4.480915,0.999998,0.000167,-0.000550,0.001767,0.000015,0.001767,-0.000550,89.639909,0.001809,
570,200,0.439548,-4.497029,0.999895,0.001156,-0.000340,0.002522,-0.000375,0.002571,-0.000389,-82.661857,0.002771,
560,560,0.815224,-3.574704,0.999932,0.000000,-0.002665,0.002482,-0.000343,0.002505,-0.002687,-86.199950,0.003003,
1440,80,-0.021502,-4.943442,0.999999,0.000129,-0.000107,0.001636,-0.000148,0.001648,-0.000119,-85.164425,0.001838,
880,810,0.549107,-3.146469,0.999998,0.000173,-0.001631,0.003019,0.000201,0.003027,-0.001640,87.535094,0.003031,
960,1210,0.454670,-1.922035,0.999998,0.000207,-0.001847,0.003317,-0.000054,0.003317,-0.001847,-89.401574,0.003324,
1200,1670,0.017932,-0.606667,0.999998,0.000192,-0.000575,0.001794,0.000055,0.001795,-0.000577,88.669726,0.001833,
1700,530,-0.487392,-3.836488,0.999998,0.000183,-0.001323,0.002579,0.000073,0.002581,-0.001324,88.923363,0.002581,
990,1150,0.501161,-2.080553,0.999998,0.000182,-0.001680,0.003506,-0.000065,0.003507,-0.001681,-89.286058,0.003508,
600,680,0.820846,-3.326366,0.999998,0.000164,-0.001256,0.002525,0.000050,0.002525,-0.001257,89.243064,0.002525,
590,1760,0.527128,-0.752880,0.999998,0.000194,-0.001615,0.002362,-0.000046,0.002363,-0.001616,-89.343746,0.002415,
1770,1490,-0.607525,-1.351199,0.999997,0.000185,-0.001329,0.002606,-0.000005,0.002606,-0.001329,-89.924250,0.002606,
1690,320,-0.332929,-4.372498,0.999997,0.000186,-0.001098,0.002487,-0.000032,0.002487,-0.001099,-89.485704,0.002493,
1660,1020,-0.820371,-2.540186,0.999998,0.000153,-0.001018,0.002557,-0.000053,0.002558,-0.001019,-89.152266,0.002576,
1290,530,-0.035731,-4.173671,0.999999,0.000125,-0.000670,0.001725,0.000174,0.001737,-0.000683,85.853711,0.001750,
1050,590,0.144509,-3.961413,0.999998,0.000154,-0.001107,0.002145,-0.000495,0.002219,-0.001181,-81.524700,0.002220,
800,100,0.088642,-4.890499,0.999998,0.000156,-0.000463,0.002006,0.000478,0.002096,-0.000552,79.413588,0.002173,
1340,720,-0.073451,-3.809541,0.999999,0.000152,-0.001054,0.001745,0.000866,0.001991,-0.001300,74.125576,0.002022,
630,440,0.595077,-3.960184,0.999999,0.000153,-0.001242,0.002506,-0.000033,0.002506,-0.001243,-89.494732,0.002506,
1610,90,-0.063429,-4.914508,0.999999,0.000137,-0.000259,0.001848,-0.000378,0.001913,-0.000325,-80.118570,0.002048,
650,1930,0.225970,-0.254929,0.999998,0.000184,-0.000909,0.002629,-0.000593,0.002726,-0.001006,-80.730910,0.002757,
1390,630,-0.123350,-3.905864,0.999998,0.000142,-0.001090,0.002066,0.000627,0.002186,-0.001210,79.157965,0.002190,
700,520,0.564585,-3.812162,0.999998,0.000165,-0.001296,0.002569,-0.000034,0.002570,-0.001296,-89.490921,0.002570,
950,1640,0.206760,-0.774549,0.999998,0.000180,-0.000938,0.002238,0.000136,0.002244,-0.000944,87.550901,0.002253,
1790,1600,-0.552924,-1.082822,0.999998,0.000153,-0.001262,0.002530,-0.000043,0.002530,-0.001263,-89.352167,0.002530,
1330,1480,-0.065857,-0.967074,0.999999,0.000133,-0.000741,0.001771,-0.000338,0.001816,-0.000786,-82.471598,0.001821,
1770,1060,-0.931262,-2.442258,0.999998,0.000154,-0.001089,0.002373,0.000099,0.002375,-0.001092,88.369160,0.002378,
1790,110,-0.178073,-4.833533,0.999998,0.000166,-0.000770,0.002453,-0.000708,0.002601,-0.000919,-78.149291,0.002639,
1650,190,-0.177426,-4.702805,0.999998,0.000167,-0.000693,0.002223,-0.000337,0.002262,-0.000732,-83.489094,0.002308,
1450,850,-0.360801,-3.196549,0.999997,0.000195,-0.001973,0.003445,0.000361,0.003469,-0.001996,86.209058,0.003482,
840,1190,0.674028,-2.078317,0.999997,0.000212,-0.001395,0.002857,-0.000336,0.002884,-0.001421,-85.509301,0.002884,
940,1130,0.609695,-2.206934,0.999997,0.000190,-0.001346,0.003164,-0.000336,0.003189,-0.001371,-85.759408,0.003200,
950,240,0.126102,-4.639466,0.999998,0.000151,-0.000673,0.002037,0.000123,0.002043,-0.000679,87.399678,0.002081,
1200,70,0.002835,-4.963507,0.999999,0.000151,-0.000061,0.001525,0.000033,0.001525,-0.000062,88.796682,0.001727,
950,970,0.654324,-2.699078,0.999998,0.000174,-0.001094,0.003174,0.000260,0.003189,-0.001109,86.531158,0.003238,
1150,650,0.050235,-3.961048,0.999999,0.000144,-0.000750,0.001579,-0.000482,0.001674,-0.000846,-78.758353,0.001674,
1520,460,-0.229442,-4.158987,0.999998,0.000167,-0.001097,0.002324,0.000208,0.002337,-0.001109,86.537138,0.002338,
1390,960,-0.450535,-3.022018,0.999972,0.000000,-0.002008,0.005026,0.002331,0.005729,-0.002710,73.230444,0.005731,
1130,1330,0.067010,-1.227000,0.999999,0.000150,-0.000989,0.001648,0.000861,0.001904,-0.001245,73.433211,0.001934,
840,560,0.404550,-3.823097,0.999998,0.000176,-0.001365,0.002596,-0.000142,0.002601,-0.001370,-87.942822,0.002602,
910,1730,0.201276,-0.595938,0.999998,0.000185,-0.000825,0.002236,-0.000012,0.002236,-0.000825,-89.772262,0.002261,
1600,750,-0.513034,-3.314489,0.999997,0.000190,-0.001655,0.002954,-0.000070,0.002955,-0.001656,-89.131495,0.002962,
1880,1250,-0.946684,-2.032177,0.999999,0.000117,-0.001139,0.002318,0.000069,0.002319,-0.001141,88.852035,0.002319,
1150,380,0.044922,-4.434532,0.999998,0.000143,-0.000590,0.001813,-0.000084,0.001816,-0.000593,-88.009722,0.001852,
640,1850,0.363415,-0.473282,0.999997,0.000207,-0.001167,0.002574,-0.000181,0.002583,-0.001175,-87.233194,0.002587,
1140,1530,0.059973,-0.874714,0.999999,0.000134,-0.000721,0.001810,0.000270,0.001838,-0.000750,83.968435,0.001849,
1200,1320,0.015542,-1.141577,0.999999,0.000133,-0.000558,0.000938,0.000379,0.001028,-0.000648,76.576739,0.001040,
580,1460,0.776133,-1.513871,0.999998,0.000180,-0.001718,0.002441,-0.000074,0.002442,-0.001719,-88.974541,0.002509,
1830,590,-0.702977,-3.579151,0.999998,0.000173,-0.001277,0.002552,-0.000013,0.002552,-0.001277,-89.806484,0.002552,
700,1690,0.453240,-0.832479,0.999997,0.000186,-0.001222,0.002542,0.000008,0.002542,-0.001222,89.884962,0.002542,
930,1340,0.367145,-1.551691,0.999998,0.000194,-0.001713,0.002934,0.000222,0.002945,-0.001723,87.274927,0.002959,
750,1510,0.515744,-1.251974,0.999998,0.000180,-0.001333,0.002610,0.000064,0.002611,-0.001334,89.073751,0.002611,
1730,950,-0.872960,-2.711618,0.999998,0.000148,-0.001111,0.002520,-0.000213,0.002533,-0.001124,-86.652789,0.002538,
1660,530,-0.436442,-3.870926,0.999998,0.000147,-0.001300,0.002565,0.000097,0.002568,-0.001303,88.568950,0.002568,
560,550,0.795260,-3.613614,0.999909,0.000000,-0.002642,0.002975,-0.000155,0.002979,-0.002647,-88.420643,0.003265,
950,640,0.290127,-3.723076,0.999998,0.000174,-0.001469,0.002644,-0.000353,0.002674,-0.001499,-85.129267,0.002680,
1340,630,-0.074661,-3.965688,0.999998,0.000168,-0.000885,0.001744,0.000542,0.001851,-0.000992,78.788857,0.001853,
710,780,0.768437,-3.137976,0.999998,0.000176,-0.001329,0.002603,0.000222,0.002616,-0.001342,86.779680,0.002616,
590,970,1.036516,-2.643960,0.999998,0.000179,-0.001026,0.002090,-0.000008,0.002090,-0.001026,-89.859453,0.002090,
1010,190,0.070033,-4.750929,0.999998,0.000147,-0.000353,0.001813,0.000132,0.001821,-0.000361,86.525251,0.001928,
1660,1000,-0.815276,-2.591058,0.999998,0.000163,-0.001032,0.002513,-0.000115,0.002517,-0.001036,-88.144647,0.002530,
1850,700,-0.820641,-3.283915,0.999998,0.000160,-0.001271,0.002518,-0.000065,0.002519,-0.001272,-89.017940,0.002519,
1530,1740,-0.176399,-0.563371,0.999998,0.000158,-0.000793,0.002164,0.000003,0.002164,-0.000793,89.939943,0.002190,
1210,380,0.012237,-4.443648,0.999998,0.000155,-0.000552,0.001771,-0.000059,0.001773,-0.000554,-88.538691,0.001814,
950,1400,0.297597,-1.356878,0.999998,0.000181,-0.001536,0.002690,0.000353,0.002719,-0.001565,85.253954,0.002730,
1820,1410,-0.734981,-1.594021,0.999997,0.000189,-0.001290,0.002560,0.000053,0.002561,-0.001291,89.213944,0.002561,
1550,1860,-0.118120,-0.318446,0.999998,0.000175,-0.000506,0.002026,0.000241,0.002049,-0.000529,84.602823,0.002127,
1770,1470,-0.622806,-1.401425,0.999997,0.000202,-0.001336,0.002585,-0.000002,0.002585,-0.001336,-89.974945,0.002586,
1290,510,-0.037655,-4.207248,0.999999,0.000134,-0.000664,0.001739,0.000150,0.001748,-0.000673,86.435793,0.001764,
590,240,0.468164,-4.422427,0.999997,0.000222,-0.001371,0.002331,0.000137,0.002336,-0.001376,87.884176,0.002349,
1610,70,-0.043468,-4.951395,0.999999,0.000120,-0.000188,0.001848,-0.000405,0.001925,-0.000266,-79.149201,0.002087,
1790,90,-0.145767,-4.878737,0.999998,0.000165,-0.000585,0.002375,-0.000833,0.002593,-0.000803,-75.309834,0.002655,
1440,280,-0.098545,-4.584097,0.999998,0.000171,-0.000577,0.001947,-0.000018,0.001947,-0.000577,-89.594662,0.002001,
1050,570,0.143144,-4.006519,0.999999,0.000137,-0.001074,0.002130,-0.000455,0.002194,-0.001138,-82.066387,0.002194,
1780,1730,-0.441611,-0.743152,0.999998,0.000175,-0.001190,0.002523,0.000011,0.002523,-0.001190,89.832146,0.002524,
1390,830,-0.212589,-3.429717,0.999998,0.000161,-0.001782,0.002787,0.000924,0.002967,-0.001962,78.994063,0.003018,
1340,700,-0.073347,-3.844139,0.999999,0.000133,-0.000992,0.001740,0.000776,0.001945,-0.001197,75.198411,0.001962,
920,1130,0.636366,-2.217760,0.999998,0.000159,-0.001307,0.003055,-0.000371,0.003086,-0.001338,-85.178548,0.003095,
1650,170,-0.156223,-4.745918,0.999998,0.000140,-0.000621,0.002161,-0.000383,0.002213,-0.000673,-82.293069,0.002269,
1220,1430,0.006902,-1.003722,0.999999,0.000109,-0.000591,0.001407,0.000090,0.001411,-0.000596,87.416653,0.001417,
1160,190,0.019802,-4.771088,0.999998,0.000149,-0.000238,0.001665,0.000050,0.001666,-0.000240,88.501220,0.001801,
840,1270,0.585901,-1.847788,0.999998,0.000179,-0.001558,0.002939,-0.000183,0.002946,-0.001566,-87.671811,0.002948,
1770,760,-0.770978,-3.180839,0.999998,0.000176,-0.001294,0.002589,-0.000188,0.002598,-0.001303,-87.227201,0.002598,
700,500,0.550078,-3.864069,0.999998,0.000164,-0.001291,0.002568,-0.000045,0.002569,-0.001292,-89.339202,0.002569,
1520,440,-0.222294,-4.205406,0.999998,0.000162,-0.001022,0.002303,0.000153,0.002310,-0.001029,87.365273,0.002314,
1110,1360,0.084840,-1.208046,0.999998,0.000151,-0.001070,0.001862,0.000798,0.002065,-0.001273,75.718204,0.002084,
650,660,0.740017,-3.412386,0.999997,0.000206,-0.001294,0.002587,0.000093,0.002589,-0.001296,88.630057,0.002589,
1560,110,-0.062146,-4.883106,0.999999,0.000150,-0.000266,0.001860,-0.000307,0.001903,-0.000309,-81.932025,0.002043,
1200,1300,0.016765,-1.158200,0.999999,0.000139,-0.000574,0.000833,0.000433,0.000956,-0.000697,74.196152,0.000988,
1130,1310,0.069557,-1.258538,0.999998,0.000160,-0.001062,0.001632,0.000967,0.001943,-0.001373,72.155082,0.001997,
1410,720,-0.164756,-3.672563,0.999998,0.000152,-0.001509,0.002439,0.000782,0.002589,-0.001658,79.192707,0.002622,
1500,1570,-0.214885,-0.921502,0.999998,0.000173,-0.001075,0.002284,-0.000258,0.002304,-0.001094,-85.634666,0.002305,
890,1570,0.300202,-0.982739,0.999998,0.000170,-0.001196,0.002438,0.000172,0.002446,-0.001204,87.299551,0.002446,
1150,630,0.052057,-3.991869,0.999999,0.000145,-0.000720,0.001614,-0.000427,0.001690,-0.000796,-79.951588,0.001690,
710,140,0.195933,-4.777989,0.999998,0.000145,-0.000977,0.002384,0.000473,0.002449,-0.001042,82.144769,0.002458,
750,1490,0.529215,-1.306018,0.999998,0.000191,-0.001344,0.002635,0.000043,0.002636,-0.001344,89.387139,0.002636,
1890,1840,-0.459513,-0.573945,0.999997,0.000228,-0.001228,0.002414,0.000099,0.002417,-0.001231,88.449859,0.002417,
910,1340,0.402561,-1.576170,0.999997,0.000245,-0.001726,0.002936,0.000161,0.002941,-0.001732,88.027228,0.002957,
950,950,0.630347,-2.761548,0.999997,0.000179,-0.001238,0.003180,0.000314,0.003202,-0.001261,85.949974,0.003226,
1820,1270,-0.858162,-1.947976,0.999999,0.000133,-0.001239,0.002492,0.000176,0.002500,-0.001247,87.312469,0.002500,
1890,210,-0.451930,-4.477831,0.999997,0.000192,-0.001234,0.002449,-0.000078,0.002451,-0.001235,-88.794142,0.002451,
1730,970,-0.883450,-2.660229,0.999998,0.000143,-0.001087,0.002461,-0.000138,0.002466,-0.001093,-87.775029,0.002471,
1660,980,-0.811342,-2.640504,0.999998,0.000161,-0.001055,0.002574,-0.000159,0.002581,-0.001062,-87.493896,0.002595,
1010,210,0.080578,-4.714046,0.999998,0.000166,-0.000407,0.001868,0.000101,0.001873,-0.000411,87.467360,0.001968,
1870,700,-0.845623,-3.269552,0.999998,0.000180,-0.001234,0.002503,-0.000035,0.002503,-0.001234,-89.470372,0.002504,
580,970,1.046259,-2.641704,0.999998,0.000159,-0.000931,0.002076,-0.000037,0.002077,-0.000932,-89.294567,0.002080,
1390,30,-0.001181,-5.023002,0.999999,0.000000,-0.000016,0.001524,-0.000071,0.001527,-0.000019,-87.358075,0.001753,
1780,1710,-0.456467,-0.795442,0.999998,0.000164,-0.001187,0.002544,0.000003,0.002544,-0.001187,89.957132,0.002546,
1790,70,-0.101187,-4.929509,0.999999,0.000168,-0.000383,0.002423,-0.000975,0.002729,-0.000688,-72.605138,0.002838,
1770,1450,-0.637186,-1.454240,0.999997,0.000201,-0.001322,0.002599,0.000015,0.002599,-0.001322,89.778850,0.002599,
930,1400,0.328562,-1.380553,0.999998,0.000189,-0.001544,0.002746,0.000301,0.002767,-0.001565,86.003001,0.002775,
1290,490,-0.035950,-4.242726,0.999999,0.000134,-0.000650,0.001755,0.000110,0.001760,-0.000655,87.386281,0.001779,
1480,510,-0.201467,-4.076399,0.999999,0.000144,-0.001074,0.002290,0.000305,0.002317,-0.001101,84.864744,0.002318,
1400,440,-0.112253,-4.284714,0.999998,0.000158,-0.000823,0.002018,0.000212,0.002033,-0.000839,85.760563,0.002044,
1050,550,0.138278,-4.049571,0.999999,0.000138,-0.001056,0.002094,-0.000411,0.002147,-0.001109,-82.682044,0.002148,
1210,360,0.012971,-4.478594,0.999998,0.000171,-0.000536,0.001777,-0.000052,0.001778,-0.000537,-88.701744,0.001824,
1510,1740,-0.161922,-0.554097,0.999998,0.000181,-0.000810,0.002135,0.000008,0.002135,-0.000810,89.840408,0.002156,
1780,1410,-0.683257,-1.566051,0.999998,0.000186,-0.001315,0.002612,0.000041,0.002612,-0.001315,89.398573,0.002612,
1630,1860,-0.167662,-0.342139,0.999998,0.000167,-0.000648,0.002175,0.000304,0.002207,-0.000680,83.921952,0.002261,
1690,740,-0.642552,-3.279267,0.999998,0.000178,-0.001474,0.002762,-0.000178,0.002770,-0.001481,-87.596735,0.002772,
1650,370,-0.323035,-4.281144,0.999997,0.000179,-0.001150,0.002420,0.000005,0.002420,-0.001150,89.911890,0.002421,
1530,1500,-0.276475,-1.117261,0.999998,0.000179,-0.001298,0.002491,-0.000288,0.002512,-0.001320,-85.675399,0.002513,
1520,1290,-0.388315,-1.685987,0.999997,0.000179,-0.001812,0.003105,-0.000154,0.003110,-0.001817,-88.205393,0.003125,
1340,680,-0.074248,-3.877171,0.999998,0.000147,-0.000923,0.001751,0.000721,0.001933,-0.001105,75.833370,0.001939,
1660,1310,-0.602830,-1.755726,0.999998,0.000182,-0.001508,0.002814,0.000153,0.002820,-0.001513,87.973336,0.002822,
570,1380,0.855512,-1.726292,0.999982,0.000511,-0.001637,0.002573,0.000091,0.002575,-0.001639,88.763956,0.002607,
1400,400,-0.104494,-4.364906,0.999998,0.000147,-0.000758,0.001977,0.000173,0.001988,-0.000768,86.403468,0.002005,
1080,190,0.044379,-4.762189,0.999999,0.000137,-0.000293,0.001770,0.000082,0.001773,-0.000297,87.731749,0.001900,
700,480,0.535920,-3.916405,0.999998,0.000160,-0.001288,0.002565,-0.000060,0.002566,-0.001288,-89.107894,0.002566,
890,1530,0.319614,-1.082922,0.999998,0.000178,-0.001278,0.002503,0.000210,0.002514,-0.001290,86.836075,0.002515,
560,540,0.776328,-3.640144,0.999880,0.000000,-0.002485,0.003103,0.000051,0.003103,-0.002485,89.481471,0.003285,
750,1470,0.544931,-1.357702,0.999997,0.000188,-0.001348,0.002628,0.000031,0.002628,-0.001348,89.556759,0.002628,
1520,420,-0.213053,-4.249296,0.999998,0.000166,-0.000957,0.002249,0.000132,0.002254,-0.000963,87.650330,0.002262,
710,120,0.164743,-4.824394,0.999998,0.000140,-0.000892,0.002356,0.000549,0.002446,-0.000983,80.664321,0.002462,
1130,380,0.057820,-4.426990,0.999998,0.000154,-0.000640,0.001853,-0.000125,0.001859,-0.000646,-87.147983,0.001888,
1020,70,0.018321,-4.959284,0.999999,0.000149,-0.000116,0.001611,0.000165,0.001627,-0.000131,84.582709,0.001807,
950,930,0.603584,-2.826131,0.999998,0.000182,-0.001397,0.003227,0.000314,0.003248,-0.001418,86.132255,0.003257,
1480,1570,-0.195728,-0.907159,0.999998,0.000154,-0.001008,0.002225,-0.000250,0.002244,-0.001027,-85.609582,0.002247,
1200,1280,0.018188,-1.173038,0.999999,0.000144,-0.000616,0.000709,0.000468,0.000857,-0.000765,72.376904,0.000941,
580,240,0.480113,-4.410842,0.999997,0.000192,-0.002073,0.001851,0.000527,0.001921,-0.002142,82.478199,0.002356,
1660,960,-0.801437,-2.693074,0.999998,0.000157,-0.001097,0.002616,-0.000253,0.002633,-0.001114,-86.126908,0.002643,
1290,470,-0.035549,-4.277147,0.999999,0.000134,-0.000624,0.001791,0.000082,0.001794,-0.000627,88.052625,0.001820,
1010,230,0.084939,-4.676877,0.999998,0.000171,-0.000466,0.001919,0.000091,0.001922,-0.000470,87.811380,0.002004,
1540,1010,-0.707073,-2.569093,0.999998,0.000176,-0.000925,0.002906,-0.000092,0.002908,-0.000927,-88.628459,0.002971,
1790,490,-0.578053,-3.867750,0.999998,0.000178,-0.001295,0.002562,0.000054,0.002563,-0.001296,89.203474,0.002563,
1660,1550,-0.420750,-1.105022,0.999997,0.000168,-0.001275,0.002576,-0.000099,0.002579,-0.001278,-88.532777,0.002579,
1790,1200,-0.879413,-2.107735,0.999997,0.000178,-0.001212,0.002464,0.000209,0.002476,-0.001224,86.750215,0.002476,
710,820,0.804445,-3.033366,0.999998,0.000169,-0.001277,0.002605,0.000238,0.002620,-0.001292,86.503701,0.002620,
1700,1390,-0.589720,-1.562158,0.999998,0.000196,-0.001447,0.002711,0.000069,0.002713,-0.001449,89.056406,0.002715,
1730,1410,-0.615390,-1.530213,0.999998,0.000179,-0.001382,0.002660,0.000051,0.002660,-0.001383,89.277075,0.002661,
1760,1410,-0.656069,-1.551116,0.999997,0.000203,-0.001347,0.002628,0.000043,0.002629,-0.001348,89.379555,0.002629,
760,1590,0.450197,-1.036804,0.999997,0.000194,-0.001257,0.002565,0.000067,0.002566,-0.001258,88.993415,0.002566,
1520,1670,-0.201293,-0.712649,0.999998,0.000151,-0.000897,0.002194,-0.000100,0.002197,-0.000901,-88.154801,0.002209,
860,870,0.650743,-2.955458,0.999998,0.000169,-0.001422,0.002915,0.000341,0.002942,-0.001449,85.531102,0.002942,
1630,1840,-0.186795,-0.387160,0.999998,0.000171,-0.000700,0.002225,0.000284,0.002252,-0.000727,84.509138,0.002299,
1660,1290,-0.622602,-1.812463,0.999998,0.000173,-0.001499,0.002828,0.000199,0.002837,-0.001508,87.370322,0.002839,
950,1680,0.190224,-0.685906,0.999998,0.000167,-0.000913,0.002169,0.000082,0.002171,-0.000915,88.472945,0.002180,
1420,1260,-0.227536,-1.592103,0.999998,0.000171,-0.001879,0.002921,-0.000769,0.003041,-0.001999,-81.112765,0.003091,
1600,1980,-0.048333,-0.096123,0.999999,0.000135,-0.000239,0.001809,0.000408,0.001888,-0.000317,79.125464,0.002022,
1370,1650,-0.083977,-0.671910,0.999998,0.000150,-0.000670,0.001924,-0.000132,0.001931,-0.000677,-87.087904,0.001959,
1770,1430,-0.654321,-1.506022,0.999998,0.000188,-0.001325,0.002621,0.000033,0.002621,-0.001325,89.515290,0.002621,
1150,610,0.052933,-4.024710,0.999999,0.000152,-0.000720,0.001651,-0.000380,0.001710,-0.000780,-81.124561,0.001713,
1430,620,-0.169103,-3.878106,0.999998,0.000181,-0.001248,0.002281,0.000532,0.002360,-0.001327,81.610996,0.002366,
560,530,0.768192,-3.673709,0.999837,0.000000,-0.002265,0.002987,-0.000022,0.002987,-0.002265,-89.756968,0.003117,
1500,1290,-0.351282,-1.658661,0.999997,0.000178,-0.001834,0.003096,-0.000267,0.003110,-0.001849,-86.909026,0.003129,
1800,1270,-0.832955,-1.938316,0.999998,0.000142,-0.001262,0.002529,0.000211,0.002541,-0.001274,86.827066,0.002541,
740,640,0.602848,-3.529315,0.999998,0.000186,-0.001384,0.002653,0.000057,0.002654,-0.001385,89.192050,0.002655,
650,1400,0.734101,-1.615022,0.999998,0.000177,-0.001263,0.002597,-0.000075,0.002598,-0.001265,-88.894723,0.002599,
1650,1630,-0.359407,-0.896093,0.999998,0.000171,-0.001165,0.002483,-0.000076,0.002484,-0.001166,-88.802870,0.002486,
800,1990,0.050075,-0.083020,0.999998,0.000171,-0.000250,0.001880,-0.000499,0.001991,-0.000361,-77.450194,0.002121,
880,880,0.634940,-2.936212,0.999998,0.000178,-0.001448,0.002969,0.000372,0.003000,-0.001479,85.219424,0.003001,
1130,1290,0.073701,-1.293395,0.999998,0.000184,-0.001118,0.001651,0.001048,0.002003,-0.001469,71.443107,0.002075,
1050,530,0.137225,-4.091478,0.999999,0.000139,-0.001022,0.002109,-0.000359,0.002149,-0.001063,-83.540407,0.002149,
1550,1480,-0.312763,-1.187846,0.999998,0.000166,-0.001343,0.002547,-0.000261,0.002564,-0.001361,-86.180190,0.002566,
1540,170,-0.096920,-4.771785,0.999998,0.000160,-0.000412,0.001939,-0.000238,0.001963,-0.000435,-84.286019,0.002061,
700,460,0.522579,-3.966434,0.999997,0.000185,-0.001279,0.002519,-0.000059,0.002520,-0.001280,-89.110345,0.002520,
1600,450,-0.314543,-4.121179,0.999999,0.000157,-0.001165,0.002444,0.000125,0.002448,-0.001169,88.012449,0.002449,
990,1130,0.536012,-2.149958,0.999998,0.000189,-0.001556,0.003537,-0.000101,0.003539,-0.001558,-88.858992,0.003547,
1690,300,-0.316821,-4.423679,0.999998,0.000166,-0.001093,0.002443,-0.000089,0.002445,-0.001095,-88.558825,0.002449,
1340,660,-0.072691,-3.912295,0.999999,0.000157,-0.000897,0.001770,0.000646,0.001918,-0.001046,77.083612,0.001921,
750,80,0.084007,-4.922263,0.999999,0.000137,-0.000312,0.001945,0.000613,0.002100,-0.000468,75.742087,0.002205,
760,150,0.172146,-4.773222,0.999998,0.000140,-0.000652,0.002254,0.000490,0.002335,-0.000732,80.681141,0.002388,
800,120,0.111665,-4.848071,0.999999,0.000147,-0.000547,0.002078,0.000443,0.002151,-0.000620,80.668141,0.002214,
600,660,0.803495,-3.375016,0.999998,0.000170,-0.001269,0.002522,0.000045,0.002523,-0.001269,89.322972,0.002523,
1170,1740,0.030168,-0.485772,0.999998,0.000167,-0.000442,0.001789,0.000008,0.001789,-0.000442,89.787463,0.001864,
1660,940,-0.788642,-2.745730,0.999998,0.000154,-0.001159,0.002611,-0.000246,0.002627,-0.001176,-86.277983,0.002632,
1290,450,-0.034540,-4.313534,0.999999,0.000143,-0.000604,0.001774,0.000061,0.001776,-0.000605,88.541297,0.001805,
1050,760,0.188773,-3.562712,0.999998,0.000146,-0.001723,0.002675,-0.000828,0.002826,-0.001874,-79.683222,0.002876,
1520,400,-0.207618,-4.295433,0.999998,0.000179,-0.000921,0.002225,0.000113,0.002229,-0.000925,87.941185,0.002240,
750,1450,0.560219,-1.411490,0.999998,0.000189,-0.001365,0.002654,0.000007,0.002654,-0.001365,89.901342,0.002654,
1790,510,-0.591908,-3.816110,0.999998,0.000173,-0.001304,0.002572,0.000041,0.002573,-0.001305,89.389097,0.002573,
1200,1260,0.021350,-1.186330,0.999999,0.000153,-0.000740,0.000627,0.000433,0.000752,-0.000866,73.804771,0.000941,
1010,250,0.096153,-4.637033,0.999998,0.000151,-0.000507,0.001937,0.000095,0.001941,-0.000510,87.784061,0.002012,
1770,1200,-0.855859,-2.100311,0.999999,0.000152,-0.001216,0.002483,0.000243,0.002499,-0.001232,86.263386,0.002499,
750,740,0.676722,-3.265342,0.999998,0.000205,-0.001406,0.002702,0.000194,0.002711,-0.001415,87.295431,0.002712,
950,1150,0.565212,-2.133640,0.999998,0.000193,-0.001514,0.003284,-0.000283,0.003300,-0.001531,-86.634310,0.003303,
660,1240,0.864633,-2.013408,0.999998,0.000152,-0.001239,0.002467,-0.000208,0.002479,-0.001251,-86.804502,0.002479,
720,770,0.746376,-3.168853,0.999998,0.000162,-0.001363,0.002646,0.000214,0.002657,-0.001374,86.958890,0.002658,
1610,1400,-0.447760,-1.462175,0.999997,0.000185,-0.001535,0.002787,-0.000085,0.002789,-0.001536,-88.880258,0.002794,
1380,2020,-0.004610,-0.023271,0.999999,0.000000,-0.000042,0.001528,0.000095,0.001533,-0.000047,86.553517,0.001744,
760,1810,0.279998,-0.491081,0.999998,0.000178,-0.000959,0.002441,-0.000233,0.002457,-0.000975,-86.100786,0.002474,
1130,1480,0.067979,-0.969396,0.999998,0.000156,-0.000756,0.001774,0.000366,0.001826,-0.000808,81.931137,0.001830,
1500,1670,-0.182535,-0.700120,0.999998,0.000160,-0.000932,0.002178,-0.000135,0.002184,-0.000937,-87.526868,0.002192,
1420,1220,-0.275524,-1.715136,0.999998,0.000173,-0.001948,0.003101,-0.000658,0.003186,-0.002032,-82.699663,0.003226,
1730,1390,-0.631620,-1.582644,0.999997,0.000193,-0.001378,0.002657,0.000090,0.002659,-0.001380,88.717240,0.002659,
560,520,0.755556,-3.700820,0.999854,0.000000,-0.002309,0.002643,-0.000278,0.002659,-0.002325,-86.799492,0.002897,
1460,1310,-0.261442,-1.532000,0.999998,0.000161,-0.001791,0.002922,-0.000548,0.002985,-0.001854,-83.458963,0.003014,
1710,740,-0.672604,-3.267487,0.999998,0.000175,-0.001416,0.002708,-0.000190,0.002717,-0.001424,-87.369186,0.002718,
1010,460,0.161730,-4.208469,0.999998,0.000168,-0.000961,0.002147,-0.000251,0.002168,-0.000981,-85.406916,0.002171,
980,1190,0.447903,-1.959537,0.999997,0.000198,-0.001850,0.003378,-0.000013,0.003378,-0.001850,-89.859755,0.003383,
1030,1860,0.064262,-0.293833,0.999998,0.000212,-0.000428,0.001828,-0.000093,0.001832,-0.000432,-87.641358,0.001915,
1370,1610,-0.089238,-0.747732,0.999998,0.000170,-0.000762,0.001902,-0.000178,0.001914,-0.000773,-86.201625,0.001926,
1530,1690,-0.201173,-0.675424,0.999998,0.000165,-0.000847,0.002184,-0.000038,0.002184,-0.000847,-89.280924,0.002202,
1880,1480,-0.756037,-1.461763,0.999997,0.000187,-0.001283,0.002572,0.000001,0.002572,-0.001283,89.982934,0.002572,
880,860,0.610323,-2.994929,0.999998,0.000171,-0.001550,0.003004,0.000330,0.003028,-0.001574,85.878592,0.003028,
1770,1410,-0.669596,-1.557420,0.999998,0.000196,-0.001327,0.002622,0.000037,0.002622,-0.001328,89.463740,0.002622,
1680,1550,-0.445283,-1.122242,0.999997,0.000184,-0.001278,0.002576,-0.000084,0.002578,-0.001280,-88.754435,0.002578,
1580,870,-0.616656,-2.967149,0.999998,0.000178,-0.001481,0.002986,-0.000329,0.003010,-0.001505,-85.815325,0.003010,
820,1130,0.758307,-2.252207,0.999998,0.000173,-0.001165,0.002686,-0.000317,0.002712,-0.001190,-85.321241,0.002719,
1550,1460,-0.321777,-1.238121,0.999998,0.000168,-0.001395,0.002605,-0.000258,0.002622,-0.001411,-86.322379,0.002625,
950,1660,0.198704,-0.730433,0.999998,0.000143,-0.000934,0.002204,0.000093,0.002207,-0.000937,88.300304,0.002216,
1630,1470,-0.428191,-1.289111,0.999997,0.000192,-0.001422,0.002674,-0.000115,0.002677,-0.001425,-88.392133,0.002679,
1340,860,-0.193425,-3.567710,0.999997,0.000209,-0.001002,0.001397,0.000913,0.001705,-0.001310,71.361764,0.001785,
1800,130,-0.224255,-4.776896,0.999998,0.000177,-0.000874,0.002535,-0.000635,0.002649,-0.000988,-79.783923,0.002678,
1130,1270,0.081827,-1.325653,0.999998,0.000169,-0.001182,0.001660,0.001105,0.002039,-0.001561,71.059435,0.002133,
1150,590,0.051443,-4.056773,0.999999,0.000154,-0.000728,0.001686,-0.000357,0.001738,-0.000780,-81.755046,0.001741,
1430,520,-0.151415,-4.097327,0.999998,0.000153,-0.001026,0.002157,0.000348,0.002195,-0.001064,83.832252,0.002195,
1520,990,-0.677055,-2.635595,0.999998,0.000170,-0.001002,0.003130,-0.000196,0.003139,-0.001011,-87.289022,0.003205,
1600,1960,-0.062443,-0.133875,0.999999,0.000145,-0.000318,0.001867,0.000372,0.001929,-0.000380,80.599634,0.002044,
630,1400,0.759989,-1.628830,0.999998,0.000168,-0.001290,0.002562,-0.000058,0.002563,-0.001291,-89.138406,0.002563,
700,440,0.509014,-4.016165,0.999998,0.000185,-0.001254,0.002534,-0.000035,0.002534,-0.001254,-89.463154,0.002534,
1610,1240,-0.598161,-1.926540,0.999998,0.000170,-0.001556,0.002973,0.000241,0.002986,-0.001568,86.957260,0.002988,
570,240,0.500707,-4.393160,0.999387,0.002796,-0.002477,0.001289,0.000874,0.001482,-0.002670,77.556115,0.002676,
1150,1740,0.038426,-0.488128,0.999998,0.000153,-0.000513,0.001802,0.000019,0.001802,-0.000513,89.537623,0.001857,
1050,510,0.133884,-4.133009,0.999998,0.000148,-0.000978,0.002107,-0.000288,0.002134,-0.001005,-84.708152,0.002135,
1790,530,-0.606510,-3.765615,0.999998,0.000180,-0.001298,0.002546,0.000023,0.002546,-0.001298,89.651619,0.002546,
690,820,0.830234,-3.025974,0.999999,0.000140,-0.001290,0.002543,0.000226,0.002556,-0.001304,86.641615,0.002556,
1010,690,0.218530,-3.673187,0.999998,0.000172,-0.001565,0.002631,-0.000592,0.002713,-0.001647,-82.122298,0.002734,
1300,190,-0.018008,-4.771561,0.999999,0.000165,-0.000268,0.001681,-0.000041,0.001682,-0.000269,-88.783466,0.001807,
1200,1240,0.031158,-1.197687,0.999998,0.000160,-0.000982,0.000622,0.000354,0.000696,-0.001056,78.099097,0.001074,
750,1430,0.575044,-1.463278,0.999997,0.000192,-0.001398,0.002693,-0.000009,0.002693,-0.001398,-89.872185,0.002694,
1020,750,0.234254,-3.526832,0.999998,0.000168,-0.001760,0.002835,-0.000665,0.002929,-0.001855,-81.927738,0.002963,
1750,1200,-0.831764,-2.093891,0.999999,0.000142,-0.001247,0.002509,0.000255,0.002526,-0.001264,86.134740,0.002526,
1480,1670,-0.163641,-0.688050,0.999998,0.000168,-0.000887,0.002145,-0.000138,0.002152,-0.000894,-87.392454,0.002162,
1730,1370,-0.649175,-1.636938,0.999998,0.000202,-0.001402,0.002686,0.000104,0.002688,-0.001404,88.539176,0.002689,
1660,920,-0.775093,-2.798366,0.999998,0.000153,-0.001237,0.002677,-0.000295,0.002699,-0.001259,-85.710635,0.002701,
930,1360,0.352465,-1.494049,0.999998,0.000205,-0.001670,0.002891,0.000264,0.002906,-0.001685,86.697038,0.002918,
950,910,0.571836,-2.890079,0.999998,0.000186,-0.001522,0.003277,0.000300,0.003295,-0.001541,86.441038,0.003297,
1130,1460,0.067247,-1.004235,0.999998,0.000153,-0.000779,0.001755,0.000414,0.001821,-0.000845,80.952804,0.001823,
760,170,0.198469,-4.725556,0.999998,0.000163,-0.000741,0.002304,0.000443,0.002367,-0.000804,81.891362,0.002407,
760,70,0.067114,-4.942872,0.999999,0.000147,-0.000254,0.001920,0.000581,0.002065,-0.000399,75.941833,0.002191,
1290,430,-0.034092,-4.347760,0.999999,0.000141,-0.000583,0.001771,0.000066,0.001773,-0.000585,88.383785,0.001807,
1520,820,-0.451404,-3.177080,0.999997,0.000197,-0.001829,0.003248,-0.000052,0.003249,-0.001830,-89.412282,0.003257,
880,930,0.691798,-2.789696,0.999998,0.000167,-0.001211,0.002853,0.000366,0.002886,-0.001244,84.897526,0.002895,
1410,210,-0.060033,-4.723690,0.999998,0.000185,-0.000442,0.001792,-0.000062,0.001794,-0.000444,-88.404624,0.001869,
1610,1380,-0.462586,-1.518029,0.999997,0.000207,-0.001535,0.002824,-0.000061,0.002825,-0.001536,-89.196851,0.002829,
1360,360,-0.071408,-4.456782,0.999998,0.000156,-0.000621,0.001880,0.000076,0.001882,-0.000623,88.262325,0.001917,
1890,1480,-0.768770,-1.469160,0.999998,0.000173,-0.001284,0.002584,0.000016,0.002584,-0.001284,89.760500,0.002584,
960,1190,0.484987,-1.988427,0.999997,0.000215,-0.001774,0.003328,-0.000130,0.003331,-0.001778,-88.536487,0.003333,
1010,580,0.188000,-3.942450,0.999999,0.000156,-0.001211,0.002291,-0.000460,0.002350,-0.001271,-82.642977,0.002353,
1770,1390,-0.686564,-1.611829,0.999998,0.000206,-0.001333,0.002627,0.000077,0.002629,-0.001335,88.882441,0.002629,
1530,1480,-0.284814,-1.168274,0.999998,0.000210,-0.001347,0.002515,-0.000293,0.002537,-0.001370,-85.681208,0.002540,
890,1440,0.365956,-1.316703,0.999997,0.000197,-0.001470,0.002643,0.000214,0.002654,-0.001481,87.035180,0.002660,
1570,1760,-0.196330,-0.537959,0.999997,0.000198,-0.000841,0.002230,0.000077,0.002232,-0.000843,88.565119,0.002254,
1380,1130,-0.402939,-1.814542,0.999998,0.000000,-0.000891,0.003225,-0.001961,0.004009,-0.001676,-68.193763,0.004027,
1010,670,0.211550,-3.724230,0.999998,0.000165,-0.001474,0.002550,-0.000571,0.002629,-0.001553,-82.074825,0.002644,
800,140,0.131161,-4.806745,0.999998,0.000155,-0.000634,0.002126,0.000400,0.002183,-0.000691,81.926467,0.002231,
1320,1620,-0.053936,-0.707699,0.999998,0.000163,-0.000666,0.001831,-0.000167,0.001842,-0.000677,-86.182040,0.001864,
1120,1670,0.064716,-0.625636,0.999998,0.000168,-0.000645,0.001878,0.000109,0.001883,-0.000650,87.538474,0.001913,
870,1840,0.161492,-0.373636,0.999998,0.000155,-0.000727,0.002143,-0.000215,0.002159,-0.000743,-85.739035,0.002193,
1530,1670,-0.210153,-0.717829,0.999998,0.000150,-0.000881,0.002205,-0.000065,0.002207,-0.000882,-88.787971,0.002221,
1460,1290,-0.276978,-1.592082,0.999997,0.000194,-0.001878,0.003015,-0.000511,0.003068,-0.001931,-84.096261,0.003102,
810,360,0.319965,-4.302547,0.999998,0.000164,-0.001127,0.002445,-0.000018,0.002445,-0.001127,-89.709252,0.002447,
680,1670,0.493011,-0.899736,0.999998,0.000170,-0.001226,0.002536,0.000026,0.002536,-0.001226,89.606312,0.002537,
1630,1430,-0.455151,-1.397248,0.999997,0.000197,-0.001462,0.002714,-0.000097,0.002717,-0.001464,-88.666864,0.002719,
800,1130,0.782424,-2.255319,0.999998,0.000205,-0.001176,0.002647,-0.000285,0.002668,-0.001197,-85.755652,0.002673,
740,620,0.584132,-3.580802,0.999997,0.000193,-0.001381,0.002648,0.000019,0.002648,-0.001381,89.734658,0.002649,
730,700,0.666728,-3.360625,0.999997,0.000209,-0.001421,0.002700,0.000116,0.002703,-0.001424,88.385018,0.002704,
1150,570,0.053015,-4.090551,0.999999,0.000151,-0.000754,0.001728,-0.000327,0.001770,-0.000796,-82.625399,0.001773,
1290,410,-0.034170,-4.384587,0.999998,0.000145,-0.000559,0.001791,0.000064,0.001792,-0.000560,88.433990,0.001834,
1520,840,-0.477897,-3.113527,0.999997,0.000195,-0.001796,0.003265,-0.000124,0.003268,-0.001799,-88.593127,0.003274,
1570,1480,-0.339489,-1.207137,0.999998,0.000166,-0.001373,0.002580,-0.000230,0.002594,-0.001386,-86.685183,0.002596,
840,1000,0.779521,-2.592001,0.999998,0.000194,-0.000992,0.002626,0.000118,0.002630,-0.000996,88.141494,0.002656,
1450,830,-0.328992,-3.265069,0.999998,0.000180,-0.001975,0.003299,0.000424,0.003333,-0.002009,85.429876,0.003356,
700,420,0.493770,-4.067706,0.999998,0.000173,-0.001253,0.002535,-0.000025,0.002535,-0.001253,-89.619560,0.002535,
1650,60,-0.040323,-4.968006,0.999998,0.000162,-0.000198,0.001837,-0.000480,0.001944,-0.000305,-77.377579,0.002091,
1280,190,-0.013323,-4.772150,0.999999,0.000131,-0.000244,0.001650,-0.000020,0.001651,-0.000244,-89.383870,0.001782,
950,870,0.509957,-3.021804,0.999998,0.000187,-0.001711,0.003285,0.000163,0.003290,-0.001716,88.129382,0.003291,
650,320,0.475837,-4.280369,0.999998,0.000202,-0.001225,0.002541,0.000028,0.002541,-0.001226,89.581345,0.002542,
560,510,0.755709,-3.734483,0.999897,0.000000,-0.002512,0.002124,-0.000462,0.002169,-0.002557,-84.362260,0.002756,
1880,1760,-0.534508,-0.758748,0.999998,0.000211,-0.001205,0.002448,-0.000015,0.002448,-0.001205,-89.758063,0.002448,
1790,550,-0.621742,-3.713066,0.999998,0.000184,-0.001291,0.002576,0.000010,0.002576,-0.001291,89.854397,0.002576,
1200,820,0.034704,-3.838449,0.999998,0.000166,-0.001081,0.000651,-0.000314,0.000707,-0.001136,-80.030235,0.001147,
1080,450,0.099778,-4.274316,0.999999,0.000153,-0.000817,0.001956,-0.000241,0.001977,-0.000838,-85.061062,0.001984,
1660,900,-0.755892,-2.852526,0.999999,0.000145,-0.001271,0.002688,-0.000314,0.002712,-0.001296,-85.496637,0.002713,
990,600,0.219429,-3.871355,0.999998,0.000171,-0.001294,0.002437,-0.000434,0.002486,-0.001344,-83.457893,0.002489,
1830,570,-0.688047,-3.630679,0.999998,0.000173,-0.001258,0.002573,0.000013,0.002573,-0.001258,89.808278,0.002573,
690,720,0.739726,-3.283410,0.999998,0.000170,-0.001327,0.002606,0.000148,0.002612,-0.001332,87.850248,0.002612,
1590,1160,-0.663851,-2.152181,0.999998,0.000196,-0.001343,0.002958,0.000366,0.002989,-0.001374,85.176361,0.002992,
920,930,0.642702,-2.805650,0.999998,0.000190,-0.001256,0.003025,0.000351,0.003053,-0.001285,85.349469,0.003066,
990,1110,0.571686,-2.223276,0.999997,0.000195,-0.001424,0.003612,-0.000130,0.003616,-0.001427,-88.517680,0.003642,
600,640,0.784999,-3.425354,0.999998,0.000192,-0.001259,0.002540,0.000032,0.002541,-0.001260,89.515694,0.002541,
780,1430,0.533034,-1.440565,0.999997,0.000197,-0.001415,0.002720,0.000023,0.002721,-0.001416,89.687133,0.002721,
780,150,0.158028,-4.778684,0.999998,0.000167,-0.000733,0.002208,0.000434,0.002271,-0.000795,81.786695,0.002305,
1600,1940,-0.081444,-0.172288,0.999999,0.000150,-0.000408,0.001937,0.000364,0.001992,-0.000464,81.372162,0.002085,
590,1660,0.612021,-0.999817,0.999998,0.000165,-0.001597,0.002571,0.000000,0.002571,-0.001597,89.994903,0.002596,
1590,1740,-0.228203,-0.594016,0.999998,0.000140,-0.000950,0.002271,0.000025,0.002271,-0.000950,89.549263,0.002281,
1140,1510,0.060511,-0.911292,0.999999,0.000125,-0.000732,0.001782,0.000281,0.001813,-0.000763,83.696075,0.001820,
1410,190,-0.054246,-4.758751,0.999998,0.000209,-0.000429,0.001777,-0.000074,0.001780,-0.000431,-88.087326,0.001857,
880,1990,0.034401,-0.079005,0.999999,0.000127,-0.000242,0.001756,-0.000357,0.001818,-0.000303,-80.179767,0.001948,
1150,1220,0.105026,-1.336854,0.999998,0.000153,-0.001111,0.001139,0.000775,0.001380,-0.001352,72.720568,0.001577,
590,1770,0.516824,-0.727696,0.999997,0.000186,-0.001552,0.002514,0.000015,0.002514,-0.001552,89.782229,0.002537,
1380,1120,-0.417081,-1.853752,0.999996,0.000000,-0.000956,0.003635,-0.002152,0.004486,-0.001807,-68.424394,0.004514,
1770,1590,-0.534790,-1.093292,0.999998,0.000175,-0.001274,0.002531,-0.000063,0.002532,-0.001275,-89.046620,0.002532,
1010,560,0.185247,-3.987295,0.999999,0.000148,-0.001136,0.002258,-0.000398,0.002304,-0.001182,-83.398816,0.002304,
930,600,0.301117,-3.805351,0.999998,0.000156,-0.001405,0.002588,-0.000304,0.002611,-0.001428,-85.678208,0.002615,
1010,650,0.205058,-3.774600,0.999998,0.000166,-0.001385,0.002471,-0.000538,0.002545,-0.001458,-82.210149,0.002554,
800,160,0.155892,-4.763413,0.999998,0.000154,-0.000705,0.002169,0.000393,0.002222,-0.000758,82.359166,0.002259,
1320,1600,-0.055117,-0.745177,0.999999,0.000156,-0.000700,0.001827,-0.000162,0.001838,-0.000710,-86.339666,0.001853,
1490,1860,-0.087447,-0.304248,0.999998,0.000158,-0.000515,0.001898,0.000153,0.001908,-0.000525,86.397072,0.001971,
570,1570,0.709782,-1.239704,0.999872,0.001406,-0.002142,0.002090,0.000151,0.002096,-0.002147,87.954061,0.002450,
1680,1810,-0.257427,-0.478145,0.999998,0.000176,-0.001001,0.002390,0.000201,0.002402,-0.001013,86.614978,0.002411,
1800,110,-0.186001,-4.829503,0.999998,0.000176,-0.000753,0.002508,-0.000735,0.002666,-0.000911,-77.869611,0.002710,
1720,1410,-0.601620,-1.522517,0.999997,0.000205,-0.001411,0.002678,0.000049,0.002678,-0.001412,89.318432,0.002680,
1840,1330,-0.830121,-1.811484,0.999998,0.000149,-0.001252,0.002490,0.000115,0.002493,-0.001255,88.238403,0.002493,
1530,1650,-0.217661,-0.763235,0.999998,0.000155,-0.000934,0.002241,-0.000107,0.002245,-0.000938,-88.075401,0.002255,
690,520,0.577235,-3.805182,0.999998,0.000178,-0.001291,0.002575,-0.000033,0.002576,-0.001291,-89.512459,0.002576,
1570,1460,-0.349322,-1.260083,0.999998,0.000191,-0.001440,0.002631,-0.000217,0.002642,-0.001452,-86.953851,0.002647,
1360,340,-0.068436,-4.493433,0.999998,0.000193,-0.000569,0.001863,0.000084,0.001866,-0.000572,88.018740,0.001912,
670,360,0.484805,-4.195384,0.999998,0.000175,-0.001220,0.002517,0.000004,0.002517,-0.001220,89.946182,0.002518,
950,850,0.481286,-3.086323,0.999998,0.000177,-0.001781,0.003310,0.000113,0.003313,-0.001784,88.733866,0.003316,
740,600,0.569846,-3.634397,0.999997,0.000195,-0.001364,0.002655,-0.000001,0.002655,-0.001364,-89.987612,0.002655,
1520,860,-0.508520,-3.047130,0.999998,0.000192,-0.001725,0.003262,-0.000175,0.003268,-0.001732,-87.989425,0.003270,
730,100,0.118549,-4.879197,0.999998,0.000159,-0.000553,0.002129,0.000585,0.002251,-0.000675,78.212238,0.002310,
1290,390,-0.033328,-4.420838,0.999998,0.000148,-0.000536,0.001797,0.000039,0.001797,-0.000536,89.033976,0.001845,
1870,590,-0.755509,-3.548252,0.999998,0.000177,-0.001289,0.002559,-0.000007,0.002559,-0.001289,-89.892972,0.002559,
990,620,0.224407,-3.822603,0.999999,0.000142,-0.001366,0.002452,-0.000464,0.002508,-0.001421,-83.169666,0.002515,
880,840,0.585388,-3.056436,0.999998,0.000164,-0.001614,0.003022,0.000263,0.003037,-0.001629,86.760877,0.003040,
1620,410,-0.315176,-4.203617,0.999998,0.000155,-0.001120,0.002412,0.000084,0.002414,-0.001122,88.636104,0.002416,
1450,810,-0.303137,-3.328268,0.999998,0.000181,-0.001942,0.003157,0.000473,0.003201,-0.001986,84.745053,0.003232,
1660,880,-0.740096,-2.905726,0.999998,0.000168,-0.001306,0.002720,-0.000316,0.002745,-0.001330,-85.537006,0.002746,
1200,800,0.023454,-3.849387,0.999998,0.000168,-0.000796,0.000641,-0.000432,0.000761,-0.000916,-74.493737,0.000981,
700,640,0.655412,-3.500103,0.999997,0.000205,-0.001363,0.002636,0.000045,0.002636,-0.001363,89.358547,0.002637,
1880,1890,-0.373036,-0.437304,0.999998,0.000215,-0.001208,0.002558,0.000179,0.002566,-0.001217,87.290454,0.002568,
1590,1140,-0.683431,-2.209789,0.999998,0.000167,-0.001256,0.002859,0.000352,0.002889,-0.001286,85.150841,0.002895,
780,130,0.135825,-4.821845,0.999999,0.000142,-0.000623,0.002135,0.000460,0.002210,-0.000698,80.772855,0.002260,
1470,1740,-0.131613,-0.536414,0.999998,0.000168,-0.000637,0.002056,0.000003,0.002056,-0.000637,89.927670,0.002105,
1620,780,-0.576300,-3.210430,0.999997,0.000197,-0.001602,0.002937,-0.000155,0.002943,-0.001607,-88.044241,0.002947,
580,1660,0.623380,-1.007723,0.999999,0.000160,-0.003534,0.002758,-0.000112,0.002760,-0.003536,-88.982572,0.003717,
1130,1220,0.131361,-1.407154,0.999998,0.000201,-0.001215,0.001549,0.001022,0.001886,-0.001552,71.750882,0.002012,
1550,1080,-0.696392,-2.370357,0.999997,0.000218,-0.001037,0.002877,0.000228,0.002891,-0.001051,86.684937,0.002926,
1790,990,-0.950981,-2.608284,0.999998,0.000146,-0.001069,0.002332,-0.000063,0.002333,-0.001070,-88.937625,0.002336,
1380,1110,-0.434517,-1.891769,0.999996,0.000000,-0.001376,0.004165,-0.002549,0.005159,-0.002370,-68.691737,0.005165,
750,1410,0.591851,-1.518605,0.999997,0.000198,-0.001419,0.002684,-0.000033,0.002684,-0.001419,-89.536534,0.002686,
1130,1250,0.091426,-1.358809,0.999998,0.000178,-0.001250,0.001632,0.001101,0.002005,-0.001622,71.303688,0.002129,
1150,550,0.054794,-4.127989,0.999999,0.000136,-0.000763,0.001724,-0.000260,0.001751,-0.000790,-84.089034,0.001754,
1080,670,0.118620,-3.833558,0.999998,0.000139,-0.001160,0.002101,-0.000701,0.002245,-0.001304,-78.363899,0.002255,
730,680,0.648252,-3.415532,0.999998,0.000186,-0.001397,0.002676,0.000106,0.002679,-0.001400,88.510963,0.002680,
1410,170,-0.047597,-4.793208,0.999998,0.000184,-0.000381,0.001738,-0.000100,0.001743,-0.000386,-87.302820,0.001831,
840,980,0.773499,-2.645956,0.999998,0.000178,-0.001019,0.002648,0.000197,0.002659,-0.001029,86.936153,0.002681,
900,930,0.666836,-2.797790,0.999998,0.000168,-0.001233,0.002918,0.000365,0.002950,-0.001265,85.009986,0.002960,
1010,630,0.200001,-3.823336,0.999998,0.000154,-0.001337,0.002397,-0.000519,0.002468,-0.001408,-82.232778,0.002476,
890,1320,0.453232,-1.656887,0.999998,0.000206,-0.001684,0.002993,0.000041,0.002994,-0.001684,89.498980,0.003002,
900,250,0.162210,-4.602990,0.999998,0.000167,-0.000692,0.002133,0.000137,0.002139,-0.000699,87.236796,0.002182,
1730,1350,-0.667383,-1.691681,0.999998,0.000202,-0.001415,0.002689,0.000141,0.002694,-0.001420,88.031509,0.002695,
1320,1580,-0.057149,-0.783854,0.999999,0.000150,-0.000715,0.001821,-0.000196,0.001836,-0.000730,-85.606561,0.001849,
580,1770,0.527834,-0.737552,0.999997,0.000190,-0.002641,0.002629,0.000127,0.002632,-0.002644,88.621688,0.003046,
800,600,0.487200,-3.684214,0.999997,0.000198,-0.001417,0.002673,-0.000062,0.002674,-0.001418,-89.130993,0.002675,
1740,540,-0.548745,-3.778439,0.999998,0.000186,-0.001342,0.002601,0.000044,0.002602,-0.001343,89.365553,0.002602,
1010,540,0.180258,-4.032558,0.999999,0.000149,-0.001050,0.002245,-0.000351,0.002282,-0.001087,-83.978258,0.002283,
970,1860,0.089926,-0.305224,0.999998,0.000148,-0.000502,0.001908,-0.000123,0.001914,-0.000508,-87.087571,0.001983,
580,1570,0.691265,-1.233682,0.999998,0.000158,-0.001866,0.002302,0.000093,0.002304,-0.001868,88.717555,0.002448,
1300,1570,-0.042704,-0.791419,0.999999,0.000133,-0.000670,0.001775,-0.000171,0.001787,-0.000682,-86.016421,0.001804,
1830,550,-0.673021,-3.680926,0.999998,0.000174,-0.001263,0.002556,0.000026,0.002556,-0.001264,89.607740,0.002556,
1450,790,-0.280681,-3.391905,0.999998,0.000189,-0.001908,0.003064,0.000545,0.003123,-0.001967,83.815408,0.003158,
1170,1340,0.034723,-1.150158,0.999999,0.000127,-0.000698,0.001266,0.000602,0.001436,-0.000868,74.235047,0.001446,
1530,1630,-0.224223,-0.806675,0.999998,0.000166,-0.001009,0.002273,-0.000154,0.002280,-0.001017,-87.320274,0.002285,
740,580,0.553666,-3.688554,0.999997,0.000190,-0.001341,0.002642,-0.000030,0.002642,-0.001342,-89.563941,0.002642,
690,500,0.563216,-3.855524,0.999998,0.000167,-0.001274,0.002570,-0.000042,0.002571,-0.001275,-89.369943,0.002571,
1690,1820,-0.258512,-0.459042,0.999998,0.000136,-0.000958,0.002390,0.000223,0.002404,-0.000973,86.201019,0.002419,
780,1130,0.805131,-2.259421,0.999998,0.000194,-0.001177,0.002607,-0.000244,0.002623,-0.001193,-86.327437,0.002626,
1080,910,0.368249,-3.249706,0.999998,0.000184,-0.001019,0.002764,-0.001658,0.003388,-0.001643,-69.384109,0.003388,
950,830,0.449167,-3.156268,0.999998,0.000168,-0.001835,0.003267,0.000027,0.003267,-0.001835,89.692894,0.003276,
1870,1890,-0.362147,-0.425244,0.999998,0.000196,-0.001215,0.002568,0.000190,0.002577,-0.001224,87.127002,0.002578,
1520,880,-0.537735,-2.980288,0.999998,0.000183,-0.001633,0.003239,-0.000230,0.003250,-0.001644,-87.300795,0.003250,
1870,580,-0.746481,-3.574342,0.999998,0.000172,-0.001292,0.002570,-0.000010,0.002570,-0.001292,-89.853341,0.002570,
1290,590,-0.037692,-4.073310,0.999999,0.000153,-0.000696,0.001622,0.000273,0.001653,-0.000728,83.371325,0.001657,
1430,640,-0.172780,-3.831440,0.999998,0.000182,-0.001315,0.002325,0.000575,0.002414,-0.001403,81.233391,0.002425,
1610,40,-0.019199,-5.004038,0.999999,0.000145,-0.000050,0.001679,-0.000397,0.001765,-0.000137,-77.658898,0.001965,
1700,1410,-0.572913,-1.508044,0.999997,0.000197,-0.001425,0.002713,0.000037,0.002714,-0.001426,89.481916,0.002715,
970,1580,0.206658,-0.896352,0.999998,0.000157,-0.001055,0.002253,0.000233,0.002269,-0.001071,85.993800,0.002270,
1360,320,-0.064352,-4.531505,0.999998,0.000175,-0.000540,0.001852,0.000046,0.001853,-0.000541,88.893938,0.001905,
700,400,0.479271,-4.118038,0.999998,0.000184,-0.001228,0.002526,-0.000037,0.002527,-0.001229,-89.433213,0.002527,
580,110,0.277728,-4.744544,0.999998,0.000174,-0.000795,0.002828,0.000512,0.002899,-0.000866,82.105183,0.002977,
1380,950,-0.427591,-3.146133,0.999971,0.000000,-0.001819,0.003796,0.002942,0.005056,-0.003078,66.828798,0.005095,
1200,780,0.017239,-3.864586,0.999998,0.000163,-0.000648,0.000693,-0.000462,0.000837,-0.000792,-72.717598,0.000941,
1410,150,-0.039748,-4.828899,0.999998,0.000176,-0.000323,0.001719,-0.000119,0.001726,-0.000330,-86.678297,0.001833,
570,1660,0.649768,-1.010497,0.999891,0.001554,-0.004620,0.002985,-0.000333,0.002999,-0.004635,-87.498275,0.004701,
1660,860,-0.719820,-2.960661,0.999998,0.000173,-0.001348,0.002776,-0.000323,0.002801,-0.001373,-85.546989,0.002801,
1490,1480,-0.232953,-1.126213,0.999998,0.000188,-0.001254,0.002419,-0.000362,0.002454,-0.001289,-84.420433,0.002455,
570,1770,0.558150,-0.754404,0.999468,0.002656,-0.003268,0.002773,0.000201,0.002780,-0.003275,88.094504,0.003531,
1010,610,0.195830,-3.870353,0.999998,0.000154,-0.001302,0.002393,-0.000510,0.002462,-0.001371,-82.287289,0.002467,
1010,520,0.176286,-4.076679,0.999999,0.000140,-0.001014,0.002232,-0.000332,0.002265,-0.001048,-84.220220,0.002268,
1790,970,-0.947865,-2.655557,0.999998,0.000159,-0.001087,0.002335,-0.000064,0.002337,-0.001088,-88.931090,0.002338,
1760,740,-0.740109,-3.239354,0.999998,0.000170,-0.001311,0.002647,-0.000175,0.002655,-0.001318,-87.473387,0.002655,
1620,760,-0.554833,-3.269248,0.999997,0.000194,-0.001608,0.002898,-0.000121,0.002901,-0.001611,-88.468650,0.002907,
1570,100,-0.057106,-4.901146,0.999999,0.000132,-0.000283,0.001827,-0.000324,0.001875,-0.000331,-81.466508,0.002002,
1310,210,-0.022107,-4.735827,0.999998,0.000168,-0.000352,0.001716,-0.000036,0.001717,-0.000352,-89.011246,0.001813,
840,960,0.761130,-2.699075,0.999998,0.000176,-0.001050,0.002667,0.000245,0.002683,-0.001066,86.244323,0.002702,
730,740,0.704689,-3.253485,0.999998,0.000187,-0.001387,0.002655,0.000198,0.002665,-0.001397,87.200443,0.002666,
1150,530,0.052214,-4.161460,0.999998,0.000159,-0.000750,0.001768,-0.000247,0.001792,-0.000774,-84.447035,0.001797,
1880,940,-1.033821,-2.704732,0.999998,0.000178,-0.001045,0.002181,-0.000045,0.002182,-0.001046,-89.199472,0.002182,
660,1830,0.366674,-0.508215,0.999997,0.000219,-0.001130,0.002557,-0.000239,0.002572,-0.001146,-86.312034,0.002577,
1200,190,0.009086,-4.772929,0.999999,0.000151,-0.000292,0.001670,-0.000005,0.001670,-0.000292,-89.847338,0.001784,
1730,1330,-0.686241,-1.744746,0.999998,0.000198,-0.001399,0.002678,0.000178,0.002686,-0.001407,87.500279,0.002687,
1830,530,-0.658846,-3.734254,0.999998,0.000171,-0.001282,0.002559,0.000029,0.002560,-0.001282,89.561955,0.002560,
1530,1610,-0.231708,-0.853695,0.999999,0.000159,-0.001061,0.002312,-0.000189,0.002323,-0.001072,-86.803190,0.002325,
800,580,0.472636,-3.736763,0.999997,0.000197,-0.001388,0.002629,-0.000073,0.002630,-0.001389,-88.953732,0.002631,
1450,770,-0.260913,-3.453330,0.999997,0.000207,-0.001862,0.002999,0.000572,0.003065,-0.001928,83.382546,0.003099,
1430,1680,-0.123769,-0.642401,0.999999,0.000176,-0.000756,0.002055,-0.000091,0.002058,-0.000759,-88.153484,0.002081,
1700,1090,-0.847707,-2.363422,0.999998,0.000163,-0.001098,0.002553,0.000187,0.002563,-0.001108,87.077256,0.002571,
1340,470,-0.070058,-4.259096,0.999999,0.000135,-0.000682,0.001860,0.000174,0.001872,-0.000694,86.112000,0.001893,
1090,1360,0.109035,-1.242633,0.999998,0.000138,-0.001214,0.002052,0.000802,0.002239,-0.001400,76.918449,0.002262,
1880,1840,-0.447407,-0.562702,0.999998,0.000215,-0.001221,0.002452,0.000089,0.002454,-0.001223,88.608882,0.002454,
1070,910,0.378916,-3.191502,0.999997,0.000186,-0.001228,0.003021,-0.001496,0.003495,-0.001702,-72.427923,0.003496,
700,1750,0.401820,-0.681739,0.999997,0.000211,-0.001195,0.002531,-0.000059,0.002532,-0.001196,-89.093826,0.002533,
1710,120,-0.136923,-4.838220,0.999998,0.000153,-0.000523,0.002218,-0.000595,0.002341,-0.000647,-78.265272,0.002418,
990,660,0.238459,-3.721696,0.999998,0.000159,-0.001525,0.002618,-0.000483,0.002674,-0.001581,-83.433368,0.002689,
580,100,0.256856,-4.771864,0.999998,0.000167,-0.000774,0.002841,0.000556,0.002924,-0.000858,81.449596,0.003006,
1380,940,-0.413813,-3.178194,0.999971,0.000000,-0.001367,0.003417,0.002594,0.004554,-0.002504,66.339757,0.004561,
1360,300,-0.062667,-4.567957,0.999998,0.000167,-0.000513,0.001830,0.000017,0.001830,-0.000513,89.575696,0.001888,
740,1130,0.851120,-2.264987,0.999997,0.000203,-0.001119,0.002515,-0.000207,0.002527,-0.001131,-86.754342,0.002532,
1200,760,0.015501,-3.877639,0.999999,0.000145,-0.000605,0.000745,-0.000437,0.000874,-0.000734,-73.541696,0.000939,
700,360,0.448948,-4.219837,0.999998,0.000175,-0.001222,0.002530,-0.000009,0.002530,-0.001222,-89.861656,0.002531,
1300,280,-0.028132,-4.615314,0.999999,0.000141,-0.000405,0.001767,-0.000015,0.001767,-0.000405,-89.601056,0.001852,
1520,1320,-0.361835,-1.594476,0.999997,0.000187,-0.001770,0.002987,-0.000240,0.002999,-0.001782,-87.116690,0.003017,
760,1490,0.516450,-1.297017,0.999997,0.000225,-0.001333,0.002631,0.000052,0.002631,-0.001333,89.246685,0.002631,
950,810,0.425477,-3.219681,0.999998,0.000186,-0.001862,0.003219,-0.000073,0.003220,-0.001863,-89.175331,0.003233,
1650,180,-0.167998,-4.724485,0.999998,0.000154,-0.000656,0.002181,-0.000361,0.002226,-0.000701,-82.861533,0.002276,
1790,950,-0.941580,-2.702409,0.999999,0.000148,-0.001116,0.002389,-0.000158,0.002396,-0.001124,-87.432509,0.002398,
1850,600,-0.737502,-3.538634,0.999998,0.000178,-0.001272,0.002536,-0.000025,0.002537,-0.001272,-89.621146,0.002537,
740,780,0.727174,-3.152262,0.999998,0.000204,-0.001385,0.002689,0.000238,0.002703,-0.001399,86.661544,0.002703,
1410,130,-0.033521,-4.862004,0.999998,0.000155,-0.000262,0.001691,-0.000116,0.001698,-0.000269,-86.607592,0.001825,
1280,1570,-0.030164,-0.786529,0.999999,0.000125,-0.000630,0.001758,-0.000072,0.001761,-0.000632,-88.277610,0.001784,
900,1210,0.559055,-1.983591,0.999997,0.000192,-0.001634,0.003071,-0.000265,0.003086,-0.001649,-86.783344,0.003088,
1660,840,-0.699728,-3.017038,0.999998,0.000169,-0.001396,0.002757,-0.000311,0.002780,-0.001419,-85.741299,0.002781,
950,1580,0.227123,-0.909767,0.999998,0.000181,-0.001084,0.002323,0.000239,0.002340,-0.001101,86.012636,0.002341,
1010,590,0.189721,-3.920324,0.999999,0.000157,-0.001258,0.002329,-0.000480,0.002392,-0.001321,-82.513341,0.002397,
1150,510,0.052795,-4.197479,0.999998,0.000161,-0.000729,0.001783,-0.000256,0.001808,-0.000755,-84.244772,0.001816,
730,720,0.683699,-3.306923,0.999998,0.000181,-0.001408,0.002666,0.000160,0.002672,-0.001414,87.759576,0.002674,
1620,740,-0.535571,-3.326304,0.999998,0.000186,-0.001598,0.002904,-0.000099,0.002906,-0.001601,-88.739138,0.002911,
1550,60,-0.024888,-4.972767,0.999999,0.000109,-0.000084,0.001693,-0.000303,0.001743,-0.000134,-80.579480,0.001941,
1760,700,-0.703350,-3.343636,0.999998,0.000193,-0.001348,0.002627,-0.000137,0.002632,-0.001353,-88.034938,0.002632,
940,1630,0.218851,-0.803724,0.999998,0.000154,-0.000983,0.002268,0.000138,0.002273,-0.000989,87.581688,0.002280,
1690,1780,-0.295828,-0.555444,0.999998,0.000177,-0.001020,0.002421,0.000138,0.002426,-0.001025,87.713246,0.002436,
1470,1480,-0.209439,-1.105289,0.999998,0.000169,-0.001239,0.002363,-0.000403,0.002407,-0.001284,-83.696054,0.002409,
1070,1360,0.133671,-1.277617,0.999998,0.000155,-0.001318,0.002233,0.000794,0.002402,-0.001488,77.957940,0.002425,
1310,190,-0.019829,-4.771984,0.999998,0.000175,-0.000317,0.001682,-0.000040,0.001683,-0.000318,-88.841239,0.001789,
1730,1310,-0.704192,-1.797856,0.999998,0.000185,-0.001383,0.002664,0.000202,0.002674,-0.001393,87.150410,0.002675,
1770,800,-0.807171,-3.078198,0.999999,0.000155,-0.001262,0.002527,-0.000234,0.002542,-0.001277,-86.477064,0.002542,
660,1810,0.390659,-0.559999,0.999997,0.000195,-0.001155,0.002601,-0.000177,0.002609,-0.001164,-87.313891,0.002614,
840,940,0.748116,-2.751086,0.999998,0.000168,-0.001129,0.002709,0.000296,0.002732,-0.001152,85.620700,0.002743,
1480,250,-0.109662,-4.631039,0.999998,0.000160,-0.000558,0.001973,-0.000080,0.001976,-0.000561,-88.189315,0.002036,
1410,660,-0.150113,-3.813537,0.999998,0.000146,-0.001302,0.002255,0.000655,0.002371,-0.001418,79.894911,0.002387,
1880,1070,-1.046133,-2.428952,0.999998,0.000152,-0.001022,0.002057,0.000033,0.002057,-0.001023,89.383419,0.002057,
1450,750,-0.247594,-3.511277,0.999998,0.000205,-0.001782,0.002907,0.000612,0.002985,-0.001861,82.683280,0.003015,
1530,1590,-0.242952,-0.900661,0.999999,0.000160,-0.001105,0.002364,-0.000175,0.002373,-0.001114,-87.120624,0.002375,
800,560,0.459923,-3.789375,0.999998,0.000170,-0.001355,0.002630,-0.000082,0.002631,-0.001357,-88.816786,0.002632,
1230,1680,0.001314,-0.586085,0.999998,0.000143,-0.000537,0.001767,-0.000007,0.001767,-0.000537,-89.829804,0.001812,
700,1730,0.420638,-0.731990,0.999997,0.000201,-0.001195,0.002521,-0.000018,0.002521,-0.001195,-89.724355,0.002523,
1880,1850,-0.433127,-0.538137,0.999997,0.000204,-0.001211,0.002439,0.000090,0.002441,-0.001213,88.584058,0.002441,
1060,910,0.392042,-3.135432,0.999997,0.000201,-0.001464,0.003248,-0.001212,0.003542,-0.001757,-76.394160,0.003542,
1680,590,-0.502589,-3.696731,0.999998,0.000179,-0.001387,0.002672,0.000041,0.002672,-0.001388,89.423512,0.002673,
1150,800,0.067251,-3.745882,0.999998,0.000176,-0.001062,0.001295,-0.000993,0.001658,-0.001424,-69.943278,0.001795,
1380,930,-0.408316,-3.203306,0.999997,0.000000,-0.001124,0.003163,0.002261,0.004135,-0.002096,66.736591,0.004136,
1650,160,-0.146203,-4.767143,0.999998,0.000143,-0.000580,0.002149,-0.000399,0.002206,-0.000637,-81.852182,0.002271,
1830,510,-0.643212,-3.785545,0.999997,0.000192,-0.001297,0.002583,0.000020,0.002583,-0.001297,89.702382,0.002583,
950,790,0.401578,-3.284626,0.999997,0.000192,-0.001863,0.003204,-0.000136,0.003207,-0.001867,-88.466586,0.003222,
750,110,0.124554,-4.861428,0.999999,0.000144,-0.000426,0.002202,0.000619,0.002341,-0.000564,77.382480,0.002443,
1360,280,-0.056915,-4.604769,0.999998,0.000151,-0.000486,0.001849,-0.000010,0.001849,-0.000486,-89.761621,0.001918,
1830,360,-0.531840,-4.164478,0.999998,0.000192,-0.001236,0.002506,0.000010,0.002506,-0.001236,89.846408,0.002506,
1520,1300,-0.378545,-1.656335,0.999997,0.000180,-0.001801,0.003085,-0.000187,0.003092,-0.001808,-87.816308,0.003107,
1410,110,-0.026831,-4.897848,0.999998,0.000156,-0.000204,0.001669,-0.000124,0.001677,-0.000212,-86.233880,0.001827,
1270,1310,-0.019413,-1.153486,0.999999,0.000131,-0.000610,0.000905,-0.000486,0.001047,-0.000752,-73.657316,0.001080,
980,1590,0.193930,-0.865458,0.999999,0.000121,-0.001021,0.002222,0.000226,0.002238,-0.001036,86.037392,0.002240,
770,640,0.559615,-3.551489,0.999998,0.000186,-0.001432,0.002697,0.000009,0.002697,-0.001432,89.871270,0.002699,
1010,570,0.187247,-3.966074,0.999999,0.000153,-0.001174,0.002261,-0.000433,0.002314,-0.001228,-82.929550,0.002316,
1660,820,-0.677788,-3.071387,0.999998,0.000175,-0.001441,0.002778,-0.000286,0.002797,-0.001461,-86.135521,0.002798,
1200,740,0.015753,-3.894221,0.999999,0.000143,-0.000583,0.000920,-0.000386,0.001013,-0.000676,-76.403427,0.001032,
700,340,0.431665,-4.269942,0.999998,0.000178,-0.001213,0.002536,0.000006,0.002536,-0.001213,89.907753,0.002537,
1310,170,-0.018976,-4.804724,0.999998,0.000145,-0.000257,0.001626,-0.000041,0.001627,-0.000258,-88.759505,0.001749,
680,1430,0.670709,-1.515809,0.999998,0.000175,-0.001330,0.002571,-0.000051,0.002572,-0.001330,-89.246461,0.002572,
1450,1480,-0.183036,-1.082479,0.999998,0.000173,-0.001176,0.002273,-0.000409,0.002321,-0.001223,-83.335558,0.002322,
1390,1760,-0.075172,-0.468531,0.999998,0.000162,-0.000503,0.001880,0.000000,0.001880,-0.000503,-89.999987,0.001946,
1200,1570,0.019465,-0.784128,0.999998,0.000147,-0.000612,0.001713,0.000090,0.001717,-0.000615,87.788456,0.001739,
1150,490,0.050825,-4.230911,0.999998,0.000154,-0.000713,0.001817,-0.000222,0.001837,-0.000732,-85.022020,0.001849,
1710,820,-0.747777,-3.050630,0.999998,0.000174,-0.001387,0.002667,-0.000280,0.002686,-0.001406,-86.068866,0.002687,
1420,1110,-0.490128,-2.102143,0.999996,0.000238,-0.001708,0.004038,-0.001026,0.004216,-0.001886,-80.173934,0.004224,
1790,930,-0.930186,-2.750262,0.999999,0.000136,-0.001122,0.002399,-0.000189,0.002409,-0.001132,-86.939214,0.002410,
1740,370,-0.428710,-4.213126,0.999998,0.000175,-0.001225,0.002516,0.000003,0.002516,-0.001225,89.948258,0.002516,
1210,1500,0.012797,-0.899715,0.999998,0.000163,-0.000612,0.001608,0.000095,0.001612,-0.000616,87.564843,0.001627,
1750,70,-0.085710,-4.934347,0.999999,0.000142,-0.000524,0.002147,-0.000709,0.002324,-0.000700,-76.024680,0.002384,
1410,640,-0.146879,-3.858227,0.999998,0.000145,-0.001228,0.002204,0.000587,0.002301,-0.001326,80.564656,0.002310,
1450,730,-0.234676,-3.570104,0.999998,0.000206,-0.001712,0.002777,0.000613,0.002859,-0.001794,82.358578,0.002890,
680,1750,0.427148,-0.696677,0.999998,0.000175,-0.001209,0.002542,-0.000071,0.002543,-0.001210,-88.921445,0.002544,
1870,1080,-1.033648,-2.407551,0.999998,0.000158,-0.001036,0.002091,0.000003,0.002091,-0.001036,89.940401,0.002091,
1770,780,-0.790134,-3.128540,0.999999,0.000147,-0.001263,0.002551,-0.000210,0.002563,-0.001275,-86.856679,0.002563,
1530,1570,-0.250349,-0.948305,0.999998,0.000170,-0.001164,0.002362,-0.000213,0.002375,-0.001177,-86.553174,0.002375,
1560,590,-0.332765,-3.803365,0.999997,0.000196,-0.001414,0.002595,0.000267,0.002613,-0.001432,86.200484,0.002617,
1430,460,-0.141444,-4.225292,0.999999,0.000140,-0.000869,0.002086,0.000220,0.002102,-0.000885,85.761200,0.002111,
850,1800,0.206663,-0.469858,0.999998,0.000171,-0.000829,0.002230,-0.000170,0.002239,-0.000838,-86.829342,0.002263,
1590,880,-0.644247,-2.932786,0.999998,0.000197,-0.001419,0.002950,-0.000343,0.002977,-0.001446,-85.536877,0.002977,
1830,490,-0.627766,-3.835897,0.999998,0.000183,-0.001289,0.002516,0.000026,0.002517,-0.001289,89.610355,0.002517,
1380,30,-0.003750,-5.023076,0.999999,0.000000,0.000003,0.001544,-0.000076,0.001547,0.000000,-87.188172,0.001787,
800,540,0.445208,-3.841212,0.999998,0.000173,-0.001333,0.002616,-0.000102,0.002619,-0.001336,-88.526567,0.002619,
700,320,0.416410,-4.322819,0.999998,0.000186,-0.001196,0.002520,0.000003,0.002520,-0.001196,89.951757,0.002521,
720,1880,0.235550,-0.341748,0.999998,0.000167,-0.000963,0.002445,-0.000380,0.002487,-0.001005,-83.716579,0.002502,
1410,90,-0.020363,-4.929162,0.999999,0.000132,-0.000165,0.001602,-0.000123,0.001610,-0.000173,-86.035615,0.001768,
1200,720,0.013464,-3.912648,0.999999,0.000138,-0.000574,0.001068,-0.000361,0.001144,-0.000650,-78.147969,0.001148,
780,70,0.063778,-4.946250,0.999999,0.000155,-0.000302,0.001909,0.000541,0.002034,-0.000428,76.953612,0.002145,
950,770,0.380267,-3.348636,0.999997,0.000182,-0.001837,0.003123,-0.000198,0.003131,-0.001845,-87.715177,0.003147,
1520,1280,-0.398507,-1.719436,0.999997,0.000187,-0.001836,0.003116,-0.000136,0.003119,-0.001840,-88.430720,0.003136,
750,640,0.587273,-3.535951,0.999998,0.000181,-0.001404,0.002660,0.000048,0.002661,-0.001404,89.323882,0.002662,
1010,1640,0.150590,-0.735451,0.999999,0.000138,-0.000827,0.002121,0.000164,0.002130,-0.000836,86.820276,0.002147,
1270,1270,-0.025354,-1.190093,0.999998,0.000163,-0.000712,0.000752,-0.000540,0.000930,-0.000890,-71.781468,0.001051,
1210,1680,0.011556,-0.587498,0.999998,0.000173,-0.000559,0.001778,0.000039,0.001779,-0.000560,89.039281,0.001819,
750,2010,0.038262,-0.050947,0.999999,0.000138,-0.000085,0.001897,-0.000637,0.002084,-0.000272,-73.635008,0.002265,
1310,150,-0.015524,-4.836161,0.999999,0.000144,-0.000176,0.001627,-0.000056,0.001629,-0.000177,-88.222312,0.001787,
1360,260,-0.052265,-4.641954,0.999999,0.000128,-0.000427,0.001786,-0.000012,0.001786,-0.000427,-89.692086,0.001866,
1220,1270,0.007952,-1.165236,0.999998,0.000169,-0.000631,0.000572,0.000171,0.000595,-0.000655,82.051140,0.000724,
1660,800,-0.659531,-3.129226,0.999999,0.000173,-0.001456,0.002823,-0.000273,0.002840,-0.001473,-86.368067,0.002841,
1830,340,-0.514795,-4.215491,0.999998,0.000194,-0.001211,0.002558,0.000005,0.002558,-0.001211,89.929175,0.002559,
1010,550,0.182273,-4.009029,0.999998,0.000154,-0.001087,0.002250,-0.000365,0.002290,-0.001126,-83.833877,0.002290,
900,1410,0.368096,-1.387631,0.999998,0.000197,-0.001543,0.002770,0.000217,0.002781,-0.001554,87.125096,0.002788,
1180,1570,0.032253,-0.788346,0.999999,0.000130,-0.000650,0.001733,0.000087,0.001736,-0.000653,87.922595,0.001754,
1340,450,-0.069438,-4.296070,0.999999,0.000124,-0.000676,0.001836,0.000166,0.001847,-0.000687,86.233761,0.001867,
1010,640,0.202333,-3.799391,0.999998,0.000173,-0.001355,0.002424,-0.000526,0.002496,-0.001427,-82.228278,0.002504,
1740,1980,-0.086374,-0.111662,0.999998,0.000144,-0.000491,0.002066,0.000632,0.002214,-0.000639,76.852534,0.002279,
860,1130,0.710692,-2.241227,0.999998,0.000185,-0.001220,0.002814,-0.000375,0.002849,-0.001254,-84.735014,0.002856,
900,1930,0.073892,-0.185105,0.999999,0.000123,-0.000351,0.001889,-0.000312,0.001931,-0.000394,-82.213556,0.002041,
1530,1550,-0.258526,-0.996108,0.999998,0.000170,-0.001181,0.002381,-0.000230,0.002396,-0.001196,-86.319158,0.002396,
730,800,0.760429,-3.094888,0.999998,0.000190,-0.001334,0.002624,0.000259,0.002641,-0.001351,86.265057,0.002641,
1450,710,-0.223828,-3.623196,0.999998,0.000199,-0.001626,0.002692,0.000611,0.002777,-0.001711,82.100139,0.002802,
1150,470,0.051814,-4.269225,0.999998,0.000176,-0.000693,0.001822,-0.000192,0.001836,-0.000708,-85.658848,0.001852,
800,1710,0.321548,-0.709370,0.999998,0.000163,-0.001125,0.002419,-0.000007,0.002419,-0.001125,-89.894280,0.002421,
1580,590,-0.363072,-3.784070,0.999997,0.000181,-0.001396,0.002639,0.000201,0.002649,-0.001406,87.155845,0.002650,
1880,920,-1.023710,-2.749498,0.999998,0.000176,-0.001091,0.002182,-0.000056,0.002183,-0.001092,-89.014626,0.002183,
1620,720,-0.515839,-3.385812,0.999997,0.000206,-0.001626,0.002906,-0.000043,0.002906,-0.001626,-89.457387,0.002913,
1390,60,-0.009795,-4.977870,0.999999,0.000145,-0.000079,0.001565,-0.000104,0.001571,-0.000086,-86.397983,0.001767,
1590,860,-0.620501,-2.991212,0.999997,0.000191,-0.001515,0.002995,-0.000311,0.003016,-0.001536,-86.078009,0.003016,
1430,440,-0.137539,-4.266256,0.999998,0.000158,-0.000833,0.002060,0.000177,0.002071,-0.000844,86.502657,0.002083,
1770,1000,-0.931057,-2.586177,0.999998,0.000177,-0.001077,0.002378,-0.000076,0.002379,-0.001078,-88.736770,0.002383,
1410,70,-0.014778,-4.960456,0.999999,0.000114,-0.000135,0.001597,-0.000132,0.001607,-0.000145,-85.666432,0.001778,
780,50,0.038612,-4.982279,0.999999,0.000155,-0.000215,0.001821,0.000519,0.001945,-0.000340,76.489200,0.002078,
1660,780,-0.636696,-3.184760,0.999998,0.000187,-0.001472,0.002827,-0.000234,0.002840,-0.001485,-86.898307,0.002841,
1740,1960,-0.115031,-0.152553,0.999998,0.000142,-0.000645,0.002124,0.000575,0.002239,-0.000760,78.715763,0.002277,
950,750,0.361483,-3.409301,0.999997,0.000184,-0.001791,0.003026,-0.000244,0.003038,-0.001804,-87.102570,0.003056,
840,920,0.730663,-2.807099,0.999998,0.000177,-0.001197,0.002768,0.000346,0.002797,-0.001226,85.055238,0.002804,
1150,1260,0.065321,-1.287085,0.999998,0.000178,-0.001027,0.001278,0.001003,0.001653,-0.001402,69.491105,0.001782,
630,460,0.610918,-3.909719,0.999998,0.000169,-0.001253,0.002528,-0.000045,0.002528,-0.001253,-89.316943,0.002528,
1370,2020,-0.003940,-0.024214,0.999998,0.000000,-0.000043,0.001541,0.000093,0.001547,-0.000048,86.644115,0.001759,
1010,1360,0.222013,-1.380792,0.999998,0.000197,-0.001562,0.002650,0.000596,0.002732,-0.001644,82.091547,0.002751,
720,1840,0.284300,-0.437907,0.999997,0.000199,-0.001063,0.002456,-0.000256,0.002474,-0.001082,-85.863800,0.002481,
1880,140,-0.333691,-4.666894,0.999997,0.000202,-0.001228,0.002651,-0.000330,0.002679,-0.001256,-85.176642,0.002681,
1830,470,-0.614023,-3.884983,0.999998,0.000169,-0.001286,0.002556,0.000038,0.002556,-0.001286,89.439630,0.002556,
1310,130,-0.012567,-4.870457,0.999999,0.000150,-0.000155,0.001647,-0.000052,0.001648,-0.000156,-88.347294,0.001820,
560,500,0.762678,-3.741677,0.999887,0.000000,-0.002908,0.001885,-0.000741,0.001996,-0.003020,-81.412077,0.003071,
640,1080,0.984175,-2.398888,0.999998,0.000185,-0.001083,0.002272,-0.000053,0.002273,-0.001084,-89.090736,0.002273,
1530,1530,-0.265228,-1.043355,0.999998,0.000169,-0.001208,0.002429,-0.000247,0.002446,-0.001225,-86.138289,0.002446,
900,1390,0.381904,-1.442887,0.999997,0.000206,-0.001582,0.002810,0.000191,0.002818,-0.001590,87.515271,0.002826,
1220,1850,0.004158,-0.291134,0.999997,0.000220,-0.000353,0.001663,-0.000003,0.001663,-0.000353,-89.915437,0.001752,
1730,1290,-0.722631,-1.850632,0.999998,0.000192,-0.001372,0.002697,0.000212,0.002708,-0.001383,87.025321,0.002708,
1100,190,0.037745,-4.764983,0.999998,0.000146,-0.000315,0.001730,0.000060,0.001732,-0.000317,88.326147,0.001844,
580,610,0.786901,-3.487264,0.999998,0.000198,-0.001683,0.002328,-0.000006,0.002328,-0.001683,-89.913537,0.002404,
1320,450,-0.055206,-4.303784,0.999999,0.000140,-0.000704,0.001825,0.000183,0.001838,-0.000718,85.891117,0.001853,
1410,1110,-0.472945,-2.060260,0.999997,0.000211,-0.001775,0.004090,-0.001493,0.004448,-0.002134,-76.505780,0.004449,
1770,2000,-0.066274,-0.074183,0.999999,0.000135,-0.000328,0.002196,0.000855,0.002459,-0.000590,72.943218,0.002567,
880,670,0.415665,-3.562600,0.999997,0.000196,-0.001609,0.002829,-0.000132,0.002833,-0.001613,-88.297176,0.002842,
1010,620,0.197722,-3.847272,0.999998,0.000163,-0.001323,0.002387,-0.000522,0.002459,-0.001395,-82.144879,0.002467,
570,1990,0.180217,-0.167777,0.999979,0.000534,-0.000573,0.003188,-0.001152,0.003513,-0.000898,-74.251089,0.003651,
1730,220,-0.279203,-4.596142,0.999998,0.000178,-0.000968,0.002474,-0.000300,0.002500,-0.000993,-85.058249,0.002518,
1770,1040,-0.935561,-2.489207,0.999998,0.000166,-0.001074,0.002430,0.000060,0.002431,-0.001075,89.021288,0.002437,
1370,1760,-0.065464,-0.465551,0.999998,0.000175,-0.000480,0.001846,-0.000004,0.001846,-0.000480,-89.908718,0.001916,
1190,800,0.031469,-3.834987,0.999999,0.000157,-0.000828,0.000738,-0.000556,0.000915,-0.001006,-72.297276,0.001113,
880,820,0.561124,-3.116265,0.999998,0.000172,-0.001628,0.003013,0.000215,0.003023,-0.001638,87.358109,0.003027,
780,40,0.028062,-5.000336,0.999999,0.000148,-0.000191,0.001802,0.000504,0.001922,-0.000311,76.584355,0.002064,
990,1090,0.600276,-2.295485,0.999997,0.000206,-0.001282,0.003549,-0.000111,0.003551,-0.001285,-88.687908,0.003596,
1790,910,-0.918457,-2.799887,0.999999,0.000122,-0.001125,0.002412,-0.000178,0.002421,-0.001134,-87.122187,0.002422,
1360,240,-0.048352,-4.678616,0.999999,0.000135,-0.000396,0.001773,-0.000040,0.001774,-0.000397,-88.955988,0.001862,
1380,830,-0.195814,-3.465376,0.999998,0.000166,-0.001709,0.002627,0.001028,0.002858,-0.001940,77.320703,0.002919,
1400,1980,-0.014879,-0.086364,0.999999,0.000153,-0.000093,0.001585,0.000118,0.001593,-0.000101,85.983263,0.001784,
970,1540,0.218373,-0.985940,0.999999,0.000145,-0.001159,0.002333,0.000288,0.002356,-0.001183,85.322037,0.002356,
1520,1260,-0.420224,-1.781329,0.999997,0.000194,-0.001861,0.003175,-0.000059,0.003176,-0.001862,-89.329777,0.003192,
1250,1790,-0.006395,-0.393375,0.999998,0.000143,-0.000397,0.001708,-0.000026,0.001709,-0.000398,-89.301206,0.001788,
1660,1200,-0.715832,-2.065275,0.999998,0.000187,-0.001334,0.002764,0.000323,0.002789,-0.001359,85.518163,0.002789,
1580,970,-0.723149,-2.677435,0.999998,0.000179,-0.001038,0.002788,-0.000256,0.002805,-0.001055,-86.191358,0.002834,
1320,1570,-0.056865,-0.801299,0.999998,0.000153,-0.000728,0.001815,-0.000215,0.001833,-0.000746,-85.188825,0.001843,
840,1130,0.735111,-2.247197,0.999998,0.000169,-0.001207,0.002754,-0.000340,0.002783,-0.001236,-85.130361,0.002789,
1740,1940,-0.145317,-0.197494,0.999998,0.000149,-0.000723,0.002277,0.000590,0.002389,-0.000835,79.258024,0.002425,
1200,700,0.015930,-3.933862,0.999999,0.000135,-0.000562,0.001145,-0.000312,0.001201,-0.000618,-79.963525,0.001201,
1150,1240,0.081694,-1.311448,0.999999,0.000143,-0.001112,0.001235,0.000955,0.001575,-0.001452,70.423559,0.001752,
700,300,0.398120,-4.371070,0.999998,0.000197,-0.001203,0.002532,0.000047,0.002532,-0.001204,89.284560,0.002533,
670,1280,0.815655,-1.909308,0.999998,0.000172,-0.001264,0.002524,-0.000182,0.002533,-0.001273,-87.253028,0.002533,
1150,450,0.049366,-4.307179,0.999998,0.000170,-0.000687,0.001829,-0.000164,0.001840,-0.000697,-86.296634,0.001858,
580,90,0.233340,-4.800712,0.999998,0.000156,-0.000777,0.002894,0.000670,0.003012,-0.000896,79.980094,0.003094,
1010,1340,0.229927,-1.434137,0.999998,0.000174,-0.001649,0.002753,0.000582,0.002829,-0.001725,82.592488,0.002851,
950,730,0.344548,-3.468003,0.999997,0.000200,-0.001747,0.002951,-0.000284,0.002968,-0.001765,-86.548126,0.002986,
1390,950,-0.446224,-3.064630,0.999996,0.000000,-0.001777,0.004287,0.002390,0.005116,-0.002606,70.875818,0.005116,
1010,1620,0.155259,-0.777300,0.999998,0.000147,-0.000870,0.002106,0.000196,0.002119,-0.000883,86.240240,0.002129,
560,490,0.759658,-3.758645,0.999884,0.000000,-0.003284,0.001935,-0.000718,0.002031,-0.003381,-82.310363,0.003404,
1450,1130,-0.500838,-2.112187,0.999997,0.000185,-0.001630,0.003706,-0.000128,0.003709,-0.001634,-88.627902,0.003717,
1010,530,0.178078,-4.055041,0.999999,0.000151,-0.001032,0.002240,-0.000346,0.002276,-0.001068,-84.024192,0.002278,
820,1990,0.045599,-0.080825,0.999998,0.000152,-0.000201,0.001855,-0.000465,0.001956,-0.000302,-77.827263,0.002106,
640,1040,0.992606,-2.490714,0.999998,0.000198,-0.001093,0.002306,-0.000049,0.002307,-0.001094,-89.166960,0.002308,
1530,1950,-0.049963,-0.144534,0.999999,0.000141,-0.000244,0.001805,0.000281,0.001843,-0.000282,82.317032,0.001985,
1730,1270,-0.742762,-1.905475,0.999998,0.000189,-0.001371,0.002644,0.000253,0.002660,-0.001387,86.406996,0.002661,
1830,2010,-0.066358,-0.064262,0.999998,0.000171,-0.000877,0.002282,0.000738,0.002446,-0.001041,77.476218,0.002455,
570,590,0.788681,-3.528379,0.999937,0.000887,-0.001913,0.002659,-0.000237,0.002671,-0.001925,-87.040226,0.002757,
1350,60,-0.007650,-4.978926,0.999999,0.000126,-0.000064,0.001538,-0.000069,0.001541,-0.000067,-87.532964,0.001742,
1830,890,-0.952498,-2.834164,0.999999,0.000139,-0.001127,0.002313,-0.000134,0.002319,-0.001132,-87.775378,0.002319,
1020,190,0.066703,-4.753018,0.999998,0.000156,-0.000367,0.001807,0.000128,0.001814,-0.000374,86.643419,0.001916,
1770,2010,-0.049353,-0.054065,0.999999,0.000137,-0.000280,0.002097,0.000835,0.002361,-0.000544,72.455632,0.002472,
1880,910,-1.017822,-2.771212,0.999998,0.000146,-0.001118,0.002181,-0.000061,0.002182,-0.001119,-88.935582,0.002183,
1400,1110,-0.456594,-2.011028,0.999997,0.000216,-0.001673,0.004193,-0.001927,0.004769,-0.002249,-73.351279,0.004772,
1880,130,-0.314061,-4.693738,0.999997,0.000199,-0.001206,0.002695,-0.000389,0.002734,-0.001245,-84.355186,0.002737,
880,650,0.402596,-3.618759,0.999997,0.000228,-0.001542,0.002776,-0.000167,0.002783,-0.001548,-87.794179,0.002789,
1300,450,-0.041726,-4.311724,0.999999,0.000146,-0.000657,0.001786,0.000096,0.001790,-0.000661,87.742509,0.001810,
1610,230,-0.183978,-4.627554,0.999998,0.000166,-0.000745,0.002228,-0.000205,0.002242,-0.000759,-86.074052,0.002281,
1170,780,0.040761,-3.816908,0.999998,0.000180,-0.000816,0.001029,-0.000827,0.001345,-0.001133,-69.065287,0.001446,
1310,110,-0.011038,-4.902008,0.999999,0.000153,-0.000142,0.001568,-0.000052,0.001569,-0.000144,-88.266564,0.001735,
1360,220,-0.044031,-4.711593,0.999998,0.000152,-0.000353,0.001742,-0.000029,0.001742,-0.000353,-89.207781,0.001842,
1120,1870,0.030317,-0.263587,0.999998,0.000176,-0.000343,0.001754,-0.000039,0.001755,-0.000344,-88.937834,0.001860,
1550,1060,-0.709018,-2.427239,0.999998,0.000196,-0.000965,0.002896,0.000168,0.002903,-0.000972,87.505617,0.002955,
1070,1760,0.076818,-0.468753,0.999998,0.000156,-0.000547,0.001871,0.000006,0.001871,-0.000547,89.849797,0.001925,
1620,390,-0.303168,-4.252069,0.999998,0.000147,-0.001063,0.002396,0.000044,0.002397,-0.001064,89.278539,0.002402,
1250,1770,-0.009078,-0.429922,0.999998,0.000139,-0.000433,0.001767,-0.000018,0.001767,-0.000433,-89.521682,0.001842,
1400,1960,-0.019398,-0.118235,0.999998,0.000164,-0.000142,0.001616,0.000118,0.001624,-0.000150,86.175896,0.001795,
1790,890,-0.907060,-2.846526,0.999998,0.000155,-0.001162,0.002421,-0.000200,0.002432,-0.001173,-86.818325,0.002432,
880,800,0.537515,-3.177868,0.999998,0.000183,-0.001634,0.003037,0.000173,0.003044,-0.001640,87.879563,0.003047,
1770,1020,-0.936198,-2.539135,0.999998,0.000154,-0.001073,0.002400,-0.000038,0.002400,-0.001073,-89.378667,0.002405,
1520,1240,-0.444177,-1.845740,0.999997,0.000192,-0.001849,0.003236,0.000012,0.003236,-0.001849,89.865223,0.003247,
1660,1220,-0.694449,-2.009208,0.999998,0.000162,-0.001408,0.002778,0.000313,0.002802,-0.001431,85.742697,0.002802,
840,900,0.710613,-2.861098,0.999998,0.000169,-0.001286,0.002772,0.000329,0.002799,-0.001312,85.393889,0.002800,
1330,1300,-0.068526,-1.268963,0.999998,0.000192,-0.001034,0.001594,-0.001001,0.001932,-0.001371,-71.357937,0.001988,
950,1540,0.241490,-1.004468,0.999998,0.000144,-0.001189,0.002370,0.000263,0.002389,-0.001209,85.789637,0.002389,
990,1290,0.301637,-1.614448,0.999997,0.000237,-0.001886,0.003049,0.000431,0.003087,-0.001923,85.044577,0.003118,
1560,970,-0.701549,-2.682046,0.999999,0.000160,-0.001029,0.002864,-0.000256,0.002880,-0.001046,-86.253872,0.002916,
560,480,0.769842,-3.782213,0.999875,0.000000,-0.003346,0.002528,-0.000436,0.002560,-0.003378,-85.780431,0.003525,
700,280,0.380802,-4.422439,0.999998,0.000210,-0.001204,0.002525,0.000104,0.002528,-0.001207,88.403727,0.002529,
610,1400,0.786079,-1.644440,0.999998,0.000171,-0.001274,0.002519,-0.000045,0.002519,-0.001275,-89.321136,0.002520,
1430,1480,-0.161774,-1.062378,0.999998,0.000176,-0.001117,0.002181,-0.000424,0.002235,-0.001170,-82.792228,0.002236,
1400,1000,-0.504289,-2.720910,0.999972,0.000000,-0.002303,0.006924,0.000896,0.007010,-0.002389,84.506363,0.007127,
1650,100,-0.082679,-4.891885,0.999998,0.000153,-0.000375,0.001973,-0.000451,0.002057,-0.000459,-79.481947,0.002159,
950,710,0.329515,-3.528692,0.999997,0.000210,-0.001718,0.002893,-0.000315,0.002915,-0.001739,-86.106663,0.002933,
1170,800,0.047475,-3.795885,0.999998,0.000182,-0.000919,0.000982,-0.000801,0.001275,-0.001211,-69.943241,0.001437,
580,80,0.208784,-4.833235,0.999998,0.000150,-0.000758,0.002971,0.000754,0.003118,-0.000905,78.992058,0.003208,
1100,1430,0.096176,-1.088934,0.999999,0.000134,-0.000960,0.001896,0.000563,0.002003,-0.001067,79.245767,0.002004,
800,520,0.434391,-3.894822,0.999997,0.000177,-0.001315,0.002585,-0.000110,0.002588,-0.001318,-88.380571,0.002588,
1450,1150,-0.460619,-2.037247,0.999998,0.000181,-0.001727,0.003594,-0.000137,0.003597,-0.001730,-88.529843,0.003598,
1530,1970,-0.039618,-0.109739,0.999999,0.000135,-0.000166,0.001733,0.000272,0.001771,-0.000205,82.015309,0.001938,
1730,1250,-0.761233,-1.957668,0.999999,0.000156,-0.001346,0.002619,0.000255,0.002635,-0.001362,86.335669,0.002635,
1150,430,0.050207,-4.344064,0.999998,0.000171,-0.000661,0.001838,-0.000154,0.001847,-0.000671,-86.485104,0.001870,
990,1560,0.190074,-0.924059,0.999998,0.000161,-0.001041,0.002217,0.000274,0.002239,-0.001063,85.233496,0.002240,
840,390,0.309207,-4.249293,0.999998,0.000210,-0.001102,0.002407,-0.000036,0.002407,-0.001102,-89.407784,0.002410,
1200,680,0.017378,-3.958257,0.999999,0.000128,-0.000573,0.001238,-0.000261,0.001275,-0.000610,-81.959958,0.001275,
1050,2000,0.009800,-0.055570,0.999999,0.000117,-0.000090,0.001551,-0.000105,0.001558,-0.000096,-86.340189,0.001746,
1830,910,-0.964038,-2.789290,0.999999,0.000144,-0.001111,0.002326,-0.000128,0.002331,-0.001116,-87.864663,0.002332,
580,480,0.687377,-3.820113,0.999997,0.000213,-0.002186,0.002529,-0.000201,0.002538,-0.002195,-87.559864,0.002754,
630,410,0.572377,-4.036196,0.999998,0.000185,-0.001248,0.002517,-0.000043,0.002518,-0.001249,-89.352086,0.002518,
700,1910,0.213406,-0.279121,0.999998,0.000161,-0.001020,0.002435,-0.000447,0.002492,-0.001077,-82.742680,0.002500,
1280,450,-0.029086,-4.314730,0.999999,0.000134,-0.000584,0.001761,0.000052,0.001762,-0.000585,88.732820,0.001795,
1740,1920,-0.175592,-0.242977,0.999998,0.000149,-0.000816,0.002324,0.000529,0.002410,-0.000903,80.693196,0.002435,
1570,900,-0.640281,-2.883323,0.999998,0.000176,-0.001385,0.002997,-0.000354,0.003025,-0.001414,-85.412511,0.003027,
1400,1940,-0.025530,-0.151263,0.999999,0.000137,-0.000180,0.001628,0.000125,0.001637,-0.000189,86.073835,0.001791,
1010,510,0.175173,-4.098210,0.999998,0.000153,-0.000998,0.002219,-0.000320,0.002251,-0.001029,-84.370315,0.002254,
1310,90,-0.008274,-4.932233,0.999999,0.000141,-0.000114,0.001556,-0.000068,0.001559,-0.000117,-87.668503,0.001737,
1750,740,-0.727027,-3.245248,0.999998,0.000167,-0.001337,0.002659,-0.000179,0.002667,-0.001345,-87.438486,0.002667,
1660,1240,-0.672610,-1.954519,0.999998,0.000177,-0.001436,0.002786,0.000280,0.002805,-0.001454,86.227544,0.002805,
1520,1220,-0.469531,-1.909892,0.999998,0.000176,-0.001808,0.003243,0.000096,0.003244,-0.001810,88.911496,0.003252,
880,780,0.514187,-3.238344,0.999998,0.000167,-0.001660,0.003023,0.000120,0.003026,-0.001663,88.537954,0.003031,
1660,430,-0.374147,-4.123746,0.999998,0.000173,-0.001197,0.002476,0.000077,0.002478,-0.001198,88.794359,0.002478,
1470,60,-0.015977,-4.976147,0.999999,0.000102,-0.000064,0.001587,-0.000192,0.001609,-0.000086,-83.450435,0.001810,
1100,1870,0.036357,-0.266353,0.999998,0.000145,-0.000284,0.001741,-0.000046,0.001742,-0.000285,-88.709967,0.001869,
1030,1260,0.253225,-1.624501,0.999998,0.000202,-0.001887,0.003030,0.000648,0.003115,-0.001971,82.612977,0.003151,
720,1890,0.221863,-0.317074,0.999998,0.000192,-0.000931,0.002448,-0.000423,0.002500,-0.000983,-82.970585,0.002519,
560,470,0.755366,-3.809264,0.999862,0.000000,-0.003178,0.003002,-0.000071,0.003003,-0.003179,-89.338686,0.003573,
1450,1500,-0.179601,-1.037113,0.999999,0.000149,-0.001097,0.002229,-0.000376,0.002271,-0.001139,-83.624907,0.002271,
580,70,0.183524,-4.864931,0.999998,0.000165,-0.000703,0.003032,0.000891,0.003234,-0.000905,77.251561,0.003337,
1220,1390,0.006269,-1.057867,0.999999,0.000120,-0.000556,0.001276,0.000112,0.001283,-0.000563,86.518743,0.001286,
1080,1430,0.115098,-1.114724,0.999999,0.000142,-0.001050,0.002011,0.000590,0.002121,-0.001160,79.466231,0.002124,
1650,80,-0.062248,-4.930140,0.999999,0.000130,-0.000282,0.001917,-0.000488,0.002021,-0.000385,-78.024476,0.002146,
1030,1640,0.134543,-0.724917,0.999998,0.000145,-0.000813,0.002052,0.000159,0.002060,-0.000822,86.838203,0.002074,
1010,480,0.167214,-4.165729,0.999998,0.000150,-0.000993,0.002169,-0.000292,0.002196,-0.001020,-84.771708,0.002198,
1360,200,-0.040864,-4.745766,0.999998,0.000145,-0.000318,0.001770,-0.000048,0.001771,-0.000319,-88.694207,0.001888,
950,690,0.316131,-3.583467,0.999997,0.000184,-0.001663,0.002826,-0.000353,0.002854,-0.001691,-85.536829,0.002870,
1000,600,0.206581,-3.882254,0.999998,0.000162,-0.001290,0.002406,-0.000468,0.002464,-0.001348,-82.899838,0.002468,
940,770,0.398758,-3.334799,0.999997,0.000178,-0.001825,0.003132,-0.000165,0.003138,-0.001830,-88.090638,0.003152,
790,620,0.515357,-3.621612,0.999998,0.000172,-0.001424,0.002698,-0.000039,0.002699,-0.001424,-89.455927,0.002700,
1050,1760,0.088282,-0.475862,0.999998,0.000155,-0.000627,0.001926,0.000031,0.001927,-0.000627,89.297956,0.001965,
1330,880,-0.248678,-3.592828,0.999998,0.000000,-0.000773,0.000996,0.000855,0.001342,-0.001118,67.980713,0.001438,
610,740,0.858923,-3.183598,0.999999,0.000129,-0.001238,0.002473,0.000074,0.002474,-0.001240,88.858436,0.002474,
1530,1990,-0.026264,-0.074580,0.999999,0.000153,-0.000104,0.001694,0.000269,0.001734,-0.000144,81.668379,0.001924,
840,370,0.295067,-4.297547,0.999998,0.000212,-0.001044,0.002391,0.000027,0.002391,-0.001044,89.557814,0.002398,
1730,1230,-0.778961,-2.009572,0.999999,0.000151,-0.001318,0.002631,0.000259,0.002647,-0.001335,86.261872,0.002647,
1790,870,-0.892369,-2.895890,0.999998,0.000154,-0.001193,0.002453,-0.000223,0.002466,-0.001206,-86.508432,0.002467,
1780,1330,-0.753916,-1.772845,0.999998,0.000146,-0.001299,0.002548,0.000155,0.002555,-0.001306,87.692570,0.002555,
1150,410,0.048396,-4.380231,0.999998,0.000165,-0.000631,0.001798,-0.000103,0.001803,-0.000635,-87.570220,0.001829,
1830,930,-0.976082,-2.741816,0.999998,0.000178,-0.001100,0.002328,-0.000131,0.002333,-0.001105,-87.820346,0.002334,
570,1980,0.205586,-0.200405,0.999968,0.000648,-0.000831,0.003182,-0.000914,0.003380,-0.001029,-77.755325,0.003466,
1200,660,0.016282,-3.983876,0.999999,0.000135,-0.000564,0.001297,-0.000232,0.001325,-0.000593,-83.006424,0.001328,
1250,1750,-0.009032,-0.463962,0.999998,0.000146,-0.000493,0.001778,-0.000038,0.001778,-0.000493,-89.041964,0.001836,
710,1210,0.828362,-2.069128,0.999998,0.000151,-0.001265,0.002534,-0.000265,0.002552,-0.001284,-86.026279,0.002552,
990,640,0.230304,-3.773850,0.999998,0.000149,-0.001454,0.002503,-0.000473,0.002559,-0.001510,-83.284448,0.002573,
1720,40,-0.030693,-4.999393,0.999999,0.000126,-0.000055,0.001945,-0.000678,0.002153,-0.000263,-72.930797,0.002349,
790,980,0.825865,-2.640149,0.999998,0.000163,-0.001035,0.002556,0.000144,0.002562,-0.001040,87.700237,0.002577,
1720,1990,-0.066238,-0.089860,0.999998,0.000152,-0.000217,0.001984,0.000641,0.002157,-0.000390,74.887004,0.002299,
1260,450,-0.017207,-4.317393,0.999998,0.000181,-0.000598,0.001755,0.000074,0.001757,-0.000600,88.198782,0.001787,
1400,1920,-0.032249,-0.181574,0.999999,0.000118,-0.000240,0.001670,0.000119,0.001677,-0.000247,86.445806,0.001811,
1740,1900,-0.205161,-0.290887,0.999998,0.000144,-0.000896,0.002398,0.000457,0.002460,-0.000958,82.250526,0.002480,
750,1840,0.258849,-0.423736,0.999998,0.000170,-0.000886,0.002393,-0.000321,0.002424,-0.000917,-84.463903,0.002448,
1730,740,-0.699320,-3.256339,0.999999,0.000161,-0.001394,0.002675,-0.000190,0.002684,-0.001402,-87.337743,0.002685,
1660,1260,-0.652991,-1.898073,0.999998,0.000195,-0.001473,0.002816,0.000243,0.002830,-0.001487,86.767093,0.002831,
650,360,0.509680,-4.179016,0.999998,0.000180,-0.001240,0.002511,0.000015,0.002511,-0.001240,89.778269,0.002511,
1640,430,-0.350584,-4.138685,0.999998,0.000172,-0.001181,0.002473,0.000084,0.002475,-0.001183,88.680809,0.002475,
880,760,0.494113,-3.298135,0.999997,0.000189,-0.001687,0.003029,0.000055,0.003030,-0.001687,89.328633,0.003037,
1520,1200,-0.501359,-1.975996,0.999998,0.000177,-0.001745,0.003265,0.000171,0.003271,-0.001751,88.043146,0.003273,
1000,1570,0.177591,-0.894159,0.999999,0.000126,-0.001011,0.002201,0.000268,0.002223,-0.001033,85.260801,0.002225,
1790,80,-0.124896,-4.903026,0.999998,0.000162,-0.000498,0.002428,-0.000933,0.002700,-0.000770,-73.729958,0.002782,
1220,1330,0.005165,-1.122757,0.999999,0.000134,-0.000506,0.000926,0.000142,0.000940,-0.000520,84.381422,0.000941,
1450,1380,-0.209910,-1.321299,0.999998,0.000172,-0.001504,0.002568,-0.000601,0.002655,-0.001591,-81.781780,0.002673,
1430,1500,-0.159041,-1.019789,0.999998,0.000155,-0.001071,0.002178,-0.000422,0.002232,-0.001124,-82.723766,0.002232,
1600,1920,-0.097391,-0.211014,0.999998,0.000158,-0.000474,0.001945,0.000331,0.001989,-0.000519,82.350079,0.002064,
1630,60,-0.038076,-4.968805,0.999999,0.000135,-0.000125,0.001816,-0.000440,0.001911,-0.000220,-77.813829,0.002091,
560,460,0.725565,-3.842904,0.999885,0.000000,-0.003158,0.003031,-0.000014,0.003031,-0.003158,-89.867172,0.003576,
1030,1620,0.139142,-0.765718,0.999999,0.000144,-0.000827,0.002047,0.000177,0.002058,-0.000838,86.490332,0.002070,
1320,2020,-0.002315,-0.021791,0.999999,0.000000,-0.000035,0.001550,0.000063,0.001553,-0.000037,87.733241,0.001772,
1310,70,-0.005012,-4.962580,0.999999,0.000113,-0.000073,0.001537,-0.000062,0.001540,-0.000076,-87.797604,0.001736,
1730,300,-0.359209,-4.398227,0.999997,0.000196,-0.001095,0.002504,-0.000100,0.002507,-0.001098,-88.412881,0.002513,
1130,1440,0.067611,-1.039158,0.999998,0.000162,-0.000811,0.001733,0.000462,0.001814,-0.000893,80.018878,0.001814,
840,880,0.691191,-2.916934,0.999998,0.000168,-0.001358,0.002840,0.000345,0.002868,-0.001386,85.328900,0.002869,
950,890,0.542760,-2.954960,0.999998,0.000184,-0.001609,0.003271,0.000241,0.003282,-0.001621,87.183108,0.003283,
590,740,0.884371,-3.169222,0.999999,0.000136,-0.001262,0.002478,0.000053,0.002479,-0.001263,89.190736,0.002479,
1760,1330,-0.726845,-1.762171,0.999998,0.000163,-0.001358,0.002594,0.000163,0.002601,-0.001365,87.642258,0.002602,
1830,950,-0.985958,-2.695911,0.999998,0.000183,-0.001071,0.002280,-0.000097,0.002283,-0.001073,-88.338053,0.002284,
1150,390,0.044892,-4.415837,0.999998,0.000140,-0.000608,0.001807,-0.000085,0.001810,-0.000611,-87.993350,0.001842,
1080,1870,0.042248,-0.267719,0.999998,0.000159,-0.000277,0.001717,-0.000077,0.001720,-0.000280,-87.787673,0.001845,
1540,60,-0.023731,-4.972239,0.999999,0.000120,-0.000074,0.001680,-0.000293,0.001727,-0.000122,-80.769119,0.001928,
1730,1450,-0.584631,-1.424925,0.999997,0.000190,-0.001370,0.002640,0.000006,0.002640,-0.001370,89.907895,0.002641,
1400,190,-0.049702,-4.761135,0.999998,0.000193,-0.000397,0.001772,-0.000068,0.001774,-0.000399,-88.211913,0.001861,
1430,720,-0.195634,-3.634068,0.999998,0.000190,-0.001615,0.002581,0.000712,0.002698,-0.001732,80.627318,0.002734,
1450,1170,-0.420955,-1.965478,0.999998,0.000183,-0.001840,0.003485,-0.000200,0.003493,-0.001847,-87.854029,0.003494,
1000,1680,0.147374,-0.657354,0.999998,0.000159,-0.000728,0.002090,0.000075,0.002092,-0.000730,88.477886,0.002124,
1250,1730,-0.008336,-0.500426,0.999998,0.000139,-0.000512,0.001743,-0.000032,0.001744,-0.000513,-89.185993,0.001792,
630,390,0.558522,-4.085719,0.999998,0.000178,-0.001250,0.002524,-0.000039,0.002524,-0.001250,-89.411836,0.002524,
1770,860,-0.859655,-2.926904,0.999998,0.000157,-0.001234,0.002488,-0.000225,0.002502,-0.001248,-86.558434,0.002502,
1450,60,-0.015258,-4.976308,0.999999,0.000100,-0.000060,0.001584,-0.000161,0.001600,-0.000076,-84.445509,0.001805,
1860,230,-0.441280,-4.461355,0.999997,0.000193,-0.001226,0.002489,-0.000053,0.002490,-0.001227,-89.185356,0.002490,
700,260,0.357858,-4.472071,0.999997,0.000224,-0.001187,0.002513,0.000140,0.002519,-0.001192,87.839153,0.002520,
1400,1900,-0.038912,-0.218585,0.999999,0.000127,-0.000286,0.001772,0.000091,0.001776,-0.000290,87.478194,0.001905,
1080,510,0.107819,-4.154916,0.999998,0.000148,-0.000859,0.002000,-0.000338,0.002039,-0.000898,-83.348501,0.002044,
1200,640,0.017294,-4.009623,0.999999,0.000145,-0.000594,0.001371,-0.000201,0.001392,-0.000614,-84.224632,0.001395,
700,1490,0.596960,-1.344143,0.999998,0.000180,-0.001329,0.002593,0.000005,0.002593,-0.001329,89.926744,0.002593,
1740,1880,-0.231798,-0.339257,0.999998,0.000156,-0.000972,0.002392,0.000394,0.002437,-0.001018,83.402011,0.002448,
1760,1870,-0.267534,-0.377049,0.999998,0.000155,-0.001100,0.002445,0.000312,0.002472,-0.001128,85.008375,0.002476,
1520,1180,-0.529102,-2.041422,0.999998,0.000174,-0.001670,0.003259,0.000249,0.003272,-0.001683,87.112642,0.003272,
880,740,0.474132,-3.359340,0.999997,0.000209,-0.001681,0.002971,-0.000008,0.002971,-0.001681,-89.901871,0.002980,
820,230,0.209935,-4.615388,0.999998,0.000165,-0.000767,0.002295,0.000242,0.002314,-0.000786,85.515861,0.002354,
980,440,0.184811,-4.230608,0.999998,0.000169,-0.000991,0.002210,-0.000204,0.002223,-0.001004,-86.364874,0.002227,
650,340,0.491837,-4.228990,0.999998,0.000179,-0.001239,0.002521,0.000007,0.002521,-0.001239,89.898384,0.002521,
1790,850,-0.877046,-2.943976,0.999999,0.000140,-0.001198,0.002459,-0.000212,0.002472,-0.001211,-86.694406,0.002472,
1660,1700,-0.325469,-0.732697,0.999998,0.000156,-0.001180,0.002422,-0.000010,0.002422,-0.001180,-89.837222,0.002422,
630,420,0.581028,-4.010612,0.999998,0.000184,-0.001245,0.002526,-0.000038,0.002526,-0.001245,-89.430121,0.002526,
1410,1480,-0.139196,-1.041347,0.999999,0.000131,-0.001062,0.002108,-0.000482,0.002180,-0.001134,-81.535167,0.002180,
1850,1480,-0.717393,-1.436912,0.999998,0.000140,-0.001287,0.002566,-0.000009,0.002566,-0.001287,-89.873022,0.002566,
560,450,0.709162,-3.878572,0.999788,0.000000,-0.003307,0.002699,-0.000550,0.002749,-0.003357,-84.814056,0.003577,
1200,1250,0.026899,-1.192409,0.999998,0.000174,-0.000838,0.000593,0.000414,0.000704,-0.000949,74.960569,0.000985,
750,1820,0.278369,-0.471960,0.999998,0.000168,-0.000928,0.002448,-0.000262,0.002468,-0.000948,-85.583188,0.002490,
1360,180,-0.035626,-4.782676,0.999998,0.000148,-0.000280,0.001739,-0.000068,0.001742,-0.000283,-88.059950,0.001869,
1620,50,-0.029106,-4.986924,0.999999,0.000127,-0.000070,0.001746,-0.000405,0.001832,-0.000156,-77.975409,0.002031,
580,740,0.896781,-3.160983,0.999999,0.000124,-0.001355,0.002556,0.000041,0.002556,-0.001356,89.397572,0.002558,
1170,1760,0.027534,-0.450361,0.999998,0.000149,-0.000422,0.001763,-0.000007,0.001763,-0.000422,-89.803565,0.001841,
1270,860,-0.102586,-3.800079,0.999998,0.000000,-0.002040,0.000760,-0.000036,0.000761,-0.002040,-89.268613,0.002062,
1730,1210,-0.798154,-2.063043,0.999998,0.000153,-0.001275,0.002573,0.000286,0.002594,-0.001296,85.773165,0.002594,
930,1990,0.026661,-0.073150,0.999999,0.000124,-0.000093,0.001694,-0.000281,0.001737,-0.000136,-81.284614,0.001932,
1540,500,-0.266918,-4.047793,0.999998,0.000159,-0.001215,0.002381,0.000222,0.002395,-0.001229,86.480075,0.002395,
1300,1980,-0.005431,-0.083245,0.999999,0.000138,-0.000073,0.001541,0.000054,0.001543,-0.000075,88.100448,0.001741,
1170,1700,0.032671,-0.557051,0.999998,0.000161,-0.000510,0.001770,-0.000001,0.001770,-0.000510,-89.979228,0.001822,
790,600,0.500284,-3.674740,0.999996,0.000214,-0.001393,0.002672,-0.000058,0.002673,-0.001394,-89.176211,0.002673,
920,770,0.434680,-3.308124,0.999997,0.000172,-0.001788,0.003118,-0.000060,0.003118,-0.001789,-89.295856,0.003130,
1680,1590,-0.420200,-1.019692,0.999999,0.000150,-0.001250,0.002525,-0.000081,0.002527,-0.001252,-88.776087,0.002527,
1480,290,-0.127413,-4.551004,0.999998,0.000175,-0.000655,0.002021,-0.000027,0.002022,-0.000655,-89.424512,0.002063,
630,370,0.542343,-4.137778,0.999998,0.000176,-0.001242,0.002523,-0.000007,0.002523,-0.001242,-89.888008,0.002523,
1010,490,0.168877,-4.143137,0.999998,0.000170,-0.000999,0.002182,-0.000304,0.002211,-0.001028,-84.598345,0.002213,
1360,1570,-0.084921,-0.820903,0.999999,0.000114,-0.000742,0.001909,-0.000247,0.001932,-0.000765,-84.716974,0.001946,
1450,1190,-0.386997,-1.894897,0.999998,0.000168,-0.001927,0.003478,-0.000293,0.003494,-0.001943,-86.903920,0.003501,
1830,1390,-0.763675,-1.653223,0.999998,0.000180,-0.001274,0.002569,0.000071,0.002570,-0.001276,88.943925,0.002570,
1390,540,-0.117150,-4.089486,0.999998,0.000140,-0.000906,0.002011,0.000381,0.002060,-0.000955,82.688185,0.002062,
1400,1880,-0.044424,-0.254177,0.999999,0.000131,-0.000341,0.001726,0.000067,0.001728,-0.000343,88.149640,0.001830,
1670,740,-0.612796,-3.291659,0.999998,0.000182,-0.001488,0.002799,-0.000173,0.002806,-0.001494,-87.692315,0.002808,
1740,1860,-0.258887,-0.386724,0.999998,0.000165,-0.001025,0.002429,0.000332,0.002461,-0.001057,84.560603,0.002469,
1250,1710,-0.009931,-0.534163,0.999998,0.000157,-0.000536,0.001762,-0.000035,0.001762,-0.000537,-89.117077,0.001807,
1080,490,0.104743,-4.196072,0.999999,0.000141,-0.000844,0.001989,-0.000305,0.002022,-0.000876,-83.917863,0.002028,
1200,620,0.017978,-4.036571,0.999999,0.000137,-0.000604,0.001476,-0.000174,0.001490,-0.000619,-85.263259,0.001497,
1420,1870,-0.055526,-0.274423,0.999998,0.000153,-0.000392,0.001755,0.000096,0.001760,-0.000396,87.452523,0.001846,
1420,1990,-0.013981,-0.071418,0.999999,0.000133,-0.000116,0.001591,0.000135,0.001602,-0.000127,85.499005,0.001781,
1820,530,-0.645852,-3.741824,0.999998,0.000161,-0.001280,0.002565,0.000030,0.002565,-0.001280,89.550186,0.002565,
800,500,0.420858,-3.944760,0.999997,0.000172,-0.001292,0.002548,-0.000107,0.002551,-0.001295,-88.409946,0.002551,
1520,1160,-0.561555,-2.107424,0.999998,0.000180,-0.001580,0.003226,0.000299,0.003245,-0.001598,86.452608,0.003245,
980,400,0.172913,-4.318326,0.999998,0.000172,-0.000912,0.002160,-0.000151,0.002168,-0.000920,-87.199271,0.002176,
1170,60,0.002783,-4.979706,0.999999,0.000145,-0.000040,0.001507,0.000035,0.001508,-0.000041,88.692055,0.001718,
1790,830,-0.861021,-2.995090,0.999998,0.000155,-0.001211,0.002478,-0.000214,0.002490,-0.001223,-86.687192,0.002490,
880,720,0.456461,-3.417379,0.999997,0.000179,-0.001670,0.002924,-0.000054,0.002925,-0.001670,-89.330179,0.002935,
1150,370,0.044639,-4.452985,0.999998,0.000147,-0.000582,0.001821,-0.000074,0.001823,-0.000584,-88.247170,0.001862,
1660,1680,-0.338260,-0.780030,0.999998,0.000163,-0.001186,0.002450,-0.000028,0.002450,-0.001186,-89.555670,0.002451,
820,210,0.190394,-4.660644,0.999998,0.000157,-0.000742,0.002225,0.000290,0.002253,-0.000770,84.467392,0.002290,
1270,30,-0.001422,-5.023383,0.999999,0.000000,-0.000036,0.001467,-0.000001,0.001467,-0.000036,-89.975314,0.001673,
1430,700,-0.187480,-3.685241,0.999998,0.000188,-0.001513,0.002546,0.000699,0.002664,-0.001630,80.495459,0.002686,
1030,1240,0.276293,-1.686151,0.999997,0.000187,-0.001920,0.003103,0.000583,0.003170,-0.001986,83.468777,0.003203,
700,240,0.338460,-4.523808,0.999997,0.000210,-0.001168,0.002529,0.000157,0.002536,-0.001174,87.565146,0.002538,
1360,160,-0.029471,-4.816560,0.999999,0.000144,-0.000239,0.001692,-0.000094,0.001696,-0.000243,-87.211599,0.001835,
1610,50,-0.027881,-4.987388,0.999999,0.000144,-0.000090,0.001729,-0.000384,0.001806,-0.000168,-78.550944,0.001996,
1760,70,-0.090152,-4.932439,0.999999,0.000140,-0.000531,0.002218,-0.000763,0.002416,-0.000729,-75.476809,0.002478,
1390,1480,-0.118691,-1.019902,0.999999,0.000152,-0.001002,0.002016,-0.000461,0.002085,-0.001071,-81.509172,0.002085,
1840,230,-0.416972,-4.483655,0.999997,0.000205,-0.001214,0.002530,-0.000072,0.002531,-0.001216,-88.896900,0.002532,
700,1470,0.613015,-1.396557,0.999998,0.000171,-0.001340,0.002619,-0.000005,0.002619,-0.001340,-89.930181,0.002620,
590,1400,0.811451,-1.659698,0.999998,0.000165,-0.001354,0.002523,-0.000042,0.002524,-0.001354,-89.381702,0.002526,
560,440,0.721073,-3.900079,0.999735,0.000000,-0.003275,0.002299,-0.000716,0.002389,-0.003365,-82.797194,0.003463,
1540,480,-0.261292,-4.095057,0.999998,0.000156,-0.001162,0.002370,0.000207,0.002382,-0.001174,86.657478,0.002382,
1730,1170,-0.830765,-2.166056,0.999998,0.000158,-0.001235,0.002584,0.000271,0.002603,-0.001254,85.965272,0.002604,
1400,1860,-0.051113,-0.287180,0.999999,0.000137,-0.000365,0.001761,0.000075,0.001764,-0.000368,87.990069,0.001861,
1290,1760,-0.027039,-0.449307,0.999999,0.000114,-0.000403,0.001746,0.000005,0.001746,-0.000403,89.870983,0.001829,
930,1970,0.041145,-0.112235,0.999999,0.000131,-0.000189,0.001763,-0.000277,0.001802,-0.000228,-82.073699,0.001962,
1830,1370,-0.781929,-1.705056,0.999998,0.000165,-0.001273,0.002546,0.000083,0.002548,-0.001274,88.758521,0.002548,
1340,1570,-0.071906,-0.809527,0.999999,0.000134,-0.000703,0.001853,-0.000215,0.001871,-0.000721,-85.219994,0.001888,
1480,270,-0.118475,-4.591774,0.999998,0.000163,-0.000599,0.002006,-0.000044,0.002006,-0.000599,-89.035654,0.002060,
1670,760,-0.633727,-3.235911,0.999997,0.000205,-0.001464,0.002803,-0.000189,0.002811,-0.001472,-87.472578,0.002812,
1260,710,-0.014198,-3.924518,0.999999,0.000125,-0.000538,0.001070,0.000293,0.001122,-0.000589,79.997825,0.001122,
1450,1630,-0.151610,-0.754022,0.999998,0.000182,-0.000851,0.002129,-0.000175,0.002139,-0.000862,-86.658509,0.002153,
1010,450,0.158668,-4.230857,0.999998,0.000168,-0.000939,0.002133,-0.000229,0.002150,-0.000956,-85.759021,0.002154,
1610,1480,-0.395166,-1.243983,0.999997,0.000181,-0.001375,0.002633,-0.000167,0.002640,-0.001382,-87.623803,0.002641,
1820,510,-0.630616,-3.792043,0.999997,0.000182,-0.001281,0.002567,0.000018,0.002567,-0.001281,89.725816,0.002567,
630,350,0.526015,-4.188142,0.999998,0.000186,-0.001243,0.002505,-0.000007,0.002505,-0.001243,-89.893818,0.002505,
800,480,0.407879,-3.996063,0.999998,0.000175,-0.001261,0.002537,-0.000102,0.002540,-0.001263,-88.464147,0.002540,
700,1970,0.116809,-0.141307,0.999999,0.000126,-0.000684,0.002220,-0.000678,0.002371,-0.000835,-77.478185,0.002405,
1150,60,0.003226,-4.978189,0.999999,0.000130,-0.000061,0.001518,0.000067,0.001521,-0.000064,87.592621,0.001720,
1390,520,-0.115674,-4.129360,0.999999,0.000131,-0.000881,0.002008,0.000329,0.002045,-0.000918,83.582202,0.002049,
1740,1840,-0.282401,-0.436234,0.999997,0.000188,-0.001063,0.002497,0.000262,0.002516,-0.001082,85.818004,0.002525,
1480,130,-0.050400,-4.856444,0.999998,0.000151,-0.000291,0.001771,-0.000182,0.001787,-0.000307,-84.989603,0.001911,
1420,1290,-0.204288,-1.506356,0.999998,0.000193,-0.001739,0.002793,-0.000785,0.002925,-0.001871,-80.448730,0.002963,
1660,1660,-0.351851,-0.827784,0.999998,0.000184,-0.001179,0.002470,-0.000031,0.002470,-0.001180,-89.510545,0.002471,
710,1190,0.844320,-2.119836,0.999998,0.000168,-0.001250,0.002522,-0.000254,0.002539,-0.001267,-86.159840,0.002539,
1050,490,0.130645,-4.173260,0.999998,0.000151,-0.000898,0.002049,-0.000268,0.002073,-0.000923,-84.842778,0.002078,
1250,1480,-0.010623,-0.932284,0.999998,0.000171,-0.000597,0.001574,-0.000114,0.001580,-0.000603,-86.989543,0.001594,
1150,1700,0.042622,-0.559167,0.999999,0.000142,-0.000567,0.001795,0.000042,0.001796,-0.000568,88.983464,0.001836,
1260,2020,-0.000633,-0.023653,0.999999,0.000000,0.000013,0.001525,0.000010,0.001525,0.000013,89.606604,0.001769,
700,220,0.315041,-4.572684,0.999997,0.000192,-0.001148,0.002496,0.000213,0.002508,-0.001160,86.663509,0.002510,
1150,350,0.041580,-4.489307,0.999998,0.000174,-0.000573,0.001817,-0.000037,0.001817,-0.000574,-89.123774,0.001858,
580,1400,0.823126,-1.667844,0.999998,0.000156,-0.001563,0.002566,-0.000037,0.002566,-0.001563,-89.483734,0.002586,
1710,1520,-0.505790,-1.222816,0.999997,0.000184,-0.001345,0.002599,-0.000050,0.002599,-0.001346,-89.278009,0.002600,
1300,1960,-0.007028,-0.113639,0.999999,0.000140,-0.000114,0.001562,0.000046,0.001564,-0.000116,88.423628,0.001743,
680,1490,0.623647,-1.360008,0.999998,0.000171,-0.001321,0.002577,0.000012,0.002577,-0.001321,89.830888,0.002578,
1270,1760,-0.018755,-0.448018,0.999998,0.000152,-0.000455,0.001755,-0.000005,0.001755,-0.000455,-89.859759,0.001822,
1760,1910,-0.210712,-0.278708,0.999999,0.000130,-0.000988,0.002418,0.000464,0.002480,-0.001050,82.379971,0.002489,
570,1920,0.335702,-0.373237,0.999928,0.001034,-0.000685,0.002765,-0.000309,0.002792,-0.000712,-84.929750,0.002902,
1320,1250,-0.079371,-1.319710,0.999998,0.000187,-0.001093,0.001405,-0.001053,0.001789,-0.001478,-69.935239,0.001912,
1790,810,-0.842750,-3.044818,0.999998,0.000156,-0.001250,0.002488,-0.000226,0.002502,-0.001263,-86.550500,0.002502,
1400,1840,-0.058229,-0.324140,0.999998,0.000160,-0.000406,0.001804,0.000059,0.001806,-0.000408,88.485003,0.001894,
770,980,0.845359,-2.639244,0.999998,0.000152,-0.001049,0.002513,0.000122,0.002517,-0.001053,88.032601,0.002528,
1420,810,-0.245972,-3.401719,0.999998,0.000211,-0.001938,0.002988,0.000727,0.003093,-0.002043,81.776905,0.003146,
1360,140,-0.025365,-4.850718,0.999999,0.000133,-0.000198,0.001615,-0.000085,0.001619,-0.000202,-87.308825,0.001764,
1330,360,-0.053225,-4.466393,0.999998,0.000134,-0.000595,0.001854,0.000084,0.001857,-0.000598,88.032860,0.001896,
950,60,0.023881,-4.974446,0.999999,0.000172,-0.000131,0.001657,0.000228,0.001686,-0.000160,82.836372,0.001861,
1770,100,-0.145934,-4.863992,0.999998,0.000139,-0.000758,0.002274,-0.000640,0.002404,-0.000888,-78.564987,0.002431,
1400,1270,-0.183025,-1.513074,0.999998,0.000190,-0.001760,0.002662,-0.000912,0.002842,-0.001940,-78.795698,0.002905,
790,1400,0.542490,-1.513881,0.999998,0.000187,-0.001445,0.002717,-0.000017,0.002717,-0.001445,-89.768456,0.002719,
1250,1690,-0.011170,-0.571374,0.999998,0.000161,-0.000548,0.001787,-0.000056,0.001788,-0.000549,-88.631831,0.001832,
1050,320,0.094604,-4.516136,0.999998,0.000158,-0.000697,0.001971,-0.000040,0.001972,-0.000697,-89.136421,0.002000,
1240,190,-0.001648,-4.773072,0.999998,0.000177,-0.000306,0.001669,0.000021,0.001669,-0.000306,89.398630,0.001777,
1540,460,-0.252998,-4.142020,0.999998,0.000161,-0.001130,0.002375,0.000175,0.002384,-0.001139,87.142470,0.002385,
1740,1820,-0.306209,-0.487067,0.999998,0.000182,-0.001090,0.002485,0.000225,0.002499,-0.001104,86.415562,0.002504,
1600,1880,-0.131237,-0.291080,0.999998,0.000186,-0.000615,0.002057,0.000285,0.002087,-0.000645,83.983617,0.002137,
1420,1850,-0.063709,-0.309974,0.999999,0.000165,-0.000436,0.001795,0.000074,0.001798,-0.000439,88.093127,0.001875,
710,800,0.786199,-3.086866,0.999998,0.000197,-0.001321,0.002580,0.000224,0.002593,-0.001334,86.719247,0.002593,
1150,330,0.040270,-4.525473,0.999998,0.000181,-0.000538,0.001841,-0.000027,0.001841,-0.000539,-89.338738,0.001893,
1510,1020,-0.681973,-2.542792,0.999998,0.000184,-0.000921,0.003079,-0.000029,0.003079,-0.000922,-89.587501,0.003161,
1890,1740,-0.565669,-0.818707,0.999997,0.000186,-0.001187,0.002447,-0.000023,0.002447,-0.001187,-89.638628,0.002447,
700,200,0.290515,-4.622440,0.999998,0.000172,-0.001108,0.002496,0.000273,0.002517,-0.001129,85.700074,0.002521,
1820,1750,-0.471565,-0.727968,0.999998,0.000198,-0.001214,0.002538,0.000025,0.002538,-0.001215,89.622096,0.002539,
1660,1640,-0.364907,-0.878390,0.999998,0.000184,-0.001172,0.002474,-0.000062,0.002475,-0.001173,-89.026733,0.002476,
930,1620,0.231850,-0.832504,0.999998,0.000144,-0.001038,0.002312,0.000142,0.002318,-0.001044,87.571742,0.002322,
960,1930,0.055515,-0.178273,0.999999,0.000138,-0.000339,0.001792,-0.000209,0.001813,-0.000359,-84.448725,0.001920,
1620,700,-0.499234,-3.443121,0.999997,0.000213,-0.001622,0.002856,-0.000002,0.002856,-0.001622,-89.972060,0.002865,
570,1930,0.318450,-0.348741,0.999948,0.000875,-0.000673,0.002568,-0.000419,0.002622,-0.000727,-82.744880,0.002707,
1480,1210,-0.409517,-1.885354,0.999998,0.000184,-0.001927,0.003366,-0.000085,0.003368,-0.001929,-89.075308,0.003380,
1830,1350,-0.799621,-1.755565,0.999998,0.000167,-0.001262,0.002509,0.000104,0.002512,-0.001265,88.421812,0.002512,
1300,1940,-0.010281,-0.146219,0.999999,0.000141,-0.000147,0.001587,0.000071,0.001590,-0.000150,87.644265,0.001755,
1400,1990,-0.011377,-0.070504,0.999999,0.000146,-0.000079,0.001580,0.000112,0.001587,-0.000087,86.142523,0.001785,
750,1390,0.608650,-1.571109,0.999997,0.000212,-0.001416,0.002656,-0.000070,0.002657,-0.001417,-89.009197,0.002659,
740,1850,0.254746,-0.403128,0.999998,0.000173,-0.000871,0.002401,-0.000357,0.002440,-0.000910,-83.844164,0.002466,
720,1990,0.071991,-0.091732,0.999998,0.000169,-0.000441,0.002109,-0.000689,0.002283,-0.000615,-75.805250,0.002363,
570,740,0.909675,-3.151836,0.999994,0.000274,-0.001410,0.002653,0.000017,0.002653,-0.001410,89.757399,0.002655,
1780,690,-0.721742,-3.357224,0.999998,0.000196,-0.001332,0.002587,-0.000095,0.002589,-0.001334,-88.618866,0.002590,
1870,1480,-0.743230,-1.453326,0.999997,0.000179,-0.001272,0.002564,-0.000015,0.002564,-0.001273,-89.780287,0.002564,
750,980,0.866059,-2.638230,0.999998,0.000165,-0.001077,0.002479,0.000098,0.002481,-0.001080,88.417432,0.002488,
1400,1250,-0.201624,-1.568329,0.999998,0.000172,-0.001835,0.002815,-0.000898,0.002982,-0.002003,-79.435253,0.003040,
990,420,0.169669,-4.281923,0.999998,0.000180,-0.000944,0.002175,-0.000181,0.002186,-0.000955,-86.687808,0.002191,
1760,50,-0.053734,-4.977388,0.999999,0.000147,-0.000314,0.002084,-0.000773,0.002312,-0.000541,-73.592658,0.002418,
1360,120,-0.021804,-4.881669,0.999999,0.000147,-0.000182,0.001632,-0.000099,0.001637,-0.000187,-86.896326,0.001792,
930,60,0.023088,-4.972589,0.999999,0.000132,-0.000058,0.001674,0.000267,0.001715,-0.000098,81.434336,0.001926,
950,1320,0.347889,-1.585608,0.999998,0.000159,-0.001784,0.002986,0.000292,0.003004,-0.001802,86.511110,0.003024,
1220,190,0.004061,-4.773892,0.999998,0.000164,-0.000286,0.001676,0.000002,0.001676,-0.000286,89.950156,0.001793,
990,300,0.127136,-4.533525,0.999998,0.000155,-0.000640,0.001999,0.000015,0.001999,-0.000640,89.675328,0.002041,
1740,1800,-0.326685,-0.535969,0.999998,0.000182,-0.001110,0.002495,0.000170,0.002503,-0.001119,87.303434,0.002508,
1150,310,0.037320,-4.562353,0.999998,0.000148,-0.000506,0.001797,-0.000012,0.001797,-0.000506,-89.696360,0.001854,
960,1700,0.173244,-0.638266,0.999998,0.000201,-0.000903,0.002142,0.000108,0.002146,-0.000907,87.974959,0.002155,
1450,1610,-0.154805,-0.796590,0.999998,0.000171,-0.000921,0.002097,-0.000234,0.002115,-0.000939,-85.598992,0.002120,
1540,440,-0.241819,-4.188956,0.999998,0.000156,-0.001096,0.002350,0.000156,0.002357,-0.001103,87.407039,0.002359,
800,460,0.395124,-4.047254,0.999998,0.000155,-0.001244,0.002501,-0.000096,0.002504,-0.001247,-88.531382,0.002504,
700,180,0.264348,-4.673476,0.999998,0.000160,-0.001079,0.002457,0.000330,0.002488,-0.001110,84.715454,0.002493,
1390,720,-0.135490,-3.711000,0.999998,0.000149,-0.001396,0.002272,0.000856,0.002462,-0.001586,77.491551,0.002496,
1040,1430,0.160648,-1.164298,0.999998,0.000160,-0.001212,0.002242,0.000554,0.002329,-0.001298,81.113518,0.002334,
1660,1620,-0.376853,-0.928318,0.999998,0.000178,-0.001180,0.002486,-0.000078,0.002488,-0.001182,-88.775278,0.002489,
1290,1680,-0.032354,-0.592976,0.999998,0.000154,-0.000540,0.001789,-0.000042,0.001790,-0.000541,-88.968665,0.001836,
1680,1030,-0.841333,-2.514335,0.999998,0.000178,-0.001024,0.002529,0.000012,0.002529,-0.001024,89.803958,0.002545,
1010,430,0.153738,-4.273320,0.999998,0.000181,-0.000877,0.002126,-0.000177,0.002136,-0.000887,-86.638905,0.002147,
1800,1750,-0.446724,-0.710751,0.999998,0.000172,-0.001207,0.002516,0.000038,0.002517,-0.001208,89.415519,0.002517,
1300,1920,-0.014575,-0.178352,0.999999,0.000130,-0.000169,0.001621,0.000043,0.001622,-0.000170,88.623302,0.001782,
1130,1230,0.118320,-1.390791,0.999998,0.000193,-0.001274,0.001596,0.001075,0.001955,-0.001632,71.577621,0.002096,
560,650,0.852057,-3.368575,0.999969,0.000000,-0.002023,0.003146,0.000120,0.003149,-0.002026,88.674347,0.003192,
1800,530,-0.620288,-3.757768,0.999997,0.000181,-0.001294,0.002552,0.000026,0.002552,-0.001294,89.610229,0.002552,
1730,1150,-0.847451,-2.217986,0.999998,0.000157,-0.001193,0.002513,0.000246,0.002530,-0.001209,86.221956,0.002530,
570,1970,0.231360,-0.233527,0.999963,0.000683,-0.000870,0.003183,-0.000688,0.003297,-0.000984,-80.626720,0.003385,
1480,1190,-0.441494,-1.953663,0.999998,0.000196,-0.001861,0.003399,-0.000001,0.003399,-0.001861,-89.983812,0.003404,
800,1970,0.072604,-0.121655,0.999999,0.000144,-0.000331,0.001923,-0.000481,0.002021,-0.000430,-78.443006,0.002130,
1830,1330,-0.817145,-1.805009,0.999998,0.000165,-0.001260,0.002511,0.000125,0.002515,-0.001264,88.105676,0.002515,
720,1850,0.273393,-0.414188,0.999997,0.000193,-0.001040,0.002433,-0.000277,0.002455,-0.001062,-85.464416,0.002463,
970,1760,0.139697,-0.503542,0.999998,0.000183,-0.000744,0.002043,-0.000013,0.002043,-0.000744,-89.739810,0.002068,
1620,680,-0.481760,-3.500047,0.999997,0.000205,-0.001591,0.002816,0.000028,0.002816,-0.001591,89.641506,0.002824,
980,1930,0.049420,-0.175510,0.999999,0.000148,-0.000269,0.001745,-0.000192,0.001763,-0.000287,-84.598957,0.001892,
1430,1380,-0.180327,-1.292437,0.999998,0.000154,-0.001420,0.002439,-0.000641,0.002542,-0.001524,-80.817626,0.002559,
1780,710,-0.739729,-3.304946,0.999998,0.000171,-0.001334,0.002589,-0.000139,0.002594,-0.001339,-87.977955,0.002595,
1080,690,0.120723,-3.790439,0.999998,0.000151,-0.001218,0.002162,-0.000778,0.002332,-0.001388,-77.634619,0.002346,
750,1370,0.625305,-1.624138,0.999997,0.000199,-0.001425,0.002711,-0.000101,0.002713,-0.001428,-88.603839,0.002714,
1600,1860,-0.150144,-0.333136,0.999998,0.000171,-0.000685,0.002115,0.000263,0.002139,-0.000709,84.688149,0.002180,
1880,1060,-1.047853,-2.450287,0.999999,0.000142,-0.001019,0.002096,0.000047,0.002097,-0.001020,89.137696,0.002097,
1850,1260,-0.903343,-1.990354,0.999998,0.000160,-0.001186,0.002420,0.000126,0.002424,-0.001191,87.994991,0.002424,
1810,1900,-0.275154,-0.331936,0.999998,0.000178,-0.000998,0.002631,0.000462,0.002689,-0.001056,82.864595,0.002710,
1360,100,-0.015618,-4.915338,0.999999,0.000155,-0.000124,0.001604,-0.000095,0.001609,-0.000129,-86.846732,0.001788,
740,330,0.375793,-4.327545,0.999998,0.000186,-0.001131,0.002492,0.000051,0.002493,-0.001132,89.200993,0.002496,
1490,60,-0.018291,-4.975241,0.999999,0.000113,-0.000136,0.001600,-0.000208,0.001625,-0.000160,-83.260430,0.001791,
990,480,0.187074,-4.148526,0.999999,0.000146,-0.001022,0.002220,-0.000258,0.002240,-0.001042,-85.473506,0.002242,
830,1400,0.482729,-1.482306,0.999997,0.000232,-0.001531,0.002767,0.000055,0.002768,-0.001532,89.265048,0.002773,
1390,1220,-0.220089,-1.623675,0.999998,0.000178,-0.001783,0.002762,-0.000899,0.002933,-0.001954,-79.209577,0.002987,
1740,90,-0.108003,-4.898003,0.999998,0.000144,-0.000606,0.002087,-0.000606,0.002217,-0.000736,-77.886054,0.002258,
970,300,0.140267,-4.525607,0.999998,0.000146,-0.000728,0.002048,0.000001,0.002048,-0.000728,89.983999,0.002077,
1180,190,0.014393,-4.770842,0.999999,0.000132,-0.000260,0.001672,0.000020,0.001672,-0.000261,89.411966,0.001800,
630,330,0.509811,-4.237810,0.999997,0.000194,-0.001241,0.002508,-0.000017,0.002508,-0.001241,-89.735089,0.002508,
1740,1780,-0.347614,-0.586457,0.999997,0.000210,-0.001153,0.002519,0.000130,0.002523,-0.001157,87.978243,0.002526,
930,1950,0.050526,-0.145101,0.999998,0.000151,-0.000246,0.001786,-0.000263,0.001820,-0.000279,-82.747433,0.001960,
1880,1740,-0.553809,-0.808864,0.999997,0.000192,-0.001189,0.002476,-0.000025,0.002476,-0.001189,-89.601536,0.002477,
1250,1670,-0.009101,-0.604707,0.999998,0.000166,-0.000581,0.001776,-0.000052,0.001777,-0.000582,-88.748629,0.001812,
800,440,0.384190,-4.095914,0.999998,0.000171,-0.001210,0.002468,-0.000079,0.002469,-0.001212,-88.770732,0.002469,
700,380,0.464755,-4.169765,0.999998,0.000178,-0.001215,0.002525,-0.000014,0.002525,-0.001215,-89.778149,0.002526,
1150,290,0.034356,-4.596973,0.999998,0.000156,-0.000465,0.001760,-0.000013,0.001760,-0.000465,-89.663794,0.001824,
570,1960,0.255704,-0.265605,0.999946,0.000824,-0.000855,0.003025,-0.000546,0.003100,-0.000930,-82.142170,0.003182,
1620,1990,-0.040339,-0.079772,0.999998,0.000152,-0.000159,0.001820,0.000434,0.001911,-0.000250,78.155862,0.002078,
1660,1600,-0.389123,-0.978609,0.999998,0.000167,-0.001214,0.002511,-0.000087,0.002513,-0.001216,-88.667913,0.002513,
1830,1310,-0.835211,-1.856063,0.999998,0.000146,-0.001253,0.002513,0.000136,0.002518,-0.001258,87.931118,0.002518,
1540,420,-0.234949,-4.239464,0.999998,0.000161,-0.001045,0.002302,0.000138,0.002307,-0.001051,87.642320,0.002311,
710,1170,0.859128,-2.170068,0.999998,0.000175,-0.001225,0.002510,-0.000260,0.002528,-0.001243,-86.037878,0.002528,
1300,1900,-0.014647,-0.210802,0.999999,0.000144,-0.000191,0.001654,0.000043,0.001655,-0.000192,88.661168,0.001810,
1450,1590,-0.159918,-0.839579,0.999999,0.000153,-0.000973,0.002145,-0.000263,0.002167,-0.000995,-85.216869,0.002170,
960,1680,0.180578,-0.680958,0.999998,0.000178,-0.000922,0.002165,0.000104,0.002168,-0.000925,88.081241,0.002176,
1800,1730,-0.464195,-0.761467,0.999998,0.000185,-0.001226,0.002537,-0.000003,0.002537,-0.001226,-89.960702,0.002538,
1830,2000,-0.088163,-0.086508,0.999999,0.000140,-0.000917,0.002388,0.000728,0.002541,-0.001070,78.113785,0.002552,
1050,470,0.129846,-4.213924,0.999998,0.000155,-0.000852,0.002023,-0.000233,0.002042,-0.000871,-85.387218,0.002049,
850,1540,0.365577,-1.091699,0.999998,0.000159,-0.001282,0.002539,0.000164,0.002546,-0.001289,87.543804,0.002546,
1620,660,-0.467127,-3.554903,0.999997,0.000206,-0.001575,0.002788,0.000057,0.002789,-0.001575,89.250690,0.002797,
1260,1870,-0.008200,-0.259197,0.999999,0.000152,-0.000257,0.001649,0.000014,0.001649,-0.000257,89.594208,0.001775,
1260,1930,-0.004602,-0.162067,0.999999,0.000131,-0.000172,0.001570,0.000010,0.001570,-0.000172,89.658597,0.001722,
750,1350,0.643483,-1.680201,0.999998,0.000188,-0.001417,0.002734,-0.000123,0.002738,-0.001421,-88.308377,0.002739,
1780,990,-0.941228,-2.608884,0.999998,0.000155,-0.001072,0.002345,-0.000071,0.002347,-0.001074,-88.814929,0.002350,
560,660,0.864425,-3.348643,0.999971,0.000000,-0.001807,0.002587,0.000077,0.002588,-0.001808,88.997756,0.002655,
1730,1620,-0.462332,-0.983259,0.999999,0.000151,-0.001238,0.002536,-0.000035,0.002537,-0.001239,-89.471021,0.002537,
1240,430,-0.005945,-4.355758,0.999998,0.000190,-0.000625,0.001779,0.000037,0.001780,-0.000626,89.116134,0.001806,
1070,460,0.109561,-4.248222,0.999999,0.000133,-0.000860,0.001979,-0.000254,0.002002,-0.000882,-84.920402,0.002006,
1360,80,-0.012899,-4.947371,0.999999,0.000130,-0.000084,0.001575,-0.000078,0.001578,-0.000087,-87.330139,0.001774,
1680,1010,-0.839193,-2.564751,0.999998,0.000155,-0.001034,0.002513,-0.000072,0.002515,-0.001036,-88.839382,0.002528,
1730,1130,-0.859080,-2.265120,0.999998,0.000151,-0.001160,0.002458,0.000193,0.002468,-0.001170,86.948837,0.002469,
660,1130,0.941520,-2.280490,0.999998,0.000145,-0.001149,0.002360,-0.000168,0.002368,-0.001157,-87.267270,0.002368,
1260,1200,-0.074805,-1.220076,0.999998,0.000000,-0.002264,0.000463,0.000212,0.000480,-0.002280,85.588200,0.002404,
1880,1050,-1.049254,-2.472731,0.999998,0.000158,-0.001018,0.002146,0.000054,0.002147,-0.001019,89.015715,0.002148,
1490,1020,-0.662954,-2.544312,0.999997,0.000207,-0.001003,0.003316,-0.000031,0.003317,-0.001003,-89.589986,0.003402,
770,1820,0.260057,-0.460087,0.999998,0.000148,-0.000958,0.002395,-0.000249,0.002414,-0.000976,-85.775605,0.002428,
1050,1220,0.263057,-1.694743,0.999998,0.000187,-0.001923,0.003039,0.000727,0.003144,-0.002028,81.830968,0.003188,
1210,1210,0.045537,-1.207084,0.999998,0.000168,-0.001933,0.000797,-0.000033,0.000798,-0.001934,-89.298035,0.001944,
1430,60,-0.013247,-4.976988,0.999999,0.000136,-0.000093,0.001576,-0.000137,0.001587,-0.000104,-85.324938,0.001776,
990,460,0.182090,-4.193421,0.999999,0.000148,-0.001005,0.002204,-0.000226,0.002220,-0.001021,-85.995508,0.002223,
1600,1840,-0.165133,-0.376684,0.999998,0.000177,-0.000730,0.002152,0.000227,0.002170,-0.000748,85.530854,0.002204,
1390,1200,-0.255569,-1.678682,0.999997,0.000190,-0.001763,0.002767,-0.000918,0.002946,-0.001942,-78.963081,0.002996,
1740,70,-0.079478,-4.937275,0.999999,0.000140,-0.000447,0.002083,-0.000675,0.002252,-0.000616,-75.958491,0.002328,
930,260,0.149938,-4.592119,0.999998,0.000168,-0.000651,0.002087,0.000100,0.002090,-0.000655,87.902768,0.002138,
810,1400,0.513104,-1.498262,0.999997,0.000197,-0.001499,0.002751,0.000010,0.002751,-0.001499,89.869744,0.002754,
850,580,0.401690,-3.779584,0.999998,0.000172,-0.001395,0.002634,-0.000136,0.002638,-0.001400,-88.075814,0.002640,
1740,1760,-0.365987,-0.637706,0.999998,0.000195,-0.001172,0.002523,0.000086,0.002525,-0.001174,88.666267,0.002527,
800,420,0.371964,-4.145477,0.999998,0.000181,-0.001182,0.002495,-0.000048,0.002496,-0.001183,-89.246193,0.002497,
1150,270,0.032563,-4.633493,0.999998,0.000149,-0.000436,0.001778,-0.000003,0.001778,-0.000436,-89.918856,0.001854,
660,1280,0.828431,-1.913745,0.999998,0.000152,-0.001258,0.002517,-0.000176,0.002525,-0.001266,-87.338611,0.002525,
1490,400,-0.179775,-4.312309,0.999998,0.000165,-0.000936,0.002198,0.000155,0.002205,-0.000944,87.173335,0.002213,
1820,1710,-0.507021,-0.829209,0.999997,0.000192,-0.001259,0.002499,-0.000015,0.002499,-0.001259,-89.772261,0.002499,
1010,410,0.148594,-4.315104,0.999998,0.000176,-0.000828,0.002096,-0.000133,0.002102,-0.000834,-87.396568,0.002117,
630,340,0.517868,-4.212841,0.999998,0.000189,-0.001245,0.002502,-0.000014,0.002502,-0.001245,-89.784785,0.002502,
850,1560,0.354968,-1.040844,0.999998,0.000174,-0.001244,0.002494,0.000133,0.002499,-0.001249,87.959996,0.002499,
1300,1880,-0.017966,-0.244555,0.999998,0.000164,-0.000221,0.001663,0.000043,0.001664,-0.000222,88.690136,0.001807,
1540,400,-0.224608,-4.282280,0.999998,0.000180,-0.000971,0.002269,0.000094,0.002272,-0.000973,88.334663,0.002280,
960,1660,0.189607,-0.723965,0.999998,0.000156,-0.000930,0.002194,0.000106,0.002198,-0.000934,88.052045,0.002206,
1450,1570,-0.165550,-0.883316,0.999998,0.000148,-0.001012,0.002177,-0.000291,0.002204,-0.001038,-84.836292,0.002205,
1130,1210,0.146632,-1.424310,0.999997,0.000220,-0.001122,0.001450,0.000904,0.001736,-0.001408,72.448832,0.001844,
1830,1980,-0.134985,-0.138837,0.999998,0.000154,-0.000987,0.002614,0.000728,0.002756,-0.001128,78.998775,0.002771,
1250,1650,-0.009701,-0.641730,0.999998,0.000178,-0.000607,0.001778,-0.000038,0.001778,-0.000607,-89.088783,0.001808,
750,1330,0.661007,-1.734227,0.999998,0.000182,-0.001418,0.002719,-0.000155,0.002725,-0.001424,-87.855638,0.002726,
1670,1760,-0.291579,-0.592451,0.999998,0.000200,-0.001087,0.002414,0.000087,0.002416,-0.001089,88.582886,0.002420,
1290,480,-0.035790,-4.259489,0.999999,0.000131,-0.000635,0.001784,0.000095,0.001787,-0.000639,87.759279,0.001812,
630,310,0.490149,-4.288228,0.999998,0.000196,-0.001217,0.002539,-0.000016,0.002539,-0.001217,-89.759438,0.002539,
1030,1220,0.304082,-1.749220,0.999998,0.000178,-0.001956,0.003242,0.000539,0.003297,-0.002011,84.144091,0.003324,
1880,1040,-1.051563,-2.494163,0.999998,0.000168,-0.001027,0.002180,0.000040,0.002180,-0.001027,89.289643,0.002181,
570,1950,0.273433,-0.295666,0.999938,0.000913,-0.000853,0.002881,-0.000461,0.002937,-0.000909,-83.062784,0.003007,
1830,1290,-0.852592,-1.903772,0.999999,0.000134,-0.001250,0.002452,0.000148,0.002458,-0.001256,87.713061,0.002458,
1640,1990,-0.043983,-0.080960,0.999999,0.000139,-0.000168,0.001854,0.000472,0.001959,-0.000273,77.494933,0.002122,
1660,1580,-0.400968,-1.028316,0.999998,0.000172,-0.001246,0.002492,-0.000104,0.002495,-0.001249,-88.411176,0.002495,
1360,60,-0.007820,-4.977768,0.999999,0.000123,-0.000032,0.001548,-0.000073,0.001551,-0.000035,-87.361576,0.001771,
1290,60,-0.003437,-4.978916,0.999999,0.000121,-0.000039,0.001503,-0.000041,0.001504,-0.000040,-88.477980,0.001713,
1660,1030,-0.820968,-2.513657,0.999998,0.000152,-0.001009,0.002572,0.000002,0.002572,-0.001009,89.965832,0.002592,
1320,1930,-0.014657,-0.161581,0.999998,0.000168,-0.000162,0.001605,0.000051,0.001606,-0.000163,88.354619,0.001768,
1190,360,0.021993,-4.475969,0.999998,0.000156,-0.000502,0.001778,-0.000050,0.001779,-0.000503,-88.748636,0.001835,
920,1280,0.439841,-1.746052,0.999997,0.000200,-0.001812,0.003086,0.000023,0.003086,-0.001812,89.727635,0.003102,
1620,640,-0.451221,-3.613051,0.999997,0.000201,-0.001540,0.002765,0.000072,0.002767,-0.001541,89.042756,0.002773,
1060,730,0.157956,-3.659569,0.999998,0.000146,-0.001536,0.002452,-0.000855,0.002627,-0.001711,-78.397111,0.002667,
1730,1640,-0.449928,-0.933019,0.999999,0.000167,-0.001232,0.002531,-0.000058,0.002532,-0.001233,-89.112132,0.002533,
910,1060,0.711603,-2.428850,0.999997,0.000197,-0.000957,0.002867,-0.000174,0.002875,-0.000965,-87.405602,0.002926,
770,1800,0.280554,-0.510377,0.999997,0.000206,-0.000993,0.002421,-0.000189,0.002431,-0.001003,-86.848150,0.002443,
1200,210,0.011197,-4.739083,0.999998,0.000181,-0.000326,0.001678,-0.000008,0.001678,-0.000326,-89.762334,0.001780,
1170,850,0.119377,-3.754162,0.999998,0.000179,-0.001381,0.000727,-0.000209,0.000747,-0.001402,-84.400374,0.001403,
1730,1110,-0.869227,-2.315501,0.999998,0.000163,-0.001132,0.002523,0.000219,0.002536,-0.001145,86.586717,0.002540,
560,670,0.877193,-3.320831,0.999972,0.000000,-0.001765,0.002546,0.000034,0.002546,-0.001766,89.543899,0.002609,
1890,1330,-0.891404,-1.847959,0.999998,0.000150,-0.001220,0.002444,0.000063,0.002445,-0.001221,89.011558,0.002445,
1460,950,-0.560601,-2.817599,0.999997,0.000209,-0.001450,0.003756,-0.000003,0.003756,-0.001450,-89.967532,0.003788,
1600,1820,-0.182178,-0.419879,0.999998,0.000186,-0.000789,0.002210,0.000183,0.002221,-0.000801,86.527815,0.002250,
1010,390,0.144282,-4.356632,0.999998,0.000170,-0.000779,0.002081,-0.000116,0.002085,-0.000784,-87.678377,0.002107,
610,340,0.542961,-4.195145,0.999998,0.000173,-0.001231,0.002472,-0.000032,0.002472,-0.001231,-89.504619,0.002472,
1150,250,0.030445,-4.666828,0.999999,0.000138,-0.000398,0.001729,0.000015,0.001729,-0.000399,89.605685,0.001811,
1460,850,-0.380850,-3.174672,0.999997,0.000201,-0.001947,0.003447,0.000255,0.003459,-0.001959,87.304577,0.003469,
1560,1290,-0.460187,-1.734528,0.999997,0.000179,-0.001747,0.003033,-0.000017,0.003033,-0.001747,-89.795646,0.003045,
1400,1670,-0.101662,-0.646750,0.999998,0.000163,-0.000735,0.001954,-0.000137,0.001961,-0.000742,-87.094013,0.001980,
1780,970,-0.936977,-2.656690,0.999998,0.000183,-0.001101,0.002360,-0.000084,0.002362,-0.001104,-88.609015,0.002364,
1420,770,-0.207689,-3.518359,0.999998,0.000164,-0.001799,0.002804,0.000781,0.002933,-0.001927,80.628026,0.002981,
1130,1410,0.067529,-1.091782,0.999998,0.000169,-0.000878,0.001722,0.000593,0.001851,-0.001007,77.743664,0.001853,
680,1480,0.631713,-1.383799,0.999998,0.000171,-0.001315,0.002590,0.000002,0.002590,-0.001315,89.970868,0.002590,
1540,380,-0.217209,-4.327303,0.999998,0.000161,-0.000891,0.002210,0.000061,0.002212,-0.000892,88.873690,0.002225,
1300,1860,-0.019385,-0.277110,0.999999,0.000141,-0.000257,0.001675,0.000056,0.001677,-0.000258,88.354597,0.001806,
790,1610,0.399183,-0.963334,0.999998,0.000178,-0.001236,0.002499,0.000064,0.002500,-0.001237,89.019457,0.002500,
1090,1760,0.066556,-0.465411,0.999998,0.000168,-0.000497,0.001839,0.000005,0.001839,-0.000497,89.882945,0.001903,
1740,1740,-0.383319,-0.689102,0.999998,0.000187,-0.001189,0.002496,0.000039,0.002497,-0.001189,89.399406,0.002498,
1830,1960,-0.183214,-0.190158,0.999998,0.000160,-0.001039,0.002622,0.000626,0.002726,-0.001143,80.556465,0.002738,
750,1310,0.680306,-1.788796,0.999998,0.000171,-0.001409,0.002695,-0.000190,0.002704,-0.001418,-87.360168,0.002705,
1400,1870,-0.047929,-0.270200,0.999999,0.000124,-0.000353,0.001729,0.000070,0.001731,-0.000356,88.084753,0.001829,
1350,1990,-0.007534,-0.069619,0.999999,0.000140,-0.000076,0.001541,0.000089,0.001546,-0.000081,86.852250,0.001740,
1250,1630,-0.012261,-0.677426,0.999998,0.000171,-0.000632,0.001801,-0.000049,0.001802,-0.000633,-88.835454,0.001828,
1340,1690,-0.060358,-0.586679,0.999998,0.000174,-0.000629,0.001885,-0.000105,0.001889,-0.000633,-87.606588,0.001923,
1320,1290,-0.059870,-1.262499,0.999998,0.000170,-0.000993,0.001435,-0.000992,0.001789,-0.001347,-70.370072,0.001864,
570,1940,0.294836,-0.322009,0.999960,0.000785,-0.000766,0.002672,-0.000406,0.002719,-0.000813,-83.348073,0.002792,
1880,900,-1.011113,-2.790914,0.999999,0.000124,-0.001115,0.002177,-0.000049,0.002178,-0.001116,-89.141188,0.002178,
630,290,0.473766,-4.340683,0.999998,0.000179,-0.001210,0.002514,0.000023,0.002514,-0.001211,89.645980,0.002514,
1830,1270,-0.870300,-1.953694,0.999998,0.000146,-0.001220,0.002469,0.000155,0.002475,-0.001227,87.604064,0.002475,
960,1640,0.195765,-0.768616,0.999998,0.000165,-0.000938,0.002231,0.000147,0.002237,-0.000945,87.351375,0.002246,
650,800,0.863388,-3.057858,0.999999,0.000138,-0.001207,0.002490,0.000199,0.002500,-0.001217,86.929968,0.002501,
1290,360,-0.030674,-4.473382,0.999998,0.000166,-0.000520,0.001802,0.000025,0.001802,-0.000521,89.381608,0.001855,
920,1930,0.067765,-0.184563,0.999998,0.000147,-0.000284,0.001867,-0.000286,0.001904,-0.000322,-82.554870,0.002039,
850,1060,0.769556,-2.434799,0.999998,0.000179,-0.000984,0.002615,-0.000142,0.002621,-0.000989,-87.741734,0.002647,
1270,60,-0.002672,-4.979198,0.999999,0.000097,-0.000057,0.001509,-0.000029,0.001510,-0.000057,-88.955285,0.001711,
1620,620,-0.437839,-3.666023,0.999998,0.000190,-0.001496,0.002700,0.000095,0.002703,-0.001498,88.700539,0.002708,
840,470,0.353262,-4.052977,0.999998,0.000151,-0.001227,0.002511,-0.000105,0.002514,-0.001230,-88.398508,0.002514,
1030,300,0.102870,-4.546841,0.999998,0.000170,-0.000631,0.001952,-0.000030,0.001952,-0.000631,-89.329502,0.001993,
1810,2000,-0.077102,-0.077063,0.999998,0.000158,-0.000377,0.002304,0.000914,0.002586,-0.000659,72.859984,0.002687,
770,1940,0.122293,-0.188864,0.999998,0.000142,-0.000529,0.002173,-0.000542,0.002277,-0.000634,-79.076852,0.002351,
990,940,0.563570,-2.837408,0.999998,0.000166,-0.001446,0.003575,0.000135,0.003579,-0.001449,88.457820,0.003600,
1660,1560,-0.413686,-1.078560,0.999997,0.000181,-0.001269,0.002558,-0.000092,0.002560,-0.001271,-88.617024,0.002560,
1600,1800,-0.196332,-0.464802,0.999998,0.000183,-0.000806,0.002215,0.000142,0.002221,-0.000813,87.316447,0.002248,
680,1130,0.918960,-2.277349,0.999999,0.000126,-0.001124,0.002413,-0.000171,0.002421,-0.001132,-87.241207,0.002423,
1650,1740,-0.285255,-0.628489,0.999998,0.000173,-0.000999,0.002377,0.000068,0.002378,-0.001000,88.846329,0.002388,
1540,1290,-0.424608,-1.712171,0.999997,0.000175,-0.001790,0.003081,-0.000076,0.003082,-0.001791,-89.104312,0.003095,
1400,770,-0.172486,-3.565993,0.999998,0.000172,-0.001705,0.002605,0.000908,0.002788,-0.001889,78.577658,0.002846,
1730,1090,-0.880392,-2.367181,0.999998,0.000167,-0.001092,0.002500,0.000158,0.002507,-0.001099,87.482133,0.002513,
1110,680,0.084926,-3.859825,0.999998,0.000162,-0.001054,0.001864,-0.000729,0.002036,-0.001226,-76.735738,0.002050,
920,1260,0.463208,-1.810031,0.999997,0.000208,-0.001804,0.003135,-0.000050,0.003136,-0.001805,-89.417348,0.003148,
1150,670,0.050508,-3.930446,0.999999,0.000153,-0.000765,0.001548,-0.000574,0.001682,-0.000900,-76.795705,0.001684,
1450,1550,-0.169821,-0.927199,0.999998,0.000152,-0.001028,0.002179,-0.000301,0.002207,-0.001056,-84.685132,0.002207,
1780,950,-0.928969,-2.703897,0.999999,0.000147,-0.001141,0.002410,-0.000166,0.002418,-0.001149,-87.335005,0.002419,
680,1440,0.662701,-1.490155,0.999998,0.000172,-0.001324,0.002574,-0.000032,0.002574,-0.001324,-89.530302,0.002575,
1060,710,0.151788,-3.708899,0.999998,0.000147,-0.001442,0.002400,-0.000787,0.002555,-0.001597,-78.860764,0.002582,
1140,1550,0.060260,-0.838600,0.999999,0.000125,-0.000696,0.001800,0.000239,0.001823,-0.000719,84.588500,0.001837,
1540,360,-0.208342,-4.370483,0.999998,0.000162,-0.000837,0.002224,0.000011,0.002224,-0.000837,89.787379,0.002246,
1300,1840,-0.022805,-0.312194,0.999998,0.000150,-0.000301,0.001702,0.000032,0.001703,-0.000301,89.076519,0.001817,
700,1890,0.242938,-0.330123,0.999998,0.000203,-0.001081,0.002496,-0.000408,0.002542,-0.001127,-83.577453,0.002547,
1660,1650,-0.359138,-0.853676,0.999998,0.000191,-0.001170,0.002477,-0.000038,0.002477,-0.001170,-89.408568,0.002478,
560,680,0.878009,-3.293740,0.999963,0.000000,-0.001728,0.002620,-0.000059,0.002621,-0.001729,-89.219915,0.002665,
1740,1720,-0.400771,-0.738163,0.999998,0.000177,-0.001182,0.002491,0.000018,0.002491,-0.001182,89.718804,0.002492,
950,1700,0.182683,-0.643902,0.999998,0.000185,-0.000878,0.002149,0.000068,0.002150,-0.000879,88.706874,0.002162,
750,1290,0.698508,-1.842602,0.999998,0.000166,-0.001411,0.002698,-0.000219,0.002710,-0.001422,-86.951894,0.002711,
1010,370,0.138143,-4.399187,0.999998,0.000164,-0.000754,0.002079,-0.000087,0.002081,-0.000757,-88.240300,0.002107,
570,510,0.731116,-3.735871,0.999897,0.001253,-0.002069,0.002322,-0.000259,0.002337,-0.002085,-86.642128,0.002565,
1250,1610,-0.010182,-0.714203,0.999998,0.000150,-0.000627,0.001747,-0.000088,0.001750,-0.000630,-87.877167,0.001773,
1380,1870,-0.041412,-0.267602,0.999998,0.000148,-0.000299,0.001718,0.000081,0.001721,-0.000302,87.694373,0.001838,
1110,1850,0.040459,-0.300608,0.999998,0.000156,-0.000342,0.001735,-0.000045,0.001736,-0.000343,-88.761796,0.001838,
1830,1250,-0.889125,-2.002795,0.999998,0.000138,-0.001205,0.002435,0.000153,0.002442,-0.001211,87.594500,0.002442,
800,400,0.357191,-4.196164,0.999998,0.000179,-0.001140,0.002479,-0.000038,0.002479,-0.001140,-89.392238,0.002482,
1250,60,-0.001465,-4.979857,0.999999,0.000129,-0.000083,0.001517,-0.000013,0.001517,-0.000083,-89.546515,0.001706,
1350,1970,-0.012389,-0.099935,0.999999,0.000132,-0.000098,0.001572,0.000077,0.001576,-0.000102,87.359624,0.001764,
1700,1870,-0.212306,-0.346074,0.999998,0.000155,-0.000797,0.002320,0.000373,0.002364,-0.000841,83.272863,0.002397,
1560,1030,-0.726875,-2.512794,0.999997,0.000221,-0.000887,0.002784,0.000007,0.002784,-0.000887,89.894618,0.002845,
1520,1330,-0.353881,-1.565826,0.999997,0.000215,-0.001752,0.002946,-0.000267,0.002962,-0.001767,-86.754371,0.002980,
1650,1440,-0.477376,-1.387096,0.999998,0.000174,-0.001464,0.002720,-0.000056,0.002721,-0.001465,-89.232566,0.002723,
1870,1090,-1.031834,-2.386349,0.999998,0.000155,-0.001042,0.002114,-0.000005,0.002114,-0.001042,-89.913057,0.002114,
1620,600,-0.425521,-3.720927,0.999998,0.000181,-0.001440,0.002673,0.000126,0.002677,-0.001443,88.247852,0.002680,
1270,360,-0.020346,-4.475671,0.999999,0.000130,-0.000532,0.001772,0.000033,0.001773,-0.000532,89.183961,0.001819,
640,1110,0.975955,-2.331470,0.999998,0.000179,-0.001101,0.002306,-0.000129,0.002311,-0.001106,-87.837757,0.002312,
1660,1540,-0.427771,-1.130944,0.999997,0.000178,-0.001284,0.002575,-0.000102,0.002578,-0.001287,-88.481034,0.002578,
770,1920,0.146950,-0.231538,0.999998,0.000159,-0.000625,0.002167,-0.000483,0.002249,-0.000706,-80.462056,0.002300,
630,270,0.452690,-4.389354,0.999998,0.000183,-0.001232,0.002532,0.000068,0.002534,-0.001233,88.960382,0.002534,
670,810,0.847315,-3.042594,0.999998,0.000157,-0.001246,0.002516,0.000215,0.002528,-0.001258,86.739381,0.002528,
960,1330,0.322697,-1.541396,0.999998,0.000164,-0.001749,0.002935,0.000367,0.002964,-0.001777,85.552304,0.002984,
610,1660,0.588070,-0.983385,0.999998,0.000158,-0.001266,0.002503,0.000022,0.002503,-0.001266,89.661630,0.002503,
560,900,1.036416,-2.781773,0.999998,0.000000,-0.001000,0.002173,0.000004,0.002173,-0.001000,89.923124,0.002175,
1620,290,-0.239772,-4.485784,0.999998,0.000178,-0.000919,0.002312,-0.000114,0.002316,-0.000923,-87.977135,0.002331,
1010,350,0.133238,-4.438365,0.999998,0.000157,-0.000702,0.002001,-0.000069,0.002003,-0.000704,-88.529529,0.002033,
1660,1630,-0.370759,-0.903054,0.999997,0.000182,-0.001179,0.002477,-0.000074,0.002479,-0.001180,-88.835265,0.002480,
1730,1070,-0.886542,-2.415189,0.999998,0.000163,-0.001063,0.002436,0.000070,0.002437,-0.001065,88.847611,0.002443,
1460,830,-0.350652,-3.243068,0.999998,0.000188,-0.001969,0.003321,0.000321,0.003341,-0.001988,86.536815,0.003361,
1800,2000,-0.074478,-0.076752,0.999998,0.000179,-0.000221,0.002271,0.000959,0.002597,-0.000548,71.199100,0.002738,
1010,300,0.114750,-4.539650,0.999998,0.000184,-0.000618,0.001971,0.000003,0.001971,-0.000618,89.937894,0.002016,
1400,1820,-0.062962,-0.359154,0.999998,0.000159,-0.000436,0.001805,0.000041,0.001806,-0.000437,88.945960,0.001885,
850,1040,0.773250,-2.486497,0.999998,0.000216,-0.000961,0.002649,-0.000073,0.002650,-0.000963,-88.840834,0.002683,
920,1240,0.485846,-1.871808,0.999997,0.000194,-0.001792,0.003159,-0.000097,0.003161,-0.001794,-88.879334,0.003171,
630,250,0.429444,-4.439334,0.999998,0.000200,-0.001237,0.002545,0.000074,0.002546,-0.001238,88.885019,0.002546,
1230,1480,0.000895,-0.928632,0.999999,0.000145,-0.000615,0.001559,0.000001,0.001559,-0.000615,89.963570,0.001571,
1600,1780,-0.210245,-0.508913,0.999998,0.000188,-0.000881,0.002257,0.000117,0.002261,-0.000886,87.875805,0.002279,
880,700,0.439136,-3.476217,0.999997,0.000187,-0.001647,0.002891,-0.000081,0.002893,-0.001649,-88.979522,0.002902,
1780,1980,-0.109917,-0.124455,0.999998,0.000146,-0.000477,0.002346,0.000909,0.002613,-0.000744,73.604158,0.002693,
1110,1830,0.041451,-0.334756,0.999998,0.000144,-0.000384,0.001747,-0.000038,0.001748,-0.000385,-88.966604,0.001837,
750,1270,0.720524,-1.896901,0.999998,0.000170,-0.001400,0.002681,-0.000247,0.002696,-0.001415,-86.546224,0.002697,
1060,890,0.348088,-3.203927,0.999998,0.000185,-0.001630,0.003125,-0.000958,0.003310,-0.001816,-79.021849,0.003316,
700,1870,0.271186,-0.379922,0.999998,0.000150,-0.001121,0.002485,-0.000331,0.002515,-0.001151,-84.794972,0.002518,
1320,1270,-0.067044,-1.291149,0.999998,0.000168,-0.001035,0.001422,-0.001042,0.001805,-0.001417,-69.846015,0.001900,
1200,600,0.018750,-4.067270,0.999999,0.000136,-0.000622,0.001536,-0.000140,0.001545,-0.000631,-86.297538,0.001553,
1520,1140,-0.590582,-2.172194,0.999998,0.000186,-0.001460,0.003218,0.000330,0.003241,-0.001483,85.985833,0.003245,
1780,930,-0.918699,-2.751382,0.999999,0.000132,-0.001137,0.002416,-0.000190,0.002426,-0.001147,-86.951437,0.002427,
1650,1720,-0.299371,-0.675580,0.999998,0.000170,-0.001058,0.002403,0.000013,0.002403,-0.001058,89.778707,0.002408,
1540,340,-0.198230,-4.416721,0.999998,0.000190,-0.000830,0.002264,-0.000022,0.002265,-0.000830,-89.601288,0.002291,
980,1410,0.247486,-1.292267,0.999998,0.000164,-0.001477,0.002570,0.000458,0.002621,-0.001528,83.619266,0.002633,
1430,580,-0.161841,-3.967196,0.999998,0.000161,-0.001116,0.002173,0.000456,0.002235,-0.001178,82.247808,0.002236,
1120,430,0.068385,-4.331200,0.999998,0.000200,-0.000662,0.001890,-0.000154,0.001899,-0.000671,-86.553025,0.001926,
1450,1530,-0.173326,-0.971458,0.999999,0.000147,-0.001045,0.002240,-0.000328,0.002273,-0.001077,-84.350449,0.002274,
1250,1590,-0.010892,-0.746915,0.999999,0.000135,-0.000588,0.001689,-0.000066,0.001691,-0.000590,-88.339722,0.001716,
1000,1870,0.072672,-0.280711,0.999998,0.000177,-0.000365,0.001851,-0.000136,0.001860,-0.000374,-86.503279,0.001967,
670,790,0.829392,-3.093513,0.999998,0.000156,-0.001265,0.002519,0.000218,0.002531,-0.001278,86.714157,0.002531,
1830,1230,-0.903875,-2.051979,0.999999,0.000132,-0.001181,0.002393,0.000139,0.002399,-0.001186,87.782773,0.002399,
1150,690,0.048802,-3.900638,0.999998,0.000153,-0.000782,0.001520,-0.000660,0.001696,-0.000958,-75.091147,0.001700,
1410,800,-0.214746,-3.458477,0.999998,0.000194,-0.001903,0.002864,0.000834,0.003006,-0.002044,80.352808,0.003070,
1350,1950,-0.015662,-0.132160,0.999999,0.000139,-0.000145,0.001611,0.000086,0.001615,-0.000149,87.189205,0.001785,
1050,450,0.125419,-4.255300,0.999999,0.000137,-0.000816,0.002019,-0.000205,0.002034,-0.000831,-85.878790,0.002045,
710,1150,0.873648,-2.220636,0.999998,0.000158,-0.001191,0.002495,-0.000210,0.002507,-0.001203,-86.751892,0.002508,
1330,60,-0.005999,-4.978919,0.999999,0.000114,-0.000112,0.001524,-0.000068,0.001527,-0.000114,-87.626775,0.001701,
1540,1030,-0.708194,-2.513500,0.999998,0.000180,-0.000907,0.002847,0.000019,0.002847,-0.000907,89.711396,0.002909,
1660,1520,-0.438121,-1.182223,0.999998,0.000178,-0.001324,0.002621,-0.000105,0.002624,-0.001327,-88.481457,0.002624,
1220,1210,0.025862,-1.200810,0.999998,0.000170,-0.002087,0.000793,-0.000047,0.000794,-0.002088,-89.062787,0.002108,
930,1320,0.383002,-1.611606,0.999998,0.000223,-0.001754,0.003006,0.000161,0.003012,-0.001760,88.069319,0.003026,
1440,850,-0.340504,-3.221301,0.999997,0.000210,-0.001971,0.003402,0.000448,0.003439,-0.002008,85.265283,0.003455,
1320,230,-0.030233,-4.701702,0.999998,0.000163,-0.000381,0.001751,-0.000013,0.001751,-0.000382,-89.657534,0.001841,
1010,330,0.125913,-4.479288,0.999998,0.000158,-0.000667,0.002047,-0.000018,0.002047,-0.000667,-89.611274,0.002088,
1810,1880,-0.306751,-0.384522,0.999998,0.000197,-0.001040,0.002596,0.000391,0.002637,-0.001082,83.932418,0.002652,
1700,1850,-0.235401,-0.394238,0.999998,0.000153,-0.000861,0.002407,0.000336,0.002441,-0.000895,84.182739,0.002470,
560,890,1.031185,-2.802082,0.999998,0.000000,-0.001009,0.002144,0.000022,0.002144,-0.001010,89.603796,0.002145,
1400,1800,-0.069329,-0.395743,0.999998,0.000166,-0.000471,0.001842,0.000037,0.001842,-0.000472,89.086009,0.001914,
1130,320,0.049443,-4.539391,0.999998,0.000152,-0.000567,0.001826,-0.000060,0.001827,-0.000568,-88.569803,0.001870,
1740,670,-0.650761,-3.435926,0.999998,0.000167,-0.001381,0.002672,-0.000099,0.002674,-0.001383,-88.603847,0.002675,
1300,1820,-0.023990,-0.346745,0.999998,0.000145,-0.000344,0.001713,0.000021,0.001714,-0.000344,89.406039,0.001813,
1740,1700,-0.417127,-0.788093,0.999998,0.000187,-0.001201,0.002538,0.000003,0.002538,-0.001201,89.948905,0.002540,
900,130,0.077482,-4.845845,0.999999,0.000130,-0.000369,0.001880,0.000306,0.001921,-0.000410,82.392788,0.002023,
860,1990,0.039410,-0.077933,0.999998,0.000136,-0.000181,0.001787,-0.000408,0.001868,-0.000263,-78.735981,0.002023,
1370,1480,-0.099470,-1.000421,0.999998,0.000154,-0.000939,0.001946,-0.000447,0.002013,-0.001007,-81.399329,0.002013,
920,1220,0.512207,-1.937454,0.999998,0.000180,-0.001749,0.003171,-0.000185,0.003178,-0.001756,-87.846537,0.003183,
1060,870,0.307921,-3.269510,0.999998,0.000178,-0.001780,0.003094,-0.000832,0.003232,-0.001918,-80.570363,0.003251,
630,230,0.408193,-4.491896,0.999998,0.000193,-0.001222,0.002557,0.000101,0.002560,-0.001224,88.471642,0.002560,
1650,1420,-0.492500,-1.441291,0.999997,0.000208,-0.001500,0.002692,-0.000015,0.002692,-0.001500,-89.795868,0.002698,
700,1950,0.148810,-0.185007,0.999998,0.000161,-0.000838,0.002303,-0.000617,0.002420,-0.000955,-79.279317,0.002438,
1600,1760,-0.225984,-0.555946,0.999998,0.000157,-0.000918,0.002267,0.000058,0.002268,-0.000919,88.952761,0.002281,
1790,790,-0.825190,-3.093754,0.999999,0.000152,-0.001283,0.002496,-0.000203,0.002507,-0.001294,-86.938150,0.002507,
1110,1810,0.048069,-0.371190,0.999999,0.000136,-0.000403,0.001782,-0.000023,0.001782,-0.000403,-89.385849,0.001870,
750,1250,0.738468,-1.950640,0.999998,0.000169,-0.001387,0.002662,-0.000238,0.002676,-0.001401,-86.643690,0.002677,
1540,320,-0.185074,-4.461620,0.999998,0.000187,-0.000792,0.002178,-0.000017,0.002178,-0.000792,-89.681658,0.002205,
1520,1360,-0.331510,-1.480384,0.999997,0.000194,-0.001681,0.002851,-0.000305,0.002872,-0.001702,-86.166460,0.002888,
1150,710,0.048991,-3.869501,0.999998,0.000150,-0.000815,0.001464,-0.000717,0.001670,-0.001022,-73.913380,0.001684,
1010,1280,0.271666,-1.607035,0.999997,0.000208,-0.001897,0.003017,0.000558,0.003080,-0.001960,83.605878,0.003118,
1390,800,-0.177166,-3.515207,0.999997,0.000229,-0.001767,0.002639,0.000974,0.002844,-0.001973,78.073859,0.002915,
1880,1300,-0.905639,-1.914531,0.999998,0.000149,-0.001211,0.002420,0.000050,0.002420,-0.001212,89.214860,0.002420,
1250,1570,-0.012386,-0.781011,0.999998,0.000147,-0.000615,0.001751,-0.000087,0.001754,-0.000618,-87.896430,0.001779,
1240,1870,-0.002831,-0.258396,0.999999,0.000147,-0.000287,0.001651,0.000001,0.001651,-0.000287,89.969646,0.001764,
980,1390,0.255763,-1.345595,0.999997,0.000188,-0.001546,0.002660,0.000468,0.002712,-0.001598,83.729672,0.002726,
1200,580,0.019574,-4.098248,0.999999,0.000127,-0.000620,0.001553,-0.000111,0.001558,-0.000625,-87.073948,0.001568,
1450,1510,-0.178582,-1.015834,0.999999,0.000146,-0.001073,0.002225,-0.000352,0.002262,-0.001111,-83.973629,0.002263,
880,680,0.423002,-3.534536,0.999997,0.000195,-0.001631,0.002854,-0.000107,0.002856,-0.001633,-88.632597,0.002866,
1140,1670,0.052715,-0.618338,0.999998,0.000150,-0.000620,0.001855,0.000116,0.001861,-0.000625,87.312267,0.001894,
1310,60,-0.003719,-4.978356,0.999999,0.000121,-0.000055,0.001512,-0.000052,0.001513,-0.000057,-88.103739,0.001716,
710,1130,0.883831,-2.271266,0.999998,0.000142,-0.001155,0.002474,-0.000189,0.002484,-0.001165,-87.032635,0.002486,
1620,580,-0.411458,-3.773578,0.999998,0.000180,-0.001396,0.002665,0.000149,0.002671,-0.001402,87.895997,0.002672,
1840,730,-0.834257,-3.215966,0.999999,0.000137,-0.001245,0.002497,-0.000108,0.002500,-0.001248,-88.353105,0.002500,
1660,760,-0.618088,-3.241927,0.999998,0.000197,-0.001489,0.002836,-0.000190,0.002844,-0.001498,-87.485191,0.002845,
910,1320,0.418569,-1.634792,0.999998,0.000202,-0.001768,0.003022,0.000116,0.003024,-0.001770,88.617562,0.003039,
1250,800,-0.013295,-3.862542,0.999999,0.000150,-0.000790,0.000559,0.000252,0.000604,-0.000836,79.770537,0.000863,
1350,1930,-0.020474,-0.166172,0.999999,0.000130,-0.000178,0.001628,0.000076,0.001631,-0.000181,87.593477,0.001788,
1010,310,0.118393,-4.521114,0.999998,0.000177,-0.000629,0.002002,0.000005,0.002002,-0.000629,89.896671,0.002047,
990,820,0.361050,-3.250813,0.999998,0.000195,-0.001964,0.003312,-0.000246,0.003324,-0.001976,-87.334039,0.003344,
1000,1930,0.044386,-0.174347,0.999998,0.000139,-0.000209,0.001719,-0.000188,0.001738,-0.000227,-84.481728,0.001889,
1260,430,-0.017929,-4.352486,0.999998,0.000200,-0.000598,0.001782,0.000084,0.001784,-0.000601,87.979180,0.001816,
1830,1210,-0.919910,-2.099182,0.999999,0.000128,-0.001185,0.002387,0.000172,0.002395,-0.001193,87.245801,0.002395,
1810,1940,-0.204672,-0.228561,0.999999,0.000142,-0.000866,0.002607,0.000658,0.002727,-0.000987,79.619909,0.002762,
1130,300,0.047210,-4.575789,0.999998,0.000152,-0.000538,0.001795,-0.000056,0.001796,-0.000539,-88.631368,0.001843,
1300,230,-0.023746,-4.703191,0.999999,0.000136,-0.000336,0.001718,-0.000032,0.001718,-0.000336,-89.116645,0.001821,
1740,1680,-0.431134,-0.839966,0.999998,0.000181,-0.001205,0.002532,-0.000004,0.002532,-0.001205,-89.943136,0.002533,
1300,1800,-0.025578,-0.378931,0.999998,0.000142,-0.000379,0.001735,0.000021,0.001735,-0.000380,89.419599,0.001824,
560,880,1.023918,-2.825435,0.999998,0.000000,-0.001020,0.002079,0.000003,0.002079,-0.001020,89.944989,0.002080,
1740,650,-0.633555,-3.488748,0.999997,0.000181,-0.001378,0.002659,-0.000072,0.002660,-0.001379,-88.975567,0.002661,
1130,1340,0.066864,-1.210686,0.999998,0.000151,-0.000951,0.001660,0.000819,0.001896,-0.001186,73.954522,0.001915,
1190,1360,0.022275,-1.106159,0.999999,0.000148,-0.000607,0.001202,0.000376,0.001277,-0.000682,78.697342,0.001278,
630,210,0.381543,-4.542734,0.999998,0.000195,-0.001198,0.002563,0.000128,0.002567,-0.001203,88.055722,0.002569,
1760,1890,-0.240589,-0.328164,0.999998,0.000172,-0.001049,0.002476,0.000399,0.002520,-0.001093,83.628401,0.002528,
1540,190,-0.109850,-4.733503,0.999999,0.000144,-0.000465,0.001965,-0.000228,0.001986,-0.000486,-84.695812,0.002070,
630,800,0.886683,-3.046899,0.999999,0.000127,-0.001200,0.002452,0.000147,0.002458,-0.001206,87.698218,0.002458,
750,1230,0.756821,-2.002639,0.999998,0.000159,-0.001345,0.002656,-0.000277,0.002675,-0.001365,-86.052259,0.002675,
700,1930,0.182639,-0.233044,0.999998,0.000168,-0.000924,0.002363,-0.000565,0.002458,-0.001019,-80.513216,0.002470,
1860,510,-0.681566,-3.760905,0.999998,0.000166,-0.001240,0.002562,0.000012,0.002562,-0.001240,89.814857,0.002562,
1060,950,0.468405,-2.994024,0.999997,0.000229,-0.001667,0.004429,-0.001749,0.004895,-0.002133,-75.074190,0.004909,
920,1200,0.539985,-1.999956,0.999998,0.000182,-0.001716,0.003168,-0.000246,0.003181,-0.001728,-87.128998,0.003185,
1100,540,0.093165,-4.113358,0.999998,0.000157,-0.000865,0.001930,-0.000392,0.001984,-0.000919,-82.163361,0.001985,
1400,1780,-0.073851,-0.433937,0.999998,0.000198,-0.000506,0.001881,0.000017,0.001881,-0.000507,89.587105,0.001947,
1600,1740,-0.237015,-0.598921,0.999998,0.000162,-0.000962,0.002277,0.000034,0.002278,-0.000962,89.393146,0.002287,
690,360,0.460270,-4.212424,0.999998,0.000157,-0.001213,0.002533,-0.000007,0.002533,-0.001213,-89.895549,0.002534,
1530,1510,-0.271690,-1.092371,0.999998,0.000172,-0.001269,0.002474,-0.000273,0.002494,-0.001289,-85.843757,0.002495,
1790,750,-0.789542,-3.195016,0.999998,0.000168,-0.001312,0.002565,-0.000164,0.002572,-0.001319,-87.575179,0.002572,
1150,730,0.051325,-3.839553,0.999998,0.000163,-0.000867,0.001396,-0.000818,0.001660,-0.001131,-72.069402,0.001696,
1830,900,-0.958095,-2.811566,0.999999,0.000137,-0.001115,0.002320,-0.000121,0.002324,-0.001119,-87.983955,0.002324,
840,860,0.668010,-2.976378,0.999998,0.000175,-0.001433,0.002857,0.000340,0.002884,-0.001460,85.498976,0.002884,
610,1640,0.602559,-1.033038,0.999997,0.000194,-0.001252,0.002516,0.000036,0.002517,-0.001252,89.445194,0.002517,
1250,1550,-0.011906,-0.817999,0.999998,0.000148,-0.000633,0.001707,-0.000090,0.001711,-0.000636,-87.789839,0.001729,
980,1870,0.080532,-0.284098,0.999999,0.000151,-0.000437,0.001865,-0.000136,0.001873,-0.000445,-86.630539,0.001957,
980,710,0.279029,-3.569322,0.999998,0.000187,-0.001654,0.002825,-0.000436,0.002867,-0.001696,-84.496506,0.002883,
790,1280,0.652778,-1.848717,0.999998,0.000161,-0.001503,0.002779,-0.000218,0.002790,-0.001514,-87.091521,0.002794,
1520,1120,-0.619806,-2.235767,0.999997,0.000191,-0.001336,0.003183,0.000319,0.003206,-0.001359,85.984707,0.003218,
990,540,0.201889,-4.013888,0.999999,0.000151,-0.001149,0.002328,-0.000336,0.002361,-0.001182,-84.524831,0.002361,
880,660,0.409559,-3.591808,0.999997,0.000202,-0.001576,0.002806,-0.000159,0.002812,-0.001582,-87.923443,0.002819,
1580,1570,-0.307397,-0.988673,0.999998,0.000177,-0.001210,0.002448,-0.000187,0.002457,-0.001219,-87.084815,0.002457,
800,650,0.524199,-3.548202,0.999997,0.000198,-0.001468,0.002786,0.000006,0.002786,-0.001468,89.922342,0.002787,
560,870,1.019096,-2.845659,0.999998,0.000000,-0.001030,0.002060,-0.000017,0.002061,-0.001030,-89.692055,0.002061,
630,1080,0.995292,-2.401331,0.999998,0.000199,-0.001073,0.002245,-0.000049,0.002246,-0.001073,-89.156406,0.002247,
710,1110,0.897010,-2.319301,0.999998,0.000160,-0.001134,0.002450,-0.000188,0.002460,-0.001143,-87.008343,0.002462,
1450,1490,-0.180722,-1.059708,0.999998,0.000168,-0.001135,0.002246,-0.000395,0.002292,-0.001180,-83.420062,0.002292,
1110,1340,0.087501,-1.246703,0.999998,0.000162,-0.001135,0.001878,0.000863,0.002108,-0.001365,75.094762,0.002138,
1010,290,0.111163,-4.559953,0.999998,0.000174,-0.000596,0.001971,0.000019,0.001972,-0.000596,89.577625,0.002022,
1830,450,-0.600014,-3.938294,0.999998,0.000166,-0.001244,0.002529,0.000029,0.002529,-0.001244,89.554011,0.002529,
1530,60,-0.022741,-4.973082,0.999999,0.000118,-0.000087,0.001667,-0.000280,0.001710,-0.000131,-81.153982,0.001904,
1660,1500,-0.452976,-1.235133,0.999998,0.000168,-0.001349,0.002638,-0.000102,0.002640,-0.001352,-88.540468,0.002641,
1610,620,-0.422875,-3.675286,0.999997,0.000193,-0.001484,0.002702,0.000123,0.002706,-0.001487,88.318569,0.002711,
1380,1670,-0.087952,-0.637861,0.999998,0.000153,-0.000643,0.001907,-0.000097,0.001911,-0.000647,-87.817485,0.001944,
850,1900,0.122440,-0.253984,0.999998,0.000141,-0.000526,0.002059,-0.000364,0.002110,-0.000577,-82.141912,0.002181,
1080,730,0.128088,-3.702585,0.999998,0.000177,-0.001389,0.002235,-0.000930,0.002460,-0.001614,-76.415593,0.002500,
1810,1980,-0.120195,-0.125856,0.999998,0.000131,-0.000516,0.002495,0.000951,0.002770,-0.000791,73.855653,0.002854,
1350,1910,-0.024054,-0.197903,0.999999,0.000114,-0.000238,0.001663,0.000067,0.001665,-0.000240,87.973434,0.001800,
790,1920,0.133811,-0.224855,0.999999,0.000142,-0.000659,0.002135,-0.000420,0.002196,-0.000721,-81.626893,0.002239,
1100,330,0.068380,-4.511929,0.999998,0.000164,-0.000537,0.001857,-0.000039,0.001857,-0.000537,-89.070487,0.001911,
1200,560,0.019700,-4.129042,0.999998,0.000146,-0.000620,0.001606,-0.000105,0.001611,-0.000625,-87.315492,0.001624,
890,1060,0.731585,-2.431155,0.999998,0.000215,-0.000961,0.002754,-0.000151,0.002760,-0.000968,-87.670404,0.002801,
630,190,0.356051,-4.592981,0.999997,0.000185,-0.001208,0.002545,0.000204,0.002556,-0.001219,86.900293,0.002557,
750,1210,0.775381,-2.056330,0.999998,0.000158,-0.001298,0.002646,-0.000286,0.002666,-0.001319,-85.874437,0.002666,
1820,730,-0.809262,-3.228439,0.999999,0.000128,-0.001252,0.002536,-0.000135,0.002541,-0.001256,-87.958403,0.002541,
1620,560,-0.399546,-3.826371,0.999998,0.000175,-0.001382,0.002609,0.000153,0.002615,-0.001388,87.814557,0.002617,
1490,140,-0.059541,-4.836469,0.999998,0.000160,-0.000358,0.001780,-0.000166,0.001792,-0.000371,-85.584332,0.001892,
1890,1890,-0.386769,-0.449259,0.999997,0.000205,-0.001209,0.002550,0.000173,0.002558,-0.001217,87.367899,0.002559,
1840,510,-0.656659,-3.777884,0.999997,0.000202,-0.001287,0.002581,0.000024,0.002581,-0.001288,89.650622,0.002581,
1150,1530,0.053470,-0.868463,0.999998,0.000148,-0.000717,0.001795,0.000269,0.001824,-0.000745,83.946475,0.001834,
690,340,0.444826,-4.262152,0.999998,0.000169,-0.001206,0.002523,0.000000,0.002523,-0.001206,-89.992350,0.002524,
1540,300,-0.176751,-4.503069,0.999998,0.000175,-0.000744,0.002167,-0.000039,0.002168,-0.000744,-89.232050,0.002203,
1870,660,-0.812774,-3.370614,0.999998,0.000170,-0.001274,0.002524,-0.000052,0.002525,-0.001274,-89.211512,0.002525,
1060,940,0.453386,-3.034778,0.999996,0.000242,-0.001487,0.004017,-0.001640,0.004468,-0.001938,-74.606304,0.004481,
1100,520,0.089697,-4.152044,0.999998,0.000145,-0.000832,0.001900,-0.000330,0.001939,-0.000871,-83.215443,0.001942,
1600,1720,-0.250562,-0.645804,0.999998,0.000145,-0.000971,0.002348,0.000031,0.002348,-0.000972,89.456992,0.002360,
920,1180,0.566801,-2.063324,0.999998,0.000189,-0.001630,0.003172,-0.000307,0.003191,-0.001649,-86.361057,0.003192,
1790,730,-0.771752,-3.247327,0.999998,0.000178,-0.001305,0.002592,-0.000141,0.002597,-0.001310,-87.928656,0.002597,
1190,1380,0.022962,-1.080793,0.999999,0.000155,-0.000620,0.001307,0.000322,0.001359,-0.000673,80.748038,0.001359,
1350,380,-0.068888,-4.421343,0.999998,0.000165,-0.000647,0.001907,0.000098,0.001911,-0.000650,87.798658,0.001943,
1400,1760,-0.079576,-0.470123,0.999998,0.000189,-0.000553,0.001899,-0.000017,0.001899,-0.000553,-89.608461,0.001954,
990,1280,0.310314,-1.645263,0.999998,0.000212,-0.001920,0.003098,0.000419,0.003133,-0.001955,85.256788,0.003165,
1520,1080,-0.666122,-2.361365,0.999998,0.000171,-0.001039,0.003066,0.000236,0.003079,-0.001052,86.718831,0.003130,
1450,1470,-0.186404,-1.104057,0.999998,0.000165,-0.001212,0.002298,-0.000440,0.002353,-0.001267,-82.962628,0.002355,
890,700,0.422678,-3.486095,0.999998,0.000176,-0.001653,0.002889,-0.000115,0.002891,-0.001656,-88.546343,0.002902,
1010,270,0.103660,-4.597874,0.999998,0.000161,-0.000542,0.001937,0.000046,0.001937,-0.000542,88.927067,0.001999,
1560,1570,-0.284176,-0.971645,0.999998,0.000175,-0.001136,0.002403,-0.000183,0.002413,-0.001145,-87.049950,0.002414,
1220,1230,0.014908,-1.184969,0.999998,0.000150,-0.001354,0.000643,0.000086,0.000647,-0.001358,87.539142,0.001359,
710,1090,0.906145,-2.368439,0.999998,0.000180,-0.001110,0.002431,-0.000124,0.002435,-0.001114,-87.989679,0.002438,
1510,60,-0.021281,-4.973370,0.999999,0.000123,-0.000144,0.001637,-0.000226,0.001666,-0.000173,-82.888253,0.001832,
880,640,0.395595,-3.645920,0.999997,0.000198,-0.001509,0.002756,-0.000178,0.002763,-0.001517,-87.612475,0.002767,
560,860,1.013790,-2.863775,0.999999,0.000000,-0.001045,0.002050,-0.000022,0.002050,-0.001045,-89.589468,0.002050,
1810,1960,-0.165781,-0.176629,0.999999,0.000126,-0.000688,0.002525,0.000823,0.002724,-0.000887,76.441401,0.002778,
1660,1460,-0.478975,-1.339329,0.999996,0.000209,-0.001410,0.002660,-0.000053,0.002661,-0.001411,-89.249806,0.002663,
1830,1190,-0.935858,-2.144944,0.999998,0.000140,-0.001170,0.002365,0.000181,0.002374,-0.001179,87.072640,0.002374,
830,1900,0.131737,-0.257328,0.999998,0.000154,-0.000483,0.002104,-0.000390,0.002161,-0.000540,-81.619423,0.002250,
1220,430,0.007743,-4.355326,0.999998,0.000162,-0.000603,0.001784,-0.000038,0.001785,-0.000604,-89.095987,0.001816,
1590,600,-0.381505,-3.748076,0.999998,0.000171,-0.001414,0.002668,0.000186,0.002676,-0.001422,87.396800,0.002678,
1100,310,0.064894,-4.549325,0.999998,0.000183,-0.000514,0.001862,-0.000013,0.001862,-0.000514,-89.684491,0.001923,
790,1900,0.157109,-0.269574,0.999998,0.000169,-0.000743,0.002245,-0.000402,0.002298,-0.000796,-82.466707,0.002334,
1620,540,-0.388845,-3.877429,0.999998,0.000161,-0.001354,0.002562,0.000137,0.002567,-0.001358,88.004078,0.002568,
1280,1870,-0.013119,-0.260576,0.999999,0.000127,-0.000270,0.001657,0.000028,0.001657,-0.000271,89.167507,0.001778,
1300,1780,-0.028131,-0.414791,0.999998,0.000173,-0.000373,0.001780,0.000019,0.001780,-0.000373,89.491691,0.001878,
870,1060,0.749171,-2.433820,0.999998,0.000166,-0.000953,0.002660,-0.000149,0.002666,-0.000959,-87.647674,0.002700,
1740,1660,-0.448657,-0.890554,0.999998,0.000197,-0.001218,0.002520,-0.000015,0.002520,-0.001218,-89.776280,0.002521,
1180,230,0.017781,-4.703716,0.999999,0.000123,-0.000326,0.001718,0.000005,0.001718,-0.000326,89.849776,0.001825,
1250,1530,-0.011493,-0.848887,0.999998,0.000139,-0.000650,0.001654,-0.000077,0.001656,-0.000653,-88.093331,0.001669,
630,170,0.323585,-4.645455,0.999998,0.000184,-0.001214,0.002624,0.000246,0.002640,-0.001230,86.351615,0.002642,
1200,1380,0.015485,-1.075147,0.999999,0.000136,-0.000579,0.001271,0.000232,0.001300,-0.000607,82.969592,0.001301,
610,1080,1.016342,-2.403495,0.999998,0.000179,-0.001012,0.002189,-0.000032,0.002189,-0.001012,-89.436090,0.002191,
750,1800,0.299857,-0.521748,0.999998,0.000207,-0.000959,0.002471,-0.000220,0.002485,-0.000973,-86.349714,0.002504,
1880,120,-0.293676,-4.721215,0.999998,0.000182,-0.001180,0.002704,-0.000426,0.002750,-0.001226,-83.806379,0.002755,
750,1630,0.435289,-0.945044,0.999997,0.000189,-0.001241,0.002512,0.000068,0.002513,-0.001242,88.961066,0.002513,
1890,660,-0.836320,-3.354496,0.999998,0.000166,-0.001218,0.002548,-0.000038,0.002548,-0.001218,-89.421425,0.002549,
920,1160,0.593177,-2.124950,0.999998,0.000184,-0.001508,0.003123,-0.000355,0.003150,-0.001535,-85.637435,0.003151,
890,140,0.089293,-4.824907,0.999999,0.000133,-0.000440,0.001940,0.000294,0.001976,-0.000476,83.063196,0.002062,
1100,500,0.089404,-4.189366,0.999999,0.000131,-0.000800,0.001920,-0.000270,0.001946,-0.000827,-84.376349,0.001954,
1540,260,-0.155414,-4.590208,0.999998,0.000170,-0.000644,0.002092,-0.000117,0.002097,-0.000649,-87.546194,0.002147,
1600,1700,-0.262811,-0.692426,0.999998,0.000145,-0.001023,0.002340,-0.000011,0.002340,-0.001023,-89.814204,0.002346,
1400,1740,-0.084600,-0.509466,0.999998,0.000173,-0.000612,0.001911,-0.000035,0.001911,-0.000612,-89.214322,0.001952,
1220,1250,0.010362,-1.175533,0.999998,0.000146,-0.000868,0.000502,0.000162,0.000521,-0.000886,83.365029,0.000891,
1660,1440,-0.492699,-1.394994,0.999997,0.000193,-0.001450,0.002721,-0.000038,0.002722,-0.001451,-89.479555,0.002724,
910,700,0.389785,-3.508891,0.999997,0.000198,-0.001659,0.002879,-0.000175,0.002886,-0.001666,-87.793069,0.002897,
1010,470,0.165124,-4.187162,0.999998,0.000154,-0.000977,0.002158,-0.000277,0.002183,-0.001002,-84.994053,0.002185,
1180,1270,0.033840,-1.209434,0.999999,0.000141,-0.000769,0.000859,0.000722,0.001132,-0.001043,69.215624,0.001259,
1200,430,0.019285,-4.352517,0.999999,0.000162,-0.000587,0.001793,-0.000066,0.001794,-0.000589,-88.401401,0.001829,
720,1910,0.192981,-0.268681,0.999998,0.000181,-0.000871,0.002371,-0.000468,0.002437,-0.000937,-81.944068,0.002459,
710,1070,0.911451,-2.417143,0.999998,0.000161,-0.001076,0.002413,-0.000066,0.002414,-0.001077,-88.916877,0.002419,
970,1280,0.348363,-1.679961,0.999997,0.000214,-0.001843,0.003145,0.000266,0.003159,-0.001857,86.959847,0.003175,
1520,1060,-0.681479,-2.422116,0.999997,0.000183,-0.000948,0.003114,0.000181,0.003122,-0.000956,87.448471,0.003199,
1760,1550,-0.549678,-1.186899,0.999998,0.000166,-0.001318,0.002567,-0.000051,0.002568,-0.001319,-89.247893,0.002568,
830,1880,0.152097,-0.299942,0.999998,0.000142,-0.000560,0.002137,-0.000338,0.002179,-0.000601,-82.970355,0.002250,
1830,1150,-0.959952,-2.239834,0.999998,0.000168,-0.001109,0.002303,0.000131,0.002308,-0.001114,87.812035,0.002308,
880,620,0.383570,-3.698438,0.999998,0.000160,-0.001450,0.002695,-0.000199,0.002705,-0.001460,-87.263006,0.002707,
1450,1450,-0.190017,-1.153498,0.999998,0.000160,-0.001268,0.002380,-0.000510,0.002450,-0.001338,-82.187320,0.002453,
1890,330,-0.579371,-4.185638,0.999997,0.000194,-0.001204,0.002427,-0.000006,0.002427,-0.001204,-89.911851,0.002427,
1150,1510,0.052589,-0.906289,0.999999,0.000135,-0.000728,0.001762,0.000277,0.001792,-0.000759,83.739784,0.001799,
1520,1970,-0.037516,-0.108993,0.999999,0.000130,-0.000198,0.001728,0.000259,0.001762,-0.000232,82.459234,0.001915,
870,600,0.386290,-3.744989,0.999997,0.000201,-0.001398,0.002668,-0.000173,0.002675,-0.001405,-87.569706,0.002676,
750,1650,0.421663,-0.895212,0.999998,0.000187,-0.001220,0.002519,0.000043,0.002520,-0.001220,89.337241,0.002520,
1610,240,-0.193202,-4.605138,0.999998,0.000170,-0.000772,0.002259,-0.000190,0.002271,-0.000784,-86.426186,0.002307,
920,1140,0.623337,-2.188022,0.999998,0.000182,-0.001371,0.003078,-0.000369,0.003109,-0.001401,-85.286853,0.003114,
1780,530,-0.593602,-3.773774,0.999997,0.000185,-0.001297,0.002556,0.000021,0.002556,-0.001297,89.682527,0.002556,
1230,840,0.003937,-3.846212,0.999998,0.000171,-0.002104,0.000511,0.000044,0.000512,-0.002104,89.045490,0.002195,
1100,480,0.088244,-4.228949,0.999998,0.000152,-0.000763,0.001924,-0.000224,0.001943,-0.000782,-85.276224,0.001955,
1830,1900,-0.296507,-0.350787,0.999998,0.000182,-0.001165,0.002631,0.000274,0.002651,-0.001185,85.896754,0.002656,
1880,660,-0.824853,-3.361631,0.999998,0.000163,-0.001248,0.002533,-0.000039,0.002533,-0.001248,-89.411757,0.002533,
960,990,0.661239,-2.639834,0.999998,0.000156,-0.001037,0.003230,0.000149,0.003235,-0.001043,88.001110,0.003303,
1120,230,0.039416,-4.697755,0.999999,0.000134,-0.000413,0.001767,0.000002,0.001767,-0.000413,89.942365,0.001849,
1360,380,-0.075045,-4.418817,0.999998,0.000155,-0.000635,0.001916,0.000083,0.001919,-0.000638,88.132533,0.001954,
1200,1400,0.017991,-1.050387,0.999999,0.000138,-0.000584,0.001341,0.000220,0.001365,-0.000609,83.563659,0.001368,
1740,1640,-0.460183,-0.939649,0.999998,0.000176,-0.001238,0.002531,-0.000057,0.002531,-0.001239,-89.131227,0.002532,
1250,1510,-0.012935,-0.882536,0.999998,0.000148,-0.000638,0.001646,-0.000102,0.001651,-0.000642,-87.457666,0.001664,
1300,1760,-0.031419,-0.449657,0.999999,0.000138,-0.000407,0.001748,-0.000007,0.001748,-0.000407,-89.806399,0.001829,
1320,1870,-0.023746,-0.262041,0.999998,0.000154,-0.000283,0.001685,0.000049,0.001686,-0.000285,88.586604,0.001805,
1540,240,-0.142245,-4.632683,0.999998,0.000161,-0.000601,0.002092,-0.000165,0.002102,-0.000611,-86.505187,0.002163,
1050,950,0.485740,-2.946844,0.999997,0.000217,-0.001769,0.004268,-0.001352,0.004557,-0.002058,-77.938707,0.004564,
630,150,0.292803,-4.698308,0.999998,0.000188,-0.001214,0.002631,0.000295,0.002654,-0.001236,85.634354,0.002656,
650,1060,0.977918,-2.445265,0.999998,0.000151,-0.001091,0.002293,-0.000064,0.002294,-0.001092,-88.911586,0.002295,
1790,710,-0.752405,-3.299362,0.999998,0.000184,-0.001337,0.002580,-0.000129,0.002584,-0.001341,-88.119411,0.002585,
1360,1670,-0.076660,-0.631446,0.999998,0.000180,-0.000619,0.001872,-0.000097,0.001875,-0.000623,-87.764847,0.001910,
1780,810,-0.830214,-3.049185,0.999998,0.000144,-0.001259,0.002506,-0.000242,0.002522,-0.001275,-86.338673,0.002522,
1660,1420,-0.507354,-1.449874,0.999997,0.000204,-0.001478,0.002695,-0.000006,0.002695,-0.001478,-89.917168,0.002699,
1410,230,-0.066203,-4.687404,0.999998,0.000173,-0.000478,0.001852,-0.000055,0.001853,-0.000479,-88.643879,0.001923,
1490,160,-0.068912,-4.800583,0.999998,0.000174,-0.000395,0.001829,-0.000174,0.001843,-0.000408,-85.565027,0.001936,
1180,430,0.030746,-4.349644,0.999998,0.000175,-0.000570,0.001799,-0.000061,0.001801,-0.000572,-88.519813,0.001840,
1010,710,0.230056,-3.619734,0.999998,0.000194,-0.001640,0.002720,-0.000588,0.002798,-0.001718,-82.452853,0.002823,
1190,1320,0.020925,-1.151209,0.999998,0.000156,-0.000594,0.001006,0.000487,0.001143,-0.000730,74.331180,0.001158,
1600,1900,-0.115175,-0.250386,0.999998,0.000169,-0.000563,0.002041,0.000312,0.002078,-0.000600,83.256263,0.002139,
1770,1820,-0.339790,-0.509924,0.999997,0.000205,-0.001158,0.002529,0.000170,0.002536,-0.001166,87.365925,0.002539,
1830,1640,-0.573733,-1.013051,0.999998,0.000159,-0.001254,0.002533,-0.000033,0.002534,-0.001255,-89.503190,0.002534,
710,1050,0.914234,-2.466327,0.999998,0.000164,-0.001070,0.002407,-0.000074,0.002408,-0.001071,-88.785400,0.002413,
1510,1480,-0.258929,-1.146703,0.999998,0.000160,-0.001303,0.002476,-0.000339,0.002506,-0.001333,-84.909929,0.002508,
880,600,0.372976,-3.754391,0.999997,0.000183,-0.001436,0.002656,-0.000197,0.002665,-0.001445,-87.253155,0.002669,
1020,1930,0.040504,-0.172951,0.999999,0.000162,-0.000233,0.001690,-0.000152,0.001702,-0.000245,-85.521649,0.001841,
1830,1130,-0.972204,-2.286959,0.999999,0.000151,-0.001092,0.002323,0.000151,0.002330,-0.001098,87.480243,0.002331,
810,540,0.432600,-3.850633,0.999998,0.000171,-0.001338,0.002619,-0.000111,0.002622,-0.001341,-88.396669,0.002622,
1790,2000,-0.071148,-0.075640,0.999998,0.000183,-0.000219,0.002245,0.000957,0.002573,-0.000547,71.084772,0.002711,
750,1670,0.407548,-0.843955,0.999998,0.000165,-0.001188,0.002530,0.000000,0.002530,-0.001188,89.997895,0.002532,
920,1950,0.053327,-0.146345,0.999998,0.000164,-0.000236,0.001806,-0.000289,0.001846,-0.000276,-82.086751,0.001991,
920,1120,0.647734,-2.247056,0.999998,0.000172,-0.001243,0.003035,-0.000375,0.003068,-0.001276,-85.029424,0.003082,
1350,360,-0.065054,-4.461265,0.999998,0.000143,-0.000621,0.001873,0.000087,0.001876,-0.000624,88.003381,0.001910,
890,640,0.381915,-3.657691,0.999997,0.000198,-0.001517,0.002742,-0.000206,0.002752,-0.001527,-87.232017,0.002757,
1150,1490,0.054886,-0.938805,0.999999,0.000128,-0.000740,0.001686,0.000301,0.001722,-0.000777,83.038136,0.001725,
1230,830,0.001332,-3.854488,0.999997,0.000184,-0.001589,0.000674,0.000010,0.000674,-0.001589,89.756250,0.001595,
1520,1040,-0.688654,-2.481996,0.999997,0.000205,-0.000895,0.003014,0.000081,0.003016,-0.000897,88.818291,0.003098,
1100,460,0.084852,-4.266145,0.999998,0.000159,-0.000727,0.001906,-0.000201,0.001921,-0.000743,-85.665377,0.001937,
1830,1920,-0.262642,-0.297268,0.999998,0.000169,-0.001156,0.002629,0.000366,0.002664,-0.001191,84.527378,0.002669,
650,380,0.526473,-4.128760,0.999998,0.000175,-0.001239,0.002517,-0.000026,0.002517,-0.001240,-89.603360,0.002517,
730,780,0.740997,-3.147280,0.999998,0.000201,-0.001379,0.002659,0.000236,0.002673,-0.001392,86.663359,0.002673,
1450,690,-0.215028,-3.677929,0.999998,0.000192,-0.001534,0.002628,0.000606,0.002714,-0.001620,81.887200,0.002731,
1410,1380,-0.152559,-1.258672,0.999999,0.000135,-0.001323,0.002293,-0.000705,0.002426,-0.001456,-79.346686,0.002442,
1100,230,0.048168,-4.695080,0.999998,0.000151,-0.000400,0.001770,0.000044,0.001771,-0.000401,88.848537,0.001857,
1360,1870,-0.036037,-0.265615,0.999998,0.000152,-0.000283,0.001709,0.000066,0.001711,-0.000285,88.111812,0.001834,
1250,1490,-0.010846,-0.914727,0.999998,0.000157,-0.000605,0.001616,-0.000123,0.001623,-0.000612,-86.847213,0.001640,
1740,1620,-0.475455,-0.992306,0.999998,0.000165,-0.001250,0.002532,-0.000039,0.002532,-0.001251,-89.408775,0.002532,
1300,1740,-0.031859,-0.486096,0.999998,0.000150,-0.000447,0.001794,-0.000009,0.001794,-0.000447,-89.766548,0.001867,
1560,1090,-0.700239,-2.344134,0.999997,0.000185,-0.001057,0.002856,0.000289,0.002877,-0.001078,85.799076,0.002907,
1660,1400,-0.524160,-1.502006,0.999997,0.000194,-0.001499,0.002755,-0.000003,0.002755,-0.001499,-89.954595,0.002759,
630,130,0.256315,-4.752634,0.999998,0.000166,-0.001194,0.002664,0.000384,0.002702,-0.001232,84.365919,0.002706,
1360,850,-0.195818,-3.496340,0.999998,0.000183,-0.001397,0.002141,0.001175,0.002495,-0.001752,73.198934,0.002563,
560,850,1.007105,-2.885624,0.999999,0.000000,-0.001080,0.002150,-0.000014,0.002150,-0.001080,-89.756710,0.002150,
1120,1370,0.076075,-1.174589,0.999998,0.000153,-0.000953,0.001788,0.000733,0.001972,-0.001137,75.930682,0.001980,
1360,400,-0.078463,-4.380301,0.999998,0.000170,-0.000650,0.001877,0.000112,0.001882,-0.000655,87.472319,0.001910,
1540,220,-0.128989,-4.673595,0.999998,0.000157,-0.000548,0.002027,-0.000194,0.002041,-0.000562,-85.714541,0.002109,
1200,1420,0.018781,-1.022714,0.999999,0.000126,-0.000590,0.001397,0.000191,0.001415,-0.000608,84.570045,0.001419,
1720,70,-0.071065,-4.940978,0.999999,0.000145,-0.000259,0.001991,-0.000632,0.002157,-0.000424,-75.329968,0.002285,
1730,1050,-0.890085,-2.463908,0.999998,0.000150,-0.001051,0.002436,0.000077,0.002438,-0.001053,88.736800,0.002445,
1100,430,0.082217,-4.323725,0.999998,0.000165,-0.000700,0.001918,-0.000154,0.001927,-0.000709,-86.641870,0.001950,
640,870,0.931074,-2.884545,0.999998,0.000139,-0.001164,0.002405,0.000179,0.002414,-0.001173,87.136551,0.002414,
1790,690,-0.734448,-3.349521,0.999998,0.000190,-0.001325,0.002573,-0.000099,0.002575,-0.001328,-88.551911,0.002576,
1640,1590,-0.371137,-0.987975,0.999998,0.000160,-0.001207,0.002474,-0.000114,0.002478,-0.001211,-88.223827,0.002478,
960,1620,0.202893,-0.812690,0.999999,0.000142,-0.000963,0.002223,0.000152,0.002230,-0.000970,87.283880,0.002237,
1810,1640,-0.547087,-0.999561,0.999997,0.000187,-0.001288,0.002562,-0.000019,0.002563,-0.001288,-89.716944,0.002563,
940,1310,0.377014,-1.633440,0.999998,0.000140,-0.001795,0.003027,0.000212,0.003036,-0.001805,87.491855,0.003054,
750,1690,0.390756,-0.793519,0.999997,0.000186,-0.001152,0.002486,-0.000032,0.002486,-0.001152,-89.489067,0.002488,
1440,1950,-0.031269,-0.136452,0.999999,0.000143,-0.000219,0.001701,0.000154,0.001714,-0.000231,85.456443,0.001860,
920,1510,0.288767,-1.104609,0.999998,0.000200,-0.001285,0.002496,0.000279,0.002517,-0.001306,85.800916,0.002517,
1830,1110,-0.982356,-2.333016,0.999998,0.000154,-0.001069,0.002284,0.000135,0.002289,-0.001075,87.694690,0.002290,
1020,1030,0.604901,-2.509937,0.999997,0.000213,-0.001686,0.004480,-0.000002,0.004480,-0.001686,-89.981196,0.004525,
1410,250,-0.072723,-4.651446,0.999998,0.000173,-0.000524,0.001847,-0.000026,0.001847,-0.000524,-89.372004,0.001904,
1660,450,-0.386385,-4.073424,0.999999,0.000155,-0.001224,0.002505,0.000079,0.002506,-0.001226,88.790822,0.002507,
840,750,0.549613,-3.295885,0.999997,0.000207,-0.001614,0.002917,0.000126,0.002921,-0.001617,88.411969,0.002926,
1590,700,-0.451372,-3.468829,0.999997,0.000190,-0.001640,0.002878,0.000075,0.002880,-0.001641,89.044022,0.002889,
1870,600,-0.763891,-3.523302,0.999998,0.000186,-0.001281,0.002556,-0.000005,0.002556,-0.001281,-89.928091,0.002556,
1000,1660,0.153380,-0.697285,0.999998,0.000157,-0.000802,0.002111,0.000119,0.002116,-0.000807,87.659760,0.002135,
730,760,0.722883,-3.200689,0.999998,0.000168,-0.001387,0.002657,0.000198,0.002666,-0.001397,87.205339,0.002667,
920,1100,0.672392,-2.309649,0.999997,0.000193,-0.001127,0.002997,-0.000331,0.003023,-0.001153,-85.441865,0.003051,
880,580,0.361055,-3.807215,0.999998,0.000175,-0.001394,0.002632,-0.000194,0.002642,-0.001404,-87.247106,0.002643,
990,400,0.162813,-4.324941,0.999998,0.000172,-0.000880,0.002134,-0.000152,0.002142,-0.000888,-87.117806,0.002152,
1390,1380,-0.128115,-1.228411,0.999998,0.000142,-0.001226,0.002156,-0.000706,0.002297,-0.001367,-78.665569,0.002311,
580,640,0.811134,-3.410876,0.999998,0.000174,-0.001569,0.002610,0.000117,0.002613,-0.001572,88.393412,0.002631,
1230,820,0.002924,-3.858458,0.999998,0.000153,-0.001229,0.000593,-0.000007,0.000593,-0.001229,-89.777970,0.001229,
1150,1470,0.053621,-0.973676,0.999999,0.000131,-0.000730,0.001706,0.000330,0.001750,-0.000774,82.413237,0.001754,
1350,880,-0.262315,-3.491400,0.999997,0.000191,-0.000726,0.001518,0.001124,0.001984,-0.001193,67.475024,0.001998,
800,360,0.331997,-4.294100,0.999998,0.000166,-0.001145,0.002448,-0.000025,0.002448,-0.001145,-89.600204,0.002450,
1660,1380,-0.539724,-1.558631,0.999997,0.000202,-0.001517,0.002796,0.000021,0.002797,-0.001517,89.721611,0.002800,
1310,230,-0.027083,-4.703057,0.999999,0.000142,-0.000361,0.001736,-0.000021,0.001736,-0.000361,-89.425704,0.001832,
1880,1280,-0.921311,-1.962855,0.999998,0.000157,-0.001180,0.002395,0.000075,0.002396,-0.001182,88.796992,0.002396,
1150,600,0.052621,-4.040610,0.999999,0.000157,-0.000722,0.001662,-0.000362,0.001716,-0.000776,-81.551104,0.001718,
850,1620,0.320136,-0.892272,0.999998,0.000164,-0.001161,0.002432,0.000093,0.002435,-0.001164,88.514249,0.002435,
1620,520,-0.376755,-3.931317,0.999998,0.000181,-0.001332,0.002576,0.000124,0.002580,-0.001336,88.180461,0.002580,
1520,550,-0.262256,-3.945218,0.999998,0.000175,-0.001234,0.002480,0.000301,0.002504,-0.001259,85.395147,0.002504,
1520,1020,-0.690341,-2.541630,0.999997,0.000204,-0.000908,0.002973,-0.000032,0.002973,-0.000908,-89.525194,0.003047,
1640,1570,-0.382596,-1.036694,0.999998,0.000162,-0.001249,0.002515,-0.000113,0.002518,-0.001252,-88.281994,0.002518,
790,200,0.206952,-4.669600,0.999998,0.000166,-0.000881,0.002318,0.000277,0.002341,-0.000905,85.089049,0.002361,
1160,1930,0.011475,-0.161683,0.999999,0.000159,-0.000135,0.001615,-0.000050,0.001616,-0.000137,-88.350335,0.001793,
1340,1870,-0.028992,-0.263968,0.999999,0.000124,-0.000330,0.001700,0.000050,0.001702,-0.000331,88.603385,0.001804,
1120,730,0.078136,-3.785695,0.999998,0.000190,-0.001073,0.001764,-0.000929,0.002041,-0.001350,-73.394526,0.002076,
1790,670,-0.717655,-3.401470,0.999997,0.000191,-0.001301,0.002610,-0.000094,0.002613,-0.001304,-88.617044,0.002613,
1740,730,-0.704236,-3.276756,0.999998,0.000173,-0.001385,0.002646,-0.000176,0.002654,-0.001392,-87.503159,0.002655,
960,1600,0.211084,-0.856712,0.999999,0.000150,-0.000997,0.002243,0.000168,0.002251,-0.001006,87.032056,0.002256,
1780,2000,-0.069002,-0.073923,0.999999,0.000139,-0.000271,0.002226,0.000921,0.002529,-0.000574,71.794431,0.002651,
1050,430,0.120549,-4.296596,0.999998,0.000156,-0.000818,0.002048,-0.000190,0.002061,-0.000831,-86.232330,0.002074,
1740,1600,-0.491150,-1.041681,0.999998,0.000180,-0.001263,0.002523,-0.000056,0.002524,-0.001264,-89.150379,0.002524,
1410,270,-0.079358,-4.612498,0.999998,0.000162,-0.000564,0.001874,-0.000013,0.001874,-0.000564,-89.688393,0.001922,
1100,440,0.083561,-4.304171,0.999998,0.000176,-0.000712,0.001925,-0.000164,0.001936,-0.000722,-86.446392,0.001956,
1450,1080,-0.582984,-2.301356,0.999997,0.000196,-0.001451,0.003946,-0.000179,0.003952,-0.001457,-88.099775,0.003998,
1250,1470,-0.010758,-0.947398,0.999998,0.000153,-0.000586,0.001518,-0.000105,0.001523,-0.000591,-87.138785,0.001536,
1360,420,-0.079035,-4.343761,0.999998,0.000171,-0.000669,0.001885,0.000128,0.001891,-0.000676,87.149258,0.001917,
860,210,0.165102,-4.672092,0.999998,0.000175,-0.000687,0.002136,0.000240,0.002157,-0.000708,85.173905,0.002199,
1570,700,-0.417196,-3.489503,0.999998,0.000215,-0.001657,0.002882,0.000123,0.002885,-0.001660,88.449241,0.002896,
1560,1690,-0.226831,-0.690982,0.999998,0.000171,-0.000976,0.002273,-0.000038,0.002273,-0.000976,-89.333481,0.002281,
1540,200,-0.116845,-4.713086,0.999998,0.000147,-0.000493,0.002005,-0.000225,0.002025,-0.000513,-84.897359,0.002105,
840,770,0.570114,-3.237680,0.999998,0.000167,-0.001604,0.002949,0.000165,0.002955,-0.001610,87.931095,0.002959,
1240,1570,-0.006602,-0.778635,0.999998,0.000149,-0.000626,0.001745,-0.000050,0.001746,-0.000628,-88.788287,0.001769,
760,180,0.209714,-4.703396,0.999998,0.000160,-0.000769,0.002322,0.000398,0.002373,-0.000819,82.782775,0.002410,
610,1680,0.571233,-0.932963,0.999997,0.000180,-0.001243,0.002505,0.000026,0.002505,-0.001243,89.605595,0.002505,
630,110,0.218074,-4.805313,0.999998,0.000164,-0.001134,0.002646,0.000460,0.002701,-0.001189,83.163527,0.002707,
1430,660,-0.178804,-3.783256,0.999998,0.000193,-0.001364,0.002380,0.000622,0.002481,-0.001465,80.804207,0.002494,
970,1320,0.312856,-1.555959,0.999997,0.000190,-0.001763,0.002937,0.000387,0.002969,-0.001794,85.323651,0.002990,
1180,1950,0.006669,-0.130374,0.999999,0.000149,-0.000102,0.001579,-0.000030,0.001580,-0.000103,-88.992540,0.001768,
1830,1090,-0.990729,-2.378220,0.999998,0.000171,-0.001074,0.002254,0.000065,0.002255,-0.001075,88.876954,0.002256,
570,800,0.958045,-3.010458,0.999998,0.000177,-0.001214,0.002195,-0.000007,0.002195,-0.001214,-89.886016,0.002199,
1000,1620,0.162757,-0.784729,0.999998,0.000153,-0.000928,0.002147,0.000211,0.002161,-0.000943,86.092714,0.002167,
630,740,0.834787,-3.195912,0.999998,0.000152,-0.001241,0.002487,0.000132,0.002492,-0.001245,87.970233,0.002492,
920,1080,0.687883,-2.367840,0.999998,0.000188,-0.001018,0.002942,-0.000258,0.002959,-0.001035,-86.282241,0.003003,
1660,1360,-0.557244,-1.615198,0.999997,0.000212,-0.001519,0.002796,0.000065,0.002797,-0.001520,89.142211,0.002801,
1310,250,-0.029778,-4.667829,0.999999,0.000143,-0.000378,0.001726,-0.000010,0.001726,-0.000378,-89.724939,0.001815,
560,840,0.998617,-2.907625,0.999999,0.000000,-0.001104,0.002328,-0.000007,0.002328,-0.001104,-89.877973,0.002329,
800,340,0.317920,-4.342671,0.999998,0.000166,-0.001137,0.002429,-0.000018,0.002429,-0.001137,-89.707807,0.002431,
950,1740,0.163779,-0.555360,0.999998,0.000152,-0.000818,0.002153,0.000024,0.002153,-0.000818,89.537461,0.002174,
1490,420,-0.185548,-4.269630,0.999998,0.000157,-0.000962,0.002193,0.000166,0.002202,-0.000971,86.989780,0.002207,
1100,880,0.270880,-3.423108,0.999997,0.000204,-0.000956,0.001831,-0.001200,0.002277,-0.001401,-69.630480,0.002297,
1650,140,-0.124697,-4.810712,0.999998,0.000153,-0.000523,0.002088,-0.000421,0.002154,-0.000589,-81.070941,0.002226,
1100,730,0.101949,-3.744946,0.999998,0.000170,-0.001267,0.002022,-0.000943,0.002273,-0.001519,-75.085100,0.002316,
1150,1450,0.053529,-1.007705,0.999999,0.000135,-0.000729,0.001648,0.000361,0.001702,-0.000783,81.562364,0.001704,
1790,650,-0.700526,-3.454930,0.999997,0.000182,-0.001310,0.002611,-0.000075,0.002613,-0.001311,-88.903573,0.002613,
880,560,0.348869,-3.860071,0.999998,0.000169,-0.001348,0.002561,-0.000193,0.002570,-0.001357,-87.176643,0.002571,
1150,580,0.052940,-4.074498,0.999998,0.000173,-0.000747,0.001708,-0.000346,0.001756,-0.000795,-82.125691,0.001759,
1720,730,-0.675762,-3.287896,0.999998,0.000174,-0.001395,0.002678,-0.000176,0.002686,-0.001402,-87.524880,0.002687,
590,1570,0.679883,-1.225937,0.999998,0.000174,-0.001406,0.002487,0.000036,0.002487,-0.001406,89.470972,0.002494,
1450,1430,-0.196094,-1.202433,0.999998,0.000158,-0.001310,0.002357,-0.000531,0.002433,-0.001385,-81.923529,0.002441,
1540,1690,-0.209393,-0.680323,0.999998,0.000166,-0.000849,0.002204,-0.000020,0.002205,-0.000849,-89.621941,0.002224,
1300,1510,-0.044111,-0.897702,0.999999,0.000133,-0.000696,0.001711,-0.000241,0.001735,-0.000720,-84.340048,0.001743,
960,1580,0.215722,-0.901734,0.999998,0.000163,-0.001063,0.002282,0.000227,0.002298,-0.001079,86.128280,0.002299,
1420,1830,-0.069973,-0.346189,0.999998,0.000165,-0.000493,0.001827,0.000042,0.001828,-0.000494,88.965122,0.001892,
1540,1570,-0.262402,-0.955956,0.999998,0.000173,-0.001124,0.002367,-0.000195,0.002378,-0.001135,-86.808245,0.002379,
1020,150,0.050043,-4.823827,0.999999,0.000127,-0.000273,0.001747,0.000138,0.001757,-0.000283,86.100964,0.001886,
1410,60,-0.011035,-4.976828,0.999999,0.000094,-0.000120,0.001572,-0.000125,0.001581,-0.000129,-85.800466,0.001756,
1200,1440,0.018106,-0.995161,0.999999,0.000137,-0.000597,0.001467,0.000170,0.001481,-0.000611,85.330538,0.001488,
770,620,0.543163,-3.604774,0.999998,0.000195,-0.001407,0.002673,-0.000022,0.002673,-0.001407,-89.687562,0.002675,
1750,90,-0.114838,-4.894002,0.999998,0.000146,-0.000695,0.002122,-0.000608,0.002248,-0.000820,-78.318873,0.002275,
1360,440,-0.082566,-4.305420,0.999998,0.000154,-0.000693,0.001880,0.000168,0.001891,-0.000704,86.281343,0.001911,
1250,1450,-0.011265,-0.976889,0.999999,0.000127,-0.000588,0.001474,-0.000129,0.001482,-0.000596,-86.430430,0.001492,
1310,360,-0.041939,-4.471389,0.999998,0.000160,-0.000561,0.001819,0.000048,0.001820,-0.000562,88.855545,0.001864,
1720,50,-0.044703,-4.979930,0.999999,0.000136,-0.000139,0.001949,-0.000648,0.002134,-0.000323,-74.084552,0.002300,
760,160,0.186479,-4.749944,0.999998,0.000155,-0.000708,0.002290,0.000479,0.002364,-0.000783,81.143114,0.002409,
630,1900,0.301111,-0.353573,0.999998,0.000173,-0.001186,0.002614,-0.000269,0.002633,-0.001205,-85.964037,0.002636,
1520,1000,-0.685188,-2.602385,0.999998,0.000192,-0.000953,0.003108,-0.000154,0.003114,-0.000959,-87.826681,0.003189,
1410,290,-0.084285,-4.575034,0.999998,0.000161,-0.000603,0.001919,0.000018,0.001919,-0.000603,89.580005,0.001963,
1830,1070,-0.994378,-2.423830,0.999998,0.000198,-0.001057,0.002262,0.000047,0.002262,-0.001057,89.197168,0.002264,
1310,270,-0.031476,-4.633134,0.999998,0.000145,-0.000427,0.001758,-0.000018,0.001758,-0.000427,-89.533515,0.001834,
1700,1810,-0.277931,-0.489684,0.999998,0.000151,-0.000950,0.002423,0.000215,0.002437,-0.000964,86.359617,0.002455,
1540,180,-0.102939,-4.753321,0.999998,0.000159,-0.000433,0.001948,-0.000227,0.001969,-0.000455,-84.607908,0.002062,
1160,1950,0.009120,-0.130296,0.999998,0.000167,-0.000116,0.001580,-0.000041,0.001581,-0.000116,-88.624305,0.001762,
690,800,0.813838,-3.076660,0.999999,0.000151,-0.001299,0.002558,0.000226,0.002571,-0.001312,86.663447,0.002571,
1050,850,0.288296,-3.299896,0.999997,0.000192,-0.001901,0.003128,-0.000707,0.003225,-0.001998,-82.152125,0.003256,
1660,1340,-0.575092,-1.671114,0.999997,0.000195,-0.001519,0.002806,0.000087,0.002807,-0.001521,88.845929,0.002811,
1160,230,0.024189,-4.703213,0.999999,0.000146,-0.000341,0.001742,0.000024,0.001742,-0.000342,89.337324,0.001847,
1620,500,-0.363667,-3.980433,0.999998,0.000194,-0.001271,0.002522,0.000141,0.002527,-0.001276,87.867520,0.002527,
1870,1280,-0.909410,-1.954713,0.999998,0.000162,-0.001190,0.002399,0.000082,0.002401,-0.001192,88.689946,0.002401,
1650,120,-0.103635,-4.850860,0.999999,0.000154,-0.000459,0.002017,-0.000451,0.002096,-0.000539,-79.983805,0.002177,
1100,420,0.081212,-4.343482,0.999998,0.000171,-0.000685,0.001902,-0.000137,0.001909,-0.000692,-86.970182,0.001933,
1490,380,-0.172068,-4.358504,0.999998,0.000155,-0.000909,0.002162,0.000114,0.002166,-0.000914,87.882883,0.002175,
920,1060,0.703795,-2.428301,0.999998,0.000190,-0.000935,0.002921,-0.000173,0.002929,-0.000942,-87.435350,0.002990,
800,320,0.304185,-4.392179,0.999998,0.000188,-0.001096,0.002430,0.000032,0.002430,-0.001096,89.487328,0.002434,
750,1220,0.766385,-2.029188,0.999999,0.000152,-0.001323,0.002664,-0.000283,0.002684,-0.001343,-85.958698,0.002684,
1800,510,-0.605081,-3.808722,0.999998,0.000173,-0.001294,0.002565,0.000034,0.002565,-0.001294,89.489642,0.002565,
1060,490,0.122277,-4.180075,0.999999,0.000138,-0.000879,0.002023,-0.000291,0.002052,-0.000908,-84.321177,0.002056,
950,1720,0.172918,-0.599690,0.999998,0.000181,-0.000836,0.002211,0.000030,0.002211,-0.000836,89.443531,0.002233,
630,90,0.174470,-4.857790,0.999998,0.000158,-0.001074,0.002669,0.000595,0.002762,-0.001167,81.176334,0.002773,
1430,1100,-0.523891,-2.176159,0.999996,0.000233,-0.001669,0.004154,-0.000681,0.004232,-0.001747,-83.417529,0.004254,
880,540,0.339975,-3.911054,0.999998,0.000171,-0.001298,0.002566,-0.000186,0.002575,-0.001307,-87.247778,0.002575,
1000,1080,0.601414,-2.321051,0.999997,0.000204,-0.001318,0.003686,-0.000007,0.003686,-0.001318,-89.923720,0.003736,
650,740,0.809911,-3.207071,0.999998,0.000147,-0.001271,0.002505,0.000160,0.002512,-0.001278,87.576867,0.002512,
770,1620,0.417651,-0.954119,0.999998,0.000149,-0.001227,0.002518,0.000056,0.002519,-0.001227,89.143317,0.002519,
1790,630,-0.683950,-3.506978,0.999998,0.000170,-0.001314,0.002597,-0.000039,0.002597,-0.001315,-89.423926,0.002597,
720,1970,0.102142,-0.133791,0.999998,0.000160,-0.000587,0.002093,-0.000601,0.002221,-0.000716,-77.916478,0.002268,
960,1560,0.223187,-0.948368,0.999998,0.000151,-0.001118,0.002313,0.000262,0.002333,-0.001138,85.655635,0.002333,
1090,880,0.281344,-3.371761,0.999998,0.000180,-0.001195,0.002160,-0.001207,0.002549,-0.001584,-72.130988,0.002574,
1150,1430,0.052891,-1.039241,0.999999,0.000133,-0.000734,0.001622,0.000414,0.001692,-0.000804,80.315466,0.001693,
1790,1640,-0.523075,-0.981984,0.999996,0.000208,-0.001222,0.002547,-0.000058,0.002547,-0.001223,-89.118765,0.002548,
1270,540,-0.025430,-4.161189,0.999999,0.000137,-0.000614,0.001668,0.000111,0.001673,-0.000619,87.226149,0.001692,
560,830,0.990982,-2.931395,0.999999,0.000000,-0.001111,0.002440,0.000013,0.002440,-0.001111,89.787396,0.002444,
1750,110,-0.147290,-4.848497,0.999998,0.000154,-0.000785,0.002286,-0.000588,0.002395,-0.000894,-79.520712,0.002420,
1820,1730,-0.489491,-0.778652,0.999998,0.000181,-0.001236,0.002529,0.000006,0.002529,-0.001236,89.903110,0.002529,
1520,1570,-0.238844,-0.940560,0.999998,0.000169,-0.001176,0.002352,-0.000241,0.002368,-0.001192,-86.111256,0.002368,
1000,150,0.054896,-4.822792,0.999999,0.000120,-0.000285,0.001786,0.000179,0.001801,-0.000300,85.100351,0.001930,
1770,840,-0.844364,-2.976544,0.999998,0.000166,-0.001250,0.002515,-0.000230,0.002529,-0.001264,-86.514113,0.002529,
1520,980,-0.670154,-2.665864,0.999998,0.000166,-0.001054,0.003114,-0.000218,0.003126,-0.001065,-87.016889,0.003178,
1440,50,-0.012014,-4.990754,0.999999,0.000105,-0.000061,0.001542,-0.000136,0.001553,-0.000072,-85.181493,0.001754,
1830,1050,-0.998304,-2.467720,0.999998,0.000167,-0.001067,0.002265,0.000074,0.002267,-0.001069,88.733750,0.002268,
1020,1690,0.129757,-0.626796,0.999998,0.000149,-0.000757,0.002080,0.000077,0.002082,-0.000759,88.456363,0.002108,
760,140,0.159552,-4.794744,0.999998,0.000137,-0.000594,0.002218,0.000512,0.002309,-0.000684,79.987369,0.002371,
1250,1430,-0.009713,-1.007537,0.999999,0.000135,-0.000566,0.001421,-0.000120,0.001428,-0.000573,-86.564639,0.001438,
1360,1180,-0.253208,-1.592287,0.999997,0.000202,-0.000971,0.001792,-0.001147,0.002206,-0.001385,-70.145318,0.002230,
1410,730,-0.168806,-3.647646,0.999998,0.000166,-0.001561,0.002491,0.000811,0.002648,-0.001717,79.088471,0.002686,
1310,290,-0.034930,-4.597025,0.999999,0.000140,-0.000456,0.001777,-0.000001,0.001777,-0.000456,-89.977574,0.001846,
1080,1930,0.026388,-0.166607,0.999998,0.000154,-0.000171,0.001635,-0.000104,0.001641,-0.000177,-86.705162,0.001802,
1430,540,-0.155051,-4.054060,0.999998,0.000151,-0.001051,0.002181,0.000392,0.002228,-0.001098,83.190469,0.002228,
630,1880,0.331994,-0.406288,0.999997,0.000198,-0.001181,0.002621,-0.000213,0.002633,-0.001193,-86.807910,0.002637,
1540,160,-0.090525,-4.791303,0.999999,0.000143,-0.000389,0.001932,-0.000247,0.001958,-0.000415,-83.997709,0.002064,
980,1950,0.039023,-0.140628,0.999998,0.000150,-0.000219,0.001734,-0.000202,0.001755,-0.000239,-84.156686,0.001903,
1890,1270,-0.942317,-1.993102,0.999999,0.000148,-0.001164,0.002358,0.000073,0.002360,-0.001165,88.816992,0.002360,
1730,1030,-0.893108,-2.512510,0.999998,0.000160,-0.001058,0.002450,0.000006,0.002450,-0.001058,89.903436,0.002457,
1100,400,0.080034,-4.378604,0.999998,0.000166,-0.000657,0.001859,-0.000110,0.001864,-0.000662,-87.504054,0.001890,
1660,1320,-0.593238,-1.727361,0.999998,0.000175,-0.001516,0.002810,0.000137,0.002815,-0.001520,88.185701,0.002818,
1710,800,-0.728568,-3.104267,0.999998,0.000190,-0.001395,0.002678,-0.000258,0.002695,-0.001411,-86.389102,0.002696,
1050,870,0.326541,-3.234266,0.999998,0.000175,-0.001812,0.003274,-0.000735,0.003378,-0.001917,-81.940395,0.003388,
1620,480,-0.356570,-4.030750,0.999998,0.000187,-0.001226,0.002485,0.000133,0.002489,-0.001231,87.950841,0.002489,
1620,970,-0.763576,-2.671260,0.999998,0.000187,-0.001043,0.002697,-0.000224,0.002710,-0.001057,-86.590064,0.002732,
800,300,0.288620,-4.439909,0.999998,0.000200,-0.001061,0.002374,0.000086,0.002376,-0.001063,88.563539,0.002381,
1000,1060,0.622801,-2.394636,0.999997,0.000189,-0.001270,0.003912,0.000014,0.003912,-0.001270,89.840007,0.003991,
640,670,0.760451,-3.379658,0.999997,0.000199,-0.001267,0.002574,0.000091,0.002577,-0.001269,88.642345,0.002577,
920,1040,0.708836,-2.484908,0.999997,0.000194,-0.000870,0.002862,-0.000083,0.002864,-0.000872,-88.730544,0.002936,
1140,230,0.032009,-4.701190,0.999999,0.000126,-0.000381,0.001753,-0.000003,0.001753,-0.000381,-89.914904,0.001844,
710,160,0.226120,-4.727970,0.999998,0.000162,-0.001030,0.002448,0.000404,0.002494,-0.001077,83.456651,0.002502,
1370,1380,-0.104181,-1.196822,0.999999,0.000144,-0.001133,0.002000,-0.000749,0.002170,-0.001303,-77.224851,0.002184,
1550,1760,-0.182238,-0.529679,0.999998,0.000159,-0.000750,0.002187,0.000085,0.002189,-0.000752,88.340619,0.002225,
630,70,0.127676,-4.912511,0.999998,0.000156,-0.001012,0.002615,0.000697,0.002744,-0.001142,79.482424,0.002757,
1490,360,-0.163225,-4.400429,0.999998,0.000169,-0.000880,0.002105,0.000083,0.002107,-0.000882,88.415325,0.002116,
880,520,0.329665,-3.962853,0.999998,0.000188,-0.001272,0.002518,-0.000180,0.002526,-0.001281,-87.292199,0.002526,
1450,1390,-0.206509,-1.296723,0.999998,0.000177,-0.001468,0.002518,-0.000585,0.002602,-0.001552,-81.822952,0.002618,
770,1600,0.430212,-1.004401,0.999997,0.000187,-0.001238,0.002546,0.000058,0.002547,-0.001239,89.126759,0.002547,
1730,540,-0.535226,-3.786914,0.999998,0.000187,-0.001355,0.002600,0.000044,0.002600,-0.001355,89.365861,0.002601,
1150,1410,0.050100,-1.071505,0.999999,0.000151,-0.000737,0.001589,0.000476,0.001683,-0.000831,78.873466,0.001683,
1360,730,-0.098756,-3.750757,0.999998,0.000197,-0.001227,0.002010,0.000949,0.002268,-0.001485,74.805800,0.002304,
1790,610,-0.668092,-3.558099,0.999998,0.000168,-0.001295,0.002578,-0.000026,0.002578,-0.001295,-89.611573,0.002578,
960,1540,0.229196,-0.994664,0.999999,0.000149,-0.001185,0.002351,0.000277,0.002372,-0.001206,85.539982,0.002372,
1830,1740,-0.492326,-0.762178,0.999998,0.000185,-0.001213,0.002528,0.000009,0.002528,-0.001213,89.869260,0.002528,
1430,1080,-0.551621,-2.263611,0.999997,0.000202,-0.001794,0.004512,-0.000649,0.004578,-0.001861,-84.184819,0.004604,
570,380,0.645300,-4.058480,0.999822,0.001579,-0.004212,0.001834,0.000363,0.001856,-0.004234,86.576378,0.004245,
560,820,0.984135,-2.957724,0.999999,0.000000,-0.001112,0.002422,0.000011,0.002422,-0.001112,89.825297,0.002425,
720,1950,0.132128,-0.176452,0.999999,0.000140,-0.000709,0.002204,-0.000590,0.002319,-0.000824,-78.980641,0.002351,
1140,1490,0.061205,-0.945135,0.999999,0.000128,-0.000734,0.001724,0.000312,0.001763,-0.000772,82.881753,0.001767,
620,870,0.953977,-2.876063,0.999999,0.000142,-0.001138,0.002349,0.000144,0.002355,-0.001144,87.645954,0.002355,
1830,1030,-1.001173,-2.514567,0.999998,0.000190,-0.001066,0.002274,0.000013,0.002274,-0.001066,89.780399,0.002276,
1270,580,-0.024544,-4.096418,0.999999,0.000185,-0.000653,0.001586,0.000139,0.001595,-0.000661,86.467870,0.001602,
810,1220,0.684269,-2.006369,0.999998,0.000178,-0.001413,0.002803,-0.000306,0.002825,-0.001435,-85.867425,0.002825,
760,120,0.134458,-4.838109,0.999999,0.000142,-0.000492,0.002228,0.000570,0.002343,-0.000607,78.623765,0.002432,
1020,1670,0.136082,-0.667764,0.999998,0.000143,-0.000787,0.002043,0.000083,0.002045,-0.000789,88.326360,0.002063,
1310,730,-0.045690,-3.844940,0.999998,0.000151,-0.000820,0.001372,0.000800,0.001633,-0.001081,71.942887,0.001661,
1410,710,-0.161020,-3.696886,0.999998,0.000147,-0.001464,0.002424,0.000762,0.002568,-0.001608,79.293174,0.002595,
1500,210,-0.100674,-4.702825,0.999998,0.000156,-0.000569,0.001948,-0.000125,0.001954,-0.000575,-87.169165,0.002009,
800,150,0.143714,-4.784622,0.999998,0.000146,-0.000667,0.002151,0.000404,0.002208,-0.000724,82.001590,0.002251,
1480,1950,-0.037987,-0.140284,0.999999,0.000180,-0.000202,0.001724,0.000205,0.001746,-0.000224,83.989347,0.001900,
1520,960,-0.652059,-2.726425,0.999998,0.000175,-0.001155,0.003113,-0.000279,0.003132,-0.001173,-86.272312,0.003164,
930,1380,0.339426,-1.437040,0.999997,0.000204,-0.001617,0.002825,0.000294,0.002844,-0.001636,86.227994,0.002855,
1250,1410,-0.010097,-1.032981,0.999999,0.000129,-0.000547,0.001334,-0.000128,0.001343,-0.000556,-86.120340,0.001350,
1160,370,0.039020,-4.454210,0.999999,0.000129,-0.000549,0.001803,-0.000047,0.001804,-0.000550,-88.851562,0.001849,
1360,860,-0.212287,-3.472873,0.999998,0.000187,-0.001246,0.001986,0.001152,0.002355,-0.001615,72.260240,0.002408,
1660,1300,-0.612880,-1.784787,0.999998,0.000176,-0.001500,0.002821,0.000173,0.002828,-0.001507,87.717298,0.002830,
630,1960,0.185933,-0.195824,0.999998,0.000153,-0.001090,0.002607,-0.000569,0.002693,-0.001175,-81.443444,0.002700,
1750,130,-0.177884,-4.802095,0.999999,0.000146,-0.000865,0.002313,-0.000520,0.002396,-0.000948,-80.932143,0.002414,
1540,140,-0.077127,-4.830274,0.999999,0.000138,-0.000315,0.001843,-0.000247,0.001871,-0.000343,-83.540977,0.001993,
1080,310,0.074551,-4.545075,0.999998,0.000165,-0.000506,0.001887,-0.000016,0.001887,-0.000506,-89.611485,0.001954,
710,180,0.253374,-4.679301,0.999998,0.000164,-0.001085,0.002449,0.000319,0.002478,-0.001113,84.888548,0.002482,
1790,590,-0.650893,-3.609527,0.999998,0.000170,-0.001293,0.002594,0.000003,0.002594,-0.001293,89.957672,0.002594,
1300,730,-0.038604,-3.861608,0.999998,0.000163,-0.000740,0.001278,0.000728,0.001513,-0.000975,72.100532,0.001534,
940,710,0.346797,-3.513939,0.999996,0.000218,-0.001720,0.002906,-0.000262,0.002921,-0.001735,-86.763578,0.002938,
570,370,0.636479,-4.076814,0.999809,0.001734,-0.003922,0.001891,0.000299,0.001906,-0.003937,87.062134,0.003938,
800,280,0.271071,-4.487330,0.999998,0.000186,-0.001042,0.002381,0.000127,0.002386,-0.001047,87.874860,0.002392,
1770,360,-0.457836,-4.213814,0.999998,0.000181,-0.001209,0.002515,0.000001,0.002515,-0.001209,89.980780,0.002515,
880,500,0.318247,-4.010356,0.999998,0.000175,-0.001259,0.002465,-0.000192,0.002475,-0.001268,-87.051834,0.002476,
1470,1760,-0.123054,-0.495424,0.999998,0.000162,-0.000605,0.002031,0.000029,0.002031,-0.000605,89.379858,0.002086,
1150,1390,0.049586,-1.100715,0.999999,0.000148,-0.000748,0.001555,0.000539,0.001675,-0.000868,77.453180,0.001675,
1730,520,-0.521283,-3.839662,0.999998,0.000153,-0.001325,0.002584,0.000039,0.002584,-0.001325,89.423792,0.002585,
920,1470,0.307774,-1.206800,0.999998,0.000169,-0.001375,0.002582,0.000260,0.002599,-0.001392,86.261235,0.002601,
1200,1880,0.008980,-0.244054,0.999999,0.000129,-0.000237,0.001648,-0.000006,0.001648,-0.000237,-89.828992,0.001781,
1000,1040,0.633890,-2.473673,0.999997,0.000199,-0.001248,0.003903,0.000024,0.003903,-0.001248,89.737257,0.003986,
920,1020,0.711945,-2.543082,0.999998,0.000187,-0.000869,0.002837,0.000049,0.002837,-0.000870,89.247886,0.002907,
1750,600,-0.607378,-3.615225,0.999998,0.000185,-0.001365,0.002622,-0.000021,0.002622,-0.001365,-89.692781,0.002623,
770,540,0.486917,-3.817624,0.999998,0.000180,-0.001350,0.002594,-0.000056,0.002595,-0.001351,-89.189290,0.002595,
640,1690,0.526906,-0.882337,0.999998,0.000182,-0.001258,0.002528,0.000027,0.002529,-0.001258,89.598217,0.002529,
1780,790,-0.811068,-3.098461,0.999999,0.000148,-0.001271,0.002514,-0.000214,0.002526,-0.001283,-86.768950,0.002526,
920,1550,0.273288,-1.005899,0.999998,0.000164,-0.001189,0.002418,0.000208,0.002430,-0.001201,86.703020,0.002430,
1720,1390,-0.619085,-1.576402,0.999998,0.000214,-0.001403,0.002673,0.000082,0.002675,-0.001404,88.849689,0.002676,
1460,1950,-0.035578,-0.138777,0.999999,0.000181,-0.000168,0.001705,0.000193,0.001725,-0.000188,84.186321,0.001893,
1310,710,-0.046770,-3.874565,0.999998,0.000154,-0.000796,0.001442,0.000732,0.001660,-0.001013,73.412392,0.001674,
1050,890,0.365492,-3.166790,0.999998,0.000185,-0.001733,0.003334,-0.000761,0.003446,-0.001845,-81.643222,0.003449,
1280,1510,-0.030546,-0.890140,0.999999,0.000138,-0.000648,0.001685,-0.000177,0.001699,-0.000661,-85.683508,0.001713,
1620,460,-0.343571,-4.080540,0.999998,0.000179,-0.001185,0.002474,0.000110,0.002477,-0.001188,88.279441,0.002478,
1650,1260,-0.638752,-1.892099,0.999998,0.000213,-0.001516,0.002848,0.000230,0.002860,-0.001528,86.989662,0.002862,
1410,690,-0.157546,-3.743995,0.999998,0.000151,-0.001398,0.002365,0.000736,0.002504,-0.001537,79.319888,0.002525,
1520,940,-0.626091,-2.789293,0.999997,0.000193,-0.001271,0.003149,-0.000308,0.003170,-0.001292,-86.035212,0.003188,
960,1520,0.236453,-1.044788,0.999998,0.000148,-0.001214,0.002385,0.000317,0.002413,-0.001242,85.005230,0.002413,
1100,380,0.076931,-4.417492,0.999998,0.000169,-0.000620,0.001904,-0.000086,0.001907,-0.000623,-88.044020,0.001945,
1740,1590,-0.496834,-1.067370,0.999998,0.000162,-0.001259,0.002549,-0.000062,0.002550,-0.001260,-89.060086,0.002550,
760,100,0.106443,-4.884786,0.999998,0.000149,-0.000391,0.002091,0.000583,0.002221,-0.000521,77.411195,0.002323,
1480,1930,-0.049201,-0.174431,0.999999,0.000141,-0.000261,0.001777,0.000176,0.001792,-0.000276,85.108902,0.001929,
1830,1010,-0.998166,-2.560402,0.999997,0.000206,-0.001088,0.002268,-0.000063,0.002270,-0.001089,-88.916778,0.002270,
1660,1280,-0.633033,-1.840785,0.999997,0.000186,-0.001496,0.002840,0.000218,0.002851,-0.001507,87.130010,0.002852,
1270,560,-0.023647,-4.128397,0.999999,0.000143,-0.000632,0.001620,0.000140,0.001628,-0.000640,86.465010,0.001641,
790,1220,0.712510,-2.014778,0.999998,0.000157,-0.001373,0.002745,-0.000306,0.002767,-0.001396,-85.768337,0.002768,
1280,230,-0.016478,-4.703492,0.999999,0.000124,-0.000327,0.001720,-0.000001,0.001720,-0.000327,-89.984783,0.001827,
1480,210,-0.089664,-4.708837,0.999999,0.000139,-0.000448,0.001929,-0.000131,0.001936,-0.000455,-86.848961,0.002025,
1620,250,-0.209195,-4.577407,0.999998,0.000173,-0.000809,0.002260,-0.000201,0.002273,-0.000822,-86.270105,0.002302,
1660,510,-0.423794,-3.921948,0.999998,0.000175,-0.001296,0.002568,0.000098,0.002570,-0.001299,88.547139,0.002570,
1790,570,-0.638006,-3.663873,0.999998,0.000170,-0.001292,0.002600,0.000018,0.002600,-0.001292,89.741842,0.002600,
910,1380,0.373079,-1.460157,0.999998,0.000206,-0.001613,0.002840,0.000220,0.002851,-0.001623,87.180810,0.002860,
1060,310,0.085133,-4.539041,0.999998,0.000168,-0.000628,0.001932,-0.000038,0.001933,-0.000629,-89.158727,0.001972,
1100,370,0.075409,-4.437105,0.999998,0.000185,-0.000617,0.001920,-0.000067,0.001921,-0.000619,-88.484621,0.001961,
1450,1760,-0.111826,-0.489478,0.999998,0.000154,-0.000605,0.001972,0.000016,0.001972,-0.000605,89.644702,0.002020,
1250,1390,-0.009309,-1.059709,0.999998,0.000142,-0.000527,0.001251,-0.000150,0.001264,-0.000540,-85.219625,0.001268,
1750,150,-0.208121,-4.757107,0.999998,0.000178,-0.000938,0.002402,-0.000450,0.002461,-0.000997,-82.451286,0.002476,
1360,840,-0.179551,-3.519194,0.999998,0.000183,-0.001511,0.002214,0.001160,0.002546,-0.001843,74.039588,0.002630,
630,1940,0.227471,-0.248349,0.999998,0.000145,-0.001148,0.002646,-0.000431,0.002695,-0.001197,-83.601296,0.002700,
1360,490,-0.086671,-4.211369,0.999998,0.000131,-0.000774,0.001917,0.000250,0.001940,-0.000797,84.730266,0.001950,
890,620,0.368980,-3.711049,0.999998,0.000164,-0.001474,0.002695,-0.000230,0.002708,-0.001486,-86.845577,0.002712,
1150,1370,0.049239,-1.131493,0.999999,0.000130,-0.000781,0.001531,0.000634,0.001693,-0.000943,75.624672,0.001697,
620,1980,0.150652,-0.155546,0.999998,0.000160,-0.001125,0.002735,-0.000653,0.002843,-0.001232,-80.654919,0.002851,
720,1930,0.165025,-0.222245,0.999999,0.000143,-0.000812,0.002309,-0.000551,0.002404,-0.000906,-80.270603,0.002428,
1120,1650,0.067271,-0.662536,0.999998,0.000193,-0.000647,0.001865,0.000130,0.001871,-0.000653,87.034870,0.001900,
800,260,0.253417,-4.535616,0.999998,0.000184,-0.001007,0.002340,0.000159,0.002348,-0.001015,87.291512,0.002355,
1780,770,-0.793623,-3.149782,0.999999,0.000152,-0.001297,0.002554,-0.000193,0.002563,-0.001307,-87.131269,0.002564,
880,480,0.310423,-4.060268,0.999998,0.000173,-0.001232,0.002445,-0.000180,0.002453,-0.001241,-87.203564,0.002453,
1770,380,-0.472885,-4.163655,0.999998,0.000183,-0.001205,0.002515,0.000025,0.002515,-0.001205,89.613745,0.002516,
850,1740,0.249761,-0.606210,0.999998,0.000180,-0.000925,0.002313,-0.000041,0.002314,-0.000925,-89.269102,0.002329,
920,1530,0.281070,-1.054931,0.999998,0.000177,-0.001232,0.002446,0.000268,0.002465,-0.001252,85.852089,0.002465,
920,730,0.397119,-3.432212,0.999997,0.000203,-0.001730,0.002966,-0.000146,0.002971,-0.001735,-88.219379,0.002985,
590,680,0.832505,-3.317457,0.999998,0.000181,-0.001275,0.002523,0.000037,0.002524,-0.001275,89.447743,0.002524,
570,360,0.634447,-4.101354,0.999746,0.001926,-0.003562,0.002007,0.000149,0.002011,-0.003566,88.464429,0.003575,
1050,910,0.406065,-3.093817,0.999997,0.000191,-0.001623,0.003424,-0.000894,0.003578,-0.001777,-80.252116,0.003578,
1450,1370,-0.212885,-1.347621,0.999998,0.000173,-0.001535,0.002605,-0.000611,0.002693,-0.001624,-81.772023,0.002712,
1000,1950,0.034889,-0.139536,0.999999,0.000133,-0.000160,0.001724,-0.000188,0.001743,-0.000178,-84.370258,0.001917,
1310,690,-0.046019,-3.905419,0.999999,0.000144,-0.000775,0.001472,0.000637,0.001639,-0.000943,75.226495,0.001646,
1730,1010,-0.890529,-2.562428,0.999998,0.000159,-0.001063,0.002467,-0.000072,0.002468,-0.001065,-88.825744,0.002476,
1670,200,-0.204033,-4.671588,0.999998,0.000171,-0.000860,0.002306,-0.000291,0.002333,-0.000887,-84.797143,0.002355,
1260,1570,-0.017915,-0.783421,0.999999,0.000128,-0.000613,0.001760,-0.000089,0.001763,-0.000616,-87.843356,0.001789,
1830,990,-0.994320,-2.604618,0.999998,0.000191,-0.001076,0.002268,-0.000061,0.002269,-0.001077,-88.950113,0.002270,
960,1500,0.242986,-1.091362,0.999998,0.000163,-0.001240,0.002438,0.000329,0.002467,-0.001270,84.922641,0.002468,
1440,170,-0.057657,-4.789269,0.999998,0.000217,-0.000293,0.001787,-0.000160,0.001799,-0.000305,-85.617435,0.001925,
760,80,0.081146,-4.923218,0.999999,0.000140,-0.000299,0.001936,0.000576,0.002076,-0.000439,76.367871,0.002188,
1790,770,-0.806473,-3.144435,0.999998,0.000159,-0.001298,0.002538,-0.000183,0.002546,-0.001307,-87.269087,0.002547,
1230,640,0.000438,-4.016707,0.999999,0.000129,-0.000569,0.001342,-0.000015,0.001342,-0.000570,-89.558756,0.001347,
1520,920,-0.598671,-2.852198,0.999998,0.000184,-0.001374,0.003194,-0.000325,0.003217,-0.001397,-85.946604,0.003227,
1540,120,-0.063846,-4.865960,0.999999,0.000140,-0.000293,0.001847,-0.000275,0.001881,-0.000328,-82.778680,0.002010,
1140,1930,0.013949,-0.164754,0.999998,0.000134,-0.000178,0.001632,-0.000043,0.001633,-0.000179,-88.646144,0.001791,
840,310,0.256897,-4.438816,0.999998,0.000187,-0.000921,0.002300,0.000072,0.002302,-0.000923,88.711988,0.002317,
920,1310,0.409647,-1.653994,0.999998,0.000224,-0.001766,0.003048,0.000112,0.003051,-0.001769,88.665672,0.003064,
1660,1480,-0.464476,-1.287325,0.999997,0.000193,-0.001374,0.002628,-0.000081,0.002630,-0.001375,-88.836741,0.002630,
1630,1260,-0.606655,-1.880076,0.999997,0.000212,-0.001549,0.002908,0.000220,0.002919,-0.001560,87.175515,0.002921,
1000,1020,0.635167,-2.547193,0.999997,0.000220,-0.001232,0.003859,0.000002,0.003859,-0.001232,89.980035,0.003943,
730,1280,0.736797,-1.879344,0.999999,0.000179,-0.001366,0.002631,-0.000246,0.002646,-0.001381,-86.494706,0.002647,
920,1000,0.704184,-2.598498,0.999998,0.000189,-0.000917,0.002897,0.000158,0.002904,-0.000924,87.627373,0.002967,
1750,580,-0.591727,-3.667202,0.999997,0.000182,-0.001376,0.002594,0.000000,0.002594,-0.001376,89.993294,0.002596,
920,850,0.533072,-3.056323,0.999997,0.000191,-0.001679,0.003184,0.000233,0.003195,-0.001690,87.266439,0.003197,
1030,1760,0.101056,-0.483123,0.999998,0.000165,-0.000625,0.001967,0.000021,0.001967,-0.000625,89.542294,0.002010,
1760,1390,-0.672973,-1.604373,0.999997,0.000201,-0.001346,0.002639,0.000083,0.002641,-0.001347,88.806759,0.002641,
820,250,0.225957,-4.567969,0.999998,0.000188,-0.000809,0.002305,0.000189,0.002316,-0.000821,86.548677,0.002349,
1150,1350,0.049154,-1.162188,0.999999,0.000137,-0.000801,0.001465,0.000730,0.001680,-0.001016,73.609810,0.001692,
610,1380,0.802166,-1.695350,0.999998,0.000147,-0.001265,0.002533,-0.000052,0.002534,-0.001266,-89.217929,0.002534,
710,1030,0.920596,-2.512224,0.999998,0.000161,-0.001051,0.002415,-0.000017,0.002415,-0.001051,-89.716320,0.002422,
650,1220,0.892160,-2.067845,0.999998,0.000163,-0.001203,0.002401,-0.000191,0.002411,-0.001214,-86.971212,0.002411,
880,900,0.658881,-2.875569,0.999998,0.000168,-0.001331,0.002942,0.000363,0.002972,-0.001361,85.182288,0.002976,
1850,1080,-1.013295,-2.403403,0.999999,0.000132,-0.001045,0.002180,0.000031,0.002180,-0.001045,89.448032,0.002181,
560,810,0.976744,-2.983094,0.999998,0.000000,-0.001170,0.002285,-0.000021,0.002285,-0.001170,-89.650745,0.002285,
1200,1860,0.009186,-0.275800,0.999998,0.000156,-0.000255,0.001656,-0.000011,0.001656,-0.000256,-89.668792,0.001783,
1080,370,0.087695,-4.430429,0.999998,0.000173,-0.000622,0.001934,-0.000084,0.001937,-0.000625,-88.117176,0.001977,
670,770,0.811099,-3.143215,0.999998,0.000145,-0.001281,0.002520,0.000188,0.002529,-0.001290,87.167715,0.002529,
1830,970,-0.991141,-2.651092,0.999998,0.000176,-0.001062,0.002236,-0.000053,0.002237,-0.001062,-89.087360,0.002237,
1570,870,-0.602750,-2.972538,0.999998,0.000173,-0.001511,0.003018,-0.000326,0.003042,-0.001534,-85.899789,0.003042,
1780,910,-0.907986,-2.800511,0.999999,0.000129,-0.001131,0.002426,-0.000188,0.002436,-0.001141,-86.989505,0.002437,
800,240,0.236075,-4.581585,0.999998,0.000169,-0.000948,0.002347,0.000195,0.002358,-0.000960,86.625602,0.002372,
1160,430,0.042823,-4.346743,0.999998,0.000175,-0.000637,0.001821,-0.000117,0.001826,-0.000643,-87.292046,0.001853,
1730,990,-0.887972,-2.611376,0.999998,0.000152,-0.001070,0.002457,-0.000088,0.002459,-0.001072,-88.569977,0.002466,
960,1480,0.248894,-1.138993,0.999998,0.000151,-0.001281,0.002472,0.000354,0.002505,-0.001314,84.650700,0.002506,
1310,670,-0.048752,-3.932441,0.999999,0.000147,-0.000771,0.001524,0.000551,0.001649,-0.000896,77.162850,0.001651,
1460,1570,-0.174991,-0.891704,0.999998,0.000148,-0.001025,0.002193,-0.000282,0.002218,-0.001050,-85.027935,0.002219,
1790,1010,-0.957051,-2.562050,0.999998,0.000147,-0.001077,0.002332,-0.000067,0.002334,-0.001078,-88.874768,0.002336,
620,1960,0.198701,-0.207650,0.999998,0.000152,-0.001174,0.002643,-0.000534,0.002716,-0.001247,-82.188090,0.002719,
600,1530,0.697070,-1.319415,0.999998,0.000169,-0.001268,0.002547,0.000023,0.002548,-0.001268,89.651258,0.002548,
750,540,0.513575,-3.800781,0.999997,0.000181,-0.001324,0.002605,-0.000051,0.002606,-0.001325,-89.258076,0.002606,
840,840,0.646864,-3.031218,0.999997,0.000176,-0.001478,0.002879,0.000306,0.002900,-0.001499,86.001296,0.002901,
1380,1510,-0.107451,-0.951579,0.999999,0.000140,-0.000936,0.001950,-0.000409,0.002007,-0.000993,-82.080396,0.002007,
1470,1040,-0.641347,-2.475174,0.999997,0.000225,-0.001197,0.003737,0.000009,0.003737,-0.001197,89.900547,0.003816,
580,680,0.844759,-3.309481,0.999998,0.000157,-0.001431,0.002546,0.000013,0.002546,-0.001431,89.815979,0.002553,
1410,670,-0.150965,-3.790966,0.999998,0.000160,-0.001339,0.002276,0.000689,0.002403,-0.001466,79.567982,0.002423,
1620,440,-0.332408,-4.128737,0.999998,0.000165,-0.001177,0.002479,0.000111,0.002482,-0.001180,88.263228,0.002483,
740,2010,0.037653,-0.050057,0.999999,0.000135,-0.000081,0.001928,-0.000683,0.002138,-0.000291,-72.893801,0.002319,
1260,860,-0.080829,-3.811369,0.999990,0.000000,-0.002050,0.000611,-0.000112,0.000616,-0.002055,-87.601770,0.002109,
1750,590,-0.600439,-3.642478,0.999998,0.000181,-0.001369,0.002600,-0.000011,0.002600,-0.001369,-89.834896,0.002601,
1250,1810,-0.006800,-0.360655,0.999998,0.000162,-0.000365,0.001695,-0.000004,0.001695,-0.000365,-89.888193,0.001784,
1090,840,0.199326,-3.466476,0.999998,0.000173,-0.001680,0.002480,-0.001107,0.002756,-0.001956,-75.988308,0.002836,
1520,900,-0.568057,-2.916512,0.999998,0.000175,-0.001514,0.003212,-0.000317,0.003234,-0.001535,-86.177674,0.003235,
1600,1930,-0.090208,-0.191944,0.999998,0.000157,-0.000438,0.001944,0.000349,0.001994,-0.000488,81.822374,0.002078,
1660,1720,-0.309505,-0.682563,0.999998,0.000171,-0.001126,0.002428,0.000015,0.002428,-0.001126,89.765823,0.002430,
820,1710,0.298314,-0.697010,0.999998,0.000154,-0.001061,0.002398,-0.000022,0.002398,-0.001061,-89.637879,0.002403,
1540,100,-0.050346,-4.903034,0.999999,0.000143,-0.000217,0.001806,-0.000285,0.001846,-0.000256,-82.125737,0.002000,
920,980,0.694461,-2.657390,0.999998,0.000184,-0.000991,0.002959,0.000240,0.002974,-0.001005,86.542062,0.003025,
760,60,0.052493,-4.962207,0.999999,0.000145,-0.000188,0.001906,0.000579,0.002056,-0.000337,75.530356,0.002205,
1210,640,0.012682,-4.012442,0.999999,0.000119,-0.000577,0.001340,-0.000159,0.001353,-0.000590,-85.278273,0.001357,
1460,770,-0.281821,-3.433321,0.999997,0.000237,-0.001887,0.003034,0.000500,0.003085,-0.001938,84.255210,0.003118,
1520,1070,-0.673328,-2.389800,0.999998,0.000173,-0.000976,0.003094,0.000222,0.003106,-0.000988,86.890417,0.003174,
1040,1690,0.113340,-0.618370,0.999998,0.000153,-0.000749,0.002044,0.000110,0.002048,-0.000754,87.751801,0.002072,
1460,930,-0.525614,-2.893455,0.999997,0.000200,-0.001547,0.003651,-0.000009,0.003651,-0.001547,-89.905860,0.003665,
1360,820,-0.146358,-3.562355,0.999998,0.000181,-0.001562,0.002185,0.001128,0.002498,-0.001875,74.477786,0.002601,
1000,1000,0.625854,-2.625930,0.999997,0.000201,-0.001236,0.003945,0.000003,0.003945,-0.001236,89.970139,0.004036,
1060,1950,0.023889,-0.134487,0.999999,0.000135,-0.000160,0.001637,-0.000113,0.001644,-0.000167,-86.418025,0.001810,
1150,1760,0.035810,-0.452092,0.999998,0.000163,-0.000461,0.001785,0.000004,0.001785,-0.000461,89.909573,0.001853,
700,670,0.680725,-3.420190,0.999997,0.000218,-0.001364,0.002620,0.000082,0.002621,-0.001365,88.814168,0.002622,
1540,1090,-0.677029,-2.337432,0.999998,0.000176,-0.001100,0.002947,0.000261,0.002964,-0.001117,86.321367,0.002994,
1830,1170,-0.949983,-2.194343,0.999998,0.000159,-0.001151,0.002324,0.000138,0.002329,-0.001156,87.731833,0.002329,
830,1280,0.591854,-1.823774,0.999998,0.000190,-0.001542,0.002895,-0.000169,0.002901,-0.001548,-87.819936,0.002903,
1740,1390,-0.645827,-1.589525,0.999997,0.000187,-0.001367,0.002651,0.000089,0.002653,-0.001369,88.725521,0.002653,
880,920,0.680654,-2.818648,0.999998,0.000167,-0.001258,0.002868,0.000364,0.002900,-0.001290,85.000704,0.002906,
1590,1070,-0.743661,-2.405919,0.999998,0.000186,-0.000982,0.002723,0.000177,0.002731,-0.000991,87.269474,0.002765,
1780,890,-0.894900,-2.850004,0.999998,0.000160,-0.001170,0.002451,-0.000223,0.002465,-0.001184,-86.494979,0.002465,
1200,1840,0.012117,-0.309456,0.999998,0.000170,-0.000291,0.001701,0.000013,0.001701,-0.000291,89.612902,0.001820,
800,220,0.215471,-4.629141,0.999998,0.000174,-0.000904,0.002312,0.000224,0.002327,-0.000920,86.027204,0.002344,
960,1460,0.256936,-1.189151,0.999998,0.000161,-0.001340,0.002493,0.000374,0.002529,-0.001376,84.483152,0.002532,
1210,850,0.053782,-3.834520,0.999982,0.000500,-0.001969,0.000340,0.000065,0.000341,-0.001971,88.386519,0.002107,
900,1310,0.445243,-1.676842,0.999998,0.000204,-0.001758,0.003025,0.000061,0.003026,-0.001758,89.267446,0.003039,
710,1010,0.916207,-2.563455,0.999999,0.000132,-0.001055,0.002447,0.000078,0.002449,-0.001057,88.731594,0.002456,
1000,450,0.168210,-4.222941,0.999998,0.000173,-0.000964,0.002177,-0.000223,0.002192,-0.000980,-85.966814,0.002197,
1880,1640,-0.635690,-1.055808,0.999998,0.000178,-0.001193,0.002510,-0.000032,0.002510,-0.001194,-89.502868,0.002511,
1310,650,-0.047860,-3.963051,0.999999,0.000150,-0.000744,0.001569,0.000472,0.001662,-0.000837,78.894069,0.001662,
640,1810,0.413346,-0.577251,0.999997,0.000216,-0.001196,0.002572,-0.000110,0.002576,-0.001199,-88.334808,0.002578,
1260,230,-0.010251,-4.706065,0.999999,0.000133,-0.000343,0.001715,-0.000003,0.001715,-0.000343,-89.908902,0.001815,
1150,230,0.027777,-4.702365,0.999999,0.000131,-0.000362,0.001747,0.000011,0.001747,-0.000362,89.713405,0.001844,
1450,1350,-0.221931,-1.403402,0.999998,0.000187,-0.001601,0.002684,-0.000626,0.002774,-0.001691,-81.856756,0.002796,
650,1760,0.453565,-0.696050,0.999998,0.000183,-0.001242,0.002536,-0.000047,0.002536,-0.001242,-89.284171,0.002537,
670,750,0.793344,-3.192364,0.999998,0.000153,-0.001293,0.002551,0.000171,0.002559,-0.001300,87.456765,0.002559,
590,950,1.032070,-2.685064,0.999998,0.000158,-0.001038,0.002138,0.000046,0.002139,-0.001039,89.171721,0.002139,
590,1380,0.828353,-1.710073,0.999998,0.000179,-0.001333,0.002522,-0.000012,0.002522,-0.001333,-89.822021,0.002524,
730,2010,0.038495,-0.050234,0.999999,0.000145,-0.000173,0.001975,-0.000712,0.002189,-0.000387,-73.230186,0.002337,
590,1530,0.709929,-1.327935,0.999998,0.000165,-0.001386,0.002624,0.000043,0.002624,-0.001387,89.390421,0.002626,
570,680,0.859688,-3.301715,0.999963,0.000688,-0.001538,0.002569,-0.000011,0.002569,-0.001538,-89.841899,0.002586,
1730,200,-0.253959,-4.645690,0.999998,0.000162,-0.000912,0.002447,-0.000348,0.002482,-0.000948,-84.138622,0.002505,
690,1220,0.843630,-2.052457,0.999999,0.000139,-0.001223,0.002480,-0.000232,0.002494,-0.001238,-86.430164,0.002494,
840,820,0.624181,-3.090560,0.999997,0.000186,-0.001528,0.002916,0.000279,0.002934,-0.001546,86.418517,0.002935,
1730,1190,-0.814086,-2.112424,0.999998,0.000167,-0.001250,0.002574,0.000260,0.002592,-0.001268,86.133245,0.002592,
1520,1100,-0.645749,-2.298367,0.999998,0.000166,-0.001158,0.003133,0.000301,0.003154,-0.001179,86.012040,0.003187,
1050,1550,0.133054,-0.897412,0.999998,0.000146,-0.000907,0.002029,0.000287,0.002057,-0.000935,84.465566,0.002060,
1780,1960,-0.146425,-0.168430,0.999998,0.000159,-0.000689,0.002292,0.000739,0.002465,-0.000862,76.818563,0.002502,
1540,80,-0.037663,-4.938545,0.999999,0.000118,-0.000156,0.001725,-0.000324,0.001779,-0.000210,-80.502685,0.001945,
1840,490,-0.641727,-3.827944,0.999998,0.000178,-0.001303,0.002515,0.000025,0.002515,-0.001303,89.628388,0.002516,
560,430,0.748119,-3.914222,0.999823,0.000000,-0.003378,0.002593,-0.000358,0.002615,-0.003399,-86.581969,0.003560,
620,1940,0.240216,-0.259631,0.999998,0.000159,-0.001222,0.002652,-0.000394,0.002692,-0.001262,-84.256471,0.002694,
920,960,0.676915,-2.715922,0.999998,0.000170,-0.001081,0.002978,0.000316,0.003002,-0.001105,85.573965,0.003037,
1660,740,-0.598597,-3.298477,0.999998,0.000196,-0.001504,0.002819,-0.000163,0.002825,-0.001510,-87.849256,0.002827,
1410,650,-0.148354,-3.836870,0.999998,0.000144,-0.001266,0.002238,0.000620,0.002345,-0.001373,80.250462,0.002356,
1190,1340,0.020858,-1.129499,0.999998,0.000149,-0.000598,0.001088,0.000438,0.001195,-0.000705,76.269961,0.001201,
1750,220,-0.299325,-4.583499,0.999997,0.000197,-0.001118,0.002488,-0.000238,0.002504,-0.001134,-86.241182,0.002507,
1000,980,0.607776,-2.700813,0.999997,0.000194,-0.001290,0.003689,-0.000025,0.003689,-0.001290,-89.711059,0.003744,
1300,1870,-0.018342,-0.260530,0.999999,0.000142,-0.000241,0.001668,0.000047,0.001669,-0.000242,88.591446,0.001804,
1460,910,-0.487792,-2.965257,0.999997,0.000189,-0.001684,0.003550,0.000012,0.003550,-0.001684,89.869022,0.003552,
900,1070,0.716098,-2.401020,0.999998,0.000191,-0.000985,0.002843,-0.000205,0.002854,-0.000996,-86.943289,0.002897,
1170,640,0.037621,-3.992175,0.999999,0.000121,-0.000696,0.001487,-0.000401,0.001558,-0.000767,-79.916936,0.001558,
1620,420,-0.320419,-4.180018,0.999998,0.000161,-0.001143,0.002446,0.000102,0.002449,-0.001146,88.366514,0.002451,
1840,650,-0.765848,-3.418015,0.999998,0.000169,-0.001259,0.002562,-0.000053,0.002563,-0.001259,-89.212656,0.002563,
820,1190,0.702247,-2.086408,0.999997,0.000194,-0.001370,0.002788,-0.000330,0.002814,-0.001396,-85.485482,0.002814,
1200,1820,0.011341,-0.342594,0.999999,0.000133,-0.000324,0.001723,0.000011,0.001723,-0.000324,89.685556,0.001831,
960,1440,0.264085,-1.240821,0.999998,0.000171,-0.001417,0.002544,0.000383,0.002580,-0.001453,84.525052,0.002587,
1880,730,-0.883885,-3.187767,0.999998,0.000166,-0.001210,0.002442,-0.000055,0.002443,-0.001211,-89.133937,0.002443,
1140,430,0.055692,-4.339582,0.999998,0.000174,-0.000666,0.001855,-0.000173,0.001866,-0.000677,-86.100510,0.001890,
1580,1930,-0.080302,-0.188361,0.999998,0.000156,-0.000432,0.001922,0.000311,0.001963,-0.000472,82.603304,0.002049,
1360,800,-0.127666,-3.607030,0.999998,0.000170,-0.001508,0.002164,0.001141,0.002489,-0.001833,74.071205,0.002580,
800,200,0.198011,-4.673487,0.999998,0.000182,-0.000870,0.002278,0.000277,0.002303,-0.000894,85.011814,0.002322,
1420,670,-0.165838,-3.774906,0.999998,0.000183,-0.001380,0.002348,0.000671,0.002465,-0.001497,80.095662,0.002484,
930,1060,0.693641,-2.425123,0.999998,0.000186,-0.000931,0.002982,-0.000161,0.002989,-0.000937,-87.647128,0.003057,
1490,600,-0.241040,-3.852801,0.999998,0.000155,-0.001358,0.002497,0.000409,0.002540,-0.001401,84.010578,0.002545,
580,1530,0.720938,-1.335791,0.999998,0.000163,-0.001692,0.002864,0.000097,0.002866,-0.001694,88.783620,0.002882,
800,250,0.244871,-4.557692,0.999998,0.000159,-0.000973,0.002331,0.000175,0.002340,-0.000982,86.983193,0.002350,
630,2010,0.070170,-0.067866,0.999999,0.000151,-0.000918,0.002287,-0.000732,0.002446,-0.001077,-77.731509,0.002452,
670,730,0.775143,-3.245562,0.999998,0.000155,-0.001300,0.002568,0.000157,0.002574,-0.001307,87.674696,0.002574,
1150,1330,0.049442,-1.192591,0.999998,0.000153,-0.000828,0.001401,0.000804,0.001661,-0.001088,72.102873,0.001687,
570,2000,0.149178,-0.139081,0.999983,0.000475,-0.000276,0.003305,-0.001467,0.003829,-0.000800,-70.336737,0.004040,
1000,250,0.100998,-4.635464,0.999998,0.000147,-0.000506,0.001955,0.000106,0.001960,-0.000510,87.540163,0.002034,
1830,1410,-0.747907,-1.601068,0.999997,0.000193,-0.001278,0.002551,0.000050,0.002552,-0.001278,89.257212,0.002552,
1860,1890,-0.349290,-0.412834,0.999998,0.000183,-0.001213,0.002590,0.000192,0.002600,-0.001223,87.122225,0.002602,
1810,1920,-0.241273,-0.280476,0.999998,0.000172,-0.000962,0.002581,0.000546,0.002663,-0.001044,81.428916,0.002684,
1870,1640,-0.624493,-1.047853,0.999998,0.000174,-0.001224,0.002507,-0.000039,0.002507,-0.001224,-89.407225,0.002507,
1470,1700,-0.146710,-0.618384,0.999999,0.000133,-0.000755,0.002072,-0.000070,0.002073,-0.000757,-88.578414,0.002098,
1250,1830,-0.005359,-0.325474,0.999999,0.000158,-0.000344,0.001719,-0.000017,0.001719,-0.000344,-89.537481,0.001819,
1750,570,-0.584145,-3.692632,0.999997,0.000187,-0.001372,0.002602,0.000010,0.002602,-0.001372,89.852733,0.002604,
670,1220,0.867562,-2.059528,0.999999,0.000136,-0.001219,0.002451,-0.000212,0.002464,-0.001232,-86.708129,0.002464,
1510,270,-0.139051,-4.579972,0.999998,0.000149,-0.000738,0.002051,-0.000046,0.002052,-0.000739,-89.048104,0.002079,
1540,280,-0.165665,-4.548643,0.999998,0.000158,-0.000694,0.002128,-0.000091,0.002131,-0.000697,-88.159350,0.002173,
1410,630,-0.145827,-3.879333,0.999998,0.000151,-0.001195,0.002182,0.000573,0.002276,-0.001289,80.633527,0.002283,
840,60,0.035887,-4.967980,0.999999,0.000138,-0.000134,0.001828,0.000426,0.001917,-0.000222,78.275095,0.002097,
1780,1920,-0.214198,-0.264706,0.999998,0.000162,-0.000910,0.002444,0.000556,0.002534,-0.001000,80.832201,0.002553,
1450,1330,-0.231232,-1.456890,0.999998,0.000184,-0.001685,0.002755,-0.000626,0.002841,-0.001771,-82.130345,0.002870,
750,1990,0.061950,-0.086066,0.999999,0.000131,-0.000207,0.001949,-0.000629,0.002119,-0.000377,-74.869679,0.002260,
580,1380,0.840672,-1.717879,0.999998,0.000164,-0.001512,0.002544,0.000046,0.002544,-0.001513,89.352183,0.002559,
1200,1950,0.005076,-0.129689,0.999999,0.000146,-0.000140,0.001582,-0.000011,0.001582,-0.000140,-89.645702,0.001752,
1590,1030,-0.755368,-2.512745,0.999998,0.000198,-0.000941,0.002734,0.000025,0.002734,-0.000941,89.607961,0.002778,
1510,1760,-0.151117,-0.511231,0.999998,0.000160,-0.000779,0.002126,0.000027,0.002126,-0.000779,89.472988,0.002151,
1340,1510,-0.073143,-0.919261,0.999999,0.000126,-0.000767,0.001807,-0.000301,0.001841,-0.000802,-83.411102,0.001847,
1310,630,-0.050338,-3.993897,0.999999,0.000138,-0.000728,0.001586,0.000439,0.001667,-0.000808,79.613547,0.001667,
630,430,0.588552,-3.985308,0.999998,0.000165,-0.001248,0.002514,-0.000030,0.002514,-0.001248,-89.537102,0.002514,
1050,1530,0.135601,-0.936830,0.999999,0.000144,-0.000944,0.002089,0.000351,0.002129,-0.000984,83.483524,0.002131,
1090,820,0.169583,-3.516770,0.999998,0.000189,-0.001663,0.002439,-0.001111,0.002720,-0.001944,-75.776961,0.002803,
1550,1220,-0.524089,-1.942932,0.999997,0.000185,-0.001693,0.003132,0.000191,0.003140,-0.001701,87.732834,0.003143,
920,940,0.652799,-2.776782,0.999998,0.000178,-0.001187,0.002994,0.000352,0.003024,-0.001217,85.220695,0.003043,
1660,700,-0.559325,-3.410982,0.999997,0.000214,-0.001483,0.002787,-0.000071,0.002788,-0.001484,-89.051689,0.002790,
1740,500,-0.520469,-3.882201,0.999998,0.000183,-0.001294,0.002551,0.000056,0.002552,-0.001295,89.167448,0.002552,
1750,200,-0.275932,-4.632842,0.999997,0.000183,-0.001099,0.002499,-0.000277,0.002520,-0.001121,-85.626914,0.002525,
1260,30,-0.001570,-5.023852,0.999999,0.000000,-0.000042,0.001460,-0.000009,0.001460,-0.000043,-89.673373,0.001662,
1540,1810,-0.144748,-0.417624,0.999998,0.000150,-0.000637,0.002060,0.000142,0.002068,-0.000644,87.004191,0.002116,
1200,1800,0.012903,-0.377880,0.999998,0.000165,-0.000376,0.001694,0.000006,0.001695,-0.000376,89.841159,0.001780,
1000,960,0.582244,-2.774913,0.999997,0.000194,-0.001383,0.003715,0.000023,0.003715,-0.001383,89.744858,0.003755,
710,990,0.911619,-2.612768,0.999998,0.000139,-0.001067,0.002409,0.000067,0.002410,-0.001068,88.898705,0.002415,
1150,640,0.051291,-3.976226,0.999999,0.000141,-0.000738,0.001594,-0.000454,0.001680,-0.000823,-79.358337,0.001680,
1840,630,-0.748931,-3.469577,0.999997,0.000214,-0.001252,0.002571,-0.000028,0.002571,-0.001252,-89.573179,0.002572,
960,1420,0.272781,-1.293797,0.999998,0.000182,-0.001477,0.002598,0.000386,0.002634,-0.001513,84.631473,0.002644,
1870,730,-0.871182,-3.195503,0.999999,0.000138,-0.001240,0.002463,-0.000067,0.002464,-0.001241,-88.959180,0.002464,
800,180,0.177101,-4.721503,0.999998,0.000153,-0.000796,0.002218,0.000334,0.002254,-0.000833,83.743352,0.002280,
1820,1390,-0.752375,-1.645608,0.999997,0.000190,-0.001286,0.002583,0.000069,0.002585,-0.001287,88.978434,0.002585,
1280,430,-0.028419,-4.348393,0.999998,0.000140,-0.000571,0.001766,0.000058,0.001768,-0.000573,88.568314,0.001804,
1460,710,-0.239892,-3.606924,0.999998,0.000197,-0.001643,0.002743,0.000565,0.002814,-0.001715,82.776409,0.002837,
1650,860,-0.706707,-2.965450,0.999999,0.000149,-0.001378,0.002802,-0.000318,0.002826,-0.001402,-85.670773,0.002826,
1140,370,0.050389,-4.449611,0.999998,0.000173,-0.000608,0.001847,-0.000102,0.001851,-0.000612,-87.614618,0.001886,
1150,1290,0.053417,-1.246502,0.999998,0.000179,-0.000946,0.001383,0.000940,0.001715,-0.001278,70.545475,0.001782,
1590,1540,-0.336049,-1.070890,0.999998,0.000197,-0.001256,0.002515,-0.000153,0.002521,-0.001262,-87.678625,0.002521,
1860,1870,-0.381621,-0.464306,0.999997,0.000189,-0.001227,0.002538,0.000151,0.002544,-0.001233,87.706319,0.002545,
880,940,0.701869,-2.761524,0.999998,0.000172,-0.001165,0.002843,0.000343,0.002872,-0.001195,85.144494,0.002886,
1540,520,-0.274762,-3.999646,0.999998,0.000161,-0.001255,0.002442,0.000238,0.002457,-0.001271,86.329250,0.002458,
840,800,0.602135,-3.149750,0.999997,0.000191,-0.001556,0.002902,0.000233,0.002914,-0.001569,87.013453,0.002917,
1830,430,-0.583826,-3.986305,0.999998,0.000171,-0.001222,0.002532,0.000029,0.002532,-0.001222,89.559690,0.002532,
710,1900,0.218132,-0.298648,0.999998,0.000194,-0.001009,0.002452,-0.000426,0.002504,-0.001061,-83.082373,0.002514,
1490,620,-0.248123,-3.801890,0.999997,0.000183,-0.001430,0.002513,0.000432,0.002560,-0.001476,83.825287,0.002570,
940,1930,0.062700,-0.180680,0.999998,0.000151,-0.000303,0.001833,-0.000242,0.001860,-0.000330,-83.610620,0.001985,
840,670,0.477528,-3.523585,0.999998,0.000185,-0.001540,0.002804,-0.000042,0.002805,-0.001540,-89.442552,0.002809,
1780,1380,-0.708037,-1.644450,0.999998,0.000197,-0.001323,0.002612,0.000112,0.002615,-0.001327,88.374692,0.002615,
1580,380,-0.256176,-4.301570,0.999998,0.000163,-0.001067,0.002325,0.000076,0.002327,-0.001068,88.717888,0.002330,
630,2000,0.092507,-0.090657,0.999998,0.000159,-0.000952,0.002410,-0.000707,0.002552,-0.001094,-78.595728,0.002561,
1360,780,-0.115251,-3.647318,0.999998,0.000168,-0.001428,0.002097,0.001104,0.002414,-0.001745,73.967038,0.002493,
1660,160,-0.151865,-4.764396,0.999998,0.000155,-0.000662,0.002173,-0.000391,0.002226,-0.000715,-82.287225,0.002273,
1720,340,-0.380115,-4.304191,0.999997,0.000180,-0.001150,0.002488,-0.000046,0.002488,-0.001151,-89.280235,0.002491,
920,920,0.631462,-2.835929,0.999998,0.000180,-0.001329,0.003062,0.000353,0.003091,-0.001357,85.431309,0.003098,
1320,1510,-0.058398,-0.907460,0.999999,0.000136,-0.000730,0.001759,-0.000257,0.001785,-0.000756,-84.168765,0.001792,
630,450,0.603341,-3.935102,0.999998,0.000168,-0.001240,0.002512,-0.000039,0.002513,-0.001241,-89.407174,0.002513,
1510,250,-0.130398,-4.619859,0.999998,0.000158,-0.000684,0.002050,-0.000098,0.002053,-0.000688,-87.951767,0.002090,
1150,620,0.051873,-4.007992,0.999999,0.000151,-0.000721,0.001637,-0.000405,0.001705,-0.000788,-80.526204,0.001706,
670,710,0.757166,-3.297034,0.999998,0.000173,-0.001303,0.002578,0.000119,0.002582,-0.001307,88.249478,0.002582,
1600,250,-0.192718,-4.586290,0.999998,0.000169,-0.000795,0.002197,-0.000149,0.002205,-0.000803,-87.148949,0.002232,
1520,1030,-0.690092,-2.512659,0.999997,0.000204,-0.000898,0.002956,0.000023,0.002956,-0.000898,89.659787,0.003031,
1310,610,-0.051370,-4.026428,0.999999,0.000137,-0.000715,0.001651,0.000396,0.001715,-0.000780,80.754974,0.001717,
870,1620,0.299873,-0.876984,0.999998,0.000172,-0.001111,0.002389,0.000103,0.002392,-0.001114,88.318261,0.002394,
730,220,0.281928,-4.596161,0.999997,0.000177,-0.000987,0.002467,0.000291,0.002491,-0.001011,85.221559,0.002506,
1860,730,-0.858522,-3.202599,0.999998,0.000153,-0.001248,0.002486,-0.000077,0.002488,-0.001249,-88.822202,0.002488,
1630,860,-0.677034,-2.973156,0.999997,0.000193,-0.001402,0.002844,-0.000332,0.002870,-0.001428,-85.557467,0.002870,
1000,940,0.547375,-2.851229,0.999997,0.000181,-0.001493,0.003670,0.000044,0.003670,-0.001493,89.510998,0.003691,
1120,370,0.063117,-4.442695,0.999998,0.000182,-0.000618,0.001898,-0.000093,0.001901,-0.000622,-87.885290,0.001939,
870,1700,0.254735,-0.688697,0.999998,0.000159,-0.001029,0.002289,0.000015,0.002289,-0.001029,89.735405,0.002293,
650,1380,0.752188,-1.667453,0.999998,0.000173,-0.001266,0.002556,-0.000102,0.002559,-0.001269,-88.477131,0.002559,
1250,1850,-0.006998,-0.292440,0.999998,0.000166,-0.000308,0.001677,-0.000017,0.001677,-0.000308,-89.503288,0.001786,
1750,550,-0.569574,-3.744978,0.999998,0.000197,-0.001339,0.002596,0.000013,0.002596,-0.001339,89.812872,0.002596,
1720,670,-0.622872,-3.450492,0.999998,0.000191,-0.001415,0.002694,-0.000076,0.002695,-0.001416,-88.939770,0.002696,
880,960,0.719234,-2.705214,0.999998,0.000172,-0.001097,0.002801,0.000268,0.002820,-0.001115,86.091769,0.002840,
940,1190,0.518777,-2.011033,0.999998,0.000181,-0.001687,0.003257,-0.000206,0.003265,-0.001695,-87.618511,0.003266,
960,1400,0.282421,-1.344267,0.999998,0.000193,-0.001540,0.002670,0.000392,0.002707,-0.001576,84.720484,0.002719,
1200,1780,0.013067,-0.411590,0.999998,0.000160,-0.000428,0.001756,0.000018,0.001757,-0.000428,89.522005,0.001832,
650,240,0.394366,-4.484378,0.999997,0.000232,-0.001130,0.002572,0.000139,0.002578,-0.001135,87.853926,0.002584,
1590,1520,-0.346807,-1.122520,0.999999,0.000158,-0.001306,0.002573,-0.000174,0.002581,-0.001314,-87.438074,0.002581,
1530,1490,-0.282053,-1.143325,0.999998,0.000187,-0.001330,0.002503,-0.000301,0.002526,-0.001354,-85.540195,0.002528,
750,1970,0.091694,-0.129316,0.999999,0.000141,-0.000320,0.002014,-0.000611,0.002164,-0.000471,-76.178226,0.002276,
1570,1020,-0.734726,-2.541581,0.999997,0.000227,-0.000903,0.002768,-0.000062,0.002769,-0.000904,-89.027779,0.002824,
800,380,0.346000,-4.244227,0.999998,0.000175,-0.001142,0.002456,-0.000043,0.002456,-0.001143,-89.318840,0.002458,
1660,1950,-0.092358,-0.160100,0.999999,0.000165,-0.000445,0.002024,0.000473,0.002111,-0.000532,79.520416,0.002196,
1710,200,-0.238164,-4.655217,0.999998,0.000172,-0.000839,0.002392,-0.000373,0.002434,-0.000882,-83.503769,0.002465,
840,760,0.559867,-3.266749,0.999998,0.000188,-0.001612,0.002945,0.000143,0.002949,-0.001616,88.202965,0.002954,
570,1910,0.356716,-0.401011,0.999903,0.001231,-0.000769,0.002746,-0.000263,0.002765,-0.000789,-85.744749,0.002849,
1240,1930,-0.001533,-0.159141,0.999999,0.000114,-0.000145,0.001579,-0.000009,0.001579,-0.000145,-89.707328,0.001745,
1890,1910,-0.353349,-0.399571,0.999998,0.000196,-0.001229,0.002598,0.000248,0.002614,-0.001245,86.303998,0.002615,
1450,340,-0.127181,-4.459792,0.999998,0.000160,-0.000702,0.002002,0.000047,0.002003,-0.000702,89.003500,0.002033,
1830,390,-0.555618,-4.088129,0.999997,0.000195,-0.001254,0.002505,0.000016,0.002505,-0.001254,89.761452,0.002505,
1780,1360,-0.726886,-1.696417,0.999998,0.000187,-0.001324,0.002591,0.000127,0.002595,-0.001328,88.144625,0.002595,
1580,360,-0.245445,-4.348730,0.999998,0.000181,-0.001035,0.002319,0.000051,0.002319,-0.001036,89.122883,0.002324,
1360,760,-0.106278,-3.689328,0.999998,0.000171,-0.001342,0.002031,0.001049,0.002331,-0.001641,74.054575,0.002395,
1250,2020,-0.001246,-0.024001,0.999999,0.000000,0.000026,0.001544,-0.000025,0.001545,0.000026,-89.069881,0.001799,
630,470,0.617430,-3.884235,0.999998,0.000177,-0.001267,0.002559,-0.000061,0.002560,-0.001268,-89.084832,0.002560,
1200,1490,0.019427,-0.918007,0.999999,0.000181,-0.000620,0.001586,0.000122,0.001593,-0.000626,86.850922,0.001605,
710,970,0.909552,-2.659602,0.999998,0.000156,-0.001090,0.002426,0.000099,0.002429,-0.001093,88.389205,0.002433,
1660,140,-0.130869,-4.808385,0.999999,0.000148,-0.000605,0.002103,-0.000409,0.002164,-0.000665,-81.602078,0.002216,
1270,620,-0.023223,-4.035932,0.999999,0.000144,-0.000645,0.001464,0.000206,0.001484,-0.000665,84.468868,0.001487,
740,1970,0.093679,-0.130195,0.999999,0.000133,-0.000355,0.002043,-0.000614,0.002191,-0.000503,-76.454049,0.002295,
1720,300,-0.349619,-4.403976,0.999997,0.000193,-0.001052,0.002483,-0.000121,0.002487,-0.001056,-88.046365,0.002497,
1510,230,-0.117408,-4.663066,0.999998,0.000150,-0.000633,0.002000,-0.000126,0.002006,-0.000639,-87.262916,0.002050,
1770,1140,-0.898547,-2.248382,0.999999,0.000147,-0.001153,0.002416,0.000181,0.002425,-0.001162,87.100926,0.002426,
1580,250,-0.177036,-4.595060,0.999998,0.000138,-0.000787,0.002165,-0.000129,0.002170,-0.000793,-87.497024,0.002196,
920,900,0.602981,-2.898920,0.999998,0.000162,-0.001473,0.003112,0.000363,0.003141,-0.001502,85.499824,0.003142,
670,690,0.740298,-3.347519,0.999997,0.000190,-0.001333,0.002559,0.000121,0.002563,-0.001337,88.217389,0.002564,
890,1040,0.736959,-2.485258,0.999997,0.000212,-0.000932,0.002735,-0.000073,0.002736,-0.000933,-88.857432,0.002782,
1310,590,-0.051159,-4.059171,0.999999,0.000134,-0.000719,0.001673,0.000352,0.001724,-0.000769,81.802137,0.001727,
1420,410,-0.122673,-4.331953,0.999998,0.000171,-0.000789,0.002010,0.000169,0.002020,-0.000799,86.549389,0.002034,
1350,1760,-0.055855,-0.460919,0.999998,0.000181,-0.000492,0.001833,-0.000014,0.001833,-0.000492,-89.652774,0.001897,
1250,1870,-0.005419,-0.258814,0.999999,0.000146,-0.000258,0.001645,0.000002,0.001645,-0.000258,89.954582,0.001769,
750,460,0.459091,-4.006460,0.999998,0.000167,-0.001272,0.002535,-0.000065,0.002536,-0.001274,-89.021144,0.002536,
590,870,0.988138,-2.861714,0.999998,0.000147,-0.001094,0.002222,0.000070,0.002224,-0.001095,88.784424,0.002224,
920,1190,0.552672,-2.030796,0.999997,0.000207,-0.001669,0.003188,-0.000281,0.003204,-0.001685,-86.701239,0.003206,
1000,920,0.512079,-2.923273,0.999997,0.000196,-0.001631,0.003585,0.000023,0.003585,-0.001631,89.743053,0.003590,
1790,600,-0.659505,-3.584014,0.999997,0.000174,-0.001296,0.002585,-0.000009,0.002585,-0.001296,-89.865191,0.002585,
1750,530,-0.555757,-3.796049,0.999998,0.000189,-0.001317,0.002590,0.000034,0.002590,-0.001317,89.499880,0.002590,
960,1380,0.291871,-1.399587,0.999998,0.000198,-0.001592,0.002763,0.000391,0.002798,-0.001627,84.906890,0.002810,
1530,1450,-0.299385,-1.244290,0.999998,0.000176,-0.001399,0.002609,-0.000308,0.002633,-0.001422,-85.638389,0.002636,
1560,1430,-0.351787,-1.330191,0.999997,0.000177,-0.001492,0.002696,-0.000231,0.002708,-0.001505,-86.858280,0.002714,
750,1950,0.116485,-0.168473,0.999998,0.000158,-0.000401,0.002139,-0.000619,0.002282,-0.000544,-77.013490,0.002384,
880,1400,0.406535,-1.435538,0.999997,0.000193,-0.001551,0.002789,0.000157,0.002795,-0.001557,87.935088,0.002801,
1440,1570,-0.154556,-0.875136,0.999999,0.000137,-0.000981,0.002153,-0.000289,0.002179,-0.001007,-84.772631,0.002181,
620,40,0.071200,-4.974959,0.999998,0.000159,-0.000920,0.002337,0.000805,0.002525,-0.001108,76.852182,0.002532,
1770,400,-0.487420,-4.112858,0.999997,0.000198,-0.001232,0.002533,0.000033,0.002533,-0.001232,89.501999,0.002533,
800,620,0.501131,-3.628830,0.999997,0.000188,-0.001441,0.002716,-0.000047,0.002716,-0.001442,-89.345836,0.002718,
1200,1760,0.016085,-0.446922,0.999998,0.000151,-0.000456,0.001769,0.000025,0.001769,-0.000456,89.348059,0.001837,
840,740,0.540192,-3.323719,0.999997,0.000213,-0.001618,0.002894,0.000098,0.002896,-0.001620,88.760196,0.002903,
1580,340,-0.234325,-4.394208,0.999998,0.000191,-0.000986,0.002290,0.000001,0.002290,-0.000986,89.988581,0.002297,
570,1870,0.417243,-0.511456,0.999907,0.001114,-0.001125,0.002556,-0.000047,0.002557,-0.001125,-89.270274,0.002563,
1720,650,-0.605064,-3.504376,0.999998,0.000203,-0.001397,0.002675,-0.000053,0.002676,-0.001398,-89.258363,0.002677,
570,1400,0.842714,-1.675526,0.999974,0.000635,-0.001698,0.002614,-0.000030,0.002614,-0.001698,-89.607848,0.002653,
1870,1810,-0.471003,-0.626096,0.999998,0.000194,-0.001237,0.002492,0.000031,0.002492,-0.001237,89.531017,0.002492,
1780,1340,-0.744567,-1.746208,0.999998,0.000162,-0.001316,0.002558,0.000154,0.002564,-0.001322,87.731260,0.002565,
760,1990,0.060251,-0.086791,0.999999,0.000134,-0.000236,0.001929,-0.000596,0.002082,-0.000389,-75.572279,0.002214,
1710,1440,-0.563861,-1.435155,0.999997,0.000198,-0.001408,0.002656,-0.000001,0.002656,-0.001408,-89.987634,0.002657,
1660,120,-0.109253,-4.848876,0.999999,0.000152,-0.000529,0.002037,-0.000447,0.002112,-0.000604,-80.399971,0.002176,
1200,1930,0.005958,-0.162115,0.999998,0.000165,-0.000176,0.001595,-0.000004,0.001595,-0.000176,-89.856708,0.001749,
1820,1780,-0.442742,-0.651090,0.999998,0.000183,-0.001182,0.002535,0.000070,0.002536,-0.001184,88.921123,0.002538,
1700,1600,-0.438415,-1.008464,0.999998,0.000177,-0.001252,0.002523,-0.000074,0.002524,-0.001253,-88.883051,0.002524,
630,490,0.633371,-3.832779,0.999998,0.000177,-0.001252,0.002542,-0.000054,0.002543,-0.001253,-89.177658,0.002543,
1270,600,-0.023331,-4.065161,0.999999,0.000133,-0.000657,0.001524,0.000174,0.001538,-0.000671,85.473555,0.001542,
670,670,0.721572,-3.399449,0.999997,0.000199,-0.001332,0.002601,0.000100,0.002604,-0.001334,88.545198,0.002604,
1420,390,-0.117682,-4.373793,0.999998,0.000161,-0.000781,0.002025,0.000131,0.002031,-0.000787,87.324087,0.002049,
850,1600,0.333704,-0.942231,0.999998,0.000163,-0.001184,0.002483,0.000125,0.002487,-0.001188,88.046039,0.002488,
1000,900,0.474449,-2.994983,0.999998,0.000192,-0.001760,0.003563,-0.000013,0.003563,-0.001760,-89.863112,0.003563,
1470,340,-0.140286,-4.452153,0.999998,0.000171,-0.000698,0.002052,0.000050,0.002053,-0.000699,88.955535,0.002088,
1760,670,-0.677641,-3.422705,0.999997,0.000187,-0.001364,0.002639,-0.000099,0.002641,-0.001366,-88.582118,0.002642,
1250,1200,-0.049689,-1.211998,0.999998,0.000000,-0.002576,0.000587,0.000216,0.000601,-0.002591,86.105912,0.002712,
1620,400,-0.309345,-4.228724,0.999998,0.000148,-0.001097,0.002383,0.000062,0.002384,-0.001098,88.980287,0.002387,
1040,1950,0.026968,-0.136852,0.999998,0.000157,-0.000211,0.001669,-0.000136,0.001678,-0.000221,-85.875467,0.001824,
580,870,0.999100,-2.855967,0.999999,0.000128,-0.001069,0.002175,0.000022,0.002175,-0.001069,89.615398,0.002175,
560,800,0.969114,-3.003251,0.999998,0.000000,-0.001251,0.002105,-0.000065,0.002106,-0.001252,-88.885023,0.002119,
710,950,0.899267,-2.708804,0.999998,0.000157,-0.001131,0.002452,0.000186,0.002462,-0.001140,87.039658,0.002464,
1560,250,-0.161132,-4.604025,0.999998,0.000178,-0.000699,0.002134,-0.000129,0.002140,-0.000705,-87.395132,0.002181,
1050,1510,0.137128,-0.979594,0.999999,0.000140,-0.001008,0.002105,0.000396,0.002155,-0.001058,82.856165,0.002155,
880,1380,0.419599,-1.491915,0.999997,0.000186,-0.001596,0.002837,0.000125,0.002840,-0.001600,88.386577,0.002848,
920,880,0.574820,-2.960091,0.999998,0.000168,-0.001576,0.003135,0.000339,0.003159,-0.001601,85.899909,0.003159,
1420,1570,-0.136194,-0.860998,0.999998,0.000158,-0.000888,0.002086,-0.000275,0.002112,-0.000913,-84.761515,0.002118,
960,1360,0.303878,-1.454507,0.999998,0.000197,-0.001650,0.002851,0.000372,0.002881,-0.001681,85.303816,0.002894,
780,930,0.808410,-2.768919,0.999998,0.000156,-0.001138,0.002553,0.000224,0.002567,-0.001151,86.542850,0.002571,
790,1590,0.413432,-1.015152,0.999998,0.000178,-0.001263,0.002528,0.000080,0.002529,-0.001265,88.788573,0.002529,
1530,910,-0.597842,-2.877596,0.999998,0.000191,-0.001410,0.003140,-0.000372,0.003170,-0.001440,-85.351751,0.003174,
1580,1030,-0.744959,-2.513069,0.999998,0.000193,-0.000933,0.002753,0.000024,0.002753,-0.000933,89.620538,0.002800,
620,50,0.092967,-4.952461,0.999999,0.000138,-0.001003,0.002422,0.000747,0.002578,-0.001159,78.213416,0.002582,
1840,470,-0.627939,-3.877915,0.999998,0.000173,-0.001298,0.002551,0.000029,0.002552,-0.001298,89.567057,0.002552,
1670,260,-0.260851,-4.531423,0.999998,0.000163,-0.000996,0.002347,-0.000164,0.002355,-0.001004,-87.205250,0.002364,
1200,1740,0.014438,-0.482410,0.999998,0.000169,-0.000476,0.001775,0.000039,0.001776,-0.000477,89.000059,0.001838,
1560,1410,-0.363670,-1.383491,0.999998,0.000181,-0.001519,0.002745,-0.000221,0.002757,-0.001530,-87.034949,0.002762,
840,720,0.521643,-3.383480,0.999997,0.000211,-0.001604,0.002874,0.000049,0.002875,-0.001605,89.373237,0.002881,
1490,1510,-0.224396,-1.055459,0.999998,0.000155,-0.001219,0.002376,-0.000345,0.002409,-0.001252,-84.573374,0.002409,
1640,510,-0.398417,-3.938268,0.999998,0.000175,-0.001319,0.002548,0.000122,0.002552,-0.001323,88.189747,0.002553,
1200,1470,0.019310,-0.949994,0.999999,0.000140,-0.000616,0.001568,0.000142,0.001577,-0.000625,86.290173,0.001588,
1420,170,-0.053024,-4.792138,0.999999,0.000166,-0.000360,0.001750,-0.000120,0.001757,-0.000367,-86.752905,0.001853,
1660,100,-0.086420,-4.890117,0.999999,0.000138,-0.000447,0.002007,-0.000460,0.002090,-0.000530,-79.731716,0.002173,
1080,1630,0.096052,-0.716010,0.999998,0.000153,-0.000769,0.001955,0.000177,0.001966,-0.000780,86.294205,0.001980,
810,1280,0.621188,-1.836736,0.999998,0.000178,-0.001511,0.002828,-0.000180,0.002835,-0.001518,-87.632736,0.002838,
1310,570,-0.052373,-4.093586,0.999999,0.000122,-0.000726,0.001694,0.000323,0.001736,-0.000769,82.521588,0.001740,
1780,1320,-0.763192,-1.799527,0.999998,0.000148,-0.001294,0.002556,0.000162,0.002563,-0.001301,87.600503,0.002563,
1750,510,-0.540040,-3.848863,0.999998,0.000178,-0.001288,0.002583,0.000042,0.002584,-0.001289,89.377244,0.002584,
1160,530,0.044621,-4.165570,0.999999,0.000137,-0.000699,0.001750,-0.000240,0.001773,-0.000722,-84.467293,0.001784,
570,670,0.852107,-3.327876,0.999972,0.000635,-0.001570,0.002533,0.000032,0.002533,-0.001570,89.548797,0.002557,
1700,1580,-0.451506,-1.062039,0.999998,0.000179,-0.001279,0.002532,-0.000060,0.002533,-0.001280,-89.094938,0.002533,
750,1190,0.794086,-2.108897,0.999998,0.000170,-0.001262,0.002606,-0.000283,0.002627,-0.001283,-85.831007,0.002627,
1010,960,0.567016,-2.791311,0.999997,0.000214,-0.001458,0.003861,-0.000117,0.003864,-0.001461,-88.743070,0.003902,
1820,1760,-0.463462,-0.701278,0.999998,0.000186,-0.001203,0.002528,0.000037,0.002528,-0.001203,89.439013,0.002529,
1360,740,-0.098435,-3.731151,0.999998,0.000187,-0.001263,0.002023,0.000980,0.002293,-0.001533,74.595139,0.002336,
1000,880,0.437309,-3.066180,0.999998,0.000200,-0.001823,0.003481,-0.000071,0.003482,-0.001824,-89.237275,0.003483,
1440,710,-0.207966,-3.641508,0.999998,0.000189,-0.001608,0.002630,0.000662,0.002731,-0.001709,81.329403,0.002760,
1420,650,-0.161980,-3.822214,0.999998,0.000158,-0.001329,0.002300,0.000610,0.002400,-0.001428,80.706567,0.002414,
1490,1700,-0.161596,-0.628211,0.999998,0.000158,-0.000846,0.002132,-0.000094,0.002135,-0.000849,-88.185011,0.002150,
920,590,0.310430,-3.821148,0.999998,0.000161,-0.001376,0.002558,-0.000261,0.002575,-0.001393,-86.226650,0.002578,
1150,1270,0.060189,-1.273796,0.999998,0.000166,-0.001004,0.001319,0.000998,0.001689,-0.001374,69.661058,0.001796,
1620,380,-0.297838,-4.274927,0.999998,0.000164,-0.001028,0.002381,0.000032,0.002381,-0.001028,89.469067,0.002389,
1650,1200,-0.702224,-2.061736,0.999998,0.000205,-0.001399,0.002783,0.000332,0.002809,-0.001425,85.482865,0.002809,
1250,860,-0.061141,-3.827548,0.999964,0.000000,-0.002194,0.000461,-0.000144,0.000469,-0.002202,-86.909825,0.002320,
980,990,0.639581,-2.651182,0.999998,0.000181,-0.001119,0.003452,0.000108,0.003455,-0.001122,88.651497,0.003525,
850,1580,0.344162,-0.991047,0.999998,0.000185,-0.001204,0.002481,0.000134,0.002486,-0.001209,87.922601,0.002486,
710,930,0.888322,-2.757339,0.999999,0.000140,-0.001152,0.002453,0.000188,0.002463,-0.001161,87.029266,0.002464,
960,2010,0.013755,-0.042217,0.999999,0.000128,-0.000135,0.001561,-0.000199,0.001584,-0.000159,-83.394325,0.001745,
560,780,0.959452,-3.042673,0.999998,0.000000,-0.001375,0.002291,-0.000060,0.002292,-0.001376,-89.056768,0.002308,
1020,1950,0.032028,-0.137728,0.999999,0.000143,-0.000199,0.001705,-0.000161,0.001719,-0.000213,-85.189930,0.001874,
1530,890,-0.567802,-2.939159,0.999998,0.000173,-0.001551,0.003182,-0.000316,0.003203,-0.001572,-86.198598,0.003203,
630,930,0.977509,-2.741153,0.999998,0.000158,-0.001100,0.002297,0.000145,0.002304,-0.001106,87.562699,0.002304,
1320,430,-0.053887,-4.340250,0.999998,0.000143,-0.000683,0.001812,0.000155,0.001822,-0.000693,86.452570,0.001839,
570,870,1.009157,-2.851193,0.999998,0.000159,-0.001051,0.002125,0.000003,0.002125,-0.001051,89.950148,0.002125,
1050,1490,0.141709,-1.022659,0.999999,0.000142,-0.001067,0.002109,0.000448,0.002171,-0.001129,82.117725,0.002172,
1220,1570,0.006535,-0.780196,0.999998,0.000174,-0.000636,0.001730,0.000066,0.001732,-0.000638,88.393219,0.001751,
1050,1820,0.068718,-0.363062,0.999998,0.000180,-0.000493,0.001857,-0.000028,0.001857,-0.000493,-89.313375,0.001924,
1260,360,-0.016071,-4.476850,0.999999,0.000138,-0.000541,0.001760,0.000049,0.001761,-0.000542,88.789463,0.001804,
1400,110,-0.024504,-4.897911,0.999998,0.000159,-0.000193,0.001655,-0.000118,0.001663,-0.000200,-86.370167,0.001815,
1200,1720,0.016327,-0.518879,0.999998,0.000167,-0.000504,0.001777,0.000045,0.001778,-0.000505,88.871998,0.001833,
920,1300,0.419618,-1.684774,0.999998,0.000193,-0.001775,0.003036,0.000083,0.003038,-0.001777,89.014446,0.003052,
1160,1370,0.042727,-1.121367,0.999999,0.000121,-0.000712,0.001453,0.000558,0.001588,-0.000847,76.365974,0.001590,
1870,1570,-0.675587,-1.222985,0.999998,0.000187,-0.001243,0.002523,-0.000019,0.002523,-0.001243,-89.714046,0.002523,
670,650,0.704176,-3.452668,0.999997,0.000195,-0.001328,0.002602,0.000076,0.002603,-0.001329,88.886975,0.002603,
960,1340,0.315774,-1.512537,0.999998,0.000180,-0.001707,0.002898,0.000374,0.002928,-0.001737,85.391618,0.002945,
570,480,0.709335,-3.802908,0.999875,0.001428,-0.002601,0.002522,-0.000292,0.002538,-0.002617,-86.743773,0.002978,
880,1360,0.437046,-1.550302,0.999997,0.000198,-0.001638,0.002879,0.000101,0.002881,-0.001640,88.716379,0.002890,
1490,1490,-0.230594,-1.101655,0.999998,0.000169,-0.001241,0.002393,-0.000354,0.002427,-0.001275,-84.483623,0.002428,
1840,850,-0.934542,-2.925148,0.999999,0.000146,-0.001182,0.002376,-0.000152,0.002383,-0.001189,-87.551162,0.002383,
1710,420,-0.427703,-4.109474,0.999997,0.000207,-0.001229,0.002537,0.000058,0.002538,-0.001230,89.116423,0.002538,
800,470,0.402172,-4.021590,0.999998,0.000158,-0.001250,0.002519,-0.000101,0.002521,-0.001252,-88.466869,0.002521,
790,1550,0.437307,-1.116555,0.999998,0.000155,-0.001325,0.002561,0.000091,0.002563,-0.001327,88.658723,0.002564,
1690,1700,-0.358924,-0.753772,0.999998,0.000172,-0.001078,0.002454,0.000017,0.002454,-0.001078,89.723321,0.002460,
740,1470,0.557780,-1.365822,0.999997,0.000193,-0.001356,0.002626,0.000012,0.002626,-0.001356,89.829089,0.002626,
920,830,0.505340,-3.119621,0.999997,0.000195,-0.001752,0.003172,0.000164,0.003178,-0.001757,88.094653,0.003184,
1220,530,0.006841,-4.182724,0.999999,0.000126,-0.000618,0.001647,-0.000067,0.001649,-0.000620,-88.317187,0.001666,
1700,1560,-0.465368,-1.111357,0.999998,0.000178,-0.001315,0.002575,-0.000065,0.002576,-0.001316,-89.036061,0.002576,
1780,1300,-0.781411,-1.852327,0.999998,0.000147,-0.001280,0.002623,0.000196,0.002633,-0.001290,87.127972,0.002633,
1360,720,-0.098227,-3.769990,0.999998,0.000164,-0.001195,0.001987,0.000906,0.002227,-0.001435,75.165914,0.002258,
1660,80,-0.065742,-4.928695,0.999999,0.000146,-0.000328,0.001941,-0.000487,0.002041,-0.000428,-78.376373,0.002153,
630,1220,0.916237,-2.076400,0.999998,0.000159,-0.001174,0.002375,-0.000166,0.002383,-0.001181,-87.325015,0.002383,
1310,550,-0.051644,-4.126886,0.999999,0.000125,-0.000751,0.001749,0.000297,0.001784,-0.000786,83.318631,0.001788,
1750,490,-0.526489,-3.900465,0.999998,0.000180,-0.001276,0.002553,0.000048,0.002554,-0.001277,89.282167,0.002554,
1420,630,-0.158408,-3.868335,0.999998,0.000162,-0.001238,0.002234,0.000558,0.002322,-0.001325,81.084284,0.002330,
750,1930,0.146953,-0.215751,0.999998,0.000169,-0.000520,0.002244,-0.000612,0.002374,-0.000650,-78.060682,0.002453,
1620,800,-0.597023,-3.150929,0.999997,0.000185,-0.001580,0.002954,-0.000210,0.002964,-0.001590,-87.349749,0.002967,
560,770,0.951306,-3.069341,0.999996,0.000000,-0.001404,0.002378,-0.000019,0.002378,-0.001405,-89.719160,0.002391,
1520,1110,-0.632540,-2.265866,0.999998,0.000159,-0.001245,0.003171,0.000318,0.003193,-0.001267,85.898432,0.003216,
660,970,0.962053,-2.653976,0.999998,0.000202,-0.001065,0.002314,0.000069,0.002316,-0.001067,88.835393,0.002318,
950,2010,0.015841,-0.043405,0.999999,0.000133,-0.000132,0.001562,-0.000221,0.001590,-0.000160,-82.675961,0.001751,
890,1480,0.343429,-1.210845,0.999998,0.000163,-0.001389,0.002631,0.000219,0.002642,-0.001401,86.889122,0.002644,
1300,430,-0.040767,-4.347873,0.999998,0.000148,-0.000628,0.001794,0.000092,0.001797,-0.000632,87.825876,0.001823,
1530,870,-0.538585,-3.004590,0.999997,0.000192,-0.001654,0.003200,-0.000229,0.003211,-0.001665,-87.300039,0.003212,
1000,860,0.402133,-3.133263,0.999997,0.000196,-0.001881,0.003428,-0.000168,0.003433,-0.001886,-88.185055,0.003439,
1010,940,0.532421,-2.866542,0.999997,0.000178,-0.001528,0.003772,-0.000091,0.003774,-0.001529,-89.017938,0.003797,
920,570,0.299804,-3.871528,0.999998,0.000171,-0.001343,0.002536,-0.000275,0.002555,-0.001362,-85.957768,0.002557,
710,910,0.877223,-2.807098,0.999999,0.000150,-0.001176,0.002462,0.000196,0.002473,-0.001186,86.931733,0.002473,
1820,1740,-0.480247,-0.753372,0.999998,0.000189,-0.001225,0.002533,0.000015,0.002533,-0.001225,89.778627,0.002534,
1140,1570,0.059111,-0.802697,0.999999,0.000147,-0.000696,0.001832,0.000220,0.001851,-0.000715,85.070846,0.001867,
1130,840,0.140111,-3.624864,0.999998,0.000169,-0.001118,0.001501,-0.000972,0.001823,-0.001439,-71.703126,0.001922,
1150,1250,0.070644,-1.299766,0.999998,0.000155,-0.001073,0.001242,0.000981,0.001601,-0.001433,69.854599,0.001760,
1250,30,0.001522,-5.024726,0.999999,0.000000,-0.000083,0.001456,-0.000022,0.001456,-0.000083,-89.196180,0.001636,
1510,1700,-0.179392,-0.642035,0.999998,0.000190,-0.000865,0.002179,-0.000076,0.002181,-0.000867,-88.564924,0.002196,
1600,290,-0.220562,-4.497812,0.999998,0.000161,-0.000895,0.002283,-0.000090,0.002285,-0.000898,-88.372714,0.002303,
1140,1370,0.057807,-1.146995,0.999999,0.000128,-0.000845,0.001614,0.000698,0.001798,-0.001030,75.207023,0.001805,
1200,1700,0.016288,-0.553396,0.999998,0.000149,-0.000537,0.001754,0.000046,0.001755,-0.000538,88.851155,0.001798,
600,870,0.976822,-2.867057,0.999998,0.000164,-0.001122,0.002260,0.000105,0.002263,-0.001125,88.226019,0.002263,
1860,1570,-0.663339,-1.215163,0.999998,0.000182,-0.001238,0.002526,-0.000023,0.002526,-0.001238,-89.650435,0.002526,
1540,890,-0.582494,-2.931853,0.999998,0.000176,-0.001525,0.003139,-0.000337,0.003163,-0.001550,-85.885763,0.003163,
1050,1470,0.144181,-1.067299,0.999998,0.000138,-0.001085,0.002150,0.000515,0.002230,-0.001165,81.167806,0.002231,
1720,1830,-0.273836,-0.452349,0.999998,0.000144,-0.000939,0.002460,0.000304,0.002486,-0.000966,84.934403,0.002507,
880,1340,0.452312,-1.607063,0.999997,0.000205,-0.001655,0.002913,0.000051,0.002914,-0.001656,89.361490,0.002923,
1490,1470,-0.236565,-1.150035,0.999998,0.000173,-0.001279,0.002456,-0.000377,0.002494,-0.001317,-84.289787,0.002495,
1750,120,-0.163055,-4.825036,0.999999,0.000142,-0.000821,0.002313,-0.000564,0.002412,-0.000919,-80.109456,0.002434,
920,1320,0.399006,-1.622991,0.999998,0.000219,-0.001748,0.003025,0.000134,0.003029,-0.001752,88.397114,0.003041,
1360,700,-0.094626,-3.810483,0.999999,0.000140,-0.001116,0.001910,0.000820,0.002118,-0.001324,75.776757,0.002140,
1670,1700,-0.336823,-0.738854,0.999998,0.000139,-0.001168,0.002424,-0.000017,0.002424,-0.001168,-89.734494,0.002425,
1660,60,-0.042464,-4.968065,0.999998,0.000155,-0.000238,0.001840,-0.000494,0.001952,-0.000349,-77.276548,0.002081,
1160,550,0.045945,-4.132100,0.999999,0.000138,-0.000724,0.001699,-0.000261,0.001727,-0.000751,-83.922539,0.001732,
1700,1540,-0.477753,-1.163473,0.999998,0.000164,-0.001340,0.002591,-0.000065,0.002593,-0.001341,-89.057032,0.002593,
960,1320,0.329650,-1.570877,0.999998,0.000171,-0.001783,0.002957,0.000349,0.002983,-0.001809,85.816984,0.003005,
1830,1140,-0.965947,-2.263603,0.999998,0.000165,-0.001095,0.002315,0.000142,0.002321,-0.001101,87.622053,0.002322,
1780,1280,-0.798695,-1.902651,0.999999,0.000141,-0.001266,0.002580,0.000213,0.002592,-0.001278,86.845318,0.002592,
1300,1720,-0.033909,-0.521023,0.999998,0.000138,-0.000481,0.001822,-0.000014,0.001822,-0.000481,-89.650093,0.001889,
790,1010,0.832392,-2.563672,0.999998,0.000151,-0.001004,0.002533,0.000086,0.002535,-0.001006,88.610107,0.002553,
1340,790,-0.093018,-3.686491,0.999998,0.000169,-0.001289,0.001804,0.001132,0.002174,-0.001659,71.901277,0.002272,
560,760,0.940034,-3.094672,0.999993,0.000000,-0.001418,0.002458,-0.000027,0.002459,-0.001418,-89.594272,0.002468,
810,1020,0.814071,-2.539697,0.999998,0.000149,-0.000977,0.002545,0.000029,0.002545,-0.000978,89.524574,0.002567,
1530,850,-0.510804,-3.068486,0.999998,0.000193,-0.001738,0.003233,-0.000193,0.003241,-0.001745,-87.780154,0.003244,
1520,1090,-0.656774,-2.330817,0.999998,0.000164,-0.001105,0.003080,0.000259,0.003096,-0.001121,86.468874,0.003136,
1620,820,-0.619704,-3.092111,0.999997,0.000183,-0.001523,0.002897,-0.000275,0.002914,-0.001540,-86.451990,0.002916,
890,1460,0.354286,-1.263271,0.999998,0.000180,-0.001430,0.002623,0.000214,0.002634,-0.001442,86.987399,0.002638,
840,700,0.502658,-3.439846,0.999997,0.000207,-0.001580,0.002843,0.000009,0.002843,-0.001580,89.884811,0.002849,
1750,470,-0.513461,-3.950381,0.999998,0.000174,-0.001276,0.002534,0.000042,0.002535,-0.001277,89.370241,0.002535,
730,1220,0.792530,-2.036860,0.999998,0.000145,-0.001313,0.002608,-0.000269,0.002626,-0.001332,-86.098314,0.002626,
1000,840,0.369606,-3.200323,0.999998,0.000195,-0.001922,0.003393,-0.000267,0.003407,-0.001935,-87.129129,0.003417,
1370,540,-0.099276,-4.105650,0.999999,0.000131,-0.000896,0.001957,0.000400,0.002012,-0.000951,82.174290,0.002013,
1820,1720,-0.498646,-0.803862,0.999998,0.000181,-0.001251,0.002527,-0.000008,0.002527,-0.001251,-89.880364,0.002527,
1240,2020,-0.002805,-0.022874,0.999999,0.000000,0.000007,0.001534,-0.000046,0.001536,0.000005,-88.263825,0.001776,
1160,290,0.029911,-4.597530,0.999998,0.000186,-0.000425,0.001750,0.000000,0.001750,-0.000425,89.993346,0.001825,
1810,1840,-0.361934,-0.489420,0.999998,0.000199,-0.001128,0.002567,0.000235,0.002582,-0.001143,86.376701,0.002588,
1150,1230,0.092841,-1.322423,0.999999,0.000145,-0.001114,0.001214,0.000898,0.001520,-0.001420,71.176444,0.001700,
1550,340,-0.205557,-4.412389,0.999998,0.000185,-0.000860,0.002265,-0.000020,0.002265,-0.000860,-89.635401,0.002287,
920,810,0.479579,-3.183514,0.999998,0.000175,-0.001797,0.003145,0.000088,0.003146,-0.001799,88.984040,0.003157,
1770,600,-0.634639,-3.600280,0.999998,0.000176,-0.001315,0.002613,-0.000018,0.002613,-0.001315,-89.742464,0.002613,
1610,1700,-0.273015,-0.699688,0.999998,0.000145,-0.000995,0.002350,-0.000005,0.002350,-0.000995,-89.907323,0.002359,
1740,1570,-0.510953,-1.119541,0.999999,0.000147,-0.001259,0.002570,-0.000067,0.002571,-0.001260,-89.004493,0.002572,
1200,540,0.020484,-4.162465,0.999998,0.000148,-0.000645,0.001659,-0.000095,0.001663,-0.000649,-87.632736,0.001676,
1650,260,-0.242145,-4.542192,0.999998,0.000164,-0.000902,0.002318,-0.000178,0.002328,-0.000912,-86.854371,0.002346,
1200,1430,0.018247,-1.009320,0.999999,0.000136,-0.000594,0.001416,0.000175,0.001431,-0.000609,85.055704,0.001436,
1450,1310,-0.243489,-1.512087,0.999998,0.000172,-0.001766,0.002876,-0.000619,0.002957,-0.001847,-82.528489,0.002987,
1840,190,-0.363466,-4.586106,0.999997,0.000193,-0.001199,0.002569,-0.000142,0.002575,-0.001204,-87.839937,0.002576,
1350,1890,-0.029978,-0.231070,0.999999,0.000128,-0.000277,0.001670,0.000057,0.001672,-0.000278,88.327789,0.001791,
660,870,0.906628,-2.891415,0.999999,0.000121,-0.001179,0.002421,0.000219,0.002434,-0.001192,86.525430,0.002434,
880,1320,0.470813,-1.667243,0.999997,0.000211,-0.001654,0.002985,-0.000005,0.002985,-0.001654,-89.941709,0.002991,
1200,530,0.020302,-4.180068,0.999999,0.000137,-0.000649,0.001664,-0.000095,0.001668,-0.000653,-87.663326,0.001681,
1000,490,0.178947,-4.134003,0.999998,0.000156,-0.001013,0.002204,-0.000289,0.002229,-0.001038,-84.909074,0.002231,
1810,1580,-0.593053,-1.150199,0.999998,0.000153,-0.001258,0.002542,-0.000033,0.002542,-0.001258,-89.501856,0.002542,
750,1280,0.709636,-1.870255,0.999998,0.000158,-0.001402,0.002690,-0.000233,0.002704,-0.001415,-86.751183,0.002704,
1100,360,0.073403,-4.456119,0.999998,0.000174,-0.000595,0.001905,-0.000058,0.001906,-0.000597,-88.664723,0.001950,
1310,2010,-0.003074,-0.038155,0.999998,0.000146,-0.000037,0.001523,0.000038,0.001524,-0.000038,88.612938,0.001738,
1600,270,-0.206223,-4.542940,0.999999,0.000139,-0.000857,0.002217,-0.000103,0.002220,-0.000861,-88.089157,0.002239,
750,1890,0.198983,-0.304090,0.999998,0.000141,-0.000713,0.002359,-0.000486,0.002434,-0.000788,-81.216499,0.002484,
1740,40,-0.033023,-4.998752,0.999998,0.000165,-0.000240,0.001997,-0.000683,0.002189,-0.000432,-74.306062,0.002319,
1310,530,-0.051485,-4.162932,0.999999,0.000134,-0.000741,0.001756,0.000269,0.001784,-0.000770,83.922908,0.001790,
1800,1390,-0.725637,-1.631774,0.999998,0.000177,-0.001320,0.002595,0.000095,0.002598,-0.001323,88.614698,0.002598,
1670,1680,-0.351558,-0.788119,0.999998,0.000152,-0.001156,0.002438,-0.000038,0.002438,-0.001156,-89.387734,0.002439,
1700,1520,-0.492656,-1.215481,0.999998,0.000180,-0.001359,0.002598,-0.000050,0.002599,-0.001359,-89.273413,0.002600,
1650,1990,-0.045110,-0.081256,0.999998,0.000153,-0.000222,0.001874,0.000479,0.001978,-0.000326,77.732119,0.002121,
1180,1930,0.008610,-0.162176,0.999999,0.000139,-0.000158,0.001599,-0.000037,0.001600,-0.000158,-88.803780,0.001764,
1410,610,-0.143394,-3.922369,0.999998,0.000157,-0.001141,0.002193,0.000529,0.002275,-0.001223,81.199549,0.002277,
920,1340,0.382861,-1.564509,0.999998,0.000217,-0.001712,0.002936,0.000186,0.002944,-0.001719,87.714574,0.002957,
570,660,0.842974,-3.353159,0.999971,0.000623,-0.001607,0.002559,0.000058,0.002560,-0.001608,89.204627,0.002588,
890,1080,0.719675,-2.374459,0.999998,0.000194,-0.000990,0.002817,-0.000234,0.002831,-0.001004,-86.498732,0.002871,
1530,830,-0.482564,-3.134003,0.999997,0.000198,-0.001790,0.003246,-0.000131,0.003249,-0.001793,-88.507093,0.003255,
1720,1810,-0.296651,-0.500212,0.999998,0.000172,-0.000988,0.002454,0.000265,0.002474,-0.001008,85.629432,0.002488,
1490,1450,-0.242603,-1.200197,0.999998,0.000172,-0.001357,0.002490,-0.000410,0.002533,-0.001400,-83.984190,0.002538,
630,910,0.966505,-2.786059,0.999999,0.000146,-0.001098,0.002272,0.000129,0.002277,-0.001103,87.808411,0.002277,
560,750,0.930907,-3.116151,0.999993,0.000000,-0.001438,0.002591,-0.000019,0.002591,-0.001438,-89.727812,0.002596,
1590,1080,-0.738142,-2.377044,0.999998,0.000182,-0.001009,0.002752,0.000217,0.002764,-0.001022,86.702763,0.002795,
570,1830,0.490262,-0.616125,0.999751,0.001858,-0.002901,0.002922,-0.000235,0.002931,-0.002911,-87.697000,0.003373,
1580,320,-0.220724,-4.439581,0.999998,0.000186,-0.000944,0.002265,-0.000024,0.002265,-0.000944,-89.578316,0.002276,
1050,1450,0.146053,-1.109276,0.999998,0.000155,-0.001114,0.002179,0.000548,0.002268,-0.001203,80.789006,0.002270,
1780,1670,-0.487809,-0.897749,0.999998,0.000152,-0.001216,0.002529,-0.000020,0.002529,-0.001216,-89.698050,0.002529,
1620,840,-0.642733,-3.034325,0.999997,0.000183,-0.001462,0.002880,-0.000304,0.002902,-0.001483,-86.011505,0.002902,
1000,820,0.340856,-3.269353,0.999997,0.000199,-0.001952,0.003290,-0.000336,0.003311,-0.001973,-86.352024,0.003331,
1240,1200,-0.023164,-1.207444,0.999998,0.000000,-0.002713,0.000761,0.000068,0.000763,-0.002714,88.879007,0.002799,
710,1220,0.818804,-2.044589,0.999998,0.000168,-0.001271,0.002554,-0.000264,0.002572,-0.001290,-86.071864,0.002572,
1530,340,-0.189335,-4.421211,0.999998,0.000195,-0.000813,0.002252,-0.000021,0.002252,-0.000813,-89.598568,0.002281,
1020,1430,0.186031,-1.191885,0.999998,0.000161,-0.001303,0.002354,0.000530,0.002429,-0.001379,81.926077,0.002437,
1200,1680,0.017343,-0.588790,0.999998,0.000161,-0.000567,0.001769,0.000045,0.001770,-0.000568,88.884668,0.001808,
1050,1800,0.074838,-0.400217,0.999998,0.000189,-0.000542,0.001850,-0.000027,0.001850,-0.000542,-89.363131,0.001902,
1370,560,-0.098896,-4.068702,0.999999,0.000120,-0.000889,0.001921,0.000430,0.001986,-0.000954,81.487186,0.001986,
1750,450,-0.500130,-4.003467,0.999998,0.000167,-0.001284,0.002539,0.000041,0.002539,-0.001285,89.378156,0.002539,
800,450,0.390370,-4.071727,0.999998,0.000162,-0.001228,0.002486,-0.000083,0.002488,-0.001230,-88.720931,0.002488,
1820,1700,-0.514508,-0.856069,0.999998,0.000181,-0.001260,0.002504,-0.000013,0.002504,-0.001260,-89.798143,0.002504,
1450,1290,-0.257214,-1.572722,0.999997,0.000174,-0.001845,0.002983,-0.000592,0.003055,-0.001916,-83.115557,0.003088,
1420,1510,-0.146470,-0.987405,0.999998,0.000153,-0.001033,0.002141,-0.000406,0.002192,-0.001084,-82.826752,0.002192,
710,890,0.864234,-2.856045,0.999998,0.000154,-0.001189,0.002493,0.000247,0.002509,-0.001205,86.185116,0.002510,
720,1470,0.585631,-1.381150,0.999997,0.000202,-0.001356,0.002619,0.000012,0.002619,-0.001356,89.829616,0.002620,
1200,290,0.013558,-4.601240,0.999998,0.000167,-0.000440,0.001736,-0.000011,0.001736,-0.000440,-89.708360,0.001806,
1180,530,0.033525,-4.175478,0.999998,0.000157,-0.000620,0.001725,-0.000162,0.001736,-0.000631,-86.062331,0.001758,
1780,1390,-0.699302,-1.618623,0.999997,0.000211,-0.001321,0.002624,0.000085,0.002625,-0.001323,88.764902,0.002625,
880,1300,0.489514,-1.726722,0.999997,0.000192,-0.001686,0.002977,-0.000051,0.002977,-0.001687,-89.368040,0.002986,
1850,320,-0.521589,-4.247526,0.999998,0.000198,-0.001218,0.002481,0.000036,0.002481,-0.001218,89.443581,0.002481,
1830,40,-0.056549,-4.986387,0.999999,0.000139,-0.000837,0.002274,-0.000789,0.002463,-0.001026,-76.554692,0.002474,
1410,590,-0.141695,-3.969268,0.999998,0.000141,-0.001113,0.002144,0.000485,0.002215,-0.001184,81.700527,0.002217,
1000,470,0.174658,-4.179291,0.999998,0.000163,-0.001003,0.002194,-0.000266,0.002216,-0.001025,-85.283378,0.002218,
1310,490,-0.050681,-4.235853,0.999999,0.000133,-0.000717,0.001807,0.000197,0.001822,-0.000733,85.568154,0.001834,
960,1300,0.345991,-1.631311,0.999998,0.000187,-0.001813,0.003063,0.000299,0.003081,-0.001831,86.506539,0.003100,
1780,1260,-0.817466,-1.954225,0.999999,0.000151,-0.001252,0.002499,0.000217,0.002511,-0.001264,86.703586,0.002511,
670,630,0.687288,-3.502905,0.999998,0.000190,-0.001308,0.002596,0.000046,0.002597,-0.001308,89.320486,0.002597,
1830,1120,-0.977270,-2.309487,0.999999,0.000138,-0.001080,0.002318,0.000150,0.002324,-0.001087,87.482469,0.002326,
1790,1840,-0.340238,-0.474013,0.999997,0.000208,-0.001134,0.002542,0.000260,0.002561,-0.001152,85.969976,0.002565,
790,990,0.827505,-2.615351,0.999998,0.000153,-0.001025,0.002535,0.000119,0.002539,-0.001029,88.081550,0.002555,
1530,810,-0.456871,-3.197899,0.999997,0.000191,-0.001817,0.003194,-0.000040,0.003194,-0.001817,-89.540961,0.003204,
1030,1280,0.234275,-1.565409,0.999997,0.000207,-0.001841,0.002900,0.000687,0.002998,-0.001938,81.914111,0.003041,
1360,680,-0.091537,-3.847814,0.999999,0.000140,-0.001069,0.001914,0.000748,0.002092,-0.001246,76.676130,0.002104,
1790,1580,-0.566710,-1.132761,0.999998,0.000177,-0.001287,0.002537,-0.000028,0.002537,-0.001287,-89.585340,0.002537,
960,1490,0.246498,-1.114951,0.999998,0.000153,-0.001255,0.002460,0.000341,0.002491,-0.001286,84.794943,0.002491,
1700,1500,-0.506522,-1.266174,0.999997,0.000189,-0.001375,0.002633,-0.000053,0.002633,-0.001375,-89.246744,0.002634,
1150,1210,0.123527,-1.346174,0.999998,0.000175,-0.001116,0.001014,0.000593,0.001168,-0.001270,75.454375,0.001412,
1490,1430,-0.249606,-1.249063,0.999998,0.000173,-0.001444,0.002526,-0.000434,0.002573,-0.001491,-83.839759,0.002584,
1590,1700,-0.252943,-0.686820,0.999998,0.000156,-0.001020,0.002335,-0.000026,0.002335,-0.001020,-89.548762,0.002341,
910,1620,0.254441,-0.847207,0.999998,0.000157,-0.001104,0.002368,0.000149,0.002374,-0.001111,87.543792,0.002376,
1260,340,-0.014358,-4.512396,0.999998,0.000161,-0.000507,0.001783,0.000037,0.001784,-0.000508,89.082005,0.001838,
1650,1970,-0.067064,-0.118956,0.999999,0.000147,-0.000296,0.001908,0.000479,0.002008,-0.000395,78.263935,0.002127,
1520,750,-0.374080,-3.398655,0.999998,0.000149,-0.001809,0.003054,0.000238,0.003066,-0.001820,87.204798,0.003084,
560,740,0.925882,-3.142880,0.999994,0.000000,-0.001514,0.002855,-0.000025,0.002855,-0.001514,-89.674870,0.002857,
590,980,1.038266,-2.622079,0.999998,0.000180,-0.001009,0.002103,0.000000,0.002103,-0.001009,89.999669,0.002104,
1240,860,-0.045027,-3.840450,0.999964,0.000000,-0.003223,0.000349,0.000114,0.000353,-0.003227,88.173650,0.003540,
860,1950,0.071873,-0.152726,0.999999,0.000155,-0.000352,0.001903,-0.000358,0.001958,-0.000407,-81.183567,0.002066,
840,680,0.486143,-3.496912,0.999997,0.000210,-0.001553,0.002792,-0.000024,0.002793,-0.001553,-89.683475,0.002798,
870,1080,0.739815,-2.379019,0.999997,0.000214,-0.001003,0.002756,-0.000244,0.002772,-0.001019,-86.307344,0.002804,
1000,800,0.315344,-3.334120,0.999998,0.000186,-0.001935,0.003153,-0.000415,0.003187,-0.001968,-85.369308,0.003216,
960,890,0.525118,-2.968773,0.999998,0.000170,-0.001643,0.003336,0.000204,0.003344,-0.001651,87.660384,0.003345,
1620,860,-0.663439,-2.976522,0.999998,0.000184,-0.001414,0.002876,-0.000332,0.002902,-0.001440,-85.603294,0.002902,
1820,1680,-0.531227,-0.904802,0.999998,0.000179,-0.001254,0.002529,-0.000025,0.002529,-0.001254,-89.621394,0.002529,
570,1220,0.983974,-2.110806,0.999998,0.000157,-0.001119,0.002268,-0.000037,0.002269,-0.001120,-89.373134,0.002269,
1050,560,0.140732,-4.027733,0.999999,0.000143,-0.001060,0.002116,-0.000431,0.002174,-0.001117,-82.402209,0.002174,
1200,1640,0.016978,-0.660029,0.999998,0.000189,-0.000589,0.001763,0.000073,0.001765,-0.000592,88.233434,0.001797,
570,1460,0.795694,-1.523520,0.999956,0.000722,-0.001901,0.002369,-0.000120,0.002372,-0.001904,-88.393942,0.002513,
1180,290,0.022789,-4.599762,0.999999,0.000137,-0.000423,0.001736,0.000006,0.001736,-0.000423,89.837311,0.001810,
1400,1510,-0.127018,-0.968244,0.999999,0.000134,-0.000960,0.002044,-0.000369,0.002089,-0.001004,-83.098489,0.002089,
1540,570,-0.297212,-3.873920,0.999998,0.000186,-0.001340,0.002507,0.000271,0.002526,-0.001359,85.993449,0.002528,
1260,550,-0.017800,-4.146439,0.999999,0.000141,-0.000628,0.001623,0.000126,0.001630,-0.000635,86.798324,0.001644,
1550,660,-0.358381,-3.625009,0.999998,0.000172,-0.001542,0.002785,0.000237,0.002798,-0.001555,86.870051,0.002804,
1890,1570,-0.700368,-1.238981,0.999998,0.000193,-0.001232,0.002516,-0.000036,0.002517,-0.001232,-89.451760,0.002517,
720,270,0.345803,-4.462876,0.999998,0.000193,-0.001116,0.002510,0.000135,0.002515,-0.001121,87.875402,0.002520,
1320,790,-0.070016,-3.741607,0.999998,0.000166,-0.001074,0.001449,0.001048,0.001828,-0.001452,70.144761,0.001931,
750,1870,0.222913,-0.351714,0.999998,0.000165,-0.000780,0.002352,-0.000420,0.002408,-0.000835,-82.494093,0.002445,
880,1280,0.508990,-1.786566,0.999997,0.000188,-0.001684,0.002978,-0.000106,0.002980,-0.001686,-88.693316,0.002989,
660,490,0.593796,-3.857074,0.999997,0.000203,-0.001287,0.002566,-0.000029,0.002566,-0.001287,-89.573003,0.002566,
1310,470,-0.049280,-4.272360,0.999999,0.000143,-0.000715,0.001811,0.000177,0.001824,-0.000727,86.002127,0.001836,
920,1360,0.370634,-1.505609,0.999998,0.000202,-0.001671,0.002887,0.000231,0.002899,-0.001682,87.102857,0.002911,
1530,790,-0.433213,-3.261182,0.999997,0.000184,-0.001834,0.003147,0.000044,0.003148,-0.001835,89.489813,0.003162,
1050,1430,0.150317,-1.151509,0.999999,0.000144,-0.001172,0.002186,0.000565,0.002279,-0.001264,80.693579,0.002283,
1890,50,-0.132967,-4.922048,0.999997,0.000219,-0.000510,0.003479,-0.001609,0.004047,-0.001078,-70.553062,0.004192,
1590,680,-0.435644,-3.526860,0.999998,0.000184,-0.001605,0.002856,0.000090,0.002858,-0.001607,88.846874,0.002865,
1700,1480,-0.520024,-1.319267,0.999997,0.000193,-0.001385,0.002631,-0.000043,0.002631,-0.001385,-89.380710,0.002633,
1260,320,-0.015222,-4.547664,0.999998,0.000170,-0.000508,0.001767,0.000027,0.001767,-0.000509,89.310955,0.001820,
840,660,0.470942,-3.552210,0.999997,0.000179,-0.001532,0.002816,-0.000065,0.002817,-0.001533,-89.142259,0.002821,
580,980,1.048712,-2.620517,0.999998,0.000168,-0.000907,0.002070,-0.000031,0.002071,-0.000907,-89.399576,0.002076,
1490,1410,-0.258032,-1.302882,0.999998,0.000170,-0.001498,0.002620,-0.000435,0.002666,-0.001544,-84.031089,0.002677,
630,890,0.955948,-2.832125,0.999998,0.000149,-0.001123,0.002326,0.000129,0.002330,-0.001128,87.864109,0.002331,
1000,1590,0.173268,-0.850405,0.999998,0.000174,-0.000989,0.002203,0.000259,0.002224,-0.001010,85.393811,0.002227,
1150,830,0.098371,-3.710132,0.999998,0.000171,-0.001112,0.001177,-0.000829,0.001446,-0.001381,-72.038113,0.001634,
790,800,0.677219,-3.121787,0.999998,0.000184,-0.001450,0.002778,0.000250,0.002793,-0.001465,86.628768,0.002794,
1490,720,-0.298406,-3.531470,0.999998,0.000193,-0.001737,0.002893,0.000408,0.002928,-0.001773,84.996118,0.002950,
1360,1630,-0.079357,-0.707252,0.999998,0.000175,-0.000682,0.001907,-0.000149,0.001915,-0.000691,-86.717153,0.001940,
1670,1280,-0.647108,-1.846778,0.999997,0.000202,-0.001465,0.002815,0.000234,0.002827,-0.001477,86.883024,0.002828,
1650,1950,-0.087980,-0.158567,0.999999,0.000158,-0.000372,0.002001,0.000458,0.002087,-0.000457,79.439428,0.002194,
1750,430,-0.484665,-4.052805,0.999998,0.000173,-0.001276,0.002542,0.000033,0.002542,-0.001276,89.501464,0.002542,
890,1620,0.277049,-0.863101,0.999998,0.000186,-0.001096,0.002364,0.000122,0.002369,-0.001100,87.978979,0.002371,
1360,640,-0.092479,-3.924985,0.999998,0.000154,-0.000992,0.001886,0.000573,0.001996,-0.001101,79.149096,0.002000,
1240,850,-0.021877,-3.833941,0.999998,0.000000,-0.002541,0.000553,0.000026,0.000553,-0.002542,89.510785,0.002673,
560,730,0.919635,-3.175905,0.999992,0.000000,-0.001512,0.002780,0.000096,0.002782,-0.001514,88.717523,0.002785,
1000,780,0.297561,-3.396486,0.999997,0.000197,-0.001906,0.003062,-0.000470,0.003106,-0.001950,-84.644660,0.003140,
1280,1950,-0.005564,-0.130052,0.999999,0.000143,-0.000131,0.001576,0.000052,0.001577,-0.000133,88.240697,0.001750,
1560,210,-0.134080,-4.688163,0.999998,0.000164,-0.000601,0.002049,-0.000195,0.002063,-0.000615,-85.817196,0.002118,
1820,1660,-0.545747,-0.954189,0.999998,0.000179,-0.001253,0.002517,-0.000044,0.002517,-0.001254,-89.336472,0.002517,
940,890,0.557475,-2.945583,0.999997,0.000193,-0.001585,0.003211,0.000282,0.003227,-0.001601,86.649484,0.003227,
1560,2010,-0.016505,-0.042591,0.999999,0.000148,-0.000074,0.001650,0.000344,0.001717,-0.000140,79.118929,0.001906,
710,870,0.847222,-2.906243,0.999998,0.000166,-0.001215,0.002513,0.000259,0.002531,-0.001233,86.045889,0.002531,
1620,1300,-0.549646,-1.756301,0.999998,0.000186,-0.001600,0.002918,0.000118,0.002921,-0.001603,88.509382,0.002926,
1810,1140,-0.944494,-2.258086,0.999998,0.000167,-0.001115,0.002349,0.000153,0.002355,-0.001122,87.473189,0.002356,
1420,1930,-0.034303,-0.170053,0.999999,0.000141,-0.000248,0.001691,0.000092,0.001696,-0.000253,87.288379,0.001830,
1030,1820,0.079063,-0.368722,0.999998,0.000191,-0.000529,0.001894,-0.000071,0.001896,-0.000531,-88.325561,0.001956,
640,1430,0.721546,-1.544971,0.999997,0.000207,-0.001280,0.002573,-0.000035,0.002573,-0.001281,-89.473234,0.002573,
1300,790,-0.049783,-3.791068,0.999999,0.000142,-0.000955,0.001119,0.000887,0.001447,-0.001283,69.736146,0.001584,
1220,1410,0.006076,-1.031310,0.999999,0.000119,-0.000579,0.001339,0.000103,0.001345,-0.000585,86.944855,0.001349,
1300,290,-0.029970,-4.597885,0.999999,0.000138,-0.000420,0.001769,-0.000009,0.001769,-0.000420,-89.753998,0.001848,
1780,1650,-0.503928,-0.947610,0.999998,0.000188,-0.001210,0.002539,-0.000048,0.002539,-0.001210,-89.266958,0.002540,
1440,1310,-0.224565,-1.493018,0.999997,0.000192,-0.001749,0.002813,-0.000677,0.002912,-0.001847,-81.730982,0.002947,
1240,30,0.000340,-5.023281,0.999999,0.000000,-0.000061,0.001449,-0.000038,0.001450,-0.000062,-88.554696,0.001640,
1200,1620,0.018089,-0.695836,0.999998,0.000171,-0.000595,0.001774,0.000060,0.001775,-0.000597,88.544445,0.001807,
1750,410,-0.470408,-4.103656,0.999998,0.000189,-0.001240,0.002539,0.000033,0.002540,-0.001240,89.504739,0.002540,
1260,530,-0.018658,-4.179461,0.999998,0.000160,-0.000633,0.001670,0.000083,0.001673,-0.000636,87.942597,0.001689,
1780,1240,-0.835122,-2.004692,0.999999,0.000154,-0.001262,0.002523,0.000224,0.002536,-0.001275,86.625488,0.002536,
1020,1490,0.174181,-1.052331,0.999999,0.000117,-0.001105,0.002222,0.000404,0.002270,-0.001153,83.176860,0.002270,
1180,1350,0.027906,-1.128271,0.999999,0.000152,-0.000632,0.001215,0.000503,0.001343,-0.000761,75.712805,0.001347,
670,610,0.672473,-3.555717,0.999998,0.000201,-0.001318,0.002589,0.000029,0.002589,-0.001319,89.575324,0.002589,
700,270,0.368266,-4.447517,0.999998,0.000220,-0.001203,0.002505,0.000131,0.002510,-0.001208,87.981485,0.002510,
1530,770,-0.410844,-3.323697,0.999998,0.000169,-0.001834,0.003095,0.000118,0.003098,-0.001837,88.629292,0.003115,
1520,1310,-0.369287,-1.625535,0.999998,0.000168,-0.001788,0.003028,-0.000217,0.003038,-0.001798,-87.421100,0.003055,
1130,1700,0.055176,-0.564192,0.999998,0.000139,-0.000612,0.001828,0.000102,0.001833,-0.000616,87.615728,0.001865,
1050,580,0.142722,-3.984330,0.999999,0.000135,-0.001096,0.002137,-0.000473,0.002204,-0.001163,-81.845663,0.002205,
1310,450,-0.048071,-4.308448,0.999999,0.000138,-0.000701,0.001809,0.000157,0.001819,-0.000710,86.427407,0.001834,
840,640,0.456437,-3.609321,0.999997,0.000186,-0.001516,0.002770,-0.000086,0.002772,-0.001517,-88.851862,0.002776,
1650,1930,-0.109772,-0.198808,0.999999,0.000151,-0.000478,0.002052,0.000431,0.002124,-0.000549,80.603271,0.002205,
960,1720,0.164686,-0.594832,0.999998,0.000198,-0.000864,0.002172,0.000055,0.002173,-0.000865,88.958686,0.002188,
980,1050,0.650538,-2.443362,0.999998,0.000199,-0.001048,0.003549,-0.000067,0.003550,-0.001049,-89.164315,0.003648,
1050,1410,0.150305,-1.197396,0.999998,0.000148,-0.001254,0.002246,0.000596,0.002345,-0.001352,80.591036,0.002354,
1000,760,0.277731,-3.457490,0.999997,0.000190,-0.001856,0.003017,-0.000503,0.003069,-0.001907,-84.164887,0.003099,
1100,340,0.070180,-4.494061,0.999998,0.000175,-0.000545,0.001855,-0.000048,0.001856,-0.000546,-88.850291,0.001908,
1110,1760,0.056928,-0.461481,0.999998,0.000144,-0.000502,0.001839,0.000025,0.001839,-0.000503,89.399615,0.001901,
1430,1070,-0.563316,-2.308419,0.999997,0.000203,-0.001879,0.004726,-0.000591,0.004779,-0.001932,-84.929214,0.004808,
790,970,0.821690,-2.665793,0.999998,0.000160,-0.001048,0.002585,0.000182,0.002594,-0.001057,87.144837,0.002609,
800,230,0.226271,-4.605903,0.999998,0.000176,-0.000927,0.002344,0.000210,0.002358,-0.000940,86.335372,0.002374,
750,1850,0.247012,-0.399786,0.999998,0.000180,-0.000860,0.002381,-0.000355,0.002419,-0.000898,-83.813079,0.002446,
1540,550,-0.287345,-3.924847,0.999998,0.000179,-0.001305,0.002511,0.000265,0.002529,-0.001323,86.053320,0.002530,
1550,640,-0.345633,-3.680461,0.999998,0.000177,-0.001501,0.002746,0.000246,0.002760,-0.001515,86.698521,0.002764,
670,800,0.838308,-3.068269,0.999998,0.000162,-0.001256,0.002525,0.000218,0.002538,-0.001268,86.714991,0.002538,
1450,1270,-0.275796,-1.634215,0.999998,0.000174,-0.001899,0.003055,-0.000545,0.003114,-0.001958,-83.799665,0.003148,
1490,1390,-0.265821,-1.354542,0.999998,0.000165,-0.001543,0.002706,-0.000445,0.002752,-0.001589,-84.081254,0.002763,
1150,810,0.074811,-3.734162,0.999998,0.000180,-0.001116,0.001247,-0.000969,0.001593,-0.001462,-70.322825,0.001769,
1770,940,-0.912494,-2.729384,0.999999,0.000137,-0.001143,0.002429,-0.000179,0.002438,-0.001152,-87.137344,0.002439,
1820,1640,-0.561163,-1.005189,0.999998,0.000167,-0.001278,0.002552,-0.000022,0.002552,-0.001278,-89.671629,0.002552,
920,1800,0.155677,-0.441508,0.999998,0.000172,-0.000654,0.002097,-0.000141,0.002104,-0.000661,-87.073596,0.002152,
620,150,0.306076,-4.686457,0.999998,0.000161,-0.001251,0.002612,0.000256,0.002629,-0.001268,86.220038,0.002629,
1580,300,-0.209863,-4.484888,0.999998,0.000180,-0.000899,0.002273,-0.000055,0.002274,-0.000900,-89.005852,0.002291,
830,1680,0.307999,-0.761092,0.999997,0.000183,-0.001061,0.002378,0.000034,0.002379,-0.001061,89.441513,0.002383,
560,720,0.917007,-3.209556,0.999991,0.000000,-0.001546,0.002483,0.000205,0.002494,-0.001557,87.100611,0.002519,
880,1260,0.531860,-1.846063,0.999997,0.000192,-0.001682,0.003047,-0.000147,0.003052,-0.001687,-88.223259,0.003057,
1490,700,-0.284704,-3.588967,0.999998,0.000222,-0.001673,0.002843,0.000439,0.002885,-0.001716,84.493076,0.002902,
720,1190,0.831465,-2.117683,0.999998,0.000184,-0.001271,0.002539,-0.000261,0.002557,-0.001289,-86.099077,0.002557,
570,980,1.057332,-2.617296,0.999996,0.000234,-0.000840,0.002047,-0.000058,0.002048,-0.000841,-88.858994,0.002059,
1620,1280,-0.570690,-1.814446,0.999997,0.000183,-0.001570,0.002914,0.000178,0.002921,-0.001577,87.734316,0.002924,
700,2010,0.048068,-0.052998,0.999999,0.000156,-0.000304,0.002057,-0.000772,0.002287,-0.000534,-73.402245,0.002393,
1880,1570,-0.687333,-1.231118,0.999998,0.000174,-0.001236,0.002518,-0.000028,0.002518,-0.001236,-89.574468,0.002518,
1280,290,-0.022367,-4.599685,0.999998,0.000142,-0.000413,0.001772,-0.000010,0.001772,-0.000413,-89.728725,0.001855,
1700,1460,-0.535922,-1.374211,0.999998,0.000190,-0.001399,0.002655,-0.000030,0.002655,-0.001399,-89.581952,0.002656,
1360,620,-0.091879,-3.962528,0.999999,0.000140,-0.000958,0.001900,0.000510,0.001988,-0.001046,80.178106,0.001989,
1210,1560,0.013714,-0.800291,0.999999,0.000159,-0.000631,0.001723,0.000090,0.001726,-0.000635,87.825178,0.001746,
1830,320,-0.496684,-4.266735,0.999997,0.000199,-0.001211,0.002497,0.000003,0.002497,-0.001211,89.954265,0.002498,
1410,570,-0.138915,-4.008756,0.999998,0.000146,-0.001072,0.002084,0.000466,0.002152,-0.001140,81.779227,0.002153,
1260,1950,-0.003292,-0.130585,0.999999,0.000138,-0.000127,0.001555,0.000000,0.001555,-0.000127,-89.987786,0.001727,
710,850,0.830981,-2.958016,0.999998,0.000151,-0.001208,0.002530,0.000263,0.002548,-0.001227,86.001502,0.002549,
1780,1220,-0.852228,-2.053624,0.999999,0.000153,-0.001231,0.002492,0.000213,0.002504,-0.001244,86.734266,0.002504,
1570,680,-0.402604,-3.546785,0.999997,0.000196,-0.001619,0.002860,0.000156,0.002865,-0.001624,88.013238,0.002874,
630,870,0.942649,-2.881308,0.999999,0.000136,-0.001147,0.002378,0.000161,0.002385,-0.001154,87.394577,0.002386,
1200,1600,0.018183,-0.732606,0.999999,0.000138,-0.000597,0.001776,0.000077,0.001779,-0.000599,88.143429,0.001810,
1240,530,-0.005448,-4.183838,0.999999,0.000139,-0.000652,0.001646,0.000040,0.001647,-0.000652,88.992858,0.001658,
570,1210,0.991209,-2.133388,0.999998,0.000149,-0.001087,0.002249,-0.000035,0.002249,-0.001088,-89.390681,0.002249,
1420,1090,-0.521350,-2.187992,0.999996,0.000215,-0.001897,0.004597,-0.001061,0.004765,-0.002066,-80.955668,0.004779,
640,50,0.072570,-4.969768,0.999998,0.000179,-0.000713,0.002261,0.000810,0.002467,-0.000920,75.717834,0.002493,
1180,1330,0.027534,-1.151951,0.999999,0.000144,-0.000646,0.001118,0.000544,0.001272,-0.000800,74.176741,0.001286,
670,590,0.656052,-3.607998,0.999998,0.000185,-0.001302,0.002596,0.000036,0.002596,-0.001302,89.463898,0.002596,
960,1270,0.377400,-1.726189,0.999998,0.000180,-0.001852,0.003170,0.000182,0.003176,-0.001858,87.927850,0.003191,
1650,1910,-0.129573,-0.241178,0.999998,0.000168,-0.000568,0.002092,0.000418,0.002156,-0.000632,81.272606,0.002217,
750,1830,0.268334,-0.448996,0.999998,0.000169,-0.000905,0.002414,-0.000290,0.002439,-0.000930,-85.047926,0.002462,
1110,1700,0.066319,-0.571651,0.999998,0.000170,-0.000591,0.001855,0.000095,0.001858,-0.000595,87.776413,0.001898,
1310,430,-0.046460,-4.345691,0.999999,0.000142,-0.000672,0.001807,0.000132,0.001814,-0.000679,86.951615,0.001833,
840,620,0.442769,-3.662591,0.999997,0.000179,-0.001493,0.002718,-0.000107,0.002720,-0.001495,-88.542495,0.002725,
1370,520,-0.097037,-4.146282,0.999999,0.000135,-0.000876,0.001967,0.000333,0.002006,-0.000915,83.406867,0.002008,
960,1050,0.671082,-2.449170,0.999997,0.000201,-0.000992,0.003254,-0.000106,0.003256,-0.000995,-88.573801,0.003338,
1450,1250,-0.296756,-1.695354,0.999997,0.000188,-0.001920,0.003138,-0.000497,0.003186,-0.001968,-84.445649,0.003215,
1000,740,0.263180,-3.517390,0.999998,0.000184,-0.001794,0.002897,-0.000545,0.002960,-0.001857,-83.465329,0.002991,
1050,1390,0.154957,-1.241353,0.999998,0.000164,-0.001335,0.002299,0.000662,0.002416,-0.001452,79.991758,0.002432,
860,850,0.627671,-3.014297,0.999998,0.000160,-0.001492,0.002946,0.000300,0.002966,-0.001513,86.146194,0.002967,
1820,1620,-0.576824,-1.057065,0.999998,0.000169,-0.001293,0.002516,-0.000016,0.002516,-0.001293,-89.762153,0.002516,
1530,750,-0.391892,-3.384229,0.999998,0.000177,-0.001812,0.003053,0.000179,0.003060,-0.001818,87.893748,0.003078,
1010,920,0.495680,-2.941833,0.999997,0.000191,-0.001633,0.003646,-0.000104,0.003648,-0.001635,-88.870358,0.003655,
880,1240,0.554834,-1.908383,0.999998,0.000178,-0.001641,0.003039,-0.000198,0.003048,-0.001649,-87.581591,0.003051,
1890,1010,-1.061347,-2.557596,0.999998,0.000159,-0.000998,0.002057,-0.000048,0.002058,-0.000999,-89.101129,0.002058,
810,1680,0.330518,-0.775723,0.999998,0.000159,-0.001130,0.002439,0.000015,0.002439,-0.001130,89.752557,0.002442,
620,130,0.268948,-4.739988,0.999998,0.000163,-0.001247,0.002662,0.000333,0.002690,-0.001275,85.164292,0.002691,
1490,1370,-0.274676,-1.410197,0.999998,0.000174,-0.001604,0.002743,-0.000447,0.002789,-0.001650,-84.196296,0.002804,
1580,280,-0.196164,-4.531207,0.999998,0.000161,-0.000844,0.002196,-0.000083,0.002198,-0.000846,-88.433989,0.002217,
700,1710,0.436333,-0.781944,0.999997,0.000178,-0.001201,0.002508,0.000004,0.002508,-0.001201,89.943800,0.002509,
1780,1200,-0.867609,-2.103993,0.999998,0.000158,-0.001223,0.002465,0.000222,0.002478,-0.001237,86.572213,0.002478,
1150,1560,0.052544,-0.816298,0.999999,0.000139,-0.000700,0.001796,0.000209,0.001814,-0.000718,85.242796,0.001827,
1240,290,-0.003295,-4.602642,0.999998,0.000177,-0.000457,0.001768,0.000014,0.001768,-0.000457,89.642700,0.001836,
800,210,0.206736,-4.651556,0.999998,0.000191,-0.000889,0.002286,0.000249,0.002305,-0.000908,85.538926,0.002322,
1150,790,0.062003,-3.761766,0.999998,0.000169,-0.001021,0.001325,-0.001004,0.001696,-0.001392,-69.726961,0.001809,
670,1380,0.726616,-1.652774,0.999997,0.000200,-0.001306,0.002578,-0.000086,0.002580,-0.001308,-88.724818,0.002580,
560,710,0.897534,-3.223434,0.999984,0.000000,-0.001588,0.002209,0.000221,0.002222,-0.001601,86.673026,0.002293,
810,520,0.420205,-3.903257,0.999997,0.000179,-0.001311,0.002583,-0.000110,0.002586,-0.001314,-88.380339,0.002586,
590,180,0.388550,-4.572540,0.999997,0.000219,-0.001149,0.002592,0.000120,0.002596,-0.001153,88.161267,0.002602,
1360,600,-0.090898,-3.998041,0.999999,0.000131,-0.000941,0.001889,0.000483,0.001970,-0.001021,80.573250,0.001970,
930,200,0.113550,-4.714279,0.999998,0.000166,-0.000501,0.001999,0.000195,0.002015,-0.000516,85.566566,0.002093,
670,570,0.639636,-3.660131,0.999998,0.000166,-0.001275,0.002579,-0.000008,0.002579,-0.001275,-89.879386,0.002579,
840,1930,0.099029,-0.195945,0.999999,0.000135,-0.000403,0.001995,-0.000409,0.002063,-0.000471,-80.584134,0.002162,
750,1810,0.289544,-0.495889,0.999998,0.000182,-0.000944,0.002476,-0.000243,0.002493,-0.000961,-85.953101,0.002515,
1420,1080,-0.532591,-2.236892,0.999997,0.000204,-0.002007,0.004876,-0.000997,0.005018,-0.002149,-81.921030,0.005035,
750,620,0.571502,-3.589269,0.999998,0.000179,-0.001394,0.002652,0.000005,0.002652,-0.001394,89.934890,0.002653,
1410,550,-0.136806,-4.052439,0.999999,0.000143,-0.000999,0.002103,0.000414,0.002158,-0.001053,82.519591,0.002158,
1650,1890,-0.151730,-0.283235,0.999998,0.000155,-0.000658,0.002134,0.000412,0.002193,-0.000718,81.779772,0.002237,
1310,410,-0.045931,-4.379912,0.999998,0.000149,-0.000637,0.001816,0.000104,0.001821,-0.000641,87.575903,0.001847,
1700,1440,-0.549749,-1.427137,0.999997,0.000202,-0.001406,0.002673,-0.000013,0.002673,-0.001406,-89.823754,0.002674,
1330,1220,-0.127330,-1.395811,0.999998,0.000189,-0.001183,0.001483,-0.000967,0.001797,-0.001496,-72.020670,0.001925,
1290,1700,-0.031568,-0.557999,0.999999,0.000133,-0.000497,0.001793,-0.000024,0.001794,-0.000497,-89.408869,0.001852,
840,600,0.429655,-3.717998,0.999997,0.000185,-0.001453,0.002690,-0.000117,0.002693,-0.001457,-88.379145,0.002696,
1000,720,0.251148,-3.574846,0.999997,0.000206,-0.001698,0.002764,-0.000553,0.002831,-0.001766,-83.040413,0.002860,
980,1030,0.655056,-2.512651,0.999998,0.000202,-0.001027,0.003417,-0.000002,0.003417,-0.001027,-89.973609,0.003506,
1200,1580,0.020028,-0.765931,0.999999,0.000144,-0.000605,0.001734,0.000082,0.001736,-0.000608,87.984339,0.001762,
580,1220,0.972338,-2.103198,0.999999,0.000118,-0.001120,0.002286,-0.000057,0.002287,-0.001121,-89.039960,0.002287,
860,830,0.604808,-3.073881,0.999997,0.000187,-0.001550,0.002954,0.000267,0.002970,-0.001565,86.623929,0.002971,
1260,590,-0.016934,-4.083226,0.999998,0.000166,-0.000643,0.001542,0.000132,0.001550,-0.000651,86.560976,0.001556,
1050,1370,0.159952,-1.289586,0.999998,0.000156,-0.001403,0.002382,0.000724,0.002515,-0.001537,79.537734,0.002536,
710,830,0.813780,-3.007217,0.999998,0.000152,-0.001254,0.002583,0.000257,0.002600,-0.001271,86.190430,0.002600,
1710,1000,-0.867878,-2.587811,0.999998,0.000164,-0.001054,0.002483,-0.000067,0.002484,-0.001055,-88.907708,0.002493,
1820,1600,-0.590064,-1.106497,0.999998,0.000175,-0.001281,0.002521,-0.000032,0.002521,-0.001281,-89.513083,0.002521,
920,1780,0.165243,-0.482748,0.999998,0.000162,-0.000689,0.002162,-0.000101,0.002165,-0.000692,-87.976322,0.002212,
1880,1780,-0.515775,-0.710794,0.999997,0.000228,-0.001245,0.002451,-0.000005,0.002451,-0.001245,-89.926842,0.002451,
1880,1010,-1.050710,-2.557981,0.999998,0.000168,-0.001010,0.002112,-0.000051,0.002113,-0.001011,-89.072037,0.002114,
1580,260,-0.183356,-4.573805,0.999998,0.000150,-0.000803,0.002148,-0.000104,0.002151,-0.000807,-87.977235,0.002174,
1490,1350,-0.288032,-1.465396,0.999997,0.000193,-0.001672,0.002825,-0.000446,0.002868,-0.001716,-84.391639,0.002887,
1220,290,0.005051,-4.602279,0.999999,0.000123,-0.000441,0.001746,-0.000014,0.001746,-0.000442,-89.631157,0.001816,
910,1820,0.147476,-0.401703,0.999998,0.000177,-0.000603,0.002067,-0.000176,0.002078,-0.000615,-86.235230,0.002136,
630,850,0.928182,-2.930059,0.999999,0.000130,-0.001169,0.002400,0.000160,0.002407,-0.001177,87.441791,0.002408,
930,180,0.100252,-4.754258,0.999998,0.000161,-0.000441,0.001944,0.000210,0.001962,-0.000459,85.000847,0.002053,
1450,1230,-0.322749,-1.758021,0.999997,0.000200,-0.001936,0.003238,-0.000446,0.003276,-0.001974,-85.103695,0.003299,
1150,1540,0.053436,-0.851394,0.999998,0.000157,-0.000705,0.001785,0.000252,0.001810,-0.000730,84.286902,0.001821,
1500,750,-0.337929,-3.428525,0.999997,0.000182,-0.001812,0.003030,0.000309,0.003050,-0.001832,86.361565,0.003071,
1160,1350,0.041068,-1.149277,0.999999,0.000134,-0.000735,0.001389,0.000649,0.001571,-0.000918,74.277079,0.001579,
1150,1280,0.057033,-1.260521,0.999997,0.000195,-0.000985,0.001351,0.000962,0.001696,-0.001330,70.259259,0.001785,
560,700,0.889866,-3.243329,0.999978,0.000000,-0.001597,0.002164,0.000164,0.002172,-0.001604,87.502517,0.002253,
670,550,0.626171,-3.709624,0.999998,0.000163,-0.001287,0.002576,-0.000025,0.002576,-0.001287,-89.627827,0.002576,
1650,940,-0.776800,-2.746658,0.999999,0.000152,-0.001156,0.002633,-0.000263,0.002651,-0.001174,-86.045721,0.002656,
1360,580,-0.091586,-4.037660,0.999998,0.000147,-0.000912,0.001911,0.000448,0.001981,-0.000981,81.192712,0.001981,
1120,110,0.015714,-4.900492,0.999999,0.000127,-0.000172,0.001616,0.000062,0.001619,-0.000175,88.028084,0.001777,
1650,1870,-0.171516,-0.325700,0.999998,0.000166,-0.000715,0.002239,0.000324,0.002274,-0.000750,83.809857,0.002318,
1780,1180,-0.884495,-2.153546,0.999998,0.000148,-0.001202,0.002468,0.000238,0.002484,-0.001217,86.305594,0.002484,
1760,190,-0.274553,-4.651796,0.999998,0.000157,-0.001115,0.002493,-0.000285,0.002515,-0.001137,-85.505719,0.002519,
850,1200,0.649094,-2.045240,0.999998,0.000184,-0.001461,0.002884,-0.000322,0.002907,-0.001484,-85.786528,0.002907,
580,180,0.401199,-4.561001,0.999998,0.000184,-0.000884,0.002719,0.000025,0.002719,-0.000884,89.604504,0.002774,
1190,740,0.022794,-3.882761,0.999998,0.000152,-0.000612,0.000979,-0.000485,0.001115,-0.000748,-74.313506,0.001136,
1420,1070,-0.543320,-2.285544,0.999996,0.000235,-0.002150,0.005191,-0.000912,0.005303,-0.002261,-83.025916,0.005322,
1000,700,0.240612,-3.629831,0.999998,0.000185,-0.001632,0.002731,-0.000547,0.002799,-0.001700,-82.965729,0.002820,
980,1010,0.652260,-2.579770,0.999998,0.000193,-0.001061,0.003504,0.000053,0.003505,-0.001062,89.336742,0.003595,
840,580,0.414913,-3.771572,0.999998,0.000172,-0.001410,0.002630,-0.000121,0.002634,-0.001414,-88.280760,0.002636,
750,1790,0.308957,-0.546650,0.999997,0.000188,-0.000976,0.002434,-0.000205,0.002446,-0.000989,-86.566242,0.002461,
1620,1330,-0.521973,-1.669609,0.999997,0.000209,-0.001601,0.002861,0.000062,0.002862,-0.001602,89.204263,0.002869,
1310,390,-0.044352,-4.416777,0.999998,0.000143,-0.000598,0.001822,0.000064,0.001823,-0.000600,88.477191,0.001859,
740,1270,0.733556,-1.902414,0.999998,0.000179,-0.001375,0.002651,-0.000251,0.002666,-0.001391,-86.442732,0.002667,
1150,770,0.053356,-3.785275,0.999998,0.000155,-0.000957,0.001327,-0.000969,0.001683,-0.001313,-69.832771,0.001769,
1400,1720,-0.088859,-0.547098,0.999998,0.000179,-0.000663,0.001937,-0.000069,0.001938,-0.000665,-88.490417,0.001970,
880,1220,0.578701,-1.968064,0.999998,0.000173,-0.001591,0.003023,-0.000253,0.003037,-0.001605,-86.871244,0.003038,
1450,1700,-0.131329,-0.608050,0.999998,0.000141,-0.000722,0.002046,-0.000075,0.002048,-0.000724,-88.441202,0.002077,
1530,730,-0.373688,-3.446197,0.999998,0.000206,-0.001754,0.002984,0.000211,0.002993,-0.001764,87.455659,0.003009,
1700,1420,-0.565108,-1.480712,0.999997,0.000206,-0.001416,0.002702,0.000015,0.002702,-0.001416,89.796531,0.002703,
730,860,0.815977,-2.937461,0.999998,0.000156,-0.001270,0.002568,0.000270,0.002587,-0.001289,85.991936,0.002587,
1820,1580,-0.605843,-1.158071,0.999998,0.000172,-0.001262,0.002541,-0.000032,0.002541,-0.001262,-89.516895,0.002541,
920,1760,0.176734,-0.527731,0.999998,0.000164,-0.000724,0.002137,-0.000079,0.002139,-0.000726,-88.422184,0.002176,
710,810,0.795812,-3.060726,0.999998,0.000186,-0.001307,0.002598,0.000227,0.002611,-0.001321,86.681276,0.002611,
1050,410,0.117529,-4.336965,0.999998,0.000163,-0.000805,0.002016,-0.000183,0.002028,-0.000817,-86.302479,0.002040,
1600,1030,-0.764089,-2.513326,0.999997,0.000196,-0.000953,0.002698,0.000022,0.002699,-0.000953,89.647441,0.002737,
1870,1010,-1.041019,-2.557851,0.999998,0.000175,-0.001016,0.002163,-0.000063,0.002165,-0.001017,-88.859765,0.002166,
830,1920,0.113523,-0.217146,0.999999,0.000161,-0.000418,0.002031,-0.000420,0.002101,-0.000488,-80.537148,0.002200,
1490,1330,-0.299329,-1.523727,0.999997,0.000191,-0.001749,0.002919,-0.000400,0.002953,-0.001783,-85.138071,0.002975,
1870,1780,-0.502471,-0.700960,0.999998,0.000221,-0.001234,0.002447,0.000015,0.002447,-0.001234,89.766406,0.002447,
1580,240,-0.169671,-4.615926,0.999998,0.000151,-0.000767,0.002187,-0.000162,0.002195,-0.000776,-86.877133,0.002227,
1230,1820,0.000229,-0.342841,0.999998,0.000151,-0.000380,0.001716,-0.000001,0.001716,-0.000380,-89.982359,0.001803,
1450,1210,-0.353728,-1.824380,0.999998,0.000176,-0.001962,0.003398,-0.000369,0.003423,-0.001987,-86.079974,0.003438,
920,470,0.259008,-4.115981,0.999999,0.000162,-0.001136,0.002355,-0.000189,0.002365,-0.001146,-86.911344,0.002366,
1130,1420,0.067683,-1.073920,0.999999,0.000150,-0.000862,0.001734,0.000546,0.001844,-0.000972,78.588540,0.001845,
630,830,0.912078,-2.976317,0.999998,0.000140,-0.001163,0.002356,0.000161,0.002363,-0.001170,87.384477,0.002364,
610,1220,0.938741,-2.086067,0.999999,0.000131,-0.001143,0.002344,-0.000125,0.002348,-0.001148,-87.950655,0.002348,
1020,170,0.058391,-4.789050,0.999998,0.000150,-0.000327,0.001788,0.000130,0.001796,-0.000335,86.501903,0.001910,
1090,1340,0.111300,-1.285573,0.999998,0.000135,-0.001256,0.002103,0.000864,0.002312,-0.001465,76.391172,0.002340,
1200,1560,0.019274,-0.802329,0.999998,0.000149,-0.000624,0.001711,0.000096,0.001715,-0.000628,87.651629,0.001735,
1150,560,0.053396,-4.108831,0.999999,0.000137,-0.000759,0.001730,-0.000293,0.001764,-0.000793,-83.381092,0.001767,
670,530,0.610140,-3.763131,0.999998,0.000180,-0.001304,0.002598,-0.000034,0.002598,-0.001304,-89.497426,0.002598,
1190,1420,0.024051,-1.026450,0.999999,0.000130,-0.000631,0.001430,0.000254,0.001461,-0.000661,83.068848,0.001463,
1780,1160,-0.898804,-2.203735,0.999999,0.000143,-0.001185,0.002430,0.000195,0.002440,-0.001196,86.915182,0.002440,
820,170,0.152945,-4.747638,0.999998,0.000157,-0.000604,0.002139,0.000381,0.002191,-0.000656,82.236267,0.002249,
570,180,0.408640,-4.540150,0.999902,0.001114,-0.000737,0.002861,-0.000046,0.002862,-0.000738,-89.270820,0.002972,
1890,580,-0.773244,-3.558751,0.999998,0.000157,-0.001289,0.002570,0.000022,0.002570,-0.001289,89.675873,0.002570,
1000,680,0.231984,-3.683221,0.999998,0.000168,-0.001565,0.002645,-0.000545,0.002714,-0.001634,-82.736290,0.002733,
840,780,0.581163,-3.207619,0.999997,0.000188,-0.001586,0.002929,0.000188,0.002937,-0.001594,87.619037,0.002940,
1410,530,-0.133691,-4.095189,0.999998,0.000157,-0.000918,0.002075,0.000351,0.002116,-0.000959,83.397874,0.002119,
1460,1070,-0.607419,-2.352038,0.999997,0.000206,-0.001344,0.003828,-0.000048,0.003828,-0.001344,-89.472603,0.003884,
1360,560,-0.090429,-4.077652,0.999999,0.000121,-0.000877,0.001882,0.000412,0.001942,-0.000937,81.685111,0.001942,
1780,1290,-0.790444,-1.877978,0.999998,0.000150,-0.001273,0.002618,0.000204,0.002629,-0.001283,87.009565,0.002629,
1650,1850,-0.191125,-0.371677,0.999998,0.000183,-0.000778,0.002245,0.000288,0.002272,-0.000805,84.606501,0.002304,
620,110,0.229737,-4.792388,0.999998,0.000154,-0.001203,0.002661,0.000414,0.002705,-0.001247,83.947217,0.002707,
560,690,0.885770,-3.267971,0.999969,0.000000,-0.001628,0.002459,-0.000083,0.002461,-0.001630,-88.842871,0.002503,
1150,750,0.050961,-3.812654,0.999998,0.000159,-0.000904,0.001369,-0.000909,0.001688,-0.001223,-70.675575,0.001743,
880,1170,0.639382,-2.118221,0.999998,0.000172,-0.001411,0.002992,-0.000343,0.003019,-0.001438,-85.573761,0.003020,
1370,640,-0.102356,-3.912535,0.999998,0.000150,-0.001048,0.001951,0.000603,0.002068,-0.001165,79.051975,0.002073,
1890,1470,-0.776165,-1.495187,0.999998,0.000138,-0.001281,0.002556,0.000009,0.002556,-0.001281,89.866393,0.002556,
1530,710,-0.358768,-3.505232,0.999998,0.000185,-0.001702,0.002919,0.000243,0.002931,-0.001714,87.003413,0.002945,
690,540,0.592085,-3.753864,0.999998,0.000160,-0.001296,0.002600,-0.000010,0.002600,-0.001296,-89.859821,0.002600,
710,860,0.839357,-2.931599,0.999998,0.000156,-0.001206,0.002522,0.000260,0.002540,-0.001224,86.035537,0.002541,
1600,1330,-0.489251,-1.652499,0.999997,0.000189,-0.001657,0.002893,-0.000002,0.002893,-0.001657,-89.979565,0.002903,
1310,370,-0.042117,-4.453684,0.999998,0.000138,-0.000573,0.001816,0.000049,0.001817,-0.000574,88.820670,0.001857,
1050,1350,0.163572,-1.338162,0.999998,0.000147,-0.001464,0.002450,0.000765,0.002595,-0.001608,79.322056,0.002619,
1770,340,-0.440677,-4.263389,0.999997,0.000176,-0.001218,0.002513,-0.000001,0.002513,-0.001218,-89.991011,0.002513,
1820,1560,-0.619464,-1.208415,0.999998,0.000180,-0.001255,0.002557,-0.000049,0.002557,-0.001256,-89.270878,0.002557,
1330,1700,-0.052897,-0.564366,0.999999,0.000149,-0.000619,0.001852,-0.000093,0.001855,-0.000623,-87.849498,0.001888,
880,460,0.299096,-4.110118,0.999998,0.000182,-0.001164,0.002421,-0.000137,0.002426,-0.001169,-87.818888,0.002427,
1490,1310,-0.316765,-1.583831,0.999998,0.000175,-0.001821,0.002991,-0.000360,0.003018,-0.001848,-85.746699,0.003043,
1890,1100,-1.051171,-2.370850,0.999998,0.000164,-0.001020,0.002092,-0.000015,0.002092,-0.001020,-89.726360,0.002093,
750,1770,0.327420,-0.594167,0.999998,0.000172,-0.001030,0.002483,-0.000172,0.002492,-0.001039,-87.199325,0.002503,
920,1740,0.188218,-0.568720,0.999998,0.000197,-0.000769,0.002174,-0.000040,0.002175,-0.000769,-89.229369,0.002205,
710,1230,0.808900,-2.018563,0.999998,0.000165,-0.001276,0.002571,-0.000252,0.002587,-0.001292,-86.270982,0.002587,
1210,840,0.040028,-3.836908,0.999997,0.000209,-0.001667,0.000460,0.000020,0.000461,-0.001668,89.461245,0.001722,
1680,1930,-0.127943,-0.206384,0.999998,0.000154,-0.000578,0.002123,0.000476,0.002204,-0.000660,80.291204,0.002263,
1450,1410,-0.201109,-1.246675,0.999998,0.000178,-0.001377,0.002424,-0.000540,0.002499,-0.001452,-82.072902,0.002510,
1070,1340,0.138471,-1.322491,0.999998,0.000163,-0.001413,0.002288,0.000842,0.002471,-0.001596,77.760641,0.002505,
590,1220,0.960655,-2.097276,0.999999,0.000129,-0.001117,0.002310,-0.000090,0.002312,-0.001119,-88.493714,0.002313,
1200,170,0.008535,-4.805586,0.999999,0.000160,-0.000255,0.001668,0.000002,0.001668,-0.000255,89.928354,0.001797,
760,1570,0.462528,-1.089641,0.999998,0.000185,-0.001264,0.002556,0.000070,0.002557,-0.001265,88.950296,0.002557,
790,1620,0.392950,-0.938575,0.999997,0.000193,-0.001216,0.002500,0.000057,0.002501,-0.001217,89.126655,0.002501,
1200,1540,0.020667,-0.836361,0.999999,0.000147,-0.000630,0.001700,0.000094,0.001703,-0.000634,87.696180,0.001722,
1190,1400,0.023113,-1.055227,0.999999,0.000146,-0.000626,0.001366,0.000312,0.001414,-0.000674,81.294878,0.001415,
1580,220,-0.154255,-4.661325,0.999998,0.000155,-0.000733,0.002105,-0.000204,0.002119,-0.000747,-85.913964,0.002150,
630,810,0.895205,-3.023428,0.999999,0.000134,-0.001183,0.002394,0.000151,0.002401,-0.001189,87.593881,0.002401,
670,510,0.595383,-3.814884,0.999998,0.000184,-0.001292,0.002554,-0.000033,0.002554,-0.001292,-89.509416,0.002554,
1310,1560,-0.050322,-0.813657,0.999999,0.000134,-0.000718,0.001797,-0.000211,0.001815,-0.000735,-85.232927,0.001825,
570,170,0.396854,-4.580339,0.999881,0.001265,-0.000824,0.002989,-0.000101,0.002992,-0.000827,-88.483735,0.003090,
840,1020,0.785458,-2.539695,0.999998,0.000208,-0.000991,0.002630,0.000040,0.002630,-0.000991,89.365042,0.002657,
1720,1370,-0.636260,-1.629585,0.999998,0.000242,-0.001409,0.002701,0.000097,0.002704,-0.001411,88.654052,0.002705,
1760,170,-0.246696,-4.700048,0.999998,0.000203,-0.001060,0.002473,-0.000366,0.002510,-0.001097,-84.150969,0.002517,
1800,1290,-0.815623,-1.886894,0.999998,0.000149,-0.001258,0.002527,0.000184,0.002536,-0.001267,87.228007,0.002536,
1000,1100,0.574096,-2.245370,0.999997,0.000207,-0.001407,0.003733,-0.000022,0.003733,-0.001407,-89.758897,0.003771,
1780,1140,-0.910856,-2.250728,0.999999,0.000153,-0.001146,0.002398,0.000171,0.002407,-0.001154,87.236822,0.002407,
1230,520,0.001843,-4.200480,0.999998,0.000145,-0.000623,0.001661,-0.000015,0.001661,-0.000623,-89.616828,0.001678,
1700,1400,-0.581382,-1.534964,0.999997,0.000196,-0.001439,0.002719,0.000050,0.002720,-0.001440,89.304884,0.002721,
1650,1830,-0.210614,-0.414812,0.999998,0.000179,-0.000828,0.002267,0.000252,0.002287,-0.000849,85.383033,0.002312,
1150,1310,0.050564,-1.221508,0.999999,0.000142,-0.000887,0.001383,0.000883,0.001686,-0.001189,71.064878,0.001733,
1890,40,-0.091060,-4.959152,0.999998,0.000162,-0.000212,0.003625,-0.001896,0.004404,-0.000991,-67.669583,0.004621,
1880,1470,-0.763526,-1.487918,0.999998,0.000161,-0.001282,0.002560,-0.000001,0.002560,-0.001282,-89.985117,0.002560,
1260,300,-0.013837,-4.583140,0.999998,0.000171,-0.000486,0.001766,0.000026,0.001766,-0.000486,89.330123,0.001825,
1310,350,-0.040878,-4.490017,0.999998,0.000162,-0.000551,0.001818,0.000040,0.001818,-0.000551,89.041271,0.001865,
1410,490,-0.127945,-4.176889,0.999998,0.000146,-0.000869,0.002052,0.000275,0.002078,-0.000894,84.677399,0.002085,
1360,540,-0.090386,-4.114944,0.999999,0.000132,-0.000862,0.001920,0.000365,0.001968,-0.000909,82.640072,0.001970,
630,860,0.935143,-2.904709,0.999999,0.000124,-0.001161,0.002398,0.000160,0.002406,-0.001168,87.424035,0.002406,
1520,2010,-0.015697,-0.042196,0.999999,0.000161,-0.000081,0.001573,0.000242,0.001608,-0.000115,81.845796,0.001793,
800,190,0.188295,-4.697391,0.999998,0.000191,-0.000836,0.002271,0.000301,0.002300,-0.000865,84.512469,0.002324,
600,990,1.028805,-2.602380,0.999999,0.000146,-0.001044,0.002170,0.000042,0.002171,-0.001045,89.253588,0.002171,
1370,620,-0.101751,-3.952086,0.999998,0.000146,-0.000999,0.001965,0.000538,0.002060,-0.001094,80.019820,0.002061,
1440,1070,-0.579302,-2.326279,0.999997,0.000197,-0.001647,0.004360,-0.000337,0.004379,-0.001666,-86.795960,0.004421,
750,1750,0.346066,-0.645840,0.999998,0.000177,-0.001073,0.002494,-0.000113,0.002498,-0.001077,-88.188458,0.002506,
1770,320,-0.424276,-4.315213,0.999998,0.000188,-0.001219,0.002522,-0.000013,0.002522,-0.001219,-89.794732,0.002523,
1890,570,-0.766369,-3.584897,0.999998,0.000195,-0.001321,0.002559,0.000022,0.002560,-0.001321,89.677979,0.002560,
1820,1540,-0.632849,-1.260011,0.999998,0.000191,-0.001277,0.002565,-0.000024,0.002565,-0.001277,-89.635030,0.002565,
1310,1700,-0.041018,-0.559148,0.999998,0.000149,-0.000543,0.001835,-0.000045,0.001836,-0.000543,-88.917276,0.001886,
670,220,0.349468,-4.550494,0.999998,0.000188,-0.001128,0.002541,0.000249,0.002558,-0.001145,86.134683,0.002562,
1530,690,-0.345077,-3.564228,0.999998,0.000193,-0.001650,0.002852,0.000285,0.002870,-0.001668,86.396584,0.002883,
820,510,0.401121,-3.936190,0.999998,0.000163,-0.001289,0.002549,-0.000103,0.002551,-0.001292,-88.460346,0.002551,
880,1200,0.604180,-2.029906,0.999997,0.000194,-0.001524,0.003016,-0.000305,0.003036,-0.001545,-86.179830,0.003037,
1850,1580,-0.643447,-1.182388,0.999998,0.000174,-0.001262,0.002534,-0.000028,0.002534,-0.001262,-89.583784,0.002534,
920,450,0.251561,-4.163522,0.999999,0.000150,-0.001137,0.002376,-0.000171,0.002384,-0.001145,-87.215384,0.002385,
1050,1310,0.180404,-1.439264,0.999998,0.000179,-0.001621,0.002596,0.000836,0.002755,-0.001781,79.190339,0.002794,
1490,1290,-0.333183,-1.644051,0.999997,0.000195,-0.001864,0.003074,-0.000323,0.003095,-0.001885,-86.268086,0.003120,
1890,1280,-0.933468,-1.969626,0.999998,0.000144,-0.001174,0.002385,0.000070,0.002387,-0.001175,88.867318,0.002387,
1830,1880,-0.328184,-0.405348,0.999998,0.000157,-0.001170,0.002611,0.000241,0.002626,-0.001186,86.374652,0.002630,
1000,1120,0.539070,-2.170564,0.999997,0.000189,-0.001518,0.003660,-0.000030,0.003661,-0.001518,-89.670121,0.003678,
890,380,0.249214,-4.305554,0.999998,0.000174,-0.001027,0.002328,-0.000059,0.002329,-0.001028,-88.996513,0.002334,
1680,530,-0.461846,-3.853825,0.999997,0.000183,-0.001305,0.002582,0.000102,0.002584,-0.001308,88.503119,0.002585,
1890,110,-0.284995,-4.735705,0.999998,0.000145,-0.001140,0.002753,-0.000491,0.002814,-0.001201,-82.917703,0.002824,
1650,1810,-0.228336,-0.461597,0.999998,0.000174,-0.000880,0.002321,0.000215,0.002336,-0.000895,86.181264,0.002357,
790,1600,0.406317,-0.988813,0.999998,0.000173,-0.001249,0.002520,0.000079,0.002522,-0.001250,88.799819,0.002522,
1410,470,-0.126776,-4.215726,0.999998,0.000160,-0.000857,0.002022,0.000246,0.002043,-0.000878,85.147126,0.002049,
710,1250,0.791480,-1.967073,0.999998,0.000169,-0.001277,0.002596,-0.000238,0.002611,-0.001292,-86.504336,0.002611,
1880,580,-0.759534,-3.566474,0.999998,0.000169,-0.001288,0.002570,0.000007,0.002570,-0.001288,89.888881,0.002570,
620,1130,0.986256,-2.290103,0.999999,0.000146,-0.001074,0.002285,-0.000128,0.002290,-0.001079,-87.816395,0.002291,
1450,1650,-0.144822,-0.711957,0.999998,0.000180,-0.000794,0.002082,-0.000123,0.002087,-0.000800,-87.559682,0.002106,
610,860,0.958213,-2.894410,0.999999,0.000122,-0.001137,0.002349,0.000124,0.002353,-0.001142,87.961920,0.002353,
750,1730,0.360088,-0.692184,0.999998,0.000168,-0.001118,0.002479,-0.000068,0.002480,-0.001119,-88.918345,0.002484,
1880,210,-0.439954,-4.489149,0.999997,0.000194,-0.001242,0.002476,-0.000083,0.002478,-0.001243,-88.729069,0.002478,
1710,980,-0.863711,-2.637881,0.999998,0.000152,-0.001073,0.002491,-0.000093,0.002494,-0.001076,-88.509077,0.002502,
670,490,0.580473,-3.865650,0.999998,0.000183,-0.001274,0.002569,-0.000039,0.002569,-0.001275,-89.420162,0.002569,
630,790,0.877891,-3.071743,0.999999,0.000143,-0.001219,0.002466,0.000149,0.002472,-0.001225,87.689166,0.002472,
830,1990,0.042808,-0.078760,0.999999,0.000137,-0.000175,0.001836,-0.000468,0.001940,-0.000279,-77.516105,0.002098,
1030,1700,0.118958,-0.601118,0.999998,0.000179,-0.000740,0.002021,0.000093,0.002024,-0.000743,88.076286,0.002048,
570,1850,0.451600,-0.554137,0.999860,0.001314,-0.001495,0.002590,-0.000070,0.002591,-0.001496,-89.023915,0.002602,
570,160,0.381533,-4.602453,0.999918,0.001110,-0.001023,0.002767,0.000003,0.002767,-0.001023,89.950567,0.002798,
710,1440,0.622352,-1.466823,0.999997,0.000182,-0.001347,0.002617,-0.000027,0.002617,-0.001348,-89.608947,0.002617,
1200,1450,0.018723,-0.980271,0.999999,0.000133,-0.000601,0.001516,0.000163,0.001529,-0.000614,85.625313,0.001539,
1830,1580,-0.617749,-1.165922,0.999998,0.000186,-0.001258,0.002541,-0.000036,0.002541,-0.001258,-89.458922,0.002541,
1710,1220,-0.762185,-2.029210,0.999998,0.000167,-0.001299,0.002661,0.000307,0.002684,-0.001323,85.591158,0.002684,
720,1270,0.760666,-1.909986,0.999998,0.000186,-0.001317,0.002604,-0.000235,0.002618,-0.001331,-86.582687,0.002618,
1400,1930,-0.028638,-0.166309,0.999999,0.000109,-0.000212,0.001625,0.000119,0.001633,-0.000220,86.311815,0.001772,
1250,520,-0.011263,-4.198113,0.999998,0.000172,-0.000659,0.001671,0.000076,0.001673,-0.000661,88.126043,0.001685,
1230,2020,-0.001916,-0.021988,0.999999,0.000000,-0.000055,0.001519,-0.000035,0.001519,-0.000055,-88.721594,0.001723,
1580,200,-0.139666,-4.700015,0.999998,0.000151,-0.000659,0.002065,-0.000227,0.002084,-0.000678,-85.274619,0.002126,
650,220,0.372191,-4.535927,0.999998,0.000193,-0.001132,0.002570,0.000208,0.002581,-0.001143,86.793554,0.002587,
1260,280,-0.012179,-4.619378,0.999998,0.000152,-0.000444,0.001777,0.000024,0.001777,-0.000445,89.386901,0.001849,
680,570,0.627302,-3.667286,0.999998,0.000147,-0.001267,0.002582,-0.000006,0.002582,-0.001267,-89.910964,0.002582,
1410,450,-0.123756,-4.256799,0.999998,0.000159,-0.000836,0.002045,0.000204,0.002059,-0.000851,85.972819,0.002069,
790,950,0.809130,-2.719448,0.999998,0.000163,-0.001078,0.002604,0.000243,0.002620,-0.001094,86.245969,0.002632,
1000,550,0.192982,-4.000089,0.999998,0.000157,-0.001118,0.002295,-0.000356,0.002332,-0.001155,-84.110826,0.002332,
800,170,0.166623,-4.743188,0.999998,0.000141,-0.000753,0.002178,0.000370,0.002224,-0.000799,82.915002,0.002253,
1150,1550,0.053798,-0.834070,0.999998,0.000141,-0.000697,0.001784,0.000227,0.001804,-0.000717,84.819486,0.001817,
580,1720,0.573937,-0.860230,0.999998,0.000176,-0.002795,0.003179,0.000317,0.003196,-0.002812,86.969845,0.003490,
1490,1270,-0.353996,-1.707167,0.999998,0.000189,-0.001903,0.003133,-0.000290,0.003149,-0.001920,-86.715585,0.003174,
1780,1120,-0.921528,-2.298977,0.999998,0.000150,-0.001128,0.002421,0.000182,0.002430,-0.001137,87.065185,0.002432,
1200,1520,0.019364,-0.869090,0.999999,0.000150,-0.000635,0.001663,0.000100,0.001667,-0.000639,87.503388,0.001682,
1820,1520,-0.650103,-1.311326,0.999998,0.000184,-0.001309,0.002550,0.000000,0.002550,-0.001309,-89.999221,0.002550,
1880,1700,-0.588283,-0.907328,0.999998,0.000174,-0.001270,0.002448,-0.000032,0.002449,-0.001271,-89.508708,0.002449,
1050,540,0.138016,-4.070615,0.999999,0.000138,-0.001044,0.002089,-0.000390,0.002137,-0.001092,-83.006305,0.002137,
1540,1950,-0.053847,-0.145385,0.999998,0.000147,-0.000220,0.001814,0.000305,0.001859,-0.000264,81.644286,0.002011,
1140,870,0.208444,-3.633475,0.999953,0.000944,-0.001132,0.000845,-0.000780,0.001116,-0.001403,-70.854057,0.001482,
1000,1140,0.502582,-2.097020,0.999997,0.000194,-0.001638,0.003567,-0.000009,0.003567,-0.001638,-89.906114,0.003571,
1530,670,-0.331830,-3.620550,0.999998,0.000177,-0.001606,0.002795,0.000315,0.002817,-0.001629,85.924676,0.002829,
710,1270,0.772530,-1.914564,0.999998,0.000178,-0.001291,0.002579,-0.000225,0.002592,-0.001304,-86.679462,0.002592,
1830,1940,-0.224931,-0.244252,0.999998,0.000162,-0.001093,0.002676,0.000460,0.002731,-0.001149,83.142028,0.002742,
1050,1290,0.190991,-1.491630,0.999998,0.000171,-0.001724,0.002708,0.000832,0.002859,-0.001875,79.713861,0.002905,
1490,640,-0.255339,-3.751286,0.999998,0.000188,-0.001478,0.002557,0.000439,0.002604,-0.001526,83.860710,0.002617,
1890,100,-0.264285,-4.762913,0.999999,0.000129,-0.001120,0.002906,-0.000567,0.002985,-0.001198,-82.128148,0.003004,
1840,830,-0.919964,-2.971570,0.999999,0.000138,-0.001178,0.002350,-0.000145,0.002356,-0.001184,-87.658257,0.002356,
1350,1560,-0.079477,-0.832705,0.999999,0.000115,-0.000715,0.001893,-0.000249,0.001916,-0.000738,-84.586329,0.001933,
600,1130,1.007858,-2.296848,0.999998,0.000179,-0.001074,0.002246,-0.000113,0.002250,-0.001078,-88.055525,0.002251,
1450,670,-0.206430,-3.730111,0.999998,0.000187,-0.001446,0.002522,0.000590,0.002608,-0.001532,81.725128,0.002621,
890,360,0.237397,-4.353096,0.999998,0.000164,-0.001021,0.002286,-0.000044,0.002287,-0.001022,-89.242816,0.002291,
1740,1580,-0.504492,-1.093584,0.999998,0.000163,-0.001257,0.002562,-0.000066,0.002564,-0.001258,-89.010880,0.002564,
1640,1030,-0.801651,-2.513854,0.999997,0.000189,-0.000958,0.002595,0.000003,0.002595,-0.000958,89.956588,0.002625,
590,860,0.981425,-2.884525,0.999999,0.000130,-0.001102,0.002275,0.000080,0.002277,-0.001104,88.646489,0.002277,
1870,230,-0.453213,-4.450511,0.999998,0.000164,-0.001228,0.002466,-0.000054,0.002467,-0.001229,-89.162881,0.002467,
630,770,0.861102,-3.121740,0.999999,0.000131,-0.001234,0.002466,0.000138,0.002471,-0.001240,87.867947,0.002471,
1600,970,-0.744185,-2.674494,0.999998,0.000185,-0.001032,0.002725,-0.000247,0.002741,-0.001048,-86.249279,0.002766,
830,1950,0.082544,-0.155866,0.999999,0.000131,-0.000319,0.001952,-0.000432,0.002032,-0.000399,-79.584134,0.002153,
750,1710,0.376961,-0.745276,0.999997,0.000174,-0.001147,0.002481,-0.000052,0.002481,-0.001147,-89.173932,0.002484,
1710,1420,-0.578800,-1.488130,0.999997,0.000204,-0.001423,0.002685,0.000024,0.002685,-0.001423,89.662030,0.002686,
1490,1760,-0.135530,-0.502960,0.999998,0.000167,-0.000711,0.002083,0.000032,0.002084,-0.000711,89.349297,0.002119,
1230,1200,0.005734,-1.205694,0.999998,0.000000,-0.002717,0.000794,-0.000026,0.000795,-0.002718,-89.574049,0.002794,
1620,1260,-0.592057,-1.873378,0.999997,0.000205,-0.001552,0.002937,0.000217,0.002948,-0.001562,87.232676,0.002950,
1010,1700,0.133834,-0.610873,0.999999,0.000146,-0.000711,0.002072,0.000064,0.002073,-0.000712,88.675717,0.002107,
1180,1290,0.028956,-1.193266,0.999998,0.000159,-0.000699,0.000976,0.000686,0.001221,-0.000944,70.347554,0.001280,
1150,210,0.025663,-4.738109,0.999999,0.000140,-0.000322,0.001700,0.000038,0.001701,-0.000322,88.919963,0.001807,
660,1070,0.965969,-2.420274,0.999999,0.000147,-0.001078,0.002325,-0.000061,0.002326,-0.001080,-88.978986,0.002328,
880,1160,0.651744,-2.148666,0.999998,0.000170,-0.001358,0.002955,-0.000350,0.002983,-0.001386,-85.395640,0.002985,
1280,370,-0.026848,-4.456825,0.999998,0.000142,-0.000526,0.001779,0.000029,0.001779,-0.000526,89.276458,0.001828,
1410,430,-0.118193,-4.299465,0.999998,0.000162,-0.000812,0.002025,0.000200,0.002039,-0.000826,85.993189,0.002051,
1650,1460,-0.464299,-1.333539,0.999997,0.000189,-0.001429,0.002680,-0.000059,0.002681,-0.001430,-89.180987,0.002683,
670,470,0.568217,-3.916800,0.999998,0.000179,-0.001244,0.002536,-0.000037,0.002536,-0.001244,-89.443260,0.002536,
1890,1190,-1.003798,-2.177562,0.999999,0.000130,-0.001141,0.002195,0.000046,0.002196,-0.001141,89.211949,0.002196,
780,1270,0.676925,-1.881193,0.999998,0.000189,-0.001453,0.002764,-0.000243,0.002778,-0.001467,-86.717258,0.002779,
1650,1790,-0.243890,-0.508534,0.999998,0.000197,-0.000929,0.002336,0.000175,0.002346,-0.000938,86.935736,0.002361,
1500,1930,-0.053979,-0.178558,0.999998,0.000162,-0.000333,0.001796,0.000202,0.001815,-0.000352,84.628406,0.001925,
780,270,0.283057,-4.499310,0.999998,0.000175,-0.001023,0.002414,0.000154,0.002421,-0.001029,87.437671,0.002430,
1490,1250,-0.374999,-1.769135,0.999998,0.000168,-0.001941,0.003241,-0.000217,0.003250,-0.001950,-87.607383,0.003272,
1780,1100,-0.932437,-2.347523,0.999998,0.000144,-0.001110,0.002397,0.000145,0.002403,-0.001116,87.631444,0.002405,
1250,640,-0.010531,-4.012838,0.999999,0.000134,-0.000554,0.001365,0.000142,0.001375,-0.000564,85.794970,0.001383,
1050,1340,0.166743,-1.362338,0.999998,0.000135,-0.001507,0.002474,0.000786,0.002623,-0.001656,79.224864,0.002653,
1530,650,-0.321492,-3.675319,0.999998,0.000180,-0.001557,0.002736,0.000310,0.002758,-0.001579,85.888707,0.002768,
790,360,0.343561,-4.287008,0.999998,0.000171,-0.001134,0.002447,-0.000014,0.002447,-0.001134,-89.778774,0.002449,
1580,180,-0.123730,-4.744611,0.999998,0.000174,-0.000622,0.002067,-0.000231,0.002087,-0.000641,-85.125578,0.002138,
710,1290,0.755492,-1.864063,0.999998,0.000178,-0.001323,0.002610,-0.000209,0.002621,-0.001334,-86.968112,0.002621,
1870,1700,-0.575194,-0.899033,0.999998,0.000172,-0.001247,0.002453,-0.000047,0.002454,-0.001248,-89.277760,0.002454,
1450,630,-0.197098,-3.827714,0.999998,0.000164,-0.001311,0.002387,0.000524,0.002460,-0.001383,82.091962,0.002467,
960,1740,0.154962,-0.550304,0.999998,0.000177,-0.000824,0.002130,0.000031,0.002130,-0.000824,89.388984,0.002148,
1590,1820,-0.173309,-0.415553,0.999998,0.000173,-0.000805,0.002177,0.000168,0.002186,-0.000814,86.789761,0.002210,
1100,320,0.066021,-4.531242,0.999998,0.000167,-0.000523,0.001861,-0.000022,0.001861,-0.000523,-89.461780,0.001919,
1890,90,-0.240887,-4.793296,0.999999,0.000135,-0.001102,0.003076,-0.000657,0.003176,-0.001203,-81.271552,0.003207,
1050,1270,0.204555,-1.546626,0.999998,0.000192,-0.001824,0.002799,0.000823,0.002941,-0.001966,80.199289,0.002996,
1810,1820,-0.386332,-0.539678,0.999998,0.000204,-0.001172,0.002562,0.000180,0.002571,-0.001180,87.243355,0.002573,
910,300,0.187252,-4.498543,0.999998,0.000164,-0.000781,0.002187,0.000058,0.002189,-0.000782,88.877342,0.002218,
560,790,0.965530,-3.022953,0.999997,0.000000,-0.001329,0.002132,-0.000086,0.002134,-0.001332,-88.576718,0.002156,
1000,1160,0.466279,-2.026272,0.999998,0.000175,-0.001772,0.003521,0.000026,0.003521,-0.001772,89.714402,0.003521,
1310,330,-0.037519,-4.524404,0.999998,0.000163,-0.000511,0.001812,0.000026,0.001812,-0.000511,89.361111,0.001868,
1180,170,0.014093,-4.804925,0.999999,0.000153,-0.000224,0.001679,0.000024,0.001679,-0.000224,89.279996,0.001824,
920,1720,0.197402,-0.613551,0.999998,0.000207,-0.000814,0.002251,-0.000012,0.002251,-0.000814,-89.772279,0.002280,
820,1150,0.741147,-2.196700,0.999998,0.000182,-0.001229,0.002731,-0.000344,0.002761,-0.001259,-85.079056,0.002764,
750,440,0.445351,-4.057726,0.999998,0.000178,-0.001253,0.002504,-0.000075,0.002505,-0.001255,-88.856289,0.002505,
1620,1030,-0.781659,-2.513713,0.999997,0.000250,-0.000952,0.002655,0.000006,0.002655,-0.000952,89.910891,0.002690,
1360,520,-0.088319,-4.155405,0.999999,0.000136,-0.000835,0.001940,0.000297,0.001971,-0.000867,83.968217,0.001976,
580,860,0.992319,-2.878930,0.999999,0.000121,-0.001078,0.002214,0.000029,0.002215,-0.001078,89.495252,0.002215,
1770,280,-0.387736,-4.416556,0.999997,0.000188,-0.001185,0.002529,-0.000080,0.002531,-0.001187,-88.768696,0.002532,
1230,850,0.004846,-3.836482,0.999998,0.000000,-0.002708,0.000437,0.000086,0.000439,-0.002711,88.438361,0.002910,
750,1910,0.173057,-0.257995,0.999998,0.000154,-0.000618,0.002252,-0.000541,0.002350,-0.000717,-79.678078,0.002409,
830,1410,0.475258,-1.454169,0.999997,0.000203,-0.001518,0.002773,0.000074,0.002774,-0.001519,89.010420,0.002778,
960,1310,0.337756,-1.600405,0.999998,0.000170,-0.001801,0.003008,0.000326,0.003030,-0.001823,86.141615,0.003051,
1650,900,-0.743755,-2.855053,0.999999,0.000143,-0.001270,0.002710,-0.000315,0.002735,-0.001295,-85.509153,0.002736,
960,630,0.270572,-3.760572,0.999998,0.000186,-0.001444,0.002578,-0.000383,0.002614,-0.001480,-84.608580,0.002621,
1530,1760,-0.167659,-0.520732,0.999998,0.000152,-0.000760,0.002148,0.000043,0.002149,-0.000761,89.146669,0.002179,
660,570,0.652722,-3.652072,0.999998,0.000170,-0.001290,0.002556,-0.000011,0.002556,-0.001290,-89.838065,0.002557,
1700,1380,-0.597770,-1.589034,0.999997,0.000218,-0.001450,0.002710,0.000078,0.002711,-0.001452,88.920818,0.002714,
1650,1760,-0.269544,-0.580860,0.999998,0.000193,-0.000979,0.002382,0.000108,0.002386,-0.000983,88.166461,0.002398,
1840,810,-0.904087,-3.019230,0.999999,0.000142,-0.001196,0.002381,-0.000146,0.002387,-0.001202,-87.674414,0.002387,
630,750,0.842949,-3.172553,0.999998,0.000143,-0.001233,0.002488,0.000134,0.002493,-0.001237,87.940600,0.002493,
1330,1560,-0.065080,-0.823471,0.999999,0.000122,-0.000741,0.001839,-0.000221,0.001858,-0.000760,-85.132351,0.001868,
780,1090,0.829331,-2.362087,0.999998,0.000149,-0.001091,0.002556,-0.000196,0.002567,-0.001101,-86.929890,0.002576,
1260,260,-0.012150,-4.654550,0.999998,0.000162,-0.000388,0.001707,0.000013,0.001708,-0.000388,89.647100,0.001790,
1410,410,-0.115218,-4.338648,0.999998,0.000155,-0.000789,0.002009,0.000186,0.002021,-0.000801,86.213382,0.002036,
1280,790,-0.032221,-3.831190,0.999999,0.000147,-0.000783,0.000838,0.000674,0.001081,-0.001026,70.123266,0.001218,
790,930,0.797737,-2.770640,0.999998,0.000162,-0.001140,0.002578,0.000254,0.002595,-0.001157,86.113100,0.002600,
1280,530,-0.030546,-4.176427,0.999999,0.000135,-0.000622,0.001697,0.000121,0.001703,-0.000629,87.017854,0.001722,
1340,110,-0.014993,-4.899730,0.999999,0.000137,-0.000158,0.001610,-0.000061,0.001612,-0.000161,-88.013600,0.001776,
1490,1230,-0.400610,-1.835480,0.999998,0.000181,-0.001967,0.003321,-0.000120,0.003324,-0.001969,-88.703754,0.003343,
1780,1080,-0.937830,-2.394278,0.999999,0.000140,-0.001102,0.002359,0.000072,0.002361,-0.001103,88.809091,0.002362,
710,1730,0.409039,-0.723751,0.999997,0.000185,-0.001188,0.002504,-0.000017,0.002504,-0.001188,-89.740780,0.002505,
670,450,0.551981,-3.967194,0.999998,0.000179,-0.001245,0.002503,-0.000035,0.002504,-0.001245,-89.461467,0.002504,
1790,1820,-0.363755,-0.525469,0.999997,0.000196,-0.001154,0.002550,0.000197,0.002560,-0.001165,86.967360,0.002563,
1500,1630,-0.197390,-0.788233,0.999998,0.000188,-0.000932,0.002206,-0.000152,0.002214,-0.000939,-87.239094,0.002222,
1050,520,0.135437,-4.112720,0.999999,0.000133,-0.001004,0.002119,-0.000321,0.002151,-0.001037,-84.188480,0.002152,
770,360,0.366594,-4.271558,0.999998,0.000168,-0.001120,0.002460,0.000018,0.002460,-0.001120,89.718669,0.002464,
1510,2010,-0.014188,-0.041794,0.999999,0.000186,-0.000134,0.001575,0.000235,0.001607,-0.000166,82.301934,0.001768,
1200,1500,0.019117,-0.901817,0.999998,0.000173,-0.000626,0.001614,0.000111,0.001620,-0.000632,87.160230,0.001633,
1820,1500,-0.663373,-1.362481,0.999998,0.000172,-0.001316,0.002551,-0.000037,0.002552,-0.001317,-89.450590,0.002552,
1120,1950,0.014985,-0.130832,0.999999,0.000144,-0.000171,0.001615,-0.000074,0.001618,-0.000174,-87.617624,0.001776,
1000,1600,0.169816,-0.828264,0.999998,0.000160,-0.000975,0.002175,0.000240,0.002193,-0.000994,85.672342,0.002196,
1470,1500,-0.202319,-1.057328,0.999998,0.000153,-0.001201,0.002312,-0.000383,0.002353,-0.001242,-83.854538,0.002354,
1620,1240,-0.613049,-1.932631,0.999998,0.000175,-0.001535,0.002947,0.000264,0.002962,-0.001550,86.636754,0.002963,
1700,1010,-0.859586,-2.563739,0.999998,0.000168,-0.001039,0.002489,-0.000056,0.002490,-0.001040,-89.087061,0.002501,
800,1150,0.764273,-2.201640,0.999998,0.000182,-0.001250,0.002697,-0.000332,0.002725,-0.001278,-85.228025,0.002727,
1820,150,-0.276321,-4.714008,0.999998,0.000235,-0.001107,0.002620,-0.000391,0.002661,-0.001147,-84.079866,0.002669,
1150,170,0.017813,-4.803580,0.999998,0.000154,-0.000224,0.001673,0.000031,0.001673,-0.000225,89.075486,0.001816,
1030,1340,0.198643,-1.399778,0.999998,0.000167,-0.001583,0.002626,0.000680,0.002733,-0.001690,81.048556,0.002758,
830,1390,0.490268,-1.511053,0.999997,0.000218,-0.001531,0.002764,0.000032,0.002764,-0.001531,89.568100,0.002770,
1450,90,-0.025555,-4.926159,0.999999,0.000147,-0.000162,0.001652,-0.000165,0.001667,-0.000177,-84.859227,0.001831,
570,860,1.002980,-2.872579,0.999999,0.000138,-0.001062,0.002146,0.000007,0.002146,-0.001062,89.869354,0.002146,
1470,760,-0.290061,-3.446633,0.999997,0.000243,-0.001852,0.003023,0.000459,0.003066,-0.001895,84.672835,0.003094,
1880,1190,-0.992025,-2.171524,0.999998,0.000144,-0.001127,0.002227,0.000066,0.002228,-0.001128,88.865493,0.002228,
1150,1940,0.011387,-0.146564,0.999998,0.000153,-0.000132,0.001623,-0.000040,0.001624,-0.000133,-88.683646,0.001803,
1530,630,-0.309744,-3.730375,0.999998,0.000176,-0.001471,0.002653,0.000300,0.002675,-0.001493,85.858669,0.002681,
1050,1250,0.224814,-1.604521,0.999998,0.000196,-0.001920,0.002924,0.000778,0.003046,-0.002042,81.093697,0.003104,
1860,450,-0.637814,-3.913972,0.999998,0.000174,-0.001243,0.002512,0.000016,0.002512,-0.001243,89.753972,0.002512,
1230,30,0.001990,-5.023724,0.999999,0.000000,-0.000005,0.001453,-0.000042,0.001454,-0.000006,-88.364083,0.001676,
1340,1290,-0.081923,-1.310176,0.999998,0.000179,-0.001180,0.001754,-0.001064,0.002099,-0.001526,-72.024978,0.002170,
1030,1040,0.587722,-2.460409,0.999997,0.000197,-0.001985,0.004989,0.000157,0.004992,-0.001988,88.708991,0.005026,
880,1140,0.674221,-2.207674,0.999998,0.000168,-0.001274,0.002877,-0.000348,0.002906,-0.001303,-85.246980,0.002911,
1750,390,-0.455509,-4.154898,0.999998,0.000190,-0.001219,0.002532,0.000029,0.002532,-0.001219,89.551837,0.002533,
1590,1800,-0.188037,-0.460316,0.999998,0.000162,-0.000843,0.002187,0.000119,0.002191,-0.000848,87.750369,0.002210,
1700,1360,-0.616470,-1.644005,0.999998,0.000205,-0.001438,0.002736,0.000111,0.002738,-0.001441,88.476038,0.002740,
890,300,0.203070,-4.488991,0.999998,0.000174,-0.000878,0.002257,0.000061,0.002258,-0.000879,88.878867,0.002277,
620,1920,0.277932,-0.313316,0.999998,0.000183,-0.001246,0.002647,-0.000314,0.002672,-0.001271,-85.417889,0.002673,
780,1470,0.503763,-1.332911,0.999997,0.000195,-0.001401,0.002624,0.000028,0.002624,-0.001401,89.604602,0.002626,
1580,160,-0.109495,-4.784260,0.999998,0.000155,-0.000562,0.001980,-0.000285,0.002011,-0.000594,-83.669348,0.002067,
670,430,0.535771,-4.014829,0.999998,0.000166,-0.001243,0.002543,-0.000046,0.002543,-0.001243,-89.305223,0.002543,
1650,880,-0.726459,-2.908715,0.999998,0.000179,-0.001321,0.002743,-0.000317,0.002768,-0.001346,-85.573418,0.002768,
1650,1770,-0.263617,-0.555520,0.999998,0.000201,-0.000968,0.002371,0.000133,0.002376,-0.000974,87.730649,0.002389,
760,200,0.231055,-4.655736,0.999998,0.000165,-0.000840,0.002393,0.000370,0.002435,-0.000882,83.546471,0.002465,
1340,310,-0.052358,-4.555075,0.999998,0.000178,-0.000545,0.001804,0.000051,0.001805,-0.000546,88.765288,0.001851,
560,910,1.040919,-2.759987,0.999998,0.000000,-0.001001,0.002144,-0.000017,0.002145,-0.001001,-89.686394,0.002146,
750,420,0.432227,-4.106446,0.999998,0.000160,-0.001247,0.002546,-0.000050,0.002546,-0.001248,-89.249673,0.002546,
1070,1700,0.090369,-0.582976,0.999998,0.000172,-0.000648,0.001946,0.000069,0.001948,-0.000650,88.477743,0.001984,
960,1760,0.146524,-0.508529,0.999998,0.000178,-0.000779,0.002053,-0.000007,0.002053,-0.000779,-89.862964,0.002073,
1100,300,0.063474,-4.566560,0.999998,0.000178,-0.000503,0.001853,-0.000006,0.001853,-0.000503,-89.856666,0.001916,
1410,390,-0.110153,-4.378120,0.999998,0.000159,-0.000778,0.001997,0.000156,0.002006,-0.000786,86.799134,0.002021,
1620,1220,-0.637553,-1.993632,0.999998,0.000162,-0.001495,0.002903,0.000292,0.002922,-0.001514,86.221070,0.002923,
1260,790,-0.017603,-3.858912,0.999998,0.000149,-0.000668,0.000635,0.000407,0.000752,-0.000784,74.006701,0.000888,
1780,1060,-0.941709,-2.442525,0.999998,0.000156,-0.001086,0.002360,0.000080,0.002362,-0.001088,88.669891,0.002364,
660,1590,0.576744,-1.118730,0.999998,0.000182,-0.001274,0.002536,0.000050,0.002537,-0.001274,89.251736,0.002537,
1490,1210,-0.430623,-1.902738,0.999998,0.000181,-0.001935,0.003356,-0.000036,0.003357,-0.001936,-89.608129,0.003370,
1030,1320,0.208027,-1.452563,0.999998,0.000203,-0.001674,0.002698,0.000699,0.002807,-0.001783,81.129542,0.002841,
1140,1560,0.059209,-0.820060,0.999999,0.000130,-0.000695,0.001819,0.000224,0.001839,-0.000715,84.958080,0.001854,
660,550,0.638987,-3.702758,0.999998,0.000165,-0.001302,0.002568,-0.000028,0.002568,-0.001302,-89.584528,0.002568,
710,1710,0.423322,-0.774471,0.999997,0.000186,-0.001206,0.002509,0.000008,0.002509,-0.001206,89.877317,0.002509,
1240,650,-0.005379,-4.003529,0.999999,0.000125,-0.000556,0.001303,0.000085,0.001307,-0.000560,87.376476,0.001311,
1130,1760,0.046580,-0.456255,0.999998,0.000166,-0.000504,0.001832,0.000045,0.001833,-0.000505,88.898942,0.001894,
1030,1360,0.190585,-1.346195,0.999998,0.000172,-0.001496,0.002562,0.000670,0.002670,-0.001604,80.867142,0.002688,
1820,130,-0.240875,-4.767068,0.999998,0.000174,-0.001062,0.002603,-0.000483,0.002666,-0.001124,-82.612436,0.002677,
1160,170,0.017279,-4.803670,0.999998,0.000173,-0.000190,0.001677,0.000045,0.001678,-0.000191,88.615741,0.001837,
1000,1580,0.175912,-0.872901,0.999998,0.000147,-0.001005,0.002207,0.000265,0.002229,-0.001027,85.319550,0.002231,
1880,790,-0.935488,-3.042059,0.999999,0.000158,-0.001143,0.002349,-0.000071,0.002350,-0.001144,-88.838292,0.002351,
1850,660,-0.786251,-3.385054,0.999998,0.000159,-0.001269,0.002530,-0.000062,0.002531,-0.001270,-89.072581,0.002531,
1790,1220,-0.864567,-2.058476,0.999998,0.000173,-0.001215,0.002469,0.000198,0.002480,-0.001225,86.939546,0.002480,
1360,500,-0.085955,-4.192802,0.999999,0.000128,-0.000791,0.001914,0.000264,0.001939,-0.000817,84.484567,0.001947,
1450,760,-0.253509,-3.482751,0.999998,0.000178,-0.001826,0.002958,0.000592,0.003030,-0.001898,83.044919,0.003062,
1220,2020,-0.000745,-0.022530,0.999999,0.000000,-0.000115,0.001510,-0.000004,0.001510,-0.000115,-89.873428,0.001681,
1450,70,-0.018742,-4.960156,0.999999,0.000114,-0.000094,0.001632,-0.000173,0.001649,-0.000111,-84.338306,0.001843,
1760,770,-0.768519,-3.159997,0.999998,0.000180,-0.001271,0.002589,-0.000205,0.002600,-0.001282,-86.969276,0.002600,
1260,240,-0.011644,-4.688625,0.999999,0.000135,-0.000355,0.001708,-0.000003,0.001708,-0.000355,-89.922356,0.001802,
1480,1630,-0.178594,-0.774797,0.999998,0.000183,-0.000953,0.002206,-0.000167,0.002215,-0.000962,-86.974195,0.002221,
840,170,0.142291,-4.751870,0.999998,0.000177,-0.000542,0.002107,0.000337,0.002149,-0.000585,82.865803,0.002222,
830,1370,0.505693,-1.565628,0.999997,0.000211,-0.001555,0.002818,-0.000013,0.002818,-0.001555,-89.831432,0.002823,
1840,1350,-0.812863,-1.761734,0.999998,0.000160,-0.001264,0.002497,0.000098,0.002499,-0.001267,88.503472,0.002499,
920,1700,0.206185,-0.659277,0.999998,0.000185,-0.000834,0.002212,-0.000001,0.002212,-0.000834,-89.975550,0.002234,
1500,2010,-0.012231,-0.041611,0.999999,0.000165,-0.000139,0.001580,0.000221,0.001608,-0.000167,82.796129,0.001769,
790,910,0.781283,-2.823658,0.999998,0.000180,-0.001189,0.002647,0.000306,0.002671,-0.001213,85.460095,0.002675,
1530,610,-0.300181,-3.781930,0.999998,0.000184,-0.001410,0.002610,0.000297,0.002632,-0.001432,85.797331,0.002635,
1570,1560,-0.300615,-1.004796,0.999998,0.000161,-0.001212,0.002438,-0.000202,0.002449,-0.001223,-86.842396,0.002449,
1580,1910,-0.096309,-0.226142,0.999999,0.000159,-0.000493,0.001962,0.000295,0.001997,-0.000528,83.251316,0.002069,
1250,1820,-0.006761,-0.342730,0.999998,0.000164,-0.000358,0.001711,-0.000004,0.001711,-0.000358,-89.901565,0.001805,
630,730,0.826525,-3.220352,0.999998,0.000155,-0.001246,0.002490,0.000132,0.002495,-0.001251,87.979952,0.002495,
1050,1230,0.249977,-1.665377,0.999998,0.000178,-0.001943,0.003019,0.000751,0.003131,-0.002054,81.581428,0.003181,
1750,350,-0.424072,-4.255621,0.999997,0.000181,-0.001215,0.002521,-0.000008,0.002521,-0.001215,-89.874234,0.002521,
1330,740,-0.065649,-3.795060,0.999998,0.000147,-0.001036,0.001602,0.000924,0.001893,-0.001327,72.497560,0.001944,
880,1120,0.696617,-2.264876,0.999998,0.000187,-0.001176,0.002878,-0.000354,0.002909,-0.001207,-85.042469,0.002923,
1600,1270,-0.549846,-1.829655,0.999998,0.000208,-0.001640,0.002987,0.000178,0.002993,-0.001647,87.803274,0.002998,
1890,80,-0.216298,-4.826185,0.999999,0.000141,-0.001059,0.003136,-0.000762,0.003270,-0.001193,-80.019614,0.003310,
1580,140,-0.092241,-4.823400,0.999999,0.000135,-0.000510,0.001929,-0.000304,0.001966,-0.000547,-83.011692,0.002030,
1530,1280,-0.416573,-1.731785,0.999997,0.000190,-0.001820,0.003105,-0.000091,0.003107,-0.001822,-88.936394,0.003122,
1890,1960,-0.252539,-0.261159,0.999998,0.000178,-0.001148,0.002992,0.000656,0.003094,-0.001249,81.208332,0.003113,
1320,310,-0.040541,-4.559843,0.999998,0.000160,-0.000518,0.001791,0.000030,0.001792,-0.000519,89.265417,0.001844,
670,410,0.523718,-4.069516,0.999997,0.000185,-0.001245,0.002556,-0.000038,0.002557,-0.001245,-89.423734,0.002557,
1540,970,-0.681914,-2.688058,0.999998,0.000173,-0.001039,0.002958,-0.000250,0.002973,-0.001054,-86.432631,0.003015,
1200,1480,0.019824,-0.934617,0.999999,0.000160,-0.000617,0.001571,0.000132,0.001579,-0.000625,86.564966,0.001591,
1820,1480,-0.678350,-1.413787,0.999998,0.000179,-0.001286,0.002592,-0.000006,0.002592,-0.001286,-89.916979,0.002592,
1490,1190,-0.459052,-1.968808,0.999998,0.000192,-0.001858,0.003377,0.000060,0.003378,-0.001859,89.340456,0.003383,
860,430,0.307456,-4.167486,0.999998,0.000217,-0.001151,0.002417,-0.000112,0.002421,-0.001154,-88.210752,0.002422,
1750,100,-0.130693,-4.872015,0.999998,0.000174,-0.000749,0.002196,-0.000594,0.002311,-0.000864,-79.010973,0.002336,
660,1570,0.591937,-1.169116,0.999997,0.000204,-0.001271,0.002537,0.000054,0.002538,-0.001272,89.187913,0.002538,
710,1690,0.441506,-0.824179,0.999998,0.000187,-0.001236,0.002548,0.000021,0.002548,-0.001236,89.680701,0.002549,
1230,1760,0.000607,-0.445111,0.999998,0.000172,-0.000465,0.001777,-0.000014,0.001777,-0.000465,-89.632469,0.001843,
1650,1750,-0.276493,-0.603750,0.999998,0.000189,-0.000990,0.002382,0.000083,0.002384,-0.000992,88.585505,0.002395,
1220,1200,0.033211,-1.209259,0.999998,0.000000,-0.002549,0.000776,-0.000116,0.000781,-0.002553,-88.004917,0.002617,
1000,1560,0.180159,-0.916266,0.999998,0.000134,-0.001012,0.002199,0.000278,0.002223,-0.001036,85.085423,0.002225,
1010,1600,0.160533,-0.820346,0.999998,0.000157,-0.000930,0.002149,0.000242,0.002168,-0.000948,85.540284,0.002174,
750,1170,0.810775,-2.159945,0.999998,0.000156,-0.001235,0.002610,-0.000296,0.002633,-0.001258,-85.615991,0.002633,
1140,650,0.058092,-3.952004,0.999999,0.000137,-0.000810,0.001643,-0.000545,0.001759,-0.000926,-78.020051,0.001759,
1780,1040,-0.946711,-2.488784,0.999998,0.000165,-0.001071,0.002425,0.000048,0.002425,-0.001072,89.209961,0.002431,
600,590,0.745588,-3.554556,0.999998,0.000163,-0.001258,0.002520,0.000013,0.002520,-0.001258,89.803172,0.002520,
1870,790,-0.923551,-3.048918,0.999999,0.000151,-0.001170,0.002363,-0.000081,0.002365,-0.001172,-88.682229,0.002365,
830,1350,0.526283,-1.623711,0.999997,0.000235,-0.001562,0.002857,-0.000050,0.002857,-0.001563,-89.349735,0.002862,
1020,1050,0.599535,-2.419447,0.999997,0.000217,-0.001660,0.004574,0.000170,0.004578,-0.001665,88.438224,0.004635,
1220,790,0.008235,-3.872464,0.999999,0.000145,-0.000685,0.000565,-0.000172,0.000588,-0.000708,-82.310026,0.000758,
1380,1370,-0.116466,-1.233789,0.999998,0.000166,-0.001202,0.002108,-0.000763,0.002276,-0.001370,-77.622168,0.002291,
630,1380,0.778219,-1.680756,0.999998,0.000155,-0.001268,0.002553,-0.000086,0.002555,-0.001270,-88.704659,0.002555,
1620,1200,-0.656643,-2.049527,0.999998,0.000157,-0.001444,0.002833,0.000318,0.002856,-0.001468,85.774986,0.002857,
1140,1540,0.059790,-0.857289,0.999999,0.000134,-0.000707,0.001797,0.000260,0.001824,-0.000734,84.128154,0.001836,
1410,370,-0.106090,-4.417624,0.999998,0.000172,-0.000742,0.002003,0.000126,0.002009,-0.000748,87.371160,0.002031,
1140,860,0.180724,-3.642094,0.999998,0.000190,-0.001087,0.000952,-0.000697,0.001167,-0.001303,-72.824686,0.001433,
920,870,0.560019,-2.992418,0.999998,0.000177,-0.001604,0.003172,0.000314,0.003193,-0.001625,86.258564,0.003193,
1440,1980,-0.020923,-0.088453,0.999999,0.000150,-0.000132,0.001623,0.000166,0.001638,-0.000147,84.651402,0.001813,
630,690,0.792203,-3.321272,0.999998,0.000153,-0.001258,0.002549,0.000093,0.002551,-0.001261,88.607925,0.002551,
1890,710,-0.878163,-3.228931,0.999998,0.000179,-0.001229,0.002433,-0.000021,0.002434,-0.001229,-89.666322,0.002434,
1460,1630,-0.159366,-0.760635,0.999998,0.000166,-0.000901,0.002158,-0.000185,0.002169,-0.000912,-86.548024,0.002178,
1580,1550,-0.318359,-1.038434,0.999998,0.000174,-0.001255,0.002490,-0.000183,0.002498,-0.001264,-87.205920,0.002499,
1050,840,0.270428,-3.328654,0.999997,0.000188,-0.001938,0.003065,-0.000703,0.003162,-0.002035,-82.149222,0.003205,
1580,1270,-0.515691,-1.813752,0.999997,0.000198,-0.001683,0.003040,0.000132,0.003044,-0.001686,88.398426,0.003050,
1430,760,-0.218603,-3.524568,0.999997,0.000217,-0.001793,0.002840,0.000735,0.002953,-0.001907,81.201091,0.002995,
1520,970,-0.661439,-2.695691,0.999998,0.000155,-0.001107,0.003104,-0.000242,0.003117,-0.001121,-86.721649,0.003158,
880,1100,0.714131,-2.321738,0.999998,0.000186,-0.001079,0.002802,-0.000283,0.002823,-0.001099,-85.853573,0.002846,
1750,330,-0.407983,-4.306516,0.999998,0.000172,-0.001209,0.002516,-0.000011,0.002516,-0.001209,-89.826779,0.002516,
1750,1500,-0.573396,-1.308205,0.999998,0.000158,-0.001329,0.002627,-0.000029,0.002627,-0.001329,-89.577409,0.002627,
1200,1290,0.017470,-1.167590,0.999999,0.000144,-0.000593,0.000771,0.000452,0.000907,-0.000729,73.240595,0.000961,
670,830,0.865630,-2.991929,0.999999,0.000146,-0.001238,0.002466,0.000201,0.002477,-0.001249,86.898025,0.002477,
860,1150,0.690127,-2.185465,0.999998,0.000192,-0.001306,0.002835,-0.000355,0.002865,-0.001336,-85.140941,0.002867,
1530,590,-0.291669,-3.834215,0.999998,0.000177,-0.001372,0.002550,0.000289,0.002571,-0.001393,85.811110,0.002574,
680,1510,0.608624,-1.308350,0.999997,0.000206,-0.001314,0.002584,0.000028,0.002584,-0.001314,89.581360,0.002584,
1000,1540,0.185940,-0.960381,0.999998,0.000151,-0.001041,0.002212,0.000300,0.002239,-0.001069,84.777148,0.002240,
1310,310,-0.036333,-4.562184,0.999998,0.000158,-0.000479,0.001795,0.000020,0.001795,-0.000479,89.485004,0.001859,
1490,1170,-0.494333,-2.037076,0.999998,0.000183,-0.001748,0.003390,0.000130,0.003394,-0.001751,88.550766,0.003394,
1890,60,-0.164490,-4.887826,0.999997,0.000196,-0.000726,0.003294,-0.001256,0.003654,-0.001086,-74.004035,0.003753,
1050,1210,0.278671,-1.724867,0.999998,0.000188,-0.001896,0.003086,0.000716,0.003187,-0.001997,81.979927,0.003221,
1270,1190,-0.124807,-1.219129,0.999914,0.000000,-0.002178,-0.000066,-0.000029,-0.000066,-0.002178,-89.220533,0.002554,
750,1130,0.839746,-2.263577,0.999998,0.000188,-0.001135,0.002535,-0.000205,0.002547,-0.001146,-86.805935,0.002551,
1140,630,0.058824,-3.984094,0.999999,0.000149,-0.000786,0.001671,-0.000470,0.001758,-0.000872,-79.530134,0.001758,
710,1670,0.455579,-0.876704,0.999998,0.000176,-0.001234,0.002540,0.000043,0.002540,-0.001234,89.344088,0.002541,
1860,790,-0.911353,-3.055320,0.999998,0.000146,-0.001190,0.002386,-0.000100,0.002389,-0.001192,-88.402567,0.002389,
1650,1730,-0.292334,-0.651753,0.999998,0.000169,-0.001024,0.002398,0.000044,0.002399,-0.001025,89.271462,0.002407,
630,240,0.419378,-4.465342,0.999998,0.000190,-0.001227,0.002544,0.000083,0.002546,-0.001229,88.742688,0.002547,
1480,1750,-0.133161,-0.519945,0.999998,0.000177,-0.000665,0.002086,0.000019,0.002086,-0.000665,89.610189,0.002131,
560,420,0.715279,-3.937752,0.999870,0.000000,-0.004177,0.003374,-0.000381,0.003394,-0.004196,-87.115317,0.004455,
1780,1020,-0.946502,-2.538320,0.999998,0.000162,-0.001065,0.002383,-0.000038,0.002383,-0.001066,-89.365110,0.002388,
1420,470,-0.134814,-4.209960,0.999998,0.000161,-0.000863,0.002047,0.000235,0.002066,-0.000882,85.412523,0.002073,
630,670,0.772564,-3.372779,0.999998,0.000184,-0.001257,0.002556,0.000080,0.002558,-0.001259,88.798802,0.002558,
860,450,0.317500,-4.118633,0.999999,0.000216,-0.001186,0.002444,-0.000113,0.002447,-0.001190,-88.224598,0.002447,
1580,120,-0.076461,-4.861576,0.999999,0.000134,-0.000402,0.001927,-0.000321,0.001970,-0.000446,-82.286666,0.002067,
830,1330,0.542942,-1.679820,0.999998,0.000223,-0.001558,0.002843,-0.000065,0.002844,-0.001558,-89.153436,0.002848,
1580,1530,-0.328257,-1.088611,0.999999,0.000172,-0.001281,0.002547,-0.000174,0.002555,-0.001289,-87.395822,0.002555,
1410,740,-0.172698,-3.622811,0.999998,0.000166,-0.001607,0.002556,0.000829,0.002715,-0.001766,79.144616,0.002756,
1580,1250,-0.539067,-1.875890,0.999998,0.000175,-0.001664,0.003055,0.000172,0.003062,-0.001670,87.913227,0.003066,
1050,1190,0.317880,-1.787466,0.999998,0.000175,-0.001817,0.003247,0.000717,0.003346,-0.001916,82.093355,0.003358,
1030,1030,0.589215,-2.507616,0.999997,0.000203,-0.002006,0.004943,0.000011,0.004943,-0.002006,89.911746,0.004973,
1810,700,-0.771558,-3.311275,0.999998,0.000191,-0.001278,0.002549,-0.000103,0.002552,-0.001281,-88.466405,0.002552,
1440,1960,-0.026401,-0.119604,0.999999,0.000141,-0.000194,0.001636,0.000156,0.001649,-0.000208,85.173076,0.001796,
940,1910,0.073896,-0.217767,0.999998,0.000150,-0.000355,0.001843,-0.000231,0.001867,-0.000379,-84.056217,0.001974,
790,680,0.563618,-3.455928,0.999997,0.000210,-0.001463,0.002767,0.000059,0.002768,-0.001464,89.206491,0.002769,
1700,1340,-0.632549,-1.698852,0.999997,0.000206,-0.001445,0.002747,0.000147,0.002752,-0.001450,88.000298,0.002753,
960,1950,0.043755,-0.142671,0.999998,0.000144,-0.000269,0.001743,-0.000230,0.001769,-0.000294,-83.571117,0.001895,
670,850,0.879120,-2.942845,0.999998,0.000152,-0.001197,0.002461,0.000221,0.002474,-0.001211,86.553010,0.002474,
1020,1230,0.308515,-1.740166,0.999998,0.000177,-0.001943,0.003226,0.000483,0.003271,-0.001988,84.703387,0.003296,
1080,1610,0.100363,-0.755595,0.999999,0.000141,-0.000816,0.001962,0.000228,0.001981,-0.000835,85.345891,0.001989,
710,1650,0.468894,-0.925127,0.999998,0.000173,-0.001235,0.002526,0.000040,0.002526,-0.001236,89.390055,0.002526,
1270,1200,-0.092476,-1.238455,0.999998,0.000000,-0.001933,0.000345,0.000062,0.000347,-0.001935,88.435298,0.002063,
1720,1710,-0.385151,-0.747769,0.999997,0.000188,-0.001169,0.002504,0.000048,0.002505,-0.001170,89.248414,0.002507,
880,1080,0.729400,-2.378860,0.999998,0.000194,-0.000991,0.002780,-0.000238,0.002795,-0.001006,-86.397827,0.002832,
990,920,0.527718,-2.905427,0.999997,0.000210,-0.001590,0.003527,0.000097,0.003529,-0.001592,88.910780,0.003535,
1560,190,-0.118969,-4.728607,0.999999,0.000131,-0.000545,0.002003,-0.000210,0.002020,-0.000562,-85.319934,0.002085,
1100,280,0.057626,-4.604480,0.999998,0.000158,-0.000471,0.001822,0.000019,0.001822,-0.000471,89.533362,0.001891,
870,1680,0.266774,-0.733995,0.999998,0.000159,-0.001054,0.002331,0.000028,0.002331,-0.001054,89.532973,0.002335,
690,1380,0.699714,-1.639122,0.999998,0.000178,-0.001354,0.002619,-0.000094,0.002621,-0.001356,-88.651382,0.002621,
1490,1150,-0.529577,-2.106450,0.999998,0.000183,-0.001616,0.003384,0.000178,0.003391,-0.001622,87.962654,0.003392,
1750,310,-0.392122,-4.356171,0.999998,0.000180,-0.001202,0.002535,-0.000042,0.002535,-0.001202,-89.357410,0.002536,
1620,1180,-0.680685,-2.105652,0.999998,0.000171,-0.001386,0.002871,0.000362,0.002902,-0.001416,85.175231,0.002902,
1650,1710,-0.305629,-0.699868,0.999998,0.000176,-0.001099,0.002397,-0.000001,0.002397,-0.001099,-89.988553,0.002400,
1760,1150,-0.880986,-2.221599,0.999999,0.000138,-0.001164,0.002439,0.000213,0.002452,-0.001176,86.622320,0.002452,
1000,1150,0.484100,-2.061278,0.999998,0.000184,-0.001708,0.003543,0.000000,0.003543,-0.001708,-89.996298,0.003544,
1310,510,-0.050716,-4.199971,0.999999,0.000137,-0.000731,0.001803,0.000238,0.001825,-0.000753,84.685107,0.001834,
1580,100,-0.059478,-4.900845,0.999999,0.000141,-0.000347,0.001840,-0.000334,0.001890,-0.000397,-81.508857,0.001993,
1530,570,-0.283597,-3.883412,0.999998,0.000174,-0.001336,0.002492,0.000283,0.002513,-0.001357,85.790565,0.002516,
1200,1390,0.016298,-1.063624,0.999998,0.000166,-0.000584,0.001320,0.000220,0.001345,-0.000609,83.493069,0.001347,
1310,740,-0.047358,-3.831312,0.999998,0.000151,-0.000845,0.001351,0.000838,0.001634,-0.001129,71.324126,0.001673,
700,990,0.922024,-2.610792,0.999998,0.000142,-0.001090,0.002394,0.000057,0.002394,-0.001091,89.065622,0.002398,
790,890,0.764562,-2.876239,0.999998,0.000179,-0.001232,0.002663,0.000318,0.002689,-0.001258,85.367507,0.002691,
560,400,0.751030,-4.035515,0.999856,0.000000,-0.004912,0.003194,-0.000221,0.003200,-0.004918,-88.437914,0.004992,
1140,1520,0.060115,-0.893476,0.999999,0.000135,-0.000727,0.001812,0.000272,0.001841,-0.000756,83.947653,0.001850,
1390,1560,-0.112139,-0.861553,0.999999,0.000127,-0.000860,0.002012,-0.000299,0.002043,-0.000891,-84.110075,0.002049,
1640,970,-0.785910,-2.668029,0.999998,0.000167,-0.001045,0.002650,-0.000210,0.002662,-0.001057,-86.755912,0.002680,
1880,170,-0.382066,-4.590279,0.999997,0.000186,-0.001256,0.002560,-0.000163,0.002567,-0.001263,-87.553014,0.002567,
1000,1520,0.190319,-1.004890,0.999998,0.000145,-0.001080,0.002262,0.000341,0.002296,-0.001114,84.235818,0.002297,
700,1150,0.885745,-2.222409,0.999998,0.000170,-0.001183,0.002485,-0.000187,0.002494,-0.001193,-87.086688,0.002495,
830,1310,0.561541,-1.737714,0.999998,0.000188,-0.001555,0.002884,-0.000121,0.002888,-0.001558,-88.441018,0.002891,
1100,1750,0.064049,-0.481269,0.999998,0.000169,-0.000513,0.001844,0.000021,0.001844,-0.000513,89.496437,0.001903,
1260,220,-0.008890,-4.722911,0.999998,0.000158,-0.000329,0.001690,-0.000001,0.001690,-0.000329,-89.981729,0.001792,
1610,340,-0.262600,-4.376397,0.999998,0.000145,-0.000950,0.002379,-0.000027,0.002379,-0.000950,-89.536004,0.002396,
1200,1460,0.019468,-0.964998,0.999999,0.000133,-0.000607,0.001550,0.000147,0.001560,-0.000617,86.115883,0.001571,
600,1830,0.437640,-0.569050,0.999997,0.000189,-0.001212,0.002512,-0.000060,0.002513,-0.001213,-89.080379,0.002513,
1390,260,-0.065010,-4.636018,0.999998,0.000167,-0.000474,0.001823,-0.000038,0.001823,-0.000475,-89.044224,0.001892,
1820,1460,-0.695222,-1.467922,0.999997,0.000191,-0.001276,0.002591,0.000022,0.002591,-0.001276,89.670110,0.002591,
1050,1170,0.355081,-1.854531,0.999998,0.000167,-0.001749,0.003305,0.000727,0.003408,-0.001852,81.972005,0.003412,
630,650,0.756075,-3.424359,0.999998,0.000180,-0.001259,0.002556,0.000052,0.002557,-0.001260,89.222055,0.002557,
1440,1940,-0.036555,-0.153791,0.999998,0.000160,-0.000234,0.001753,0.000150,0.001764,-0.000245,85.707544,0.001911,
1460,1890,-0.061903,-0.244079,0.999998,0.000176,-0.000310,0.001804,0.000158,0.001816,-0.000322,85.759901,0.001938,
1790,700,-0.744105,-3.324948,0.999998,0.000192,-0.001327,0.002579,-0.000115,0.002582,-0.001330,-88.314892,0.002583,
670,870,0.894518,-2.894133,0.999998,0.000148,-0.001162,0.002429,0.000229,0.002443,-0.001177,86.363595,0.002444,
1020,1210,0.338302,-1.807677,0.999998,0.000189,-0.001980,0.003383,0.000423,0.003416,-0.002014,85.515946,0.003434,
970,1560,0.211619,-0.940047,0.999998,0.000153,-0.001096,0.002287,0.000265,0.002307,-0.001117,85.548416,0.002308,
710,1630,0.484735,-0.976977,0.999998,0.000166,-0.001246,0.002537,0.000044,0.002537,-0.001247,89.338328,0.002538,
1700,1320,-0.652678,-1.753058,0.999997,0.000208,-0.001453,0.002712,0.000179,0.002719,-0.001460,87.545613,0.002722,
1270,2020,-0.001515,-0.022192,0.999999,0.000000,-0.000025,0.001509,0.000032,0.001509,-0.000026,88.813090,0.001728,
690,400,0.492039,-4.110889,0.999998,0.000179,-0.001237,0.002528,-0.000033,0.002528,-0.001237,-89.497906,0.002529,
630,1600,0.607636,-1.116358,0.999997,0.000180,-0.001243,0.002522,0.000028,0.002522,-0.001243,89.572203,0.002522,
1560,1950,-0.057445,-0.146770,0.999999,0.000140,-0.000259,0.001830,0.000323,0.001879,-0.000308,81.404575,0.002016,
620,90,0.186425,-4.845483,0.999998,0.000152,-0.001167,0.002708,0.000559,0.002787,-0.001246,81.956772,0.002793,
960,1780,0.135746,-0.468568,0.999998,0.000156,-0.000732,0.002043,-0.000050,0.002044,-0.000733,-88.974246,0.002071,
1000,110,0.038374,-4.891590,0.999999,0.000159,-0.000166,0.001720,0.000196,0.001740,-0.000186,84.133074,0.001910,
850,1680,0.288854,-0.746840,0.999998,0.000151,-0.001048,0.002342,0.000037,0.002343,-0.001049,89.380454,0.002347,
1100,170,0.033992,-4.798628,0.999999,0.000129,-0.000266,0.001705,0.000076,0.001708,-0.000269,87.786102,0.001837,
1180,1630,0.029717,-0.682039,0.999998,0.000150,-0.000608,0.001788,0.000061,0.001790,-0.000610,88.553208,0.001820,
1410,350,-0.100999,-4.459548,0.999998,0.000163,-0.000698,0.001956,0.000090,0.001959,-0.000701,88.057708,0.001986,
1660,180,-0.174300,-4.721820,0.999998,0.000149,-0.000745,0.002202,-0.000350,0.002243,-0.000786,-83.312115,0.002276,
600,570,0.730592,-3.604063,0.999998,0.000164,-0.001245,0.002543,0.000004,0.002543,-0.001245,89.946557,0.002543,
1620,1160,-0.702324,-2.162496,0.999998,0.000165,-0.001317,0.002821,0.000331,0.002847,-0.001343,85.455387,0.002849,
1720,1290,-0.708804,-1.845925,0.999998,0.000194,-0.001394,0.002710,0.000216,0.002721,-0.001405,86.997580,0.002722,
880,1060,0.740324,-2.433070,0.999998,0.000186,-0.000956,0.002704,-0.000148,0.002710,-0.000962,-87.688045,0.002748,
720,670,0.653289,-3.434592,0.999998,0.000175,-0.001371,0.002645,0.000080,0.002647,-0.001373,88.863101,0.002647,
560,130,0.333063,-4.662033,0.999948,0.000000,-0.000713,0.002789,0.000746,0.002942,-0.000865,78.460934,0.003024,
1580,80,-0.045780,-4.934690,0.999999,0.000128,-0.000282,0.001804,-0.000342,0.001858,-0.000337,-80.935289,0.001980,
670,1360,0.744550,-1.704206,0.999997,0.000231,-0.001325,0.002558,-0.000112,0.002561,-0.001328,-88.351112,0.002562,
1530,550,-0.274796,-3.935363,0.999998,0.000172,-0.001274,0.002491,0.000285,0.002513,-0.001295,85.694885,0.002513,
760,930,0.831418,-2.765235,0.999999,0.000148,-0.001159,0.002522,0.000214,0.002534,-0.001171,86.688091,0.002537,
570,1200,0.998745,-2.155673,0.999999,0.000131,-0.001062,0.002239,-0.000033,0.002240,-0.001062,-89.428472,0.002241,
790,660,0.546131,-3.511931,0.999997,0.000207,-0.001456,0.002756,0.000035,0.002756,-0.001457,89.520183,0.002758,
1490,1130,-0.562830,-2.174546,0.999998,0.000168,-0.001467,0.003414,0.000216,0.003423,-0.001477,87.474869,0.003434,
1100,260,0.054416,-4.639920,0.999999,0.000138,-0.000442,0.001801,0.000003,0.001801,-0.000442,89.923460,0.001878,
1750,290,-0.373235,-4.407893,0.999997,0.000183,-0.001185,0.002515,-0.000059,0.002516,-0.001186,-89.087467,0.002517,
1260,200,-0.009626,-4.756048,0.999998,0.000163,-0.000311,0.001659,-0.000001,0.001659,-0.000311,-89.984686,0.001763,
1420,490,-0.137535,-4.170761,0.999999,0.000126,-0.000898,0.002088,0.000269,0.002112,-0.000922,84.891493,0.002118,
630,630,0.739873,-3.474769,0.999998,0.000182,-0.001272,0.002548,0.000023,0.002548,-0.001272,89.661666,0.002548,
1200,1370,0.016669,-1.089311,0.999999,0.000100,-0.000572,0.001215,0.000258,0.001252,-0.000608,81.943741,0.001252,
1440,1920,-0.042704,-0.191570,0.999998,0.000133,-0.000261,0.001723,0.000150,0.001735,-0.000272,85.696138,0.001866,
1200,1660,0.018973,-0.625075,0.999998,0.000181,-0.000588,0.001801,0.000056,0.001802,-0.000589,88.651630,0.001838,
1340,1890,-0.026651,-0.230175,0.999999,0.000121,-0.000290,0.001664,0.000050,0.001666,-0.000292,88.526341,0.001779,
1140,1500,0.061265,-0.929225,0.999999,0.000123,-0.000737,0.001745,0.000297,0.001781,-0.000772,83.268709,0.001786,
830,1290,0.582010,-1.794675,0.999998,0.000197,-0.001547,0.002895,-0.000159,0.002901,-0.001553,-87.947916,0.002903,
1640,950,-0.772479,-2.722471,0.999998,0.000176,-0.001096,0.002648,-0.000263,0.002667,-0.001114,-85.995465,0.002679,
1050,1150,0.398218,-1.925141,0.999998,0.000164,-0.001647,0.003394,0.000842,0.003531,-0.001784,80.766822,0.003531,
1540,1750,-0.179942,-0.546392,0.999998,0.000202,-0.000758,0.002159,0.000030,0.002159,-0.000759,89.411006,0.002191,
900,1150,0.637944,-2.168309,0.999998,0.000182,-0.001353,0.003004,-0.000361,0.003033,-0.001382,-85.299143,0.003037,
1310,750,-0.048092,-3.817684,0.999998,0.000156,-0.000874,0.001324,0.000875,0.001629,-0.001179,70.740318,0.001683,
1370,480,-0.092573,-4.225435,0.999998,0.000137,-0.000802,0.001949,0.000274,0.001976,-0.000829,84.374908,0.001985,
1280,30,-0.000396,-5.022747,0.999999,0.000000,0.000008,0.001465,-0.000014,0.001465,0.000008,-89.441276,0.001696,
1360,480,-0.084308,-4.232607,0.999999,0.000135,-0.000762,0.001922,0.000233,0.001942,-0.000782,85.071293,0.001955,
1700,1300,-0.672055,-1.807835,0.999998,0.000166,-0.001440,0.002722,0.000183,0.002730,-0.001448,87.480954,0.002732,
710,1610,0.498148,-1.027198,0.999998,0.000163,-0.001251,0.002526,0.000051,0.002527,-0.001252,89.221118,0.002527,
1380,810,-0.170079,-3.519260,0.999998,0.000192,-0.001706,0.002556,0.001056,0.002803,-0.001953,76.816951,0.002875,
660,510,0.608678,-3.806578,0.999998,0.000194,-0.001316,0.002556,-0.000027,0.002556,-0.001316,-89.596697,0.002556,
700,2000,0.063877,-0.072599,0.999999,0.000179,-0.000385,0.002144,-0.000794,0.002373,-0.000613,-73.941089,0.002463,
870,1960,0.061633,-0.132779,0.999998,0.000157,-0.000336,0.001832,-0.000330,0.001881,-0.000385,-81.528902,0.001987,
1140,610,0.059724,-4.016957,0.999999,0.000143,-0.000777,0.001692,-0.000412,0.001759,-0.000844,-80.773669,0.001760,
1210,1700,0.011005,-0.552849,0.999999,0.000132,-0.000530,0.001760,0.000043,0.001761,-0.000531,88.930496,0.001807,
1680,470,-0.424318,-4.005621,0.999998,0.000144,-0.001251,0.002528,0.000082,0.002530,-0.001253,88.758526,0.002530,
1660,200,-0.194501,-4.676195,0.999998,0.000164,-0.000808,0.002285,-0.000290,0.002311,-0.000835,-84.695934,0.002341,
610,280,0.487544,-4.343870,0.999998,0.000224,-0.001243,0.002486,0.000011,0.002486,-0.001243,89.832754,0.002486,
1340,1330,-0.074599,-1.239984,0.999998,0.000150,-0.001034,0.001736,-0.000899,0.002002,-0.001300,-73.509703,0.002031,
740,930,0.853364,-2.763284,0.999998,0.000144,-0.001118,0.002482,0.000207,0.002494,-0.001130,86.720437,0.002497,
670,890,0.910396,-2.845254,0.999998,0.000156,-0.001133,0.002420,0.000188,0.002430,-0.001143,86.987487,0.002432,
1530,530,-0.266039,-3.984972,0.999998,0.000160,-0.001220,0.002439,0.000258,0.002457,-0.001238,85.989318,0.002457,
930,1820,0.134529,-0.396521,0.999999,0.000126,-0.000635,0.002051,-0.000148,0.002059,-0.000643,-86.863647,0.002107,
1790,680,-0.726551,-3.375373,0.999998,0.000182,-0.001317,0.002586,-0.000094,0.002588,-0.001320,-88.627804,0.002588,
1390,280,-0.071212,-4.599066,0.999998,0.000150,-0.000492,0.001877,-0.000024,0.001878,-0.000492,-89.409005,0.001947,
560,120,0.298063,-4.693551,0.999931,0.000000,-0.000464,0.003031,0.000802,0.003207,-0.000639,77.672694,0.003394,
1820,1440,-0.709841,-1.517813,0.999998,0.000189,-0.001287,0.002561,0.000023,0.002562,-0.001287,89.658589,0.002562,
1370,1560,-0.093943,-0.845807,0.999998,0.000150,-0.000821,0.001943,-0.000296,0.001974,-0.000852,-83.945851,0.001980,
880,1040,0.747091,-2.485407,0.999998,0.000187,-0.000936,0.002707,-0.000065,0.002708,-0.000937,-88.974633,0.002750,
1440,1630,-0.142313,-0.749319,0.999998,0.000191,-0.000816,0.002100,-0.000162,0.002109,-0.000825,-86.828755,0.002125,
1100,240,0.051645,-4.675147,0.999999,0.000134,-0.000426,0.001795,0.000029,0.001795,-0.000426,89.260487,0.001876,
1390,1280,-0.159220,-1.461436,0.999998,0.000164,-0.001647,0.002502,-0.000966,0.002716,-0.001861,-77.511803,0.002777,
590,1830,0.450221,-0.579813,0.999997,0.000179,-0.001548,0.002516,-0.000065,0.002517,-0.001549,-89.082339,0.002540,
1490,1110,-0.594063,-2.244818,0.999998,0.000172,-0.001329,0.003444,0.000242,0.003456,-0.001342,87.106092,0.003485,
1750,270,-0.355284,-4.456927,0.999998,0.000199,-0.001159,0.002523,-0.000122,0.002527,-0.001163,-88.101189,0.002530,
1620,1140,-0.721759,-2.219587,0.999998,0.000164,-0.001220,0.002777,0.000346,0.002807,-0.001250,85.083170,0.002813,
1200,1900,0.007157,-0.209678,0.999999,0.000135,-0.000221,0.001633,-0.000036,0.001634,-0.000222,-88.899001,0.001772,
630,610,0.724075,-3.524948,0.999997,0.000191,-0.001283,0.002578,0.000026,0.002578,-0.001283,89.617898,0.002578,
830,1270,0.601354,-1.853047,0.999998,0.000187,-0.001523,0.002902,-0.000198,0.002911,-0.001532,-87.438606,0.002912,
1690,800,-0.701543,-3.113509,0.999998,0.000169,-0.001401,0.002751,-0.000265,0.002768,-0.001417,-86.367486,0.002768,
1140,1480,0.060675,-0.961973,0.999999,0.000133,-0.000725,0.001721,0.000333,0.001766,-0.000769,82.374409,0.001771,
1320,1180,-0.224466,-1.398396,0.999998,0.000000,-0.000787,0.000739,-0.000597,0.000945,-0.000993,-70.974826,0.001120,
1270,1500,-0.023857,-0.903929,0.999998,0.000160,-0.000636,0.001659,-0.000154,0.001669,-0.000646,-86.184942,0.001683,
1700,1290,-0.680523,-1.836432,0.999998,0.000150,-0.001427,0.002741,0.000200,0.002751,-0.001437,87.253021,0.002752,
1580,60,-0.029416,-4.972162,0.999999,0.000130,-0.000225,0.001748,-0.000345,0.001807,-0.000283,-80.357748,0.001943,
1440,1900,-0.051040,-0.224323,0.999998,0.000148,-0.000309,0.001752,0.000158,0.001764,-0.000321,85.630038,0.001879,
1160,790,0.052215,-3.784114,0.999998,0.000160,-0.000935,0.001165,-0.000924,0.001513,-0.001283,-69.329549,0.001631,
1320,1890,-0.019836,-0.228272,0.999999,0.000138,-0.000242,0.001664,0.000038,0.001664,-0.000243,88.849578,0.001798,
1650,920,-0.762834,-2.800711,0.999998,0.000169,-0.001223,0.002708,-0.000313,0.002732,-0.001248,-85.478276,0.002736,
1260,180,-0.007924,-4.788738,0.999999,0.000141,-0.000263,0.001665,0.000011,0.001665,-0.000263,89.662776,0.001791,
770,1360,0.606115,-1.638906,0.999997,0.000185,-0.001459,0.002748,-0.000105,0.002751,-0.001462,-88.567473,0.002752,
950,740,0.352523,-3.439372,0.999997,0.000190,-0.001766,0.002979,-0.000270,0.002994,-0.001781,-86.758736,0.003012,
710,1590,0.513892,-1.078044,0.999998,0.000177,-0.001256,0.002540,0.000046,0.002540,-0.001257,89.303819,0.002540,
880,1150,0.663467,-2.178890,0.999998,0.000166,-0.001312,0.002913,-0.000348,0.002942,-0.001340,-85.327568,0.002945,
1050,1130,0.441055,-1.999250,0.999997,0.000189,-0.001599,0.003644,0.001091,0.003862,-0.001817,78.699472,0.003865,
1520,1750,-0.164679,-0.536985,0.999998,0.000180,-0.000797,0.002129,0.000015,0.002129,-0.000797,89.702387,0.002151,
750,590,0.548424,-3.669862,0.999997,0.000186,-0.001360,0.002644,-0.000018,0.002644,-0.001360,-89.738377,0.002645,
1300,1700,-0.035849,-0.558266,0.999998,0.000137,-0.000502,0.001812,-0.000025,0.001812,-0.000503,-89.374496,0.001871,
1780,1000,-0.943313,-2.585287,0.999998,0.000159,-0.001065,0.002345,-0.000076,0.002347,-0.001067,-88.725893,0.002350,
1620,2010,-0.024878,-0.045252,0.999999,0.000130,-0.000064,0.001735,0.000400,0.001820,-0.000149,78.011970,0.002020,
590,280,0.512061,-4.324411,0.999998,0.000206,-0.001555,0.002483,0.000048,0.002484,-0.001555,89.324130,0.002510,
1680,450,-0.410663,-4.058563,0.999998,0.000169,-0.001246,0.002537,0.000070,0.002538,-0.001248,88.933218,0.002538,
1530,510,-0.258508,-4.032931,0.999998,0.000155,-0.001194,0.002381,0.000236,0.002396,-0.001209,86.239815,0.002396,
1700,1280,-0.690505,-1.862730,0.999998,0.000167,-0.001417,0.002745,0.000219,0.002756,-0.001429,87.000891,0.002757,
920,1680,0.217681,-0.702987,0.999998,0.000163,-0.000897,0.002235,0.000033,0.002235,-0.000898,89.399633,0.002250,
1660,220,-0.212980,-4.629859,0.999998,0.000159,-0.000869,0.002267,-0.000241,0.002285,-0.000887,-85.632749,0.002304,
930,920,0.617922,-2.842538,0.999998,0.000202,-0.001372,0.003127,0.000347,0.003154,-0.001399,85.615692,0.003161,
1340,1310,-0.077353,-1.275417,0.999998,0.000167,-0.001079,0.001734,-0.000988,0.002046,-0.001391,-72.460527,0.002090,
670,1330,0.770852,-1.780745,0.999998,0.000153,-0.001293,0.002585,-0.000160,0.002591,-0.001300,-87.643405,0.002591,
560,110,0.278456,-4.727495,0.999947,0.000000,-0.000326,0.003059,0.000562,0.003150,-0.000417,80.814202,0.003423,
700,930,0.899140,-2.755772,0.999999,0.000127,-0.001144,0.002447,0.000175,0.002455,-0.001153,87.211677,0.002457,
770,1740,0.332475,-0.656563,0.999998,0.000144,-0.001092,0.002459,-0.000059,0.002460,-0.001093,-89.048973,0.002465,
1760,150,-0.217084,-4.750167,0.999998,0.000168,-0.000989,0.002445,-0.000446,0.002502,-0.001046,-82.713257,0.002513,
1570,1820,-0.156810,-0.407754,0.999998,0.000162,-0.000681,0.002119,0.000158,0.002128,-0.000690,86.788842,0.002171,
680,1530,0.594315,-1.256534,0.999997,0.000180,-0.001295,0.002590,0.000030,0.002590,-0.001296,89.551841,0.002590,
1370,460,-0.090870,-4.262277,0.999999,0.000140,-0.000772,0.001904,0.000249,0.001927,-0.000795,84.733467,0.001936,
1620,1120,-0.741020,-2.274107,0.999998,0.000169,-0.001132,0.002737,0.000314,0.002762,-0.001157,85.387175,0.002774,
680,990,0.945253,-2.608523,0.999998,0.000167,-0.001082,0.002355,0.000061,0.002356,-0.001083,88.977427,0.002359,
1440,1880,-0.059626,-0.260460,0.999998,0.000161,-0.000335,0.001794,0.000129,0.001802,-0.000343,86.535897,0.001913,
1200,520,0.019557,-4.196747,0.999999,0.000132,-0.000652,0.001665,-0.000092,0.001669,-0.000655,-87.736541,0.001681,
630,590,0.707331,-3.577959,0.999997,0.000198,-0.001290,0.002541,0.000015,0.002541,-0.001290,89.779166,0.002541,
1020,1890,0.056532,-0.242152,0.999998,0.000227,-0.000355,0.001780,-0.000148,0.001791,-0.000365,-86.054135,0.001892,
1420,1630,-0.125952,-0.737874,0.999998,0.000156,-0.000800,0.002052,-0.000181,0.002064,-0.000811,-86.377823,0.002080,
1820,1420,-0.726209,-1.568950,0.999997,0.000197,-0.001291,0.002560,0.000047,0.002561,-0.001292,89.306996,0.002561,
990,240,0.100194,-4.652138,0.999998,0.000161,-0.000509,0.001956,0.000108,0.001961,-0.000514,87.491169,0.002033,
880,1020,0.747158,-2.541486,0.999998,0.000191,-0.000927,0.002754,0.000043,0.002755,-0.000927,89.331783,0.002803,
1320,1170,-0.255868,-1.403580,0.999985,0.000000,-0.000640,0.000554,-0.000798,0.000954,-0.001040,-63.395719,0.001154,
1140,1460,0.061053,-0.997569,0.999999,0.000146,-0.000735,0.001719,0.000368,0.001773,-0.000789,81.657229,0.001776,
1070,1420,0.127838,-1.147420,0.999999,0.000139,-0.001133,0.002099,0.000620,0.002214,-0.001248,79.511899,0.002220,
1100,220,0.045318,-4.712811,0.999998,0.000147,-0.000378,0.001750,0.000046,0.001751,-0.000379,88.754408,0.001842,
710,1570,0.526843,-1.129121,0.999998,0.000181,-0.001250,0.002557,0.000040,0.002558,-0.001250,89.399758,0.002558,
840,570,0.409944,-3.797582,0.999998,0.000164,-0.001382,0.002611,-0.000133,0.002616,-0.001387,-88.088627,0.002617,
1440,990,-0.584649,-2.693894,0.999998,0.000173,-0.001676,0.004481,0.000297,0.004495,-0.001690,87.240863,0.004541,
1570,1990,-0.032605,-0.076787,0.999999,0.000133,-0.000179,0.001749,0.000330,0.001804,-0.000234,80.554515,0.001962,
940,1210,0.489989,-1.946125,0.999998,0.000173,-0.001774,0.003243,-0.000140,0.003247,-0.001777,-88.406939,0.003252,
1650,800,-0.645611,-3.133169,0.999999,0.000180,-0.001488,0.002848,-0.000265,0.002864,-0.001504,-86.513218,0.002866,
1490,1530,-0.218110,-1.006074,0.999998,0.000152,-0.001164,0.002354,-0.000316,0.002382,-0.001192,-84.909814,0.002382,
570,1060,1.059926,-2.452518,0.999996,0.000246,-0.000916,0.002064,-0.000032,0.002064,-0.000916,-89.385653,0.002068,
1750,250,-0.332918,-4.508202,0.999998,0.000193,-0.001138,0.002503,-0.000154,0.002509,-0.001145,-87.582846,0.002512,
580,1850,0.437439,-0.540834,0.999997,0.000201,-0.001426,0.002537,-0.000037,0.002538,-0.001426,-89.466699,0.002544,
1400,810,-0.206533,-3.457747,0.999998,0.000201,-0.001863,0.002840,0.000895,0.003005,-0.002027,79.586288,0.003065,
1180,790,0.034635,-3.826135,0.999998,0.000183,-0.000811,0.000889,-0.000709,0.001146,-0.001068,-70.084147,0.001281,
590,270,0.502463,-4.348899,0.999998,0.000191,-0.001556,0.002554,0.000078,0.002555,-0.001557,88.916522,0.002575,
1560,1750,-0.195551,-0.555640,0.999998,0.000179,-0.000813,0.002216,0.000059,0.002217,-0.000814,88.879362,0.002243,
790,870,0.746002,-2.928591,0.999998,0.000178,-0.001283,0.002684,0.000322,0.002710,-0.001309,85.390271,0.002710,
1700,1260,-0.709835,-1.916791,0.999998,0.000176,-0.001399,0.002709,0.000246,0.002724,-0.001413,86.585484,0.002724,
1530,930,-0.626897,-2.813760,0.999998,0.000185,-0.001293,0.003107,-0.000331,0.003132,-0.001318,-85.725429,0.003145,
1210,1460,0.013315,-0.962217,0.999999,0.000123,-0.000605,0.001527,0.000127,0.001534,-0.000613,86.605654,0.001545,
1300,1660,-0.038064,-0.629367,0.999998,0.000156,-0.000582,0.001812,-0.000050,0.001813,-0.000583,-88.794919,0.001851,
1660,240,-0.233143,-4.584657,0.999998,0.000150,-0.000905,0.002341,-0.000205,0.002354,-0.000918,-86.399736,0.002372,
670,1310,0.790533,-1.832999,0.999999,0.000151,-0.001270,0.002558,-0.000162,0.002565,-0.001277,-87.583930,0.002565,
1050,1330,0.171211,-1.387501,0.999998,0.000158,-0.001549,0.002508,0.000803,0.002661,-0.001703,79.200947,0.002695,
560,100,0.257091,-4.758051,0.999962,0.000000,-0.000312,0.002900,0.000465,0.002966,-0.000378,81.931054,0.003229,
1250,1370,-0.009315,-1.082645,0.999998,0.000146,-0.000510,0.001162,-0.000179,0.001181,-0.000529,-83.949567,0.001184,
910,1280,0.457811,-1.756156,0.999997,0.000201,-0.001769,0.003057,-0.000008,0.003057,-0.001769,-89.899095,0.003070,
680,930,0.922876,-2.751136,0.999999,0.000144,-0.001121,0.002417,0.000176,0.002425,-0.001130,87.153142,0.002427,
910,920,0.643127,-2.830542,0.999998,0.000156,-0.001300,0.003001,0.000351,0.003030,-0.001328,85.364738,0.003037,
750,1360,0.633821,-1.651685,0.999998,0.000197,-0.001420,0.002722,-0.000110,0.002724,-0.001423,-88.477602,0.002725,
700,1270,0.785892,-1.919373,0.999999,0.000164,-0.001282,0.002558,-0.000217,0.002571,-0.001294,-86.778538,0.002571,
1440,1860,-0.066710,-0.296428,0.999998,0.000160,-0.000375,0.001820,0.000120,0.001827,-0.000382,86.881349,0.001927,
840,1830,0.190765,-0.406152,0.999998,0.000161,-0.000722,0.002217,-0.000245,0.002237,-0.000742,-85.267629,0.002279,
1820,1890,-0.301186,-0.367010,0.999998,0.000173,-0.001092,0.002637,0.000342,0.002668,-0.001123,84.805277,0.002679,
630,570,0.692047,-3.627021,0.999998,0.000166,-0.001302,0.002531,-0.000018,0.002531,-0.001302,-89.737102,0.002532,
1200,480,0.020054,-4.265208,0.999998,0.000153,-0.000604,0.001728,-0.000090,0.001731,-0.000608,-87.796327,0.001756,
1210,1820,0.007715,-0.341726,0.999999,0.000139,-0.000362,0.001718,0.000016,0.001719,-0.000362,89.551076,0.001812,
1340,1630,-0.065660,-0.698958,0.999998,0.000167,-0.000657,0.001872,-0.000177,0.001884,-0.000669,-86.025614,0.001911,
1060,650,0.139894,-3.845932,0.999998,0.000153,-0.001215,0.002208,-0.000661,0.002331,-0.001338,-79.439063,0.002339,
1760,130,-0.187272,-4.797846,0.999999,0.000126,-0.000916,0.002349,-0.000520,0.002430,-0.000996,-81.167811,0.002443,
1000,1890,0.063408,-0.244967,0.999999,0.000135,-0.000298,0.001808,-0.000194,0.001826,-0.000316,-84.788815,0.001952,
1620,360,-0.285708,-4.321435,0.999998,0.000165,-0.000987,0.002373,-0.000009,0.002373,-0.000987,-89.848642,0.002385,
970,290,0.137304,-4.546286,0.999998,0.000161,-0.000712,0.002059,0.000017,0.002059,-0.000712,89.645103,0.002091,
1530,950,-0.651141,-2.751757,0.999998,0.000176,-0.001172,0.003080,-0.000308,0.003102,-0.001194,-85.872817,0.003129,
1240,170,-0.003082,-4.807398,0.999999,0.000132,-0.000274,0.001650,0.000023,0.001651,-0.000275,89.320058,0.001769,
1570,1970,-0.045798,-0.111779,0.999999,0.000139,-0.000257,0.001752,0.000318,0.001801,-0.000306,81.221110,0.001927,
1000,1500,0.193543,-1.050851,0.999998,0.000143,-0.001144,0.002287,0.000386,0.002329,-0.001187,83.665019,0.002330,
880,1000,0.742209,-2.596313,0.999998,0.000202,-0.000957,0.002715,0.000120,0.002719,-0.000961,88.135590,0.002758,
1700,1240,-0.729699,-1.971956,0.999998,0.000166,-0.001369,0.002691,0.000269,0.002708,-0.001387,86.221300,0.002709,
710,1550,0.540617,-1.180061,0.999998,0.000173,-0.001271,0.002570,0.000039,0.002570,-0.001271,89.416686,0.002570,
1490,1550,-0.212443,-0.959771,0.999998,0.000167,-0.001095,0.002294,-0.000269,0.002315,-0.001116,-85.496749,0.002316,
1750,230,-0.312071,-4.558200,0.999997,0.000187,-0.001120,0.002480,-0.000200,0.002491,-0.001131,-86.825973,0.002495,
1400,830,-0.230044,-3.399412,0.999998,0.000147,-0.001868,0.002927,0.000832,0.003067,-0.002008,80.435732,0.003116,
1140,1440,0.060391,-1.030888,0.999999,0.000142,-0.000760,0.001681,0.000416,0.001750,-0.000828,80.594561,0.001750,
1100,200,0.041181,-4.745920,0.999998,0.000144,-0.000341,0.001748,0.000064,0.001750,-0.000343,88.250699,0.001855,
1880,160,-0.366323,-4.615878,0.999998,0.000172,-0.001254,0.002562,-0.000193,0.002572,-0.001264,-87.106072,0.002572,
1360,810,-0.137133,-3.584405,0.999998,0.000173,-0.001532,0.002165,0.001143,0.002489,-0.001857,74.139118,0.002588,
690,380,0.476266,-4.161481,0.999998,0.000168,-0.001222,0.002522,-0.000010,0.002522,-0.001223,-89.845167,0.002522,
790,540,0.459001,-3.832771,0.999998,0.000182,-0.001340,0.002604,-0.000079,0.002606,-0.001342,-88.858765,0.002606,
830,1250,0.623289,-1.911292,0.999998,0.000181,-0.001488,0.002881,-0.000267,0.002897,-0.001505,-86.520300,0.002898,
1320,880,-0.240398,-3.639626,0.999937,0.000000,-0.000923,0.000704,0.000704,0.000966,-0.001185,69.577197,0.001261,
1440,970,-0.560575,-2.777114,0.999997,0.000253,-0.001603,0.004156,0.000363,0.004179,-0.001626,86.406185,0.004213,
1840,910,-0.975053,-2.784767,0.999998,0.000144,-0.001086,0.002296,-0.000118,0.002300,-0.001090,-88.003093,0.002301,
590,260,0.490360,-4.373139,0.999997,0.000185,-0.001538,0.002453,0.000101,0.002455,-0.001541,88.555093,0.002482,
790,850,0.727141,-2.984309,0.999998,0.000163,-0.001345,0.002754,0.000321,0.002779,-0.001370,85.541749,0.002779,
1040,1750,0.098711,-0.498503,0.999998,0.000198,-0.000664,0.001950,0.000047,0.001951,-0.000665,88.963795,0.001984,
1660,680,-0.543374,-3.465540,0.999997,0.000193,-0.001491,0.002767,-0.000051,0.002768,-0.001491,-89.314311,0.002770,
750,570,0.534319,-3.721385,0.999997,0.000186,-0.001343,0.002647,-0.000053,0.002648,-0.001344,-89.236391,0.002648,
1440,270,-0.095845,-4.603994,0.999998,0.000190,-0.000558,0.001927,-0.000025,0.001927,-0.000559,-89.432620,0.001983,
1150,1520,0.053749,-0.887481,0.999999,0.000143,-0.000719,0.001796,0.000272,0.001825,-0.000748,83.895857,0.001834,
1640,810,-0.638937,-3.109865,0.999997,0.000194,-0.001507,0.002865,-0.000270,0.002881,-0.001523,-86.477840,0.002883,
560,90,0.248580,-4.783964,0.999953,0.000000,-0.000349,0.002812,0.000629,0.002933,-0.000470,79.149425,0.003151,
1440,1840,-0.076304,-0.333357,0.999998,0.000167,-0.000409,0.001832,0.000090,0.001835,-0.000413,87.704846,0.001926,
1820,1400,-0.744175,-1.619074,0.999997,0.000187,-0.001289,0.002573,0.000063,0.002574,-0.001290,89.061585,0.002574,
910,1260,0.481285,-1.819651,0.999997,0.000217,-0.001758,0.003108,-0.000080,0.003109,-0.001759,-89.061268,0.003118,
580,1840,0.450075,-0.565707,0.999997,0.000197,-0.001949,0.002841,-0.000077,0.002842,-0.001950,-89.078528,0.002907,
1050,1570,0.130221,-0.855337,0.999999,0.000137,-0.000873,0.002058,0.000260,0.002081,-0.000896,84.972395,0.002088,
1190,1890,0.011540,-0.226006,0.999999,0.000133,-0.000227,0.001650,-0.000029,0.001650,-0.000227,-89.122258,0.001789,
1720,1850,-0.252212,-0.400534,0.999998,0.000155,-0.000888,0.002448,0.000365,0.002488,-0.000927,83.825514,0.002515,
630,550,0.677707,-3.678209,0.999998,0.000171,-0.001299,0.002576,-0.000029,0.002577,-0.001299,-89.577020,0.002577,
710,1760,0.381576,-0.648005,0.999997,0.000211,-0.001170,0.002533,-0.000067,0.002534,-0.001172,-88.967064,0.002537,
680,1270,0.811252,-1.929285,0.999998,0.000173,-0.001267,0.002539,-0.000205,0.002550,-0.001278,-86.931169,0.002550,
700,1090,0.916149,-2.371006,0.999998,0.000191,-0.001092,0.002410,-0.000123,0.002414,-0.001097,-87.997573,0.002417,
670,1290,0.806533,-1.883472,0.999998,0.000161,-0.001272,0.002525,-0.000170,0.002533,-0.001279,-87.445652,0.002533,
1040,370,0.115691,-4.412820,0.999998,0.000219,-0.000760,0.002031,-0.000104,0.002035,-0.000764,-87.876545,0.002056,
1530,970,-0.672508,-2.691258,0.999998,0.000159,-0.001078,0.003024,-0.000243,0.003038,-0.001092,-86.625568,0.003078,
960,1890,0.079224,-0.252024,0.999998,0.000150,-0.000454,0.001873,-0.000201,0.001890,-0.000471,-85.089449,0.001968,
610,1720,0.535905,-0.832093,0.999998,0.000197,-0.001198,0.002495,0.000028,0.002496,-0.001198,89.573217,0.002496,
1750,210,-0.286568,-4.607704,0.999997,0.000186,-0.001110,0.002496,-0.000259,0.002514,-0.001128,-85.911057,0.002519,
1490,1570,-0.205804,-0.914100,0.999998,0.000158,-0.001025,0.002254,-0.000248,0.002272,-0.001043,-85.694378,0.002275,
1370,580,-0.100668,-4.028142,0.999998,0.000147,-0.000920,0.001955,0.000447,0.002022,-0.000988,81.370231,0.002023,
710,790,0.777129,-3.111373,0.999998,0.000180,-0.001324,0.002578,0.000226,0.002591,-0.001337,86.691347,0.002592,
1300,760,-0.040947,-3.825286,0.999998,0.000169,-0.000818,0.001169,0.000836,0.001474,-0.001123,69.956295,0.001540,
1880,710,-0.866161,-3.237061,0.999998,0.000176,-0.001222,0.002456,-0.000030,0.002457,-0.001222,-89.530649,0.002457,
870,120,0.083532,-4.858690,0.999999,0.000142,-0.000422,0.001929,0.000345,0.001979,-0.000472,81.830784,0.002067,
1700,1220,-0.749374,-2.025606,0.999998,0.000172,-0.001331,0.002687,0.000307,0.002710,-0.001354,85.661368,0.002710,
1620,1100,-0.755606,-2.328623,0.999998,0.000173,-0.001055,0.002694,0.000269,0.002713,-0.001074,85.909760,0.002733,
1570,1950,-0.060113,-0.147411,0.999999,0.000153,-0.000325,0.001851,0.000320,0.001897,-0.000371,81.799706,0.002011,
1670,1640,-0.377138,-0.886630,0.999998,0.000187,-0.001177,0.002485,-0.000060,0.002486,-0.001178,-89.068573,0.002487,
1320,30,-0.002471,-5.023767,0.999999,0.000000,-0.000068,0.001453,-0.000029,0.001453,-0.000069,-88.919559,0.001640,
1100,180,0.035892,-4.781624,0.999999,0.000139,-0.000289,0.001714,0.000059,0.001716,-0.000291,88.302688,0.001837,
1140,1420,0.059333,-1.063565,0.999999,0.000146,-0.000797,0.001677,0.000498,0.001773,-0.000893,79.044590,0.001773,
820,530,0.413134,-3.884928,0.999998,0.000156,-0.001324,0.002597,-0.000103,0.002600,-0.001327,-88.498969,0.002600,
1440,1820,-0.083999,-0.368778,0.999998,0.000182,-0.000474,0.001902,0.000060,0.001904,-0.000476,88.557285,0.001982,
1840,790,-0.887671,-3.067869,0.999999,0.000137,-0.001230,0.002437,-0.000134,0.002442,-0.001234,-87.905506,0.002442,
630,530,0.663674,-3.731589,0.999998,0.000191,-0.001272,0.002608,-0.000017,0.002608,-0.001272,-89.754996,0.002608,
610,440,0.620105,-3.944448,0.999998,0.000191,-0.001259,0.002499,-0.000047,0.002499,-0.001259,-89.278340,0.002499,
1200,1750,0.015547,-0.464392,0.999999,0.000147,-0.000469,0.001760,0.000038,0.001761,-0.000469,89.034625,0.001823,
1500,1270,-0.373159,-1.722581,0.999998,0.000187,-0.001881,0.003149,-0.000225,0.003159,-0.001891,-87.449136,0.003179,
1390,1180,-0.293114,-1.735451,0.999997,0.000197,-0.001626,0.002762,-0.001029,0.002991,-0.001856,-77.442008,0.003020,
810,1920,0.121108,-0.219629,0.999998,0.000163,-0.000544,0.002087,-0.000425,0.002154,-0.000610,-81.054185,0.002220,
1050,390,0.113490,-4.376652,0.999998,0.000165,-0.000797,0.002007,-0.000147,0.002015,-0.000804,-87.010052,0.002028,
1660,190,-0.184816,-4.698944,0.999998,0.000154,-0.000780,0.002252,-0.000325,0.002287,-0.000814,-83.956548,0.002318,
1550,1560,-0.277906,-0.987728,0.999998,0.000185,-0.001132,0.002408,-0.000205,0.002420,-0.001144,-86.694385,0.002421,
1660,660,-0.528043,-3.521784,0.999997,0.000206,-0.001466,0.002771,-0.000009,0.002771,-0.001466,-89.881978,0.002773,
1420,1130,-0.451829,-2.024820,0.999998,0.000158,-0.001613,0.003690,-0.000839,0.003819,-0.001743,-81.215985,0.003824,
580,1830,0.463060,-0.590725,0.999997,0.000197,-0.002403,0.002714,-0.000078,0.002716,-0.002405,-89.130246,0.002972,
790,830,0.707766,-3.038597,0.999998,0.000170,-0.001398,0.002760,0.000302,0.002782,-0.001419,85.871318,0.002782,
1770,1540,-0.570375,-1.220924,0.999998,0.000185,-0.001319,0.002565,-0.000048,0.002565,-0.001320,-89.286548,0.002566,
570,1270,0.947764,-1.997154,0.999997,0.000230,-0.001240,0.002335,-0.000038,0.002335,-0.001240,-89.396641,0.002337,
1190,1700,0.021737,-0.555733,0.999998,0.000152,-0.000532,0.001758,0.000042,0.001758,-0.000532,88.956689,0.001803,
1780,980,-0.939261,-2.634113,0.999998,0.000159,-0.001084,0.002342,-0.000058,0.002343,-0.001085,-89.023184,0.002345,
1620,2000,-0.031863,-0.062195,0.999999,0.000138,-0.000105,0.001765,0.000414,0.001852,-0.000193,78.060328,0.002037,
880,980,0.735488,-2.649868,0.999997,0.000210,-0.001006,0.002747,0.000209,0.002758,-0.001018,86.825056,0.002790,
1640,390,-0.325294,-4.237041,0.999998,0.000162,-0.001115,0.002459,0.000040,0.002459,-0.001116,89.354689,0.002462,
1360,460,-0.083756,-4.267839,0.999999,0.000135,-0.000725,0.001884,0.000226,0.001903,-0.000744,85.095510,0.001918,
1420,290,-0.091914,-4.571032,0.999998,0.000152,-0.000616,0.001936,0.000019,0.001936,-0.000616,89.573141,0.001978,
1000,1480,0.198869,-1.096928,0.999998,0.000152,-0.001220,0.002359,0.000420,0.002407,-0.001268,83.400544,0.002408,
1200,1330,0.015996,-1.131367,0.999999,0.000133,-0.000566,0.000984,0.000360,0.001064,-0.000645,77.554019,0.001072,
1410,330,-0.096239,-4.498008,0.999998,0.000167,-0.000656,0.001921,0.000062,0.001923,-0.000658,88.622438,0.001954,
710,1740,0.399350,-0.698989,0.999997,0.000193,-0.001177,0.002516,-0.000044,0.002517,-0.001178,-89.318994,0.002518,
1190,1870,0.009769,-0.259352,0.999999,0.000132,-0.000244,0.001644,-0.000022,0.001645,-0.000244,-89.326974,0.001775,
830,1230,0.645336,-1.968753,0.999998,0.000175,-0.001471,0.002883,-0.000296,0.002903,-0.001491,-86.133823,0.002904,
1750,190,-0.263399,-4.658659,0.999998,0.000164,-0.001086,0.002477,-0.000298,0.002502,-0.001111,-85.244772,0.002507,
940,1890,0.087347,-0.255046,0.999999,0.000138,-0.000393,0.001902,-0.000226,0.001924,-0.000415,-84.416805,0.002025,
750,550,0.520335,-3.774649,0.999997,0.000190,-0.001330,0.002638,-0.000052,0.002639,-0.001330,-89.245260,0.002639,
1490,1590,-0.200124,-0.870063,0.999998,0.000154,-0.000991,0.002226,-0.000216,0.002240,-0.001005,-86.167567,0.002244,
1700,1200,-0.770782,-2.079457,0.999998,0.000172,-0.001304,0.002657,0.000288,0.002678,-0.001325,85.855733,0.002678,
630,510,0.646726,-3.782570,0.999998,0.000209,-0.001257,0.002537,-0.000027,0.002537,-0.001257,-89.590153,0.002537,
1310,2020,-0.001855,-0.023621,0.999998,0.000000,-0.000026,0.001524,0.000053,0.001526,-0.000028,88.030768,0.001746,
1880,150,-0.350830,-4.640826,0.999998,0.000178,-0.001243,0.002597,-0.000252,0.002613,-0.001260,-86.253730,0.002614,
1220,170,0.003284,-4.806650,0.999999,0.000128,-0.000264,0.001653,0.000004,0.001653,-0.000264,89.867639,0.001776,
1260,160,-0.006704,-4.821287,0.999999,0.000138,-0.000230,0.001642,-0.000005,0.001642,-0.000230,-89.843129,0.001778,
620,70,0.139056,-4.902077,0.999998,0.000154,-0.001119,0.002697,0.000655,0.002806,-0.001228,80.527340,0.002814,
1480,1270,-0.333685,-1.688596,0.999998,0.000190,-0.001928,0.003110,-0.000353,0.003135,-0.001953,-86.009869,0.003166,
1530,990,-0.687672,-2.631502,0.999998,0.000168,-0.000978,0.003052,-0.000192,0.003061,-0.000987,-87.277983,0.003125,
1470,860,-0.414454,-3.119850,0.999998,0.000184,-0.001896,0.003430,0.000121,0.003432,-0.001898,88.700076,0.003439,
610,1700,0.554290,-0.882757,0.999998,0.000181,-0.001208,0.002502,0.000010,0.002502,-0.001208,89.850143,0.002502,
1020,370,0.130534,-4.403190,0.999999,0.000141,-0.000771,0.002061,-0.000088,0.002063,-0.000774,-88.220967,0.002085,
1530,1560,-0.253866,-0.972419,0.999998,0.000168,-0.001175,0.002363,-0.000233,0.002379,-0.001191,-86.244357,0.002379,
580,1200,0.988147,-2.149670,0.999999,0.000126,-0.001073,0.002271,-0.000061,0.002273,-0.001074,-88.950430,0.002274,
1100,160,0.031284,-4.816952,0.999999,0.000124,-0.000235,0.001694,0.000096,0.001699,-0.000240,87.157332,0.001839,
1730,240,-0.301499,-4.547001,0.999997,0.000173,-0.000994,0.002469,-0.000246,0.002486,-0.001012,-85.950647,0.002501,
570,1860,0.435282,-0.532750,0.999911,0.001080,-0.001209,0.002483,-0.000047,0.002483,-0.001210,-89.269131,0.002484,
1140,1400,0.056857,-1.096410,0.999998,0.000161,-0.000827,0.001640,0.000563,0.001763,-0.000950,77.723999,0.001764,
790,810,0.686843,-3.093888,0.999998,0.000185,-0.001441,0.002773,0.000261,0.002789,-0.001458,86.466147,0.002790,
1200,1630,0.017746,-0.677968,0.999998,0.000203,-0.000592,0.001767,0.000072,0.001770,-0.000594,88.255752,0.001801,
1840,890,-0.963658,-2.831451,0.999999,0.000137,-0.001119,0.002282,-0.000111,0.002286,-0.001122,-88.127582,0.002286,
1620,1060,-0.775382,-2.434046,0.999998,0.000201,-0.001004,0.002594,0.000128,0.002598,-0.001008,87.959333,0.002620,
1410,1120,-0.456376,-2.022414,0.999997,0.000196,-0.001565,0.003852,-0.001302,0.004149,-0.001861,-77.164668,0.004156,
1650,2010,-0.025804,-0.044625,0.999999,0.000158,-0.000126,0.001801,0.000474,0.001911,-0.000236,76.896099,0.002084,
1780,1400,-0.690014,-1.592188,0.999998,0.000203,-0.001317,0.002614,0.000063,0.002615,-0.001318,89.087804,0.002615,
1270,740,-0.019881,-3.888121,0.999998,0.000144,-0.000587,0.000958,0.000478,0.001094,-0.000723,74.130765,0.001113,
1660,640,-0.511617,-3.577374,0.999997,0.000194,-0.001434,0.002748,0.000017,0.002748,-0.001434,89.770963,0.002749,
590,1270,0.922576,-1.981007,0.999999,0.000168,-0.001195,0.002353,-0.000082,0.002354,-0.001197,-88.681211,0.002355,
1770,1520,-0.584568,-1.271577,0.999998,0.000151,-0.001303,0.002595,-0.000018,0.002595,-0.001303,-89.737366,0.002595,
1420,270,-0.084534,-4.609541,0.999998,0.000182,-0.000566,0.001893,0.000001,0.001893,-0.000566,89.973879,0.001943,
910,1080,0.699115,-2.370651,0.999998,0.000179,-0.001026,0.002894,-0.000258,0.002911,-0.001043,-86.250688,0.002950,
1570,1930,-0.075777,-0.185331,0.999998,0.000151,-0.000374,0.001909,0.000304,0.001949,-0.000414,82.533650,0.002054,
1300,740,-0.039772,-3.849323,0.999998,0.000158,-0.000756,0.001247,0.000767,0.001507,-0.001016,71.279523,0.001537,
1780,390,-0.492820,-4.129159,0.999998,0.000186,-0.001219,0.002514,0.000026,0.002514,-0.001220,89.595747,0.002515,
1500,80,-0.030771,-4.940739,0.999999,0.000118,-0.000193,0.001683,-0.000216,0.001708,-0.000217,-83.515103,0.001859,
1190,1850,0.013715,-0.293048,0.999998,0.000173,-0.000264,0.001687,-0.000017,0.001687,-0.000265,-89.487163,0.001814,
830,1210,0.666145,-2.027586,0.999998,0.000181,-0.001433,0.002836,-0.000316,0.002859,-0.001456,-85.782842,0.002859,
1410,310,-0.088778,-4.535567,0.999998,0.000168,-0.000632,0.001930,0.000050,0.001931,-0.000633,88.880871,0.001968,
1750,170,-0.236200,-4.706725,0.999998,0.000173,-0.001015,0.002443,-0.000372,0.002482,-0.001055,-83.929031,0.002492,
1200,1310,0.015910,-1.150536,0.999999,0.000128,-0.000559,0.000895,0.000410,0.001002,-0.000667,75.291613,0.001020,
670,1580,0.571018,-1.135942,0.999998,0.000188,-0.001294,0.002529,0.000044,0.002529,-0.001294,89.340862,0.002530,
1380,1890,-0.036407,-0.233672,0.999999,0.000119,-0.000261,0.001712,0.000094,0.001717,-0.000265,87.274917,0.001848,
630,710,0.807741,-3.270484,0.999998,0.000160,-0.001265,0.002513,0.000114,0.002516,-0.001268,88.271215,0.002516,
1310,1180,-0.220166,-1.355170,0.999906,0.000000,-0.000904,0.000491,-0.000360,0.000579,-0.000991,-76.356498,0.000996,
750,530,0.505788,-3.827663,0.999998,0.000169,-0.001315,0.002580,-0.000057,0.002581,-0.001316,-89.157083,0.002581,
1870,170,-0.370124,-4.602419,0.999997,0.000189,-0.001247,0.002563,-0.000165,0.002570,-0.001254,-87.528524,0.002570,
1260,170,-0.007415,-4.804387,0.999999,0.000137,-0.000245,0.001658,0.000005,0.001658,-0.000245,89.835135,0.001790,
1000,1460,0.205487,-1.144489,0.999998,0.000161,-0.001299,0.002376,0.000448,0.002430,-0.001353,83.147605,0.002435,
1360,660,-0.092702,-3.887294,0.999999,0.000152,-0.001024,0.001933,0.000671,0.002078,-0.001169,77.797041,0.002083,
610,420,0.606073,-3.993800,0.999998,0.000170,-0.001279,0.002525,-0.000043,0.002525,-0.001279,-89.350443,0.002525,
1870,710,-0.854610,-3.245020,0.999998,0.000167,-0.001231,0.002483,-0.000046,0.002483,-0.001231,-89.297350,0.002483,
1480,1250,-0.355267,-1.751656,0.999998,0.000175,-0.001973,0.003239,-0.000281,0.003255,-0.001988,-86.921749,0.003281,
850,680,0.471378,-3.505161,0.999997,0.000206,-0.001537,0.002805,-0.000045,0.002805,-0.001538,-89.404218,0.002809,
580,1190,0.995263,-2.172145,0.999999,0.000146,-0.001053,0.002239,-0.000050,0.002240,-0.001054,-89.122374,0.002241,
1640,890,-0.723083,-2.884769,0.999998,0.000161,-0.001282,0.002742,-0.000318,0.002767,-0.001307,-85.516589,0.002768,
1290,1560,-0.036745,-0.806517,0.999999,0.000128,-0.000638,0.001754,-0.000124,0.001761,-0.000644,-87.028781,0.001782,
1780,1420,-0.676149,-1.539937,0.999998,0.000184,-0.001323,0.002605,0.000032,0.002605,-0.001324,89.539252,0.002605,
710,540,0.565489,-3.768940,0.999997,0.000176,-0.001328,0.002607,-0.000025,0.002607,-0.001328,-89.634136,0.002607,
580,1270,0.934001,-1.988261,0.999999,0.000175,-0.001228,0.002333,-0.000059,0.002334,-0.001229,-89.050640,0.002335,
1530,1430,-0.307636,-1.296568,0.999998,0.000173,-0.001455,0.002647,-0.000320,0.002672,-0.001480,-85.569002,0.002677,
1220,230,0.003477,-4.706030,0.999999,0.000147,-0.000350,0.001689,-0.000015,0.001689,-0.000350,-89.582653,0.001783,
1100,140,0.025873,-4.850722,0.999999,0.000121,-0.000192,0.001653,0.000084,0.001657,-0.000196,87.394036,0.001810,
590,1720,0.561755,-0.851090,0.999998,0.000173,-0.001674,0.002682,0.000113,0.002685,-0.001677,88.514192,0.002712,
1300,720,-0.038126,-3.876789,0.999998,0.000156,-0.000731,0.001316,0.000692,0.001528,-0.000943,72.964613,0.001542,
790,790,0.668013,-3.150186,0.999998,0.000178,-0.001461,0.002767,0.000240,0.002781,-0.001474,86.762704,0.002782,
1400,1120,-0.440315,-1.971303,0.999997,0.000200,-0.001380,0.003844,-0.001694,0.004345,-0.001881,-73.522169,0.004358,
1050,680,0.158838,-3.762786,0.999999,0.000134,-0.001381,0.002327,-0.000710,0.002458,-0.001512,-79.524409,0.002480,
1260,120,-0.006640,-4.886477,0.999999,0.000146,-0.000169,0.001591,-0.000002,0.001591,-0.000169,-89.942273,0.001747,
1660,620,-0.495982,-3.630765,0.999998,0.000178,-0.001423,0.002683,0.000041,0.002684,-0.001424,89.425099,0.002685,
700,1070,0.921866,-2.417667,0.999998,0.000175,-0.001080,0.002399,-0.000078,0.002401,-0.001082,-88.710233,0.002404,
1490,1440,-0.245821,-1.224826,0.999998,0.000166,-0.001406,0.002508,-0.000428,0.002554,-0.001453,-83.832627,0.002562,
710,1530,0.555497,-1.232131,0.999998,0.000197,-0.001293,0.002600,0.000041,0.002601,-0.001293,89.393571,0.002601,
1580,400,-0.266651,-4.254878,0.999998,0.000175,-0.001064,0.002347,0.000074,0.002349,-0.001066,88.749718,0.002352,
1140,590,0.059656,-4.050412,0.999999,0.000144,-0.000770,0.001725,-0.000363,0.001777,-0.000822,-81.891417,0.001778,
1190,1830,0.013352,-0.328763,0.999999,0.000139,-0.000303,0.001720,0.000017,0.001720,-0.000303,89.528425,0.001836,
1310,880,-0.229324,-3.681684,0.999937,0.000000,-0.001174,0.000529,0.000497,0.000663,-0.001309,74.860191,0.001309,
750,510,0.493099,-3.878148,0.999998,0.000156,-0.001315,0.002561,-0.000065,0.002562,-0.001316,-89.039397,0.002562,
1410,510,-0.131050,-4.134251,0.999998,0.000150,-0.000886,0.002070,0.000298,0.002099,-0.000916,84.293629,0.002105,
1770,1800,-0.361682,-0.560859,0.999997,0.000215,-0.001166,0.002524,0.000127,0.002528,-0.001170,88.036943,0.002531,
1750,370,-0.440795,-4.205068,0.999998,0.000191,-0.001221,0.002521,0.000020,0.002522,-0.001221,89.698525,0.002522,
630,950,0.989908,-2.695031,0.999998,0.000163,-0.001075,0.002278,0.000107,0.002281,-0.001079,88.167258,0.002282,
1310,1500,-0.050932,-0.921128,0.999998,0.000140,-0.000727,0.001720,-0.000264,0.001748,-0.000755,-83.918561,0.001754,
1640,2010,-0.025920,-0.044469,0.999999,0.000152,-0.000049,0.001776,0.000468,0.001889,-0.000162,76.429159,0.002094,
880,1180,0.627098,-2.088640,0.999998,0.000175,-0.001457,0.002999,-0.000327,0.003023,-0.001481,-85.827732,0.003023,
1340,170,-0.027244,-4.801312,0.999999,0.000126,-0.000286,0.001684,-0.000063,0.001686,-0.000288,-88.170287,0.001804,
1360,1890,-0.031943,-0.232261,0.999999,0.000121,-0.000250,0.001678,0.000079,0.001681,-0.000253,87.671068,0.001812,
590,1120,1.024262,-2.322816,0.999998,0.000176,-0.001040,0.002203,-0.000086,0.002205,-0.001042,-88.486763,0.002206,
1360,1200,-0.201910,-1.555980,0.999997,0.000224,-0.001320,0.002070,-0.001176,0.002438,-0.001688,-72.624731,0.002497,
1000,1440,0.209809,-1.192919,0.999998,0.000149,-0.001339,0.002411,0.000464,0.002467,-0.001395,83.050775,0.002474,
570,1900,0.372579,-0.433798,0.999859,0.001411,-0.000813,0.002709,-0.000290,0.002732,-0.000836,-85.321436,0.002800,
1000,370,0.146610,-4.393396,0.999998,0.000183,-0.000758,0.002098,-0.000089,0.002101,-0.000761,-88.224613,0.002127,
1700,1620,-0.426288,-0.960286,0.999998,0.000169,-0.001240,0.002525,-0.000071,0.002526,-0.001242,-88.922469,0.002526,
810,580,0.459099,-3.743971,0.999997,0.000191,-0.001406,0.002617,-0.000087,0.002619,-0.001408,-88.766555,0.002622,
660,1270,0.836241,-1.939753,0.999998,0.000160,-0.001250,0.002517,-0.000187,0.002526,-0.001260,-87.168141,0.002526,
1640,930,-0.758259,-2.775345,0.999998,0.000167,-0.001154,0.002712,-0.000305,0.002736,-0.001178,-85.517656,0.002745,
1270,1560,-0.024322,-0.803070,0.999998,0.000147,-0.000612,0.001752,-0.000080,0.001755,-0.000615,-88.076374,0.001781,
1780,1440,-0.657677,-1.487611,0.999998,0.000199,-0.001319,0.002619,0.000030,0.002619,-0.001319,89.565975,0.002619,
1140,1380,0.057469,-1.129348,0.999999,0.000143,-0.000837,0.001616,0.000653,0.001779,-0.001000,75.988780,0.001783,
790,1680,0.354197,-0.789418,0.999997,0.000194,-0.001155,0.002458,0.000023,0.002458,-0.001155,89.636904,0.002460,
580,620,0.794383,-3.460831,0.999998,0.000198,-0.001663,0.002321,0.000005,0.002321,-0.001663,89.922635,0.002392,
1100,560,0.093575,-4.072651,0.999999,0.000144,-0.000894,0.001897,-0.000447,0.001967,-0.000964,-81.112539,0.001968,
1530,1410,-0.317327,-1.351127,0.999998,0.000174,-0.001524,0.002701,-0.000309,0.002724,-0.001547,-85.835811,0.002732,
1200,230,0.011616,-4.705425,0.999998,0.000212,-0.000364,0.001702,-0.000006,0.001702,-0.000364,-89.843228,0.001793,
1840,870,-0.949762,-2.877242,0.999999,0.000160,-0.001151,0.002345,-0.000156,0.002352,-0.001158,-87.451805,0.002352,
680,410,0.511271,-4.077555,0.999997,0.000202,-0.001228,0.002555,-0.000039,0.002555,-0.001228,-89.414744,0.002556,
870,1440,0.395083,-1.334341,0.999998,0.000197,-0.001474,0.002672,0.000156,0.002678,-0.001480,87.847235,0.002683,
1400,1630,-0.110285,-0.726101,0.999998,0.000151,-0.000802,0.002010,-0.000197,0.002024,-0.000816,-86.008932,0.002037,
1660,600,-0.481969,-3.684781,0.999998,0.000181,-0.001406,0.002670,0.000056,0.002671,-0.001407,89.215664,0.002672,
1620,1040,-0.781055,-2.487248,0.999998,0.000216,-0.000960,0.002652,0.000075,0.002654,-0.000961,88.812553,0.002687,
790,770,0.646799,-3.204800,0.999998,0.000175,-0.001455,0.002772,0.000216,0.002783,-0.001466,87.082373,0.002785,
1190,1810,0.015432,-0.361186,0.999998,0.000135,-0.000358,0.001710,0.000013,0.001710,-0.000358,89.628183,0.001803,
1300,700,-0.038724,-3.901253,0.999999,0.000146,-0.000720,0.001372,0.000604,0.001534,-0.000882,74.998202,0.001539,
750,490,0.479778,-3.930682,0.999998,0.000172,-0.001303,0.002563,-0.000080,0.002565,-0.001304,-88.816971,0.002565,
1310,870,-0.199075,-3.683492,0.999998,0.000000,-0.001151,0.000724,0.000359,0.000790,-0.001217,79.524510,0.001235,
1580,420,-0.278430,-4.206802,0.999998,0.000166,-0.001070,0.002384,0.000084,0.002386,-0.001072,88.600042,0.002390,
1470,1440,-0.218876,-1.201545,0.999998,0.000158,-0.001329,0.002441,-0.000458,0.002496,-0.001384,-83.170508,0.002501,
1750,610,-0.614836,-3.588124,0.999997,0.000183,-0.001361,0.002646,-0.000022,0.002646,-0.001361,-89.690444,0.002646,
1770,1780,-0.382460,-0.611502,0.999997,0.000221,-0.001171,0.002520,0.000099,0.002523,-0.001174,88.462167,0.002525,
1630,2010,-0.025537,-0.044403,0.999999,0.000137,-0.000021,0.001753,0.000440,0.001856,-0.000124,76.821762,0.002076,
880,1420,0.392392,-1.379580,0.999997,0.000178,-0.001518,0.002769,0.000183,0.002777,-0.001526,87.563613,0.002781,
620,1900,0.314074,-0.366153,0.999998,0.000169,-0.001236,0.002605,-0.000217,0.002617,-0.001248,-86.780520,0.002618,
570,1890,0.388977,-0.454380,0.999851,0.001377,-0.000871,0.002758,-0.000131,0.002763,-0.000876,-87.932658,0.002824,
580,1120,1.034935,-2.326184,0.999998,0.000155,-0.001016,0.002182,-0.000072,0.002183,-0.001018,-88.716126,0.002185,
1320,170,-0.021690,-4.802784,0.999999,0.000114,-0.000286,0.001640,-0.000042,0.001641,-0.000286,-88.756866,0.001753,
1500,60,-0.019219,-4.974929,0.999999,0.000120,-0.000141,0.001615,-0.000215,0.001641,-0.000167,-83.136330,0.001806,
1290,1500,-0.037181,-0.909844,0.999999,0.000129,-0.000686,0.001675,-0.000220,0.001695,-0.000707,-84.720705,0.001703,
1780,370,-0.476579,-4.180183,0.999998,0.000185,-0.001199,0.002522,0.000019,0.002522,-0.001199,89.702033,0.002523,
1410,750,-0.175890,-3.596793,0.999998,0.000180,-0.001663,0.002616,0.000841,0.002775,-0.001822,79.274487,0.002820,
1780,1460,-0.642905,-1.434973,0.999997,0.000206,-0.001323,0.002581,0.000010,0.002581,-0.001323,89.856731,0.002581,
1000,1420,0.215450,-1.241237,0.999998,0.000159,-0.001380,0.002460,0.000491,0.002522,-0.001442,82.826869,0.002531,
1740,530,-0.542651,-3.804260,0.999998,0.000170,-0.001325,0.002601,0.000044,0.002601,-0.001325,89.360862,0.002602,
830,1190,0.688153,-2.082317,0.999997,0.000203,-0.001377,0.002827,-0.000326,0.002852,-0.001402,-85.589711,0.002852,
1820,70,-0.114236,-4.922578,0.999998,0.000160,-0.000734,0.002548,-0.000816,0.002740,-0.000926,-76.786843,0.002787,
1740,750,-0.723475,-3.223537,0.999998,0.000179,-0.001374,0.002679,-0.000194,0.002689,-0.001383,-87.262566,0.002689,
570,620,0.807663,-3.453123,0.999936,0.000977,-0.001825,0.002097,0.000009,0.002097,-0.001825,89.871466,0.002281,
1350,1870,-0.033263,-0.263907,0.999999,0.000135,-0.000309,0.001705,0.000054,0.001706,-0.000310,88.471108,0.001818,
1640,910,-0.740630,-2.830426,0.999998,0.000167,-0.001221,0.002737,-0.000331,0.002764,-0.001249,-85.247254,0.002768,
820,1270,0.616068,-1.858954,0.999998,0.000183,-0.001507,0.002868,-0.000211,0.002878,-0.001518,-87.252129,0.002880,
1160,1890,0.016864,-0.227977,0.999999,0.000133,-0.000216,0.001648,-0.000036,0.001649,-0.000216,-88.907225,0.001792,
1520,830,-0.464220,-3.145697,0.999997,0.000202,-0.001813,0.003257,-0.000094,0.003259,-0.001815,-88.940650,0.003266,
1200,370,0.017979,-4.459753,0.999998,0.000165,-0.000526,0.001776,-0.000066,0.001778,-0.000527,-88.371289,0.001827,
880,390,0.263862,-4.276096,0.999998,0.000191,-0.001045,0.002349,-0.000062,0.002350,-0.001046,-88.956083,0.002355,
1150,1500,0.053437,-0.923098,0.999999,0.000128,-0.000736,0.001714,0.000289,0.001748,-0.000769,83.360924,0.001752,
1140,1360,0.057572,-1.164171,0.999999,0.000129,-0.000851,0.001591,0.000744,0.001800,-0.001060,74.317851,0.001809,
870,1420,0.407956,-1.389096,0.999998,0.000157,-0.001507,0.002782,0.000152,0.002787,-0.001513,87.969508,0.002790,
1100,580,0.093498,-4.037006,0.999998,0.000157,-0.000898,0.001932,-0.000461,0.002005,-0.000972,-80.980321,0.002005,
1660,580,-0.467443,-3.738461,0.999998,0.000180,-0.001391,0.002669,0.000075,0.002671,-0.001393,88.943202,0.002672,
1700,690,-0.610791,-3.409532,0.999997,0.000190,-0.001427,0.002720,-0.000089,0.002722,-0.001429,-88.773621,0.002723,
1700,1640,-0.412074,-0.907357,0.999998,0.000160,-0.001217,0.002513,-0.000038,0.002513,-0.001217,-89.418420,0.002514,
1620,1020,-0.783133,-2.538796,0.999998,0.000204,-0.000956,0.002640,-0.000060,0.002641,-0.000957,-89.040562,0.002674,
1530,1390,-0.329852,-1.405274,0.999997,0.000192,-0.001591,0.002793,-0.000297,0.002813,-0.001611,-86.146624,0.002823,
1850,1800,-0.456690,-0.630370,0.999998,0.000185,-0.001217,0.002532,0.000021,0.002532,-0.001217,89.672800,0.002533,
1190,1790,0.016716,-0.394148,0.999998,0.000158,-0.000404,0.001730,0.000013,0.001730,-0.000404,89.663826,0.001810,
1310,30,-0.001893,-5.022570,0.999999,0.000000,-0.000046,0.001462,-0.000046,0.001463,-0.000047,-88.251324,0.001663,
1810,1540,-0.620644,-1.252320,0.999998,0.000195,-0.001280,0.002566,-0.000034,0.002566,-0.001280,-89.493721,0.002566,
750,380,0.404086,-4.208867,0.999997,0.000194,-0.001203,0.002479,0.000000,0.002479,-0.001203,89.998784,0.002480,
1890,1700,-0.601511,-0.914842,0.999998,0.000167,-0.001285,0.002442,-0.000011,0.002442,-0.001285,-89.831807,0.002443,
750,470,0.464786,-3.982032,0.999998,0.000166,-0.001289,0.002546,-0.000069,0.002547,-0.001290,-88.967282,0.002547,
1740,1560,-0.516818,-1.144895,0.999998,0.000165,-0.001263,0.002575,-0.000069,0.002576,-0.001264,-88.968615,0.002576,
790,750,0.628042,-3.260063,0.999998,0.000175,-0.001492,0.002829,0.000173,0.002836,-0.001499,87.708605,0.002837,
1590,2010,-0.020276,-0.043464,0.999998,0.000145,-0.000177,0.001716,0.000353,0.001779,-0.000240,79.759988,0.001931,
1260,100,-0.003655,-4.918346,0.999999,0.000135,-0.000138,0.001566,-0.000029,0.001566,-0.000139,-89.036572,0.001734,
620,1860,0.374957,-0.470285,0.999998,0.000187,-0.001212,0.002553,-0.000125,0.002557,-0.001216,-88.095506,0.002558,
1300,680,-0.040125,-3.928498,0.999999,0.000149,-0.000732,0.001420,0.000543,0.001550,-0.000861,76.605234,0.001553,
1580,440,-0.287194,-4.158799,0.999998,0.000170,-0.001104,0.002381,0.000111,0.002384,-0.001108,88.170868,0.002386,
570,1880,0.405589,-0.479124,0.999909,0.001101,-0.000967,0.002612,-0.000030,0.002612,-0.000967,-89.524783,0.002641,
1050,660,0.154011,-3.808358,0.999998,0.000154,-0.001314,0.002290,-0.000660,0.002407,-0.001432,-79.938930,0.002422,
1540,1150,-0.605263,-2.153080,0.999998,0.000157,-0.001438,0.003148,0.000353,0.003175,-0.001465,85.623816,0.003178,
1400,1700,-0.094507,-0.586714,0.999998,0.000181,-0.000681,0.001979,-0.000101,0.001983,-0.000685,-87.826616,0.002014,
1750,1780,-0.359003,-0.595018,0.999997,0.000231,-0.001171,0.002527,0.000097,0.002529,-0.001174,88.492592,0.002532,
570,1120,1.044314,-2.330350,0.999998,0.000170,-0.000999,0.002161,-0.000061,0.002162,-0.001000,-88.893869,0.002164,
1210,1440,0.012706,-0.992926,0.999999,0.000131,-0.000595,0.001450,0.000139,0.001459,-0.000604,86.130939,0.001466,
720,710,0.689972,-3.327677,0.999998,0.000164,-0.001409,0.002669,0.000135,0.002673,-0.001413,88.105337,0.002675,
1780,1900,-0.245170,-0.315156,0.999998,0.000166,-0.000998,0.002540,0.000484,0.002605,-0.001063,82.342613,0.002619,
600,210,0.418598,-4.510252,0.999998,0.000189,-0.001230,0.002527,0.000074,0.002529,-0.001232,88.879374,0.002529,
1140,170,0.021670,-4.802944,0.999998,0.000149,-0.000274,0.001671,0.000020,0.001671,-0.000274,89.418818,0.001792,
880,440,0.289587,-4.157402,0.999998,0.000168,-0.001116,0.002391,-0.000121,0.002395,-0.001120,-88.029313,0.002397,
640,990,0.986422,-2.606751,0.999998,0.000184,-0.001099,0.002283,0.000044,0.002284,-0.001100,89.258649,0.002284,
1000,1640,0.158525,-0.740509,0.999998,0.000156,-0.000874,0.002158,0.000182,0.002169,-0.000885,86.570758,0.002181,
1350,1830,-0.040980,-0.334275,0.999998,0.000154,-0.000359,0.001767,0.000014,0.001767,-0.000359,89.633458,0.001868,
1820,1380,-0.760857,-1.672288,0.999998,0.000179,-0.001285,0.002565,0.000074,0.002566,-0.001286,88.900004,0.002566,
1820,590,-0.690570,-3.586798,0.999998,0.000167,-0.001279,0.002565,-0.000007,0.002565,-0.001279,-89.901784,0.002565,
1100,600,0.094968,-3.996842,0.999998,0.000150,-0.000910,0.001904,-0.000500,0.001990,-0.000996,-80.223819,0.001990,
920,1660,0.226102,-0.747021,0.999998,0.000156,-0.000951,0.002266,0.000093,0.002268,-0.000954,88.347983,0.002278,
1140,1430,0.060123,-1.047387,0.999999,0.000125,-0.000782,0.001672,0.000458,0.001755,-0.000864,79.772486,0.001755,
850,1420,0.437977,-1.409029,0.999997,0.000200,-0.001514,0.002786,0.000125,0.002790,-0.001517,88.333672,0.002793,
1850,1820,-0.434305,-0.579791,0.999998,0.000176,-0.001219,0.002517,0.000067,0.002518,-0.001221,88.973415,0.002518,
1300,2020,-0.002008,-0.022692,0.999999,0.000000,-0.000008,0.001509,0.000037,0.001510,-0.000009,88.613559,0.001739,
1200,1890,0.008474,-0.226695,0.999999,0.000136,-0.000219,0.001646,-0.000018,0.001646,-0.000219,-89.454628,0.001788,
1530,1370,-0.340761,-1.462718,0.999997,0.000205,-0.001649,0.002832,-0.000273,0.002849,-0.001666,-86.529505,0.002863,
1490,1990,-0.020590,-0.072674,0.999999,0.000161,-0.000145,0.001649,0.000212,0.001674,-0.000169,83.358585,0.001843,
800,1270,0.646686,-1.870963,0.999998,0.000193,-0.001508,0.002812,-0.000223,0.002824,-0.001519,-87.059230,0.002826,
990,960,0.594896,-2.761480,0.999998,0.000183,-0.001319,0.003600,0.000124,0.003603,-0.001322,88.560112,0.003645,
560,80,0.222808,-4.810315,0.999964,0.000000,-0.000359,0.002897,0.000789,0.003078,-0.000540,77.075974,0.003287,
1060,370,0.099781,-4.422237,0.999998,0.000163,-0.000702,0.001972,-0.000104,0.001976,-0.000706,-87.778289,0.002002,
750,450,0.452257,-4.031679,0.999998,0.000163,-0.001262,0.002511,-0.000076,0.002512,-0.001264,-88.847230,0.002512,
790,730,0.608404,-3.317932,0.999998,0.000162,-0.001479,0.002813,0.000151,0.002818,-0.001484,87.994133,0.002820,
1660,560,-0.456122,-3.792401,0.999997,0.000194,-0.001344,0.002647,0.000097,0.002649,-0.001347,88.609431,0.002649,
1740,1520,-0.544523,-1.246436,0.999997,0.000187,-0.001305,0.002617,-0.000032,0.002618,-0.001305,-89.534832,0.002618,
1580,2010,-0.018751,-0.043516,0.999999,0.000138,-0.000127,0.001708,0.000349,0.001772,-0.000191,79.571344,0.001945,
1790,1140,-0.922244,-2.253296,0.999998,0.000171,-0.001136,0.002379,0.000168,0.002387,-0.001144,87.271738,0.002388,
670,1270,0.823854,-1.935066,0.999998,0.000165,-0.001262,0.002522,-0.000199,0.002532,-0.001273,-86.992728,0.002532,
1400,1660,-0.103764,-0.666024,0.999998,0.000169,-0.000759,0.001958,-0.000155,0.001967,-0.000768,-86.735951,0.001983,
910,1420,0.347083,-1.348826,0.999997,0.000209,-0.001506,0.002710,0.000260,0.002726,-0.001522,86.487065,0.002732,
860,410,0.297287,-4.215443,0.999999,0.000161,-0.001138,0.002390,-0.000077,0.002392,-0.001140,-88.756189,0.002393,
1790,1540,-0.595676,-1.236209,0.999998,0.000192,-0.001292,0.002559,-0.000054,0.002559,-0.001293,-89.200318,0.002559,
1030,1020,0.588027,-2.556544,0.999997,0.000246,-0.001994,0.004989,-0.000134,0.004992,-0.001996,-88.899420,0.005025,
1190,1770,0.018963,-0.432546,0.999998,0.000142,-0.000431,0.001779,0.000012,0.001779,-0.000431,89.695045,0.001857,
970,270,0.126713,-4.586901,0.999998,0.000168,-0.000684,0.002045,0.000063,0.002046,-0.000686,88.681125,0.002083,
1380,1630,-0.093842,-0.716158,0.999998,0.000167,-0.000765,0.001945,-0.000175,0.001957,-0.000777,-86.315772,0.001970,
620,1320,0.843476,-1.838409,0.999999,0.000143,-0.001215,0.002464,-0.000110,0.002467,-0.001219,-88.285197,0.002467,
1740,510,-0.526998,-3.857631,0.999998,0.000173,-0.001305,0.002573,0.000043,0.002574,-0.001306,89.370640,0.002574,
830,1170,0.709183,-2.139587,0.999997,0.000188,-0.001312,0.002789,-0.000328,0.002815,-0.001339,-85.449765,0.002816,
1580,460,-0.296741,-4.112049,0.999998,0.000182,-0.001149,0.002422,0.000145,0.002428,-0.001155,87.680487,0.002429,
1300,660,-0.041661,-3.956321,0.999999,0.000157,-0.000714,0.001491,0.000468,0.001586,-0.000809,78.487211,0.001586,
1140,1340,0.057931,-1.195022,0.999998,0.000150,-0.000882,0.001548,0.000806,0.001791,-0.001125,73.221523,0.001811,
1800,590,-0.665322,-3.602166,0.999998,0.000178,-0.001293,0.002591,0.000008,0.002591,-0.001293,89.878555,0.002591,
1450,1200,-0.369944,-1.859807,0.999998,0.000164,-0.001956,0.003461,-0.000333,0.003481,-0.001976,-86.496599,0.003492,
1100,620,0.095287,-3.959634,0.999999,0.000139,-0.000933,0.001903,-0.000538,0.002002,-0.001032,-79.612145,0.002002,
1000,1400,0.221481,-1.291210,0.999998,0.000160,-0.001447,0.002547,0.000524,0.002615,-0.001514,82.647414,0.002626,
1210,1420,0.013021,-1.020349,0.999999,0.000121,-0.000582,0.001376,0.000147,0.001387,-0.000593,85.717768,0.001392,
1720,750,-0.695521,-3.235606,0.999998,0.000168,-0.001405,0.002702,-0.000194,0.002711,-0.001415,-87.307008,0.002712,
600,470,0.654536,-3.860526,0.999998,0.000178,-0.001238,0.002546,-0.000014,0.002546,-0.001239,-89.790607,0.002546,
1260,80,-0.003472,-4.947911,0.999999,0.000130,-0.000106,0.001529,-0.000013,0.001529,-0.000106,-89.543661,0.001708,
1780,1880,-0.276744,-0.367308,0.999998,0.000172,-0.001064,0.002523,0.000387,0.002564,-0.001105,83.911094,0.002572,
1330,30,-0.002889,-5.022526,0.999999,0.000000,-0.000037,0.001458,-0.000049,0.001459,-0.000039,-88.126420,0.001663,
1440,1800,-0.090498,-0.409169,0.999998,0.000146,-0.000539,0.001920,0.000039,0.001920,-0.000539,89.090495,0.001981,
1710,220,-0.261359,-4.606088,0.999998,0.000181,-0.000918,0.002422,-0.000310,0.002450,-0.000947,-84.744516,0.002471,
1340,830,-0.134291,-3.615937,0.999997,0.000205,-0.001326,0.001717,0.001087,0.002066,-0.001675,72.229087,0.002195,
1820,1800,-0.422539,-0.599237,0.999998,0.000203,-0.001189,0.002566,0.000104,0.002569,-0.001192,88.408759,0.002571,
1150,1480,0.054055,-0.956336,0.999999,0.000106,-0.000735,0.001689,0.000316,0.001729,-0.000775,82.693195,0.001732,
920,1640,0.235233,-0.792078,0.999998,0.000147,-0.001028,0.002292,0.000141,0.002298,-0.001034,87.567046,0.002302,
1520,1810,-0.132428,-0.413653,0.999998,0.000182,-0.000659,0.002021,0.000119,0.002026,-0.000664,87.472361,0.002065,
1350,1290,-0.094513,-1.334245,0.999998,0.000186,-0.001293,0.001911,-0.001071,0.002236,-0.001618,-73.110439,0.002309,
1050,460,0.127884,-4.234961,0.999999,0.000141,-0.000830,0.002007,-0.000215,0.002024,-0.000846,-85.696916,0.002033,
740,1090,0.872095,-2.364803,0.999998,0.000158,-0.001095,0.002490,-0.000172,0.002498,-0.001103,-87.266015,0.002504,
590,220,0.443291,-4.472788,0.999998,0.000214,-0.001202,0.002529,0.000052,0.002530,-0.001203,89.199618,0.002531,
810,1420,0.498218,-1.444344,0.999997,0.000192,-0.001468,0.002713,0.000036,0.002713,-0.001468,89.505836,0.002716,
640,1270,0.861707,-1.950440,0.999999,0.000147,-0.001242,0.002491,-0.000158,0.002498,-0.001249,-87.577787,0.002498,
920,230,0.137305,-4.651434,0.999998,0.000185,-0.000565,0.002056,0.000170,0.002067,-0.000576,86.314586,0.002133,
750,430,0.439613,-4.081461,0.999998,0.000167,-0.001253,0.002524,-0.000062,0.002525,-0.001254,-89.062947,0.002525,
820,750,0.582844,-3.281224,0.999997,0.000208,-0.001554,0.002887,0.000148,0.002892,-0.001559,88.088615,0.002895,
790,710,0.587210,-3.373482,0.999997,0.000204,-0.001474,0.002764,0.000103,0.002766,-0.001476,88.609994,0.002768,
560,70,0.188398,-4.841844,0.999981,0.000000,-0.000351,0.003248,0.001057,0.003536,-0.000639,74.781194,0.003768,
970,250,0.116611,-4.627369,0.999998,0.000173,-0.000654,0.001989,0.000081,0.001992,-0.000656,88.242253,0.002030,
1450,1440,-0.192302,-1.178179,0.999998,0.000166,-0.001284,0.002384,-0.000533,0.002460,-0.001360,-81.890496,0.002465,
620,990,1.008971,-2.603750,0.999998,0.000164,-0.001047,0.002227,0.000046,0.002228,-0.001048,89.189140,0.002229,
820,670,0.509298,-3.506741,0.999997,0.000216,-0.001547,0.002791,-0.000005,0.002791,-0.001547,-89.929890,0.002796,
670,1250,0.842643,-1.985169,0.999998,0.000152,-0.001253,0.002511,-0.000225,0.002524,-0.001267,-86.592410,0.002524,
1580,900,-0.654786,-2.877054,0.999998,0.000169,-0.001341,0.002960,-0.000354,0.002989,-0.001370,-85.331770,0.002993,
1300,640,-0.042842,-3.987033,0.999999,0.000144,-0.000704,0.001522,0.000430,0.001602,-0.000784,79.445197,0.001602,
1690,220,-0.242185,-4.616588,0.999998,0.000168,-0.000918,0.002353,-0.000270,0.002375,-0.000940,-85.321007,0.002392,
1000,1360,0.237442,-1.394918,0.999998,0.000198,-0.001610,0.002691,0.000559,0.002762,-0.001682,82.717011,0.002784,
1160,1270,0.050839,-1.251215,0.999999,0.000134,-0.000941,0.001156,0.000920,0.001503,-0.001288,69.360330,0.001625,
1450,1180,-0.403288,-1.929816,0.999998,0.000168,-0.001886,0.003476,-0.000250,0.003487,-0.001898,-87.337479,0.003492,
620,1300,0.859683,-1.887320,0.999999,0.000141,-0.001224,0.002473,-0.000090,0.002475,-0.001226,-88.609601,0.002475,
1340,810,-0.107489,-3.648923,0.999998,0.000170,-0.001317,0.001765,0.001118,0.002128,-0.001680,72.020496,0.002243,
960,1830,0.110763,-0.365889,0.999998,0.000139,-0.000616,0.001955,-0.000113,0.001960,-0.000621,-87.489897,0.002004,
1620,1000,-0.777360,-2.591281,0.999998,0.000186,-0.000966,0.002599,-0.000105,0.002603,-0.000969,-88.320798,0.002631,
820,730,0.562314,-3.339129,0.999997,0.000213,-0.001557,0.002848,0.000113,0.002851,-0.001560,88.532056,0.002855,
1660,540,-0.442965,-3.844631,0.999998,0.000168,-0.001319,0.002576,0.000087,0.002578,-0.001321,88.720225,0.002578,
1840,350,-0.534024,-4.181211,0.999998,0.000180,-0.001203,0.002529,0.000024,0.002529,-0.001204,89.631106,0.002530,
1740,980,-0.895850,-2.636922,0.999998,0.000139,-0.001070,0.002422,-0.000098,0.002425,-0.001073,-88.401883,0.002431,
1050,350,0.103270,-4.457607,0.999998,0.000214,-0.000730,0.001942,-0.000109,0.001946,-0.000734,-87.671039,0.001966,
1530,1350,-0.355509,-1.519864,0.999997,0.000190,-0.001706,0.002878,-0.000239,0.002890,-0.001719,-87.024215,0.002908,
910,1400,0.358829,-1.403966,0.999998,0.000196,-0.001560,0.002776,0.000238,0.002789,-0.001573,86.869409,0.002796,
1420,370,-0.113749,-4.413600,0.999998,0.000189,-0.000750,0.002026,0.000111,0.002031,-0.000755,87.712615,0.002053,
1440,1780,-0.097907,-0.446890,0.999998,0.000162,-0.000589,0.001942,0.000037,0.001942,-0.000590,89.170500,0.001991,
1820,1820,-0.398173,-0.547469,0.999997,0.000215,-0.001187,0.002548,0.000134,0.002553,-0.001192,87.952114,0.002555,
1180,1890,0.013264,-0.226759,0.999999,0.000129,-0.000237,0.001650,-0.000030,0.001650,-0.000237,-89.093639,0.001784,
1490,1970,-0.029282,-0.106820,0.999999,0.000162,-0.000199,0.001693,0.000221,0.001719,-0.000225,83.419858,0.001868,
1700,1660,-0.397063,-0.859157,0.999998,0.000169,-0.001182,0.002487,-0.000028,0.002487,-0.001182,-89.560968,0.002488,
720,690,0.671539,-3.381327,0.999998,0.000177,-0.001388,0.002684,0.000119,0.002688,-0.001391,88.325850,0.002688,
1300,1190,-0.171514,-1.320201,0.999998,0.000000,-0.001262,0.000553,-0.000189,0.000572,-0.001281,-84.105941,0.001284,
880,400,0.269424,-4.252790,0.999998,0.000174,-0.001058,0.002357,-0.000065,0.002358,-0.001060,-88.903701,0.002362,
1770,1560,-0.555289,-1.168565,0.999998,0.000172,-0.001310,0.002578,-0.000038,0.002579,-0.001311,-89.440111,0.002579,
1080,1750,0.073749,-0.485472,0.999998,0.000188,-0.000521,0.001865,0.000020,0.001866,-0.000521,89.528249,0.001925,
1330,1240,-0.099791,-1.365197,0.999998,0.000211,-0.001242,0.001558,-0.001089,0.001932,-0.001615,-71.058174,0.002073,
1400,880,-0.322164,-3.247620,0.999997,0.000192,-0.001704,0.003044,0.000918,0.003215,-0.001875,79.429585,0.003230,
1730,1080,-0.883784,-2.391502,0.999998,0.000154,-0.001071,0.002458,0.000106,0.002461,-0.001074,88.288157,0.002468,
1720,510,-0.501638,-3.872314,0.999998,0.000180,-0.001328,0.002572,0.000051,0.002573,-0.001329,89.253833,0.002573,
860,390,0.285171,-4.262533,0.999998,0.000197,-0.001103,0.002368,-0.000047,0.002369,-0.001104,-89.221550,0.002371,
1190,1750,0.019993,-0.465463,0.999998,0.000153,-0.000463,0.001767,0.000032,0.001768,-0.000464,89.176533,0.001833,
830,1150,0.728989,-2.193481,0.999998,0.000172,-0.001246,0.002746,-0.000348,0.002776,-0.001276,-85.051409,0.002779,
1460,210,-0.083525,-4.712189,0.999998,0.000165,-0.000426,0.001891,-0.000124,0.001898,-0.000433,-86.947001,0.001989,
1060,1550,0.124589,-0.889440,0.999999,0.000124,-0.000872,0.002004,0.000284,0.002032,-0.000900,84.411934,0.002037,
710,1490,0.583945,-1.336400,0.999997,0.000191,-0.001324,0.002609,0.000016,0.002609,-0.001324,89.761765,0.002609,
790,1420,0.526413,-1.459928,0.999997,0.000172,-0.001434,0.002702,0.000004,0.002702,-0.001434,89.942757,0.002704,
1570,200,-0.131919,-4.704875,0.999998,0.000156,-0.000620,0.002052,-0.000209,0.002068,-0.000636,-85.560255,0.002119,
1780,1860,-0.302673,-0.415924,0.999997,0.000191,-0.001111,0.002512,0.000302,0.002537,-0.001136,85.263927,0.002542,
1570,2010,-0.017077,-0.043118,0.999999,0.000139,-0.000079,0.001689,0.000347,0.001754,-0.000145,79.291425,0.001947,
1140,1320,0.058322,-1.224522,0.999999,0.000143,-0.000940,0.001510,0.000875,0.001791,-0.001220,72.232182,0.001830,
1100,1360,0.096908,-1.225648,0.999998,0.000143,-0.001153,0.001960,0.000816,0.002161,-0.001354,76.170624,0.002184,
560,60,0.160644,-4.873696,0.999986,0.000000,-0.000156,0.003703,0.001316,0.004109,-0.000562,72.856942,0.004456,
750,410,0.424065,-4.133320,0.999998,0.000176,-0.001258,0.002552,-0.000047,0.002552,-0.001259,-89.293742,0.002553,
570,1820,0.514903,-0.645225,0.999645,0.002384,-0.003296,0.001989,-0.000082,0.001990,-0.003298,-89.108347,0.003321,
1260,60,-0.002484,-4.980229,0.999999,0.000111,-0.000069,0.001511,-0.000014,0.001511,-0.000069,-89.501738,0.001706,
670,1230,0.858831,-2.036087,0.999998,0.000146,-0.001232,0.002480,-0.000214,0.002492,-0.001244,-86.716539,0.002492,
1350,1270,-0.101892,-1.372821,0.999998,0.000184,-0.001392,0.001958,-0.001142,0.002310,-0.001744,-72.859545,0.002408,
750,1000,0.871143,-2.588682,0.999998,0.000149,-0.001064,0.002476,0.000088,0.002479,-0.001066,88.576990,0.002487,
1620,980,-0.770846,-2.645264,0.999998,0.000187,-0.001026,0.002670,-0.000174,0.002678,-0.001035,-87.316769,0.002701,
930,1560,0.257935,-0.975241,0.999998,0.000162,-0.001163,0.002378,0.000212,0.002390,-0.001176,86.592019,0.002391,
580,220,0.456847,-4.461284,0.999997,0.000231,-0.001402,0.002326,0.000274,0.002346,-0.001422,85.825402,0.002364,
660,930,0.943544,-2.747435,0.999998,0.000164,-0.001114,0.002354,0.000187,0.002364,-0.001124,86.929927,0.002365,
790,690,0.571847,-3.429326,0.999997,0.000218,-0.001460,0.002755,0.000068,0.002756,-0.001462,89.070438,0.002758,
720,1590,0.501126,-1.070727,0.999998,0.000178,-0.001258,0.002549,0.000049,0.002550,-0.001258,89.269499,0.002550,
710,200,0.279179,-4.630371,0.999998,0.000175,-0.001107,0.002471,0.000256,0.002489,-0.001125,85.930085,0.002493,
1690,260,-0.281380,-4.519919,0.999997,0.000228,-0.001032,0.002409,-0.000168,0.002417,-0.001041,-87.216823,0.002425,
1000,1340,0.245435,-1.450006,0.999998,0.000202,-0.001699,0.002788,0.000545,0.002853,-0.001764,83.178253,0.002880,
1040,1740,0.100340,-0.518436,0.999998,0.000197,-0.000685,0.001970,0.000055,0.001971,-0.000686,88.816498,0.002001,
1840,330,-0.518245,-4.232177,0.999998,0.000199,-0.001210,0.002519,0.000028,0.002520,-0.001210,89.563500,0.002520,
920,1620,0.243351,-0.839546,0.999998,0.000152,-0.001084,0.002343,0.000151,0.002350,-0.001091,87.475171,0.002352,
970,230,0.106044,-4.666999,0.999998,0.000157,-0.000596,0.001972,0.000099,0.001976,-0.000600,87.802914,0.002026,
1740,960,-0.890338,-2.683691,0.999999,0.000144,-0.001093,0.002480,-0.000159,0.002487,-0.001100,-87.460747,0.002492,
1660,520,-0.429615,-3.897209,0.999998,0.000159,-0.001291,0.002563,0.000100,0.002566,-0.001293,88.507804,0.002566,
1060,1750,0.083394,-0.491963,0.999998,0.000149,-0.000615,0.001914,0.000036,0.001914,-0.000616,89.178301,0.001954,
870,1810,0.183572,-0.439430,0.999998,0.000166,-0.000801,0.002176,-0.000151,0.002184,-0.000809,-87.102716,0.002208,
1420,730,-0.184843,-3.627402,0.999998,0.000180,-0.001613,0.002575,0.000773,0.002713,-0.001752,79.865752,0.002751,
1280,610,-0.030137,-4.046416,0.999999,0.000164,-0.000673,0.001521,0.000263,0.001552,-0.000704,83.265902,0.001554,
1300,870,-0.182636,-3.717118,0.999982,0.000000,-0.001407,0.000606,0.000193,0.000624,-0.001425,84.573182,0.001429,
1530,1330,-0.371103,-1.578689,0.999997,0.000191,-0.001743,0.002954,-0.000216,0.002964,-0.001753,-87.376734,0.002981,
730,1860,0.251646,-0.383970,0.999998,0.000141,-0.000913,0.002411,-0.000345,0.002447,-0.000948,-84.135372,0.002467,
1060,230,0.063352,-4.689132,0.999998,0.000158,-0.000435,0.001811,0.000056,0.001812,-0.000436,88.567513,0.001892,
1700,1680,-0.383032,-0.808856,0.999998,0.000168,-0.001149,0.002471,-0.000014,0.002471,-0.001149,-89.780053,0.002473,
1750,760,-0.746683,-3.190476,0.999998,0.000164,-0.001312,0.002644,-0.000202,0.002654,-0.001323,-87.079448,0.002654,
1490,1950,-0.041336,-0.140358,0.999999,0.000179,-0.000244,0.001744,0.000205,0.001765,-0.000265,84.180807,0.001904,
1260,1890,-0.006142,-0.225416,0.999998,0.000167,-0.000227,0.001665,0.000017,0.001665,-0.000228,89.481216,0.001805,
710,1470,0.598950,-1.389345,0.999997,0.000193,-0.001347,0.002621,0.000009,0.002622,-0.001347,89.873963,0.002622,
1440,1760,-0.105864,-0.486882,0.999998,0.000170,-0.000624,0.001953,-0.000007,0.001953,-0.000624,-89.836432,0.001995,
1780,1840,-0.328701,-0.466890,0.999997,0.000204,-0.001130,0.002531,0.000247,0.002547,-0.001146,86.159057,0.002552,
1140,1300,0.060895,-1.251979,0.999998,0.000171,-0.000991,0.001517,0.000974,0.001851,-0.001324,71.087488,0.001907,
1820,1840,-0.373778,-0.496918,0.999997,0.000209,-0.001158,0.002575,0.000186,0.002584,-0.001167,87.160142,0.002588,
1060,1530,0.127311,-0.930252,0.999999,0.000145,-0.000893,0.002049,0.000338,0.002087,-0.000932,83.538048,0.002091,
750,390,0.411120,-4.184351,0.999998,0.000198,-0.001234,0.002496,-0.000033,0.002497,-0.001234,-89.493162,0.002497,
1800,650,-0.713265,-3.448611,0.999997,0.000182,-0.001303,0.002606,-0.000067,0.002607,-0.001304,-89.012156,0.002607,
640,1790,0.435243,-0.628467,0.999997,0.000200,-0.001199,0.002561,-0.000086,0.002563,-0.001201,-88.686219,0.002564,
1740,1610,-0.483139,-1.016316,0.999998,0.000185,-0.001263,0.002521,-0.000046,0.002521,-0.001264,-89.310546,0.002521,
1030,100,0.028059,-4.911543,0.999999,0.000118,-0.000204,0.001656,0.000147,0.001667,-0.000215,85.497697,0.001814,
720,930,0.876298,-2.759011,0.999998,0.000140,-0.001143,0.002462,0.000202,0.002473,-0.001154,86.810962,0.002475,
1400,860,-0.283421,-3.314511,0.999998,0.000180,-0.001824,0.002967,0.000811,0.003101,-0.001958,80.647047,0.003136,
1400,170,-0.042598,-4.795644,0.999999,0.000151,-0.000354,0.001735,-0.000083,0.001739,-0.000358,-87.729658,0.001836,
820,330,0.288871,-4.380987,0.999998,0.000179,-0.001033,0.002379,0.000035,0.002379,-0.001033,89.408871,0.002386,
830,1130,0.748345,-2.249545,0.999998,0.000174,-0.001180,0.002718,-0.000328,0.002745,-0.001207,-85.226811,0.002752,
1020,1130,0.489092,-2.093404,0.999998,0.000184,-0.001612,0.003745,0.000262,0.003757,-0.001624,87.203405,0.003769,
1890,70,-0.191587,-4.858538,0.999999,0.000131,-0.000927,0.003191,-0.000956,0.003402,-0.001138,-77.541612,0.003464,
1620,960,-0.757364,-2.698217,0.999998,0.000160,-0.001060,0.002688,-0.000250,0.002705,-0.001077,-86.194504,0.002723,
1400,930,-0.429959,-3.087499,0.999997,0.000192,-0.001503,0.003543,0.001741,0.004085,-0.002046,72.692584,0.004085,
1260,1350,-0.014105,-1.110211,0.999999,0.000136,-0.000547,0.001117,-0.000314,0.001174,-0.000604,-79.675929,0.001175,
740,1150,0.839589,-2.215777,0.999998,0.000154,-0.001158,0.002554,-0.000259,0.002572,-0.001176,-86.028980,0.002575,
1670,240,-0.242550,-4.578888,0.999999,0.000129,-0.000965,0.002370,-0.000212,0.002384,-0.000979,-86.383649,0.002396,
620,730,0.838592,-3.214735,0.999998,0.000150,-0.001242,0.002471,0.000109,0.002474,-0.001245,88.322359,0.002474,
1660,500,-0.417755,-3.946489,0.999998,0.000175,-0.001290,0.002564,0.000102,0.002567,-0.001293,88.478724,0.002567,
670,1210,0.876416,-2.083677,0.999998,0.000147,-0.001204,0.002449,-0.000216,0.002462,-0.001217,-86.624897,0.002462,
1300,30,-0.001140,-5.022851,0.999998,0.000000,-0.000047,0.001461,-0.000048,0.001463,-0.000048,-88.189022,0.001662,
1530,1310,-0.385904,-1.638148,0.999997,0.000184,-0.001779,0.003031,-0.000175,0.003037,-0.001786,-87.920020,0.003053,
1180,2010,0.002812,-0.038354,0.999999,0.000146,-0.000038,0.001493,-0.000011,0.001493,-0.000038,-89.573526,0.001703,
1000,1320,0.261031,-1.508563,0.999997,0.000210,-0.001768,0.002884,0.000538,0.002945,-0.001829,83.486275,0.002974,
710,1880,0.245200,-0.347416,0.999998,0.000155,-0.001067,0.002467,-0.000364,0.002504,-0.001105,-84.178029,0.002510,
1040,1720,0.107098,-0.558661,0.999998,0.000171,-0.000709,0.001938,0.000083,0.001940,-0.000711,88.196575,0.001963,
1190,1730,0.020849,-0.501996,0.999998,0.000172,-0.000489,0.001784,0.000036,0.001784,-0.000489,89.091045,0.001844,
1740,940,-0.879041,-2.736352,0.999998,0.000147,-0.001117,0.002486,-0.000207,0.002498,-0.001129,-86.723930,0.002502,
710,1450,0.614365,-1.441084,0.999997,0.000189,-0.001348,0.002610,-0.000011,0.002610,-0.001348,-89.838755,0.002610,
910,1560,0.281147,-0.990965,0.999998,0.000163,-0.001200,0.002414,0.000182,0.002424,-0.001209,87.122837,0.002424,
700,1590,0.525023,-1.085897,0.999998,0.000175,-0.001272,0.002540,0.000047,0.002541,-0.001272,89.298953,0.002541,
1490,1930,-0.050349,-0.176547,0.999998,0.000161,-0.000305,0.001788,0.000185,0.001804,-0.000321,84.978817,0.001925,
750,370,0.396323,-4.233192,0.999998,0.000180,-0.001183,0.002488,0.000024,0.002488,-0.001183,89.621007,0.002489,
870,1790,0.196461,-0.482060,0.999998,0.000158,-0.000848,0.002209,-0.000108,0.002212,-0.000852,-87.975954,0.002232,
1250,1990,-0.000738,-0.068389,0.999999,0.000129,-0.000032,0.001496,0.000016,0.001496,-0.000032,89.411171,0.001709,
1420,510,-0.139340,-4.127197,0.999998,0.000149,-0.000940,0.002114,0.000313,0.002146,-0.000972,84.209720,0.002149,
1280,590,-0.030580,-4.077716,0.999999,0.000164,-0.000670,0.001597,0.000207,0.001616,-0.000689,84.829044,0.001622,
1820,1860,-0.346507,-0.443886,0.999997,0.000189,-0.001116,0.002574,0.000234,0.002589,-0.001131,86.392047,0.002596,
1070,1560,0.113944,-0.862552,0.999998,0.000132,-0.000857,0.001998,0.000300,0.002029,-0.000888,84.066387,0.002034,
650,860,0.911339,-2.911661,0.999999,0.000135,-0.001199,0.002433,0.000208,0.002444,-0.001211,86.739390,0.002444,
1140,1280,0.067321,-1.283993,0.999998,0.000184,-0.001053,0.001495,0.001034,0.001862,-0.001419,70.471252,0.001945,
920,860,0.546541,-3.023618,0.999998,0.000180,-0.001640,0.003183,0.000275,0.003199,-0.001655,86.747209,0.003199,
1690,240,-0.262185,-4.567323,0.999998,0.000166,-0.000996,0.002429,-0.000233,0.002444,-0.001012,-86.130344,0.002456,
1440,1740,-0.111421,-0.524989,0.999998,0.000172,-0.000648,0.001984,-0.000020,0.001984,-0.000649,-89.572410,0.002023,
1740,1630,-0.467843,-0.965982,0.999999,0.000163,-0.001246,0.002531,-0.000047,0.002532,-0.001247,-89.290061,0.002532,
670,1820,0.367088,-0.526455,0.999997,0.000209,-0.001150,0.002569,-0.000223,0.002583,-0.001163,-86.581801,0.002587,
1240,1890,-0.002856,-0.225417,0.999999,0.000119,-0.000247,0.001641,0.000007,0.001641,-0.000247,89.780592,0.001769,
580,1820,0.474530,-0.616270,0.999997,0.000203,-0.002681,0.002218,-0.000005,0.002218,-0.002681,-89.946757,0.002866,
1780,650,-0.687656,-3.461825,0.999998,0.000180,-0.001326,0.002616,-0.000080,0.002618,-0.001328,-88.843258,0.002618,
1620,940,-0.746133,-2.750712,0.999998,0.000173,-0.001124,0.002704,-0.000291,0.002726,-0.001146,-85.677389,0.002737,
960,1710,0.169578,-0.616420,0.999997,0.000233,-0.000887,0.002150,0.000088,0.002153,-0.000890,88.347996,0.002163,
1670,1160,-0.765151,-2.176684,0.999998,0.000209,-0.001200,0.002683,0.000310,0.002708,-0.001225,85.464671,0.002712,
830,1110,0.763041,-2.302321,0.999998,0.000171,-0.001118,0.002679,-0.000256,0.002697,-0.001135,-86.154612,0.002708,
1660,720,-0.578845,-3.354167,0.999997,0.000237,-0.001481,0.002821,-0.000107,0.002824,-0.001484,-88.578840,0.002825,
1400,840,-0.244656,-3.368066,0.999998,0.000155,-0.001859,0.002918,0.000797,0.003048,-0.001989,80.771930,0.003094,
1290,2020,-0.001671,-0.022735,0.999999,0.000000,-0.000010,0.001508,0.000018,0.001508,-0.000010,89.335190,0.001736,
1040,1130,0.456942,-2.034084,0.999998,0.000186,-0.001637,0.003720,0.000747,0.003822,-0.001739,82.209188,0.003827,
1710,190,-0.226399,-4.679806,0.999998,0.000166,-0.000792,0.002353,-0.000393,0.002402,-0.000841,-82.988255,0.002438,
1230,240,0.000650,-4.689887,0.999998,0.000159,-0.000381,0.001698,-0.000004,0.001698,-0.000381,-89.876367,0.001782,
1570,960,-0.704733,-2.708631,0.999998,0.000156,-0.001076,0.002852,-0.000279,0.002872,-0.001095,-85.958444,0.002898,
800,330,0.310612,-4.367529,0.999998,0.000169,-0.001115,0.002433,0.000007,0.002433,-0.001115,89.880276,0.002435,
960,170,0.080523,-4.779732,0.999998,0.000147,-0.000473,0.001881,0.000185,0.001895,-0.000488,85.536044,0.001968,
1870,480,-0.672077,-3.829237,0.999998,0.000165,-0.001235,0.002533,0.000033,0.002533,-0.001235,89.492915,0.002534,
1130,100,0.012074,-4.916774,0.999999,0.000139,-0.000156,0.001585,0.000041,0.001586,-0.000157,88.661683,0.001748,
670,1190,0.891177,-2.132748,0.999998,0.000166,-0.001187,0.002459,-0.000223,0.002473,-0.001201,-86.513267,0.002473,
1000,1300,0.273963,-1.566850,0.999997,0.000225,-0.001849,0.002956,0.000523,0.003012,-0.001906,83.854469,0.003047,
1670,220,-0.222680,-4.625758,0.999998,0.000167,-0.000920,0.002294,-0.000241,0.002312,-0.000938,-85.727554,0.002326,
1190,1710,0.021227,-0.536972,0.999998,0.000159,-0.000515,0.001768,0.000039,0.001769,-0.000516,89.032244,0.001820,
1040,1700,0.111755,-0.597075,0.999998,0.000164,-0.000732,0.002005,0.000115,0.002010,-0.000737,87.590332,0.002034,
1090,1300,0.120848,-1.371126,0.999998,0.000174,-0.001419,0.002230,0.000998,0.002485,-0.001674,75.660255,0.002535,
710,1860,0.272434,-0.397679,0.999997,0.000177,-0.001114,0.002457,-0.000279,0.002478,-0.001135,-85.554529,0.002481,
710,1430,0.630431,-1.493937,0.999997,0.000184,-0.001343,0.002622,-0.000038,0.002623,-0.001344,-89.453802,0.002623,
1530,1290,-0.406919,-1.701013,0.999997,0.000185,-0.001807,0.003094,-0.000118,0.003097,-0.001809,-88.620198,0.003112,
1490,1910,-0.060464,-0.211792,0.999999,0.000137,-0.000349,0.001809,0.000188,0.001825,-0.000366,85.055448,0.001931,
1310,1640,-0.046592,-0.668959,0.999998,0.000160,-0.000623,0.001829,-0.000103,0.001833,-0.000627,-87.589589,0.001863,
750,350,0.380579,-4.283956,0.999998,0.000182,-0.001119,0.002515,0.000043,0.002516,-0.001119,89.318425,0.002521,
1740,920,-0.867491,-2.783241,0.999998,0.000154,-0.001141,0.002467,-0.000195,0.002477,-0.001152,-86.916813,0.002479,
1830,370,-0.538197,-4.138352,0.999998,0.000190,-0.001248,0.002503,0.000015,0.002504,-0.001248,89.767395,0.002504,
1780,1820,-0.353330,-0.517912,0.999997,0.000197,-0.001151,0.002540,0.000183,0.002549,-0.001160,87.175127,0.002552,
1000,650,0.219138,-3.761616,0.999998,0.000157,-0.001439,0.002515,-0.000506,0.002579,-0.001502,-82.823953,0.002590,
1140,1260,0.075117,-1.313445,0.999998,0.000165,-0.001103,0.001464,0.001065,0.001848,-0.001487,70.163020,0.001959,
1250,1970,-0.002846,-0.098629,0.999999,0.000135,-0.000060,0.001543,0.000002,0.001543,-0.000060,89.910715,0.001748,
920,1600,0.253624,-0.887717,0.999998,0.000157,-0.001123,0.002376,0.000181,0.002385,-0.001133,87.052348,0.002386,
670,860,0.887819,-2.917416,0.999998,0.000157,-0.001185,0.002446,0.000226,0.002460,-0.001199,86.444817,0.002460,
790,1460,0.497167,-1.351954,0.999998,0.000163,-0.001413,0.002671,0.000021,0.002671,-0.001413,89.700441,0.002672,
1720,1870,-0.227980,-0.353969,0.999998,0.000152,-0.000804,0.002345,0.000405,0.002396,-0.000855,82.794288,0.002429,
730,400,0.443264,-4.142533,0.999998,0.000187,-0.001210,0.002549,-0.000042,0.002550,-0.001211,-89.361447,0.002551,
1440,1720,-0.118888,-0.563765,0.999998,0.000162,-0.000686,0.001997,-0.000062,0.001999,-0.000688,-88.671571,0.002031,
1220,1890,0.003132,-0.225285,0.999999,0.000137,-0.000270,0.001644,0.000008,0.001644,-0.000270,89.753886,0.001763,
910,1540,0.288879,-1.039209,0.999998,0.000182,-0.001240,0.002455,0.000231,0.002470,-0.001255,86.430692,0.002470,
1180,2000,0.002977,-0.053984,0.999999,0.000139,-0.000042,0.001495,-0.000024,0.001496,-0.000043,-89.099296,0.001703,
1620,920,-0.726169,-2.808343,0.999998,0.000171,-0.001187,0.002793,-0.000357,0.002824,-0.001219,-84.913272,0.002833,
1510,1560,-0.230624,-0.954449,0.999998,0.000186,-0.001149,0.002332,-0.000271,0.002353,-0.001170,-85.570216,0.002353,
1660,480,-0.404979,-3.998872,0.999998,0.000183,-0.001268,0.002532,0.000107,0.002535,-0.001271,88.385505,0.002535,
580,1870,0.409292,-0.492073,0.999997,0.000195,-0.001165,0.002552,-0.000072,0.002554,-0.001166,-88.894017,0.002557,
1440,1370,-0.197794,-1.331407,0.999998,0.000165,-0.001494,0.002555,-0.000632,0.002651,-0.001590,-81.325095,0.002669,
1550,960,-0.683708,-2.713749,0.999998,0.000163,-0.001085,0.002939,-0.000288,0.002960,-0.001106,-85.930196,0.002991,
1840,950,-0.995812,-2.693122,0.999998,0.000196,-0.001065,0.002257,-0.000085,0.002259,-0.001068,-88.533757,0.002260,
1290,1190,-0.157858,-1.290592,0.999998,0.000000,-0.001628,0.000299,-0.000120,0.000306,-0.001635,-86.442285,0.001738,
830,1090,0.774746,-2.355927,0.999998,0.000147,-0.001080,0.002661,-0.000239,0.002676,-0.001096,-86.354706,0.002690,
1040,230,0.072673,-4.683771,0.999998,0.000184,-0.000477,0.001865,0.000034,0.001866,-0.000478,89.161149,0.001938,
720,730,0.707868,-3.275068,0.999998,0.000163,-0.001393,0.002626,0.000182,0.002634,-0.001401,87.409886,0.002636,
1710,170,-0.202772,-4.722062,0.999998,0.000155,-0.000732,0.002312,-0.000456,0.002379,-0.000799,-81.654373,0.002421,
1040,1680,0.115264,-0.639054,0.999998,0.000160,-0.000768,0.002048,0.000111,0.002053,-0.000772,87.748370,0.002074,
670,1170,0.907708,-2.181799,0.999998,0.000165,-0.001162,0.002417,-0.000193,0.002428,-0.001173,-86.915322,0.002428,
1530,1270,-0.427611,-1.763134,0.999997,0.000186,-0.001828,0.003139,-0.000053,0.003139,-0.001829,-89.387874,0.003153,
1740,50,-0.047795,-4.978478,0.999999,0.000141,-0.000306,0.002036,-0.000690,0.002225,-0.000494,-74.738894,0.002337,
1110,100,0.014652,-4.915085,0.999999,0.000127,-0.000138,0.001584,0.000063,0.001587,-0.000141,87.905779,0.001757,
600,510,0.684644,-3.758898,0.999997,0.000191,-0.001256,0.002520,-0.000004,0.002520,-0.001256,-89.938678,0.002520,
710,1410,0.645970,-1.546532,0.999997,0.000185,-0.001360,0.002632,-0.000066,0.002633,-0.001361,-89.050425,0.002633,
1490,1890,-0.071535,-0.248618,0.999999,0.000139,-0.000416,0.001832,0.000181,0.001846,-0.000431,85.429136,0.001932,
870,1770,0.210731,-0.528755,0.999998,0.000150,-0.000912,0.002256,-0.000086,0.002258,-0.000914,-88.440196,0.002272,
1000,1280,0.289531,-1.626853,0.999998,0.000208,-0.001927,0.003061,0.000496,0.003110,-0.001976,84.374758,0.003148,
720,1150,0.862143,-2.219031,0.999998,0.000152,-0.001170,0.002516,-0.000227,0.002530,-0.001184,-86.491328,0.002532,
750,330,0.364758,-4.332189,0.999997,0.000188,-0.001089,0.002481,0.000049,0.002481,-0.001089,89.217952,0.002487,
1500,290,-0.141400,-4.541898,0.999998,0.000182,-0.000756,0.002042,-0.000030,0.002043,-0.000757,-89.379865,0.002065,
1290,1640,-0.034677,-0.664290,0.999998,0.000204,-0.000544,0.001784,-0.000042,0.001785,-0.000544,-88.967741,0.001829,
1140,1240,0.092360,-1.342661,0.999998,0.000161,-0.001183,0.001426,0.001041,0.001790,-0.001547,70.707420,0.001942,
1000,630,0.213411,-3.809885,0.999998,0.000152,-0.001365,0.002429,-0.000488,0.002491,-0.001426,-82.783799,0.002499,
1740,900,-0.855491,-2.834279,0.999998,0.000162,-0.001183,0.002542,-0.000257,0.002560,-0.001201,-86.077451,0.002562,
1890,1880,-0.402980,-0.474895,0.999998,0.000194,-0.001209,0.002539,0.000151,0.002545,-0.001215,87.703410,0.002546,
1780,1800,-0.373029,-0.569111,0.999997,0.000212,-0.001176,0.002544,0.000139,0.002549,-0.001181,87.856176,0.002552,
1830,350,-0.524388,-4.190377,0.999998,0.000182,-0.001220,0.002533,0.000007,0.002533,-0.001220,89.894673,0.002534,
790,1440,0.512161,-1.405745,0.999997,0.000184,-0.001422,0.002717,0.000022,0.002717,-0.001422,89.698636,0.002718,
1870,720,-0.863019,-3.219449,0.999999,0.000139,-0.001240,0.002458,-0.000058,0.002459,-0.001241,-89.095547,0.002459,
1360,1950,-0.016982,-0.133137,0.999999,0.000138,-0.000155,0.001617,0.000098,0.001623,-0.000160,86.831648,0.001788,
1250,1950,-0.002464,-0.129815,0.999999,0.000140,-0.000116,0.001552,-0.000016,0.001553,-0.000116,-89.456656,0.001730,
1440,1700,-0.123553,-0.604613,0.999998,0.000164,-0.000712,0.002034,-0.000083,0.002037,-0.000715,-88.262299,0.002067,
810,1540,0.416669,-1.125107,0.999998,0.000144,-0.001318,0.002562,0.000115,0.002565,-0.001322,88.306876,0.002566,
920,1560,0.268454,-0.983075,0.999998,0.000167,-0.001177,0.002392,0.000189,0.002402,-0.001187,86.970868,0.002402,
1660,440,-0.379429,-4.098568,0.999998,0.000170,-0.001208,0.002480,0.000079,0.002481,-0.001209,88.775289,0.002482,
1620,900,-0.707694,-2.862677,0.999998,0.000171,-0.001294,0.002795,-0.000349,0.002825,-0.001324,-85.160130,0.002827,
960,1690,0.176786,-0.658651,0.999998,0.000202,-0.000913,0.002146,0.000113,0.002150,-0.000917,87.893577,0.002157,
1060,1140,0.403833,-1.919308,0.999998,0.000172,-0.001459,0.003373,0.001281,0.003691,-0.001778,76.033818,0.003692,
1270,2010,-0.001737,-0.037715,0.999999,0.000127,-0.000044,0.001507,0.000027,0.001507,-0.000044,89.017907,0.001716,
1290,870,-0.168006,-3.747856,0.999982,0.000000,-0.001740,0.000604,0.000105,0.000609,-0.001744,87.447067,0.001771,
760,1450,0.547085,-1.403133,0.999998,0.000191,-0.001371,0.002671,0.000026,0.002671,-0.001371,89.633365,0.002671,
1180,650,0.029706,-3.985724,0.999999,0.000131,-0.000686,0.001397,-0.000359,0.001457,-0.000746,-80.487199,0.001457,
1880,330,-0.566620,-4.194319,0.999997,0.000199,-0.001217,0.002454,0.000016,0.002454,-0.001217,89.757872,0.002454,
1010,1680,0.140435,-0.652694,0.999999,0.000146,-0.000731,0.002073,0.000070,0.002075,-0.000733,88.576579,0.002104,
1400,820,-0.216448,-3.429397,0.999998,0.000179,-0.001867,0.002902,0.000871,0.003056,-0.002021,79.972072,0.003109,
730,60,0.061974,-4.959280,0.999998,0.000164,-0.000325,0.002017,0.000677,0.002199,-0.000507,74.973653,0.002303,
1350,1180,-0.246622,-1.541002,0.999997,0.000201,-0.000791,0.001528,-0.001071,0.001948,-0.001210,-68.632511,0.001967,
600,930,1.010213,-2.732511,0.999998,0.000145,-0.001091,0.002264,0.000118,0.002268,-0.001095,87.983327,0.002268,
1070,1300,0.152273,-1.418378,0.999998,0.000168,-0.001604,0.002473,0.000932,0.002676,-0.001808,77.709696,0.002730,
1710,150,-0.175574,-4.771637,0.999998,0.000176,-0.000654,0.002290,-0.000503,0.002374,-0.000737,-80.561332,0.002430,
1040,1660,0.121804,-0.679266,0.999998,0.000157,-0.000789,0.002028,0.000146,0.002036,-0.000797,87.038532,0.002052,
670,1150,0.918584,-2.230010,0.999999,0.000122,-0.001138,0.002394,-0.000152,0.002400,-0.001144,-87.547982,0.002401,
830,1070,0.786446,-2.408532,0.999998,0.000155,-0.001036,0.002598,-0.000167,0.002605,-0.001044,-87.381359,0.002622,
1390,240,-0.060261,-4.671375,0.999999,0.000137,-0.000439,0.001813,-0.000059,0.001815,-0.000441,-88.507795,0.001893,
1530,1250,-0.450446,-1.825754,0.999997,0.000192,-0.001839,0.003185,0.000022,0.003185,-0.001839,89.746953,0.003197,
720,750,0.727264,-3.221667,0.999998,0.000170,-0.001369,0.002644,0.000195,0.002654,-0.001378,87.231185,0.002655,
1490,100,-0.037468,-4.907777,0.999999,0.000131,-0.000232,0.001741,-0.000204,0.001761,-0.000253,-84.163594,0.001905,
660,530,0.624120,-3.754948,0.999998,0.000208,-0.001311,0.002609,-0.000032,0.002609,-0.001312,-89.527908,0.002609,
750,310,0.349743,-4.381394,0.999997,0.000209,-0.001053,0.002454,0.000092,0.002457,-0.001056,88.501565,0.002465,
580,510,0.709909,-3.744179,0.999998,0.000168,-0.001823,0.002414,-0.000147,0.002420,-0.001828,-88.008825,0.002523,
1490,1870,-0.081641,-0.285449,0.999998,0.000146,-0.000485,0.001861,0.000161,0.001872,-0.000496,86.102984,0.001940,
710,1390,0.664091,-1.598668,0.999997,0.000185,-0.001365,0.002637,-0.000094,0.002639,-0.001368,-88.662330,0.002639,
1560,310,-0.197178,-4.472891,0.999998,0.000181,-0.000841,0.002216,-0.000039,0.002217,-0.000842,-89.270180,0.002238,
1140,1220,0.117039,-1.370167,0.999998,0.000188,-0.001134,0.001333,0.000922,0.001640,-0.001441,71.612543,0.001789,
1880,1880,-0.389460,-0.462836,0.999998,0.000209,-0.001207,0.002547,0.000155,0.002553,-0.001213,87.641161,0.002554,
1030,1500,0.161564,-1.022013,0.999999,0.000128,-0.001089,0.002189,0.000392,0.002235,-0.001136,83.277974,0.002235,
1740,880,-0.837772,-2.885110,0.999998,0.000157,-0.001200,0.002530,-0.000272,0.002550,-0.001220,-85.848188,0.002551,
1430,560,-0.158761,-4.009936,0.999998,0.000149,-0.001077,0.002170,0.000430,0.002226,-0.001133,82.574878,0.002226,
1780,1780,-0.394783,-0.618788,0.999997,0.000213,-0.001179,0.002517,0.000099,0.002519,-0.001181,88.472603,0.002521,
600,450,0.640738,-3.910861,0.999998,0.000150,-0.001256,0.002509,-0.000040,0.002509,-0.001256,-89.395401,0.002509,
1000,1260,0.310241,-1.689998,0.999998,0.000184,-0.001972,0.003161,0.000447,0.003200,-0.002010,85.057428,0.003234,
730,80,0.089296,-4.919431,0.999998,0.000161,-0.000453,0.002005,0.000624,0.002155,-0.000602,76.547221,0.002223,
800,1510,0.447983,-1.211967,0.999998,0.000187,-0.001330,0.002609,0.000105,0.002612,-0.001333,88.475194,0.002612,
920,1540,0.277864,-1.030050,0.999998,0.000173,-0.001204,0.002424,0.000239,0.002440,-0.001219,86.247197,0.002440,
1060,1130,0.425483,-1.951772,0.999997,0.000183,-0.001497,0.003526,0.001491,0.003935,-0.001907,74.647313,0.003936,
1660,420,-0.368587,-4.148623,0.999998,0.000179,-0.001193,0.002478,0.000063,0.002479,-0.001194,89.018954,0.002480,
1100,1340,0.100047,-1.265814,0.999998,0.000158,-0.001198,0.002000,0.000872,0.002222,-0.001420,75.693509,0.002251,
1290,860,-0.142571,-3.752485,0.999998,0.000000,-0.001591,0.000718,0.000096,0.000722,-0.001595,87.612769,0.001597,
1620,1470,-0.414074,-1.280470,0.999998,0.000184,-0.001415,0.002665,-0.000138,0.002670,-0.001419,-88.063091,0.002671,
1580,880,-0.629744,-2.937502,0.999998,0.000184,-0.001436,0.002979,-0.000337,0.003004,-0.001461,-85.664686,0.003005,
580,1060,1.050309,-2.451443,0.999998,0.000138,-0.000952,0.002097,-0.000036,0.002098,-0.000952,-89.328645,0.002101,
1250,1930,-0.002325,-0.161198,0.999999,0.000129,-0.000167,0.001568,-0.000004,0.001568,-0.000167,-89.866783,0.001722,
1440,1680,-0.129193,-0.646638,0.999998,0.000163,-0.000737,0.002065,-0.000073,0.002067,-0.000739,-88.505747,0.002095,
1190,1690,0.022871,-0.573946,0.999998,0.000147,-0.000551,0.001758,0.000040,0.001759,-0.000552,89.002936,0.001799,
1870,330,-0.555471,-4.201773,0.999998,0.000178,-0.001235,0.002484,0.000035,0.002484,-0.001235,89.459761,0.002484,
1340,1950,-0.014055,-0.131517,0.999998,0.000148,-0.000151,0.001612,0.000062,0.001614,-0.000154,87.983079,0.001782,
1740,1090,-0.891852,-2.367398,0.999998,0.000154,-0.001107,0.002486,0.000147,0.002492,-0.001113,87.658161,0.002497,
1830,330,-0.505725,-4.241424,0.999998,0.000196,-0.001212,0.002534,0.000001,0.002534,-0.001212,89.985572,0.002535,
1670,1200,-0.728881,-2.068263,0.999998,0.000179,-0.001320,0.002740,0.000312,0.002764,-0.001344,85.637252,0.002764,
1380,2010,-0.006870,-0.038375,0.999999,0.000148,-0.000036,0.001541,0.000088,0.001546,-0.000041,86.799193,0.001762,
620,1830,0.415256,-0.547566,0.999996,0.000226,-0.001211,0.002547,-0.000081,0.002549,-0.001212,-88.763170,0.002550,
1010,1660,0.146467,-0.692757,0.999998,0.000145,-0.000783,0.002081,0.000108,0.002085,-0.000787,87.834952,0.002106,
620,1280,0.877753,-1.938094,0.999998,0.000146,-0.001227,0.002477,-0.000127,0.002481,-0.001232,-88.038357,0.002481,
560,50,0.129157,-4.915733,0.999990,0.000000,0.000019,0.003966,0.001601,0.004533,-0.000549,70.477175,0.004948,
1620,880,-0.687677,-2.919923,0.999998,0.000182,-0.001361,0.002847,-0.000355,0.002876,-0.001391,-85.215953,0.002877,
1340,1180,-0.241439,-1.489932,0.999998,0.000198,-0.000723,0.001266,-0.000957,0.001652,-0.001109,-68.049881,0.001684,
1680,550,-0.475613,-3.801853,0.999998,0.000184,-0.001317,0.002611,0.000077,0.002612,-0.001318,88.881145,0.002612,
1220,1830,0.004216,-0.325614,0.999998,0.000148,-0.000381,0.001722,0.000008,0.001722,-0.000381,89.784114,0.001809,
1530,1470,-0.288978,-1.194021,0.999998,0.000180,-0.001354,0.002546,-0.000304,0.002569,-0.001377,-85.576444,0.002572,
870,1750,0.224697,-0.572915,0.999998,0.000174,-0.000950,0.002248,-0.000040,0.002248,-0.000951,-89.286551,0.002257,
1350,1250,-0.117136,-1.413180,0.999998,0.000170,-0.001423,0.001983,-0.001160,0.002340,-0.001780,-72.872747,0.002444,
1040,1640,0.125830,-0.719236,0.999998,0.000137,-0.000801,0.002025,0.000171,0.002035,-0.000811,86.544561,0.002049,
710,1370,0.682670,-1.652915,0.999998,0.000178,-0.001354,0.002650,-0.000110,0.002653,-0.001357,-88.426733,0.002653,
790,670,0.555420,-3.482335,0.999997,0.000206,-0.001458,0.002756,0.000049,0.002757,-0.001458,89.330287,0.002759,
1760,1350,-0.708819,-1.710330,0.999997,0.000181,-0.001350,0.002603,0.000136,0.002608,-0.001354,88.036075,0.002608,
1050,440,0.122988,-4.275725,0.999998,0.000145,-0.000816,0.002032,-0.000200,0.002046,-0.000830,-85.997899,0.002058,
1380,230,-0.053221,-4.691789,0.999998,0.000152,-0.000382,0.001793,-0.000054,0.001795,-0.000383,-88.572882,0.001891,
830,1050,0.790974,-2.460484,0.999998,0.000169,-0.000999,0.002611,-0.000097,0.002613,-0.001002,-88.459506,0.002637,
970,210,0.097354,-4.705200,0.999998,0.000175,-0.000552,0.001926,0.000123,0.001932,-0.000558,87.164834,0.001989,
660,1390,0.730183,-1.634342,0.999998,0.000179,-0.001267,0.002599,-0.000076,0.002600,-0.001269,-88.878406,0.002601,
1490,1850,-0.091975,-0.323617,0.999998,0.000169,-0.000534,0.001925,0.000134,0.001933,-0.000541,86.884945,0.001994,
670,390,0.508796,-4.119561,0.999997,0.000183,-0.001246,0.002506,-0.000026,0.002506,-0.001246,-89.605145,0.002506,
1710,130,-0.152355,-4.815865,0.999998,0.000160,-0.000573,0.002221,-0.000562,0.002330,-0.000682,-79.034115,0.002395,
1470,100,-0.034458,-4.908967,0.999998,0.000160,-0.000191,0.001709,-0.000213,0.001733,-0.000215,-83.686879,0.001889,
1010,1500,0.183560,-1.041329,0.999999,0.000121,-0.001110,0.002242,0.000383,0.002285,-0.001153,83.568579,0.002285,
810,960,0.794659,-2.694404,0.999998,0.000181,-0.001097,0.002636,0.000230,0.002651,-0.001111,86.481050,0.002662,
750,290,0.332545,-4.432244,0.999997,0.000223,-0.001053,0.002492,0.000147,0.002499,-0.001059,87.634540,0.002508,
1630,1020,-0.791770,-2.538829,0.999998,0.000177,-0.000968,0.002612,-0.000057,0.002613,-0.000969,-89.089062,0.002642,
1420,710,-0.175046,-3.677721,0.999998,0.000145,-0.001508,0.002486,0.000742,0.002619,-0.001641,79.811210,0.002647,
600,550,0.714670,-3.656214,0.999998,0.000168,-0.001234,0.002586,-0.000004,0.002586,-0.001234,-89.941010,0.002587,
1040,1210,0.299066,-1.756628,0.999998,0.000181,-0.001914,0.003216,0.000625,0.003291,-0.001989,83.149839,0.003315,
1000,1240,0.334876,-1.754610,0.999998,0.000193,-0.001975,0.003229,0.000365,0.003255,-0.002001,86.006487,0.003283,
930,400,0.218250,-4.286865,0.999998,0.000165,-0.000926,0.002253,-0.000107,0.002256,-0.000929,-88.076007,0.002268,
920,1520,0.284141,-1.078850,0.999998,0.000183,-0.001264,0.002462,0.000281,0.002483,-0.001285,85.717966,0.002483,
1160,650,0.044591,-3.969346,0.999999,0.000143,-0.000704,0.001510,-0.000443,0.001595,-0.000789,-79.094250,0.001595,
1410,780,-0.196359,-3.514938,0.999998,0.000161,-0.001810,0.002751,0.000864,0.002909,-0.001968,79.627900,0.002969,
1860,330,-0.542035,-4.212860,0.999998,0.000186,-0.001231,0.002496,0.000053,0.002497,-0.001232,89.181053,0.002497,
710,100,0.132966,-4.871298,0.999998,0.000162,-0.000795,0.002180,0.000561,0.002282,-0.000898,79.672892,0.002299,
1290,30,-0.000913,-5.022666,0.999999,0.000000,-0.000019,0.001457,-0.000026,0.001457,-0.000019,-88.974363,0.001672,
1740,860,-0.823335,-2.936230,0.999999,0.000147,-0.001211,0.002535,-0.000255,0.002553,-0.001229,-86.124653,0.002553,
1630,1700,-0.291418,-0.711078,0.999998,0.000187,-0.000982,0.002383,0.000018,0.002383,-0.000982,89.695074,0.002395,
1540,310,-0.181590,-4.482525,0.999998,0.000192,-0.000773,0.002163,-0.000021,0.002163,-0.000774,-89.592309,0.002192,
1780,1760,-0.413426,-0.669807,0.999998,0.000179,-0.001179,0.002507,0.000072,0.002509,-0.001180,88.888813,0.002510,
1720,1090,-0.870510,-2.366074,0.999998,0.000189,-0.001098,0.002513,0.000166,0.002521,-0.001106,87.380973,0.002527,
1580,860,-0.605769,-2.997676,0.999997,0.000182,-0.001522,0.003033,-0.000308,0.003054,-0.001543,-86.146074,0.003054,
800,1490,0.461389,-1.264811,0.999998,0.000176,-0.001340,0.002642,0.000089,0.002644,-0.001342,88.717663,0.002644,
1300,1750,-0.031141,-0.467253,0.999998,0.000138,-0.000426,0.001765,-0.000010,0.001765,-0.000426,-89.747342,0.001842,
1870,160,-0.353998,-4.628879,0.999998,0.000178,-0.001241,0.002558,-0.000196,0.002568,-0.001251,-87.057821,0.002569,
1140,840,0.126244,-3.662077,0.999998,0.000185,-0.001098,0.001282,-0.000827,0.001541,-0.001358,-72.594645,0.001684,
1100,1320,0.103123,-1.305337,0.999998,0.000190,-0.001239,0.002022,0.000947,0.002277,-0.001494,74.924015,0.002314,
1300,620,-0.042746,-4.016274,0.999999,0.000126,-0.000702,0.001572,0.000405,0.001642,-0.000771,80.207040,0.001643,
1870,1880,-0.377370,-0.451176,0.999998,0.000198,-0.001217,0.002560,0.000162,0.002567,-0.001224,87.542039,0.002568,
1250,1910,-0.003170,-0.192977,0.999999,0.000133,-0.000218,0.001617,0.000007,0.001617,-0.000218,89.793112,0.001755,
1400,800,-0.196185,-3.486399,0.999997,0.000204,-0.001854,0.002771,0.000905,0.002942,-0.002024,79.317518,0.003011,
1450,1120,-0.519156,-2.148360,0.999997,0.000187,-0.001582,0.003764,-0.000126,0.003767,-0.001585,-88.649638,0.003783,
1410,970,-0.506260,-2.866530,0.999996,0.000247,-0.002120,0.005142,0.001439,0.005417,-0.002394,79.186755,0.005429,
1190,1670,0.024315,-0.607882,0.999998,0.000164,-0.000570,0.001784,0.000049,0.001785,-0.000571,88.819826,0.001823,
1380,2000,-0.009484,-0.055072,0.999999,0.000146,-0.000050,0.001545,0.000089,0.001550,-0.000055,86.799149,0.001759,
1040,1620,0.130911,-0.759204,0.999998,0.000150,-0.000818,0.002036,0.000188,0.002048,-0.000831,86.240615,0.002060,
1830,310,-0.487820,-4.290969,0.999997,0.000200,-0.001208,0.002496,-0.000004,0.002496,-0.001208,-89.931456,0.002496,
1660,550,-0.448758,-3.818365,0.999998,0.000179,-0.001331,0.002610,0.000091,0.002612,-0.001334,88.672622,0.002612,
1580,1510,-0.338351,-1.139168,0.999998,0.000179,-0.001309,0.002539,-0.000193,0.002548,-0.001319,-87.142937,0.002549,
1710,110,-0.121198,-4.861493,0.999999,0.000139,-0.000456,0.002170,-0.000611,0.002305,-0.000591,-77.531468,0.002394,
830,1030,0.795048,-2.513854,0.999997,0.000198,-0.000991,0.002596,-0.000013,0.002596,-0.000991,-89.786594,0.002620,
920,1500,0.293247,-1.129815,0.999998,0.000190,-0.001309,0.002543,0.000262,0.002561,-0.001327,86.132884,0.002561,
1530,140,-0.073528,-4.831703,0.999999,0.000143,-0.000339,0.001826,-0.000240,0.001852,-0.000365,-83.748471,0.001962,
970,190,0.085745,-4.744512,0.999998,0.000161,-0.000513,0.001886,0.000163,0.001897,-0.000524,86.124650,0.001960,
560,40,0.086123,-4.960192,0.999993,0.000000,0.000132,0.004157,0.001925,0.004929,-0.000641,68.136967,0.005361,
620,1260,0.895827,-1.986970,0.999999,0.000144,-0.001213,0.002404,-0.000134,0.002409,-0.001218,-87.884874,0.002409,
1560,1450,-0.340503,-1.276098,0.999998,0.000190,-0.001439,0.002656,-0.000232,0.002669,-0.001452,-86.762544,0.002673,
580,1900,0.362274,-0.415997,0.999997,0.000201,-0.000941,0.002652,-0.000237,0.002667,-0.000956,-86.244869,0.002703,
1260,1830,-0.009721,-0.325785,0.999998,0.000198,-0.000340,0.001707,-0.000012,0.001707,-0.000340,-89.650589,0.001807,
1780,1740,-0.433835,-0.718721,0.999998,0.000173,-0.001180,0.002504,0.000027,0.002504,-0.001180,89.585294,0.002505,
750,270,0.313495,-4.483035,0.999998,0.000194,-0.001031,0.002462,0.000182,0.002472,-0.001041,87.033600,0.002482,
1260,570,-0.017645,-4.115157,0.999999,0.000160,-0.000639,0.001594,0.000130,0.001601,-0.000646,86.675819,0.001611,
1000,910,0.493317,-2.959730,0.999998,0.000189,-0.001697,0.003571,0.000008,0.003571,-0.001697,89.909429,0.003573,
1280,2020,-0.001700,-0.022049,0.999999,0.000000,-0.000032,0.001516,0.000031,0.001516,-0.000033,88.838219,0.001732,
1780,1350,-0.735319,-1.722160,0.999998,0.000184,-0.001326,0.002567,0.000139,0.002572,-0.001331,87.951852,0.002573,
1740,840,-0.807638,-2.986500,0.999998,0.000150,-0.001242,0.002590,-0.000273,0.002610,-0.001262,-85.949971,0.002610,
1050,1700,0.104468,-0.592277,0.999999,0.000140,-0.000712,0.001992,0.000127,0.001998,-0.000718,87.308294,0.002024,
1520,310,-0.167635,-4.493038,0.999998,0.000168,-0.000764,0.002120,0.000000,0.002120,-0.000764,89.991733,0.002147,
670,1130,0.930079,-2.279097,0.999999,0.000130,-0.001133,0.002387,-0.000171,0.002395,-0.001141,-87.222471,0.002396,
1870,150,-0.338463,-4.652759,0.999997,0.000183,-0.001234,0.002579,-0.000244,0.002595,-0.001250,-86.347172,0.002595,
1770,980,-0.928613,-2.633652,0.999999,0.000151,-0.001091,0.002363,-0.000070,0.002364,-0.001092,-88.842324,0.002367,
1140,820,0.097449,-3.691856,0.999998,0.000174,-0.001197,0.001390,-0.001023,0.001746,-0.001553,-70.829212,0.001914,
1000,1220,0.361531,-1.821390,0.999998,0.000186,-0.001950,0.003366,0.000289,0.003382,-0.001966,86.897744,0.003397,
620,550,0.691436,-3.670931,0.999998,0.000165,-0.001268,0.002587,-0.000020,0.002587,-0.001268,-89.703730,0.002587,
1370,680,-0.103653,-3.831234,0.999999,0.000139,-0.001139,0.002004,0.000766,0.002181,-0.001316,76.998685,0.002196,
1580,840,-0.580184,-3.058906,0.999998,0.000173,-0.001596,0.003042,-0.000274,0.003058,-0.001612,-86.628332,0.003060,
660,730,0.787577,-3.240021,0.999998,0.000164,-0.001291,0.002557,0.000146,0.002563,-0.001297,87.833021,0.002563,
1530,1230,-0.476390,-1.890118,0.999998,0.000183,-0.001809,0.003216,0.000087,0.003218,-0.001810,89.005893,0.003226,
1890,1830,-0.471605,-0.598130,0.999997,0.000226,-0.001244,0.002420,0.000100,0.002423,-0.001246,88.432931,0.002423,
1100,1300,0.106293,-1.345729,0.999998,0.000177,-0.001325,0.002095,0.001027,0.002380,-0.001610,74.502767,0.002429,
770,420,0.407238,-4.123184,0.999998,0.000159,-0.001213,0.002529,-0.000039,0.002530,-0.001213,-89.407151,0.002530,
870,1730,0.238218,-0.618798,0.999998,0.000190,-0.000961,0.002329,-0.000016,0.002329,-0.000961,-89.722201,0.002341,
1010,1480,0.187060,-1.085084,0.999998,0.000149,-0.001176,0.002312,0.000423,0.002363,-0.001227,83.177605,0.002363,
1440,1660,-0.135285,-0.688296,0.999998,0.000175,-0.000747,0.002014,-0.000117,0.002019,-0.000752,-87.583359,0.002040,
630,220,0.394459,-4.517203,0.999998,0.000189,-0.001210,0.002579,0.000119,0.002582,-0.001214,88.209435,0.002584,
1040,1600,0.134467,-0.800126,0.999998,0.000158,-0.000844,0.002055,0.000212,0.002070,-0.000860,85.841680,0.002080,
830,1010,0.793114,-2.565121,0.999998,0.000193,-0.000992,0.002609,0.000085,0.002611,-0.000994,88.642232,0.002636,
1280,1750,-0.023161,-0.465525,0.999998,0.000142,-0.000451,0.001765,0.000000,0.001765,-0.000451,89.999913,0.001835,
1700,1910,-0.162921,-0.254227,0.999998,0.000158,-0.000650,0.002237,0.000494,0.002319,-0.000733,80.548448,0.002371,
1570,180,-0.119078,-4.746147,0.999998,0.000183,-0.000579,0.002030,-0.000226,0.002049,-0.000599,-85.087483,0.002107,
1190,1650,0.023975,-0.645640,0.999998,0.000176,-0.000593,0.001804,0.000072,0.001806,-0.000595,88.273702,0.001840,
560,30,0.042673,-4.998344,0.999993,0.000000,0.000214,0.004125,0.002207,0.005118,-0.000779,65.769323,0.005515,
920,1480,0.303256,-1.181354,0.999998,0.000179,-0.001354,0.002577,0.000248,0.002592,-0.001370,86.406619,0.002594,
770,400,0.393463,-4.174082,0.999998,0.000179,-0.001191,0.002507,-0.000032,0.002507,-0.001191,-89.506204,0.002508,
630,1460,0.711437,-1.474093,0.999998,0.000162,-0.001259,0.002536,-0.000016,0.002536,-0.001259,-89.762382,0.002536,
1710,90,-0.097958,-4.900794,0.999999,0.000139,-0.000354,0.002020,-0.000581,0.002154,-0.000489,-76.953490,0.002259,
1830,290,-0.470131,-4.341219,0.999997,0.000195,-0.001221,0.002552,-0.000032,0.002552,-0.001221,-89.510233,0.002553,
1660,400,-0.354290,-4.198071,0.999998,0.000188,-0.001186,0.002491,0.000050,0.002492,-0.001187,89.224000,0.002493,
830,1020,0.794601,-2.539567,0.999997,0.000202,-0.000998,0.002598,0.000039,0.002599,-0.000998,89.381430,0.002622,
1400,780,-0.177553,-3.538997,0.999998,0.000177,-0.001752,0.002653,0.000918,0.002837,-0.001936,78.682473,0.002899,
1780,1720,-0.447953,-0.769859,0.999998,0.000168,-0.001190,0.002538,0.000001,0.002538,-0.001190,89.990764,0.002539,
970,170,0.075177,-4.781090,0.999998,0.000141,-0.000440,0.001870,0.000186,0.001885,-0.000455,85.424298,0.001967,
1560,1490,-0.321145,-1.171649,0.999998,0.000192,-0.001330,0.002541,-0.000250,0.002557,-0.001346,-86.321176,0.002558,
1530,1160,-0.576854,-2.114498,0.999997,0.000181,-0.001545,0.003180,0.000331,0.003203,-0.001568,86.007369,0.003203,
1620,1080,-0.768024,-2.382230,0.999998,0.000186,-0.001020,0.002657,0.000207,0.002668,-0.001031,86.788902,0.002691,
980,910,0.527379,-2.925167,0.999997,0.000186,-0.001591,0.003475,0.000153,0.003480,-0.001596,88.269126,0.003484,
620,1240,0.911433,-2.032498,0.999998,0.000139,-0.001171,0.002355,-0.000146,0.002361,-0.001177,-87.635975,0.002361,
1370,660,-0.102814,-3.872992,0.999999,0.000144,-0.001101,0.002005,0.000701,0.002155,-0.001251,77.855689,0.002165,
1500,270,-0.131536,-4.583593,0.999998,0.000140,-0.000715,0.002035,-0.000034,0.002035,-0.000716,-89.288791,0.002065,
1370,1700,-0.076456,-0.577251,0.999998,0.000178,-0.000569,0.001917,-0.000043,0.001917,-0.000570,-89.013431,0.001969,
1770,960,-0.922841,-2.680302,0.999998,0.000170,-0.001122,0.002396,-0.000140,0.002402,-0.001127,-87.732323,0.002403,
1580,820,-0.555882,-3.118886,0.999998,0.000174,-0.001637,0.003011,-0.000228,0.003023,-0.001648,-87.198910,0.003027,
1280,1190,-0.139444,-1.252281,0.999914,0.000000,-0.001875,0.000043,-0.000102,0.000049,-0.001880,-86.953846,0.002143,
1100,1830,0.045339,-0.335878,0.999999,0.000144,-0.000360,0.001767,-0.000055,0.001768,-0.000362,-88.529513,0.001868,
1100,1280,0.116354,-1.389984,0.999998,0.000155,-0.001442,0.002127,0.001080,0.002428,-0.001743,74.412215,0.002504,
1820,1910,-0.268159,-0.314398,0.999998,0.000187,-0.001080,0.002604,0.000419,0.002652,-0.001127,83.590338,0.002661,
750,250,0.295992,-4.530855,0.999998,0.000165,-0.000993,0.002456,0.000230,0.002472,-0.001008,86.195604,0.002486,
1740,820,-0.788504,-3.039537,0.999998,0.000164,-0.001291,0.002623,-0.000266,0.002641,-0.001309,-86.132854,0.002641,
790,650,0.537592,-3.539420,0.999997,0.000199,-0.001458,0.002763,0.000019,0.002763,-0.001458,89.746502,0.002765,
1250,1890,-0.004775,-0.225067,0.999999,0.000137,-0.000228,0.001657,0.000011,0.001658,-0.000228,89.659471,0.001797,
1300,600,-0.043628,-4.050488,0.999999,0.000140,-0.000709,0.001629,0.000351,0.001680,-0.000761,81.643674,0.001683,
1360,230,-0.046343,-4.695961,0.999998,0.000143,-0.000374,0.001768,-0.000044,0.001769,-0.000375,-88.819836,0.001865,
1090,780,0.134159,-3.612815,0.999998,0.000186,-0.001532,0.002304,-0.001066,0.002580,-0.001809,-75.464447,0.002649,
1410,960,-0.493410,-2.914901,0.999997,0.000235,-0.001958,0.004669,0.001531,0.005006,-0.002295,77.600059,0.005012,
1350,1230,-0.139045,-1.452575,0.999998,0.000169,-0.001478,0.001934,-0.001112,0.002264,-0.001809,-73.450305,0.002395,
1040,1580,0.137097,-0.841284,0.999998,0.000152,-0.000881,0.002107,0.000252,0.002129,-0.000902,85.204912,0.002137,
1370,2010,-0.005956,-0.038994,0.999998,0.000152,-0.000050,0.001543,0.000081,0.001547,-0.000054,87.100858,0.001756,
1570,160,-0.103123,-4.786761,0.999999,0.000141,-0.000523,0.001963,-0.000291,0.001997,-0.000557,-83.411765,0.002061,
1280,570,-0.030004,-4.109666,0.999999,0.000151,-0.000668,0.001619,0.000180,0.001633,-0.000682,85.523990,0.001640,
1000,1200,0.394475,-1.889571,0.999998,0.000185,-0.001909,0.003441,0.000194,0.003448,-0.001916,87.921642,0.003456,
920,1460,0.311733,-1.232578,0.999998,0.000185,-0.001406,0.002578,0.000267,0.002596,-0.001423,86.186927,0.002600,
1800,430,-0.548215,-4.012923,0.999999,0.000160,-0.001270,0.002528,0.000044,0.002529,-0.001270,89.337024,0.002529,
670,1090,0.950981,-2.371776,0.999998,0.000154,-0.001111,0.002336,-0.000099,0.002339,-0.001114,-88.354476,0.002340,
580,1890,0.378124,-0.441023,0.999998,0.000177,-0.000986,0.002678,-0.000127,0.002682,-0.000991,-88.019273,0.002713,
1780,1940,-0.181948,-0.216859,0.999998,0.000160,-0.000846,0.002462,0.000650,0.002585,-0.000969,79.280523,0.002612,
640,730,0.813649,-3.226200,0.999998,0.000139,-0.001262,0.002502,0.000139,0.002507,-0.001267,87.893554,0.002507,
1530,1190,-0.532219,-2.018061,0.999998,0.000172,-0.001669,0.003230,0.000247,0.003242,-0.001682,87.116511,0.003243,
970,740,0.317466,-3.468604,0.999997,0.000179,-0.001786,0.002974,-0.000377,0.003003,-0.001816,-85.504445,0.003025,
1710,70,-0.068319,-4.943518,0.999999,0.000126,-0.000244,0.001975,-0.000604,0.002128,-0.000398,-75.714733,0.002263,
970,150,0.064878,-4.819491,0.999999,0.000131,-0.000375,0.001839,0.000192,0.001856,-0.000391,85.087372,0.001956,
1560,1470,-0.330152,-1.223383,0.999998,0.000156,-0.001384,0.002605,-0.000249,0.002621,-0.001400,-86.435278,0.002623,
1860,1980,-0.171185,-0.172825,0.999998,0.000139,-0.001129,0.002869,0.000703,0.002989,-0.001249,80.312560,0.003002,
1400,760,-0.167108,-3.592041,0.999998,0.000176,-0.001655,0.002561,0.000901,0.002746,-0.001839,78.430770,0.002798,
630,1440,0.727780,-1.526238,0.999998,0.000194,-0.001265,0.002592,-0.000018,0.002592,-0.001265,-89.736582,0.002593,
1140,800,0.078152,-3.717882,0.999998,0.000179,-0.001146,0.001481,-0.001069,0.001862,-0.001526,-70.426638,0.001984,
980,890,0.491015,-2.995756,0.999998,0.000186,-0.001725,0.003430,0.000117,0.003433,-0.001728,88.698076,0.003433,
640,370,0.530513,-4.145046,0.999998,0.000168,-0.001233,0.002522,-0.000007,0.002522,-0.001233,-89.887240,0.002523,
1680,1610,-0.407382,-0.968501,0.999997,0.000217,-0.001235,0.002519,-0.000069,0.002520,-0.001236,-88.940505,0.002520,
1460,50,-0.012310,-4.992654,0.999999,0.000103,-0.000025,0.001541,-0.000173,0.001560,-0.000044,-83.770365,0.001776,
870,1710,0.249373,-0.666487,0.999998,0.000173,-0.001001,0.002312,0.000005,0.002312,-0.001001,89.918465,0.002319,
620,1220,0.927441,-2.081470,0.999998,0.000142,-0.001155,0.002350,-0.000149,0.002356,-0.001161,-87.562466,0.002356,
750,400,0.417970,-4.158672,0.999998,0.000193,-0.001258,0.002536,-0.000045,0.002537,-0.001258,-89.323743,0.002537,
1190,1630,0.023843,-0.679809,0.999998,0.000170,-0.000614,0.001780,0.000077,0.001782,-0.000617,88.164716,0.001810,
1890,1820,-0.483554,-0.623231,0.999997,0.000210,-0.001251,0.002416,0.000085,0.002418,-0.001253,88.668368,0.002418,
1580,800,-0.533256,-3.180618,0.999998,0.000182,-0.001668,0.003070,-0.000178,0.003076,-0.001675,-87.854864,0.003080,
1830,270,-0.447964,-4.392392,0.999997,0.000202,-0.001221,0.002541,-0.000051,0.002541,-0.001222,-89.216887,0.002542,
1100,1260,0.129348,-1.432196,0.999998,0.000172,-0.001536,0.002192,0.001133,0.002509,-0.001854,74.359061,0.002603,
1720,290,-0.340347,-4.428591,0.999998,0.000168,-0.001046,0.002463,-0.000137,0.002469,-0.001052,-87.772860,0.002478,
1690,1200,-0.755637,-2.076068,0.999998,0.000172,-0.001336,0.002685,0.000285,0.002705,-0.001357,85.967598,0.002705,
840,1090,0.763441,-2.355730,0.999998,0.000146,-0.001071,0.002689,-0.000251,0.002706,-0.001088,-86.191688,0.002723,
790,860,0.736626,-2.956633,0.999998,0.000165,-0.001317,0.002733,0.000326,0.002759,-0.001343,85.421829,0.002759,
1820,2010,-0.058698,-0.057390,0.999998,0.000176,-0.000595,0.002259,0.000831,0.002483,-0.000819,74.895980,0.002531,
790,630,0.522882,-3.594626,0.999998,0.000183,-0.001433,0.002707,-0.000020,0.002707,-0.001433,-89.721666,0.002709,
1300,1830,-0.023648,-0.328917,0.999998,0.000155,-0.000324,0.001713,0.000019,0.001713,-0.000324,89.469577,0.001820,
1620,1320,-0.531411,-1.698314,0.999997,0.000207,-0.001603,0.002882,0.000080,0.002884,-0.001604,88.980975,0.002890,
1040,1560,0.140936,-0.883782,0.999998,0.000139,-0.000931,0.002077,0.000288,0.002105,-0.000958,84.574628,0.002108,
860,1570,0.337057,-1.008938,0.999998,0.000188,-0.001238,0.002473,0.000137,0.002478,-0.001243,87.888994,0.002478,
830,1430,0.461440,-1.399730,0.999997,0.000200,-0.001485,0.002720,0.000097,0.002722,-0.001487,88.675411,0.002726,
1660,380,-0.341242,-4.248546,0.999997,0.000182,-0.001187,0.002474,0.000028,0.002474,-0.001187,89.558616,0.002475,
940,170,0.090613,-4.775362,0.999998,0.000145,-0.000437,0.001902,0.000213,0.001921,-0.000456,84.842098,0.002008,
1630,1760,-0.252466,-0.570407,0.999998,0.000188,-0.000888,0.002336,0.000120,0.002340,-0.000892,87.865552,0.002362,
1260,140,-0.003722,-4.854241,0.999999,0.000153,-0.000194,0.001589,0.000005,0.001589,-0.000194,89.837012,0.001733,
900,1250,0.510479,-1.858958,0.999997,0.000192,-0.001711,0.003099,-0.000132,0.003103,-0.001714,-88.431603,0.003108,
750,230,0.274379,-4.581464,0.999998,0.000163,-0.000948,0.002415,0.000303,0.002442,-0.000975,84.893054,0.002459,
920,430,0.241247,-4.210794,0.999998,0.000149,-0.001090,0.002318,-0.000159,0.002326,-0.001097,-87.326841,0.002327,
580,1880,0.393604,-0.466425,0.999998,0.000176,-0.001055,0.002596,-0.000060,0.002597,-0.001056,-89.056989,0.002612,
1210,740,0.009934,-3.899103,0.999999,0.000132,-0.000522,0.000871,-0.000280,0.000925,-0.000576,-79.043779,0.000934,
610,1460,0.736310,-1.491116,0.999998,0.000177,-0.001279,0.002535,-0.000014,0.002535,-0.001279,-89.793850,0.002535,
1300,580,-0.044206,-4.083496,0.999999,0.000133,-0.000712,0.001642,0.000309,0.001682,-0.000752,82.637278,0.001686,
1340,230,-0.038145,-4.696977,0.999999,0.000141,-0.000403,0.001762,-0.000009,0.001762,-0.000403,-89.749195,0.001847,
1350,1210,-0.170356,-1.491267,0.999997,0.000208,-0.001322,0.001903,-0.001109,0.002248,-0.001666,-72.743850,0.002333,
1780,1700,-0.464931,-0.820572,0.999997,0.000179,-0.001190,0.002535,0.000001,0.002535,-0.001190,89.978788,0.002537,
1740,800,-0.770603,-3.091904,0.999998,0.000170,-0.001331,0.002593,-0.000259,0.002610,-0.001348,-86.245446,0.002611,
1540,1490,-0.294932,-1.152561,0.999998,0.000189,-0.001339,0.002516,-0.000278,0.002536,-0.001359,-85.896773,0.002538,
1330,100,-0.012448,-4.916083,0.999999,0.000136,-0.000141,0.001565,-0.000052,0.001567,-0.000142,-88.258334,0.001733,
920,1440,0.321394,-1.284670,0.999998,0.000183,-0.001454,0.002610,0.000271,0.002628,-0.001472,86.201742,0.002634,
1860,1960,-0.218386,-0.229417,0.999998,0.000146,-0.001173,0.002754,0.000557,0.002831,-0.001251,82.075294,0.002838,
970,130,0.055726,-4.855735,0.999999,0.000145,-0.000336,0.001780,0.000194,0.001797,-0.000354,84.813823,0.001904,
1700,1980,-0.074961,-0.106284,0.999998,0.000146,-0.000303,0.001971,0.000552,0.002098,-0.000430,77.055775,0.002217,
1650,300,-0.273364,-4.448047,0.999998,0.000155,-0.000996,0.002379,-0.000077,0.002380,-0.000998,-88.686499,0.002391,
1700,910,-0.813933,-2.816863,0.999999,0.000162,-0.001185,0.002597,-0.000281,0.002618,-0.001206,-85.766919,0.002620,
1890,1810,-0.495315,-0.646903,0.999997,0.000190,-0.001263,0.002448,0.000065,0.002449,-0.001264,88.998003,0.002450,
790,580,0.486618,-3.728727,0.999996,0.000207,-0.001379,0.002637,-0.000066,0.002638,-0.001380,-89.055962,0.002639,
1280,860,-0.123803,-3.778535,0.999997,0.000000,-0.001850,0.000768,0.000013,0.000768,-0.001850,89.705755,0.001859,
990,740,0.280876,-3.501477,0.999998,0.000186,-0.001808,0.002934,-0.000481,0.002982,-0.001856,-84.269775,0.003012,
1100,1240,0.145974,-1.475994,0.999997,0.000192,-0.001566,0.002230,0.001160,0.002556,-0.001892,74.279875,0.002653,
790,840,0.717224,-3.011051,0.999998,0.000171,-0.001367,0.002763,0.000314,0.002786,-0.001390,85.680635,0.002786,
1580,780,-0.509646,-3.240764,0.999997,0.000196,-0.001691,0.003023,-0.000107,0.003026,-0.001693,-88.702279,0.003033,
1140,1580,0.060027,-0.784158,0.999998,0.000161,-0.000694,0.001841,0.000202,0.001857,-0.000710,85.477708,0.001874,
620,1200,0.943518,-2.128390,0.999999,0.000144,-0.001148,0.002377,-0.000156,0.002384,-0.001154,-87.467649,0.002384,
1800,450,-0.561856,-3.962727,0.999998,0.000172,-0.001271,0.002533,0.000058,0.002534,-0.001272,89.125163,0.002534,
1820,2000,-0.080832,-0.079571,0.999998,0.000169,-0.000640,0.002344,0.000822,0.002556,-0.000851,75.573680,0.002603,
1000,1180,0.427154,-1.957884,0.999998,0.000185,-0.001851,0.003447,0.000108,0.003449,-0.001853,88.837193,0.003452,
670,1070,0.952929,-2.420633,0.999998,0.000149,-0.001089,0.002353,-0.000061,0.002354,-0.001090,-88.984553,0.002356,
1040,1540,0.143356,-0.924655,0.999998,0.000151,-0.000972,0.002083,0.000337,0.002120,-0.001009,83.773283,0.002121,
1190,1610,0.026477,-0.715732,0.999999,0.000140,-0.000614,0.001778,0.000063,0.001780,-0.000615,88.491593,0.001808,
1620,340,-0.272121,-4.369835,0.999998,0.000168,-0.000946,0.002408,-0.000033,0.002408,-0.000947,-89.441535,0.002426,
1260,380,-0.015866,-4.442405,0.999998,0.000169,-0.000578,0.001752,0.000054,0.001753,-0.000579,88.670953,0.001787,
1640,1190,-0.697704,-2.084834,0.999998,0.000173,-0.001418,0.002802,0.000356,0.002832,-0.001448,85.212375,0.002832,
820,1090,0.785481,-2.358043,0.999999,0.000136,-0.001074,0.002636,-0.000221,0.002649,-0.001087,-86.603387,0.002663,
790,610,0.508104,-3.647891,0.999997,0.000191,-0.001409,0.002685,-0.000055,0.002686,-0.001410,-89.237413,0.002687,
830,1450,0.447965,-1.346643,0.999998,0.000185,-0.001445,0.002682,0.000112,0.002685,-0.001448,88.447207,0.002687,
1490,580,-0.234983,-3.902109,0.999998,0.000158,-0.001272,0.002421,0.000373,0.002458,-0.001310,84.283200,0.002460,
900,1270,0.486822,-1.797418,0.999997,0.000194,-0.001723,0.003062,-0.000079,0.003063,-0.001725,-89.058346,0.003071,
1480,1690,-0.156927,-0.643215,0.999999,0.000145,-0.000833,0.002128,-0.000105,0.002132,-0.000837,-87.975269,0.002148,
1620,510,-0.370578,-3.955590,0.999997,0.000209,-0.001300,0.002560,0.000128,0.002565,-0.001305,88.105304,0.002565,
1280,1830,-0.016572,-0.327126,0.999998,0.000163,-0.000329,0.001703,-0.000016,0.001704,-0.000329,-89.559039,0.001807,
920,1420,0.331696,-1.338216,0.999998,0.000190,-0.001488,0.002689,0.000280,0.002707,-0.001507,86.176986,0.002713,
1300,1180,-0.210570,-1.316081,0.999906,0.000000,-0.001139,0.000312,-0.000213,0.000343,-0.001169,-81.807559,0.001202,
1830,250,-0.427365,-4.443477,0.999997,0.000213,-0.001215,0.002540,-0.000068,0.002542,-0.001216,-88.957132,0.002542,
1740,780,-0.751804,-3.143460,0.999998,0.000186,-0.001361,0.002626,-0.000228,0.002639,-0.001374,-86.731595,0.002640,
860,1550,0.347043,-1.057289,0.999998,0.000174,-0.001269,0.002505,0.000160,0.002512,-0.001276,87.573741,0.002512,
1400,740,-0.155933,-3.643953,0.999998,0.000166,-0.001541,0.002459,0.000868,0.002639,-0.001722,78.268080,0.002680,
1580,1370,-0.422041,-1.517469,0.999998,0.000162,-0.001631,0.002861,-0.000120,0.002864,-0.001634,-88.470606,0.002873,
1700,1960,-0.098130,-0.146384,0.999998,0.000155,-0.000367,0.002042,0.000548,0.002161,-0.000485,77.769119,0.002268,
1780,1660,-0.495918,-0.922248,0.999998,0.000171,-0.001219,0.002537,-0.000037,0.002538,-0.001219,-89.441647,0.002538,
640,350,0.514053,-4.195910,0.999998,0.000174,-0.001246,0.002510,0.000006,0.002510,-0.001246,89.907935,0.002510,
970,110,0.043758,-4.889497,0.999999,0.000168,-0.000283,0.001730,0.000242,0.001759,-0.000312,83.227261,0.001877,
1320,110,-0.012786,-4.900544,0.999999,0.000121,-0.000141,0.001574,-0.000043,0.001575,-0.000143,-88.565158,0.001742,
1250,740,-0.008776,-3.901324,0.999998,0.000149,-0.000510,0.000855,0.000237,0.000895,-0.000550,80.417188,0.000903,
590,1390,0.820260,-1.684867,0.999998,0.000177,-0.001337,0.002525,-0.000018,0.002525,-0.001337,-89.734785,0.002527,
1890,650,-0.828500,-3.380147,0.999998,0.000152,-0.001234,0.002514,-0.000012,0.002514,-0.001234,-89.814721,0.002514,
1860,1940,-0.261902,-0.281650,0.999998,0.000156,-0.001180,0.002707,0.000398,0.002747,-0.001221,84.217827,0.002753,
1650,280,-0.258387,-4.496870,0.999998,0.000170,-0.000942,0.002356,-0.000135,0.002362,-0.000947,-87.654571,0.002377,
770,860,0.764714,-2.949598,0.999998,0.000153,-0.001295,0.002694,0.000302,0.002716,-0.001317,85.698065,0.002717,
1580,760,-0.489503,-3.301392,0.999997,0.000214,-0.001686,0.002998,-0.000045,0.002998,-0.001686,-89.450116,0.003006,
1720,610,-0.573623,-3.610274,0.999998,0.000183,-0.001394,0.002651,-0.000021,0.002651,-0.001394,-89.698364,0.002652,
1040,1520,0.146527,-0.967847,0.999999,0.000139,-0.001032,0.002150,0.000382,0.002195,-0.001077,83.253765,0.002195,
980,1150,0.517661,-2.097618,0.999997,0.000183,-0.001648,0.003446,-0.000128,0.003450,-0.001651,-88.562314,0.003451,
1100,1220,0.174610,-1.518928,0.999998,0.000181,-0.001567,0.002290,0.001149,0.002607,-0.001883,74.605063,0.002691,
1190,1590,0.024514,-0.751654,0.999999,0.000132,-0.000606,0.001764,0.000075,0.001766,-0.000609,88.177306,0.001794,
750,210,0.252748,-4.628078,0.999998,0.000158,-0.000891,0.002415,0.000382,0.002459,-0.000935,83.492907,0.002483,
1500,1690,-0.174815,-0.656121,0.999999,0.000138,-0.000894,0.002173,-0.000111,0.002177,-0.000898,-87.927999,0.002188,
620,1180,0.958806,-2.176689,0.999998,0.000153,-0.001124,0.002349,-0.000126,0.002353,-0.001129,-87.917236,0.002354,
1620,490,-0.359425,-4.005545,0.999998,0.000198,-0.001254,0.002490,0.000141,0.002496,-0.001259,87.841924,0.002496,
830,1470,0.433676,-1.290477,0.999997,0.000184,-0.001430,0.002680,0.000105,0.002683,-0.001432,88.542994,0.002685,
1000,1380,0.228694,-1.342536,0.999998,0.000185,-0.001531,0.002609,0.000549,0.002681,-0.001603,82.572861,0.002698,
1740,350,-0.412642,-4.263554,0.999997,0.000181,-0.001214,0.002513,-0.000019,0.002513,-0.001214,-89.715387,0.002513,
1870,2020,-0.077805,-0.066215,0.999996,0.000000,-0.000093,0.002877,0.001471,0.003483,-0.000698,67.633400,0.003685,
1300,560,-0.044347,-4.116737,0.999999,0.000120,-0.000718,0.001705,0.000286,0.001738,-0.000752,83.356773,0.001744,
920,1400,0.342732,-1.392254,0.999998,0.000193,-0.001560,0.002767,0.000273,0.002784,-0.001577,86.406584,0.002792,
1740,760,-0.733754,-3.195651,0.999998,0.000176,-0.001366,0.002669,-0.000199,0.002679,-0.001376,-87.181439,0.002680,
1140,1600,0.057510,-0.747473,0.999998,0.000158,-0.000696,0.001851,0.000173,0.001863,-0.000707,86.136524,0.001881,
670,1520,0.614590,-1.290792,0.999997,0.000204,-0.001295,0.002581,0.000021,0.002581,-0.001295,89.691383,0.002581,
1830,230,-0.403834,-4.495250,0.999997,0.000206,-0.001211,0.002552,-0.000112,0.002556,-0.001214,-88.291457,0.002557,
1310,100,-0.009355,-4.916987,0.999999,0.000158,-0.000135,0.001551,-0.000059,0.001553,-0.000137,-87.999558,0.001719,
1560,370,-0.229497,-4.339278,0.999998,0.000147,-0.000961,0.002261,0.000053,0.002262,-0.000962,89.063966,0.002271,
1660,360,-0.328879,-4.297798,0.999997,0.000173,-0.001172,0.002420,0.000008,0.002420,-0.001172,89.880350,0.002421,
960,1280,0.365748,-1.694470,0.999997,0.000198,-0.001841,0.003150,0.000212,0.003159,-0.001850,87.575579,0.003175,
1230,740,0.000554,-3.906955,0.999999,0.000132,-0.000471,0.000826,-0.000028,0.000827,-0.000471,-88.748123,0.000830,
670,1050,0.959154,-2.465160,0.999999,0.000138,-0.001086,0.002347,-0.000065,0.002349,-0.001087,-88.908056,0.002351,
1880,650,-0.816362,-3.387104,0.999998,0.000146,-0.001258,0.002522,-0.000023,0.002522,-0.001258,-89.652555,0.002522,
1770,920,-0.902252,-2.777572,0.999998,0.000149,-0.001137,0.002443,-0.000179,0.002452,-0.001146,-87.141748,0.002454,
1400,1810,-0.065662,-0.377426,0.999998,0.000147,-0.000447,0.001820,0.000039,0.001820,-0.000448,89.010005,0.001897,
1690,200,-0.221083,-4.661930,0.999997,0.000175,-0.000866,0.002338,-0.000328,0.002371,-0.000899,-84.209626,0.002394,
1000,1750,0.123282,-0.514120,0.999999,0.000130,-0.000597,0.001997,-0.000019,0.001997,-0.000597,-89.591228,0.002050,
580,1390,0.832757,-1.692937,0.999998,0.000162,-0.001506,0.002553,0.000022,0.002553,-0.001506,89.682848,0.002567,
1780,1640,-0.511296,-0.973027,0.999997,0.000201,-0.001203,0.002537,-0.000061,0.002538,-0.001204,-89.062319,0.002539,
1860,1920,-0.298436,-0.335966,0.999998,0.000179,-0.001183,0.002639,0.000311,0.002664,-0.001208,85.379151,0.002668,
1400,720,-0.149794,-3.691411,0.999998,0.000151,-0.001457,0.002359,0.000816,0.002526,-0.001624,78.419586,0.002560,
1480,1890,-0.068410,-0.247714,0.999999,0.000143,-0.000361,0.001823,0.000166,0.001836,-0.000374,85.666432,0.001940,
1700,1940,-0.123766,-0.189887,0.999998,0.000156,-0.000474,0.002161,0.000591,0.002287,-0.000601,77.912445,0.002372,
790,1030,0.834048,-2.513963,0.999998,0.000168,-0.001012,0.002522,-0.000015,0.002522,-0.001012,-89.750506,0.002538,
620,350,0.538341,-4.178699,0.999997,0.000197,-0.001238,0.002496,-0.000022,0.002496,-0.001238,-89.659339,0.002496,
1040,1500,0.150656,-1.012061,0.999999,0.000135,-0.001081,0.002153,0.000407,0.002203,-0.001131,82.933189,0.002204,
1580,740,-0.468551,-3.362409,0.999997,0.000212,-0.001662,0.002976,-0.000010,0.002976,-0.001662,-89.872836,0.002982,
1250,1350,-0.009256,-1.105366,0.999999,0.000136,-0.000487,0.001082,-0.000228,0.001114,-0.000520,-81.895235,0.001115,
930,780,0.427416,-3.289233,0.999998,0.000165,-0.001802,0.003137,-0.000080,0.003138,-0.001803,-89.074044,0.003150,
930,580,0.292218,-3.856060,0.999999,0.000156,-0.001370,0.002528,-0.000289,0.002549,-0.001391,-85.781925,0.002553,
1100,1200,0.206453,-1.568751,0.999998,0.000184,-0.001382,0.002153,0.001162,0.002501,-0.001730,73.338241,0.002561,
1560,1370,-0.390606,-1.497444,0.999998,0.000189,-0.001609,0.002844,-0.000177,0.002851,-0.001616,-87.732816,0.002860,
1190,1570,0.025904,-0.786882,0.999999,0.000133,-0.000615,0.001724,0.000085,0.001727,-0.000618,87.927006,0.001750,
1660,650,-0.519272,-3.549240,0.999997,0.000206,-0.001454,0.002775,0.000005,0.002775,-0.001454,89.933064,0.002776,
830,1490,0.420103,-1.239081,0.999998,0.000183,-0.001397,0.002655,0.000104,0.002657,-0.001400,88.525027,0.002658,
980,1130,0.552169,-2.165015,0.999998,0.000196,-0.001521,0.003454,-0.000170,0.003460,-0.001526,-88.047249,0.003468,
750,190,0.228104,-4.677680,0.999998,0.000157,-0.000803,0.002377,0.000410,0.002429,-0.000855,82.771802,0.002464,
620,1160,0.969994,-2.221942,0.999999,0.000141,-0.001067,0.002261,-0.000093,0.002263,-0.001069,-88.401631,0.002264,
1530,600,-0.296157,-3.808272,0.999998,0.000176,-0.001384,0.002593,0.000295,0.002614,-0.001405,85.784938,0.002617,
1400,1010,-0.525387,-2.643674,0.999882,0.000000,-0.002789,0.007180,0.000967,0.007273,-0.002882,84.511081,0.007325,
1710,280,-0.320364,-4.458779,0.999998,0.000166,-0.001042,0.002442,-0.000157,0.002449,-0.001049,-87.427143,0.002457,
1350,1190,-0.216540,-1.527361,0.999997,0.000209,-0.000988,0.001607,-0.001029,0.001966,-0.001346,-70.785498,0.002010,
1020,820,0.302117,-3.315646,0.999997,0.000199,-0.001937,0.003201,-0.000506,0.003250,-0.001986,-84.424009,0.003277,
1860,1290,-0.888422,-1.923869,0.999998,0.000144,-0.001191,0.002442,0.000084,0.002444,-0.001193,88.668775,0.002444,
1300,540,-0.043887,-4.152253,0.999999,0.000125,-0.000721,0.001747,0.000250,0.001772,-0.000746,84.282603,0.001779,
1620,300,-0.246569,-4.463242,0.999998,0.000178,-0.000922,0.002292,-0.000094,0.002295,-0.000925,-88.332309,0.002309,
1830,210,-0.378806,-4.545745,0.999998,0.000179,-0.001193,0.002577,-0.000149,0.002583,-0.001199,-87.734144,0.002585,
1630,1740,-0.266200,-0.617312,0.999998,0.000197,-0.000920,0.002317,0.000068,0.002318,-0.000922,88.802208,0.002334,
920,1380,0.356340,-1.448771,0.999998,0.000205,-0.001623,0.002837,0.000259,0.002852,-0.001638,86.684871,0.002863,
1680,1090,-0.826556,-2.360715,0.999998,0.000177,-0.001063,0.002595,0.000214,0.002608,-0.001076,86.661448,0.002621,
1820,190,-0.339687,-4.608498,0.999998,0.000180,-0.001126,0.002592,-0.000250,0.002609,-0.001142,-86.174971,0.002616,
570,1390,0.851728,-1.701610,0.999977,0.000628,-0.001621,0.002592,0.000061,0.002593,-0.001622,89.176378,0.002620,
1270,100,-0.005525,-4.918234,0.999999,0.000144,-0.000100,0.001569,-0.000027,0.001570,-0.000100,-89.077093,0.001758,
1690,180,-0.199141,-4.709559,0.999998,0.000147,-0.000804,0.002263,-0.000366,0.002306,-0.000847,-83.287409,0.002333,
1290,740,-0.032427,-3.863574,0.999998,0.000162,-0.000689,0.001156,0.000672,0.001375,-0.000908,71.958382,0.001398,
1740,740,-0.714235,-3.250293,0.999998,0.000170,-0.001379,0.002665,-0.000184,0.002673,-0.001387,-87.396984,0.002674,
670,1030,0.961974,-2.513355,0.999998,0.000167,-0.001077,0.002363,-0.000011,0.002363,-0.001077,-89.825036,0.002367,
1710,300,-0.338548,-4.409593,0.999997,0.000193,-0.001052,0.002474,-0.000121,0.002478,-0.001056,-88.044506,0.002488,
1190,1550,0.025981,-0.819855,0.999999,0.000134,-0.000627,0.001711,0.000092,0.001715,-0.000631,87.747306,0.001734,
1140,1620,0.057379,-0.709995,0.999998,0.000148,-0.000675,0.001835,0.000166,0.001846,-0.000686,86.233361,0.001866,
980,1750,0.135508,-0.520570,0.999998,0.000163,-0.000700,0.002051,-0.000008,0.002051,-0.000701,-89.834299,0.002085,
1870,650,-0.803456,-3.395388,0.999998,0.000179,-0.001282,0.002537,-0.000045,0.002538,-0.001282,-89.318523,0.002538,
1560,350,-0.219264,-4.383286,0.999998,0.000180,-0.000921,0.002266,0.000019,0.002266,-0.000921,89.650095,0.002279,
1780,1230,-0.844731,-2.029543,0.999999,0.000154,-0.001253,0.002508,0.000224,0.002521,-0.001266,86.610340,0.002521,
1750,1600,-0.502916,-1.049758,0.999998,0.000188,-0.001250,0.002541,-0.000059,0.002541,-0.001251,-89.114671,0.002542,
1660,340,-0.314568,-4.345312,0.999998,0.000170,-0.001138,0.002433,-0.000018,0.002433,-0.001138,-89.712007,0.002434,
1400,700,-0.144880,-3.736910,0.999998,0.000145,-0.001388,0.002308,0.000772,0.002463,-0.001543,78.657107,0.002489,
960,1150,0.550656,-2.121936,0.999998,0.000213,-0.001566,0.003347,-0.000250,0.003360,-0.001578,-87.090647,0.003362,
1780,1620,-0.525450,-1.022396,0.999998,0.000182,-0.001223,0.002540,-0.000049,0.002540,-0.001223,-89.257767,0.002541,
1590,840,-0.596381,-3.052539,0.999997,0.000183,-0.001582,0.003001,-0.000282,0.003018,-0.001599,-86.493092,0.003020,
790,1050,0.831071,-2.463970,0.999998,0.000160,-0.001021,0.002547,-0.000096,0.002549,-0.001023,-88.464627,0.002566,
670,1500,0.630231,-1.342526,0.999998,0.000186,-0.001313,0.002568,0.000016,0.002568,-0.001313,89.768845,0.002568,
970,90,0.032450,-4.924217,0.999999,0.000150,-0.000228,0.001700,0.000221,0.001725,-0.000253,83.552032,0.001863,
1400,1790,-0.072442,-0.414467,0.999998,0.000194,-0.000493,0.001865,0.000030,0.001866,-0.000494,89.272451,0.001934,
1060,1150,0.382217,-1.883101,0.999997,0.000191,-0.001502,0.003210,0.001109,0.003458,-0.001750,77.396504,0.003458,
1300,520,-0.043325,-4.186263,0.999999,0.000129,-0.000717,0.001733,0.000219,0.001752,-0.000736,84.940246,0.001760,
710,1350,0.699094,-1.704531,0.999998,0.000184,-0.001355,0.002652,-0.000127,0.002656,-0.001359,-88.186145,0.002656,
1010,730,0.238690,-3.562878,0.999998,0.000187,-0.001710,0.002777,-0.000611,0.002858,-0.001792,-82.381485,0.002889,
1860,1900,-0.334123,-0.387440,0.999997,0.000196,-0.001210,0.002585,0.000212,0.002596,-0.001222,86.805460,0.002598,
1530,580,-0.287672,-3.858955,0.999997,0.000190,-0.001364,0.002504,0.000278,0.002524,-0.001383,85.915949,0.002528,
1250,1310,-0.009897,-1.142299,0.999999,0.000125,-0.000494,0.000801,-0.000240,0.000844,-0.000537,-79.846428,0.000855,
1670,1660,-0.363351,-0.836441,0.999997,0.000194,-0.001165,0.002481,-0.000032,0.002482,-0.001165,-89.500543,0.002483,
580,1340,0.874168,-1.817660,0.999999,0.000158,-0.001410,0.002487,0.000039,0.002488,-0.001411,89.429528,0.002495,
1220,650,0.007242,-4.001929,0.999999,0.000109,-0.000561,0.001285,-0.000107,0.001291,-0.000567,-86.702104,0.001294,
600,730,0.863541,-3.200063,0.999999,0.000134,-0.001245,0.002442,0.000057,0.002443,-0.001246,89.110175,0.002443,
750,610,0.564567,-3.615773,0.999997,0.000188,-0.001376,0.002665,-0.000012,0.002665,-0.001376,-89.822919,0.002666,
1530,1170,-0.562245,-2.082936,0.999998,0.000182,-0.001585,0.003189,0.000311,0.003209,-0.001605,86.288435,0.003209,
1580,720,-0.450398,-3.420471,0.999998,0.000197,-0.001654,0.002941,0.000030,0.002942,-0.001655,89.620501,0.002949,
1250,100,-0.002201,-4.917950,0.999999,0.000122,-0.000169,0.001550,-0.000029,0.001551,-0.000170,-89.048227,0.001701,
1040,1480,0.154256,-1.056279,0.999999,0.000146,-0.001095,0.002186,0.000460,0.002249,-0.001158,82.172946,0.002249,
1040,1890,0.049077,-0.238971,0.999998,0.000174,-0.000348,0.001750,-0.000101,0.001755,-0.000353,-87.245824,0.001857,
800,730,0.592611,-3.325902,0.999998,0.000150,-0.001482,0.002824,0.000135,0.002828,-0.001486,88.211100,0.002829,
620,1140,0.980104,-2.267796,0.999999,0.000141,-0.001074,0.002281,-0.000111,0.002285,-0.001078,-88.105917,0.002286,
1440,1640,-0.139504,-0.727666,0.999998,0.000191,-0.000793,0.002086,-0.000142,0.002093,-0.000800,-87.176308,0.002113,
1460,2000,-0.012772,-0.055963,0.999998,0.000186,-0.000034,0.001586,0.000181,0.001606,-0.000054,83.716575,0.001824,
1350,870,-0.231194,-3.505520,0.999997,0.000197,-0.000924,0.001560,0.001053,0.001946,-0.001310,69.856809,0.001984,
1720,1910,-0.176307,-0.260848,0.999998,0.000138,-0.000631,0.002315,0.000530,0.002407,-0.000723,80.103953,0.002470,
1000,410,0.157083,-4.310405,0.999998,0.000153,-0.000884,0.002121,-0.000154,0.002129,-0.000892,-87.076937,0.002139,
870,1690,0.261244,-0.710183,0.999998,0.000161,-0.001049,0.002310,0.000017,0.002310,-0.001049,89.706563,0.002314,
1660,1090,-0.803698,-2.359420,0.999998,0.000174,-0.001077,0.002625,0.000228,0.002639,-0.001091,86.481389,0.002652,
670,1010,0.959194,-2.561604,0.999998,0.000172,-0.001059,0.002347,0.000078,0.002349,-0.001060,88.687346,0.002352,
1490,1090,-0.623813,-2.312171,0.999998,0.000174,-0.001198,0.003354,0.000210,0.003364,-0.001207,87.369614,0.003408,
1840,1290,-0.865719,-1.911241,0.999999,0.000137,-0.001230,0.002441,0.000136,0.002446,-0.001235,87.882403,0.002446,
1630,1720,-0.280169,-0.663456,0.999998,0.000199,-0.000967,0.002373,0.000034,0.002373,-0.000968,89.422478,0.002386,
1830,190,-0.351943,-4.598617,0.999998,0.000182,-0.001164,0.002581,-0.000186,0.002590,-0.001173,-87.159982,0.002594,
1740,720,-0.694441,-3.303382,0.999998,0.000183,-0.001390,0.002629,-0.000164,0.002635,-0.001397,-87.667473,0.002637,
1890,1970,-0.228286,-0.229788,0.999998,0.000172,-0.001130,0.003101,0.000734,0.003224,-0.001254,80.434238,0.003251,
1140,1640,0.055579,-0.672960,0.999998,0.000158,-0.000651,0.001839,0.000156,0.001849,-0.000660,86.424528,0.001874,
1100,1180,0.257077,-1.608607,0.999998,0.000174,-0.001031,0.001866,0.001173,0.002281,-0.001446,70.495705,0.002308,
1560,510,-0.296838,-4.006480,0.999998,0.000171,-0.001237,0.002467,0.000214,0.002480,-0.001250,86.701871,0.002480,
630,60,0.105141,-4.938111,0.999998,0.000151,-0.000992,0.002463,0.000712,0.002604,-0.001133,78.794993,0.002612,
1890,1580,-0.693132,-1.213117,0.999998,0.000201,-0.001255,0.002517,-0.000036,0.002518,-0.001255,-89.448571,0.002518,
1190,1530,0.026184,-0.853905,0.999999,0.000132,-0.000640,0.001696,0.000112,0.001701,-0.000645,87.269342,0.001718,
1750,1580,-0.515975,-1.100811,0.999998,0.000166,-0.001250,0.002562,-0.000071,0.002563,-0.001251,-88.934828,0.002564,
1780,350,-0.461620,-4.231357,0.999997,0.000184,-0.001204,0.002526,-0.000004,0.002526,-0.001204,-89.942317,0.002527,
1250,390,-0.010864,-4.426392,0.999998,0.000154,-0.000601,0.001775,0.000053,0.001777,-0.000602,88.713434,0.001807,
1010,770,0.267988,-3.446398,0.999997,0.000193,-0.001883,0.003011,-0.000557,0.003074,-0.001946,-83.586579,0.003110,
1120,170,0.028712,-4.801117,0.999999,0.000125,-0.000307,0.001684,0.000038,0.001685,-0.000308,88.905748,0.001794,
1120,1750,0.052254,-0.478178,0.999998,0.000155,-0.000521,0.001833,0.000052,0.001834,-0.000522,88.730464,0.001890,
790,1070,0.826014,-2.412676,0.999998,0.000159,-0.001051,0.002547,-0.000133,0.002552,-0.001055,-87.888622,0.002565,
1140,310,0.042520,-4.559545,0.999998,0.000142,-0.000539,0.001803,-0.000040,0.001803,-0.000540,-89.011207,0.001851,
1670,1620,-0.388841,-0.936184,0.999998,0.000173,-0.001197,0.002496,-0.000069,0.002497,-0.001198,-88.925198,0.002498,
710,1330,0.717103,-1.758219,0.999998,0.000192,-0.001357,0.002633,-0.000163,0.002639,-0.001363,-87.659883,0.002640,
1480,1010,-0.648523,-2.579618,0.999997,0.000193,-0.001079,0.003554,-0.000048,0.003555,-0.001080,-89.406688,0.003645,
1570,840,-0.564121,-3.066483,0.999998,0.000167,-0.001613,0.003086,-0.000266,0.003101,-0.001628,-86.765016,0.003102,
1340,1830,-0.037437,-0.332733,0.999998,0.000156,-0.000380,0.001759,-0.000002,0.001759,-0.000380,-89.936924,0.001852,
820,710,0.545203,-3.395177,0.999998,0.000199,-0.001550,0.002812,0.000079,0.002813,-0.001551,88.963867,0.002818,
1300,500,-0.043272,-4.221747,0.999999,0.000131,-0.000704,0.001770,0.000185,0.001783,-0.000718,85.736016,0.001795,
1680,170,-0.179969,-4.735121,0.999999,0.000139,-0.000795,0.002231,-0.000372,0.002276,-0.000840,-83.085630,0.002302,
1630,960,-0.768501,-2.697790,0.999998,0.000151,-0.001057,0.002671,-0.000242,0.002687,-0.001072,-86.296956,0.002705,
1400,680,-0.140119,-3.784564,0.999998,0.000162,-0.001310,0.002256,0.000734,0.002401,-0.001456,78.806443,0.002419,
930,100,0.048023,-4.902750,0.999999,0.000121,-0.000204,0.001776,0.000275,0.001813,-0.000241,82.223027,0.001969,
800,710,0.573430,-3.381195,0.999997,0.000211,-0.001474,0.002781,0.000097,0.002783,-0.001477,88.692952,0.002785,
1530,1150,-0.591178,-2.145996,0.999998,0.000174,-0.001493,0.003180,0.000343,0.003205,-0.001518,85.828125,0.003207,
1460,1250,-0.315739,-1.715395,0.999998,0.000182,-0.001934,0.003173,-0.000406,0.003205,-0.001966,-85.487563,0.003233,
1700,1180,-0.784982,-2.131956,0.999998,0.000170,-0.001286,0.002619,0.000267,0.002638,-0.001304,86.110854,0.002638,
1350,850,-0.178851,-3.537479,0.999997,0.000204,-0.001241,0.001850,0.001105,0.002204,-0.001595,72.221362,0.002276,
1810,2010,-0.056419,-0.055348,0.999998,0.000156,-0.000299,0.002225,0.000909,0.002518,-0.000593,72.115398,0.002633,
810,1900,0.142903,-0.262701,0.999998,0.000141,-0.000613,0.002160,-0.000388,0.002213,-0.000666,-82.178434,0.002271,
1000,390,0.151073,-4.351652,0.999998,0.000167,-0.000814,0.002110,-0.000121,0.002115,-0.000819,-87.636460,0.002133,
1400,1030,-0.469948,-2.500012,0.999422,0.000000,-0.003193,0.007239,0.000276,0.007246,-0.003200,88.483753,0.007262,
1530,820,-0.469692,-3.167072,0.999997,0.000192,-0.001802,0.003220,-0.000087,0.003221,-0.001803,-89.002807,0.003229,
830,1930,0.103166,-0.197618,0.999999,0.000146,-0.000392,0.002013,-0.000432,0.002088,-0.000467,-80.117175,0.002192,
620,1120,0.992554,-2.313035,0.999998,0.000170,-0.001079,0.002264,-0.000133,0.002270,-0.001084,-87.731512,0.002270,
790,780,0.656885,-3.177583,0.999998,0.000173,-0.001459,0.002764,0.000230,0.002776,-0.001471,86.887974,0.002778,
1440,1620,-0.144972,-0.770363,0.999998,0.000168,-0.000843,0.002086,-0.000191,0.002098,-0.000856,-86.281722,0.002110,
1150,150,0.016179,-4.838284,0.999998,0.000137,-0.000205,0.001637,0.000047,0.001638,-0.000206,88.530207,0.001784,
680,430,0.525458,-4.025804,0.999998,0.000167,-0.001220,0.002541,-0.000046,0.002541,-0.001220,-89.293070,0.002542,
670,990,0.955458,-2.608923,0.999998,0.000179,-0.001053,0.002339,0.000050,0.002340,-0.001054,89.148176,0.002344,
670,1340,0.760706,-1.756015,0.999998,0.000155,-0.001303,0.002573,-0.000147,0.002578,-0.001309,-87.832707,0.002578,
1700,1570,-0.458155,-1.086216,0.999997,0.000191,-0.001294,0.002547,-0.000058,0.002547,-0.001295,-89.134684,0.002547,
870,1670,0.271478,-0.758754,0.999998,0.000161,-0.001052,0.002360,0.000043,0.002360,-0.001053,89.272354,0.002365,
880,1430,0.386265,-1.351983,0.999997,0.000198,-0.001501,0.002716,0.000176,0.002723,-0.001508,87.619049,0.002728,
570,1450,0.807525,-1.541860,0.999951,0.000839,-0.001894,0.002467,-0.000032,0.002467,-0.001894,-89.582605,0.002582,
710,1310,0.736595,-1.810430,0.999998,0.000179,-0.001352,0.002626,-0.000194,0.002635,-0.001361,-87.217751,0.002636,
1200,1350,0.016534,-1.111003,0.999999,0.000130,-0.000569,0.001092,0.000327,0.001154,-0.000631,79.268632,0.001156,
1630,200,-0.173422,-4.685763,0.999998,0.000175,-0.000654,0.002184,-0.000296,0.002215,-0.000684,-84.105255,0.002268,
1200,650,0.016840,-3.996197,0.999998,0.000157,-0.000582,0.001325,-0.000215,0.001349,-0.000606,-83.643453,0.001351,
1010,1000,0.610996,-2.634978,0.999997,0.000203,-0.001390,0.004213,-0.000087,0.004215,-0.001392,-89.108685,0.004295,
610,1060,1.020522,-2.447584,0.999998,0.000164,-0.001006,0.002179,-0.000047,0.002180,-0.001007,-89.155031,0.002182,
1630,940,-0.754667,-2.750042,0.999998,0.000166,-0.001114,0.002688,-0.000285,0.002709,-0.001135,-85.733311,0.002721,
910,100,0.052764,-4.902501,0.999999,0.000138,-0.000232,0.001814,0.000326,0.001865,-0.000283,81.154482,0.002010,
630,540,0.670705,-3.704129,0.999998,0.000169,-0.001294,0.002592,-0.000016,0.002592,-0.001294,-89.770147,0.002592,
1610,1710,-0.266296,-0.675882,0.999998,0.000144,-0.000985,0.002359,0.000011,0.002359,-0.000985,89.816857,0.002370,
1100,120,0.021914,-4.881489,0.999999,0.000131,-0.000182,0.001636,0.000091,0.001640,-0.000187,87.130468,0.001796,
1760,1230,-0.818899,-2.022197,0.999999,0.000142,-0.001268,0.002561,0.000248,0.002577,-0.001284,86.306609,0.002577,
1640,1550,-0.395120,-1.088704,0.999997,0.000173,-0.001299,0.002564,-0.000106,0.002567,-0.001302,-88.433470,0.002567,
1660,320,-0.299020,-4.394407,0.999998,0.000153,-0.001093,0.002413,-0.000042,0.002414,-0.001093,-89.318058,0.002418,
820,690,0.526625,-3.451711,0.999997,0.000239,-0.001555,0.002789,0.000043,0.002790,-0.001556,89.432912,0.002796,
1780,1600,-0.541053,-1.076282,0.999998,0.000174,-0.001259,0.002533,-0.000046,0.002534,-0.001260,-89.301063,0.002534,
1430,360,-0.118962,-4.430187,0.999998,0.000187,-0.000741,0.002002,0.000090,0.002005,-0.000744,88.123631,0.002027,
1190,1510,0.025555,-0.887640,0.999999,0.000152,-0.000639,0.001661,0.000132,0.001669,-0.000647,86.733945,0.001683,
1300,480,-0.042940,-4.257584,0.999999,0.000132,-0.000690,0.001802,0.000147,0.001811,-0.000699,86.629466,0.001827,
750,630,0.578874,-3.561529,0.999998,0.000186,-0.001406,0.002652,0.000032,0.002652,-0.001407,89.548514,0.002654,
1570,1910,-0.090597,-0.224649,0.999999,0.000154,-0.000440,0.001943,0.000277,0.001975,-0.000472,83.448745,0.002062,
1250,370,-0.009195,-4.460548,0.999998,0.000144,-0.000553,0.001748,0.000059,0.001750,-0.000555,88.538412,0.001788,
1020,260,0.094658,-4.620755,0.999998,0.000146,-0.000545,0.001907,0.000046,0.001908,-0.000546,88.935389,0.001965,
1340,1750,-0.051874,-0.477028,0.999998,0.000153,-0.000544,0.001810,-0.000040,0.001810,-0.000545,-89.025996,0.001858,
1530,1130,-0.619886,-2.211198,0.999998,0.000196,-0.001366,0.003139,0.000340,0.003164,-0.001392,85.703175,0.003172,
1560,490,-0.286981,-4.055278,0.999999,0.000149,-0.001156,0.002420,0.000200,0.002431,-0.001167,86.805458,0.002432,
1780,330,-0.444773,-4.281452,0.999998,0.000177,-0.001224,0.002506,-0.000009,0.002506,-0.001224,-89.856887,0.002506,
880,590,0.366538,-3.780549,0.999998,0.000176,-0.001419,0.002653,-0.000192,0.002662,-0.001428,-87.306436,0.002664,
1040,1460,0.155902,-1.098010,0.999999,0.000141,-0.001112,0.002203,0.000497,0.002276,-0.001185,81.653465,0.002277,
1750,1840,-0.294248,-0.443653,0.999997,0.000215,-0.001101,0.002498,0.000225,0.002512,-0.001115,86.436294,0.002517,
1400,660,-0.137390,-3.829008,0.999998,0.000140,-0.001224,0.002195,0.000674,0.002323,-0.001352,79.239217,0.002334,
1460,2010,-0.009667,-0.040100,0.999999,0.000153,-0.000003,0.001561,0.000167,0.001578,-0.000020,83.953426,0.001811,
1350,830,-0.146415,-3.579098,0.999998,0.000196,-0.001456,0.001955,0.001114,0.002287,-0.001787,73.426961,0.002404,
780,710,0.602313,-3.366898,0.999997,0.000231,-0.001477,0.002759,0.000118,0.002762,-0.001481,88.402602,0.002765,
1420,690,-0.170582,-3.728411,0.999998,0.000148,-0.001439,0.002444,0.000712,0.002571,-0.001565,79.932922,0.002591,
1860,1880,-0.366053,-0.438877,0.999998,0.000192,-0.001215,0.002573,0.000171,0.002580,-0.001223,87.425569,0.002581,
790,1090,0.818096,-2.360496,0.999998,0.000148,-0.001078,0.002563,-0.000209,0.002575,-0.001090,-86.732936,0.002585,
810,1880,0.163734,-0.306848,0.999999,0.000124,-0.000688,0.002191,-0.000343,0.002232,-0.000729,-83.290177,0.002276,
620,1100,1.002177,-2.357420,0.999998,0.000186,-0.001075,0.002230,-0.000064,0.002232,-0.001076,-88.896185,0.002232,
690,860,0.864434,-2.924654,0.999998,0.000161,-0.001216,0.002482,0.000238,0.002498,-0.001231,86.331573,0.002498,
1460,1230,-0.341521,-1.781601,0.999997,0.000199,-0.001929,0.003277,-0.000350,0.003300,-0.001952,-86.167138,0.003318,
1150,130,0.013935,-4.869902,0.999998,0.000148,-0.000175,0.001585,0.000050,0.001587,-0.000176,88.362217,0.001739,
670,500,0.588346,-3.839673,0.999998,0.000190,-0.001283,0.002557,-0.000033,0.002557,-0.001284,-89.509045,0.002557,
1450,110,-0.034131,-4.893383,0.999998,0.000159,-0.000223,0.001710,-0.000182,0.001727,-0.000240,-84.659088,0.001871,
960,1980,0.029035,-0.090429,0.999999,0.000117,-0.000185,0.001702,-0.000225,0.001729,-0.000212,-83.303607,0.001886,
610,540,0.695600,-3.688804,0.999997,0.000183,-0.001243,0.002593,-0.000008,0.002593,-0.001243,-89.886698,0.002594,
1680,1570,-0.432728,-1.070057,0.999997,0.000185,-0.001273,0.002539,-0.000090,0.002541,-0.001275,-88.642826,0.002541,
880,1410,0.399637,-1.408054,0.999998,0.000179,-0.001535,0.002791,0.000180,0.002798,-0.001542,87.627535,0.002803,
680,1450,0.654351,-1.463824,0.999998,0.000164,-0.001318,0.002596,-0.000018,0.002596,-0.001318,-89.734946,0.002596,
1890,1630,-0.654076,-1.088449,0.999998,0.000199,-0.001202,0.002492,0.000000,0.002492,-0.001202,-89.993609,0.002492,
1830,410,-0.570611,-4.039143,0.999998,0.000180,-0.001238,0.002515,0.000022,0.002515,-0.001238,89.663168,0.002515,
870,1650,0.283549,-0.808095,0.999998,0.000161,-0.001053,0.002399,0.000064,0.002400,-0.001054,88.945555,0.002406,
690,160,0.246473,-4.715269,0.999998,0.000157,-0.001019,0.002514,0.000427,0.002565,-0.001070,83.199206,0.002576,
1320,1830,-0.029522,-0.329077,0.999999,0.000138,-0.000380,0.001732,0.000013,0.001732,-0.000380,89.650187,0.001820,
1020,240,0.085727,-4.659385,0.999998,0.000156,-0.000491,0.001919,0.000078,0.001921,-0.000493,88.155910,0.001995,
1520,130,-0.064443,-4.850218,0.999999,0.000143,-0.000322,0.001787,-0.000242,0.001815,-0.000349,-83.550260,0.001926,
1740,700,-0.678367,-3.355104,0.999997,0.000188,-0.001379,0.002660,-0.000126,0.002664,-0.001383,-88.211656,0.002664,
1580,700,-0.435207,-3.479146,0.999998,0.000195,-0.001645,0.002885,0.000092,0.002887,-0.001646,88.837472,0.002897,
1560,1890,-0.101529,-0.262512,0.999999,0.000145,-0.000467,0.001950,0.000264,0.001978,-0.000495,83.847888,0.002059,
1250,350,-0.009771,-4.495289,0.999998,0.000148,-0.000522,0.001766,0.000055,0.001768,-0.000523,88.615444,0.001816,
750,650,0.596881,-3.509940,0.999998,0.000198,-0.001416,0.002677,0.000044,0.002678,-0.001417,89.384372,0.002679,
930,2010,0.016630,-0.042333,0.999999,0.000146,-0.000017,0.001596,-0.000255,0.001636,-0.000056,-81.231513,0.001857,
1600,470,-0.325583,-4.071426,0.999998,0.000158,-0.001223,0.002468,0.000142,0.002474,-0.001229,87.804007,0.002474,
670,970,0.951505,-2.655297,0.999998,0.000182,-0.001083,0.002343,0.000082,0.002345,-0.001085,88.636138,0.002347,
1040,1440,0.160152,-1.141967,0.999998,0.000157,-0.001164,0.002215,0.000534,0.002298,-0.001246,81.228583,0.002301,
800,690,0.557031,-3.437413,0.999997,0.000223,-0.001474,0.002759,0.000056,0.002760,-0.001475,89.245616,0.002762,
1300,460,-0.041550,-4.295460,0.999999,0.000141,-0.000668,0.001793,0.000109,0.001797,-0.000673,87.467512,0.001816,
1390,1500,-0.118064,-0.980288,0.999999,0.000145,-0.000960,0.001996,-0.000413,0.002053,-0.001017,-82.188174,0.002053,
1320,1750,-0.041158,-0.471467,0.999999,0.000121,-0.000530,0.001791,-0.000052,0.001792,-0.000531,-88.721895,0.001841,
590,730,0.875946,-3.192918,0.999999,0.000148,-0.001272,0.002453,0.000059,0.002454,-0.001273,89.099657,0.002454,
1700,890,-0.798289,-2.869001,0.999999,0.000136,-0.001247,0.002634,-0.000313,0.002660,-0.001272,-85.414218,0.002660,
1530,1110,-0.645290,-2.272690,0.999998,0.000180,-0.001226,0.003101,0.000330,0.003126,-0.001251,85.668226,0.003147,
1400,640,-0.134925,-3.870939,0.999999,0.000137,-0.001158,0.002137,0.000615,0.002248,-0.001269,79.765613,0.002254,
1770,1840,-0.316776,-0.460296,0.999997,0.000204,-0.001142,0.002528,0.000234,0.002542,-0.001157,86.361286,0.002546,
1420,430,-0.125832,-4.293108,0.999998,0.000176,-0.000808,0.002026,0.000183,0.002038,-0.000819,86.321903,0.002051,
950,680,0.311135,-3.612702,0.999998,0.000180,-0.001627,0.002794,-0.000366,0.002824,-0.001657,-85.296960,0.002838,
1490,1830,-0.103240,-0.361128,0.999998,0.000161,-0.000561,0.001939,0.000081,0.001941,-0.000564,88.147944,0.001997,
1610,1690,-0.280081,-0.722676,0.999998,0.000163,-0.001004,0.002351,-0.000022,0.002351,-0.001004,-89.621541,0.002360,
790,1530,0.450409,-1.167571,0.999998,0.000154,-0.001353,0.002594,0.000099,0.002597,-0.001355,88.557926,0.002597,
1780,1580,-0.554420,-1.125295,0.999998,0.000169,-0.001292,0.002539,-0.000042,0.002540,-0.001293,-89.365056,0.002540,
940,1150,0.580225,-2.141629,0.999998,0.000181,-0.001464,0.003217,-0.000319,0.003239,-0.001485,-86.121511,0.003243,
1760,1070,-0.918176,-2.417592,0.999998,0.000153,-0.001084,0.002384,0.000086,0.002386,-0.001086,88.585888,0.002389,
810,1860,0.183737,-0.349966,0.999999,0.000148,-0.000760,0.002226,-0.000312,0.002258,-0.000792,-84.105965,0.002292,
1350,810,-0.121573,-3.615843,0.999998,0.000185,-0.001437,0.001964,0.001140,0.002310,-0.001784,73.084057,0.002422,
1190,1490,0.026480,-0.920302,0.999999,0.000169,-0.000632,0.001608,0.000154,0.001619,-0.000643,86.074179,0.001630,
620,1080,1.005901,-2.403095,0.999998,0.000188,-0.001048,0.002213,-0.000037,0.002213,-0.001049,-89.349530,0.002214,
920,1580,0.259876,-0.934880,0.999998,0.000170,-0.001143,0.002373,0.000201,0.002384,-0.001154,86.739793,0.002385,
1370,700,-0.106441,-3.792444,0.999999,0.000141,-0.001173,0.002022,0.000811,0.002216,-0.001367,76.545510,0.002236,
1150,110,0.010399,-4.901308,0.999999,0.000152,-0.000133,0.001620,0.000054,0.001621,-0.000135,88.247824,0.001799,
1450,130,-0.044830,-4.859503,0.999998,0.000162,-0.000253,0.001721,-0.000152,0.001732,-0.000265,-85.627097,0.001866,
670,480,0.573881,-3.891838,0.999998,0.000185,-0.001255,0.002568,-0.000037,0.002568,-0.001255,-89.439627,0.002568,
1730,2020,-0.022826,-0.029615,0.999998,0.000000,-0.000113,0.001988,0.000775,0.002243,-0.000368,71.787211,0.002406,
1740,1650,-0.454349,-0.915381,0.999998,0.000195,-0.001227,0.002526,-0.000044,0.002526,-0.001228,-89.333939,0.002527,
1700,1920,-0.153109,-0.232261,0.999998,0.000148,-0.000587,0.002200,0.000518,0.002293,-0.000680,79.807887,0.002355,
1640,650,-0.490003,-3.565791,0.999996,0.000236,-0.001500,0.002792,0.000049,0.002793,-0.001501,89.347343,0.002796,
870,1630,0.292994,-0.854548,0.999998,0.000169,-0.001079,0.002388,0.000089,0.002390,-0.001081,88.531337,0.002394,
1020,1630,0.145072,-0.751311,0.999999,0.000138,-0.000819,0.002069,0.000167,0.002079,-0.000828,86.698247,0.002093,
860,1410,0.429943,-1.427850,0.999997,0.000188,-0.001516,0.002799,0.000136,0.002804,-0.001520,88.195963,0.002807,
1860,1860,-0.395779,-0.489417,0.999997,0.000201,-0.001237,0.002510,0.000127,0.002514,-0.001241,88.064855,0.002514,
1850,1700,-0.551177,-0.880153,0.999998,0.000180,-0.001208,0.002481,-0.000036,0.002482,-0.001208,-89.447494,0.002482,
1520,110,-0.051053,-4.886252,0.999999,0.000129,-0.000271,0.001825,-0.000263,0.001857,-0.000304,-82.967448,0.001992,
1020,220,0.077503,-4.698521,0.999998,0.000172,-0.000419,0.001889,0.000058,0.001891,-0.000421,88.556591,0.001986,
610,520,0.679637,-3.741810,0.999997,0.000194,-0.001254,0.002560,0.000003,0.002560,-0.001254,89.950663,0.002560,
1450,200,-0.072981,-4.733017,0.999998,0.000211,-0.000415,0.001860,-0.000110,0.001865,-0.000420,-87.237084,0.001957,
1840,1470,-0.712272,-1.454970,0.999998,0.000183,-0.001289,0.002585,0.000026,0.002585,-0.001290,89.619295,0.002585,
1300,440,-0.041148,-4.330097,0.999999,0.000143,-0.000646,0.001785,0.000093,0.001788,-0.000649,87.816682,0.001810,
1100,860,0.214391,-3.459734,0.999998,0.000201,-0.001308,0.002075,-0.001134,0.002420,-0.001653,-73.076399,0.002474,
610,1340,0.835990,-1.796629,0.999998,0.000155,-0.001224,0.002504,-0.000091,0.002507,-0.001227,-88.605305,0.002507,
1530,1090,-0.668000,-2.333371,0.999998,0.000175,-0.001102,0.003006,0.000253,0.003022,-0.001118,86.488463,0.003056,
1660,300,-0.283387,-4.441674,0.999998,0.000161,-0.001051,0.002415,-0.000073,0.002416,-0.001053,-88.793758,0.002423,
1860,1210,-0.954009,-2.114670,0.999999,0.000121,-0.001129,0.002338,0.000133,0.002343,-0.001134,87.813872,0.002343,
580,730,0.887280,-3.185330,0.999999,0.000134,-0.001361,0.002521,0.000079,0.002522,-0.001362,88.835944,0.002525,
1510,820,-0.432223,-3.190067,0.999997,0.000218,-0.001876,0.003262,0.000002,0.003262,-0.001876,89.978116,0.003275,
1250,330,-0.009954,-4.531435,0.999998,0.000157,-0.000502,0.001764,0.000039,0.001765,-0.000503,89.009211,0.001818,
960,1670,0.184609,-0.702647,0.999998,0.000159,-0.000928,0.002186,0.000094,0.002189,-0.000931,88.263602,0.002197,
670,950,0.945385,-2.702146,0.999998,0.000173,-0.001116,0.002366,0.000169,0.002374,-0.001124,87.227818,0.002375,
830,1910,0.122274,-0.236934,0.999998,0.000154,-0.000442,0.002065,-0.000406,0.002129,-0.000506,-81.033359,0.002225,
1420,610,-0.155152,-3.911186,0.999999,0.000154,-0.001167,0.002244,0.000510,0.002319,-0.001241,81.667991,0.002321,
960,1960,0.038481,-0.124735,0.999999,0.000144,-0.000237,0.001735,-0.000219,0.001759,-0.000261,-83.740331,0.001898,
1400,620,-0.134178,-3.912756,0.999998,0.000156,-0.001119,0.002148,0.000595,0.002253,-0.001224,79.990708,0.002256,
1690,1000,-0.847143,-2.589156,0.999998,0.000182,-0.001033,0.002501,-0.000080,0.002502,-0.001035,-88.700638,0.002515,
1410,1500,-0.136999,-0.997984,0.999999,0.000129,-0.001012,0.002106,-0.000432,0.002164,-0.001071,-82.253206,0.002164,
1350,790,-0.106858,-3.656393,0.999998,0.000176,-0.001404,0.001970,0.001146,0.002322,-0.001756,72.911850,0.002422,
1190,1910,0.006945,-0.193771,0.999999,0.000138,-0.000219,0.001610,-0.000038,0.001611,-0.000220,-88.820971,0.001747,
710,1720,0.416949,-0.749676,0.999998,0.000174,-0.001199,0.002508,0.000008,0.002508,-0.001199,89.877772,0.002508,
790,1510,0.461104,-1.220106,0.999998,0.000180,-0.001365,0.002615,0.000088,0.002617,-0.001367,88.733780,0.002617,
1740,1070,-0.896613,-2.416882,0.999998,0.000152,-0.001071,0.002412,0.000078,0.002414,-0.001073,88.725386,0.002419,
1090,320,0.071172,-4.528200,0.999998,0.000167,-0.000509,0.001877,-0.000022,0.001878,-0.000509,-89.482582,0.001942,
730,1520,0.536479,-1.242218,0.999998,0.000184,-0.001334,0.002610,0.000055,0.002611,-0.001335,89.204673,0.002611,
1070,240,0.061688,-4.671529,0.999998,0.000158,-0.000408,0.001819,0.000047,0.001820,-0.000409,88.784645,0.001910,
1450,150,-0.049890,-4.825003,0.999999,0.000151,-0.000262,0.001751,-0.000157,0.001763,-0.000274,-85.562599,0.001897,
630,50,0.082093,-4.962020,0.999999,0.000146,-0.000961,0.002310,0.000723,0.002462,-0.001114,78.079917,0.002466,
790,940,0.803617,-2.745276,0.999998,0.000172,-0.001100,0.002581,0.000243,0.002597,-0.001116,86.246745,0.002605,
1270,520,-0.024271,-4.194527,0.999999,0.000144,-0.000609,0.001681,0.000087,0.001684,-0.000612,87.836238,0.001705,
1150,90,0.008759,-4.933244,0.999999,0.000148,-0.000108,0.001554,0.000047,0.001555,-0.000109,88.393532,0.001736,
1750,280,-0.364278,-4.431521,0.999997,0.000181,-0.001175,0.002517,-0.000084,0.002519,-0.001177,-88.696768,0.002521,
590,1060,1.040115,-2.449952,0.999998,0.000157,-0.001003,0.002138,-0.000046,0.002139,-0.001004,-89.167959,0.002140,
710,1510,0.569068,-1.285023,0.999998,0.000193,-0.001309,0.002599,0.000039,0.002599,-0.001309,89.423069,0.002599,
1770,1400,-0.677477,-1.584509,0.999998,0.000206,-0.001330,0.002622,0.000058,0.002623,-0.001331,89.156242,0.002623,
1020,1610,0.149846,-0.791774,0.999998,0.000146,-0.000861,0.002090,0.000214,0.002105,-0.000877,85.881048,0.002115,
1880,1630,-0.642810,-1.080475,0.999998,0.000175,-0.001212,0.002486,-0.000020,0.002486,-0.001212,-89.691137,0.002487,
1740,1510,-0.552786,-1.273877,0.999997,0.000196,-0.001309,0.002635,-0.000030,0.002635,-0.001309,-89.563805,0.002635,
1070,100,0.021630,-4.914907,0.999999,0.000130,-0.000130,0.001628,0.000121,0.001636,-0.000139,86.071185,0.001814,
1780,1560,-0.569015,-1.177299,0.999998,0.000177,-0.001300,0.002580,-0.000028,0.002580,-0.001300,-89.590270,0.002580,
1470,880,-0.450138,-3.051696,0.999998,0.000186,-0.001826,0.003458,0.000037,0.003458,-0.001826,89.601367,0.003460,
570,1530,0.740705,-1.341969,0.999856,0.001457,-0.001872,0.003133,0.000129,0.003136,-0.001875,88.527417,0.003156,
1060,1190,0.298536,-1.753201,0.999998,0.000170,-0.001799,0.003078,0.000798,0.003205,-0.001926,80.945364,0.003227,
1530,1070,-0.683018,-2.393334,0.999998,0.000179,-0.000986,0.003007,0.000220,0.003020,-0.000998,86.849382,0.003077,
1580,1890,-0.112509,-0.266450,0.999998,0.000157,-0.000558,0.002001,0.000279,0.002031,-0.000588,83.853460,0.002090,
1300,420,-0.039708,-4.364785,0.999999,0.000141,-0.000610,0.001806,0.000092,0.001810,-0.000614,87.823538,0.001841,
620,1060,1.011751,-2.447643,0.999998,0.000194,-0.001036,0.002210,-0.000047,0.002211,-0.001036,-89.179140,0.002212,
1860,1840,-0.421635,-0.539598,0.999998,0.000201,-0.001225,0.002529,0.000089,0.002531,-0.001228,88.645066,0.002532,
1610,1670,-0.288174,-0.770077,0.999998,0.000196,-0.001054,0.002369,-0.000032,0.002370,-0.001054,-89.469291,0.002374,
1490,1790,-0.122883,-0.442954,0.999998,0.000170,-0.000641,0.001993,0.000070,0.001995,-0.000643,88.489356,0.002037,
870,1610,0.303804,-0.900610,0.999998,0.000180,-0.001132,0.002403,0.000110,0.002407,-0.001135,88.218843,0.002408,
1400,600,-0.131815,-3.957643,0.999998,0.000151,-0.001079,0.002123,0.000532,0.002209,-0.001165,80.814913,0.002210,
1350,770,-0.095470,-3.697252,0.999998,0.000173,-0.001302,0.001903,0.001104,0.002246,-0.001646,72.712627,0.002326,
700,250,0.348521,-4.498167,0.999997,0.000230,-0.001171,0.002535,0.000146,0.002541,-0.001177,87.744583,0.002543,
1660,810,-0.668260,-3.100140,0.999999,0.000165,-0.001453,0.002810,-0.000279,0.002828,-0.001471,-86.277754,0.002829,
1020,200,0.071711,-4.734394,0.999998,0.000158,-0.000396,0.001831,0.000104,0.001836,-0.000400,87.343098,0.001930,
1240,790,-0.006137,-3.873631,0.999998,0.000206,-0.000687,0.000539,0.000114,0.000549,-0.000698,84.712198,0.000735,
1450,180,-0.065199,-4.770205,0.999999,0.000231,-0.000346,0.001828,-0.000151,0.001838,-0.000357,-86.055004,0.001949,
1250,310,-0.008111,-4.566738,0.999998,0.000177,-0.000498,0.001757,0.000027,0.001758,-0.000499,89.316405,0.001812,
1890,720,-0.887547,-3.204415,0.999998,0.000166,-0.001212,0.002403,-0.000040,0.002404,-0.001212,-89.371578,0.002404,
1840,1210,-0.931589,-2.103909,0.999999,0.000127,-0.001166,0.002365,0.000160,0.002372,-0.001173,87.415682,0.002372,
1190,1930,0.006461,-0.162136,0.999999,0.000152,-0.000172,0.001597,-0.000019,0.001597,-0.000172,-89.397834,0.001753,
1660,280,-0.269044,-4.491235,0.999998,0.000171,-0.000992,0.002373,-0.000126,0.002377,-0.000997,-87.864355,0.002388,
1790,1780,-0.406884,-0.627069,0.999997,0.000223,-0.001208,0.002528,0.000108,0.002531,-0.001211,88.352288,0.002532,
670,930,0.932714,-2.750841,0.999998,0.000163,-0.001116,0.002388,0.000183,0.002398,-0.001126,87.014740,0.002399,
1070,320,0.082067,-4.522995,0.999998,0.000152,-0.000588,0.001929,-0.000036,0.001929,-0.000588,-89.187414,0.001978,
1450,170,-0.061188,-4.787645,0.999999,0.000186,-0.000313,0.001801,-0.000177,0.001815,-0.000328,-85.253902,0.001935,
1500,1750,-0.147798,-0.528460,0.999998,0.000164,-0.000791,0.002125,0.000015,0.002125,-0.000791,89.700568,0.002148,
790,1490,0.475551,-1.273603,0.999998,0.000191,-0.001373,0.002629,0.000055,0.002630,-0.001374,89.209693,0.002631,
1200,1410,0.018460,-1.036587,0.999999,0.000116,-0.000585,0.001375,0.000208,0.001397,-0.000607,84.003347,0.001401,
730,1500,0.550170,-1.294226,0.999998,0.000186,-0.001348,0.002613,0.000037,0.002613,-0.001348,89.458081,0.002614,
630,40,0.059697,-4.984089,0.999999,0.000136,-0.000923,0.002228,0.000746,0.002396,-0.001090,77.333927,0.002399,
1740,1490,-0.566769,-1.326234,0.999997,0.000178,-0.001334,0.002606,-0.000044,0.002607,-0.001334,-89.354943,0.002607,
960,1940,0.049611,-0.160191,0.999998,0.000141,-0.000299,0.001768,-0.000228,0.001793,-0.000323,-83.790241,0.001911,
1060,1170,0.337324,-1.820041,0.999998,0.000179,-0.001682,0.003087,0.000879,0.003244,-0.001838,79.885741,0.003253,
1490,860,-0.453023,-3.087380,0.999998,0.000186,-0.001864,0.003386,-0.000021,0.003386,-0.001864,-89.766068,0.003391,
1780,1540,-0.583574,-1.227788,0.999998,0.000183,-0.001292,0.002564,-0.000044,0.002564,-0.001292,-89.349915,0.002564,
1200,1690,0.017398,-0.571228,0.999998,0.000144,-0.000555,0.001758,0.000041,0.001759,-0.000555,88.988193,0.001799,
620,1040,1.013589,-2.491156,0.999998,0.000198,-0.001057,0.002272,-0.000043,0.002272,-0.001057,-89.258177,0.002274,
1870,1630,-0.631364,-1.073433,0.999998,0.000154,-0.001233,0.002482,-0.000039,0.002483,-0.001234,-89.395144,0.002483,
1050,100,0.023398,-4.912724,0.999999,0.000149,-0.000200,0.001645,0.000120,0.001653,-0.000208,86.285326,0.001801,
570,1520,0.746388,-1.371743,0.999888,0.001270,-0.001909,0.003158,0.000262,0.003171,-0.001923,87.051580,0.003195,
1530,1050,-0.695367,-2.454714,0.999997,0.000203,-0.000924,0.003010,0.000137,0.003014,-0.000929,88.008793,0.003087,
1150,70,0.005725,-4.963089,0.999999,0.000126,-0.000085,0.001518,0.000076,0.001522,-0.000088,87.279619,0.001709,
1400,370,-0.097878,-4.423327,0.999998,0.000162,-0.000703,0.001971,0.000123,0.001976,-0.000709,87.382348,0.002003,
1860,650,-0.790505,-3.403305,0.999998,0.000172,-0.001281,0.002544,-0.000051,0.002545,-0.001281,-89.238747,0.002545,
1300,400,-0.039570,-4.399955,0.999998,0.000150,-0.000582,0.001812,0.000063,0.001813,-0.000584,88.495859,0.001851,
880,790,0.525838,-3.208490,0.999998,0.000180,-0.001652,0.003041,0.000149,0.003046,-0.001657,88.186331,0.003050,
870,1590,0.313719,-0.949046,0.999998,0.000166,-0.001200,0.002464,0.000143,0.002469,-0.001205,87.768153,0.002469,
1450,610,-0.191378,-3.875254,0.999998,0.000158,-0.001261,0.002359,0.000510,0.002430,-0.001331,82.128051,0.002433,
1730,30,-0.015831,-5.020450,0.999999,0.000000,-0.000105,0.002007,-0.000709,0.002223,-0.000321,-73.060230,0.002404,
1130,1820,0.036784,-0.349306,0.999999,0.000128,-0.000413,0.001749,-0.000017,0.001749,-0.000414,-89.541837,0.001828,
1860,1820,-0.447817,-0.590142,0.999998,0.000194,-0.001227,0.002501,0.000054,0.002501,-0.001228,89.163360,0.002501,
1700,1880,-0.201552,-0.322800,0.999998,0.000157,-0.000762,0.002288,0.000390,0.002337,-0.000811,82.820927,0.002373,
1510,800,-0.407398,-3.256874,0.999997,0.000192,-0.001888,0.003220,0.000095,0.003222,-0.001889,88.936736,0.003238,
1060,630,0.138569,-3.888887,0.999998,0.000147,-0.001157,0.002145,-0.000589,0.002247,-0.001259,-80.183640,0.002252,
920,1820,0.140981,-0.398743,0.999998,0.000152,-0.000608,0.002054,-0.000167,0.002064,-0.000618,-86.428669,0.002119,
1020,180,0.062932,-4.772054,0.999998,0.000152,-0.000339,0.001781,0.000134,0.001789,-0.000347,86.405163,0.001897,
1110,2010,0.004845,-0.039477,0.999999,0.000136,-0.000044,0.001502,-0.000075,0.001506,-0.000047,-87.246570,0.001712,
1740,680,-0.658907,-3.409258,0.999998,0.000177,-0.001378,0.002675,-0.000103,0.002677,-0.001381,-88.541298,0.002678,
1610,1650,-0.301399,-0.817364,0.999998,0.000176,-0.001102,0.002396,-0.000042,0.002396,-0.001102,-89.305908,0.002399,
1730,280,-0.341200,-4.447660,0.999997,0.000177,-0.001064,0.002488,-0.000130,0.002492,-0.001069,-87.907421,0.002501,
1830,1220,-0.912424,-2.075157,0.999999,0.000132,-0.001182,0.002388,0.000153,0.002395,-0.001189,87.549369,0.002395,
750,100,0.110458,-4.882483,0.999999,0.000147,-0.000385,0.002099,0.000613,0.002242,-0.000528,76.875827,0.002344,
1830,170,-0.320572,-4.649436,0.999998,0.000193,-0.001167,0.002618,-0.000249,0.002635,-0.001183,-86.254772,0.002639,
1400,580,-0.127552,-4.001332,0.999998,0.000138,-0.001045,0.002049,0.000474,0.002120,-0.001116,81.485179,0.002121,
1380,850,-0.229015,-3.410851,0.999997,0.000193,-0.001679,0.002611,0.001056,0.002857,-0.001925,76.891848,0.002914,
1580,660,-0.404800,-3.593299,0.999997,0.000206,-0.001573,0.002806,0.000150,0.002811,-0.001578,88.034182,0.002818,
1660,260,-0.250238,-4.536004,0.999998,0.000161,-0.000955,0.002332,-0.000163,0.002340,-0.000963,-87.161012,0.002352,
580,1910,0.345731,-0.390401,0.999997,0.000196,-0.000908,0.002680,-0.000245,0.002697,-0.000924,-86.107175,0.002741,
790,1470,0.489316,-1.325856,0.999997,0.000192,-0.001396,0.002640,0.000030,0.002640,-0.001396,89.571055,0.002641,
1040,1420,0.162091,-1.187151,0.999998,0.000154,-0.001251,0.002267,0.000572,0.002357,-0.001342,80.994776,0.002365,
750,670,0.611742,-3.454280,0.999997,0.000225,-0.001435,0.002692,0.000065,0.002693,-0.001436,89.101480,0.002695,
600,490,0.669863,-3.808356,0.999998,0.000186,-0.001246,0.002527,0.000000,0.002527,-0.001246,89.994238,0.002527,
1350,750,-0.089390,-3.733334,0.999998,0.000181,-0.001225,0.001895,0.001023,0.002200,-0.001531,73.366650,0.002256,
1530,1030,-0.700224,-2.513393,0.999997,0.000201,-0.000897,0.002888,0.000021,0.002888,-0.000897,89.676394,0.002956,
650,1720,0.488865,-0.797776,0.999998,0.000182,-0.001252,0.002537,0.000006,0.002537,-0.001252,89.912196,0.002537,
860,470,0.329163,-4.068806,0.999998,0.000184,-0.001210,0.002491,-0.000134,0.002496,-0.001215,-87.924393,0.002496,
1190,1950,0.005774,-0.129454,0.999999,0.000148,-0.000115,0.001584,-0.000015,0.001585,-0.000116,-89.498325,0.001767,
980,1270,0.340351,-1.694467,0.999998,0.000193,-0.001922,0.003153,0.000329,0.003174,-0.001943,86.304617,0.003201,
990,780,0.314938,-3.379338,0.999998,0.000189,-0.001896,0.003096,-0.000393,0.003127,-0.001926,-85.525878,0.003155,
690,140,0.216299,-4.766617,0.999998,0.000163,-0.000961,0.002459,0.000507,0.002532,-0.001035,81.743867,0.002547,
620,1020,1.016017,-2.537345,0.999998,0.000180,-0.001067,0.002265,0.000036,0.002265,-0.001068,89.378183,0.002266,
960,1920,0.060066,-0.196181,0.999999,0.000133,-0.000382,0.001818,-0.000199,0.001836,-0.000400,-84.873185,0.001930,
870,1570,0.323817,-1.000924,0.999998,0.000169,-0.001227,0.002469,0.000157,0.002476,-0.001234,87.572220,0.002476,
670,910,0.921985,-2.797637,0.999998,0.000162,-0.001117,0.002382,0.000160,0.002389,-0.001124,87.383211,0.002390,
1660,1610,-0.383410,-0.953935,0.999998,0.000181,-0.001192,0.002502,-0.000085,0.002504,-0.001194,-88.689533,0.002505,
1750,1400,-0.651139,-1.570459,0.999997,0.000215,-0.001358,0.002645,0.000065,0.002647,-0.001359,89.064231,0.002647,
860,810,0.581857,-3.132400,0.999997,0.000203,-0.001598,0.002973,0.000238,0.002986,-0.001610,87.032492,0.002989,
1760,1290,-0.764010,-1.867755,0.999998,0.000179,-0.001337,0.002659,0.000198,0.002669,-0.001346,87.173245,0.002669,
860,1350,0.475306,-1.597010,0.999997,0.000206,-0.001597,0.002868,0.000020,0.002868,-0.001597,89.749046,0.002875,
1720,2020,-0.021766,-0.030223,0.999999,0.000000,0.000052,0.001955,0.000716,0.002194,-0.000188,71.513314,0.002432,
1450,590,-0.187117,-3.922717,0.999999,0.000138,-0.001224,0.002306,0.000471,0.002368,-0.001286,82.522248,0.002371,
570,1510,0.755300,-1.405819,0.999907,0.001100,-0.001922,0.002890,0.000291,0.002907,-0.001940,86.555483,0.002961,
1780,1520,-0.596897,-1.279112,0.999998,0.000157,-0.001282,0.002586,-0.000016,0.002586,-0.001282,-89.757108,0.002586,
1300,380,-0.037327,-4.435811,0.999998,0.000136,-0.000555,0.001797,0.000033,0.001797,-0.000556,89.192116,0.001840,
940,1830,0.121608,-0.371601,0.999998,0.000148,-0.000601,0.001990,-0.000129,0.001997,-0.000607,-87.158198,0.002047,
1620,450,-0.338520,-4.105087,0.999998,0.000172,-0.001181,0.002473,0.000116,0.002477,-0.001185,88.186920,0.002478,
1060,610,0.135298,-3.931098,0.999999,0.000141,-0.001115,0.002100,-0.000547,0.002190,-0.001206,-80.602511,0.002194,
670,540,0.618383,-3.735898,0.999998,0.000179,-0.001292,0.002586,-0.000029,0.002586,-0.001293,-89.574933,0.002586,
1680,1950,-0.102579,-0.163843,0.999998,0.000155,-0.000477,0.002088,0.000520,0.002190,-0.000578,78.958970,0.002269,
920,840,0.520122,-3.086592,0.999998,0.000186,-0.001711,0.003179,0.000202,0.003187,-0.001719,87.639874,0.003191,
1810,1220,-0.888606,-2.066274,0.999998,0.000153,-0.001185,0.002427,0.000180,0.002436,-0.001194,87.162305,0.002436,
1810,520,-0.625310,-3.774150,0.999998,0.000165,-0.001283,0.002563,0.000026,0.002563,-0.001284,89.614179,0.002563,
830,1890,0.142081,-0.277717,0.999998,0.000142,-0.000526,0.002128,-0.000371,0.002178,-0.000576,-82.188456,0.002257,
1100,820,0.152655,-3.550722,0.999998,0.000190,-0.001579,0.002242,-0.001138,0.002555,-0.001892,-74.612487,0.002652,
1190,640,0.022692,-4.005848,0.999999,0.000148,-0.000638,0.001398,-0.000268,0.001433,-0.000673,-82.637595,0.001433,
1020,160,0.054482,-4.805446,0.999998,0.000146,-0.000304,0.001769,0.000131,0.001777,-0.000313,86.386451,0.001898,
810,940,0.780984,-2.747227,0.999999,0.000156,-0.001135,0.002624,0.000279,0.002645,-0.001155,85.774409,0.002652,
1700,1860,-0.223263,-0.370124,0.999998,0.000153,-0.000830,0.002367,0.000365,0.002408,-0.000871,83.575786,0.002439,
1860,1800,-0.468973,-0.640559,0.999998,0.000190,-0.001238,0.002508,0.000024,0.002508,-0.001239,89.626663,0.002508,
1740,660,-0.642659,-3.461899,0.999998,0.000176,-0.001377,0.002668,-0.000085,0.002670,-0.001379,-88.798576,0.002670,
1610,1630,-0.312485,-0.864635,0.999998,0.000182,-0.001157,0.002435,-0.000096,0.002438,-0.001159,-88.471054,0.002439,
1670,2010,-0.030387,-0.047059,0.999999,0.000129,-0.000268,0.001806,0.000490,0.001916,-0.000378,77.346406,0.002030,
1660,460,-0.393451,-4.048130,0.999998,0.000169,-0.001242,0.002512,0.000089,0.002514,-0.001244,88.638212,0.002514,
1640,410,-0.337857,-4.188470,0.999998,0.000146,-0.001157,0.002458,0.000067,0.002459,-0.001158,88.938384,0.002461,
1830,130,-0.252378,-4.756028,0.999998,0.000161,-0.001157,0.002624,-0.000377,0.002661,-0.001194,-84.366954,0.002665,
1250,1500,-0.012557,-0.898583,0.999998,0.000148,-0.000622,0.001644,-0.000115,0.001650,-0.000628,-87.109166,0.001665,
1020,1750,0.111000,-0.506313,0.999998,0.000181,-0.000625,0.001966,0.000017,0.001966,-0.000625,89.617137,0.002009,
1530,1010,-0.697298,-2.570885,0.999997,0.000197,-0.000919,0.002967,-0.000091,0.002969,-0.000921,-88.662902,0.003040,
1890,1920,-0.335884,-0.373091,0.999998,0.000196,-0.001235,0.002681,0.000299,0.002703,-0.001257,85.656239,0.002706,
940,390,0.205715,-4.314512,0.999998,0.000165,-0.000908,0.002220,-0.000105,0.002224,-0.000912,-88.078350,0.002236,
1350,730,-0.086262,-3.771637,0.999998,0.000188,-0.001158,0.001876,0.000944,0.002146,-0.001427,74.055803,0.002184,
1860,1630,-0.618745,-1.064528,0.999998,0.000177,-0.001241,0.002483,-0.000042,0.002483,-0.001241,-89.359690,0.002483,
1020,230,0.080642,-4.679046,0.999998,0.000180,-0.000458,0.001906,0.000067,0.001908,-0.000460,88.373326,0.001991,
1300,1890,-0.016643,-0.228150,0.999998,0.000169,-0.000206,0.001661,0.000049,0.001662,-0.000207,88.510179,0.001812,
670,1110,0.941386,-2.325151,0.999999,0.000145,-0.001125,0.002365,-0.000189,0.002375,-0.001135,-86.915912,0.002376,
960,1900,0.073262,-0.233230,0.999998,0.000144,-0.000439,0.001854,-0.000204,0.001872,-0.000457,-84.951214,0.001952,
620,1000,1.010835,-2.580598,0.999998,0.000165,-0.001053,0.002228,0.000071,0.002230,-0.001054,88.760896,0.002231,
870,1550,0.335171,-1.049368,0.999998,0.000173,-0.001250,0.002492,0.000170,0.002500,-0.001258,87.399369,0.002500,
1780,1500,-0.612461,-1.331547,0.999998,0.000162,-0.001287,0.002602,0.000004,0.002602,-0.001287,89.934626,0.002603,
680,1070,0.942379,-2.419205,0.999998,0.000162,-0.001096,0.002365,-0.000076,0.002366,-0.001097,-88.738456,0.002369,
860,790,0.558813,-3.191895,0.999998,0.000188,-0.001640,0.002973,0.000186,0.002980,-0.001647,87.691297,0.002986,
1330,40,-0.003448,-5.009149,0.999999,0.000114,-0.000068,0.001469,-0.000053,0.001471,-0.000070,-88.024518,0.001659,
1720,30,-0.016929,-5.019959,0.999999,0.000000,0.000011,0.001982,-0.000725,0.002221,-0.000227,-71.824483,0.002444,
750,1110,0.851650,-2.315884,0.999998,0.000164,-0.001105,0.002514,-0.000218,0.002528,-0.001118,-86.565153,0.002533,
1660,1590,-0.395456,-1.004264,0.999998,0.000156,-0.001230,0.002494,-0.000098,0.002497,-0.001233,-88.491967,0.002497,
1450,570,-0.182715,-3.968137,0.999998,0.000138,-0.001172,0.002246,0.000415,0.002296,-0.001222,83.171226,0.002297,
1860,1770,-0.500354,-0.715042,0.999997,0.000228,-0.001231,0.002453,0.000013,0.002453,-0.001231,89.791439,0.002453,
1690,1400,-0.566865,-1.527567,0.999997,0.000188,-0.001421,0.002731,0.000030,0.002731,-0.001421,89.579634,0.002732,
1620,430,-0.326594,-4.154079,0.999998,0.000161,-0.001164,0.002463,0.000102,0.002466,-0.001167,88.384873,0.002467,
940,1490,0.271897,-1.136470,0.999998,0.000166,-0.001303,0.002529,0.000291,0.002551,-0.001325,85.676376,0.002552,
690,200,0.301684,-4.616469,0.999997,0.000185,-0.001103,0.002526,0.000295,0.002550,-0.001127,85.379052,0.002556,
670,520,0.603210,-3.789001,0.999998,0.000174,-0.001309,0.002576,-0.000036,0.002576,-0.001309,-89.473977,0.002577,
830,1870,0.161812,-0.322153,0.999998,0.000157,-0.000594,0.002164,-0.000313,0.002199,-0.000629,-83.605584,0.002265,
940,1950,0.048966,-0.144164,0.999999,0.000147,-0.000257,0.001776,-0.000240,0.001803,-0.000284,-83.366459,0.001939,
1140,1830,0.030140,-0.330445,0.999999,0.000145,-0.000370,0.001718,-0.000015,0.001718,-0.000370,-89.593672,0.001808,
920,800,0.467693,-3.214192,0.999997,0.000185,-0.001806,0.003123,0.000052,0.003124,-0.001807,89.399899,0.003137,
1810,500,-0.611268,-3.827136,0.999997,0.000182,-0.001259,0.002547,0.000029,0.002547,-0.001259,89.569970,0.002547,
1020,140,0.046587,-4.841811,0.999999,0.000123,-0.000253,0.001734,0.000144,0.001744,-0.000263,85.878608,0.001881,
560,140,0.366714,-4.638529,0.999938,0.000000,-0.000957,0.002386,0.000626,0.002499,-0.001070,79.730371,0.002508,
1710,1160,-0.813914,-2.185493,0.999998,0.000179,-0.001233,0.002602,0.000294,0.002624,-0.001256,85.643676,0.002625,
1170,520,0.038937,-4.190122,0.999998,0.000170,-0.000638,0.001732,-0.000188,0.001747,-0.000653,-85.489147,0.001766,
1100,800,0.132372,-3.597811,0.999998,0.000177,-0.001536,0.002239,-0.001132,0.002552,-0.001849,-74.525024,0.002637,
1610,1610,-0.324042,-0.914814,0.999998,0.000186,-0.001207,0.002433,-0.000112,0.002437,-0.001210,-88.238517,0.002437,
1700,1840,-0.246688,-0.417826,0.999998,0.000150,-0.000884,0.002388,0.000311,0.002417,-0.000913,84.625508,0.002441,
1710,1740,-0.349735,-0.667603,0.999998,0.000201,-0.001067,0.002457,0.000078,0.002459,-0.001069,88.729497,0.002466,
1620,1050,-0.778796,-2.460456,0.999998,0.000196,-0.000983,0.002617,0.000102,0.002620,-0.000986,88.383965,0.002647,
1300,360,-0.035863,-4.473221,0.999998,0.000160,-0.000531,0.001808,0.000030,0.001809,-0.000531,89.276832,0.001859,
790,1450,0.505467,-1.377528,0.999997,0.000175,-0.001419,0.002690,0.000023,0.002690,-0.001419,89.682191,0.002692,
1840,1630,-0.594652,-1.048031,0.999998,0.000193,-0.001241,0.002516,-0.000043,0.002517,-0.001242,-89.350642,0.002517,
940,590,0.281391,-3.840967,0.999998,0.000176,-0.001385,0.002542,-0.000311,0.002566,-0.001409,-85.505853,0.002570,
1740,640,-0.624856,-3.516152,0.999997,0.000188,-0.001375,0.002645,-0.000053,0.002645,-0.001376,-89.246709,0.002646,
850,2000,0.031794,-0.061873,0.999999,0.000146,-0.000119,0.001714,-0.000420,0.001806,-0.000211,-77.677955,0.001975,
1780,1480,-0.629215,-1.385218,0.999997,0.000190,-0.001297,0.002576,0.000017,0.002577,-0.001297,89.742292,0.002577,
620,980,1.007060,-2.626495,0.999998,0.000154,-0.001045,0.002204,0.000031,0.002204,-0.001046,89.452148,0.002205,
1350,710,-0.084604,-3.808468,0.999999,0.000146,-0.001107,0.001836,0.000841,0.002060,-0.001331,75.120105,0.002089,
1580,640,-0.391267,-3.649634,0.999998,0.000179,-0.001522,0.002752,0.000195,0.002761,-0.001531,87.396020,0.002766,
1530,1210,-0.503481,-1.954259,0.999998,0.000180,-0.001740,0.003227,0.000175,0.003233,-0.001746,87.979061,0.003236,
1710,2020,-0.022278,-0.031584,0.999999,0.000000,0.000077,0.001915,0.000686,0.002143,-0.000151,71.632461,0.002392,
1290,100,-0.007040,-4.917217,0.999999,0.000133,-0.000094,0.001566,-0.000035,0.001567,-0.000095,-88.784551,0.001757,
1660,1740,-0.295237,-0.634517,0.999998,0.000190,-0.001083,0.002403,0.000061,0.002404,-0.001084,89.004533,0.002408,
960,1880,0.084411,-0.271450,0.999999,0.000142,-0.000467,0.001886,-0.000180,0.001900,-0.000480,-85.661627,0.001976,
1850,720,-0.837654,-3.234032,0.999998,0.000163,-0.001260,0.002490,-0.000085,0.002492,-0.001262,-88.698141,0.002492,
670,1350,0.752362,-1.730213,0.999998,0.000184,-0.001314,0.002563,-0.000124,0.002567,-0.001318,-88.169283,0.002568,
1830,110,-0.214452,-4.808993,0.999998,0.000159,-0.001085,0.002618,-0.000479,0.002679,-0.001146,-82.745564,0.002689,
720,1090,0.895363,-2.368101,0.999998,0.000166,-0.001116,0.002453,-0.000131,0.002457,-0.001121,-87.905014,0.002461,
1450,550,-0.178220,-4.011780,0.999999,0.000137,-0.001107,0.002242,0.000377,0.002284,-0.001149,83.649720,0.002284,
870,1530,0.344125,-1.099922,0.999997,0.000177,-0.001298,0.002521,0.000172,0.002529,-0.001306,87.421203,0.002529,
1450,1160,-0.440724,-2.000052,0.999997,0.000188,-0.001781,0.003532,-0.000161,0.003537,-0.001786,-88.268318,0.003537,
1060,530,0.127253,-4.098144,0.999999,0.000131,-0.000949,0.002068,-0.000347,0.002107,-0.000989,-83.527484,0.002108,
1320,40,-0.002545,-5.008787,0.999999,0.000119,-0.000068,0.001463,-0.000038,0.001464,-0.000069,-88.568594,0.001652,
1400,1690,-0.097126,-0.607194,0.999998,0.000184,-0.000691,0.001981,-0.000107,0.001985,-0.000695,-87.713334,0.002015,
1230,1500,0.001220,-0.896270,0.999998,0.000151,-0.000623,0.001606,0.000011,0.001606,-0.000623,89.723202,0.001620,
560,150,0.380493,-4.615706,0.999942,0.000000,-0.001066,0.002185,0.000300,0.002212,-0.001094,84.769946,0.002212,
750,1090,0.861749,-2.364048,0.999998,0.000164,-0.001074,0.002500,-0.000182,0.002510,-0.001083,-87.089854,0.002517,
1580,690,-0.427454,-3.508078,0.999997,0.000185,-0.001637,0.002862,0.000113,0.002865,-0.001640,88.565433,0.002875,
640,1910,0.272208,-0.316314,0.999998,0.000231,-0.001086,0.002601,-0.000394,0.002643,-0.001128,-83.965273,0.002653,
920,260,0.157588,-4.587811,0.999998,0.000166,-0.000626,0.002108,0.000120,0.002113,-0.000632,87.499666,0.002169,
1080,230,0.056800,-4.691862,0.999998,0.000197,-0.000360,0.001783,0.000065,0.001785,-0.000362,88.267509,0.001887,
580,1950,0.266510,-0.282011,0.999998,0.000153,-0.000946,0.002801,-0.000485,0.002863,-0.001008,-82.747415,0.002905,
740,630,0.593686,-3.555348,0.999998,0.000183,-0.001390,0.002646,0.000038,0.002646,-0.001391,89.454141,0.002648,
1040,1400,0.168042,-1.234177,0.999998,0.000166,-0.001334,0.002339,0.000626,0.002443,-0.001437,80.584032,0.002455,
1120,1830,0.037663,-0.333076,0.999999,0.000132,-0.000411,0.001738,-0.000022,0.001739,-0.000411,-89.414154,0.001817,
1020,120,0.038244,-4.875907,0.999998,0.000151,-0.000233,0.001732,0.000160,0.001745,-0.000246,85.379617,0.001888,
670,1600,0.556651,-1.084631,0.999998,0.000187,-0.001269,0.002530,0.000045,0.002531,-0.001270,89.315796,0.002531,
940,1470,0.279393,-1.188383,0.999998,0.000160,-0.001351,0.002545,0.000321,0.002571,-0.001378,85.327153,0.002573,
990,800,0.335269,-3.316697,0.999997,0.000193,-0.001931,0.003181,-0.000336,0.003203,-0.001953,-86.250358,0.003229,
1740,130,-0.169189,-4.806980,0.999999,0.000152,-0.000770,0.002281,-0.000538,0.002373,-0.000862,-80.282226,0.002402,
820,770,0.601848,-3.223132,0.999998,0.000180,-0.001555,0.002880,0.000184,0.002888,-0.001563,87.634550,0.002891,
1720,1430,-0.584802,-1.469524,0.999997,0.000190,-0.001409,0.002650,0.000005,0.002650,-0.001409,89.930755,0.002652,
690,180,0.274830,-4.666428,0.999998,0.000157,-0.001058,0.002476,0.000351,0.002511,-0.001093,84.376333,0.002518,
1610,1590,-0.336210,-0.963940,0.999998,0.000178,-0.001235,0.002465,-0.000125,0.002469,-0.001240,-88.062669,0.002469,
1190,1970,0.005040,-0.098825,0.999999,0.000132,-0.000081,0.001537,-0.000017,0.001537,-0.000081,-89.390008,0.001730,
1700,1820,-0.267765,-0.464327,0.999998,0.000140,-0.000931,0.002410,0.000236,0.002427,-0.000948,85.977953,0.002446,
840,2000,0.032749,-0.062190,0.999999,0.000138,-0.000126,0.001737,-0.000440,0.001835,-0.000225,-77.363696,0.002002,
1780,1680,-0.480438,-0.872101,0.999997,0.000175,-0.001216,0.002532,-0.000006,0.002532,-0.001216,-89.913028,0.002532,
620,960,1.002972,-2.670719,0.999998,0.000141,-0.001055,0.002211,0.000047,0.002212,-0.001055,89.175022,0.002213,
790,1430,0.518889,-1.432136,0.999997,0.000181,-0.001425,0.002728,0.000018,0.002728,-0.001425,89.757231,0.002729,
870,1510,0.354901,-1.149988,0.999998,0.000159,-0.001344,0.002575,0.000179,0.002583,-0.001352,87.385081,0.002584,
1740,620,-0.609422,-3.569454,0.999997,0.000187,-0.001359,0.002642,-0.000019,0.002642,-0.001359,-89.724258,0.002642,
1710,30,-0.017311,-5.018539,0.999999,0.000000,0.000040,0.001920,-0.000688,0.002145,-0.000185,-71.894865,0.002377,
1400,560,-0.126747,-4.040466,0.999998,0.000150,-0.000993,0.002048,0.000436,0.002109,-0.001055,81.993332,0.002109,
1300,780,-0.045461,-3.801890,0.999998,0.000152,-0.000909,0.001119,0.000877,0.001446,-0.001236,69.572407,0.001562,
1450,530,-0.175621,-4.056987,0.999998,0.000143,-0.001074,0.002230,0.000345,0.002266,-0.001109,84.105940,0.002266,
1660,1760,-0.279180,-0.586262,0.999998,0.000197,-0.001040,0.002396,0.000093,0.002399,-0.001042,88.452404,0.002405,
1830,90,-0.169655,-4.861735,0.999998,0.000164,-0.001036,0.002638,-0.000630,0.002743,-0.001141,-80.539874,0.002756,
1550,140,-0.080291,-4.827760,0.999999,0.000131,-0.000330,0.001864,-0.000265,0.001896,-0.000361,-83.222450,0.002013,
1550,650,-0.351474,-3.652870,0.999998,0.000189,-0.001517,0.002766,0.000242,0.002780,-0.001531,86.782591,0.002784,
800,1090,0.807086,-2.360722,0.999999,0.000133,-0.001064,0.002583,-0.000209,0.002595,-0.001076,-86.724589,0.002608,
1770,900,-0.890346,-2.827279,0.999999,0.000133,-0.001153,0.002473,-0.000223,0.002487,-0.001167,-86.495553,0.002489,
960,1860,0.094846,-0.308450,0.999998,0.000168,-0.000531,0.001924,-0.000145,0.001933,-0.000539,-86.619768,0.001994,
670,370,0.493350,-4.169615,0.999998,0.000175,-0.001243,0.002533,-0.000001,0.002533,-0.001243,-89.984039,0.002533,
1140,1950,0.011663,-0.130513,0.999999,0.000140,-0.000152,0.001592,-0.000041,0.001593,-0.000153,-88.662922,0.001757,
830,1850,0.178807,-0.366463,0.999998,0.000156,-0.000683,0.002202,-0.000294,0.002232,-0.000713,-84.236150,0.002280,
1580,620,-0.378756,-3.704148,0.999998,0.000189,-0.001464,0.002692,0.000211,0.002702,-0.001475,87.095597,0.002706,
1820,1630,-0.569479,-1.030521,0.999998,0.000147,-0.001283,0.002546,-0.000008,0.002546,-0.001283,-89.874913,0.002546,
560,160,0.395269,-4.598434,0.999918,0.000000,-0.000875,0.002962,-0.000174,0.002970,-0.000883,-87.410406,0.003050,
1380,1690,-0.084751,-0.598994,0.999998,0.000155,-0.000608,0.001932,-0.000059,0.001933,-0.000609,-88.677373,0.001977,
1060,510,0.124364,-4.140466,0.999998,0.000162,-0.000919,0.002062,-0.000301,0.002093,-0.000950,-84.284694,0.002096,
1310,40,-0.002222,-5.008270,0.999999,0.000129,-0.000043,0.001472,-0.000043,0.001473,-0.000044,-88.367575,0.001676,
1510,1500,-0.251524,-1.097729,0.999998,0.000168,-0.001231,0.002433,-0.000315,0.002460,-0.001257,-85.124317,0.002460,
920,240,0.142551,-4.632476,0.999998,0.000159,-0.000585,0.002087,0.000159,0.002097,-0.000595,86.598821,0.002161,
590,210,0.431367,-4.498593,0.999998,0.000202,-0.001141,0.002481,0.000041,0.002481,-0.001141,89.356039,0.002484,
1040,1380,0.171154,-1.280852,0.999998,0.000170,-0.001388,0.002404,0.000676,0.002521,-0.001505,80.192094,0.002537,
1200,1830,0.011500,-0.325800,0.999999,0.000134,-0.000304,0.001717,0.000022,0.001717,-0.000305,89.379438,0.001832,
1020,100,0.030142,-4.911432,0.999999,0.000138,-0.000189,0.001669,0.000158,0.001683,-0.000202,85.162320,0.001837,
1890,1950,-0.275740,-0.289440,0.999998,0.000189,-0.001183,0.002881,0.000543,0.002952,-0.001254,82.517533,0.002964,
870,400,0.280398,-4.245942,0.999998,0.000165,-0.001090,0.002370,-0.000056,0.002371,-0.001091,-89.075524,0.002373,
750,1070,0.867966,-2.416426,0.999998,0.000169,-0.001059,0.002503,-0.000095,0.002506,-0.001062,-88.480306,0.002515,
1450,1300,-0.251022,-1.543002,0.999998,0.000163,-0.001811,0.002927,-0.000615,0.003006,-0.001890,-82.726317,0.003039,
1800,1810,-0.385186,-0.558114,0.999998,0.000208,-0.001174,0.002563,0.000182,0.002572,-0.001183,87.222749,0.002575,
800,770,0.632351,-3.211235,0.999998,0.000183,-0.001484,0.002802,0.000207,0.002812,-0.001494,87.241138,0.002814,
830,2000,0.034987,-0.061998,0.999999,0.000134,-0.000150,0.001770,-0.000464,0.001876,-0.000257,-77.097135,0.002035,
1610,1570,-0.344248,-1.013351,0.999998,0.000174,-0.001255,0.002498,-0.000147,0.002504,-0.001261,-87.758995,0.002504,
1700,1800,-0.287631,-0.514913,0.999998,0.000177,-0.000970,0.002438,0.000183,0.002448,-0.000979,86.935011,0.002464,
1630,1320,-0.546997,-1.705926,0.999997,0.000215,-0.001583,0.002867,0.000098,0.002869,-0.001585,88.736651,0.002874,
1690,640,-0.554858,-3.552930,0.999998,0.000170,-0.001457,0.002711,-0.000016,0.002711,-0.001457,-89.785736,0.002713,
1740,600,-0.593578,-3.622362,0.999997,0.000192,-0.001373,0.002638,-0.000024,0.002638,-0.001373,-89.660760,0.002639,
1800,1120,-0.943777,-2.302160,0.999998,0.000174,-0.001125,0.002381,0.000163,0.002388,-0.001133,87.349317,0.002389,
730,420,0.457339,-4.091594,0.999998,0.000205,-0.001231,0.002534,-0.000050,0.002535,-0.001232,-89.240810,0.002535,
1740,110,-0.138676,-4.852818,0.999998,0.000160,-0.000685,0.002252,-0.000602,0.002370,-0.000804,-78.860896,0.002411,
580,1940,0.287618,-0.309613,0.999998,0.000161,-0.000885,0.002676,-0.000422,0.002725,-0.000935,-83.328672,0.002769,
1700,2020,-0.027338,-0.029709,0.999999,0.000000,0.000039,0.001865,0.000612,0.002051,-0.000147,73.094387,0.002288,
1450,510,-0.170925,-4.101749,0.999998,0.000151,-0.001059,0.002233,0.000323,0.002264,-0.001091,84.447725,0.002265,
960,1840,0.106071,-0.348034,0.999998,0.000173,-0.000583,0.001918,-0.000109,0.001923,-0.000588,-87.512452,0.001971,
1770,880,-0.875678,-2.877332,0.999998,0.000156,-0.001198,0.002472,-0.000246,0.002488,-0.001215,-86.178843,0.002489,
620,940,0.994198,-2.714530,0.999998,0.000141,-0.001072,0.002291,0.000120,0.002296,-0.001076,87.951969,0.002297,
870,1490,0.365739,-1.202357,0.999998,0.000174,-0.001388,0.002650,0.000197,0.002659,-0.001398,87.219235,0.002661,
1220,1630,0.006868,-0.676185,0.999998,0.000153,-0.000558,0.001774,0.000029,0.001775,-0.000558,89.281740,0.001815,
1540,540,-0.282937,-3.950259,0.999998,0.000177,-0.001289,0.002495,0.000268,0.002514,-0.001308,85.964969,0.002515,
1360,1690,-0.072837,-0.593668,0.999998,0.000200,-0.000595,0.001913,-0.000070,0.001915,-0.000597,-88.401062,0.001959,
1520,1150,-0.575167,-2.139234,0.999998,0.000167,-0.001528,0.003224,0.000311,0.003244,-0.001548,86.275475,0.003246,
870,140,0.098350,-4.821754,0.999998,0.000161,-0.000512,0.001971,0.000318,0.002011,-0.000552,82.813960,0.002078,
670,330,0.460448,-4.270274,0.999997,0.000199,-0.001194,0.002512,0.000009,0.002512,-0.001195,89.863465,0.002513,
1300,800,-0.053934,-3.779928,0.999998,0.000144,-0.000996,0.001080,0.000872,0.001398,-0.001314,69.974170,0.001568,
1360,670,-0.091893,-3.867682,0.999999,0.000136,-0.001052,0.001953,0.000718,0.002116,-0.001215,77.238162,0.002124,
1400,1370,-0.142836,-1.265768,0.999998,0.000155,-0.001322,0.002264,-0.000739,0.002410,-0.001469,-78.798682,0.002429,
1200,460,0.019415,-4.299155,0.999998,0.000172,-0.000580,0.001727,-0.000090,0.001731,-0.000584,-87.769848,0.001761,
1660,1780,-0.262963,-0.538054,0.999998,0.000196,-0.001013,0.002375,0.000148,0.002382,-0.001020,87.506039,0.002390,
1250,50,-0.000464,-4.995288,0.999999,0.000103,-0.000074,0.001489,-0.000016,0.001489,-0.000074,-89.418106,0.001679,
560,170,0.396717,-4.573443,0.999881,0.000000,-0.000579,0.003389,-0.000319,0.003414,-0.000605,-85.431441,0.003644,
1830,70,-0.124030,-4.915435,0.999998,0.000164,-0.000984,0.002607,-0.000703,0.002740,-0.001116,-79.302317,0.002755,
1400,540,-0.125583,-4.082044,0.999998,0.000146,-0.000921,0.002058,0.000369,0.002103,-0.000966,83.049587,0.002106,
580,210,0.443849,-4.486831,0.999997,0.000200,-0.000946,0.002434,0.000005,0.002434,-0.000946,89.910301,0.002454,
1490,1500,-0.227388,-1.078424,0.999998,0.000168,-0.001233,0.002384,-0.000349,0.002418,-0.001267,-84.546520,0.002419,
920,220,0.131161,-4.670833,0.999998,0.000193,-0.000544,0.002021,0.000181,0.002033,-0.000557,85.986813,0.002102,
790,1410,0.534708,-1.486821,0.999997,0.000184,-0.001435,0.002714,-0.000004,0.002714,-0.001435,-89.937980,0.002716,
830,1830,0.197441,-0.409228,0.999998,0.000162,-0.000746,0.002241,-0.000266,0.002265,-0.000769,-84.946514,0.002303,
1020,80,0.021391,-4.943105,0.999999,0.000152,-0.000142,0.001627,0.000169,0.001643,-0.000158,84.590845,0.001813,
840,1950,0.078977,-0.155141,0.999999,0.000121,-0.000329,0.001935,-0.000411,0.002007,-0.000402,-80.021456,0.002124,
1580,600,-0.367023,-3.757239,0.999997,0.000189,-0.001420,0.002652,0.000204,0.002662,-0.001430,87.137325,0.002665,
1180,1830,0.017049,-0.328341,0.999999,0.000132,-0.000309,0.001722,-0.000008,0.001722,-0.000309,-89.785168,0.001837,
1010,1420,0.202418,-1.228386,0.999998,0.000173,-0.001355,0.002410,0.000519,0.002480,-0.001425,82.298501,0.002490,
1040,1360,0.176359,-1.330686,0.999998,0.000157,-0.001466,0.002488,0.000702,0.002609,-0.001587,80.231733,0.002630,
1000,2000,0.013281,-0.055979,0.999998,0.000141,-0.000073,0.001583,-0.000184,0.001603,-0.000093,-83.749825,0.001799,
1610,1550,-0.354473,-1.062600,0.999998,0.000194,-0.001282,0.002503,-0.000142,0.002508,-0.001287,-87.851947,0.002508,
950,1200,0.487596,-1.968225,0.999998,0.000195,-0.001764,0.003298,-0.000144,0.003302,-0.001768,-88.369679,0.003305,
790,760,0.637566,-3.232678,0.999998,0.000156,-0.001472,0.002803,0.000192,0.002811,-0.001481,87.439165,0.002812,
890,340,0.226885,-4.398465,0.999998,0.000148,-0.001004,0.002263,-0.000046,0.002264,-0.001005,-89.188607,0.002269,
1700,30,-0.018102,-5.017492,0.999999,0.000000,-0.000009,0.001873,-0.000614,0.002056,-0.000191,-73.429020,0.002271,
1890,1940,-0.295492,-0.318051,0.999998,0.000195,-0.001219,0.002797,0.000441,0.002845,-0.001267,83.809045,0.002850,
1860,1350,-0.837829,-1.776172,0.999998,0.000156,-0.001242,0.002493,0.000065,0.002494,-0.001243,89.000168,0.002494,
1690,620,-0.538827,-3.607368,0.999998,0.000183,-0.001433,0.002684,0.000010,0.002684,-0.001433,89.856505,0.002686,
1700,1780,-0.305515,-0.563776,0.999997,0.000199,-0.001004,0.002437,0.000148,0.002444,-0.001010,87.547439,0.002456,
1740,580,-0.578685,-3.674569,0.999997,0.000183,-0.001388,0.002608,0.000004,0.002608,-0.001388,89.943354,0.002610,
1790,1030,-0.957262,-2.515530,0.999998,0.000163,-0.001080,0.002389,-0.000003,0.002389,-0.001080,-89.951821,0.002392,
750,1050,0.871752,-2.465818,0.999998,0.000153,-0.001042,0.002479,-0.000078,0.002481,-0.001044,-88.735402,0.002491,
1450,490,-0.166284,-4.146005,0.999998,0.000137,-0.001026,0.002166,0.000300,0.002194,-0.001054,84.675837,0.002195,
960,1820,0.116284,-0.384541,0.999998,0.000144,-0.000632,0.002015,-0.000112,0.002020,-0.000636,-87.586740,0.002065,
580,1930,0.308513,-0.336692,0.999998,0.000172,-0.000827,0.002619,-0.000401,0.002665,-0.000873,-83.443988,0.002717,
1880,720,-0.875368,-3.212287,0.999998,0.000159,-0.001218,0.002431,-0.000042,0.002431,-0.001218,-89.340037,0.002431,
870,1470,0.377144,-1.256171,0.999998,0.000180,-0.001420,0.002634,0.000179,0.002642,-0.001428,87.477109,0.002645,
620,920,0.983446,-2.761237,0.999998,0.000144,-0.001087,0.002273,0.000131,0.002278,-0.001092,87.765050,0.002279,
1260,1630,-0.018012,-0.678501,0.999998,0.000202,-0.000630,0.001796,-0.000040,0.001797,-0.000630,-89.047187,0.001823,
680,1550,0.579662,-1.204737,0.999997,0.000190,-0.001301,0.002586,0.000036,0.002586,-0.001301,89.466653,0.002586,
750,500,0.486354,-3.904474,0.999998,0.000173,-0.001308,0.002561,-0.000075,0.002562,-0.001310,-88.883781,0.002563,
1730,80,-0.088360,-4.917915,0.999999,0.000121,-0.000417,0.002043,-0.000636,0.002198,-0.000571,-76.325227,0.002281,
1540,580,-0.302041,-3.850344,0.999998,0.000188,-0.001369,0.002521,0.000268,0.002539,-0.001387,86.080883,0.002543,
980,1550,0.203648,-0.953920,0.999998,0.000151,-0.001095,0.002277,0.000277,0.002299,-0.001117,85.329796,0.002300,
1330,1280,-0.074104,-1.301915,0.999998,0.000175,-0.001115,0.001592,-0.001068,0.001963,-0.001485,-70.865647,0.002047,
850,1080,0.759652,-2.381616,0.999998,0.000185,-0.001038,0.002690,-0.000244,0.002705,-0.001053,-86.277821,0.002727,
560,390,0.744350,-4.061444,0.999813,0.000000,-0.005358,0.002214,0.000125,0.002216,-0.005360,89.055050,0.005387,
920,200,0.118577,-4.713473,0.999998,0.000180,-0.000498,0.002012,0.000217,0.002030,-0.000517,85.089185,0.002110,
570,210,0.448005,-4.469951,0.999898,0.001222,-0.000817,0.002382,0.000042,0.002383,-0.000818,89.244467,0.002422,
1020,60,0.014660,-4.975523,0.999999,0.000129,-0.000095,0.001589,0.000155,0.001604,-0.000109,84.786990,0.001792,
1360,650,-0.092844,-3.906719,0.999998,0.000173,-0.001007,0.001902,0.000626,0.002031,-0.001136,78.352415,0.002036,
1300,820,-0.072288,-3.761477,0.999998,0.000136,-0.001084,0.000975,0.000792,0.001245,-0.001353,71.211848,0.001504,
930,220,0.125123,-4.675038,0.999998,0.000184,-0.000558,0.002010,0.000163,0.002020,-0.000569,86.393075,0.002083,
1160,1830,0.023040,-0.329468,0.999999,0.000136,-0.000332,0.001727,-0.000027,0.001727,-0.000333,-89.246669,0.001833,
790,1390,0.551038,-1.541418,0.999997,0.000199,-0.001469,0.002735,-0.000028,0.002735,-0.001469,-89.611881,0.002737,
1040,1340,0.181367,-1.382010,0.999998,0.000152,-0.001539,0.002554,0.000733,0.002682,-0.001666,80.142650,0.002708,
1440,1890,-0.055994,-0.241929,0.999998,0.000164,-0.000325,0.001790,0.000145,0.001799,-0.000335,86.103283,0.001914,
660,1720,0.476141,-0.789126,0.999998,0.000170,-0.001238,0.002538,0.000002,0.002538,-0.001238,89.977107,0.002538,
1400,520,-0.124296,-4.121274,0.999998,0.000148,-0.000869,0.002028,0.000322,0.002064,-0.000904,83.723953,0.002069,
1100,780,0.118713,-3.640189,0.999998,0.000182,-0.001453,0.002153,-0.001100,0.002462,-0.001762,-74.313153,0.002537,
1710,2000,-0.051381,-0.068657,0.999999,0.000152,-0.000137,0.001923,0.000621,0.002096,-0.000310,74.456961,0.002262,
1610,1530,-0.366044,-1.112800,0.999998,0.000186,-0.001314,0.002550,-0.000139,0.002555,-0.001319,-87.941963,0.002556,
1610,1320,-0.515557,-1.689635,0.999997,0.000196,-0.001639,0.002892,0.000052,0.002893,-0.001639,89.338744,0.002901,
1670,640,-0.526137,-3.569586,0.999997,0.000179,-0.001435,0.002729,0.000002,0.002729,-0.001435,89.968892,0.002730,
730,1000,0.891642,-2.587998,0.999998,0.000159,-0.001087,0.002474,0.000101,0.002477,-0.001090,88.383009,0.002483,
1580,580,-0.357878,-3.809554,0.999998,0.000179,-0.001380,0.002630,0.000198,0.002640,-0.001390,87.182040,0.002641,
1790,1070,-0.950729,-2.418418,0.999998,0.000168,-0.001093,0.002344,0.000056,0.002344,-0.001094,89.067391,0.002346,
1200,440,0.020329,-4.333979,0.999998,0.000174,-0.000580,0.001787,-0.000077,0.001790,-0.000582,-88.146028,0.001826,
580,1920,0.328184,-0.363619,0.999998,0.000184,-0.000842,0.002705,-0.000307,0.002732,-0.000868,-85.095852,0.002792,
1740,1000,-0.899767,-2.588566,0.999998,0.000163,-0.001084,0.002439,-0.000087,0.002441,-0.001086,-88.588621,0.002446,
620,1340,0.824556,-1.789665,0.999998,0.000161,-0.001217,0.002516,-0.000098,0.002519,-0.001220,-88.499171,0.002519,
1700,1760,-0.323737,-0.612320,0.999998,0.000203,-0.001030,0.002440,0.000091,0.002442,-0.001033,88.492635,0.002452,
1450,470,-0.162490,-4.190151,0.999998,0.000153,-0.000971,0.002146,0.000285,0.002172,-0.000997,84.819661,0.002174,
870,1450,0.389413,-1.308197,0.999997,0.000192,-0.001453,0.002631,0.000161,0.002637,-0.001459,87.750704,0.002642,
560,380,0.720494,-4.069136,0.999822,0.000000,-0.005779,0.001343,0.000636,0.001399,-0.005835,84.938810,0.006093,
1050,240,0.071485,-4.668278,0.999998,0.000154,-0.000482,0.001862,0.000035,0.001863,-0.000483,89.146684,0.001933,
1690,2020,-0.023676,-0.030836,0.999999,0.000000,-0.000101,0.001823,0.000534,0.001962,-0.000239,75.486247,0.002141,
920,180,0.104613,-4.752656,0.999998,0.000156,-0.000446,0.001964,0.000220,0.001984,-0.000466,84.823810,0.002074,
930,1200,0.522256,-1.990492,0.999998,0.000173,-0.001724,0.003210,-0.000214,0.003220,-0.001733,-87.525537,0.003223,
1140,1980,0.006851,-0.083689,0.999999,0.000112,-0.000099,0.001547,-0.000062,0.001550,-0.000101,-87.842853,0.001734,
1090,900,0.335894,-3.331499,0.999997,0.000191,-0.000896,0.002294,-0.001513,0.002898,-0.001500,-68.258791,0.002898,
1250,40,0.000124,-5.009829,0.999999,0.000113,-0.000066,0.001457,-0.000014,0.001457,-0.000066,-89.472520,0.001646,
1840,930,-0.986025,-2.738251,0.999998,0.000174,-0.001078,0.002303,-0.000127,0.002308,-0.001083,-87.852978,0.002309,
1040,1760,0.095504,-0.479321,0.999998,0.000167,-0.000638,0.001948,0.000030,0.001948,-0.000639,89.337248,0.001986,
1710,1760,-0.333564,-0.618942,0.999997,0.000226,-0.001027,0.002462,0.000112,0.002465,-0.001031,88.163320,0.002476,
1670,1310,-0.617883,-1.763130,0.999998,0.000168,-0.001481,0.002784,0.000163,0.002790,-0.001487,87.807868,0.002792,
1820,1980,-0.123130,-0.129747,0.999998,0.000143,-0.000733,0.002542,0.000840,0.002745,-0.000936,76.413788,0.002791,
1450,780,-0.271217,-3.423021,0.999997,0.000203,-0.001885,0.003035,0.000562,0.003098,-0.001948,83.569055,0.003132,
960,1800,0.126286,-0.428116,0.999998,0.000150,-0.000677,0.002053,-0.000065,0.002054,-0.000679,-88.640641,0.002093,
960,110,0.048415,-4.889312,0.999998,0.000163,-0.000304,0.001744,0.000240,0.001772,-0.000332,83.405459,0.001884,
750,860,0.789414,-2.943129,0.999998,0.000185,-0.001298,0.002628,0.000282,0.002648,-0.001318,85.914614,0.002648,
1240,370,-0.003826,-4.462778,0.999998,0.000154,-0.000560,0.001749,0.000038,0.001750,-0.000560,89.051655,0.001787,
1490,1770,-0.131646,-0.482229,0.999998,0.000162,-0.000689,0.002046,0.000035,0.002046,-0.000689,89.269190,0.002082,
830,1810,0.214520,-0.455340,0.999998,0.000177,-0.000802,0.002283,-0.000218,0.002299,-0.000817,-85.985657,0.002330,
1580,1950,-0.064561,-0.149745,0.999998,0.000168,-0.000371,0.001870,0.000324,0.001916,-0.000417,81.931985,0.002015,
990,1420,0.229250,-1.254055,0.999998,0.000157,-0.001406,0.002505,0.000473,0.002561,-0.001462,83.206421,0.002569,
1200,1270,0.019601,-1.180918,0.999999,0.000147,-0.000675,0.000661,0.000455,0.000801,-0.000815,72.870799,0.000934,
1640,870,-0.702294,-2.940463,0.999998,0.000172,-0.001370,0.002810,-0.000334,0.002836,-0.001396,-85.453417,0.002837,
1400,500,-0.121118,-4.162319,0.999998,0.000140,-0.000862,0.002034,0.000293,0.002063,-0.000891,84.283259,0.002069,
1150,540,0.053610,-4.144773,0.999999,0.000148,-0.000760,0.001747,-0.000249,0.001772,-0.000785,-84.377228,0.001776,
940,570,0.273110,-3.891356,0.999998,0.000162,-0.001331,0.002485,-0.000317,0.002511,-0.001357,-85.289767,0.002513,
1250,290,-0.009362,-4.602096,0.999998,0.000175,-0.000468,0.001776,0.000030,0.001777,-0.000468,89.244214,0.001842,
1890,1930,-0.315649,-0.346144,0.999998,0.000195,-0.001233,0.002746,0.000358,0.002778,-0.001265,84.897464,0.002782,
660,1050,0.968683,-2.467319,0.999999,0.000129,-0.001074,0.002338,-0.000067,0.002340,-0.001075,-88.874116,0.002342,
960,1550,0.225369,-0.972252,0.999998,0.000168,-0.001156,0.002342,0.000270,0.002363,-0.001177,85.607168,0.002363,
1450,450,-0.157448,-4.233268,0.999998,0.000145,-0.000916,0.002143,0.000237,0.002161,-0.000934,85.587648,0.002167,
1010,1990,0.015865,-0.073099,0.999999,0.000131,-0.000088,0.001616,-0.000192,0.001638,-0.000109,-83.664598,0.001831,
1200,420,0.019074,-4.370643,0.999998,0.000186,-0.000593,0.001797,-0.000059,0.001798,-0.000594,-88.577700,0.001832,
1720,490,-0.488367,-3.923832,0.999997,0.000193,-0.001307,0.002578,0.000068,0.002579,-0.001308,88.991236,0.002579,
1710,1720,-0.364726,-0.717639,0.999997,0.000205,-0.001106,0.002490,0.000069,0.002492,-0.001107,88.894521,0.002497,
1580,560,-0.346480,-3.863941,0.999998,0.000172,-0.001339,0.002577,0.000179,0.002586,-0.001347,87.382426,0.002586,
750,1030,0.876255,-2.515307,0.999998,0.000154,-0.001041,0.002472,-0.000016,0.002472,-0.001041,-89.743346,0.002482,
1860,1470,-0.738012,-1.470240,0.999998,0.000169,-0.001282,0.002563,-0.000007,0.002563,-0.001282,-89.894302,0.002563,
1550,90,-0.046768,-4.920437,0.999999,0.000135,-0.000189,0.001769,-0.000322,0.001821,-0.000241,-80.896322,0.001978,
580,1960,0.244125,-0.254458,0.999998,0.000156,-0.000947,0.002926,-0.000574,0.003009,-0.001030,-81.741310,0.003059,
1690,30,-0.016909,-5.018144,0.999999,0.000000,-0.000066,0.001838,-0.000542,0.001981,-0.000210,-75.176254,0.002177,
590,1340,0.862011,-1.810069,0.999999,0.000147,-0.001248,0.002497,-0.000029,0.002497,-0.001248,-89.549706,0.002497,
1240,1630,-0.005403,-0.675664,0.999998,0.000157,-0.000611,0.001789,-0.000037,0.001789,-0.000612,-89.116503,0.001819,
910,540,0.300438,-3.938422,0.999998,0.000159,-0.001299,0.002516,-0.000235,0.002531,-0.001314,-86.482439,0.002532,
710,1750,0.390117,-0.673743,0.999997,0.000202,-0.001172,0.002529,-0.000052,0.002530,-0.001173,-89.191520,0.002532,
1350,690,-0.082197,-3.846239,0.999999,0.000140,-0.001013,0.001809,0.000758,0.002000,-0.001203,75.881867,0.002013,
660,1700,0.492931,-0.840581,0.999998,0.000155,-0.001227,0.002525,0.000003,0.002525,-0.001227,89.960834,0.002526,
620,1360,0.806443,-1.738347,0.999998,0.000172,-0.001228,0.002518,-0.000073,0.002519,-0.001229,-88.880312,0.002519,
1610,1510,-0.379243,-1.167988,0.999998,0.000173,-0.001346,0.002611,-0.000149,0.002617,-0.001352,-87.852229,0.002617,
730,500,0.511447,-3.888559,0.999998,0.000166,-0.001271,0.002561,-0.000061,0.002562,-0.001272,-89.090559,0.002562,
1730,1740,-0.371977,-0.681005,0.999997,0.000192,-0.001148,0.002484,0.000061,0.002485,-0.001149,89.032821,0.002487,
1740,1020,-0.902009,-2.537061,0.999998,0.000170,-0.001084,0.002445,-0.000061,0.002446,-0.001085,-89.004550,0.002451,
1240,40,-0.000046,-5.009532,0.999999,0.000123,-0.000051,0.001453,-0.000028,0.001453,-0.000052,-88.947438,0.001649,
920,160,0.091445,-4.791470,0.999999,0.000143,-0.000410,0.001935,0.000263,0.001964,-0.000440,83.676409,0.002062,
1100,760,0.110451,-3.682617,0.999998,0.000181,-0.001360,0.002088,-0.001033,0.002374,-0.001646,-74.531344,0.002432,
1080,900,0.344901,-3.275584,0.999998,0.000202,-0.001117,0.002598,-0.001468,0.003108,-0.001627,-70.837497,0.003109,
1540,1270,-0.445269,-1.772967,0.999997,0.000169,-0.001798,0.003114,-0.000002,0.003114,-0.001798,-89.975728,0.003127,
840,970,0.767572,-2.671753,0.999998,0.000170,-0.001026,0.002657,0.000228,0.002671,-0.001040,86.465467,0.002693,
1730,100,-0.117484,-4.878306,0.999999,0.000153,-0.000526,0.002135,-0.000611,0.002269,-0.000660,-77.658545,0.002334,
1730,1400,-0.623641,-1.556662,0.999997,0.000188,-0.001376,0.002665,0.000068,0.002666,-0.001377,89.042651,0.002666,
790,1370,0.567892,-1.598104,0.999997,0.000197,-0.001491,0.002784,-0.000061,0.002785,-0.001492,-89.181532,0.002787,
1490,1750,-0.140054,-0.524464,0.999998,0.000166,-0.000734,0.002109,0.000021,0.002109,-0.000734,89.569839,0.002141,
1040,1780,0.087225,-0.439941,0.999998,0.000173,-0.000603,0.001917,-0.000006,0.001917,-0.000603,-89.854471,0.001961,
1210,1760,0.010051,-0.446624,0.999998,0.000173,-0.000462,0.001767,0.000020,0.001767,-0.000463,89.485012,0.001833,
1780,310,-0.428425,-4.331995,0.999997,0.000193,-0.001205,0.002538,-0.000039,0.002538,-0.001206,-89.403414,0.002539,
1800,730,-0.783952,-3.241185,0.999998,0.000166,-0.001281,0.002567,-0.000147,0.002572,-0.001287,-87.817664,0.002572,
1400,480,-0.118197,-4.202329,0.999998,0.000163,-0.000872,0.002018,0.000277,0.002044,-0.000898,84.579550,0.002049,
1220,370,0.006877,-4.461436,0.999999,0.000130,-0.000560,0.001764,-0.000040,0.001765,-0.000560,-89.025292,0.001804,
1720,1890,-0.203997,-0.307807,0.999998,0.000174,-0.000727,0.002342,0.000462,0.002410,-0.000795,81.631634,0.002456,
1670,1290,-0.636658,-1.818071,0.999997,0.000179,-0.001476,0.002804,0.000217,0.002815,-0.001487,87.099609,0.002816,
1250,270,-0.008285,-4.637918,0.999998,0.000154,-0.000431,0.001749,0.000024,0.001750,-0.000432,89.364266,0.001823,
1150,1360,0.049517,-1.147856,0.999999,0.000125,-0.000791,0.001495,0.000689,0.001687,-0.000983,74.463030,0.001695,
780,1450,0.519113,-1.384856,0.999997,0.000185,-0.001407,0.002685,0.000033,0.002685,-0.001408,89.536018,0.002686,
1450,430,-0.150659,-4.275930,0.999998,0.000139,-0.000865,0.002103,0.000182,0.002114,-0.000876,86.503197,0.002124,
1510,960,-0.638414,-2.733359,0.999998,0.000188,-0.001163,0.003183,-0.000280,0.003201,-0.001181,-86.329402,0.003237,
1680,2020,-0.023378,-0.030004,0.999999,0.000000,-0.000271,0.001806,0.000493,0.001917,-0.000382,77.292425,0.002029,
990,1400,0.236418,-1.304703,0.999998,0.000150,-0.001479,0.002580,0.000494,0.002639,-0.001538,83.156860,0.002651,
1550,70,-0.031315,-4.955728,0.999999,0.000116,-0.000114,0.001731,-0.000321,0.001786,-0.000168,-80.407166,0.001972,
1810,60,-0.087662,-4.951603,0.999998,0.000153,-0.000434,0.002375,-0.000924,0.002652,-0.000710,-73.334750,0.002745,
1200,400,0.018105,-4.406631,0.999998,0.000186,-0.000585,0.001793,-0.000051,0.001794,-0.000586,-88.779547,0.001830,
1870,1470,-0.750686,-1.479049,0.999998,0.000173,-0.001271,0.002562,-0.000011,0.002563,-0.001271,-89.832849,0.002563,
890,540,0.327318,-3.919659,0.999998,0.000167,-0.001306,0.002556,-0.000200,0.002566,-0.001316,-87.037910,0.002567,
710,770,0.758948,-3.164120,0.999998,0.000165,-0.001328,0.002628,0.000211,0.002639,-0.001340,86.952616,0.002639,
660,1680,0.508703,-0.891213,0.999998,0.000182,-0.001221,0.002507,0.000025,0.002507,-0.001221,89.608197,0.002508,
620,1380,0.790328,-1.687107,0.999998,0.000161,-0.001267,0.002542,-0.000071,0.002544,-0.001268,-88.931753,0.002544,
1010,40,0.009068,-5.006780,0.999999,0.000140,-0.000010,0.001612,0.000199,0.001636,-0.000034,83.114210,0.001869,
920,140,0.078764,-4.828922,0.999999,0.000143,-0.000349,0.001875,0.000273,0.001908,-0.000382,83.104583,0.002020,
1700,1740,-0.339083,-0.660893,0.999998,0.000189,-0.001043,0.002457,0.000060,0.002458,-0.001044,89.012995,0.002467,
1070,900,0.356557,-3.219107,0.999998,0.000183,-0.001330,0.002894,-0.001321,0.003273,-0.001709,-73.986884,0.003274,
1750,700,-0.690930,-3.349482,0.999997,0.000196,-0.001363,0.002642,-0.000135,0.002647,-0.001368,-88.067981,0.002647,
560,370,0.720510,-4.088157,0.999809,0.000000,-0.005340,0.001348,0.000596,0.001400,-0.005392,84.947064,0.005596,
1490,1730,-0.148608,-0.566916,0.999998,0.000159,-0.000780,0.002092,-0.000021,0.002092,-0.000780,-89.584220,0.002115,
1010,1970,0.026142,-0.104143,0.999999,0.000141,-0.000140,0.001643,-0.000192,0.001664,-0.000161,-83.920405,0.001835,
680,1470,0.639589,-1.411383,0.999998,0.000173,-0.001313,0.002605,-0.000008,0.002605,-0.001313,-89.889169,0.002605,
1040,1800,0.081536,-0.403792,0.999998,0.000198,-0.000570,0.001852,-0.000027,0.001852,-0.000570,-89.369536,0.001897,
1300,840,-0.100913,-3.742722,0.999998,0.000154,-0.001174,0.000939,0.000465,0.001037,-0.001272,78.132466,0.001353,
750,1010,0.873805,-2.563158,0.999998,0.000152,-0.001048,0.002482,0.000082,0.002483,-0.001050,88.674095,0.002493,
1110,1280,0.102672,-1.361943,0.999998,0.000161,-0.001354,0.001964,0.001097,0.002294,-0.001684,73.257055,0.002376,
1100,740,0.102860,-3.724303,0.999998,0.000185,-0.001294,0.002038,-0.000971,0.002300,-0.001557,-74.884764,0.002347,
1150,520,0.052620,-4.179357,0.999998,0.000180,-0.000740,0.001774,-0.000254,0.001800,-0.000766,-84.288402,0.001806,
580,1210,0.980532,-2.127123,0.999999,0.000120,-0.001094,0.002274,-0.000064,0.002275,-0.001095,-88.919056,0.002275,
690,120,0.183978,-4.814243,0.999998,0.000151,-0.000888,0.002434,0.000599,0.002539,-0.000993,80.084881,0.002559,
1610,1490,-0.389857,-1.219098,0.999997,0.000181,-0.001366,0.002614,-0.000166,0.002621,-0.001373,-87.614127,0.002622,
1190,1760,0.019887,-0.449185,0.999998,0.000139,-0.000450,0.001770,0.000021,0.001770,-0.000450,89.448391,0.001840,
1400,900,-0.364276,-3.182311,0.999997,0.000201,-0.001500,0.003091,0.001138,0.003358,-0.001766,76.812036,0.003359,
1830,1080,-0.992797,-2.401092,0.999998,0.000208,-0.001064,0.002248,0.000042,0.002248,-0.001065,89.281799,0.002250,
1730,1720,-0.388878,-0.729593,0.999998,0.000177,-0.001174,0.002480,0.000039,0.002481,-0.001175,89.395055,0.002482,
1740,1040,-0.902562,-2.489149,0.999998,0.000154,-0.001081,0.002447,0.000046,0.002448,-0.001081,89.245523,0.002453,
1670,1270,-0.657948,-1.875115,0.999997,0.000187,-0.001449,0.002812,0.000247,0.002826,-0.001463,86.688562,0.002827,
790,1350,0.584071,-1.652836,0.999997,0.000220,-0.001511,0.002790,-0.000099,0.002793,-0.001513,-88.678050,0.002796,
1710,860,-0.785368,-2.944859,0.999998,0.000154,-0.001300,0.002598,-0.000261,0.002615,-0.001318,-86.184952,0.002615,
1730,60,-0.059000,-4.960532,0.999998,0.000151,-0.000288,0.002014,-0.000663,0.002191,-0.000465,-75.031897,0.002309,
1180,370,0.027729,-4.456664,0.999998,0.000150,-0.000527,0.001780,-0.000043,0.001780,-0.000528,-88.927427,0.001829,
1150,1340,0.048794,-1.178219,0.999998,0.000148,-0.000817,0.001436,0.000771,0.001675,-0.001055,72.795536,0.001693,
640,1890,0.303973,-0.368536,0.999998,0.000188,-0.001099,0.002620,-0.000318,0.002647,-0.001126,-85.146108,0.002657,
1490,960,-0.616115,-2.746229,0.999998,0.000183,-0.001202,0.003379,-0.000243,0.003392,-0.001214,-86.969786,0.003437,
1890,730,-0.895814,-3.180280,0.999998,0.000172,-0.001195,0.002417,-0.000054,0.002417,-0.001196,-89.136213,0.002417,
1450,650,-0.201704,-3.779056,0.999998,0.000158,-0.001366,0.002473,0.000553,0.002552,-0.001444,81.959965,0.002559,
1700,2000,-0.047532,-0.067588,0.999999,0.000148,-0.000176,0.001895,0.000578,0.002046,-0.000326,75.414416,0.002198,
1680,30,-0.016596,-5.019321,0.999999,0.000000,-0.000123,0.001812,-0.000481,0.001925,-0.000236,-76.777057,0.002100,
1250,250,-0.008857,-4.671231,0.999998,0.000153,-0.000392,0.001692,0.000009,0.001692,-0.000392,89.745719,0.001772,
830,1790,0.231372,-0.501524,0.999998,0.000156,-0.000837,0.002269,-0.000179,0.002279,-0.000848,-86.721188,0.002304,
870,1430,0.401703,-1.361697,0.999998,0.000186,-0.001490,0.002733,0.000148,0.002738,-0.001495,88.001278,0.002742,
890,1960,0.053927,-0.129946,0.999999,0.000127,-0.000288,0.001812,-0.000310,0.001856,-0.000333,-81.781832,0.001979,
630,400,0.565763,-4.061097,0.999997,0.000190,-0.001255,0.002519,-0.000048,0.002520,-0.001255,-89.275838,0.002520,
1200,380,0.017769,-4.442397,0.999998,0.000166,-0.000545,0.001771,-0.000060,0.001773,-0.000547,-88.510966,0.001815,
730,1080,0.887352,-2.391059,0.999998,0.000139,-0.001108,0.002467,-0.000121,0.002471,-0.001112,-88.061751,0.002475,
1440,1690,-0.126107,-0.625623,0.999998,0.000155,-0.000734,0.002066,-0.000069,0.002068,-0.000736,-88.584581,0.002096,
1140,1960,0.010074,-0.115229,0.999998,0.000152,-0.000140,0.001560,-0.000053,0.001562,-0.000142,-88.216298,0.001728,
1490,1560,-0.208383,-0.936908,0.999999,0.000151,-0.001062,0.002271,-0.000264,0.002292,-0.001082,-85.491787,0.002293,
1540,1980,-0.034505,-0.093062,0.999999,0.000143,-0.000123,0.001730,0.000286,0.001773,-0.000166,81.419765,0.001958,
1010,1950,0.033472,-0.139246,0.999999,0.000140,-0.000172,0.001719,-0.000177,0.001735,-0.000189,-84.705180,0.001904,
1070,880,0.308894,-3.275970,0.999998,0.000174,-0.001597,0.002841,-0.001033,0.003070,-0.001826,-77.517884,0.003088,
710,730,0.721285,-3.269657,0.999998,0.000169,-0.001370,0.002607,0.000178,0.002615,-0.001378,87.437906,0.002616,
620,1400,0.773545,-1.635909,0.999998,0.000175,-0.001288,0.002543,-0.000056,0.002544,-0.001289,-89.164498,0.002544,
920,120,0.064800,-4.866599,0.999999,0.000137,-0.000276,0.001834,0.000307,0.001878,-0.000320,81.876754,0.002009,
660,1660,0.525775,-0.940882,0.999998,0.000186,-0.001233,0.002537,0.000015,0.002538,-0.001233,89.768105,0.002538,
1290,240,-0.020741,-4.687113,0.999998,0.000139,-0.000350,0.001722,-0.000024,0.001722,-0.000350,-89.326174,0.001820,
1800,560,-0.641665,-3.679382,0.999998,0.000175,-0.001290,0.002572,0.000015,0.002572,-0.001291,89.783232,0.002572,
1040,1820,0.073208,-0.365993,0.999998,0.000180,-0.000517,0.001876,-0.000040,0.001876,-0.000518,-89.043702,0.001938,
1290,40,-0.002133,-5.008617,0.999999,0.000127,-0.000028,0.001475,-0.000030,0.001475,-0.000029,-88.868356,0.001687,
1490,1710,-0.158115,-0.607427,0.999998,0.000160,-0.000820,0.002095,-0.000075,0.002096,-0.000821,-88.516970,0.002113,
1400,1160,-0.354337,-1.842383,0.999998,0.000194,-0.001544,0.003079,-0.001078,0.003318,-0.001783,-77.502311,0.003321,
1330,1260,-0.084221,-1.333746,0.999998,0.000190,-0.001166,0.001614,-0.001121,0.002010,-0.001562,-70.558105,0.002111,
590,1210,0.969403,-2.120590,0.999999,0.000115,-0.001101,0.002307,-0.000103,0.002310,-0.001104,-88.269514,0.002311,
1610,1470,-0.399513,-1.271411,0.999997,0.000186,-0.001397,0.002659,-0.000157,0.002665,-0.001403,-87.779443,0.002666,
580,2010,0.111253,-0.099078,0.999997,0.000222,-0.000062,0.003158,-0.001497,0.003747,-0.000651,-68.539616,0.004004,
750,990,0.868360,-2.613493,0.999998,0.000165,-0.001067,0.002457,0.000076,0.002459,-0.001068,88.772202,0.002466,
1010,1760,0.113652,-0.491943,0.999998,0.000147,-0.000585,0.001994,-0.000014,0.001994,-0.000585,-89.691336,0.002050,
1580,540,-0.335010,-3.913723,0.999998,0.000171,-0.001284,0.002502,0.000212,0.002513,-0.001296,86.801337,0.002514,
990,1500,0.206124,-1.060033,0.999998,0.000175,-0.001183,0.002328,0.000380,0.002369,-0.001223,83.889756,0.002369,
1100,720,0.100530,-3.764757,0.999998,0.000166,-0.001232,0.001996,-0.000903,0.002232,-0.001467,-75.386636,0.002268,
1220,730,0.005101,-3.912098,0.999999,0.000123,-0.000465,0.000917,-0.000154,0.000934,-0.000482,-83.733982,0.000934,
880,230,0.164491,-4.637680,0.999998,0.000161,-0.000782,0.002141,0.000153,0.002149,-0.000790,87.002605,0.002174,
1110,1260,0.114435,-1.401651,0.999998,0.000165,-0.001457,0.002011,0.001149,0.002358,-0.001803,73.232135,0.002465,
1280,1890,-0.011724,-0.226594,0.999999,0.000155,-0.000242,0.001671,0.000018,0.001671,-0.000242,89.452528,0.001806,
1420,450,-0.131773,-4.251104,0.999998,0.000158,-0.000835,0.002072,0.000194,0.002085,-0.000847,86.204501,0.002097,
790,1570,0.425559,-1.063746,0.999998,0.000178,-0.001285,0.002545,0.000086,0.002547,-0.001287,88.707966,0.002547,
1120,870,0.228079,-3.541318,0.999998,0.000193,-0.000865,0.001349,-0.000953,0.001702,-0.001219,-69.635382,0.001755,
1490,2010,-0.011252,-0.041197,0.999998,0.000153,-0.000080,0.001577,0.000199,0.001601,-0.000104,83.257622,0.001791,
1710,840,-0.766844,-2.997462,0.999998,0.000160,-0.001353,0.002669,-0.000286,0.002690,-0.001374,-85.949045,0.002690,
1670,2020,-0.019618,-0.028884,0.999999,0.000000,-0.000267,0.001793,0.000477,0.001898,-0.000372,77.566561,0.002011,
1730,50,-0.045809,-4.979387,0.999999,0.000149,-0.000227,0.001996,-0.000672,0.002183,-0.000415,-74.423932,0.002319,
1780,870,-0.879896,-2.898748,0.999999,0.000150,-0.001217,0.002470,-0.000224,0.002484,-0.001230,-86.537277,0.002484,
1130,1360,0.066610,-1.178822,0.999999,0.000124,-0.000899,0.001687,0.000759,0.001893,-0.001105,74.800449,0.001902,
970,70,0.022967,-4.957987,0.999999,0.000159,-0.000181,0.001675,0.000203,0.001697,-0.000202,83.837407,0.001854,
1880,570,-0.753183,-3.592484,0.999998,0.000185,-0.001313,0.002574,0.000009,0.002574,-0.001313,89.865118,0.002574,
1670,1250,-0.677370,-1.930908,0.999998,0.000182,-0.001432,0.002775,0.000268,0.002792,-0.001449,86.372719,0.002792,
1060,110,0.025367,-4.896995,0.999999,0.000116,-0.000173,0.001667,0.000118,0.001674,-0.000180,86.347437,0.001838,
1740,1060,-0.898357,-2.439997,0.999998,0.000150,-0.001065,0.002412,0.000075,0.002414,-0.001067,88.768322,0.002419,
1820,1960,-0.171920,-0.179065,0.999998,0.000154,-0.000849,0.002582,0.000732,0.002731,-0.000998,78.445776,0.002764,
1450,410,-0.146629,-4.316767,0.999998,0.000144,-0.000822,0.002091,0.000144,0.002098,-0.000829,87.183634,0.002113,
1730,1160,-0.839323,-2.192058,0.999998,0.000151,-0.001212,0.002558,0.000269,0.002577,-0.001231,85.944620,0.002578,
1540,1960,-0.047769,-0.128728,0.999999,0.000136,-0.000182,0.001761,0.000285,0.001802,-0.000223,81.816617,0.001965,
1200,360,0.017823,-4.477578,0.999998,0.000166,-0.000519,0.001780,-0.000060,0.001781,-0.000521,-88.498575,0.001832,
1430,1120,-0.486620,-2.095248,0.999997,0.000200,-0.001632,0.003829,-0.000598,0.003894,-0.001697,-83.822327,0.003904,
910,1720,0.205878,-0.618441,0.999998,0.000185,-0.000860,0.002256,-0.000002,0.002256,-0.000860,-89.964614,0.002277,
710,190,0.266545,-4.654356,0.999998,0.000161,-0.001100,0.002465,0.000288,0.002488,-0.001123,85.403505,0.002492,
1250,230,-0.006725,-4.705855,0.999998,0.000159,-0.000363,0.001707,-0.000003,0.001707,-0.000363,-89.909804,0.001798,
1680,1910,-0.150044,-0.249323,0.999998,0.000141,-0.000683,0.002158,0.000431,0.002222,-0.000747,81.560146,0.002262,
1010,1930,0.042897,-0.173516,0.999999,0.000154,-0.000211,0.001709,-0.000175,0.001724,-0.000227,-84.847960,0.001874,
620,1840,0.401621,-0.521544,0.999997,0.000196,-0.001216,0.002559,-0.000092,0.002562,-0.001218,-88.612031,0.002563,
1760,1650,-0.479967,-0.931358,0.999997,0.000208,-0.001238,0.002516,-0.000034,0.002516,-0.001238,-89.474608,0.002516,
920,100,0.049186,-4.901812,0.999999,0.000129,-0.000204,0.001795,0.000310,0.001842,-0.000251,81.375786,0.001998,
1200,850,0.072605,-3.818440,0.999995,0.000252,-0.001771,0.000447,-0.000033,0.000448,-0.001771,-89.153309,0.001842,
1490,1690,-0.165567,-0.648672,0.999998,0.000150,-0.000871,0.002154,-0.000117,0.002159,-0.000875,-87.783023,0.002172,
1270,240,-0.014125,-4.687037,0.999999,0.000108,-0.000336,0.001712,-0.000009,0.001712,-0.000336,-89.761019,0.001814,
1400,1180,-0.311405,-1.774971,0.999998,0.000181,-0.001762,0.003025,-0.000882,0.003182,-0.001919,-79.890458,0.003205,
1870,220,-0.440490,-4.475435,0.999997,0.000176,-0.001232,0.002495,-0.000082,0.002497,-0.001234,-88.739799,0.002497,
1820,170,-0.310306,-4.660480,0.999998,0.000193,-0.001128,0.002626,-0.000338,0.002656,-0.001158,-84.891540,0.002664,
1800,540,-0.627308,-3.732695,0.999998,0.000180,-0.001292,0.002566,0.000021,0.002566,-0.001293,89.693968,0.002566,
1050,330,0.098554,-4.495873,0.999998,0.000192,-0.000701,0.001970,-0.000055,0.001971,-0.000702,-88.829899,0.001998,
990,1760,0.124830,-0.497433,0.999998,0.000145,-0.000627,0.002020,-0.000044,0.002020,-0.000628,-89.056169,0.002068,
660,1640,0.540559,-0.991309,0.999998,0.000187,-0.001262,0.002536,0.000031,0.002536,-0.001262,89.531774,0.002536,
860,250,0.195758,-4.585501,0.999998,0.000192,-0.000843,0.002219,0.000165,0.002228,-0.000852,86.921056,0.002248,
1340,730,-0.075046,-3.790938,0.999998,0.000180,-0.001078,0.001732,0.000919,0.002007,-0.001352,73.400779,0.002047,
1020,40,0.009344,-5.006776,0.999999,0.000128,-0.000040,0.001577,0.000174,0.001595,-0.000058,83.926844,0.001810,
980,1890,0.068940,-0.247294,0.999998,0.000168,-0.000385,0.001848,-0.000180,0.001862,-0.000399,-85.417817,0.001961,
970,360,0.166106,-4.398850,0.999998,0.000157,-0.000856,0.002124,-0.000095,0.002127,-0.000859,-88.168391,0.002140,
1730,40,-0.030648,-4.999212,0.999999,0.000150,-0.000147,0.001981,-0.000690,0.002185,-0.000352,-73.510227,0.002347,
1870,570,-0.738946,-3.600007,0.999998,0.000174,-0.001300,0.002586,-0.000008,0.002586,-0.001300,-89.881991,0.002586,
750,970,0.864304,-2.661922,0.999998,0.000150,-0.001096,0.002519,0.000149,0.002526,-0.001102,87.642710,0.002532,
600,1210,0.958124,-2.115146,0.999999,0.000109,-0.001114,0.002331,-0.000130,0.002336,-0.001119,-87.835399,0.002337,
830,1770,0.247483,-0.546114,0.999998,0.000159,-0.000862,0.002371,-0.000140,0.002377,-0.000868,-87.533828,0.002406,
1670,30,-0.014845,-5.020086,0.999999,0.000000,-0.000134,0.001797,-0.000462,0.001902,-0.000239,-77.204772,0.002072,
790,1330,0.603061,-1.708963,0.999998,0.000194,-0.001516,0.002771,-0.000134,0.002776,-0.001520,-88.209006,0.002780,
1890,740,-0.904510,-3.156530,0.999998,0.000161,-0.001192,0.002446,-0.000061,0.002447,-0.001193,-89.036032,0.002447,
760,1270,0.705181,-1.890661,0.999998,0.000175,-0.001418,0.002714,-0.000241,0.002728,-0.001432,-86.666930,0.002729,
1710,960,-0.856963,-2.687604,0.999998,0.000145,-0.001106,0.002524,-0.000197,0.002535,-0.001116,-86.898785,0.002541,
1450,370,-0.136040,-4.399766,0.999998,0.000164,-0.000750,0.002068,0.000091,0.002071,-0.000753,88.154924,0.002096,
1600,1630,-0.301507,-0.858219,0.999998,0.000190,-0.001117,0.002406,-0.000089,0.002408,-0.001120,-88.559329,0.002410,
620,1820,0.426360,-0.571259,0.999997,0.000218,-0.001209,0.002520,-0.000063,0.002521,-0.001210,-89.039161,0.002521,
1740,1500,-0.560478,-1.301142,0.999997,0.000186,-0.001320,0.002627,-0.000036,0.002627,-0.001321,-89.480676,0.002627,
890,1740,0.212354,-0.583967,0.999998,0.000176,-0.000908,0.002255,-0.000031,0.002255,-0.000908,-89.429450,0.002269,
1540,1940,-0.061076,-0.163734,0.999998,0.000151,-0.000256,0.001849,0.000306,0.001893,-0.000300,81.883881,0.002035,
1610,1450,-0.414450,-1.323781,0.999998,0.000174,-0.001433,0.002669,-0.000155,0.002674,-0.001439,-87.841482,0.002677,
1170,1210,0.105278,-1.283338,0.999998,0.000142,-0.001279,0.000798,0.000269,0.000832,-0.001313,82.744722,0.001329,
640,1930,0.235560,-0.263415,0.999998,0.000181,-0.001033,0.002652,-0.000482,0.002714,-0.001095,-82.676504,0.002731,
1670,1230,-0.698733,-1.986590,0.999998,0.000163,-0.001411,0.002761,0.000308,0.002783,-0.001434,85.802713,0.002784,
1090,1280,0.131433,-1.416975,0.999998,0.000159,-0.001519,0.002293,0.001047,0.002562,-0.001788,75.608326,0.002628,
1200,340,0.017228,-4.512695,0.999998,0.000178,-0.000509,0.001768,-0.000051,0.001769,-0.000510,-88.718458,0.001821,
710,170,0.239696,-4.704557,0.999998,0.000159,-0.001055,0.002455,0.000359,0.002491,-0.001092,84.226645,0.002498,
920,80,0.037724,-4.938306,0.999999,0.000130,-0.000147,0.001736,0.000308,0.001785,-0.000196,80.944258,0.001958,
1120,880,0.257854,-3.527570,0.999998,0.000194,-0.000746,0.001294,-0.001059,0.001744,-0.001196,-66.961959,0.001784,
1350,670,-0.082519,-3.881152,0.999999,0.000149,-0.000964,0.001872,0.000697,0.002034,-0.001126,76.905408,0.002038,
1830,1100,-0.986889,-2.355953,0.999998,0.000162,-0.001067,0.002264,0.000102,0.002267,-0.001071,88.255985,0.002268,
1250,210,-0.005855,-4.739080,0.999998,0.000188,-0.000336,0.001664,0.000000,0.001664,-0.000336,-89.990137,0.001759,
1870,210,-0.427274,-4.500817,0.999997,0.000190,-0.001244,0.002505,-0.000093,0.002507,-0.001247,-88.582057,0.002507,
1050,310,0.091707,-4.535740,0.999998,0.000179,-0.000681,0.001947,-0.000043,0.001948,-0.000681,-89.059450,0.001977,
1100,700,0.098472,-3.803609,0.999998,0.000160,-0.001185,0.001979,-0.000832,0.002184,-0.001390,-76.120851,0.002211,
1400,1200,-0.273534,-1.711094,0.999998,0.000179,-0.001845,0.002938,-0.000786,0.003064,-0.001970,-80.906167,0.003105,
710,1080,0.908788,-2.394137,0.999998,0.000160,-0.001095,0.002412,-0.000089,0.002414,-0.001098,-88.549221,0.002417,
1140,1940,0.013932,-0.147106,0.999998,0.000142,-0.000155,0.001639,-0.000036,0.001639,-0.000156,-88.848284,0.001810,
1490,1670,-0.173582,-0.694922,0.999998,0.000162,-0.000925,0.002162,-0.000142,0.002168,-0.000932,-87.378205,0.002175,
870,1410,0.414430,-1.417811,0.999997,0.000182,-0.001529,0.002794,0.000155,0.002800,-0.001534,87.945469,0.002804,
1010,1910,0.049018,-0.206953,0.999998,0.000155,-0.000266,0.001745,-0.000161,0.001758,-0.000279,-85.441339,0.001890,
630,280,0.462815,-4.364023,0.999998,0.000164,-0.001216,0.002512,0.000050,0.002512,-0.001217,89.238171,0.002513,
1600,1410,-0.424189,-1.423315,0.999997,0.000194,-0.001532,0.002784,-0.000121,0.002787,-0.001536,-88.390544,0.002792,
1550,380,-0.225412,-4.322123,0.999998,0.000158,-0.000928,0.002250,0.000053,0.002251,-0.000928,89.046035,0.002263,
1580,520,-0.325459,-3.963443,0.999998,0.000174,-0.001239,0.002522,0.000202,0.002533,-0.001250,86.938692,0.002533,
1280,40,-0.001107,-5.008586,0.999999,0.000103,-0.000021,0.001471,-0.000023,0.001471,-0.000022,-89.128983,0.001687,
1330,1760,-0.045295,-0.456539,0.999998,0.000141,-0.000558,0.001810,-0.000045,0.001811,-0.000558,-88.905729,0.001855,
660,1620,0.553333,-1.042797,0.999998,0.000193,-0.001274,0.002517,0.000034,0.002517,-0.001274,89.486794,0.002517,
750,950,0.853430,-2.714313,0.999998,0.000148,-0.001115,0.002531,0.000224,0.002545,-0.001129,86.496319,0.002551,
1470,940,-0.557891,-2.841530,0.999997,0.000201,-0.001458,0.003629,-0.000100,0.003631,-0.001460,-88.873952,0.003654,
640,1210,0.912067,-2.096049,0.999998,0.000142,-0.001194,0.002396,-0.000177,0.002405,-0.001203,-87.183313,0.002405,
1130,360,0.055312,-4.464836,0.999999,0.000132,-0.000612,0.001868,-0.000100,0.001872,-0.000616,-87.700361,0.001908,
780,1970,0.080664,-0.124032,0.999999,0.000116,-0.000378,0.001955,-0.000522,0.002066,-0.000489,-77.945665,0.002160,
1420,1690,-0.111620,-0.616556,0.999998,0.000197,-0.000744,0.002036,-0.000101,0.002039,-0.000748,-87.918856,0.002063,
790,1290,0.643105,-1.820862,0.999998,0.000177,-0.001509,0.002790,-0.000206,0.002800,-0.001519,-87.265898,0.002803,
830,1750,0.262358,-0.595772,0.999998,0.000171,-0.000929,0.002358,-0.000079,0.002360,-0.000931,-88.632386,0.002378,
1450,350,-0.130894,-4.440703,0.999998,0.000171,-0.000721,0.001995,0.000059,0.001996,-0.000722,88.757312,0.002022,
1780,730,-0.757258,-3.252846,0.999998,0.000196,-0.001320,0.002610,-0.000145,0.002615,-0.001325,-87.883468,0.002615,
560,360,0.700573,-4.088692,0.999746,0.000000,-0.004779,0.001503,0.000389,0.001527,-0.004803,86.465564,0.004908,
1710,940,-0.844443,-2.738784,0.999998,0.000181,-0.001135,0.002540,-0.000224,0.002553,-0.001149,-86.517993,0.002558,
1660,2020,-0.015801,-0.027967,0.999999,0.000000,-0.000216,0.001784,0.000475,0.001891,-0.000323,77.289822,0.002023,
1190,520,0.027138,-4.194496,0.999999,0.000129,-0.000628,0.001683,-0.000108,0.001688,-0.000633,-87.335756,0.001706,
620,1800,0.449552,-0.621857,0.999997,0.000208,-0.001199,0.002543,-0.000047,0.002544,-0.001200,-89.287281,0.002545,
580,2000,0.145218,-0.131428,0.999995,0.000259,-0.000415,0.003128,-0.001292,0.003549,-0.000836,-71.946902,0.003711,
1600,1070,-0.752266,-2.406822,0.999998,0.000177,-0.000989,0.002683,0.000169,0.002691,-0.000997,87.377140,0.002721,
1020,1270,0.261460,-1.615996,0.999998,0.000180,-0.001882,0.003036,0.000605,0.003110,-0.001955,83.085407,0.003144,
710,150,0.211679,-4.753164,0.999998,0.000151,-0.001012,0.002420,0.000440,0.002476,-0.001067,82.804076,0.002483,
1170,1200,0.131872,-1.288382,0.999998,0.000143,-0.001457,0.000752,0.000139,0.000761,-0.001466,86.401760,0.001467,
1050,290,0.087161,-4.574024,0.999998,0.000186,-0.000623,0.001909,-0.000025,0.001909,-0.000623,-89.423716,0.001947,
1040,1490,0.152583,-1.033113,0.999999,0.000145,-0.001095,0.002167,0.000428,0.002223,-0.001151,82.652590,0.002223,
1870,200,-0.413607,-4.525884,0.999997,0.000198,-0.001253,0.002506,-0.000096,0.002508,-0.001255,-88.540646,0.002508,
640,1970,0.152200,-0.158281,0.999998,0.000187,-0.000858,0.002594,-0.000736,0.002744,-0.001008,-78.460559,0.002776,
1300,1950,-0.007781,-0.130126,0.999999,0.000143,-0.000126,0.001570,0.000061,0.001572,-0.000128,87.952030,0.001746,
920,60,0.025341,-4.971507,0.999999,0.000133,-0.000087,0.001677,0.000296,0.001725,-0.000135,80.731930,0.001919,
1420,1590,-0.133780,-0.818923,0.999998,0.000156,-0.000836,0.002053,-0.000227,0.002071,-0.000853,-85.531734,0.002082,
1200,320,0.016129,-4.548809,0.999998,0.000152,-0.000495,0.001775,-0.000031,0.001776,-0.000495,-89.222816,0.001833,
1260,1330,-0.012364,-1.131060,0.999999,0.000144,-0.000532,0.000954,-0.000318,0.001019,-0.000597,-78.421165,0.001024,
680,630,0.674778,-3.510979,0.999998,0.000194,-0.001316,0.002604,0.000035,0.002604,-0.001316,89.494446,0.002604,
1400,1640,-0.108531,-0.706589,0.999999,0.000146,-0.000794,0.002007,-0.000178,0.002018,-0.000805,-86.384294,0.002032,
1010,1890,0.060555,-0.242571,0.999999,0.000170,-0.000337,0.001790,-0.000172,0.001804,-0.000351,-85.395220,0.001913,
1580,500,-0.315689,-4.012655,0.999998,0.000168,-0.001228,0.002491,0.000170,0.002498,-0.001236,87.386256,0.002498,
710,1060,0.913741,-2.440293,0.999998,0.000169,-0.001073,0.002412,-0.000066,0.002414,-0.001074,-88.921854,0.002419,
1250,190,-0.005439,-4.772189,0.999998,0.000170,-0.000307,0.001659,0.000015,0.001659,-0.000307,89.561335,0.001766,
1270,40,-0.001360,-5.008444,0.999999,0.000116,-0.000043,0.001477,-0.000013,0.001477,-0.000044,-89.527304,0.001681,
1140,1920,0.014736,-0.181549,0.999999,0.000126,-0.000202,0.001607,-0.000060,0.001609,-0.000204,-88.098091,0.001752,
1650,1160,-0.740543,-2.171848,0.999998,0.000190,-0.001251,0.002717,0.000314,0.002742,-0.001276,85.510694,0.002744,
1670,1210,-0.719085,-2.040839,0.999998,0.000167,-0.001357,0.002760,0.000320,0.002784,-0.001382,85.582200,0.002784,
1310,1760,-0.034363,-0.451117,0.999998,0.000142,-0.000462,0.001774,-0.000028,0.001775,-0.000463,-89.285491,0.001841,
1470,920,-0.522916,-2.912117,0.999998,0.000172,-0.001609,0.003526,-0.000075,0.003527,-0.001610,-89.158768,0.003532,
940,2010,0.017085,-0.044116,0.999999,0.000139,-0.000078,0.001576,-0.000241,0.001611,-0.000112,-81.878923,0.001798,
870,1830,0.168844,-0.395462,0.999998,0.000169,-0.000763,0.002167,-0.000204,0.002181,-0.000778,-86.046294,0.002211,
1760,710,-0.712279,-3.317803,0.999998,0.000192,-0.001329,0.002608,-0.000150,0.002614,-0.001335,-87.828107,0.002614,
1710,880,-0.802375,-2.893260,0.999999,0.000136,-0.001258,0.002592,-0.000286,0.002613,-0.001279,-85.778563,0.002613,
1800,1350,-0.761799,-1.735054,0.999998,0.000169,-0.001282,0.002540,0.000125,0.002544,-0.001286,88.135463,0.002544,
750,930,0.842533,-2.764049,0.999998,0.000142,-0.001128,0.002498,0.000218,0.002511,-0.001141,86.565764,0.002514,
1430,680,-0.181960,-3.735556,0.999998,0.000174,-0.001424,0.002462,0.000666,0.002573,-0.001535,80.539581,0.002589,
1300,1640,-0.040288,-0.665874,0.999998,0.000172,-0.000582,0.001801,-0.000068,0.001803,-0.000584,-88.359823,0.001839,
1610,1430,-0.425891,-1.377898,0.999998,0.000174,-0.001495,0.002734,-0.000149,0.002739,-0.001500,-87.980725,0.002743,
1440,770,-0.243677,-3.474141,0.999997,0.000210,-0.001851,0.002944,0.000654,0.003031,-0.001939,82.365031,0.003070,
970,310,0.143740,-4.505018,0.999998,0.000160,-0.000754,0.002085,-0.000014,0.002085,-0.000754,-89.721569,0.002111,
1360,870,-0.240107,-3.454547,0.999998,0.000182,-0.001072,0.001834,0.001139,0.002227,-0.001465,70.956948,0.002263,
1450,330,-0.124383,-4.481056,0.999998,0.000170,-0.000685,0.002023,0.000030,0.002024,-0.000685,89.355183,0.002059,
1800,520,-0.612598,-3.783104,0.999998,0.000173,-0.001299,0.002561,0.000032,0.002561,-0.001300,89.525070,0.002561,
790,1270,0.662049,-1.876961,0.999998,0.000178,-0.001488,0.002793,-0.000236,0.002806,-0.001501,-86.856592,0.002808,
890,1720,0.223280,-0.629427,0.999998,0.000181,-0.000961,0.002293,0.000026,0.002293,-0.000961,89.545765,0.002303,
1300,110,-0.009860,-4.901708,0.999999,0.000163,-0.000133,0.001572,-0.000054,0.001574,-0.000134,-88.203609,0.001745,
1100,680,0.097859,-3.844379,0.999998,0.000154,-0.001119,0.001951,-0.000744,0.002122,-0.001290,-77.064657,0.002138,
1180,1690,0.028081,-0.574840,0.999998,0.000157,-0.000531,0.001764,0.000023,0.001764,-0.000532,89.419103,0.001810,
1350,650,-0.081842,-3.918641,0.999999,0.000160,-0.000933,0.001831,0.000624,0.001965,-0.001067,77.853332,0.001968,
580,1990,0.171175,-0.161006,0.999998,0.000170,-0.000711,0.003080,-0.001028,0.003340,-0.000971,-75.760718,0.003436,
1020,1250,0.282361,-1.678526,0.999997,0.000210,-0.001916,0.003118,0.000549,0.003177,-0.001975,83.848080,0.003209,
1550,360,-0.216115,-4.366314,0.999999,0.000147,-0.000867,0.002245,0.000017,0.002245,-0.000867,89.692892,0.002264,
1820,1940,-0.214385,-0.233653,0.999998,0.000169,-0.000973,0.002649,0.000565,0.002735,-0.001059,81.339016,0.002758,
620,1780,0.470764,-0.675018,0.999997,0.000192,-0.001196,0.002524,-0.000031,0.002524,-0.001197,-89.519720,0.002525,
1390,1160,-0.339813,-1.790577,0.999997,0.000221,-0.001315,0.002780,-0.001275,0.003145,-0.001680,-74.042504,0.003148,
1540,1920,-0.073185,-0.201978,0.999999,0.000142,-0.000314,0.001868,0.000262,0.001899,-0.000345,83.245982,0.002024,
1200,840,0.056054,-3.825439,0.999998,0.000152,-0.001521,0.000533,-0.000080,0.000537,-0.001524,-87.760875,0.001546,
1700,1720,-0.355041,-0.710578,0.999998,0.000187,-0.001071,0.002486,0.000054,0.002487,-0.001072,89.138108,0.002495,
1200,300,0.014547,-4.583577,0.999998,0.000150,-0.000456,0.001745,-0.000012,0.001745,-0.000456,-89.682918,0.001810,
1600,1390,-0.439500,-1.480326,0.999997,0.000179,-0.001553,0.002811,-0.000104,0.002813,-0.001555,-88.640058,0.002819,
830,1970,0.064525,-0.118370,0.999999,0.000136,-0.000264,0.001894,-0.000463,0.001989,-0.000359,-78.382502,0.002120,
1120,1890,0.028069,-0.228419,0.999999,0.000128,-0.000285,0.001679,-0.000040,0.001680,-0.000285,-88.823875,0.001798,
1790,820,-0.852049,-3.019335,0.999998,0.000162,-0.001235,0.002489,-0.000224,0.002502,-0.001249,-86.574701,0.002502,
560,350,0.666458,-4.112436,0.999650,0.000000,-0.004455,0.001029,0.000033,0.001030,-0.004456,89.651192,0.004665,
690,1060,0.934625,-2.443349,0.999998,0.000152,-0.001078,0.002370,-0.000086,0.002372,-0.001080,-88.566608,0.002375,
860,230,0.179009,-4.630444,0.999998,0.000213,-0.000765,0.002187,0.000200,0.002201,-0.000778,86.139408,0.002232,
1050,1360,0.162058,-1.313639,0.999998,0.000151,-0.001430,0.002413,0.000741,0.002550,-0.001568,79.458910,0.002573,
640,1950,0.196680,-0.209899,0.999998,0.000153,-0.000953,0.002601,-0.000593,0.002697,-0.001050,-80.767348,0.002719,
1670,1190,-0.737535,-2.096608,0.999998,0.000187,-0.001277,0.002712,0.000300,0.002734,-0.001300,85.721848,0.002735,
1360,2010,-0.005879,-0.039320,0.999998,0.000170,-0.000054,0.001536,0.000070,0.001539,-0.000057,87.491218,0.001745,
1300,1620,-0.040483,-0.702167,0.999999,0.000152,-0.000595,0.001795,-0.000108,0.001800,-0.000600,-87.428682,0.001833,
1700,370,-0.381293,-4.243589,0.999997,0.000170,-0.001124,0.002450,-0.000003,0.002450,-0.001124,-89.950752,0.002452,
1700,1690,-0.377270,-0.784747,0.999998,0.000170,-0.001119,0.002464,0.000000,0.002464,-0.001119,89.998981,0.002468,
1610,1410,-0.440082,-1.433832,0.999997,0.000191,-0.001523,0.002782,-0.000099,0.002785,-0.001525,-88.680390,0.002789,
1690,1800,-0.276938,-0.508130,0.999997,0.000202,-0.000987,0.002415,0.000178,0.002424,-0.000997,87.005817,0.002437,
960,1260,0.388658,-1.758274,0.999997,0.000190,-0.001878,0.003191,0.000156,0.003196,-0.001883,88.237356,0.003213,
920,1830,0.134974,-0.378745,0.999999,0.000137,-0.000569,0.002035,-0.000170,0.002046,-0.000580,-86.283561,0.002109,
1680,150,-0.155891,-4.780121,0.999998,0.000155,-0.000729,0.002202,-0.000417,0.002260,-0.000787,-82.067267,0.002295,
1400,1620,-0.112711,-0.746083,0.999998,0.000157,-0.000811,0.002001,-0.000210,0.002016,-0.000827,-85.751417,0.002027,
1580,480,-0.304996,-4.063647,0.999998,0.000174,-0.001200,0.002450,0.000170,0.002458,-0.001208,87.336594,0.002458,
570,340,0.607834,-4.153454,0.999545,0.002437,-0.002880,0.002038,-0.000167,0.002044,-0.002886,-88.058308,0.002968,
690,1460,0.634302,-1.430061,0.999997,0.000178,-0.001323,0.002622,-0.000013,0.002622,-0.001323,-89.818361,0.002622,
1800,500,-0.598236,-3.834770,0.999998,0.000180,-0.001281,0.002560,0.000041,0.002560,-0.001281,89.381339,0.002560,
790,1250,0.682330,-1.932307,0.999998,0.000173,-0.001449,0.002775,-0.000270,0.002793,-0.001466,-86.356182,0.002794,
1450,310,-0.115484,-4.521060,0.999998,0.000170,-0.000631,0.002003,0.000011,0.002003,-0.000631,89.751977,0.002048,
910,1990,0.028269,-0.076520,0.999999,0.000129,-0.000111,0.001725,-0.000319,0.001779,-0.000164,-80.417729,0.001966,
1140,1900,0.020871,-0.212151,0.999999,0.000122,-0.000234,0.001621,-0.000072,0.001624,-0.000237,-87.784457,0.001754,
660,630,0.700300,-3.496479,0.999998,0.000179,-0.001304,0.002579,0.000046,0.002580,-0.001305,89.324153,0.002580,
1280,110,-0.006832,-4.901941,0.999999,0.000144,-0.000111,0.001594,-0.000033,0.001595,-0.000112,-88.875507,0.001781,
820,550,0.425964,-3.833144,0.999998,0.000175,-0.001362,0.002614,-0.000115,0.002617,-0.001366,-88.338697,0.002618,
620,1760,0.489404,-0.722908,0.999998,0.000185,-0.001185,0.002498,-0.000009,0.002498,-0.001185,-89.864822,0.002499,
1490,1650,-0.179970,-0.736908,0.999998,0.000171,-0.000938,0.002193,-0.000132,0.002198,-0.000944,-87.587616,0.002206,
1100,660,0.094066,-3.882601,0.999998,0.000160,-0.001057,0.001923,-0.000670,0.002067,-0.001201,-77.886283,0.002076,
1160,1690,0.038703,-0.575968,0.999999,0.000118,-0.000538,0.001791,0.000029,0.001791,-0.000538,89.288890,0.001838,
580,1980,0.196326,-0.192281,0.999998,0.000175,-0.000918,0.003099,-0.000844,0.003269,-0.001089,-78.598080,0.003329,
1260,40,-0.001169,-5.008733,0.999999,0.000117,-0.000042,0.001467,-0.000007,0.001467,-0.000042,-89.752422,0.001671,
1550,480,-0.272645,-4.087330,0.999998,0.000167,-0.001133,0.002379,0.000195,0.002390,-0.001143,86.838324,0.002391,
1780,670,-0.705778,-3.408872,0.999998,0.000177,-0.001313,0.002626,-0.000086,0.002628,-0.001315,-88.743747,0.002628,
1350,630,-0.083556,-3.953188,0.999999,0.000151,-0.000928,0.001803,0.000536,0.001904,-0.001030,79.280198,0.001907,
1320,730,-0.055737,-3.827101,0.999999,0.000142,-0.000909,0.001502,0.000853,0.001773,-0.001180,72.360487,0.001805,
1190,850,0.089768,-3.801307,0.999998,0.000159,-0.001675,0.000554,-0.000081,0.000557,-0.001678,-87.913059,0.001709,
1730,1660,-0.435008,-0.881795,0.999998,0.000191,-0.001226,0.002503,-0.000023,0.002504,-0.001226,-89.642860,0.002504,
870,1850,0.152831,-0.353523,0.999998,0.000163,-0.000700,0.002135,-0.000230,0.002154,-0.000719,-85.399291,0.002193,
1140,810,0.086628,-3.704685,0.999998,0.000188,-0.001187,0.001433,-0.001045,0.001799,-0.001552,-70.708289,0.001950,
1840,1410,-0.760889,-1.608585,0.999997,0.000189,-0.001272,0.002539,0.000041,0.002540,-0.001273,89.382019,0.002540,
830,1730,0.275457,-0.641761,0.999998,0.000183,-0.000981,0.002364,-0.000036,0.002364,-0.000981,-89.382799,0.002376,
1200,280,0.013267,-4.618653,0.999998,0.000166,-0.000430,0.001736,-0.000014,0.001736,-0.000430,-89.623447,0.001808,
590,930,1.021327,-2.729235,0.999998,0.000150,-0.001066,0.002243,0.000092,0.002245,-0.001068,88.407004,0.002246,
840,1150,0.714616,-2.191103,0.999998,0.000154,-0.001276,0.002764,-0.000348,0.002794,-0.001305,-85.107942,0.002796,
1710,920,-0.832928,-2.789581,0.999998,0.000158,-0.001173,0.002532,-0.000230,0.002546,-0.001187,-86.467104,0.002548,
1210,520,0.013245,-4.196702,0.999999,0.000135,-0.000645,0.001662,-0.000089,0.001665,-0.000648,-87.782348,0.001679,
750,1150,0.827996,-2.213639,0.999998,0.000167,-0.001183,0.002567,-0.000273,0.002587,-0.001203,-85.861342,0.002589,
1540,1900,-0.084565,-0.239814,0.999999,0.000151,-0.000351,0.001909,0.000255,0.001938,-0.000379,83.637440,0.002054,
1000,1270,0.300643,-1.658310,0.999998,0.000190,-0.001954,0.003118,0.000485,0.003164,-0.002000,84.581049,0.003200,
1820,1920,-0.250449,-0.286168,0.999998,0.000178,-0.001066,0.002611,0.000466,0.002669,-0.001124,82.896056,0.002680,
1100,1890,0.033304,-0.232280,0.999998,0.000161,-0.000256,0.001704,-0.000063,0.001706,-0.000258,-88.148598,0.001839,
1700,1110,-0.835892,-2.311689,0.999999,0.000145,-0.001128,0.002551,0.000236,0.002566,-0.001143,86.340193,0.002571,
560,340,0.646730,-4.122734,0.999545,0.000000,-0.003745,0.001625,-0.000153,0.001629,-0.003749,-88.366051,0.003760,
1630,1480,-0.422426,-1.262026,0.999997,0.000196,-0.001407,0.002655,-0.000129,0.002659,-0.001412,-88.188310,0.002661,
900,230,0.149654,-4.645495,0.999998,0.000161,-0.000657,0.002090,0.000159,0.002099,-0.000666,86.689054,0.002145,
590,1050,1.042552,-2.471415,0.999998,0.000155,-0.001009,0.002152,-0.000067,0.002154,-0.001010,-88.783288,0.002155,
640,1990,0.105864,-0.105554,0.999998,0.000176,-0.000762,0.002488,-0.000786,0.002668,-0.000942,-77.095515,0.002707,
960,1220,0.438506,-1.889005,0.999998,0.000191,-0.001875,0.003297,-0.000004,0.003297,-0.001875,-89.960079,0.003307,
1670,1170,-0.755796,-2.148910,0.999998,0.000196,-0.001208,0.002677,0.000295,0.002700,-0.001230,85.688349,0.002703,
1700,1700,-0.369478,-0.760326,0.999998,0.000175,-0.001088,0.002475,0.000025,0.002475,-0.001088,89.602238,0.002481,
1300,1600,-0.042691,-0.736745,0.999998,0.000153,-0.000632,0.001819,-0.000127,0.001826,-0.000639,-87.048167,0.001853,
1680,130,-0.132610,-4.822981,0.999999,0.000144,-0.000612,0.002117,-0.000462,0.002193,-0.000689,-80.642344,0.002243,
1610,1390,-0.454971,-1.489962,0.999997,0.000190,-0.001533,0.002806,-0.000084,0.002808,-0.001534,-88.893809,0.002812,
1800,480,-0.584048,-3.884654,0.999998,0.000186,-0.001272,0.002555,0.000049,0.002556,-0.001272,89.271485,0.002556,
1660,2010,-0.027315,-0.045761,0.999999,0.000144,-0.000216,0.001813,0.000478,0.001920,-0.000323,77.397764,0.002056,
1160,1200,0.145354,-1.319074,0.999998,0.000145,-0.001263,0.000796,0.000258,0.000828,-0.001295,82.966177,0.001312,
1860,590,-0.742616,-3.556262,0.999998,0.000145,-0.001288,0.002553,-0.000019,0.002553,-0.001288,-89.721977,0.002553,
580,340,0.578548,-4.166920,0.999998,0.000156,-0.002365,0.002243,-0.000171,0.002249,-0.002371,-87.882990,0.002670,
1680,370,-0.359243,-4.256948,0.999998,0.000162,-0.001141,0.002447,0.000019,0.002447,-0.001141,89.702358,0.002449,
1680,1690,-0.356038,-0.770736,0.999998,0.000156,-0.001113,0.002411,-0.000017,0.002411,-0.001113,-89.730116,0.002414,
620,1740,0.508858,-0.773813,0.999998,0.000165,-0.001174,0.002490,0.000020,0.002490,-0.001174,89.681370,0.002491,
1440,110,-0.031199,-4.894288,0.999999,0.000146,-0.000201,0.001703,-0.000168,0.001718,-0.000216,-84.997971,0.001871,
980,1830,0.098885,-0.360335,0.999999,0.000133,-0.000535,0.001924,-0.000117,0.001930,-0.000541,-87.281329,0.001991,
1580,680,-0.418416,-3.536550,0.999997,0.000189,-0.001620,0.002860,0.000122,0.002864,-0.001623,88.444261,0.002872,
910,1970,0.043101,-0.111072,0.999998,0.000151,-0.000180,0.001767,-0.000319,0.001818,-0.000231,-80.941833,0.001979,
1350,610,-0.082683,-3.990785,0.999999,0.000128,-0.000912,0.001840,0.000499,0.001928,-0.000999,80.034735,0.001928,
1050,40,0.006724,-5.007755,0.999999,0.000143,-0.000070,0.001537,0.000106,0.001544,-0.000077,86.231502,0.001740,
1490,1630,-0.187732,-0.781585,0.999998,0.000181,-0.000952,0.002209,-0.000151,0.002217,-0.000959,-87.268264,0.002223,
1570,1160,-0.634720,-2.141383,0.999998,0.000199,-0.001400,0.003036,0.000366,0.003066,-0.001430,85.320686,0.003069,
790,1230,0.703131,-1.986485,0.999998,0.000169,-0.001394,0.002741,-0.000296,0.002762,-0.001415,-85.926613,0.002762,
600,1650,0.608257,-1.016599,0.999998,0.000175,-0.001227,0.002506,0.000026,0.002506,-0.001227,89.596568,0.002506,
1450,290,-0.109984,-4.560222,0.999998,0.000162,-0.000596,0.001979,-0.000021,0.001979,-0.000596,-89.535050,0.002031,
1260,730,-0.013839,-3.904956,0.999999,0.000133,-0.000545,0.000939,0.000333,0.001010,-0.000617,77.931908,0.001018,
1420,1310,-0.191095,-1.452283,0.999998,0.000177,-0.001657,0.002651,-0.000774,0.002786,-0.001792,-80.120520,0.002824,
820,1910,0.127259,-0.239014,0.999998,0.000163,-0.000494,0.002087,-0.000410,0.002150,-0.000558,-81.188892,0.002232,
1550,460,-0.264471,-4.134051,0.999998,0.000172,-0.001115,0.002379,0.000157,0.002386,-0.001122,87.425668,0.002387,
580,930,1.032412,-2.726192,0.999998,0.000148,-0.001009,0.002198,0.000065,0.002199,-0.001010,88.840122,0.002201,
1180,850,0.105151,-3.780201,0.999998,0.000167,-0.001543,0.000679,-0.000124,0.000685,-0.001550,-86.822212,0.001553,
1650,1600,-0.377454,-0.970373,0.999998,0.000177,-0.001198,0.002498,-0.000099,0.002501,-0.001201,-88.462334,0.002502,
1100,640,0.095345,-3.921364,0.999998,0.000154,-0.000987,0.001932,-0.000599,0.002050,-0.001105,-78.846106,0.002052,
1460,1370,-0.228689,-1.364873,0.999998,0.000184,-0.001566,0.002657,-0.000585,0.002737,-0.001645,-82.259745,0.002755,
1820,1900,-0.285574,-0.339059,0.999998,0.000180,-0.001078,0.002634,0.000368,0.002670,-0.001114,84.387031,0.002682,
1540,1880,-0.100164,-0.277695,0.999999,0.000149,-0.000411,0.001922,0.000245,0.001947,-0.000436,84.063791,0.002044,
1270,640,-0.021931,-4.007484,0.999999,0.000144,-0.000624,0.001434,0.000231,0.001459,-0.000649,83.672440,0.001462,
830,1690,0.301079,-0.736869,0.999998,0.000163,-0.001028,0.002363,0.000007,0.002363,-0.001028,89.885796,0.002370,
1660,30,-0.013155,-5.021326,0.999999,0.000000,-0.000148,0.001779,-0.000464,0.001885,-0.000254,-77.129193,0.002045,
1200,500,0.020605,-4.229220,0.999999,0.000140,-0.000631,0.001725,-0.000075,0.001727,-0.000634,-88.186484,0.001747,
1740,1480,-0.573736,-1.352725,0.999997,0.000188,-0.001345,0.002604,-0.000034,0.002605,-0.001345,-89.504165,0.002605,
580,1970,0.220491,-0.224493,0.999998,0.000173,-0.000954,0.003071,-0.000687,0.003185,-0.001068,-80.574025,0.003242,
660,1600,0.568498,-1.093120,0.999998,0.000175,-0.001268,0.002534,0.000046,0.002534,-0.001269,89.299433,0.002534,
960,680,0.293654,-3.625626,0.999998,0.000172,-0.001609,0.002769,-0.000414,0.002808,-0.001648,-84.643591,0.002822,
640,630,0.727553,-3.482060,0.999998,0.000188,-0.001286,0.002552,0.000032,0.002553,-0.001287,89.518491,0.002553,
1620,470,-0.349942,-4.055237,0.999998,0.000188,-0.001198,0.002483,0.000118,0.002487,-0.001202,88.158289,0.002487,
1520,1890,-0.086669,-0.254942,0.999998,0.000162,-0.000407,0.001882,0.000212,0.001902,-0.000426,84.755998,0.001996,
560,330,0.646412,-4.109735,0.999417,0.000000,-0.003380,0.002950,-0.000365,0.002971,-0.003401,-86.711661,0.003704,
1680,1110,-0.813331,-2.310079,0.999998,0.000155,-0.001110,0.002569,0.000242,0.002584,-0.001126,86.259122,0.002592,
1670,1150,-0.773775,-2.203540,0.999998,0.000177,-0.001184,0.002671,0.000318,0.002697,-0.001210,85.321194,0.002702,
1610,1370,-0.469948,-1.546885,0.999997,0.000200,-0.001553,0.002845,-0.000038,0.002845,-0.001553,-89.508477,0.002849,
1300,1580,-0.042174,-0.773548,0.999998,0.000155,-0.000665,0.001791,-0.000159,0.001801,-0.000676,-86.308366,0.001820,
1800,460,-0.569341,-3.936279,0.999998,0.000174,-0.001261,0.002562,0.000062,0.002563,-0.001262,89.064606,0.002563,
1590,1340,-0.463559,-1.614927,0.999997,0.000184,-0.001652,0.002903,-0.000041,0.002903,-0.001652,-89.482402,0.002913,
1700,1900,-0.176447,-0.276659,0.999998,0.000151,-0.000693,0.002279,0.000468,0.002351,-0.000765,81.266787,0.002399,
640,2010,0.060342,-0.060402,0.999998,0.000159,-0.000661,0.002258,-0.000802,0.002464,-0.000866,-75.603842,0.002500,
1680,50,-0.036447,-4.982967,0.999999,0.000102,-0.000225,0.001826,-0.000504,0.001943,-0.000342,-76.917010,0.002074,
580,1050,1.052103,-2.472564,0.999998,0.000155,-0.000958,0.002099,-0.000065,0.002100,-0.000959,-88.782288,0.002103,
1490,1610,-0.193710,-0.825340,0.999998,0.000161,-0.000965,0.002204,-0.000181,0.002214,-0.000975,-86.745002,0.002219,
1570,1140,-0.659130,-2.202988,0.999998,0.000184,-0.001299,0.002958,0.000343,0.002985,-0.001326,85.428094,0.002992,
1580,920,-0.677336,-2.819810,0.999998,0.000162,-0.001249,0.002873,-0.000352,0.002903,-0.001279,-85.155376,0.002909,
1420,110,-0.029483,-4.895764,0.999999,0.000152,-0.000196,0.001677,-0.000138,0.001687,-0.000207,-85.808201,0.001841,
640,190,0.344121,-4.603782,0.999997,0.000186,-0.001154,0.002555,0.000246,0.002571,-0.001170,86.228607,0.002575,
620,1720,0.525637,-0.824017,0.999998,0.000181,-0.001173,0.002505,0.000017,0.002505,-0.001173,89.742669,0.002507,
1350,590,-0.081793,-4.028592,0.999998,0.000147,-0.000893,0.001880,0.000461,0.001954,-0.000968,80.813362,0.001954,
1210,1480,0.013225,-0.931274,0.999999,0.000153,-0.000616,0.001563,0.000114,0.001569,-0.000622,87.022645,0.001580,
1600,2010,-0.022197,-0.044046,0.999999,0.000125,-0.000166,0.001722,0.000351,0.001786,-0.000229,79.793965,0.001943,
910,1700,0.215435,-0.663253,0.999998,0.000171,-0.000894,0.002249,0.000009,0.002249,-0.000894,89.844591,0.002265,
960,330,0.162740,-4.456495,0.999998,0.000168,-0.000825,0.002154,-0.000044,0.002155,-0.000826,-89.163373,0.002174,
590,340,0.566580,-4.176273,0.999998,0.000161,-0.001498,0.002432,-0.000037,0.002432,-0.001498,-89.464825,0.002454,
1840,590,-0.716719,-3.572296,0.999998,0.000173,-0.001279,0.002546,-0.000022,0.002547,-0.001279,-89.674719,0.002547,
710,130,0.179795,-4.801397,0.999998,0.000151,-0.000938,0.002355,0.000513,0.002433,-0.001016,81.348978,0.002444,
590,1820,0.462028,-0.605451,0.999997,0.000192,-0.001619,0.002404,-0.000040,0.002404,-0.001620,-89.424628,0.002452,
1200,260,0.013174,-4.652814,0.999998,0.000162,-0.000401,0.001743,-0.000014,0.001743,-0.000402,-89.617636,0.001825,
790,1210,0.721017,-2.042894,0.999998,0.000166,-0.001360,0.002751,-0.000321,0.002776,-0.001385,-85.563178,0.002776,
1240,730,-0.004343,-3.914435,0.999999,0.000121,-0.000484,0.000889,0.000098,0.000896,-0.000491,85.919590,0.000897,
910,1950,0.057243,-0.146336,0.999998,0.000162,-0.000239,0.001830,-0.000307,0.001875,-0.000284,-81.734354,0.002021,
1450,270,-0.100029,-4.599917,0.999998,0.000157,-0.000570,0.001943,-0.000042,0.001944,-0.000571,-89.047975,0.001998,
830,1670,0.315479,-0.784684,0.999998,0.000164,-0.001098,0.002415,0.000061,0.002416,-0.001099,89.007469,0.002420,
960,1730,0.160058,-0.572310,0.999998,0.000189,-0.000845,0.002167,0.000037,0.002168,-0.000845,89.299569,0.002185,
1040,40,0.006688,-5.007391,0.999999,0.000123,-0.000074,0.001549,0.000119,0.001557,-0.000083,85.834375,0.001752,
1650,1580,-0.388575,-1.021274,0.999998,0.000160,-0.001232,0.002494,-0.000106,0.002497,-0.001235,-88.379092,0.002497,
960,660,0.284302,-3.680449,0.999998,0.000172,-0.001538,0.002716,-0.000411,0.002755,-0.001577,-84.533101,0.002765,
1100,840,0.181882,-3.509697,0.999998,0.000192,-0.001544,0.002269,-0.001158,0.002593,-0.001868,-74.361591,0.002675,
1030,820,0.283164,-3.339650,0.999997,0.000203,-0.001971,0.003146,-0.000574,0.003210,-0.002035,-83.676022,0.003248,
850,1920,0.104675,-0.212984,0.999999,0.000142,-0.000457,0.001979,-0.000361,0.002032,-0.000509,-81.741121,0.002114,
1050,270,0.080454,-4.611754,0.999998,0.000161,-0.000569,0.001872,0.000011,0.001872,-0.000569,89.732893,0.001919,
1420,1370,-0.168659,-1.300126,0.999998,0.000161,-0.001402,0.002418,-0.000690,0.002539,-0.001523,-80.069565,0.002555,
1820,1880,-0.317308,-0.393021,0.999998,0.000171,-0.001101,0.002610,0.000316,0.002637,-0.001128,85.162838,0.002646,
650,1340,0.786881,-1.767952,0.999998,0.000166,-0.001290,0.002555,-0.000117,0.002559,-0.001293,-88.258066,0.002559,
560,320,0.607886,-4.165721,0.999392,0.000000,-0.003440,0.004156,-0.000508,0.004190,-0.003473,-86.190862,0.004482,
1670,1130,-0.790100,-2.256819,0.999998,0.000161,-0.001142,0.002621,0.000274,0.002641,-0.001162,85.855034,0.002647,
840,1770,0.238501,-0.542527,0.999997,0.000181,-0.000868,0.002341,-0.000147,0.002348,-0.000874,-87.379265,0.002373,
1500,310,-0.151328,-4.502009,0.999997,0.000223,-0.000789,0.002106,-0.000003,0.002106,-0.000789,-89.950006,0.002128,
1300,1560,-0.044398,-0.807962,0.999999,0.000134,-0.000670,0.001770,-0.000176,0.001783,-0.000683,-85.885621,0.001799,
1770,740,-0.752769,-3.232683,0.999998,0.000175,-0.001322,0.002627,-0.000164,0.002633,-0.001329,-87.622315,0.002634,
1680,1670,-0.368724,-0.819147,0.999997,0.000184,-0.001120,0.002466,-0.000034,0.002466,-0.001120,-89.450805,0.002470,
1080,250,0.061050,-4.655893,0.999998,0.000153,-0.000414,0.001829,0.000037,0.001829,-0.000415,89.048899,0.001918,
1680,40,-0.026552,-5.000997,0.999999,0.000115,-0.000190,0.001803,-0.000485,0.001915,-0.000302,-77.008165,0.002059,
1800,440,-0.553869,-3.987914,0.999998,0.000171,-0.001267,0.002527,0.000050,0.002528,-0.001267,89.246574,0.002528,
640,2000,0.083001,-0.081817,0.999998,0.000179,-0.000712,0.002356,-0.000783,0.002545,-0.000900,-76.477954,0.002581,
1610,1350,-0.487203,-1.604021,0.999997,0.000184,-0.001591,0.002877,0.000008,0.002877,-0.001591,89.891785,0.002882,
570,1050,1.061676,-2.473265,0.999995,0.000259,-0.000922,0.002048,-0.000070,0.002050,-0.000924,-88.657550,0.002053,
700,1990,0.082201,-0.095629,0.999999,0.000142,-0.000488,0.002232,-0.000794,0.002447,-0.000703,-74.856650,0.002520,
640,170,0.312142,-4.656285,0.999998,0.000175,-0.001146,0.002619,0.000302,0.002643,-0.001170,85.449726,0.002648,
1540,1860,-0.113082,-0.316025,0.999998,0.000165,-0.000475,0.002012,0.000232,0.002034,-0.000497,84.727990,0.002120,
570,930,1.041816,-2.722267,0.999997,0.000238,-0.000972,0.002160,0.000042,0.002161,-0.000973,89.227645,0.002164,
1400,1310,-0.158750,-1.408558,0.999998,0.000152,-0.001579,0.002477,-0.000850,0.002648,-0.001750,-78.625921,0.002693,
1280,550,-0.030632,-4.142260,0.999999,0.000127,-0.000638,0.001661,0.000159,0.001672,-0.000649,86.062905,0.001686,
1710,210,-0.249785,-4.630315,0.999998,0.000182,-0.000883,0.002413,-0.000347,0.002449,-0.000919,-84.060433,0.002475,
1490,1810,-0.110807,-0.401440,0.999998,0.000174,-0.000593,0.002001,0.000072,0.002003,-0.000596,88.401292,0.002057,
620,1700,0.543172,-0.873568,0.999998,0.000177,-0.001201,0.002509,-0.000001,0.002509,-0.001201,-89.981549,0.002510,
790,1190,0.742336,-2.097404,0.999998,0.000170,-0.001313,0.002705,-0.000314,0.002729,-0.001337,-85.563926,0.002729,
890,1680,0.245572,-0.721774,0.999998,0.000185,-0.001017,0.002332,0.000054,0.002332,-0.001018,89.076619,0.002339,
1170,1320,0.034502,-1.173282,0.999998,0.000155,-0.000718,0.001185,0.000674,0.001399,-0.000933,72.335779,0.001425,
1100,110,0.017966,-4.899116,0.999999,0.000141,-0.000163,0.001614,0.000096,0.001619,-0.000168,86.924521,0.001780,
1450,250,-0.094038,-4.638267,0.999998,0.000161,-0.000526,0.001912,-0.000073,0.001914,-0.000528,-88.279825,0.001977,
1570,1890,-0.105504,-0.264677,0.999999,0.000152,-0.000507,0.001974,0.000266,0.002002,-0.000535,83.949549,0.002074,
960,310,0.152657,-4.499579,0.999998,0.000175,-0.000794,0.002108,-0.000013,0.002108,-0.000794,-89.752615,0.002129,
1830,260,-0.437571,-4.417725,0.999997,0.000211,-0.001218,0.002532,-0.000061,0.002533,-0.001219,-89.061123,0.002534,
1190,440,0.026134,-4.332491,0.999998,0.000197,-0.000571,0.001794,-0.000070,0.001796,-0.000573,-88.295929,0.001835,
960,640,0.276859,-3.735290,0.999998,0.000177,-0.001475,0.002619,-0.000381,0.002654,-0.001510,-84.731646,0.002663,
1200,220,0.011325,-4.722370,0.999998,0.000176,-0.000348,0.001696,-0.000011,0.001696,-0.000348,-89.701442,0.001792,
1880,40,-0.091048,-4.959182,0.999998,0.000154,-0.000204,0.003339,-0.001676,0.004006,-0.000871,-68.294288,0.004214,
1350,1310,-0.088299,-1.297465,0.999998,0.000166,-0.001186,0.001885,-0.000986,0.002174,-0.001475,-73.640158,0.002220,
1520,1690,-0.192627,-0.669281,0.999998,0.000169,-0.000864,0.002168,-0.000064,0.002170,-0.000865,-88.789468,0.002184,
830,1650,0.327860,-0.835905,0.999998,0.000158,-0.001153,0.002472,0.000104,0.002475,-0.001156,88.359974,0.002477,
720,610,0.605161,-3.593549,0.999997,0.000195,-0.001378,0.002621,0.000023,0.002621,-0.001378,89.664813,0.002622,
1670,1110,-0.802610,-2.308812,0.999998,0.000166,-0.001095,0.002585,0.000241,0.002600,-0.001111,86.261906,0.002610,
1030,40,0.007860,-5.006967,0.999999,0.000123,-0.000046,0.001560,0.000143,0.001573,-0.000058,84.935390,0.001784,
1100,1380,0.094999,-1.187105,0.999999,0.000135,-0.001092,0.001937,0.000738,0.002108,-0.001262,77.004887,0.002121,
910,1930,0.070222,-0.183686,0.999999,0.000139,-0.000307,0.001876,-0.000308,0.001919,-0.000349,-82.129680,0.002044,
1670,1780,-0.274975,-0.544322,0.999997,0.000187,-0.001057,0.002398,0.000138,0.002403,-0.001063,87.720925,0.002408,
820,1790,0.238867,-0.505099,0.999998,0.000163,-0.000876,0.002307,-0.000166,0.002316,-0.000884,-87.030608,0.002337,
1330,1940,-0.015363,-0.147908,0.999998,0.000159,-0.000150,0.001593,0.000053,0.001594,-0.000152,88.273759,0.001760,
560,310,0.620013,-4.241578,0.999519,0.000000,-0.003723,0.003696,-0.000765,0.003774,-0.003801,-84.171029,0.004373,
1600,2000,-0.028453,-0.061778,0.999999,0.000128,-0.000175,0.001741,0.000379,0.001813,-0.000248,79.204344,0.001967,
1830,150,-0.291265,-4.703366,0.999998,0.000195,-0.001179,0.002624,-0.000303,0.002648,-0.001203,-85.479027,0.002652,
610,1300,0.872327,-1.894767,0.999998,0.000139,-0.001202,0.002471,-0.000073,0.002472,-0.001204,-88.867643,0.002472,
570,140,0.350162,-4.650743,0.999938,0.000975,-0.001057,0.002509,0.000483,0.002573,-0.001121,82.422492,0.002580,
1890,2000,-0.150481,-0.136878,0.999995,0.000255,-0.000561,0.003333,0.001429,0.003801,-0.001029,71.857576,0.003932,
1300,1540,-0.043262,-0.844562,0.999999,0.000140,-0.000668,0.001775,-0.000203,0.001792,-0.000685,-85.288213,0.001808,
1800,420,-0.540857,-4.038453,0.999998,0.000176,-0.001274,0.002532,0.000037,0.002533,-0.001275,89.439493,0.002533,
1040,170,0.051254,-4.791800,0.999999,0.000145,-0.000355,0.001747,0.000096,0.001751,-0.000359,87.396948,0.001850,
1070,820,0.203669,-3.448805,0.999998,0.000154,-0.001796,0.002792,-0.000943,0.002978,-0.001983,-78.829039,0.003032,
1610,1330,-0.505334,-1.661301,0.999997,0.000190,-0.001638,0.002874,0.000028,0.002875,-0.001638,89.638626,0.002884,
710,1480,0.591482,-1.362593,0.999997,0.000198,-0.001343,0.002623,0.000010,0.002623,-0.001343,89.859687,0.002623,
1790,880,-0.899442,-2.871300,0.999998,0.000177,-0.001180,0.002431,-0.000214,0.002444,-0.001193,-86.616058,0.002444,
780,550,0.479062,-3.799448,0.999997,0.000196,-0.001363,0.002625,-0.000050,0.002625,-0.001364,-89.281812,0.002626,
1830,1280,-0.861876,-1.928997,0.999998,0.000149,-0.001236,0.002455,0.000149,0.002461,-0.001242,87.697022,0.002461,
790,1170,0.760709,-2.150126,0.999998,0.000169,-0.001290,0.002664,-0.000309,0.002688,-0.001314,-85.556008,0.002688,
1110,1820,0.044552,-0.352368,0.999999,0.000132,-0.000399,0.001770,-0.000038,0.001770,-0.000399,-89.005823,0.001857,
620,1680,0.558239,-0.924832,0.999998,0.000183,-0.001255,0.002518,0.000028,0.002518,-0.001255,89.574423,0.002518,
1080,110,0.021930,-4.897952,0.999999,0.000163,-0.000155,0.001648,0.000127,0.001657,-0.000164,85.982849,0.001826,
1060,250,0.068452,-4.652088,0.999999,0.000133,-0.000463,0.001852,0.000025,0.001852,-0.000464,89.373921,0.001927,
750,1440,0.568356,-1.437202,0.999997,0.000190,-0.001383,0.002668,0.000002,0.002668,-0.001383,89.967851,0.002668,
1230,40,0.000500,-5.009045,0.999999,0.000113,-0.000018,0.001462,-0.000034,0.001463,-0.000019,-88.691584,0.001678,
660,990,0.964738,-2.607354,0.999998,0.000185,-0.001046,0.002317,0.000046,0.002318,-0.001047,89.214515,0.002322,
950,1440,0.279136,-1.251738,0.999998,0.000174,-0.001417,0.002575,0.000347,0.002605,-0.001447,85.065612,0.002611,
1200,200,0.010314,-4.755880,0.999998,0.000171,-0.000305,0.001673,0.000001,0.001673,-0.000305,89.973417,0.001782,
720,590,0.589105,-3.644971,0.999998,0.000180,-0.001379,0.002633,-0.000004,0.002633,-0.001379,-89.947101,0.002634,
1500,100,-0.039961,-4.907083,0.999999,0.000136,-0.000259,0.001757,-0.000208,0.001778,-0.000280,-84.173825,0.001912,
1250,440,-0.011531,-4.336389,0.999998,0.000181,-0.000631,0.001766,0.000063,0.001768,-0.000632,88.491833,0.001791,
830,1630,0.339106,-0.882185,0.999998,0.000163,-0.001194,0.002450,0.000104,0.002453,-0.001197,88.365185,0.002453,
1860,490,-0.667153,-3.812611,0.999998,0.000156,-0.001247,0.002517,0.000032,0.002518,-0.001247,89.509909,0.002518,
960,620,0.266254,-3.786207,0.999998,0.000182,-0.001417,0.002558,-0.000382,0.002594,-0.001454,-84.566393,0.002600,
910,1910,0.084361,-0.223000,0.999998,0.000142,-0.000359,0.001892,-0.000282,0.001926,-0.000394,-82.966222,0.002036,
1270,850,-0.083795,-3.806329,0.999998,0.000162,-0.001729,0.000795,-0.000010,0.000795,-0.001729,-89.774025,0.001731,
1860,1790,-0.479069,-0.666155,0.999998,0.000198,-0.001228,0.002493,0.000028,0.002494,-0.001229,89.572431,0.002494,
770,1280,0.680554,-1.858998,0.999998,0.000188,-0.001431,0.002736,-0.000236,0.002749,-0.001444,-86.766843,0.002750,
1400,1600,-0.115714,-0.787567,0.999999,0.000137,-0.000842,0.001996,-0.000242,0.002017,-0.000863,-85.168180,0.002024,
1350,2010,-0.005656,-0.039165,0.999998,0.000167,-0.000045,0.001535,0.000054,0.001537,-0.000047,88.059421,0.001748,
930,1940,0.057683,-0.163630,0.999998,0.000156,-0.000270,0.001833,-0.000271,0.001868,-0.000304,-82.771683,0.002004,
1350,1330,-0.085679,-1.260796,0.999998,0.000165,-0.001122,0.001860,-0.000925,0.002124,-0.001385,-74.098851,0.002156,
1150,190,0.021779,-4.771749,0.999998,0.000149,-0.000263,0.001672,0.000041,0.001673,-0.000264,88.784683,0.001799,
1170,1300,0.034059,-1.198119,0.999998,0.000179,-0.000755,0.001138,0.000752,0.001401,-0.001017,70.761735,0.001448,
1010,1560,0.170324,-0.908994,0.999999,0.000116,-0.001004,0.002172,0.000287,0.002198,-0.001030,84.886630,0.002199,
1300,1520,-0.043387,-0.881084,0.999999,0.000138,-0.000686,0.001729,-0.000223,0.001749,-0.000707,-84.774529,0.001760,
1800,400,-0.524742,-4.090017,0.999997,0.000194,-0.001241,0.002497,0.000023,0.002497,-0.001241,89.647017,0.002497,
1800,470,-0.576243,-3.910795,0.999998,0.000175,-0.001256,0.002574,0.000057,0.002575,-0.001257,89.148743,0.002575,
1100,100,0.015559,-4.913932,0.999999,0.000139,-0.000134,0.001583,0.000085,0.001588,-0.000138,87.182754,0.001759,
1570,1850,-0.135772,-0.344338,0.999998,0.000154,-0.000602,0.002097,0.000216,0.002114,-0.000619,85.460241,0.002174,
1830,1430,-0.732419,-1.551487,0.999998,0.000186,-0.001287,0.002539,0.000032,0.002539,-0.001287,89.514081,0.002539,
1400,1290,-0.170090,-1.460778,0.999998,0.000157,-0.001685,0.002589,-0.000887,0.002765,-0.001861,-78.731369,0.002820,
560,300,0.628254,-4.272042,0.999555,0.000000,-0.004164,0.001733,-0.001122,0.001939,-0.004370,-79.587378,0.004380,
1250,1760,-0.008441,-0.446645,0.999999,0.000134,-0.000456,0.001783,-0.000029,0.001783,-0.000457,-89.251698,0.001852,
1540,1840,-0.126787,-0.358640,0.999998,0.000185,-0.000549,0.002046,0.000190,0.002060,-0.000563,85.836641,0.002129,
620,930,0.988414,-2.738328,0.999999,0.000134,-0.001084,0.002289,0.000137,0.002294,-0.001090,87.677206,0.002295,
1500,230,-0.111572,-4.665727,0.999998,0.000136,-0.000634,0.001983,-0.000115,0.001988,-0.000639,-87.498161,0.002030,
1180,510,0.032505,-4.209951,0.999999,0.000123,-0.000614,0.001717,-0.000122,0.001723,-0.000620,-87.008555,0.001746,
1450,230,-0.085005,-4.677237,0.999998,0.000174,-0.000476,0.001908,-0.000084,0.001911,-0.000479,-87.988007,0.001988,
1670,1090,-0.815049,-2.361233,0.999998,0.000170,-0.001055,0.002614,0.000227,0.002628,-0.001069,86.474552,0.002644,
750,880,0.805147,-2.891601,0.999999,0.000145,-0.001256,0.002579,0.000273,0.002598,-0.001275,85.946283,0.002598,
1700,1160,-0.802055,-2.183716,0.999998,0.000174,-0.001248,0.002620,0.000305,0.002644,-0.001272,85.523931,0.002645,
770,500,0.458604,-3.921377,0.999998,0.000174,-0.001307,0.002571,-0.000078,0.002572,-0.001308,-88.851185,0.002573,
1810,1280,-0.837306,-1.917645,0.999998,0.000157,-0.001244,0.002514,0.000187,0.002523,-0.001254,87.151932,0.002523,
630,80,0.151303,-4.884193,0.999998,0.000161,-0.001041,0.002694,0.000664,0.002808,-0.001156,80.220161,0.002823,
790,1150,0.777994,-2.202939,0.999998,0.000194,-0.001250,0.002669,-0.000319,0.002695,-0.001276,-85.372086,0.002696,
620,1660,0.574199,-0.974806,0.999998,0.000174,-0.001288,0.002514,0.000024,0.002515,-0.001288,89.644473,0.002515,
1610,1310,-0.524619,-1.719369,0.999997,0.000204,-0.001637,0.002928,0.000076,0.002930,-0.001639,89.049441,0.002936,
1200,180,0.008046,-4.789114,0.999999,0.000152,-0.000273,0.001661,-0.000014,0.001661,-0.000273,-89.589974,0.001781,
1090,1820,0.052208,-0.355149,0.999998,0.000160,-0.000368,0.001801,-0.000056,0.001802,-0.000370,-88.511938,0.001904,
1650,480,-0.392267,-4.007080,0.999998,0.000178,-0.001271,0.002523,0.000107,0.002526,-0.001274,88.392780,0.002526,
830,660,0.486858,-3.544701,0.999997,0.000194,-0.001532,0.002817,-0.000048,0.002817,-0.001533,-89.367183,0.002821,
820,1770,0.255738,-0.551072,0.999998,0.000151,-0.000907,0.002377,-0.000123,0.002382,-0.000912,-87.851996,0.002403,
1350,1350,-0.085000,-1.221839,0.999998,0.000155,-0.001080,0.001825,-0.000835,0.002048,-0.001303,-75.049992,0.002073,
1780,470,-0.550374,-3.927760,0.999997,0.000204,-0.001264,0.002548,0.000054,0.002549,-0.001265,89.194017,0.002549,
1570,1940,-0.068659,-0.166354,0.999998,0.000148,-0.000343,0.001893,0.000315,0.001937,-0.000386,82.143486,0.002050,
1010,1870,0.070264,-0.279528,0.999998,0.000189,-0.000392,0.001834,-0.000120,0.001841,-0.000398,-86.919606,0.001937,
1890,1990,-0.179815,-0.166127,0.999998,0.000179,-0.000840,0.003193,0.001102,0.003475,-0.001121,75.676821,0.003547,
1250,170,-0.005755,-4.806208,0.999999,0.000144,-0.000261,0.001655,0.000016,0.001655,-0.000261,89.525695,0.001780,
710,340,0.419706,-4.277754,0.999997,0.000183,-0.001222,0.002549,0.000008,0.002549,-0.001222,89.882651,0.002550,
1740,1460,-0.589537,-1.405652,0.999997,0.000192,-0.001357,0.002622,0.000009,0.002622,-0.001357,89.865578,0.002622,
1490,1070,-0.644078,-2.377788,0.999998,0.000171,-0.001096,0.003371,0.000147,0.003376,-0.001101,88.115921,0.003443,
870,1870,0.136519,-0.310397,0.999998,0.000172,-0.000656,0.002075,-0.000251,0.002098,-0.000678,-84.796956,0.002141,
660,1580,0.584727,-1.144060,0.999998,0.000194,-0.001273,0.002529,0.000049,0.002529,-0.001273,89.254521,0.002529,
1690,2000,-0.046092,-0.067070,0.999998,0.000161,-0.000228,0.001873,0.000549,0.002008,-0.000363,76.191681,0.002140,
750,1580,0.468286,-1.071874,0.999997,0.000201,-0.001279,0.002578,0.000070,0.002580,-0.001280,88.966029,0.002580,
1540,1820,-0.139007,-0.397238,0.999998,0.000171,-0.000607,0.002043,0.000154,0.002052,-0.000616,86.691643,0.002106,
1650,2020,-0.013820,-0.026416,0.999999,0.000000,-0.000077,0.001768,0.000491,0.001891,-0.000200,75.984224,0.002078,
1330,240,-0.036166,-4.680963,0.999998,0.000156,-0.000417,0.001746,0.000007,0.001746,-0.000417,89.816069,0.001823,
750,910,0.831404,-2.814248,0.999999,0.000136,-0.001172,0.002550,0.000257,0.002568,-0.001189,86.061278,0.002570,
980,1430,0.240250,-1.240864,0.999998,0.000164,-0.001403,0.002515,0.000454,0.002567,-0.001455,83.477799,0.002575,
960,600,0.259043,-3.836917,0.999998,0.000171,-0.001362,0.002541,-0.000360,0.002574,-0.001395,-84.774087,0.002577,
1710,900,-0.819278,-2.840885,0.999999,0.000142,-0.001210,0.002608,-0.000291,0.002630,-0.001232,-85.665135,0.002631,
1610,1730,-0.253229,-0.627034,0.999998,0.000163,-0.000973,0.002334,0.000040,0.002335,-0.000974,89.298844,0.002346,
630,1340,0.812729,-1.781605,0.999998,0.000166,-0.001238,0.002532,-0.000102,0.002535,-0.001241,-88.446917,0.002535,
830,380,0.312186,-4.266933,0.999998,0.000231,-0.001062,0.002435,-0.000002,0.002435,-0.001062,-89.974701,0.002441,
560,410,0.697948,-3.990945,0.999901,0.000000,-0.004798,0.003732,-0.000271,0.003740,-0.004806,-88.181854,0.005048,
1300,1500,-0.044350,-0.915109,0.999999,0.000125,-0.000711,0.001691,-0.000248,0.001717,-0.000736,-84.162042,0.001723,
1570,1310,-0.457008,-1.685580,0.999997,0.000196,-0.001685,0.003013,-0.000026,0.003013,-0.001685,-89.680573,0.003020,
700,610,0.632757,-3.578182,0.999997,0.000195,-0.001344,0.002595,0.000022,0.002595,-0.001344,89.685322,0.002596,
1160,630,0.044805,-3.999550,0.999999,0.000140,-0.000694,0.001561,-0.000409,0.001633,-0.000766,-80.041483,0.001634,
710,110,0.149710,-4.848063,0.999998,0.000151,-0.000846,0.002290,0.000556,0.002386,-0.000941,80.231030,0.002404,
1720,550,-0.529403,-3.769416,0.999997,0.000201,-0.001366,0.002598,0.000046,0.002599,-0.001367,89.333901,0.002600,
1730,260,-0.321689,-4.497480,0.999998,0.000187,-0.001039,0.002492,-0.000196,0.002503,-0.001049,-86.833490,0.002514,
820,1210,0.680869,-2.030447,0.999998,0.000174,-0.001411,0.002809,-0.000326,0.002834,-0.001436,-85.613446,0.002834,
790,1130,0.795651,-2.257437,0.999998,0.000197,-0.001184,0.002626,-0.000268,0.002645,-0.001203,-85.991316,0.002649,
1200,160,0.008776,-4.822553,0.999999,0.000148,-0.000246,0.001650,0.000021,0.001650,-0.000246,89.366057,0.001780,
1100,60,0.007111,-4.979536,0.999999,0.000134,-0.000072,0.001542,0.000097,0.001548,-0.000077,86.563022,0.001744,
910,1890,0.098828,-0.260274,0.999998,0.000154,-0.000438,0.001948,-0.000273,0.001979,-0.000468,-83.554900,0.002068,
1290,1820,-0.020316,-0.345302,0.999999,0.000135,-0.000330,0.001705,0.000013,0.001705,-0.000330,89.646424,0.001809,
1450,210,-0.078024,-4.714088,0.999998,0.000186,-0.000439,0.001871,-0.000099,0.001875,-0.000443,-87.545703,0.001960,
1630,420,-0.333163,-4.171900,0.999998,0.000167,-0.001156,0.002463,0.000087,0.002465,-0.001158,88.624679,0.002466,
1700,1120,-0.830395,-2.286521,0.999998,0.000157,-0.001138,0.002533,0.000223,0.002547,-0.001151,86.532088,0.002550,
1860,470,-0.652601,-3.862751,0.999998,0.000187,-0.001245,0.002540,0.000021,0.002540,-0.001245,89.686211,0.002540,
1140,790,0.073498,-3.733710,0.999998,0.000175,-0.001117,0.001496,-0.001064,0.001874,-0.001496,-70.418691,0.001982,
830,1610,0.351850,-0.932540,0.999998,0.000178,-0.001197,0.002481,0.000093,0.002483,-0.001199,88.548540,0.002484,
580,1520,0.729038,-1.361070,0.999998,0.000164,-0.001712,0.002882,0.000196,0.002891,-0.001720,87.559673,0.002908,
1890,1980,-0.203786,-0.197877,0.999998,0.000169,-0.001032,0.003136,0.000858,0.003306,-0.001201,78.813840,0.003346,
1010,1850,0.076119,-0.316591,0.999998,0.000178,-0.000443,0.001857,-0.000110,0.001863,-0.000448,-87.271935,0.001944,
640,930,0.966650,-2.744800,0.999998,0.000178,-0.001119,0.002305,0.000159,0.002312,-0.001126,87.345379,0.002313,
1250,150,-0.004403,-4.838969,0.999999,0.000147,-0.000216,0.001623,0.000004,0.001623,-0.000216,89.863447,0.001762,
1170,1280,0.038319,-1.219144,0.999999,0.000139,-0.000823,0.001035,0.000799,0.001331,-0.001119,69.658228,0.001430,
730,1600,0.480872,-1.036258,0.999998,0.000170,-0.001254,0.002545,0.000054,0.002545,-0.001255,89.180002,0.002545,
1490,1030,-0.663668,-2.511581,0.999997,0.000204,-0.000992,0.003287,0.000000,0.003287,-0.000992,89.994987,0.003372,
1740,1440,-0.605291,-1.459127,0.999998,0.000178,-0.001359,0.002625,0.000029,0.002625,-0.001360,89.588563,0.002626,
870,1890,0.120568,-0.270539,0.999998,0.000169,-0.000595,0.002026,-0.000300,0.002060,-0.000629,-83.546073,0.002111,
1650,30,-0.011901,-5.020903,0.999999,0.000000,-0.000123,0.001758,-0.000475,0.001871,-0.000236,-76.614515,0.002038,
1400,1580,-0.118411,-0.827130,0.999999,0.000143,-0.000851,0.002033,-0.000274,0.002059,-0.000877,-84.617864,0.002066,
1620,1490,-0.403057,-1.227395,0.999997,0.000189,-0.001372,0.002619,-0.000152,0.002625,-0.001378,-87.818492,0.002626,
1610,1750,-0.241636,-0.582707,0.999998,0.000171,-0.000938,0.002254,0.000047,0.002255,-0.000939,89.159214,0.002266,
730,340,0.395289,-4.294902,0.999997,0.000196,-0.001193,0.002534,0.000022,0.002534,-0.001193,89.660481,0.002535,
1030,240,0.080983,-4.661469,0.999999,0.000148,-0.000490,0.001907,0.000044,0.001908,-0.000491,88.948893,0.001981,
1010,2010,0.010534,-0.040459,0.999998,0.000141,-0.000054,0.001550,-0.000152,0.001564,-0.000069,-84.616836,0.001768,
1070,720,0.139948,-3.705092,0.999998,0.000159,-0.001417,0.002304,-0.000864,0.002495,-0.001608,-77.542237,0.002529,
1830,1450,-0.716083,-1.499725,0.999997,0.000192,-0.001291,0.002572,0.000029,0.002572,-0.001291,89.574405,0.002572,
1400,920,-0.410935,-3.121675,0.999996,0.000212,-0.001435,0.003335,0.001528,0.003782,-0.001882,73.675900,0.003782,
1350,1370,-0.081469,-1.184593,0.999998,0.000162,-0.001020,0.001843,-0.000742,0.002023,-0.001200,-76.304817,0.002035,
890,240,0.163368,-4.620732,0.999998,0.000164,-0.000733,0.002148,0.000132,0.002154,-0.000739,87.385541,0.002190,
590,1480,0.745950,-1.455650,0.999998,0.000177,-0.001381,0.002488,0.000047,0.002488,-0.001382,89.308862,0.002493,
570,150,0.367305,-4.625802,0.999942,0.000976,-0.001143,0.002375,0.000291,0.002398,-0.001166,85.304330,0.002399,
1050,250,0.072776,-4.650677,0.999998,0.000146,-0.000503,0.001863,0.000025,0.001863,-0.000503,89.392807,0.001927,
1430,1440,-0.167488,-1.151311,0.999998,0.000168,-0.001217,0.002279,-0.000551,0.002364,-0.001301,-81.250495,0.002368,
1540,1800,-0.152320,-0.440550,0.999998,0.000171,-0.000658,0.002073,0.000124,0.002079,-0.000663,87.396238,0.002124,
960,580,0.250561,-3.889137,0.999998,0.000166,-0.001288,0.002468,-0.000351,0.002500,-0.001321,-84.705203,0.002502,
1020,870,0.382203,-3.144257,0.999998,0.000192,-0.001904,0.003435,-0.000346,0.003458,-0.001926,-86.307465,0.003465,
790,1110,0.806821,-2.309282,0.999998,0.000174,-0.001115,0.002605,-0.000242,0.002621,-0.001130,-86.295314,0.002629,
750,870,0.797131,-2.916445,0.999998,0.000167,-0.001275,0.002582,0.000271,0.002601,-0.001294,86.002809,0.002601,
920,1150,0.608084,-2.156301,0.999998,0.000203,-0.001440,0.003105,-0.000374,0.003135,-0.001470,-85.331478,0.003137,
1200,140,0.005182,-4.855346,0.999999,0.000124,-0.000208,0.001571,0.000022,0.001571,-0.000208,89.294573,0.001707,
730,880,0.831144,-2.886042,0.999998,0.000168,-0.001243,0.002544,0.000273,0.002564,-0.001262,85.898615,0.002564,
1090,1470,0.103358,-1.021206,0.999999,0.000133,-0.000949,0.001965,0.000440,0.002030,-0.001014,81.588996,0.002030,
1220,630,0.005993,-4.029175,0.999999,0.000121,-0.000585,0.001407,-0.000111,0.001413,-0.000591,-86.814663,0.001420,
1270,1820,-0.013545,-0.343396,0.999999,0.000179,-0.000352,0.001710,0.000000,0.001710,-0.000352,-89.994231,0.001806,
1000,310,0.124489,-4.517036,0.999998,0.000179,-0.000638,0.002020,0.000012,0.002020,-0.000638,89.748318,0.002065,
640,1870,0.336634,-0.422188,0.999997,0.000208,-0.001129,0.002595,-0.000256,0.002613,-0.001146,-86.084339,0.002619,
1220,40,0.000538,-5.008418,0.999999,0.000105,-0.000030,0.001479,-0.000014,0.001479,-0.000030,-89.482773,0.001690,
1010,1830,0.085517,-0.352934,0.999998,0.000166,-0.000463,0.001892,-0.000112,0.001897,-0.000469,-87.271976,0.001977,
910,1870,0.113011,-0.299226,0.999998,0.000167,-0.000490,0.001987,-0.000244,0.002011,-0.000513,-84.416176,0.002089,
1250,130,-0.004168,-4.871397,0.999999,0.000141,-0.000201,0.001584,0.000014,0.001584,-0.000201,89.539739,0.001725,
830,1590,0.361601,-0.982586,0.999998,0.000170,-0.001197,0.002497,0.000111,0.002500,-0.001200,88.274557,0.002501,
1590,1620,-0.295223,-0.875963,0.999998,0.000174,-0.001117,0.002388,-0.000102,0.002390,-0.001120,-88.342006,0.002392,
910,1020,0.720148,-2.541552,0.999998,0.000199,-0.000893,0.002811,0.000042,0.002812,-0.000894,89.347836,0.002873,
1070,1180,0.298077,-1.750167,0.999998,0.000162,-0.001663,0.002873,0.000973,0.003073,-0.001863,78.394060,0.003096,
860,1210,0.621112,-2.010740,0.999998,0.000200,-0.001528,0.002951,-0.000303,0.002972,-0.001548,-86.149097,0.002973,
1490,490,-0.208057,-4.114113,0.999998,0.000141,-0.001044,0.002269,0.000274,0.002291,-0.001066,85.311709,0.002293,
710,1600,0.505629,-1.052442,0.999998,0.000167,-0.001254,0.002530,0.000045,0.002531,-0.001255,89.320778,0.002531,
620,1880,0.343780,-0.418721,0.999998,0.000186,-0.001215,0.002625,-0.000172,0.002633,-0.001223,-87.437396,0.002635,
1400,1560,-0.119252,-0.867206,0.999998,0.000141,-0.000865,0.002034,-0.000280,0.002061,-0.000892,-84.531434,0.002067,
1600,1490,-0.375902,-1.208773,0.999997,0.000178,-0.001374,0.002602,-0.000188,0.002611,-0.001382,-87.303058,0.002612,
1720,530,-0.514637,-3.820822,0.999998,0.000200,-0.001343,0.002592,0.000046,0.002593,-0.001343,89.335610,0.002593,
710,90,0.116843,-4.891819,0.999998,0.000149,-0.000727,0.002116,0.000584,0.002232,-0.000842,78.835969,0.002254,
1610,1770,-0.228446,-0.538293,0.999998,0.000170,-0.000887,0.002296,0.000117,0.002301,-0.000892,87.895853,0.002320,
1700,580,-0.522974,-3.705603,0.999997,0.000206,-0.001369,0.002659,0.000045,0.002659,-0.001369,89.356853,0.002660,
1590,280,-0.205193,-4.525807,0.999998,0.000143,-0.000860,0.002232,-0.000090,0.002235,-0.000863,-88.335708,0.002254,
1450,190,-0.069512,-4.752016,0.999998,0.000211,-0.000382,0.001846,-0.000124,0.001853,-0.000388,-86.823394,0.001954,
1740,1420,-0.621440,-1.510918,0.999998,0.000170,-0.001361,0.002645,0.000039,0.002646,-0.001362,89.446678,0.002646,
620,670,0.785172,-3.365487,0.999998,0.000185,-0.001276,0.002537,0.000075,0.002538,-0.001278,88.866277,0.002538,
670,380,0.501305,-4.144520,0.999997,0.000178,-0.001248,0.002510,-0.000007,0.002510,-0.001248,-89.887079,0.002510,
1640,2020,-0.015055,-0.026849,0.999999,0.000000,0.000036,0.001747,0.000496,0.001880,-0.000097,74.947549,0.002117,
1890,790,-0.946544,-3.035525,0.999999,0.000171,-0.001120,0.002330,-0.000061,0.002331,-0.001121,-88.980669,0.002332,
1440,670,-0.194426,-3.744466,0.999998,0.000200,-0.001407,0.002461,0.000621,0.002558,-0.001504,81.098164,0.002571,
1000,890,0.454847,-3.030952,0.999998,0.000206,-0.001802,0.003514,-0.000040,0.003514,-0.001802,-89.567286,0.003514,
590,1470,0.754334,-1.481443,0.999998,0.000186,-0.001408,0.002493,-0.000017,0.002493,-0.001408,-89.745824,0.002500,
1010,2000,0.012644,-0.055120,0.999999,0.000127,-0.000071,0.001579,-0.000170,0.001596,-0.000089,-84.174023,0.001794,
1010,240,0.090049,-4.656554,0.999998,0.000165,-0.000493,0.001936,0.000101,0.001940,-0.000497,87.615129,0.002016,
1000,1550,0.183517,-0.938428,0.999999,0.000133,-0.001021,0.002209,0.000286,0.002234,-0.001046,84.978174,0.002235,
1200,120,0.004589,-4.885458,0.999998,0.000147,-0.000168,0.001583,0.000014,0.001583,-0.000168,89.529847,0.001740,
1670,1070,-0.822950,-2.412769,0.999998,0.000160,-0.001042,0.002556,0.000119,0.002560,-0.001046,88.115221,0.002574,
1130,440,0.063545,-4.316776,0.999998,0.000175,-0.000665,0.001874,-0.000167,0.001885,-0.000676,-86.247752,0.001910,
970,1380,0.275864,-1.385818,0.999997,0.000217,-0.001594,0.002727,0.000426,0.002769,-0.001635,84.423061,0.002784,
1520,1270,-0.409227,-1.750386,0.999997,0.000201,-0.001853,0.003147,-0.000107,0.003149,-0.001856,-88.776230,0.003166,
1540,1780,-0.161659,-0.481644,0.999998,0.000167,-0.000693,0.002131,0.000088,0.002134,-0.000695,88.209197,0.002176,
1350,1810,-0.046479,-0.370527,0.999998,0.000152,-0.000404,0.001763,0.000001,0.001763,-0.000404,89.961632,0.001848,
1090,1450,0.103431,-1.063943,0.999999,0.000139,-0.000964,0.001983,0.000501,0.002066,-0.001047,80.604322,0.002066,
1200,610,0.018612,-4.052767,0.999998,0.000140,-0.000622,0.001513,-0.000151,0.001524,-0.000633,-85.971018,0.001531,
1050,230,0.068905,-4.687440,0.999998,0.000169,-0.000474,0.001839,0.000046,0.001840,-0.000474,88.854506,0.001911,
1830,1820,-0.410729,-0.558566,0.999997,0.000225,-0.001190,0.002540,0.000092,0.002543,-0.001192,88.586099,0.002544,
1490,470,-0.201663,-4.157595,0.999998,0.000145,-0.001010,0.002222,0.000226,0.002238,-0.001026,86.013191,0.002240,
630,880,0.949480,-2.856592,0.999999,0.000138,-0.001133,0.002351,0.000151,0.002358,-0.001140,87.516524,0.002358,
1710,1840,-0.256161,-0.422651,0.999998,0.000153,-0.000887,0.002415,0.000331,0.002447,-0.000920,84.333158,0.002472,
1830,1470,-0.698848,-1.447886,0.999998,0.000187,-0.001290,0.002601,0.000023,0.002601,-0.001290,89.667181,0.002601,
1250,110,-0.003199,-4.902503,0.999999,0.000132,-0.000186,0.001563,-0.000020,0.001564,-0.000186,-89.348482,0.001708,
910,1850,0.126445,-0.340466,0.999998,0.000167,-0.000542,0.002067,-0.000229,0.002087,-0.000562,-85.023890,0.002160,
1210,40,0.000947,-5.008583,0.999999,0.000099,-0.000022,0.001501,-0.000001,0.001501,-0.000022,-89.976593,0.001720,
860,690,0.464392,-3.485847,0.999997,0.000189,-0.001583,0.002842,-0.000048,0.002842,-0.001583,-89.372676,0.002849,
790,1310,0.623067,-1.764807,0.999998,0.000180,-0.001516,0.002797,-0.000176,0.002804,-0.001523,-87.666533,0.002808,
1610,1790,-0.211302,-0.490796,0.999997,0.000192,-0.000826,0.002258,0.000148,0.002265,-0.000833,87.258327,0.002291,
750,850,0.779964,-2.969324,0.999998,0.000169,-0.001318,0.002659,0.000294,0.002680,-0.001339,85.793717,0.002680,
840,1210,0.652382,-2.023088,0.999998,0.000180,-0.001468,0.002872,-0.000308,0.002893,-0.001490,-85.954353,0.002894,
1170,1260,0.045680,-1.239714,0.999999,0.000139,-0.000902,0.000954,0.000826,0.001268,-0.001216,69.170302,0.001435,
880,380,0.258579,-4.299233,0.999998,0.000177,-0.001035,0.002335,-0.000062,0.002336,-0.001036,-88.940805,0.002341,
640,1830,0.388581,-0.526099,0.999997,0.000225,-0.001179,0.002570,-0.000147,0.002575,-0.001185,-87.762973,0.002578,
980,310,0.136928,-4.509890,0.999998,0.000161,-0.000704,0.002060,-0.000003,0.002060,-0.000704,-89.939038,0.002094,
1650,1560,-0.401120,-1.070108,0.999997,0.000178,-0.001275,0.002545,-0.000085,0.002547,-0.001277,-88.724016,0.002547,
870,240,0.180184,-4.611773,0.999998,0.000160,-0.000818,0.002196,0.000147,0.002203,-0.000825,87.215156,0.002226,
1010,1810,0.094582,-0.392175,0.999998,0.000160,-0.000492,0.001927,-0.000096,0.001931,-0.000496,-87.729353,0.002005,
1860,430,-0.622098,-3.962924,0.999998,0.000171,-0.001255,0.002501,0.000043,0.002501,-0.001256,89.348657,0.002501,
960,560,0.244840,-3.936308,0.999998,0.000162,-0.001229,0.002399,-0.000341,0.002431,-0.001261,-84.679923,0.002431,
1440,650,-0.188374,-3.793289,0.999998,0.000166,-0.001344,0.002423,0.000580,0.002510,-0.001431,81.442424,0.002518,
1640,30,-0.010465,-5.020317,0.999999,0.000000,-0.000070,0.001733,-0.000482,0.001854,-0.000190,-75.933237,0.002040,
770,560,0.500586,-3.766107,0.999998,0.000180,-0.001376,0.002641,-0.000059,0.002642,-0.001377,-89.158377,0.002643,
890,1020,0.737021,-2.540931,0.999998,0.000183,-0.000920,0.002767,0.000045,0.002767,-0.000920,89.297857,0.002818,
1740,1400,-0.636900,-1.563547,0.999998,0.000186,-0.001360,0.002653,0.000066,0.002654,-0.001361,89.055965,0.002655,
620,1640,0.589837,-1.024643,0.999997,0.000187,-0.001264,0.002525,0.000042,0.002525,-0.001264,89.370401,0.002525,
1000,870,0.419585,-3.099657,0.999997,0.000203,-0.001854,0.003451,-0.000121,0.003454,-0.001857,-88.692594,0.003457,
590,1460,0.762662,-1.506591,0.999997,0.000214,-0.001407,0.002505,-0.000033,0.002506,-0.001407,-89.523205,0.002512,
1690,1160,-0.788338,-2.181223,0.999998,0.000178,-0.001248,0.002642,0.000317,0.002667,-0.001274,85.373317,0.002668,
1610,2010,-0.024619,-0.044637,0.999999,0.000110,-0.000124,0.001724,0.000367,0.001794,-0.000194,79.179702,0.001969,
1540,1760,-0.175219,-0.525135,0.999998,0.000167,-0.000742,0.002168,0.000064,0.002169,-0.000744,88.736686,0.002205,
1670,1050,-0.828584,-2.462616,0.999998,0.000154,-0.001006,0.002519,0.000077,0.002521,-0.001007,88.742007,0.002538,
830,1570,0.372309,-1.032310,0.999998,0.000168,-0.001226,0.002494,0.000112,0.002497,-0.001229,88.275222,0.002497,
1200,100,0.002638,-4.917221,0.999998,0.000165,-0.000123,0.001557,0.000029,0.001558,-0.000123,89.022606,0.001732,
1590,1600,-0.304267,-0.923448,0.999999,0.000161,-0.001177,0.002414,-0.000138,0.002419,-0.001182,-87.809432,0.002419,
1090,1430,0.105352,-1.100231,0.999999,0.000134,-0.000997,0.001954,0.000572,0.002061,-0.001104,79.397580,0.002063,
1740,1350,-0.681259,-1.696604,0.999998,0.000180,-0.001386,0.002667,0.000136,0.002671,-0.001390,88.085750,0.002672,
610,880,0.972494,-2.848226,0.999999,0.000142,-0.001120,0.002276,0.000112,0.002280,-0.001124,88.115238,0.002280,
1170,240,0.021891,-4.685641,0.999999,0.000121,-0.000343,0.001730,0.000023,0.001730,-0.000343,89.367432,0.001832,
1740,1770,-0.356520,-0.612219,0.999998,0.000193,-0.001168,0.002529,0.000105,0.002532,-0.001171,88.367367,0.002534,
1490,450,-0.195636,-4.201402,0.999998,0.000145,-0.000986,0.002250,0.000203,0.002263,-0.000998,86.422303,0.002268,
1240,570,-0.005238,-4.118971,0.999999,0.000129,-0.000625,0.001577,0.000057,0.001578,-0.000626,88.505979,0.001590,
1250,90,-0.002151,-4.933330,0.999999,0.000124,-0.000149,0.001528,-0.000021,0.001529,-0.000149,-89.292595,0.001685,
1400,1540,-0.122815,-0.908703,0.999998,0.000138,-0.000893,0.002026,-0.000283,0.002053,-0.000920,-84.515240,0.002056,
1710,1820,-0.275752,-0.470811,0.999999,0.000132,-0.000930,0.002435,0.000267,0.002457,-0.000952,85.487835,0.002477,
630,1980,0.139124,-0.143164,0.999998,0.000177,-0.001022,0.002651,-0.000681,0.002773,-0.001144,-79.823817,0.002787,
910,1830,0.141576,-0.381238,0.999998,0.000156,-0.000578,0.002064,-0.000185,0.002077,-0.000591,-86.015670,0.002140,
1110,440,0.076003,-4.308291,0.999998,0.000211,-0.000670,0.001908,-0.000148,0.001917,-0.000678,-86.714947,0.001944,
1040,1110,0.496293,-2.112942,0.999997,0.000220,-0.001676,0.004037,0.000889,0.004172,-0.001811,81.354167,0.004184,
750,830,0.760804,-3.023474,0.999998,0.000162,-0.001341,0.002666,0.000268,0.002683,-0.001359,86.189510,0.002683,
1620,280,-0.231220,-4.510651,0.999998,0.000182,-0.000904,0.002299,-0.000133,0.002305,-0.000909,-87.633334,0.002322,
1860,1410,-0.786110,-1.624465,0.999998,0.000171,-0.001258,0.002527,0.000041,0.002527,-0.001259,89.374957,0.002527,
770,1580,0.442909,-1.056230,0.999997,0.000182,-0.001236,0.002551,0.000072,0.002552,-0.001237,88.911382,0.002553,
1800,380,-0.509673,-4.138852,0.999998,0.000180,-0.001242,0.002524,0.000024,0.002524,-0.001242,89.630498,0.002524,
1630,2020,-0.015900,-0.027891,0.999999,0.000000,0.000077,0.001729,0.000467,0.001852,-0.000046,75.251309,0.002113,
1230,180,0.000873,-4.790517,0.999999,0.000140,-0.000293,0.001662,0.000011,0.001662,-0.000293,89.678739,0.001775,
880,360,0.248347,-4.345985,0.999998,0.000159,-0.001031,0.002301,-0.000050,0.002301,-0.001032,-89.146701,0.002306,
1170,1240,0.060425,-1.256905,0.999999,0.000127,-0.001008,0.000916,0.000752,0.001175,-0.001267,70.997167,0.001413,
1020,280,0.101503,-4.583846,0.999998,0.000172,-0.000589,0.001940,0.000017,0.001940,-0.000589,89.619664,0.001989,
1080,1690,0.086501,-0.600751,0.999998,0.000161,-0.000615,0.001938,0.000062,0.001939,-0.000616,88.607267,0.001982,
600,670,0.811597,-3.350761,0.999998,0.000161,-0.001261,0.002519,0.000046,0.002519,-0.001262,89.309923,0.002519,
960,540,0.241067,-3.985405,0.999998,0.000151,-0.001204,0.002400,-0.000316,0.002428,-0.001231,-85.026579,0.002428,
810,750,0.597887,-3.273732,0.999997,0.000198,-0.001534,0.002874,0.000146,0.002879,-0.001538,88.102450,0.002881,
1740,1380,-0.654126,-1.616546,0.999998,0.000189,-0.001371,0.002665,0.000092,0.002667,-0.001373,88.696790,0.002668,
1750,1160,-0.863221,-2.196003,0.999999,0.000138,-0.001183,0.002504,0.000267,0.002524,-0.001203,85.873891,0.002525,
1780,590,-0.638560,-3.618349,0.999998,0.000161,-0.001302,0.002606,-0.000005,0.002606,-0.001302,-89.926811,0.002606,
1300,350,-0.035076,-4.490964,0.999998,0.000171,-0.000514,0.001811,0.000022,0.001811,-0.000515,89.465752,0.001866,
860,670,0.447984,-3.543413,0.999997,0.000183,-0.001551,0.002810,-0.000092,0.002812,-0.001553,-88.790409,0.002817,
1840,980,-1.002805,-2.627330,0.999998,0.000199,-0.001066,0.002225,-0.000044,0.002226,-0.001067,-89.232316,0.002227,
750,560,0.527226,-3.748169,0.999998,0.000186,-0.001339,0.002636,-0.000064,0.002637,-0.001340,-89.082783,0.002637,
650,1480,0.670546,-1.410097,0.999998,0.000172,-0.001279,0.002575,0.000002,0.002575,-0.001279,89.973420,0.002575,
1610,2000,-0.030921,-0.061412,0.999999,0.000134,-0.000146,0.001752,0.000391,0.001829,-0.000223,78.792118,0.001996,
1540,1740,-0.185258,-0.567846,0.999998,0.000181,-0.000783,0.002174,0.000009,0.002174,-0.000783,89.834572,0.002202,
1440,1750,-0.108442,-0.505478,0.999998,0.000177,-0.000632,0.001970,-0.000019,0.001971,-0.000632,-89.591632,0.002012,
1090,1410,0.105023,-1.140493,0.999999,0.000128,-0.001069,0.001995,0.000660,0.002131,-0.001205,78.351653,0.002137,
1200,80,0.003742,-4.948438,0.999999,0.000172,-0.000073,0.001533,0.000034,0.001534,-0.000074,88.782350,0.001730,
780,1150,0.790704,-2.206008,0.999998,0.000201,-0.001237,0.002645,-0.000304,0.002668,-0.001261,-85.548442,0.002670,
830,1550,0.385209,-1.082962,0.999998,0.000161,-0.001265,0.002544,0.000130,0.002548,-0.001270,88.052263,0.002548,
1490,430,-0.188456,-4.248519,0.999998,0.000144,-0.000976,0.002210,0.000173,0.002219,-0.000985,86.903878,0.002224,
1240,550,-0.005396,-4.151165,0.999999,0.000134,-0.000640,0.001615,0.000062,0.001617,-0.000642,88.432933,0.001628,
820,1510,0.423423,-1.193734,0.999998,0.000175,-0.001352,0.002598,0.000107,0.002601,-0.001355,88.446990,0.002602,
830,1340,0.534686,-1.651482,0.999997,0.000252,-0.001563,0.002836,-0.000053,0.002837,-0.001564,-89.311208,0.002842,
1250,70,-0.001565,-4.963405,0.999999,0.000126,-0.000103,0.001539,-0.000012,0.001540,-0.000103,-89.571235,0.001721,
1620,260,-0.216942,-4.554377,0.999998,0.000169,-0.000835,0.002248,-0.000165,0.002257,-0.000843,-86.941446,0.002281,
750,810,0.743906,-3.076395,0.999998,0.000160,-0.001340,0.002654,0.000268,0.002671,-0.001358,86.181019,0.002672,
1150,240,0.029481,-4.684936,0.999999,0.000129,-0.000382,0.001741,0.000012,0.001741,-0.000382,89.669414,0.001830,
880,340,0.236528,-4.391406,0.999998,0.000148,-0.000997,0.002290,-0.000032,0.002290,-0.000997,-89.442165,0.002297,
1120,770,0.087856,-3.713782,0.999998,0.000184,-0.001250,0.001809,-0.001090,0.002158,-0.001599,-72.265916,0.002239,
690,1740,0.424232,-0.714150,0.999998,0.000183,-0.001202,0.002532,-0.000048,0.002533,-0.001203,-89.256215,0.002534,
880,1310,0.479976,-1.696544,0.999997,0.000209,-0.001672,0.002991,-0.000030,0.002991,-0.001672,-89.633775,0.002998,
1010,50,0.012708,-4.990765,0.999999,0.000109,-0.000045,0.001604,0.000187,0.001625,-0.000066,83.614055,0.001839,
1020,300,0.109062,-4.542735,0.999998,0.000172,-0.000617,0.001959,-0.000016,0.001959,-0.000618,-89.647276,0.002003,
1680,1650,-0.382717,-0.869784,0.999998,0.000174,-0.001155,0.002495,-0.000031,0.002496,-0.001155,-89.518366,0.002498,
620,1600,0.619354,-1.124279,0.999998,0.000170,-0.001252,0.002517,0.000035,0.002518,-0.001252,89.473252,0.002518,
890,1000,0.733818,-2.597249,0.999998,0.000207,-0.000942,0.002758,0.000133,0.002763,-0.000946,87.941379,0.002808,
1090,720,0.113949,-3.745063,0.999998,0.000176,-0.001288,0.002102,-0.000900,0.002326,-0.001512,-76.014468,0.002361,
1400,1520,-0.125768,-0.948758,0.999999,0.000135,-0.000942,0.002034,-0.000337,0.002071,-0.000980,-83.617514,0.002072,
820,1890,0.146541,-0.280667,0.999998,0.000140,-0.000571,0.002157,-0.000375,0.002208,-0.000622,-82.304955,0.002277,
1020,1110,0.526527,-2.169046,0.999998,0.000174,-0.001536,0.003909,0.000289,0.003924,-0.001551,86.970580,0.003953,
910,1810,0.153744,-0.422818,0.999998,0.000164,-0.000635,0.002087,-0.000163,0.002096,-0.000645,-86.575020,0.002147,
1890,1410,-0.824338,-1.647623,0.999998,0.000168,-0.001286,0.002515,0.000021,0.002516,-0.001286,89.678859,0.002516,
960,520,0.230175,-4.032060,0.999999,0.000153,-0.001200,0.002371,-0.000294,0.002396,-0.001224,-85.321179,0.002396,
1170,1220,0.083976,-1.275049,0.999998,0.000167,-0.001152,0.000878,0.000473,0.000983,-0.001257,77.505538,0.001322,
1490,220,-0.100263,-4.687231,0.999998,0.000144,-0.000556,0.001947,-0.000120,0.001953,-0.000562,-87.271554,0.002011,
1760,590,-0.613500,-3.633863,0.999998,0.000165,-0.001331,0.002596,-0.000007,0.002596,-0.001331,-89.893929,0.002596,
590,670,0.823848,-3.343144,0.999998,0.000168,-0.001285,0.002510,0.000037,0.002510,-0.001286,89.435759,0.002511,
1740,30,-0.018612,-5.020361,0.999998,0.000000,-0.000225,0.002005,-0.000676,0.002194,-0.000414,-74.371746,0.002331,
800,640,0.515125,-3.574612,0.999997,0.000190,-0.001459,0.002741,-0.000009,0.002741,-0.001459,-89.874586,0.002743,
1740,1360,-0.672396,-1.670487,0.999998,0.000187,-0.001391,0.002673,0.000117,0.002677,-0.001395,88.349547,0.002678,
1840,970,-1.000558,-2.649140,0.999998,0.000192,-0.001060,0.002209,-0.000036,0.002209,-0.001060,-89.374405,0.002210,
1640,1470,-0.443733,-1.298302,0.999997,0.000190,-0.001421,0.002677,-0.000082,0.002679,-0.001422,-88.848795,0.002681,
1840,960,-0.998439,-2.671172,0.999998,0.000181,-0.001062,0.002217,-0.000049,0.002218,-0.001062,-89.152515,0.002219,
1540,1720,-0.195384,-0.611972,0.999998,0.000169,-0.000803,0.002244,0.000001,0.002244,-0.000803,89.977096,0.002274,
1370,780,-0.129240,-3.620442,0.999998,0.000164,-0.001499,0.002252,0.001064,0.002533,-0.001780,75.212289,0.002601,
1530,2010,-0.015573,-0.042624,0.999999,0.000144,-0.000042,0.001593,0.000247,0.001630,-0.000078,81.584673,0.001838,
620,1590,0.627130,-1.150784,0.999998,0.000176,-0.001260,0.002559,0.000040,0.002559,-0.001260,89.403995,0.002559,
1800,360,-0.492925,-4.189141,0.999998,0.000176,-0.001237,0.002519,0.000013,0.002519,-0.001238,89.794156,0.002519,
1750,140,-0.192544,-4.780236,0.999998,0.000165,-0.000896,0.002346,-0.000482,0.002416,-0.000966,-81.727782,0.002432,
1490,410,-0.183165,-4.289921,0.999998,0.000167,-0.000948,0.002191,0.000160,0.002199,-0.000957,87.095495,0.002205,
900,1490,0.324006,-1.174066,0.999998,0.000193,-0.001361,0.002593,0.000228,0.002607,-0.001374,86.710215,0.002608,
750,790,0.724067,-3.129355,0.999998,0.000189,-0.001364,0.002697,0.000271,0.002715,-0.001382,86.201941,0.002716,
1090,1390,0.106956,-1.181500,0.999999,0.000136,-0.001142,0.002038,0.000720,0.002194,-0.001298,77.817291,0.002206,
1200,60,0.001187,-4.978006,0.999999,0.000134,-0.000048,0.001509,0.000029,0.001510,-0.000048,88.939087,0.001716,
1370,240,-0.051291,-4.675827,0.999999,0.000143,-0.000391,0.001790,-0.000034,0.001790,-0.000392,-89.096352,0.001883,
620,1580,0.633894,-1.175669,0.999998,0.000169,-0.001265,0.002562,0.000048,0.002562,-0.001266,89.278721,0.002562,
1020,320,0.115302,-4.503381,0.999998,0.000159,-0.000644,0.002019,-0.000015,0.002019,-0.000644,-89.685472,0.002062,
1620,240,-0.199831,-4.600092,0.999998,0.000168,-0.000775,0.002271,-0.000221,0.002287,-0.000791,-85.866483,0.002323,
650,1460,0.685912,-1.460276,0.999998,0.000161,-0.001292,0.002551,-0.000023,0.002551,-0.001292,-89.660022,0.002551,
1740,2020,-0.025287,-0.030322,0.999999,0.000000,-0.000170,0.002034,0.000768,0.002276,-0.000412,72.558907,0.002425,
820,1490,0.436023,-1.246063,0.999998,0.000183,-0.001377,0.002652,0.000106,0.002655,-0.001380,88.496523,0.002656,
1470,220,-0.091436,-4.691703,0.999998,0.000169,-0.000452,0.001916,-0.000115,0.001921,-0.000457,-87.216688,0.002007,
730,1420,0.611543,-1.506406,0.999997,0.000176,-0.001367,0.002667,-0.000039,0.002667,-0.001367,-89.446897,0.002668,
1670,1030,-0.831988,-2.514932,0.999998,0.000158,-0.001017,0.002547,0.000007,0.002547,-0.001017,89.884014,0.002564,
1060,1230,0.229449,-1.634820,0.999998,0.000176,-0.001900,0.002934,0.000827,0.003072,-0.002038,80.552015,0.003126,
760,1150,0.815246,-2.211036,0.999998,0.000170,-0.001205,0.002597,-0.000287,0.002618,-0.001226,-85.713343,0.002620,
1240,1980,-0.002279,-0.083164,0.999999,0.000129,-0.000057,0.001508,0.000010,0.001508,-0.000057,89.621885,0.001709,
580,670,0.836366,-3.334815,0.999998,0.000165,-0.001456,0.002521,0.000035,0.002521,-0.001456,89.501084,0.002531,
1170,440,0.036000,-4.329799,0.999998,0.000162,-0.000611,0.001802,-0.000083,0.001804,-0.000614,-88.023808,0.001835,
830,1530,0.397125,-1.134631,0.999998,0.000169,-0.001306,0.002567,0.000136,0.002571,-0.001310,87.996534,0.002571,
670,1740,0.447666,-0.730328,0.999997,0.000186,-0.001219,0.002541,-0.000029,0.002541,-0.001219,-89.562448,0.002542,
800,680,0.549658,-3.465220,0.999997,0.000221,-0.001485,0.002764,0.000047,0.002765,-0.001485,89.368954,0.002767,
1540,1700,-0.203803,-0.658350,0.999998,0.000170,-0.000830,0.002236,-0.000008,0.002236,-0.000830,-89.859797,0.002260,
820,1870,0.168160,-0.324983,0.999998,0.000153,-0.000652,0.002190,-0.000323,0.002226,-0.000689,-83.594451,0.002279,
1220,550,0.007320,-4.149796,0.999999,0.000138,-0.000624,0.001633,-0.000066,0.001635,-0.000626,-88.317358,0.001650,
980,390,0.168974,-4.339506,0.999998,0.000166,-0.000890,0.002155,-0.000145,0.002162,-0.000897,-87.272970,0.002172,
820,970,0.788929,-2.669558,0.999998,0.000193,-0.001071,0.002622,0.000191,0.002631,-0.001081,87.039838,0.002645,
880,320,0.227203,-4.436191,0.999998,0.000149,-0.000949,0.002301,0.000022,0.002301,-0.000949,89.605058,0.002313,
600,1590,0.653293,-1.166797,0.999998,0.000167,-0.001265,0.002540,0.000037,0.002541,-0.001265,89.450062,0.002541,
1530,960,-0.663297,-2.721950,0.999998,0.000152,-0.001126,0.003046,-0.000276,0.003064,-0.001144,-86.229245,0.003096,
920,280,0.167752,-4.545639,0.999998,0.000178,-0.000695,0.002145,0.000092,0.002148,-0.000698,88.151666,0.002191,
1690,360,-0.362555,-4.274098,0.999998,0.000150,-0.001106,0.002445,-0.000009,0.002445,-0.001106,-89.846847,0.002449,
1000,50,0.012938,-4.990486,0.999999,0.000130,-0.000034,0.001616,0.000203,0.001641,-0.000059,83.097586,0.001861,
1100,770,0.115561,-3.661390,0.999998,0.000185,-0.001403,0.002112,-0.001073,0.002413,-0.001704,-74.301202,0.002481,
1570,1100,-0.701477,-2.317878,0.999997,0.000175,-0.001090,0.002844,0.000335,0.002872,-0.001119,85.171449,0.002895,
850,1340,0.500993,-1.634637,0.999998,0.000189,-0.001631,0.002863,-0.000020,0.002863,-0.001631,-89.751068,0.002872,
1090,1370,0.108586,-1.222745,0.999999,0.000128,-0.001197,0.002030,0.000777,0.002208,-0.001375,77.141870,0.002230,
1490,390,-0.174758,-4.335236,0.999998,0.000162,-0.000920,0.002198,0.000141,0.002204,-0.000926,87.410896,0.002213,
1190,1990,0.003256,-0.070073,0.999999,0.000119,-0.000067,0.001502,-0.000026,0.001502,-0.000067,-89.049445,0.001697,
710,1420,0.638557,-1.520549,0.999998,0.000187,-0.001350,0.002632,-0.000053,0.002632,-0.001351,-89.235970,0.002633,
630,1480,0.695040,-1.425553,0.999998,0.000176,-0.001273,0.002567,0.000016,0.002568,-0.001273,89.768349,0.002568,
1800,340,-0.477509,-4.241336,0.999998,0.000168,-0.001225,0.002532,0.000004,0.002532,-0.001225,89.934222,0.002532,
1740,1340,-0.690284,-1.722630,0.999998,0.000173,-0.001387,0.002654,0.000157,0.002660,-0.001393,87.784368,0.002661,
1620,220,-0.185085,-4.645036,0.999998,0.000155,-0.000714,0.002191,-0.000240,0.002211,-0.000733,-85.316484,0.002252,
1350,240,-0.045366,-4.679441,0.999999,0.000131,-0.000403,0.001760,-0.000029,0.001760,-0.000404,-89.221842,0.001844,
970,2010,0.012237,-0.042253,0.999999,0.000130,-0.000093,0.001553,-0.000192,0.001575,-0.000115,-83.425248,0.001756,
1680,1630,-0.395436,-0.919224,0.999998,0.000156,-0.001201,0.002495,-0.000062,0.002496,-0.001202,-89.034237,0.002497,
920,1210,0.526024,-1.967666,0.999998,0.000182,-0.001744,0.003155,-0.000210,0.003164,-0.001753,-87.548067,0.003170,
1790,860,-0.884373,-2.919745,0.999999,0.000131,-0.001196,0.002454,-0.000219,0.002467,-0.001209,-86.576329,0.002467,
1020,340,0.124072,-4.463215,0.999998,0.000160,-0.000708,0.002005,-0.000064,0.002007,-0.000710,-88.645519,0.002035,
900,1470,0.334415,-1.226752,0.999998,0.000159,-0.001394,0.002621,0.000240,0.002636,-0.001408,86.595464,0.002638,
1750,30,-0.021637,-5.017424,0.999999,0.000000,-0.000260,0.001986,-0.000674,0.002172,-0.000447,-74.512469,0.002294,
1700,560,-0.508571,-3.758657,0.999998,0.000197,-0.001356,0.002617,0.000060,0.002618,-0.001357,89.137279,0.002619,
1220,1810,0.004629,-0.360504,0.999998,0.000176,-0.000400,0.001692,0.000004,0.001692,-0.000400,89.877287,0.001768,
1400,1500,-0.127746,-0.988841,0.999999,0.000135,-0.000981,0.002055,-0.000418,0.002111,-0.001037,-82.308483,0.002111,
1480,650,-0.243929,-3.738152,0.999998,0.000170,-0.001471,0.002587,0.000471,0.002641,-0.001525,83.462602,0.002652,
1590,260,-0.191356,-4.569192,0.999998,0.000145,-0.000820,0.002167,-0.000110,0.002171,-0.000825,-87.888155,0.002192,
1840,940,-0.992127,-2.715517,0.999998,0.000182,-0.001070,0.002287,-0.000118,0.002291,-0.001074,-87.987793,0.002292,
1570,1080,-0.716758,-2.373374,0.999997,0.000201,-0.001003,0.002814,0.000246,0.002829,-0.001019,86.333646,0.002866,
1350,1500,-0.080766,-0.944176,0.999999,0.000130,-0.000822,0.001859,-0.000374,0.001910,-0.000873,-82.212786,0.001913,
750,770,0.702741,-3.185153,0.999998,0.000194,-0.001393,0.002705,0.000216,0.002717,-0.001405,86.993758,0.002717,
1150,440,0.049544,-4.325181,0.999999,0.000162,-0.000668,0.001832,-0.000163,0.001843,-0.000678,-86.284244,0.001864,
1800,1850,-0.338178,-0.456168,0.999997,0.000195,-0.001105,0.002559,0.000291,0.002582,-0.001128,85.486837,0.002589,
1140,1880,0.022166,-0.244021,0.999999,0.000147,-0.000270,0.001695,-0.000050,0.001696,-0.000271,-88.536603,0.001822,
690,1340,0.735593,-1.743353,0.999998,0.000174,-0.001341,0.002606,-0.000158,0.002612,-0.001347,-87.707971,0.002613,
620,1560,0.647778,-1.227783,0.999998,0.000173,-0.001273,0.002547,0.000038,0.002547,-0.001273,89.435376,0.002547,
1660,1830,-0.218904,-0.420475,0.999998,0.000181,-0.000888,0.002282,0.000237,0.002299,-0.000906,85.745178,0.002316,
660,1560,0.599195,-1.194331,0.999997,0.000192,-0.001271,0.002557,0.000051,0.002557,-0.001272,89.233128,0.002557,
1090,1350,0.109990,-1.264220,0.999998,0.000144,-0.001236,0.002086,0.000832,0.002283,-0.001432,76.700143,0.002307,
840,1910,0.117369,-0.234326,0.999999,0.000139,-0.000451,0.002035,-0.000386,0.002093,-0.000510,-81.381393,0.002183,
1700,550,-0.502262,-3.785401,0.999998,0.000193,-0.001343,0.002591,0.000058,0.002591,-0.001344,89.160933,0.002592,
850,1380,0.467225,-1.520071,0.999997,0.000214,-0.001545,0.002809,0.000038,0.002809,-0.001545,89.494564,0.002814,
990,760,0.297206,-3.439504,0.999998,0.000184,-0.001859,0.003046,-0.000429,0.003083,-0.001896,-85.038406,0.003110,
580,660,0.827791,-3.359723,0.999998,0.000165,-0.001493,0.002534,0.000057,0.002535,-0.001494,89.194418,0.002548,
920,300,0.179959,-4.503678,0.999998,0.000174,-0.000745,0.002165,0.000051,0.002166,-0.000746,89.005399,0.002200,
1880,1270,-0.929667,-1.986492,0.999999,0.000143,-0.001164,0.002373,0.000082,0.002375,-0.001166,88.664842,0.002375,
1240,1960,-0.001748,-0.113610,0.999999,0.000135,-0.000092,0.001548,-0.000010,0.001548,-0.000092,-89.639890,0.001737,
1740,1320,-0.707670,-1.776887,0.999998,0.000181,-0.001376,0.002633,0.000191,0.002642,-0.001385,87.278440,0.002643,
810,190,0.178866,-4.701714,0.999998,0.000168,-0.000764,0.002234,0.000308,0.002265,-0.000795,84.190130,0.002298,
1450,390,-0.140821,-4.357925,0.999998,0.000147,-0.000785,0.002074,0.000119,0.002078,-0.000790,87.625007,0.002098,
860,1390,0.443387,-1.483839,0.999997,0.000204,-0.001543,0.002785,0.000083,0.002787,-0.001544,88.903659,0.002792,
1570,1290,-0.478500,-1.745420,0.999997,0.000196,-0.001700,0.003018,0.000034,0.003018,-0.001700,89.592356,0.003027,
1350,1790,-0.049104,-0.404828,0.999998,0.000159,-0.000434,0.001785,-0.000007,0.001785,-0.000434,-89.824351,0.001862,
1050,210,0.061619,-4.723537,0.999998,0.000165,-0.000444,0.001801,0.000074,0.001803,-0.000447,88.104987,0.001878,
880,300,0.211421,-4.484337,0.999998,0.000166,-0.000901,0.002276,0.000060,0.002277,-0.000902,88.921508,0.002293,
580,800,0.946786,-3.017140,0.999998,0.000150,-0.001194,0.002253,0.000024,0.002253,-0.001195,89.601906,0.002254,
1670,1010,-0.829394,-2.565359,0.999998,0.000153,-0.001022,0.002531,-0.000087,0.002533,-0.001024,-88.591735,0.002549,
1040,1230,0.270088,-1.692587,0.999998,0.000167,-0.001953,0.003088,0.000652,0.003171,-0.002037,82.744589,0.003213,
1860,570,-0.726745,-3.607935,0.999998,0.000171,-0.001280,0.002582,-0.000013,0.002583,-0.001280,-89.811593,0.002583,
1060,1690,0.099242,-0.607722,0.999998,0.000154,-0.000699,0.001994,0.000116,0.001999,-0.000704,87.537402,0.002028,
830,1510,0.408471,-1.185036,0.999998,0.000177,-0.001358,0.002594,0.000104,0.002597,-0.001361,88.488994,0.002598,
1490,280,-0.129000,-4.566857,0.999998,0.000170,-0.000676,0.002034,-0.000029,0.002035,-0.000676,-89.379137,0.002072,
990,1440,0.223480,-1.203959,0.999998,0.000147,-0.001338,0.002454,0.000449,0.002507,-0.001391,83.332606,0.002512,
1200,240,0.010835,-4.688135,0.999998,0.000184,-0.000376,0.001717,-0.000005,0.001717,-0.000376,-89.855327,0.001805,
1660,2000,-0.037637,-0.063279,0.999998,0.000159,-0.000251,0.001849,0.000481,0.001954,-0.000356,77.698698,0.002081,
1750,2020,-0.026990,-0.031160,0.999999,0.000000,-0.000232,0.002033,0.000749,0.002258,-0.000457,73.262423,0.002388,
1700,540,-0.494361,-3.811033,0.999998,0.000192,-0.001329,0.002578,0.000061,0.002579,-0.001330,89.110527,0.002580,
1840,920,-0.980661,-2.761048,0.999998,0.000155,-0.001087,0.002301,-0.000126,0.002306,-0.001092,-87.878672,0.002307,
570,1710,0.621438,-0.921135,0.999596,0.002363,-0.003275,0.002256,0.000446,0.002292,-0.003310,85.421265,0.003391,
790,720,0.598809,-3.345245,0.999998,0.000149,-0.001479,0.002774,0.000133,0.002779,-0.001483,88.215235,0.002781,
1790,840,-0.868715,-2.969772,0.999998,0.000152,-0.001205,0.002466,-0.000209,0.002478,-0.001217,-86.747316,0.002478,
1390,1620,-0.103688,-0.740241,0.999998,0.000169,-0.000809,0.001970,-0.000209,0.001985,-0.000824,-85.728578,0.001995,
1880,1410,-0.811239,-1.639872,0.999998,0.000173,-0.001282,0.002516,0.000029,0.002516,-0.001283,89.563848,0.002516,
1070,360,0.090486,-4.446504,0.999998,0.000173,-0.000648,0.001928,-0.000086,0.001931,-0.000651,-88.083704,0.001965,
1810,1700,-0.501801,-0.845923,0.999997,0.000185,-0.001273,0.002512,-0.000007,0.002512,-0.001273,-89.899190,0.002512,
1630,400,-0.320141,-4.220395,0.999998,0.000146,-0.001117,0.002424,0.000059,0.002425,-0.001118,89.050193,0.002428,
1540,1680,-0.215063,-0.701299,0.999998,0.000159,-0.000867,0.002215,-0.000040,0.002216,-0.000868,-89.255500,0.002233,
1400,1480,-0.129336,-1.029371,0.999999,0.000140,-0.001032,0.002060,-0.000478,0.002133,-0.001104,-81.401317,0.002133,
560,290,0.630876,-4.245929,0.999414,0.000000,-0.004671,0.001655,-0.000515,0.001696,-0.004713,-85.377962,0.004774,
1140,1840,0.029085,-0.312507,0.999999,0.000146,-0.000348,0.001706,-0.000008,0.001706,-0.000348,-89.775219,0.001803,
1230,440,0.001479,-4.338325,0.999998,0.000163,-0.000624,0.001774,-0.000005,0.001774,-0.000624,-89.884689,0.001799,
1090,1330,0.112756,-1.305697,0.999998,0.000170,-0.001285,0.002106,0.000908,0.002334,-0.001513,75.914461,0.002368,
1380,270,-0.063828,-4.619999,0.999999,0.000128,-0.000452,0.001829,-0.000035,0.001829,-0.000452,-89.133080,0.001905,
610,400,0.591103,-4.044886,0.999998,0.000195,-0.001271,0.002510,-0.000036,0.002510,-0.001271,-89.447091,0.002510,
1610,1940,-0.084797,-0.173729,0.999999,0.000132,-0.000402,0.001969,0.000391,0.002032,-0.000465,80.875795,0.002129,
1780,1850,-0.315849,-0.441413,0.999997,0.000209,-0.001123,0.002530,0.000279,0.002551,-0.001144,85.658099,0.002556,
810,170,0.159367,-4.746145,0.999998,0.000150,-0.000676,0.002160,0.000374,0.002209,-0.000724,82.621196,0.002252,
1870,1270,-0.917915,-1.979323,0.999999,0.000132,-0.001172,0.002380,0.000095,0.002382,-0.001175,88.466362,0.002382,
650,1820,0.390024,-0.542094,0.999997,0.000210,-0.001155,0.002573,-0.000161,0.002580,-0.001162,-87.529074,0.002584,
580,650,0.819615,-3.385608,0.999998,0.000164,-0.001602,0.002691,0.000103,0.002694,-0.001604,88.619919,0.002710,
1240,1940,-0.001567,-0.143794,0.999999,0.000122,-0.000130,0.001563,-0.000013,0.001563,-0.000130,-89.553009,0.001734,
1460,1760,-0.117546,-0.491803,0.999998,0.000163,-0.000591,0.002003,0.000031,0.002003,-0.000591,89.320585,0.002058,
690,740,0.758220,-3.230898,0.999998,0.000160,-0.001324,0.002591,0.000157,0.002597,-0.001330,87.712156,0.002598,
960,500,0.223161,-4.080450,0.999999,0.000158,-0.001159,0.002330,-0.000289,0.002354,-0.001183,-85.302790,0.002354,
1570,1270,-0.499022,-1.806127,0.999997,0.000195,-0.001718,0.003063,0.000099,0.003065,-0.001720,88.818144,0.003073,
1050,190,0.054588,-4.758891,0.999999,0.000137,-0.000406,0.001785,0.000102,0.001790,-0.000411,87.350285,0.001875,
1350,1770,-0.055502,-0.441913,0.999998,0.000173,-0.000477,0.001858,-0.000007,0.001858,-0.000477,-89.836511,0.001930,
1820,1490,-0.670332,-1.387335,0.999998,0.000166,-0.001296,0.002560,-0.000024,0.002560,-0.001296,-89.636293,0.002560,
660,1540,0.611746,-1.247115,0.999998,0.000175,-0.001275,0.002592,0.000027,0.002593,-0.001275,89.594014,0.002593,
1670,990,-0.823037,-2.615210,0.999998,0.000172,-0.001058,0.002540,-0.000115,0.002544,-0.001061,-88.174172,0.002555,
880,280,0.199480,-4.529764,0.999998,0.000181,-0.000864,0.002220,0.000099,0.002223,-0.000867,88.172094,0.002241,
610,800,0.911633,-3.035727,0.999998,0.000155,-0.001201,0.002387,0.000118,0.002391,-0.001205,88.110966,0.002391,
1180,590,0.031878,-4.078498,0.999999,0.000130,-0.000666,0.001596,-0.000240,0.001621,-0.000691,-84.006342,0.001627,
1560,1270,-0.480971,-1.795004,0.999998,0.000173,-0.001763,0.003085,0.000056,0.003085,-0.001763,89.333024,0.003096,
840,1410,0.459697,-1.446252,0.999997,0.000197,-0.001518,0.002787,0.000091,0.002788,-0.001520,88.785174,0.002792,
710,70,0.088639,-4.934560,0.999998,0.000175,-0.000542,0.002169,0.000706,0.002342,-0.000715,76.238715,0.002400,
1440,210,-0.073794,-4.716867,0.999998,0.000206,-0.000439,0.001843,-0.000080,0.001846,-0.000442,-87.985216,0.001928,
1620,1690,-0.289177,-0.728820,0.999999,0.000179,-0.001004,0.002379,-0.000009,0.002379,-0.001004,-89.850025,0.002388,
1220,460,0.008226,-4.302060,0.999998,0.000155,-0.000617,0.001731,-0.000056,0.001732,-0.000618,-88.636604,0.001756,
1680,2010,-0.032954,-0.048195,0.999999,0.000145,-0.000269,0.001812,0.000509,0.001930,-0.000386,76.976340,0.002042,
1580,90,-0.052453,-4.916727,0.999999,0.000138,-0.000312,0.001806,-0.000337,0.001858,-0.000364,-81.179270,0.001969,
1840,1650,-0.578046,-0.997414,0.999998,0.000167,-0.001254,0.002504,-0.000041,0.002505,-0.001255,-89.379275,0.002505,
1050,360,0.105763,-4.437270,0.999998,0.000193,-0.000740,0.001967,-0.000107,0.001972,-0.000744,-87.745941,0.001991,
1490,370,-0.169253,-4.381038,0.999998,0.000165,-0.000901,0.002131,0.000099,0.002134,-0.000904,88.140697,0.002142,
1790,1720,-0.459002,-0.778650,0.999998,0.000165,-0.001200,0.002543,-0.000015,0.002543,-0.001200,-89.775618,0.002544,
1700,520,-0.482018,-3.862173,0.999998,0.000179,-0.001312,0.002582,0.000086,0.002584,-0.001314,88.734823,0.002584,
590,880,0.994321,-2.840709,0.999998,0.000148,-0.001080,0.002192,0.000056,0.002193,-0.001081,89.017138,0.002193,
1630,380,-0.308096,-4.268937,0.999998,0.000166,-0.001062,0.002403,0.000025,0.002403,-0.001062,89.586958,0.002408,
1380,250,-0.059408,-4.655859,0.999999,0.000146,-0.000422,0.001809,-0.000029,0.001809,-0.000422,-89.256618,0.001893,
1860,2020,-0.074247,-0.066716,0.999997,0.000000,-0.000500,0.002591,0.001133,0.002962,-0.000871,71.877284,0.003045,
1800,320,-0.461127,-4.289446,0.999998,0.000176,-0.001212,0.002524,-0.000030,0.002524,-0.001212,-89.535873,0.002525,
1840,900,-0.969602,-2.807800,0.999999,0.000143,-0.001095,0.002285,-0.000101,0.002288,-0.001098,-88.290903,0.002288,
1670,360,-0.340193,-4.290575,0.999998,0.000168,-0.001155,0.002429,0.000014,0.002429,-0.001155,89.782156,0.002430,
1090,1310,0.116862,-1.347656,0.999998,0.000189,-0.001375,0.002181,0.000968,0.002427,-0.001621,75.720227,0.002472,
1210,440,0.013483,-4.335899,0.999998,0.000155,-0.000601,0.001777,-0.000062,0.001779,-0.000603,-88.513630,0.001810,
1860,1270,-0.907339,-1.971760,0.999999,0.000121,-0.001174,0.002397,0.000113,0.002401,-0.001177,88.186822,0.002401,
740,550,0.534416,-3.766565,0.999997,0.000222,-0.001328,0.002628,-0.000039,0.002629,-0.001328,-89.439815,0.002629,
1240,1920,-0.000656,-0.175620,0.999999,0.000133,-0.000174,0.001606,-0.000002,0.001606,-0.000174,-89.944461,0.001762,
1470,1620,-0.171061,-0.790883,0.999998,0.000160,-0.000956,0.002175,-0.000217,0.002190,-0.000971,-86.055464,0.002194,
1590,1940,-0.077092,-0.171265,0.999998,0.000172,-0.000417,0.001921,0.000335,0.001968,-0.000464,81.991967,0.002057,
1350,1750,-0.057092,-0.478783,0.999998,0.000161,-0.000510,0.001818,-0.000027,0.001818,-0.000511,-89.339934,0.001876,
1860,410,-0.606715,-4.013581,0.999998,0.000171,-0.001250,0.002515,0.000046,0.002516,-0.001250,89.296635,0.002516,
1540,1660,-0.222066,-0.746629,0.999998,0.000144,-0.000943,0.002253,-0.000081,0.002256,-0.000945,-88.542676,0.002265,
630,1820,0.413862,-0.562215,0.999996,0.000231,-0.001210,0.002544,-0.000089,0.002546,-0.001212,-88.640990,0.002547,
810,150,0.136157,-4.787960,0.999998,0.000160,-0.000579,0.002125,0.000409,0.002186,-0.000640,81.590545,0.002248,
560,270,0.609290,-4.335414,0.999363,0.000000,-0.004756,0.004628,0.000545,0.004659,-0.004788,86.686102,0.005456,
1450,1670,-0.140894,-0.672322,0.999998,0.000167,-0.000745,0.002068,-0.000094,0.002071,-0.000748,-88.083273,0.002098,
1330,1500,-0.066199,-0.931807,0.999999,0.000132,-0.000739,0.001788,-0.000280,0.001819,-0.000770,-83.751098,0.001826,
680,1210,0.862875,-2.080301,0.999999,0.000150,-0.001196,0.002458,-0.000228,0.002472,-0.001211,-86.436403,0.002472,
1050,170,0.047816,-4.792829,0.999999,0.000137,-0.000342,0.001742,0.000090,0.001746,-0.000346,87.519695,0.001849,
1820,1470,-0.686390,-1.440255,0.999998,0.000183,-0.001279,0.002607,0.000016,0.002607,-0.001279,89.759314,0.002607,
750,750,0.685347,-3.237631,0.999998,0.000182,-0.001406,0.002692,0.000191,0.002701,-0.001415,87.332260,0.002702,
860,570,0.382654,-3.815514,0.999997,0.000192,-0.001373,0.002606,-0.000169,0.002614,-0.001381,-87.578748,0.002615,
1660,1810,-0.237638,-0.467613,0.999998,0.000168,-0.000946,0.002344,0.000198,0.002356,-0.000958,86.575037,0.002370,
840,1390,0.474612,-1.501775,0.999997,0.000217,-0.001525,0.002776,0.000045,0.002776,-0.001526,89.402727,0.002781,
1790,1800,-0.386050,-0.576908,0.999997,0.000229,-0.001186,0.002552,0.000159,0.002559,-0.001193,87.561893,0.002561,
1140,1820,0.031735,-0.348573,0.999999,0.000148,-0.000386,0.001730,-0.000019,0.001730,-0.000387,-89.487763,0.001816,
1570,1250,-0.522126,-1.868102,0.999998,0.000197,-0.001700,0.003085,0.000142,0.003090,-0.001704,88.297455,0.003095,
1300,1480,-0.043942,-0.948316,0.999999,0.000134,-0.000737,0.001642,-0.000299,0.001679,-0.000774,-82.943402,0.001681,
830,1710,0.288952,-0.690493,0.999998,0.000166,-0.001018,0.002388,-0.000023,0.002388,-0.001018,-89.608143,0.002397,
1460,1210,-0.372353,-1.847983,0.999998,0.000180,-0.001908,0.003409,-0.000269,0.003423,-0.001922,-87.116273,0.003431,
1670,970,-0.818212,-2.667112,0.999998,0.000152,-0.001078,0.002571,-0.000197,0.002581,-0.001089,-86.911623,0.002592,
1400,1460,-0.131100,-1.072622,0.999999,0.000140,-0.001086,0.002097,-0.000522,0.002180,-0.001169,-80.920511,0.002182,
1670,280,-0.278478,-4.484421,0.999997,0.000184,-0.001036,0.002385,-0.000124,0.002390,-0.001040,-87.920528,0.002397,
590,800,0.935252,-3.023752,0.999999,0.000145,-0.001167,0.002318,0.000067,0.002319,-0.001168,88.897647,0.002319,
880,260,0.183618,-4.572823,0.999998,0.000169,-0.000836,0.002169,0.000108,0.002173,-0.000840,87.948589,0.002192,
660,1520,0.628227,-1.298213,0.999997,0.000187,-0.001285,0.002584,0.000012,0.002584,-0.001285,89.828282,0.002584,
1170,2010,0.003106,-0.038764,0.999998,0.000152,-0.000012,0.001504,-0.000027,0.001505,-0.000012,-88.984495,0.001731,
980,410,0.176238,-4.295612,0.999998,0.000174,-0.000936,0.002178,-0.000155,0.002186,-0.000943,-87.161743,0.002193,
580,880,1.005184,-2.834866,0.999998,0.000149,-0.001056,0.002155,0.000023,0.002156,-0.001056,89.595027,0.002156,
1110,240,0.046707,-4.678842,0.999999,0.000122,-0.000432,0.001792,0.000015,0.001792,-0.000432,89.620767,0.001871,
1200,1920,0.005615,-0.177698,0.999999,0.000152,-0.000189,0.001598,-0.000018,0.001599,-0.000189,-89.409159,0.001747,
1440,190,-0.065714,-4.754119,0.999998,0.000221,-0.000372,0.001827,-0.000108,0.001832,-0.000377,-87.187813,0.001935,
1820,1650,-0.553375,-0.979515,0.999998,0.000175,-0.001270,0.002526,-0.000036,0.002526,-0.001271,-89.460127,0.002526,
1090,1290,0.126574,-1.394114,0.999998,0.000162,-0.001468,0.002268,0.001026,0.002532,-0.001732,75.609518,0.002588,
1070,700,0.135113,-3.751204,0.999998,0.000169,-0.001316,0.002267,-0.000798,0.002437,-0.001486,-77.996814,0.002456,
560,260,0.583879,-4.397817,0.999374,0.000000,-0.004868,0.003996,0.000754,0.004059,-0.004932,85.175391,0.005264,
1250,410,-0.010913,-4.391171,0.999998,0.000155,-0.000610,0.001798,0.000059,0.001799,-0.000612,88.592398,0.001830,
1840,880,-0.958366,-2.853867,0.999999,0.000147,-0.001136,0.002318,-0.000136,0.002324,-0.001142,-87.747749,0.002324,
810,130,0.116236,-4.830450,0.999998,0.000157,-0.000522,0.002067,0.000415,0.002132,-0.000587,81.107380,0.002203,
590,510,0.697626,-3.751574,0.999997,0.000187,-0.001389,0.002493,-0.000024,0.002494,-0.001389,-89.645592,0.002499,
1350,1730,-0.061391,-0.516584,0.999998,0.000166,-0.000539,0.001846,-0.000050,0.001847,-0.000540,-88.805258,0.001899,
1600,1690,-0.268615,-0.715792,0.999998,0.000145,-0.001020,0.002340,-0.000031,0.002340,-0.001021,-89.470945,0.002347,
1050,150,0.041077,-4.829187,0.999999,0.000127,-0.000304,0.001731,0.000099,0.001736,-0.000309,87.228351,0.001851,
1450,1710,-0.128892,-0.588989,0.999998,0.000150,-0.000708,0.002009,-0.000068,0.002011,-0.000710,-88.566634,0.002040,
960,480,0.218130,-4.126771,0.999999,0.000150,-0.001077,0.002298,-0.000232,0.002314,-0.001093,-86.091720,0.002315,
1080,1130,0.402418,-1.838255,0.999992,0.000310,-0.001083,0.003140,0.002043,0.003966,-0.001909,67.967463,0.003967,
1090,1940,0.022318,-0.150506,0.999999,0.000118,-0.000161,0.001639,-0.000113,0.001646,-0.000168,-86.421213,0.001812,
950,1480,0.261923,-1.150128,0.999998,0.000150,-0.001305,0.002500,0.000334,0.002529,-0.001334,85.023985,0.002531,
890,1300,0.472851,-1.718391,0.999998,0.000181,-0.001712,0.002997,-0.000007,0.002997,-0.001712,-89.913288,0.003007,
1880,320,-0.558102,-4.219531,0.999997,0.000214,-0.001216,0.002467,0.000011,0.002467,-0.001216,89.835989,0.002467,
1700,500,-0.468335,-3.913991,0.999998,0.000174,-0.001288,0.002585,0.000074,0.002587,-0.001290,88.912426,0.002587,
720,1210,0.814827,-2.066109,0.999999,0.000149,-0.001286,0.002556,-0.000275,0.002575,-0.001306,-85.919171,0.002575,
1790,1700,-0.476474,-0.828879,0.999997,0.000198,-0.001219,0.002531,0.000001,0.002531,-0.001219,89.989610,0.002532,
1610,380,-0.287171,-4.281142,0.999998,0.000166,-0.001015,0.002353,0.000033,0.002353,-0.001015,89.430406,0.002361,
700,1980,0.102298,-0.120775,0.999999,0.000138,-0.000592,0.002252,-0.000751,0.002438,-0.000778,-76.079768,0.002491,
1080,1210,0.225661,-1.627040,0.999998,0.000174,-0.001748,0.002674,0.000992,0.002886,-0.001961,77.919001,0.002947,
1140,1800,0.036035,-0.383253,0.999998,0.000156,-0.000425,0.001754,-0.000005,0.001754,-0.000425,-89.874482,0.001831,
1860,30,-0.054783,-4.996931,0.999997,0.000000,0.000010,0.002958,-0.001453,0.003554,-0.000586,-67.705392,0.003811,
1570,1230,-0.545662,-1.929169,0.999997,0.000196,-0.001667,0.003065,0.000199,0.003073,-0.001675,87.598569,0.003077,
1890,1350,-0.874307,-1.799708,0.999998,0.000149,-0.001228,0.002481,0.000061,0.002482,-0.001229,89.054482,0.002482,
1670,950,-0.805888,-2.718733,0.999998,0.000153,-0.001120,0.002585,-0.000242,0.002601,-0.001135,-86.276962,0.002608,
1540,1640,-0.230948,-0.790846,0.999998,0.000157,-0.001028,0.002281,-0.000125,0.002285,-0.001033,-87.833022,0.002289,
660,1500,0.642681,-1.349128,0.999998,0.000177,-0.001294,0.002558,0.000011,0.002558,-0.001294,89.835568,0.002558,
1400,1680,-0.099008,-0.626908,0.999998,0.000158,-0.000714,0.001975,-0.000118,0.001981,-0.000720,-87.494815,0.002005,
1890,1260,-0.950242,-2.016233,0.999999,0.000132,-0.001153,0.002312,0.000070,0.002313,-0.001155,88.839272,0.002313,
1670,800,-0.672752,-3.123435,0.999999,0.000158,-0.001435,0.002800,-0.000268,0.002817,-0.001452,-86.387212,0.002817,
1490,350,-0.159166,-4.421054,0.999998,0.000180,-0.000852,0.002084,0.000068,0.002085,-0.000854,88.665269,0.002096,
1150,2010,0.003014,-0.038111,0.999999,0.000134,-0.000016,0.001481,-0.000054,0.001483,-0.000018,-87.934422,0.001702,
880,240,0.172329,-4.615855,0.999998,0.000162,-0.000800,0.002176,0.000129,0.002182,-0.000806,87.523992,0.002206,
1180,570,0.032059,-4.109891,0.999999,0.000130,-0.000655,0.001599,-0.000198,0.001617,-0.000672,-85.022615,0.001624,
1200,1960,0.004433,-0.113949,0.999999,0.000137,-0.000128,0.001558,-0.000013,0.001558,-0.000128,-89.547941,0.001729,
710,1460,0.607197,-1.415435,0.999997,0.000199,-0.001350,0.002617,0.000004,0.002617,-0.001350,89.936605,0.002617,
570,880,1.014953,-2.829652,0.999998,0.000180,-0.001039,0.002117,0.000011,0.002117,-0.001039,89.807749,0.002117,
1070,680,0.131760,-3.795973,0.999999,0.000126,-0.001248,0.002204,-0.000739,0.002355,-0.001400,-78.406493,0.002369,
950,180,0.092339,-4.758951,0.999998,0.000171,-0.000487,0.001908,0.000183,0.001922,-0.000501,85.648450,0.001994,
1090,1270,0.137127,-1.439711,0.999998,0.000164,-0.001566,0.002322,0.001070,0.002598,-0.001841,75.582082,0.002672,
1840,860,-0.940967,-2.902123,0.999999,0.000147,-0.001169,0.002373,-0.000165,0.002380,-0.001176,-87.334828,0.002380,
1310,240,-0.028160,-4.684663,0.999999,0.000126,-0.000361,0.001735,-0.000018,0.001735,-0.000361,-89.512705,0.001831,
1010,1940,0.037835,-0.156821,0.999999,0.000147,-0.000193,0.001716,-0.000182,0.001734,-0.000210,-84.597834,0.001892,
1640,1450,-0.457250,-1.351406,0.999997,0.000188,-0.001442,0.002687,-0.000083,0.002689,-0.001443,-88.847501,0.002691,
810,110,0.095038,-4.871025,0.999999,0.000156,-0.000444,0.002017,0.000460,0.002100,-0.000528,79.748787,0.002185,
1250,430,-0.011536,-4.353819,0.999998,0.000191,-0.000630,0.001773,0.000066,0.001775,-0.000632,88.418831,0.001799,
1630,980,-0.780666,-2.642465,0.999998,0.000175,-0.001022,0.002638,-0.000167,0.002645,-0.001030,-87.391128,0.002667,
950,1460,0.270557,-1.201825,0.999998,0.000175,-0.001359,0.002522,0.000355,0.002554,-0.001391,84.818108,0.002558,
700,1210,0.840355,-2.072973,0.999998,0.000139,-0.001221,0.002504,-0.000246,0.002520,-0.001238,-86.237735,0.002520,
1430,920,-0.458084,-3.002397,0.999997,0.000204,-0.001647,0.003684,0.000542,0.003739,-0.001701,84.249546,0.003744,
1060,1210,0.261436,-1.692073,0.999997,0.000192,-0.001878,0.002944,0.000767,0.003063,-0.001997,81.182327,0.003110,
1140,1780,0.038432,-0.416981,0.999998,0.000144,-0.000464,0.001786,0.000009,0.001786,-0.000464,89.773285,0.001853,
1440,410,-0.138675,-4.322544,0.999998,0.000153,-0.000807,0.002062,0.000145,0.002070,-0.000814,87.105642,0.002085,
560,250,0.570603,-4.413135,0.999341,0.000000,-0.004350,0.001746,0.000935,0.001886,-0.004490,81.475364,0.004510,
1670,930,-0.795389,-2.770127,0.999999,0.000156,-0.001170,0.002612,-0.000248,0.002628,-0.001187,-86.258633,0.002633,
660,1480,0.657759,-1.402124,0.999998,0.000171,-0.001292,0.002581,0.000007,0.002581,-0.001292,89.893044,0.002581,
1460,1200,-0.389115,-1.883180,0.999998,0.000177,-0.001898,0.003461,-0.000229,0.003471,-0.001908,-87.557648,0.003476,
1480,1810,-0.106328,-0.397911,0.999998,0.000194,-0.000550,0.001997,0.000084,0.001999,-0.000552,88.123213,0.002065,
1050,370,0.107541,-4.417751,0.999998,0.000187,-0.000745,0.002004,-0.000106,0.002008,-0.000749,-87.802650,0.002030,
1590,1580,-0.315267,-0.973144,0.999998,0.000189,-0.001219,0.002455,-0.000167,0.002462,-0.001226,-87.398917,0.002462,
1020,1650,0.140735,-0.709500,0.999998,0.000164,-0.000801,0.002072,0.000136,0.002078,-0.000807,87.291812,0.002095,
1870,1350,-0.849998,-1.784116,0.999998,0.000166,-0.001237,0.002483,0.000047,0.002484,-0.001237,89.274840,0.002484,
1850,2020,-0.067010,-0.060594,0.999999,0.000000,-0.000835,0.002370,0.000857,0.002584,-0.001050,75.927062,0.002600,
670,920,0.926419,-2.774105,0.999999,0.000187,-0.001114,0.002380,0.000169,0.002388,-0.001123,87.240759,0.002390,
1880,1260,-0.938787,-2.009541,0.999999,0.000122,-0.001149,0.002340,0.000080,0.002342,-0.001151,88.688169,0.002342,
1400,1440,-0.132933,-1.115235,0.999999,0.000145,-0.001124,0.002107,-0.000565,0.002203,-0.001220,-80.355429,0.002208,
1860,390,-0.592596,-4.063722,0.999998,0.000154,-0.001245,0.002485,0.000058,0.002485,-0.001246,89.102025,0.002485,
750,730,0.665734,-3.292521,0.999998,0.000203,-0.001409,0.002716,0.000180,0.002724,-0.001417,87.508369,0.002725,
1350,1710,-0.062730,-0.552082,0.999998,0.000159,-0.000569,0.001849,-0.000078,0.001852,-0.000571,-88.157471,0.001897,
950,880,0.526254,-2.988852,0.999998,0.000176,-0.001661,0.003277,0.000197,0.003285,-0.001668,87.713679,0.003285,
1370,1500,-0.098646,-0.962927,0.999998,0.000161,-0.000927,0.001922,-0.000440,0.001988,-0.000994,-81.423306,0.001988,
1420,1750,-0.095103,-0.497869,0.999998,0.000179,-0.000675,0.001930,-0.000051,0.001931,-0.000676,-88.882535,0.001959,
1620,200,-0.167246,-4.689825,0.999998,0.000164,-0.000675,0.002148,-0.000284,0.002177,-0.000703,-84.319579,0.002222,
1700,480,-0.455188,-3.966994,0.999998,0.000165,-0.001267,0.002551,0.000075,0.002553,-0.001269,88.869674,0.002553,
870,180,0.132312,-4.740300,0.999999,0.000152,-0.000640,0.002049,0.000255,0.002073,-0.000664,84.622865,0.002118,
1640,1810,-0.220318,-0.458803,0.999998,0.000176,-0.000827,0.002298,0.000223,0.002314,-0.000843,85.930572,0.002342,
1480,630,-0.237028,-3.789810,0.999998,0.000162,-0.001413,0.002499,0.000459,0.002553,-0.001466,83.395746,0.002562,
880,220,0.157583,-4.659077,0.999998,0.000153,-0.000753,0.002102,0.000179,0.002113,-0.000764,86.422976,0.002140,
1620,1070,-0.772248,-2.408475,0.999998,0.000187,-0.001011,0.002619,0.000169,0.002627,-0.001018,87.337335,0.002649,
850,1150,0.702273,-2.188591,0.999998,0.000179,-0.001300,0.002796,-0.000356,0.002827,-0.001331,-85.065976,0.002829,
910,1360,0.386261,-1.517483,0.999998,0.000190,-0.001667,0.002882,0.000202,0.002891,-0.001676,87.458158,0.002903,
1300,1460,-0.043414,-0.980789,0.999999,0.000147,-0.000737,0.001633,-0.000328,0.001678,-0.000782,-82.268736,0.001679,
1020,780,0.257005,-3.439244,0.999997,0.000180,-0.001901,0.003012,-0.000627,0.003091,-0.001980,-82.837895,0.003131,
730,480,0.498772,-3.938575,0.999998,0.000177,-0.001269,0.002548,-0.000064,0.002549,-0.001270,-89.033922,0.002549,
1780,1090,-0.936072,-2.370448,0.999999,0.000131,-0.001103,0.002371,0.000100,0.002374,-0.001106,88.359270,0.002376,
1130,2010,0.004477,-0.038368,0.999999,0.000123,-0.000079,0.001485,-0.000055,0.001487,-0.000081,-88.001525,0.001673,
1570,1210,-0.570389,-1.989396,0.999998,0.000184,-0.001629,0.003066,0.000270,0.003082,-0.001644,86.716076,0.003084,
1540,1620,-0.240993,-0.838413,0.999999,0.000156,-0.001111,0.002322,-0.000187,0.002332,-0.001121,-86.897979,0.002333,
1180,730,0.027319,-3.883105,0.999998,0.000155,-0.000662,0.001126,-0.000573,0.001294,-0.000830,-73.680181,0.001311,
1090,1250,0.154048,-1.487782,0.999998,0.000188,-0.001620,0.002380,0.001116,0.002670,-0.001910,75.425355,0.002752,
1130,240,0.036926,-4.681911,0.999999,0.000145,-0.000420,0.001764,-0.000009,0.001764,-0.000420,-89.758553,0.001843,
1410,920,-0.425653,-3.073000,0.999997,0.000187,-0.001583,0.003502,0.001149,0.003749,-0.001831,77.838987,0.003750,
810,90,0.073477,-4.911779,0.999999,0.000147,-0.000369,0.001926,0.000480,0.002022,-0.000466,78.646879,0.002118,
1850,30,-0.053147,-4.997195,0.999997,0.000000,-0.000354,0.002670,-0.001165,0.003067,-0.000751,-71.188912,0.003197,
970,180,0.080725,-4.762495,0.999998,0.000144,-0.000479,0.001868,0.000172,0.001881,-0.000491,85.833180,0.001951,
1670,910,-0.778875,-2.822434,0.999999,0.000151,-0.001236,0.002665,-0.000311,0.002690,-0.001261,-85.466732,0.002692,
1210,1850,0.008317,-0.291980,0.999998,0.000191,-0.000316,0.001668,0.000005,0.001668,-0.000316,89.869431,0.001772,
1250,450,-0.010643,-4.318937,0.999998,0.000172,-0.000637,0.001765,0.000060,0.001767,-0.000638,88.569727,0.001789,
560,240,0.587528,-4.420025,0.999387,0.000000,-0.003172,0.000230,0.001535,0.000820,-0.003762,68.964142,0.003956,
1840,840,-0.926901,-2.948725,0.999999,0.000138,-0.001182,0.002348,-0.000141,0.002354,-0.001187,-87.714611,0.002354,
1460,1690,-0.141156,-0.633926,0.999998,0.000169,-0.000757,0.002095,-0.000081,0.002098,-0.000759,-88.381532,0.002124,
1440,390,-0.133533,-4.363014,0.999999,0.000136,-0.000778,0.002060,0.000119,0.002065,-0.000783,87.602806,0.002085,
1890,1490,-0.760987,-1.442755,0.999998,0.000189,-0.001281,0.002599,0.000018,0.002599,-0.001281,89.740447,0.002599,
1140,1760,0.041448,-0.453297,0.999998,0.000152,-0.000489,0.001807,0.000027,0.001807,-0.000489,89.331737,0.001869,
1820,370,-0.526757,-4.147954,0.999998,0.000184,-0.001255,0.002515,0.000025,0.002515,-0.001255,89.622743,0.002515,
1790,1280,-0.811515,-1.908136,0.999999,0.000130,-0.001258,0.002561,0.000205,0.002572,-0.001269,86.933684,0.002572,
790,1140,0.786871,-2.230408,0.999997,0.000212,-0.001220,0.002656,-0.000297,0.002679,-0.001243,-85.639487,0.002681,
1050,130,0.032801,-4.863026,0.999999,0.000137,-0.000272,0.001681,0.000110,0.001687,-0.000278,86.789401,0.001809,
1350,1690,-0.068327,-0.589647,0.999998,0.000176,-0.000605,0.001900,-0.000091,0.001903,-0.000609,-87.918657,0.001944,
1570,1580,-0.290680,-0.954871,0.999998,0.000175,-0.001148,0.002408,-0.000169,0.002416,-0.001156,-87.287956,0.002417,
1880,110,-0.273142,-4.748117,0.999998,0.000169,-0.001157,0.002728,-0.000476,0.002786,-0.001214,-83.111366,0.002793,
1770,1680,-0.468673,-0.863303,0.999997,0.000177,-0.001216,0.002534,-0.000017,0.002534,-0.001216,-89.742157,0.002535,
850,180,0.144607,-4.733664,0.999998,0.000163,-0.000582,0.002094,0.000282,0.002123,-0.000612,84.045701,0.002186,
750,710,0.647936,-3.347246,0.999998,0.000220,-0.001421,0.002720,0.000136,0.002724,-0.001425,88.125842,0.002725,
1150,1200,0.155555,-1.353803,0.999998,0.000176,-0.001079,0.000876,0.000423,0.000964,-0.001167,78.290487,0.001247,
1700,460,-0.443080,-4.016819,0.999998,0.000173,-0.001248,0.002531,0.000059,0.002532,-0.001249,89.106918,0.002532,
660,1460,0.673402,-1.452469,0.999998,0.000160,-0.001296,0.002577,-0.000010,0.002577,-0.001296,-89.845638,0.002577,
570,1190,1.005011,-2.178166,0.999999,0.000147,-0.001039,0.002209,-0.000031,0.002210,-0.001039,-89.446916,0.002211,
670,1480,0.644590,-1.392740,0.999998,0.000181,-0.001306,0.002590,0.000011,0.002590,-0.001306,89.844806,0.002590,
1420,1890,-0.048842,-0.239470,0.999998,0.000164,-0.000332,0.001782,0.000099,0.001786,-0.000337,87.329656,0.001898,
1640,1430,-0.470558,-1.405841,0.999997,0.000201,-0.001461,0.002703,-0.000061,0.002704,-0.001462,-89.157362,0.002707,
1630,1940,-0.092092,-0.175188,0.999999,0.000127,-0.000349,0.002005,0.000423,0.002079,-0.000423,80.116262,0.002197,
1020,1810,0.088811,-0.390619,0.999998,0.000174,-0.000531,0.001903,-0.000090,0.001906,-0.000534,-87.877729,0.001967,
1780,1070,-0.939701,-2.417781,0.999999,0.000132,-0.001097,0.002347,0.000071,0.002348,-0.001098,88.819616,0.002350,
1460,1180,-0.421896,-1.951625,0.999998,0.000178,-0.001862,0.003475,-0.000143,0.003479,-0.001865,-88.462480,0.003482,
880,200,0.142373,-4.701349,0.999998,0.000171,-0.000696,0.002094,0.000222,0.002111,-0.000714,85.484807,0.002148,
1620,830,-0.630925,-3.063412,0.999997,0.000179,-0.001495,0.002879,-0.000290,0.002898,-0.001514,-86.224872,0.002899,
1120,2010,0.005079,-0.039131,0.999999,0.000143,-0.000062,0.001494,-0.000064,0.001496,-0.000065,-87.641380,0.001692,
600,1770,0.504838,-0.717928,0.999998,0.000180,-0.001227,0.002463,-0.000008,0.002463,-0.001227,-89.880100,0.002463,
1570,1190,-0.596074,-2.051210,0.999998,0.000169,-0.001556,0.003043,0.000311,0.003064,-0.001577,86.145621,0.003064,
870,420,0.291556,-4.198537,0.999998,0.000181,-0.001113,0.002391,-0.000091,0.002394,-0.001115,-88.516898,0.002395,
1400,1400,-0.137728,-1.199669,0.999998,0.000142,-0.001206,0.002191,-0.000644,0.002309,-0.001325,-79.612888,0.002317,
1090,1230,0.173607,-1.535229,0.999998,0.000186,-0.001669,0.002467,0.001114,0.002748,-0.001950,75.844458,0.002827,
1410,900,-0.382299,-3.143281,0.999997,0.000184,-0.001647,0.003303,0.000893,0.003460,-0.001804,80.075875,0.003461,
810,70,0.051955,-4.949530,0.999999,0.000137,-0.000266,0.001891,0.000492,0.001998,-0.000373,77.735450,0.002125,
670,460,0.560345,-3.941675,0.999997,0.000181,-0.001242,0.002508,-0.000038,0.002509,-0.001243,-89.415906,0.002509,
1440,40,-0.009651,-5.006523,0.999999,0.000132,-0.000051,0.001513,-0.000122,0.001523,-0.000060,-85.561237,0.001725,
1670,1330,-0.599809,-1.706861,0.999998,0.000171,-0.001489,0.002783,0.000118,0.002786,-0.001492,88.416946,0.002789,
1700,1150,-0.810953,-2.210579,0.999998,0.000169,-0.001221,0.002602,0.000303,0.002626,-0.001245,85.501573,0.002627,
1300,1680,-0.038079,-0.594654,0.999998,0.000146,-0.000546,0.001784,-0.000041,0.001785,-0.000547,-88.982512,0.001829,
1550,1940,-0.063098,-0.165310,0.999998,0.000152,-0.000253,0.001867,0.000323,0.001915,-0.000302,81.516851,0.002059,
1140,1690,0.049264,-0.579778,0.999998,0.000145,-0.000604,0.001847,0.000095,0.001851,-0.000607,87.792826,0.001887,
1800,300,-0.442475,-4.341439,0.999998,0.000190,-0.001197,0.002564,-0.000080,0.002566,-0.001199,-88.783049,0.002567,
840,1040,0.783694,-2.487142,0.999998,0.000195,-0.000975,0.002635,-0.000065,0.002636,-0.000976,-88.968113,0.002666,
1760,1090,-0.913802,-2.369518,0.999998,0.000164,-0.001105,0.002436,0.000127,0.002441,-0.001110,87.944533,0.002444,
1880,1490,-0.748405,-1.435187,0.999997,0.000203,-0.001277,0.002590,0.000005,0.002590,-0.001277,89.923127,0.002590,
620,1540,0.664334,-1.278389,0.999998,0.000172,-0.001276,0.002543,0.000022,0.002543,-0.001276,89.672548,0.002543,
800,1210,0.708754,-2.038710,0.999998,0.000165,-0.001362,0.002775,-0.000316,0.002799,-0.001386,-85.662060,0.002799,
1550,1580,-0.269978,-0.940846,0.999998,0.000170,-0.001126,0.002381,-0.000163,0.002388,-0.001133,-87.345071,0.002389,
1000,430,0.163416,-4.266172,0.999998,0.000184,-0.000926,0.002152,-0.000194,0.002164,-0.000938,-86.414810,0.002170,
1050,800,0.219674,-3.450905,0.999998,0.000193,-0.001887,0.002900,-0.000802,0.003031,-0.002018,-80.735174,0.003086,
560,230,0.537947,-4.410421,0.999597,0.000000,-0.002352,0.000655,0.001461,0.001248,-0.002945,67.913462,0.002956,
1200,730,0.014090,-3.901382,0.999999,0.000141,-0.000577,0.001010,-0.000370,0.001092,-0.000659,-77.493837,0.001100,
960,460,0.211615,-4.171607,0.999998,0.000160,-0.000982,0.002267,-0.000170,0.002276,-0.000991,-87.013553,0.002282,
1250,470,-0.012708,-4.283961,0.999998,0.000165,-0.000652,0.001737,0.000058,0.001738,-0.000653,88.618127,0.001756,
1730,1520,-0.532016,-1.240124,0.999997,0.000195,-0.001296,0.002608,-0.000034,0.002609,-0.001296,-89.498688,0.002609,
1350,1670,-0.069922,-0.628373,0.999998,0.000187,-0.000641,0.001852,-0.000117,0.001858,-0.000646,-87.328911,0.001886,
1050,90,0.018660,-4.929312,0.999999,0.000140,-0.000175,0.001602,0.000118,0.001610,-0.000183,86.209964,0.001763,
680,1390,0.705388,-1.620098,0.999998,0.000178,-0.001341,0.002603,-0.000078,0.002604,-0.001343,-88.868032,0.002605,
1460,1160,-0.458778,-2.021269,0.999998,0.000187,-0.001793,0.003518,-0.000043,0.003518,-0.001794,-89.540258,0.003519,
1740,1540,-0.529959,-1.196092,0.999998,0.000170,-0.001282,0.002574,-0.000057,0.002575,-0.001283,-89.155208,0.002575,
660,1440,0.688404,-1.505420,0.999998,0.000179,-0.001301,0.002578,-0.000039,0.002579,-0.001301,-89.422886,0.002579,
1770,1660,-0.484669,-0.913900,0.999998,0.000164,-0.001222,0.002532,-0.000027,0.002532,-0.001222,-89.589313,0.002532,
670,1460,0.659338,-1.445581,0.999998,0.000168,-0.001309,0.002597,-0.000006,0.002597,-0.001309,-89.917317,0.002597,
1140,1740,0.043795,-0.489794,0.999998,0.000148,-0.000548,0.001802,0.000044,0.001803,-0.000549,88.932338,0.001848,
630,1120,0.980873,-2.310567,0.999998,0.000189,-0.001097,0.002295,-0.000138,0.002300,-0.001102,-87.681753,0.002301,
1420,2010,-0.008715,-0.039838,0.999999,0.000149,-0.000085,0.001521,0.000094,0.001527,-0.000091,86.656373,0.001713,
880,420,0.280249,-4.204059,0.999998,0.000166,-0.001086,0.002368,-0.000104,0.002371,-0.001089,-88.275519,0.002373,
870,440,0.300193,-4.150731,0.999999,0.000168,-0.001130,0.002403,-0.000116,0.002406,-0.001134,-88.127400,0.002408,
1210,1830,0.008829,-0.324254,0.999998,0.000154,-0.000349,0.001720,0.000026,0.001720,-0.000350,89.273235,0.001818,
1500,770,-0.354894,-3.366030,0.999998,0.000191,-0.001838,0.003114,0.000248,0.003126,-0.001851,87.145099,0.003143,
710,240,0.325753,-4.530986,0.999997,0.000192,-0.001141,0.002525,0.000162,0.002532,-0.001148,87.472018,0.002535,
1860,310,-0.524470,-4.262397,0.999998,0.000197,-0.001228,0.002500,0.000011,0.002500,-0.001228,89.835486,0.002500,
1840,250,-0.439199,-4.433528,0.999997,0.000210,-0.001221,0.002527,-0.000036,0.002528,-0.001221,-89.450914,0.002528,
1450,40,-0.009866,-5.006667,0.999999,0.000114,-0.000005,0.001505,-0.000135,0.001518,-0.000017,-84.914572,0.001743,
1680,1150,-0.784602,-2.205918,0.999999,0.000175,-0.001204,0.002652,0.000314,0.002677,-0.001230,85.373876,0.002680,
1740,1710,-0.409342,-0.763294,0.999998,0.000182,-0.001194,0.002517,0.000012,0.002517,-0.001194,89.817578,0.002518,
1530,1940,-0.057640,-0.163288,0.999999,0.000154,-0.000279,0.001832,0.000282,0.001869,-0.000316,82.522014,0.002001,
1400,1890,-0.041684,-0.236706,0.999998,0.000132,-0.000315,0.001764,0.000078,0.001767,-0.000318,87.849719,0.001884,
1140,330,0.045912,-4.523277,0.999998,0.000180,-0.000568,0.001842,-0.000055,0.001843,-0.000569,-88.692487,0.001887,
1670,1350,-0.581713,-1.650058,0.999997,0.000209,-0.001486,0.002788,0.000081,0.002789,-0.001487,88.917078,0.002792,
1090,1210,0.207860,-1.587504,0.999997,0.000182,-0.001625,0.002489,0.001125,0.002777,-0.001913,75.657466,0.002842,
1770,1280,-0.787142,-1.899616,0.999999,0.000152,-0.001301,0.002590,0.000208,0.002601,-0.001312,86.944574,0.002601,
940,1550,0.249795,-0.989440,0.999998,0.000160,-0.001173,0.002372,0.000243,0.002389,-0.001190,86.093063,0.002389,
1000,1290,0.281986,-1.595913,0.999997,0.000223,-0.001889,0.003004,0.000504,0.003055,-0.001940,84.174805,0.003092,
840,1080,0.770496,-2.382889,0.999998,0.000158,-0.001042,0.002658,-0.000229,0.002672,-0.001056,-86.471020,0.002692,
1620,810,-0.608229,-3.121491,0.999998,0.000186,-0.001553,0.002930,-0.000249,0.002944,-0.001567,-86.832735,0.002946,
1400,1380,-0.138901,-1.242491,0.999998,0.000140,-0.001277,0.002218,-0.000709,0.002356,-0.001416,-78.952063,0.002372,
1490,330,-0.150964,-4.463502,0.999998,0.000181,-0.000813,0.002127,0.000032,0.002127,-0.000813,89.379220,0.002147,
1700,440,-0.429571,-4.067525,0.999998,0.000180,-0.001229,0.002516,0.000063,0.002517,-0.001230,89.030781,0.002517,
1300,1440,-0.043709,-1.013640,0.999999,0.000143,-0.000727,0.001585,-0.000377,0.001645,-0.000787,-80.963582,0.001646,
1800,280,-0.423183,-4.392234,0.999997,0.000183,-0.001177,0.002553,-0.000093,0.002555,-0.001180,-88.573341,0.002558,
1880,100,-0.252482,-4.774115,0.999998,0.000154,-0.001145,0.002833,-0.000559,0.002910,-0.001222,-82.145161,0.002922,
1790,960,-0.945814,-2.678616,0.999999,0.000148,-0.001104,0.002364,-0.000108,0.002368,-0.001108,-88.212935,0.002369,
780,1210,0.735877,-2.046234,0.999998,0.000171,-0.001354,0.002731,-0.000313,0.002755,-0.001377,-85.648301,0.002755,
620,1520,0.678202,-1.329894,0.999998,0.000169,-0.001276,0.002564,0.000016,0.002564,-0.001276,89.765899,0.002564,
1190,1300,0.022143,-1.170189,0.999998,0.000149,-0.000599,0.000926,0.000551,0.001105,-0.000777,72.075669,0.001135,
1800,1650,-0.527919,-0.964365,0.999997,0.000184,-0.001256,0.002544,-0.000038,0.002544,-0.001256,-89.432639,0.002544,
1010,1440,0.197111,-1.180219,0.999999,0.000132,-0.001326,0.002375,0.000486,0.002438,-0.001389,82.649776,0.002446,
1460,1140,-0.498395,-2.091695,0.999998,0.000182,-0.001672,0.003592,0.000002,0.003592,-0.001672,89.982637,0.003595,
1410,2010,-0.007537,-0.039829,0.999999,0.000144,-0.000070,0.001542,0.000093,0.001547,-0.000075,86.712860,0.001745,
1740,1300,-0.727504,-1.828486,0.999998,0.000174,-0.001373,0.002675,0.000212,0.002686,-0.001384,87.003461,0.002686,
980,430,0.181989,-4.253049,0.999998,0.000177,-0.000979,0.002205,-0.000192,0.002217,-0.000990,-86.570454,0.002221,
880,180,0.125480,-4.743667,0.999998,0.000154,-0.000640,0.002032,0.000248,0.002055,-0.000663,84.744684,0.002098,
960,440,0.206632,-4.216132,0.999998,0.000166,-0.000940,0.002233,-0.000185,0.002244,-0.000950,-86.674281,0.002253,
660,1420,0.705480,-1.556028,0.999998,0.000189,-0.001276,0.002578,-0.000058,0.002579,-0.001277,-89.140245,0.002579,
980,1290,0.320263,-1.632226,0.999997,0.000261,-0.001856,0.003084,0.000357,0.003109,-0.001882,85.891790,0.003132,
610,1120,1.002959,-2.315031,0.999998,0.000165,-0.001067,0.002239,-0.000123,0.002244,-0.001072,-87.876838,0.002244,
1460,1750,-0.121306,-0.512276,0.999998,0.000175,-0.000609,0.002030,0.000019,0.002030,-0.000609,89.577056,0.002084,
890,320,0.215526,-4.444194,0.999998,0.000164,-0.000941,0.002282,0.000007,0.002282,-0.000941,89.882063,0.002293,
1350,1650,-0.072884,-0.665752,0.999998,0.000173,-0.000663,0.001883,-0.000153,0.001892,-0.000672,-86.561667,0.001918,
1360,590,-0.091005,-4.018180,0.999998,0.000146,-0.000934,0.001912,0.000464,0.001986,-0.001008,80.964418,0.001986,
920,1730,0.192369,-0.591350,0.999997,0.000219,-0.000789,0.002229,-0.000017,0.002229,-0.000789,-89.671674,0.002261,
850,590,0.407085,-3.753367,0.999998,0.000178,-0.001413,0.002663,-0.000131,0.002667,-0.001417,-88.155667,0.002669,
590,920,1.016061,-2.751374,0.999998,0.000166,-0.001071,0.002244,0.000085,0.002246,-0.001073,88.525425,0.002247,
1670,1370,-0.561379,-1.595277,0.999998,0.000204,-0.001487,0.002777,0.000047,0.002778,-0.001487,89.372774,0.002780,
1460,40,-0.009764,-5.006449,0.999999,0.000117,0.000022,0.001513,-0.000169,0.001532,0.000003,-83.595800,0.001771,
1540,770,-0.429444,-3.312110,0.999998,0.000169,-0.001804,0.003074,0.000059,0.003075,-0.001805,89.303537,0.003090,
1510,1940,-0.052070,-0.162223,0.999999,0.000136,-0.000296,0.001810,0.000230,0.001834,-0.000320,83.845756,0.001960,
750,690,0.628865,-3.401344,0.999997,0.000238,-0.001444,0.002722,0.000107,0.002725,-0.001447,88.527899,0.002727,
1300,1400,-0.041762,-1.075983,0.999999,0.000163,-0.000732,0.001513,-0.000454,0.001601,-0.000820,-78.999106,0.001602,
1380,790,-0.151704,-3.568739,0.999998,0.000190,-0.001637,0.002430,0.001037,0.002679,-0.001886,76.495586,0.002753,
1050,70,0.015780,-4.959853,0.999999,0.000145,-0.000135,0.001580,0.000120,0.001589,-0.000144,86.006721,0.001757,
1250,1290,-0.007812,-1.154107,0.999999,0.000137,-0.000565,0.000719,-0.000271,0.000774,-0.000620,-78.568235,0.000819,
1800,260,-0.403544,-4.443229,0.999997,0.000188,-0.001154,0.002522,-0.000151,0.002528,-0.001160,-87.658011,0.002531,
1090,1190,0.243207,-1.638590,0.999998,0.000181,-0.001416,0.002345,0.001158,0.002673,-0.001744,74.186465,0.002714,
1140,1720,0.046177,-0.525530,0.999998,0.000165,-0.000579,0.001800,0.000058,0.001801,-0.000581,88.593181,0.001839,
560,220,0.436227,-4.402997,0.999912,0.000000,-0.001667,0.001715,0.001055,0.002017,-0.001969,74.022120,0.002302,
760,1210,0.762938,-2.052644,0.999998,0.000155,-0.001321,0.002676,-0.000302,0.002698,-0.001344,-85.696850,0.002698,
1490,310,-0.142111,-4.506529,0.999998,0.000202,-0.000751,0.002094,-0.000001,0.002094,-0.000751,-89.975136,0.002122,
1700,420,-0.414876,-4.118409,0.999997,0.000191,-0.001213,0.002531,0.000047,0.002531,-0.001214,89.287013,0.002532,
1130,1620,0.064099,-0.714556,0.999998,0.000154,-0.000679,0.001848,0.000178,0.001861,-0.000691,86.001315,0.001881,
1030,800,0.258193,-3.399385,0.999998,0.000173,-0.001938,0.003021,-0.000642,0.003102,-0.002020,-82.744643,0.003149,
1460,1120,-0.533358,-2.166182,0.999997,0.000184,-0.001550,0.003684,0.000013,0.003684,-0.001550,89.862113,0.003699,
1590,1220,-0.589698,-1.972444,0.999998,0.000192,-0.001574,0.002995,0.000281,0.003013,-0.001591,86.499915,0.003014,
1740,1260,-0.764850,-1.935324,0.999999,0.000162,-0.001349,0.002592,0.000251,0.002608,-0.001365,86.364705,0.002609,
620,1500,0.694837,-1.379361,0.999998,0.000183,-0.001269,0.002577,0.000017,0.002577,-0.001270,89.749563,0.002577,
960,420,0.198523,-4.261123,0.999998,0.000167,-0.000930,0.002203,-0.000156,0.002210,-0.000938,-87.161215,0.002219,
1400,1360,-0.144317,-1.289499,0.999998,0.000166,-0.001364,0.002329,-0.000770,0.002484,-0.001518,-78.681917,0.002504,
1650,340,-0.303402,-4.351896,0.999998,0.000174,-0.001106,0.002437,-0.000035,0.002437,-0.001107,-89.442022,0.002440,
1840,310,-0.500535,-4.281583,0.999997,0.000201,-0.001204,0.002491,0.000016,0.002491,-0.001204,89.745879,0.002491,
620,1810,0.437583,-0.596328,0.999997,0.000209,-0.001208,0.002521,-0.000052,0.002521,-0.001209,-89.202255,0.002522,
930,860,0.529382,-3.033148,0.999998,0.000170,-0.001693,0.003231,0.000235,0.003242,-0.001704,87.273951,0.003244,
790,880,0.756072,-2.902198,0.999998,0.000188,-0.001252,0.002661,0.000323,0.002687,-0.001279,85.316495,0.002688,
1280,1690,-0.026805,-0.574203,0.999998,0.000172,-0.000534,0.001785,-0.000047,0.001786,-0.000535,-88.833622,0.001833,
1140,1890,0.021245,-0.228349,0.999998,0.000140,-0.000254,0.001658,-0.000060,0.001660,-0.000256,-88.201283,0.001788,
1360,1510,-0.090013,-0.933705,0.999998,0.000162,-0.000866,0.001879,-0.000406,0.001938,-0.000925,-81.762801,0.001939,
1210,240,0.007164,-4.688184,0.999998,0.000175,-0.000374,0.001709,-0.000016,0.001709,-0.000374,-89.562826,0.001797,
1310,1240,-0.077997,-1.302063,0.999998,0.000159,-0.001058,0.001207,-0.000950,0.001553,-0.001404,-69.995778,0.001714,
1020,350,0.125546,-4.443584,0.999998,0.000165,-0.000727,0.001985,-0.000090,0.001988,-0.000730,-88.107062,0.002011,
880,140,0.094268,-4.822743,0.999998,0.000159,-0.000494,0.001960,0.000304,0.001997,-0.000531,83.035768,0.002069,
850,570,0.396604,-3.804619,0.999998,0.000178,-0.001371,0.002595,-0.000143,0.002600,-0.001376,-87.938090,0.002602,
660,1400,0.721857,-1.609116,0.999998,0.000173,-0.001265,0.002613,-0.000069,0.002614,-0.001266,-88.981483,0.002614,
1530,1580,-0.247823,-0.924927,0.999998,0.000169,-0.001133,0.002372,-0.000188,0.002382,-0.001143,-86.942926,0.002382,
1470,1220,-0.375112,-1.834514,0.999998,0.000188,-0.001930,0.003342,-0.000208,0.003350,-0.001938,-87.742187,0.003364,
1350,1630,-0.071629,-0.702524,0.999998,0.000182,-0.000661,0.001887,-0.000162,0.001898,-0.000671,-86.387341,0.001924,
1880,90,-0.230039,-4.803089,0.999998,0.000156,-0.001135,0.002984,-0.000649,0.003083,-0.001235,-81.253206,0.003104,
950,1380,0.307984,-1.412078,0.999997,0.000183,-0.001588,0.002788,0.000361,0.002818,-0.001617,85.318079,0.002828,
1400,2010,-0.006148,-0.039206,0.999999,0.000139,-0.000054,0.001557,0.000091,0.001562,-0.000059,86.771220,0.001770,
900,1750,0.197318,-0.556134,0.999997,0.000209,-0.000812,0.002192,-0.000064,0.002193,-0.000814,-88.787535,0.002218,
580,920,1.026697,-2.748326,0.999998,0.000141,-0.001030,0.002217,0.000058,0.002218,-0.001031,88.980725,0.002220,
1670,1390,-0.547778,-1.539622,0.999997,0.000199,-0.001470,0.002778,0.000001,0.002778,-0.001470,89.981979,0.002780,
750,890,0.814317,-2.866056,0.999998,0.000149,-0.001230,0.002583,0.000292,0.002605,-0.001252,85.646455,0.002606,
1540,750,-0.408651,-3.373296,0.999998,0.000200,-0.001807,0.003041,0.000126,0.003045,-0.001810,88.509634,0.003063,
1300,1380,-0.040429,-1.105855,0.999999,0.000156,-0.000730,0.001443,-0.000497,0.001551,-0.000839,-77.708015,0.001553,
1800,240,-0.378994,-4.493549,0.999997,0.000197,-0.001151,0.002548,-0.000202,0.002559,-0.001162,-86.889323,0.002563,
740,1570,0.487992,-1.106224,0.999997,0.000208,-0.001303,0.002560,0.000074,0.002562,-0.001304,88.897722,0.002562,
560,210,0.443928,-4.445381,0.999898,0.000000,-0.000590,0.002308,0.000130,0.002313,-0.000596,87.431040,0.002402,
1040,1980,0.017913,-0.087367,0.999999,0.000125,-0.000135,0.001610,-0.000144,0.001622,-0.000146,-85.323486,0.001794,
740,1210,0.788201,-2.060223,0.999998,0.000163,-0.001298,0.002626,-0.000275,0.002645,-0.001318,-86.011187,0.002645,
1700,400,-0.401256,-4.168924,0.999998,0.000168,-0.001189,0.002526,0.000042,0.002527,-0.001189,89.346606,0.002528,
1250,1270,-0.011175,-1.168917,0.999998,0.000154,-0.000683,0.000617,-0.000291,0.000679,-0.000745,-77.941225,0.000825,
1490,290,-0.134033,-4.547235,0.999998,0.000187,-0.000705,0.002035,-0.000025,0.002036,-0.000706,-89.473176,0.002067,
1170,300,0.027799,-4.581962,0.999999,0.000127,-0.000423,0.001754,0.000009,0.001754,-0.000423,89.761864,0.001830,
1090,1170,0.293919,-1.678718,0.999998,0.000166,-0.001075,0.002152,0.001275,0.002595,-0.001518,70.838879,0.002608,
1460,1100,-0.569548,-2.241949,0.999997,0.000204,-0.001446,0.003762,0.000000,0.003762,-0.001446,-89.996345,0.003796,
1110,1620,0.077082,-0.722505,0.999999,0.000140,-0.000664,0.001863,0.000153,0.001873,-0.000673,86.539396,0.001897,
1140,1700,0.048557,-0.561845,0.999998,0.000151,-0.000610,0.001813,0.000085,0.001816,-0.000613,87.998473,0.001848,
960,400,0.189752,-4.305150,0.999998,0.000172,-0.000940,0.002212,-0.000122,0.002217,-0.000944,-87.779192,0.002225,
1310,1220,-0.102685,-1.326239,0.999997,0.000189,-0.001069,0.001092,-0.000712,0.001306,-0.001282,-73.298286,0.001494,
1430,1520,-0.154556,-0.974967,0.999998,0.000142,-0.001036,0.002175,-0.000380,0.002219,-0.001080,-83.339860,0.002219,
1120,1690,0.062419,-0.588000,0.999998,0.000144,-0.000621,0.001875,0.000098,0.001879,-0.000625,87.753331,0.001914,
1000,40,0.009290,-5.006749,0.999999,0.000141,-0.000004,0.001618,0.000207,0.001644,-0.000030,82.851464,0.001881,
810,860,0.710720,-2.962940,0.999999,0.000192,-0.001352,0.002776,0.000329,0.002802,-0.001378,85.467593,0.002802,
660,1380,0.739758,-1.659682,0.999998,0.000189,-0.001278,0.002568,-0.000091,0.002571,-0.001280,-88.647148,0.002571,
1740,1240,-0.783888,-1.989078,0.999999,0.000148,-0.001333,0.002625,0.000246,0.002641,-0.001348,86.451626,0.002641,
620,1480,0.708044,-1.433760,0.999998,0.000176,-0.001270,0.002547,0.000024,0.002548,-0.001270,89.633361,0.002548,
880,120,0.078306,-4.860352,0.999999,0.000151,-0.000421,0.001913,0.000323,0.001957,-0.000465,82.272807,0.002044,
1450,280,-0.104268,-4.579467,0.999998,0.000167,-0.000586,0.001967,-0.000033,0.001967,-0.000586,-89.255640,0.002020,
1220,350,0.006866,-4.499053,0.999998,0.000184,-0.000552,0.001766,-0.000018,0.001767,-0.000552,-89.548371,0.001807,
1860,270,-0.485744,-4.362469,0.999997,0.000189,-0.001216,0.002479,-0.000029,0.002479,-0.001216,-89.549409,0.002480,
1090,2010,0.005806,-0.039060,0.999999,0.000111,-0.000037,0.001517,-0.000094,0.001523,-0.000043,-86.542994,0.001735,
1710,1800,-0.295610,-0.522274,0.999998,0.000161,-0.000974,0.002462,0.000209,0.002475,-0.000987,86.540156,0.002491,
850,550,0.385386,-3.857825,0.999998,0.000182,-0.001357,0.002595,-0.000164,0.002602,-0.001364,-87.627715,0.002603,
1470,1200,-0.407005,-1.902506,0.999998,0.000192,-0.001871,0.003425,-0.000127,0.003428,-0.001874,-88.626421,0.003433,
1550,900,-0.612284,-2.894772,0.999998,0.000191,-0.001441,0.003067,-0.000369,0.003097,-0.001471,-85.356164,0.003099,
1510,1580,-0.223544,-0.908437,0.999998,0.000153,-0.001094,0.002315,-0.000239,0.002332,-0.001110,-86.008931,0.002332,
1800,220,-0.357753,-4.544221,0.999997,0.000185,-0.001124,0.002553,-0.000259,0.002571,-0.001142,-85.989052,0.002577,
930,1760,0.169038,-0.524142,0.999998,0.000160,-0.000737,0.002115,-0.000064,0.002117,-0.000739,-88.713259,0.002149,
570,920,1.036871,-2.743838,0.999997,0.000185,-0.001003,0.002196,0.000036,0.002196,-0.001003,89.362273,0.002199,
1350,1850,-0.037946,-0.299235,0.999999,0.000139,-0.000333,0.001750,0.000049,0.001751,-0.000335,88.662175,0.001859,
1250,1250,-0.016019,-1.179679,0.999999,0.000146,-0.000880,0.000530,-0.000256,0.000575,-0.000925,-80.031177,0.000934,
560,200,0.441734,-4.480792,0.999895,0.000000,0.000132,0.002557,-0.000637,0.002715,-0.000025,-76.132702,0.003120,
900,1730,0.208479,-0.600677,0.999998,0.000173,-0.000880,0.002260,-0.000009,0.002260,-0.000880,-89.841289,0.002278,
1670,1830,-0.227778,-0.425710,0.999998,0.000172,-0.000939,0.002287,0.000235,0.002304,-0.000956,85.862458,0.002315,
1190,300,0.018870,-4.582544,0.999999,0.000126,-0.000440,0.001747,-0.000007,0.001747,-0.000440,-89.814912,0.001817,
760,220,0.254022,-4.607657,0.999998,0.000159,-0.000914,0.002368,0.000318,0.002399,-0.000944,84.515962,0.002417,
960,380,0.183982,-4.349188,0.999998,0.000164,-0.000926,0.002180,-0.000122,0.002185,-0.000931,-87.762137,0.002193,
1520,770,-0.392510,-3.337827,0.999997,0.000183,-0.001848,0.003109,0.000174,0.003115,-0.001854,87.992510,0.003134,
1090,1620,0.090806,-0.729953,0.999998,0.000165,-0.000743,0.001930,0.000170,0.001941,-0.000753,86.369203,0.001957,
1140,1680,0.050529,-0.599323,0.999998,0.000152,-0.000606,0.001867,0.000103,0.001871,-0.000610,87.608501,0.001909,
1700,380,-0.388476,-4.219566,0.999998,0.000162,-0.001146,0.002471,0.000012,0.002471,-0.001146,89.806005,0.002473,
1490,270,-0.123720,-4.588160,0.999998,0.000159,-0.000656,0.002020,-0.000035,0.002021,-0.000656,-89.258695,0.002062,
810,880,0.731467,-2.908045,0.999998,0.000189,-0.001304,0.002731,0.000335,0.002758,-0.001331,85.291275,0.002759,
1300,1360,-0.039947,-1.131903,0.999999,0.000149,-0.000738,0.001405,-0.000571,0.001548,-0.000881,-75.971585,0.001553,
1460,1080,-0.598123,-2.315303,0.999997,0.000203,-0.001361,0.003736,-0.000052,0.003737,-0.001362,-89.419171,0.003782,
1090,870,0.253873,-3.390666,0.999998,0.000184,-0.001373,0.002256,-0.001137,0.002583,-0.001700,-73.961984,0.002626,
620,1210,0.935402,-2.105226,0.999999,0.000137,-0.001152,0.002353,-0.000150,0.002359,-0.001159,-87.557843,0.002359,
1870,1760,-0.521532,-0.748368,0.999998,0.000188,-0.001214,0.002454,-0.000001,0.002454,-0.001214,-89.977600,0.002454,
1040,1960,0.023625,-0.120494,0.999999,0.000148,-0.000179,0.001643,-0.000130,0.001652,-0.000188,-85.935659,0.001809,
780,1290,0.656571,-1.826211,0.999998,0.000169,-0.001464,0.002762,-0.000215,0.002773,-0.001475,-87.088989,0.002774,
880,100,0.062343,-4.899588,0.999999,0.000149,-0.000361,0.001857,0.000331,0.001905,-0.000410,81.691618,0.002006,
1430,280,-0.092915,-4.587666,0.999998,0.000164,-0.000578,0.001933,-0.000001,0.001933,-0.000578,-89.982738,0.001984,
1360,610,-0.092046,-3.980259,0.999998,0.000137,-0.000950,0.001893,0.000491,0.001975,-0.001033,80.481563,0.001976,
970,1040,0.663393,-2.480172,0.999998,0.000204,-0.001009,0.003327,-0.000049,0.003327,-0.001010,-89.350962,0.003412,
1030,780,0.238123,-3.459943,0.999998,0.000162,-0.001866,0.002958,-0.000700,0.003057,-0.001965,-81.912081,0.003099,
850,530,0.372251,-3.910660,0.999998,0.000172,-0.001332,0.002583,-0.000157,0.002589,-0.001339,-87.701920,0.002590,
1080,2010,0.006277,-0.038320,0.999999,0.000121,-0.000043,0.001528,-0.000089,0.001533,-0.000048,-86.771206,0.001743,
910,40,0.013069,-5.005136,0.999999,0.000105,-0.000045,0.001635,0.000301,0.001687,-0.000098,80.140311,0.001895,
1740,1220,-0.801508,-2.039820,0.999998,0.000151,-0.001293,0.002574,0.000264,0.002592,-0.001311,86.108816,0.002592,
1840,290,-0.481833,-4.331940,0.999997,0.000197,-0.001213,0.002534,-0.000013,0.002534,-0.001214,-89.794085,0.002534,
850,1940,0.085393,-0.173697,0.999998,0.000153,-0.000381,0.001957,-0.000395,0.002022,-0.000446,-80.668514,0.002125,
1800,200,-0.331061,-4.596293,0.999998,0.000177,-0.001093,0.002577,-0.000305,0.002602,-0.001119,-85.287844,0.002611,
660,1360,0.758005,-1.711140,0.999998,0.000195,-0.001316,0.002531,-0.000102,0.002534,-0.001319,-88.477336,0.002535,
570,1420,0.824430,-1.623591,0.999958,0.000774,-0.001725,0.002617,-0.000038,0.002617,-0.001725,-89.502659,0.002661,
1320,1690,-0.047792,-0.580350,0.999998,0.000155,-0.000589,0.001839,-0.000077,0.001842,-0.000592,-88.177762,0.001881,
600,1110,1.018436,-2.340798,0.999998,0.000163,-0.001042,0.002181,-0.000059,0.002183,-0.001043,-88.958127,0.002183,
1400,1340,-0.148709,-1.338129,0.999998,0.000156,-0.001453,0.002360,-0.000824,0.002531,-0.001624,-78.307577,0.002565,
620,1460,0.724118,-1.483010,0.999998,0.000174,-0.001270,0.002537,-0.000010,0.002537,-0.001270,-89.851789,0.002537,
560,190,0.416375,-4.488222,0.999906,0.000000,-0.000192,0.002838,-0.000237,0.002856,-0.000210,-85.550219,0.003184,
1880,1650,-0.628319,-1.030326,0.999998,0.000163,-0.001181,0.002508,-0.000039,0.002509,-0.001182,-89.393160,0.002510,
1740,1750,-0.374459,-0.663669,0.999998,0.000187,-0.001179,0.002512,0.000058,0.002513,-0.001180,89.100486,0.002515,
1660,1150,-0.762063,-2.200809,0.999998,0.000167,-0.001195,0.002692,0.000316,0.002717,-0.001221,85.375004,0.002722,
610,1820,0.437917,-0.582789,0.999997,0.000206,-0.001201,0.002504,-0.000052,0.002505,-0.001202,-89.195344,0.002506,
1090,860,0.233664,-3.415118,0.999998,0.000179,-0.001515,0.002377,-0.001124,0.002678,-0.001816,-74.999324,0.002734,
1540,1890,-0.092696,-0.258020,0.999999,0.000143,-0.000382,0.001912,0.000258,0.001941,-0.000410,83.655281,0.002045,
1350,1610,-0.075571,-0.740855,0.999998,0.000174,-0.000673,0.001857,-0.000159,0.001867,-0.000683,-86.410732,0.001889,
920,320,0.190153,-4.460166,0.999998,0.000176,-0.000787,0.002195,0.000006,0.002195,-0.000787,89.881586,0.002224,
1880,600,-0.775957,-3.514898,0.999998,0.000181,-0.001283,0.002571,0.000002,0.002571,-0.001283,89.968425,0.002571,
1000,670,0.227395,-3.708727,0.999998,0.000161,-0.001526,0.002603,-0.000536,0.002671,-0.001595,-82.729135,0.002688,
1570,1170,-0.621577,-2.110423,0.999998,0.000182,-0.001465,0.003029,0.000365,0.003059,-0.001495,85.386805,0.003059,
1690,1500,-0.493025,-1.259919,0.999997,0.000203,-0.001374,0.002635,-0.000051,0.002635,-0.001374,-89.265755,0.002636,
1670,1810,-0.246918,-0.473997,0.999998,0.000173,-0.000991,0.002371,0.000187,0.002381,-0.001001,86.830908,0.002391,
800,1980,0.061861,-0.102580,0.999998,0.000158,-0.000284,0.001909,-0.000496,0.002016,-0.000391,-77.829597,0.002138,
1710,320,-0.355298,-4.360007,0.999998,0.000180,-0.001081,0.002511,-0.000055,0.002512,-0.001082,-89.122954,0.002520,
1460,1060,-0.617710,-2.392118,0.999997,0.000206,-0.001322,0.003967,-0.000036,0.003967,-0.001323,-89.606992,0.004039,
1300,1340,-0.038957,-1.158958,0.999999,0.000154,-0.000755,0.001329,-0.000646,0.001512,-0.000939,-74.108348,0.001527,
810,840,0.690270,-3.019391,0.999998,0.000152,-0.001411,0.002811,0.000304,0.002833,-0.001432,85.899385,0.002833,
960,360,0.174150,-4.390768,0.999998,0.000174,-0.000892,0.002138,-0.000081,0.002140,-0.000894,-88.467647,0.002149,
1870,1750,-0.531923,-0.773820,0.999997,0.000192,-0.001202,0.002478,-0.000013,0.002478,-0.001202,-89.802304,0.002479,
1090,850,0.216253,-3.440309,0.999998,0.000186,-0.001619,0.002457,-0.001117,0.002743,-0.001905,-75.640931,0.002811,
930,560,0.282954,-3.907522,0.999998,0.000155,-0.001324,0.002498,-0.000286,0.002519,-0.001345,-85.749795,0.002521,
880,80,0.046155,-4.934678,0.999998,0.000140,-0.000265,0.001786,0.000336,0.001839,-0.000319,80.935957,0.001966,
660,1210,0.888241,-2.087915,0.999998,0.000140,-0.001218,0.002425,-0.000204,0.002436,-0.001229,-86.805156,0.002436,
970,1020,0.665572,-2.544913,0.999998,0.000187,-0.001013,0.003286,0.000009,0.003286,-0.001013,89.873737,0.003366,
840,1290,0.565484,-1.787632,0.999997,0.000212,-0.001594,0.002908,-0.000142,0.002912,-0.001599,-88.197221,0.002917,
1240,610,-0.005132,-4.059364,0.999999,0.000119,-0.000578,0.001442,0.000062,0.001444,-0.000580,88.234353,0.001453,
1530,900,-0.582790,-2.908678,0.999998,0.000181,-0.001489,0.003160,-0.000351,0.003186,-0.001515,-85.711482,0.003187,
850,510,0.362074,-3.961479,0.999998,0.000178,-0.001287,0.002505,-0.000157,0.002511,-0.001294,-87.633707,0.002512,
1740,1200,-0.818756,-2.090450,0.999998,0.000152,-0.001256,0.002529,0.000257,0.002546,-0.001274,86.132091,0.002546,
1140,1660,0.053632,-0.636439,0.999998,0.000160,-0.000628,0.001840,0.000132,0.001847,-0.000635,86.939011,0.001877,
1230,1620,0.002051,-0.693091,0.999998,0.000165,-0.000581,0.001770,-0.000018,0.001770,-0.000581,-89.563794,0.001805,
1070,2010,0.006268,-0.038892,0.999999,0.000143,-0.000041,0.001536,-0.000094,0.001541,-0.000047,-86.591260,0.001753,
1710,1860,-0.231983,-0.373790,0.999998,0.000168,-0.000815,0.002384,0.000391,0.002431,-0.000862,83.137725,0.002465,
870,540,0.352079,-3.901507,0.999998,0.000166,-0.001307,0.002579,-0.000180,0.002588,-0.001315,-87.355656,0.002588,
870,1140,0.686365,-2.210811,0.999998,0.000172,-0.001281,0.002844,-0.000354,0.002874,-0.001312,-85.124457,0.002878,
1260,1690,-0.016162,-0.571196,0.999998,0.000161,-0.000549,0.001776,-0.000057,0.001778,-0.000550,-88.593351,0.001820,
1640,1150,-0.736150,-2.195729,0.999998,0.000166,-0.001252,0.002734,0.000330,0.002761,-0.001279,85.294957,0.002763,
1740,1730,-0.391926,-0.713630,0.999998,0.000178,-0.001183,0.002482,0.000031,0.002482,-0.001183,89.509717,0.002483,
1140,40,0.001736,-5.008873,0.999999,0.000126,-0.000014,0.001517,0.000024,0.001517,-0.000015,89.102803,0.001744,
1700,360,-0.374027,-4.267062,0.999998,0.000158,-0.001099,0.002451,-0.000025,0.002451,-0.001100,-89.598963,0.002455,
1400,1320,-0.154550,-1.384325,0.999998,0.000159,-0.001531,0.002417,-0.000854,0.002594,-0.001708,-78.295993,0.002637,
1490,250,-0.115774,-4.627680,0.999998,0.000153,-0.000622,0.001995,-0.000080,0.001998,-0.000624,-88.253078,0.002044,
590,1420,0.794374,-1.609573,0.999999,0.000144,-0.001344,0.002575,-0.000044,0.002575,-0.001344,-89.361112,0.002576,
1840,270,-0.461089,-4.382531,0.999997,0.000213,-0.001215,0.002529,-0.000030,0.002529,-0.001215,-89.537922,0.002530,
1870,1650,-0.616055,-1.021927,0.999998,0.000164,-0.001216,0.002511,-0.000034,0.002512,-0.001216,-89.472541,0.002512,
1070,860,0.269830,-3.336994,0.999997,0.000189,-0.001780,0.002862,-0.000905,0.003032,-0.001950,-79.346550,0.003073,
620,1440,0.739756,-1.535242,0.999998,0.000195,-0.001283,0.002592,-0.000020,0.002592,-0.001283,-89.707992,0.002592,
1730,620,-0.595994,-3.575319,0.999997,0.000182,-0.001373,0.002653,-0.000022,0.002653,-0.001373,-89.684116,0.002654,
1060,590,0.133384,-3.974510,0.999998,0.000157,-0.001077,0.002098,-0.000511,0.002178,-0.001158,-81.077892,0.002180,
1350,1570,-0.078981,-0.815370,0.999999,0.000125,-0.000695,0.001881,-0.000233,0.001902,-0.000716,-84.863965,0.001921,
1500,1890,-0.076023,-0.250860,0.999999,0.000132,-0.000480,0.001855,0.000188,0.001870,-0.000495,85.434193,0.001938,
1800,1770,-0.427865,-0.660786,0.999997,0.000205,-0.001218,0.002533,0.000080,0.002535,-0.001219,88.778844,0.002536,
1450,220,-0.082423,-4.696071,0.999998,0.000164,-0.000457,0.001882,-0.000092,0.001885,-0.000461,-87.740420,0.001966,
690,560,0.607991,-3.701236,0.999998,0.000172,-0.001299,0.002595,-0.000010,0.002595,-0.001299,-89.855606,0.002595,
960,340,0.166076,-4.434230,0.999998,0.000179,-0.000843,0.002154,-0.000062,0.002155,-0.000844,-88.812754,0.002172,
1800,180,-0.306016,-4.648642,0.999998,0.000184,-0.001050,0.002573,-0.000408,0.002618,-0.001096,-83.648522,0.002630,
1300,1320,-0.038918,-1.184273,0.999998,0.000156,-0.000781,0.001244,-0.000741,0.001487,-0.001023,-71.898834,0.001521,
660,1610,0.561565,-1.068184,0.999998,0.000173,-0.001269,0.002525,0.000040,0.002526,-0.001269,89.401752,0.002526,
660,1340,0.773497,-1.761600,0.999998,0.000161,-0.001301,0.002561,-0.000133,0.002566,-0.001305,-88.033551,0.002566,
1090,830,0.182121,-3.491667,0.999998,0.000182,-0.001690,0.002454,-0.001102,0.002729,-0.001964,-76.000394,0.002815,
980,670,0.258008,-3.681189,0.999998,0.000152,-0.001549,0.002691,-0.000477,0.002744,-0.001602,-83.665933,0.002757,
1670,1790,-0.266800,-0.520812,0.999997,0.000193,-0.001038,0.002382,0.000158,0.002390,-0.001045,87.360141,0.002396,
1080,1190,0.260362,-1.680343,0.999997,0.000191,-0.001620,0.002642,0.001057,0.002890,-0.001868,76.813201,0.002931,
760,240,0.274591,-4.562685,0.999998,0.000162,-0.000980,0.002413,0.000264,0.002434,-0.001000,85.571567,0.002447,
1040,1940,0.031087,-0.154050,0.999999,0.000143,-0.000238,0.001675,-0.000139,0.001685,-0.000248,-85.861548,0.001819,
1460,1040,-0.630823,-2.473364,0.999997,0.000228,-0.001331,0.004003,-0.000035,0.004003,-0.001332,-89.629416,0.004077,
880,60,0.030175,-4.970421,0.999999,0.000120,-0.000193,0.001716,0.000352,0.001779,-0.000256,79.867252,0.001923,
1870,1410,-0.798310,-1.632477,0.999998,0.000191,-0.001268,0.002519,0.000038,0.002519,-0.001269,89.425941,0.002519,
1020,2010,0.010521,-0.040943,0.999998,0.000143,-0.000050,0.001552,-0.000145,0.001565,-0.000063,-84.871803,0.001771,
1250,1230,-0.023347,-1.189175,0.999998,0.000148,-0.001274,0.000636,-0.000127,0.000645,-0.001282,-86.222531,0.001282,
860,770,0.537909,-3.251451,0.999997,0.000183,-0.001658,0.002979,0.000129,0.002983,-0.001661,88.403427,0.002989,
850,490,0.351418,-4.010004,0.999998,0.000163,-0.001234,0.002487,-0.000147,0.002493,-0.001240,-87.747717,0.002493,
1740,1180,-0.835588,-2.142758,0.999998,0.000172,-0.001234,0.002580,0.000264,0.002598,-0.001252,86.061404,0.002599,
560,180,0.397509,-4.509461,0.999902,0.000000,-0.000442,0.003173,-0.000194,0.003184,-0.000452,-86.938062,0.003445,
1060,1810,0.066634,-0.378073,0.999998,0.000176,-0.000472,0.001847,-0.000030,0.001847,-0.000472,-89.255071,0.001919,
1640,1130,-0.755228,-2.250627,0.999998,0.000178,-0.001189,0.002722,0.000324,0.002749,-0.001216,85.297184,0.002755,
1700,340,-0.357738,-4.316596,0.999997,0.000177,-0.001086,0.002464,-0.000033,0.002465,-0.001086,-89.469707,0.002470,
1500,40,-0.010351,-5.005491,0.999999,0.000125,-0.000123,0.001588,-0.000208,0.001612,-0.000148,-83.176310,0.001783,
580,1420,0.806392,-1.616871,0.999998,0.000154,-0.001581,0.002596,-0.000035,0.002596,-0.001581,-89.521357,0.002617,
1860,1650,-0.603796,-1.014048,0.999998,0.000181,-0.001248,0.002518,-0.000024,0.002519,-0.001248,-89.631894,0.002519,
1490,230,-0.105522,-4.666916,0.999998,0.000144,-0.000581,0.001963,-0.000112,0.001968,-0.000586,-87.484889,0.002021,
620,1420,0.757689,-1.586651,0.999997,0.000200,-0.001291,0.002548,-0.000027,0.002548,-0.001291,-89.591462,0.002548,
1020,760,0.240092,-3.496298,0.999998,0.000171,-0.001814,0.002903,-0.000646,0.002990,-0.001901,-82.339674,0.003027,
1810,50,-0.066707,-4.974411,0.999999,0.000138,-0.000394,0.002238,-0.000909,0.002522,-0.000677,-72.677871,0.002610,
1300,1300,-0.041016,-1.208311,0.999998,0.000162,-0.000812,0.001197,-0.000827,0.001494,-0.001109,-70.261121,0.001551,
1350,1550,-0.080040,-0.851965,0.999998,0.000137,-0.000743,0.001887,-0.000259,0.001913,-0.000769,-84.429123,0.001925,
870,520,0.341988,-3.953822,0.999998,0.000203,-0.001269,0.002519,-0.000169,0.002527,-0.001277,-87.446343,0.002527,
950,1040,0.683464,-2.481862,0.999998,0.000189,-0.000943,0.003079,-0.000071,0.003080,-0.000944,-88.991584,0.003156,
1880,1200,-0.985321,-2.147764,0.999998,0.000142,-0.001134,0.002277,0.000081,0.002279,-0.001136,88.640652,0.002279,
1080,1170,0.307061,-1.730902,0.999998,0.000153,-0.001331,0.002487,0.001209,0.002838,-0.001681,73.829998,0.002854,
590,1850,0.424138,-0.530062,0.999997,0.000204,-0.001301,0.002500,-0.000079,0.002502,-0.001303,-88.807011,0.002502,
1840,820,-0.912573,-2.995088,0.999999,0.000138,-0.001184,0.002357,-0.000143,0.002363,-0.001189,-87.690517,0.002363,
660,1320,0.792874,-1.813288,0.999999,0.000144,-0.001276,0.002563,-0.000151,0.002569,-0.001282,-87.758156,0.002569,
1460,1020,-0.628907,-2.548901,0.999996,0.000240,-0.001304,0.003943,0.000016,0.003943,-0.001304,89.821019,0.004017,
1400,350,-0.094005,-4.463763,0.999998,0.000167,-0.000669,0.001940,0.000074,0.001942,-0.000671,88.377495,0.001972,
1510,1780,-0.141456,-0.468840,0.999998,0.000147,-0.000739,0.002059,0.000063,0.002061,-0.000740,88.703616,0.002088,
930,420,0.226807,-4.241500,0.999998,0.000146,-0.001004,0.002267,-0.000149,0.002274,-0.001011,-87.392308,0.002278,
1810,1340,-0.783437,-1.767365,0.999998,0.000171,-0.001270,0.002537,0.000119,0.002541,-0.001274,88.215751,0.002541,
1800,160,-0.270189,-4.701161,0.999998,0.000197,-0.000988,0.002609,-0.000517,0.002682,-0.001061,-81.975053,0.002702,
1840,2020,-0.056768,-0.051146,0.999999,0.000000,-0.000974,0.002242,0.000727,0.002399,-0.001130,77.839312,0.002400,
700,1960,0.130974,-0.161969,0.999998,0.000149,-0.000773,0.002227,-0.000626,0.002353,-0.000899,-78.673370,0.002375,
570,1340,0.887029,-1.826073,0.999988,0.000430,-0.001502,0.002480,0.000091,0.002482,-0.001504,88.684362,0.002500,
1260,1670,-0.015828,-0.606706,0.999998,0.000166,-0.000583,0.001780,-0.000058,0.001781,-0.000584,-88.601617,0.001816,
1650,960,-0.790086,-2.693852,0.999997,0.000182,-0.001087,0.002650,-0.000253,0.002667,-0.001104,-86.138522,0.002680,
1530,880,-0.553494,-2.972105,0.999998,0.000171,-0.001601,0.003192,-0.000268,0.003207,-0.001616,-86.813488,0.003207,
740,1490,0.543496,-1.313255,0.999998,0.000181,-0.001359,0.002635,0.000029,0.002636,-0.001359,89.584125,0.002636,
1670,1770,-0.283431,-0.569362,0.999998,0.000188,-0.001079,0.002403,0.000111,0.002407,-0.001083,88.174372,0.002411,
970,1300,0.328670,-1.616320,0.999997,0.000216,-0.001796,0.003058,0.000329,0.003080,-0.001818,86.142744,0.003097,
870,1990,0.037183,-0.078286,0.999999,0.000140,-0.000223,0.001774,-0.000382,0.001844,-0.000293,-79.527460,0.001982,
1790,1060,-0.953188,-2.442423,0.999998,0.000177,-0.001083,0.002349,0.000066,0.002350,-0.001084,88.903460,0.002352,
1080,1890,0.038652,-0.234289,0.999998,0.000166,-0.000238,0.001710,-0.000090,0.001715,-0.000242,-87.363531,0.001856,
1070,840,0.233815,-3.393393,0.999998,0.000179,-0.001819,0.002800,-0.000864,0.002956,-0.001975,-79.739786,0.003012,
1400,1300,-0.163552,-1.433519,0.999998,0.000163,-0.001634,0.002536,-0.000865,0.002708,-0.001806,-78.737288,0.002758,
1740,1160,-0.852257,-2.194117,0.999998,0.000152,-0.001190,0.002536,0.000279,0.002557,-0.001211,85.735819,0.002558,
1260,1810,-0.011335,-0.360940,0.999998,0.000167,-0.000361,0.001711,0.000003,0.001711,-0.000361,89.909850,0.001804,
1140,1860,0.025925,-0.280238,0.999999,0.000154,-0.000291,0.001717,-0.000028,0.001717,-0.000291,-89.188030,0.001838,
1040,1920,0.038349,-0.185587,0.999999,0.000135,-0.000278,0.001687,-0.000117,0.001694,-0.000285,-86.599506,0.001814,
1250,830,-0.024140,-3.848443,0.999998,0.000160,-0.001444,0.000704,0.000074,0.000706,-0.001446,88.027110,0.001446,
760,260,0.295490,-4.512724,0.999998,0.000167,-0.001024,0.002440,0.000199,0.002451,-0.001035,86.720400,0.002461,
630,140,0.274395,-4.726093,0.999998,0.000172,-0.001203,0.002650,0.000342,0.002681,-0.001233,84.961546,0.002683,
1280,730,-0.025698,-3.886570,0.999999,0.000137,-0.000638,0.001082,0.000542,0.001239,-0.000795,73.888338,0.001255,
560,280,0.644008,-4.242432,0.999418,0.000000,-0.004809,0.003282,0.000101,0.003283,-0.004811,89.287935,0.004916,
1210,1810,0.008077,-0.359763,0.999998,0.000160,-0.000379,0.001686,0.000007,0.001686,-0.000379,89.803741,0.001769,
1490,40,-0.008712,-5.006718,0.999999,0.000115,-0.000103,0.001558,-0.000213,0.001585,-0.000130,-82.801797,0.001760,
1750,1540,-0.543009,-1.204220,0.999998,0.000163,-0.001312,0.002566,-0.000054,0.002567,-0.001313,-89.204368,0.002567,
1550,110,-0.060398,-4.884291,0.999999,0.000151,-0.000245,0.001851,-0.000295,0.001892,-0.000285,-82.144595,0.002040,
670,1060,0.956356,-2.442929,0.999999,0.000133,-0.001087,0.002349,-0.000067,0.002350,-0.001088,-88.878335,0.002352,
1300,1280,-0.043487,-1.233416,0.999998,0.000176,-0.000863,0.001120,-0.000878,0.001453,-0.001195,-69.242806,0.001550,
620,1620,0.604971,-1.075537,0.999998,0.000174,-0.001241,0.002487,0.000041,0.002487,-0.001242,89.367737,0.002487,
1190,240,0.015429,-4.687355,0.999998,0.000183,-0.000359,0.001727,0.000008,0.001727,-0.000359,89.774781,0.001822,
1620,180,-0.150014,-4.731069,0.999998,0.000163,-0.000601,0.002116,-0.000321,0.002153,-0.000638,-83.363382,0.002212,
1350,1530,-0.080575,-0.889653,0.999998,0.000146,-0.000798,0.001848,-0.000299,0.001882,-0.000832,-83.636617,0.001886,
720,990,0.901446,-2.611731,0.999998,0.000135,-0.001069,0.002426,0.000079,0.002427,-0.001071,88.706724,0.002433,
1020,740,0.228046,-3.555706,0.999998,0.000167,-0.001719,0.002784,-0.000668,0.002881,-0.001816,-81.736271,0.002913,
960,320,0.158439,-4.478903,0.999998,0.000167,-0.000812,0.002140,-0.000028,0.002140,-0.000812,-89.455921,0.002161,
850,470,0.340974,-4.061217,0.999998,0.000163,-0.001218,0.002509,-0.000117,0.002512,-0.001221,-88.200826,0.002513,
1570,1150,-0.648691,-2.172944,0.999998,0.000186,-0.001345,0.003009,0.000352,0.003037,-0.001373,85.404053,0.003042,
1460,1000,-0.623135,-2.628882,0.999997,0.000209,-0.001302,0.004005,0.000047,0.004005,-0.001302,89.491422,0.004086,
1820,110,-0.203495,-4.818781,0.999998,0.000171,-0.000944,0.002591,-0.000587,0.002686,-0.001039,-80.816215,0.002708,
590,1840,0.437284,-0.554332,0.999997,0.000177,-0.001429,0.002572,-0.000064,0.002573,-0.001430,-89.081931,0.002579,
660,1740,0.459922,-0.738998,0.999997,0.000198,-0.001232,0.002540,-0.000015,0.002540,-0.001232,-89.775394,0.002540,
1840,800,-0.896409,-3.042682,0.999999,0.000142,-0.001211,0.002417,-0.000147,0.002423,-0.001217,-87.684571,0.002423,
1440,1390,-0.191964,-1.283193,0.999998,0.000170,-0.001422,0.002457,-0.000598,0.002547,-0.001512,-81.425868,0.002562,
980,650,0.249821,-3.735386,0.999998,0.000165,-0.001515,0.002600,-0.000454,0.002649,-0.001565,-83.785261,0.002664,
1390,840,-0.228721,-3.401836,0.999998,0.000159,-0.001788,0.002779,0.000900,0.002950,-0.001959,79.242749,0.003003,
630,1620,0.592698,-1.067406,0.999998,0.000162,-0.001243,0.002505,0.000032,0.002505,-0.001244,89.512944,0.002505,
1790,1040,-0.956406,-2.490042,0.999999,0.000151,-0.001083,0.002391,0.000041,0.002391,-0.001083,89.321123,0.002395,
1840,30,-0.047749,-5.001829,0.999998,0.000000,-0.000725,0.002430,-0.000920,0.002679,-0.000973,-74.877736,0.002712,
1670,1750,-0.299298,-0.616310,0.999998,0.000199,-0.001095,0.002413,0.000069,0.002414,-0.001097,88.877437,0.002417,
1510,1440,-0.275330,-1.248472,0.999998,0.000191,-0.001422,0.002585,-0.000372,0.002619,-0.001456,-84.741553,0.002624,
1800,580,-0.658751,-3.628285,0.999998,0.000168,-0.001295,0.002590,0.000024,0.002590,-0.001295,89.641685,0.002590,
1400,1280,-0.176947,-1.487237,0.999998,0.000171,-0.001726,0.002622,-0.000908,0.002804,-0.001908,-78.663523,0.002864,
1560,570,-0.324333,-3.854956,0.999997,0.000208,-0.001378,0.002561,0.000224,0.002574,-0.001391,86.752243,0.002577,
1740,1140,-0.865524,-2.244547,0.999998,0.000148,-0.001166,0.002442,0.000216,0.002454,-0.001179,86.589307,0.002455,
770,660,0.575231,-3.497563,0.999998,0.000189,-0.001435,0.002727,0.000034,0.002728,-0.001436,89.532819,0.002729,
1830,1340,-0.808604,-1.780473,0.999997,0.000191,-0.001257,0.002505,0.000115,0.002509,-0.001260,88.247794,0.002509,
1070,1780,0.071487,-0.432791,0.999998,0.000160,-0.000517,0.001865,-0.000045,0.001866,-0.000518,-88.910524,0.001927,
1060,1890,0.042890,-0.236654,0.999999,0.000174,-0.000300,0.001724,-0.000085,0.001728,-0.000303,-87.585323,0.001845,
930,460,0.242992,-4.148323,0.999999,0.000156,-0.001132,0.002357,-0.000185,0.002366,-0.001142,-86.978909,0.002367,
1040,1900,0.045610,-0.221630,0.999998,0.000179,-0.000324,0.001749,-0.000117,0.001756,-0.000331,-86.773749,0.001866,
940,210,0.115361,-4.696449,0.999998,0.000162,-0.000546,0.001984,0.000149,0.001993,-0.000554,86.648406,0.002058,
1240,1810,-0.003213,-0.359277,0.999998,0.000155,-0.000379,0.001682,0.000002,0.001682,-0.000379,89.944668,0.001765,
560,1940,0.295896,-0.331374,0.999960,0.000000,-0.000566,0.002635,-0.000357,0.002674,-0.000606,-83.708191,0.002804,
1830,1000,-0.996847,-2.582220,0.999998,0.000204,-0.001086,0.002272,-0.000074,0.002274,-0.001088,-88.729970,0.002274,
760,1720,0.358361,-0.713136,0.999998,0.000166,-0.001103,0.002499,-0.000051,0.002499,-0.001104,-89.186169,0.002505,
1700,320,-0.344731,-4.366338,0.999997,0.000184,-0.001083,0.002498,-0.000041,0.002499,-0.001084,-89.342691,0.002506,
1250,810,-0.020227,-3.860136,0.999998,0.000173,-0.000923,0.000552,0.000226,0.000586,-0.000957,81.468647,0.000965,
1480,40,-0.008647,-5.005886,0.999999,0.000134,-0.000038,0.001520,-0.000205,0.001546,-0.000064,-82.610047,0.001750,
1550,130,-0.073574,-4.846414,0.999998,0.000144,-0.000314,0.001856,-0.000277,0.001891,-0.000349,-82.853345,0.002013,
770,1080,0.845563,-2.388160,0.999998,0.000176,-0.001069,0.002535,-0.000137,0.002540,-0.001075,-87.825094,0.002550,
1300,1260,-0.053656,-1.252839,0.999998,0.000169,-0.000927,0.001064,-0.000877,0.001396,-0.001258,-69.302757,0.001538,
1160,730,0.042225,-3.856502,0.999998,0.000174,-0.000798,0.001303,-0.000744,0.001540,-0.001035,-72.340056,0.001570,
1410,1580,-0.126634,-0.833578,0.999998,0.000151,-0.000844,0.002055,-0.000259,0.002078,-0.000867,-84.929089,0.002087,
1350,1510,-0.080541,-0.925454,0.999999,0.000136,-0.000818,0.001848,-0.000353,0.001894,-0.000864,-82.582922,0.001896,
770,1440,0.539901,-1.421897,0.999997,0.000212,-0.001399,0.002695,0.000036,0.002695,-0.001400,89.494828,0.002696,
850,450,0.328832,-4.110191,0.999998,0.000187,-0.001211,0.002452,-0.000106,0.002455,-0.001214,-88.339681,0.002455,
1570,1130,-0.669724,-2.231312,0.999998,0.000179,-0.001236,0.002908,0.000355,0.002939,-0.001267,85.144174,0.002948,
1890,1180,-1.010060,-2.198904,0.999999,0.000133,-0.001133,0.002137,0.000027,0.002137,-0.001133,89.526382,0.002138,
1490,210,-0.094634,-4.706082,0.999999,0.000143,-0.000519,0.001939,-0.000129,0.001945,-0.000526,-87.008334,0.002013,
1550,440,-0.254322,-4.182653,0.999998,0.000159,-0.001104,0.002366,0.000162,0.002374,-0.001111,87.336883,0.002376,
1890,1900,-0.370203,-0.425047,0.999997,0.000218,-0.001226,0.002552,0.000202,0.002563,-0.001237,86.949793,0.002563,
1310,1260,-0.062905,-1.278118,0.999998,0.000171,-0.000988,0.001234,-0.000976,0.001602,-0.001357,-69.344884,0.001726,
1020,2000,0.012769,-0.055248,0.999999,0.000126,-0.000063,0.001574,-0.000155,0.001589,-0.000078,-84.627262,0.001791,
660,1760,0.441165,-0.686984,0.999997,0.000194,-0.001246,0.002542,-0.000065,0.002543,-0.001247,-89.012382,0.002543,
1700,990,-0.855980,-2.613696,0.999998,0.000193,-0.001045,0.002510,-0.000066,0.002511,-0.001047,-88.929062,0.002523,
1100,350,0.070721,-4.475813,0.999998,0.000166,-0.000559,0.001871,-0.000055,0.001872,-0.000560,-88.710312,0.001922,
1400,1260,-0.190876,-1.539737,0.999998,0.000180,-0.001806,0.002729,-0.000905,0.002903,-0.001980,-79.120790,0.002967,
1510,1620,-0.209449,-0.816073,0.999998,0.000168,-0.000936,0.002235,-0.000157,0.002243,-0.000944,-87.168249,0.002252,
1800,600,-0.672522,-3.577174,0.999998,0.000176,-0.001288,0.002578,-0.000009,0.002578,-0.001288,-89.866616,0.002578,
1240,590,-0.003695,-4.088084,0.999999,0.000133,-0.000610,0.001503,0.000062,0.001505,-0.000612,88.310494,0.001513,
1840,780,-0.878384,-3.092335,0.999999,0.000131,-0.001251,0.002445,-0.000129,0.002450,-0.001256,-87.999853,0.002450,
1050,1780,0.081913,-0.436109,0.999998,0.000146,-0.000581,0.001891,-0.000015,0.001891,-0.000581,-89.653649,0.001938,
1620,160,-0.130437,-4.773570,0.999998,0.000145,-0.000533,0.002089,-0.000369,0.002140,-0.000584,-82.131256,0.002212,
930,440,0.233842,-4.195948,0.999999,0.000156,-0.001088,0.002316,-0.000177,0.002326,-0.001097,-87.024833,0.002327,
960,300,0.147476,-4.520894,0.999998,0.000170,-0.000777,0.002081,0.000003,0.002081,-0.000777,89.931539,0.002103,
1650,320,-0.288506,-4.400608,0.999998,0.000167,-0.001047,0.002386,-0.000042,0.002386,-0.001048,-89.305877,0.002392,
1030,1300,0.218711,-1.507834,0.999998,0.000203,-0.001766,0.002794,0.000707,0.002902,-0.001874,81.386635,0.002942,
1830,2020,-0.045312,-0.042285,0.999998,0.000000,-0.000860,0.002206,0.000750,0.002380,-0.001034,76.975197,0.002386,
1390,820,-0.199296,-3.459855,0.999998,0.000171,-0.001779,0.002768,0.000958,0.002961,-0.001973,78.573652,0.003015,
1670,1730,-0.314105,-0.665559,0.999998,0.000183,-0.001135,0.002461,0.000049,0.002462,-0.001136,89.214329,0.002464,
890,1140,0.661730,-2.202270,0.999998,0.000162,-0.001269,0.002925,-0.000343,0.002953,-0.001297,-85.349155,0.002960,
560,920,1.045797,-2.737154,0.999997,0.000000,-0.000975,0.002172,-0.000011,0.002172,-0.000975,-89.801958,0.002176,
1740,1120,-0.875918,-2.292898,0.999998,0.000152,-0.001156,0.002469,0.000200,0.002480,-0.001167,86.859146,0.002482,
940,190,0.101580,-4.737483,0.999998,0.000145,-0.000483,0.001959,0.000190,0.001974,-0.000498,85.575752,0.002053,
770,880,0.781290,-2.896763,0.999997,0.000189,-0.001259,0.002611,0.000288,0.002632,-0.001280,85.763205,0.002632,
1250,790,-0.010204,-3.868011,0.999998,0.000166,-0.000678,0.000573,0.000275,0.000630,-0.000736,78.130452,0.000796,
1830,980,-0.991849,-2.628139,0.999998,0.000186,-0.001068,0.002251,-0.000052,0.002252,-0.001068,-89.094139,0.002253,
790,1080,0.822696,-2.386586,0.999998,0.000151,-0.001067,0.002541,-0.000169,0.002549,-0.001075,-87.329702,0.002559,
760,1700,0.372396,-0.761793,0.999997,0.000168,-0.001118,0.002444,-0.000037,0.002445,-0.001118,-89.405456,0.002448,
1040,1880,0.052553,-0.256075,0.999998,0.000176,-0.000371,0.001751,-0.000088,0.001755,-0.000375,-87.633645,0.001848,
1300,1240,-0.067799,-1.274056,0.999998,0.000155,-0.001012,0.001042,-0.000856,0.001352,-0.001323,-70.087703,0.001544,
1170,90,0.006914,-4.933007,0.999999,0.000138,-0.000102,0.001543,0.000046,0.001544,-0.000103,88.416664,0.001727,
1390,50,-0.008031,-4.992871,0.999999,0.000127,-0.000050,0.001541,-0.000095,0.001546,-0.000056,-86.587400,0.001755,
1210,1580,0.014370,-0.764339,0.999998,0.000157,-0.000623,0.001724,0.000086,0.001727,-0.000626,87.892743,0.001749,
800,1960,0.081867,-0.140328,0.999999,0.000143,-0.000393,0.001965,-0.000464,0.002053,-0.000481,-79.247774,0.002148,
1350,1490,-0.080264,-0.961800,0.999999,0.000134,-0.000831,0.001869,-0.000389,0.001924,-0.000886,-81.962918,0.001926,
1480,1390,-0.251294,-1.341590,0.999998,0.000161,-0.001516,0.002667,-0.000489,0.002723,-0.001572,-83.425727,0.002734,
1050,2010,0.007803,-0.039442,0.999999,0.000124,-0.000068,0.001532,-0.000089,0.001536,-0.000073,-86.830938,0.001734,
1210,1790,0.008790,-0.393597,0.999998,0.000175,-0.000419,0.001717,0.000021,0.001718,-0.000419,89.436153,0.001791,
1890,960,-1.051650,-2.659717,0.999998,0.000176,-0.000973,0.002029,-0.000004,0.002029,-0.000973,-89.930822,0.002029,
1550,540,-0.296230,-3.940089,0.999998,0.000194,-0.001325,0.002510,0.000253,0.002526,-0.001341,86.235596,0.002528,
660,1780,0.422659,-0.637192,0.999997,0.000187,-0.001213,0.002503,-0.000109,0.002506,-0.001216,-88.318921,0.002507,
1620,670,-0.473695,-3.528022,0.999997,0.000205,-0.001576,0.002800,0.000038,0.002800,-0.001576,89.497586,0.002808,
1400,1240,-0.211910,-1.597946,0.999998,0.000180,-0.001838,0.002886,-0.000881,0.003045,-0.001997,-79.770476,0.003094,
1800,620,-0.690137,-3.525093,0.999998,0.000176,-0.001285,0.002582,-0.000039,0.002583,-0.001285,-89.422919,0.002583,
1550,1020,-0.717194,-2.540724,0.999998,0.000171,-0.000896,0.002818,-0.000044,0.002818,-0.000897,-89.315434,0.002880,
1090,810,0.158653,-3.540824,0.999998,0.000189,-0.001641,0.002438,-0.001112,0.002721,-0.001924,-75.701159,0.002798,
1160,810,0.065671,-3.761776,0.999998,0.000188,-0.001043,0.001089,-0.000875,0.001402,-0.001356,-70.312322,0.001593,
1700,300,-0.327813,-4.416714,0.999998,0.000182,-0.001077,0.002462,-0.000104,0.002465,-0.001080,-88.323003,0.002471,
850,430,0.319013,-4.159499,0.999998,0.000197,-0.001174,0.002434,-0.000120,0.002437,-0.001178,-88.097336,0.002438,
1830,30,-0.035876,-5.008272,0.999999,0.000000,-0.000782,0.002266,-0.000828,0.002477,-0.000992,-75.738826,0.002493,
920,340,0.199599,-4.415214,0.999998,0.000165,-0.000801,0.002255,0.000010,0.002255,-0.000801,89.806852,0.002286,
1550,150,-0.085596,-4.809035,0.999999,0.000135,-0.000367,0.001919,-0.000264,0.001949,-0.000397,-83.499780,0.002060,
1370,840,-0.195260,-3.478642,0.999998,0.000170,-0.001636,0.002442,0.001129,0.002734,-0.001928,75.510511,0.002810,
1140,730,0.059501,-3.822779,0.999998,0.000159,-0.000905,0.001520,-0.000856,0.001792,-0.001177,-72.388007,0.001821,
1670,1710,-0.329058,-0.715463,0.999998,0.000161,-0.001151,0.002437,0.000003,0.002437,-0.001151,89.944175,0.002439,
1840,760,-0.860667,-3.140945,0.999999,0.000142,-0.001241,0.002477,-0.000131,0.002481,-0.001245,-87.987036,0.002481,
1620,140,-0.110306,-4.815985,0.999998,0.000172,-0.000445,0.002037,-0.000385,0.002095,-0.000504,-81.379189,0.002188,
1150,300,0.036188,-4.578474,0.999998,0.000139,-0.000481,0.001755,-0.000012,0.001755,-0.000481,-89.685115,0.001814,
920,950,0.665590,-2.746230,0.999998,0.000174,-0.001133,0.002975,0.000339,0.003002,-0.001160,85.319365,0.003028,
760,1680,0.388212,-0.810379,0.999998,0.000163,-0.001155,0.002490,-0.000023,0.002490,-0.001155,-89.636253,0.002492,
680,710,0.743495,-3.302728,0.999998,0.000176,-0.001317,0.002601,0.000126,0.002605,-0.001321,88.161433,0.002605,
1570,1110,-0.692360,-2.287820,0.999998,0.000174,-0.001127,0.002872,0.000358,0.002904,-0.001159,84.922893,0.002923,
590,1590,0.665495,-1.174530,0.999998,0.000175,-0.001399,0.002505,0.000051,0.002505,-0.001399,89.253322,0.002511,
1740,1100,-0.886628,-2.342112,0.999998,0.000170,-0.001132,0.002516,0.000186,0.002526,-0.001141,87.091690,0.002530,
1040,1860,0.058796,-0.291748,0.999998,0.000197,-0.000411,0.001808,-0.000088,0.001811,-0.000415,-87.720829,0.001898,
1250,770,-0.009190,-3.881069,0.999998,0.000150,-0.000566,0.000677,0.000284,0.000739,-0.000628,77.733540,0.000797,
1880,80,-0.206225,-4.835947,0.999998,0.000162,-0.001100,0.003062,-0.000737,0.003188,-0.001227,-80.249397,0.003216,
1210,1520,0.013022,-0.867417,0.999998,0.000160,-0.000624,0.001651,0.000089,0.001654,-0.000628,87.753898,0.001670,
1880,1540,-0.710140,-1.306449,0.999998,0.000180,-0.001239,0.002572,-0.000002,0.002572,-0.001239,-89.969591,0.002573,
1710,1280,-0.704281,-1.868590,0.999998,0.000183,-0.001403,0.002716,0.000220,0.002728,-0.001415,86.945505,0.002728,
560,940,1.055532,-2.694567,0.999996,0.000000,-0.000893,0.002029,-0.000012,0.002029,-0.000893,-89.761754,0.002034,
590,1110,1.028947,-2.344428,0.999998,0.000165,-0.001024,0.002146,-0.000044,0.002147,-0.001025,-89.208393,0.002148,
830,1560,0.378751,-1.057411,0.999998,0.000188,-0.001245,0.002517,0.000112,0.002521,-0.001249,88.289775,0.002521,
1420,1950,-0.026805,-0.135797,0.999998,0.000195,-0.000222,0.001671,0.000145,0.001682,-0.000233,85.651299,0.001822,
1390,1300,-0.147476,-1.411735,0.999998,0.000190,-0.001560,0.002433,-0.000905,0.002628,-0.001755,-77.809925,0.002677,
910,1300,0.437819,-1.696607,0.999997,0.000189,-0.001774,0.003034,0.000055,0.003035,-0.001775,89.346547,0.003049,
1630,320,-0.268479,-4.413697,0.999998,0.000166,-0.000967,0.002347,-0.000048,0.002347,-0.000968,-89.178434,0.002359,
1490,1620,-0.192256,-0.804296,0.999998,0.000181,-0.000956,0.002202,-0.000167,0.002211,-0.000965,-86.989647,0.002216,
1890,950,-1.048411,-2.679050,0.999998,0.000163,-0.000997,0.002080,-0.000013,0.002080,-0.000997,-89.763368,0.002081,
810,340,0.306448,-4.350273,0.999998,0.000150,-0.001111,0.002399,-0.000012,0.002399,-0.001111,-89.812145,0.002401,
960,280,0.138611,-4.561580,0.999998,0.000165,-0.000746,0.002080,0.000039,0.002081,-0.000746,89.210803,0.002108,
1490,190,-0.085141,-4.745789,0.999999,0.000141,-0.000468,0.001901,-0.000152,0.001911,-0.000478,-86.339229,0.001989,
720,1790,0.340274,-0.564397,0.999998,0.000202,-0.001134,0.002493,-0.000141,0.002498,-0.001140,-87.777164,0.002501,
1300,1220,-0.090392,-1.294885,0.999998,0.000181,-0.001097,0.000943,-0.000584,0.001098,-0.001252,-75.111423,0.001366,
1550,520,-0.287925,-3.991148,0.999998,0.000173,-0.001287,0.002463,0.000237,0.002478,-0.001302,86.402542,0.002479,
1400,1220,-0.237279,-1.656019,0.999998,0.000174,-0.001850,0.002909,-0.000803,0.003041,-0.001982,-80.680167,0.003087,
1110,180,0.033122,-4.783020,0.999999,0.000143,-0.000312,0.001709,0.000048,0.001710,-0.000313,88.631332,0.001821,
610,1840,0.413024,-0.531003,0.999997,0.000201,-0.001207,0.002532,-0.000085,0.002533,-0.001209,-88.695589,0.002534,
1350,1470,-0.081988,-1.002019,0.999999,0.000144,-0.000856,0.001868,-0.000438,0.001937,-0.000924,-81.090356,0.001937,
660,1800,0.401057,-0.587083,0.999997,0.000194,-0.001181,0.002578,-0.000149,0.002584,-0.001187,-87.732704,0.002587,
690,920,0.905051,-2.778546,0.999999,0.000149,-0.001128,0.002419,0.000170,0.002427,-0.001136,87.265101,0.002429,
1700,280,-0.310140,-4.463585,0.999997,0.000177,-0.001065,0.002426,-0.000131,0.002431,-0.001070,-87.859363,0.002437,
1540,1310,-0.404177,-1.649864,0.999997,0.000188,-0.001767,0.003040,-0.000136,0.003044,-0.001771,-88.382445,0.003057,
1390,40,-0.005385,-5.007969,0.999999,0.000115,-0.000033,0.001529,-0.000087,0.001534,-0.000038,-86.820017,0.001749,
1040,2010,0.008530,-0.040990,0.999999,0.000109,-0.000061,0.001542,-0.000103,0.001548,-0.000068,-86.339944,0.001750,
700,1940,0.167291,-0.208944,0.999998,0.000161,-0.000883,0.002353,-0.000607,0.002463,-0.000993,-79.711205,0.002479,
1450,440,-0.154898,-4.254387,0.999998,0.000146,-0.000890,0.002121,0.000208,0.002136,-0.000904,86.062705,0.002144,
1820,2020,-0.036632,-0.036504,0.999998,0.000000,-0.000569,0.002204,0.000850,0.002444,-0.000809,74.244767,0.002490,
1080,430,0.097957,-4.313890,0.999998,0.000169,-0.000762,0.001989,-0.000205,0.002004,-0.000778,-85.752755,0.002021,
870,1970,0.053682,-0.114856,0.999998,0.000154,-0.000299,0.001810,-0.000349,0.001866,-0.000356,-80.849840,0.001982,
1220,610,0.007079,-4.058485,0.999999,0.000127,-0.000588,0.001458,-0.000116,0.001465,-0.000594,-86.759409,0.001474,
1530,1020,-0.699328,-2.541132,0.999997,0.000216,-0.000901,0.002906,-0.000031,0.002906,-0.000901,-89.530530,0.002976,
1150,1570,0.052097,-0.799060,0.999998,0.000147,-0.000709,0.001802,0.000203,0.001818,-0.000725,85.405739,0.001831,
900,950,0.689506,-2.738834,0.999998,0.000161,-0.001143,0.002884,0.000333,0.002912,-0.001170,85.310782,0.002930,
640,1060,0.988458,-2.444144,0.999998,0.000202,-0.001089,0.002272,-0.000051,0.002273,-0.001090,-89.126509,0.002273,
560,1660,0.775679,-1.031364,0.999891,0.000000,-0.006582,0.003436,-0.000792,0.003498,-0.006644,-85.506849,0.006647,
1800,640,-0.705682,-3.473347,0.999998,0.000183,-0.001295,0.002591,-0.000045,0.002592,-0.001296,-89.335849,0.002592,
1250,750,-0.009251,-3.894339,0.999998,0.000144,-0.000521,0.000793,0.000253,0.000840,-0.000569,79.457946,0.000857,
1090,790,0.141176,-3.590429,0.999998,0.000175,-0.001590,0.002365,-0.001092,0.002646,-0.001872,-75.546360,0.002721,
1020,720,0.217173,-3.609068,0.999998,0.000185,-0.001648,0.002714,-0.000654,0.002810,-0.001744,-81.648741,0.002837,
610,1480,0.721090,-1.440466,0.999998,0.000175,-0.001255,0.002547,0.000015,0.002547,-0.001255,89.778111,0.002548,
1210,1770,0.009810,-0.429056,0.999998,0.000169,-0.000457,0.001775,0.000014,0.001775,-0.000457,89.641865,0.001843,
1670,1690,-0.345524,-0.763139,0.999998,0.000148,-0.001166,0.002410,-0.000032,0.002411,-0.001166,-89.485311,0.002411,
810,240,0.226281,-4.587060,0.999998,0.000176,-0.000866,0.002326,0.000205,0.002339,-0.000879,86.341759,0.002363,
1840,740,-0.843415,-3.190374,0.999999,0.000150,-0.001240,0.002497,-0.000125,0.002501,-0.001244,-88.092695,0.002501,
1740,1080,-0.895560,-2.392884,0.999998,0.000163,-0.001083,0.002439,0.000102,0.002442,-0.001086,88.335957,0.002447,
990,840,0.388960,-3.182791,0.999998,0.000192,-0.001929,0.003367,-0.000166,0.003372,-0.001934,-88.207373,0.003385,
850,410,0.307866,-4.208639,0.999998,0.000187,-0.001146,0.002405,-0.000087,0.002407,-0.001149,-88.601478,0.002408,
1570,1090,-0.708929,-2.345814,0.999997,0.000185,-0.001047,0.002827,0.000295,0.002849,-0.001069,85.668700,0.002879,
1620,120,-0.092757,-4.856324,0.999998,0.000152,-0.000371,0.001979,-0.000411,0.002048,-0.000441,-80.368500,0.002156,
1190,1520,0.026038,-0.870626,0.999999,0.000127,-0.000638,0.001679,0.000128,0.001686,-0.000645,86.837771,0.001702,
1640,1950,-0.084962,-0.156902,0.999999,0.000142,-0.000322,0.001984,0.000450,0.002069,-0.000407,79.332994,0.002192,
580,1590,0.677464,-1.182677,0.999998,0.000157,-0.001811,0.002511,0.000099,0.002513,-0.001814,88.688660,0.002594,
760,1660,0.402624,-0.862870,0.999998,0.000161,-0.001201,0.002499,0.000036,0.002499,-0.001201,89.435073,0.002500,
1880,70,-0.181638,-4.868212,0.999999,0.000153,-0.000991,0.003070,-0.000881,0.003253,-0.001174,-78.270682,0.003295,
650,1440,0.702488,-1.511853,0.999997,0.000186,-0.001292,0.002589,-0.000037,0.002590,-0.001293,-89.457695,0.002590,
1620,1350,-0.503468,-1.612623,0.999997,0.000190,-0.001576,0.002857,0.000036,0.002857,-0.001576,89.536896,0.002862,
920,780,0.445017,-3.275563,0.999997,0.000178,-0.001799,0.003117,-0.000021,0.003117,-0.001799,-89.759569,0.003130,
1870,1540,-0.698304,-1.298736,0.999998,0.000193,-0.001252,0.002567,-0.000006,0.002567,-0.001252,-89.903579,0.002567,
1040,1840,0.067737,-0.328574,0.999998,0.000181,-0.000445,0.001834,-0.000056,0.001835,-0.000446,-88.598912,0.001914,
1890,940,-1.043589,-2.700229,0.999998,0.000170,-0.001032,0.002152,-0.000013,0.002152,-0.001032,-89.766361,0.002152,
1460,980,-0.605676,-2.705367,0.999998,0.000190,-0.001349,0.003782,0.000045,0.003783,-0.001349,89.492315,0.003834,
1250,300,-0.008756,-4.584351,0.999998,0.000210,-0.000487,0.001770,0.000026,0.001771,-0.000488,89.339523,0.001829,
580,140,0.337573,-4.663222,0.999997,0.000222,-0.001097,0.002551,0.000397,0.002594,-0.001139,83.854687,0.002600,
1350,1450,-0.083775,-1.039182,0.999999,0.000138,-0.000898,0.001852,-0.000495,0.001939,-0.000985,-80.092261,0.001939,
1400,1420,-0.134734,-1.157436,0.999998,0.000149,-0.001169,0.002149,-0.000597,0.002253,-0.001273,-80.105332,0.002260,
990,1300,0.291927,-1.584330,0.999997,0.000252,-0.001840,0.003003,0.000458,0.003046,-0.001883,84.648791,0.003074,
670,310,0.442750,-4.320335,0.999997,0.000189,-0.001205,0.002537,0.000028,0.002538,-0.001206,89.577356,0.002539,
1540,1330,-0.387588,-1.590903,0.999997,0.000177,-0.001728,0.002965,-0.000176,0.002971,-0.001735,-87.857280,0.002985,
1380,40,-0.005148,-5.008014,0.999999,0.000097,-0.000017,0.001538,-0.000087,0.001543,-0.000022,-86.825372,0.001769,
1300,1420,-0.042015,-1.044901,0.999998,0.000154,-0.000722,0.001531,-0.000415,0.001605,-0.000796,-79.889348,0.001605,
1450,460,-0.159312,-4.211183,0.999998,0.000155,-0.000942,0.002153,0.000269,0.002176,-0.000965,85.068628,0.002181,
790,420,0.383599,-4.138855,0.999998,0.000196,-0.001192,0.002508,-0.000035,0.002508,-0.001193,-89.455091,0.002509,
1820,30,-0.028179,-5.014244,0.999998,0.000000,-0.000598,0.002180,-0.000859,0.002424,-0.000843,-74.125957,0.002461,
790,340,0.328983,-4.335136,0.999998,0.000190,-0.001122,0.002466,0.000008,0.002466,-0.001122,89.865303,0.002470,
800,1940,0.105839,-0.180977,0.999998,0.000157,-0.000500,0.002058,-0.000447,0.002134,-0.000575,-80.370629,0.002208,
580,1110,1.039530,-2.347632,0.999998,0.000162,-0.000999,0.002105,-0.000030,0.002106,-0.001000,-89.440963,0.002107,
830,1540,0.391676,-1.109398,0.999998,0.000147,-0.001292,0.002555,0.000145,0.002561,-0.001297,87.838587,0.002561,
560,1650,0.796948,-1.085536,0.999927,0.000000,-0.006620,0.002999,0.000367,0.003013,-0.006634,87.818369,0.006644,
1750,720,-0.708678,-3.297153,0.999997,0.000194,-0.001357,0.002615,-0.000158,0.002621,-0.001364,-87.719196,0.002622,
830,1080,0.781309,-2.383086,0.999998,0.000140,-0.001056,0.002622,-0.000213,0.002634,-0.001068,-86.696523,0.002650,
1030,2010,0.009565,-0.040808,0.999999,0.000123,-0.000060,0.001548,-0.000116,0.001557,-0.000069,-85.891633,0.001759,
1250,730,-0.009113,-3.910747,0.999999,0.000128,-0.000510,0.000900,0.000223,0.000934,-0.000544,81.227065,0.000939,
1740,1280,-0.746272,-1.883873,0.999998,0.000193,-0.001361,0.002657,0.000225,0.002670,-0.001373,86.806743,0.002670,
1060,430,0.113258,-4.301786,0.999998,0.000156,-0.000800,0.002033,-0.000200,0.002047,-0.000815,-85.982781,0.002061,
1230,560,0.001494,-4.135484,0.999999,0.000128,-0.000624,0.001597,0.000004,0.001597,-0.000624,89.895803,0.001610,
1800,1080,-0.959818,-2.396945,0.999998,0.000194,-0.001101,0.002316,0.000045,0.002317,-0.001102,89.238356,0.002318,
1550,420,-0.244998,-4.230008,0.999998,0.000159,-0.001070,0.002329,0.000148,0.002336,-0.001077,87.505148,0.002338,
850,390,0.297824,-4.256232,0.999998,0.000200,-0.001099,0.002390,-0.000038,0.002391,-0.001100,-89.370244,0.002393,
1150,1610,0.049256,-0.724353,0.999998,0.000143,-0.000690,0.001821,0.000145,0.001829,-0.000699,86.715761,0.001846,
1570,1070,-0.723613,-2.402337,0.999998,0.000197,-0.000969,0.002802,0.000198,0.002813,-0.000979,87.003261,0.002856,
1800,310,-0.452044,-4.315071,0.999998,0.000193,-0.001209,0.002537,-0.000058,0.002538,-0.001210,-89.112715,0.002539,
1580,1150,-0.662492,-2.177158,0.999998,0.000184,-0.001321,0.002960,0.000350,0.002988,-0.001349,85.357824,0.002993,
1840,720,-0.825124,-3.242075,0.999998,0.000154,-0.001253,0.002493,-0.000102,0.002496,-0.001256,-88.439841,0.002496,
1620,100,-0.072485,-4.895435,0.999999,0.000135,-0.000285,0.001901,-0.000391,0.001969,-0.000353,-80.147857,0.002100,
1490,540,-0.222305,-3.997120,0.999998,0.000191,-0.001213,0.002368,0.000331,0.002399,-0.001244,84.766132,0.002399,
1210,1750,0.010190,-0.465037,0.999998,0.000174,-0.000469,0.001767,0.000031,0.001768,-0.000470,89.202098,0.001831,
1420,1240,-0.251237,-1.652786,0.999998,0.000188,-0.001952,0.003025,-0.000721,0.003127,-0.002054,-81.917082,0.003178,
1550,160,-0.093281,-4.789590,0.999999,0.000137,-0.000416,0.001946,-0.000266,0.001975,-0.000446,-83.652399,0.002072,
1850,1540,-0.671842,-1.283521,0.999998,0.000177,-0.001267,0.002566,-0.000005,0.002566,-0.001267,-89.920269,0.002566,
580,1860,0.424043,-0.516788,0.999997,0.000197,-0.001224,0.002488,-0.000056,0.002489,-0.001225,-89.131491,0.002489,
630,120,0.237664,-4.778678,0.999998,0.000169,-0.001171,0.002663,0.000416,0.002707,-0.001216,83.879639,0.002712,
1370,40,-0.004785,-5.008860,0.999999,0.000098,-0.000009,0.001532,-0.000085,0.001537,-0.000013,-86.847849,0.001767,
760,1640,0.415744,-0.911666,0.999997,0.000189,-0.001240,0.002510,0.000064,0.002511,-0.001241,89.015864,0.002511,
670,290,0.425190,-4.373646,0.999997,0.000201,-0.001193,0.002572,0.000070,0.002574,-0.001194,88.942681,0.002576,
1350,1430,-0.082381,-1.077283,0.999999,0.000143,-0.000917,0.001838,-0.000549,0.001944,-0.001023,-79.135350,0.001945,
800,1920,0.126492,-0.222288,0.999998,0.000163,-0.000627,0.002119,-0.000416,0.002181,-0.000689,-81.565300,0.002230,
670,1440,0.675234,-1.496832,0.999998,0.000176,-0.001323,0.002573,-0.000038,0.002573,-0.001324,-89.443834,0.002574,
1560,1350,-0.405169,-1.554106,0.999998,0.000173,-0.001650,0.002898,-0.000147,0.002903,-0.001655,-88.149674,0.002913,
1670,1670,-0.356593,-0.811570,0.999998,0.000175,-0.001160,0.002471,-0.000038,0.002471,-0.001161,-89.401820,0.002473,
1050,110,0.027982,-4.896432,0.999999,0.000149,-0.000218,0.001677,0.000120,0.001684,-0.000225,86.392671,0.001829,
970,600,0.245134,-3.848452,0.999999,0.000151,-0.001329,0.002509,-0.000376,0.002546,-0.001365,-84.456347,0.002548,
1040,1250,0.244856,-1.631163,0.999998,0.000218,-0.001922,0.003000,0.000685,0.003094,-0.002016,82.224315,0.003141,
570,1110,1.049736,-2.351052,0.999998,0.000196,-0.000986,0.002063,-0.000023,0.002063,-0.000986,-89.564305,0.002064,
970,840,0.428349,-3.149617,0.999998,0.000197,-0.001912,0.003341,-0.000035,0.003341,-0.001912,-89.616531,0.003353,
570,1590,0.705574,-1.197269,0.999888,0.001307,-0.002067,0.002496,0.000115,0.002499,-0.002069,88.559980,0.002672,
560,1640,0.816830,-1.114310,0.999925,0.000000,-0.005963,0.002099,0.002054,0.002593,-0.006456,76.497369,0.006498,
790,400,0.369566,-4.188834,0.999998,0.000167,-0.001151,0.002487,-0.000024,0.002487,-0.001152,-89.622129,0.002490,
860,1630,0.304064,-0.860757,0.999998,0.000159,-0.001101,0.002406,0.000076,0.002407,-0.001102,88.765303,0.002410,
1790,740,-0.780503,-3.220883,0.999998,0.000174,-0.001307,0.002574,-0.000151,0.002580,-0.001313,-87.781665,0.002580,
1250,1520,-0.011624,-0.865746,0.999998,0.000148,-0.000642,0.001650,-0.000082,0.001653,-0.000645,-87.964180,0.001666,
1880,60,-0.156858,-4.895676,0.999998,0.000167,-0.000793,0.003101,-0.001112,0.003396,-0.001088,-75.132614,0.003469,
960,700,0.303877,-3.571028,0.999997,0.000189,-0.001666,0.002847,-0.000375,0.002878,-0.001697,-85.289058,0.002894,
1070,1820,0.060069,-0.358275,0.999998,0.000155,-0.000421,0.001826,-0.000047,0.001827,-0.000422,-88.791207,0.001914,
1570,1050,-0.730909,-2.458218,0.999997,0.000212,-0.000933,0.002758,0.000120,0.002761,-0.000937,88.145158,0.002809,
1090,1490,0.104631,-0.986688,0.999999,0.000128,-0.000913,0.001907,0.000405,0.001964,-0.000970,81.994474,0.001964,
1630,30,-0.009782,-5.020925,0.999999,0.000000,-0.000014,0.001713,-0.000458,0.001828,-0.000128,-76.024604,0.002040,
620,1930,0.259617,-0.286618,0.999997,0.000182,-0.001238,0.002672,-0.000355,0.002704,-0.001270,-84.850894,0.002706,
850,370,0.285007,-4.302781,0.999998,0.000181,-0.001050,0.002355,0.000000,0.002355,-0.001050,89.993589,0.002360,
920,1890,0.094785,-0.258816,0.999998,0.000172,-0.000407,0.001927,-0.000249,0.001953,-0.000433,-83.978541,0.002052,
1550,170,-0.101844,-4.769310,0.999999,0.000146,-0.000449,0.001959,-0.000254,0.001985,-0.000475,-84.050947,0.002073,
1390,1320,-0.139847,-1.364385,0.999998,0.000170,-0.001476,0.002328,-0.000900,0.002530,-0.001678,-77.337974,0.002575,
1310,770,-0.051555,-3.792635,0.999998,0.000161,-0.000935,0.001282,0.000941,0.001627,-0.001281,69.843473,0.001714,
720,1770,0.360441,-0.613734,0.999998,0.000179,-0.001130,0.002528,-0.000103,0.002531,-0.001133,-88.385654,0.002535,
1760,720,-0.722693,-3.291540,0.999998,0.000186,-0.001324,0.002605,-0.000156,0.002611,-0.001330,-87.728440,0.002611,
1690,1280,-0.677074,-1.855994,0.999998,0.000167,-0.001435,0.002769,0.000223,0.002781,-0.001447,86.967044,0.002781,
700,1920,0.197383,-0.255547,0.999998,0.000172,-0.000977,0.002383,-0.000502,0.002456,-0.001050,-81.683317,0.002465,
1020,700,0.208088,-3.661191,0.999998,0.000170,-0.001571,0.002621,-0.000637,0.002716,-0.001666,-81.545939,0.002739,
920,760,0.424055,-3.339786,0.999997,0.000187,-0.001778,0.003105,-0.000098,0.003107,-0.001780,-88.850730,0.003118,
1060,570,0.131722,-4.016376,0.999999,0.000127,-0.001024,0.002086,-0.000457,0.002152,-0.001090,-81.810863,0.002152,
1800,1060,-0.964701,-2.443359,0.999998,0.000177,-0.001089,0.002341,0.000056,0.002342,-0.001090,89.072154,0.002344,
1490,170,-0.072697,-4.782547,0.999998,0.000155,-0.000419,0.001835,-0.000166,0.001847,-0.000431,-85.798376,0.001932,
630,100,0.196731,-4.831979,0.999998,0.000158,-0.001101,0.002635,0.000523,0.002707,-0.001173,82.186513,0.002715,
1210,1730,0.010592,-0.500230,0.999998,0.000163,-0.000484,0.001755,0.000041,0.001756,-0.000485,88.961232,0.001814,
930,500,0.259345,-4.053456,0.999998,0.000171,-0.001126,0.002383,-0.000222,0.002397,-0.001140,-86.397740,0.002397,
1410,770,-0.189522,-3.541754,0.999998,0.000169,-0.001770,0.002713,0.000851,0.002869,-0.001926,79.598608,0.002925,
1210,560,0.013704,-4.131206,0.999998,0.000147,-0.000611,0.001595,-0.000102,0.001600,-0.000616,-87.350266,0.001614,
760,1620,0.430299,-0.961641,0.999998,0.000171,-0.001239,0.002512,0.000065,0.002513,-0.001240,89.012373,0.002513,
1580,1130,-0.682148,-2.235357,0.999998,0.000178,-0.001225,0.002862,0.000359,0.002893,-0.001256,85.024038,0.002902,
1830,880,-0.946572,-2.857633,0.999999,0.000127,-0.001134,0.002348,-0.000161,0.002356,-0.001142,-87.359885,0.002356,
1700,260,-0.293084,-4.512215,0.999997,0.000207,-0.001031,0.002424,-0.000183,0.002434,-0.001041,-86.976615,0.002443,
1520,1950,-0.048615,-0.143955,0.999999,0.000130,-0.000256,0.001797,0.000256,0.001828,-0.000288,83.007049,0.001966,
1840,700,-0.807925,-3.291041,0.999998,0.000166,-0.001277,0.002530,-0.000081,0.002531,-0.001279,-88.777480,0.002531,
850,1140,0.712443,-2.216565,0.999998,0.000183,-0.001258,0.002791,-0.000367,0.002824,-0.001291,-84.862933,0.002828,
970,820,0.400028,-3.216171,0.999998,0.000188,-0.001929,0.003293,-0.000131,0.003296,-0.001932,-88.562983,0.003312,
670,270,0.404292,-4.422690,0.999997,0.000217,-0.001172,0.002515,0.000126,0.002520,-0.001177,88.046781,0.002521,
1680,2000,-0.042899,-0.065671,0.999999,0.000155,-0.000295,0.001859,0.000527,0.001981,-0.000417,76.970046,0.002088,
630,970,0.994355,-2.650438,0.999998,0.000157,-0.001068,0.002244,0.000039,0.002244,-0.001069,89.323367,0.002245,
1580,1350,-0.438913,-1.574905,0.999998,0.000171,-0.001650,0.002898,-0.000086,0.002899,-0.001652,-88.918605,0.002909,
850,660,0.454786,-3.560573,0.999998,0.000161,-0.001530,0.002815,-0.000080,0.002816,-0.001532,-88.941617,0.002820,
1550,500,-0.279480,-4.039632,0.999999,0.000151,-0.001209,0.002413,0.000214,0.002426,-0.001222,86.634847,0.002426,
560,1630,0.729517,-1.111805,0.999861,0.000000,-0.004686,0.001475,0.002489,0.002355,-0.005566,70.530097,0.005588,
1160,1460,0.045748,-0.984441,0.999999,0.000137,-0.000738,0.001656,0.000331,0.001701,-0.000783,82.271893,0.001703,
930,880,0.558491,-2.968929,0.999997,0.000192,-0.001607,0.003178,0.000300,0.003196,-0.001626,86.427216,0.003197,
620,1910,0.296603,-0.340886,0.999998,0.000166,-0.001242,0.002609,-0.000263,0.002627,-0.001260,-86.110193,0.002627,
1730,720,-0.681313,-3.309049,0.999998,0.000185,-0.001397,0.002647,-0.000162,0.002653,-0.001403,-87.710182,0.002655,
1830,1680,-0.543144,-0.913126,0.999998,0.000164,-0.001235,0.002523,-0.000025,0.002524,-0.001236,-89.616979,0.002524,
1810,2020,-0.033338,-0.033475,0.999998,0.000000,-0.000204,0.002175,0.000926,0.002493,-0.000522,71.059733,0.002629,
1830,1540,-0.646026,-1.268270,0.999998,0.000199,-0.001267,0.002565,-0.000019,0.002565,-0.001267,-89.711013,0.002565,
1670,1650,-0.371128,-0.861974,0.999998,0.000187,-0.001165,0.002490,-0.000037,0.002490,-0.001166,-89.422771,0.002492,
1090,1510,0.100552,-0.946617,0.999998,0.000139,-0.000904,0.001954,0.000403,0.002009,-0.000960,82.130099,0.002010,
850,350,0.272221,-4.349474,0.999998,0.000166,-0.000984,0.002354,0.000032,0.002354,-0.000984,89.455041,0.002365,
1310,790,-0.058342,-3.768374,0.999998,0.000158,-0.001003,0.001280,0.000981,0.001644,-0.001367,69.658379,0.001760,
1230,1520,0.001427,-0.864298,0.999999,0.000114,-0.000632,0.001644,0.000017,0.001644,-0.000632,89.577741,0.001659,
1570,1030,-0.736364,-2.513405,0.999997,0.000213,-0.000902,0.002763,0.000007,0.002763,-0.000902,89.885159,0.002818,
1550,610,-0.327605,-3.761861,0.999998,0.000194,-0.001460,0.002636,0.000273,0.002654,-0.001478,86.208270,0.002659,
670,1700,0.480372,-0.831849,0.999999,0.000142,-0.001206,0.002528,0.000006,0.002528,-0.001206,89.907080,0.002529,
840,1630,0.327073,-0.875710,0.999998,0.000164,-0.001183,0.002437,0.000099,0.002440,-0.001186,88.440010,0.002440,
1480,110,-0.041535,-4.892044,0.999999,0.000129,-0.000232,0.001757,-0.000220,0.001781,-0.000256,-83.775848,0.001926,
820,1470,0.448282,-1.299523,0.999997,0.000195,-0.001410,0.002682,0.000089,0.002684,-0.001411,88.757448,0.002685,
1780,1430,-0.666926,-1.513544,0.999998,0.000178,-0.001328,0.002608,0.000033,0.002608,-0.001328,89.522476,0.002609,
1250,1330,-0.008692,-1.124970,0.999999,0.000131,-0.000476,0.000920,-0.000218,0.000953,-0.000510,-81.315261,0.000954,
1060,550,0.128070,-4.058740,0.999999,0.000142,-0.000995,0.002058,-0.000395,0.002108,-0.001045,-82.748345,0.002108,
1750,180,-0.248853,-4.683194,0.999998,0.000155,-0.001052,0.002440,-0.000331,0.002471,-0.001083,-84.639059,0.002477,
1380,870,-0.265538,-3.359779,0.999997,0.000193,-0.001502,0.002494,0.001097,0.002775,-0.001783,75.619029,0.002812,
1800,1040,-0.967554,-2.491007,0.999998,0.000163,-0.001086,0.002352,0.000044,0.002353,-0.001087,89.273066,0.002355,
1490,150,-0.064473,-4.818728,0.999998,0.000154,-0.000379,0.001803,-0.000168,0.001816,-0.000392,-85.626690,0.001911,
700,1900,0.227984,-0.304489,0.999998,0.000187,-0.001056,0.002485,-0.000422,0.002534,-0.001106,-83.295472,0.002541,
1890,1030,-1.062459,-2.515386,0.999998,0.000161,-0.001026,0.002141,0.000019,0.002141,-0.001026,89.650451,0.002142,
760,1600,0.442515,-1.012487,0.999998,0.000182,-0.001257,0.002540,0.000064,0.002542,-0.001258,89.035166,0.002542,
1820,610,-0.706850,-3.536660,0.999998,0.000165,-0.001298,0.002555,-0.000037,0.002555,-0.001299,-89.456459,0.002555,
1670,2000,-0.040265,-0.064563,0.999999,0.000142,-0.000300,0.001849,0.000502,0.001960,-0.000412,77.472700,0.002067,
1410,810,-0.225263,-3.429166,0.999998,0.000201,-0.001925,0.002929,0.000814,0.003061,-0.002057,80.732639,0.003121,
830,1140,0.738167,-2.221505,0.999998,0.000177,-0.001213,0.002742,-0.000344,0.002771,-0.001243,-85.060777,0.002776,
930,480,0.251551,-4.101421,0.999998,0.000172,-0.001119,0.002361,-0.000214,0.002374,-0.001132,-86.499033,0.002375,
1500,1950,-0.043971,-0.141894,0.999999,0.000155,-0.000273,0.001767,0.000216,0.001790,-0.000295,84.010965,0.001919,
730,920,0.858306,-2.785409,0.999998,0.000139,-0.001145,0.002480,0.000205,0.002491,-0.001156,86.768528,0.002493,
630,1010,1.002174,-2.559574,0.999998,0.000175,-0.001086,0.002252,0.000071,0.002253,-0.001087,88.782825,0.002254,
1380,290,-0.068775,-4.581948,0.999998,0.000164,-0.000469,0.001869,-0.000016,0.001869,-0.000470,-89.615024,0.001944,
1160,1440,0.045270,-1.016059,0.999999,0.000119,-0.000732,0.001589,0.000376,0.001649,-0.000791,81.028939,0.001649,
1840,680,-0.792307,-3.342132,0.999998,0.000161,-0.001269,0.002528,-0.000089,0.002530,-0.001271,-88.654904,0.002530,
1040,1270,0.225023,-1.570656,0.999997,0.000231,-0.001850,0.002886,0.000741,0.003000,-0.001964,81.307950,0.003047,
1800,2020,-0.033274,-0.032540,0.999998,0.000000,0.000005,0.002124,0.000970,0.002501,-0.000372,68.761293,0.002699,
680,670,0.707612,-3.406061,0.999997,0.000213,-0.001332,0.002608,0.000094,0.002611,-0.001335,88.628962,0.002611,
1210,1710,0.010545,-0.534529,0.999998,0.000156,-0.000514,0.001761,0.000049,0.001762,-0.000515,88.763013,0.001812,
1570,1010,-0.732389,-2.569643,0.999997,0.000208,-0.000905,0.002771,-0.000116,0.002775,-0.000909,-88.190009,0.002829,
850,330,0.259448,-4.398954,0.999997,0.000190,-0.000957,0.002362,0.000052,0.002362,-0.000957,89.105056,0.002376,
1310,810,-0.072241,-3.742468,0.999998,0.000153,-0.001090,0.001205,0.000948,0.001546,-0.001431,70.227671,0.001722,
1850,1680,-0.567408,-0.929959,0.999998,0.000183,-0.001220,0.002510,-0.000013,0.002510,-0.001220,-89.804205,0.002510,
620,1890,0.329242,-0.391384,0.999998,0.000164,-0.001219,0.002616,-0.000196,0.002626,-0.001229,-87.088812,0.002628,
670,250,0.384165,-4.473960,0.999997,0.000220,-0.001157,0.002553,0.000159,0.002560,-0.001164,87.544887,0.002563,
1710,720,-0.652546,-3.321759,0.999998,0.000183,-0.001403,0.002702,-0.000150,0.002707,-0.001408,-87.910032,0.002708,
800,1900,0.149422,-0.265368,0.999998,0.000158,-0.000702,0.002209,-0.000387,0.002259,-0.000753,-82.551523,0.002301,
1750,630,-0.629874,-3.535458,0.999997,0.000192,-0.001347,0.002640,-0.000033,0.002641,-0.001348,-89.524824,0.002641,
1580,1230,-0.561913,-1.936446,0.999997,0.000210,-0.001628,0.003018,0.000228,0.003029,-0.001639,87.199614,0.003032,
1700,240,-0.271166,-4.562984,0.999998,0.000166,-0.000996,0.002442,-0.000237,0.002458,-0.001012,-86.078446,0.002471,
1450,420,-0.148201,-4.295886,0.999998,0.000139,-0.000840,0.002103,0.000160,0.002112,-0.000849,86.896887,0.002126,
1200,1210,0.062869,-1.218758,0.999999,0.000126,-0.001745,0.000764,0.000018,0.000764,-0.001745,89.589156,0.001750,
1020,1590,0.153574,-0.834156,0.999998,0.000169,-0.000927,0.002168,0.000264,0.002191,-0.000950,85.166245,0.002197,
920,740,0.406647,-3.403184,0.999997,0.000216,-0.001750,0.003015,-0.000136,0.003019,-0.001754,-88.364924,0.003032,
1830,1780,-0.453743,-0.661210,0.999998,0.000174,-0.001178,0.002520,0.000040,0.002520,-0.001179,89.385615,0.002522,
1090,1530,0.100888,-0.907685,0.999998,0.000144,-0.000896,0.001951,0.000367,0.001998,-0.000943,82.778650,0.001999,
800,1470,0.476337,-1.317462,0.999997,0.000208,-0.001393,0.002655,0.000057,0.002655,-0.001394,89.189580,0.002656,
1720,1590,-0.470143,-1.051153,0.999998,0.000177,-0.001302,0.002544,-0.000064,0.002545,-0.001303,-89.040610,0.002545,
1350,1410,-0.083395,-1.112277,0.999998,0.000140,-0.000937,0.001824,-0.000606,0.001951,-0.001064,-78.151153,0.001954,
1360,710,-0.096167,-3.790307,0.999998,0.000146,-0.001161,0.001942,0.000859,0.002164,-0.001383,75.510934,0.002192,
1750,160,-0.223295,-4.730702,0.999998,0.000173,-0.000978,0.002437,-0.000410,0.002486,-0.001026,-83.245432,0.002498,
560,1620,0.670476,-1.118785,0.999812,0.000000,-0.003597,0.001809,0.001692,0.002295,-0.004083,73.980403,0.004094,
1620,1810,-0.203519,-0.450559,0.999998,0.000188,-0.000760,0.002247,0.000192,0.002259,-0.000773,86.356802,0.002297,
1490,130,-0.054627,-4.854406,0.999999,0.000141,-0.000322,0.001779,-0.000172,0.001793,-0.000336,-85.348057,0.001907,
1800,1020,-0.968684,-2.538550,0.999998,0.000149,-0.001071,0.002344,-0.000032,0.002344,-0.001072,-89.466878,0.002347,
1480,1330,-0.282242,-1.507997,0.999997,0.000203,-0.001745,0.002899,-0.000460,0.002944,-0.001790,-84.392222,0.002967,
1550,590,-0.318613,-3.814690,0.999998,0.000193,-0.001407,0.002574,0.000275,0.002593,-0.001426,86.073107,0.002597,
1500,110,-0.046463,-4.888797,0.999998,0.000139,-0.000284,0.001789,-0.000217,0.001811,-0.000306,-84.096426,0.001939,
1890,1020,-1.062900,-2.536685,0.999998,0.000161,-0.001002,0.002086,-0.000018,0.002086,-0.001002,-89.657271,0.002086,
880,2000,0.027115,-0.060413,0.999999,0.000126,-0.000199,0.001696,-0.000346,0.001757,-0.000260,-79.971586,0.001897,
900,1950,0.058800,-0.146867,0.999998,0.000171,-0.000282,0.001853,-0.000313,0.001898,-0.000327,-81.827993,0.002029,
710,220,0.303570,-4.581770,0.999997,0.000209,-0.001129,0.002494,0.000211,0.002506,-0.001141,86.684133,0.002510,
760,1580,0.456199,-1.063032,0.999997,0.000191,-0.001256,0.002570,0.000068,0.002571,-0.001258,88.978133,0.002571,
1790,1340,-0.757021,-1.753718,0.999998,0.000161,-0.001304,0.002553,0.000141,0.002558,-0.001309,87.913314,0.002558,
700,1880,0.256775,-0.354327,0.999998,0.000179,-0.001102,0.002481,-0.000370,0.002518,-0.001140,-84.169956,0.002522,
1310,300,-0.035524,-4.579808,0.999999,0.000140,-0.000471,0.001779,0.000017,0.001779,-0.000471,89.572350,0.001843,
1800,30,-0.023281,-5.017442,0.999999,0.000000,-0.000088,0.002101,-0.001002,0.002490,-0.000478,-68.762303,0.002643,
1190,560,0.026160,-4.128031,0.999998,0.000150,-0.000632,0.001614,-0.000130,0.001622,-0.000640,-86.708162,0.001634,
1670,890,-0.761503,-2.876359,0.999998,0.000161,-0.001270,0.002677,-0.000315,0.002702,-0.001295,-85.470635,0.002703,
1210,1690,0.011584,-0.569908,0.999998,0.000149,-0.000544,0.001775,0.000035,0.001776,-0.000545,89.127248,0.001819,
810,1340,0.564041,-1.666910,0.999998,0.000250,-0.001480,0.002804,-0.000088,0.002806,-0.001482,-88.818469,0.002808,
710,920,0.882900,-2.782448,0.999999,0.000145,-0.001154,0.002455,0.000185,0.002464,-0.001163,87.070457,0.002465,
850,560,0.390927,-3.831673,0.999997,0.000185,-0.001359,0.002581,-0.000155,0.002587,-0.001365,-87.749282,0.002588,
1700,220,-0.251078,-4.612719,0.999998,0.000175,-0.000916,0.002389,-0.000286,0.002414,-0.000940,-85.085658,0.002434,
1420,520,-0.140280,-4.107456,0.999998,0.000158,-0.000958,0.002107,0.000339,0.002143,-0.000995,83.770078,0.002145,
850,310,0.247766,-4.443956,0.999998,0.000193,-0.000923,0.002293,0.000059,0.002294,-0.000924,88.949331,0.002308,
1570,990,-0.725021,-2.623777,0.999998,0.000196,-0.000965,0.002778,-0.000191,0.002788,-0.000974,-87.083711,0.002829,
670,230,0.362047,-4.525464,0.999998,0.000199,-0.001139,0.002532,0.000208,0.002544,-0.001151,86.762473,0.002548,
1790,940,-0.935384,-2.726214,0.999998,0.000147,-0.001122,0.002396,-0.000187,0.002406,-0.001132,-86.958322,0.002407,
1840,660,-0.773392,-3.391747,0.999998,0.000163,-0.001258,0.002543,-0.000064,0.002544,-0.001259,-89.030502,0.002544,
620,1970,0.175317,-0.180967,0.999998,0.000143,-0.001145,0.002712,-0.000608,0.002805,-0.001239,-81.244637,0.002812,
1190,1210,0.078750,-1.235149,0.999999,0.000136,-0.001580,0.000719,0.000086,0.000722,-0.001583,87.858541,0.001585,
1580,1630,-0.280073,-0.845752,0.999998,0.000151,-0.001076,0.002370,-0.000110,0.002374,-0.001079,-88.175843,0.002377,
640,500,0.627645,-3.816694,0.999998,0.000189,-0.001281,0.002540,-0.000031,0.002540,-0.001281,-89.534020,0.002540,
1320,680,-0.055672,-3.905720,0.999999,0.000144,-0.000829,0.001569,0.000668,0.001742,-0.001003,75.433503,0.001749,
1830,1760,-0.473828,-0.710621,0.999998,0.000177,-0.001203,0.002529,0.000014,0.002529,-0.001203,89.779263,0.002530,
1090,1550,0.097928,-0.867270,0.999999,0.000125,-0.000866,0.001953,0.000324,0.001990,-0.000902,83.527399,0.001993,
1350,1170,-0.276314,-1.556669,0.999997,0.000206,-0.000651,0.001567,-0.001184,0.002080,-0.001165,-66.567024,0.002085,
1360,690,-0.093448,-3.828540,0.999999,0.000137,-0.001081,0.001897,0.000778,0.002089,-0.001272,76.199774,0.002105,
560,1610,0.688037,-1.154291,0.999723,0.000000,-0.002515,0.002690,0.000128,0.002693,-0.002518,88.593695,0.003014,
1530,660,-0.326697,-3.648301,0.999998,0.000172,-0.001581,0.002761,0.000318,0.002784,-0.001604,85.832519,0.002795,
1160,1420,0.043955,-1.048021,0.999999,0.000134,-0.000707,0.001558,0.000411,0.001630,-0.000780,80.022888,0.001631,
1750,1700,-0.428880,-0.796379,0.999997,0.000199,-0.001205,0.002538,-0.000004,0.002538,-0.001205,-89.940841,0.002539,
1790,300,-0.430222,-4.349367,0.999998,0.000185,-0.001198,0.002564,-0.000064,0.002565,-0.001199,-89.028860,0.002567,
1800,1000,-0.963818,-2.584966,0.999999,0.000137,-0.001058,0.002326,-0.000071,0.002327,-0.001059,-88.803255,0.002330,
1490,110,-0.043278,-4.890394,0.999999,0.000131,-0.000257,0.001770,-0.000209,0.001791,-0.000278,-84.182104,0.001927,
1730,420,-0.452669,-4.093526,0.999998,0.000168,-0.001247,0.002539,0.000047,0.002540,-0.001248,89.281549,0.002540,
1380,1590,-0.099524,-0.793378,0.999999,0.000144,-0.000830,0.001976,-0.000258,0.001999,-0.000854,-84.796811,0.002006,
700,1860,0.285074,-0.405186,0.999998,0.000169,-0.001146,0.002497,-0.000288,0.002520,-0.001169,-85.505315,0.002522,
1640,1410,-0.486256,-1.460031,0.999997,0.000208,-0.001505,0.002745,-0.000030,0.002745,-0.001506,-89.600276,0.002749,
760,1560,0.469729,-1.114433,0.999997,0.000189,-0.001267,0.002534,0.000066,0.002535,-0.001269,89.008966,0.002535,
1790,2020,-0.036130,-0.032902,0.999999,0.000000,-0.000004,0.002092,0.000953,0.002460,-0.000372,68.855948,0.002652,
800,1880,0.171304,-0.309497,0.999998,0.000147,-0.000774,0.002197,-0.000339,0.002236,-0.000812,-83.570495,0.002263,
1750,670,-0.663991,-3.429582,0.999998,0.000175,-0.001375,0.002652,-0.000105,0.002655,-0.001377,-88.502465,0.002655,
1770,1340,-0.731274,-1.741833,0.999998,0.000158,-0.001340,0.002579,0.000156,0.002585,-0.001346,87.718755,0.002586,
750,1080,0.865730,-2.389387,0.999998,0.000179,-0.001064,0.002504,-0.000136,0.002509,-0.001070,-87.825385,0.002518,
830,580,0.429951,-3.763478,0.999998,0.000174,-0.001425,0.002618,-0.000106,0.002620,-0.001428,-88.499661,0.002624,
1550,570,-0.311177,-3.865438,0.999998,0.000193,-0.001355,0.002536,0.000248,0.002552,-0.001371,86.365513,0.002554,
1480,1310,-0.297625,-1.566391,0.999998,0.000181,-0.001811,0.002983,-0.000421,0.003019,-0.001847,-85.018628,0.003044,
920,720,0.388698,-3.460716,0.999997,0.000211,-0.001709,0.002932,-0.000163,0.002938,-0.001715,-87.994291,0.002951,
1780,1130,-0.915759,-2.275313,0.999999,0.000144,-0.001137,0.002419,0.000176,0.002428,-0.001145,87.172816,0.002429,
1490,560,-0.229073,-3.949092,0.999998,0.000153,-0.001232,0.002397,0.000342,0.002429,-0.001264,84.655874,0.002430,
850,290,0.233469,-4.489321,0.999998,0.000187,-0.000905,0.002311,0.000099,0.002314,-0.000908,88.244473,0.002332,
1700,200,-0.229471,-4.657664,0.999997,0.000178,-0.000852,0.002362,-0.000354,0.002401,-0.000890,-83.792808,0.002427,
1210,1670,0.011532,-0.605279,0.999998,0.000162,-0.000565,0.001792,0.000051,0.001793,-0.000566,88.752743,0.001833,
1570,970,-0.712111,-2.679949,0.999998,0.000170,-0.001034,0.002817,-0.000260,0.002834,-0.001052,-86.160587,0.002865,
860,890,0.674162,-2.898132,0.999998,0.000167,-0.001343,0.002883,0.000348,0.002912,-0.001372,85.326274,0.002913,
670,210,0.337201,-4.575946,0.999998,0.000179,-0.001123,0.002562,0.000285,0.002584,-0.001145,85.604622,0.002590,
1840,640,-0.757671,-3.443312,0.999998,0.000189,-0.001258,0.002568,-0.000043,0.002568,-0.001258,-89.356177,0.002569,
620,1950,0.219252,-0.233538,0.999998,0.000149,-0.001196,0.002633,-0.000457,0.002687,-0.001250,-83.282362,0.002689,
1420,500,-0.138518,-4.148808,0.999998,0.000136,-0.000919,0.002116,0.000288,0.002143,-0.000946,84.627379,0.002148,
1180,1370,0.029699,-1.102114,0.999999,0.000168,-0.000650,0.001304,0.000433,0.001396,-0.000742,78.061563,0.001397,
640,480,0.612085,-3.868177,0.999998,0.000172,-0.001287,0.002567,-0.000050,0.002567,-0.001287,-89.255242,0.002567,
1090,1990,0.010912,-0.069499,0.999999,0.000127,-0.000065,0.001578,-0.000109,0.001585,-0.000073,-86.221326,0.001790,
1520,1630,-0.214988,-0.800231,0.999998,0.000171,-0.000958,0.002241,-0.000153,0.002248,-0.000966,-87.270762,0.002256,
1320,660,-0.058031,-3.938737,0.999999,0.000150,-0.000816,0.001615,0.000570,0.001742,-0.000943,77.430762,0.001744,
1360,470,-0.083803,-4.250148,0.999999,0.000126,-0.000744,0.001911,0.000222,0.001929,-0.000762,85.259415,0.001943,
1820,1830,-0.386881,-0.522536,0.999997,0.000221,-0.001175,0.002559,0.000158,0.002566,-0.001182,87.580992,0.002568,
1670,1630,-0.382731,-0.911294,0.999998,0.000175,-0.001188,0.002480,-0.000070,0.002481,-0.001189,-88.912850,0.002482,
790,1340,0.593425,-1.680908,0.999997,0.000218,-0.001515,0.002774,-0.000125,0.002778,-0.001519,-88.336891,0.002782,
1680,90,-0.084347,-4.905441,0.999999,0.000122,-0.000396,0.001996,-0.000523,0.002105,-0.000505,-78.197652,0.002198,
1790,30,-0.023234,-5.017496,0.999999,0.000000,0.000040,0.002053,-0.000999,0.002464,-0.000372,-67.611573,0.002657,
1230,600,0.001035,-4.074935,0.999999,0.000108,-0.000589,0.001470,-0.000029,0.001471,-0.000590,-89.201356,0.001480,
760,1540,0.483320,-1.166117,0.999997,0.000191,-0.001284,0.002591,0.000068,0.002592,-0.001286,88.997767,0.002592,
1810,1780,-0.431114,-0.643296,0.999998,0.000194,-0.001189,0.002538,0.000092,0.002540,-0.001191,88.579863,0.002542,
1730,400,-0.438673,-4.144336,0.999998,0.000198,-0.001231,0.002539,0.000037,0.002539,-0.001232,89.436369,0.002539,
1390,920,-0.398204,-3.177315,0.999996,0.000222,-0.001165,0.003141,0.001797,0.003793,-0.001817,70.074806,0.003794,
1160,110,0.010654,-4.901322,0.999999,0.000159,-0.000114,0.001612,0.000045,0.001613,-0.000115,88.519442,0.001800,
1880,1020,-1.052931,-2.536161,0.999998,0.000159,-0.001011,0.002131,-0.000025,0.002131,-0.001011,-89.543052,0.002132,
1550,1880,-0.105168,-0.279449,0.999999,0.000139,-0.000448,0.001937,0.000255,0.001964,-0.000475,83.972939,0.002049,
880,1950,0.065673,-0.149975,0.999999,0.000112,-0.000356,0.001873,-0.000315,0.001917,-0.000399,-82.117120,0.002023,
870,2000,0.028426,-0.060577,0.999999,0.000153,-0.000167,0.001700,-0.000378,0.001773,-0.000240,-78.980923,0.001924,
770,1140,0.811051,-2.234592,0.999998,0.000195,-0.001188,0.002608,-0.000256,0.002625,-0.001205,-86.161561,0.002628,
950,1300,0.365019,-1.645308,0.999998,0.000154,-0.001832,0.003061,0.000256,0.003075,-0.001846,87.012156,0.003095,
1570,950,-0.697581,-2.736580,0.999998,0.000164,-0.001114,0.002887,-0.000303,0.002910,-0.001137,-85.690057,0.002933,
1800,980,-0.959883,-2.629388,0.999999,0.000147,-0.001064,0.002307,-0.000041,0.002308,-0.001064,-89.305658,0.002310,
1490,440,-0.192829,-4.224867,0.999998,0.000136,-0.000980,0.002238,0.000189,0.002249,-0.000991,86.657913,0.002254,
1450,880,-0.412302,-3.094167,0.999998,0.000177,-0.001866,0.003488,0.000214,0.003497,-0.001874,87.713854,0.003500,
1490,90,-0.032326,-4.925544,0.999999,0.000125,-0.000203,0.001708,-0.000204,0.001730,-0.000224,-83.966403,0.001881,
560,1600,0.727397,-1.182658,0.999850,0.000000,-0.002154,0.002892,-0.000276,0.002907,-0.002169,-86.875333,0.003022,
1760,160,-0.232611,-4.724316,0.999998,0.000183,-0.001031,0.002478,-0.000407,0.002524,-0.001078,-83.469641,0.002533,
850,270,0.218782,-4.537368,0.999997,0.000193,-0.000870,0.002265,0.000133,0.002271,-0.000876,87.569918,0.002291,
700,1840,0.308447,-0.454284,0.999998,0.000176,-0.001157,0.002482,-0.000230,0.002497,-0.001172,-86.396362,0.002498,
1210,1650,0.012287,-0.641463,0.999998,0.000171,-0.000569,0.001769,0.000057,0.001770,-0.000571,88.602104,0.001807,
1160,1400,0.044388,-1.078881,0.999999,0.000151,-0.000694,0.001494,0.000459,0.001586,-0.000786,78.625470,0.001586,
620,810,0.907225,-3.017008,0.999999,0.000139,-0.001191,0.002370,0.000135,0.002375,-0.001196,87.835710,0.002375,
1460,1330,-0.248201,-1.473753,0.999998,0.000181,-0.001717,0.002803,-0.000575,0.002875,-0.001789,-82.865090,0.002903,
1510,660,-0.295068,-3.673173,0.999998,0.000177,-0.001558,0.002713,0.000375,0.002746,-0.001591,85.014048,0.002757,
1550,550,-0.299885,-3.914634,0.999998,0.000188,-0.001332,0.002527,0.000240,0.002542,-0.001347,86.459912,0.002544,
1840,620,-0.741985,-3.495539,0.999997,0.000199,-0.001264,0.002570,-0.000017,0.002570,-0.001264,-89.738902,0.002570,
670,190,0.310028,-4.627747,0.999998,0.000182,-0.001073,0.002538,0.000348,0.002571,-0.001106,84.548424,0.002580,
840,870,0.680142,-2.947100,0.999998,0.000170,-0.001396,0.002862,0.000352,0.002891,-0.001425,85.310680,0.002891,
1420,480,-0.136797,-4.190643,0.999998,0.000151,-0.000882,0.002061,0.000250,0.002082,-0.000903,85.183861,0.002088,
1670,1590,-0.406932,-1.011154,0.999998,0.000160,-0.001243,0.002509,-0.000087,0.002511,-0.001245,-88.665461,0.002511,
1560,1630,-0.257733,-0.830411,0.999998,0.000165,-0.001099,0.002362,-0.000141,0.002368,-0.001104,-87.668811,0.002369,
1760,1130,-0.893004,-2.270716,0.999999,0.000144,-0.001142,0.002450,0.000201,0.002461,-0.001153,86.802062,0.002463,
1710,1640,-0.423971,-0.915914,0.999999,0.000145,-0.001229,0.002522,-0.000043,0.002522,-0.001230,-89.348746,0.002523,
800,1860,0.192002,-0.354625,0.999998,0.000151,-0.000826,0.002237,-0.000309,0.002268,-0.000857,-84.305103,0.002290,
1530,1200,-0.518451,-1.985819,0.999998,0.000175,-0.001707,0.003227,0.000206,0.003236,-0.001715,87.610905,0.003238,
1360,510,-0.087012,-4.173606,0.999998,0.000134,-0.000815,0.001917,0.000281,0.001946,-0.000843,84.178710,0.001951,
1800,1830,-0.363822,-0.507325,0.999997,0.000220,-0.001131,0.002560,0.000225,0.002574,-0.001144,86.519683,0.002579,
920,700,0.373230,-3.520908,0.999997,0.000200,-0.001672,0.002885,-0.000206,0.002895,-0.001682,-87.415420,0.002907,
1090,1970,0.013806,-0.102938,0.999999,0.000135,-0.000100,0.001587,-0.000101,0.001593,-0.000106,-86.601672,0.001781,
1320,640,-0.054519,-3.970749,0.999999,0.000151,-0.000789,0.001616,0.000491,0.001713,-0.000885,78.903706,0.001713,
1070,1380,0.131355,-1.234062,0.999998,0.000153,-0.001245,0.002188,0.000734,0.002338,-0.001395,78.431564,0.002353,
1230,580,0.002278,-4.104645,0.999998,0.000181,-0.000603,0.001549,-0.000019,0.001550,-0.000603,-89.495980,0.001562,
770,1340,0.624113,-1.693418,0.999998,0.000173,-0.001456,0.002755,-0.000138,0.002760,-0.001461,-88.122138,0.002762,
640,460,0.599317,-3.919379,0.999998,0.000174,-0.001275,0.002513,-0.000037,0.002514,-0.001275,-89.434101,0.002514,
1700,180,-0.206698,-4.705794,0.999998,0.000156,-0.000768,0.002283,-0.000396,0.002333,-0.000818,-82.729003,0.002368,
1780,2020,-0.035528,-0.034789,0.999999,0.000000,-0.000143,0.002073,0.000894,0.002389,-0.000459,70.550697,0.002535,
760,1520,0.496615,-1.218306,0.999998,0.000183,-0.001308,0.002612,0.000068,0.002613,-0.001309,89.007641,0.002613,
750,1140,0.834161,-2.238605,0.999998,0.000179,-0.001160,0.002546,-0.000231,0.002561,-0.001174,-86.439666,0.002564,
1530,1880,-0.096732,-0.275985,0.999998,0.000148,-0.000412,0.001905,0.000227,0.001927,-0.000434,84.454583,0.002021,
1270,320,-0.019235,-4.547758,0.999998,0.000185,-0.000485,0.001771,0.000020,0.001772,-0.000485,89.496174,0.001831,
670,400,0.516648,-4.095221,0.999997,0.000195,-0.001246,0.002538,-0.000035,0.002538,-0.001246,-89.476514,0.002538,
900,1630,0.260555,-0.832650,0.999998,0.000146,-0.001086,0.002362,0.000140,0.002368,-0.001092,87.678301,0.002370,
700,1820,0.331554,-0.503570,0.999998,0.000174,-0.001189,0.002521,-0.000164,0.002528,-0.001196,-87.474189,0.002529,
930,1300,0.402797,-1.673893,0.999998,0.000180,-0.001800,0.003042,0.000137,0.003046,-0.001804,88.374988,0.003063,
670,170,0.282096,-4.677333,0.999998,0.000172,-0.001022,0.002543,0.000429,0.002594,-0.001073,83.231072,0.002607,
1390,930,-0.417616,-3.144389,0.999997,0.000194,-0.001277,0.003396,0.002058,0.004174,-0.002054,69.312736,0.004174,
1450,860,-0.378301,-3.161961,0.999997,0.000184,-0.001951,0.003445,0.000309,0.003462,-0.001969,86.728630,0.003473,
1800,960,-0.957020,-2.676728,0.999998,0.000155,-0.001086,0.002337,-0.000091,0.002340,-0.001088,-88.476659,0.002341,
1210,1630,0.010953,-0.676400,0.999998,0.000181,-0.000568,0.001761,0.000057,0.001762,-0.000570,88.607090,0.001799,
850,250,0.203972,-4.580722,0.999998,0.000194,-0.000829,0.002244,0.000186,0.002255,-0.000841,86.552527,0.002280,
1760,140,-0.202104,-4.775300,0.999998,0.000156,-0.000954,0.002385,-0.000477,0.002451,-0.001021,-82.024886,0.002463,
1570,930,-0.676352,-2.795144,0.999998,0.000173,-0.001209,0.002907,-0.000348,0.002937,-0.001238,-85.202889,0.002949,
880,950,0.711084,-2.733556,0.999998,0.000174,-0.001134,0.002816,0.000300,0.002839,-0.001157,85.678133,0.002855,
560,1590,0.747878,-1.215084,0.999888,0.000000,-0.002503,0.002515,0.000116,0.002518,-0.002506,88.676691,0.002900,
1840,600,-0.724866,-3.546188,0.999998,0.000172,-0.001279,0.002536,-0.000027,0.002536,-0.001279,-89.598598,0.002536,
750,50,0.044527,-4.980100,0.999999,0.000130,-0.000114,0.001933,0.000613,0.002102,-0.000283,74.538264,0.002281,
1160,1380,0.043422,-1.107846,0.999999,0.000143,-0.000695,0.001469,0.000519,0.001587,-0.000813,77.185597,0.001587,
1490,510,-0.211519,-4.068011,0.999998,0.000156,-0.001123,0.002307,0.000298,0.002333,-0.001148,85.073593,0.002333,
1180,110,0.007816,-4.902567,0.999999,0.000148,-0.000142,0.001610,0.000031,0.001611,-0.000143,88.973524,0.001783,
1550,530,-0.292778,-3.965089,0.999998,0.000174,-0.001309,0.002487,0.000254,0.002504,-0.001326,86.188685,0.002506,
980,1230,0.386969,-1.823480,0.999998,0.000192,-0.001947,0.003314,0.000156,0.003319,-0.001952,88.302389,0.003336,
1870,1020,-1.042618,-2.536559,0.999998,0.000176,-0.001016,0.002170,-0.000040,0.002170,-0.001017,-89.278236,0.002172,
580,820,0.961733,-2.970822,0.999999,0.000130,-0.001123,0.002336,0.000030,0.002336,-0.001124,89.496326,0.002337,
1540,1630,-0.235948,-0.814767,0.999998,0.000161,-0.001077,0.002310,-0.000154,0.002317,-0.001084,-87.400255,0.002319,
1420,460,-0.133013,-4.231736,0.999998,0.000154,-0.000847,0.002058,0.000211,0.002073,-0.000862,85.863050,0.002083,
920,1370,0.363590,-1.477622,0.999998,0.000214,-0.001648,0.002857,0.000254,0.002871,-0.001662,86.780712,0.002883,
1130,1380,0.067514,-1.144145,0.999999,0.000148,-0.000885,0.001708,0.000692,0.001882,-0.001058,75.951750,0.001887,
640,440,0.582827,-3.967442,0.999998,0.000162,-0.001262,0.002507,-0.000032,0.002507,-0.001263,-89.513023,0.002507,
650,920,0.950180,-2.769604,0.999998,0.000160,-0.001133,0.002310,0.000153,0.002316,-0.001139,87.459603,0.002316,
1710,1620,-0.438795,-0.967909,0.999998,0.000182,-0.001247,0.002527,-0.000069,0.002528,-0.001248,-88.949219,0.002528,
1090,1950,0.019297,-0.134095,0.999999,0.000127,-0.000142,0.001617,-0.000114,0.001624,-0.000149,-86.316543,0.001795,
1360,530,-0.089237,-4.134039,0.999999,0.000149,-0.000851,0.001958,0.000326,0.001996,-0.000888,83.458205,0.002000,
1320,620,-0.058052,-4.002299,0.999998,0.000145,-0.000755,0.001668,0.000441,0.001746,-0.000833,79.990843,0.001747,
760,1500,0.509389,-1.270756,0.999998,0.000191,-0.001328,0.002618,0.000062,0.002619,-0.001329,89.096288,0.002619,
1700,600,-0.538059,-3.652784,0.999997,0.000193,-0.001408,0.002654,0.000024,0.002654,-0.001408,89.661359,0.002656,
1780,30,-0.022799,-5.016587,0.999999,0.000000,0.000054,0.002015,-0.000931,0.002387,-0.000318,-68.233563,0.002592,
1530,1180,-0.546488,-2.050415,0.999998,0.000173,-0.001623,0.003212,0.000282,0.003229,-0.001640,86.669687,0.003229,
1670,1570,-0.420707,-1.062005,0.999997,0.000185,-0.001267,0.002531,-0.000095,0.002533,-0.001270,-88.564989,0.002533,
920,680,0.359405,-3.576122,0.999997,0.000202,-0.001614,0.002834,-0.000241,0.002847,-0.001627,-86.910675,0.002856,
880,1630,0.282388,-0.846802,0.999998,0.000170,-0.001085,0.002358,0.000108,0.002361,-0.001088,88.202252,0.002364,
1500,2000,-0.017592,-0.056642,0.999999,0.000168,-0.000157,0.001614,0.000221,0.001642,-0.000184,82.988683,0.001799,
1860,610,-0.757210,-3.506075,0.999998,0.000209,-0.001278,0.002553,-0.000002,0.002553,-0.001278,-89.967270,0.002553,
1400,1950,-0.023606,-0.134408,0.999998,0.000169,-0.000154,0.001635,0.000127,0.001644,-0.000163,85.974382,0.001811,
700,1800,0.354674,-0.554748,0.999997,0.000203,-0.001193,0.002536,-0.000112,0.002540,-0.001197,-88.283146,0.002541,
1800,940,-0.947389,-2.726323,0.999998,0.000152,-0.001107,0.002384,-0.000177,0.002393,-0.001116,-87.099682,0.002395,
1270,300,-0.018437,-4.582770,0.999998,0.000143,-0.000450,0.001763,0.000007,0.001763,-0.000450,89.817261,0.001832,
1520,330,-0.175912,-4.448880,0.999998,0.000193,-0.000799,0.002225,-0.000002,0.002225,-0.000799,-89.968696,0.002255,
620,1990,0.126916,-0.125897,0.999998,0.000173,-0.001090,0.002647,-0.000686,0.002769,-0.001212,-79.919404,0.002776,
1210,1610,0.012290,-0.712104,0.999998,0.000160,-0.000583,0.001775,0.000066,0.001777,-0.000585,88.399477,0.001811,
1460,1170,-0.439667,-1.985666,0.999998,0.000185,-0.001834,0.003487,-0.000092,0.003488,-0.001836,-89.014421,0.003490,
670,560,0.632502,-3.685252,0.999998,0.000153,-0.001278,0.002570,-0.000023,0.002570,-0.001278,-89.656527,0.002570,
670,150,0.250983,-4.729875,0.999998,0.000161,-0.000940,0.002569,0.000508,0.002641,-0.001013,81.926136,0.002665,
1460,960,-0.577415,-2.779017,0.999997,0.000206,-0.001416,0.003755,0.000008,0.003755,-0.001416,89.905848,0.003792,
1840,580,-0.708140,-3.596680,0.999998,0.000177,-0.001276,0.002555,-0.000009,0.002555,-0.001276,-89.867083,0.002555,
860,950,0.734078,-2.728218,0.999998,0.000168,-0.001095,0.002741,0.000285,0.002762,-0.001116,85.778754,0.002779,
630,180,0.340436,-4.618115,0.999998,0.000181,-0.001211,0.002573,0.000232,0.002588,-0.001225,86.503899,0.002589,
1050,1300,0.185354,-1.464962,0.999998,0.000170,-0.001670,0.002657,0.000837,0.002813,-0.001826,79.418404,0.002855,
870,1950,0.068622,-0.151096,0.999999,0.000142,-0.000377,0.001884,-0.000335,0.001932,-0.000425,-81.735775,0.002031,
1110,1880,0.032780,-0.247596,0.999998,0.000155,-0.000292,0.001726,-0.000027,0.001726,-0.000293,-89.236084,0.001848,
1880,50,-0.128314,-4.924677,0.999996,0.000250,-0.000539,0.003229,-0.001418,0.003703,-0.001012,-71.517802,0.003827,
980,1210,0.416283,-1.891354,0.999997,0.000212,-0.001900,0.003375,0.000062,0.003375,-0.001901,89.331691,0.003384,
1550,510,-0.283439,-4.016010,0.999998,0.000165,-0.001253,0.002437,0.000222,0.002451,-0.001266,86.563824,0.002451,
560,1580,0.731256,-1.235532,0.999886,0.000000,-0.002759,0.001962,0.000353,0.001989,-0.002785,85.746764,0.002869,
800,1840,0.212572,-0.398909,0.999998,0.000157,-0.000877,0.002284,-0.000251,0.002304,-0.000897,-85.496044,0.002323,
640,420,0.568410,-4.019210,0.999998,0.000171,-0.001249,0.002542,-0.000034,0.002542,-0.001249,-89.485359,0.002543,
960,720,0.319960,-3.512619,0.999997,0.000208,-0.001726,0.002907,-0.000344,0.002932,-0.001752,-85.773421,0.002951,
1700,620,-0.553665,-3.599378,0.999997,0.000194,-0.001425,0.002680,0.000005,0.002680,-0.001425,89.924218,0.002681,
760,1480,0.524259,-1.323714,0.999997,0.000208,-0.001334,0.002626,0.000053,0.002626,-0.001335,89.239132,0.002627,
1420,440,-0.128965,-4.270739,0.999998,0.000167,-0.000818,0.002045,0.000190,0.002058,-0.000831,86.214014,0.002070,
1570,910,-0.653356,-2.853080,0.999998,0.000169,-0.001342,0.002951,-0.000351,0.002979,-0.001370,-85.359870,0.002982,
1250,710,-0.009403,-3.927170,0.999999,0.000127,-0.000511,0.001030,0.000211,0.001058,-0.000539,82.343516,0.001058,
1060,470,0.120875,-4.221591,0.999998,0.000162,-0.000861,0.002005,-0.000259,0.002028,-0.000884,-84.872687,0.002033,
1320,600,-0.059419,-4.036048,0.999999,0.000134,-0.000737,0.001725,0.000384,0.001783,-0.000795,81.334133,0.001787,
900,1370,0.395586,-1.499700,0.999997,0.000201,-0.001630,0.002864,0.000183,0.002872,-0.001638,87.666427,0.002881,
1670,160,-0.160223,-4.761027,0.999998,0.000182,-0.000740,0.002199,-0.000398,0.002251,-0.000793,-82.424710,0.002284,
1120,1630,0.068936,-0.700172,0.999999,0.000152,-0.000656,0.001859,0.000158,0.001869,-0.000666,86.421460,0.001895,
1410,1520,-0.135063,-0.956210,0.999998,0.000171,-0.000974,0.002088,-0.000354,0.002129,-0.001014,-83.481833,0.002130,
1760,120,-0.172485,-4.820875,0.999999,0.000133,-0.000869,0.002354,-0.000567,0.002451,-0.000966,-80.302077,0.002469,
1220,110,0.002086,-4.902700,0.999998,0.000156,-0.000128,0.001556,-0.000007,0.001556,-0.000128,-89.761414,0.001728,
1840,1000,-1.007803,-2.581490,0.999998,0.000214,-0.001077,0.002249,-0.000075,0.002251,-0.001079,-88.701788,0.002252,
590,1300,0.895812,-1.909402,0.999999,0.000159,-0.001178,0.002441,-0.000057,0.002442,-0.001179,-89.094182,0.002442,
1670,1550,-0.432888,-1.113229,0.999997,0.000178,-0.001267,0.002578,-0.000090,0.002580,-0.001269,-88.667296,0.002580,
1450,1820,-0.087113,-0.371920,0.999998,0.000177,-0.000464,0.001915,0.000085,0.001918,-0.000467,87.965245,0.002001,
630,920,0.971501,-2.763858,0.999998,0.000150,-0.001098,0.002287,0.000140,0.002293,-0.001103,87.629497,0.002293,
1570,1220,-0.557958,-1.959220,0.999997,0.000194,-0.001652,0.003065,0.000240,0.003078,-0.001664,87.091237,0.003081,
1430,780,-0.234391,-3.466112,0.999997,0.000201,-0.001855,0.002927,0.000714,0.003031,-0.001960,81.685811,0.003074,
1010,1580,0.165526,-0.864620,0.999998,0.000151,-0.000984,0.002201,0.000272,0.002225,-0.001007,85.145414,0.002228,
1430,420,-0.132951,-4.305528,0.999998,0.000148,-0.000809,0.002028,0.000164,0.002038,-0.000818,86.692874,0.002051,
1840,610,-0.733154,-3.520228,0.999998,0.000169,-0.001278,0.002554,-0.000020,0.002554,-0.001278,-89.701633,0.002554,
1460,940,-0.543496,-2.856029,0.999997,0.000206,-0.001492,0.003712,-0.000001,0.003712,-0.001492,-89.990478,0.003736,
1800,920,-0.935471,-2.772779,0.999999,0.000129,-0.001115,0.002394,-0.000175,0.002403,-0.001124,-87.145013,0.002405,
1490,260,-0.120063,-4.607376,0.999998,0.000163,-0.000643,0.002005,-0.000053,0.002006,-0.000645,-88.844129,0.002049,
1350,1390,-0.083038,-1.149401,0.999998,0.000151,-0.000964,0.001846,-0.000674,0.002000,-0.001117,-77.185364,0.002004,
1380,1950,-0.019697,-0.133595,0.999998,0.000187,-0.000121,0.001612,0.000107,0.001619,-0.000128,86.484923,0.001800,
870,1930,0.086643,-0.190550,0.999998,0.000152,-0.000445,0.001929,-0.000336,0.001975,-0.000491,-82.087496,0.002057,
1410,1440,-0.144172,-1.126734,0.999999,0.000142,-0.001153,0.002163,-0.000549,0.002251,-0.001242,-80.837786,0.002255,
1160,1360,0.041507,-1.133721,0.999999,0.000129,-0.000721,0.001425,0.000611,0.001587,-0.000883,75.173356,0.001590,
610,180,0.364855,-4.596079,0.999997,0.000189,-0.001207,0.002562,0.000181,0.002571,-0.001215,87.261535,0.002572,
860,930,0.715888,-2.784666,0.999998,0.000183,-0.001186,0.002800,0.000346,0.002829,-0.001216,85.074510,0.002839,
1840,390,-0.567423,-4.080392,0.999997,0.000188,-0.001245,0.002501,0.000023,0.002501,-0.001246,89.642121,0.002501,
1060,1920,0.033067,-0.184678,0.999999,0.000143,-0.000236,0.001673,-0.000106,0.001679,-0.000242,-86.843836,0.001815,
1090,1930,0.024585,-0.166591,0.999999,0.000141,-0.000176,0.001637,-0.000101,0.001642,-0.000182,-86.807439,0.001801,
1550,490,-0.276571,-4.063275,0.999998,0.000157,-0.001166,0.002388,0.000208,0.002400,-0.001178,86.659731,0.002400,
1210,600,0.013262,-4.069234,0.999999,0.000127,-0.000605,0.001507,-0.000136,0.001515,-0.000614,-86.324079,0.001524,
640,400,0.554453,-4.069042,0.999998,0.000183,-0.001246,0.002533,-0.000052,0.002534,-0.001247,-89.216245,0.002534,
1380,1290,-0.138061,-1.411562,0.999997,0.000188,-0.001544,0.002355,-0.000996,0.002595,-0.001784,-76.470468,0.002655,
1700,640,-0.569502,-3.543941,0.999997,0.000188,-0.001440,0.002691,-0.000018,0.002691,-0.001440,-89.749127,0.002694,
1020,680,0.199847,-3.715413,0.999998,0.000159,-0.001472,0.002523,-0.000616,0.002616,-0.001565,-81.436550,0.002633,
1770,1720,-0.436613,-0.761332,0.999998,0.000169,-0.001211,0.002529,0.000018,0.002530,-0.001211,89.729135,0.002530,
1200,1590,0.018711,-0.749946,0.999999,0.000145,-0.000609,0.001757,0.000083,0.001760,-0.000612,87.981061,0.001787,
760,1460,0.539273,-1.376530,0.999997,0.000193,-0.001359,0.002647,0.000034,0.002647,-0.001359,89.507400,0.002648,
1420,420,-0.123954,-4.311777,0.999998,0.000161,-0.000804,0.002012,0.000181,0.002024,-0.000815,86.329758,0.002036,
1090,1880,0.038323,-0.250599,0.999998,0.000167,-0.000235,0.001715,-0.000074,0.001717,-0.000237,-87.839727,0.001861,
1490,2000,-0.016164,-0.057167,0.999998,0.000161,-0.000114,0.001609,0.000204,0.001632,-0.000138,83.339412,0.001811,
1250,670,-0.009340,-3.974791,0.999999,0.000125,-0.000529,0.001244,0.000170,0.001260,-0.000546,84.574660,0.001263,
970,540,0.227584,-3.994472,0.999999,0.000148,-0.001223,0.002384,-0.000327,0.002413,-0.001252,-84.857670,0.002414,
1670,1530,-0.445582,-1.164265,0.999997,0.000182,-0.001293,0.002588,-0.000098,0.002590,-0.001295,-88.553623,0.002590,
1840,1020,-1.012669,-2.537105,0.999998,0.000202,-0.001070,0.002250,-0.000034,0.002250,-0.001070,-89.414375,0.002251,
680,330,0.448216,-4.278775,0.999998,0.000192,-0.001195,0.002512,-0.000001,0.002512,-0.001195,-89.984531,0.002513,
1460,1150,-0.478720,-2.055916,0.999997,0.000194,-0.001731,0.003564,-0.000017,0.003564,-0.001731,-89.814932,0.003565,
670,130,0.218245,-4.779365,0.999998,0.000146,-0.000861,0.002536,0.000629,0.002648,-0.000974,79.836107,0.002679,
1210,1590,0.014010,-0.747790,0.999999,0.000151,-0.000627,0.001740,0.000090,0.001743,-0.000630,87.825191,0.001765,
800,1820,0.230715,-0.445542,0.999998,0.000157,-0.000912,0.002321,-0.000216,0.002335,-0.000926,-86.196091,0.002352,
1180,1390,0.029368,-1.075447,0.999998,0.000164,-0.000668,0.001369,0.000403,0.001446,-0.000745,79.199926,0.001447,
1640,270,-0.241910,-4.524125,0.999998,0.000143,-0.000875,0.002305,-0.000172,0.002314,-0.000884,-86.906633,0.002336,
820,570,0.437462,-3.779789,0.999997,0.000179,-0.001417,0.002623,-0.000113,0.002626,-0.001420,-88.402446,0.002629,
1800,900,-0.923737,-2.820091,0.999999,0.000138,-0.001146,0.002385,-0.000169,0.002393,-0.001154,-87.273307,0.002394,
1460,920,-0.507396,-2.929994,0.999997,0.000192,-0.001613,0.003577,-0.000007,0.003577,-0.001613,-89.925931,0.003582,
1850,1280,-0.886483,-1.941419,0.999998,0.000146,-0.001203,0.002433,0.000124,0.002437,-0.001207,88.047320,0.002437,
1770,1500,-0.599923,-1.324905,0.999998,0.000167,-0.001318,0.002618,-0.000008,0.002618,-0.001318,-89.881643,0.002618,
1760,100,-0.137628,-4.868452,0.999998,0.000146,-0.000789,0.002242,-0.000599,0.002356,-0.000903,-79.225844,0.002377,
1320,580,-0.058103,-4.069378,0.999999,0.000131,-0.000733,0.001706,0.000343,0.001754,-0.000780,82.149686,0.001757,
1570,1330,-0.439739,-1.623873,0.999997,0.000193,-0.001670,0.002966,-0.000091,0.002968,-0.001672,-88.879633,0.002976,
1490,460,-0.198285,-4.179947,0.999999,0.000140,-0.000996,0.002227,0.000216,0.002241,-0.001011,86.174905,0.002245,
960,740,0.334961,-3.452660,0.999997,0.000187,-0.001776,0.002976,-0.000324,0.002998,-0.001798,-86.120355,0.003018,
1100,1630,0.082085,-0.707566,0.999998,0.000169,-0.000679,0.001900,0.000141,0.001908,-0.000686,86.872312,0.001933,
580,1300,0.907515,-1.916312,0.999999,0.000168,-0.001265,0.002398,-0.000030,0.002398,-0.001265,-89.533515,0.002400,
870,1910,0.101741,-0.228209,0.999998,0.000152,-0.000538,0.001989,-0.000314,0.002027,-0.000576,-83.028507,0.002089,
790,280,0.281659,-4.480801,0.999998,0.000157,-0.001053,0.002405,0.000127,0.002409,-0.001058,87.907236,0.002415,
1660,1110,-0.792583,-2.307405,0.999998,0.000193,-0.001110,0.002608,0.000242,0.002623,-0.001126,86.296031,0.002632,
1060,450,0.116413,-4.260516,0.999999,0.000126,-0.000825,0.002012,-0.000222,0.002029,-0.000842,-85.556555,0.002039,
1500,330,-0.159004,-4.457715,0.999998,0.000187,-0.000835,0.002166,0.000028,0.002167,-0.000835,89.458137,0.002186,
850,230,0.186831,-4.626845,0.999998,0.000191,-0.000746,0.002208,0.000223,0.002225,-0.000763,85.716525,0.002261,
1620,320,-0.259832,-4.419004,0.999998,0.000187,-0.000943,0.002333,-0.000044,0.002333,-0.000943,-89.222612,0.002348,
560,1570,0.741276,-1.256312,0.999872,0.000000,-0.002633,0.001684,0.000269,0.001701,-0.002650,86.445816,0.002685,
660,370,0.505925,-4.162263,0.999998,0.000171,-0.001255,0.002529,-0.000002,0.002529,-0.001255,-89.975967,0.002529,
1880,780,-0.926924,-3.065815,0.999998,0.000155,-0.001151,0.002370,-0.000073,0.002372,-0.001152,-88.819684,0.002372,
1470,1820,-0.097533,-0.375549,0.999998,0.000165,-0.000495,0.001941,0.000104,0.001945,-0.000500,87.565323,0.002021,
1490,530,-0.219420,-4.020662,0.999998,0.000177,-0.001186,0.002342,0.000310,0.002369,-0.001213,85.009611,0.002369,
1770,1700,-0.453135,-0.813136,0.999998,0.000161,-0.001197,0.002532,-0.000002,0.002532,-0.001197,-89.967696,0.002533,
760,1440,0.554683,-1.430264,0.999997,0.000195,-0.001391,0.002689,0.000022,0.002690,-0.001391,89.690924,0.002690,
1700,660,-0.586026,-3.491903,0.999997,0.000202,-0.001438,0.002704,-0.000061,0.002705,-0.001439,-89.157022,0.002707,
640,380,0.538291,-4.119620,0.999998,0.000172,-0.001233,0.002521,-0.000029,0.002521,-0.001233,-89.559249,0.002521,
1350,1590,-0.076639,-0.778066,0.999998,0.000150,-0.000685,0.001875,-0.000198,0.001891,-0.000700,-85.604990,0.001912,
1550,470,-0.268714,-4.110316,0.999998,0.000161,-0.001117,0.002376,0.000173,0.002384,-0.001125,87.176968,0.002386,
1130,40,0.002156,-5.009719,0.999999,0.000144,-0.000054,0.001498,0.000033,0.001498,-0.000055,88.789915,0.001699,
1430,1860,-0.064801,-0.293672,0.999998,0.000162,-0.000400,0.001792,0.000097,0.001796,-0.000405,87.462564,0.001884,
1200,110,0.003457,-4.901949,0.999999,0.000150,-0.000150,0.001587,0.000027,0.001587,-0.000151,89.098781,0.001752,
1240,1690,-0.004579,-0.569505,0.999998,0.000178,-0.000543,0.001785,-0.000034,0.001786,-0.000543,-89.172122,0.001831,
1380,1270,-0.147998,-1.459163,0.999998,0.000168,-0.001629,0.002409,-0.001050,0.002666,-0.001885,-76.257105,0.002741,
1770,2020,-0.032702,-0.034378,0.999999,0.000000,-0.000259,0.002043,0.000816,0.002303,-0.000519,72.329457,0.002416,
1420,400,-0.120519,-4.353006,0.999998,0.000157,-0.000780,0.002028,0.000147,0.002035,-0.000787,87.010645,0.002053,
1250,650,-0.010620,-3.999180,0.999999,0.000129,-0.000545,0.001317,0.000156,0.001330,-0.000558,85.255863,0.001336,
1840,1040,-1.010699,-2.491623,0.999998,0.000174,-0.001055,0.002261,0.000057,0.002261,-0.001056,89.022058,0.002263,
620,1050,1.012275,-2.469272,0.999998,0.000192,-0.001046,0.002236,-0.000049,0.002237,-0.001047,-89.145901,0.002238,
1290,340,-0.030024,-4.509849,0.999998,0.000153,-0.000492,0.001799,0.000022,0.001799,-0.000492,89.454344,0.001860,
1620,1950,-0.078427,-0.154981,0.999998,0.000152,-0.000337,0.001944,0.000410,0.002015,-0.000409,80.112289,0.002131,
800,570,0.466074,-3.761783,0.999997,0.000180,-0.001370,0.002641,-0.000079,0.002642,-0.001372,-88.876139,0.002643,
1800,140,-0.242121,-4.752085,0.999998,0.000194,-0.000908,0.002545,-0.000584,0.002641,-0.001004,-80.664958,0.002667,
1880,1770,-0.524624,-0.735099,0.999998,0.000212,-0.001228,0.002438,-0.000018,0.002439,-0.001228,-89.714022,0.002439,
1670,1510,-0.458807,-1.217359,0.999998,0.000179,-0.001333,0.002634,-0.000093,0.002636,-0.001335,-88.660274,0.002636,
1160,1340,0.039860,-1.162198,0.999999,0.000141,-0.000751,0.001343,0.000692,0.001551,-0.000959,73.275500,0.001565,
1460,900,-0.468729,-3.000252,0.999997,0.000184,-0.001755,0.003546,0.000036,0.003546,-0.001755,89.607891,0.003546,
1180,1590,0.031691,-0.753211,0.999999,0.000131,-0.000632,0.001775,0.000080,0.001778,-0.000635,88.095259,0.001802,
960,760,0.351707,-3.393536,0.999998,0.000175,-0.001828,0.003059,-0.000271,0.003074,-0.001843,-86.835598,0.003094,
680,350,0.465457,-4.228793,0.999997,0.000185,-0.001206,0.002517,0.000005,0.002517,-0.001206,89.920758,0.002518,
1020,660,0.194877,-3.764982,0.999998,0.000163,-0.001387,0.002467,-0.000587,0.002555,-0.001475,-81.532132,0.002565,
1530,1400,-0.323556,-1.378148,0.999998,0.000172,-0.001556,0.002735,-0.000305,0.002756,-0.001578,-85.955937,0.002766,
930,540,0.274501,-3.957298,0.999998,0.000184,-0.001255,0.002471,-0.000258,0.002488,-0.001273,-86.064505,0.002489,
1210,1570,0.014404,-0.781790,0.999998,0.000159,-0.000619,0.001719,0.000087,0.001722,-0.000622,87.865534,0.001744,
570,1300,0.920012,-1.923357,0.999993,0.000321,-0.001306,0.002342,-0.000010,0.002342,-0.001306,-89.839325,0.002347,
1310,1520,-0.050198,-0.886391,0.999999,0.000125,-0.000709,0.001749,-0.000245,0.001773,-0.000733,-84.355600,0.001782,
1070,800,0.183056,-3.505030,0.999997,0.000198,-0.001768,0.002704,-0.000980,0.002910,-0.001973,-78.168681,0.002971,
1640,310,-0.271262,-4.430251,0.999998,0.000166,-0.000959,0.002329,-0.000063,0.002330,-0.000960,-88.905236,0.002342,
760,1420,0.569177,-1.482094,0.999997,0.000192,-0.001415,0.002693,-0.000024,0.002694,-0.001416,-89.668936,0.002695,
1360,450,-0.083210,-4.286704,0.999998,0.000145,-0.000709,0.001875,0.000213,0.001893,-0.000726,85.309664,0.001910,
670,350,0.476583,-4.221269,0.999997,0.000190,-0.001205,0.002518,0.000004,0.002518,-0.001205,89.937030,0.002519,
1760,80,-0.109081,-4.908527,0.999998,0.000139,-0.000612,0.002198,-0.000704,0.002364,-0.000778,-76.690779,0.002410,
800,1800,0.249408,-0.490941,0.999998,0.000153,-0.000965,0.002347,-0.000158,0.002354,-0.000973,-87.279742,0.002366,
1220,1690,0.006205,-0.569059,0.999998,0.000147,-0.000536,0.001783,0.000010,0.001783,-0.000536,89.740728,0.001830,
1870,490,-0.679359,-3.804472,0.999998,0.000143,-0.001239,0.002524,0.000028,0.002524,-0.001239,89.576058,0.002525,
1550,450,-0.258892,-4.158502,0.999998,0.000168,-0.001115,0.002378,0.000154,0.002385,-0.001121,87.485594,0.002386,
1240,110,-0.001338,-4.902427,0.999999,0.000132,-0.000174,0.001548,-0.000014,0.001548,-0.000174,-89.521791,0.001696,
1830,820,-0.900945,-2.999922,0.999999,0.000138,-0.001192,0.002386,-0.000160,0.002393,-0.001199,-87.448178,0.002393,
1370,1630,-0.086631,-0.712314,0.999998,0.000166,-0.000721,0.001922,-0.000156,0.001931,-0.000730,-86.633876,0.001951,
1350,1820,-0.043111,-0.351481,0.999998,0.000140,-0.000384,0.001773,0.000011,0.001773,-0.000384,89.695822,0.001866,
1790,1020,-0.957767,-2.537622,0.999998,0.000157,-0.001080,0.002366,-0.000043,0.002366,-0.001081,-89.289382,0.002369,
880,160,0.109755,-4.781913,0.999998,0.000162,-0.000559,0.002011,0.000292,0.002043,-0.000591,83.590954,0.002103,
770,280,0.301784,-4.469390,0.999998,0.000182,-0.001024,0.002452,0.000147,0.002458,-0.001030,87.587752,0.002469,
990,1880,0.070925,-0.263265,0.999998,0.000150,-0.000357,0.001837,-0.000172,0.001851,-0.000371,-85.551219,0.001958,
560,1560,0.749840,-1.259744,0.999851,0.000000,-0.002423,0.002032,-0.000085,0.002033,-0.002424,-88.907496,0.002603,
1420,380,-0.115873,-4.393698,0.999998,0.000173,-0.000773,0.002035,0.000125,0.002040,-0.000779,87.457051,0.002059,
1250,630,-0.010588,-4.027562,0.999999,0.000134,-0.000563,0.001417,0.000137,0.001426,-0.000572,86.059947,0.001436,
1650,2000,-0.036080,-0.062963,0.999999,0.000148,-0.000182,0.001837,0.000475,0.001943,-0.000288,77.410550,0.002097,
1000,1490,0.196696,-1.072548,0.999999,0.000135,-0.001179,0.002312,0.000404,0.002358,-0.001225,83.476857,0.002359,
1870,1770,-0.512646,-0.725093,0.999998,0.000204,-0.001232,0.002439,0.000006,0.002439,-0.001232,89.899677,0.002439,
1320,560,-0.058756,-4.103170,0.999999,0.000126,-0.000740,0.001754,0.000316,0.001793,-0.000779,82.899475,0.001799,
1270,340,-0.019431,-4.512213,0.999998,0.000174,-0.000494,0.001798,0.000028,0.001798,-0.000494,89.296557,0.001858,
1140,1770,0.040126,-0.434912,0.999999,0.000139,-0.000479,0.001801,0.000019,0.001801,-0.000480,89.521459,0.001865,
960,970,0.642904,-2.702695,0.999998,0.000164,-0.001140,0.003246,0.000243,0.003260,-0.001154,86.837030,0.003306,
1800,880,-0.912255,-2.867876,0.999998,0.000157,-0.001165,0.002403,-0.000200,0.002414,-0.001176,-86.806082,0.002414,
820,1230,0.659608,-1.973879,0.999998,0.000180,-0.001453,0.002859,-0.000300,0.002880,-0.001474,-86.037721,0.002880,
1610,980,-0.760446,-2.646272,0.999998,0.000200,-0.001014,0.002688,-0.000189,0.002698,-0.001024,-87.092534,0.002724,
640,360,0.522784,-4.170392,0.999998,0.000176,-0.001242,0.002508,0.000008,0.002508,-0.001242,89.876605,0.002508,
1700,1100,-0.842208,-2.337737,0.999998,0.000158,-0.001108,0.002562,0.000232,0.002577,-0.001122,86.396640,0.002584,
1460,880,-0.431893,-3.072485,0.999998,0.000179,-0.001852,0.003488,0.000116,0.003490,-0.001855,88.758895,0.003492,
1670,1490,-0.471088,-1.271271,0.999997,0.000185,-0.001362,0.002622,-0.000080,0.002624,-0.001364,-88.845314,0.002625,
960,1200,0.469952,-1.954692,0.999998,0.000206,-0.001810,0.003338,-0.000102,0.003340,-0.001812,-88.869255,0.003344,
1600,1950,-0.071742,-0.151635,0.999999,0.000139,-0.000367,0.001914,0.000372,0.001973,-0.000426,80.967221,0.002077,
660,450,0.564537,-3.958737,0.999998,0.000170,-0.001263,0.002490,-0.000019,0.002490,-0.001263,-89.705487,0.002490,
1510,1420,-0.282880,-1.301010,0.999998,0.000170,-0.001464,0.002633,-0.000371,0.002666,-0.001498,-84.870798,0.002673,
930,520,0.267024,-4.005767,0.999998,0.000169,-0.001169,0.002417,-0.000235,0.002432,-0.001185,-86.265641,0.002432,
1300,860,-0.155746,-3.724268,0.999982,0.000465,-0.001320,0.000738,0.000178,0.000753,-0.001335,85.103457,0.001339,
1840,1060,-1.006059,-2.446467,0.999998,0.000171,-0.001047,0.002225,0.000061,0.002226,-0.001049,88.933918,0.002228,
1360,430,-0.081198,-4.324572,0.999998,0.000165,-0.000680,0.001882,0.000139,0.001889,-0.000688,86.892460,0.001912,
1160,1320,0.041482,-1.188556,0.999998,0.000149,-0.000781,0.001270,0.000763,0.001522,-0.001034,71.681024,0.001554,
1550,430,-0.249798,-4.205426,0.999998,0.000155,-0.001090,0.002344,0.000165,0.002352,-0.001098,87.256415,0.002354,
1310,1400,-0.048905,-1.083810,0.999999,0.000150,-0.000764,0.001578,-0.000487,0.001675,-0.000861,-78.717755,0.001676,
750,820,0.752680,-3.049629,0.999998,0.000156,-0.001342,0.002648,0.000262,0.002666,-0.001359,86.266099,0.002666,
1290,1520,-0.037572,-0.876066,0.999998,0.000150,-0.000654,0.001719,-0.000191,0.001735,-0.000669,-85.425030,0.001750,
1490,240,-0.110293,-4.647255,0.999999,0.000136,-0.000599,0.001988,-0.000101,0.001992,-0.000603,-87.757476,0.002043,
1640,290,-0.257209,-4.477547,0.999998,0.000148,-0.000924,0.002362,-0.000120,0.002366,-0.000928,-87.910742,0.002384,
670,110,0.182060,-4.831873,0.999998,0.000146,-0.000744,0.002481,0.000717,0.002633,-0.000896,78.015939,0.002677,
1760,60,-0.069134,-4.956543,0.999998,0.000154,-0.000436,0.002177,-0.000784,0.002394,-0.000653,-74.523200,0.002475,
760,1400,0.586220,-1.538038,0.999997,0.000209,-0.001431,0.002687,-0.000041,0.002687,-0.001431,-89.423406,0.002689,
890,1550,0.310656,-1.032204,0.999998,0.000179,-0.001237,0.002489,0.000202,0.002500,-0.001248,86.904259,0.002500,
920,660,0.345775,-3.634073,0.999998,0.000183,-0.001559,0.002785,-0.000270,0.002802,-0.001575,-86.450787,0.002809,
800,1780,0.267424,-0.542039,0.999998,0.000162,-0.001015,0.002405,-0.000118,0.002409,-0.001019,-88.031627,0.002418,
1100,1690,0.075108,-0.593609,0.999998,0.000146,-0.000603,0.001898,0.000079,0.001901,-0.000605,88.190266,0.001942,
1130,340,0.053038,-4.501399,0.999998,0.000186,-0.000591,0.001843,-0.000082,0.001846,-0.000594,-88.070746,0.001885,
610,680,0.807048,-3.332364,0.999998,0.000146,-0.001270,0.002535,0.000066,0.002536,-0.001271,89.005007,0.002536,
1570,1350,-0.422716,-1.565334,0.999998,0.000175,-0.001650,0.002896,-0.000118,0.002899,-0.001653,-88.519087,0.002908,
1790,1000,-0.953742,-2.585086,0.999998,0.000148,-0.001070,0.002334,-0.000072,0.002336,-0.001071,-88.788441,0.002338,
870,160,0.116451,-4.779958,0.999998,0.000172,-0.000580,0.002035,0.000300,0.002069,-0.000614,83.538959,0.002125,
1360,1220,-0.172333,-1.507457,0.999998,0.000205,-0.001555,0.002192,-0.001139,0.002511,-0.001874,-74.356311,0.002610,
1050,1590,0.128036,-0.816238,0.999999,0.000154,-0.000842,0.002065,0.000240,0.002085,-0.000862,85.321453,0.002095,
1250,610,-0.010534,-4.055862,0.999999,0.000117,-0.000591,0.001450,0.000129,0.001459,-0.000599,86.409509,0.001466,
800,1230,0.687929,-1.982629,0.999998,0.000167,-0.001415,0.002772,-0.000297,0.002793,-0.001436,-85.961462,0.002794,
1400,1770,-0.076786,-0.452603,0.999997,0.000196,-0.000520,0.001892,0.000001,0.001892,-0.000520,89.982308,0.001955,
1520,1130,-0.604965,-2.204145,0.999997,0.000221,-0.001395,0.003199,0.000329,0.003222,-0.001419,85.924939,0.003230,
1420,360,-0.111621,-4.434736,0.999998,0.000178,-0.000735,0.001993,0.000095,0.001996,-0.000738,88.008142,0.002018,
1800,840,-0.881035,-2.966474,0.999998,0.000146,-0.001173,0.002440,-0.000196,0.002451,-0.001183,-86.903028,0.002451,
970,1880,0.079383,-0.268928,0.999998,0.000150,-0.000452,0.001865,-0.000165,0.001877,-0.000464,-85.945118,0.001955,
1320,540,-0.059396,-4.140617,0.999999,0.000132,-0.000744,0.001780,0.000286,0.001812,-0.000776,83.622152,0.001819,
1890,590,-0.780055,-3.532972,0.999998,0.000166,-0.001276,0.002586,0.000014,0.002586,-0.001276,89.784939,0.002586,
700,1780,0.374179,-0.605925,0.999997,0.000188,-0.001199,0.002509,-0.000094,0.002511,-0.001201,-88.553510,0.002512,
1090,1910,0.029611,-0.197862,0.999999,0.000123,-0.000194,0.001661,-0.000097,0.001666,-0.000199,-87.003974,0.001820,
1670,1470,-0.485541,-1.322027,0.999996,0.000209,-0.001392,0.002639,-0.000055,0.002640,-0.001393,-89.220578,0.002641,
660,430,0.551268,-4.009947,0.999998,0.000162,-0.001262,0.002532,-0.000036,0.002532,-0.001262,-89.458358,0.002532,
1190,600,0.025515,-4.066335,0.999998,0.000151,-0.000641,0.001564,-0.000180,0.001578,-0.000656,-85.354273,0.001586,
710,1340,0.707972,-1.731051,0.999998,0.000197,-0.001356,0.002645,-0.000142,0.002650,-0.001361,-87.964872,0.002650,
1700,1080,-0.851123,-2.388407,0.999998,0.000163,-0.001088,0.002533,0.000130,0.002538,-0.001092,87.948389,0.002546,
600,170,0.360613,-4.612054,0.999998,0.000193,-0.001208,0.002578,0.000169,0.002586,-0.001216,87.444055,0.002587,
960,750,0.344004,-3.422932,0.999997,0.000186,-0.001806,0.003022,-0.000296,0.003040,-0.001824,-86.505586,0.003060,
1390,940,-0.431524,-3.111666,0.999971,0.000659,-0.001469,0.003740,0.002277,0.004595,-0.002324,69.415487,0.004595,
1460,860,-0.396799,-3.139151,0.999998,0.000185,-0.001929,0.003451,0.000213,0.003460,-0.001938,87.739662,0.003468,
1620,310,-0.253127,-4.441756,0.999998,0.000177,-0.000935,0.002286,-0.000060,0.002287,-0.000936,-88.924446,0.002299,
890,1760,0.198872,-0.538881,0.999998,0.000168,-0.000852,0.002204,-0.000060,0.002206,-0.000853,-88.884441,0.002224,
560,1550,0.752404,-1.284185,0.999916,0.000000,-0.002406,0.002484,-0.000097,0.002486,-0.002408,-88.858630,0.002827,
880,1440,0.380697,-1.325572,0.999997,0.000198,-0.001480,0.002657,0.000180,0.002665,-0.001488,87.514891,0.002671,
1750,1990,-0.077273,-0.093009,0.999999,0.000142,-0.000479,0.002144,0.000711,0.002324,-0.000659,75.768943,0.002395,
1270,1520,-0.024880,-0.870311,0.999998,0.000153,-0.000625,0.001677,-0.000123,0.001684,-0.000631,-86.957369,0.001701,
1300,1690,-0.036986,-0.576449,0.999998,0.000145,-0.000528,0.001798,-0.000032,0.001798,-0.000528,-89.222375,0.001849,
1350,180,-0.032561,-4.783432,0.999998,0.000155,-0.000296,0.001723,-0.000063,0.001725,-0.000298,-88.208708,0.001844,
1880,1900,-0.358065,-0.412280,0.999997,0.000229,-0.001222,0.002561,0.000209,0.002572,-0.001233,86.844183,0.002573,
610,920,0.993439,-2.760300,0.999998,0.000148,-0.001091,0.002273,0.000126,0.002277,-0.001096,87.859467,0.002278,
1320,1950,-0.011901,-0.130705,0.999998,0.000166,-0.000143,0.001586,0.000055,0.001587,-0.000145,88.191762,0.001755,
670,70,0.102923,-4.929385,0.999999,0.000139,-0.000362,0.002414,0.001006,0.002740,-0.000688,72.033065,0.002850,
1020,640,0.189113,-3.812544,0.999998,0.000154,-0.001321,0.002396,-0.000565,0.002479,-0.001405,-81.550117,0.002487,
1210,1550,0.012742,-0.816743,0.999998,0.000158,-0.000633,0.001713,0.000092,0.001717,-0.000637,87.759508,0.001736,
1840,1500,-0.690384,-1.377562,0.999998,0.000173,-0.001282,0.002561,-0.000042,0.002561,-0.001282,-89.378520,0.002561,
1110,340,0.064810,-4.496023,0.999998,0.000189,-0.000554,0.001849,-0.000052,0.001850,-0.000555,-88.758069,0.001899,
1310,1380,-0.047889,-1.114599,0.999998,0.000164,-0.000778,0.001507,-0.000551,0.001633,-0.000904,-77.122574,0.001636,
760,1380,0.602802,-1.591079,0.999997,0.000201,-0.001426,0.002708,-0.000073,0.002709,-0.001427,-88.984653,0.002711,
1540,1600,-0.245793,-0.884379,0.999999,0.000158,-0.001127,0.002359,-0.000172,0.002368,-0.001135,-87.187423,0.002368,
1120,1530,0.075001,-0.885862,0.999999,0.000138,-0.000760,0.001854,0.000261,0.001880,-0.000786,84.356498,0.001888,
1890,970,-1.053432,-2.640357,0.999998,0.000167,-0.000980,0.002032,0.000014,0.002032,-0.000980,89.731380,0.002032,
640,340,0.505147,-4.221185,0.999998,0.000186,-0.001245,0.002516,-0.000004,0.002516,-0.001245,-89.934848,0.002516,
800,1760,0.283119,-0.588321,0.999998,0.000164,-0.001042,0.002391,-0.000089,0.002393,-0.001044,-88.517440,0.002400,
1800,820,-0.864691,-3.014748,0.999998,0.000162,-0.001210,0.002461,-0.000202,0.002472,-0.001221,-86.856622,0.002472,
1420,340,-0.105188,-4.473643,0.999998,0.000169,-0.000698,0.001942,0.000084,0.001944,-0.000701,88.171666,0.001969,
1320,520,-0.058611,-4.174777,0.999999,0.000136,-0.000735,0.001800,0.000258,0.001826,-0.000761,84.257671,0.001835,
810,1080,0.802454,-2.385518,0.999998,0.000153,-0.001036,0.002582,-0.000171,0.002590,-0.001044,-87.306096,0.002606,
1220,1770,0.004876,-0.428418,0.999998,0.000202,-0.000465,0.001772,0.000003,0.001772,-0.000465,89.921865,0.001838,
1790,980,-0.949642,-2.632276,0.999999,0.000146,-0.001075,0.002322,-0.000049,0.002323,-0.001076,-89.177585,0.002325,
620,2010,0.081372,-0.076701,0.999998,0.000164,-0.000989,0.002380,-0.000779,0.002552,-0.001160,-77.592314,0.002555,
940,110,0.052455,-4.886659,0.999999,0.000140,-0.000241,0.001781,0.000251,0.001812,-0.000272,83.040558,0.001954,
1820,550,-0.660450,-3.689301,0.999998,0.000174,-0.001278,0.002567,0.000028,0.002567,-0.001279,89.581703,0.002567,
850,210,0.172238,-4.668803,0.999998,0.000166,-0.000670,0.002153,0.000266,0.002178,-0.000695,84.668144,0.002225,
960,1180,0.500171,-2.023491,0.999998,0.000193,-0.001735,0.003325,-0.000174,0.003331,-0.001741,-88.034892,0.003332,
1360,1260,-0.125532,-1.422589,0.999998,0.000183,-0.001514,0.002176,-0.001155,0.002507,-0.001846,-73.979916,0.002599,
1620,80,-0.055923,-4.931309,0.999999,0.000126,-0.000208,0.001873,-0.000425,0.001956,-0.000291,-78.894036,0.002111,
1650,980,-0.800591,-2.640536,0.999998,0.000148,-0.001029,0.002591,-0.000157,0.002598,-0.001036,-87.515731,0.002616,
1570,1370,-0.405657,-1.507074,0.999998,0.000176,-0.001623,0.002846,-0.000143,0.002851,-0.001628,-88.171861,0.002860,
1670,1450,-0.500404,-1.374878,0.999997,0.000205,-0.001429,0.002689,-0.000039,0.002690,-0.001430,-89.459831,0.002692,
1230,300,0.000803,-4.585912,0.999999,0.000124,-0.000470,0.001756,0.000007,0.001756,-0.000470,89.819574,0.001818,
980,1490,0.221005,-1.094827,0.999998,0.000158,-0.001237,0.002379,0.000367,0.002416,-0.001274,84.265181,0.002417,
780,1230,0.715281,-1.991181,0.999998,0.000164,-0.001382,0.002717,-0.000297,0.002738,-0.001404,-85.882464,0.002738,
1640,2000,-0.034986,-0.062229,0.999999,0.000136,-0.000117,0.001810,0.000466,0.001917,-0.000224,77.091654,0.002096,
1300,850,-0.127678,-3.732624,0.999998,0.000149,-0.001252,0.000845,0.000279,0.000882,-0.001289,82.554863,0.001317,
1700,1060,-0.856219,-2.440010,0.999998,0.000150,-0.001050,0.002493,0.000096,0.002496,-0.001053,88.449645,0.002506,
1230,1880,-0.000286,-0.241179,0.999999,0.000130,-0.000302,0.001637,0.000013,0.001637,-0.000302,89.625604,0.001742,
1080,850,0.233637,-3.400409,0.999998,0.000175,-0.001741,0.002670,-0.001010,0.002891,-0.001961,-77.700202,0.002951,
830,340,0.285070,-4.363371,0.999997,0.000196,-0.000997,0.002376,0.000039,0.002377,-0.000997,89.336748,0.002387,
590,170,0.371581,-4.598049,0.999998,0.000205,-0.001159,0.002629,0.000125,0.002633,-0.001163,88.114234,0.002639,
1250,590,-0.011287,-4.085207,0.999999,0.000146,-0.000625,0.001515,0.000121,0.001522,-0.000632,86.775598,0.001529,
1160,1300,0.043533,-1.213817,0.999998,0.000154,-0.000838,0.001255,0.000835,0.001547,-0.001131,70.710339,0.001601,
1460,840,-0.364852,-3.208479,0.999997,0.000197,-0.001964,0.003394,0.000296,0.003411,-0.001980,86.851898,0.003425,
1340,430,-0.068173,-4.331880,0.999998,0.000174,-0.000666,0.001849,0.000139,0.001857,-0.000674,86.852569,0.001880,
880,1480,0.357436,-1.221300,0.999998,0.000171,-0.001411,0.002644,0.000208,0.002654,-0.001421,87.069067,0.002657,
560,1540,0.763433,-1.319929,0.999878,0.000000,-0.002303,0.003148,-0.000021,0.003148,-0.002303,-89.774971,0.003258,
790,1660,0.367760,-0.839020,0.999998,0.000168,-0.001168,0.002455,0.000023,0.002455,-0.001168,89.640111,0.002456,
750,1340,0.652188,-1.706979,0.999998,0.000175,-0.001417,0.002730,-0.000139,0.002735,-0.001421,-88.085184,0.002736,
1390,1700,-0.087368,-0.582722,0.999998,0.000164,-0.000627,0.001956,-0.000070,0.001958,-0.000629,-88.450420,0.002000,
1450,400,-0.143929,-4.337972,0.999999,0.000135,-0.000804,0.002084,0.000129,0.002090,-0.000810,87.441382,0.002107,
1840,1480,-0.704301,-1.429853,0.999998,0.000169,-0.001293,0.002578,0.000002,0.002578,-0.001293,89.964502,0.002578,
1550,410,-0.240300,-4.253873,0.999998,0.000171,-0.001042,0.002316,0.000126,0.002321,-0.001046,87.851814,0.002324,
610,1780,0.482152,-0.683794,0.999997,0.000184,-0.001211,0.002499,-0.000025,0.002499,-0.001211,-89.621098,0.002499,
1450,1520,-0.175885,-0.993992,0.999999,0.000146,-0.001051,0.002233,-0.000337,0.002267,-0.001085,-84.199920,0.002268,
1750,1970,-0.109021,-0.136926,0.999999,0.000134,-0.000657,0.002117,0.000594,0.002239,-0.000779,78.401122,0.002273,
760,1360,0.619741,-1.645868,0.999998,0.000189,-0.001434,0.002735,-0.000111,0.002738,-0.001437,-88.469780,0.002739,
640,320,0.489144,-4.272242,0.999997,0.000203,-0.001227,0.002535,0.000004,0.002535,-0.001227,89.941765,0.002535,
660,1980,0.118296,-0.124123,0.999998,0.000164,-0.000438,0.002487,-0.000987,0.002788,-0.000740,-72.990861,0.002889,
800,1740,0.298537,-0.634286,0.999998,0.000154,-0.001073,0.002416,-0.000063,0.002417,-0.001074,-88.973583,0.002422,
1320,500,-0.058557,-4.211024,0.999998,0.000136,-0.000716,0.001835,0.000233,0.001857,-0.000737,84.829521,0.001870,
620,1670,0.566652,-0.949995,0.999997,0.000185,-0.001274,0.002521,0.000024,0.002521,-0.001274,89.631474,0.002521,
1320,1590,-0.056618,-0.764991,0.999999,0.000154,-0.000711,0.001831,-0.000176,0.001843,-0.000723,-86.049667,0.001857,
1100,1950,0.018293,-0.132995,0.999999,0.000128,-0.000141,0.001612,-0.000090,0.001616,-0.000146,-87.079388,0.001788,
1370,770,-0.124863,-3.641706,0.999998,0.000176,-0.001457,0.002212,0.001039,0.002486,-0.001731,75.232638,0.002549,
1820,1090,-0.980436,-2.376694,0.999998,0.000164,-0.001084,0.002281,0.000068,0.002282,-0.001086,88.850180,0.002283,
1570,1390,-0.391505,-1.449810,0.999998,0.000177,-0.001568,0.002821,-0.000165,0.002827,-0.001575,-87.854672,0.002833,
1020,620,0.183785,-3.859875,0.999999,0.000144,-0.001283,0.002332,-0.000551,0.002414,-0.001365,-81.530011,0.002421,
1080,1590,0.102763,-0.795164,0.999999,0.000148,-0.000829,0.001987,0.000278,0.002015,-0.000857,84.413839,0.002022,
860,170,0.131901,-4.757206,0.999998,0.000171,-0.000594,0.002049,0.000288,0.002080,-0.000625,83.847609,0.002134,
1880,470,-0.677519,-3.846754,0.999998,0.000175,-0.001234,0.002538,0.000031,0.002538,-0.001235,89.528461,0.002539,
1210,1530,0.013649,-0.850974,0.999999,0.000149,-0.000622,0.001675,0.000088,0.001679,-0.000626,87.810557,0.001697,
1080,830,0.199262,-3.455250,0.999998,0.000171,-0.001737,0.002621,-0.001012,0.002845,-0.001961,-77.546131,0.002912,
1490,550,-0.225398,-3.972956,0.999998,0.000163,-0.001228,0.002386,0.000340,0.002418,-0.001260,84.676784,0.002419,
1420,320,-0.098113,-4.512619,0.999998,0.000193,-0.000678,0.001961,0.000063,0.001962,-0.000680,88.631032,0.001993,
1050,1630,0.121320,-0.734095,0.999998,0.000144,-0.000799,0.002020,0.000185,0.002032,-0.000811,86.261988,0.002046,
640,1230,0.896429,-2.048105,0.999998,0.000156,-0.001190,0.002407,-0.000176,0.002416,-0.001198,-87.206109,0.002416,
920,640,0.336033,-3.688555,0.999998,0.000174,-0.001524,0.002717,-0.000261,0.002733,-0.001540,-86.485146,0.002741,
1410,1400,-0.149532,-1.214898,0.999999,0.000146,-0.001249,0.002255,-0.000646,0.002370,-0.001365,-79.878813,0.002380,
1770,30,-0.025193,-5.014893,0.999998,0.000000,-0.000020,0.001984,-0.000845,0.002293,-0.000328,-69.925411,0.002480,
1460,820,-0.336601,-3.274739,0.999998,0.000173,-0.001959,0.003251,0.000348,0.003274,-0.001983,86.193941,0.003299,
600,1050,1.032458,-2.470141,0.999999,0.000152,-0.001011,0.002180,-0.000061,0.002181,-0.001012,-88.910375,0.002183,
600,100,0.233365,-4.794876,0.999998,0.000148,-0.001180,0.002752,0.000526,0.002822,-0.001250,82.505457,0.002828,
1670,1430,-0.515694,-1.430681,0.999997,0.000192,-0.001453,0.002711,-0.000017,0.002711,-0.001453,-89.769281,0.002714,
710,880,0.854942,-2.881499,0.999998,0.000163,-0.001201,0.002503,0.000256,0.002520,-0.001218,86.058520,0.002521,
980,750,0.307204,-3.454090,0.999998,0.000156,-0.001822,0.003015,-0.000405,0.003049,-0.001856,-85.252217,0.003073,
940,50,0.017553,-4.989463,0.999999,0.000140,-0.000047,0.001633,0.000232,0.001665,-0.000078,82.287291,0.001879,
1320,480,-0.057424,-4.248844,0.999999,0.000154,-0.000704,0.001833,0.000207,0.001850,-0.000721,85.356875,0.001865,
1250,570,-0.010876,-4.116357,0.999999,0.000145,-0.000638,0.001581,0.000111,0.001587,-0.000644,87.149664,0.001596,
1140,2010,0.003350,-0.038241,0.999999,0.000120,-0.000061,0.001480,-0.000062,0.001482,-0.000064,-87.715325,0.001676,
750,800,0.733246,-3.102532,0.999998,0.000171,-0.001350,0.002674,0.000275,0.002692,-0.001369,86.106101,0.002693,
1350,1520,-0.081097,-0.907183,0.999999,0.000126,-0.000815,0.001845,-0.000327,0.001884,-0.000855,-83.093751,0.001887,
1700,1210,-0.760291,-2.052532,0.999998,0.000177,-0.001317,0.002679,0.000307,0.002702,-0.001341,85.629150,0.002702,
590,1780,0.507432,-0.702742,0.999997,0.000182,-0.001560,0.002562,-0.000004,0.002562,-0.001560,-89.944957,0.002582,
1250,1880,-0.005102,-0.242680,0.999999,0.000123,-0.000241,0.001650,0.000004,0.001650,-0.000241,89.868187,0.001782,
1090,1890,0.036568,-0.234160,0.999998,0.000156,-0.000225,0.001705,-0.000087,0.001709,-0.000229,-87.428001,0.001855,
660,1960,0.163341,-0.175516,0.999998,0.000159,-0.000622,0.002484,-0.000837,0.002695,-0.000833,-75.841073,0.002760,
1870,470,-0.664347,-3.854480,0.999998,0.000169,-0.001240,0.002543,0.000027,0.002543,-0.001240,89.586806,0.002544,
1570,1830,-0.151619,-0.388346,0.999998,0.000155,-0.000664,0.002098,0.000176,0.002109,-0.000675,86.366815,0.002154,
790,1640,0.380539,-0.888664,0.999998,0.000162,-0.001177,0.002499,0.000043,0.002500,-0.001178,89.327471,0.002501,
1020,600,0.180568,-3.908458,0.999999,0.000151,-0.001237,0.002319,-0.000497,0.002387,-0.001305,-82.185068,0.002391,
1240,1590,-0.005151,-0.744994,0.999999,0.000130,-0.000595,0.001691,-0.000025,0.001691,-0.000595,-89.362042,0.001715,
560,1530,0.766018,-1.349461,0.999856,0.000000,-0.002208,0.003645,0.000209,0.003652,-0.002216,87.953068,0.003680,
640,300,0.471873,-4.324686,0.999998,0.000189,-0.001202,0.002537,0.000034,0.002537,-0.001202,89.480001,0.002538,
1770,200,-0.297979,-4.617852,0.999998,0.000163,-0.001130,0.002534,-0.000263,0.002553,-0.001149,-85.922466,0.002557,
1210,1510,0.013270,-0.883692,0.999998,0.000164,-0.000618,0.001631,0.000090,0.001635,-0.000622,87.713172,0.001651,
1340,850,-0.167357,-3.581415,0.999997,0.000218,-0.001128,0.001549,0.000982,0.001871,-0.001450,71.873185,0.001963,
890,990,0.729468,-2.623945,0.999997,0.000211,-0.000973,0.002781,0.000182,0.002790,-0.000981,87.234164,0.002831,
730,1340,0.680702,-1.719323,0.999998,0.000180,-0.001408,0.002687,-0.000146,0.002692,-0.001413,-87.954484,0.002693,
580,170,0.384829,-4.585900,0.999998,0.000190,-0.000940,0.002795,0.000003,0.002795,-0.000940,89.946897,0.002844,
1490,570,-0.232439,-3.925071,0.999998,0.000156,-0.001244,0.002406,0.000357,0.002441,-0.001279,84.470373,0.002442,
1250,240,-0.007590,-4.688332,0.999998,0.000151,-0.000377,0.001705,0.000002,0.001705,-0.000377,89.958441,0.001791,
1610,480,-0.343586,-4.038516,0.999997,0.000194,-0.001227,0.002481,0.000144,0.002487,-0.001233,87.774865,0.002487,
730,1440,0.595454,-1.452398,0.999997,0.000181,-0.001370,0.002651,-0.000024,0.002651,-0.001370,-89.653646,0.002651,
1870,610,-0.771159,-3.497641,0.999998,0.000198,-0.001282,0.002557,0.000003,0.002557,-0.001282,89.954882,0.002557,
1300,1630,-0.040830,-0.683821,0.999999,0.000144,-0.000582,0.001792,-0.000090,0.001795,-0.000585,-87.823536,0.001831,
1700,1040,-0.860691,-2.489004,0.999998,0.000151,-0.001044,0.002484,0.000067,0.002485,-0.001045,88.911727,0.002496,
1420,300,-0.094242,-4.552329,0.999998,0.000175,-0.000637,0.001946,0.000032,0.001947,-0.000638,89.281309,0.001985,
760,1340,0.637446,-1.700037,0.999998,0.000179,-0.001423,0.002746,-0.000140,0.002751,-0.001428,-88.079581,0.002752,
960,1230,0.425690,-1.855825,0.999998,0.000196,-0.001889,0.003281,0.000038,0.003281,-0.001889,89.574572,0.003293,
800,1720,0.314458,-0.685253,0.999998,0.000172,-0.001103,0.002453,-0.000026,0.002453,-0.001103,-89.583939,0.002458,
620,1650,0.582073,-0.999967,0.999997,0.000185,-0.001281,0.002515,0.000030,0.002515,-0.001281,89.547450,0.002515,
1390,1400,-0.125877,-1.186385,0.999998,0.000144,-0.001163,0.002117,-0.000657,0.002244,-0.001289,-79.091970,0.002252,
850,190,0.152296,-4.712994,0.999998,0.000162,-0.000612,0.002134,0.000279,0.002162,-0.000640,84.251512,0.002221,
1840,1460,-0.719964,-1.481073,0.999998,0.000192,-0.001287,0.002584,0.000038,0.002584,-0.001288,89.444951,0.002584,
1760,2020,-0.028406,-0.032532,0.999999,0.000000,-0.000268,0.002018,0.000760,0.002247,-0.000498,73.190379,0.002361,
1020,110,0.033723,-4.894125,0.999999,0.000153,-0.000217,0.001707,0.000157,0.001719,-0.000230,85.370744,0.001867,
920,620,0.322974,-3.741849,0.999998,0.000173,-0.001480,0.002676,-0.000266,0.002693,-0.001497,-86.355873,0.002699,
1190,580,0.025991,-4.096673,0.999999,0.000111,-0.000637,0.001574,-0.000150,0.001584,-0.000647,-86.145448,0.001593,
1060,1360,0.147754,-1.296180,0.999998,0.000155,-0.001383,0.002327,0.000782,0.002485,-0.001541,78.575626,0.002509,
1610,1990,-0.038962,-0.078917,0.999998,0.000143,-0.000183,0.001805,0.000416,0.001889,-0.000266,78.656646,0.002045,
1800,800,-0.846624,-3.063824,0.999998,0.000162,-0.001243,0.002485,-0.000203,0.002496,-0.001254,-86.894669,0.002496,
1450,380,-0.138762,-4.378412,0.999998,0.000157,-0.000762,0.002074,0.000109,0.002078,-0.000767,87.797344,0.002102,
1460,800,-0.308921,-3.340658,0.999998,0.000186,-0.001945,0.003159,0.000440,0.003197,-0.001983,85.111927,0.003227,
600,80,0.186589,-4.849751,0.999998,0.000142,-0.001145,0.002916,0.000686,0.003029,-0.001258,80.659632,0.003043,
1750,1950,-0.137127,-0.177785,0.999998,0.000143,-0.000807,0.002242,0.000568,0.002344,-0.000910,79.778472,0.002364,
1210,300,0.010152,-4.584892,0.999998,0.000152,-0.000460,0.001750,-0.000017,0.001750,-0.000460,-89.549584,0.001814,
960,1160,0.533909,-2.087658,0.999998,0.000189,-0.001620,0.003351,-0.000233,0.003362,-0.001631,-87.321985,0.003363,
1530,1060,-0.689910,-2.424252,0.999998,0.000189,-0.000951,0.003026,0.000185,0.003035,-0.000960,87.342314,0.003102,
1670,1410,-0.530515,-1.483301,0.999997,0.000199,-0.001469,0.002713,-0.000005,0.002713,-0.001469,-89.935971,0.002717,
810,1140,0.761270,-2.226969,0.999998,0.000178,-0.001197,0.002701,-0.000329,0.002729,-0.001225,-85.202799,0.002734,
690,880,0.880640,-2.876343,0.999998,0.000163,-0.001193,0.002459,0.000232,0.002474,-0.001207,86.374662,0.002474,
1550,370,-0.220481,-4.344729,0.999998,0.000149,-0.000895,0.002229,0.000041,0.002229,-0.000896,89.241288,0.002243,
1370,750,-0.115223,-3.685960,0.999998,0.000183,-0.001388,0.002151,0.000998,0.002413,-0.001650,75.290261,0.002467,
1390,2010,-0.006563,-0.038596,0.999999,0.000143,-0.000035,0.001544,0.000094,0.001549,-0.000041,86.617867,0.001766,
1320,460,-0.057305,-4.284514,0.999999,0.000145,-0.000705,0.001832,0.000186,0.001846,-0.000719,85.832837,0.001861,
1890,1000,-1.058909,-2.578042,0.999998,0.000158,-0.001011,0.002039,-0.000043,0.002040,-0.001012,-89.188565,0.002040,
560,1520,0.768765,-1.387466,0.999888,0.000000,-0.002261,0.003694,0.000394,0.003720,-0.002287,86.231818,0.003752,
1330,1520,-0.064773,-0.896350,0.999999,0.000156,-0.000746,0.001774,-0.000267,0.001802,-0.000774,-84.028366,0.001808,
730,820,0.778212,-3.042473,0.999998,0.000181,-0.001312,0.002640,0.000273,0.002659,-0.001331,86.061120,0.002659,
1160,1280,0.046783,-1.240052,0.999998,0.000155,-0.000913,0.001189,0.000883,0.001511,-0.001234,69.983872,0.001609,
1800,1670,-0.513447,-0.913578,0.999997,0.000192,-0.001254,0.002523,-0.000013,0.002523,-0.001254,-89.805934,0.002523,
1090,1870,0.038841,-0.266778,0.999998,0.000155,-0.000244,0.001729,-0.000071,0.001731,-0.000246,-87.933075,0.001873,
1240,1950,-0.001762,-0.129099,0.999999,0.000136,-0.000117,0.001554,-0.000017,0.001554,-0.000117,-89.420552,0.001731,
1120,40,0.003955,-5.008873,0.999999,0.000127,-0.000050,0.001476,0.000046,0.001477,-0.000051,88.269701,0.001677,
1530,920,-0.612344,-2.845652,0.999997,0.000201,-0.001346,0.003124,-0.000352,0.003152,-0.001373,-85.526058,0.003161,
1030,1880,0.056489,-0.257576,0.999999,0.000169,-0.000388,0.001777,-0.000106,0.001782,-0.000394,-87.200037,0.001872,
1570,1810,-0.162615,-0.428149,0.999998,0.000159,-0.000713,0.002139,0.000151,0.002147,-0.000721,86.976747,0.002185,
890,970,0.715796,-2.679502,0.999998,0.000190,-0.001042,0.002816,0.000261,0.002833,-0.001060,86.148595,0.002863,
640,280,0.450030,-4.373129,0.999998,0.000171,-0.001192,0.002522,0.000074,0.002524,-0.001193,88.852508,0.002525,
1220,1590,0.007395,-0.746055,0.999998,0.000160,-0.000632,0.001715,0.000063,0.001716,-0.000633,88.452427,0.001736,
1280,1210,-0.089210,-1.248456,0.999998,0.000162,-0.001452,0.000549,-0.000136,0.000558,-0.001461,-86.136154,0.001475,
1250,550,-0.012247,-4.149728,0.999999,0.000138,-0.000643,0.001611,0.000109,0.001616,-0.000648,87.226081,0.001627,
1430,1820,-0.079019,-0.366895,0.999998,0.000188,-0.000497,0.001879,0.000035,0.001880,-0.000498,89.153546,0.001948,
1770,180,-0.272098,-4.668468,0.999998,0.000171,-0.001082,0.002480,-0.000338,0.002512,-0.001114,-84.622116,0.002517,
1490,1010,-0.660625,-2.577543,0.999997,0.000201,-0.001017,0.003388,-0.000079,0.003390,-0.001018,-88.977463,0.003479,
1210,1490,0.013060,-0.915447,0.999999,0.000166,-0.000611,0.001579,0.000105,0.001584,-0.000616,87.272933,0.001597,
660,1940,0.199192,-0.225005,0.999998,0.000160,-0.000781,0.002563,-0.000721,0.002712,-0.000930,-78.341364,0.002756,
1320,1630,-0.053487,-0.689750,0.999998,0.000168,-0.000670,0.001839,-0.000156,0.001849,-0.000679,-86.462062,0.001870,
760,1320,0.656329,-1.756425,0.999998,0.000180,-0.001412,0.002736,-0.000167,0.002743,-0.001419,-87.698371,0.002744,
1610,500,-0.351694,-3.988753,0.999998,0.000173,-0.001258,0.002502,0.000149,0.002508,-0.001264,87.740046,0.002508,
1760,30,-0.024916,-5.015947,0.999999,0.000000,-0.000138,0.001986,-0.000743,0.002221,-0.000372,-72.511990,0.002379,
940,1230,0.462903,-1.881379,0.999998,0.000178,-0.001824,0.003235,-0.000055,0.003235,-0.001825,-89.377790,0.003244,
1420,280,-0.087085,-4.589806,0.999998,0.000163,-0.000591,0.001917,0.000007,0.001917,-0.000591,89.834259,0.001963,
1550,560,-0.305255,-3.889718,0.999998,0.000192,-0.001337,0.002532,0.000237,0.002547,-0.001351,86.514685,0.002548,
1060,1340,0.152183,-1.341738,0.999998,0.000157,-0.001474,0.002386,0.000830,0.002557,-0.001645,78.361506,0.002592,
650,1300,0.822563,-1.869928,0.999999,0.000140,-0.001249,0.002492,-0.000141,0.002498,-0.001255,-87.846517,0.002498,
850,610,0.420858,-3.699999,0.999998,0.000174,-0.001480,0.002708,-0.000133,0.002712,-0.001484,-88.188048,0.002716,
1700,1020,-0.861561,-2.539067,0.999998,0.000168,-0.001040,0.002482,-0.000027,0.002482,-0.001040,-89.567143,0.002493,
1520,150,-0.075815,-4.814564,0.999999,0.000125,-0.000397,0.001867,-0.000226,0.001889,-0.000419,-84.364580,0.001984,
580,160,0.370210,-4.611068,0.999998,0.000204,-0.001075,0.002670,0.000081,0.002672,-0.001076,88.763405,0.002689,
1010,1790,0.101975,-0.430035,0.999998,0.000161,-0.000522,0.001949,-0.000051,0.001950,-0.000523,-88.826464,0.002019,
1610,1260,-0.577713,-1.866415,0.999997,0.000214,-0.001584,0.002970,0.000205,0.002979,-0.001593,87.431683,0.002982,
920,600,0.315544,-3.795716,0.999998,0.000178,-0.001400,0.002592,-0.000269,0.002610,-0.001418,-86.160235,0.002613,
1670,1610,-0.395377,-0.961535,0.999998,0.000182,-0.001215,0.002518,-0.000072,0.002519,-0.001217,-88.894772,0.002520,
1610,1970,-0.059559,-0.116364,0.999999,0.000145,-0.000269,0.001838,0.000414,0.001917,-0.000347,79.285156,0.002043,
600,60,0.137974,-4.910985,0.999998,0.000147,-0.000947,0.002774,0.000872,0.002968,-0.001142,77.446040,0.002995,
1650,1320,-0.578385,-1.720531,0.999998,0.000191,-0.001538,0.002842,0.000126,0.002845,-0.001542,88.357991,0.002849,
1890,990,-1.056610,-2.598441,0.999998,0.000177,-0.001002,0.002063,-0.000030,0.002063,-0.001002,-89.436027,0.002063,
1460,1220,-0.355526,-1.814914,0.999998,0.000187,-0.001920,0.003336,-0.000314,0.003354,-0.001938,-86.594954,0.003368,
1840,1440,-0.736856,-1.531587,0.999998,0.000177,-0.001279,0.002554,0.000031,0.002554,-0.001280,89.540663,0.002554,
1320,440,-0.053602,-4.321195,0.999998,0.000146,-0.000694,0.001816,0.000174,0.001828,-0.000706,86.053098,0.001844,
1010,1380,0.213721,-1.327776,0.999998,0.000184,-0.001487,0.002553,0.000592,0.002638,-0.001572,81.835010,0.002654,
1510,920,-0.584996,-2.861700,0.999998,0.000173,-0.001419,0.003265,-0.000298,0.003284,-0.001438,-86.376863,0.003293,
640,260,0.427714,-4.423805,0.999998,0.000195,-0.001196,0.002549,0.000093,0.002551,-0.001199,88.583716,0.002552,
1570,1790,-0.177679,-0.470884,0.999998,0.000164,-0.000776,0.002159,0.000111,0.002163,-0.000781,87.838257,0.002190,
1270,1210,-0.074450,-1.229975,0.999998,0.000170,-0.001659,0.000518,-0.000001,0.000518,-0.001659,-89.979716,0.001698,
1410,1820,-0.067841,-0.362038,0.999998,0.000178,-0.000484,0.001824,0.000031,0.001824,-0.000484,89.240952,0.001890,
600,1670,0.592653,-0.965573,0.999998,0.000172,-0.001233,0.002483,0.000019,0.002483,-0.001233,89.702781,0.002484,
650,820,0.880616,-3.007822,0.999998,0.000148,-0.001191,0.002424,0.000197,0.002434,-0.001202,86.897193,0.002434,
810,210,0.197158,-4.656384,0.999998,0.000174,-0.000820,0.002258,0.000269,0.002282,-0.000844,85.042328,0.002307,
1090,1850,0.043997,-0.302440,0.999998,0.000155,-0.000296,0.001755,-0.000089,0.001758,-0.000300,-87.532505,0.001881,
660,1920,0.235709,-0.277350,0.999998,0.000209,-0.000870,0.002561,-0.000617,0.002669,-0.000978,-80.109089,0.002701,
1280,1630,-0.029992,-0.680426,0.999999,0.000157,-0.000577,0.001786,-0.000039,0.001786,-0.000578,-89.048640,0.001823,
1210,1470,0.013737,-0.946479,0.999999,0.000140,-0.000616,0.001548,0.000127,0.001555,-0.000624,86.642103,0.001565,
750,1640,0.428342,-0.919254,0.999997,0.000196,-0.001240,0.002518,0.000063,0.002519,-0.001241,89.047219,0.002519,
1810,30,-0.023744,-5.016795,0.999998,0.000000,-0.000288,0.002129,-0.000936,0.002449,-0.000608,-71.122098,0.002551,
1360,1590,-0.084014,-0.782025,0.999998,0.000155,-0.000726,0.001911,-0.000200,0.001926,-0.000741,-85.682617,0.001943,
1750,1930,-0.170865,-0.225987,0.999998,0.000148,-0.000884,0.002343,0.000547,0.002434,-0.000974,80.631947,0.002450,
1490,990,-0.648091,-2.646634,0.999997,0.000216,-0.001051,0.003421,-0.000130,0.003425,-0.001055,-88.333458,0.003508,
840,890,0.700375,-2.888852,0.999998,0.000164,-0.001321,0.002804,0.000335,0.002831,-0.001348,85.388119,0.002832,
1610,680,-0.466769,-3.508248,0.999997,0.000213,-0.001581,0.002831,0.000046,0.002831,-0.001582,89.402101,0.002838,
560,1510,0.777317,-1.436656,0.999907,0.000000,-0.002274,0.003193,0.000413,0.003224,-0.002305,85.700657,0.003322,
760,1740,0.343392,-0.663960,0.999998,0.000167,-0.001082,0.002464,-0.000077,0.002466,-0.001083,-88.754083,0.002472,
720,1230,0.797089,-2.014936,0.999998,0.000174,-0.001291,0.002595,-0.000262,0.002612,-0.001309,-86.159759,0.002612,
1060,1320,0.160218,-1.391129,0.999998,0.000166,-0.001557,0.002467,0.000865,0.002645,-0.001735,78.367068,0.002688,
1560,770,-0.465156,-3.291202,0.999998,0.000173,-0.001745,0.003050,-0.000011,0.003050,-0.001745,-89.871717,0.003060,
1560,170,-0.105939,-4.767299,0.999999,0.000122,-0.000500,0.001974,-0.000262,0.002001,-0.000527,-84.027345,0.002075,
850,630,0.434247,-3.646301,0.999998,0.000182,-0.001514,0.002734,-0.000114,0.002737,-0.001517,-88.466006,0.002743,
1700,1000,-0.857400,-2.588575,0.999998,0.000177,-0.001035,0.002496,-0.000067,0.002498,-0.001036,-88.909288,0.002510,
580,150,0.355399,-4.637170,0.999998,0.000207,-0.001159,0.002460,0.000267,0.002479,-0.001178,85.808478,0.002480,
1130,870,0.221712,-3.588407,0.999998,0.000185,-0.001003,0.001080,-0.000882,0.001403,-0.001326,-69.867566,0.001578,
1460,730,-0.251646,-3.551849,0.999998,0.000212,-0.001716,0.002821,0.000566,0.002890,-0.001786,82.992162,0.002917,
1100,2000,0.006797,-0.054248,0.999999,0.000121,-0.000041,0.001546,-0.000088,0.001550,-0.000046,-86.841202,0.001764,
1890,980,-1.055362,-2.619407,0.999998,0.000168,-0.000988,0.002064,0.000002,0.002064,-0.000988,89.959863,0.002065,
1610,1950,-0.074909,-0.153339,0.999999,0.000145,-0.000358,0.001933,0.000395,0.001999,-0.000424,80.496114,0.002106,
1420,260,-0.082444,-4.628389,0.999998,0.000182,-0.000546,0.001862,-0.000002,0.001862,-0.000546,-89.943995,0.001914,
1010,1880,0.065418,-0.261136,0.999999,0.000172,-0.000367,0.001807,-0.000153,0.001817,-0.000377,-85.981735,0.001918,
1460,1240,-0.327127,-1.750088,0.999997,0.000197,-0.001934,0.003217,-0.000379,0.003244,-0.001962,-85.818164,0.003268,
1410,1050,-0.527574,-2.375611,0.999944,0.000875,-0.002920,0.006333,-0.000958,0.006431,-0.003018,-84.151967,0.006435,
1110,40,0.004505,-5.007047,0.999999,0.000140,-0.000048,0.001481,0.000061,0.001483,-0.000051,87.708749,0.001684,
1320,420,-0.053785,-4.359619,0.999998,0.000151,-0.000670,0.001817,0.000145,0.001825,-0.000678,86.666146,0.001845,
1510,900,-0.553022,-2.926690,0.999998,0.000183,-0.001544,0.003273,-0.000284,0.003290,-0.001561,-86.639327,0.003291,
630,1300,0.848297,-1.880957,0.999999,0.000132,-0.001257,0.002473,-0.000118,0.002477,-0.001261,-88.196001,0.002477,
1020,580,0.176485,-3.953760,0.999999,0.000152,-0.001172,0.002250,-0.000454,0.002309,-0.001232,-82.563767,0.002311,
1030,1380,0.185154,-1.296772,0.999998,0.000177,-0.001409,0.002459,0.000653,0.002566,-0.001516,80.677705,0.002581,
920,820,0.491648,-3.152181,0.999998,0.000190,-0.001785,0.003178,0.000120,0.003181,-0.001788,88.610059,0.003189,
1590,1260,-0.543304,-1.852276,0.999998,0.000185,-0.001654,0.003036,0.000184,0.003043,-0.001661,87.754430,0.003047,
1670,870,-0.742739,-2.929698,0.999998,0.000170,-0.001303,0.002718,-0.000321,0.002744,-0.001329,-85.462550,0.002744,
640,240,0.405506,-4.475354,0.999997,0.000204,-0.001186,0.002557,0.000114,0.002561,-0.001189,88.253825,0.002563,
1490,970,-0.629553,-2.712266,0.999998,0.000188,-0.001131,0.003348,-0.000215,0.003358,-0.001141,-87.262559,0.003415,
640,1150,0.954111,-2.237357,0.999998,0.000142,-0.001112,0.002304,-0.000128,0.002309,-0.001117,-87.861433,0.002310,
1570,1770,-0.189495,-0.515914,0.999998,0.000188,-0.000813,0.002208,0.000089,0.002211,-0.000816,88.313623,0.002236,
1210,1450,0.012910,-0.978615,0.999999,0.000125,-0.000593,0.001492,0.000136,0.001501,-0.000602,86.276300,0.001511,
680,2000,0.068770,-0.074873,0.999999,0.000182,-0.000258,0.002210,-0.000920,0.002515,-0.000563,-71.648262,0.002640,
1250,530,-0.012104,-4.182175,0.999999,0.000152,-0.000661,0.001661,0.000081,0.001664,-0.000664,88.003857,0.001675,
1140,1630,0.056214,-0.692079,0.999998,0.000151,-0.000669,0.001827,0.000158,0.001837,-0.000679,86.395759,0.001857,
630,820,0.903511,-2.999550,0.999998,0.000142,-0.001171,0.002351,0.000155,0.002358,-0.001178,87.481211,0.002358,
1400,1020,-0.503021,-2.577837,0.999390,0.000000,-0.003101,0.007298,0.000838,0.007365,-0.003168,85.424316,0.007389,
1060,1300,0.168426,-1.441674,0.999998,0.000168,-0.001644,0.002561,0.000896,0.002744,-0.001827,78.461453,0.002794,
1410,1800,-0.073877,-0.397693,0.999999,0.000138,-0.000507,0.001863,0.000010,0.001863,-0.000507,89.747210,0.001926,
1260,1220,-0.043296,-1.207455,0.999998,0.000172,-0.001478,0.000715,-0.000089,0.000719,-0.001482,-87.686002,0.001482,
1420,1330,-0.181546,-1.399831,0.999998,0.000141,-0.001565,0.002545,-0.000773,0.002685,-0.001706,-79.687927,0.002718,
1230,1580,-0.000046,-0.761938,0.999999,0.000137,-0.000639,0.001710,0.000016,0.001710,-0.000639,89.610843,0.001728,
1090,1830,0.049271,-0.337048,0.999998,0.000152,-0.000335,0.001784,-0.000068,0.001787,-0.000337,-88.160753,0.001899,
1500,1770,-0.138596,-0.485381,0.999998,0.000170,-0.000743,0.002073,0.000040,0.002074,-0.000743,89.183151,0.002101,
810,230,0.217874,-4.612200,0.999998,0.000172,-0.000846,0.002320,0.000227,0.002337,-0.000862,85.923189,0.002363,
660,1900,0.269873,-0.327805,0.999998,0.000196,-0.000946,0.002583,-0.000499,0.002653,-0.001015,-82.102068,0.002677,
760,1760,0.326731,-0.613108,0.999998,0.000179,-0.001060,0.002473,-0.000133,0.002478,-0.001065,-87.849520,0.002486,
1480,710,-0.274094,-3.574598,0.999998,0.000184,-0.001697,0.002848,0.000477,0.002897,-0.001747,84.077521,0.002917,
1880,1000,-1.049204,-2.579465,0.999998,0.000160,-0.001019,0.002092,-0.000047,0.002093,-0.001020,-89.136429,0.002093,
1420,240,-0.074150,-4.665500,0.999998,0.000184,-0.000513,0.001874,-0.000031,0.001874,-0.000513,-89.254404,0.001937,
1640,350,-0.297878,-4.334454,0.999997,0.000178,-0.001066,0.002408,-0.000034,0.002408,-0.001066,-89.447508,0.002413,
1840,1420,-0.752910,-1.583089,0.999997,0.000189,-0.001279,0.002547,0.000030,0.002547,-0.001279,89.555218,0.002547,
1320,400,-0.052184,-4.396187,0.999998,0.000160,-0.000634,0.001833,0.000117,0.001838,-0.000639,87.297953,0.001866,
990,1360,0.253503,-1.411151,0.999997,0.000209,-0.001647,0.002733,0.000520,0.002794,-0.001708,83.320465,0.002817,
1020,540,0.169768,-4.042225,0.999999,0.000150,-0.001036,0.002207,-0.000371,0.002249,-0.001078,-83.550820,0.002250,
560,1500,0.793312,-1.463922,0.999892,0.000000,-0.002203,0.002276,0.000510,0.002333,-0.002260,83.582125,0.002653,
920,580,0.305224,-3.845957,0.999998,0.000162,-0.001363,0.002546,-0.000267,0.002564,-0.001381,-86.104764,0.002566,
1750,1910,-0.200593,-0.271734,0.999998,0.000141,-0.000964,0.002386,0.000467,0.002450,-0.001028,82.218734,0.002460,
1780,850,-0.865068,-2.947757,0.999999,0.000143,-0.001233,0.002477,-0.000225,0.002491,-0.001247,-86.545174,0.002491,
1610,700,-0.482963,-3.451252,0.999998,0.000220,-0.001597,0.002861,0.000021,0.002861,-0.001597,89.730818,0.002868,
1460,1260,-0.305377,-1.683561,0.999998,0.000181,-0.001934,0.003135,-0.000428,0.003171,-0.001970,-85.212149,0.003202,
1100,2010,0.004920,-0.039107,0.999999,0.000127,-0.000034,0.001512,-0.000089,0.001517,-0.000039,-86.711401,0.001730,
590,490,0.682231,-3.801645,0.999998,0.000181,-0.001442,0.002487,-0.000051,0.002488,-0.001442,-89.263121,0.002498,
1050,1010,0.537579,-2.629419,0.999996,0.000246,-0.002420,0.006185,-0.000517,0.006216,-0.002451,-86.574190,0.006262,
1470,40,-0.008573,-5.006119,0.999999,0.000125,0.000014,0.001518,-0.000196,0.001543,-0.000011,-82.703454,0.001775,
1560,750,-0.446078,-3.350971,0.999998,0.000175,-0.001724,0.003024,0.000051,0.003025,-0.001725,89.389986,0.003035,
1490,950,-0.602568,-2.779373,0.999998,0.000181,-0.001294,0.003415,-0.000251,0.003428,-0.001307,-86.954967,0.003460,
1250,510,-0.011191,-4.215137,0.999998,0.000158,-0.000661,0.001690,0.000086,0.001694,-0.000664,87.907905,0.001707,
1310,1880,-0.019019,-0.243836,0.999998,0.000172,-0.000221,0.001665,0.000043,0.001666,-0.000222,88.699529,0.001809,
640,1130,0.964100,-2.284608,0.999999,0.000168,-0.001114,0.002329,-0.000137,0.002335,-0.001119,-87.729505,0.002336,
1670,850,-0.722907,-2.985563,0.999998,0.000181,-0.001355,0.002750,-0.000315,0.002774,-0.001379,-85.634296,0.002774,
1560,150,-0.089590,-4.807586,0.999998,0.000145,-0.000422,0.001932,-0.000286,0.001966,-0.000456,-83.174012,0.002058,
1700,980,-0.853128,-2.638161,0.999998,0.000176,-0.001069,0.002512,-0.000098,0.002515,-0.001071,-88.435983,0.002524,
1350,1400,-0.083334,-1.130984,0.999998,0.000145,-0.000948,0.001835,-0.000641,0.001976,-0.001088,-77.623489,0.001979,
570,60,0.162657,-4.883510,0.999986,0.000446,-0.000364,0.003390,0.001215,0.003749,-0.000723,73.540691,0.003978,
1260,1210,-0.058627,-1.214547,0.999998,0.000156,-0.001851,0.000576,0.000092,0.000579,-0.001855,87.823909,0.001898,
640,220,0.383151,-4.527866,0.999998,0.000190,-0.001176,0.002574,0.000165,0.002581,-0.001183,87.489071,0.002584,
1570,1750,-0.204144,-0.559562,0.999998,0.000177,-0.000863,0.002240,0.000059,0.002241,-0.000864,88.903480,0.002260,
850,650,0.448753,-3.590053,0.999997,0.000181,-0.001532,0.002801,-0.000090,0.002803,-0.001534,-88.807795,0.002807,
1060,1490,0.130552,-1.011779,0.999999,0.000141,-0.001012,0.002047,0.000445,0.002111,-0.001075,81.896577,0.002111,
1620,2020,-0.016516,-0.028660,0.999999,0.000000,0.000013,0.001708,0.000402,0.001799,-0.000078,77.314376,0.002034,
680,2010,0.052893,-0.054924,0.999999,0.000160,-0.000165,0.002118,-0.000893,0.002426,-0.000472,-70.982916,0.002572,
810,250,0.234217,-4.563233,0.999998,0.000175,-0.000898,0.002315,0.000184,0.002326,-0.000909,86.741261,0.002344,
1590,1240,-0.566313,-1.913173,0.999998,0.000199,-0.001621,0.003009,0.000222,0.003019,-0.001632,87.261651,0.003022,
1060,1280,0.180403,-1.495871,0.999998,0.000167,-0.001716,0.002664,0.000890,0.002838,-0.001890,78.937300,0.002890,
660,1880,0.301503,-0.381094,0.999998,0.000193,-0.001033,0.002581,-0.000408,0.002626,-0.001079,-83.643702,0.002640,
1870,1000,-1.039482,-2.579464,0.999998,0.000179,-0.001026,0.002147,-0.000062,0.002148,-0.001027,-88.877521,0.002149,
1340,1590,-0.071081,-0.772808,0.999998,0.000155,-0.000690,0.001860,-0.000191,0.001875,-0.000704,-85.746940,0.001894,
1400,1330,-0.151855,-1.360940,0.999998,0.000172,-0.001492,0.002386,-0.000848,0.002564,-0.001669,-78.187522,0.002602,
1410,1780,-0.080236,-0.435497,0.999997,0.000204,-0.000548,0.001899,-0.000002,0.001899,-0.000548,-89.953621,0.001955,
1210,1870,0.007526,-0.259580,0.999999,0.000147,-0.000294,0.001647,0.000009,0.001647,-0.000294,89.741361,0.001756,
1730,880,-0.826278,-2.888005,0.999999,0.000146,-0.001217,0.002544,-0.000272,0.002564,-0.001236,-85.879692,0.002564,
1090,1810,0.054834,-0.373708,0.999999,0.000141,-0.000395,0.001810,-0.000034,0.001810,-0.000395,-89.119523,0.001904,
1840,1400,-0.769658,-1.635200,0.999998,0.000178,-0.001268,0.002543,0.000063,0.002544,-0.001269,89.059984,0.002544,
1080,170,0.039217,-4.797167,0.999998,0.000144,-0.000268,0.001724,0.000100,0.001729,-0.000273,87.126602,0.001859,
760,1780,0.308209,-0.565143,0.999997,0.000179,-0.001013,0.002440,-0.000164,0.002447,-0.001020,-87.292208,0.002459,
1640,330,-0.285327,-4.383430,0.999998,0.000182,-0.001023,0.002420,-0.000039,0.002421,-0.001024,-89.356871,0.002430,
990,1380,0.244706,-1.357862,0.999997,0.000191,-0.001555,0.002654,0.000509,0.002715,-0.001616,83.206461,0.002731,
1750,1890,-0.229440,-0.321334,0.999998,0.000152,-0.001030,0.002438,0.000398,0.002483,-0.001075,83.533408,0.002491,
1320,380,-0.049398,-4.433283,0.999999,0.000133,-0.000611,0.001853,0.000078,0.001855,-0.000613,88.189455,0.001890,
1460,1280,-0.284853,-1.622611,0.999997,0.000191,-0.001900,0.003056,-0.000478,0.003101,-0.001946,-84.537942,0.003135,
1050,1000,0.536559,-2.691583,0.999995,0.000269,-0.002421,0.006075,-0.000752,0.006141,-0.002487,-84.977008,0.006178,
1420,220,-0.067897,-4.704023,0.999998,0.000175,-0.000469,0.001835,-0.000054,0.001836,-0.000470,-88.653593,0.001908,
1610,1930,-0.094720,-0.193206,0.999998,0.000150,-0.000419,0.001975,0.000369,0.002031,-0.000475,81.434100,0.002124,
580,490,0.695571,-3.794666,0.999998,0.000195,-0.002164,0.002365,-0.000252,0.002379,-0.002178,-86.820717,0.002639,
920,540,0.287537,-3.948475,0.999998,0.000175,-0.001286,0.002497,-0.000247,0.002513,-0.001302,-86.287456,0.002514,
1020,520,0.164876,-4.085617,0.999998,0.000157,-0.001020,0.002212,-0.000347,0.002249,-0.001057,-83.947932,0.002250,
1670,830,-0.703260,-3.040258,0.999998,0.000175,-0.001401,0.002742,-0.000309,0.002765,-0.001424,-85.757053,0.002765,
1570,1730,-0.215453,-0.605675,0.999998,0.000170,-0.000921,0.002263,-0.000003,0.002263,-0.000921,-89.947846,0.002276,
1610,2020,-0.017059,-0.027880,0.999999,0.000000,-0.000094,0.001694,0.000359,0.001764,-0.000164,79.063092,0.001949,
1290,1880,-0.015959,-0.243827,0.999998,0.000171,-0.000233,0.001660,0.000036,0.001661,-0.000234,88.900011,0.001798,
640,200,0.357371,-4.579804,0.999998,0.000186,-0.001149,0.002552,0.000207,0.002564,-0.001161,86.801509,0.002568,
1490,930,-0.569851,-2.847067,0.999998,0.000179,-0.001474,0.003397,-0.000215,0.003406,-0.001484,-87.480134,0.003416,
680,1150,0.908083,-2.227719,0.999999,0.000119,-0.001140,0.002430,-0.000157,0.002436,-0.001146,-87.492578,0.002438,
1070,1540,0.117430,-0.902987,0.999999,0.000129,-0.000876,0.002002,0.000314,0.002036,-0.000910,83.851363,0.002040,
1270,1440,-0.022541,-0.997111,0.999999,0.000147,-0.000622,0.001494,-0.000189,0.001510,-0.000639,-84.934666,0.001516,
1890,1080,-1.054281,-2.410895,0.999998,0.000152,-0.001012,0.001980,0.000005,0.001980,-0.001012,89.902393,0.001980,
660,1860,0.327862,-0.433079,0.999997,0.000184,-0.001082,0.002569,-0.000317,0.002597,-0.001109,-85.078186,0.002606,
1750,1280,-0.758700,-1.888858,0.999998,0.000202,-0.001350,0.002632,0.000214,0.002644,-0.001362,86.926643,0.002644,
1480,1370,-0.261177,-1.396172,0.999998,0.000162,-0.001587,0.002713,-0.000482,0.002767,-0.001641,-83.681742,0.002783,
760,1230,0.743777,-1.998771,0.999998,0.000161,-0.001361,0.002668,-0.000291,0.002689,-0.001382,-85.884896,0.002690,
1530,1780,-0.155162,-0.476968,0.999998,0.000161,-0.000727,0.002107,0.000068,0.002108,-0.000729,88.634711,0.002141,
1010,1820,0.089483,-0.372346,0.999998,0.000155,-0.000480,0.001919,-0.000109,0.001924,-0.000485,-87.391412,0.002001,
1880,1750,-0.544649,-0.783937,0.999997,0.000205,-0.001188,0.002467,-0.000018,0.002467,-0.001188,-89.711835,0.002467,
560,1490,0.801720,-1.472136,0.999908,0.000000,-0.002146,0.001719,0.000630,0.001820,-0.002246,80.966762,0.002386,
1210,1890,0.006656,-0.226761,0.999999,0.000132,-0.000237,0.001645,0.000000,0.001645,-0.000237,-89.998181,0.001779,
1060,1260,0.195808,-1.548096,0.999998,0.000190,-0.001819,0.002758,0.000885,0.002923,-0.001984,79.431129,0.002984,
1440,1590,-0.150350,-0.831437,0.999999,0.000131,-0.000923,0.002119,-0.000245,0.002138,-0.000943,-85.429271,0.002143,
1840,1590,-0.623694,-1.148806,0.999998,0.000190,-0.001254,0.002542,-0.000031,0.002543,-0.001254,-89.529644,0.002543,
1060,170,0.044449,-4.794672,0.999999,0.000137,-0.000315,0.001735,0.000093,0.001739,-0.000319,87.405773,0.001852,
1060,40,0.005642,-5.007566,0.999999,0.000137,-0.000050,0.001529,0.000109,0.001536,-0.000057,86.070692,0.001742,
760,1800,0.290922,-0.517046,0.999997,0.000195,-0.000975,0.002443,-0.000204,0.002455,-0.000987,-86.600206,0.002470,
1320,360,-0.047234,-4.468481,0.999998,0.000147,-0.000586,0.001841,0.000070,0.001843,-0.000588,88.351882,0.001883,
1460,1720,-0.132865,-0.574211,0.999998,0.000147,-0.000691,0.002008,-0.000037,0.002008,-0.000692,-89.212360,0.002040,
1700,960,-0.846103,-2.688576,0.999998,0.000154,-0.001103,0.002526,-0.000201,0.002537,-0.001114,-86.844098,0.002544,
1790,460,-0.557066,-3.944927,0.999998,0.000187,-0.001269,0.002559,0.000057,0.002560,-0.001270,89.144069,0.002560,
1730,860,-0.811455,-2.938380,0.999999,0.000161,-0.001247,0.002556,-0.000256,0.002573,-0.001265,-86.159655,0.002573,
980,110,0.040467,-4.890602,0.999999,0.000180,-0.000235,0.001720,0.000233,0.001747,-0.000262,83.292259,0.001884,
1100,80,0.012667,-4.946212,0.999999,0.000138,-0.000111,0.001592,0.000094,0.001597,-0.000116,86.856258,0.001781,
1410,1040,-0.522581,-2.440231,0.999837,0.001471,-0.003003,0.006468,-0.000479,0.006492,-0.003027,-87.114959,0.006497,
640,180,0.328208,-4.629329,0.999997,0.000182,-0.001156,0.002570,0.000278,0.002590,-0.001177,85.758844,0.002594,
1690,340,-0.347986,-4.324306,0.999997,0.000179,-0.001099,0.002453,-0.000013,0.002453,-0.001099,-89.791775,0.002457,
1570,1710,-0.225440,-0.649775,0.999998,0.000158,-0.000992,0.002277,-0.000023,0.002278,-0.000992,-89.602557,0.002284,
850,670,0.462292,-3.532229,0.999997,0.000184,-0.001533,0.002811,-0.000059,0.002812,-0.001534,-89.227175,0.002815,
570,490,0.717698,-3.779313,0.999884,0.001354,-0.002565,0.002214,-0.000418,0.002251,-0.002602,-85.038655,0.002823,
1210,2010,0.000682,-0.038164,0.999999,0.000134,-0.000083,0.001495,-0.000001,0.001495,-0.000083,-89.952968,0.001680,
1060,690,0.146956,-3.756519,0.999998,0.000150,-0.001362,0.002295,-0.000753,0.002444,-0.001510,-78.811262,0.002466,
660,1150,0.931035,-2.232873,0.999999,0.000127,-0.001155,0.002369,-0.000153,0.002376,-0.001162,-87.519417,0.002376,
870,460,0.311542,-4.101915,0.999999,0.000186,-0.001171,0.002446,-0.000132,0.002451,-0.001176,-87.915383,0.002451,
1790,920,-0.924467,-2.775092,0.999999,0.000113,-0.001117,0.002406,-0.000186,0.002416,-0.001126,-86.988533,0.002418,
1710,1460,-0.548646,-1.381316,0.999998,0.000169,-0.001375,0.002664,-0.000027,0.002664,-0.001376,-89.620125,0.002664,
740,1230,0.770332,-2.006455,0.999998,0.000160,-0.001329,0.002635,-0.000267,0.002653,-0.001347,-86.163325,0.002653,
1210,1910,0.004154,-0.193261,0.999999,0.000148,-0.000196,0.001610,-0.000015,0.001611,-0.000196,-89.510647,0.001757,
1420,200,-0.062190,-4.738063,0.999998,0.000198,-0.000428,0.001795,-0.000073,0.001798,-0.000430,-88.113214,0.001877,
810,270,0.251180,-4.517813,0.999998,0.000195,-0.000960,0.002346,0.000149,0.002353,-0.000967,87.429557,0.002365,
920,520,0.278056,-3.997899,0.999998,0.000183,-0.001204,0.002445,-0.000229,0.002459,-0.001218,-86.427194,0.002459,
1490,910,-0.540362,-2.916166,0.999997,0.000193,-0.001610,0.003396,-0.000208,0.003404,-0.001618,-87.624803,0.003406,
1480,30,-0.002853,-5.022586,0.999999,0.000000,-0.000017,0.001517,-0.000235,0.001552,-0.000052,-81.501764,0.001763,
1250,490,-0.012582,-4.249431,0.999998,0.000162,-0.000647,0.001713,0.000085,0.001716,-0.000650,87.946427,0.001733,
560,1480,0.797227,-1.482663,0.999952,0.000000,-0.002193,0.001752,0.000423,0.001797,-0.002238,83.951904,0.002371,
700,1760,0.392582,-0.656122,0.999997,0.000199,-0.001193,0.002526,-0.000075,0.002527,-0.001195,-88.840947,0.002528,
1720,1210,-0.784933,-2.058715,0.999998,0.000160,-0.001266,0.002608,0.000304,0.002632,-0.001289,85.541681,0.002632,
1020,500,0.162200,-4.130801,0.999998,0.000176,-0.001001,0.002185,-0.000319,0.002217,-0.001033,-84.343524,0.002218,
1110,1460,0.084745,-1.024027,0.999999,0.000137,-0.000923,0.001849,0.000478,0.001929,-0.001003,80.484472,0.001929,
700,190,0.277189,-4.647455,0.999998,0.000149,-0.001095,0.002485,0.000304,0.002511,-0.001121,85.183103,0.002516,
1530,1420,-0.312344,-1.324441,0.999998,0.000171,-0.001496,0.002673,-0.000318,0.002698,-0.001520,-85.661077,0.002705,
1670,290,-0.287123,-4.458964,0.999998,0.000173,-0.001060,0.002421,-0.000101,0.002424,-0.001063,-88.339334,0.002430,
1370,730,-0.111542,-3.730706,0.999998,0.000166,-0.001291,0.002112,0.000947,0.002358,-0.001536,75.452821,0.002394,
1090,1700,0.078558,-0.578466,0.999998,0.000159,-0.000584,0.001888,0.000056,0.001890,-0.000586,88.711298,0.001935,
950,1080,0.658368,-2.356724,0.999998,0.000181,-0.001078,0.003148,-0.000221,0.003160,-0.001090,-87.017843,0.003210,
1270,1880,-0.009352,-0.243323,0.999998,0.000153,-0.000257,0.001661,0.000013,0.001662,-0.000257,89.610125,0.001789,
1610,1910,-0.111753,-0.232242,0.999998,0.000169,-0.000499,0.001994,0.000334,0.002038,-0.000543,82.501669,0.002111,
610,820,0.926492,-2.988540,0.999999,0.000137,-0.001171,0.002310,0.000130,0.002315,-0.001175,87.867735,0.002315,
1700,940,-0.832856,-2.740878,0.999998,0.000181,-0.001124,0.002552,-0.000223,0.002565,-0.001137,-86.533443,0.002571,
1160,1260,0.054544,-1.261712,0.999998,0.000150,-0.000977,0.001109,0.000930,0.001464,-0.001331,69.132190,0.001619,
1860,1910,-0.316888,-0.361373,0.999997,0.000200,-0.001189,0.002587,0.000259,0.002605,-0.001206,86.089265,0.002607,
1130,1780,0.043182,-0.419861,0.999999,0.000136,-0.000473,0.001785,0.000015,0.001785,-0.000473,89.611465,0.001850,
1060,670,0.142757,-3.802033,0.999999,0.000125,-0.001286,0.002236,-0.000705,0.002372,-0.001422,-79.085517,0.002387,
1750,1870,-0.257289,-0.369871,0.999998,0.000159,-0.001078,0.002426,0.000329,0.002457,-0.001108,84.689824,0.002461,
1060,1240,0.217121,-1.606047,0.999998,0.000175,-0.001894,0.002908,0.000865,0.003059,-0.002045,80.099021,0.003116,
1330,1400,-0.064217,-1.105332,0.999999,0.000145,-0.000859,0.001696,-0.000607,0.001833,-0.000996,-77.286979,0.001835,
1200,2010,0.001586,-0.038872,0.999999,0.000126,-0.000074,0.001501,-0.000004,0.001501,-0.000074,-89.861964,0.001692,
890,950,0.701368,-2.735777,0.999998,0.000169,-0.001137,0.002841,0.000321,0.002867,-0.001162,85.421979,0.002884,
640,160,0.295823,-4.683713,0.999997,0.000198,-0.001128,0.002644,0.000328,0.002673,-0.001156,85.072891,0.002681,
770,1460,0.525417,-1.366629,0.999997,0.000202,-0.001385,0.002660,0.000036,0.002660,-0.001385,89.496838,0.002661,
1090,1790,0.057912,-0.409101,0.999998,0.000145,-0.000430,0.001833,-0.000022,0.001833,-0.000430,-89.434879,0.001917,
1880,610,-0.784113,-3.489159,0.999998,0.000163,-0.001277,0.002566,0.000003,0.002566,-0.001277,89.959582,0.002566,
1710,1340,-0.647279,-1.704847,0.999998,0.000216,-0.001432,0.002726,0.000146,0.002731,-0.001437,87.989605,0.002732,
1880,740,-0.892111,-3.163051,0.999998,0.000168,-0.001206,0.002460,-0.000066,0.002461,-0.001208,-88.962388,0.002461,
1800,780,-0.828918,-3.113643,0.999998,0.000159,-0.001276,0.002499,-0.000180,0.002508,-0.001285,-87.284036,0.002508,
1820,1110,-0.971906,-2.331073,0.999998,0.000156,-0.001086,0.002320,0.000140,0.002326,-0.001091,87.646160,0.002327,
1220,590,0.006431,-4.086406,0.999999,0.000132,-0.000591,0.001505,-0.000091,0.001509,-0.000595,-87.505853,0.001520,
1470,2020,-0.007715,-0.024313,0.999998,0.000000,0.000069,0.001564,0.000188,0.001587,0.000046,82.930720,0.001860,
1840,1380,-0.787104,-1.685404,0.999998,0.000165,-0.001265,0.002544,0.000075,0.002546,-0.001267,88.879995,0.002546,
620,1230,0.919454,-2.056847,0.999998,0.000139,-0.001157,0.002359,-0.000152,0.002366,-0.001164,-87.525727,0.002366,
1420,180,-0.055766,-4.774717,0.999998,0.000178,-0.000380,0.001767,-0.000095,0.001772,-0.000384,-87.479514,0.001864,
920,500,0.270366,-4.045469,0.999998,0.000175,-0.001141,0.002405,-0.000206,0.002417,-0.001153,-86.684562,0.002418,
1430,50,-0.010880,-4.992112,0.999999,0.000125,-0.000075,0.001551,-0.000131,0.001561,-0.000086,-85.435021,0.001755,
1490,890,-0.502588,-2.985021,0.999998,0.000179,-0.001718,0.003375,-0.000159,0.003380,-0.001723,-88.215436,0.003380,
1460,1700,-0.138545,-0.613740,0.999998,0.000150,-0.000735,0.002059,-0.000072,0.002061,-0.000737,-88.522049,0.002089,
1570,1690,-0.238097,-0.697044,0.999998,0.000176,-0.001027,0.002297,-0.000052,0.002298,-0.001028,-89.106624,0.002302,
810,710,0.561020,-3.387734,0.999997,0.000207,-0.001504,0.002797,0.000093,0.002799,-0.001506,88.757959,0.002801,
560,1470,0.801187,-1.510927,0.999970,0.000000,-0.002292,0.001954,-0.000068,0.001955,-0.002293,-89.083219,0.002476,
1020,480,0.157222,-4.173505,0.999998,0.000154,-0.000968,0.002137,-0.000287,0.002163,-0.000995,-84.771903,0.002165,
700,1740,0.411528,-0.707219,0.999997,0.000197,-0.001191,0.002529,-0.000042,0.002529,-0.001192,-89.347891,0.002531,
1250,690,-0.009318,-3.949789,0.999999,0.000129,-0.000518,0.001154,0.000173,0.001172,-0.000536,84.154139,0.001173,
1110,1220,0.159323,-1.481740,0.999998,0.000186,-0.001437,0.002046,0.001132,0.002382,-0.001773,73.491588,0.002475,
700,170,0.250875,-4.697942,0.999998,0.000169,-0.001051,0.002474,0.000369,0.002512,-0.001089,84.079917,0.002519,
1490,480,-0.204714,-4.136671,0.999998,0.000137,-0.001023,0.002246,0.000242,0.002264,-0.001041,85.785037,0.002267,
710,980,0.909749,-2.636904,0.999998,0.000158,-0.001080,0.002412,0.000064,0.002413,-0.001081,88.949054,0.002418,
1020,1450,0.180764,-1.143608,0.999999,0.000114,-0.001248,0.002316,0.000495,0.002384,-0.001315,82.237021,0.002388,
950,1060,0.673881,-2.419644,0.999998,0.000199,-0.000981,0.003146,-0.000155,0.003152,-0.000987,-87.850731,0.003224,
1370,710,-0.107184,-3.772468,0.999999,0.000136,-0.001209,0.002053,0.000852,0.002263,-0.001418,76.209649,0.002287,
590,820,0.950713,-2.977958,0.999999,0.000131,-0.001141,0.002310,0.000064,0.002312,-0.001142,88.941557,0.002312,
1610,1890,-0.130753,-0.273998,0.999998,0.000178,-0.000568,0.002077,0.000321,0.002115,-0.000606,83.173031,0.002178,
1760,90,-0.122763,-4.888950,0.999998,0.000132,-0.000705,0.002177,-0.000629,0.002308,-0.000837,-78.203141,0.002337,
1250,1700,-0.010060,-0.552866,0.999998,0.000157,-0.000536,0.001777,-0.000048,0.001778,-0.000537,-88.814798,0.001823,
1300,170,-0.017000,-4.805141,0.999998,0.000139,-0.000220,0.001624,-0.000036,0.001625,-0.000221,-88.884685,0.001762,
680,1910,0.234627,-0.291380,0.999998,0.000193,-0.000990,0.002480,-0.000502,0.002551,-0.001061,-81.930407,0.002563,
1310,1320,-0.048562,-1.201536,0.999999,0.000150,-0.000846,0.001355,-0.000806,0.001619,-0.001109,-71.901898,0.001655,
1410,1880,-0.048252,-0.256438,0.999998,0.000134,-0.000359,0.001739,0.000080,0.001742,-0.000363,87.816698,0.001838,
960,1140,0.565986,-2.155227,0.999998,0.000195,-0.001503,0.003327,-0.000270,0.003342,-0.001518,-86.808433,0.003346,
1460,1110,-0.551538,-2.202972,0.999997,0.000191,-0.001494,0.003731,0.000007,0.003731,-0.001494,89.923506,0.003755,
850,740,0.523810,-3.332194,0.999997,0.000214,-0.001624,0.002910,0.000084,0.002912,-0.001625,88.941000,0.002918,
1770,1080,-0.926753,-2.394419,0.999999,0.000138,-0.001097,0.002387,0.000085,0.002389,-0.001099,88.596046,0.002392,
920,480,0.262357,-4.092323,0.999998,0.000167,-0.001127,0.002360,-0.000194,0.002371,-0.001138,-86.832206,0.002371,
1090,1750,0.069483,-0.482872,0.999998,0.000173,-0.000511,0.001852,0.000016,0.001853,-0.000511,89.603953,0.001914,
1150,1780,0.033836,-0.416623,0.999998,0.000152,-0.000437,0.001769,-0.000002,0.001769,-0.000437,-89.948865,0.001843,
1670,270,-0.270563,-4.507919,0.999997,0.000173,-0.001017,0.002359,-0.000147,0.002365,-0.001023,-87.509078,0.002372,
1470,30,-0.003879,-5.020471,0.999999,0.000000,0.000050,0.001513,-0.000219,0.001545,0.000018,-81.681147,0.001794,
640,140,0.261970,-4.736855,0.999998,0.000182,-0.001093,0.002649,0.000422,0.002696,-0.001140,83.646903,0.002706,
1190,2010,0.001977,-0.038823,0.999999,0.000125,-0.000062,0.001494,-0.000007,0.001494,-0.000062,-89.726170,0.001690,
660,1230,0.871770,-2.037804,0.999998,0.000155,-0.001230,0.002448,-0.000201,0.002458,-0.001241,-86.886544,0.002459,
1790,440,-0.541274,-3.995598,0.999998,0.000186,-0.001259,0.002533,0.000045,0.002534,-0.001260,89.319865,0.002534,
560,1460,0.822300,-1.529738,0.999956,0.000000,-0.002217,0.002234,-0.000209,0.002244,-0.002226,-87.317649,0.002581,
1320,340,-0.045242,-4.506673,0.999998,0.000157,-0.000570,0.001813,0.000046,0.001814,-0.000571,88.896777,0.001855,
990,1820,0.098560,-0.376869,0.999998,0.000160,-0.000488,0.001948,-0.000108,0.001953,-0.000493,-87.470645,0.002031,
1360,570,-0.090673,-4.057650,0.999999,0.000125,-0.000887,0.001891,0.000428,0.001955,-0.000952,81.432362,0.001955,
1160,1240,0.070423,-1.281939,0.999999,0.000136,-0.001053,0.001069,0.000870,0.001380,-0.001364,70.328052,0.001584,
1490,870,-0.470012,-3.052096,0.999998,0.000183,-0.001814,0.003376,-0.000069,0.003377,-0.001815,-89.239007,0.003380,
1420,160,-0.048478,-4.809488,0.999998,0.000184,-0.000336,0.001746,-0.000131,0.001754,-0.000344,-86.416869,0.001859,
1460,1680,-0.144277,-0.655239,0.999998,0.000176,-0.000771,0.002111,-0.000087,0.002113,-0.000773,-88.275569,0.002139,
700,1720,0.429341,-0.756626,0.999997,0.000183,-0.001199,0.002513,0.000002,0.002513,-0.001199,89.963499,0.002514,
1310,1440,-0.050872,-1.021158,0.999999,0.000141,-0.000740,0.001631,-0.000400,0.001697,-0.000805,-80.683052,0.001698,
1000,1450,0.206949,-1.168176,0.999998,0.000154,-0.001321,0.002392,0.000453,0.002447,-0.001375,83.143770,0.002453,
1010,1320,0.243013,-1.490460,0.999998,0.000199,-0.001738,0.002837,0.000590,0.002912,-0.001813,82.770917,0.002941,
1700,920,-0.821815,-2.791136,0.999998,0.000179,-0.001160,0.002559,-0.000245,0.002575,-0.001176,-86.250362,0.002578,
1060,1220,0.242869,-1.664217,0.999998,0.000179,-0.001891,0.002932,0.000786,0.003057,-0.002016,80.977781,0.003108,
1220,570,0.007981,-4.118352,0.999998,0.000156,-0.000599,0.001568,-0.000077,0.001570,-0.000602,-87.972271,0.001584,
890,930,0.679296,-2.794077,0.999998,0.000167,-0.001220,0.002879,0.000370,0.002913,-0.001253,84.880831,0.002922,
1840,1360,-0.803657,-1.736638,0.999998,0.000155,-0.001267,0.002531,0.000092,0.002533,-0.001269,88.608105,0.002533,
810,690,0.541437,-3.444123,0.999997,0.000227,-0.001511,0.002770,0.000048,0.002771,-0.001511,89.353331,0.002775,
1750,1850,-0.281733,-0.417932,0.999997,0.000184,-0.001102,0.002490,0.000259,0.002508,-0.001120,85.903155,0.002513,
1800,610,-0.681036,-3.550349,0.999998,0.000179,-0.001285,0.002567,-0.000030,0.002568,-0.001285,-89.558780,0.002568,
1020,460,0.151869,-4.216521,0.999999,0.000151,-0.000922,0.002111,-0.000242,0.002130,-0.000941,-85.465854,0.002135,
1800,760,-0.811476,-3.164528,0.999998,0.000154,-0.001288,0.002529,-0.000173,0.002537,-0.001296,-87.405517,0.002537,
850,1110,0.740253,-2.300125,0.999998,0.000162,-0.001139,0.002724,-0.000286,0.002745,-0.001160,-85.784122,0.002756,
1570,1670,-0.249168,-0.742325,0.999998,0.000158,-0.001055,0.002299,-0.000081,0.002301,-0.001057,-88.623235,0.002304,
740,450,0.464626,-4.023878,0.999999,0.000147,-0.001259,0.002513,-0.000064,0.002514,-0.001260,-89.031202,0.002514,
1370,690,-0.105561,-3.810787,0.999998,0.000143,-0.001153,0.002001,0.000784,0.002185,-0.001337,76.781878,0.002203,
1280,170,-0.012558,-4.804106,0.999999,0.000130,-0.000223,0.001643,-0.000025,0.001643,-0.000224,-89.236609,0.001783,
1490,520,-0.215963,-4.044454,0.999998,0.000176,-0.001157,0.002322,0.000303,0.002348,-0.001183,85.065764,0.002348,
1720,790,-0.733153,-3.126205,0.999997,0.000190,-0.001398,0.002668,-0.000245,0.002683,-0.001413,-86.563353,0.002684,
1500,1710,-0.166498,-0.613762,0.999998,0.000184,-0.000860,0.002128,-0.000071,0.002130,-0.000862,-88.636195,0.002143,
1880,530,-0.721647,-3.696058,0.999998,0.000159,-0.001305,0.002543,0.000020,0.002543,-0.001305,89.700532,0.002544,
930,1080,0.679268,-2.365614,0.999998,0.000189,-0.001028,0.003006,-0.000238,0.003020,-0.001042,-86.635622,0.003068,
650,520,0.629141,-3.772685,0.999997,0.000205,-0.001303,0.002586,-0.000022,0.002586,-0.001303,-89.674491,0.002586,
1430,300,-0.101091,-4.548276,0.999998,0.000201,-0.000638,0.001950,0.000021,0.001951,-0.000639,89.528709,0.001989,
1210,1930,0.003690,-0.161472,0.999999,0.000153,-0.000167,0.001592,0.000007,0.001592,-0.000167,89.756308,0.001750,
610,980,1.016797,-2.625876,0.999998,0.000147,-0.001043,0.002179,0.000033,0.002179,-0.001043,89.415301,0.002180,
1390,1880,-0.042271,-0.250642,0.999998,0.000134,-0.000303,0.001710,0.000070,0.001712,-0.000305,88.013246,0.001826,
1430,40,-0.008665,-5.007407,0.999999,0.000129,-0.000059,0.001532,-0.000121,0.001541,-0.000068,-85.688410,0.001741,
1270,1290,-0.021664,-1.175247,0.999999,0.000147,-0.000636,0.000857,-0.000529,0.001025,-0.000804,-72.334796,0.001079,
870,1360,0.452836,-1.559896,0.999997,0.000189,-0.001601,0.002871,0.000071,0.002873,-0.001602,89.086511,0.002879,
1460,1660,-0.149987,-0.696152,0.999998,0.000170,-0.000816,0.002088,-0.000121,0.002093,-0.000821,-87.614628,0.002109,
1460,2020,-0.007754,-0.025812,0.999999,0.000000,0.000060,0.001545,0.000168,0.001564,0.000041,83.624201,0.001830,
1690,1340,-0.618707,-1.692552,0.999997,0.000188,-0.001445,0.002758,0.000130,0.002762,-0.001449,88.226578,0.002763,
660,1840,0.354614,-0.483154,0.999997,0.000190,-0.001121,0.002557,-0.000268,0.002577,-0.001140,-85.849844,0.002583,
1070,1520,0.118832,-0.943294,0.999998,0.000143,-0.000894,0.002025,0.000358,0.002068,-0.000938,83.107024,0.002071,
1750,1080,-0.905486,-2.393509,0.999997,0.000193,-0.001092,0.002428,0.000093,0.002430,-0.001094,88.487873,0.002434,
1890,780,-0.938139,-3.058890,0.999998,0.000155,-0.001135,0.002352,-0.000066,0.002353,-0.001136,-88.908595,0.002354,
1360,550,-0.090269,-4.095254,0.999999,0.000116,-0.000873,0.001885,0.000394,0.001941,-0.000929,82.025748,0.001941,
1230,2010,-0.000492,-0.038829,0.999999,0.000126,-0.000046,0.001492,-0.000024,0.001493,-0.000046,-89.096074,0.001697,
1090,1730,0.071822,-0.521536,0.999998,0.000175,-0.000552,0.001904,0.000012,0.001904,-0.000552,89.726896,0.001959,
1200,590,0.019589,-4.083101,0.999999,0.000126,-0.000618,0.001547,-0.000123,0.001554,-0.000625,-86.765667,0.001564,
1490,850,-0.437944,-3.121288,0.999997,0.000204,-0.001896,0.003381,0.000019,0.003381,-0.001896,89.792168,0.003389,
710,210,0.292007,-4.605729,0.999997,0.000188,-0.001118,0.002474,0.000229,0.002489,-0.001133,86.363651,0.002492,
1800,1410,-0.709971,-1.579928,0.999997,0.000200,-0.001311,0.002580,0.000072,0.002582,-0.001313,88.937127,0.002582,
930,1660,0.216631,-0.742171,0.999998,0.000168,-0.000931,0.002232,0.000081,0.002235,-0.000933,88.533743,0.002245,
1670,250,-0.251594,-4.554172,0.999998,0.000151,-0.000979,0.002364,-0.000187,0.002374,-0.000989,-86.812228,0.002385,
680,1890,0.263848,-0.343167,0.999998,0.000194,-0.001059,0.002541,-0.000436,0.002593,-0.001111,-83.190922,0.002602,
920,460,0.256024,-4.140050,0.999999,0.000157,-0.001142,0.002368,-0.000173,0.002377,-0.001150,-87.182500,0.002377,
640,120,0.224969,-4.791248,0.999998,0.000161,-0.001023,0.002642,0.000510,0.002712,-0.001092,82.229413,0.002729,
1610,1870,-0.147483,-0.314806,0.999998,0.000177,-0.000632,0.002103,0.000278,0.002131,-0.000660,84.245170,0.002182,
1270,1380,-0.020769,-1.078840,0.999998,0.000137,-0.000598,0.001292,-0.000313,0.001343,-0.000649,-80.837840,0.001343,
560,1670,0.697036,-1.003948,0.999830,0.000000,-0.005767,0.003268,-0.000704,0.003322,-0.005821,-85.568880,0.005841,
810,670,0.523681,-3.498109,0.999997,0.000215,-0.001520,0.002782,0.000012,0.002782,-0.001520,89.836627,0.002786,
1420,140,-0.038913,-4.845340,0.999999,0.000148,-0.000288,0.001719,-0.000128,0.001727,-0.000296,-86.376817,0.001847,
1110,1500,0.084066,-0.947532,0.999999,0.000116,-0.000862,0.001878,0.000371,0.001928,-0.000912,82.418207,0.001929,
1160,1220,0.092977,-1.303984,0.999998,0.000144,-0.001115,0.000992,0.000618,0.001159,-0.001283,74.810263,0.001415,
1840,1340,-0.821605,-1.787920,0.999998,0.000162,-0.001257,0.002489,0.000107,0.002492,-0.001260,88.363473,0.002492,
1540,150,-0.083303,-4.811087,0.999999,0.000129,-0.000350,0.001904,-0.000243,0.001929,-0.000376,-83.926756,0.002046,
960,1120,0.597949,-2.221976,0.999998,0.000183,-0.001355,0.003279,-0.000284,0.003296,-0.001372,-86.508670,0.003311,
1060,1200,0.279971,-1.720775,0.999998,0.000182,-0.001847,0.002992,0.000772,0.003112,-0.001967,81.155582,0.003148,
1750,1830,-0.306237,-0.469454,0.999997,0.000207,-0.001111,0.002504,0.000204,0.002515,-0.001122,86.783829,0.002520,
1670,880,-0.752235,-2.902796,0.999998,0.000158,-0.001287,0.002696,-0.000317,0.002721,-0.001312,-85.484199,0.002721,
1690,680,-0.588446,-3.444617,0.999998,0.000170,-0.001448,0.002743,-0.000070,0.002744,-0.001449,-89.038304,0.002745,
1410,1030,-0.522390,-2.504562,0.999422,0.002811,-0.002919,0.006417,0.000114,0.006418,-0.002920,89.297686,0.006427,
1550,1820,-0.145193,-0.401387,0.999998,0.000164,-0.000603,0.002058,0.000153,0.002066,-0.000612,86.725022,0.002123,
890,910,0.656979,-2.850954,0.999998,0.000163,-0.001311,0.002947,0.000356,0.002976,-0.001341,85.247680,0.002981,
1550,350,-0.209727,-4.389207,0.999998,0.000175,-0.000860,0.002257,-0.000003,0.002257,-0.000860,-89.936725,0.002278,
610,480,0.650127,-3.841430,0.999998,0.000179,-0.001234,0.002552,-0.000021,0.002552,-0.001234,-89.686611,0.002552,
850,1090,0.753377,-2.354429,0.999998,0.000166,-0.001062,0.002713,-0.000263,0.002731,-0.001080,-86.038601,0.002750,
1320,320,-0.041630,-4.540910,0.999998,0.000166,-0.000539,0.001804,0.000027,0.001805,-0.000539,89.328675,0.001853,
1490,500,-0.209730,-4.090489,0.999998,0.000151,-0.001079,0.002289,0.000289,0.002314,-0.001104,85.129049,0.002315,
1700,1140,-0.819465,-2.236285,0.999998,0.000167,-0.001190,0.002560,0.000271,0.002580,-0.001210,85.883585,0.002581,
1370,670,-0.101614,-3.852502,0.999999,0.000138,-0.001122,0.002030,0.000744,0.002196,-0.001289,77.367179,0.002207,
1730,1280,-0.733099,-1.878363,0.999998,0.000208,-0.001369,0.002684,0.000228,0.002697,-0.001382,86.785576,0.002697,
1580,1450,-0.370618,-1.295962,0.999997,0.000185,-0.001472,0.002663,-0.000187,0.002671,-0.001480,-87.409028,0.002677,
650,500,0.615127,-3.824466,0.999998,0.000184,-0.001299,0.002555,-0.000023,0.002555,-0.001299,-89.652221,0.002555,
1880,520,-0.714481,-3.720088,0.999998,0.000167,-0.001286,0.002536,0.000008,0.002536,-0.001286,89.885325,0.002537,
650,980,0.974365,-2.629475,0.999998,0.000197,-0.001087,0.002273,0.000030,0.002274,-0.001087,89.487266,0.002274,
1000,170,0.064407,-4.785228,0.999999,0.000152,-0.000328,0.001833,0.000168,0.001846,-0.000341,85.572221,0.001965,
1540,1710,-0.199622,-0.635016,0.999998,0.000175,-0.000808,0.002261,-0.000006,0.002261,-0.000808,-89.884766,0.002291,
1760,350,-0.436901,-4.247318,0.999998,0.000175,-0.001213,0.002527,-0.000001,0.002527,-0.001213,-89.982977,0.002528,
850,1360,0.483367,-1.577572,0.999997,0.000215,-0.001584,0.002862,0.000016,0.002863,-0.001584,89.787871,0.002868,
1460,30,-0.005997,-5.019851,0.999999,0.000000,0.000069,0.001511,-0.000183,0.001534,0.000046,-82.888172,0.001799,
1180,210,0.017259,-4.737757,0.999998,0.000163,-0.000287,0.001677,0.000020,0.001677,-0.000287,89.418746,0.001794,
770,720,0.627607,-3.332795,0.999998,0.000192,-0.001468,0.002758,0.000169,0.002765,-0.001475,87.712573,0.002767,
1210,1880,0.006447,-0.242953,0.999999,0.000133,-0.000267,0.001650,0.000012,0.001650,-0.000267,89.626976,0.001771,
1490,830,-0.409022,-3.188833,0.999998,0.000195,-0.001926,0.003311,0.000089,0.003313,-0.001928,89.025974,0.003328,
1460,1640,-0.155236,-0.738070,0.999998,0.000168,-0.000865,0.002145,-0.000155,0.002153,-0.000873,-87.060502,0.002166,
1550,1260,-0.475295,-1.815780,0.999998,0.000169,-0.001779,0.003121,0.000063,0.003122,-0.001780,89.264918,0.003132,
1020,440,0.148133,-4.258574,0.999998,0.000164,-0.000866,0.002098,-0.000198,0.002111,-0.000879,-86.185421,0.002121,
1790,720,-0.762214,-3.273166,0.999998,0.000176,-0.001327,0.002596,-0.000132,0.002601,-0.001331,-88.075559,0.002601,
1260,400,-0.016662,-4.406625,0.999998,0.000167,-0.000600,0.001788,0.000062,0.001790,-0.000601,88.506386,0.001821,
1570,1780,-0.184226,-0.492328,0.999997,0.000187,-0.000793,0.002176,0.000096,0.002179,-0.000796,88.146520,0.002205,
1680,210,-0.223155,-4.643077,0.999998,0.000165,-0.000901,0.002312,-0.000277,0.002336,-0.000925,-85.117489,0.002353,
920,440,0.247133,-4.187159,0.999998,0.000153,-0.001117,0.002352,-0.000169,0.002360,-0.001126,-87.214556,0.002361,
1570,1650,-0.258959,-0.790695,0.999998,0.000154,-0.001085,0.002375,-0.000115,0.002379,-0.001089,-88.102125,0.002381,
710,230,0.314710,-4.557512,0.999997,0.000193,-0.001135,0.002505,0.000179,0.002514,-0.001144,87.193576,0.002518,
1220,2010,0.000123,-0.038122,0.999999,0.000142,-0.000084,0.001485,-0.000011,0.001485,-0.000084,-89.602878,0.001668,
1090,1710,0.077971,-0.559733,0.999998,0.000176,-0.000581,0.001882,0.000039,0.001882,-0.000582,89.096333,0.001928,
1360,630,-0.092023,-3.943168,0.999999,0.000137,-0.000970,0.001878,0.000538,0.001976,-0.001068,79.642624,0.001979,
1800,740,-0.791257,-3.214197,0.999998,0.000160,-0.001283,0.002551,-0.000157,0.002557,-0.001290,-87.656866,0.002557,
650,1620,0.567123,-1.051264,0.999998,0.000197,-0.001283,0.002520,0.000035,0.002521,-0.001283,89.470008,0.002521,
1220,420,0.007568,-4.372714,0.999998,0.000164,-0.000595,0.001790,-0.000040,0.001791,-0.000596,-89.029677,0.001824,
1340,40,-0.005412,-5.008502,0.999999,0.000112,-0.000041,0.001487,-0.000066,0.001490,-0.000044,-87.519364,0.001695,
640,100,0.185416,-4.844517,0.999998,0.000155,-0.000927,0.002601,0.000619,0.002706,-0.001032,80.325166,0.002732,
1800,1430,-0.692840,-1.528467,0.999997,0.000209,-0.001300,0.002584,0.000043,0.002585,-0.001301,89.361411,0.002585,
1120,1190,0.212237,-1.492831,0.999997,0.000211,-0.000908,0.001420,0.000911,0.001734,-0.001222,70.974739,0.001782,
1200,570,0.019323,-4.113602,0.999999,0.000134,-0.000623,0.001564,-0.000103,0.001569,-0.000628,-87.311557,0.001580,
560,1680,0.688031,-0.983097,0.999802,0.000000,-0.004995,0.002079,-0.000252,0.002088,-0.005004,-87.958604,0.005027,
810,650,0.509596,-3.555658,0.999997,0.000193,-0.001488,0.002793,-0.000021,0.002793,-0.001488,-89.712342,0.002795,
1420,120,-0.033229,-4.877811,0.999998,0.000150,-0.000222,0.001701,-0.000137,0.001711,-0.000232,-85.942775,0.001856,
1610,1850,-0.163332,-0.358222,0.999998,0.000165,-0.000683,0.002169,0.000254,0.002191,-0.000705,84.956683,0.002237,
1160,840,0.103458,-3.733192,0.999998,0.000171,-0.001157,0.000944,-0.000510,0.001062,-0.001274,-77.053477,0.001365,
1060,1180,0.317922,-1.785946,0.999998,0.000170,-0.001746,0.003120,0.000828,0.003257,-0.001883,80.607765,0.003271,
890,890,0.633968,-2.912293,0.999998,0.000172,-0.001414,0.003006,0.000379,0.003038,-0.001446,85.133575,0.003039,
890,1700,0.234887,-0.675310,0.999998,0.000174,-0.001008,0.002275,0.000053,0.002275,-0.001009,89.079812,0.002280,
610,460,0.635491,-3.893876,0.999999,0.000148,-0.001240,0.002539,-0.000028,0.002539,-0.001240,-89.580539,0.002539,
1110,1480,0.084749,-0.986230,0.999999,0.000121,-0.000906,0.001852,0.000433,0.001918,-0.000973,81.284560,0.001918,
1320,300,-0.040025,-4.578602,0.999998,0.000146,-0.000501,0.001788,0.000031,0.001788,-0.000502,89.212727,0.001844,
850,1070,0.765375,-2.409117,0.999998,0.000182,-0.001010,0.002650,-0.000199,0.002661,-0.001020,-86.904202,0.002685,
1480,830,-0.388603,-3.205456,0.999998,0.000184,-0.001941,0.003323,0.000148,0.003327,-0.001945,88.386573,0.003343,
1370,650,-0.104410,-3.894896,0.999998,0.000156,-0.001075,0.001969,0.000654,0.002103,-0.001210,78.366938,0.002111,
1700,900,-0.806313,-2.842951,0.999999,0.000159,-0.001214,0.002627,-0.000305,0.002651,-0.001238,-85.492204,0.002653,
1450,2020,-0.009082,-0.026900,0.999999,0.000000,0.000006,0.001504,0.000118,0.001513,-0.000003,85.508291,0.001746,
1840,1320,-0.838615,-1.835139,0.999998,0.000156,-0.001247,0.002500,0.000119,0.002504,-0.001251,88.178171,0.002504,
640,1410,0.738724,-1.595682,0.999998,0.000183,-0.001291,0.002566,-0.000050,0.002567,-0.001291,-89.250106,0.002567,
960,1290,0.355662,-1.663069,0.999997,0.000207,-0.001830,0.003095,0.000260,0.003109,-0.001844,86.987671,0.003127,
1880,510,-0.706941,-3.746351,0.999998,0.000172,-0.001274,0.002526,0.000007,0.002526,-0.001274,89.901065,0.002526,
740,690,0.644568,-3.394703,0.999997,0.000239,-0.001431,0.002703,0.000119,0.002706,-0.001434,88.354416,0.002708,
1540,670,-0.348985,-3.608522,0.999998,0.000174,-0.001594,0.002808,0.000274,0.002825,-0.001611,86.446650,0.002834,
640,1050,0.990750,-2.467445,0.999997,0.000211,-0.001096,0.002293,-0.000052,0.002294,-0.001097,-89.116272,0.002295,
1290,300,-0.027327,-4.581226,0.999999,0.000129,-0.000418,0.001758,-0.000001,0.001758,-0.000418,-89.980780,0.001836,
1260,440,-0.018022,-4.335017,0.999998,0.000181,-0.000597,0.001765,0.000076,0.001767,-0.000599,88.159164,0.001797,
760,990,0.858782,-2.613394,0.999998,0.000184,-0.001056,0.002470,0.000081,0.002472,-0.001058,88.679057,0.002480,
1770,720,-0.735949,-3.285188,0.999998,0.000175,-0.001330,0.002602,-0.000151,0.002608,-0.001336,-87.796775,0.002608,
920,420,0.235624,-4.233988,0.999998,0.000152,-0.001057,0.002287,-0.000149,0.002294,-0.001064,-87.455590,0.002296,
1670,230,-0.232873,-4.602748,0.999998,0.000153,-0.000946,0.002338,-0.000224,0.002353,-0.000961,-86.119019,0.002366,
710,250,0.336084,-4.505425,0.999997,0.000204,-0.001148,0.002525,0.000153,0.002531,-0.001154,87.614357,0.002534,
1050,600,0.146560,-3.941283,0.999998,0.000170,-0.001122,0.002150,-0.000512,0.002228,-0.001200,-81.307472,0.002231,
1020,420,0.142715,-4.299606,0.999998,0.000189,-0.000807,0.002085,-0.000155,0.002093,-0.000815,-86.943247,0.002110,
1300,2010,-0.003080,-0.037704,0.999999,0.000127,-0.000017,0.001508,0.000026,0.001509,-0.000018,89.012461,0.001732,
1750,1810,-0.328284,-0.519559,0.999997,0.000193,-0.001122,0.002493,0.000158,0.002500,-0.001128,87.506557,0.002503,
1460,1620,-0.162675,-0.782852,0.999998,0.000168,-0.000935,0.002149,-0.000222,0.002165,-0.000951,-85.904369,0.002170,
1090,1690,0.080016,-0.598261,0.999998,0.000151,-0.000594,0.001912,0.000060,0.001913,-0.000595,88.626619,0.001958,
1530,1260,-0.438643,-1.794110,0.999997,0.000184,-0.001837,0.003161,-0.000006,0.003161,-0.001837,-89.926588,0.003175,
810,630,0.493392,-3.611259,0.999997,0.000195,-0.001465,0.002715,-0.000040,0.002715,-0.001465,-89.447724,0.002718,
640,520,0.643073,-3.765171,0.999998,0.000208,-0.001278,0.002585,-0.000021,0.002585,-0.001278,-89.691490,0.002585,
610,80,0.174189,-4.862059,0.999998,0.000147,-0.001160,0.002835,0.000648,0.002937,-0.001263,81.017798,0.002947,
1570,1870,-0.120921,-0.304133,0.999998,0.000158,-0.000570,0.002012,0.000240,0.002034,-0.000592,84.727599,0.002093,
1610,1830,-0.182665,-0.402655,0.999998,0.000190,-0.000735,0.002203,0.000219,0.002219,-0.000751,85.768142,0.002257,
960,1100,0.623418,-2.284991,0.999998,0.000192,-0.001217,0.003264,-0.000268,0.003280,-0.001233,-86.593676,0.003314,
1670,680,-0.559331,-3.458592,0.999997,0.000199,-0.001499,0.002756,-0.000065,0.002757,-0.001500,-89.125333,0.002761,
1160,820,0.074853,-3.752843,0.999998,0.000164,-0.001068,0.001039,-0.000818,0.001319,-0.001348,-71.095437,0.001540,
1800,720,-0.775492,-3.266193,0.999998,0.000178,-0.001298,0.002572,-0.000130,0.002576,-0.001302,-88.075029,0.002576,
1080,1290,0.141382,-1.418361,0.999998,0.000157,-0.001566,0.002411,0.000996,0.002647,-0.001801,76.694426,0.002704,
1420,540,-0.144432,-4.063775,0.999999,0.000145,-0.001017,0.002139,0.000389,0.002186,-0.001064,83.068530,0.002187,
890,870,0.606440,-2.969688,0.999998,0.000177,-0.001527,0.003029,0.000352,0.003056,-0.001554,85.610588,0.003056,
920,1230,0.499161,-1.904073,0.999997,0.000183,-0.001772,0.003177,-0.000141,0.003181,-0.001776,-88.365921,0.003188,
1170,50,0.001962,-4.994508,0.999999,0.000129,-0.000034,0.001509,0.000019,0.001509,-0.000034,89.307969,0.001724,
630,1640,0.577625,-1.016886,0.999997,0.000197,-0.001252,0.002528,0.000037,0.002528,-0.001252,89.443839,0.002528,
1090,1780,0.061277,-0.428595,0.999998,0.000157,-0.000456,0.001846,-0.000030,0.001846,-0.000457,-89.261868,0.001923,
560,1690,0.696750,-0.946206,0.999776,0.000000,-0.004476,0.000847,0.000810,0.000968,-0.004596,81.536910,0.004846,
1680,190,-0.201703,-4.690700,0.999998,0.000157,-0.000852,0.002302,-0.000322,0.002335,-0.000884,-84.235483,0.002358,
1520,1710,-0.183632,-0.625064,0.999998,0.000153,-0.000832,0.002231,-0.000031,0.002231,-0.000832,-89.426065,0.002255,
1180,610,0.031828,-4.044880,0.999999,0.000134,-0.000670,0.001588,-0.000274,0.001620,-0.000703,-83.180906,0.001625,
1490,1050,-0.658308,-2.445760,0.999997,0.000194,-0.001015,0.003420,0.000092,0.003421,-0.001017,88.813551,0.003514,
890,760,0.476857,-3.308526,0.999996,0.000199,-0.001704,0.003045,0.000025,0.003045,-0.001704,89.701793,0.003052,
1100,1450,0.094284,-1.054031,0.999999,0.000128,-0.000945,0.001908,0.000494,0.001991,-0.001028,80.449089,0.001992,
1450,30,-0.005116,-5.022758,0.999999,0.000000,0.000024,0.001501,-0.000135,0.001513,0.000012,-84.816286,0.001754,
740,670,0.627161,-3.448847,0.999997,0.000214,-0.001406,0.002677,0.000074,0.002678,-0.001407,88.957575,0.002680,
890,1280,0.492672,-1.776822,0.999997,0.000211,-0.001698,0.003001,-0.000076,0.003002,-0.001700,-89.072227,0.003011,
1700,860,-0.771095,-2.949364,0.999998,0.000158,-0.001304,0.002632,-0.000274,0.002651,-0.001323,-86.030402,0.002651,
1370,630,-0.101125,-3.932525,0.999998,0.000142,-0.001018,0.001946,0.000573,0.002053,-0.001125,79.431139,0.002056,
1770,700,-0.716558,-3.337638,0.999998,0.000185,-0.001335,0.002606,-0.000127,0.002610,-0.001339,-88.150978,0.002610,
1060,1160,0.357710,-1.855191,0.999997,0.000176,-0.001589,0.003113,0.000973,0.003307,-0.001782,78.763081,0.003310,
1290,2010,-0.002597,-0.037415,0.999999,0.000114,-0.000029,0.001507,0.000017,0.001507,-0.000029,89.381849,0.001723,
920,400,0.227640,-4.280940,0.999998,0.000165,-0.000978,0.002273,-0.000106,0.002277,-0.000981,-88.139734,0.002284,
1020,400,0.138446,-4.340290,0.999998,0.000183,-0.000768,0.002053,-0.000136,0.002060,-0.000775,-87.250528,0.002081,
1840,560,-0.694600,-3.648300,0.999998,0.000184,-0.001259,0.002575,0.000001,0.002575,-0.001259,89.991627,0.002575,
1510,1100,-0.633256,-2.291604,0.999998,0.000161,-0.001193,0.003214,0.000308,0.003236,-0.001215,86.023422,0.003269,
980,170,0.072319,-4.782737,0.999998,0.000142,-0.000395,0.001865,0.000184,0.001879,-0.000410,85.386288,0.001976,
1480,810,-0.360662,-3.270793,0.999997,0.000215,-0.001947,0.003254,0.000246,0.003266,-0.001959,87.299880,0.003287,
1570,1630,-0.267601,-0.838269,0.999998,0.000160,-0.001086,0.002370,-0.000130,0.002375,-0.001091,-87.842544,0.002378,
1190,1880,0.011199,-0.242647,0.999999,0.000121,-0.000235,0.001646,-0.000019,0.001646,-0.000235,-89.414215,0.001781,
710,270,0.359020,-4.454840,0.999998,0.000207,-0.001175,0.002507,0.000127,0.002512,-0.001180,88.023366,0.002513,
1050,620,0.147795,-3.899027,0.999998,0.000152,-0.001161,0.002174,-0.000547,0.002262,-0.001249,-80.927724,0.002266,
960,1080,0.647631,-2.351511,0.999998,0.000200,-0.001098,0.003219,-0.000217,0.003230,-0.001109,-87.131461,0.003282,
1750,1790,-0.350846,-0.568679,0.999998,0.000217,-0.001152,0.002519,0.000110,0.002522,-0.001155,88.284733,0.002525,
1460,1600,-0.166418,-0.825709,0.999998,0.000169,-0.000977,0.002143,-0.000243,0.002162,-0.000996,-85.579205,0.002164,
1670,210,-0.213757,-4.648403,0.999998,0.000168,-0.000890,0.002294,-0.000267,0.002316,-0.000913,-85.247205,0.002334,
1090,1670,0.084618,-0.635618,0.999998,0.000149,-0.000611,0.001899,0.000093,0.001903,-0.000614,87.869880,0.001942,
1380,1250,-0.165493,-1.508161,0.999997,0.000190,-0.001716,0.002536,-0.001054,0.002783,-0.001963,-76.820048,0.002860,
1460,1130,-0.516532,-2.128782,0.999997,0.000183,-0.001614,0.003635,0.000009,0.003635,-0.001614,89.904863,0.003643,
1080,1270,0.153898,-1.467802,0.999998,0.000172,-0.001628,0.002458,0.001019,0.002698,-0.001868,76.745408,0.002764,
910,600,0.328093,-3.785378,0.999997,0.000205,-0.001422,0.002607,-0.000254,0.002623,-0.001438,-86.400539,0.002627,
1200,550,0.019324,-4.145728,0.999998,0.000155,-0.000634,0.001646,-0.000105,0.001651,-0.000639,-87.370664,0.001665,
1120,1510,0.075756,-0.922026,0.999999,0.000121,-0.000794,0.001841,0.000304,0.001875,-0.000829,83.508644,0.001880,
1800,700,-0.757805,-3.318971,0.999998,0.000192,-0.001305,0.002564,-0.000104,0.002567,-0.001308,-88.463587,0.002567,
1420,560,-0.149063,-4.020620,0.999999,0.000146,-0.001072,0.002130,0.000447,0.002191,-0.001134,82.194083,0.002192,
720,570,0.574849,-3.699113,0.999998,0.000163,-0.001365,0.002606,-0.000039,0.002606,-0.001366,-89.435023,0.002607,
1890,930,-1.039495,-2.722917,0.999998,0.000158,-0.001058,0.002171,-0.000016,0.002171,-0.001058,-89.710944,0.002172,
830,1580,0.367284,-1.008122,0.999998,0.000149,-0.001210,0.002493,0.000116,0.002497,-0.001214,88.215289,0.002497,
1600,1610,-0.310860,-0.906643,0.999998,0.000213,-0.001179,0.002421,-0.000114,0.002425,-0.001183,-88.183868,0.002425,
1270,350,-0.019389,-4.494234,0.999998,0.000151,-0.000516,0.001798,0.000031,0.001798,-0.000516,89.238871,0.001852,
1190,820,0.044970,-3.822269,0.999998,0.000151,-0.001040,0.000700,-0.000435,0.000803,-0.001143,-76.702713,0.001174,
1710,1100,-0.853845,-2.339484,0.999998,0.000179,-0.001106,0.002561,0.000218,0.002574,-0.001119,86.605687,0.002582,
1220,400,0.006982,-4.408799,0.999998,0.000177,-0.000565,0.001794,-0.000038,0.001795,-0.000566,-89.075227,0.001835,
640,540,0.656686,-3.712733,0.999998,0.000181,-0.001301,0.002591,-0.000022,0.002591,-0.001301,-89.676299,0.002591,
1240,1710,-0.005508,-0.532671,0.999998,0.000141,-0.000527,0.001763,-0.000013,0.001763,-0.000527,-89.678693,0.001810,
770,700,0.609190,-3.386565,0.999997,0.000218,-0.001451,0.002740,0.000114,0.002743,-0.001454,88.449385,0.002745,
610,120,0.261922,-4.753829,0.999998,0.000137,-0.001216,0.002672,0.000364,0.002705,-0.001250,84.691200,0.002708,
770,310,0.328438,-4.397001,0.999997,0.000208,-0.001075,0.002431,0.000060,0.002432,-0.001076,89.020940,0.002437,
920,380,0.219534,-4.324813,0.999998,0.000163,-0.000902,0.002248,-0.000064,0.002249,-0.000903,-88.842574,0.002264,
1840,1300,-0.857029,-1.885705,0.999998,0.000143,-0.001228,0.002467,0.000131,0.002472,-0.001232,87.970644,0.002472,
560,1700,0.679847,-0.956573,0.999640,0.000000,-0.004368,0.000666,0.000811,0.000793,-0.004495,81.069883,0.004798,
1800,290,-0.432488,-4.366795,0.999998,0.000181,-0.001186,0.002574,-0.000084,0.002576,-0.001188,-88.722443,0.002579,
1510,1120,-0.607043,-2.227338,0.999997,0.000193,-0.001348,0.003255,0.000311,0.003276,-0.001368,86.156271,0.003291,
1370,610,-0.102272,-3.971180,0.999998,0.000144,-0.000982,0.001945,0.000506,0.002031,-0.001067,80.459652,0.002031,
660,1820,0.378774,-0.533585,0.999997,0.000208,-0.001135,0.002580,-0.000209,0.002592,-0.001147,-86.788939,0.002598,
1380,170,-0.038567,-4.797503,0.999999,0.000165,-0.000250,0.001721,-0.000097,0.001726,-0.000255,-87.198819,0.001863,
890,850,0.579705,-3.032424,0.999998,0.000171,-0.001616,0.003073,0.000285,0.003090,-0.001633,86.531263,0.003092,
1190,420,0.025513,-4.368857,0.999998,0.000214,-0.000577,0.001796,-0.000058,0.001797,-0.000579,-88.595233,0.001835,
740,490,0.492229,-3.922582,0.999998,0.000150,-0.001275,0.002568,-0.000068,0.002569,-0.001276,-88.985351,0.002569,
1020,380,0.134225,-4.381696,0.999998,0.000172,-0.000765,0.002073,-0.000095,0.002076,-0.000768,-88.090237,0.002099,
1610,1810,-0.196633,-0.446652,0.999998,0.000187,-0.000782,0.002236,0.000178,0.002246,-0.000793,86.631495,0.002279,
1490,810,-0.379569,-3.252556,0.999997,0.000212,-0.001932,0.003269,0.000185,0.003276,-0.001939,87.964828,0.003294,
620,1630,0.597309,-1.050200,0.999998,0.000173,-0.001252,0.002502,0.000044,0.002503,-0.001253,89.332004,0.002503,
1040,110,0.029691,-4.895283,0.999999,0.000173,-0.000234,0.001688,0.000135,0.001697,-0.000243,86.005537,0.001835,
1670,190,-0.192891,-4.695451,0.999998,0.000158,-0.000840,0.002283,-0.000320,0.002315,-0.000872,-84.213339,0.002338,
1820,250,-0.415517,-4.453606,0.999997,0.000206,-0.001190,0.002547,-0.000117,0.002551,-0.001194,-88.215626,0.002553,
1530,1820,-0.133119,-0.396037,0.999998,0.000154,-0.000630,0.002027,0.000144,0.002035,-0.000638,86.915897,0.002082,
620,1410,0.765409,-1.611283,0.999998,0.000180,-0.001298,0.002537,-0.000040,0.002537,-0.001298,-89.408776,0.002537,
1060,1290,0.175181,-1.467681,0.999998,0.000165,-0.001682,0.002615,0.000898,0.002795,-0.001862,78.662716,0.002846,
1570,1590,-0.286508,-0.931747,0.999998,0.000170,-0.001128,0.002386,-0.000165,0.002394,-0.001136,-87.324753,0.002395,
1060,900,0.367622,-3.167787,0.999998,0.000188,-0.001544,0.003160,-0.001060,0.003388,-0.001772,-77.874449,0.003389,
1320,290,-0.039973,-4.595773,0.999999,0.000138,-0.000479,0.001790,0.000022,0.001790,-0.000479,89.446549,0.001853,
710,710,0.704200,-3.320811,0.999998,0.000170,-0.001388,0.002658,0.000138,0.002663,-0.001393,88.055447,0.002664,
1180,550,0.032209,-4.142159,0.999998,0.000156,-0.000637,0.001651,-0.000177,0.001664,-0.000650,-85.603562,0.001677,
1420,580,-0.150942,-3.976747,0.999998,0.000146,-0.001106,0.002134,0.000469,0.002201,-0.001172,81.918549,0.002202,
870,760,0.510788,-3.289490,0.999997,0.000191,-0.001675,0.003014,0.000070,0.003015,-0.001676,89.147541,0.003021,
850,1050,0.771735,-2.460496,0.999998,0.000190,-0.000969,0.002620,-0.000109,0.002623,-0.000973,-88.261100,0.002652,
1800,680,-0.739382,-3.368834,0.999998,0.000187,-0.001317,0.002577,-0.000096,0.002579,-0.001319,-88.588404,0.002579,
1280,2010,-0.002736,-0.037522,0.999999,0.000132,-0.000049,0.001514,0.000026,0.001514,-0.000049,89.032686,0.001721,
1320,280,-0.039048,-4.613810,0.999998,0.000144,-0.000456,0.001790,0.000004,0.001790,-0.000456,89.907714,0.001861,
1890,1090,-1.052367,-2.390524,0.999998,0.000159,-0.001013,0.002022,-0.000040,0.002023,-0.001014,-89.249791,0.002023,
1160,800,0.056404,-3.771790,0.999998,0.000177,-0.000984,0.001133,-0.000904,0.001466,-0.001317,-69.754809,0.001614,
860,1290,0.533596,-1.772219,0.999998,0.000174,-0.001650,0.002945,-0.000114,0.002948,-0.001653,-88.576985,0.002955,
1460,810,-0.321535,-3.309141,0.999998,0.000169,-0.001949,0.003206,0.000389,0.003235,-0.001978,85.713966,0.003261,
770,290,0.312037,-4.444214,0.999998,0.000196,-0.001040,0.002454,0.000131,0.002459,-0.001044,87.856470,0.002469,
1600,1590,-0.322727,-0.955749,0.999998,0.000192,-0.001224,0.002447,-0.000136,0.002452,-0.001229,-87.883291,0.002452,
1010,1780,0.105066,-0.449812,0.999998,0.000160,-0.000543,0.001999,-0.000035,0.001999,-0.000544,-89.219927,0.002068,
610,100,0.220849,-4.806692,0.999998,0.000145,-0.001194,0.002703,0.000503,0.002767,-0.001258,82.758124,0.002771,
1200,350,0.017308,-4.495042,0.999998,0.000171,-0.000513,0.001770,-0.000056,0.001772,-0.000515,-88.589797,0.001823,
560,1920,0.333316,-0.380501,0.999928,0.000000,-0.000399,0.002857,-0.000301,0.002885,-0.000427,-84.759288,0.003114,
1270,330,-0.019168,-4.529862,0.999998,0.000175,-0.000493,0.001784,0.000025,0.001784,-0.000494,89.365694,0.001843,
1550,330,-0.201408,-4.434556,0.999998,0.000182,-0.000844,0.002230,-0.000024,0.002230,-0.000845,-89.551777,0.002252,
1170,1880,0.015894,-0.244386,0.999999,0.000129,-0.000248,0.001650,-0.000020,0.001650,-0.000249,-89.401247,0.001779,
1700,840,-0.754034,-3.000698,0.999998,0.000158,-0.001342,0.002684,-0.000293,0.002705,-0.001363,-85.865792,0.002705,
1820,1290,-0.840303,-1.898411,0.999999,0.000125,-0.001257,0.002471,0.000154,0.002478,-0.001263,87.631687,0.002478,
1220,380,0.005717,-4.444496,0.999998,0.000152,-0.000558,0.001766,-0.000044,0.001766,-0.000558,-88.926419,0.001806,
1360,1170,-0.282477,-1.609238,0.999998,0.000182,-0.000814,0.001809,-0.001232,0.002298,-0.001302,-68.391276,0.002304,
960,1060,0.667089,-2.416715,0.999997,0.000212,-0.001008,0.003262,-0.000142,0.003267,-0.001012,-88.103170,0.003345,
670,90,0.148668,-4.877559,0.999998,0.000145,-0.000560,0.002409,0.000874,0.002648,-0.000798,74.753359,0.002716,
1120,1570,0.073345,-0.811945,0.999999,0.000137,-0.000700,0.001870,0.000212,0.001888,-0.000717,85.322223,0.001906,
920,360,0.208538,-4.369025,0.999998,0.000177,-0.000832,0.002228,-0.000019,0.002228,-0.000833,-89.653192,0.002252,
640,560,0.671814,-3.661315,0.999998,0.000171,-0.001307,0.002543,-0.000040,0.002544,-0.001307,-89.410614,0.002544,
1730,1700,-0.404764,-0.780782,0.999998,0.000178,-0.001199,0.002533,0.000018,0.002533,-0.001199,89.721717,0.002534,
1780,290,-0.409187,-4.383927,0.999997,0.000196,-0.001189,0.002561,-0.000065,0.002562,-0.001190,-89.009767,0.002565,
1690,1100,-0.830587,-2.336629,0.999998,0.000144,-0.001111,0.002568,0.000242,0.002583,-0.001127,86.257127,0.002590,
570,120,0.304961,-4.705341,0.999931,0.001075,-0.000729,0.002885,0.000627,0.002991,-0.000835,80.428667,0.003087,
1020,360,0.127343,-4.424361,0.999998,0.000163,-0.000750,0.002015,-0.000094,0.002018,-0.000753,-88.048860,0.002040,
1380,110,-0.021478,-4.898000,0.999999,0.000136,-0.000131,0.001631,-0.000114,0.001638,-0.000139,-86.310974,0.001817,
1460,1580,-0.173893,-0.869191,0.999998,0.000149,-0.001015,0.002190,-0.000273,0.002213,-0.001038,-85.163480,0.002214,
1370,590,-0.101210,-4.009035,0.999999,0.000130,-0.000937,0.001953,0.000457,0.002023,-0.001008,81.230545,0.002023,
640,1610,0.587715,-1.084325,0.999998,0.000159,-0.001268,0.002521,0.000024,0.002522,-0.001268,89.631293,0.002522,
1840,1260,-0.891594,-1.984108,0.999998,0.000150,-0.001203,0.002451,0.000139,0.002456,-0.001208,87.824173,0.002456,
1050,1040,0.537533,-2.445618,0.999995,0.000303,-0.002529,0.006138,0.000326,0.006150,-0.002541,87.851766,0.006181,
1340,410,-0.064717,-4.369018,0.999998,0.000198,-0.000645,0.001856,0.000149,0.001865,-0.000654,86.612325,0.001892,
1490,770,-0.336297,-3.380984,0.999998,0.000213,-0.001845,0.003115,0.000302,0.003134,-0.001863,86.527937,0.003152,
1360,170,-0.033412,-4.799339,0.999998,0.000162,-0.000255,0.001718,-0.000075,0.001721,-0.000258,-87.831504,0.001856,
890,830,0.556908,-3.094005,0.999998,0.000170,-0.001659,0.003050,0.000215,0.003060,-0.001669,87.396331,0.003064,
1040,1290,0.207268,-1.514702,0.999998,0.000184,-0.001764,0.002778,0.000761,0.002902,-0.001888,80.740096,0.002946,
970,1820,0.109492,-0.382550,0.999998,0.000145,-0.000608,0.001996,-0.000099,0.002000,-0.000612,-87.825480,0.002049,
1890,250,-0.499771,-4.380508,0.999996,0.000226,-0.001207,0.002427,-0.000028,0.002427,-0.001207,-89.564629,0.002427,
1670,170,-0.170641,-4.739448,0.999998,0.000152,-0.000777,0.002206,-0.000370,0.002251,-0.000822,-83.039748,0.002278,
670,1400,0.710531,-1.601048,0.999998,0.000154,-0.001294,0.002615,-0.000069,0.002616,-0.001295,-88.991812,0.002616,
1620,60,-0.036269,-4.970595,0.999999,0.000122,-0.000117,0.001807,-0.000420,0.001895,-0.000205,-78.221181,0.002080,
740,470,0.478185,-3.972814,0.999998,0.000154,-0.001274,0.002546,-0.000064,0.002547,-0.001275,-89.042326,0.002547,
1060,880,0.326665,-3.235525,0.999998,0.000179,-0.001715,0.003103,-0.000879,0.003258,-0.001870,-79.978018,0.003270,
1500,470,-0.210892,-4.150776,0.999998,0.000160,-0.001032,0.002263,0.000220,0.002277,-0.001047,86.201784,0.002280,
1420,600,-0.154015,-3.933770,0.999998,0.000148,-0.001143,0.002230,0.000488,0.002299,-0.001212,81.931911,0.002300,
860,1270,0.553971,-1.831394,0.999998,0.000173,-0.001639,0.002990,-0.000153,0.002995,-0.001644,-88.110470,0.003000,
710,690,0.686664,-3.374843,0.999998,0.000180,-0.001375,0.002657,0.000126,0.002661,-0.001379,88.210658,0.002661,
1570,1570,-0.294859,-0.978962,0.999998,0.000172,-0.001172,0.002421,-0.000184,0.002430,-0.001182,-87.076523,0.002431,
1580,1090,-0.718880,-2.348237,0.999998,0.000179,-0.001044,0.002802,0.000273,0.002821,-0.001064,85.963288,0.002849,
850,1030,0.776126,-2.513021,0.999998,0.000208,-0.000958,0.002660,-0.000015,0.002660,-0.000958,-89.755525,0.002694,
1800,660,-0.722187,-3.422345,0.999997,0.000194,-0.001302,0.002605,-0.000087,0.002607,-0.001304,-88.725628,0.002607,
1550,310,-0.189174,-4.477644,0.999998,0.000179,-0.000798,0.002185,-0.000036,0.002186,-0.000798,-89.304260,0.002212,
1250,560,-0.011496,-4.133599,0.999999,0.000139,-0.000642,0.001591,0.000114,0.001597,-0.000648,87.081837,0.001606,
1550,1780,-0.170207,-0.486338,0.999998,0.000171,-0.000685,0.002147,0.000104,0.002151,-0.000689,87.909524,0.002196,
1170,820,0.065316,-3.778505,0.999999,0.000151,-0.001041,0.000895,-0.000699,0.001121,-0.001268,-72.084149,0.001387,
1500,1090,-0.634422,-2.318310,0.999997,0.000178,-0.001157,0.003259,0.000251,0.003273,-0.001171,86.756956,0.003317,
1270,310,-0.019524,-4.565311,0.999998,0.000162,-0.000463,0.001762,0.000017,0.001762,-0.000463,89.572986,0.001827,
960,1040,0.673973,-2.481432,0.999998,0.000196,-0.000979,0.003196,-0.000063,0.003197,-0.000980,-89.129934,0.003275,
1220,360,0.007482,-4.480445,0.999998,0.000163,-0.000553,0.001771,-0.000030,0.001772,-0.000553,-89.256593,0.001813,
1070,1500,0.119969,-0.982767,0.999998,0.000158,-0.000924,0.002001,0.000391,0.002052,-0.000975,82.510645,0.002053,
1620,1370,-0.485132,-1.554781,0.999997,0.000202,-0.001548,0.002837,-0.000006,0.002837,-0.001548,-89.927225,0.002840,
680,1460,0.646778,-1.438391,0.999998,0.000171,-0.001314,0.002617,-0.000010,0.002617,-0.001314,-89.857414,0.002617,
640,580,0.686475,-3.610860,0.999998,0.000192,-0.001300,0.002559,-0.000001,0.002559,-0.001300,-89.988821,0.002559,
1020,560,0.174851,-3.997557,0.999998,0.000153,-0.001113,0.002213,-0.000405,0.002262,-0.001162,-83.162406,0.002262,
800,870,0.734225,-2.932446,0.999998,0.000177,-0.001298,0.002720,0.000331,0.002747,-0.001325,85.319111,0.002747,
920,560,0.296127,-3.897063,0.999998,0.000169,-0.001331,0.002524,-0.000268,0.002542,-0.001349,-86.043625,0.002544,
1370,570,-0.100564,-4.048859,0.999999,0.000133,-0.000902,0.001938,0.000438,0.002004,-0.000968,81.436903,0.002004,
950,700,0.322061,-3.556861,0.999997,0.000189,-0.001691,0.002861,-0.000334,0.002886,-0.001716,-85.832223,0.002903,
1880,1530,-0.717224,-1.333036,0.999998,0.000178,-0.001248,0.002556,-0.000004,0.002556,-0.001248,-89.942073,0.002557,
1180,750,0.029315,-3.860878,0.999999,0.000149,-0.000674,0.000998,-0.000630,0.001208,-0.000884,-71.500747,0.001251,
780,490,0.439864,-3.954737,0.999998,0.000176,-0.001291,0.002559,-0.000082,0.002561,-0.001293,-88.785871,0.002561,
1880,250,-0.488953,-4.390706,0.999997,0.000188,-0.001219,0.002438,-0.000026,0.002438,-0.001219,-89.586730,0.002438,
1750,1770,-0.367987,-0.620812,0.999997,0.000217,-0.001184,0.002532,0.000082,0.002534,-0.001185,88.737313,0.002536,
1670,150,-0.149334,-4.783764,0.999999,0.000156,-0.000711,0.002172,-0.000400,0.002227,-0.000766,-82.254966,0.002262,
1810,1620,-0.564276,-1.048384,0.999997,0.000184,-0.001291,0.002519,-0.000018,0.002519,-0.001291,-89.734027,0.002519,
1590,1040,-0.752159,-2.486354,0.999998,0.000203,-0.000945,0.002722,0.000089,0.002724,-0.000947,88.608448,0.002766,
1120,1550,0.074325,-0.849489,0.999999,0.000106,-0.000736,0.001857,0.000234,0.001878,-0.000757,84.891595,0.001890,
1840,1240,-0.907808,-2.033327,0.999999,0.000132,-0.001182,0.002384,0.000135,0.002389,-0.001187,87.838431,0.002389,
1890,1170,-1.015040,-2.219594,0.999998,0.000140,-0.001124,0.002116,0.000033,0.002116,-0.001124,89.416651,0.002118,
1060,860,0.288980,-3.302825,0.999998,0.000184,-0.001829,0.003038,-0.000802,0.003167,-0.001957,-80.882864,0.003196,
1460,1560,-0.177650,-0.913727,0.999998,0.000152,-0.001032,0.002193,-0.000291,0.002219,-0.001058,-84.893175,0.002220,
1730,1680,-0.419828,-0.832516,0.999998,0.000167,-0.001212,0.002529,0.000001,0.002529,-0.001212,89.989116,0.002530,
1050,1030,0.540005,-2.505409,0.999994,0.000287,-0.002536,0.006186,0.000051,0.006186,-0.002536,89.664737,0.006219,
910,420,0.246975,-4.227383,0.999998,0.000166,-0.001074,0.002323,-0.000141,0.002329,-0.001080,-87.628686,0.002331,
1360,110,-0.019025,-4.898985,0.999999,0.000147,-0.000162,0.001628,-0.000103,0.001634,-0.000168,-86.726441,0.001798,
1800,860,-0.896315,-2.917425,0.999999,0.000140,-0.001174,0.002440,-0.000213,0.002452,-0.001187,-86.631811,0.002453,
950,1820,0.122432,-0.388927,0.999998,0.000151,-0.000635,0.002030,-0.000122,0.002036,-0.000640,-87.378563,0.002082,
640,1590,0.602153,-1.135113,0.999998,0.000171,-0.001250,0.002543,0.000026,0.002544,-0.001250,89.604621,0.002544,
1490,750,-0.320381,-3.442197,0.999997,0.000212,-0.001818,0.003019,0.000360,0.003046,-0.001845,85.763539,0.003069,
1210,1780,0.009025,-0.410536,0.999998,0.000158,-0.000443,0.001747,0.000022,0.001747,-0.000443,89.425660,0.001816,
940,1270,0.414659,-1.753763,0.999997,0.000175,-0.001862,0.003171,0.000078,0.003172,-0.001863,89.116637,0.003188,
1570,1550,-0.305258,-1.029144,0.999998,0.000164,-0.001244,0.002472,-0.000202,0.002483,-0.001255,-86.890836,0.002483,
1150,340,0.041161,-4.507343,0.999997,0.000222,-0.000558,0.001834,-0.000029,0.001834,-0.000559,-89.302518,0.001880,
1420,1200,-0.310464,-1.779671,0.999998,0.000166,-0.001866,0.003250,-0.000636,0.003328,-0.001944,-83.014114,0.003344,
1500,1070,-0.653078,-2.381057,0.999998,0.000148,-0.001045,0.003258,0.000175,0.003265,-0.001053,87.678678,0.003333,
950,720,0.337225,-3.497987,0.999997,0.000217,-0.001736,0.002932,-0.000297,0.002950,-0.001755,-86.371161,0.002968,
1270,290,-0.018249,-4.599640,0.999998,0.000143,-0.000437,0.001778,0.000003,0.001778,-0.000437,89.925909,0.001853,
1220,340,0.005187,-4.516367,0.999998,0.000168,-0.000543,0.001746,-0.000014,0.001746,-0.000543,-89.642367,0.001787,
670,1370,0.736206,-1.678042,0.999998,0.000204,-0.001324,0.002567,-0.000106,0.002570,-0.001327,-88.436831,0.002570,
800,850,0.713831,-2.986683,0.999998,0.000163,-0.001356,0.002770,0.000311,0.002793,-0.001379,85.715434,0.002793,
1160,750,0.042902,-3.831033,0.999998,0.000142,-0.000809,0.001228,-0.000828,0.001523,-0.001103,-70.442700,0.001573,
1200,630,0.017973,-4.022301,0.999999,0.000154,-0.000595,0.001429,-0.000190,0.001447,-0.000613,-84.673227,0.001453,
1010,750,0.251127,-3.506719,0.999998,0.000176,-0.001800,0.002908,-0.000598,0.002983,-0.001875,-82.877966,0.003016,
1370,550,-0.098715,-4.086295,0.999999,0.000127,-0.000895,0.001921,0.000422,0.001983,-0.000957,81.662873,0.001984,
710,670,0.667082,-3.427857,0.999997,0.000208,-0.001383,0.002624,0.000081,0.002626,-0.001384,88.844496,0.002627,
1870,250,-0.476165,-4.401719,0.999997,0.000202,-0.001216,0.002449,-0.000029,0.002450,-0.001216,-89.551820,0.002450,
1670,130,-0.126357,-4.826452,0.999999,0.000144,-0.000625,0.002086,-0.000431,0.002153,-0.000692,-81.171880,0.002198,
1140,1200,0.164687,-1.393527,0.999997,0.000229,-0.000996,0.001076,0.000593,0.001234,-0.001154,75.108205,0.001381,
1570,1040,-0.734447,-2.485560,0.999997,0.000212,-0.000906,0.002760,0.000074,0.002761,-0.000908,88.850693,0.002815,
1870,1530,-0.705462,-1.325482,0.999998,0.000177,-0.001257,0.002562,-0.000005,0.002562,-0.001257,-89.921180,0.002562,
1890,1160,-1.019973,-2.240271,0.999999,0.000140,-0.001114,0.002152,0.000053,0.002152,-0.001114,89.071852,0.002153,
1790,1050,-0.955326,-2.466113,0.999998,0.000166,-0.001082,0.002381,0.000067,0.002382,-0.001083,88.896336,0.002385,
760,490,0.465894,-3.937789,0.999998,0.000195,-0.001300,0.002564,-0.000074,0.002565,-0.001301,-88.897690,0.002565,
1510,320,-0.163040,-4.475758,0.999998,0.000176,-0.000809,0.002162,0.000016,0.002162,-0.000809,89.700134,0.002185,
1080,1570,0.104948,-0.835962,0.999998,0.000147,-0.000846,0.001986,0.000321,0.002022,-0.000882,83.608721,0.002027,
1510,520,-0.240051,-4.026122,0.999998,0.000155,-0.001166,0.002355,0.000261,0.002374,-0.001185,85.779509,0.002374,
1220,320,0.005093,-4.549899,0.999999,0.000138,-0.000500,0.001754,-0.000018,0.001754,-0.000500,-89.545184,0.001807,
1060,840,0.252065,-3.361710,0.999997,0.000190,-0.001897,0.002937,-0.000773,0.003058,-0.002018,-81.134659,0.003109,
920,1840,0.130281,-0.359985,0.999998,0.000148,-0.000547,0.002033,-0.000193,0.002047,-0.000561,-85.740771,0.002115,
940,1250,0.437429,-1.817308,0.999997,0.000192,-0.001846,0.003186,0.000020,0.003186,-0.001846,89.767446,0.003199,
1570,1530,-0.314935,-1.080668,0.999998,0.000172,-0.001283,0.002542,-0.000185,0.002551,-0.001292,-87.234019,0.002551,
1100,1710,0.070792,-0.557184,0.999998,0.000200,-0.000569,0.001867,0.000062,0.001869,-0.000571,88.552958,0.001915,
1840,1220,-0.924318,-2.080074,0.999999,0.000128,-0.001171,0.002371,0.000143,0.002377,-0.001177,87.690326,0.002377,
1460,1540,-0.182117,-0.957464,0.999999,0.000143,-0.001063,0.002231,-0.000290,0.002257,-0.001088,-85.006704,0.002257,
1050,1020,0.539069,-2.564806,0.999995,0.000269,-0.002478,0.006243,-0.000272,0.006251,-0.002486,-88.218143,0.006294,
870,1640,0.287969,-0.831523,0.999998,0.000174,-0.001052,0.002395,0.000068,0.002396,-0.001053,88.863942,0.002402,
1460,1590,-0.170439,-0.847499,0.999998,0.000160,-0.001000,0.002169,-0.000261,0.002191,-0.001022,-85.322992,0.002192,
960,1020,0.676536,-2.542643,0.999998,0.000185,-0.000988,0.003153,0.000012,0.003154,-0.000988,89.837486,0.003226,
1390,340,-0.085263,-4.485471,0.999999,0.000137,-0.000607,0.001905,0.000039,0.001905,-0.000607,89.119470,0.001947,
1450,2010,-0.009619,-0.040613,0.999999,0.000127,-0.000029,0.001538,0.000132,0.001549,-0.000040,85.228318,0.001766,
640,1020,0.993107,-2.538305,0.999998,0.000176,-0.001088,0.002300,0.000037,0.002300,-0.001088,89.375195,0.002302,
670,1410,0.701472,-1.574393,0.999998,0.000173,-0.001298,0.002612,-0.000063,0.002613,-0.001299,-89.081383,0.002613,
680,1930,0.202839,-0.243707,0.999998,0.000179,-0.000896,0.002472,-0.000636,0.002588,-0.001012,-79.655759,0.002608,
1270,270,-0.016687,-4.636527,0.999998,0.000156,-0.000386,0.001750,0.000008,0.001750,-0.000386,89.782054,0.001839,
1490,730,-0.303795,-3.501405,0.999998,0.000194,-0.001767,0.002905,0.000392,0.002938,-0.001800,85.232070,0.002963,
1420,1180,-0.348753,-1.844532,0.999998,0.000169,-0.001791,0.003401,-0.000657,0.003483,-0.001873,-82.894752,0.003487,
1010,1770,0.109416,-0.471779,0.999998,0.000154,-0.000567,0.002010,-0.000026,0.002010,-0.000567,-89.425201,0.002073,
620,2000,0.103730,-0.098987,0.999998,0.000165,-0.001044,0.002498,-0.000726,0.002641,-0.001187,-78.849986,0.002646,
930,980,0.683092,-2.659849,0.999998,0.000177,-0.001002,0.003029,0.000231,0.003042,-0.001015,86.735205,0.003098,
1460,110,-0.037277,-4.892270,0.999998,0.000163,-0.000216,0.001714,-0.000201,0.001735,-0.000236,-84.127465,0.001882,
1140,1190,0.196162,-1.402849,0.999998,0.000206,-0.000900,0.000961,0.000551,0.001112,-0.001051,74.671046,0.001250,
1170,1820,0.021676,-0.346096,0.999999,0.000106,-0.000337,0.001714,-0.000047,0.001715,-0.000338,-88.694158,0.001817,
630,760,0.852722,-3.146714,0.999999,0.000135,-0.001230,0.002469,0.000139,0.002474,-0.001235,87.856106,0.002474,
710,650,0.651152,-3.479938,0.999997,0.000214,-0.001370,0.002644,0.000050,0.002645,-0.001371,89.290906,0.002645,
1320,700,-0.054155,-3.873489,0.999998,0.000142,-0.000866,0.001541,0.000746,0.001754,-0.001079,74.103859,0.001769,
1860,1530,-0.692982,-1.317793,0.999997,0.000199,-0.001248,0.002562,-0.000003,0.002562,-0.001248,-89.950155,0.002562,
890,810,0.532806,-3.153734,0.999998,0.000187,-0.001685,0.003053,0.000170,0.003059,-0.001691,87.948380,0.003065,
560,1910,0.351124,-0.406658,0.999903,0.000000,-0.000520,0.002865,-0.000293,0.002890,-0.000545,-85.090263,0.003071,
1700,820,-0.733241,-3.055438,0.999998,0.000167,-0.001363,0.002682,-0.000285,0.002702,-0.001383,-85.984400,0.002702,
850,860,0.654013,-2.979847,0.999998,0.000175,-0.001449,0.002886,0.000328,0.002910,-0.001473,85.692104,0.002910,
1730,580,-0.563490,-3.681258,0.999998,0.000180,-0.001380,0.002619,0.000011,0.002619,-0.001380,89.847122,0.002621,
790,1020,0.833351,-2.539198,0.999998,0.000166,-0.001005,0.002527,0.000045,0.002527,-0.001005,89.277278,0.002545,
1160,780,0.048715,-3.796285,0.999998,0.000159,-0.000896,0.001181,-0.000920,0.001530,-0.001246,-69.225541,0.001627,
1800,120,-0.204817,-4.802625,0.999998,0.000173,-0.000833,0.002538,-0.000685,0.002672,-0.000967,-78.947498,0.002706,
650,580,0.673346,-3.619202,0.999998,0.000193,-0.001296,0.002570,0.000000,0.002570,-0.001296,89.993797,0.002570,
1060,820,0.221844,-3.418461,0.999998,0.000179,-0.001891,0.002919,-0.000841,0.003062,-0.002034,-80.361003,0.003117,
1500,250,-0.121999,-4.623960,0.999998,0.000150,-0.000679,0.002024,-0.000083,0.002027,-0.000682,-88.238777,0.002063,
910,880,0.590109,-2.953855,0.999998,0.000150,-0.001538,0.003086,0.000355,0.003113,-0.001565,85.632268,0.003113,
1380,710,-0.119633,-3.752569,0.999999,0.000111,-0.001279,0.002147,0.000844,0.002344,-0.001475,76.888141,0.002370,
1220,300,0.004925,-4.585748,0.999999,0.000134,-0.000457,0.001751,-0.000007,0.001751,-0.000457,-89.820113,0.001817,
770,270,0.292925,-4.493635,0.999998,0.000178,-0.001013,0.002432,0.000162,0.002439,-0.001021,87.312631,0.002450,
1670,110,-0.104495,-4.867553,0.999999,0.000136,-0.000529,0.002064,-0.000484,0.002152,-0.000617,-79.769703,0.002216,
1160,570,0.046678,-4.098305,0.999999,0.000124,-0.000722,0.001692,-0.000324,0.001735,-0.000765,-82.479115,0.001739,
1150,1880,0.020434,-0.244558,0.999999,0.000153,-0.000241,0.001673,-0.000042,0.001674,-0.000242,-88.743211,0.001809,
1370,530,-0.099329,-4.124960,0.999999,0.000133,-0.000893,0.001989,0.000362,0.002034,-0.000938,82.941984,0.002036,
1670,180,-0.181869,-4.717978,0.999998,0.000151,-0.000812,0.002229,-0.000349,0.002269,-0.000851,-83.541190,0.002292,
1510,500,-0.232476,-4.072211,0.999999,0.000121,-0.001133,0.002333,0.000276,0.002355,-0.001155,85.481137,0.002355,
570,110,0.286388,-4.736415,0.999947,0.000931,-0.000628,0.002915,0.000536,0.002994,-0.000708,81.584373,0.003130,
1370,340,-0.074369,-4.490133,0.999997,0.000232,-0.000573,0.001874,0.000050,0.001875,-0.000574,88.819755,0.001922,
1570,1510,-0.325721,-1.131549,0.999998,0.000186,-0.001299,0.002527,-0.000208,0.002539,-0.001311,-86.897846,0.002539,
840,710,0.511940,-3.411219,0.999997,0.000209,-0.001593,0.002865,0.000026,0.002865,-0.001593,89.671497,0.002871,
1750,1750,-0.387396,-0.670695,0.999998,0.000193,-0.001213,0.002520,0.000049,0.002521,-0.001214,89.252597,0.002522,
590,1680,0.596208,-0.950192,0.999998,0.000182,-0.001434,0.002431,0.000000,0.002431,-0.001434,-89.999483,0.002444,
1080,1550,0.106854,-0.875403,0.999999,0.000127,-0.000873,0.001981,0.000320,0.002017,-0.000908,83.676619,0.002020,
1630,1450,-0.443449,-1.343634,0.999997,0.000185,-0.001441,0.002669,-0.000118,0.002672,-0.001444,-88.357621,0.002675,
680,900,0.906424,-2.823095,0.999999,0.000150,-0.001128,0.002417,0.000174,0.002426,-0.001136,87.190861,0.002427,
1080,1710,0.083064,-0.561825,0.999999,0.000144,-0.000591,0.001900,0.000034,0.001901,-0.000592,89.225302,0.001945,
1440,2010,-0.009598,-0.040752,0.999999,0.000128,-0.000035,0.001527,0.000109,0.001535,-0.000043,86.026177,0.001748,
1170,40,0.002602,-5.008466,0.999999,0.000121,-0.000029,0.001503,0.000008,0.001503,-0.000029,89.696086,0.001719,
810,610,0.479740,-3.665268,0.999997,0.000191,-0.001438,0.002717,-0.000065,0.002718,-0.001439,-89.099094,0.002719,
760,1790,0.299620,-0.540802,0.999997,0.000188,-0.000995,0.002428,-0.000180,0.002437,-0.001004,-87.005399,0.002450,
1490,710,-0.290206,-3.559715,0.999998,0.000199,-0.001706,0.002877,0.000429,0.002916,-0.001746,84.703778,0.002935,
1270,250,-0.014551,-4.669630,0.999998,0.000142,-0.000351,0.001705,-0.000003,0.001705,-0.000351,-89.925588,0.001800,
1010,1730,0.123960,-0.549839,0.999998,0.000155,-0.000660,0.001977,0.000005,0.001977,-0.000660,89.901012,0.002013,
910,980,0.704069,-2.655378,0.999998,0.000191,-0.001004,0.002889,0.000240,0.002904,-0.001019,86.479674,0.002946,
1050,990,0.530047,-2.748504,0.999995,0.000256,-0.002301,0.005757,-0.000967,0.005871,-0.002416,-83.251088,0.005902,
1220,1950,0.001363,-0.129297,0.999999,0.000115,-0.000177,0.001560,0.000002,0.001560,-0.000177,89.924662,0.001709,
580,760,0.913255,-3.111597,0.999998,0.000143,-0.001308,0.002454,0.000008,0.002455,-0.001308,89.878761,0.002456,
930,740,0.388289,-3.414133,0.999997,0.000206,-0.001764,0.003003,-0.000167,0.003008,-0.001769,-87.993247,0.003024,
1000,1330,0.252855,-1.478434,0.999998,0.000190,-0.001734,0.002837,0.000539,0.002900,-0.001797,83.370510,0.002927,
1150,1820,0.027560,-0.346318,0.999998,0.000155,-0.000361,0.001735,-0.000029,0.001735,-0.000362,-89.216549,0.001831,
1420,1160,-0.390425,-1.913602,0.999997,0.000188,-0.001719,0.003484,-0.000673,0.003570,-0.001804,-82.745837,0.003570,
1670,310,-0.302370,-4.411814,0.999998,0.000148,-0.001102,0.002419,-0.000059,0.002420,-0.001103,-89.038710,0.002423,
850,840,0.631702,-3.037260,0.999997,0.000189,-0.001496,0.002912,0.000297,0.002932,-0.001516,86.163168,0.002933,
1840,1200,-0.939806,-2.127514,0.999999,0.000125,-0.001158,0.002356,0.000162,0.002364,-0.001166,87.359177,0.002364,
1750,1660,-0.460774,-0.898664,0.999998,0.000217,-0.001233,0.002524,-0.000019,0.002524,-0.001233,-89.703001,0.002524,
770,1020,0.854611,-2.538793,0.999998,0.000168,-0.001043,0.002514,0.000047,0.002515,-0.001044,89.238056,0.002527,
1440,2020,-0.008814,-0.026306,0.999999,0.000000,-0.000015,0.001479,0.000082,0.001483,-0.000019,86.875990,0.001702,
1040,430,0.129121,-4.290472,0.999998,0.000177,-0.000819,0.002048,-0.000180,0.002059,-0.000830,-86.428869,0.002072,
770,250,0.275128,-4.541691,0.999998,0.000165,-0.000996,0.002394,0.000229,0.002409,-0.001011,86.145128,0.002419,
650,560,0.659048,-3.669508,0.999998,0.000165,-0.001300,0.002538,-0.000033,0.002538,-0.001300,-89.506904,0.002538,
880,110,0.070656,-4.880549,0.999999,0.000159,-0.000392,0.001895,0.000333,0.001942,-0.000439,81.879129,0.002037,
910,860,0.562066,-3.016640,0.999998,0.000181,-0.001588,0.003130,0.000294,0.003148,-0.001606,86.444839,0.003148,
920,1860,0.113299,-0.316731,0.999998,0.000164,-0.000475,0.002010,-0.000230,0.002031,-0.000496,-84.753415,0.002117,
840,690,0.494869,-3.468772,0.999997,0.000214,-0.001565,0.002810,-0.000004,0.002810,-0.001565,-89.945757,0.002816,
1130,1880,0.025417,-0.245100,0.999998,0.000157,-0.000304,0.001713,-0.000045,0.001714,-0.000305,-88.731826,0.001828,
780,1330,0.618529,-1.715033,0.999998,0.000176,-0.001478,0.002768,-0.000145,0.002773,-0.001483,-88.043579,0.002775,
560,1900,0.369330,-0.453279,0.999859,0.000000,-0.000578,0.002835,-0.000392,0.002880,-0.000623,-83.531552,0.003030,
1220,280,0.005168,-4.619330,0.999998,0.000140,-0.000429,0.001743,-0.000019,0.001743,-0.000429,-89.498114,0.001817,
1570,1490,-0.334084,-1.180816,0.999998,0.000186,-0.001340,0.002557,-0.000222,0.002569,-0.001352,-86.747176,0.002571,
1660,270,-0.260273,-4.513754,0.999998,0.000158,-0.000974,0.002342,-0.000144,0.002348,-0.000980,-87.513012,0.002359,
1750,1730,-0.403249,-0.721996,0.999998,0.000177,-0.001201,0.002486,0.000028,0.002486,-0.001201,89.559991,0.002487,
1510,380,-0.190668,-4.344635,0.999998,0.000158,-0.000906,0.002172,0.000115,0.002176,-0.000910,87.855195,0.002186,
1880,1350,-0.861985,-1.792220,0.999998,0.000144,-0.001234,0.002486,0.000057,0.002486,-0.001235,89.124932,0.002486,
1500,1050,-0.667728,-2.449732,0.999997,0.000179,-0.000971,0.003279,0.000106,0.003282,-0.000974,88.566908,0.003371,
1160,2010,0.002754,-0.039069,0.999999,0.000135,0.000004,0.001492,-0.000040,0.001493,0.000002,-88.478547,0.001725,
890,600,0.358317,-3.764261,0.999998,0.000182,-0.001468,0.002651,-0.000220,0.002662,-0.001480,-86.951980,0.002668,
1800,80,-0.129460,-4.901299,0.999998,0.000157,-0.000462,0.002482,-0.000970,0.002773,-0.000753,-73.307149,0.002867,
1060,800,0.201058,-3.478505,0.999998,0.000186,-0.001848,0.002815,-0.000895,0.002981,-0.002013,-79.503087,0.003042,
710,620,0.626771,-3.559962,0.999998,0.000172,-0.001364,0.002614,0.000028,0.002614,-0.001365,89.602609,0.002615,
580,1680,0.608718,-0.959611,0.999998,0.000187,-0.002823,0.002343,-0.000020,0.002343,-0.002823,-89.779215,0.003021,
970,580,0.238193,-3.898958,0.999998,0.000161,-0.001257,0.002437,-0.000358,0.002472,-0.001292,-84.514540,0.002473,
1870,530,-0.709048,-3.703997,0.999999,0.000137,-0.001273,0.002534,0.000008,0.002534,-0.001273,89.873578,0.002534,
1160,40,0.002641,-5.009460,0.999999,0.000113,-0.000016,0.001498,0.000005,0.001498,-0.000016,89.820780,0.001720,
1090,1650,0.086755,-0.673922,0.999998,0.000152,-0.000663,0.001910,0.000124,0.001916,-0.000669,87.241260,0.001945,
1270,230,-0.013182,-4.704808,0.999999,0.000127,-0.000323,0.001715,-0.000006,0.001715,-0.000323,-89.838008,0.001823,
1560,670,-0.379778,-3.586536,0.999997,0.000212,-0.001567,0.002825,0.000197,0.002833,-0.001576,87.432815,0.002839,
810,590,0.466023,-3.718616,0.999997,0.000189,-0.001420,0.002648,-0.000080,0.002650,-0.001422,-88.877854,0.002652,
680,870,0.884332,-2.896595,0.999998,0.000147,-0.001177,0.002443,0.000240,0.002459,-0.001193,86.227373,0.002460,
1040,410,0.126107,-4.331223,0.999998,0.000175,-0.000788,0.002027,-0.000173,0.002038,-0.000798,-86.500790,0.002054,
1010,1190,0.394119,-1.901769,0.999998,0.000184,-0.001929,0.003453,0.000252,0.003465,-0.001941,87.321225,0.003473,
1670,90,-0.079680,-4.907260,0.999999,0.000127,-0.000411,0.001979,-0.000485,0.002074,-0.000506,-78.958158,0.002163,
930,800,0.449318,-3.226135,0.999997,0.000192,-0.001803,0.003157,0.000000,0.003157,-0.001803,-89.998738,0.003167,
700,90,0.125114,-4.887099,0.999999,0.000128,-0.000717,0.002176,0.000631,0.002307,-0.000849,78.215259,0.002334,
1310,1340,-0.046531,-1.173264,0.999999,0.000125,-0.000810,0.001418,-0.000717,0.001629,-0.001021,-73.611232,0.001646,
850,1010,0.772832,-2.566414,0.999998,0.000200,-0.000967,0.002649,0.000089,0.002651,-0.000970,88.586987,0.002683,
560,1890,0.398493,-0.471653,0.999851,0.000000,-0.000675,0.002949,-0.000152,0.002955,-0.000681,-87.605404,0.003095,
680,880,0.891694,-2.873200,0.999998,0.000157,-0.001165,0.002440,0.000225,0.002454,-0.001179,86.447002,0.002454,
870,1100,0.725108,-2.323786,0.999998,0.000180,-0.001086,0.002772,-0.000278,0.002792,-0.001106,-85.907684,0.002812,
1640,1310,-0.572807,-1.742393,0.999997,0.000215,-0.001567,0.002873,0.000126,0.002876,-0.001570,88.370168,0.002880,
1570,1880,-0.112744,-0.284243,0.999999,0.000148,-0.000540,0.001983,0.000258,0.002009,-0.000566,84.228445,0.002071,
1740,1150,-0.858814,-2.218924,0.999998,0.000153,-0.001175,0.002478,0.000250,0.002495,-0.001192,86.111467,0.002496,
960,1240,0.413417,-1.823427,0.999997,0.000197,-0.001900,0.003243,0.000091,0.003245,-0.001902,88.986511,0.003261,
1440,30,-0.005533,-5.022656,0.999999,0.000000,-0.000033,0.001519,-0.000124,0.001529,-0.000043,-85.450989,0.001741,
1460,780,-0.292231,-3.401572,0.999997,0.000212,-0.001912,0.003067,0.000490,0.003115,-0.001960,84.437827,0.003149,
1150,40,0.001985,-5.008944,0.999999,0.000114,0.000006,0.001506,0.000022,0.001506,0.000006,89.168040,0.001743,
1670,940,-0.800623,-2.744179,0.999999,0.000152,-0.001139,0.002597,-0.000232,0.002611,-0.001154,-86.454637,0.002617,
1640,1530,-0.406439,-1.139514,0.999998,0.000159,-0.001327,0.002557,-0.000130,0.002561,-0.001331,-88.090570,0.002562,
810,320,0.292868,-4.398549,0.999998,0.000188,-0.001076,0.002398,0.000035,0.002399,-0.001077,89.423118,0.002403,
690,1600,0.531142,-1.069301,0.999998,0.000181,-0.001282,0.002524,0.000042,0.002524,-0.001282,89.371963,0.002524,
1510,360,-0.182547,-4.387664,0.999998,0.000166,-0.000890,0.002143,0.000078,0.002145,-0.000892,88.524138,0.002155,
710,630,0.634463,-3.533270,0.999997,0.000193,-0.001371,0.002637,0.000039,0.002637,-0.001372,89.443656,0.002638,
1570,1470,-0.342843,-1.233412,0.999998,0.000173,-0.001408,0.002619,-0.000227,0.002632,-0.001421,-86.787021,0.002635,
1700,800,-0.714992,-3.108294,0.999998,0.000177,-0.001394,0.002715,-0.000264,0.002732,-0.001411,-86.336773,0.002732,
640,1000,0.988119,-2.584863,0.999998,0.000176,-0.001103,0.002280,0.000074,0.002281,-0.001104,88.741179,0.002282,
1370,510,-0.095058,-4.167219,0.999999,0.000128,-0.000851,0.001942,0.000318,0.001978,-0.000887,83.578398,0.001981,
770,230,0.254003,-4.589926,0.999998,0.000158,-0.000962,0.002365,0.000265,0.002386,-0.000983,85.476691,0.002398,
1420,1140,-0.430297,-1.988127,0.999997,0.000198,-0.001634,0.003586,-0.000765,0.003696,-0.001743,-81.833562,0.003698,
1480,1290,-0.314184,-1.626419,0.999997,0.000196,-0.001887,0.003058,-0.000391,0.003089,-0.001918,-85.506751,0.003119,
910,1800,0.160838,-0.444653,0.999998,0.000166,-0.000659,0.002101,-0.000137,0.002108,-0.000665,-87.167212,0.002155,
570,1680,0.627527,-0.965175,0.999802,0.001845,-0.003586,0.002242,-0.000096,0.002243,-0.003587,-89.058935,0.003625,
1090,1630,0.087964,-0.709570,0.999998,0.000163,-0.000717,0.001933,0.000154,0.001942,-0.000725,86.675976,0.001963,
1430,1040,-0.579886,-2.458090,0.999997,0.000274,-0.002113,0.005179,-0.000203,0.005185,-0.002119,-88.408908,0.005214,
1750,1710,-0.420822,-0.771751,0.999998,0.000188,-0.001202,0.002526,0.000008,0.002526,-0.001202,89.879358,0.002527,
1550,290,-0.179278,-4.521809,0.999998,0.000157,-0.000738,0.002188,-0.000076,0.002190,-0.000740,-88.514928,0.002228,
1490,690,-0.279756,-3.617834,0.999998,0.000200,-0.001640,0.002778,0.000432,0.002820,-0.001682,84.464899,0.002837,
1010,1170,0.426418,-1.971415,0.999998,0.000177,-0.001846,0.003479,0.000158,0.003484,-0.001851,88.302718,0.003486,
1220,260,0.003704,-4.655442,0.999998,0.000155,-0.000407,0.001724,-0.000026,0.001725,-0.000407,-89.310420,0.001803,
1120,1490,0.076117,-0.959146,0.999999,0.000126,-0.000824,0.001832,0.000364,0.001881,-0.000873,82.326766,0.001882,
1160,760,0.043312,-3.818831,0.999998,0.000143,-0.000819,0.001187,-0.000852,0.001500,-0.001133,-69.821583,0.001564,
1070,930,0.422690,-3.127245,0.999997,0.000227,-0.001220,0.003632,-0.001813,0.004234,-0.001823,-71.617578,0.004248,
1860,530,-0.696660,-3.709845,0.999998,0.000147,-0.001255,0.002536,0.000006,0.002536,-0.001255,89.902826,0.002536,
920,1880,0.101525,-0.278902,0.999998,0.000164,-0.000432,0.001953,-0.000237,0.001976,-0.000456,-84.376686,0.002070,
1160,610,0.045792,-4.032340,0.999999,0.000157,-0.000698,0.001622,-0.000370,0.001679,-0.000756,-81.149483,0.001682,
1060,780,0.184643,-3.531619,0.999998,0.000164,-0.001768,0.002696,-0.000903,0.002872,-0.001943,-78.983018,0.002931,
1660,1980,-0.059714,-0.102093,0.999998,0.000144,-0.000304,0.001905,0.000494,0.002011,-0.000410,77.951160,0.002125,
1320,720,-0.055424,-3.841562,0.999999,0.000141,-0.000889,0.001523,0.000814,0.001772,-0.001139,72.987572,0.001796,
570,820,0.972585,-2.964651,0.999999,0.000137,-0.001115,0.002368,0.000018,0.002368,-0.001115,89.710753,0.002369,
1390,1520,-0.116410,-0.940998,0.999999,0.000117,-0.000923,0.001985,-0.000351,0.002026,-0.000965,-83.209557,0.002027,
830,360,0.297785,-4.316281,0.999998,0.000185,-0.001033,0.002406,0.000037,0.002406,-0.001034,89.376983,0.002414,
1270,210,-0.012429,-4.739704,0.999998,0.000161,-0.000292,0.001675,-0.000007,0.001675,-0.000292,-89.795023,0.001789,
680,860,0.877372,-2.920275,0.999998,0.000153,-0.001204,0.002460,0.000237,0.002475,-0.001219,86.309489,0.002475,
850,990,0.767835,-2.619698,0.999998,0.000187,-0.000979,0.002655,0.000149,0.002661,-0.000985,87.657040,0.002691,
1320,1230,-0.100283,-1.346835,0.999998,0.000182,-0.001130,0.001337,-0.000972,0.001674,-0.001467,-70.881501,0.001825,
1780,1030,-0.946547,-2.514691,0.999998,0.000180,-0.001065,0.002416,0.000006,0.002416,-0.001065,89.897397,0.002422,
1120,1180,0.242352,-1.505138,0.999997,0.000207,-0.000752,0.001292,0.000975,0.001682,-0.001143,68.173026,0.001718,
1430,2020,-0.007752,-0.025258,0.999999,0.000000,-0.000084,0.001475,0.000071,0.001478,-0.000087,87.400496,0.001659,
970,560,0.232538,-3.946059,0.999999,0.000148,-0.001229,0.002382,-0.000346,0.002415,-0.001262,-84.575074,0.002416,
1070,1880,0.042244,-0.251736,0.999999,0.000142,-0.000292,0.001716,-0.000074,0.001719,-0.000295,-87.897961,0.001838,
920,110,0.056267,-4.883619,0.999999,0.000133,-0.000238,0.001830,0.000313,0.001877,-0.000284,81.584555,0.002023,
1810,180,-0.315148,-4.641875,0.999998,0.000202,-0.001080,0.002593,-0.000364,0.002629,-0.001116,-84.389263,0.002639,
1690,540,-0.481654,-3.819237,0.999998,0.000200,-0.001325,0.002583,0.000080,0.002585,-0.001327,88.835037,0.002585,
560,1880,0.413637,-0.490920,0.999909,0.000000,-0.000830,0.002690,0.000018,0.002690,-0.000830,89.701700,0.002755,
890,790,0.510901,-3.215416,0.999998,0.000187,-0.001696,0.003061,0.000120,0.003064,-0.001699,88.556360,0.003070,
1110,50,0.005892,-4.993176,0.999999,0.000128,-0.000057,0.001508,0.000078,0.001511,-0.000060,87.160433,0.001711,
1460,1520,-0.185649,-1.002764,0.999999,0.000140,-0.001086,0.002266,-0.000333,0.002298,-0.001119,-84.374863,0.002299,
1720,1150,-0.834453,-2.215626,0.999998,0.000161,-0.001203,0.002539,0.000255,0.002556,-0.001220,86.125693,0.002557,
1380,650,-0.115166,-3.880053,0.999998,0.000157,-0.001109,0.002034,0.000676,0.002174,-0.001248,78.361069,0.002182,
960,1000,0.669301,-2.606478,0.999998,0.000173,-0.001012,0.003230,0.000104,0.003232,-0.001015,88.592288,0.003306,
1410,280,-0.081977,-4.593473,0.999998,0.000152,-0.000585,0.001901,0.000000,0.001901,-0.000585,-89.994823,0.001947,
1790,1490,-0.632531,-1.364500,0.999998,0.000170,-0.001271,0.002576,0.000011,0.002576,-0.001271,89.837068,0.002576,
1000,1050,0.628574,-2.433657,0.999997,0.000187,-0.001260,0.003977,0.000022,0.003977,-0.001260,89.763343,0.004065,
1710,1900,-0.184016,-0.281363,0.999998,0.000152,-0.000658,0.002312,0.000483,0.002389,-0.000734,80.992468,0.002447,
1160,1630,0.042928,-0.684703,0.999998,0.000154,-0.000643,0.001817,0.000096,0.001821,-0.000647,87.767950,0.001846,
1670,920,-0.787238,-2.796479,0.999998,0.000156,-0.001211,0.002640,-0.000286,0.002662,-0.001232,-85.777717,0.002664,
1850,1920,-0.286764,-0.323683,0.999998,0.000175,-0.001212,0.002641,0.000297,0.002663,-0.001234,85.611537,0.002666,
1370,490,-0.094006,-4.205159,0.999998,0.000134,-0.000823,0.001944,0.000294,0.001975,-0.000853,84.003157,0.001981,
1420,1120,-0.472515,-2.065701,0.999997,0.000198,-0.001629,0.003835,-0.000924,0.003987,-0.001781,-80.654754,0.003995,
640,980,0.985477,-2.628788,0.999998,0.000175,-0.001094,0.002265,0.000026,0.002265,-0.001095,89.549879,0.002265,
1090,1610,0.091209,-0.749718,0.999998,0.000156,-0.000768,0.001927,0.000191,0.001940,-0.000781,85.966823,0.001952,
1420,1040,-0.556153,-2.450370,0.999994,0.000294,-0.002695,0.005796,-0.000345,0.005810,-0.002709,-87.678209,0.005814,
860,750,0.517262,-3.311739,0.999997,0.000218,-0.001645,0.002951,0.000079,0.002952,-0.001646,89.017239,0.002959,
1220,240,0.004731,-4.689404,0.999998,0.000163,-0.000373,0.001704,-0.000016,0.001704,-0.000373,-89.565430,0.001791,
790,320,0.314244,-4.385058,0.999998,0.000184,-0.001095,0.002447,0.000043,0.002447,-0.001095,89.296758,0.002452,
960,1770,0.142706,-0.488621,0.999998,0.000166,-0.000755,0.002043,-0.000032,0.002043,-0.000756,-89.342970,0.002066,
1700,780,-0.695536,-3.164928,0.999998,0.000168,-0.001409,0.002739,-0.000232,0.002752,-0.001422,-86.812393,0.002753,
1490,670,-0.268090,-3.672434,0.999998,0.000170,-0.001571,0.002691,0.000430,0.002734,-0.001614,84.299707,0.002749,
1060,930,0.434666,-3.072262,0.999996,0.000245,-0.001440,0.003680,-0.001512,0.004093,-0.001853,-74.719124,0.004100,
1490,1580,-0.203968,-0.891986,0.999998,0.000154,-0.001007,0.002237,-0.000236,0.002254,-0.001024,-85.863047,0.002257,
1160,740,0.041749,-3.844386,0.999998,0.000164,-0.000807,0.001268,-0.000792,0.001535,-0.001074,-71.322713,0.001576,
590,690,0.841179,-3.291588,0.999998,0.000167,-0.001268,0.002536,0.000040,0.002536,-0.001269,89.397472,0.002536,
1340,290,-0.048853,-4.590712,0.999999,0.000123,-0.000500,0.001823,0.000046,0.001824,-0.000501,88.876312,0.001885,
1060,760,0.171104,-3.583365,0.999998,0.000160,-0.001696,0.002582,-0.000894,0.002761,-0.001875,-78.655659,0.002819,
1010,1150,0.466806,-2.042486,0.999997,0.000188,-0.001718,0.003568,0.000099,0.003570,-0.001720,88.923476,0.003571,
1430,30,-0.005236,-5.022948,0.999999,0.000000,-0.000020,0.001544,-0.000142,0.001557,-0.000033,-84.848291,0.001779,
930,1410,0.322647,-1.352664,0.999998,0.000185,-0.001506,0.002709,0.000303,0.002731,-0.001528,85.906532,0.002737,
1270,190,-0.011215,-4.772702,0.999999,0.000139,-0.000259,0.001646,-0.000005,0.001646,-0.000259,-89.836852,0.001770,
1760,180,-0.260214,-4.676963,0.999998,0.000171,-0.001087,0.002461,-0.000318,0.002489,-0.001116,-84.913880,0.002493,
1780,1010,-0.945628,-2.561761,0.999998,0.000156,-0.001064,0.002350,-0.000068,0.002351,-0.001066,-88.863773,0.002354,
850,970,0.757176,-2.672099,0.999998,0.000177,-0.001009,0.002684,0.000238,0.002699,-0.001025,86.320835,0.002725,
1460,1390,-0.221591,-1.312666,0.999998,0.000174,-0.001487,0.002576,-0.000570,0.002654,-0.001565,-82.165661,0.002669,
1840,1180,-0.955697,-2.173232,0.999998,0.000148,-0.001141,0.002320,0.000138,0.002325,-0.001147,87.723600,0.002325,
1660,1960,-0.081205,-0.139251,0.999999,0.000151,-0.000401,0.001970,0.000473,0.002061,-0.000492,79.114796,0.002152,
1430,2010,-0.008666,-0.039930,0.999999,0.000148,-0.000075,0.001519,0.000099,0.001525,-0.000081,86.450201,0.001717,
1730,900,-0.842574,-2.836736,0.999998,0.000167,-0.001185,0.002566,-0.000262,0.002584,-0.001203,-86.020776,0.002586,
1450,600,-0.189121,-3.899513,0.999998,0.000145,-0.001245,0.002344,0.000492,0.002411,-0.001311,82.331555,0.002414,
890,1800,0.173720,-0.451338,0.999998,0.000161,-0.000747,0.002130,-0.000121,0.002135,-0.000753,-87.588260,0.002166,
560,1870,0.424089,-0.537100,0.999907,0.000000,-0.001066,0.002604,-0.000004,0.002604,-0.001066,-89.935593,0.002618,
910,50,0.019644,-4.989179,0.999999,0.000135,-0.000090,0.001648,0.000307,0.001700,-0.000143,80.277416,0.001886,
1710,1880,-0.209114,-0.327793,0.999998,0.000155,-0.000735,0.002313,0.000412,0.002367,-0.000790,82.433919,0.002411,
890,770,0.486410,-3.278070,0.999997,0.000182,-0.001704,0.003041,0.000060,0.003042,-0.001705,89.271924,0.003049,
1710,520,-0.494656,-3.854608,0.999997,0.000186,-0.001320,0.002583,0.000071,0.002585,-0.001322,88.960115,0.002585,
1370,1880,-0.036008,-0.250100,0.999999,0.000128,-0.000260,0.001695,0.000077,0.001698,-0.000263,87.757966,0.001828,
1040,470,0.136971,-4.208944,0.999998,0.000150,-0.000862,0.002055,-0.000231,0.002073,-0.000880,-85.492629,0.002081,
680,840,0.859801,-2.972514,0.999999,0.000143,-0.001250,0.002490,0.000228,0.002503,-0.001263,86.526361,0.002503,
1460,1480,-0.194678,-1.093561,0.999998,0.000173,-0.001203,0.002316,-0.000415,0.002365,-0.001252,-83.369933,0.002366,
920,1450,0.316052,-1.258809,0.999998,0.000198,-0.001432,0.002577,0.000267,0.002595,-0.001450,86.208071,0.002601,
1450,260,-0.097677,-4.619494,0.999999,0.000145,-0.000547,0.001917,-0.000049,0.001918,-0.000548,-88.854912,0.001976,
810,570,0.451953,-3.770540,0.999997,0.000177,-0.001393,0.002624,-0.000099,0.002627,-0.001396,-88.588719,0.002628,
1790,1470,-0.649280,-1.417889,0.999997,0.000205,-0.001284,0.002587,0.000021,0.002587,-0.001284,89.684435,0.002587,
960,960,0.631392,-2.736859,0.999998,0.000172,-0.001194,0.003246,0.000272,0.003263,-0.001211,86.505941,0.003299,
1090,1590,0.093641,-0.787343,0.999998,0.000143,-0.000794,0.001953,0.000246,0.001975,-0.000816,84.914159,0.001985,
1890,240,-0.488819,-4.403927,0.999997,0.000211,-0.001194,0.002410,-0.000030,0.002410,-0.001194,-89.527267,0.002410,
1430,1050,-0.575536,-2.406408,0.999997,0.000244,-0.002082,0.005149,-0.000383,0.005169,-0.002103,-86.976930,0.005199,
1000,1030,0.635011,-2.510699,0.999997,0.000208,-0.001243,0.003815,0.000009,0.003815,-0.001243,89.897483,0.003892,
1670,900,-0.769758,-2.849573,0.999999,0.000142,-0.001253,0.002672,-0.000314,0.002697,-0.001278,-85.449920,0.002699,
1650,740,-0.583302,-3.304901,0.999998,0.000198,-0.001554,0.002840,-0.000153,0.002845,-0.001559,-88.005941,0.002850,
1160,720,0.042267,-3.870287,0.999998,0.000164,-0.000773,0.001341,-0.000705,0.001554,-0.000986,-73.143953,0.001573,
1760,200,-0.287318,-4.625784,0.999998,0.000170,-0.001126,0.002507,-0.000259,0.002525,-0.001144,-85.940502,0.002529,
1210,1430,0.013076,-1.006718,0.999999,0.000124,-0.000590,0.001403,0.000138,0.001413,-0.000600,86.062174,0.001418,
1370,470,-0.091972,-4.242732,0.999999,0.000138,-0.000783,0.001934,0.000256,0.001958,-0.000807,84.672236,0.001968,
710,610,0.618705,-3.585982,0.999998,0.000184,-0.001366,0.002604,0.000022,0.002604,-0.001366,89.677312,0.002605,
1570,1450,-0.356668,-1.286461,0.999998,0.000187,-0.001463,0.002664,-0.000210,0.002675,-0.001474,-87.089531,0.002680,
1420,2020,-0.007527,-0.025015,0.999999,0.000000,-0.000090,0.001482,0.000062,0.001485,-0.000092,87.762618,0.001664,
1420,940,-0.481209,-2.955787,0.999997,0.000199,-0.001697,0.003935,0.000994,0.004105,-0.001867,80.276334,0.004111,
1700,760,-0.676878,-3.217751,0.999998,0.000164,-0.001436,0.002728,-0.000202,0.002738,-0.001446,-87.230576,0.002739,
770,210,0.234965,-4.635027,0.999998,0.000160,-0.000871,0.002370,0.000308,0.002399,-0.000900,84.612128,0.002424,
1490,650,-0.259036,-3.724558,0.999998,0.000184,-0.001503,0.002624,0.000434,0.002669,-0.001548,84.056016,0.002680,
1060,740,0.160583,-3.636880,0.999998,0.000154,-0.001596,0.002473,-0.000879,0.002655,-0.001778,-78.314494,0.002705,
1310,1280,-0.053543,-1.253918,0.999998,0.000156,-0.000941,0.001282,-0.000962,0.001641,-0.001299,-69.560171,0.001731,
1010,1130,0.505918,-2.117024,0.999997,0.000195,-0.001593,0.003679,0.000091,0.003680,-0.001595,89.009353,0.003691,
1270,170,-0.010254,-4.804328,0.999999,0.000131,-0.000228,0.001651,-0.000009,0.001651,-0.000228,-89.717872,0.001789,
1840,1160,-0.966358,-2.220372,0.999998,0.000160,-0.001111,0.002272,0.000109,0.002275,-0.001115,88.157947,0.002275,
700,870,0.858198,-2.903652,0.999998,0.000173,-0.001220,0.002491,0.000250,0.002507,-0.001237,86.156421,0.002507,
1660,1940,-0.104656,-0.181643,0.999999,0.000154,-0.000494,0.002057,0.000460,0.002138,-0.000574,80.090871,0.002213,
1890,1150,-1.026089,-2.261773,0.999998,0.000141,-0.001084,0.002168,0.000076,0.002170,-0.001086,88.661339,0.002170,
1180,1710,0.026987,-0.539121,0.999998,0.000150,-0.000497,0.001772,0.000016,0.001772,-0.000497,89.596694,0.001828,
1730,840,-0.794693,-2.989699,0.999998,0.000150,-0.001298,0.002619,-0.000283,0.002640,-0.001318,-85.886553,0.002640,
890,1780,0.187364,-0.495183,0.999998,0.000156,-0.000791,0.002210,-0.000081,0.002212,-0.000793,-88.456332,0.002241,
1690,1900,-0.170317,-0.273713,0.999999,0.000136,-0.000724,0.002240,0.000444,0.002305,-0.000789,81.653980,0.002343,
890,750,0.467075,-3.338562,0.999996,0.000213,-0.001708,0.003022,-0.000013,0.003022,-0.001708,-89.840136,0.003031,
920,2000,0.021459,-0.058378,0.999999,0.000139,-0.000052,0.001652,-0.000275,0.001695,-0.000095,-81.046501,0.001905,
1040,450,0.132882,-4.249908,0.999999,0.000135,-0.000829,0.002044,-0.000200,0.002058,-0.000842,-86.039464,0.002069,
710,80,0.103270,-4.912286,0.999998,0.000159,-0.000629,0.002127,0.000644,0.002270,-0.000772,77.474066,0.002309,
930,50,0.018230,-4.989118,0.999999,0.000118,-0.000017,0.001635,0.000248,0.001671,-0.000053,81.626460,0.001900,
1620,1340,-0.512128,-1.642049,0.999997,0.000196,-0.001587,0.002849,0.000050,0.002849,-0.001587,89.353272,0.002856,
560,1860,0.444901,-0.556360,0.999911,0.000000,-0.001179,0.002493,-0.000038,0.002494,-0.001179,-89.407965,0.002495,
1460,1460,-0.202390,-1.141205,0.999998,0.000159,-0.001266,0.002386,-0.000471,0.002446,-0.001325,-82.766948,0.002449,
1430,1880,-0.055393,-0.258460,0.999998,0.000165,-0.000357,0.001779,0.000111,0.001785,-0.000363,87.032026,0.001886,
1190,280,0.017593,-4.617789,0.999998,0.000166,-0.000416,0.001738,-0.000007,0.001738,-0.000416,-89.802638,0.001815,
1450,580,-0.185054,-3.945795,0.999998,0.000139,-0.001202,0.002269,0.000445,0.002326,-0.001258,82.812547,0.002328,
1420,1050,-0.552786,-2.393607,0.999995,0.000265,-0.002620,0.005709,-0.000690,0.005766,-0.002677,-85.292819,0.005770,
870,640,0.410972,-3.636245,0.999997,0.000210,-0.001507,0.002757,-0.000143,0.002762,-0.001512,-88.081789,0.002766,
1090,1570,0.096642,-0.827356,0.999999,0.000128,-0.000830,0.001956,0.000305,0.001989,-0.000863,83.834268,0.001995,
1620,1310,-0.539628,-1.727574,0.999998,0.000206,-0.001600,0.002916,0.000098,0.002918,-0.001602,88.758114,0.002923,
680,820,0.844099,-3.020776,0.999999,0.000147,-0.001277,0.002518,0.000219,0.002530,-0.001290,86.701104,0.002530,
1250,1780,-0.008178,-0.411563,0.999999,0.000133,-0.000414,0.001740,-0.000025,0.001740,-0.000414,-89.330751,0.001818,
850,950,0.744682,-2.725868,0.999998,0.000170,-0.001084,0.002714,0.000274,0.002734,-0.001104,85.894818,0.002751,
930,1390,0.333011,-1.407972,0.999997,0.000192,-0.001582,0.002799,0.000299,0.002819,-0.001602,86.116271,0.002828,
1170,1580,0.037776,-0.772306,0.999998,0.000145,-0.000657,0.001773,0.000121,0.001779,-0.000663,87.157420,0.001799,
1760,220,-0.311345,-4.575144,0.999997,0.000189,-0.001143,0.002496,-0.000222,0.002510,-0.001156,-86.519445,0.002512,
1430,260,-0.087273,-4.625329,0.999998,0.000188,-0.000528,0.001887,-0.000007,0.001887,-0.000528,-89.841851,0.001947,
1370,450,-0.089499,-4.282394,0.999998,0.000157,-0.000748,0.001903,0.000230,0.001923,-0.000768,85.079774,0.001936,
1160,700,0.040339,-3.896475,0.999998,0.000154,-0.000743,0.001418,-0.000616,0.001582,-0.000906,-75.148171,0.001587,
810,550,0.440294,-3.825200,0.999998,0.000168,-0.001355,0.002616,-0.000109,0.002619,-0.001358,-88.427824,0.002619,
690,1100,0.924130,-2.348282,0.999998,0.000163,-0.001109,0.002399,-0.000169,0.002407,-0.001117,-87.243510,0.002409,
1420,30,-0.004454,-5.023235,0.999999,0.000000,-0.000045,0.001527,-0.000122,0.001536,-0.000054,-85.587633,0.001743,
1220,220,0.004031,-4.722805,0.999999,0.000149,-0.000332,0.001687,-0.000009,0.001687,-0.000332,-89.734822,0.001787,
1070,1600,0.109355,-0.781712,0.999998,0.000149,-0.000831,0.001999,0.000262,0.002023,-0.000855,84.751580,0.002031,
1550,270,-0.167018,-4.564621,0.999998,0.000158,-0.000686,0.002120,-0.000104,0.002124,-0.000690,-87.875451,0.002167,
960,940,0.603841,-2.800268,0.999998,0.000179,-0.001336,0.003279,0.000297,0.003298,-0.001355,86.331332,0.003315,
980,950,0.592778,-2.786950,0.999997,0.000186,-0.001314,0.003505,0.000202,0.003514,-0.001323,87.599711,0.003549,
1790,1450,-0.663240,-1.468521,0.999997,0.000210,-0.001307,0.002603,0.000017,0.002603,-0.001308,89.747221,0.002603,
710,590,0.602724,-3.637754,0.999997,0.000186,-0.001366,0.002620,-0.000011,0.002620,-0.001366,-89.836554,0.002621,
1270,150,-0.007818,-4.838710,0.999999,0.000143,-0.000217,0.001627,-0.000008,0.001627,-0.000217,-89.742599,0.001767,
1570,1430,-0.366987,-1.339774,0.999997,0.000188,-0.001492,0.002712,-0.000210,0.002722,-0.001503,-87.142708,0.002727,
1010,1110,0.541821,-2.190950,0.999997,0.000193,-0.001498,0.003823,0.000110,0.003825,-0.001500,88.817830,0.003855,
1780,750,-0.776108,-3.201055,0.999998,0.000182,-0.001312,0.002588,-0.000170,0.002596,-0.001319,-87.505813,0.002596,
950,1280,0.383618,-1.708197,0.999997,0.000190,-0.001860,0.003146,0.000166,0.003151,-0.001866,88.098354,0.003169,
610,580,0.725267,-3.586756,0.999998,0.000149,-0.001271,0.002519,0.000007,0.002519,-0.001271,89.894628,0.002519,
1700,740,-0.657215,-3.273632,0.999998,0.000174,-0.001445,0.002736,-0.000182,0.002744,-0.001452,-87.505729,0.002746,
610,760,0.876790,-3.132218,0.999999,0.000125,-0.001219,0.002475,0.000096,0.002478,-0.001221,88.512887,0.002478,
690,1640,0.502002,-0.968450,0.999998,0.000179,-0.001256,0.002535,0.000044,0.002535,-0.001257,89.336045,0.002535,
900,110,0.062465,-4.883028,0.999999,0.000137,-0.000314,0.001866,0.000319,0.001912,-0.000360,81.846185,0.002032,
1320,740,-0.055943,-3.813641,0.999999,0.000147,-0.000939,0.001482,0.000893,0.001776,-0.001233,71.789236,0.001820,
1890,230,-0.477965,-4.428370,0.999997,0.000184,-0.001192,0.002408,-0.000050,0.002409,-0.001193,-89.202720,0.002409,
1210,50,0.000435,-4.993775,0.999999,0.000112,-0.000038,0.001508,0.000008,0.001508,-0.000038,89.719035,0.001720,
1040,690,0.175011,-3.723515,0.999998,0.000150,-0.001441,0.002444,-0.000696,0.002565,-0.001561,-80.145914,0.002585,
910,2010,0.015940,-0.042597,0.999999,0.000130,-0.000037,0.001637,-0.000273,0.001680,-0.000080,-80.978207,0.001896,
1660,1920,-0.125502,-0.220615,0.999998,0.000151,-0.000608,0.002100,0.000418,0.002163,-0.000671,81.419852,0.002215,
1170,280,0.026261,-4.615841,0.999998,0.000173,-0.000396,0.001765,0.000008,0.001765,-0.000396,89.797804,0.001852,
690,100,0.148524,-4.863771,0.999998,0.000158,-0.000770,0.002275,0.000650,0.002408,-0.000903,78.430672,0.002433,
1700,1030,-0.861558,-2.513763,0.999998,0.000171,-0.001037,0.002488,0.000016,0.002488,-0.001037,89.734181,0.002499,
890,730,0.448341,-3.398637,0.999997,0.000194,-0.001687,0.002968,-0.000065,0.002969,-0.001688,-89.197998,0.002978,
560,1850,0.468035,-0.569662,0.999860,0.000000,-0.001598,0.002696,-0.000149,0.002701,-0.001603,-88.012610,0.002716,
1420,920,-0.442238,-3.033894,0.999997,0.000186,-0.001646,0.003612,0.000815,0.003735,-0.001769,81.392975,0.003737,
810,1520,0.429730,-1.176388,0.999998,0.000162,-0.001313,0.002586,0.000117,0.002590,-0.001316,88.284698,0.002590,
1060,720,0.154601,-3.684351,0.999998,0.000148,-0.001491,0.002424,-0.000817,0.002588,-0.001654,-78.671455,0.002621,
1090,1770,0.064390,-0.447983,0.999998,0.000160,-0.000475,0.001845,-0.000020,0.001845,-0.000475,-89.514451,0.001916,
640,960,0.981614,-2.673960,0.999998,0.000169,-0.001097,0.002294,0.000082,0.002296,-0.001099,88.609566,0.002296,
580,690,0.852496,-3.284484,0.999998,0.000151,-0.001390,0.002519,0.000011,0.002519,-0.001390,89.836895,0.002524,
870,620,0.397391,-3.690517,0.999998,0.000148,-0.001448,0.002697,-0.000163,0.002703,-0.001454,-87.753609,0.002706,
1410,2020,-0.005042,-0.024794,0.999999,0.000000,-0.000057,0.001502,0.000058,0.001504,-0.000060,87.873827,0.001703,
1460,1440,-0.205738,-1.190240,0.999998,0.000157,-0.001304,0.002418,-0.000499,0.002483,-0.001369,-82.495036,0.002488,
1490,630,-0.251313,-3.776652,0.999998,0.000176,-0.001458,0.002525,0.000438,0.002573,-0.001506,83.796129,0.002585,
930,1370,0.346457,-1.465636,0.999998,0.000208,-0.001642,0.002853,0.000284,0.002871,-0.001660,86.396055,0.002883,
1550,250,-0.154892,-4.607878,0.999998,0.000172,-0.000653,0.002122,-0.000142,0.002130,-0.000660,-87.074779,0.002180,
970,480,0.208331,-4.134336,0.999999,0.000140,-0.001048,0.002264,-0.000239,0.002281,-0.001065,-85.887061,0.002283,
1050,1050,0.537601,-2.383031,0.999996,0.000285,-0.002435,0.006108,0.000573,0.006147,-0.002473,86.179730,0.006186,
950,1260,0.406754,-1.772250,0.999997,0.000190,-0.001869,0.003186,0.000091,0.003188,-0.001871,88.973077,0.003204,
850,930,0.727527,-2.781374,0.999998,0.000173,-0.001170,0.002777,0.000341,0.002806,-0.001199,85.096847,0.002816,
910,1640,0.245139,-0.800611,0.999998,0.000139,-0.001072,0.002319,0.000142,0.002325,-0.001078,87.613561,0.002327,
1220,180,0.003674,-4.790646,0.999998,0.000147,-0.000283,0.001660,-0.000004,0.001660,-0.000283,-89.885476,0.001776,
1760,240,-0.335035,-4.525905,0.999998,0.000185,-0.001165,0.002506,-0.000158,0.002513,-0.001171,-87.533124,0.002515,
1720,1650,-0.430399,-0.900220,0.999998,0.000168,-0.001237,0.002512,-0.000039,0.002513,-0.001237,-89.404258,0.002513,
690,1620,0.517025,-1.018616,0.999998,0.000174,-0.001263,0.002519,0.000034,0.002520,-0.001263,89.483817,0.002520,
1050,930,0.450534,-3.024186,0.999997,0.000216,-0.001600,0.003739,-0.001128,0.003967,-0.001829,-78.544428,0.003972,
1610,1440,-0.420522,-1.349545,0.999998,0.000166,-0.001470,0.002701,-0.000158,0.002707,-0.001476,-87.838131,0.002710,
680,800,0.825866,-3.072126,0.999998,0.000159,-0.001274,0.002542,0.000227,0.002555,-0.001288,86.600048,0.002555,
610,560,0.710736,-3.638184,0.999998,0.000161,-0.001254,0.002567,-0.000001,0.002567,-0.001254,-89.979459,0.002567,
1370,430,-0.088150,-4.320205,0.999998,0.000165,-0.000712,0.001928,0.000161,0.001938,-0.000721,86.528035,0.001959,
1670,720,-0.593673,-3.347665,0.999998,0.000194,-0.001502,0.002802,-0.000123,0.002805,-0.001505,-88.369972,0.002808,
1010,220,0.083371,-4.695416,0.999998,0.000180,-0.000433,0.001908,0.000085,0.001911,-0.000436,87.929547,0.002003,
960,920,0.571968,-2.868430,0.999998,0.000173,-0.001450,0.003329,0.000284,0.003346,-0.001466,86.615683,0.003355,
1010,1090,0.574776,-2.269051,0.999997,0.000226,-0.001441,0.003868,0.000119,0.003870,-0.001444,88.719337,0.003912,
1270,130,-0.008154,-4.869354,0.999999,0.000155,-0.000166,0.001600,0.000001,0.001600,-0.000166,89.974214,0.001759,
1760,750,-0.749272,-3.211425,0.999999,0.000153,-0.001292,0.002640,-0.000189,0.002649,-0.001301,-87.250546,0.002649,
1040,670,0.169868,-3.768671,0.999998,0.000158,-0.001370,0.002364,-0.000659,0.002477,-0.001483,-80.272677,0.002493,
1030,50,0.011145,-4.991191,0.999999,0.000105,-0.000074,0.001574,0.000143,0.001586,-0.000087,85.072723,0.001784,
1120,1170,0.273220,-1.517995,0.999990,0.000375,-0.000607,0.001283,0.001120,0.001803,-0.001128,65.068363,0.001822,
1430,180,-0.058709,-4.774216,0.999998,0.000166,-0.000335,0.001783,-0.000111,0.001788,-0.000341,-87.003125,0.001899,
890,710,0.430992,-3.458170,0.999997,0.000179,-0.001672,0.002910,-0.000109,0.002912,-0.001675,-88.638355,0.002923,
1700,720,-0.638952,-3.328014,0.999998,0.000175,-0.001439,0.002730,-0.000137,0.002735,-0.001444,-88.124074,0.002736,
690,80,0.117168,-4.904377,0.999999,0.000131,-0.000581,0.002288,0.000786,0.002489,-0.000782,75.634470,0.002546,
1160,1480,0.046377,-0.950151,0.999999,0.000136,-0.000740,0.001664,0.000305,0.001703,-0.000778,82.872595,0.001705,
1660,1900,-0.148193,-0.265161,0.999998,0.000163,-0.000675,0.002127,0.000422,0.002189,-0.000737,81.624318,0.002227,
1820,1210,-0.907434,-2.095021,0.999999,0.000127,-0.001186,0.002402,0.000189,0.002412,-0.001196,86.992758,0.002412,
560,1840,0.481762,-0.599621,0.999831,0.000000,-0.002743,0.003761,-0.000521,0.003803,-0.002784,-85.446670,0.003937,
690,1080,0.931149,-2.393725,0.999998,0.000160,-0.001084,0.002373,-0.000088,0.002375,-0.001086,-88.544019,0.002378,
1050,1500,0.139553,-1.001052,0.999999,0.000141,-0.001043,0.002104,0.000420,0.002160,-0.001098,82.523568,0.002160,
660,1710,0.484229,-0.814332,0.999998,0.000147,-0.001231,0.002540,-0.000002,0.002540,-0.001231,-89.973857,0.002540,
1630,800,-0.612439,-3.144271,0.999998,0.000174,-0.001558,0.002912,-0.000226,0.002923,-0.001570,-87.112767,0.002926,
1100,1400,0.093979,-1.145744,0.999999,0.000144,-0.001034,0.001949,0.000668,0.002092,-0.001177,77.936473,0.002097,
1160,590,0.045464,-4.064293,0.999999,0.000144,-0.000706,0.001657,-0.000353,0.001709,-0.000758,-81.683108,0.001713,
970,460,0.201248,-4.178838,0.999998,0.000175,-0.000993,0.002238,-0.000191,0.002249,-0.001004,-86.622385,0.002253,
1460,1420,-0.210510,-1.238201,0.999998,0.000161,-0.001366,0.002408,-0.000487,0.002469,-0.001428,-82.765863,0.002479,
700,1230,0.821657,-2.022605,0.999998,0.000156,-0.001255,0.002542,-0.000239,0.002557,-0.001270,-86.417590,0.002557,
1410,30,-0.005146,-5.022574,0.999999,0.000000,-0.000087,0.001509,-0.000126,0.001519,-0.000097,-85.523557,0.001700,
1880,590,-0.767598,-3.540383,0.999998,0.000180,-0.001282,0.002571,0.000008,0.002571,-0.001282,89.886937,0.002571,
1880,1590,-0.673104,-1.179695,0.999998,0.000189,-0.001275,0.002525,-0.000031,0.002525,-0.001275,-89.539106,0.002525,
1760,680,-0.686325,-3.396993,0.999997,0.000193,-0.001350,0.002639,-0.000102,0.002642,-0.001353,-88.531695,0.002642,
1260,1710,-0.014570,-0.535657,0.999998,0.000187,-0.000539,0.001768,-0.000039,0.001768,-0.000540,-89.029437,0.001812,
1110,300,0.057632,-4.569529,0.999998,0.000186,-0.000515,0.001831,-0.000038,0.001832,-0.000515,-89.077492,0.001890,
930,1350,0.359232,-1.523150,0.999998,0.000200,-0.001697,0.002912,0.000246,0.002925,-0.001710,86.957396,0.002939,
1440,1050,-0.594496,-2.414559,0.999997,0.000204,-0.001721,0.004690,-0.000206,0.004697,-0.001728,-88.162384,0.004751,
690,580,0.623164,-3.648493,0.999998,0.000177,-0.001300,0.002602,-0.000004,0.002602,-0.001300,-89.935173,0.002602,
890,1640,0.267120,-0.815321,0.999999,0.000160,-0.001076,0.002347,0.000120,0.002351,-0.001081,87.989048,0.002354,
1720,1630,-0.443419,-0.950083,0.999999,0.000143,-0.001226,0.002539,-0.000043,0.002539,-0.001226,-89.349266,0.002540,
1220,160,0.003673,-4.822114,0.999999,0.000129,-0.000244,0.001638,0.000007,0.001638,-0.000244,89.801038,0.001768,
1050,1120,0.459935,-2.035503,0.999996,0.000224,-0.001620,0.003836,0.001199,0.004088,-0.001872,78.140759,0.004092,
1270,110,-0.007757,-4.902914,0.999999,0.000142,-0.000118,0.001592,-0.000025,0.001593,-0.000118,-89.161035,0.001775,
1420,900,-0.399630,-3.107132,0.999997,0.000179,-0.001692,0.003473,0.000682,0.003562,-0.001781,82.606338,0.003562,
790,1720,0.325451,-0.692398,0.999998,0.000182,-0.001104,0.002472,-0.000008,0.002472,-0.001104,-89.873143,0.002477,
1620,1380,-0.478032,-1.526137,0.999997,0.000207,-0.001530,0.002814,-0.000037,0.002814,-0.001531,-89.507864,0.002818,
1010,1070,0.601465,-2.344301,0.999997,0.000212,-0.001420,0.004002,0.000112,0.004005,-0.001422,88.812476,0.004060,
740,870,0.809885,-2.915217,0.999999,0.000163,-0.001280,0.002566,0.000268,0.002585,-0.001299,86.035399,0.002585,
1370,410,-0.085343,-4.358767,0.999998,0.000158,-0.000671,0.001919,0.000121,0.001924,-0.000676,87.335333,0.001953,
1040,650,0.165366,-3.818197,0.999998,0.000160,-0.001309,0.002329,-0.000611,0.002429,-0.001408,-80.712785,0.002439,
890,690,0.414095,-3.514652,0.999997,0.000188,-0.001640,0.002870,-0.000125,0.002874,-0.001643,-88.413666,0.002883,
770,190,0.211406,-4.684648,0.999998,0.000165,-0.000821,0.002340,0.000338,0.002376,-0.000857,83.960777,0.002407,
680,780,0.807057,-3.122834,0.999998,0.000153,-0.001284,0.002531,0.000218,0.002543,-0.001296,86.738074,0.002543,
1650,1300,-0.597577,-1.778095,0.999998,0.000190,-0.001531,0.002846,0.000157,0.002852,-0.001537,87.945748,0.002855,
1700,700,-0.620577,-3.382350,0.999998,0.000187,-0.001431,0.002715,-0.000098,0.002717,-0.001433,-88.652396,0.002718,
1490,610,-0.244163,-3.827872,0.999998,0.000164,-0.001396,0.002508,0.000426,0.002554,-0.001442,83.838830,0.002561,
1840,1140,-0.976544,-2.266167,0.999998,0.000152,-0.001097,0.002292,0.000137,0.002297,-0.001102,87.686701,0.002298,
850,170,0.136708,-4.754785,0.999998,0.000170,-0.000570,0.002081,0.000309,0.002116,-0.000606,83.439447,0.002180,
1060,1380,0.143106,-1.249892,0.999998,0.000156,-0.001321,0.002255,0.000718,0.002394,-0.001460,79.057227,0.002414,
1330,1820,-0.035910,-0.348434,0.999999,0.000131,-0.000415,0.001758,-0.000006,0.001758,-0.000415,-89.835811,0.001838,
810,530,0.425215,-3.876684,0.999998,0.000170,-0.001324,0.002601,-0.000112,0.002604,-0.001327,-88.368533,0.002604,
1660,1880,-0.170455,-0.304474,0.999998,0.000148,-0.000748,0.002201,0.000351,0.002242,-0.000789,83.304146,0.002275,
1100,1420,0.095382,-1.109490,0.999999,0.000132,-0.000976,0.001923,0.000601,0.002043,-0.001095,78.741290,0.002044,
1160,1500,0.046498,-0.917784,0.999999,0.000137,-0.000723,0.001689,0.000271,0.001719,-0.000753,83.660845,0.001723,
660,1690,0.501096,-0.866032,0.999998,0.000170,-0.001219,0.002514,0.000017,0.002514,-0.001219,89.741011,0.002514,
1240,1650,-0.004014,-0.639707,0.999998,0.000163,-0.000577,0.001776,-0.000017,0.001776,-0.000577,-89.584256,0.001812,
1020,50,0.012055,-4.990925,0.999999,0.000102,-0.000069,0.001582,0.000163,0.001598,-0.000085,84.407165,0.001798,
1860,1590,-0.647844,-1.164803,0.999998,0.000162,-0.001240,0.002542,-0.000021,0.002542,-0.001241,-89.683769,0.002542,
560,1830,0.525039,-0.650317,0.999751,0.000000,-0.003736,0.003366,-0.000572,0.003412,-0.003782,-85.423771,0.004170,
1630,890,-0.710294,-2.887891,0.999998,0.000167,-0.001294,0.002777,-0.000334,0.002804,-0.001321,-85.342854,0.002805,
1320,760,-0.057122,-3.784520,0.999998,0.000162,-0.000987,0.001444,0.000972,0.001785,-0.001328,70.681450,0.001854,
1400,2020,-0.005625,-0.024015,0.999999,0.000000,-0.000049,0.001528,0.000065,0.001530,-0.000052,87.661233,0.001738,
1580,1710,-0.236810,-0.657385,0.999998,0.000155,-0.001012,0.002300,-0.000014,0.002300,-0.001012,-89.749214,0.002306,
990,220,0.092332,-4.691709,0.999998,0.000145,-0.000481,0.001932,0.000106,0.001936,-0.000485,87.497125,0.002015,
750,1100,0.856350,-2.340300,0.999998,0.000147,-0.001086,0.002496,-0.000214,0.002508,-0.001099,-86.595262,0.002515,
970,620,0.252449,-3.798074,0.999998,0.000182,-0.001418,0.002521,-0.000410,0.002563,-0.001460,-84.112626,0.002571,
1010,1050,0.614186,-2.427912,0.999997,0.000209,-0.001421,0.004241,0.000087,0.004242,-0.001423,89.116341,0.004318,
840,1330,0.526804,-1.671663,0.999998,0.000186,-0.001622,0.002873,-0.000045,0.002874,-0.001623,-89.425230,0.002882,
1630,780,-0.591932,-3.202731,0.999998,0.000193,-0.001596,0.002911,-0.000177,0.002918,-0.001603,-87.753838,0.002923,
1790,1430,-0.679558,-1.521704,0.999998,0.000196,-0.001319,0.002595,0.000043,0.002595,-0.001320,89.377029,0.002595,
790,740,0.618140,-3.288869,0.999998,0.000179,-0.001491,0.002826,0.000156,0.002831,-0.001497,87.933545,0.002833,
1460,1400,-0.217963,-1.285657,0.999998,0.000185,-0.001438,0.002525,-0.000542,0.002598,-0.001511,-82.357300,0.002609,
590,760,0.901082,-3.118911,0.999999,0.000146,-0.001233,0.002454,0.000053,0.002455,-0.001233,89.183230,0.002455,
1410,1020,-0.533837,-2.567086,0.999390,0.003110,-0.002861,0.006455,0.000512,0.006483,-0.002889,86.864698,0.006495,
1800,1210,-0.884483,-2.086471,0.999998,0.000188,-0.001191,0.002454,0.000192,0.002464,-0.001201,86.999984,0.002464,
1550,320,-0.195027,-4.455727,0.999998,0.000169,-0.000824,0.002189,-0.000028,0.002189,-0.000825,-89.466628,0.002211,
710,570,0.588372,-3.691208,0.999997,0.000187,-0.001358,0.002614,-0.000028,0.002614,-0.001358,-89.599034,0.002615,
1070,1150,0.367482,-1.833059,0.999997,0.000185,-0.001297,0.002939,0.001398,0.003359,-0.001717,73.284120,0.003359,
1260,110,-0.005270,-4.902479,0.999999,0.000132,-0.000151,0.001581,-0.000020,0.001582,-0.000152,-89.339101,0.001745,
960,900,0.541503,-2.934750,0.999998,0.000177,-0.001586,0.003337,0.000235,0.003348,-0.001597,87.278365,0.003350,
730,460,0.484355,-3.990171,0.999998,0.000164,-0.001270,0.002535,-0.000052,0.002536,-0.001271,-89.216246,0.002536,
1220,140,0.001464,-4.856409,0.999999,0.000128,-0.000204,0.001576,-0.000002,0.001576,-0.000204,-89.920846,0.001714,
680,450,0.540461,-3.975465,0.999997,0.000199,-0.001227,0.002513,-0.000042,0.002513,-0.001227,-89.357888,0.002513,
1260,630,-0.016287,-4.024812,0.999999,0.000141,-0.000597,0.001423,0.000170,0.001437,-0.000611,85.233580,0.001443,
640,940,0.972565,-2.722503,0.999998,0.000171,-0.001108,0.002316,0.000157,0.002324,-0.001116,87.377580,0.002324,
1370,390,-0.082240,-4.396520,0.999998,0.000153,-0.000630,0.001905,0.000094,0.001909,-0.000634,87.875422,0.001944,
1420,880,-0.357712,-3.177437,0.999997,0.000189,-0.001769,0.003425,0.000664,0.003508,-0.001852,82.824074,0.003510,
1290,280,-0.024369,-4.616840,0.999999,0.000134,-0.000391,0.001769,-0.000007,0.001769,-0.000391,-89.826672,0.001858,
1270,90,-0.004774,-4.933957,0.999999,0.000143,-0.000091,0.001531,-0.000025,0.001532,-0.000092,-89.107019,0.001718,
890,670,0.400137,-3.573476,0.999998,0.000190,-0.001607,0.002832,-0.000146,0.002837,-0.001611,-88.114862,0.002845,
1540,1510,-0.286706,-1.102452,0.999998,0.000170,-0.001300,0.002496,-0.000267,0.002515,-0.001319,-86.002487,0.002516,
1630,700,-0.515202,-3.434622,0.999997,0.000228,-0.001595,0.002840,-0.000018,0.002840,-0.001595,-89.773771,0.002847,
1060,1400,0.141225,-1.204090,0.999998,0.000150,-0.001233,0.002217,0.000647,0.002334,-0.001350,79.727100,0.002344,
1890,220,-0.465178,-4.453085,0.999997,0.000186,-0.001219,0.002430,-0.000072,0.002432,-0.001221,-88.875360,0.002432,
1650,1280,-0.617488,-1.834699,0.999998,0.000175,-0.001535,0.002856,0.000199,0.002865,-0.001544,87.416003,0.002867,
1550,230,-0.141228,-4.649939,0.999998,0.000179,-0.000601,0.002081,-0.000180,0.002093,-0.000613,-86.175724,0.002152,
1030,1780,0.094716,-0.443703,0.999998,0.000182,-0.000602,0.001949,-0.000009,0.001949,-0.000602,-89.794050,0.001996,
1400,1080,-0.489946,-2.158612,0.999996,0.000000,-0.002551,0.005586,-0.001806,0.005968,-0.002933,-78.033977,0.005969,
1580,1690,-0.248148,-0.704332,0.999998,0.000181,-0.001032,0.002320,-0.000048,0.002321,-0.001032,-89.175645,0.002326,
1760,660,-0.670247,-3.449773,0.999998,0.000179,-0.001367,0.002632,-0.000099,0.002634,-0.001369,-88.577454,0.002635,
570,690,0.866034,-3.277374,0.999969,0.000629,-0.001472,0.002496,-0.000015,0.002496,-0.001472,-89.784199,0.002509,
1510,1200,-0.482584,-1.964612,0.999998,0.000179,-0.001805,0.003301,0.000121,0.003304,-0.001808,88.648570,0.003309,
1570,340,-0.223854,-4.401148,0.999998,0.000183,-0.000957,0.002270,0.000012,0.002270,-0.000957,89.787384,0.002279,
680,760,0.788719,-3.174070,0.999998,0.000157,-0.001295,0.002559,0.000177,0.002568,-0.001303,87.378131,0.002568,
1610,1420,-0.432903,-1.405993,0.999997,0.000193,-0.001511,0.002762,-0.000125,0.002766,-0.001514,-88.319757,0.002770,
1310,1820,-0.027320,-0.345822,0.999998,0.000151,-0.000381,0.001725,0.000021,0.001725,-0.000381,89.421011,0.001812,
570,100,0.261695,-4.764089,0.999962,0.000791,-0.000606,0.002885,0.000528,0.002964,-0.000684,81.580782,0.003103,
1790,1410,-0.696477,-1.574171,0.999998,0.000194,-0.001318,0.002598,0.000058,0.002599,-0.001319,89.156268,0.002599,
1010,1030,0.623223,-2.510672,0.999997,0.000223,-0.001428,0.004112,-0.000002,0.004112,-0.001428,-89.980666,0.004176,
1530,320,-0.177610,-4.466973,0.999998,0.000194,-0.000778,0.002170,-0.000006,0.002170,-0.000778,-89.874119,0.002199,
670,820,0.856527,-3.016896,0.999999,0.000144,-0.001248,0.002489,0.000206,0.002500,-0.001260,86.858860,0.002500,
1840,1120,-0.987515,-2.311606,0.999998,0.000144,-0.001088,0.002297,0.000150,0.002304,-0.001094,87.463114,0.002305,
1040,630,0.161565,-3.864573,0.999998,0.000156,-0.001233,0.002261,-0.000562,0.002349,-0.001321,-81.075892,0.002355,
1490,590,-0.237828,-3.878129,0.999998,0.000161,-0.001316,0.002455,0.000391,0.002495,-0.001356,84.149463,0.002498,
930,1330,0.374497,-1.580626,0.999998,0.000206,-0.001724,0.002982,0.000184,0.002989,-0.001731,87.766051,0.003001,
900,2010,0.016451,-0.042773,0.999999,0.000126,-0.000084,0.001657,-0.000287,0.001703,-0.000130,-80.878448,0.001896,
1510,140,-0.065215,-4.834411,0.999999,0.000130,-0.000364,0.001795,-0.000208,0.001815,-0.000384,-84.546959,0.001913,
1070,1440,0.124241,-1.106085,0.999998,0.000148,-0.001091,0.002085,0.000568,0.002183,-0.001190,80.161276,0.002186,
710,550,0.572948,-3.741258,0.999997,0.000178,-0.001339,0.002613,-0.000021,0.002613,-0.001339,-89.689396,0.002613,
1570,1410,-0.377822,-1.395043,0.999997,0.000189,-0.001519,0.002755,-0.000195,0.002764,-0.001528,-87.398710,0.002769,
830,1800,0.223537,-0.478863,0.999998,0.000164,-0.000819,0.002272,-0.000194,0.002285,-0.000831,-86.428428,0.002313,
1830,1200,-0.927469,-2.122515,0.999999,0.000125,-0.001177,0.002377,0.000181,0.002386,-0.001186,87.099022,0.002386,
1460,1380,-0.225446,-1.338133,0.999998,0.000172,-0.001530,0.002621,-0.000578,0.002700,-0.001609,-82.217266,0.002717,
1470,820,-0.355497,-3.255689,0.999999,0.000146,-0.001949,0.003274,0.000248,0.003286,-0.001960,87.283137,0.003306,
640,920,0.961211,-2.768146,0.999998,0.000158,-0.001123,0.002301,0.000144,0.002307,-0.001129,87.590107,0.002307,
1170,340,0.030657,-4.509812,0.999999,0.000118,-0.000479,0.001798,-0.000010,0.001798,-0.000479,-89.750194,0.001863,
960,880,0.509133,-3.002077,0.999998,0.000187,-0.001719,0.003337,0.000164,0.003343,-0.001724,88.139389,0.003343,
1220,120,0.002005,-4.886695,0.999998,0.000143,-0.000143,0.001559,-0.000011,0.001559,-0.000144,-89.641989,0.001723,
1330,280,-0.043452,-4.612240,0.999998,0.000151,-0.000468,0.001810,0.000022,0.001810,-0.000468,89.455135,0.001879,
1480,770,-0.317799,-3.397465,0.999997,0.000239,-0.001863,0.003101,0.000361,0.003127,-0.001889,85.860933,0.003150,
1670,700,-0.575783,-3.404475,0.999997,0.000212,-0.001504,0.002769,-0.000083,0.002770,-0.001506,-88.881851,0.002774,
1260,610,-0.016592,-4.053063,0.999999,0.000108,-0.000626,0.001457,0.000158,0.001469,-0.000638,85.685136,0.001473,
1410,1060,-0.525890,-2.312448,0.999996,0.000241,-0.002756,0.006246,-0.001123,0.006384,-0.002894,-82.997270,0.006393,
1370,370,-0.081473,-4.434415,0.999999,0.000143,-0.000611,0.001904,0.000062,0.001905,-0.000613,88.585861,0.001945,
720,870,0.836681,-2.908781,0.999998,0.000173,-0.001217,0.002529,0.000259,0.002547,-0.001235,86.055900,0.002547,
730,440,0.469966,-4.040908,0.999998,0.000160,-0.001256,0.002519,-0.000047,0.002520,-0.001257,-89.285793,0.002520,
1620,1710,-0.276903,-0.682050,0.999998,0.000163,-0.000967,0.002377,0.000014,0.002377,-0.000967,89.752530,0.002390,
890,720,0.439984,-3.428548,0.999998,0.000163,-0.001682,0.002929,-0.000092,0.002931,-0.001684,-88.855500,0.002942,
1270,70,-0.004134,-4.963634,0.999999,0.000122,-0.000069,0.001521,-0.000029,0.001521,-0.000070,-88.942066,0.001718,
1590,1480,-0.367132,-1.226000,0.999998,0.000182,-0.001403,0.002613,-0.000197,0.002623,-0.001413,-87.199764,0.002625,
1470,1240,-0.347537,-1.767816,0.999998,0.000193,-0.001957,0.003259,-0.000296,0.003275,-0.001974,-86.767516,0.003298,
890,650,0.387060,-3.629082,0.999997,0.000206,-0.001546,0.002774,-0.000191,0.002783,-0.001554,-87.478902,0.002789,
1060,1420,0.138674,-1.160628,0.999999,0.000139,-0.001188,0.002166,0.000589,0.002266,-0.001288,80.327719,0.002273,
1790,1390,-0.711855,-1.625394,0.999998,0.000195,-0.001333,0.002610,0.000092,0.002612,-0.001336,88.671137,0.002612,
1370,1820,-0.051373,-0.356636,0.999998,0.000150,-0.000390,0.001785,0.000049,0.001786,-0.000391,88.709406,0.001878,
1400,1070,-0.496357,-2.215763,0.999996,0.000000,-0.002706,0.006481,-0.001428,0.006698,-0.002923,-81.366776,0.006716,
1590,1440,-0.391054,-1.331744,0.999998,0.000158,-0.001466,0.002713,-0.000177,0.002720,-0.001473,-87.585186,0.002723,
680,740,0.770953,-3.224355,0.999998,0.000155,-0.001298,0.002574,0.000162,0.002581,-0.001305,87.614160,0.002581,
1790,420,-0.527813,-4.047122,0.999997,0.000184,-0.001255,0.002526,0.000029,0.002526,-0.001255,89.565197,0.002526,
1460,1360,-0.232277,-1.392825,0.999997,0.000197,-0.001609,0.002704,-0.000592,0.002784,-0.001688,-82.324575,0.002805,
1510,1180,-0.513234,-2.031125,0.999998,0.000169,-0.001740,0.003310,0.000202,0.003318,-0.001749,87.711578,0.003320,
740,1510,0.529147,-1.259933,0.999998,0.000178,-0.001349,0.002612,0.000056,0.002613,-0.001350,89.195062,0.002613,
1290,1780,-0.024733,-0.414225,0.999998,0.000167,-0.000378,0.001762,0.000027,0.001763,-0.000378,89.270901,0.001856,
710,530,0.558449,-3.794957,0.999998,0.000166,-0.001316,0.002584,-0.000036,0.002585,-0.001317,-89.470204,0.002585,
1840,1100,-0.998382,-2.357889,0.999998,0.000153,-0.001065,0.002240,0.000091,0.002242,-0.001067,88.422539,0.002243,
1010,1010,0.617707,-2.589637,0.999997,0.000219,-0.001398,0.004251,-0.000056,0.004252,-0.001399,-89.428582,0.004334,
1660,1860,-0.188654,-0.354964,0.999998,0.000170,-0.000807,0.002295,0.000292,0.002322,-0.000834,84.664754,0.002353,
850,540,0.379183,-3.884516,0.999998,0.000170,-0.001348,0.002599,-0.000162,0.002606,-0.001355,-87.653547,0.002607,
770,1000,0.849726,-2.590529,0.999998,0.000138,-0.001033,0.002502,0.000097,0.002505,-0.001036,88.428589,0.002517,
1160,1520,0.045793,-0.880405,0.999998,0.000145,-0.000704,0.001769,0.000251,0.001794,-0.000729,84.252624,0.001804,
820,1330,0.558322,-1.687848,0.999998,0.000261,-0.001512,0.002820,-0.000079,0.002822,-0.001514,-88.953607,0.002824,
1360,1650,-0.078127,-0.668985,0.999998,0.000153,-0.000660,0.001900,-0.000139,0.001908,-0.000668,-86.896773,0.001936,
1550,210,-0.128464,-4.692301,0.999998,0.000159,-0.000549,0.002031,-0.000203,0.002047,-0.000565,-85.537225,0.002114,
1310,280,-0.033482,-4.614580,0.999998,0.000142,-0.000439,0.001773,-0.000014,0.001773,-0.000439,-89.637325,0.001847,
770,170,0.190761,-4.730093,0.999998,0.000163,-0.000769,0.002275,0.000415,0.002331,-0.000825,82.376066,0.002363,
800,1700,0.328283,-0.732805,0.999998,0.000164,-0.001144,0.002408,0.000006,0.002408,-0.001144,89.896659,0.002410,
1730,920,-0.856872,-2.785511,0.999998,0.000171,-0.001152,0.002487,-0.000205,0.002498,-0.001163,-86.778151,0.002500,
730,600,0.583318,-3.627357,0.999997,0.000198,-0.001365,0.002642,0.000011,0.002642,-0.001365,89.848038,0.002643,
1820,1130,-0.960716,-2.284589,0.999999,0.000148,-0.001096,0.002337,0.000155,0.002344,-0.001103,87.426529,0.002345,
990,380,0.156451,-4.367199,0.999998,0.000179,-0.000822,0.002132,-0.000117,0.002137,-0.000827,-87.741206,0.002155,
640,900,0.950597,-2.812081,0.999998,0.000151,-0.001133,0.002322,0.000124,0.002327,-0.001137,87.953903,0.002327,
1480,790,-0.339371,-3.335716,0.999998,0.000187,-0.001908,0.003151,0.000346,0.003174,-0.001932,86.105793,0.003199,
1430,1030,-0.584530,-2.508779,0.999997,0.000231,-0.002127,0.005122,-0.000013,0.005122,-0.002127,-89.896510,0.005146,
1220,100,0.001848,-4.917784,0.999999,0.000142,-0.000113,0.001546,-0.000009,0.001546,-0.000113,-89.705197,0.001724,
1370,790,-0.135425,-3.597930,0.999998,0.000166,-0.001542,0.002297,0.001079,0.002580,-0.001825,75.328390,0.002653,
870,720,0.472836,-3.407386,0.999998,0.000175,-0.001654,0.002926,-0.000020,0.002926,-0.001654,-89.751598,0.002934,
1400,1060,-0.502956,-2.281349,0.999996,0.000000,-0.003078,0.007058,-0.001403,0.007249,-0.003269,-82.265521,0.007260,
1600,1710,-0.256364,-0.669841,0.999999,0.000133,-0.000999,0.002346,0.000014,0.002346,-0.000999,89.762722,0.002355,
1760,270,-0.366714,-4.449617,0.999997,0.000203,-0.001185,0.002520,-0.000122,0.002524,-0.001189,-88.111305,0.002525,
1590,1460,-0.379219,-1.278597,0.999997,0.000184,-0.001433,0.002639,-0.000160,0.002645,-0.001439,-87.747051,0.002648,
930,1310,0.392305,-1.643260,0.999998,0.000192,-0.001783,0.003028,0.000154,0.003033,-0.001788,88.168817,0.003049,
1060,2010,0.006890,-0.039448,0.999999,0.000134,-0.000058,0.001532,-0.000084,0.001536,-0.000062,-86.990941,0.001739,
890,630,0.374576,-3.684651,0.999998,0.000173,-0.001491,0.002718,-0.000220,0.002730,-0.001503,-87.010119,0.002734,
1260,1980,-0.000547,-0.083083,0.999999,0.000140,-0.000071,0.001524,0.000034,0.001525,-0.000072,88.787257,0.001721,
1060,1440,0.135910,-1.118832,0.999998,0.000146,-0.001125,0.002145,0.000560,0.002238,-0.001218,80.544277,0.002241,
1460,1340,-0.242077,-1.445907,0.999997,0.000208,-0.001675,0.002755,-0.000581,0.002830,-0.001749,-82.656271,0.002856,
1190,1820,0.013996,-0.345147,0.999999,0.000116,-0.000329,0.001730,0.000011,0.001730,-0.000329,89.703093,0.001837,
1570,1610,-0.279659,-0.885165,0.999998,0.000167,-0.001102,0.002355,-0.000151,0.002362,-0.001108,-87.499072,0.002363,
1040,550,0.150554,-4.038397,0.999999,0.000128,-0.001084,0.002135,-0.000409,0.002186,-0.001135,-82.871820,0.002186,
710,750,0.739922,-3.216638,0.999998,0.000167,-0.001343,0.002624,0.000191,0.002633,-0.001352,87.252016,0.002634,
680,720,0.752294,-3.277430,0.999998,0.000161,-0.001309,0.002589,0.000151,0.002595,-0.001314,87.784779,0.002595,
830,1780,0.239274,-0.523670,0.999998,0.000138,-0.000851,0.002322,-0.000162,0.002330,-0.000859,-87.081347,0.002357,
1270,1780,-0.015334,-0.412240,0.999998,0.000167,-0.000426,0.001751,0.000005,0.001751,-0.000426,89.870573,0.001826,
610,500,0.664983,-3.791159,0.999997,0.000193,-0.001245,0.002507,-0.000018,0.002507,-0.001245,-89.718739,0.002507,
1840,1080,-1.002557,-2.402520,0.999998,0.000170,-0.001047,0.002214,0.000045,0.002214,-0.001047,89.207583,0.002216,
1490,790,-0.359333,-3.317031,0.999998,0.000207,-0.001897,0.003173,0.000266,0.003187,-0.001911,87.007090,0.003208,
1010,990,0.604984,-2.677275,0.999997,0.000203,-0.001395,0.004051,-0.000121,0.004054,-0.001398,-88.725387,0.004118,
1410,180,-0.050756,-4.776156,0.999998,0.000191,-0.000405,0.001759,-0.000085,0.001762,-0.000408,-87.745027,0.001845,
680,1970,0.132654,-0.147529,0.999998,0.000177,-0.000600,0.002363,-0.000830,0.002580,-0.000816,-75.376981,0.002637,
870,360,0.258235,-4.339247,0.999998,0.000158,-0.001026,0.002313,-0.000039,0.002314,-0.001027,-89.330121,0.002319,
730,1100,0.878108,-2.341174,0.999998,0.000169,-0.001125,0.002461,-0.000190,0.002471,-0.001135,-86.971164,0.002473,
960,860,0.477842,-3.068445,0.999998,0.000192,-0.001810,0.003348,0.000100,0.003350,-0.001812,88.892956,0.003354,
1790,1370,-0.731266,-1.678059,0.999998,0.000176,-0.001327,0.002580,0.000129,0.002584,-0.001331,88.103799,0.002585,
1660,1840,-0.209268,-0.397979,0.999998,0.000177,-0.000867,0.002256,0.000260,0.002277,-0.000888,85.264116,0.002295,
1240,630,-0.004874,-4.030633,0.999998,0.000150,-0.000565,0.001422,0.000073,0.001424,-0.000568,87.892018,0.001434,
1870,1200,-0.974052,-2.142283,0.999998,0.000136,-0.001119,0.002307,0.000111,0.002311,-0.001123,88.141300,0.002311,
1080,1950,0.020251,-0.134289,0.999999,0.000139,-0.000144,0.001622,-0.000124,0.001631,-0.000153,-85.992998,0.001801,
960,910,0.557185,-2.901353,0.999998,0.000170,-0.001524,0.003337,0.000262,0.003351,-0.001538,86.922570,0.003355,
730,580,0.568296,-3.680272,0.999997,0.000181,-0.001354,0.002634,-0.000026,0.002635,-0.001354,-89.627668,0.002635,
1160,1650,0.040966,-0.648353,0.999998,0.000156,-0.000621,0.001833,0.000083,0.001836,-0.000624,88.061929,0.001867,
1150,280,0.033589,-4.614871,0.999998,0.000169,-0.000456,0.001791,-0.000009,0.001792,-0.000456,-89.775900,0.001862,
800,1330,0.588224,-1.702295,0.999997,0.000204,-0.001509,0.002783,-0.000119,0.002787,-0.001512,-88.413566,0.002790,
1550,190,-0.113582,-4.732515,0.999999,0.000147,-0.000494,0.001980,-0.000219,0.002000,-0.000514,-84.991082,0.002077,
980,590,0.228604,-3.884477,0.999998,0.000168,-0.001268,0.002444,-0.000396,0.002486,-0.001309,-83.981542,0.002487,
1800,1130,-0.938904,-2.278714,0.999998,0.000183,-0.001125,0.002376,0.000160,0.002383,-0.001133,87.381387,0.002384,
1400,1050,-0.495433,-2.355252,0.999944,0.000000,-0.003253,0.007086,-0.001348,0.007259,-0.003426,-82.693274,0.007262,
1740,270,-0.343390,-4.464485,0.999998,0.000183,-0.001110,0.002513,-0.000136,0.002518,-0.001115,-87.849300,0.002523,
1530,1520,-0.267575,-1.067965,0.999998,0.000171,-0.001236,0.002452,-0.000265,0.002471,-0.001255,-85.906809,0.002471,
1220,80,0.002478,-4.948313,0.999999,0.000139,-0.000082,0.001543,-0.000008,0.001543,-0.000082,-89.706597,0.001736,
1160,1540,0.047121,-0.846828,0.999998,0.000147,-0.000696,0.001762,0.000222,0.001781,-0.000716,84.887925,0.001793,
1370,810,-0.152359,-3.550640,0.999998,0.000174,-0.001618,0.002372,0.001111,0.002661,-0.001906,75.441523,0.002743,
890,2010,0.017924,-0.043132,0.999999,0.000129,-0.000134,0.001661,-0.000306,0.001712,-0.000184,-80.596287,0.001879,
1500,790,-0.377233,-3.302599,0.999997,0.000201,-0.001896,0.003187,0.000188,0.003194,-0.001903,87.885344,0.003213,
1670,140,-0.137053,-4.805465,0.999999,0.000125,-0.000672,0.002123,-0.000405,0.002181,-0.000729,-81.923368,0.002220,
930,1290,0.411791,-1.704158,0.999997,0.000189,-0.001824,0.003061,0.000105,0.003063,-0.001826,88.765106,0.003082,
870,700,0.456505,-3.467226,0.999997,0.000195,-0.001641,0.002886,-0.000052,0.002887,-0.001641,-89.344807,0.002896,
920,1570,0.264380,-0.958587,0.999998,0.000178,-0.001158,0.002373,0.000192,0.002383,-0.001168,86.895851,0.002383,
890,610,0.363728,-3.736976,0.999998,0.000177,-0.001464,0.002670,-0.000238,0.002683,-0.001478,-86.713722,0.002688,
1590,1050,-0.749360,-2.458765,0.999997,0.000208,-0.000938,0.002686,0.000124,0.002690,-0.000942,88.038317,0.002730,
1330,1780,-0.041786,-0.419271,0.999998,0.000174,-0.000521,0.001817,-0.000020,0.001817,-0.000522,-89.511634,0.001871,
1260,1960,-0.004337,-0.114709,0.999999,0.000146,-0.000094,0.001553,0.000006,0.001553,-0.000094,89.795598,0.001741,
1060,1880,0.045556,-0.254128,0.999998,0.000170,-0.000317,0.001725,-0.000073,0.001727,-0.000320,-87.967113,0.001838,
1460,1320,-0.254682,-1.502319,0.999998,0.000171,-0.001756,0.002864,-0.000561,0.002931,-0.001823,-83.179658,0.002960,
870,340,0.246875,-4.384523,0.999998,0.000143,-0.000974,0.002322,-0.000007,0.002322,-0.000974,-89.885601,0.002332,
600,120,0.274387,-4.740590,0.999998,0.000166,-0.001199,0.002686,0.000386,0.002724,-0.001237,84.381339,0.002728,
1870,1820,-0.459848,-0.601349,0.999998,0.000213,-0.001230,0.002485,0.000044,0.002485,-0.001230,89.321130,0.002485,
1010,970,0.582065,-2.751308,0.999997,0.000216,-0.001422,0.003836,-0.000136,0.003840,-0.001426,-88.521677,0.003882,
680,1950,0.163706,-0.192076,0.999998,0.000162,-0.000787,0.002412,-0.000701,0.002558,-0.000934,-78.162844,0.002589,
640,880,0.939470,-2.859664,0.999999,0.000140,-0.001153,0.002382,0.000162,0.002389,-0.001160,87.379404,0.002390,
1660,1820,-0.229027,-0.444031,0.999998,0.000172,-0.000912,0.002322,0.000220,0.002337,-0.000927,86.133246,0.002353,
920,890,0.588419,-2.929296,0.999998,0.000153,-0.001537,0.003114,0.000351,0.003141,-0.001563,85.713856,0.003141,
1130,280,0.044050,-4.610854,0.999999,0.000157,-0.000497,0.001810,-0.000031,0.001810,-0.000497,-89.233372,0.001870,
1140,1650,0.054636,-0.655025,0.999998,0.000160,-0.000633,0.001842,0.000148,0.001851,-0.000642,86.583481,0.001879,
780,870,0.758874,-2.926487,0.999998,0.000182,-0.001286,0.002663,0.000305,0.002687,-0.001309,85.609241,0.002687,
1840,1280,-0.875020,-1.936407,0.999998,0.000150,-0.001222,0.002437,0.000141,0.002442,-0.001227,87.792820,0.002442,
1810,200,-0.341632,-4.589746,0.999997,0.000194,-0.001103,0.002594,-0.000277,0.002615,-0.001123,-85.734086,0.002623,
1790,1350,-0.749023,-1.727451,0.999998,0.000173,-0.001316,0.002551,0.000132,0.002556,-0.001320,88.051130,0.002556,
1400,1040,-0.472807,-2.425295,0.999837,0.000000,-0.003345,0.007319,-0.000646,0.007358,-0.003384,-86.546231,0.007366,
710,1100,0.902419,-2.343737,0.999998,0.000202,-0.001120,0.002447,-0.000163,0.002455,-0.001127,-87.391375,0.002458,
1510,860,-0.490781,-3.058986,0.999998,0.000207,-0.001767,0.003317,-0.000126,0.003321,-0.001771,-88.578816,0.003323,
1440,430,-0.143228,-4.281870,0.999998,0.000143,-0.000841,0.002067,0.000163,0.002076,-0.000850,86.801010,0.002087,
1480,1430,-0.235152,-1.236924,0.999998,0.000155,-0.001411,0.002490,-0.000447,0.002540,-0.001462,-83.549058,0.002550,
710,510,0.544162,-3.846685,0.999998,0.000161,-0.001306,0.002560,-0.000057,0.002561,-0.001307,-89.150587,0.002561,
720,970,0.896868,-2.660047,0.999998,0.000144,-0.001098,0.002444,0.000117,0.002448,-0.001102,88.116057,0.002452,
1160,1980,0.005828,-0.083812,0.999999,0.000124,-0.000068,0.001533,-0.000057,0.001535,-0.000070,-87.964385,0.001734,
1370,830,-0.178392,-3.503276,0.999998,0.000171,-0.001655,0.002437,0.001100,0.002714,-0.001932,75.867141,0.002794,
1760,40,-0.039959,-4.997014,0.999999,0.000136,-0.000236,0.002011,-0.000741,0.002233,-0.000458,-73.291285,0.002359,
1510,1520,-0.245737,-1.049720,0.999998,0.000166,-0.001182,0.002403,-0.000302,0.002428,-0.001207,-85.223176,0.002428,
1310,1780,-0.031672,-0.415856,0.999998,0.000202,-0.000427,0.001795,-0.000005,0.001795,-0.000427,-89.882560,0.001876,
1220,60,0.000781,-4.979613,0.999999,0.000119,-0.000061,0.001516,0.000000,0.001516,-0.000061,-89.987881,0.001716,
1650,1820,-0.220297,-0.438413,0.999998,0.000165,-0.000851,0.002304,0.000237,0.002321,-0.000869,85.735988,0.002346,
1380,470,-0.100035,-4.236927,0.999998,0.000149,-0.000822,0.001955,0.000283,0.001983,-0.000850,84.248164,0.001990,
900,1570,0.288631,-0.974308,0.999998,0.000181,-0.001197,0.002414,0.000178,0.002423,-0.001206,87.185724,0.002423,
680,700,0.735541,-3.329758,0.999998,0.000178,-0.001328,0.002590,0.000117,0.002594,-0.001332,88.285220,0.002594,
1210,1960,0.002858,-0.114017,0.999999,0.000130,-0.000159,0.001556,-0.000011,0.001556,-0.000159,-89.616113,0.001713,
1740,250,-0.320847,-4.515879,0.999998,0.000175,-0.001081,0.002490,-0.000191,0.002500,-0.001092,-86.951712,0.002506,
890,590,0.352791,-3.790190,0.999998,0.000179,-0.001445,0.002636,-0.000210,0.002647,-0.001456,-87.065036,0.002651,
1700,680,-0.602549,-3.436968,0.999997,0.000195,-0.001431,0.002744,-0.000079,0.002746,-0.001432,-88.915772,0.002747,
880,2010,0.019642,-0.044187,0.999999,0.000124,-0.000152,0.001648,-0.000333,0.001708,-0.000211,-79.857583,0.001862,
1260,1940,-0.002825,-0.146635,0.999999,0.000137,-0.000152,0.001561,-0.000001,0.001561,-0.000152,-89.950654,0.001722,
930,1270,0.432980,-1.765976,0.999997,0.000197,-0.001856,0.003154,0.000030,0.003154,-0.001856,89.657497,0.003171,
1830,1020,-1.000585,-2.537135,0.999997,0.000225,-0.001078,0.002271,-0.000033,0.002271,-0.001078,-89.439941,0.002272,
1060,1860,0.051667,-0.287567,0.999998,0.000192,-0.000379,0.001768,-0.000072,0.001771,-0.000382,-88.094578,0.001864,
1570,400,-0.256185,-4.262134,0.999998,0.000163,-0.001062,0.002350,0.000089,0.002353,-0.001065,88.501665,0.002356,
1580,940,-0.699338,-2.761859,0.999998,0.000171,-0.001137,0.002847,-0.000320,0.002872,-0.001162,-85.437669,0.002890,
1010,950,0.550057,-2.827995,0.999997,0.000193,-0.001492,0.003846,-0.000104,0.003848,-0.001494,-88.884136,0.003880,
1520,590,-0.278195,-3.845582,0.999998,0.000151,-0.001365,0.002526,0.000310,0.002551,-0.001389,85.473847,0.002554,
1460,1300,-0.269345,-1.562286,0.999998,0.000175,-0.001842,0.002967,-0.000539,0.003026,-0.001902,-83.685747,0.003059,
1500,120,-0.053747,-4.869742,0.999999,0.000126,-0.000300,0.001783,-0.000203,0.001803,-0.000319,-84.497420,0.001924,
960,840,0.446533,-3.134749,0.999998,0.000180,-0.001866,0.003315,0.000017,0.003315,-0.001866,89.809291,0.003324,
1670,120,-0.116085,-4.846597,0.999999,0.000152,-0.000574,0.002076,-0.000459,0.002153,-0.000651,-80.453742,0.002208,
1660,1800,-0.246296,-0.490153,0.999998,0.000180,-0.000973,0.002344,0.000178,0.002353,-0.000982,86.929496,0.002364,
1480,2020,-0.005992,-0.023868,0.999998,0.000000,0.000037,0.001559,0.000180,0.001580,0.000016,83.335512,0.001834,
760,870,0.785788,-2.919254,0.999998,0.000176,-0.001268,0.002606,0.000284,0.002627,-0.001289,85.825438,0.002627,
1170,540,0.038226,-4.153988,0.999998,0.000151,-0.000657,0.001712,-0.000218,0.001732,-0.000677,-84.792710,0.001746,
1850,1960,-0.206072,-0.216091,0.999998,0.000134,-0.001193,0.002695,0.000524,0.002764,-0.001262,82.460151,0.002767,
1550,390,-0.230272,-4.299461,0.999998,0.000162,-0.000964,0.002294,0.000065,0.002296,-0.000965,88.851672,0.002305,
900,890,0.619322,-2.917223,0.999998,0.000172,-0.001449,0.003036,0.000369,0.003066,-0.001480,85.324508,0.003067,
1690,1420,-0.551664,-1.473326,0.999997,0.000210,-0.001402,0.002702,-0.000001,0.002702,-0.001402,-89.979088,0.002703,
1880,1430,-0.793857,-1.588966,0.999997,0.000218,-0.001271,0.002552,0.000012,0.002552,-0.001271,89.824893,0.002552,
1870,1190,-0.980538,-2.165057,0.999998,0.000164,-0.001109,0.002258,0.000098,0.002261,-0.001112,88.341697,0.002261,
1790,1330,-0.766709,-1.778942,0.999998,0.000153,-0.001291,0.002550,0.000137,0.002555,-0.001295,87.953647,0.002555,
600,140,0.313013,-4.687549,0.999998,0.000188,-0.001208,0.002618,0.000289,0.002640,-0.001230,85.698831,0.002642,
810,510,0.414419,-3.928344,0.999997,0.000171,-0.001302,0.002556,-0.000107,0.002559,-0.001305,-88.418565,0.002560,
640,860,0.922817,-2.908097,0.999999,0.000134,-0.001175,0.002415,0.000180,0.002424,-0.001184,87.143868,0.002424,
1840,540,-0.677352,-3.699987,0.999998,0.000170,-0.001267,0.002550,0.000016,0.002550,-0.001267,89.753003,0.002550,
910,500,0.282157,-4.037390,0.999998,0.000179,-0.001182,0.002422,-0.000199,0.002433,-0.001193,-86.849778,0.002433,
770,150,0.164966,-4.776922,0.999998,0.000154,-0.000701,0.002236,0.000459,0.002306,-0.000771,81.324322,0.002348,
1780,130,-0.205963,-4.785968,0.999998,0.000168,-0.000892,0.002454,-0.000576,0.002550,-0.000989,-80.502314,0.002572,
1360,1830,-0.044898,-0.336412,0.999998,0.000150,-0.000372,0.001778,0.000032,0.001779,-0.000373,89.134935,0.001876,
1210,1990,0.001259,-0.067357,0.999999,0.000129,-0.000105,0.001492,-0.000016,0.001492,-0.000106,-89.441657,0.001665,
870,2010,0.021604,-0.044204,0.999998,0.000154,-0.000122,0.001645,-0.000361,0.001716,-0.000193,-78.874521,0.001880,
1190,1780,0.017330,-0.413207,0.999998,0.000152,-0.000416,0.001756,0.000012,0.001756,-0.000417,89.677750,0.001835,
1760,640,-0.651121,-3.501654,0.999997,0.000189,-0.001353,0.002639,-0.000066,0.002640,-0.001355,-89.058723,0.002641,
1440,510,-0.159964,-4.110529,0.999998,0.000146,-0.001054,0.002204,0.000337,0.002238,-0.001089,84.161551,0.002238,
1800,1530,-0.615461,-1.269988,0.999998,0.000184,-0.001288,0.002578,-0.000030,0.002578,-0.001288,-89.550996,0.002578,
1850,1720,-0.534770,-0.830316,0.999998,0.000170,-0.001227,0.002501,-0.000030,0.002502,-0.001227,-89.542319,0.002502,
600,250,0.468394,-4.409418,0.999997,0.000231,-0.001206,0.002475,0.000022,0.002475,-0.001206,89.664476,0.002475,
1460,1190,-0.405628,-1.917314,0.999998,0.000170,-0.001883,0.003470,-0.000188,0.003476,-0.001889,-87.994660,0.003481,
1050,1440,0.148049,-1.130731,0.999999,0.000148,-0.001134,0.002178,0.000553,0.002268,-0.001224,80.766946,0.002270,
900,1550,0.297909,-1.023508,0.999998,0.000181,-0.001238,0.002471,0.000209,0.002483,-0.001250,86.787107,0.002483,
1790,1620,-0.536911,-1.032901,0.999998,0.000167,-0.001231,0.002533,-0.000047,0.002534,-0.001232,-89.277938,0.002534,
1370,850,-0.211054,-3.453780,0.999998,0.000177,-0.001553,0.002400,0.001162,0.002716,-0.001869,74.770187,0.002780,
930,1250,0.456816,-1.830023,0.999997,0.000196,-0.001827,0.003164,-0.000023,0.003164,-0.001827,-89.738646,0.003177,
710,470,0.515841,-3.949490,0.999998,0.000171,-0.001270,0.002546,-0.000050,0.002547,-0.001271,-89.247387,0.002547,
620,690,0.803710,-3.314491,0.999998,0.000153,-0.001277,0.002547,0.000087,0.002549,-0.001279,88.697144,0.002549,
1510,120,-0.055726,-4.867924,0.999999,0.000113,-0.000301,0.001797,-0.000234,0.001823,-0.000327,-83.718061,0.001943,
1510,840,-0.460596,-3.124479,0.999997,0.000208,-0.001829,0.003281,-0.000061,0.003281,-0.001830,-89.316169,0.003289,
1010,930,0.515027,-2.904102,0.999997,0.000190,-0.001578,0.003717,-0.000092,0.003718,-0.001579,-89.007743,0.003732,
1750,1300,-0.741319,-1.834894,0.999998,0.000150,-0.001369,0.002679,0.000206,0.002690,-0.001380,87.091207,0.002690,
1260,1920,-0.005118,-0.177512,0.999999,0.000122,-0.000200,0.001597,0.000017,0.001597,-0.000200,89.448647,0.001741,
890,1010,0.735269,-2.568975,0.999998,0.000199,-0.000920,0.002760,0.000094,0.002763,-0.000922,88.544308,0.002813,
1060,1840,0.058318,-0.323755,0.999998,0.000174,-0.000421,0.001810,-0.000054,0.001811,-0.000422,-88.610117,0.001895,
680,680,0.716926,-3.378422,0.999997,0.000200,-0.001340,0.002580,0.000114,0.002584,-0.001343,88.341915,0.002584,
1160,1960,0.008584,-0.114492,0.999999,0.000165,-0.000105,0.001557,-0.000048,0.001559,-0.000106,-88.357993,0.001742,
820,950,0.776883,-2.721462,0.999998,0.000170,-0.001121,0.002644,0.000256,0.002661,-0.001139,86.135655,0.002671,
1460,1500,-0.190890,-1.046235,0.999998,0.000154,-0.001146,0.002271,-0.000381,0.002313,-0.001188,-83.706745,0.002313,
1630,1820,-0.203110,-0.432425,0.999998,0.000173,-0.000752,0.002264,0.000235,0.002282,-0.000770,85.577022,0.002322,
900,870,0.590797,-2.977913,0.999998,0.000172,-0.001539,0.003074,0.000344,0.003099,-0.001565,85.756277,0.003099,
1500,140,-0.061452,-4.835884,0.999999,0.000136,-0.000369,0.001792,-0.000185,0.001808,-0.000385,-85.149824,0.001905,
1380,450,-0.097461,-4.276355,0.999998,0.000166,-0.000783,0.001952,0.000229,0.001971,-0.000803,85.246934,0.001983,
1520,570,-0.269697,-3.893971,0.999998,0.000165,-0.001315,0.002483,0.000299,0.002506,-0.001339,85.521423,0.002508,
1550,400,-0.235409,-4.275754,0.999998,0.000167,-0.001002,0.002297,0.000098,0.002300,-0.001005,88.301411,0.002307,
1490,30,-0.004591,-5.022299,0.999999,0.000000,-0.000109,0.001574,-0.000230,0.001605,-0.000140,-82.346096,0.001778,
900,1230,0.533857,-1.922100,0.999998,0.000169,-0.001690,0.003117,-0.000211,0.003126,-0.001699,-87.497328,0.003130,
600,160,0.345613,-4.638523,0.999998,0.000189,-0.001208,0.002578,0.000182,0.002587,-0.001217,87.249228,0.002589,
1850,1940,-0.248445,-0.269045,0.999998,0.000149,-0.001192,0.002695,0.000374,0.002730,-0.001228,84.556957,0.002735,
1840,520,-0.664920,-3.750753,0.999997,0.000183,-0.001280,0.002569,0.000028,0.002570,-0.001280,89.578344,0.002570,
1820,90,-0.159619,-4.871406,0.999998,0.000162,-0.000839,0.002578,-0.000739,0.002731,-0.000992,-78.307701,0.002765,
910,480,0.274694,-4.084681,0.999998,0.000171,-0.001138,0.002372,-0.000186,0.002382,-0.001148,-86.970001,0.002383,
1780,110,-0.170930,-4.836313,0.999999,0.000135,-0.000803,0.002405,-0.000657,0.002534,-0.000932,-78.869954,0.002563,
1170,1780,0.025682,-0.415096,0.999998,0.000164,-0.000390,0.001780,-0.000007,0.001780,-0.000390,-89.802409,0.001871,
1210,1970,0.003386,-0.097783,0.999999,0.000137,-0.000142,0.001535,-0.000013,0.001536,-0.000142,-89.543681,0.001697,
1770,1620,-0.513238,-1.014777,0.999998,0.000176,-0.001246,0.002546,-0.000041,0.002546,-0.001246,-89.387958,0.002546,
1670,1340,-0.589197,-1.678569,0.999998,0.000185,-0.001485,0.002790,0.000093,0.002792,-0.001487,88.758157,0.002794,
1440,490,-0.156060,-4.154751,0.999998,0.000146,-0.000996,0.002141,0.000303,0.002169,-0.001025,84.536010,0.002171,
1700,880,-0.789060,-2.895233,0.999998,0.000151,-0.001268,0.002623,-0.000300,0.002646,-0.001291,-85.615260,0.002646,
1230,1960,-0.000429,-0.113447,0.999999,0.000140,-0.000137,0.001544,-0.000010,0.001544,-0.000137,-89.643485,0.001709,
1260,1900,-0.006964,-0.208236,0.999999,0.000139,-0.000217,0.001647,0.000020,0.001647,-0.000217,89.392931,0.001790,
1890,1110,-1.047705,-2.349269,0.999998,0.000167,-0.001032,0.002139,0.000039,0.002140,-0.001033,89.290837,0.002140,
1790,1310,-0.783819,-1.830346,0.999998,0.000146,-0.001273,0.002577,0.000171,0.002585,-0.001281,87.462921,0.002585,
1120,1710,0.059985,-0.549997,0.999998,0.000174,-0.000583,0.001834,0.000092,0.001838,-0.000587,87.812133,0.001877,
1060,1820,0.063769,-0.359800,0.999998,0.000173,-0.000457,0.001843,-0.000035,0.001844,-0.000458,-89.140476,0.001920,
1190,540,0.026696,-4.160314,0.999999,0.000141,-0.000631,0.001682,-0.000124,0.001689,-0.000637,-86.931029,0.001706,
1490,840,-0.423522,-3.155541,0.999997,0.000211,-0.001910,0.003334,0.000061,0.003335,-0.001910,89.336754,0.003347,
850,910,0.707771,-2.836580,0.999998,0.000180,-0.001249,0.002787,0.000347,0.002816,-0.001279,85.126607,0.002820,
1540,560,-0.291678,-3.899219,0.999998,0.000178,-0.001319,0.002511,0.000265,0.002529,-0.001337,86.058205,0.002531,
1490,2020,-0.005767,-0.025853,0.999998,0.000000,-0.000033,0.001560,0.000188,0.001582,-0.000055,83.369364,0.001796,
1450,1690,-0.133772,-0.629094,0.999998,0.000158,-0.000742,0.002074,-0.000070,0.002076,-0.000744,-88.568379,0.002103,
1730,1300,-0.713694,-1.824106,0.999998,0.000183,-0.001380,0.002678,0.000210,0.002689,-0.001391,87.044560,0.002689,
1260,2010,-0.000611,-0.038352,0.999999,0.000119,-0.000023,0.001511,0.000015,0.001511,-0.000024,89.438340,0.001731,
1100,1440,0.096599,-1.069354,0.999999,0.000133,-0.000958,0.001907,0.000528,0.002001,-0.001053,79.881458,0.002002,
890,1030,0.738914,-2.512659,0.999998,0.000196,-0.000924,0.002752,-0.000018,0.002752,-0.000924,-89.717652,0.002801,
640,840,0.908289,-2.957767,0.999998,0.000143,-0.001176,0.002389,0.000183,0.002399,-0.001185,87.067408,0.002399,
1690,1460,-0.521086,-1.365533,0.999997,0.000192,-0.001408,0.002657,-0.000041,0.002657,-0.001409,-89.427161,0.002659,
800,110,0.101333,-4.869243,0.999998,0.000163,-0.000502,0.002060,0.000469,0.002143,-0.000585,79.955123,0.002215,
1320,1560,-0.056611,-0.819540,0.999999,0.000138,-0.000736,0.001822,-0.000227,0.001842,-0.000756,-84.978038,0.001852,
1760,620,-0.636449,-3.553720,0.999997,0.000180,-0.001354,0.002639,-0.000021,0.002639,-0.001354,-89.703083,0.002639,
810,470,0.389382,-4.030007,0.999998,0.000160,-0.001234,0.002517,-0.000108,0.002521,-0.001237,-88.353569,0.002521,
560,1450,0.844195,-1.545194,0.999951,0.000000,-0.002223,0.002407,-0.000054,0.002407,-0.002224,-89.335484,0.002680,
1580,980,-0.730843,-2.649316,0.999998,0.000179,-0.000998,0.002761,-0.000218,0.002774,-0.001010,-86.697316,0.002808,
960,820,0.419994,-3.200044,0.999998,0.000176,-0.001887,0.003265,-0.000076,0.003266,-0.001888,-89.153776,0.003280,
600,180,0.377609,-4.584305,0.999997,0.000200,-0.001207,0.002548,0.000160,0.002555,-0.001214,87.561492,0.002556,
1780,1530,-0.590056,-1.253933,0.999998,0.000159,-0.001281,0.002573,-0.000033,0.002573,-0.001281,-89.504281,0.002573,
1630,870,-0.688226,-2.944609,0.999998,0.000182,-0.001375,0.002843,-0.000344,0.002871,-0.001402,-85.368008,0.002871,
1890,1140,-1.031811,-2.284159,0.999998,0.000141,-0.001065,0.002170,0.000095,0.002173,-0.001068,88.320246,0.002173,
850,780,0.564525,-3.213810,0.999997,0.000191,-0.001617,0.002951,0.000177,0.002958,-0.001624,87.786865,0.002963,
1850,2010,-0.088974,-0.083193,0.999999,0.000141,-0.000978,0.002440,0.000789,0.002614,-0.001151,77.602029,0.002620,
930,1230,0.481279,-1.893103,0.999997,0.000179,-0.001799,0.003209,-0.000101,0.003211,-0.001801,-88.847115,0.003218,
1670,100,-0.091934,-4.887358,0.999999,0.000112,-0.000473,0.002029,-0.000489,0.002121,-0.000565,-79.329254,0.002197,
1010,910,0.476010,-2.977345,0.999997,0.000199,-0.001695,0.003600,-0.000111,0.003602,-0.001697,-88.795884,0.003604,
710,450,0.503704,-4.000006,0.999997,0.000188,-0.001269,0.002521,-0.000045,0.002521,-0.001269,-89.321161,0.002521,
1020,1170,0.409157,-1.949722,0.999998,0.000180,-0.001844,0.003482,0.000299,0.003499,-0.001861,86.793888,0.003501,
1670,70,-0.059006,-4.946895,0.999999,0.000142,-0.000310,0.001908,-0.000515,0.002022,-0.000424,-77.540090,0.002132,
600,690,0.829832,-3.300731,0.999998,0.000166,-0.001253,0.002538,0.000054,0.002538,-0.001254,89.177100,0.002539,
1000,1830,0.089720,-0.355017,0.999998,0.000186,-0.000458,0.001897,-0.000119,0.001903,-0.000464,-87.121441,0.001984,
1110,1780,0.052487,-0.423634,0.999998,0.000153,-0.000452,0.001826,0.000001,0.001826,-0.000452,89.964667,0.001902,
1650,1340,-0.559104,-1.664548,0.999997,0.000202,-0.001544,0.002814,0.000085,0.002816,-0.001546,88.878349,0.002820,
680,660,0.699159,-3.433025,0.999998,0.000198,-0.001335,0.002625,0.000074,0.002626,-0.001336,88.929823,0.002626,
1210,1950,0.003301,-0.129376,0.999999,0.000134,-0.000164,0.001575,-0.000005,0.001575,-0.000164,-89.845712,0.001732,
1090,1960,0.017120,-0.117686,0.999999,0.000123,-0.000116,0.001585,-0.000110,0.001592,-0.000123,-86.304315,0.001771,
790,920,0.790016,-2.796872,0.999998,0.000163,-0.001172,0.002609,0.000276,0.002629,-0.001192,85.852702,0.002632,
1370,1590,-0.091213,-0.786884,0.999998,0.000154,-0.000783,0.001950,-0.000221,0.001968,-0.000801,-85.401749,0.001979,
1070,1140,0.390996,-1.864372,0.999997,0.000194,-0.001228,0.003140,0.001604,0.003666,-0.001753,71.855971,0.003667,
810,480,0.395268,-4.004817,0.999997,0.000179,-0.001247,0.002539,-0.000110,0.002543,-0.001250,-88.344887,0.002543,
1260,1880,-0.006121,-0.243081,0.999999,0.000149,-0.000240,0.001651,0.000009,0.001651,-0.000240,89.712496,0.001785,
1660,1050,-0.816609,-2.462201,0.999998,0.000186,-0.000999,0.002541,0.000078,0.002543,-0.001001,88.741962,0.002562,
1790,1290,-0.802846,-1.881511,0.999998,0.000144,-0.001258,0.002579,0.000195,0.002589,-0.001268,87.104211,0.002589,
1070,220,0.056541,-4.707536,0.999998,0.000158,-0.000377,0.001769,0.000084,0.001773,-0.000381,87.768970,0.001866,
1290,1580,-0.035966,-0.770612,0.999998,0.000155,-0.000646,0.001769,-0.000104,0.001773,-0.000651,-87.543382,0.001794,
1500,160,-0.074368,-4.797987,0.999998,0.000149,-0.000426,0.001855,-0.000185,0.001870,-0.000441,-85.393141,0.001955,
1720,320,-0.365408,-4.352780,0.999997,0.000195,-0.001098,0.002520,-0.000059,0.002521,-0.001099,-89.059093,0.002528,
1840,500,-0.649504,-3.803252,0.999998,0.000184,-0.001301,0.002550,0.000022,0.002550,-0.001302,89.667248,0.002550,
850,870,0.665491,-2.950258,0.999998,0.000169,-0.001407,0.002892,0.000342,0.002919,-0.001434,85.484953,0.002919,
1060,1800,0.069877,-0.396662,0.999998,0.000179,-0.000497,0.001848,-0.000034,0.001848,-0.000497,-89.176748,0.001913,
1160,1940,0.009508,-0.145857,0.999998,0.000163,-0.000122,0.001610,-0.000042,0.001611,-0.000123,-88.603652,0.001793,
940,1570,0.241961,-0.942993,0.999998,0.000162,-0.001127,0.002363,0.000247,0.002380,-0.001145,85.972614,0.002380,
1470,900,-0.486023,-2.982353,0.999997,0.000185,-0.001743,0.003505,-0.000039,0.003506,-0.001744,-89.573675,0.003506,
1540,1580,-0.259319,-0.932246,0.999998,0.000172,-0.001127,0.002378,-0.000172,0.002386,-0.001135,-87.196917,0.002387,
1500,30,-0.007033,-5.021609,0.999999,0.000000,-0.000136,0.001620,-0.000217,0.001646,-0.000162,-83.073191,0.001814,
1460,760,-0.271201,-3.463900,0.999997,0.000223,-0.001845,0.002998,0.000526,0.003054,-0.001902,83.876153,0.003085,
1650,1860,-0.181147,-0.349575,0.999998,0.000188,-0.000747,0.002259,0.000305,0.002289,-0.000778,84.263774,0.002328,
1690,1440,-0.535086,-1.418909,0.999998,0.000190,-0.001402,0.002689,-0.000026,0.002690,-0.001402,-89.642911,0.002690,
1210,540,0.012920,-4.165434,0.999998,0.000158,-0.000630,0.001651,-0.000092,0.001655,-0.000633,-87.703288,0.001670,
1770,1600,-0.527764,-1.067360,0.999997,0.000185,-0.001263,0.002536,-0.000055,0.002537,-0.001264,-89.176440,0.002537,
1320,1540,-0.058446,-0.855087,0.999999,0.000142,-0.000730,0.001818,-0.000263,0.001845,-0.000757,-84.167258,0.001855,
1140,110,0.011219,-4.901042,0.999999,0.000153,-0.000145,0.001613,0.000058,0.001615,-0.000147,88.122795,0.001785,
770,130,0.143437,-4.820003,0.999998,0.000141,-0.000582,0.002166,0.000497,0.002253,-0.000669,80.061364,0.002314,
960,800,0.395265,-3.265711,0.999998,0.000186,-0.001905,0.003232,-0.000142,0.003236,-0.001909,-88.422603,0.003253,
630,200,0.368780,-4.568994,0.999998,0.000184,-0.001198,0.002537,0.000158,0.002544,-0.001204,87.581677,0.002545,
710,430,0.489114,-4.049702,0.999998,0.000172,-0.001256,0.002537,-0.000033,0.002537,-0.001256,-89.507556,0.002537,
1500,50,-0.014739,-4.989748,0.999999,0.000123,-0.000125,0.001594,-0.000209,0.001619,-0.000150,-83.180820,0.001790,
1780,900,-0.901900,-2.826258,0.999999,0.000139,-0.001148,0.002444,-0.000205,0.002455,-0.001159,-86.739124,0.002457,
600,620,0.768845,-3.477688,0.999998,0.000197,-0.001253,0.002566,-0.000006,0.002566,-0.001253,-89.909485,0.002567,
930,1210,0.508307,-1.958222,0.999998,0.000175,-0.001759,0.003203,-0.000176,0.003209,-0.001765,-87.971306,0.003214,
1630,850,-0.666919,-3.002269,0.999998,0.000182,-0.001428,0.002842,-0.000319,0.002866,-0.001451,-85.751919,0.002866,
1420,860,-0.318661,-3.244169,0.999997,0.000191,-0.001852,0.003285,0.000641,0.003364,-0.001931,82.997976,0.003376,
560,1820,0.603919,-0.709451,0.999645,0.000000,-0.004343,0.001583,-0.000255,0.001594,-0.004354,-87.536759,0.004406,
1110,1270,0.107462,-1.381734,0.999998,0.000161,-0.001427,0.001991,0.001133,0.002332,-0.001769,73.224020,0.002434,
1230,1780,0.000053,-0.410197,0.999998,0.000145,-0.000438,0.001739,0.000001,0.001739,-0.000438,89.973292,0.001809,
1590,920,-0.689658,-2.815776,0.999998,0.000161,-0.001237,0.002848,-0.000356,0.002879,-0.001267,-85.052842,0.002885,
1280,350,-0.025188,-4.492919,0.999998,0.000143,-0.000507,0.001805,0.000025,0.001805,-0.000508,89.388009,0.001862,
1830,1720,-0.510174,-0.812799,0.999998,0.000166,-0.001225,0.002521,-0.000006,0.002521,-0.001225,-89.914069,0.002521,
890,1050,0.734214,-2.458283,0.999997,0.000210,-0.000948,0.002728,-0.000116,0.002732,-0.000951,-88.187314,0.002774,
1800,40,-0.044656,-4.996203,0.999999,0.000138,-0.000145,0.002124,-0.000958,0.002474,-0.000495,-69.916794,0.002619,
1070,1130,0.412037,-1.896900,0.999997,0.000187,-0.001249,0.003357,0.001845,0.004005,-0.001897,70.645799,0.004007,
1020,1150,0.449315,-2.019230,0.999997,0.000188,-0.001718,0.003600,0.000263,0.003613,-0.001730,87.178437,0.003614,
640,80,0.140254,-4.896071,0.999998,0.000157,-0.000831,0.002631,0.000772,0.002795,-0.000995,77.982812,0.002833,
1590,490,-0.323060,-4.029970,0.999998,0.000167,-0.001232,0.002480,0.000164,0.002487,-0.001239,87.481046,0.002487,
1240,750,-0.004000,-3.897317,0.999998,0.000138,-0.000487,0.000749,0.000105,0.000758,-0.000495,85.181604,0.000770,
1670,80,-0.069371,-4.927137,0.999999,0.000137,-0.000356,0.001953,-0.000503,0.002058,-0.000461,-78.231163,0.002160,
1270,1580,-0.023870,-0.768085,0.999998,0.000157,-0.000623,0.001730,-0.000053,0.001731,-0.000624,-88.709700,0.001754,
680,640,0.683971,-3.484739,0.999998,0.000195,-0.001314,0.002602,0.000048,0.002602,-0.001315,89.292441,0.002602,
1500,1620,-0.201082,-0.810600,0.999998,0.000175,-0.000935,0.002213,-0.000158,0.002221,-0.000943,-87.138434,0.002229,
1050,1840,0.063136,-0.326277,0.999998,0.000191,-0.000441,0.001825,-0.000047,0.001826,-0.000442,-88.821187,0.001906,
1790,1270,-0.820473,-1.935143,0.999999,0.000134,-0.001266,0.002525,0.000212,0.002537,-0.001278,86.803701,0.002537,
850,800,0.586940,-3.156340,0.999998,0.000195,-0.001595,0.002942,0.000229,0.002953,-0.001607,87.119235,0.002957,
1850,2000,-0.111930,-0.104996,0.999999,0.000129,-0.001063,0.002559,0.000742,0.002705,-0.001209,78.864683,0.002710,
1060,1780,0.077386,-0.434637,0.999998,0.000156,-0.000550,0.001871,-0.000033,0.001872,-0.000550,-89.228621,0.001924,
1830,1910,-0.279899,-0.324533,0.999998,0.000178,-0.001170,0.002606,0.000321,0.002633,-0.001197,85.179161,0.002637,
1450,900,-0.450843,-3.020306,0.999997,0.000180,-0.001750,0.003568,0.000149,0.003572,-0.001755,88.398204,0.003572,
1160,1920,0.013442,-0.178164,0.999999,0.000150,-0.000150,0.001612,-0.000049,0.001613,-0.000151,-88.395915,0.001782,
850,850,0.642745,-3.008837,0.999998,0.000176,-0.001472,0.002899,0.000307,0.002920,-0.001493,85.995817,0.002921,
1510,440,-0.212969,-4.212558,0.999998,0.000154,-0.000986,0.002271,0.000153,0.002278,-0.000993,87.319069,0.002284,
980,1570,0.198231,-0.909836,0.999998,0.000150,-0.001045,0.002236,0.000262,0.002257,-0.001066,85.470068,0.002258,
1760,600,-0.621231,-3.607094,0.999998,0.000174,-0.001337,0.002614,-0.000018,0.002614,-0.001337,-89.734306,0.002615,
1460,720,-0.246126,-3.580137,0.999998,0.000194,-0.001677,0.002768,0.000564,0.002838,-0.001748,82.875905,0.002864,
1610,30,-0.011386,-5.021635,0.999999,0.000000,0.000026,0.001685,-0.000414,0.001782,-0.000071,-76.736075,0.002018,
810,450,0.378396,-4.079128,0.999998,0.000165,-0.001199,0.002469,-0.000090,0.002471,-0.001201,-88.590962,0.002472,
1180,630,0.031235,-4.014446,0.999999,0.000150,-0.000692,0.001490,-0.000322,0.001537,-0.000738,-81.769603,0.001537,
1830,960,-0.989291,-2.673212,0.999998,0.000173,-0.001060,0.002245,-0.000065,0.002247,-0.001061,-88.872936,0.002248,
1320,1520,-0.057529,-0.890970,0.999999,0.000137,-0.000727,0.001762,-0.000259,0.001789,-0.000754,-84.117817,0.001796,
1640,1290,-0.591754,-1.799732,0.999998,0.000173,-0.001574,0.002867,0.000169,0.002873,-0.001581,87.823261,0.002878,
1540,1540,-0.273510,-1.028475,0.999998,0.000168,-0.001184,0.002434,-0.000222,0.002447,-0.001197,-86.507275,0.002447,
1650,1840,-0.201382,-0.393385,0.999998,0.000191,-0.000807,0.002244,0.000271,0.002268,-0.000831,84.955473,0.002295,
710,410,0.473360,-4.100623,0.999998,0.000184,-0.001222,0.002528,-0.000032,0.002528,-0.001223,-89.506523,0.002529,
600,600,0.753164,-3.529669,0.999998,0.000185,-0.001254,0.002547,0.000001,0.002547,-0.001254,89.988478,0.002547,
1110,1250,0.121375,-1.422578,0.999998,0.000191,-0.001458,0.002022,0.001151,0.002368,-0.001804,73.256722,0.002474,
1730,1020,-0.892245,-2.538226,0.999998,0.000162,-0.001054,0.002456,-0.000046,0.002456,-0.001055,-89.256094,0.002465,
560,1800,0.588369,-0.659145,0.999151,0.000000,-0.005266,0.000797,0.000801,0.000901,-0.005370,82.598829,0.005752,
1670,330,-0.318246,-4.363823,0.999998,0.000162,-0.001121,0.002435,-0.000034,0.002435,-0.001121,-89.454611,0.002437,
930,1190,0.534279,-2.021178,0.999998,0.000187,-0.001676,0.003219,-0.000248,0.003232,-0.001688,-87.112984,0.003233,
1630,830,-0.645375,-3.057885,0.999998,0.000175,-0.001479,0.002851,-0.000301,0.002872,-0.001500,-86.039745,0.002873,
1010,890,0.435893,-3.050444,0.999998,0.000195,-0.001815,0.003516,-0.000138,0.003520,-0.001819,-88.514980,0.003521,
1050,1380,0.156844,-1.265362,0.999998,0.000154,-0.001370,0.002332,0.000694,0.002458,-0.001496,79.720568,0.002477,
760,1300,0.676009,-1.808547,0.999998,0.000168,-0.001411,0.002718,-0.000194,0.002727,-0.001420,-87.318708,0.002728,
930,720,0.371578,-3.471889,0.999997,0.000211,-0.001722,0.002937,-0.000190,0.002945,-0.001730,-87.668421,0.002960,
890,1070,0.727302,-2.403654,0.999998,0.000194,-0.000968,0.002794,-0.000193,0.002804,-0.000978,-87.075617,0.002847,
1590,900,-0.668174,-2.872308,0.999998,0.000167,-0.001318,0.002914,-0.000362,0.002945,-0.001348,-85.146220,0.002948,
1820,1690,-0.522677,-0.879222,0.999998,0.000167,-0.001259,0.002529,-0.000019,0.002530,-0.001259,-89.712287,0.002530,
640,820,0.891914,-3.004940,0.999998,0.000144,-0.001179,0.002389,0.000170,0.002397,-0.001187,87.277330,0.002397,
1620,550,-0.394269,-3.852568,0.999998,0.000166,-0.001373,0.002567,0.000144,0.002572,-0.001378,87.909736,0.002574,
1320,410,-0.052679,-4.377677,0.999998,0.000160,-0.000649,0.001823,0.000134,0.001830,-0.000656,86.915864,0.001855,
1620,270,-0.223800,-4.533693,0.999998,0.000178,-0.000869,0.002273,-0.000148,0.002280,-0.000876,-87.314214,0.002300,
1500,1600,-0.207076,-0.854634,0.999998,0.000155,-0.000982,0.002260,-0.000178,0.002269,-0.000992,-86.860630,0.002275,
1370,1240,-0.156956,-1.502241,0.999998,0.000198,-0.001644,0.002384,-0.001103,0.002666,-0.001926,-75.646610,0.002753,
680,620,0.667004,-3.536985,0.999998,0.000205,-0.001323,0.002595,0.000023,0.002595,-0.001323,89.661739,0.002595,
1780,610,-0.655555,-3.566767,0.999998,0.000158,-0.001310,0.002597,-0.000028,0.002597,-0.001310,-89.593308,0.002597,
1590,470,-0.312706,-4.079225,0.999998,0.000180,-0.001210,0.002445,0.000154,0.002452,-0.001217,87.597297,0.002452,
1060,1760,0.081950,-0.471428,0.999998,0.000148,-0.000591,0.001901,0.000016,0.001901,-0.000592,89.634984,0.001946,
680,1990,0.088555,-0.097054,0.999999,0.000168,-0.000377,0.002328,-0.000940,0.002623,-0.000672,-72.593282,0.002725,
1490,50,-0.013514,-4.990239,0.999999,0.000107,-0.000119,0.001572,-0.000209,0.001598,-0.000145,-83.050037,0.001767,
870,780,0.530638,-3.229597,0.999998,0.000162,-0.001657,0.002994,0.000139,0.002998,-0.001661,88.294990,0.003004,
1830,1890,-0.312128,-0.376931,0.999998,0.000174,-0.001171,0.002635,0.000258,0.002653,-0.001189,86.137585,0.002657,
1370,1580,-0.092144,-0.806592,0.999998,0.000159,-0.000800,0.001950,-0.000250,0.001972,-0.000822,-84.853392,0.001981,
1790,1250,-0.839054,-1.983387,0.999998,0.000153,-0.001250,0.002488,0.000221,0.002501,-0.001263,86.633155,0.002501,
960,1570,0.220183,-0.925044,0.999999,0.000144,-0.001089,0.002303,0.000251,0.002321,-0.001108,85.791087,0.002322,
850,830,0.620218,-3.066748,0.999997,0.000188,-0.001524,0.002928,0.000281,0.002945,-0.001542,86.397551,0.002946,
1510,420,-0.204792,-4.255884,0.999998,0.000159,-0.000944,0.002215,0.000138,0.002221,-0.000950,87.500225,0.002229,
1470,1380,-0.239817,-1.353705,0.999998,0.000155,-0.001523,0.002666,-0.000538,0.002734,-0.001591,-82.792921,0.002746,
1160,1900,0.015637,-0.210418,0.999999,0.000140,-0.000182,0.001634,-0.000039,0.001634,-0.000182,-88.774744,0.001791,
1760,580,-0.604947,-3.659439,0.999998,0.000172,-0.001332,0.002586,0.000003,0.002586,-0.001332,89.956756,0.002586,
810,430,0.365845,-4.128056,0.999998,0.000167,-0.001176,0.002471,-0.000073,0.002473,-0.001177,-88.851507,0.002474,
1460,180,-0.069909,-4.768870,0.999999,0.000177,-0.000354,0.001840,-0.000170,0.001853,-0.000367,-85.596458,0.001962,
1320,1500,-0.059078,-0.925434,0.999999,0.000145,-0.000733,0.001754,-0.000268,0.001783,-0.000762,-83.929536,0.001789,
1250,540,-0.012497,-4.165038,0.999999,0.000136,-0.000655,0.001632,0.000097,0.001636,-0.000659,87.572012,0.001646,
1540,1000,-0.703314,-2.598345,0.999998,0.000175,-0.000938,0.002954,-0.000152,0.002960,-0.000944,-87.773585,0.003024,
1010,870,0.400570,-3.121499,0.999998,0.000194,-0.001896,0.003456,-0.000219,0.003464,-0.001905,-87.661420,0.003470,
910,820,0.509389,-3.142977,0.999997,0.000207,-0.001755,0.003143,0.000153,0.003148,-0.001760,88.211416,0.003155,
930,1170,0.564821,-2.088014,0.999998,0.000174,-0.001565,0.003185,-0.000306,0.003205,-0.001585,-86.329520,0.003205,
780,1170,0.772908,-2.152977,0.999998,0.000159,-0.001266,0.002644,-0.000301,0.002667,-0.001289,-85.627967,0.002668,
1600,2020,-0.015367,-0.027341,0.999999,0.000000,-0.000177,0.001703,0.000338,0.001762,-0.000236,80.100143,0.001913,
1840,530,-0.671793,-3.724495,0.999998,0.000172,-0.001275,0.002558,0.000025,0.002558,-0.001275,89.622693,0.002558,
600,580,0.738325,-3.579010,0.999998,0.000162,-0.001254,0.002528,0.000007,0.002528,-0.001254,89.900161,0.002528,
1630,810,-0.623783,-3.114874,0.999998,0.000183,-0.001536,0.002899,-0.000259,0.002914,-0.001551,-86.664206,0.002916,
710,390,0.459015,-4.151542,0.999998,0.000183,-0.001214,0.002538,-0.000030,0.002538,-0.001214,-89.547624,0.002539,
560,1790,0.600466,-0.703366,0.999312,0.000000,-0.004848,0.002457,0.000349,0.002474,-0.004865,87.273412,0.004865,
1110,1230,0.144910,-1.462089,0.999998,0.000197,-0.001495,0.002029,0.001134,0.002362,-0.001828,73.619991,0.002477,
770,110,0.115018,-4.863127,0.999998,0.000153,-0.000485,0.002163,0.000560,0.002276,-0.000598,78.544724,0.002360,
1670,370,-0.347661,-4.264094,0.999998,0.000177,-0.001164,0.002449,0.000020,0.002449,-0.001164,89.682909,0.002450,
1350,100,-0.013770,-4.915822,0.999999,0.000168,-0.000139,0.001597,-0.000080,0.001600,-0.000143,-87.374213,0.001771,
820,930,0.763001,-2.774927,0.999998,0.000171,-0.001175,0.002669,0.000306,0.002694,-0.001199,85.470170,0.002699,
1050,220,0.065618,-4.705876,0.999998,0.000179,-0.000460,0.001814,0.000059,0.001816,-0.000461,88.519145,0.001887,
730,1680,0.422632,-0.833511,0.999998,0.000203,-0.001225,0.002533,0.000004,0.002533,-0.001225,89.932177,0.002534,
1870,1590,-0.661011,-1.172428,0.999998,0.000165,-0.001260,0.002534,-0.000023,0.002534,-0.001260,-89.645638,0.002534,
810,500,0.407840,-3.954561,0.999997,0.000168,-0.001293,0.002542,-0.000103,0.002545,-0.001296,-88.464929,0.002545,
1500,1580,-0.212954,-0.898871,0.999998,0.000160,-0.001046,0.002274,-0.000240,0.002292,-0.001063,-85.889416,0.002294,
1380,1770,-0.067462,-0.447752,0.999998,0.000201,-0.000469,0.001857,0.000022,0.001857,-0.000469,89.450931,0.001932,
1760,610,-0.628214,-3.580095,0.999998,0.000169,-0.001348,0.002633,-0.000017,0.002633,-0.001348,-89.752944,0.002634,
1370,1220,-0.188723,-1.548996,0.999997,0.000227,-0.001652,0.002419,-0.001104,0.002699,-0.001932,-75.758008,0.002782,
1060,1740,0.086395,-0.510714,0.999998,0.000162,-0.000634,0.001937,0.000037,0.001938,-0.000634,89.170515,0.001976,
1790,1230,-0.858615,-2.034773,0.999999,0.000158,-0.001238,0.002474,0.000208,0.002485,-0.001249,86.809025,0.002485,
680,600,0.649793,-3.588986,0.999998,0.000202,-0.001303,0.002602,0.000023,0.002602,-0.001304,89.655741,0.002602,
1850,1980,-0.158949,-0.160556,0.999998,0.000140,-0.001170,0.002787,0.000654,0.002892,-0.001275,80.851348,0.002899,
1590,450,-0.302032,-4.130121,0.999998,0.000172,-0.001145,0.002423,0.000124,0.002427,-0.001149,88.007313,0.002428,
850,810,0.597353,-3.125961,0.999997,0.000195,-0.001569,0.002934,0.000251,0.002948,-0.001583,86.824923,0.002951,
1210,820,0.023402,-3.850047,0.999998,0.000164,-0.001123,0.000616,-0.000198,0.000639,-0.001145,-83.594132,0.001147,
1760,560,-0.590640,-3.711153,0.999997,0.000191,-0.001329,0.002600,0.000001,0.002600,-0.001329,89.988798,0.002601,
570,1610,0.675810,-1.143650,0.999723,0.001976,-0.002100,0.002608,0.000106,0.002610,-0.002102,88.707900,0.002768,
1460,160,-0.057693,-4.806656,0.999999,0.000147,-0.000308,0.001795,-0.000178,0.001810,-0.000323,-85.204988,0.001931,
810,410,0.354006,-4.178479,0.999998,0.000176,-0.001135,0.002480,-0.000047,0.002480,-0.001135,-89.262777,0.002483,
1470,1360,-0.249121,-1.407599,0.999997,0.000215,-0.001612,0.002734,-0.000534,0.002799,-0.001677,-83.092411,0.002817,
1830,1870,-0.345292,-0.430231,0.999998,0.000172,-0.001164,0.002580,0.000217,0.002593,-0.001176,86.693524,0.002597,
1170,560,0.038752,-4.121113,0.999999,0.000132,-0.000688,0.001661,-0.000243,0.001686,-0.000713,-84.157604,0.001693,
890,1510,0.328677,-1.131499,0.999998,0.000162,-0.001321,0.002524,0.000199,0.002534,-0.001331,87.051506,0.002536,
890,940,0.690772,-2.765225,0.999998,0.000169,-0.001172,0.002869,0.000354,0.002900,-0.001203,85.025126,0.002914,
1540,980,-0.689466,-2.658740,0.999998,0.000167,-0.000984,0.002961,-0.000226,0.002974,-0.000997,-86.737981,0.003028,
1340,50,-0.005775,-4.994000,0.999999,0.000120,-0.000066,0.001497,-0.000062,0.001499,-0.000068,-87.742532,0.001693,
1160,1880,0.018143,-0.244554,0.999999,0.000146,-0.000236,0.001660,-0.000028,0.001660,-0.000236,-89.159255,0.001796,
1320,1480,-0.059610,-0.960494,0.999999,0.000159,-0.000737,0.001711,-0.000323,0.001753,-0.000779,-82.619203,0.001757,
1700,1050,-0.858904,-2.465193,0.999998,0.000141,-0.001055,0.002479,0.000100,0.002482,-0.001057,88.382992,0.002491,
1010,850,0.366804,-3.190322,0.999997,0.000193,-0.001926,0.003435,-0.000315,0.003454,-0.001945,-86.643893,0.003463,
1220,200,0.003093,-4.757589,0.999998,0.000166,-0.000296,0.001678,0.000000,0.001678,-0.000296,89.999815,0.001791,
930,1150,0.594914,-2.148490,0.999998,0.000186,-0.001450,0.003162,-0.000352,0.003189,-0.001477,-85.658566,0.003192,
1840,550,-0.686041,-3.674052,0.999997,0.000189,-0.001261,0.002559,0.000012,0.002559,-0.001261,89.827119,0.002559,
1710,360,-0.384977,-4.260527,0.999998,0.000154,-0.001143,0.002462,-0.000031,0.002463,-0.001143,-89.512102,0.002465,
1670,810,-0.683165,-3.095144,0.999998,0.000167,-0.001424,0.002782,-0.000272,0.002799,-0.001442,-86.316008,0.002800,
1500,1560,-0.217344,-0.944989,0.999998,0.000174,-0.001104,0.002300,-0.000276,0.002323,-0.001126,-85.393537,0.002323,
710,370,0.444380,-4.201630,0.999998,0.000181,-0.001220,0.002532,-0.000006,0.002532,-0.001220,-89.901949,0.002533,
940,1690,0.195075,-0.670462,0.999998,0.000162,-0.000869,0.002166,0.000050,0.002166,-0.000870,89.065403,0.002180,
1180,1250,0.042815,-1.225380,0.999999,0.000146,-0.000912,0.000794,0.000686,0.001035,-0.001154,70.608581,0.001269,
1500,1150,-0.545060,-2.118357,0.999998,0.000188,-0.001576,0.003341,0.000226,0.003351,-0.001586,87.374730,0.003353,
1250,2010,-0.000678,-0.038614,0.999999,0.000113,-0.000006,0.001511,-0.000005,0.001511,-0.000006,-89.822096,0.001741,
640,780,0.857297,-3.103586,0.999998,0.000138,-0.001229,0.002480,0.000157,0.002487,-0.001235,87.577461,0.002487,
1060,1720,0.092966,-0.548382,0.999998,0.000151,-0.000656,0.001914,0.000068,0.001915,-0.000657,88.495761,0.001946,
600,560,0.721878,-3.629727,0.999998,0.000162,-0.001238,0.002570,0.000005,0.002570,-0.001238,89.927116,0.002571,
1000,1170,0.445923,-1.991561,0.999998,0.000175,-0.001814,0.003471,0.000070,0.003472,-0.001815,89.238190,0.003473,
1380,690,-0.116482,-3.794358,0.999998,0.000156,-0.001228,0.002101,0.000774,0.002273,-0.001399,77.527875,0.002293,
560,1780,0.612005,-0.735620,0.999524,0.000000,-0.004432,0.003760,0.000199,0.003765,-0.004436,88.609504,0.004782,
1630,790,-0.602223,-3.173247,0.999998,0.000181,-0.001582,0.002914,-0.000197,0.002923,-0.001590,-87.496040,0.002927,
1110,1210,0.172661,-1.502441,0.999998,0.000195,-0.001332,0.001999,0.001117,0.002339,-0.001673,73.070609,0.002410,
1700,1330,-0.642838,-1.726111,0.999997,0.000216,-0.001446,0.002724,0.000163,0.002730,-0.001452,87.759202,0.002732,
680,580,0.635241,-3.640806,0.999998,0.000175,-0.001274,0.002594,0.000010,0.002594,-0.001274,89.855485,0.002594,
1780,1510,-0.604680,-1.305734,0.999998,0.000155,-0.001282,0.002592,-0.000003,0.002592,-0.001282,-89.949724,0.002592,
1600,30,-0.012043,-5.021427,0.999999,0.000000,-0.000062,0.001656,-0.000391,0.001741,-0.000147,-77.758694,0.001931,
1020,830,0.316358,-3.282852,0.999997,0.000196,-0.001946,0.003292,-0.000479,0.003336,-0.001990,-84.819839,0.003356,
850,790,0.575655,-3.185171,0.999997,0.000193,-0.001605,0.002949,0.000201,0.002958,-0.001613,87.477188,0.002962,
1230,280,0.000816,-4.620659,0.999999,0.000132,-0.000441,0.001750,-0.000002,0.001750,-0.000441,-89.945755,0.001820,
1590,430,-0.293679,-4.177279,0.999998,0.000159,-0.001095,0.002406,0.000087,0.002408,-0.001097,88.581527,0.002411,
1470,840,-0.384719,-3.188723,0.999997,0.000214,-0.001940,0.003377,0.000190,0.003384,-0.001947,87.955105,0.003397,
1270,370,-0.021702,-4.458270,0.999998,0.000149,-0.000540,0.001756,0.000034,0.001756,-0.000540,89.162599,0.001799,
580,1610,0.662674,-1.132856,0.999998,0.000175,-0.001842,0.002551,0.000084,0.002552,-0.001843,88.911177,0.002635,
1190,620,0.024513,-4.034529,0.999999,0.000128,-0.000639,0.001505,-0.000224,0.001528,-0.000662,-84.087418,0.001532,
1790,1210,-0.871334,-2.082314,0.999998,0.000172,-0.001210,0.002466,0.000193,0.002476,-0.001220,87.008150,0.002476,
1810,1660,-0.533402,-0.945543,0.999997,0.000175,-0.001262,0.002522,-0.000034,0.002522,-0.001262,-89.485610,0.002522,
810,460,0.383627,-4.054898,0.999998,0.000149,-0.001223,0.002491,-0.000102,0.002494,-0.001226,-88.429675,0.002494,
1090,220,0.049379,-4.710597,0.999999,0.000150,-0.000352,0.001752,0.000057,0.001753,-0.000354,88.445638,0.001854,
1460,140,-0.050301,-4.839286,0.999999,0.000154,-0.000256,0.001731,-0.000152,0.001742,-0.000268,-85.642988,0.001876,
800,930,0.786338,-2.772237,0.999998,0.000159,-0.001146,0.002610,0.000294,0.002633,-0.001169,85.548003,0.002638,
1830,1850,-0.371074,-0.480834,0.999997,0.000205,-0.001181,0.002576,0.000159,0.002582,-0.001188,87.583257,0.002585,
1710,230,-0.271101,-4.582204,0.999998,0.000164,-0.000949,0.002432,-0.000281,0.002455,-0.000972,-85.275447,0.002473,
1770,1480,-0.615037,-1.376899,0.999997,0.000196,-0.001335,0.002592,-0.000001,0.002592,-0.001335,-89.991854,0.002592,
1160,1860,0.020753,-0.277309,0.999998,0.000171,-0.000278,0.001677,-0.000024,0.001677,-0.000278,-89.292043,0.001798,
1890,1130,-1.036541,-2.305571,0.999998,0.000145,-0.001065,0.002182,0.000098,0.002185,-0.001068,88.265173,0.002185,
640,1670,0.540069,-0.933223,0.999998,0.000190,-0.001236,0.002513,0.000030,0.002513,-0.001236,89.539245,0.002513,
930,1130,0.622861,-2.213416,0.999998,0.000176,-0.001331,0.003107,-0.000358,0.003136,-0.001359,-85.419384,0.003145,
890,1490,0.338587,-1.183927,0.999998,0.000173,-0.001374,0.002614,0.000212,0.002625,-0.001385,86.961372,0.002627,
600,540,0.708183,-3.682281,0.999998,0.000171,-0.001234,0.002586,-0.000004,0.002586,-0.001234,-89.938796,0.002587,
1500,1540,-0.226815,-0.992250,0.999998,0.000164,-0.001158,0.002352,-0.000287,0.002375,-0.001181,-85.351577,0.002375,
1670,790,-0.661933,-3.151485,0.999998,0.000178,-0.001435,0.002804,-0.000257,0.002820,-0.001450,-86.545645,0.002820,
1710,340,-0.368610,-4.309648,0.999997,0.000186,-0.001107,0.002474,-0.000046,0.002474,-0.001107,-89.256970,0.002479,
1300,1970,-0.006471,-0.098812,0.999999,0.000146,-0.000100,0.001554,0.000052,0.001556,-0.000102,88.215959,0.001741,
770,70,0.064720,-4.944787,0.999999,0.000148,-0.000270,0.001915,0.000560,0.002050,-0.000405,76.429258,0.002171,
1320,1460,-0.057887,-0.994686,0.999999,0.000146,-0.000736,0.001713,-0.000371,0.001768,-0.000791,-81.572224,0.001771,
1350,1580,-0.077752,-0.796995,0.999999,0.000135,-0.000688,0.001875,-0.000214,0.001892,-0.000706,-85.253694,0.001913,
1430,100,-0.026335,-4.911972,0.999998,0.000157,-0.000152,0.001654,-0.000134,0.001663,-0.000162,-85.772922,0.001834,
1860,370,-0.576590,-4.113558,0.999997,0.000197,-0.001242,0.002448,0.000025,0.002448,-0.001242,89.618517,0.002448,
1100,1770,0.059498,-0.444749,0.999998,0.000157,-0.000472,0.001849,-0.000008,0.001849,-0.000472,-89.791281,0.001922,
710,350,0.429207,-4.253354,0.999998,0.000178,-0.001228,0.002538,0.000004,0.002539,-0.001228,89.936951,0.002539,
1060,1700,0.096360,-0.586623,0.999998,0.000155,-0.000682,0.001970,0.000107,0.001974,-0.000686,87.697373,0.002004,
1540,960,-0.674578,-2.717006,0.999998,0.000163,-0.001095,0.002985,-0.000287,0.003005,-0.001116,-85.996138,0.003038,
680,560,0.620168,-3.694266,0.999998,0.000157,-0.001275,0.002584,-0.000014,0.002584,-0.001275,-89.787935,0.002584,
1630,770,-0.580815,-3.232507,0.999998,0.000203,-0.001595,0.002891,-0.000154,0.002896,-0.001601,-88.032023,0.002902,
1380,1330,-0.122807,-1.319443,0.999998,0.000184,-0.001364,0.002198,-0.000921,0.002422,-0.001589,-76.327312,0.002461,
640,760,0.839974,-3.152509,0.999998,0.000134,-0.001239,0.002486,0.000155,0.002492,-0.001245,87.623985,0.002492,
1370,1520,-0.098428,-0.923979,0.999999,0.000143,-0.000884,0.001915,-0.000396,0.001970,-0.000939,-82.100223,0.001970,
1380,670,-0.114681,-3.836791,0.999999,0.000133,-0.001168,0.002112,0.000739,0.002271,-0.001327,77.866630,0.002281,
1620,710,-0.507991,-3.415065,0.999997,0.000202,-0.001619,0.002882,-0.000018,0.002883,-0.001619,-89.776366,0.002890,
1870,320,-0.546365,-4.227752,0.999997,0.000193,-0.001236,0.002482,0.000021,0.002482,-0.001236,89.680130,0.002482,
1590,2020,-0.011921,-0.026985,0.999998,0.000000,-0.000198,0.001700,0.000349,0.001762,-0.000260,79.897647,0.001902,
1240,2010,-0.001128,-0.038609,0.999999,0.000113,-0.000009,0.001503,-0.000022,0.001504,-0.000009,-89.174754,0.001731,
1270,390,-0.022420,-4.422325,0.999998,0.000174,-0.000573,0.001769,0.000041,0.001770,-0.000574,88.992171,0.001806,
1110,1190,0.219725,-1.541409,0.999998,0.000190,-0.001038,0.001694,0.001054,0.002053,-0.001397,71.174227,0.002097,
1390,220,-0.055168,-4.708798,0.999998,0.000154,-0.000394,0.001785,-0.000065,0.001787,-0.000396,-88.298096,0.001877,
560,1770,0.615710,-0.771115,0.999468,0.000000,-0.004404,0.003047,0.000343,0.003062,-0.004420,87.367603,0.004528,
1500,1130,-0.577740,-2.183598,0.999998,0.000167,-0.001428,0.003334,0.000274,0.003350,-0.001444,86.720158,0.003361,
1280,1430,-0.028605,-1.015402,0.999998,0.000166,-0.000663,0.001483,-0.000284,0.001520,-0.000700,-82.593109,0.001522,
1170,620,0.038640,-4.023372,0.999999,0.000132,-0.000699,0.001578,-0.000362,0.001634,-0.000756,-81.176573,0.001635,
590,1610,0.649434,-1.124694,0.999998,0.000160,-0.001425,0.002510,0.000041,0.002510,-0.001425,89.406647,0.002518,
1790,1190,-0.888271,-2.132890,0.999998,0.000150,-0.001199,0.002460,0.000230,0.002474,-0.001213,86.413105,0.002475,
600,520,0.692617,-3.733863,0.999998,0.000181,-0.001254,0.002559,0.000004,0.002559,-0.001254,89.944387,0.002560,
1210,280,0.008863,-4.618984,0.999998,0.000159,-0.000433,0.001739,-0.000024,0.001739,-0.000433,-89.359904,0.001811,
1200,1940,0.006549,-0.145960,0.999999,0.000154,-0.000161,0.001589,-0.000006,0.001590,-0.000161,-89.794666,0.001750,
1460,120,-0.042404,-4.873172,0.999998,0.000156,-0.000234,0.001738,-0.000187,0.001756,-0.000252,-84.638634,0.001899,
740,1790,0.318859,-0.551567,0.999997,0.000192,-0.001002,0.002446,-0.000204,0.002458,-0.001014,-86.626670,0.002471,
1500,1520,-0.233457,-1.040586,0.999998,0.000160,-0.001196,0.002391,-0.000318,0.002419,-0.001224,-84.966915,0.002419,
1590,410,-0.282102,-4.225391,0.999998,0.000169,-0.001064,0.002367,0.000067,0.002368,-0.001065,88.887339,0.002372,
1830,1830,-0.398510,-0.532722,0.999997,0.000205,-0.001188,0.002560,0.000124,0.002564,-0.001193,88.114440,0.002566,
1720,1350,-0.652546,-1.684317,0.999998,0.000229,-0.001424,0.002708,0.000134,0.002712,-0.001428,88.147610,0.002714,
1760,540,-0.574877,-3.763429,0.999997,0.000204,-0.001307,0.002586,0.000007,0.002586,-0.001307,89.896369,0.002586,
680,540,0.604693,-3.745278,0.999998,0.000163,-0.001291,0.002595,-0.000013,0.002595,-0.001291,-89.815613,0.002595,
1480,730,-0.285741,-3.517960,0.999998,0.000191,-0.001750,0.002892,0.000448,0.002935,-0.001793,84.537375,0.002959,
1790,1170,-0.903375,-2.180935,0.999999,0.000138,-0.001169,0.002420,0.000202,0.002431,-0.001180,86.793043,0.002432,
890,1470,0.348868,-1.237229,0.999998,0.000167,-0.001410,0.002633,0.000215,0.002645,-0.001421,86.960025,0.002647,
1380,1310,-0.127819,-1.364855,0.999998,0.000187,-0.001468,0.002272,-0.000942,0.002496,-0.001692,-76.631801,0.002549,
730,1660,0.439912,-0.884505,0.999998,0.000180,-0.001203,0.002540,0.000028,0.002540,-0.001204,89.567905,0.002541,
930,1110,0.648723,-2.274310,0.999998,0.000186,-0.001205,0.003076,-0.000342,0.003103,-0.001232,-85.462665,0.003125,
1750,1480,-0.587303,-1.360820,0.999997,0.000194,-0.001353,0.002596,-0.000023,0.002596,-0.001353,-89.665693,0.002597,
1890,1120,-1.042168,-2.326754,0.999999,0.000146,-0.001054,0.002174,0.000079,0.002176,-0.001056,88.606091,0.002176,
1670,770,-0.642041,-3.207568,0.999998,0.000191,-0.001462,0.002796,-0.000203,0.002806,-0.001472,-87.278736,0.002807,
850,770,0.554224,-3.242758,0.999998,0.000184,-0.001628,0.002967,0.000154,0.002973,-0.001633,88.079221,0.002977,
1870,370,-0.588599,-4.103676,0.999998,0.000187,-0.001241,0.002434,0.000021,0.002434,-0.001241,89.667791,0.002434,
1210,620,0.012170,-4.039995,0.999999,0.000128,-0.000594,0.001463,-0.000154,0.001474,-0.000605,-85.754995,0.001482,
1710,270,-0.312082,-4.482932,0.999997,0.000192,-0.001022,0.002455,-0.000182,0.002465,-0.001032,-87.017746,0.002475,
1540,940,-0.649944,-2.778200,0.999998,0.000173,-0.001215,0.003052,-0.000357,0.003082,-0.001244,-85.250899,0.003101,
720,1430,0.617436,-1.486310,0.999998,0.000168,-0.001352,0.002654,-0.000033,0.002654,-0.001352,-89.527496,0.002654,
680,750,0.779919,-3.198590,0.999998,0.000163,-0.001297,0.002575,0.000171,0.002582,-0.001305,87.475017,0.002583,
1040,530,0.148350,-4.081581,0.999998,0.000154,-0.001041,0.002143,-0.000369,0.002185,-0.001084,-83.476605,0.002185,
1560,790,-0.486549,-3.228768,0.999998,0.000175,-0.001755,0.003091,-0.000077,0.003092,-0.001756,-89.090950,0.003102,
1320,1440,-0.058332,-1.029246,0.999999,0.000138,-0.000758,0.001694,-0.000429,0.001767,-0.000831,-80.357278,0.001768,
1110,870,0.234418,-3.490967,0.999998,0.000197,-0.000920,0.001631,-0.001051,0.002008,-0.001297,-70.260143,0.002036,
1830,1700,-0.526339,-0.863344,0.999998,0.000182,-0.001223,0.002500,-0.000020,0.002500,-0.001223,-89.696399,0.002500,
1020,1970,0.024718,-0.104474,0.999999,0.000154,-0.000145,0.001633,-0.000173,0.001649,-0.000162,-84.477452,0.001818,
1010,830,0.334708,-3.257989,0.999997,0.000198,-0.001940,0.003334,-0.000400,0.003364,-0.001970,-85.683128,0.003381,
920,2010,0.016557,-0.042209,0.999999,0.000139,-0.000012,0.001616,-0.000264,0.001657,-0.000054,-81.030191,0.001883,
1160,1840,0.023333,-0.311617,0.999998,0.000159,-0.000310,0.001720,-0.000006,0.001720,-0.000310,-89.820656,0.001833,
840,1610,0.338648,-0.925059,0.999998,0.000181,-0.001194,0.002475,0.000097,0.002478,-0.001197,88.484972,0.002478,
1870,1900,-0.346377,-0.399682,0.999997,0.000223,-0.001218,0.002565,0.000216,0.002577,-0.001231,86.748236,0.002578,
1590,30,-0.010792,-5.020913,0.999998,0.000000,-0.000125,0.001633,-0.000373,0.001709,-0.000201,-78.491985,0.001869,
1270,280,-0.017062,-4.617696,0.999999,0.000134,-0.000413,0.001774,0.000009,0.001774,-0.000413,89.765700,0.001857,
1060,700,0.149208,-3.731929,0.999998,0.000160,-0.001392,0.002352,-0.000768,0.002503,-0.001543,-78.838910,0.002526,
600,500,0.677292,-3.783412,0.999997,0.000186,-0.001252,0.002509,-0.000003,0.002509,-0.001252,-89.961656,0.002509,
1370,1570,-0.093149,-0.826250,0.999999,0.000142,-0.000811,0.001948,-0.000274,0.001975,-0.000838,-84.378712,0.001982,
1730,1600,-0.477336,-1.033828,0.999998,0.000183,-0.001277,0.002516,-0.000054,0.002517,-0.001278,-89.178549,0.002517,
760,50,0.042535,-4.980816,0.999999,0.000135,-0.000126,0.001898,0.000576,0.002050,-0.000278,75.172968,0.002224,
680,520,0.589763,-3.797251,0.999998,0.000173,-0.001293,0.002572,-0.000030,0.002572,-0.001293,-89.549348,0.002572,
1030,1840,0.071546,-0.330983,0.999998,0.000182,-0.000455,0.001844,-0.000078,0.001846,-0.000457,-88.053167,0.001923,
710,330,0.411680,-4.303456,0.999998,0.000198,-0.001221,0.002536,0.000005,0.002536,-0.001221,89.917362,0.002536,
1640,1510,-0.417624,-1.192502,0.999998,0.000156,-0.001348,0.002622,-0.000123,0.002626,-0.001352,-88.227684,0.002626,
1830,1810,-0.422557,-0.584249,0.999998,0.000202,-0.001176,0.002554,0.000061,0.002555,-0.001177,89.069815,0.002557,
890,580,0.346581,-3.816871,0.999998,0.000177,-0.001411,0.002609,-0.000211,0.002620,-0.001423,-87.000368,0.002623,
680,1170,0.895563,-2.178550,0.999998,0.000163,-0.001162,0.002444,-0.000207,0.002456,-0.001174,-86.720603,0.002457,
1210,1410,0.012819,-1.033469,0.999999,0.000120,-0.000580,0.001356,0.000156,0.001369,-0.000593,85.416239,0.001373,
890,1450,0.359291,-1.291083,0.999997,0.000194,-0.001449,0.002616,0.000212,0.002627,-0.001460,87.028566,0.002633,
1790,1150,-0.916764,-2.229750,0.999998,0.000156,-0.001143,0.002389,0.000171,0.002397,-0.001152,87.241713,0.002398,
870,1860,0.144634,-0.331680,0.999998,0.000171,-0.000677,0.002111,-0.000246,0.002132,-0.000698,-84.994422,0.002174,
1420,100,-0.024831,-4.913091,0.999999,0.000147,-0.000170,0.001638,-0.000124,0.001647,-0.000178,-86.092910,0.001807,
640,740,0.823012,-3.199354,0.999998,0.000146,-0.001255,0.002492,0.000149,0.002498,-0.001261,87.727079,0.002498,
1760,520,-0.561658,-3.814789,0.999997,0.000189,-0.001290,0.002581,0.000031,0.002581,-0.001290,89.538340,0.002581,
1670,750,-0.624206,-3.264855,0.999998,0.000189,-0.001473,0.002794,-0.000186,0.002802,-0.001481,-87.513272,0.002804,
1440,1330,-0.214227,-1.438417,0.999998,0.000184,-0.001663,0.002691,-0.000675,0.002793,-0.001766,-81.384636,0.002825,
1140,350,0.048462,-4.486184,0.999998,0.000195,-0.000602,0.001829,-0.000071,0.001832,-0.000604,-88.338400,0.001867,
1540,920,-0.626777,-2.839304,0.999998,0.000189,-0.001339,0.003072,-0.000369,0.003103,-0.001370,-85.247612,0.003110,
960,780,0.370881,-3.331613,0.999997,0.000185,-0.001879,0.003153,-0.000206,0.003162,-0.001887,-87.659060,0.003181,
1170,600,0.038100,-4.055522,0.999999,0.000131,-0.000679,0.001610,-0.000327,0.001655,-0.000725,-82.032406,0.001660,
1730,1220,-0.788583,-2.036554,0.999998,0.000160,-0.001288,0.002595,0.000276,0.002615,-0.001307,85.949290,0.002615,
850,1400,0.452043,-1.464289,0.999998,0.000193,-0.001528,0.002778,0.000090,0.002780,-0.001530,88.799462,0.002785,
930,1090,0.670557,-2.335901,0.999997,0.000197,-0.001083,0.003019,-0.000274,0.003038,-0.001102,-86.189844,0.003076,
1750,1140,-0.876361,-2.245053,0.999999,0.000136,-0.001145,0.002437,0.000211,0.002450,-0.001158,86.636400,0.002451,
1040,710,0.180969,-3.673554,0.999998,0.000179,-0.001531,0.002552,-0.000725,0.002677,-0.001655,-80.224210,0.002702,
1460,100,-0.031448,-4.909722,0.999998,0.000157,-0.000198,0.001692,-0.000196,0.001712,-0.000218,-84.151642,0.001864,
1870,740,-0.879862,-3.170546,0.999998,0.000151,-0.001230,0.002469,-0.000081,0.002471,-0.001231,-88.744396,0.002471,
1560,130,-0.076300,-4.845561,0.999999,0.000132,-0.000352,0.001885,-0.000286,0.001921,-0.000388,-82.819473,0.002032,
1890,130,-0.325903,-4.682316,0.999998,0.000192,-0.001201,0.002701,-0.000407,0.002743,-0.001243,-84.106189,0.002747,
1730,1000,-0.889679,-2.586840,0.999998,0.000162,-0.001069,0.002465,-0.000082,0.002467,-0.001071,-88.674609,0.002474,
1330,50,-0.004590,-4.993337,0.999999,0.000106,-0.000087,0.001486,-0.000058,0.001488,-0.000089,-87.889150,0.001669,
1710,1710,-0.372642,-0.741280,0.999997,0.000187,-0.001122,0.002504,0.000057,0.002505,-0.001123,89.094672,0.002509,
1110,850,0.179484,-3.524145,0.999998,0.000203,-0.001254,0.001939,-0.001107,0.002285,-0.001601,-72.625366,0.002345,
660,750,0.805960,-3.188171,0.999998,0.000155,-0.001284,0.002526,0.000163,0.002533,-0.001291,87.555819,0.002533,
1180,1430,0.030365,-1.017973,0.999999,0.000136,-0.000670,0.001485,0.000309,0.001529,-0.000714,81.996512,0.001530,
760,1980,0.074339,-0.106113,0.999999,0.000132,-0.000297,0.001969,-0.000599,0.002118,-0.000446,-76.063134,0.002233,
1320,1420,-0.056444,-1.059528,0.999999,0.000140,-0.000776,0.001634,-0.000486,0.001728,-0.000870,-79.009617,0.001728,
1540,790,-0.451593,-3.249535,0.999998,0.000193,-0.001797,0.003132,0.000001,0.003132,-0.001797,89.990623,0.003143,
560,1760,0.616870,-0.815319,0.999549,0.000000,-0.004674,0.001198,-0.000255,0.001209,-0.004685,-87.518526,0.004864,
790,2010,0.030942,-0.047700,0.999999,0.000132,-0.000190,0.001819,-0.000459,0.001919,-0.000290,-77.720576,0.002069,
1000,1970,0.027365,-0.105239,0.999999,0.000136,-0.000135,0.001665,-0.000205,0.001689,-0.000158,-83.578386,0.001865,
810,390,0.340212,-4.227339,0.999998,0.000182,-0.001122,0.002451,-0.000048,0.002452,-0.001123,-89.231562,0.002455,
600,480,0.661870,-3.834591,0.999998,0.000188,-0.001241,0.002543,-0.000005,0.002543,-0.001241,-89.924845,0.002543,
690,1860,0.295431,-0.412069,0.999998,0.000172,-0.001122,0.002532,-0.000306,0.002557,-0.001148,-85.244748,0.002562,
1580,2020,-0.010353,-0.026007,0.999999,0.000000,-0.000116,0.001683,0.000357,0.001751,-0.000184,79.188808,0.001925,
1500,1500,-0.239829,-1.087756,0.999998,0.000169,-0.001239,0.002406,-0.000333,0.002436,-0.001269,-84.815718,0.002437,
1510,400,-0.197994,-4.301871,0.999998,0.000172,-0.000918,0.002229,0.000128,0.002234,-0.000923,87.683450,0.002246,
740,50,0.045500,-4.979042,0.999999,0.000130,-0.000157,0.001971,0.000653,0.002155,-0.000341,74.231843,0.002317,
1060,1630,0.113333,-0.727139,0.999998,0.000153,-0.000796,0.002008,0.000189,0.002021,-0.000809,86.168100,0.002034,
680,500,0.575620,-3.847989,0.999998,0.000173,-0.001270,0.002562,-0.000042,0.002563,-0.001270,-89.365584,0.002563,
950,1840,0.111957,-0.350353,0.999998,0.000183,-0.000578,0.001937,-0.000119,0.001943,-0.000584,-87.304392,0.001993,
1020,770,0.248755,-3.467773,0.999998,0.000164,-0.001864,0.002971,-0.000633,0.003052,-0.001945,-82.660878,0.003091,
890,1430,0.371425,-1.342169,0.999997,0.000191,-0.001500,0.002702,0.000210,0.002712,-0.001510,87.147588,0.002718,
1830,1790,-0.443536,-0.635056,0.999998,0.000189,-0.001180,0.002535,0.000055,0.002536,-0.001181,89.153650,0.002538,
580,1140,1.024039,-2.280290,0.999999,0.000130,-0.000998,0.002223,-0.000075,0.002225,-0.001000,-88.660050,0.002228,
1790,1130,-0.927343,-2.277162,0.999998,0.000168,-0.001128,0.002398,0.000170,0.002406,-0.001136,87.247499,0.002407,
1010,810,0.307622,-3.322622,0.999997,0.000192,-0.001935,0.003163,-0.000463,0.003205,-0.001977,-84.847833,0.003234,
1590,1880,-0.125484,-0.289397,0.999998,0.000161,-0.000626,0.002033,0.000284,0.002063,-0.000656,83.973560,0.002108,
1210,1370,0.011834,-1.087664,0.999999,0.000117,-0.000550,0.001169,0.000192,0.001191,-0.000571,83.714172,0.001191,
930,1070,0.686680,-2.395499,0.999998,0.000184,-0.000973,0.003000,-0.000202,0.003011,-0.000984,-87.090558,0.003070,
1170,580,0.038421,-4.087078,0.999999,0.000120,-0.000673,0.001627,-0.000305,0.001666,-0.000713,-82.583871,0.001672,
960,980,0.652220,-2.673084,0.999998,0.000165,-0.001090,0.003229,0.000196,0.003238,-0.001099,87.413671,0.003293,
1270,410,-0.023928,-4.386424,0.999998,0.000167,-0.000579,0.001810,0.000068,0.001812,-0.000581,88.379439,0.001850,
1540,900,-0.597037,-2.901235,0.999998,0.000190,-0.001463,0.003110,-0.000366,0.003139,-0.001492,-85.454291,0.003141,
1670,730,-0.602442,-3.318719,0.999998,0.000190,-0.001493,0.002803,-0.000151,0.002808,-0.001498,-87.995117,0.002810,
1890,1430,-0.807096,-1.597196,0.999998,0.000185,-0.001290,0.002558,0.000016,0.002558,-0.001290,89.767867,0.002558,
1760,500,-0.545663,-3.867197,0.999998,0.000182,-0.001280,0.002567,0.000046,0.002568,-0.001281,89.313520,0.002568,
1040,730,0.190044,-3.620367,0.999998,0.000163,-0.001633,0.002619,-0.000752,0.002748,-0.001762,-80.258567,0.002784,
1880,450,-0.661959,-3.897420,0.999998,0.000168,-0.001243,0.002486,0.000022,0.002486,-0.001243,89.661335,0.002486,
1110,830,0.150968,-3.567055,0.999998,0.000182,-0.001477,0.002026,-0.001147,0.002368,-0.001819,-73.392718,0.002479,
560,1750,0.636714,-0.816403,0.999543,0.000000,-0.004548,0.001148,-0.000150,0.001152,-0.004552,-88.489590,0.004734,
600,460,0.647757,-3.885428,0.999998,0.000165,-0.001249,0.002529,-0.000026,0.002529,-0.001249,-89.606560,0.002529,
980,770,0.324130,-3.392743,0.999997,0.000190,-0.001870,0.003086,-0.000348,0.003110,-0.001894,-86.006224,0.003135,
1750,500,-0.532953,-3.874145,0.999998,0.000185,-0.001285,0.002558,0.000049,0.002559,-0.001286,89.271692,0.002559,
1710,1690,-0.388348,-0.791840,0.999998,0.000169,-0.001173,0.002488,0.000005,0.002488,-0.001173,89.917539,0.002489,
690,1920,0.208367,-0.261514,0.999998,0.000186,-0.000973,0.002419,-0.000522,0.002498,-0.001052,-81.454435,0.002508,
1770,1220,-0.839907,-2.050591,0.999999,0.000135,-0.001251,0.002507,0.000232,0.002522,-0.001265,86.476614,0.002522,
1720,1450,-0.570292,-1.415959,0.999998,0.000179,-0.001374,0.002659,-0.000010,0.002659,-0.001375,-89.861265,0.002659,
1320,1400,-0.055923,-1.092971,0.999999,0.000145,-0.000807,0.001632,-0.000549,0.001750,-0.000924,-77.885723,0.001751,
1580,30,-0.007699,-5.020750,0.999999,0.000000,-0.000136,0.001611,-0.000344,0.001677,-0.000201,-79.248214,0.001831,
900,1970,0.045368,-0.111153,0.999998,0.000173,-0.000214,0.001760,-0.000320,0.001811,-0.000265,-81.010191,0.001956,
760,40,0.031507,-4.999742,0.999999,0.000141,-0.000055,0.001903,0.000592,0.002068,-0.000220,74.418520,0.002272,
810,370,0.327884,-4.276805,0.999998,0.000165,-0.001127,0.002465,-0.000028,0.002465,-0.001128,-89.553916,0.002468,
1500,1480,-0.245510,-1.136985,0.999998,0.000168,-0.001289,0.002444,-0.000345,0.002476,-0.001320,-84.760252,0.002477,
1570,380,-0.245077,-4.308815,0.999999,0.000141,-0.001043,0.002304,0.000076,0.002305,-0.001044,88.701324,0.002309,
1460,80,-0.024320,-4.943057,0.999999,0.000127,-0.000145,0.001660,-0.000190,0.001679,-0.000165,-84.059458,0.001851,
1520,90,-0.041296,-4.922745,0.999999,0.000121,-0.000208,0.001732,-0.000250,0.001763,-0.000240,-82.765281,0.001913,
1690,2010,-0.035223,-0.049401,0.999999,0.000159,-0.000176,0.001827,0.000537,0.001962,-0.000311,75.887856,0.002108,
890,1410,0.383413,-1.398745,0.999997,0.000190,-0.001534,0.002786,0.000193,0.002794,-0.001543,87.442462,0.002799,
1060,1610,0.116230,-0.768897,0.999998,0.000152,-0.000814,0.002021,0.000229,0.002039,-0.000832,85.410572,0.002050,
1510,480,-0.225130,-4.119941,0.999998,0.000181,-0.001101,0.002326,0.000235,0.002342,-0.001117,86.097465,0.002343,
1020,790,0.267157,-3.407807,0.999997,0.000180,-0.001927,0.003042,-0.000606,0.003115,-0.002000,-83.147678,0.003157,
1160,1820,0.024200,-0.345689,0.999999,0.000134,-0.000349,0.001732,-0.000041,0.001733,-0.000350,-88.862715,0.001833,
680,920,0.916757,-2.776431,0.999999,0.000163,-0.001118,0.002403,0.000166,0.002411,-0.001126,87.314634,0.002413,
1540,880,-0.569097,-2.963869,0.999998,0.000188,-0.001574,0.003141,-0.000298,0.003159,-0.001593,-86.401546,0.003159,
910,1880,0.106019,-0.280684,0.999998,0.000157,-0.000472,0.001964,-0.000255,0.001990,-0.000498,-84.075037,0.002071,
1790,1110,-0.937742,-2.325159,0.999998,0.000165,-0.001127,0.002386,0.000167,0.002394,-0.001135,87.277562,0.002395,
1350,1840,-0.039866,-0.317497,0.999998,0.000171,-0.000346,0.001755,0.000024,0.001755,-0.000346,89.348326,0.001859,
1790,760,-0.798245,-3.170190,0.999998,0.000166,-0.001303,0.002545,-0.000176,0.002553,-0.001311,-87.385095,0.002554,
1830,940,-0.980047,-2.718336,0.999998,0.000199,-0.001085,0.002311,-0.000124,0.002316,-0.001089,-87.915058,0.002317,
1670,710,-0.583730,-3.375655,0.999998,0.000212,-0.001502,0.002804,-0.000097,0.002806,-0.001504,-88.715418,0.002808,
1730,980,-0.884840,-2.637104,0.999998,0.000146,-0.001072,0.002445,-0.000102,0.002448,-0.001075,-88.347538,0.002454,
570,1140,1.033623,-2.284823,0.999997,0.000183,-0.000953,0.002212,-0.000066,0.002213,-0.000954,-88.813562,0.002220,
1210,450,0.012993,-4.317929,0.999998,0.000167,-0.000606,0.001760,-0.000074,0.001762,-0.000608,-88.198324,0.001790,
1830,1770,-0.462433,-0.686216,0.999998,0.000175,-0.001182,0.002520,0.000027,0.002520,-0.001182,89.588452,0.002522,
1320,50,-0.003658,-4.993490,0.999999,0.000100,-0.000077,0.001477,-0.000048,0.001479,-0.000078,-88.236779,0.001664,
1250,620,-0.010549,-4.042072,0.999999,0.000110,-0.000574,0.001442,0.000136,0.001451,-0.000583,86.170165,0.001460,
1380,630,-0.112771,-3.919631,0.999999,0.000136,-0.001060,0.002008,0.000611,0.002125,-0.001177,79.146057,0.002129,
760,1960,0.100448,-0.146843,0.999998,0.000145,-0.000376,0.002056,-0.000576,0.002186,-0.000505,-77.335380,0.002289,
930,1050,0.698681,-2.454991,0.999998,0.000194,-0.000896,0.002951,-0.000119,0.002955,-0.000900,-88.231128,0.003029,
1110,810,0.124854,-3.606158,0.999998,0.000169,-0.001464,0.002036,-0.001139,0.002374,-0.001802,-73.470154,0.002478,
770,1220,0.739938,-2.021860,0.999998,0.000158,-0.001354,0.002710,-0.000300,0.002732,-0.001376,-85.795078,0.002732,
1750,1690,-0.436812,-0.821278,0.999998,0.000187,-0.001207,0.002540,-0.000020,0.002540,-0.001207,-89.690849,0.002541,
1870,450,-0.649540,-3.905465,0.999998,0.000162,-0.001248,0.002497,0.000023,0.002497,-0.001248,89.652418,0.002497,
1010,860,0.383504,-3.155441,0.999997,0.000197,-0.001921,0.003435,-0.000264,0.003448,-0.001934,-87.181074,0.003456,
1570,2020,-0.009978,-0.026775,0.999999,0.000000,-0.000031,0.001657,0.000365,0.001732,-0.000107,78.311427,0.001942,
600,440,0.633172,-3.935642,0.999998,0.000166,-0.001258,0.002494,-0.000043,0.002495,-0.001259,-89.337973,0.002495,
670,580,0.647880,-3.633965,0.999998,0.000193,-0.001290,0.002597,0.000015,0.002597,-0.001290,89.773612,0.002597,
690,1900,0.239094,-0.311122,0.999998,0.000190,-0.001058,0.002503,-0.000436,0.002556,-0.001111,-83.115829,0.002563,
1060,1590,0.119676,-0.809398,0.999999,0.000151,-0.000832,0.002038,0.000255,0.002060,-0.000854,84.963441,0.002070,
1710,1670,-0.402585,-0.841405,0.999998,0.000172,-0.001213,0.002488,-0.000022,0.002488,-0.001213,-89.661349,0.002488,
1770,1920,-0.204563,-0.260804,0.999998,0.000151,-0.000939,0.002403,0.000524,0.002483,-0.001019,81.286805,0.002496,
1750,1220,-0.813705,-2.044309,0.999998,0.000156,-0.001283,0.002552,0.000267,0.002570,-0.001301,86.033516,0.002570,
890,1390,0.396826,-1.453131,0.999997,0.000194,-0.001575,0.002808,0.000159,0.002814,-0.001581,87.918877,0.002821,
1780,1610,-0.533448,-1.049725,0.999998,0.000168,-0.001234,0.002540,-0.000045,0.002540,-0.001235,-89.311520,0.002541,
1320,1380,-0.055925,-1.124538,0.999998,0.000157,-0.000823,0.001576,-0.000625,0.001729,-0.000976,-76.242410,0.001734,
1700,1450,-0.542589,-1.400733,0.999997,0.000209,-0.001398,0.002673,-0.000030,0.002673,-0.001398,-89.584108,0.002674,
1160,1800,0.027776,-0.378943,0.999998,0.000143,-0.000386,0.001735,-0.000029,0.001735,-0.000386,-89.205235,0.001822,
680,940,0.926972,-2.727138,0.999998,0.000148,-0.001115,0.002416,0.000184,0.002426,-0.001125,87.025003,0.002428,
1670,60,-0.045724,-4.965916,0.999999,0.000143,-0.000263,0.001854,-0.000510,0.001970,-0.000380,-77.131103,0.002090,
880,1970,0.050046,-0.113638,0.999999,0.000133,-0.000300,0.001793,-0.000324,0.001842,-0.000349,-81.399392,0.001958,
1270,1340,-0.019243,-1.127405,0.999998,0.000158,-0.000593,0.001080,-0.000409,0.001175,-0.000688,-76.961982,0.001180,
1540,860,-0.541840,-3.026313,0.999997,0.000196,-0.001669,0.003179,-0.000256,0.003192,-0.001683,-86.985219,0.003194,
1510,460,-0.217373,-4.166190,0.999998,0.000167,-0.001043,0.002293,0.000204,0.002305,-0.001055,86.507528,0.002308,
1270,430,-0.023895,-4.351134,0.999998,0.000169,-0.000578,0.001777,0.000073,0.001779,-0.000581,88.215960,0.001815,
1570,360,-0.234558,-4.355143,0.999998,0.000171,-0.001015,0.002294,0.000054,0.002295,-0.001016,89.059919,0.002300,
890,1840,0.145643,-0.366624,0.999998,0.000186,-0.000682,0.002114,-0.000198,0.002128,-0.000696,-85.965070,0.002170,
1670,690,-0.568309,-3.432689,0.999997,0.000199,-0.001510,0.002748,-0.000077,0.002750,-0.001512,-88.957788,0.002754,
970,700,0.288821,-3.584436,0.999998,0.000184,-0.001640,0.002817,-0.000409,0.002855,-0.001677,-84.800675,0.002869,
1830,300,-0.480066,-4.315069,0.999997,0.000191,-0.001213,0.002529,-0.000022,0.002529,-0.001213,-89.659777,0.002529,
1640,1110,-0.769297,-2.304750,0.999998,0.000191,-0.001119,0.002651,0.000266,0.002670,-0.001138,85.979627,0.002679,
1830,1750,-0.483626,-0.736598,0.999998,0.000189,-0.001215,0.002538,0.000008,0.002538,-0.001215,89.875716,0.002539,
750,1620,0.442303,-0.969630,0.999998,0.000176,-0.001242,0.002501,0.000065,0.002502,-0.001243,88.999491,0.002502,
1210,430,0.013801,-4.353987,0.999998,0.000161,-0.000600,0.001781,-0.000054,0.001783,-0.000601,-88.701873,0.001814,
1850,740,-0.854260,-3.184348,0.999999,0.000159,-0.001251,0.002494,-0.000109,0.002497,-0.001254,-88.329683,0.002497,
1730,960,-0.878822,-2.685117,0.999998,0.000152,-0.001097,0.002493,-0.000179,0.002502,-0.001106,-87.159079,0.002507,
1530,50,-0.019064,-4.988842,0.999999,0.000132,-0.000053,0.001645,-0.000262,0.001684,-0.000093,-81.441268,0.001894,
1790,1090,-0.947645,-2.372022,0.999998,0.000160,-0.001102,0.002342,0.000084,0.002344,-0.001104,88.600351,0.002346,
680,1230,0.847279,-2.031778,0.999998,0.000146,-0.001243,0.002500,-0.000224,0.002513,-0.001256,-86.582706,0.002513,
1010,790,0.287687,-3.384733,0.999998,0.000188,-0.001927,0.003077,-0.000522,0.003131,-0.001981,-84.102551,0.003168,
770,1100,0.834474,-2.337613,0.999998,0.000171,-0.001106,0.002535,-0.000223,0.002548,-0.001119,-86.509216,0.002555,
980,420,0.179799,-4.273642,0.999998,0.000173,-0.000964,0.002201,-0.000170,0.002210,-0.000973,-86.934229,0.002215,
1000,830,0.354403,-3.235606,0.999998,0.000195,-0.001948,0.003352,-0.000302,0.003369,-0.001965,-86.745288,0.003385,
1760,480,-0.533199,-3.918240,0.999998,0.000185,-0.001263,0.002551,0.000047,0.002552,-0.001264,89.290537,0.002552,
1570,30,-0.006978,-5.021027,0.999999,0.000000,-0.000088,0.001603,-0.000320,0.001661,-0.000147,-79.642580,0.001839,
1320,750,-0.056661,-3.799465,0.999999,0.000147,-0.000967,0.001458,0.000934,0.001776,-0.001285,71.199461,0.001834,
1420,1030,-0.559838,-2.506662,0.999996,0.000226,-0.002646,0.005748,0.000051,0.005748,-0.002646,89.654878,0.005754,
1070,1160,0.343636,-1.808202,0.999997,0.000175,-0.001406,0.002824,0.001210,0.003145,-0.001728,75.112648,0.003151,
850,750,0.533727,-3.303532,0.999997,0.000208,-0.001623,0.002927,0.000108,0.002929,-0.001625,88.641867,0.002935,
1500,1460,-0.252889,-1.185182,0.999998,0.000174,-0.001364,0.002505,-0.000370,0.002540,-0.001399,-84.590552,0.002544,
650,400,0.540996,-4.078495,0.999997,0.000190,-0.001244,0.002541,-0.000049,0.002542,-0.001244,-89.253916,0.002542,
1780,1590,-0.547717,-1.100543,0.999998,0.000189,-0.001275,0.002522,-0.000047,0.002522,-0.001276,-89.286370,0.002522,
890,1370,0.411510,-1.510351,0.999997,0.000196,-0.001634,0.002870,0.000150,0.002875,-0.001639,88.092336,0.002885,
680,960,0.937778,-2.678511,0.999998,0.000159,-0.001112,0.002370,0.000125,0.002375,-0.001117,87.952604,0.002376,
810,350,0.312780,-4.327185,0.999998,0.000161,-0.001122,0.002417,-0.000016,0.002417,-0.001122,-89.746897,0.002420,
1160,680,0.043190,-3.926847,0.999999,0.000149,-0.000714,0.001453,-0.000551,0.001585,-0.000846,-76.522272,0.001586,
1730,500,-0.508119,-3.889777,0.999997,0.000190,-0.001304,0.002555,0.000060,0.002556,-0.001305,89.110383,0.002557,
1840,1970,-0.170884,-0.176708,0.999998,0.000147,-0.001164,0.002685,0.000610,0.002779,-0.001258,81.209885,0.002783,
1060,1570,0.120991,-0.850251,0.999999,0.000132,-0.000852,0.002029,0.000276,0.002055,-0.000878,84.567095,0.002062,
1250,600,-0.011170,-4.070643,0.999999,0.000132,-0.000616,0.001478,0.000122,0.001485,-0.000623,86.666596,0.001491,
1780,1830,-0.341107,-0.492552,0.999998,0.000195,-0.001136,0.002535,0.000211,0.002547,-0.001148,86.725826,0.002552,
560,1740,0.676017,-0.771541,0.999579,0.000000,-0.004370,0.002692,0.000310,0.002706,-0.004384,87.489875,0.004424,
760,1940,0.126839,-0.189939,0.999998,0.000163,-0.000496,0.002197,-0.000588,0.002320,-0.000619,-78.196248,0.002402,
740,990,0.879023,-2.613100,0.999998,0.000160,-0.001072,0.002450,0.000085,0.002452,-0.001074,88.625507,0.002458,
1260,1970,-0.002584,-0.098547,0.999999,0.000147,-0.000076,0.001546,0.000020,0.001546,-0.000076,89.276963,0.001743,
1110,790,0.110149,-3.647952,0.999998,0.000170,-0.001423,0.002025,-0.001134,0.002364,-0.001762,-73.333070,0.002457,
1320,260,-0.033057,-4.649491,0.999998,0.000148,-0.000434,0.001730,-0.000004,0.001730,-0.000434,-89.889971,0.001800,
1590,390,-0.272744,-4.271082,0.999998,0.000174,-0.001059,0.002343,0.000068,0.002344,-0.001060,88.851119,0.002348,
1670,50,-0.033738,-4.983581,0.999999,0.000107,-0.000218,0.001811,-0.000485,0.001921,-0.000328,-77.229954,0.002056,
930,1030,0.704372,-2.513809,0.999997,0.000197,-0.000875,0.002894,-0.000008,0.002894,-0.000875,-89.882935,0.002969,
1710,1650,-0.416728,-0.891300,0.999998,0.000162,-0.001234,0.002515,-0.000033,0.002516,-0.001234,-89.495655,0.002516,
1540,840,-0.514019,-3.090195,0.999997,0.000202,-0.001735,0.003218,-0.000185,0.003225,-0.001742,-87.859194,0.003228,
870,500,0.332725,-4.002959,0.999999,0.000184,-0.001260,0.002462,-0.000177,0.002471,-0.001268,-87.282343,0.002471,
1090,910,0.360493,-3.307951,0.999998,0.000182,-0.000820,0.002515,-0.001701,0.003230,-0.001535,-67.222139,0.003231,
970,280,0.132286,-4.566591,0.999998,0.000164,-0.000697,0.002055,0.000039,0.002055,-0.000698,89.182117,0.002090,
750,1740,0.353897,-0.669522,0.999998,0.000174,-0.001093,0.002473,-0.000082,0.002475,-0.001094,-88.679670,0.002481,
1630,750,-0.561917,-3.289577,0.999998,0.000189,-0.001594,0.002883,-0.000134,0.002887,-0.001598,-88.292032,0.002893,
840,1590,0.349623,-0.974690,0.999998,0.000163,-0.001196,0.002492,0.000123,0.002496,-0.001200,88.087660,0.002497,
1460,60,-0.015165,-4.976879,0.999999,0.000102,-0.000063,0.001580,-0.000178,0.001599,-0.000082,-83.900253,0.001801,
1580,170,-0.116601,-4.764123,0.999998,0.000189,-0.000588,0.002019,-0.000258,0.002045,-0.000613,-84.410927,0.002099,
1670,670,-0.550615,-3.485786,0.999997,0.000206,-0.001485,0.002750,-0.000050,0.002751,-0.001486,-89.324099,0.002754,
1060,1680,0.102161,-0.627350,0.999998,0.000157,-0.000720,0.001993,0.000125,0.001998,-0.000725,87.373865,0.002023,
1210,410,0.012026,-4.389803,0.999998,0.000186,-0.000593,0.001801,-0.000048,0.001802,-0.000594,-88.855441,0.001836,
890,1820,0.160556,-0.410632,0.999998,0.000138,-0.000718,0.002113,-0.000164,0.002123,-0.000728,-86.693973,0.002157,
1830,1730,-0.501804,-0.787283,0.999998,0.000178,-0.001216,0.002515,0.000005,0.002515,-0.001216,89.921076,0.002516,
980,830,0.393321,-3.199503,0.999998,0.000178,-0.001950,0.003352,-0.000132,0.003355,-0.001954,-88.574211,0.003371,
1380,150,-0.031947,-4.833148,0.999999,0.000118,-0.000210,0.001694,-0.000104,0.001700,-0.000216,-86.872076,0.001851,
1420,840,-0.285129,-3.308729,0.999998,0.000187,-0.001944,0.003167,0.000654,0.003249,-0.002026,82.824048,0.003282,
640,720,0.804352,-3.251311,0.999998,0.000155,-0.001269,0.002521,0.000128,0.002525,-0.001273,88.066333,0.002525,
1730,940,-0.867448,-2.736817,0.999998,0.000148,-0.001130,0.002503,-0.000216,0.002515,-0.001143,-86.608404,0.002519,
620,1070,1.009544,-2.425379,0.999998,0.000177,-0.001041,0.002215,-0.000047,0.002216,-0.001041,-89.172805,0.002217,
1120,350,0.060064,-4.480730,0.999998,0.000146,-0.000588,0.001853,-0.000077,0.001856,-0.000591,-88.187878,0.001896,
1790,1510,-0.618102,-1.314446,0.999998,0.000163,-0.001280,0.002575,-0.000015,0.002575,-0.001280,-89.769710,0.002575,
750,1600,0.455307,-1.020188,0.999998,0.000173,-0.001260,0.002534,0.000070,0.002535,-0.001261,88.945214,0.002535,
710,310,0.396795,-4.354980,0.999998,0.000200,-0.001205,0.002506,0.000033,0.002507,-0.001205,89.492216,0.002507,
1270,1720,-0.019859,-0.519593,0.999998,0.000199,-0.000520,0.001779,-0.000007,0.001779,-0.000520,-89.814401,0.001830,
1560,2020,-0.011011,-0.027148,0.999999,0.000000,-0.000025,0.001616,0.000369,0.001696,-0.000104,77.882460,0.001901,
590,1230,0.953388,-2.074642,0.999999,0.000127,-0.001132,0.002318,-0.000076,0.002319,-0.001133,-88.734654,0.002320,
1620,630,-0.443761,-3.639804,0.999997,0.000200,-0.001518,0.002728,0.000083,0.002730,-0.001520,88.874108,0.002736,
970,330,0.154633,-4.462180,0.999998,0.000160,-0.000790,0.002127,-0.000050,0.002128,-0.000790,-89.021164,0.002151,
1260,1510,-0.018379,-0.884751,0.999998,0.000151,-0.000630,0.001651,-0.000125,0.001658,-0.000637,-86.865636,0.001672,
1760,440,-0.504325,-4.018979,0.999998,0.000167,-0.001263,0.002530,0.000034,0.002530,-0.001264,89.481600,0.002530,
1270,1250,-0.030859,-1.202859,0.999999,0.000144,-0.000870,0.000657,-0.000498,0.000805,-0.001018,-73.447487,0.001074,
1520,50,-0.017354,-4.988418,0.999999,0.000115,-0.000091,0.001628,-0.000233,0.001659,-0.000122,-82.428103,0.001849,
600,420,0.619943,-3.984857,0.999998,0.000168,-0.001259,0.002517,-0.000044,0.002518,-0.001260,-89.338760,0.002518,
890,1350,0.426823,-1.567715,0.999997,0.000211,-0.001671,0.002900,0.000106,0.002902,-0.001674,88.668666,0.002914,
1500,1440,-0.260085,-1.237678,0.999998,0.000182,-0.001421,0.002546,-0.000402,0.002586,-0.001461,-84.267496,0.002593,
1390,700,-0.130559,-3.756428,0.999998,0.000137,-0.001330,0.002209,0.000793,0.002379,-0.001499,77.924267,0.002406,
1010,1210,0.358541,-1.832353,0.999998,0.000181,-0.001970,0.003427,0.000337,0.003448,-0.001991,86.435608,0.003462,
1600,1090,-0.741050,-2.351861,0.999998,0.000179,-0.001046,0.002737,0.000239,0.002752,-0.001061,86.392385,0.002776,
670,320,0.452317,-4.295909,0.999997,0.000191,-0.001200,0.002515,0.000022,0.002515,-0.001200,89.654567,0.002516,
690,2010,0.051184,-0.054216,0.999999,0.000175,-0.000230,0.002087,-0.000830,0.002354,-0.000497,-72.194606,0.002481,
1110,770,0.101072,-3.688098,0.999998,0.000179,-0.001342,0.001954,-0.001093,0.002283,-0.001671,-73.222862,0.002364,
1160,1780,0.030316,-0.416261,0.999998,0.000152,-0.000408,0.001768,-0.000012,0.001768,-0.000408,-89.695650,0.001852,
1790,800,-0.833953,-3.069451,0.999999,0.000137,-0.001263,0.002491,-0.000218,0.002504,-0.001276,-86.685471,0.002504,
810,330,0.300186,-4.374041,0.999998,0.000172,-0.001092,0.002401,0.000013,0.002401,-0.001092,89.786171,0.002404,
1230,620,-0.000083,-4.045379,0.999998,0.000139,-0.000587,0.001443,-0.000028,0.001443,-0.000587,-89.220893,0.001451,
1240,1970,-0.001884,-0.098453,0.999999,0.000126,-0.000075,0.001539,-0.000001,0.001539,-0.000075,-89.971563,0.001735,
680,980,0.944303,-2.632713,0.999998,0.000164,-0.001086,0.002345,0.000054,0.002346,-0.001087,89.093396,0.002348,
560,1730,0.647363,-0.850249,0.999496,0.000000,-0.004590,0.004770,0.000518,0.004799,-0.004619,86.842254,0.005440,
1760,1830,-0.317963,-0.476787,0.999997,0.000221,-0.001151,0.002521,0.000195,0.002532,-0.001162,86.964709,0.002535,
930,1010,0.700067,-2.569473,0.999998,0.000185,-0.000897,0.002914,0.000121,0.002918,-0.000901,88.187097,0.002988,
1050,1560,0.131525,-0.877258,0.999998,0.000140,-0.000893,0.002040,0.000270,0.002064,-0.000918,84.789501,0.002069,
1710,1630,-0.432674,-0.942343,0.999998,0.000156,-0.001230,0.002525,-0.000054,0.002526,-0.001231,-89.177269,0.002526,
950,300,0.155950,-4.514900,0.999997,0.000186,-0.000783,0.002106,0.000022,0.002106,-0.000783,89.561773,0.002129,
760,1920,0.153758,-0.235287,0.999998,0.000161,-0.000587,0.002199,-0.000538,0.002300,-0.000688,-79.440243,0.002361,
1670,40,-0.024408,-5.001329,0.999999,0.000115,-0.000173,0.001788,-0.000469,0.001894,-0.000280,-77.215181,0.002045,
1540,820,-0.487025,-3.156594,0.999997,0.000208,-0.001778,0.003173,-0.000118,0.003176,-0.001781,-88.641235,0.003184,
1320,1360,-0.056035,-1.156312,0.999998,0.000152,-0.000841,0.001566,-0.000725,0.001767,-0.001042,-74.472707,0.001777,
1450,1990,-0.017001,-0.072802,0.999998,0.000163,-0.000088,0.001621,0.000184,0.001641,-0.000108,83.929135,0.001835,
1580,150,-0.100917,-4.803767,0.999999,0.000136,-0.000542,0.001962,-0.000303,0.001998,-0.000578,-83.188067,0.002056,
980,810,0.367628,-3.267477,0.999997,0.000198,-0.001963,0.003258,-0.000234,0.003269,-0.001973,-87.440645,0.003292,
1360,150,-0.027193,-4.833565,0.999999,0.000136,-0.000225,0.001661,-0.000099,0.001666,-0.000230,-87.009074,0.001806,
1790,1530,-0.602029,-1.261097,0.999998,0.000175,-0.001283,0.002574,-0.000041,0.002574,-0.001283,-89.398142,0.002574,
1510,1880,-0.086716,-0.271577,0.999998,0.000159,-0.000487,0.001882,0.000177,0.001896,-0.000500,85.741361,0.001965,
1620,30,-0.010626,-5.020968,0.999999,0.000000,0.000035,0.001698,-0.000435,0.001805,-0.000073,-76.182724,0.002044,
1670,650,-0.533883,-3.540533,0.999997,0.000202,-0.001461,0.002758,-0.000013,0.002758,-0.001461,-89.829263,0.002759,
1760,420,-0.490460,-4.069187,0.999997,0.000188,-0.001240,0.002529,0.000036,0.002529,-0.001241,89.451791,0.002529,
890,1330,0.444932,-1.627075,0.999998,0.000214,-0.001689,0.002955,0.000069,0.002956,-0.001690,89.150692,0.002966,
1830,1930,-0.243709,-0.270588,0.999998,0.000168,-0.001124,0.002666,0.000407,0.002710,-0.001167,83.937981,0.002718,
1800,550,-0.634893,-3.706041,0.999998,0.000182,-0.001293,0.002571,0.000015,0.002571,-0.001293,89.782736,0.002571,
1530,1840,-0.121361,-0.355301,0.999999,0.000164,-0.000549,0.002022,0.000167,0.002033,-0.000560,86.303752,0.002100,
820,1830,0.205199,-0.413550,0.999998,0.000152,-0.000791,0.002257,-0.000266,0.002280,-0.000814,-85.052998,0.002311,
1370,1550,-0.095154,-0.864383,0.999998,0.000143,-0.000833,0.001950,-0.000326,0.001988,-0.000871,-83.410272,0.001993,
1040,750,0.199562,-3.566919,0.999998,0.000170,-0.001705,0.002692,-0.000767,0.002822,-0.001835,-80.379095,0.002864,
1530,1320,-0.378193,-1.607550,0.999998,0.000185,-0.001764,0.002992,-0.000195,0.003000,-0.001772,-87.656090,0.003017,
1880,240,-0.477603,-4.415311,0.999998,0.000176,-0.001212,0.002428,-0.000033,0.002428,-0.001213,-89.474329,0.002428,
690,1960,0.140467,-0.166216,0.999998,0.000143,-0.000734,0.002276,-0.000680,0.002422,-0.000880,-77.844420,0.002452,
570,950,1.050804,-2.678890,0.999996,0.000232,-0.000924,0.002060,0.000000,0.002060,-0.000924,89.997086,0.002063,
1670,780,-0.651568,-3.180022,0.999998,0.000179,-0.001447,0.002799,-0.000236,0.002812,-0.001460,-86.828132,0.002813,
1500,1420,-0.269364,-1.288854,0.999998,0.000182,-0.001467,0.002602,-0.000407,0.002642,-0.001508,-84.341967,0.002651,
640,700,0.785981,-3.302590,0.999998,0.000156,-0.001271,0.002541,0.000109,0.002544,-0.001274,88.368594,0.002544,
600,380,0.589187,-4.084969,0.999998,0.000157,-0.001231,0.002463,-0.000026,0.002464,-0.001231,-89.589769,0.002464,
1270,1230,-0.044625,-1.212685,0.999998,0.000149,-0.001163,0.000691,-0.000323,0.000746,-0.001218,-80.388790,0.001228,
710,260,0.347788,-4.480124,0.999998,0.000218,-0.001164,0.002508,0.000145,0.002513,-0.001170,87.739519,0.002515,
1300,50,-0.003393,-4.993588,0.999999,0.000129,-0.000043,0.001493,-0.000043,0.001494,-0.000044,-88.395328,0.001700,
1010,1230,0.327541,-1.765293,0.999998,0.000185,-0.001953,0.003267,0.000411,0.003299,-0.001986,85.522820,0.003322,
850,520,0.367508,-3.935717,0.999998,0.000177,-0.001311,0.002549,-0.000163,0.002556,-0.001318,-87.579962,0.002556,
1180,1210,0.093810,-1.256772,0.999998,0.000140,-0.001426,0.000707,0.000165,0.000720,-0.001439,85.596257,0.001439,
700,230,0.326472,-4.548612,0.999997,0.000193,-0.001158,0.002504,0.000180,0.002513,-0.001167,87.191844,0.002515,
1560,30,-0.006943,-5.021637,0.999999,0.000000,-0.000010,0.001609,-0.000313,0.001667,-0.000068,-79.429060,0.001887,
940,150,0.076277,-4.813706,0.999999,0.000144,-0.000391,0.001872,0.000224,0.001894,-0.000412,84.400244,0.001992,
680,1420,0.678534,-1.540853,0.999997,0.000183,-0.001333,0.002595,-0.000065,0.002597,-0.001334,-89.058860,0.002597,
1620,610,-0.432210,-3.692879,0.999998,0.000166,-0.001464,0.002680,0.000112,0.002683,-0.001467,88.456238,0.002687,
1790,780,-0.815476,-3.119097,0.999999,0.000161,-0.001304,0.002518,-0.000192,0.002528,-0.001314,-87.129766,0.002528,
1710,1610,-0.445397,-0.993885,0.999998,0.000170,-0.001248,0.002525,-0.000068,0.002526,-0.001249,-88.969256,0.002526,
800,1830,0.221016,-0.421655,0.999998,0.000151,-0.000894,0.002315,-0.000231,0.002331,-0.000910,-85.907487,0.002350,
1670,630,-0.517866,-3.597034,0.999998,0.000172,-0.001425,0.002709,0.000015,0.002709,-0.001425,89.785318,0.002710,
560,1720,0.643983,-0.933799,0.999598,0.000000,-0.004600,0.004892,0.000715,0.004945,-0.004654,85.719129,0.005550,
1760,400,-0.475205,-4.122337,0.999997,0.000189,-0.001233,0.002535,0.000041,0.002535,-0.001234,89.381764,0.002536,
600,1470,0.741346,-1.473304,0.999998,0.000171,-0.001278,0.002539,-0.000009,0.002539,-0.001278,-89.859271,0.002539,
890,570,0.342106,-3.843606,0.999998,0.000176,-0.001380,0.002580,-0.000211,0.002591,-0.001391,-86.955459,0.002594,
830,560,0.417088,-3.814242,0.999997,0.000178,-0.001383,0.002613,-0.000128,0.002617,-0.001387,-88.161877,0.002619,
1250,580,-0.010524,-4.100709,0.999999,0.000153,-0.000631,0.001562,0.000111,0.001567,-0.000636,87.120458,0.001576,
1510,1840,-0.110092,-0.349534,0.999998,0.000168,-0.000580,0.001974,0.000112,0.001979,-0.000585,87.490995,0.002033,
1180,1970,0.005810,-0.098964,0.999999,0.000140,-0.000072,0.001535,-0.000031,0.001536,-0.000073,-88.911464,0.001733,
1160,1740,0.035462,-0.485921,0.999998,0.000159,-0.000467,0.001795,0.000001,0.001795,-0.000467,89.982991,0.001862,
640,690,0.778514,-3.327329,0.999998,0.000149,-0.001262,0.002551,0.000099,0.002554,-0.001264,88.513063,0.002554,
1210,390,0.011908,-4.426623,0.999998,0.000175,-0.000561,0.001788,-0.000056,0.001789,-0.000562,-88.640898,0.001830,
970,370,0.171064,-4.377506,0.999998,0.000156,-0.000880,0.002149,-0.000109,0.002153,-0.000884,-87.946745,0.002164,
950,280,0.146114,-4.557337,0.999998,0.000140,-0.000741,0.002102,0.000050,0.002102,-0.000742,88.995085,0.002133,
1630,1880,-0.150685,-0.300913,0.999998,0.000171,-0.000579,0.002115,0.000337,0.002157,-0.000620,82.967028,0.002221,
1110,750,0.092490,-3.727720,0.999998,0.000190,-0.001258,0.001941,-0.001003,0.002230,-0.001546,-73.961799,0.002285,
1050,1540,0.134455,-0.916875,0.999998,0.000153,-0.000923,0.002060,0.000317,0.002093,-0.000956,83.996850,0.002096,
810,310,0.284641,-4.423557,0.999998,0.000203,-0.001056,0.002381,0.000065,0.002383,-0.001057,88.908896,0.002388,
600,1070,1.027732,-2.427597,0.999998,0.000179,-0.000998,0.002164,-0.000040,0.002165,-0.000998,-89.280732,0.002167,
1320,1320,-0.058083,-1.218674,0.999998,0.000154,-0.000901,0.001487,-0.000857,0.001762,-0.001177,-72.167583,0.001795,
1450,1970,-0.026021,-0.106146,0.999999,0.000146,-0.000141,0.001635,0.000176,0.001652,-0.000158,84.381592,0.001823,
1370,1530,-0.097335,-0.904323,0.999999,0.000140,-0.000864,0.001915,-0.000370,0.001964,-0.000913,-82.549885,0.001965,
1880,230,-0.465815,-4.440185,0.999998,0.000169,-0.001211,0.002437,-0.000057,0.002438,-0.001212,-89.112063,0.002438,
1120,750,0.082423,-3.749699,0.999998,0.000196,-0.001173,0.001790,-0.001007,0.002100,-0.001482,-72.900791,0.002158,
1060,1640,0.111130,-0.707544,0.999998,0.000150,-0.000786,0.001998,0.000179,0.002009,-0.000798,86.331659,0.002024,
1500,90,-0.035073,-4.924206,0.999999,0.000126,-0.000225,0.001718,-0.000208,0.001740,-0.000247,-83.960439,0.001883,
920,1630,0.239246,-0.815937,0.999998,0.000147,-0.001055,0.002315,0.000154,0.002322,-0.001062,87.388619,0.002324,
1500,1400,-0.277556,-1.341576,0.999998,0.000181,-0.001526,0.002688,-0.000412,0.002728,-0.001566,-84.472396,0.002738,
930,1430,0.312191,-1.300641,0.999998,0.000178,-0.001447,0.002629,0.000296,0.002650,-0.001468,85.860444,0.002655,
1840,1030,-1.011739,-2.514583,0.999998,0.000194,-0.001058,0.002259,0.000010,0.002260,-0.001058,89.832037,0.002261,
1790,1550,-0.588983,-1.210793,0.999998,0.000195,-0.001294,0.002570,-0.000043,0.002571,-0.001295,-89.361512,0.002571,
690,2000,0.066453,-0.073613,0.999999,0.000184,-0.000315,0.002185,-0.000860,0.002452,-0.000582,-72.730650,0.002562,
1530,1300,-0.396715,-1.668879,0.999996,0.000195,-0.001792,0.003079,-0.000149,0.003084,-0.001797,-88.253839,0.003098,
600,360,0.571802,-4.135590,0.999998,0.000172,-0.001219,0.002501,-0.000030,0.002501,-0.001219,-89.536097,0.002502,
1650,780,-0.622884,-3.190249,0.999998,0.000191,-0.001519,0.002857,-0.000228,0.002869,-0.001531,-87.023517,0.002871,
1270,830,-0.049548,-3.823133,0.999998,0.000161,-0.001206,0.000723,0.000274,0.000761,-0.001244,82.082521,0.001254,
760,1900,0.178925,-0.277865,0.999998,0.000144,-0.000689,0.002292,-0.000500,0.002373,-0.000771,-80.730529,0.002421,
1290,50,-0.002798,-4.994188,0.999999,0.000118,-0.000029,0.001488,-0.000035,0.001489,-0.000030,-88.679395,0.001702,
640,680,0.769092,-3.353486,0.999998,0.000177,-0.001264,0.002564,0.000090,0.002566,-0.001266,88.647242,0.002566,
850,500,0.357086,-3.985949,0.999998,0.000161,-0.001259,0.002485,-0.000152,0.002491,-0.001265,-87.675668,0.002491,
1040,810,0.250121,-3.394051,0.999998,0.000172,-0.001958,0.003013,-0.000679,0.003104,-0.002049,-82.365701,0.003157,
1580,1110,-0.703121,-2.291035,0.999998,0.000182,-0.001142,0.002826,0.000338,0.002855,-0.001171,85.173303,0.002870,
1010,1250,0.300654,-1.701420,0.999997,0.000193,-0.001944,0.003157,0.000483,0.003203,-0.001990,84.640975,0.003234,
1550,30,-0.006829,-5.022080,0.999999,0.000000,0.000038,0.001623,-0.000302,0.001679,-0.000018,-79.560262,0.001928,
1440,1110,-0.521117,-2.162745,0.999996,0.000212,-0.001563,0.003901,-0.000354,0.003924,-0.001586,-86.307939,0.003948,
1180,1200,0.115983,-1.264964,0.999962,0.000729,-0.001672,0.000665,0.000082,0.000668,-0.001674,87.988497,0.001686,
920,150,0.085094,-4.811573,0.999998,0.000154,-0.000377,0.001902,0.000267,0.001933,-0.000408,83.408691,0.002037,
1040,830,0.277545,-3.332576,0.999997,0.000198,-0.001980,0.003134,-0.000635,0.003212,-0.002058,-83.022406,0.003254,
1710,1590,-0.457603,-1.042668,0.999998,0.000181,-0.001288,0.002540,-0.000070,0.002541,-0.001289,-88.957750,0.002541,
850,730,0.513965,-3.361336,0.999997,0.000203,-0.001622,0.002900,0.000059,0.002901,-0.001622,89.256806,0.002908,
670,880,0.902933,-2.870501,0.999998,0.000168,-0.001146,0.002423,0.000213,0.002436,-0.001158,86.599670,0.002437,
1170,1720,0.029847,-0.523703,0.999999,0.000130,-0.000483,0.001786,0.000010,0.001786,-0.000483,89.757751,0.001848,
890,1310,0.463017,-1.687027,0.999998,0.000200,-0.001700,0.003009,0.000017,0.003009,-0.001700,89.794719,0.003017,
790,2000,0.040511,-0.064655,0.999999,0.000139,-0.000232,0.001844,-0.000484,0.001951,-0.000339,-77.488577,0.002085,
1760,380,-0.460554,-4.173172,0.999998,0.000191,-0.001215,0.002522,0.000030,0.002522,-0.001215,89.536417,0.002523,
1540,800,-0.461392,-3.217078,0.999997,0.000199,-0.001789,0.003139,-0.000038,0.003139,-0.001789,-89.557062,0.003149,
560,1710,0.682651,-0.978410,0.999596,0.000000,-0.004382,0.002103,0.000589,0.002156,-0.004436,84.851282,0.004436,
1670,350,-0.333207,-4.314637,0.999998,0.000164,-0.001141,0.002443,0.000004,0.002443,-0.001141,89.939098,0.002445,
1230,540,0.001131,-4.168104,0.999999,0.000135,-0.000628,0.001624,-0.000018,0.001624,-0.000629,-89.549001,0.001638,
1490,1840,-0.097988,-0.343046,0.999998,0.000175,-0.000552,0.001930,0.000112,0.001935,-0.000557,87.431968,0.001993,
1360,1970,-0.013812,-0.101050,0.999999,0.000134,-0.000111,0.001580,0.000085,0.001584,-0.000115,87.130205,0.001767,
1160,1720,0.034061,-0.523662,0.999999,0.000142,-0.000497,0.001791,0.000010,0.001791,-0.000497,89.750117,0.001849,
1880,410,-0.632390,-3.997145,0.999998,0.000160,-0.001231,0.002490,0.000035,0.002490,-0.001231,89.465264,0.002490,
1320,1300,-0.058209,-1.247028,0.999998,0.000174,-0.000958,0.001466,-0.000957,0.001798,-0.001291,-70.857641,0.001854,
700,210,0.303067,-4.597615,0.999997,0.000181,-0.001129,0.002489,0.000238,0.002505,-0.001145,86.247064,0.002508,
1610,1880,-0.138453,-0.295031,0.999998,0.000207,-0.000597,0.002079,0.000298,0.002112,-0.000630,83.728495,0.002168,
970,1810,0.115227,-0.402866,0.999998,0.000145,-0.000619,0.002030,-0.000079,0.002033,-0.000621,-88.293797,0.002083,
1380,1430,-0.112027,-1.109527,0.999999,0.000136,-0.001035,0.002006,-0.000582,0.002113,-0.001142,-79.528636,0.002116,
810,560,0.445862,-3.797822,0.999998,0.000160,-0.001376,0.002614,-0.000102,0.002616,-0.001378,-88.536041,0.002618,
1420,800,-0.232836,-3.431882,0.999997,0.000216,-0.001909,0.002942,0.000749,0.003055,-0.002022,81.415346,0.003108,
1160,410,0.041453,-4.382966,0.999998,0.000178,-0.000606,0.001785,-0.000075,0.001787,-0.000608,-88.213542,0.001817,
1430,340,-0.111481,-4.468811,0.999998,0.000183,-0.000716,0.001963,0.000067,0.001965,-0.000717,88.561767,0.001988,
810,290,0.269705,-4.470247,0.999998,0.000193,-0.001016,0.002372,0.000123,0.002376,-0.001020,87.915567,0.002384,
1370,1510,-0.099063,-0.943243,0.999998,0.000151,-0.000914,0.001909,-0.000427,0.001972,-0.000978,-81.593408,0.001972,
1880,220,-0.453014,-4.464052,0.999997,0.000183,-0.001228,0.002463,-0.000078,0.002464,-0.001230,-88.786975,0.002464,
980,510,0.204497,-4.073998,0.999998,0.000191,-0.001083,0.002277,-0.000284,0.002301,-0.001106,-85.200805,0.002301,
1830,1710,-0.518873,-0.838304,0.999998,0.000173,-0.001226,0.002500,-0.000019,0.002500,-0.001227,-89.709026,0.002500,
1450,1950,-0.033499,-0.137304,0.999999,0.000158,-0.000194,0.001704,0.000166,0.001719,-0.000209,85.034157,0.001876,
830,720,0.537198,-3.374207,0.999997,0.000227,-0.001589,0.002849,0.000067,0.002850,-0.001590,89.139884,0.002856,
690,1980,0.106558,-0.120917,0.999998,0.000145,-0.000552,0.002329,-0.000832,0.002552,-0.000775,-74.990202,0.002617,
600,340,0.554950,-4.186090,0.999997,0.000171,-0.001223,0.002463,-0.000029,0.002463,-0.001223,-89.553195,0.002463,
1500,1380,-0.286817,-1.395918,0.999998,0.000175,-0.001589,0.002767,-0.000415,0.002807,-0.001628,-84.601713,0.002819,
1540,2020,-0.008885,-0.028674,0.999999,0.000000,0.000020,0.001574,0.000262,0.001617,-0.000023,80.674722,0.001854,
710,290,0.376230,-4.404048,0.999998,0.000191,-0.001193,0.002519,0.000081,0.002521,-0.001195,88.755813,0.002522,
680,1400,0.697622,-1.593697,0.999998,0.000175,-0.001334,0.002620,-0.000069,0.002621,-0.001335,-89.000550,0.002621,
1110,730,0.089378,-3.764285,0.999998,0.000182,-0.001183,0.001895,-0.000938,0.002159,-0.001446,-74.317309,0.002200,
1270,810,-0.033788,-3.833616,0.999998,0.000162,-0.000902,0.000648,0.000489,0.000789,-0.001044,73.873710,0.001089,
1850,680,-0.803962,-3.334887,0.999998,0.000154,-0.001277,0.002520,-0.000069,0.002521,-0.001279,-88.958258,0.002522,
1060,1620,0.114958,-0.748100,0.999998,0.000152,-0.000809,0.002017,0.000211,0.002032,-0.000825,85.752329,0.002044,
1850,1200,-0.951038,-2.132859,0.999999,0.000116,-0.001129,0.002331,0.000143,0.002337,-0.001135,87.633162,0.002338,
1570,1260,-0.511485,-1.836458,0.999997,0.000209,-0.001711,0.003080,0.000124,0.003083,-0.001715,88.523946,0.003089,
1240,1510,-0.005583,-0.880902,0.999998,0.000143,-0.000638,0.001636,-0.000046,0.001637,-0.000639,-88.844730,0.001650,
1240,150,-0.002395,-4.839898,0.999998,0.000161,-0.000219,0.001625,0.000007,0.001625,-0.000219,89.767475,0.001763,
1370,220,-0.047124,-4.710814,0.999998,0.000147,-0.000351,0.001741,-0.000040,0.001742,-0.000352,-88.909174,0.001842,
870,50,0.024502,-4.987359,0.999999,0.000121,-0.000138,0.001688,0.000359,0.001756,-0.000206,79.251706,0.001920,
640,660,0.753154,-3.404913,0.999997,0.000193,-0.001264,0.002575,0.000082,0.002577,-0.001266,88.781476,0.002577,
1320,1770,-0.036821,-0.435685,0.999999,0.000144,-0.000500,0.001810,-0.000026,0.001811,-0.000500,-89.365736,0.001870,
650,880,0.927247,-2.862883,0.999999,0.000140,-0.001170,0.002405,0.000183,0.002415,-0.001180,87.078430,0.002415,
1590,1500,-0.356609,-1.174095,0.999997,0.000186,-0.001355,0.002564,-0.000193,0.002573,-0.001365,-87.194019,0.002575,
1490,1820,-0.107855,-0.381817,0.999999,0.000151,-0.000572,0.001970,0.000070,0.001972,-0.000574,88.428669,0.002029,
1760,490,-0.539755,-3.892855,0.999998,0.000190,-0.001274,0.002558,0.000046,0.002559,-0.001275,89.314260,0.002559,
1450,960,-0.562079,-2.797358,0.999996,0.000227,-0.001480,0.003912,0.000158,0.003916,-0.001484,88.321719,0.003954,
890,1270,0.502904,-1.808269,0.999997,0.000197,-0.001697,0.003031,-0.000100,0.003033,-0.001699,-88.783041,0.003040,
1210,370,0.012806,-4.459738,0.999998,0.000155,-0.000540,0.001772,-0.000061,0.001774,-0.000542,-88.487853,0.001818,
770,1720,0.346913,-0.706727,0.999998,0.000166,-0.001095,0.002492,-0.000035,0.002492,-0.001096,-89.442897,0.002498,
1710,1570,-0.471937,-1.094539,0.999998,0.000194,-0.001301,0.002551,-0.000063,0.002552,-0.001302,-89.058943,0.002552,
1050,1880,0.049216,-0.255049,0.999998,0.000180,-0.000351,0.001733,-0.000076,0.001735,-0.000354,-87.902203,0.001834,
1130,680,0.066604,-3.887023,0.999999,0.000135,-0.000888,0.001681,-0.000699,0.001859,-0.001065,-75.727717,0.001866,
1420,780,-0.215608,-3.490840,0.999998,0.000188,-0.001830,0.002842,0.000784,0.002970,-0.001958,80.720331,0.003020,
760,1880,0.203905,-0.325056,0.999998,0.000148,-0.000757,0.002314,-0.000432,0.002374,-0.000817,-82.139811,0.002412,
1620,1630,-0.324569,-0.873113,0.999998,0.000176,-0.001173,0.002453,-0.000099,0.002456,-0.001176,-88.431811,0.002457,
600,320,0.538663,-4.234271,0.999998,0.000178,-0.001218,0.002483,-0.000016,0.002483,-0.001218,-89.758159,0.002483,
980,490,0.199857,-4.118780,0.999998,0.000152,-0.001038,0.002243,-0.000265,0.002264,-0.001060,-85.405986,0.002266,
1830,1670,-0.551772,-0.939982,0.999998,0.000174,-0.001236,0.002521,-0.000038,0.002521,-0.001237,-89.418384,0.002522,
1110,710,0.087258,-3.803444,0.999998,0.000158,-0.001140,0.001860,-0.000859,0.002089,-0.001368,-75.099222,0.002122,
970,1790,0.123062,-0.442683,0.999998,0.000151,-0.000674,0.002018,-0.000055,0.002019,-0.000675,-88.839972,0.002056,
1430,320,-0.106485,-4.508562,0.999998,0.000242,-0.000688,0.001985,0.000048,0.001986,-0.000689,88.972352,0.002016,
1540,30,-0.007119,-5.022084,0.999999,0.000000,0.000047,0.001640,-0.000283,0.001689,-0.000002,-80.209751,0.001949,
1870,240,-0.465246,-4.426541,0.999997,0.000186,-0.001223,0.002445,-0.000035,0.002445,-0.001223,-89.449843,0.002445,
560,1810,0.605664,-0.690790,0.999483,0.000000,-0.004949,0.000647,0.000408,0.000676,-0.004979,85.855320,0.005401,
1480,90,-0.031165,-4.925599,0.999999,0.000126,-0.000178,0.001697,-0.000212,0.001721,-0.000202,-83.615869,0.001882,
1830,680,-0.778312,-3.348764,0.999998,0.000174,-0.001262,0.002533,-0.000091,0.002535,-0.001264,-88.631950,0.002535,
1790,1570,-0.573151,-1.158304,0.999998,0.000172,-0.001296,0.002565,-0.000026,0.002565,-0.001296,-89.619315,0.002565,
810,490,0.401474,-3.980890,0.999997,0.000174,-0.001272,0.002545,-0.000108,0.002548,-0.001275,-88.380266,0.002548,
710,320,0.404875,-4.329971,0.999998,0.000217,-0.001210,0.002520,0.000010,0.002520,-0.001210,89.840333,0.002521,
1320,1280,-0.062539,-1.276327,0.999998,0.000167,-0.001017,0.001428,-0.001019,0.001797,-0.001386,-70.087689,0.001883,
1060,1600,0.117369,-0.789272,0.999998,0.000152,-0.000817,0.002023,0.000238,0.002043,-0.000837,85.238071,0.002054,
1010,1270,0.280404,-1.638748,0.999998,0.000190,-0.001914,0.003084,0.000545,0.003143,-0.001973,83.853559,0.003177,
1670,610,-0.503752,-3.648682,0.999998,0.000171,-0.001405,0.002682,0.000044,0.002683,-0.001405,89.382695,0.002684,
1140,410,0.055094,-4.376501,0.999998,0.000161,-0.000632,0.001818,-0.000124,0.001824,-0.000638,-87.115079,0.001851,
930,1450,0.300676,-1.248509,0.999998,0.000180,-0.001410,0.002553,0.000282,0.002573,-0.001430,85.944613,0.002578,
1270,790,-0.024539,-3.846659,0.999999,0.000150,-0.000714,0.000729,0.000542,0.000909,-0.000895,71.548197,0.001042,
860,50,0.026409,-4.987454,0.999999,0.000115,-0.000120,0.001732,0.000383,0.001808,-0.000196,78.757036,0.001985,
1840,990,-1.006718,-2.604304,0.999998,0.000224,-0.001071,0.002239,-0.000058,0.002240,-0.001072,-88.991328,0.002241,
1500,1360,-0.298050,-1.451051,0.999997,0.000186,-0.001644,0.002804,-0.000401,0.002840,-0.001680,-84.896531,0.002856,
1590,370,-0.262497,-4.317220,0.999998,0.000171,-0.001039,0.002349,0.000052,0.002350,-0.001040,89.123642,0.002355,
1840,2010,-0.077817,-0.073848,0.999999,0.000147,-0.001029,0.002340,0.000711,0.002483,-0.001172,78.555564,0.002485,
680,1380,0.712763,-1.646012,0.999998,0.000184,-0.001346,0.002595,-0.000089,0.002597,-0.001348,-88.699956,0.002597,
1340,1970,-0.011595,-0.100330,0.999999,0.000141,-0.000103,0.001563,0.000067,0.001566,-0.000106,87.685097,0.001751,
1220,1510,0.007245,-0.882158,0.999998,0.000159,-0.000612,0.001622,0.000066,0.001624,-0.000614,88.312983,0.001640,
1220,150,0.002275,-4.839865,0.999999,0.000123,-0.000230,0.001606,-0.000002,0.001606,-0.000230,-89.943331,0.001737,
1500,1110,-0.607360,-2.252180,0.999998,0.000172,-0.001296,0.003335,0.000290,0.003354,-0.001314,86.430420,0.003380,
1450,1930,-0.041649,-0.174414,0.999999,0.000138,-0.000236,0.001763,0.000162,0.001776,-0.000248,85.407621,0.001923,
640,640,0.734578,-3.457314,0.999998,0.000190,-0.001285,0.002555,0.000056,0.002556,-0.001286,89.167188,0.002556,
780,590,0.507681,-3.693536,0.999997,0.000183,-0.001391,0.002645,-0.000056,0.002646,-0.001391,-89.210770,0.002647,
710,490,0.531091,-3.897149,0.999998,0.000166,-0.001282,0.002570,-0.000048,0.002571,-0.001282,-89.281416,0.002571,
1470,1840,-0.088543,-0.338984,0.999998,0.000158,-0.000461,0.001888,0.000138,0.001896,-0.000469,86.654057,0.001975,
830,700,0.519473,-3.431413,0.999997,0.000205,-0.001579,0.002826,0.000032,0.002826,-0.001579,89.583225,0.002833,
1830,740,-0.830503,-3.197138,0.999998,0.000146,-0.001239,0.002508,-0.000139,0.002513,-0.001245,-87.885735,0.002513,
1760,360,-0.445697,-4.221865,0.999998,0.000185,-0.001220,0.002509,0.000010,0.002509,-0.001220,89.850298,0.002509,
1550,920,-0.638567,-2.834329,0.999998,0.000180,-0.001324,0.003019,-0.000370,0.003051,-0.001355,-85.160890,0.003057,
760,1850,0.238463,-0.396046,0.999998,0.000192,-0.000874,0.002369,-0.000332,0.002403,-0.000908,-84.220460,0.002427,
600,300,0.519127,-4.284458,0.999998,0.000195,-0.001224,0.002480,0.000000,0.002480,-0.001224,89.994218,0.002480,
1450,1880,-0.063237,-0.261570,0.999998,0.000152,-0.000338,0.001799,0.000139,0.001808,-0.000347,86.306488,0.001918,
890,1250,0.526346,-1.868014,0.999997,0.000187,-0.001684,0.003078,-0.000156,0.003083,-0.001689,-88.130165,0.003088,
1600,830,-0.600283,-3.075790,0.999997,0.000192,-0.001566,0.002957,-0.000264,0.002973,-0.001581,-86.673795,0.002975,
1000,1770,0.115001,-0.474152,0.999998,0.000162,-0.000571,0.002020,-0.000046,0.002021,-0.000572,-88.993756,0.002084,
1410,300,-0.086653,-4.555547,0.999998,0.000162,-0.000614,0.001927,0.000037,0.001928,-0.000614,89.165915,0.001970,
1340,90,-0.012536,-4.931251,0.999999,0.000155,-0.000123,0.001583,-0.000070,0.001586,-0.000126,-87.649856,0.001763,
760,1860,0.225547,-0.371729,0.999998,0.000172,-0.000838,0.002344,-0.000373,0.002387,-0.000881,-83.401070,0.002414,
560,930,1.051199,-2.716802,0.999997,0.000000,-0.000931,0.002110,-0.000001,0.002110,-0.000931,-89.985906,0.002115,
1460,890,-0.450523,-3.036756,0.999998,0.000181,-0.001810,0.003523,0.000076,0.003524,-0.001811,89.182020,0.003525,
1840,2000,-0.099867,-0.096760,0.999999,0.000137,-0.001083,0.002458,0.000687,0.002587,-0.001212,79.392492,0.002589,
690,320,0.427982,-4.313846,0.999998,0.000151,-0.001196,0.002522,0.000005,0.002522,-0.001196,89.927943,0.002523,
1530,2020,-0.010957,-0.026533,0.999999,0.000000,0.000000,0.001558,0.000245,0.001595,-0.000038,81.281094,0.001820,
1270,770,-0.021435,-3.860731,0.999998,0.000153,-0.000643,0.000809,0.000548,0.000993,-0.000826,71.474404,0.001063,
750,780,0.712634,-3.157629,0.999998,0.000213,-0.001378,0.002713,0.000240,0.002727,-0.001392,86.650676,0.002727,
930,1470,0.293757,-1.197157,0.999998,0.000170,-0.001370,0.002561,0.000284,0.002581,-0.001390,85.895252,0.002584,
1670,570,-0.475461,-3.755427,0.999998,0.000182,-0.001347,0.002644,0.000082,0.002646,-0.001348,88.827431,0.002646,
1590,350,-0.249361,-4.365043,0.999998,0.000181,-0.000999,0.002321,0.000011,0.002321,-0.000999,89.812372,0.002329,
1500,1340,-0.310220,-1.508681,0.999997,0.000199,-0.001722,0.002885,-0.000381,0.002917,-0.001754,-85.308849,0.002936,
1710,1550,-0.485190,-1.145006,0.999998,0.000167,-0.001326,0.002580,-0.000070,0.002582,-0.001327,-88.980885,0.002582,
970,1770,0.135165,-0.484472,0.999998,0.000171,-0.000713,0.002025,-0.000037,0.002026,-0.000714,-89.228630,0.002055,
910,580,0.317623,-3.836014,0.999998,0.000160,-0.001377,0.002564,-0.000250,0.002580,-0.001393,-86.384755,0.002583,
1220,1970,0.000554,-0.098461,0.999999,0.000137,-0.000150,0.001544,-0.000017,0.001544,-0.000150,-89.411158,0.001703,
1210,350,0.012562,-4.497904,0.999998,0.000178,-0.000539,0.001768,-0.000043,0.001769,-0.000540,-88.937488,0.001813,
1120,410,0.067448,-4.368821,0.999998,0.000194,-0.000647,0.001834,-0.000150,0.001843,-0.000656,-86.559668,0.001868,
1370,1490,-0.098580,-0.982122,0.999999,0.000146,-0.000933,0.001938,-0.000442,0.002004,-0.001000,-81.449726,0.002004,
800,660,0.532486,-3.519738,0.999997,0.000203,-0.001480,0.002778,0.000025,0.002778,-0.001480,89.665660,0.002780,
1340,150,-0.024031,-4.836165,0.999999,0.000118,-0.000264,0.001636,-0.000080,0.001639,-0.000268,-87.605188,0.001759,
1320,1260,-0.071495,-1.305551,0.999998,0.000179,-0.001058,0.001417,-0.001061,0.001809,-0.001451,-69.700077,0.001916,
680,1360,0.729832,-1.698201,0.999998,0.000192,-0.001338,0.002583,-0.000115,0.002586,-0.001342,-88.314859,0.002587,
1480,50,-0.013206,-4.990720,0.999999,0.000128,-0.000068,0.001546,-0.000203,0.001571,-0.000093,-82.934264,0.001763,
950,1100,0.636445,-2.293182,0.999998,0.000189,-0.001185,0.003192,-0.000279,0.003209,-0.001203,-86.373345,0.003243,
1200,510,0.020449,-4.212537,0.999999,0.000127,-0.000652,0.001694,-0.000081,0.001697,-0.000655,-88.027471,0.001711,
1080,1370,0.119815,-1.238663,0.999999,0.000128,-0.001231,0.002127,0.000770,0.002296,-0.001400,77.682090,0.002314,
640,620,0.719161,-3.507088,0.999998,0.000186,-0.001286,0.002553,0.000024,0.002553,-0.001286,89.646510,0.002553,
1110,690,0.085063,-3.841456,0.999998,0.000168,-0.001091,0.001878,-0.000772,0.002067,-0.001279,-76.254700,0.002086,
610,1740,0.520829,-0.783680,0.999999,0.000159,-0.001211,0.002477,0.000034,0.002478,-0.001211,89.465301,0.002478,
1060,1580,0.120875,-0.828955,0.999999,0.000146,-0.000846,0.002044,0.000269,0.002068,-0.000871,84.733268,0.002077,
1830,1650,-0.565129,-0.987392,0.999998,0.000169,-0.001259,0.002510,-0.000040,0.002511,-0.001259,-89.393777,0.002511,
760,590,0.535989,-3.677041,0.999998,0.000181,-0.001370,0.002644,-0.000031,0.002644,-0.001370,-89.559261,0.002645,
1450,1910,-0.049268,-0.206998,0.999999,0.000128,-0.000289,0.001733,0.000176,0.001748,-0.000304,85.075996,0.001868,
1320,1210,-0.135230,-1.372133,0.999997,0.000213,-0.001074,0.001153,-0.000673,0.001341,-0.001262,-74.433018,0.001505,
600,280,0.500738,-4.334203,0.999998,0.000205,-0.001222,0.002479,0.000017,0.002479,-0.001222,89.741044,0.002480,
1760,340,-0.427618,-4.272928,0.999997,0.000179,-0.001215,0.002522,0.000000,0.002522,-0.001215,-89.995473,0.002523,
720,1860,0.259831,-0.389715,0.999998,0.000165,-0.001012,0.002432,-0.000306,0.002459,-0.001039,-84.969075,0.002469,
1810,740,-0.805308,-3.208865,0.999999,0.000150,-0.001249,0.002534,-0.000154,0.002540,-0.001255,-87.677038,0.002540,
1600,810,-0.576533,-3.134580,0.999998,0.000181,-0.001598,0.002993,-0.000229,0.003005,-0.001609,-87.147609,0.003007,
1620,1610,-0.335204,-0.923445,0.999999,0.000161,-0.001206,0.002450,-0.000106,0.002453,-0.001210,-88.335495,0.002453,
750,1980,0.076346,-0.107261,0.999999,0.000125,-0.000268,0.001983,-0.000626,0.002146,-0.000431,-75.456263,0.002270,
890,1230,0.550706,-1.930924,0.999997,0.000173,-0.001650,0.003075,-0.000214,0.003085,-0.001660,-87.411271,0.003088,
1840,1990,-0.122766,-0.121469,0.999998,0.000145,-0.001129,0.002615,0.000673,0.002732,-0.001246,80.108583,0.002736,
1420,760,-0.198736,-3.546798,0.999998,0.000190,-0.001759,0.002774,0.000782,0.002906,-0.001890,80.480776,0.002949,
770,340,0.350992,-4.322927,0.999998,0.000189,-0.001089,0.002493,0.000029,0.002494,-0.001089,89.543701,0.002500,
1530,30,-0.008281,-5.021654,0.999999,0.000000,0.000024,0.001648,-0.000268,0.001691,-0.000019,-80.870153,0.001942,
560,1440,0.834382,-1.577671,0.999939,0.000000,-0.002287,0.002562,0.000078,0.002563,-0.002289,89.080038,0.002814,
1850,1640,-0.598799,-1.031145,0.999998,0.000183,-0.001248,0.002514,-0.000039,0.002515,-0.001248,-89.399191,0.002515,
1260,370,-0.015326,-4.459164,0.999998,0.000143,-0.000552,0.001751,0.000052,0.001753,-0.000553,88.717791,0.001792,
980,1770,0.126218,-0.479772,0.999998,0.000188,-0.000657,0.002016,-0.000048,0.002017,-0.000658,-88.971831,0.002057,
890,1860,0.131836,-0.324605,0.999998,0.000168,-0.000637,0.002075,-0.000233,0.002095,-0.000657,-85.132732,0.002143,
1400,270,-0.072678,-4.615650,0.999998,0.000156,-0.000523,0.001865,-0.000022,0.001865,-0.000523,-89.483328,0.001924,
1270,750,-0.019799,-3.879617,0.999999,0.000137,-0.000589,0.000905,0.000514,0.001065,-0.000749,72.725900,0.001094,
760,1840,0.249985,-0.419538,0.999998,0.000179,-0.000895,0.002376,-0.000294,0.002403,-0.000921,-84.898228,0.002424,
1500,1320,-0.324597,-1.567045,0.999998,0.000174,-0.001780,0.002967,-0.000328,0.002989,-0.001803,-86.067655,0.003010,
1590,330,-0.237905,-4.410926,0.999997,0.000199,-0.000955,0.002304,-0.000026,0.002304,-0.000955,-89.534447,0.002316,
750,760,0.694413,-3.211843,0.999998,0.000181,-0.001404,0.002693,0.000193,0.002702,-0.001413,87.315290,0.002703,
970,1750,0.142552,-0.522390,0.999998,0.000178,-0.000772,0.002077,0.000007,0.002077,-0.000772,89.861000,0.002100,
910,560,0.309957,-3.887298,0.999998,0.000180,-0.001338,0.002545,-0.000256,0.002562,-0.001355,-86.241345,0.002563,
1320,150,-0.017447,-4.835489,0.999999,0.000116,-0.000217,0.001625,-0.000057,0.001627,-0.000219,-88.217857,0.001766,
800,1680,0.341527,-0.782597,0.999998,0.000174,-0.001142,0.002448,0.000026,0.002448,-0.001142,89.588567,0.002450,
1370,1470,-0.100365,-1.020014,0.999999,0.000140,-0.000936,0.001960,-0.000457,0.002030,-0.001006,-81.243618,0.002031,
1710,1530,-0.499344,-1.198230,0.999998,0.000176,-0.001335,0.002591,-0.000052,0.002591,-0.001335,-89.242660,0.002592,
1200,1970,0.004463,-0.098236,0.999999,0.000137,-0.000115,0.001532,-0.000016,0.001532,-0.000115,-89.452266,0.001706,
680,1340,0.748207,-1.748436,0.999998,0.000170,-0.001331,0.002587,-0.000154,0.002593,-0.001337,-87.747855,0.002594,
1210,330,0.010961,-4.531661,0.999998,0.000156,-0.000526,0.001743,-0.000033,0.001743,-0.000526,-89.158179,0.001789,
1320,1240,-0.087792,-1.332525,0.999998,0.000185,-0.001129,0.001379,-0.001033,0.001750,-0.001500,-70.264866,0.001893,
1100,410,0.080977,-4.361444,0.999998,0.000159,-0.000672,0.001875,-0.000126,0.001882,-0.000679,-87.179581,0.001906,
640,600,0.702894,-3.558673,0.999997,0.000202,-0.001295,0.002576,0.000025,0.002576,-0.001295,89.634926,0.002576,
970,1080,0.636560,-2.346056,0.999998,0.000204,-0.001133,0.003310,-0.000205,0.003320,-0.001142,-87.361691,0.003373,
1470,50,-0.012275,-4.991633,0.999999,0.000126,-0.000029,0.001544,-0.000193,0.001567,-0.000053,-83.107162,0.001780,
1160,1700,0.037621,-0.556999,0.999999,0.000140,-0.000521,0.001778,0.000010,0.001778,-0.000521,89.755199,0.001828,
1180,1310,0.028913,-1.171697,0.999998,0.000157,-0.000661,0.001074,0.000618,0.001271,-0.000859,72.257969,0.001297,
590,1740,0.545409,-0.801913,0.999998,0.000166,-0.001646,0.002473,0.000061,0.002474,-0.001647,89.157004,0.002519,
1140,550,0.061599,-4.121212,0.999999,0.000119,-0.000764,0.001758,-0.000258,0.001784,-0.000790,-84.227493,0.001788,
1670,550,-0.461291,-3.810282,0.999998,0.000187,-0.001315,0.002607,0.000086,0.002609,-0.001317,88.745563,0.002609,
600,260,0.478969,-4.383768,0.999998,0.000198,-0.001206,0.002492,0.000011,0.002492,-0.001206,89.829471,0.002492,
850,1280,0.559545,-1.810177,0.999997,0.000196,-0.001615,0.002945,-0.000145,0.002950,-0.001619,-88.181606,0.002955,
1450,1890,-0.060079,-0.242543,0.999998,0.000163,-0.000330,0.001788,0.000158,0.001800,-0.000342,85.764786,0.001911,
1800,710,-0.766428,-3.292366,0.999998,0.000195,-0.001308,0.002563,-0.000118,0.002567,-0.001311,-88.260238,0.002567,
1760,320,-0.412867,-4.322315,0.999998,0.000180,-0.001215,0.002530,-0.000015,0.002530,-0.001215,-89.771372,0.002531,
970,1160,0.516402,-2.075550,0.999998,0.000191,-0.001670,0.003395,-0.000179,0.003402,-0.001676,-87.983598,0.003402,
770,320,0.336534,-4.372470,0.999997,0.000215,-0.001081,0.002455,0.000035,0.002456,-0.001081,89.426892,0.002461,
560,1420,0.846758,-1.626364,0.999958,0.000000,-0.001991,0.002662,-0.000032,0.002662,-0.001991,-89.606966,0.002769,
1800,60,-0.084661,-4.953696,0.999999,0.000162,-0.000266,0.002339,-0.000977,0.002665,-0.000591,-71.569495,0.002799,
1400,290,-0.079166,-4.578567,0.999998,0.000179,-0.000554,0.001902,0.000016,0.001903,-0.000554,89.615580,0.001957,
890,1210,0.575877,-1.991236,0.999997,0.000183,-0.001582,0.003043,-0.000275,0.003059,-0.001599,-86.606253,0.003060,
820,1350,0.541579,-1.631353,0.999997,0.000244,-0.001516,0.002843,-0.000071,0.002845,-0.001517,-89.069639,0.002847,
1520,2020,-0.011535,-0.026139,0.999999,0.000000,-0.000064,0.001530,0.000246,0.001567,-0.000101,81.425221,0.001754,
1060,1560,0.122044,-0.870788,0.999999,0.000132,-0.000862,0.002013,0.000276,0.002040,-0.000889,84.570396,0.002045,
1010,1710,0.131001,-0.590516,0.999998,0.000150,-0.000691,0.002026,0.000051,0.002027,-0.000692,88.916371,0.002061,
1580,830,-0.568185,-3.089419,0.999998,0.000160,-0.001623,0.003020,-0.000245,0.003033,-0.001636,-86.991051,0.003036,
1110,670,0.084114,-3.878609,0.999998,0.000145,-0.001021,0.001857,-0.000691,0.002014,-0.001179,-77.168302,0.002024,
1590,310,-0.225662,-4.457572,0.999998,0.000193,-0.000930,0.002269,-0.000046,0.002270,-0.000931,-89.174590,0.002282,
1500,1300,-0.342710,-1.628660,0.999998,0.000177,-0.001824,0.003061,-0.000287,0.003077,-0.001841,-86.648558,0.003097,
960,1910,0.065800,-0.213927,0.999999,0.000126,-0.000413,0.001833,-0.000202,0.001851,-0.000431,-84.911761,0.001937,
780,1990,0.054985,-0.085062,0.999999,0.000124,-0.000286,0.001892,-0.000539,0.002018,-0.000412,-76.839421,0.002132,
1040,870,0.343351,-3.201916,0.999998,0.000172,-0.001835,0.003375,-0.000626,0.003449,-0.001909,-83.242574,0.003456,
1630,730,-0.539252,-3.348903,0.999998,0.000211,-0.001600,0.002898,-0.000091,0.002899,-0.001602,-88.838626,0.002905,
1650,720,-0.563476,-3.362152,0.999997,0.000316,-0.001514,0.002838,-0.000087,0.002840,-0.001515,-88.854465,0.002842,
1420,740,-0.188853,-3.600909,0.999998,0.000192,-0.001657,0.002647,0.000784,0.002785,-0.001795,79.993616,0.002824,
800,1640,0.367702,-0.881815,0.999998,0.000169,-0.001178,0.002483,0.000046,0.002483,-0.001178,89.272982,0.002484,
1680,1050,-0.838384,-2.463012,0.999999,0.000126,-0.001018,0.002510,0.000083,0.002512,-0.001020,88.659750,0.002526,
1100,1370,0.095963,-1.206694,0.999999,0.000127,-0.001124,0.001936,0.000776,0.002121,-0.001310,76.550936,0.002141,
1160,1680,0.038570,-0.593846,0.999999,0.000132,-0.000559,0.001805,0.000037,0.001806,-0.000560,89.110907,0.001849,
1270,730,-0.019580,-3.897319,0.999999,0.000138,-0.000587,0.000990,0.000440,0.001105,-0.000701,75.409598,0.001118,
600,240,0.457026,-4.433627,0.999997,0.000228,-0.001210,0.002481,0.000035,0.002481,-0.001211,89.460667,0.002482,
970,1100,0.612420,-2.278139,0.999998,0.000195,-0.001260,0.003365,-0.000241,0.003377,-0.001273,-87.019261,0.003411,
1140,750,0.060839,-3.793626,0.999998,0.000192,-0.000980,0.001514,-0.000950,0.001835,-0.001301,-71.341545,0.001887,
1710,1510,-0.512814,-1.248128,0.999997,0.000187,-0.001354,0.002623,-0.000056,0.002624,-0.001355,-89.189789,0.002624,
1510,620,-0.276930,-3.777809,0.999998,0.000149,-0.001428,0.002574,0.000367,0.002608,-0.001461,84.806602,0.002614,
1450,1870,-0.066214,-0.279885,0.999998,0.000159,-0.000352,0.001823,0.000136,0.001831,-0.000360,86.442479,0.001940,
1150,1720,0.040720,-0.523338,0.999998,0.000147,-0.000545,0.001795,0.000029,0.001795,-0.000545,89.290424,0.001841,
970,1730,0.149808,-0.567653,0.999998,0.000183,-0.000801,0.002111,0.000039,0.002112,-0.000802,89.240017,0.002132,
1700,1430,-0.556813,-1.453633,0.999997,0.000212,-0.001411,0.002687,-0.000003,0.002687,-0.001411,-89.955268,0.002688,
1600,370,-0.271992,-4.312016,0.999998,0.000157,-0.001014,0.002358,0.000036,0.002359,-0.001014,89.386397,0.002367,
1320,90,-0.009542,-4.932279,0.999999,0.000141,-0.000118,0.001563,-0.000070,0.001566,-0.000120,-87.632187,0.001743,
1590,1360,-0.447369,-1.556224,0.999998,0.000175,-0.001619,0.002885,-0.000088,0.002887,-0.001621,-88.880604,0.002894,
990,1840,0.089642,-0.338943,0.999998,0.000169,-0.000458,0.001885,-0.000119,0.001891,-0.000464,-87.095676,0.001971,
1830,1480,-0.691321,-1.422029,0.999998,0.000179,-0.001296,0.002588,0.000001,0.002588,-0.001296,89.979182,0.002588,
850,710,0.497668,-3.420941,0.999997,0.000202,-0.001587,0.002892,0.000010,0.002892,-0.001587,89.871305,0.002896,
1700,650,-0.578173,-3.517784,0.999997,0.000194,-0.001433,0.002691,-0.000043,0.002692,-0.001433,-89.407746,0.002693,
710,1770,0.371861,-0.623398,0.999998,0.000185,-0.001171,0.002530,-0.000084,0.002531,-0.001173,-88.693045,0.002534,
1830,1630,-0.582090,-1.039492,0.999998,0.000168,-0.001253,0.002535,-0.000023,0.002535,-0.001253,-89.647187,0.002535,
800,1350,0.569540,-1.645770,0.999997,0.000228,-0.001489,0.002808,-0.000091,0.002810,-0.001491,-88.787841,0.002812,
1370,1450,-0.100507,-1.059492,0.999999,0.000142,-0.000943,0.001957,-0.000495,0.002039,-0.001025,-80.577295,0.002039,
1110,650,0.085401,-3.914520,0.999998,0.000152,-0.000957,0.001863,-0.000631,0.001998,-0.001092,-77.946519,0.002000,
1790,1990,-0.090176,-0.098155,0.999998,0.000160,-0.000319,0.002362,0.000983,0.002684,-0.000640,71.871940,0.002804,
680,1320,0.768646,-1.801293,0.999999,0.000160,-0.001314,0.002589,-0.000181,0.002598,-0.001322,-87.357155,0.002598,
1670,530,-0.449006,-3.862271,0.999998,0.000162,-0.001305,0.002578,0.000095,0.002581,-0.001308,88.604779,0.002581,
1040,1510,0.148646,-0.990196,0.999999,0.000127,-0.001059,0.002149,0.000393,0.002197,-0.001106,83.114989,0.002197,
1100,1970,0.013308,-0.101309,0.999999,0.000130,-0.000090,0.001574,-0.000077,0.001578,-0.000094,-87.357412,0.001770,
1500,1280,-0.361052,-1.691312,0.999997,0.000191,-0.001861,0.003122,-0.000248,0.003134,-0.001873,-87.152993,0.003154,
1630,710,-0.525238,-3.405263,0.999997,0.000241,-0.001599,0.002861,-0.000029,0.002861,-0.001599,-89.633197,0.002868,
630,600,0.715086,-3.551449,0.999997,0.000206,-0.001289,0.002567,0.000027,0.002568,-0.001290,89.597617,0.002568,
980,730,0.292078,-3.513960,0.999997,0.000194,-0.001755,0.002894,-0.000437,0.002934,-0.001796,-84.679614,0.002959,
890,1190,0.601402,-2.052136,0.999998,0.000178,-0.001507,0.003043,-0.000307,0.003064,-0.001528,-86.153299,0.003064,
940,1670,0.203523,-0.713625,0.999998,0.000174,-0.000919,0.002202,0.000073,0.002204,-0.000921,88.668232,0.002214,
1000,930,0.530044,-2.887160,0.999997,0.000195,-0.001565,0.003626,0.000037,0.003627,-0.001565,89.588577,0.003638,
760,1330,0.647198,-1.728128,0.999998,0.000180,-0.001422,0.002739,-0.000154,0.002744,-0.001427,-87.888926,0.002745,
1630,740,-0.551046,-3.318671,0.999998,0.000180,-0.001590,0.002889,-0.000118,0.002892,-0.001593,-88.495954,0.002897,
1320,1220,-0.112308,-1.360465,0.999998,0.000193,-0.001099,0.001273,-0.000848,0.001544,-0.001371,-72.222153,0.001692,
1420,720,-0.179440,-3.653711,0.999998,0.000167,-0.001562,0.002505,0.000752,0.002640,-0.001697,79.854121,0.002675,
1790,900,-0.912934,-2.823473,0.999999,0.000132,-0.001145,0.002422,-0.000187,0.002432,-0.001155,-87.006416,0.002433,
640,800,0.875548,-3.053178,0.999999,0.000135,-0.001200,0.002471,0.000168,0.002478,-0.001208,87.382809,0.002479,
1060,1540,0.126593,-0.909618,0.999999,0.000138,-0.000881,0.002024,0.000307,0.002056,-0.000913,84.039168,0.002060,
850,480,0.346141,-4.035305,0.999998,0.000168,-0.001222,0.002502,-0.000132,0.002506,-0.001226,-87.975247,0.002507,
1270,710,-0.019247,-3.919723,0.999999,0.000137,-0.000578,0.001116,0.000389,0.001201,-0.000663,77.662649,0.001203,
1780,1970,-0.129288,-0.146788,0.999998,0.000158,-0.000585,0.002299,0.000828,0.002519,-0.000806,75.073926,0.002573,
1260,350,-0.015004,-4.494600,0.999998,0.000157,-0.000523,0.001781,0.000043,0.001782,-0.000524,88.933668,0.001832,
820,310,0.274475,-4.427948,0.999997,0.000217,-0.001005,0.002357,0.000082,0.002359,-0.001007,88.600962,0.002367,
1040,1370,0.173346,-1.305060,0.999998,0.000160,-0.001424,0.002449,0.000693,0.002569,-0.001544,80.151752,0.002587,
1520,30,-0.008246,-5.021881,0.999999,0.000000,-0.000020,0.001639,-0.000248,0.001676,-0.000057,-81.667208,0.001903,
1760,300,-0.394399,-4.373718,0.999998,0.000187,-0.001210,0.002539,-0.000066,0.002540,-0.001211,-88.992164,0.002541,
670,1720,0.464343,-0.781328,0.999998,0.000169,-0.001215,0.002540,-0.000002,0.002540,-0.001215,-89.965690,0.002541,
970,1710,0.160682,-0.609117,0.999998,0.000189,-0.000861,0.002129,0.000102,0.002132,-0.000864,88.051337,0.002145,
800,1100,0.801728,-2.334524,0.999998,0.000148,-0.001086,0.002611,-0.000238,0.002626,-0.001101,-86.335376,0.002638,
820,1110,0.774002,-2.304289,0.999998,0.000189,-0.001116,0.002661,-0.000246,0.002677,-0.001132,-86.295245,0.002688,
1210,310,0.011596,-4.567483,0.999999,0.000143,-0.000491,0.001759,-0.000019,0.001759,-0.000491,-89.504848,0.001815,
1160,1660,0.041961,-0.629161,0.999998,0.000150,-0.000595,0.001819,0.000068,0.001821,-0.000597,88.378370,0.001857,
1380,750,-0.130353,-3.663439,0.999998,0.000209,-0.001464,0.002291,0.000959,0.002521,-0.001695,76.476826,0.002570,
1590,290,-0.211957,-4.503166,0.999998,0.000170,-0.000881,0.002265,-0.000080,0.002267,-0.000883,-88.550537,0.002286,
1310,1720,-0.038753,-0.523284,0.999998,0.000153,-0.000536,0.001811,-0.000040,0.001812,-0.000536,-89.015480,0.001861,
1830,1460,-0.707437,-1.473997,0.999997,0.000203,-0.001287,0.002588,0.000030,0.002589,-0.001287,89.560329,0.002589,
1570,1360,-0.413670,-1.536370,0.999998,0.000167,-0.001633,0.002869,-0.000135,0.002873,-0.001637,-88.282733,0.002883,
850,690,0.479719,-3.477746,0.999997,0.000203,-0.001553,0.002825,-0.000029,0.002826,-0.001553,-89.616616,0.002830,
930,760,0.406537,-3.352344,0.999997,0.000175,-0.001796,0.003102,-0.000146,0.003107,-0.001800,-88.289498,0.003120,
1450,1850,-0.075192,-0.317133,0.999998,0.000159,-0.000386,0.001843,0.000131,0.001851,-0.000394,86.655368,0.001950,
1700,630,-0.561360,-3.572525,0.999998,0.000181,-0.001439,0.002695,-0.000008,0.002695,-0.001439,-89.887801,0.002697,
600,220,0.431125,-4.484849,0.999998,0.000204,-0.001222,0.002542,0.000067,0.002543,-0.001224,88.987079,0.002544,
870,1040,0.755590,-2.485279,0.999998,0.000157,-0.000933,0.002680,-0.000070,0.002682,-0.000935,-88.894203,0.002722,
1040,850,0.307182,-3.266872,0.999997,0.000210,-0.001921,0.003257,-0.000612,0.003328,-0.001992,-83.352610,0.003350,
760,1470,0.531886,-1.350053,0.999997,0.000196,-0.001344,0.002624,0.000047,0.002625,-0.001345,89.316338,0.002625,
890,1170,0.625125,-2.112355,0.999998,0.000174,-0.001413,0.003030,-0.000346,0.003057,-0.001440,-85.576874,0.003059,
1670,510,-0.437009,-3.912997,0.999998,0.000167,-0.001302,0.002569,0.000089,0.002571,-0.001304,88.676564,0.002571,
970,1840,0.098684,-0.343385,0.999998,0.000162,-0.000556,0.001905,-0.000108,0.001910,-0.000561,-87.501956,0.001964,
1510,600,-0.269016,-3.829393,0.999998,0.000174,-0.001369,0.002559,0.000354,0.002590,-0.001401,84.894362,0.002593,
1630,720,-0.531957,-3.377112,0.999997,0.000221,-0.001604,0.002883,-0.000056,0.002884,-0.001605,-89.284401,0.002890,
1520,1390,-0.313635,-1.393785,0.999997,0.000189,-0.001571,0.002770,-0.000332,0.002795,-0.001596,-85.653035,0.002804,
1710,1490,-0.526481,-1.302596,0.999997,0.000188,-0.001357,0.002618,-0.000067,0.002620,-0.001358,-89.034750,0.002620,
710,1810,0.331130,-0.521253,0.999998,0.000188,-0.001178,0.002522,-0.000146,0.002528,-0.001183,-87.744032,0.002530,
1110,630,0.087121,-3.951429,0.999999,0.000142,-0.000930,0.001865,-0.000555,0.001971,-0.001036,-79.174310,0.001972,
910,800,0.486115,-3.205460,0.999998,0.000191,-0.001796,0.003092,0.000085,0.003093,-0.001798,89.000941,0.003107,
1370,1430,-0.101373,-1.097146,0.999999,0.000144,-0.000981,0.001953,-0.000562,0.002057,-0.001085,-79.524297,0.002058,
1020,1510,0.170681,-1.008714,0.999999,0.000140,-0.001086,0.002206,0.000370,0.002247,-0.001127,83.671184,0.002247,
1830,1610,-0.596685,-1.089316,0.999998,0.000180,-0.001257,0.002523,-0.000035,0.002524,-0.001258,-89.473702,0.002524,
1080,1970,0.015773,-0.102374,0.999999,0.000159,-0.000109,0.001596,-0.000119,0.001604,-0.000117,-86.023813,0.001788,
780,190,0.204766,-4.688918,0.999998,0.000161,-0.000825,0.002332,0.000313,0.002363,-0.000855,84.394652,0.002393,
630,990,0.998710,-2.604954,0.999998,0.000170,-0.001068,0.002257,0.000044,0.002258,-0.001069,89.235276,0.002259,
1500,1260,-0.382498,-1.752902,0.999998,0.000168,-0.001890,0.003177,-0.000195,0.003184,-0.001898,-87.804765,0.003204,
1510,2020,-0.009012,-0.026926,0.999999,0.000000,-0.000150,0.001544,0.000243,0.001578,-0.000185,81.999769,0.001726,
1240,350,-0.004652,-4.497329,0.999998,0.000166,-0.000532,0.001763,0.000054,0.001764,-0.000533,88.642960,0.001809,
940,1650,0.212414,-0.758014,0.999999,0.000148,-0.000943,0.002228,0.000096,0.002231,-0.000946,88.262385,0.002239,
1450,1260,-0.286168,-1.664858,0.999998,0.000170,-0.001910,0.003099,-0.000518,0.003153,-0.001963,-84.155728,0.003184,
1750,400,-0.464074,-4.129661,0.999998,0.000180,-0.001229,0.002545,0.000032,0.002545,-0.001229,89.507257,0.002546,
850,880,0.676479,-2.922205,0.999998,0.000163,-0.001367,0.002878,0.000340,0.002905,-0.001394,85.446061,0.002906,
1420,700,-0.172377,-3.702492,0.999998,0.000158,-0.001466,0.002474,0.000727,0.002604,-0.001596,79.866031,0.002626,
1600,1890,-0.123666,-0.271128,0.999998,0.000171,-0.000591,0.002051,0.000301,0.002085,-0.000625,83.572415,0.002140,
1320,840,-0.120683,-3.674476,0.999998,0.000169,-0.001086,0.001213,0.000792,0.001459,-0.001332,72.721814,0.001617,
800,1080,0.813226,-2.386217,0.999998,0.000149,-0.001050,0.002559,-0.000174,0.002567,-0.001059,-87.244164,0.002580,
1020,1370,0.202583,-1.337638,0.999998,0.000169,-0.001474,0.002559,0.000633,0.002656,-0.001571,81.286999,0.002671,
840,450,0.342034,-4.102887,0.999998,0.000188,-0.001208,0.002453,-0.000101,0.002456,-0.001211,-88.414257,0.002456,
1360,750,-0.102072,-3.710501,0.999998,0.000169,-0.001305,0.002029,0.001012,0.002312,-0.001588,74.368820,0.002365,
1290,1720,-0.030332,-0.520709,0.999998,0.000134,-0.000458,0.001813,-0.000002,0.001813,-0.000458,-89.959833,0.001885,
1160,1640,0.041118,-0.666500,0.999998,0.000149,-0.000638,0.001828,0.000086,0.001831,-0.000641,88.001652,0.001858,
800,1110,0.795913,-2.307179,0.999998,0.000171,-0.001118,0.002621,-0.000241,0.002637,-0.001133,-86.329394,0.002645,
1450,1830,-0.083201,-0.351947,0.999998,0.000185,-0.000432,0.001871,0.000097,0.001875,-0.000436,87.595194,0.001963,
1780,1950,-0.162839,-0.190568,0.999998,0.000173,-0.000783,0.002381,0.000681,0.002521,-0.000923,78.354344,0.002551,
910,760,0.441968,-3.328215,0.999997,0.000182,-0.001752,0.003102,-0.000045,0.003102,-0.001752,-89.463094,0.003111,
1060,1520,0.127518,-0.950849,0.999998,0.000145,-0.000914,0.002068,0.000360,0.002111,-0.000957,83.206615,0.002114,
1660,40,-0.022763,-5.002781,0.999999,0.000130,-0.000159,0.001771,-0.000460,0.001875,-0.000263,-77.242944,0.002030,
850,890,0.687677,-2.893393,0.999998,0.000168,-0.001328,0.002840,0.000339,0.002868,-0.001356,85.379554,0.002869,
1210,290,0.009267,-4.602321,0.999998,0.000150,-0.000443,0.001743,-0.000022,0.001743,-0.000443,-89.419914,0.001812,
1030,1120,0.492872,-2.102593,0.999998,0.000181,-0.001621,0.003836,0.000515,0.003884,-0.001669,84.660898,0.003897,
760,1820,0.269114,-0.465089,0.999998,0.000163,-0.000949,0.002418,-0.000253,0.002437,-0.000968,-85.718252,0.002454,
1620,1170,-0.691916,-2.134872,0.999998,0.000175,-0.001348,0.002853,0.000344,0.002881,-0.001376,85.344269,0.002882,
1520,1410,-0.302472,-1.339021,0.999998,0.000169,-0.001502,0.002680,-0.000339,0.002707,-0.001530,-85.395986,0.002715,
1110,610,0.086201,-3.988621,0.999999,0.000147,-0.000911,0.001840,-0.000520,0.001935,-0.001006,-79.646774,0.001935,
1060,290,0.080055,-4.577736,0.999997,0.000199,-0.000583,0.001887,-0.000021,0.001887,-0.000583,-89.520034,0.001932,
1710,1470,-0.542132,-1.355735,0.999997,0.000183,-0.001367,0.002641,-0.000037,0.002641,-0.001367,-89.469196,0.002642,
890,1150,0.651257,-2.174367,0.999998,0.000168,-0.001308,0.002963,-0.000348,0.002991,-0.001336,-85.374142,0.002997,
670,1620,0.541561,-1.034445,0.999997,0.000208,-0.001257,0.002515,0.000030,0.002515,-0.001257,89.547433,0.002515,
600,200,0.405027,-4.534506,0.999997,0.000205,-0.001226,0.002497,0.000100,0.002499,-0.001228,88.464908,0.002499,
1590,270,-0.197739,-4.547545,0.999998,0.000147,-0.000846,0.002195,-0.000093,0.002198,-0.000849,-88.249999,0.002216,
1670,490,-0.424217,-3.964529,0.999997,0.000186,-0.001277,0.002535,0.000093,0.002537,-0.001280,88.597736,0.002537,
1890,1200,-0.996537,-2.153828,0.999998,0.000145,-0.001145,0.002240,0.000065,0.002241,-0.001146,88.901298,0.002241,
1570,920,-0.665038,-2.824029,0.999998,0.000172,-0.001273,0.002914,-0.000351,0.002943,-0.001302,-85.240853,0.002950,
1540,780,-0.440092,-3.280745,0.999998,0.000181,-0.001801,0.003111,0.000038,0.003111,-0.001802,89.553710,0.003124,
1500,1240,-0.407586,-1.819589,0.999998,0.000174,-0.001904,0.003262,-0.000103,0.003264,-0.001906,-88.861011,0.003279,
1760,280,-0.376484,-4.424272,0.999997,0.000190,-0.001194,0.002526,-0.000085,0.002528,-0.001196,-88.695555,0.002529,
930,1490,0.285199,-1.145536,0.999998,0.000177,-0.001328,0.002556,0.000271,0.002575,-0.001347,86.024168,0.002576,
640,1470,0.690415,-1.442395,0.999998,0.000156,-0.001270,0.002559,-0.000008,0.002559,-0.001270,-89.876489,0.002559,
1090,1840,0.046660,-0.319579,0.999998,0.000162,-0.000319,0.001760,-0.000073,0.001763,-0.000321,-88.003627,0.001878,
780,170,0.182976,-4.735258,0.999998,0.000160,-0.000775,0.002239,0.000385,0.002287,-0.000823,82.827816,0.002317,
1670,1100,-0.807962,-2.334124,0.999998,0.000161,-0.001080,0.002601,0.000251,0.002618,-0.001098,86.112382,0.002629,
1420,680,-0.167865,-3.752407,0.999998,0.000165,-0.001410,0.002399,0.000695,0.002521,-0.001533,79.980073,0.002541,
810,1760,0.272438,-0.582116,0.999998,0.000162,-0.000985,0.002385,-0.000097,0.002388,-0.000988,-88.358325,0.002400,
1160,1620,0.043336,-0.701881,0.999998,0.000143,-0.000652,0.001813,0.000109,0.001818,-0.000656,87.466261,0.001841,
800,1060,0.817856,-2.437997,0.999998,0.000159,-0.001008,0.002570,-0.000099,0.002572,-0.001011,-88.418413,0.002592,
1040,510,0.143544,-4.126133,0.999998,0.000152,-0.000989,0.002143,-0.000295,0.002170,-0.001016,-84.669653,0.002172,
1150,1190,0.187782,-1.362672,0.999997,0.000249,-0.001027,0.000790,0.000381,0.000866,-0.001104,78.627415,0.001162,
720,1300,0.732538,-1.831751,0.999998,0.000174,-0.001365,0.002640,-0.000213,0.002651,-0.001376,-86.961166,0.002652,
650,540,0.643801,-3.720608,0.999997,0.000190,-0.001302,0.002595,-0.000025,0.002595,-0.001302,-89.628782,0.002596,
1200,1770,0.014603,-0.430172,0.999998,0.000143,-0.000442,0.001782,0.000015,0.001782,-0.000443,89.613905,0.001856,
730,660,0.631221,-3.468734,0.999997,0.000180,-0.001361,0.002657,0.000062,0.002658,-0.001362,89.120614,0.002659,
1800,1310,-0.796954,-1.836577,0.999998,0.000150,-0.001263,0.002554,0.000151,0.002559,-0.001269,87.733660,0.002560,
1000,1510,0.191862,-1.028812,0.999999,0.000140,-0.001109,0.002258,0.000358,0.002296,-0.001147,83.993718,0.002296,
1320,820,-0.095963,-3.699930,0.999998,0.000157,-0.001160,0.001330,0.001006,0.001686,-0.001516,70.525515,0.001856,
1460,270,-0.106738,-4.597093,0.999999,0.000124,-0.000580,0.001966,-0.000059,0.001967,-0.000581,-88.678028,0.002021,
1450,1810,-0.091192,-0.393736,0.999998,0.000153,-0.000498,0.001952,0.000074,0.001954,-0.000500,88.259941,0.002030,
1020,950,0.536466,-2.849496,0.999997,0.000194,-0.001546,0.003946,-0.000302,0.003963,-0.001562,-86.864883,0.003992,
1450,1240,-0.309579,-1.726800,0.999997,0.000214,-0.001932,0.003180,-0.000474,0.003223,-0.001976,-84.752057,0.003250,
1070,1200,0.260517,-1.688405,0.999998,0.000176,-0.001806,0.002839,0.000867,0.002996,-0.001962,79.762267,0.003043,
1060,1500,0.128241,-0.991327,0.999998,0.000147,-0.000979,0.002053,0.000411,0.002107,-0.001033,82.420432,0.002107,
1210,270,0.008928,-4.636422,0.999998,0.000157,-0.000419,0.001748,-0.000030,0.001748,-0.000419,-89.217697,0.001825,
1620,1150,-0.712078,-2.190253,0.999998,0.000153,-0.001276,0.002790,0.000340,0.002818,-0.001304,85.258318,0.002820,
640,60,0.093337,-4.948393,0.999998,0.000158,-0.000748,0.002397,0.000807,0.002592,-0.000942,76.419213,0.002624,
1500,1430,-0.264721,-1.262675,0.999998,0.000195,-0.001448,0.002565,-0.000406,0.002606,-0.001488,-84.280531,0.002615,
1790,1810,-0.374548,-0.552097,0.999997,0.000206,-0.001179,0.002553,0.000174,0.002561,-0.001187,87.336264,0.002563,
1680,650,-0.547832,-3.534090,0.999997,0.000197,-0.001460,0.002735,-0.000026,0.002735,-0.001460,-89.648102,0.002737,
840,1060,0.778677,-2.434022,0.999998,0.000167,-0.001004,0.002602,-0.000130,0.002607,-0.001009,-87.935120,0.002629,
1300,810,-0.062286,-3.769852,0.999998,0.000140,-0.001052,0.001031,0.000851,0.001334,-0.001355,70.376211,0.001553,
1370,1410,-0.102220,-1.137139,0.999998,0.000151,-0.001046,0.001980,-0.000633,0.002107,-0.001173,-78.639844,0.002112,
720,1510,0.556348,-1.276864,0.999998,0.000190,-0.001321,0.002601,0.000049,0.002601,-0.001322,89.283292,0.002601,
1670,470,-0.411650,-4.014638,0.999998,0.000171,-0.001252,0.002527,0.000097,0.002529,-0.001255,88.537821,0.002529,
910,460,0.265645,-4.131701,0.999998,0.000160,-0.001125,0.002371,-0.000166,0.002379,-0.001133,-87.284190,0.002380,
590,1000,1.042252,-2.580133,0.999999,0.000136,-0.001010,0.002125,0.000058,0.002126,-0.001011,88.938861,0.002127,
890,1130,0.672143,-2.230601,0.999998,0.000175,-0.001221,0.002914,-0.000359,0.002945,-0.001252,-85.070183,0.002956,
670,1640,0.526637,-0.983971,0.999997,0.000189,-0.001260,0.002538,0.000032,0.002538,-0.001260,89.523426,0.002538,
1350,1720,-0.062725,-0.535193,0.999998,0.000176,-0.000549,0.001847,-0.000062,0.001849,-0.000550,-88.521936,0.001899,
1710,1450,-0.556471,-1.407789,0.999998,0.000189,-0.001386,0.002673,-0.000020,0.002673,-0.001386,-89.711218,0.002673,
1880,440,-0.654159,-3.922008,0.999998,0.000166,-0.001236,0.002487,0.000009,0.002487,-0.001236,89.861910,0.002487,
1500,1220,-0.435661,-1.885067,0.999998,0.000174,-0.001895,0.003309,-0.000018,0.003310,-0.001895,-89.807249,0.003321,
1110,590,0.086975,-4.024836,0.999998,0.000153,-0.000882,0.001884,-0.000469,0.001962,-0.000959,-80.637382,0.001962,
1420,660,-0.164759,-3.798017,0.999998,0.000170,-0.001357,0.002319,0.000643,0.002428,-0.001466,80.356130,0.002445,
600,400,0.604250,-4.037497,0.999998,0.000178,-0.001236,0.002505,-0.000036,0.002505,-0.001236,-89.443236,0.002505,
1760,730,-0.731577,-3.265802,0.999998,0.000183,-0.001330,0.002627,-0.000164,0.002634,-0.001337,-87.632938,0.002634,
1760,260,-0.356344,-4.475236,0.999998,0.000208,-0.001182,0.002523,-0.000139,0.002528,-0.001187,-87.860141,0.002530,
1160,1600,0.044332,-0.739491,0.999999,0.000135,-0.000678,0.001812,0.000121,0.001818,-0.000684,87.229214,0.001837,
1380,430,-0.094877,-4.314831,0.999998,0.000165,-0.000749,0.001965,0.000180,0.001977,-0.000761,86.225846,0.001994,
920,90,0.044626,-4.920997,0.999999,0.000124,-0.000174,0.001773,0.000303,0.001819,-0.000220,81.361051,0.001985,
800,1040,0.822708,-2.488953,0.999998,0.000158,-0.000995,0.002549,-0.000057,0.002550,-0.000996,-89.082963,0.002570,
1460,250,-0.099643,-4.636483,0.999998,0.000145,-0.000527,0.001932,-0.000085,0.001935,-0.000530,-88.018025,0.001999,
710,660,0.659488,-3.454098,0.999997,0.000234,-0.001375,0.002637,0.000057,0.002638,-0.001376,89.187302,0.002639,
1180,1770,0.023253,-0.432073,0.999999,0.000135,-0.000409,0.001775,0.000007,0.001775,-0.000409,89.809825,0.001859,
1320,800,-0.074872,-3.727379,0.999998,0.000171,-0.001099,0.001423,0.001045,0.001799,-0.001475,70.179568,0.001918,
1830,1590,-0.609940,-1.141423,0.999998,0.000184,-0.001260,0.002530,-0.000030,0.002531,-0.001260,-89.542187,0.002531,
1020,930,0.499176,-2.928526,0.999997,0.000196,-0.001581,0.003793,-0.000276,0.003807,-0.001595,-87.071118,0.003823,
1850,960,-1.008452,-2.668581,0.999998,0.000164,-0.001065,0.002201,-0.000030,0.002201,-0.001065,-89.474471,0.002201,
750,1960,0.104063,-0.148599,0.999998,0.000151,-0.000354,0.002063,-0.000604,0.002205,-0.000496,-76.717476,0.002314,
1450,1790,-0.099791,-0.429816,0.999998,0.000144,-0.000548,0.001932,0.000067,0.001934,-0.000550,88.446817,0.001993,
730,1700,0.407818,-0.782730,0.999998,0.000181,-0.001223,0.002509,-0.000009,0.002509,-0.001223,-89.869072,0.002509,
850,150,0.118611,-4.795922,0.999998,0.000153,-0.000504,0.002054,0.000359,0.002104,-0.000553,82.158357,0.002181,
670,340,0.468530,-4.245195,0.999997,0.000212,-0.001197,0.002517,0.000000,0.002517,-0.001197,-89.998300,0.002518,
1790,1770,-0.416851,-0.651605,0.999997,0.000202,-0.001208,0.002527,0.000081,0.002529,-0.001210,88.753487,0.002530,
630,1970,0.162451,-0.169159,0.999998,0.000165,-0.001054,0.002650,-0.000638,0.002757,-0.001161,-80.493349,0.002769,
1830,600,-0.711837,-3.553786,0.999998,0.000168,-0.001291,0.002540,-0.000025,0.002540,-0.001291,-89.624977,0.002541,
1840,1310,-0.847926,-1.861256,0.999998,0.000168,-0.001236,0.002503,0.000124,0.002507,-0.001240,88.107112,0.002507,
640,1450,0.706748,-1.493044,0.999997,0.000193,-0.001276,0.002571,-0.000031,0.002571,-0.001276,-89.536237,0.002571,
570,1290,0.929333,-1.948144,0.999994,0.000297,-0.001301,0.002402,-0.000052,0.002402,-0.001302,-89.195712,0.002405,
1070,1840,0.053573,-0.321403,0.999999,0.000135,-0.000402,0.001793,-0.000066,0.001795,-0.000404,-88.274153,0.001883,
1460,1510,-0.188312,-1.025358,0.999999,0.000132,-0.001116,0.002262,-0.000357,0.002299,-0.001154,-84.030437,0.002299,
1280,810,-0.043166,-3.814775,0.999998,0.000171,-0.000943,0.000749,0.000615,0.000949,-0.001143,71.995999,0.001223,
1510,1280,-0.379716,-1.703870,0.999997,0.000179,-0.001837,0.003125,-0.000187,0.003132,-0.001844,-87.849436,0.003148,
650,1640,0.552800,-0.999961,0.999998,0.000185,-0.001255,0.002533,0.000038,0.002534,-0.001256,89.423012,0.002534,
1670,450,-0.398132,-4.066077,0.999998,0.000168,-0.001229,0.002526,0.000074,0.002527,-0.001231,88.876508,0.002528,
1270,1420,-0.021889,-1.025080,0.999998,0.000171,-0.000614,0.001416,-0.000211,0.001438,-0.000635,-84.127915,0.001441,
900,50,0.020478,-4.988362,0.999999,0.000132,-0.000114,0.001644,0.000323,0.001701,-0.000171,79.902285,0.001873,
1300,670,-0.041006,-3.941763,0.999998,0.000161,-0.000727,0.001446,0.000502,0.001556,-0.000837,77.604275,0.001558,
950,620,0.280638,-3.775498,0.999998,0.000181,-0.001416,0.002596,-0.000356,0.002627,-0.001448,-84.964462,0.002632,
1330,1720,-0.050831,-0.528113,0.999997,0.000209,-0.000585,0.001810,-0.000078,0.001812,-0.000588,-88.140850,0.001849,
720,1280,0.751120,-1.884621,0.999998,0.000181,-0.001334,0.002612,-0.000233,0.002626,-0.001348,-86.636478,0.002626,
890,1110,0.695914,-2.290786,0.999998,0.000191,-0.001116,0.002880,-0.000326,0.002906,-0.001143,-85.370238,0.002928,
1690,1960,-0.094272,-0.144494,0.999998,0.000162,-0.000399,0.002027,0.000529,0.002137,-0.000509,78.215543,0.002232,
1590,250,-0.185120,-4.591086,0.999998,0.000155,-0.000797,0.002178,-0.000139,0.002184,-0.000804,-87.330347,0.002210,
1500,1640,-0.192923,-0.765532,0.999998,0.000174,-0.000937,0.002204,-0.000146,0.002210,-0.000944,-87.342561,0.002218,
1400,1650,-0.106252,-0.686384,0.999999,0.000150,-0.000777,0.001984,-0.000167,0.001994,-0.000787,-86.558190,0.002009,
1710,1430,-0.570683,-1.461975,0.999997,0.000201,-0.001422,0.002666,0.000006,0.002666,-0.001422,89.918586,0.002668,
1370,350,-0.075581,-4.471152,0.999998,0.000177,-0.000590,0.001865,0.000057,0.001866,-0.000591,88.677699,0.001907,
560,1150,1.035663,-2.268021,0.999998,0.000000,-0.000883,0.002115,-0.000012,0.002115,-0.000884,-89.768413,0.002125,
1110,570,0.083707,-4.066247,0.999999,0.000140,-0.000856,0.001877,-0.000427,0.001942,-0.000921,-81.318344,0.001943,
1710,1240,-0.743477,-1.975329,0.999998,0.000158,-0.001353,0.002671,0.000268,0.002689,-0.001371,86.203318,0.002689,
1880,420,-0.640025,-3.972124,0.999998,0.000181,-0.001231,0.002500,0.000024,0.002500,-0.001232,89.632094,0.002500,
1420,1020,-0.559274,-2.559739,0.999995,0.000292,-0.002602,0.005773,0.000334,0.005786,-0.002616,87.719702,0.005795,
1420,640,-0.158966,-3.845731,0.999998,0.000162,-0.001282,0.002263,0.000576,0.002355,-0.001374,80.996267,0.002366,
870,940,0.714226,-2.758275,0.999998,0.000180,-0.001152,0.002814,0.000332,0.002842,-0.001180,85.252621,0.002855,
800,1020,0.823270,-2.540415,0.999998,0.000162,-0.000978,0.002530,0.000035,0.002530,-0.000978,89.430941,0.002552,
1160,1580,0.044838,-0.774611,0.999998,0.000143,-0.000687,0.001791,0.000159,0.001801,-0.000697,86.339732,0.001816,
590,1670,0.604429,-0.974656,0.999998,0.000180,-0.001486,0.002550,-0.000043,0.002551,-0.001486,-89.390709,0.002562,
740,770,0.717343,-3.179684,0.999998,0.000191,-0.001393,0.002684,0.000215,0.002696,-0.001404,86.988913,0.002696,
1320,780,-0.065726,-3.756613,0.999998,0.000154,-0.001058,0.001439,0.001028,0.001808,-0.001427,70.265588,0.001906,
1220,90,0.001258,-4.932772,0.999999,0.000120,-0.000101,0.001534,-0.000009,0.001534,-0.000101,-89.676260,0.001716,
1440,250,-0.088580,-4.640505,0.999998,0.000168,-0.000521,0.001898,-0.000053,0.001899,-0.000522,-88.743723,0.001962,
1360,410,-0.078676,-4.362034,0.999998,0.000168,-0.000658,0.001885,0.000116,0.001891,-0.000664,87.402496,0.001918,
580,1290,0.916897,-1.941252,0.999999,0.000159,-0.001265,0.002417,-0.000060,0.002418,-0.001266,-89.070062,0.002419,
990,1140,0.518592,-2.115237,0.999997,0.000189,-0.001612,0.003511,-0.000076,0.003512,-0.001614,-89.153606,0.003516,
710,1700,0.432360,-0.798652,0.999997,0.000193,-0.001219,0.002526,0.000009,0.002526,-0.001219,89.862682,0.002526,
840,990,0.777635,-2.619504,0.999998,0.000189,-0.001008,0.002635,0.000152,0.002641,-0.001014,87.610011,0.002665,
1440,1510,-0.167929,-1.006950,0.999998,0.000158,-0.001054,0.002202,-0.000373,0.002244,-0.001096,-83.553852,0.002245,
630,1430,0.735811,-1.553250,0.999997,0.000205,-0.001269,0.002573,-0.000022,0.002573,-0.001269,-89.679101,0.002573,
630,160,0.308985,-4.671129,0.999998,0.000191,-0.001217,0.002641,0.000262,0.002658,-0.001235,86.127181,0.002661,
850,110,0.081076,-4.876185,0.999999,0.000140,-0.000340,0.001947,0.000393,0.002012,-0.000406,80.518047,0.002128,
1450,1770,-0.107308,-0.469434,0.999998,0.000162,-0.000589,0.001966,0.000039,0.001967,-0.000589,89.120975,0.002019,
1760,460,-0.519874,-3.968009,0.999998,0.000181,-0.001262,0.002552,0.000040,0.002552,-0.001263,89.397512,0.002552,
1670,430,-0.386003,-4.115967,0.999998,0.000172,-0.001205,0.002488,0.000057,0.002489,-0.001206,89.116814,0.002489,
1110,360,0.067751,-4.458850,0.999998,0.000188,-0.000593,0.001893,-0.000063,0.001895,-0.000595,-88.553353,0.001938,
1810,600,-0.685227,-3.568579,0.999998,0.000172,-0.001290,0.002563,-0.000021,0.002563,-0.001290,-89.688375,0.002564,
1820,1310,-0.822485,-1.850473,0.999999,0.000127,-0.001261,0.002511,0.000135,0.002515,-0.001266,87.949580,0.002515,
890,1090,0.712591,-2.346117,0.999998,0.000196,-0.001030,0.002822,-0.000260,0.002840,-0.001048,-86.161387,0.002872,
1060,1480,0.132128,-1.032217,0.999999,0.000137,-0.001031,0.002054,0.000482,0.002128,-0.001105,81.321644,0.002128,
1790,1750,-0.435029,-0.702866,0.999998,0.000176,-0.001186,0.002500,0.000049,0.002501,-0.001186,89.236015,0.002502,
1590,1420,-0.401648,-1.388477,0.999998,0.000185,-0.001515,0.002760,-0.000168,0.002766,-0.001522,-87.756655,0.002771,
1270,1400,-0.021718,-1.052284,0.999999,0.000144,-0.000595,0.001361,-0.000262,0.001396,-0.000630,-82.497850,0.001398,
1640,1770,-0.253901,-0.551331,0.999998,0.000209,-0.000884,0.002359,0.000155,0.002366,-0.000891,87.274565,0.002390,
1600,690,-0.459478,-3.488943,0.999998,0.000200,-0.001593,0.002846,0.000054,0.002846,-0.001594,89.297710,0.002853,
1710,1410,-0.586162,-1.515389,0.999997,0.000203,-0.001425,0.002699,0.000047,0.002700,-0.001425,89.351018,0.002701,
1500,1660,-0.185371,-0.720668,0.999998,0.000163,-0.000936,0.002178,-0.000132,0.002183,-0.000941,-87.584246,0.002190,
1470,320,-0.132888,-4.492779,0.999998,0.000145,-0.000666,0.002062,0.000003,0.002062,-0.000666,89.936445,0.002105,
1370,1390,-0.102887,-1.176722,0.999998,0.000148,-0.001111,0.001982,-0.000714,0.002139,-0.001268,-77.610052,0.002151,
1210,250,0.009237,-4.671341,0.999998,0.000166,-0.000391,0.001726,-0.000020,0.001726,-0.000391,-89.457069,0.001810,
1830,1570,-0.624402,-1.191023,0.999998,0.000172,-0.001254,0.002531,-0.000036,0.002532,-0.001254,-89.454548,0.002532,
1730,1880,-0.222467,-0.334400,0.999998,0.000164,-0.000848,0.002355,0.000424,0.002410,-0.000903,82.586219,0.002435,
750,1940,0.130860,-0.191554,0.999998,0.000182,-0.000467,0.002220,-0.000628,0.002359,-0.000606,-77.473754,0.002451,
1440,1030,-0.600344,-2.508505,0.999996,0.000244,-0.001747,0.004627,-0.000023,0.004627,-0.001747,-89.797689,0.004673,
1420,620,-0.156254,-3.890333,0.999998,0.000163,-0.001202,0.002239,0.000536,0.002320,-0.001284,81.356400,0.002325,
1110,1290,0.097946,-1.341658,0.999998,0.000168,-0.001293,0.001968,0.001070,0.002288,-0.001612,73.365000,0.002351,
620,1470,0.716563,-1.457303,0.999998,0.000165,-0.001269,0.002539,0.000012,0.002539,-0.001270,89.814595,0.002539,
1780,830,-0.848636,-2.998163,0.999998,0.000152,-0.001241,0.002510,-0.000235,0.002525,-0.001256,-86.431380,0.002525,
1160,1560,0.046032,-0.810516,0.999998,0.000140,-0.000693,0.001765,0.000183,0.001779,-0.000706,85.758731,0.001791,
580,1670,0.616262,-0.983032,0.999998,0.000170,-0.003158,0.002699,-0.000147,0.002703,-0.003162,-88.562778,0.003417,
800,1000,0.820666,-2.588942,0.999998,0.000156,-0.001006,0.002549,0.000102,0.002552,-0.001009,88.363191,0.002570,
1320,1340,-0.054654,-1.190580,0.999999,0.000140,-0.000855,0.001523,-0.000784,0.001759,-0.001090,-73.303866,0.001775,
1120,90,0.012668,-4.931297,0.999999,0.000142,-0.000119,0.001561,0.000040,0.001562,-0.000119,88.622795,0.001738,
1120,210,0.036643,-4.732571,0.999998,0.000144,-0.000366,0.001724,0.000033,0.001725,-0.000366,89.104001,0.001817,
1650,40,-0.021743,-5.003065,0.999999,0.000124,-0.000121,0.001759,-0.000461,0.001866,-0.000228,-76.931942,0.002036,
820,990,0.797080,-2.616957,0.999998,0.000156,-0.001021,0.002607,0.000130,0.002612,-0.001026,87.955862,0.002632,
1010,1690,0.137112,-0.631200,0.999998,0.000152,-0.000718,0.002093,0.000071,0.002095,-0.000719,88.556952,0.002129,
770,90,0.089457,-4.905296,0.999999,0.000137,-0.000364,0.001997,0.000552,0.002120,-0.000486,77.470559,0.002221,
1450,1750,-0.116138,-0.509541,0.999998,0.000169,-0.000618,0.001995,0.000002,0.001995,-0.000618,89.965925,0.002043,
730,1640,0.452249,-0.936963,0.999998,0.000169,-0.001200,0.002530,0.000042,0.002531,-0.001200,89.358039,0.002532,
1040,610,0.158407,-3.908101,0.999998,0.000155,-0.001165,0.002221,-0.000514,0.002297,-0.001242,-81.560161,0.002300,
1500,1680,-0.179829,-0.678645,0.999998,0.000150,-0.000921,0.002172,-0.000128,0.002177,-0.000926,-87.633883,0.002185,
1260,1270,-0.018952,-1.177865,0.999998,0.000166,-0.000692,0.000669,-0.000416,0.000786,-0.000809,-74.268785,0.000921,
1180,1230,0.059924,-1.241562,0.999999,0.000142,-0.001077,0.000809,0.000509,0.000937,-0.001205,75.828961,0.001266,
590,1290,0.904521,-1.934041,0.999998,0.000154,-0.001193,0.002438,-0.000072,0.002440,-0.001194,-88.864838,0.002440,
1600,1470,-0.386651,-1.261895,0.999997,0.000198,-0.001400,0.002644,-0.000172,0.002651,-0.001408,-87.562097,0.002653,
1490,1040,-0.660807,-2.478195,0.999998,0.000190,-0.000998,0.003352,0.000043,0.003352,-0.000998,89.432492,0.003443,
1790,1970,-0.136648,-0.149448,0.999998,0.000153,-0.000531,0.002383,0.000908,0.002643,-0.000791,74.029185,0.002713,
930,1930,0.066338,-0.183260,0.999998,0.000152,-0.000288,0.001857,-0.000261,0.001888,-0.000320,-83.155293,0.002021,
840,1500,0.400730,-1.203669,0.999998,0.000168,-0.001359,0.002646,0.000125,0.002650,-0.001363,88.213573,0.002650,
1790,1730,-0.452290,-0.751768,0.999998,0.000175,-0.001198,0.002528,0.000000,0.002528,-0.001198,89.997761,0.002529,
680,1300,0.784144,-1.853279,0.999998,0.000171,-0.001308,0.002555,-0.000177,0.002563,-0.001316,-87.387813,0.002563,
1460,870,-0.413441,-3.106840,0.999998,0.000170,-0.001894,0.003449,0.000166,0.003454,-0.001899,88.225976,0.003460,
720,1260,0.769626,-1.935484,0.999998,0.000178,-0.001303,0.002598,-0.000240,0.002612,-0.001318,-86.491833,0.002612,
990,1120,0.553639,-2.185262,0.999998,0.000179,-0.001488,0.003576,-0.000122,0.003579,-0.001491,-88.624810,0.003596,
1890,180,-0.410451,-4.551564,0.999998,0.000179,-0.001256,0.002534,-0.000133,0.002539,-0.001261,-87.989573,0.002539,
630,1410,0.751632,-1.603247,0.999998,0.000185,-0.001296,0.002548,-0.000038,0.002548,-0.001296,-89.433413,0.002548,
990,440,0.175706,-4.237155,0.999998,0.000169,-0.000981,0.002189,-0.000214,0.002204,-0.000996,-86.155095,0.002207,
1300,650,-0.041603,-3.971730,0.999998,0.000163,-0.000709,0.001516,0.000446,0.001602,-0.000795,79.064867,0.001602,
1630,690,-0.506506,-3.463162,0.999997,0.000216,-0.001587,0.002823,-0.000009,0.002823,-0.001587,-89.879075,0.002831,
1450,320,-0.119264,-4.501839,0.999998,0.000185,-0.000659,0.002028,0.000018,0.002028,-0.000659,89.607233,0.002069,
1060,1460,0.134879,-1.075985,0.999998,0.000143,-0.001092,0.002131,0.000548,0.002221,-0.001182,80.610713,0.002223,
1540,760,-0.419419,-3.341970,0.999998,0.000173,-0.001811,0.003054,0.000091,0.003056,-0.001813,88.927590,0.003074,
1720,830,-0.771838,-3.020961,0.999998,0.000190,-0.001366,0.002667,-0.000287,0.002688,-0.001386,-85.956570,0.002688,
1750,650,-0.647803,-3.483422,0.999998,0.000181,-0.001367,0.002648,-0.000086,0.002650,-0.001369,-88.780290,0.002650,
1210,230,0.006068,-4.706271,0.999998,0.000173,-0.000354,0.001693,-0.000012,0.001693,-0.000354,-89.650616,0.001786,
610,160,0.333347,-4.649629,0.999998,0.000186,-0.001221,0.002605,0.000203,0.002615,-0.001232,86.966780,0.002617,
1620,1770,-0.235998,-0.542613,0.999998,0.000169,-0.000869,0.002318,0.000144,0.002324,-0.000875,87.421097,0.002348,
1600,670,-0.443563,-3.546289,0.999996,0.000225,-0.001570,0.002819,0.000075,0.002820,-0.001572,89.014883,0.002826,
1260,410,-0.017166,-4.388264,0.999998,0.000179,-0.000600,0.001800,0.000071,0.001802,-0.000602,88.310582,0.001835,
560,1110,1.060021,-2.354814,0.999998,0.000000,-0.000956,0.002013,-0.000010,0.002013,-0.000956,-89.807450,0.002014,
1710,1390,-0.605557,-1.569793,0.999998,0.000220,-0.001425,0.002691,0.000076,0.002692,-0.001427,88.945745,0.002694,
890,1290,0.482459,-1.748037,0.999997,0.000189,-0.001705,0.002995,-0.000040,0.002995,-0.001705,-89.507596,0.003005,
1380,1650,-0.091081,-0.675425,0.999998,0.000145,-0.000697,0.001952,-0.000139,0.001960,-0.000704,-86.998171,0.001985,
1730,1860,-0.249181,-0.381950,0.999998,0.000154,-0.000920,0.002403,0.000374,0.002445,-0.000961,83.654756,0.002463,
890,50,0.021369,-4.987986,0.999999,0.000126,-0.000144,0.001647,0.000324,0.001704,-0.000200,80.065564,0.001862,
950,1220,0.458037,-1.901804,0.999998,0.000165,-0.001833,0.003272,-0.000056,0.003272,-0.001834,-89.369340,0.003280,
1160,1760,0.030111,-0.451607,0.999998,0.000156,-0.000436,0.001779,-0.000012,0.001779,-0.000436,-89.696911,0.001855,
1830,1550,-0.639244,-1.241128,0.999998,0.000190,-0.001257,0.002565,-0.000037,0.002566,-0.001257,-89.441850,0.002566,
560,1140,1.043202,-2.289468,0.999997,0.000000,-0.000868,0.002200,-0.000055,0.002201,-0.000869,-88.971635,0.002217,
1350,1440,-0.083546,-1.058468,0.999998,0.000151,-0.000905,0.001849,-0.000523,0.001944,-0.001001,-79.606950,0.001945,
810,740,0.587020,-3.303522,0.999997,0.000198,-0.001535,0.002857,0.000129,0.002861,-0.001539,88.316788,0.002864,
970,1690,0.166397,-0.652822,0.999998,0.000188,-0.000901,0.002145,0.000132,0.002151,-0.000906,87.516326,0.002160,
1680,1170,-0.768009,-2.152209,0.999998,0.000182,-0.001234,0.002652,0.000290,0.002674,-0.001255,85.751622,0.002675,
700,1010,0.926129,-2.562742,0.999999,0.000125,-0.001063,0.002424,0.000081,0.002426,-0.001065,88.672778,0.002432,
1010,1670,0.143439,-0.673219,0.999998,0.000145,-0.000759,0.002070,0.000079,0.002073,-0.000762,88.408876,0.002097,
1270,690,-0.020188,-3.943855,0.999999,0.000142,-0.000590,0.001222,0.000330,0.001280,-0.000649,79.990235,0.001280,
1370,860,-0.228656,-3.428059,0.999998,0.000163,-0.001429,0.002285,0.001160,0.002617,-0.001762,74.006500,0.002669,
1420,820,-0.257750,-3.370576,0.999998,0.000198,-0.001960,0.003042,0.000698,0.003137,-0.002056,82.198898,0.003187,
1370,1350,-0.107134,-1.258082,0.999998,0.000157,-0.001194,0.002047,-0.000843,0.002253,-0.001400,-76.260866,0.002275,
840,1480,0.413135,-1.257223,0.999998,0.000183,-0.001399,0.002658,0.000112,0.002661,-0.001402,88.425094,0.002662,
710,1640,0.477052,-0.950760,0.999998,0.000167,-0.001231,0.002535,0.000045,0.002535,-0.001231,89.315061,0.002536,
800,550,0.453363,-3.815384,0.999998,0.000164,-0.001345,0.002623,-0.000091,0.002625,-0.001348,-88.680314,0.002626,
1100,90,0.014444,-4.930486,0.999998,0.000147,-0.000120,0.001572,0.000080,0.001576,-0.000124,87.284993,0.001752,
680,1280,0.802837,-1.904224,0.999998,0.000174,-0.001269,0.002545,-0.000184,0.002554,-0.001278,-87.246782,0.002554,
1640,1270,-0.612103,-1.857166,0.999997,0.000208,-0.001556,0.002877,0.000207,0.002886,-0.001566,87.330258,0.002890,
1190,1280,0.024956,-1.186667,0.999999,0.000136,-0.000649,0.000796,0.000595,0.001010,-0.000863,70.258342,0.001091,
1790,1710,-0.468229,-0.804878,0.999998,0.000175,-0.001203,0.002538,-0.000008,0.002538,-0.001203,-89.884428,0.002539,
1320,240,-0.031530,-4.684774,0.999998,0.000151,-0.000381,0.001739,-0.000002,0.001739,-0.000381,-89.946874,0.001828,
1810,40,-0.045037,-4.995398,0.999998,0.000159,-0.000327,0.002162,-0.000915,0.002461,-0.000627,-71.844889,0.002558,
1880,180,-0.398156,-4.563699,0.999998,0.000174,-0.001252,0.002547,-0.000136,0.002551,-0.001257,-87.959360,0.002552,
1210,1840,0.008617,-0.308031,0.999998,0.000197,-0.000334,0.001698,0.000018,0.001698,-0.000334,89.499681,0.001799,
1540,740,-0.400112,-3.404969,0.999998,0.000230,-0.001789,0.003025,0.000153,0.003030,-0.001794,88.180877,0.003047,
1360,1390,-0.092507,-1.161975,0.999998,0.000157,-0.001036,0.001908,-0.000699,0.002066,-0.001193,-77.297842,0.002074,
1320,860,-0.177425,-3.654825,0.999998,0.000179,-0.001006,0.000925,0.000528,0.001060,-0.001141,75.677041,0.001273,
630,1390,0.768928,-1.655488,0.999998,0.000166,-0.001279,0.002575,-0.000072,0.002577,-0.001280,-88.929862,0.002577,
1060,1660,0.107075,-0.668387,0.999998,0.000146,-0.000760,0.001979,0.000162,0.001988,-0.000770,86.632456,0.002005,
1590,230,-0.170398,-4.635027,0.999998,0.000159,-0.000770,0.002190,-0.000198,0.002203,-0.000784,-86.185570,0.002233,
1720,270,-0.322629,-4.478266,0.999997,0.000181,-0.001008,0.002483,-0.000186,0.002493,-0.001018,-86.955905,0.002507,
1430,400,-0.128596,-4.348075,0.999998,0.000152,-0.000780,0.002046,0.000141,0.002053,-0.000787,87.155941,0.002072,
720,1240,0.787830,-1.989089,0.999998,0.000172,-0.001288,0.002605,-0.000247,0.002621,-0.001304,-86.379186,0.002621,
1630,670,-0.490673,-3.518448,0.999997,0.000214,-0.001544,0.002794,0.000024,0.002795,-0.001544,89.688959,0.002800,
570,1670,0.641645,-0.993755,0.999830,0.001826,-0.004078,0.002888,-0.000334,0.002904,-0.004094,-87.258961,0.004212,
1110,1310,0.092988,-1.303777,0.999998,0.000191,-0.001208,0.001925,0.000991,0.002212,-0.001495,73.841651,0.002257,
1820,1870,-0.332837,-0.419258,0.999998,0.000156,-0.001100,0.002586,0.000275,0.002606,-0.001120,85.756576,0.002615,
570,810,0.965470,-2.988184,0.999998,0.000143,-0.001154,0.002290,0.000009,0.002290,-0.001154,89.846645,0.002290,
1260,490,-0.018428,-4.247788,0.999998,0.000158,-0.000620,0.001718,0.000091,0.001721,-0.000623,87.762265,0.001743,
1580,670,-0.410779,-3.564971,0.999997,0.000191,-0.001591,0.002832,0.000126,0.002836,-0.001595,88.368196,0.002843,
1240,410,-0.004707,-4.392373,0.999999,0.000119,-0.000604,0.001801,0.000028,0.001801,-0.000604,89.324374,0.001833,
1250,280,-0.008611,-4.620121,0.999998,0.000157,-0.000451,0.001773,0.000029,0.001773,-0.000452,89.259620,0.001843,
1620,1750,-0.250822,-0.588618,0.999998,0.000177,-0.000919,0.002269,0.000068,0.002270,-0.000920,88.776254,0.002284,
760,1280,0.695433,-1.865591,0.999998,0.000173,-0.001420,0.002712,-0.000228,0.002725,-0.001432,-86.854227,0.002726,
610,140,0.300874,-4.700099,0.999998,0.000179,-0.001224,0.002627,0.000285,0.002648,-0.001245,85.782322,0.002649,
1770,1240,-0.822424,-1.999373,0.999999,0.000131,-0.001272,0.002554,0.000224,0.002568,-0.001286,86.657963,0.002568,
880,490,0.313469,-4.036002,0.999999,0.000155,-0.001247,0.002453,-0.000194,0.002463,-0.001257,-86.999405,0.002463,
560,1100,1.063086,-2.374875,0.999996,0.000000,-0.000943,0.001964,0.000059,0.001965,-0.000944,88.847182,0.001966,
880,1460,0.368451,-1.272604,0.999998,0.000180,-0.001444,0.002628,0.000188,0.002637,-0.001452,87.364553,0.002641,
760,650,0.581892,-3.516475,0.999998,0.000195,-0.001447,0.002695,0.000027,0.002695,-0.001447,89.621430,0.002697,
1210,210,0.006713,-4.738694,0.999998,0.000173,-0.000323,0.001681,-0.000009,0.001681,-0.000323,-89.744949,0.001784,
1790,1690,-0.484538,-0.855017,0.999997,0.000190,-0.001228,0.002539,-0.000006,0.002539,-0.001228,-89.913052,0.002540,
1500,850,-0.456867,-3.105941,0.999998,0.000217,-0.001847,0.003352,-0.000041,0.003353,-0.001848,-89.545122,0.003359,
1010,1650,0.148558,-0.713830,0.999998,0.000153,-0.000806,0.002106,0.000138,0.002113,-0.000813,87.302574,0.002132,
1810,260,-0.414777,-4.435771,0.999997,0.000192,-0.001163,0.002532,-0.000132,0.002537,-0.001167,-87.954005,0.002540,
1320,220,-0.028896,-4.719232,0.999998,0.000161,-0.000380,0.001750,-0.000011,0.001750,-0.000380,-89.707865,0.001841,
1400,90,-0.018408,-4.929354,0.999999,0.000128,-0.000169,0.001592,-0.000129,0.001602,-0.000178,-85.826225,0.001756,
1350,860,-0.203306,-3.520282,0.999997,0.000221,-0.001097,0.001690,0.001055,0.002045,-0.001451,71.431162,0.002104,
1750,1670,-0.450798,-0.873122,0.999998,0.000193,-0.001229,0.002530,-0.000008,0.002531,-0.001229,-89.879270,0.002531,
1370,1330,-0.108087,-1.298282,0.999998,0.000170,-0.001270,0.002104,-0.000929,0.002343,-0.001509,-75.582901,0.002375,
1410,790,-0.204255,-3.487345,0.999998,0.000193,-0.001864,0.002802,0.000857,0.002954,-0.002016,79.917122,0.003019,
1050,1610,0.124301,-0.775522,0.999998,0.000161,-0.000811,0.002029,0.000208,0.002044,-0.000826,85.831895,0.002056,
630,1370,0.787271,-1.705869,0.999998,0.000171,-0.001245,0.002517,-0.000088,0.002519,-0.001247,-88.664968,0.002519,
970,1670,0.176371,-0.695411,0.999998,0.000162,-0.000916,0.002172,0.000108,0.002176,-0.000919,87.998569,0.002185,
1190,1260,0.028402,-1.201879,0.999999,0.000133,-0.000779,0.000717,0.000582,0.000916,-0.000978,71.063594,0.001096,
1320,1330,-0.056769,-1.204509,0.999999,0.000137,-0.000877,0.001510,-0.000813,0.001760,-0.001128,-72.864668,0.001783,
1840,1090,-1.000632,-2.379308,0.999998,0.000149,-0.001056,0.002225,0.000062,0.002226,-0.001057,88.925283,0.002227,
680,1260,0.820269,-1.954492,0.999998,0.000158,-0.001271,0.002544,-0.000216,0.002556,-0.001283,-86.763914,0.002556,
840,1460,0.426394,-1.310523,0.999998,0.000180,-0.001435,0.002659,0.000126,0.002663,-0.001439,88.235137,0.002666,
1040,910,0.426318,-3.063289,0.999998,0.000188,-0.001694,0.003562,-0.000637,0.003638,-0.001770,-83.190066,0.003639,
1260,1770,-0.012486,-0.429752,0.999998,0.000154,-0.000441,0.001760,-0.000008,0.001760,-0.000441,-89.801457,0.001832,
1690,1020,-0.850492,-2.538583,0.999998,0.000155,-0.001023,0.002501,-0.000029,0.002501,-0.001024,-89.521034,0.002514,
1260,1860,-0.009504,-0.275657,0.999998,0.000168,-0.000284,0.001662,0.000009,0.001662,-0.000284,89.739451,0.001778,
1710,1360,-0.629149,-1.650222,0.999998,0.000198,-0.001424,0.002725,0.000107,0.002728,-0.001427,88.525811,0.002729,
1430,380,-0.123431,-4.389107,0.999998,0.000171,-0.000761,0.002054,0.000118,0.002059,-0.000766,87.606615,0.002082,
720,1220,0.806097,-2.039879,0.999998,0.000159,-0.001293,0.002579,-0.000273,0.002598,-0.001312,-85.993776,0.002598,
1750,1520,-0.557553,-1.255086,0.999997,0.000183,-0.001319,0.002614,-0.000029,0.002615,-0.001319,-89.579691,0.002615,
1670,1820,-0.237727,-0.449946,0.999998,0.000176,-0.000959,0.002336,0.000213,0.002350,-0.000973,86.320470,0.002361,
1630,650,-0.475911,-3.575751,0.999997,0.000221,-0.001533,0.002791,0.000057,0.002792,-0.001534,89.239991,0.002796,
1000,1610,0.167393,-0.805493,0.999998,0.000163,-0.000955,0.002158,0.000223,0.002174,-0.000970,85.915737,0.002178,
1240,490,-0.005640,-4.250728,0.999999,0.000157,-0.000650,0.001715,0.000053,0.001716,-0.000651,88.712180,0.001733,
900,710,0.414397,-3.467938,0.999997,0.000197,-0.001669,0.002905,-0.000140,0.002909,-0.001674,-88.251862,0.002920,
760,1260,0.716163,-1.917708,0.999998,0.000178,-0.001411,0.002698,-0.000243,0.002713,-0.001426,-86.627520,0.002714,
1020,730,0.222619,-3.581725,0.999998,0.000174,-0.001684,0.002748,-0.000663,0.002845,-0.001781,-81.674290,0.002875,
1540,720,-0.382932,-3.465113,0.999998,0.000215,-0.001734,0.002964,0.000176,0.002970,-0.001740,87.856820,0.002985,
560,1090,1.062341,-2.393591,0.999995,0.000000,-0.000928,0.002000,0.000092,0.002003,-0.000931,88.200120,0.002005,
1390,1960,-0.019014,-0.118214,0.999998,0.000165,-0.000124,0.001608,0.000103,0.001615,-0.000130,86.608281,0.001794,
1830,1530,-0.654384,-1.294486,0.999998,0.000189,-0.001278,0.002570,-0.000002,0.002570,-0.001278,-89.975243,0.002570,
860,490,0.339893,-4.018594,0.999998,0.000167,-0.001241,0.002475,-0.000160,0.002481,-0.001247,-87.542927,0.002481,
1300,750,-0.041221,-3.836970,0.999998,0.000154,-0.000786,0.001203,0.000805,0.001488,-0.001071,70.497577,0.001535,
1690,1520,-0.478369,-1.207817,0.999998,0.000180,-0.001348,0.002606,-0.000055,0.002607,-0.001349,-89.198889,0.002607,
880,50,0.022548,-4.988014,0.999999,0.000137,-0.000151,0.001659,0.000341,0.001721,-0.000213,79.685416,0.001877,
880,630,0.387865,-3.672351,0.999998,0.000154,-0.001477,0.002729,-0.000190,0.002737,-0.001486,-87.423759,0.002740,
560,1130,1.047371,-2.312550,0.999998,0.000000,-0.000922,0.002189,-0.000067,0.002190,-0.000924,-88.766388,0.002199,
1390,1260,-0.173815,-1.511923,0.999998,0.000180,-0.001742,0.002616,-0.000983,0.002827,-0.001954,-77.855346,0.002895,
1480,850,-0.419236,-3.136910,0.999997,0.000203,-0.001909,0.003402,0.000086,0.003404,-0.001911,89.075419,0.003412,
1790,1670,-0.501695,-0.904998,0.999998,0.000177,-0.001231,0.002528,-0.000011,0.002528,-0.001231,-89.828593,0.002528,
1610,1280,-0.554757,-1.807810,0.999998,0.000182,-0.001614,0.002939,0.000163,0.002945,-0.001619,87.957423,0.002950,
1380,90,-0.016373,-4.930259,0.999999,0.000140,-0.000107,0.001592,-0.000115,0.001599,-0.000114,-86.128690,0.001784,
970,1650,0.183847,-0.739777,0.999998,0.000159,-0.000932,0.002203,0.000151,0.002210,-0.000939,87.245754,0.002219,
1320,200,-0.026783,-4.753581,0.999998,0.000168,-0.000360,0.001721,-0.000025,0.001721,-0.000360,-89.320353,0.001815,
1750,1240,-0.796771,-1.992035,0.999998,0.000165,-0.001308,0.002606,0.000244,0.002621,-0.001323,86.443787,0.002621,
1370,1310,-0.113471,-1.341631,0.999998,0.000179,-0.001380,0.002143,-0.000970,0.002393,-0.001629,-75.582388,0.002444,
1320,1310,-0.057944,-1.233624,0.999998,0.000171,-0.000924,0.001484,-0.000911,0.001790,-0.001230,-71.440475,0.001831,
610,600,0.742063,-3.536688,0.999998,0.000194,-0.001268,0.002549,0.000021,0.002549,-0.001268,89.691738,0.002549,
1210,190,0.006709,-4.773486,0.999998,0.000167,-0.000291,0.001669,-0.000006,0.001669,-0.000291,-89.835669,0.001783,
1060,680,0.145037,-3.779699,0.999999,0.000134,-0.001329,0.002258,-0.000735,0.002403,-0.001474,-78.856140,0.002423,
1010,1630,0.152795,-0.756325,0.999998,0.000145,-0.000846,0.002103,0.000177,0.002113,-0.000857,86.570000,0.002126,
720,70,0.081321,-4.936459,0.999997,0.000184,-0.000483,0.002081,0.000675,0.002248,-0.000650,76.114561,0.002313,
630,1350,0.803793,-1.756185,0.999998,0.000171,-0.001231,0.002524,-0.000088,0.002526,-0.001233,-88.665718,0.002526,
890,550,0.331469,-3.894123,0.999998,0.000172,-0.001320,0.002541,-0.000206,0.002552,-0.001331,-86.947976,0.002553,
1270,670,-0.019808,-3.968335,0.999999,0.000133,-0.000597,0.001296,0.000307,0.001345,-0.000646,81.018427,0.001345,
1040,890,0.383315,-3.133543,0.999998,0.000189,-0.001782,0.003468,-0.000599,0.003536,-0.001849,-83.572868,0.003537,
710,1680,0.448949,-0.850768,0.999998,0.000186,-0.001236,0.002546,0.000030,0.002546,-0.001236,89.547036,0.002546,
1420,80,-0.020574,-4.944863,0.999999,0.000121,-0.000130,0.001605,-0.000135,0.001615,-0.000141,-85.573608,0.001789,
680,1240,0.838514,-2.007372,0.999998,0.000144,-0.001248,0.002522,-0.000228,0.002535,-0.001262,-86.550757,0.002535,
1720,850,-0.790966,-2.966962,0.999998,0.000156,-0.001324,0.002608,-0.000269,0.002627,-0.001342,-86.100936,0.002627,
840,1440,0.440174,-1.362483,0.999998,0.000191,-0.001473,0.002696,0.000122,0.002700,-0.001477,88.326682,0.002704,
990,360,0.149774,-4.410052,0.999999,0.000137,-0.000761,0.002075,-0.000075,0.002077,-0.000763,-88.482766,0.002101,
1240,1770,-0.004472,-0.428358,0.999998,0.000135,-0.000438,0.001771,-0.000014,0.001771,-0.000438,-89.649035,0.001845,
1200,1220,0.048354,-1.211905,0.999999,0.000139,-0.001428,0.000745,0.000127,0.000752,-0.001435,86.667765,0.001436,
720,1200,0.823077,-2.093328,0.999998,0.000164,-0.001278,0.002543,-0.000266,0.002561,-0.001296,-86.031634,0.002561,
690,1880,0.269043,-0.361382,0.999998,0.000206,-0.001092,0.002506,-0.000385,0.002546,-0.001132,-83.961670,0.002551,
780,950,0.819346,-2.717566,0.999998,0.000149,-0.001089,0.002588,0.000228,0.002602,-0.001103,86.468735,0.002612,
1690,1360,-0.601434,-1.637518,0.999997,0.000211,-0.001443,0.002748,0.000101,0.002750,-0.001446,88.622393,0.002752,
1160,210,0.022776,-4.736813,0.999998,0.000157,-0.000299,0.001695,0.000054,0.001697,-0.000300,88.437161,0.001811,
1300,510,-0.044193,-4.203979,0.999999,0.000128,-0.000712,0.001762,0.000209,0.001780,-0.000730,85.203713,0.001789,
760,1240,0.733703,-1.971846,0.999998,0.000173,-0.001386,0.002669,-0.000271,0.002687,-0.001404,-86.187207,0.002688,
880,710,0.447448,-3.446918,0.999997,0.000180,-0.001657,0.002913,-0.000071,0.002914,-0.001659,-89.116254,0.002924,
1630,630,-0.459553,-3.630086,0.999997,0.000212,-0.001505,0.002727,0.000071,0.002728,-0.001506,89.035697,0.002733,
560,1080,1.063238,-2.414530,0.999995,0.000000,-0.000899,0.002000,0.000066,0.002002,-0.000901,88.705446,0.002005,
1660,370,-0.334944,-4.273311,0.999997,0.000188,-0.001182,0.002448,0.000014,0.002448,-0.001182,89.784981,0.002449,
1750,1630,-0.479642,-0.974527,0.999998,0.000167,-0.001265,0.002536,-0.000047,0.002536,-0.001265,-89.287847,0.002536,
1390,1240,-0.193894,-1.566216,0.999998,0.000168,-0.001772,0.002746,-0.000963,0.002943,-0.001968,-78.452074,0.002998,
560,1120,1.052988,-2.335516,0.999998,0.000000,-0.000967,0.002126,-0.000054,0.002127,-0.000968,-88.994404,0.002130,
1500,970,-0.638681,-2.706755,0.999998,0.000183,-0.001115,0.003249,-0.000240,0.003262,-0.001128,-86.860097,0.003313,
1790,1650,-0.515157,-0.956645,0.999997,0.000191,-0.001220,0.002542,-0.000051,0.002543,-0.001221,-89.223120,0.002544,
1260,1650,-0.016364,-0.642813,0.999998,0.000202,-0.000609,0.001787,-0.000039,0.001787,-0.000610,-89.071412,0.001817,
1370,1290,-0.123260,-1.386528,0.999998,0.000202,-0.001466,0.002206,-0.001043,0.002482,-0.001742,-75.198846,0.002548,
1040,490,0.139811,-4.167291,0.999999,0.000151,-0.000921,0.002082,-0.000264,0.002105,-0.000944,-85.019182,0.002108,
910,400,0.238665,-4.272784,0.999998,0.000167,-0.001027,0.002296,-0.000113,0.002300,-0.001031,-88.058435,0.002304,
970,1630,0.190336,-0.784865,0.999998,0.000146,-0.000952,0.002219,0.000181,0.002229,-0.000963,86.741232,0.002236,
1420,1710,-0.107146,-0.576544,0.999998,0.000219,-0.000730,0.001991,-0.000106,0.001995,-0.000734,-87.771878,0.002018,
820,1290,0.597305,-1.802673,0.999998,0.000197,-0.001516,0.002872,-0.000172,0.002878,-0.001523,-87.756564,0.002880,
1000,90,0.029739,-4.926060,0.999999,0.000152,-0.000124,0.001669,0.000193,0.001690,-0.000145,83.929667,0.001873,
1590,1280,-0.521136,-1.791881,0.999997,0.000191,-0.001669,0.002983,0.000140,0.002987,-0.001673,88.279029,0.002995,
1590,1560,-0.324845,-1.022546,0.999999,0.000174,-0.001238,0.002477,-0.000168,0.002484,-0.001246,-87.422476,0.002484,
1060,640,0.138461,-3.866730,0.999998,0.000143,-0.001181,0.002183,-0.000624,0.002295,-0.001294,-79.818180,0.002301,
1040,990,0.553350,-2.723023,0.999995,0.000267,-0.002074,0.005138,-0.000703,0.005206,-0.002142,-84.480669,0.005233,
1310,1610,-0.046314,-0.723366,0.999999,0.000156,-0.000649,0.001824,-0.000136,0.001831,-0.000656,-86.865078,0.001856,
800,980,0.814417,-2.640636,0.999998,0.000170,-0.001039,0.002576,0.000152,0.002582,-0.001045,87.596193,0.002598,
1510,880,-0.520332,-2.992965,0.999998,0.000200,-0.001675,0.003291,-0.000197,0.003299,-0.001683,-87.732739,0.003299,
630,1330,0.822726,-1.807491,0.999998,0.000149,-0.001247,0.002510,-0.000122,0.002514,-0.001251,-88.135095,0.002514,
750,1920,0.160298,-0.237234,0.999998,0.000155,-0.000569,0.002234,-0.000572,0.002346,-0.000681,-78.895479,0.002414,
1210,170,0.005961,-4.806024,0.999999,0.000148,-0.000255,0.001659,0.000001,0.001659,-0.000255,89.961629,0.001787,
1010,1610,0.158230,-0.797342,0.999998,0.000153,-0.000902,0.002119,0.000219,0.002134,-0.000918,85.876934,0.002141,
1700,790,-0.705052,-3.136206,0.999998,0.000168,-0.001406,0.002741,-0.000252,0.002756,-0.001421,-86.535088,0.002757,
1680,270,-0.280341,-4.503326,0.999997,0.000186,-0.001046,0.002388,-0.000142,0.002394,-0.001052,-87.628420,0.002399,
1840,1950,-0.215656,-0.229226,0.999999,0.000142,-0.001174,0.002668,0.000461,0.002723,-0.001229,83.261030,0.002727,
680,480,0.561269,-3.899856,0.999998,0.000171,-0.001261,0.002561,-0.000055,0.002562,-0.001262,-89.181979,0.002562,
1730,1240,-0.769674,-1.984146,0.999999,0.000135,-0.001340,0.002633,0.000255,0.002649,-0.001356,86.347885,0.002649,
1300,1770,-0.029777,-0.432649,0.999998,0.000160,-0.000384,0.001762,0.000009,0.001762,-0.000384,89.766888,0.001853,
1190,1240,0.041005,-1.213866,0.999998,0.000145,-0.000971,0.000691,0.000495,0.000828,-0.001107,74.609291,0.001151,
890,510,0.312174,-3.995932,0.999998,0.000176,-0.001271,0.002471,-0.000188,0.002481,-0.001280,-87.133093,0.002481,
840,1420,0.452290,-1.418242,0.999997,0.000197,-0.001501,0.002768,0.000104,0.002771,-0.001504,88.608077,0.002774,
1410,1990,-0.013490,-0.070022,0.999999,0.000146,-0.000101,0.001589,0.000129,0.001599,-0.000111,85.644110,0.001785,
1140,210,0.029174,-4.736626,0.999999,0.000119,-0.000345,0.001710,0.000027,0.001711,-0.000346,89.258490,0.001809,
710,1660,0.462026,-0.900858,0.999998,0.000161,-0.001237,0.002527,0.000041,0.002528,-0.001237,89.374290,0.002528,
560,1070,1.065667,-2.435678,0.999995,0.000000,-0.000864,0.002031,0.000018,0.002031,-0.000864,89.639958,0.002038,
1270,630,-0.021885,-4.022191,0.999999,0.000142,-0.000634,0.001451,0.000214,0.001473,-0.000655,84.199729,0.001476,
1280,50,-0.001906,-4.993629,0.999999,0.000096,-0.000029,0.001485,-0.000029,0.001485,-0.000030,-88.915378,0.001698,
1320,850,-0.146540,-3.663863,0.999998,0.000172,-0.001063,0.001093,0.000628,0.001262,-0.001232,74.893298,0.001440,
1110,1840,0.040765,-0.318048,0.999998,0.000167,-0.000359,0.001723,-0.000039,0.001723,-0.000360,-88.940199,0.001818,
1660,350,-0.321646,-4.320718,0.999998,0.000162,-0.001154,0.002439,-0.000006,0.002439,-0.001154,-89.908476,0.002440,
1540,700,-0.367993,-3.523232,0.999998,0.000203,-0.001673,0.002898,0.000222,0.002909,-0.001684,87.230054,0.002921,
1410,360,-0.103695,-4.438972,0.999998,0.000166,-0.000722,0.001982,0.000103,0.001986,-0.000726,87.811395,0.002010,
1410,1960,-0.020606,-0.118788,0.999998,0.000172,-0.000171,0.001621,0.000140,0.001632,-0.000182,85.562934,0.001788,
1830,1510,-0.671769,-1.344355,0.999997,0.000182,-0.001294,0.002541,-0.000033,0.002541,-0.001294,-89.500606,0.002541,
1620,1090,-0.762075,-2.355399,0.999998,0.000169,-0.001038,0.002681,0.000245,0.002697,-0.001054,86.249727,0.002719,
1670,1360,-0.572352,-1.622923,0.999998,0.000202,-0.001488,0.002784,0.000065,0.002785,-0.001489,89.125804,0.002787,
1500,1700,-0.170271,-0.636005,0.999998,0.000167,-0.000873,0.002157,-0.000092,0.002160,-0.000876,-88.260907,0.002172,
1850,1420,-0.765092,-1.591167,0.999997,0.000182,-0.001255,0.002550,0.000022,0.002550,-0.001255,89.665411,0.002550,
1480,970,-0.617025,-2.720398,0.999998,0.000184,-0.001184,0.003452,-0.000162,0.003457,-0.001189,-88.004373,0.003513,
1790,1630,-0.529334,-1.007605,0.999997,0.000191,-0.001229,0.002543,-0.000056,0.002544,-0.001230,-89.152834,0.002544,
720,1180,0.839544,-2.142653,0.999998,0.000191,-0.001251,0.002539,-0.000268,0.002558,-0.001270,-85.974467,0.002558,
620,410,0.585601,-4.028047,0.999998,0.000180,-0.001264,0.002518,-0.000038,0.002519,-0.001265,-89.421874,0.002519,
1630,610,-0.446343,-3.683587,0.999997,0.000187,-0.001467,0.002671,0.000100,0.002674,-0.001469,88.618483,0.002678,
800,1290,0.627104,-1.814398,0.999997,0.000196,-0.001521,0.002819,-0.000189,0.002828,-0.001529,-87.505704,0.002831,
1450,1730,-0.121587,-0.549601,0.999998,0.000153,-0.000667,0.002007,-0.000026,0.002007,-0.000667,-89.448840,0.002044,
1120,550,0.076155,-4.109310,0.999998,0.000134,-0.000787,0.001829,-0.000324,0.001868,-0.000827,-83.051244,0.001872,
910,520,0.290732,-3.988532,0.999998,0.000190,-0.001248,0.002469,-0.000221,0.002482,-0.001261,-86.604018,0.002482,
760,700,0.623186,-3.380579,0.999997,0.000225,-0.001448,0.002734,0.000115,0.002737,-0.001451,88.431030,0.002739,
800,1410,0.520128,-1.479732,0.999997,0.000184,-0.001464,0.002723,0.000002,0.002723,-0.001464,89.969596,0.002725,
980,90,0.030291,-4.925234,0.999999,0.000152,-0.000161,0.001696,0.000214,0.001720,-0.000185,83.495566,0.001889,
970,1610,0.196648,-0.828496,0.999998,0.000141,-0.000991,0.002194,0.000173,0.002203,-0.001000,86.902373,0.002206,
1570,1240,-0.533392,-1.898524,0.999998,0.000204,-0.001684,0.003079,0.000163,0.003085,-0.001690,88.043302,0.003089,
1880,400,-0.624347,-4.021897,0.999998,0.000159,-0.001232,0.002475,0.000043,0.002475,-0.001232,89.331283,0.002475,
1060,100,0.022359,-4.915060,0.999999,0.000131,-0.000161,0.001638,0.000114,0.001645,-0.000168,86.379613,0.001811,
910,1440,0.335919,-1.294561,0.999998,0.000184,-0.001468,0.002625,0.000258,0.002641,-0.001484,86.408425,0.002648,
1310,1590,-0.051374,-0.759190,0.999999,0.000159,-0.000689,0.001818,-0.000169,0.001829,-0.000700,-86.167759,0.001846,
630,1310,0.840581,-1.856293,0.999999,0.000137,-0.001261,0.002470,-0.000119,0.002473,-0.001265,-88.179885,0.002473,
1720,930,-0.850227,-2.762799,0.999998,0.000185,-0.001153,0.002489,-0.000213,0.002501,-0.001166,-86.670762,0.002503,
1010,1590,0.162862,-0.843106,0.999998,0.000163,-0.000960,0.002192,0.000265,0.002214,-0.000982,85.229478,0.002219,
1710,540,-0.508137,-3.802312,0.999998,0.000190,-0.001338,0.002585,0.000048,0.002586,-0.001338,89.291870,0.002586,
1210,150,0.004063,-4.839974,0.999999,0.000129,-0.000225,0.001600,0.000013,0.001600,-0.000225,89.605885,0.001732,
880,1900,0.105802,-0.246566,0.999998,0.000160,-0.000554,0.002009,-0.000291,0.002042,-0.000587,-83.597359,0.002102,
1750,1090,-0.904122,-2.368129,0.999998,0.000173,-0.001112,0.002466,0.000131,0.002471,-0.001117,87.903686,0.002474,
1050,1520,0.137261,-0.958452,0.999999,0.000144,-0.000971,0.002106,0.000376,0.002152,-0.001016,83.139472,0.002153,
680,1220,0.855847,-2.056323,0.999999,0.000143,-0.001221,0.002467,-0.000226,0.002481,-0.001235,-86.510601,0.002481,
560,1060,1.067869,-2.454138,0.999996,0.000000,-0.000861,0.002007,-0.000020,0.002008,-0.000861,-89.602157,0.002014,
1540,680,-0.355012,-3.580323,0.999998,0.000192,-0.001618,0.002833,0.000272,0.002850,-0.001634,86.515626,0.002860,
1270,50,-0.001537,-4.993527,0.999999,0.000087,-0.000047,0.001495,-0.000019,0.001495,-0.000047,-89.292814,0.001700,
560,950,1.059190,-2.675980,0.999996,0.000000,-0.000876,0.002017,-0.000026,0.002017,-0.000876,-89.479394,0.002023,
1430,1900,-0.048088,-0.223170,0.999999,0.000141,-0.000314,0.001769,0.000124,0.001777,-0.000322,86.604467,0.001893,
840,1400,0.467422,-1.473741,0.999997,0.000210,-0.001528,0.002775,0.000069,0.002776,-0.001530,89.076401,0.002781,
720,1160,0.854786,-2.193006,0.999998,0.000163,-0.001195,0.002532,-0.000261,0.002550,-0.001213,-86.007362,0.002551,
1270,610,-0.023081,-4.049849,0.999999,0.000137,-0.000653,0.001480,0.000193,0.001497,-0.000670,84.868511,0.001500,
1350,800,-0.114858,-3.636729,0.999998,0.000196,-0.001422,0.001977,0.001155,0.002333,-0.001777,72.906685,0.002437,
930,1220,0.493822,-1.924859,0.999998,0.000170,-0.001776,0.003214,-0.000143,0.003218,-0.001781,-88.359340,0.003224,
700,1170,0.871359,-2.173587,0.999998,0.000161,-0.001200,0.002487,-0.000235,0.002502,-0.001215,-86.366929,0.002502,
1830,1490,-0.682820,-1.395598,0.999998,0.000177,-0.001299,0.002558,-0.000024,0.002558,-0.001299,-89.650486,0.002558,
1730,1920,-0.168744,-0.240361,0.999998,0.000146,-0.000689,0.002299,0.000553,0.002398,-0.000788,79.853975,0.002445,
1550,740,-0.418894,-3.393018,0.999997,0.000248,-0.001768,0.003022,0.000109,0.003024,-0.001770,88.690999,0.003039,
1640,1090,-0.781595,-2.357007,0.999997,0.000204,-0.001064,0.002648,0.000235,0.002663,-0.001079,86.392126,0.002679,
760,1290,0.685330,-1.837289,0.999998,0.000170,-0.001419,0.002715,-0.000212,0.002726,-0.001430,-87.067533,0.002727,
1630,590,-0.431285,-3.736679,0.999997,0.000182,-0.001421,0.002674,0.000119,0.002677,-0.001425,88.337922,0.002679,
670,740,0.784083,-3.219616,0.999998,0.000158,-0.001294,0.002554,0.000163,0.002560,-0.001301,87.581329,0.002561,
1590,210,-0.154481,-4.678023,0.999999,0.000141,-0.000720,0.002081,-0.000229,0.002100,-0.000738,-85.352204,0.002130,
1280,750,-0.026630,-3.865810,0.999999,0.000134,-0.000648,0.001003,0.000624,0.001212,-0.000857,71.451998,0.001246,
1370,1270,-0.132046,-1.430859,0.999998,0.000190,-0.001558,0.002270,-0.001098,0.002563,-0.001850,-75.073815,0.002646,
1840,1870,-0.357165,-0.441794,0.999998,0.000188,-0.001218,0.002561,0.000179,0.002569,-0.001227,87.294326,0.002570,
1190,1220,0.062377,-1.227861,0.999998,0.000156,-0.001327,0.000752,0.000232,0.000778,-0.001353,83.712953,0.001358,
1220,490,0.007196,-4.251377,0.999999,0.000116,-0.000628,0.001724,-0.000039,0.001725,-0.000628,-89.053811,0.001746,
760,680,0.604176,-3.435485,0.999997,0.000228,-0.001458,0.002731,0.000076,0.002732,-0.001460,88.956853,0.002734,
1840,1230,-0.915995,-2.056150,0.999999,0.000129,-0.001170,0.002376,0.000129,0.002381,-0.001175,87.925162,0.002381,
1830,1970,-0.157847,-0.164033,0.999998,0.000151,-0.001017,0.002630,0.000697,0.002758,-0.001146,79.535606,0.002772,
1100,290,0.060632,-4.585792,0.999998,0.000189,-0.000487,0.001841,0.000012,0.001841,-0.000487,89.701759,0.001908,
1280,1770,-0.021846,-0.431667,0.999998,0.000144,-0.000428,0.001756,0.000013,0.001756,-0.000429,89.660289,0.001831,
780,1410,0.548719,-1.495355,0.999997,0.000191,-0.001431,0.002708,-0.000013,0.002708,-0.001431,-89.824861,0.002710,
1000,1010,0.630345,-2.586410,0.999997,0.000216,-0.001225,0.003960,0.000008,0.003960,-0.001225,89.910312,0.004055,
1530,120,-0.061540,-4.866396,0.999999,0.000115,-0.000302,0.001822,-0.000268,0.001856,-0.000336,-82.927774,0.001978,
1110,1330,0.088671,-1.266170,0.999998,0.000173,-0.001156,0.001870,0.000910,0.002123,-0.001408,74.488548,0.002160,
1880,390,-0.616700,-4.046686,0.999998,0.000171,-0.001246,0.002459,0.000048,0.002460,-0.001246,89.251381,0.002460,
800,960,0.806472,-2.693339,0.999998,0.000171,-0.001071,0.002625,0.000230,0.002640,-0.001085,86.460358,0.002654,
970,1590,0.203930,-0.873307,0.999998,0.000151,-0.001024,0.002233,0.000206,0.002246,-0.001037,86.395179,0.002248,
1720,970,-0.871811,-2.662079,0.999998,0.000146,-0.001087,0.002482,-0.000144,0.002487,-0.001093,-87.685423,0.002494,
1060,80,0.015934,-4.946368,0.999999,0.000145,-0.000115,0.001580,0.000112,0.001588,-0.000123,86.222827,0.001767,
1010,1570,0.167740,-0.886350,0.999999,0.000133,-0.000996,0.002189,0.000276,0.002213,-0.001020,85.093067,0.002215,
1310,1570,-0.048574,-0.797436,0.999998,0.000146,-0.000712,0.001793,-0.000203,0.001810,-0.000728,-85.392218,0.001821,
1700,1510,-0.499997,-1.240654,0.999997,0.000188,-0.001366,0.002624,-0.000053,0.002625,-0.001367,-89.236486,0.002625,
630,1290,0.855407,-1.905995,0.999999,0.000146,-0.001251,0.002491,-0.000128,0.002495,-0.001256,-88.050368,0.002495,
1640,40,-0.020610,-5.003835,0.999999,0.000127,-0.000078,0.001734,-0.000457,0.001843,-0.000186,-76.620547,0.002029,
1510,210,-0.108705,-4.700564,0.999998,0.000161,-0.000567,0.001953,-0.000136,0.001960,-0.000574,-86.927957,0.002015,
560,1050,1.069612,-2.475504,0.999995,0.000000,-0.000875,0.001971,-0.000068,0.001973,-0.000877,-88.623411,0.001977,
1330,800,-0.086328,-3.697833,0.999998,0.000184,-0.001199,0.001615,0.001106,0.001997,-0.001581,70.914924,0.002107,
910,1220,0.530023,-1.945682,0.999998,0.000186,-0.001709,0.003135,-0.000226,0.003146,-0.001720,-87.337139,0.003150,
830,320,0.271785,-4.410769,0.999998,0.000193,-0.000960,0.002341,0.000065,0.002343,-0.000962,88.868050,0.002355,
1590,190,-0.136741,-4.719094,0.999998,0.000155,-0.000670,0.002096,-0.000239,0.002116,-0.000691,-85.087251,0.002158,
1880,380,-0.608249,-4.071191,0.999998,0.000174,-0.001257,0.002440,0.000035,0.002441,-0.001258,89.459709,0.002441,
680,1180,0.887845,-2.154363,0.999998,0.000171,-0.001170,0.002473,-0.000226,0.002487,-0.001184,-86.462058,0.002488,
700,1290,0.768030,-1.868402,0.999998,0.000185,-0.001296,0.002586,-0.000199,0.002596,-0.001306,-87.079469,0.002596,
670,720,0.765997,-3.269603,0.999998,0.000159,-0.001302,0.002579,0.000140,0.002584,-0.001307,87.937609,0.002584,
1420,310,-0.095735,-4.532148,0.999998,0.000184,-0.000662,0.001953,0.000051,0.001954,-0.000663,88.872879,0.001987,
1060,60,0.010435,-4.976720,0.999999,0.000152,-0.000082,0.001562,0.000124,0.001572,-0.000091,85.722026,0.001765,
1780,1870,-0.289779,-0.391093,0.999998,0.000191,-0.001093,0.002498,0.000337,0.002529,-0.001125,84.682266,0.002534,
1700,670,-0.594234,-3.464929,0.999997,0.000208,-0.001436,0.002728,-0.000066,0.002729,-0.001437,-89.093440,0.002731,
1310,1550,-0.050519,-0.830958,0.999999,0.000141,-0.000707,0.001806,-0.000226,0.001826,-0.000728,-84.894749,0.001839,
1200,490,0.020220,-4.247008,0.999998,0.000151,-0.000617,0.001729,-0.000083,0.001732,-0.000620,-87.971525,0.001756,
1530,100,-0.048122,-4.904346,0.999999,0.000143,-0.000237,0.001799,-0.000274,0.001835,-0.000273,-82.480322,0.001980,
1110,1350,0.086132,-1.226544,0.999998,0.000160,-0.001104,0.001878,0.000834,0.002095,-0.001322,75.386178,0.002119,
1080,290,0.070329,-4.582859,0.999998,0.000162,-0.000494,0.001860,0.000018,0.001860,-0.000494,89.569930,0.001927,
1840,280,-0.471314,-4.357870,0.999997,0.000196,-0.001212,0.002535,-0.000020,0.002535,-0.001212,-89.687689,0.002536,
1710,1370,-0.621016,-1.622696,0.999998,0.000228,-0.001421,0.002715,0.000097,0.002717,-0.001423,88.661905,0.002718,
1150,1590,0.051954,-0.761202,0.999998,0.000153,-0.000698,0.001833,0.000164,0.001844,-0.000709,86.307480,0.001860,
1460,200,-0.079054,-4.731104,0.999998,0.000182,-0.000403,0.001878,-0.000135,0.001886,-0.000411,-86.612779,0.001983,
880,1880,0.122080,-0.286051,0.999998,0.000183,-0.000615,0.002014,-0.000263,0.002040,-0.000641,-84.351804,0.002087,
1630,570,-0.419371,-3.790616,0.999998,0.000174,-0.001405,0.002660,0.000136,0.002665,-0.001410,88.081078,0.002666,
870,1400,0.420768,-1.446419,0.999997,0.000202,-0.001544,0.002784,0.000135,0.002788,-0.001548,88.215906,0.002794,
800,940,0.792866,-2.746965,0.999998,0.000166,-0.001111,0.002603,0.000269,0.002622,-0.001130,85.875953,0.002631,
840,330,0.269296,-4.392405,0.999997,0.000218,-0.000950,0.002353,0.000053,0.002354,-0.000951,89.079912,0.002368,
970,1570,0.210157,-0.917304,0.999998,0.000151,-0.001071,0.002274,0.000258,0.002294,-0.001091,85.623058,0.002295,
840,1380,0.482726,-1.528396,0.999997,0.000212,-0.001543,0.002802,0.000023,0.002802,-0.001543,89.699028,0.002807,
680,1290,0.793998,-1.878879,0.999998,0.000172,-0.001290,0.002549,-0.000175,0.002557,-0.001298,-87.397179,0.002557,
1450,1900,-0.054575,-0.224261,0.999998,0.000161,-0.000311,0.001756,0.000173,0.001770,-0.000326,85.255100,0.001884,
1510,190,-0.095113,-4.740431,0.999998,0.000144,-0.000533,0.001941,-0.000172,0.001953,-0.000545,-86.049667,0.002015,
1010,1550,0.172983,-0.929970,0.999999,0.000134,-0.001014,0.002173,0.000302,0.002201,-0.001042,84.639989,0.002202,
810,720,0.569376,-3.360266,0.999997,0.000210,-0.001504,0.002798,0.000111,0.002801,-0.001507,88.529629,0.002804,
930,1910,0.075901,-0.218460,0.999998,0.000145,-0.000333,0.001856,-0.000245,0.001883,-0.000360,-83.686593,0.001999,
560,1040,1.072720,-2.494919,0.999995,0.000000,-0.000872,0.001982,-0.000080,0.001984,-0.000875,-88.386527,0.001989,
1330,1440,-0.065271,-1.037617,0.999999,0.000132,-0.000809,0.001744,-0.000474,0.001830,-0.000895,-79.812349,0.001830,
1210,130,0.003780,-4.869533,0.999999,0.000132,-0.000174,0.001564,0.000000,0.001564,-0.000174,-89.991371,0.001714,
1790,1950,-0.169789,-0.193035,0.999998,0.000160,-0.000714,0.002444,0.000734,0.002607,-0.000876,77.538496,0.002653,
1410,1450,-0.142940,-1.105034,0.999999,0.000135,-0.001133,0.002155,-0.000527,0.002237,-0.001215,-81.105991,0.002240,
760,660,0.590180,-3.488574,0.999998,0.000205,-0.001456,0.002705,0.000035,0.002705,-0.001457,89.513250,0.002707,
1180,1650,0.030401,-0.646147,0.999998,0.000149,-0.000584,0.001817,0.000060,0.001818,-0.000585,88.558721,0.001856,
1190,1840,0.013513,-0.310784,0.999998,0.000172,-0.000285,0.001707,0.000008,0.001707,-0.000285,89.782318,0.001829,
620,1150,0.975186,-2.244143,0.999999,0.000126,-0.001065,0.002274,-0.000101,0.002277,-0.001068,-88.260403,0.002278,
1820,1230,-0.891696,-2.046533,0.999999,0.000142,-0.001189,0.002412,0.000162,0.002419,-0.001196,87.436904,0.002419,
680,1160,0.902552,-2.203432,0.999999,0.000139,-0.001152,0.002424,-0.000181,0.002433,-0.001161,-87.107962,0.002434,
1720,950,-0.861831,-2.711774,0.999998,0.000141,-0.001122,0.002541,-0.000225,0.002555,-0.001136,-86.499733,0.002560,
1710,240,-0.281004,-4.557223,0.999998,0.000157,-0.000980,0.002456,-0.000255,0.002474,-0.000999,-85.775931,0.002490,
1030,980,0.562777,-2.748471,0.999996,0.000226,-0.001785,0.004485,-0.000520,0.004528,-0.001827,-85.291958,0.004556,
1840,1890,-0.325128,-0.388297,0.999998,0.000183,-0.001221,0.002622,0.000221,0.002635,-0.001234,86.722274,0.002636,
1830,1690,-0.534786,-0.887054,0.999998,0.000174,-0.001229,0.002524,-0.000019,0.002524,-0.001229,-89.706235,0.002524,
1880,370,-0.601506,-4.095118,0.999998,0.000179,-0.001253,0.002448,0.000008,0.002448,-0.001253,89.882783,0.002448,
1320,1970,-0.008517,-0.099381,0.999998,0.000156,-0.000126,0.001551,0.000047,0.001552,-0.000127,88.394199,0.001724,
890,560,0.336382,-3.868855,0.999998,0.000165,-0.001346,0.002551,-0.000212,0.002563,-0.001358,-86.894912,0.002564,
1800,250,-0.392034,-4.468437,0.999997,0.000197,-0.001154,0.002538,-0.000178,0.002547,-0.001162,-87.241255,0.002550,
1050,1990,0.012452,-0.070570,0.999999,0.000115,-0.000110,0.001585,-0.000127,0.001595,-0.000119,-85.724243,0.001776,
1370,1250,-0.147441,-1.477852,0.999998,0.000191,-0.001638,0.002368,-0.001108,0.002654,-0.001924,-75.529240,0.002742,
1260,750,-0.014185,-3.889228,0.999998,0.000140,-0.000552,0.000841,0.000392,0.000944,-0.000655,75.324368,0.000967,
1750,1070,-0.907023,-2.418209,0.999998,0.000158,-0.001081,0.002390,0.000081,0.002392,-0.001083,88.660980,0.002395,
1890,1640,-0.646616,-1.063985,0.999998,0.000184,-0.001179,0.002503,-0.000028,0.002503,-0.001179,-89.558138,0.002504,
1300,590,-0.044030,-4.066528,0.999998,0.000153,-0.000713,0.001640,0.000324,0.001684,-0.000757,82.299779,0.001687,
1710,1350,-0.637535,-1.677598,0.999998,0.000212,-0.001431,0.002731,0.000127,0.002735,-0.001435,88.249304,0.002736,
1110,1790,0.050147,-0.406261,0.999999,0.000136,-0.000436,0.001786,0.000005,0.001786,-0.000436,89.859072,0.001862,
1780,1890,-0.261530,-0.341846,0.999998,0.000169,-0.001037,0.002550,0.000440,0.002603,-0.001090,83.109125,0.002614,
1310,1530,-0.050561,-0.869573,0.999999,0.000136,-0.000706,0.001771,-0.000244,0.001795,-0.000730,-84.432856,0.001805,
650,1540,0.625167,-1.254388,0.999998,0.000172,-0.001273,0.002583,0.000027,0.002584,-0.001273,89.605117,0.002584,
650,1500,0.655975,-1.357195,0.999998,0.000170,-0.001268,0.002561,0.000013,0.002561,-0.001268,89.803189,0.002561,
1160,660,0.043635,-3.954987,0.999999,0.000140,-0.000718,0.001490,-0.000475,0.001588,-0.000816,-78.351268,0.001588,
1840,240,-0.428046,-4.459344,0.999997,0.000210,-0.001213,0.002523,-0.000049,0.002523,-0.001214,-89.248157,0.002524,
880,1860,0.139004,-0.327615,0.999998,0.000167,-0.000685,0.002088,-0.000233,0.002108,-0.000704,-85.229452,0.002146,
560,1160,1.028946,-2.247616,0.999998,0.000000,-0.000905,0.002056,0.000014,0.002056,-0.000905,89.724768,0.002061,
1740,430,-0.472789,-4.061072,0.999998,0.000170,-0.001264,0.002542,0.000041,0.002543,-0.001264,89.389578,0.002543,
1630,550,-0.408015,-3.844715,0.999998,0.000165,-0.001377,0.002583,0.000136,0.002587,-0.001382,88.034889,0.002589,
970,1550,0.214303,-0.963143,0.999998,0.000154,-0.001137,0.002315,0.000271,0.002336,-0.001158,85.531802,0.002336,
1510,560,-0.252793,-3.929511,0.999998,0.000162,-0.001253,0.002464,0.000320,0.002491,-0.001280,85.113357,0.002491,
1460,220,-0.086953,-4.693852,0.999998,0.000170,-0.000443,0.001898,-0.000113,0.001903,-0.000448,-87.236904,0.001990,
960,90,0.035408,-4.923458,0.999999,0.000155,-0.000264,0.001710,0.000222,0.001735,-0.000289,83.676841,0.001859,
1010,1530,0.177568,-0.974169,0.999998,0.000149,-0.001051,0.002223,0.000343,0.002259,-0.001087,84.084435,0.002259,
1860,1490,-0.722541,-1.420282,0.999998,0.000160,-0.001267,0.002568,-0.000016,0.002568,-0.001267,-89.764947,0.002568,
1420,1650,-0.122578,-0.696592,0.999998,0.000178,-0.000785,0.002007,-0.000162,0.002017,-0.000794,-86.689318,0.002032,
1250,360,-0.009954,-4.477916,0.999999,0.000120,-0.000538,0.001755,0.000059,0.001756,-0.000539,88.519570,0.001799,
840,550,0.397993,-3.848903,0.999997,0.000176,-0.001361,0.002605,-0.000144,0.002610,-0.001366,-87.921421,0.002611,
800,920,0.779294,-2.797133,0.999998,0.000164,-0.001184,0.002638,0.000308,0.002662,-0.001208,85.420135,0.002666,
1670,1860,-0.198350,-0.357878,0.999998,0.000171,-0.000851,0.002332,0.000290,0.002358,-0.000877,84.828818,0.002384,
1790,1930,-0.207099,-0.246237,0.999998,0.000158,-0.000853,0.002505,0.000634,0.002621,-0.000969,79.658952,0.002650,
630,1920,0.265798,-0.301937,0.999997,0.000190,-0.001182,0.002647,-0.000354,0.002679,-0.001215,-84.757776,0.002683,
1510,170,-0.084016,-4.777496,0.999999,0.000142,-0.000464,0.001882,-0.000186,0.001897,-0.000479,-85.487054,0.001973,
560,1030,1.075616,-2.513366,0.999995,0.000000,-0.000829,0.002027,0.000003,0.002027,-0.000829,89.945857,0.002038,
1030,1050,0.582944,-2.410454,0.999996,0.000225,-0.001949,0.005016,0.000303,0.005029,-0.001962,87.511643,0.005069,
1050,1970,0.019798,-0.103825,0.999999,0.000135,-0.000136,0.001612,-0.000116,0.001619,-0.000144,-86.228789,0.001793,
600,1010,1.032751,-2.559191,0.999998,0.000159,-0.001047,0.002175,0.000085,0.002177,-0.001049,88.490659,0.002178,
1500,670,-0.283935,-3.658674,0.999998,0.000172,-0.001582,0.002723,0.000393,0.002758,-0.001617,84.821054,0.002772,
1780,250,-0.368572,-4.483958,0.999998,0.000185,-0.001157,0.002523,-0.000155,0.002529,-0.001164,-87.585781,0.002532,
760,640,0.572999,-3.543506,0.999998,0.000191,-0.001430,0.002675,0.000027,0.002675,-0.001430,89.617458,0.002677,
930,1000,0.695015,-2.600190,0.999997,0.000198,-0.000936,0.002962,0.000156,0.002968,-0.000942,87.709069,0.003033,
1780,940,-0.924115,-2.727488,0.999999,0.000141,-0.001145,0.002416,-0.000188,0.002426,-0.001154,-86.979741,0.002427,
920,1970,0.042433,-0.111400,0.999999,0.000132,-0.000182,0.001770,-0.000308,0.001818,-0.000230,-81.236981,0.001980,
1270,1360,-0.019725,-1.104323,0.999999,0.000136,-0.000591,0.001206,-0.000375,0.001281,-0.000666,-78.661073,0.001281,
930,1890,0.091019,-0.256822,0.999998,0.000156,-0.000399,0.001906,-0.000231,0.001929,-0.000422,-84.325285,0.002028,
1380,730,-0.124704,-3.708950,0.999998,0.000146,-0.001364,0.002217,0.000923,0.002441,-0.001587,76.363822,0.002477,
1000,1430,0.212924,-1.217578,0.999998,0.000160,-0.001356,0.002446,0.000476,0.002505,-0.001415,82.969929,0.002512,
700,810,0.808907,-3.055500,0.999998,0.000182,-0.001310,0.002582,0.000222,0.002594,-0.001323,86.752213,0.002594,
1680,110,-0.109059,-4.865057,0.999999,0.000131,-0.000522,0.002093,-0.000527,0.002195,-0.000624,-79.031941,0.002262,
1710,1330,-0.657705,-1.732605,0.999997,0.000223,-0.001433,0.002704,0.000161,0.002710,-0.001440,87.773543,0.002712,
1850,1900,-0.322690,-0.374642,0.999998,0.000176,-0.001231,0.002609,0.000215,0.002621,-0.001243,86.799506,0.002623,
1160,620,0.045698,-4.015830,0.999999,0.000145,-0.000701,0.001598,-0.000389,0.001662,-0.000764,-80.659094,0.001664,
1310,1510,-0.051306,-0.901844,0.999999,0.000133,-0.000717,0.001737,-0.000254,0.001763,-0.000743,-84.144569,0.001770,
1880,430,-0.646625,-3.946659,0.999998,0.000189,-0.001234,0.002494,0.000010,0.002494,-0.001234,89.848375,0.002494,
1750,1050,-0.911584,-2.466121,0.999998,0.000145,-0.001088,0.002418,0.000077,0.002419,-0.001090,88.737402,0.002423,
1300,530,-0.043257,-4.168459,0.999999,0.000118,-0.000719,0.001740,0.000235,0.001762,-0.000741,84.592618,0.001770,
1110,1770,0.055014,-0.441810,0.999998,0.000146,-0.000479,0.001848,0.000006,0.001848,-0.000479,89.864369,0.001918,
650,1520,0.640206,-1.306279,0.999998,0.000185,-0.001276,0.002578,0.000009,0.002578,-0.001276,89.871108,0.002578,
880,1840,0.153545,-0.370709,0.999998,0.000161,-0.000729,0.002130,-0.000203,0.002144,-0.000743,-85.961721,0.002177,
1370,1230,-0.170793,-1.525163,0.999998,0.000199,-0.001659,0.002397,-0.001096,0.002674,-0.001936,-75.800413,0.002762,
1760,1970,-0.115815,-0.141110,0.999999,0.000114,-0.000659,0.002163,0.000641,0.002301,-0.000798,77.782464,0.002337,
1630,530,-0.396876,-3.896295,0.999998,0.000160,-0.001351,0.002570,0.000122,0.002574,-0.001355,88.219221,0.002575,
970,1530,0.222156,-1.009924,0.999999,0.000148,-0.001179,0.002344,0.000309,0.002371,-0.001205,85.031154,0.002371,
1510,540,-0.247021,-3.978687,0.999998,0.000171,-0.001195,0.002415,0.000295,0.002439,-0.001219,85.367395,0.002439,
680,1140,0.914393,-2.252073,0.999999,0.000126,-0.001128,0.002421,-0.000153,0.002427,-0.001135,-87.539384,0.002429,
630,1500,0.681120,-1.372148,0.999997,0.000183,-0.001270,0.002571,0.000014,0.002571,-0.001270,89.783821,0.002572,
1580,130,-0.083941,-4.842116,0.999999,0.000141,-0.000456,0.001925,-0.000309,0.001965,-0.000496,-82.724966,0.002044,
1460,240,-0.094502,-4.656076,0.999998,0.000172,-0.000497,0.001933,-0.000094,0.001937,-0.000501,-87.789554,0.002011,
1840,1490,-0.696752,-1.404431,0.999998,0.000173,-0.001291,0.002565,-0.000024,0.002565,-0.001292,-89.650793,0.002565,
850,240,0.195101,-4.603884,0.999998,0.000197,-0.000793,0.002240,0.000206,0.002254,-0.000807,86.136116,0.002284,
800,900,0.762588,-2.851763,0.999998,0.000177,-0.001236,0.002681,0.000321,0.002707,-0.001262,85.343763,0.002709,
590,1010,1.044227,-2.558226,0.999999,0.000150,-0.001009,0.002148,0.000079,0.002150,-0.001011,88.572919,0.002151,
1740,410,-0.458227,-4.112148,0.999998,0.000182,-0.001234,0.002549,0.000037,0.002549,-0.001235,89.436706,0.002550,
1260,810,-0.025914,-3.847938,0.999998,0.000168,-0.000885,0.000577,0.000351,0.000657,-0.000964,77.169437,0.000985,
560,1020,1.073548,-2.533839,0.999994,0.000000,-0.000798,0.002068,0.000074,0.002070,-0.000800,88.528365,0.002088,
1510,150,-0.071509,-4.815260,0.999999,0.000129,-0.000406,0.001843,-0.000204,0.001862,-0.000424,-84.847598,0.001951,
1830,1950,-0.204952,-0.215820,0.999998,0.000163,-0.001068,0.002653,0.000540,0.002730,-0.001145,81.901245,0.002742,
1580,1650,-0.270056,-0.797343,0.999998,0.000149,-0.001067,0.002378,-0.000092,0.002380,-0.001069,-88.468320,0.002384,
940,1970,0.038010,-0.110410,0.999999,0.000145,-0.000196,0.001756,-0.000251,0.001788,-0.000228,-82.778321,0.001947,
560,1170,1.027402,-2.227792,0.999998,0.000000,-0.000902,0.002082,0.000030,0.002082,-0.000902,89.416690,0.002088,
720,1450,0.600882,-1.433505,0.999997,0.000193,-0.001361,0.002614,-0.000014,0.002614,-0.001361,-89.793843,0.002614,
1000,1070,0.612211,-2.356390,0.999998,0.000177,-0.001290,0.003783,0.000000,0.003783,-0.001290,89.994470,0.003846,
1840,220,-0.404842,-4.509301,0.999998,0.000179,-0.001220,0.002553,-0.000098,0.002556,-0.001222,-88.511454,0.002557,
1710,1310,-0.676836,-1.786367,0.999998,0.000193,-0.001427,0.002699,0.000181,0.002707,-0.001434,87.497972,0.002709,
1380,920,-0.389430,-3.236127,0.999996,0.000245,-0.000961,0.002901,0.001926,0.003698,-0.001757,67.534747,0.003699,
1850,1880,-0.352134,-0.427445,0.999998,0.000198,-0.001234,0.002583,0.000184,0.002592,-0.001243,87.253408,0.002593,
930,300,0.172077,-4.507383,0.999998,0.000166,-0.000753,0.002139,0.000053,0.002140,-0.000754,88.953560,0.002171,
1050,1950,0.025018,-0.135863,0.999999,0.000146,-0.000176,0.001652,-0.000120,0.001660,-0.000184,-86.276737,0.001820,
970,1510,0.226608,-1.057654,0.999998,0.000155,-0.001223,0.002369,0.000344,0.002401,-0.001256,84.577820,0.002402,
1790,1910,-0.240046,-0.294264,0.999998,0.000173,-0.000933,0.002519,0.000549,0.002604,-0.001018,81.181525,0.002625,
1310,1490,-0.051504,-0.939178,0.999999,0.000145,-0.000739,0.001707,-0.000295,0.001742,-0.000775,-83.216074,0.001745,
1670,1840,-0.218436,-0.403171,0.999998,0.000167,-0.000910,0.002266,0.000264,0.002288,-0.000932,85.282391,0.002301,
1160,80,0.007199,-4.948593,0.999999,0.000130,-0.000091,0.001528,0.000058,0.001530,-0.000093,87.967419,0.001716,
880,1820,0.167967,-0.414091,0.999998,0.000151,-0.000776,0.002151,-0.000168,0.002160,-0.000785,-86.717913,0.002187,
1870,500,-0.686433,-3.779305,0.999998,0.000153,-0.001246,0.002542,0.000020,0.002542,-0.001246,89.701170,0.002542,
1010,1750,0.117430,-0.510773,0.999998,0.000158,-0.000604,0.001979,-0.000006,0.001979,-0.000604,-89.873951,0.002028,
1120,530,0.075962,-4.146462,0.999999,0.000139,-0.000773,0.001829,-0.000267,0.001856,-0.000800,-84.191028,0.001862,
720,1140,0.867908,-2.243349,0.999998,0.000147,-0.001147,0.002503,-0.000203,0.002514,-0.001158,-86.831639,0.002517,
750,1900,0.185668,-0.280417,0.999999,0.000130,-0.000669,0.002305,-0.000516,0.002392,-0.000756,-80.434903,0.002445,
1110,1750,0.057602,-0.479664,0.999998,0.000156,-0.000514,0.001836,0.000038,0.001836,-0.000515,89.081387,0.001894,
1340,1390,-0.074161,-1.136108,0.999999,0.000132,-0.000912,0.001762,-0.000669,0.001920,-0.001070,-76.710797,0.001924,
1370,1210,-0.203192,-1.573858,0.999997,0.000215,-0.001583,0.002416,-0.001154,0.002725,-0.001892,-75.006198,0.002793,
580,1010,1.054373,-2.557728,0.999999,0.000146,-0.000899,0.002109,0.000068,0.002111,-0.000901,88.710659,0.002118,
1630,510,-0.384448,-3.947384,0.999998,0.000189,-0.001312,0.002557,0.000130,0.002561,-0.001316,88.077778,0.002561,
1270,590,-0.023618,-4.080585,0.999999,0.000162,-0.000655,0.001567,0.000149,0.001577,-0.000665,86.175381,0.001584,
1140,90,0.009788,-4.933312,0.999998,0.000162,-0.000117,0.001552,0.000040,0.001553,-0.000118,88.619308,0.001730,
1820,1770,-0.453018,-0.675948,0.999998,0.000176,-0.001187,0.002530,0.000053,0.002531,-0.001188,89.176037,0.002532,
560,1010,1.067647,-2.556820,0.999996,0.000000,-0.000748,0.002019,0.000080,0.002021,-0.000751,88.352395,0.002044,
930,620,0.309241,-3.752540,0.999998,0.000179,-0.001463,0.002659,-0.000297,0.002680,-0.001485,-85.897773,0.002685,
1460,260,-0.104395,-4.616520,0.999999,0.000140,-0.000554,0.001942,-0.000069,0.001944,-0.000556,-88.427375,0.002002,
1190,1580,0.025314,-0.769681,0.999999,0.000126,-0.000606,0.001747,0.000077,0.001749,-0.000609,88.127498,0.001776,
910,1000,0.714285,-2.596589,0.999998,0.000178,-0.000930,0.002845,0.000152,0.002851,-0.000936,87.697268,0.002907,
930,1870,0.102524,-0.295580,0.999998,0.000154,-0.000444,0.001977,-0.000222,0.001997,-0.000464,-84.814347,0.002091,
1340,750,-0.079192,-3.755174,0.999998,0.000181,-0.001141,0.001735,0.001003,0.002051,-0.001457,72.550828,0.002110,
1830,1990,-0.111068,-0.111063,0.999999,0.000146,-0.000948,0.002530,0.000728,0.002676,-0.001094,78.634573,0.002691,
1390,1440,-0.122070,-1.102473,0.999999,0.000150,-0.001086,0.002054,-0.000571,0.002155,-0.001187,-79.999557,0.002159,
980,790,0.343642,-3.330452,0.999998,0.000174,-0.001921,0.003156,-0.000300,0.003174,-0.001938,-86.635086,0.003199,
1160,1970,0.007122,-0.099351,0.999999,0.000161,-0.000086,0.001542,-0.000056,0.001544,-0.000088,-88.045764,0.001734,
850,220,0.179916,-4.648122,0.999998,0.000177,-0.000706,0.002168,0.000243,0.002189,-0.000726,85.207609,0.002229,
900,1530,0.306891,-1.074328,0.999998,0.000189,-0.001278,0.002492,0.000235,0.002507,-0.001292,86.449195,0.002507,
1070,1110,0.444596,-1.966257,0.999922,0.001086,-0.001541,0.004061,0.002205,0.004824,-0.002305,70.893602,0.004826,
1440,450,-0.147699,-4.240387,0.999999,0.000127,-0.000884,0.002111,0.000212,0.002126,-0.000899,85.964615,0.002134,
1050,1930,0.031697,-0.169138,0.999999,0.000134,-0.000229,0.001666,-0.000119,0.001673,-0.000236,-86.413436,0.001811,
1710,1730,-0.357889,-0.692863,0.999997,0.000198,-0.001086,0.002474,0.000078,0.002475,-0.001088,88.740517,0.002481,
740,40,0.030743,-4.999385,0.999999,0.000116,-0.000061,0.001966,0.000667,0.002165,-0.000261,73.327052,0.002364,
890,1420,0.376828,-1.369766,0.999997,0.000180,-0.001522,0.002755,0.000207,0.002765,-0.001532,87.236990,0.002770,
740,790,0.736284,-3.124987,0.999998,0.000210,-0.001367,0.002666,0.000261,0.002683,-0.001384,86.311987,0.002683,
1160,60,0.003714,-4.979320,0.999999,0.000129,-0.000041,0.001508,0.000043,0.001509,-0.000042,88.402246,0.001719,
1090,1900,0.032598,-0.215664,0.999999,0.000130,-0.000213,0.001687,-0.000099,0.001692,-0.000218,-87.016778,0.001841,
980,1070,0.635439,-2.370917,0.999997,0.000203,-0.001132,0.003467,-0.000148,0.003471,-0.001137,-88.162960,0.003539,
880,1800,0.182202,-0.455881,0.999998,0.000155,-0.000795,0.002155,-0.000115,0.002159,-0.000799,-87.780074,0.002183,
670,620,0.680122,-3.529305,0.999998,0.000189,-0.001320,0.002588,0.000035,0.002589,-0.001320,89.480407,0.002589,
1310,1470,-0.052128,-0.971419,0.999999,0.000157,-0.000743,0.001657,-0.000331,0.001702,-0.000787,-82.293371,0.001703,
760,620,0.556981,-3.596624,0.999998,0.000193,-0.001403,0.002659,-0.000011,0.002659,-0.001403,-89.845649,0.002660,
1560,1650,-0.247979,-0.782438,0.999998,0.000163,-0.001080,0.002353,-0.000121,0.002357,-0.001085,-87.977780,0.002360,
970,1490,0.233893,-1.105911,0.999998,0.000152,-0.001245,0.002422,0.000356,0.002457,-0.001279,84.508970,0.002457,
930,280,0.160557,-4.550432,0.999998,0.000178,-0.000719,0.002133,0.000078,0.002135,-0.000721,88.438783,0.002172,
1880,500,-0.699006,-3.770824,0.999998,0.000158,-0.001255,0.002535,0.000011,0.002535,-0.001255,89.838850,0.002535,
1750,1030,-0.915634,-2.513754,0.999998,0.000162,-0.001103,0.002445,-0.000003,0.002445,-0.001103,-89.955938,0.002449,
630,1270,0.874096,-1.956740,0.999999,0.000148,-0.001232,0.002477,-0.000143,0.002483,-0.001237,-87.801716,0.002483,
1510,130,-0.060904,-4.851463,0.999999,0.000128,-0.000322,0.001779,-0.000218,0.001802,-0.000345,-84.129821,0.001913,
780,570,0.493087,-3.745951,0.999997,0.000186,-0.001380,0.002647,-0.000054,0.002648,-0.001381,-89.226458,0.002649,
560,1180,1.021878,-2.206957,0.999998,0.000000,-0.000946,0.002143,0.000029,0.002144,-0.000946,89.458744,0.002149,
1110,1730,0.062135,-0.516380,0.999998,0.000165,-0.000542,0.001867,0.000037,0.001867,-0.000542,89.128736,0.001921,
750,1880,0.211210,-0.328229,0.999998,0.000147,-0.000751,0.002360,-0.000446,0.002423,-0.000814,-81.995337,0.002466,
800,880,0.744075,-2.905159,0.999998,0.000184,-0.001270,0.002694,0.000332,0.002721,-0.001297,85.241557,0.002722,
1630,490,-0.373047,-3.997469,0.999998,0.000178,-0.001273,0.002513,0.000132,0.002517,-0.001278,88.008154,0.002517,
1420,890,-0.378622,-3.142937,0.999997,0.000194,-0.001730,0.003445,0.000661,0.003528,-0.001813,82.835248,0.003529,
580,1000,1.051043,-2.578704,0.999998,0.000147,-0.000893,0.002074,0.000035,0.002074,-0.000894,89.332025,0.002081,
560,1000,1.065467,-2.576418,0.999997,0.000000,-0.000726,0.001953,0.000005,0.001953,-0.000726,89.884742,0.001974,
840,1360,0.499089,-1.586307,0.999997,0.000215,-0.001593,0.002851,-0.000004,0.002851,-0.001593,-89.942396,0.002858,
1120,510,0.075350,-4.181355,0.999999,0.000126,-0.000745,0.001824,-0.000243,0.001847,-0.000768,-84.642513,0.001855,
1210,110,0.003176,-4.902129,0.999998,0.000154,-0.000132,0.001572,0.000006,0.001572,-0.000132,89.793721,0.001744,
1120,1770,0.050449,-0.438936,0.999999,0.000131,-0.000487,0.001835,0.000025,0.001835,-0.000487,89.386093,0.001901,
1370,1190,-0.238962,-1.623560,0.999997,0.000209,-0.001360,0.002209,-0.001162,0.002554,-0.001705,-73.463370,0.002601,
1410,1430,-0.145683,-1.148633,0.999998,0.000144,-0.001172,0.002169,-0.000564,0.002262,-0.001265,-80.664210,0.002267,
1370,1440,-0.101118,-1.078373,0.999999,0.000143,-0.000963,0.001948,-0.000528,0.002041,-0.001056,-80.028774,0.002041,
1170,1840,0.019941,-0.310187,0.999998,0.000183,-0.000304,0.001726,-0.000015,0.001727,-0.000304,-89.580757,0.001843,
620,1170,0.964345,-2.199887,0.999998,0.000152,-0.001097,0.002286,-0.000103,0.002289,-0.001100,-88.263676,0.002290,
1460,700,-0.234022,-3.634812,0.999998,0.000205,-0.001613,0.002730,0.000560,0.002801,-0.001684,82.767368,0.002820,
1800,1610,-0.558016,-1.066172,0.999998,0.000161,-0.001266,0.002521,-0.000033,0.002522,-0.001267,-89.505898,0.002522,
1790,1890,-0.271881,-0.348236,0.999998,0.000177,-0.001018,0.002584,0.000477,0.002646,-0.001080,82.585179,0.002660,
850,140,0.108683,-4.817394,0.999998,0.000154,-0.000458,0.002007,0.000356,0.002057,-0.000508,81.935589,0.002143,
1840,480,-0.633297,-3.852689,0.999998,0.000175,-0.001302,0.002524,0.000029,0.002525,-0.001302,89.568419,0.002525,
810,1940,0.099737,-0.178088,0.999998,0.000159,-0.000434,0.002040,-0.000448,0.002118,-0.000512,-80.044231,0.002211,
1570,320,-0.211748,-4.445053,0.999998,0.000171,-0.000913,0.002239,-0.000020,0.002239,-0.000913,-89.639827,0.002252,
1440,470,-0.152202,-4.197900,0.999998,0.000161,-0.000930,0.002114,0.000277,0.002139,-0.000955,84.836807,0.002143,
570,2010,0.110167,-0.103788,0.999993,0.000314,0.000083,0.003388,-0.001701,0.004107,-0.000636,-67.085202,0.004422,
1050,1910,0.039040,-0.202203,0.999999,0.000166,-0.000287,0.001714,-0.000107,0.001720,-0.000292,-86.951583,0.001840,
1840,200,-0.377466,-4.560013,0.999998,0.000171,-0.001201,0.002565,-0.000120,0.002569,-0.001205,-88.175437,0.002570,
650,620,0.706026,-3.515172,0.999998,0.000191,-0.001295,0.002565,0.000028,0.002565,-0.001296,89.580593,0.002565,
680,1120,0.923367,-2.300476,0.999998,0.000145,-0.001126,0.002407,-0.000192,0.002417,-0.001137,-86.904226,0.002419,
880,1780,0.196494,-0.500167,0.999998,0.000153,-0.000854,0.002227,-0.000078,0.002229,-0.000856,-88.553661,0.002249,
1540,1650,-0.227073,-0.769072,0.999998,0.000151,-0.000979,0.002270,-0.000106,0.002273,-0.000982,-88.134087,0.002280,
910,280,0.174616,-4.541672,0.999998,0.000184,-0.000723,0.002162,0.000109,0.002166,-0.000727,87.835390,0.002204,
910,1100,0.683055,-2.312556,0.999998,0.000188,-0.001118,0.002945,-0.000324,0.002970,-0.001144,-85.467157,0.002996,
890,1400,0.390290,-1.425591,0.999997,0.000203,-0.001551,0.002791,0.000171,0.002797,-0.001558,87.745751,0.002803,
1880,480,-0.684712,-3.821698,0.999998,0.000166,-0.001227,0.002531,0.000031,0.002531,-0.001227,89.528802,0.002531,
970,1470,0.240119,-1.152741,0.999998,0.000149,-0.001298,0.002466,0.000371,0.002503,-0.001335,84.420250,0.002505,
1710,1750,-0.341615,-0.643449,0.999998,0.000208,-0.001045,0.002445,0.000090,0.002447,-0.001047,88.528376,0.002455,
1150,1990,0.005220,-0.068837,0.999999,0.000115,-0.000070,0.001531,-0.000059,0.001533,-0.000072,-87.896815,0.001730,
1500,450,-0.205535,-4.195357,0.999998,0.000150,-0.000997,0.002271,0.000189,0.002282,-0.001008,86.702024,0.002287,
1310,1450,-0.051658,-1.003959,0.999999,0.000141,-0.000736,0.001659,-0.000377,0.001717,-0.000794,-81.253621,0.001718,
1590,1900,-0.109781,-0.248070,0.999999,0.000161,-0.000568,0.002017,0.000303,0.002052,-0.000603,83.411682,0.002109,
1890,1220,-0.980056,-2.108922,0.999999,0.000136,-0.001130,0.002305,0.000064,0.002306,-0.001131,88.931158,0.002306,
1110,1710,0.064363,-0.554273,0.999998,0.000182,-0.000565,0.001854,0.000084,0.001857,-0.000568,88.003741,0.001902,
1120,630,0.077063,-3.962543,0.999998,0.000149,-0.000917,0.001789,-0.000555,0.001898,-0.001027,-78.846035,0.001900,
1630,910,-0.727739,-2.832969,0.999998,0.000162,-0.001225,0.002759,-0.000341,0.002788,-0.001254,-85.136338,0.002793,
840,1340,0.518491,-1.643416,0.999997,0.000213,-0.001621,0.002849,-0.000030,0.002849,-0.001621,-89.613281,0.002858,
940,1730,0.176436,-0.582602,0.999998,0.000179,-0.000803,0.002210,-0.000001,0.002210,-0.000803,-89.973749,0.002237,
1260,1250,-0.023179,-1.189991,0.999998,0.000156,-0.000865,0.000573,-0.000367,0.000661,-0.000954,-76.471382,0.000977,
1210,90,0.000738,-4.932773,0.999999,0.000165,-0.000094,0.001531,0.000009,0.001531,-0.000094,89.697794,0.001716,
630,1250,0.890931,-2.004736,0.999999,0.000146,-0.001199,0.002384,-0.000148,0.002390,-0.001205,-87.646091,0.002390,
1410,1410,-0.147828,-1.191086,0.999999,0.000138,-0.001220,0.002239,-0.000611,0.002344,-0.001325,-80.265997,0.002350,
1510,110,-0.049825,-4.886449,0.999999,0.000133,-0.000290,0.001814,-0.000242,0.001841,-0.000317,-83.523347,0.001969,
640,1170,0.942513,-2.191905,0.999998,0.000166,-0.001143,0.002343,-0.000161,0.002351,-0.001151,-87.367059,0.002351,
1460,680,-0.226057,-3.689040,0.999998,0.000186,-0.001526,0.002626,0.000557,0.002699,-0.001599,82.488917,0.002715,
1370,1840,-0.046983,-0.320047,0.999999,0.000139,-0.000361,0.001788,0.000060,0.001789,-0.000363,88.388652,0.001892,
560,990,1.063261,-2.592929,0.999997,0.000000,-0.000737,0.001936,-0.000074,0.001938,-0.000739,-88.419539,0.001957,
1380,410,-0.091305,-4.354799,0.999998,0.000146,-0.000704,0.001950,0.000135,0.001957,-0.000711,87.088774,0.001981,
1690,140,-0.150279,-4.799192,0.999998,0.000164,-0.000650,0.002186,-0.000458,0.002258,-0.000722,-81.055383,0.002307,
680,810,0.834900,-3.046237,0.999998,0.000171,-0.001276,0.002543,0.000224,0.002556,-0.001289,86.653966,0.002556,
1840,460,-0.621152,-3.902505,0.999998,0.000162,-0.001278,0.002560,0.000022,0.002560,-0.001278,89.664932,0.002560,
1570,300,-0.200510,-4.490612,0.999998,0.000173,-0.000863,0.002260,-0.000052,0.002260,-0.000864,-89.054939,0.002281,
1370,870,-0.249838,-3.404013,0.999998,0.000179,-0.001277,0.002156,0.001157,0.002510,-0.001631,73.006208,0.002547,
1010,1510,0.180991,-1.019207,0.999999,0.000135,-0.001088,0.002227,0.000358,0.002265,-0.001126,83.907745,0.002265,
1850,1000,-1.018454,-2.580629,0.999997,0.000226,-0.001060,0.002213,-0.000067,0.002214,-0.001061,-88.835639,0.002215,
1840,180,-0.349554,-4.611897,0.999998,0.000193,-0.001201,0.002594,-0.000164,0.002601,-0.001208,-87.523970,0.002603,
1700,1930,-0.138871,-0.212818,0.999998,0.000165,-0.000531,0.002189,0.000555,0.002298,-0.000640,78.899988,0.002372,
1440,90,-0.024561,-4.927204,0.999999,0.000149,-0.000134,0.001642,-0.000141,0.001653,-0.000145,-85.479797,0.001831,
1180,810,0.046510,-3.809712,0.999999,0.000152,-0.000937,0.000805,-0.000648,0.001020,-0.001152,-71.677391,0.001261,
760,600,0.543461,-3.650780,0.999998,0.000183,-0.001372,0.002666,-0.000027,0.002666,-0.001372,-89.619899,0.002667,
930,1850,0.117822,-0.335707,0.999998,0.000159,-0.000525,0.001998,-0.000199,0.002014,-0.000540,-85.518446,0.002085,
1090,1440,0.104851,-1.081403,0.999999,0.000144,-0.000986,0.001969,0.000534,0.002063,-0.001080,80.066956,0.002063,
1750,1010,-0.913142,-2.562733,0.999998,0.000177,-0.001085,0.002435,-0.000082,0.002437,-0.001087,-88.661094,0.002442,
1780,1930,-0.198868,-0.241816,0.999998,0.000165,-0.000881,0.002469,0.000613,0.002578,-0.000990,79.949218,0.002601,
1420,910,-0.421063,-3.071639,0.999998,0.000158,-0.001663,0.003513,0.000736,0.003616,-0.001766,82.057813,0.003616,
800,860,0.723971,-2.959022,0.999998,0.000174,-0.001327,0.002753,0.000320,0.002778,-0.001351,85.539311,0.002778,
1710,1770,-0.324829,-0.594455,0.999997,0.000225,-0.001013,0.002475,0.000142,0.002480,-0.001018,87.674982,0.002494,
970,1450,0.246115,-1.203691,0.999998,0.000162,-0.001358,0.002482,0.000400,0.002523,-0.001400,84.111453,0.002528,
1050,1890,0.047394,-0.237166,0.999998,0.000186,-0.000329,0.001735,-0.000086,0.001738,-0.000332,-87.629109,0.001845,
1560,1710,-0.216005,-0.644642,0.999998,0.000145,-0.000932,0.002271,-0.000016,0.002271,-0.000932,-89.715372,0.002283,
1410,1000,-0.528791,-2.697377,0.999972,0.000663,-0.002299,0.006223,0.000747,0.006288,-0.002364,85.026303,0.006352,
1870,510,-0.693664,-3.753503,0.999998,0.000173,-0.001251,0.002547,0.000009,0.002547,-0.001251,89.868821,0.002547,
890,1100,0.704353,-2.319106,0.999998,0.000183,-0.001075,0.002842,-0.000289,0.002863,-0.001096,-85.803039,0.002889,
890,280,0.190857,-4.534644,0.999998,0.000169,-0.000809,0.002197,0.000109,0.002201,-0.000813,87.920362,0.002226,
660,1770,0.431557,-0.662339,0.999997,0.000194,-0.001234,0.002513,-0.000088,0.002515,-0.001236,-88.653669,0.002515,
1520,1650,-0.209093,-0.757368,0.999998,0.000166,-0.000927,0.002214,-0.000126,0.002219,-0.000932,-87.700868,0.002228,
880,1760,0.207113,-0.544531,0.999998,0.000161,-0.000909,0.002217,-0.000060,0.002219,-0.000910,-88.908033,0.002230,
910,440,0.257047,-4.180200,0.999998,0.000159,-0.001112,0.002363,-0.000149,0.002369,-0.001118,-87.549887,0.002370,
1150,1970,0.007676,-0.099489,0.999999,0.000144,-0.000103,0.001548,-0.000061,0.001550,-0.000105,-87.904046,0.001733,
680,1100,0.935903,-2.348239,0.999998,0.000159,-0.001121,0.002377,-0.000166,0.002385,-0.001128,-87.290565,0.002386,
1310,1430,-0.048833,-1.038136,0.999999,0.000146,-0.000742,0.001607,-0.000419,0.001680,-0.000814,-80.184622,0.001680,
940,1750,0.167763,-0.538715,0.999998,0.000162,-0.000777,0.002106,-0.000010,0.002106,-0.000777,-89.796493,0.002130,
1890,1210,-0.988196,-2.131041,0.999998,0.000144,-0.001136,0.002287,0.000068,0.002289,-0.001137,88.863353,0.002289,
1260,1230,-0.033976,-1.201736,0.999998,0.000144,-0.001196,0.000652,-0.000214,0.000676,-0.001221,-83.492428,0.001223,
1110,1690,0.068490,-0.590567,0.999998,0.000157,-0.000614,0.001886,0.000096,0.001890,-0.000618,87.798700,0.001927,
1280,670,-0.026740,-3.960042,0.999999,0.000127,-0.000638,0.001333,0.000395,0.001409,-0.000714,79.067161,0.001409,
1510,90,-0.036975,-4.923419,0.999999,0.000127,-0.000226,0.001725,-0.000222,0.001750,-0.000251,-83.584533,0.001892,
560,980,1.064549,-2.613606,0.999996,0.000000,-0.000771,0.002018,-0.000103,0.002022,-0.000775,-87.884334,0.002040,
1250,1300,-0.008982,-1.149315,0.999999,0.000124,-0.000522,0.000762,-0.000260,0.000813,-0.000573,-78.967910,0.000836,
930,1830,0.127517,-0.376173,0.999999,0.000136,-0.000588,0.002009,-0.000151,0.002018,-0.000597,-86.691358,0.002073,
1850,980,-1.013249,-2.625631,0.999998,0.000195,-0.001059,0.002192,-0.000039,0.002192,-0.001060,-89.307698,0.002193,
1110,1440,0.085568,-1.059897,0.999999,0.000125,-0.000937,0.001833,0.000521,0.001928,-0.001032,79.697247,0.001930,
1300,410,-0.039443,-4.381959,0.999999,0.000142,-0.000598,0.001803,0.000079,0.001806,-0.000600,88.118626,0.001839,
1580,1470,-0.358450,-1.243197,0.999998,0.000179,-0.001426,0.002627,-0.000195,0.002636,-0.001436,-87.259059,0.002640,
1630,930,-0.747531,-2.777353,0.999998,0.000171,-0.001141,0.002745,-0.000319,0.002771,-0.001167,-85.333298,0.002782,
620,1610,0.612077,-1.098830,0.999998,0.000170,-0.001242,0.002498,0.000037,0.002498,-0.001242,89.437471,0.002498,
1610,640,-0.436552,-3.620458,0.999997,0.000185,-0.001533,0.002756,0.000098,0.002758,-0.001535,88.693824,0.002764,
1590,170,-0.123557,-4.762089,0.999998,0.000165,-0.000591,0.002044,-0.000260,0.002070,-0.000617,-84.412854,0.002125,
1440,530,-0.164479,-4.066474,0.999998,0.000150,-0.001073,0.002204,0.000360,0.002243,-0.001112,83.801267,0.002243,
1360,330,-0.067056,-4.512258,0.999998,0.000175,-0.000552,0.001877,0.000067,0.001879,-0.000554,88.417167,0.001931,
1040,1970,0.021570,-0.103704,0.999999,0.000131,-0.000153,0.001617,-0.000132,0.001627,-0.000163,-85.751077,0.001792,
840,830,0.635579,-3.061688,0.999997,0.000171,-0.001507,0.002901,0.000293,0.002920,-0.001526,86.215289,0.002921,
760,570,0.521662,-3.730247,0.999998,0.000185,-0.001356,0.002650,-0.000056,0.002651,-0.001356,-89.192809,0.002651,
1410,260,-0.076120,-4.632344,0.999998,0.000160,-0.000545,0.001848,-0.000015,0.001848,-0.000545,-89.640518,0.001899,
1050,1870,0.051237,-0.272113,0.999998,0.000189,-0.000374,0.001758,-0.000084,0.001762,-0.000378,-87.737358,0.001855,
1540,660,-0.343609,-3.636007,0.999998,0.000174,-0.001565,0.002777,0.000276,0.002794,-0.001582,86.375789,0.002802,
1840,160,-0.317470,-4.665522,0.999998,0.000183,-0.001216,0.002606,-0.000209,0.002618,-0.001227,-86.876013,0.002620,
560,1190,1.014136,-2.184247,0.999999,0.000000,-0.001010,0.002199,-0.000009,0.002199,-0.001010,-89.832191,0.002202,
1110,1670,0.071840,-0.629316,0.999998,0.000166,-0.000638,0.001880,0.000107,0.001885,-0.000643,87.572722,0.001916,
1150,1950,0.011037,-0.129811,0.999998,0.000158,-0.000132,0.001586,-0.000040,0.001587,-0.000133,-88.680679,0.001761,
1840,440,-0.603576,-3.955248,0.999998,0.000172,-0.001250,0.002506,0.000024,0.002506,-0.001251,89.640723,0.002506,
1660,790,-0.647478,-3.157200,0.999998,0.000191,-0.001460,0.002821,-0.000257,0.002837,-0.001475,-86.573181,0.002838,
1370,1370,-0.105463,-1.218196,0.999998,0.000163,-0.001144,0.002007,-0.000779,0.002190,-0.001327,-76.842327,0.002206,
800,840,0.703878,-3.015464,0.999998,0.000161,-0.001388,0.002784,0.000306,0.002806,-0.001410,85.821851,0.002806,
1880,1220,-0.968522,-2.102007,0.999999,0.000126,-0.001131,0.002312,0.000079,0.002313,-0.001133,88.694234,0.002314,
1580,230,-0.162254,-4.638552,0.999998,0.000147,-0.000746,0.002162,-0.000188,0.002174,-0.000758,-86.317761,0.002207,
1750,480,-0.520084,-3.925432,0.999998,0.000164,-0.001272,0.002550,0.000046,0.002551,-0.001273,89.309806,0.002551,
1510,70,-0.027682,-4.956002,0.999999,0.000115,-0.000176,0.001655,-0.000239,0.001686,-0.000206,-82.692503,0.001839,
1040,970,0.533031,-2.818063,0.999997,0.000216,-0.001906,0.004657,-0.000903,0.004779,-0.002028,-82.308746,0.004797,
960,1750,0.150634,-0.529004,0.999998,0.000188,-0.000805,0.002092,0.000015,0.002092,-0.000805,89.702665,0.002110,
1530,1220,-0.489028,-1.922114,0.999998,0.000184,-0.001775,0.003218,0.000134,0.003221,-0.001779,88.465800,0.003227,
630,1230,0.908481,-2.052463,0.999998,0.000145,-0.001172,0.002382,-0.000168,0.002390,-0.001180,-87.292527,0.002390,
1250,1580,-0.012255,-0.763616,0.999998,0.000149,-0.000595,0.001714,-0.000075,0.001716,-0.000597,-88.131550,0.001742,
1580,1490,-0.348159,-1.190323,0.999997,0.000191,-0.001362,0.002573,-0.000204,0.002584,-0.001372,-87.039928,0.002585,
720,1120,0.879066,-2.294512,0.999998,0.000142,-0.001137,0.002473,-0.000203,0.002484,-0.001149,-86.787858,0.002486,
660,1750,0.451728,-0.713447,0.999997,0.000216,-0.001239,0.002550,-0.000042,0.002550,-0.001239,-89.363033,0.002551,
1790,1870,-0.302036,-0.398703,0.999998,0.000190,-0.001074,0.002531,0.000363,0.002567,-0.001111,84.300812,0.002575,
1630,950,-0.762230,-2.723765,0.999998,0.000159,-0.001082,0.002667,-0.000264,0.002686,-0.001101,-85.989505,0.002700,
1250,1320,-0.009931,-1.134230,0.999999,0.000118,-0.000478,0.000855,-0.000219,0.000890,-0.000513,-80.908408,0.000894,
1380,350,-0.081683,-4.468938,0.999999,0.000140,-0.000581,0.001885,0.000041,0.001885,-0.000582,89.043977,0.001931,
1000,770,0.287146,-3.427462,0.999997,0.000202,-0.001884,0.003043,-0.000483,0.003090,-0.001931,-84.452320,0.003122,
1600,710,-0.474194,-3.432026,0.999997,0.000210,-0.001622,0.002900,0.000032,0.002900,-0.001622,89.591303,0.002907,
1210,70,0.003080,-4.963558,0.999999,0.000147,-0.000069,0.001530,0.000020,0.001530,-0.000069,89.293870,0.001729,
770,520,0.472459,-3.869246,0.999998,0.000171,-0.001324,0.002575,-0.000062,0.002576,-0.001325,-89.090613,0.002576,
1120,610,0.076083,-3.999415,0.999999,0.000160,-0.000906,0.001790,-0.000498,0.001879,-0.000995,-79.863912,0.001880,
1850,520,-0.677251,-3.742262,0.999998,0.000168,-0.001262,0.002562,0.000018,0.002562,-0.001262,89.725077,0.002562,
1590,150,-0.106602,-4.801300,0.999998,0.000142,-0.000539,0.001985,-0.000314,0.002023,-0.000577,-83.018025,0.002084,
930,1810,0.141969,-0.416452,0.999998,0.000155,-0.000668,0.002088,-0.000145,0.002095,-0.000676,-86.998269,0.002139,
760,580,0.527817,-3.703335,0.999998,0.000183,-0.001361,0.002653,-0.000041,0.002653,-0.001361,-89.417986,0.002654,
1500,350,-0.169025,-4.415650,0.999998,0.000189,-0.000873,0.002121,0.000066,0.002123,-0.000874,88.741762,0.002134,
1310,1630,-0.046166,-0.686522,0.999998,0.000158,-0.000627,0.001813,-0.000122,0.001819,-0.000633,-87.146532,0.001847,
1550,1840,-0.133218,-0.360429,0.999998,0.000190,-0.000570,0.002068,0.000197,0.002083,-0.000584,85.745162,0.002149,
580,950,1.042366,-2.682067,0.999999,0.000141,-0.000968,0.002099,0.000021,0.002099,-0.000969,89.606645,0.002101,
1010,1470,0.188735,-1.108743,0.999998,0.000164,-0.001217,0.002335,0.000444,0.002390,-0.001272,82.977056,0.002391,
600,1610,0.637269,-1.116610,0.999998,0.000163,-0.001256,0.002493,0.000023,0.002493,-0.001256,89.646753,0.002493,
1110,1650,0.074373,-0.665158,0.999998,0.000174,-0.000652,0.001868,0.000122,0.001874,-0.000658,87.224265,0.001902,
1600,1970,-0.055270,-0.115543,0.999999,0.000132,-0.000279,0.001823,0.000389,0.001893,-0.000349,79.837110,0.002015,
1050,1850,0.061957,-0.308957,0.999998,0.000194,-0.000417,0.001812,-0.000072,0.001814,-0.000420,-88.143753,0.001900,
980,250,0.109629,-4.630318,0.999998,0.000198,-0.000591,0.001982,0.000098,0.001986,-0.000595,87.813002,0.002038,
1640,790,-0.617496,-3.167651,0.999998,0.000171,-0.001541,0.002879,-0.000228,0.002890,-0.001553,-87.052095,0.002893,
560,1410,0.851422,-1.654297,0.999965,0.000000,-0.002018,0.002589,-0.000145,0.002593,-0.002023,-88.198729,0.002725,
1700,1370,-0.607105,-1.616517,0.999998,0.000207,-0.001443,0.002721,0.000094,0.002723,-0.001445,88.702036,0.002725,
1410,1390,-0.150306,-1.237451,0.999999,0.000139,-0.001281,0.002266,-0.000680,0.002392,-0.001407,-79.517009,0.002404,
1750,990,-0.909400,-2.612030,0.999998,0.000155,-0.001070,0.002402,-0.000072,0.002403,-0.001071,-88.818725,0.002408,
1730,480,-0.495229,-3.941393,0.999998,0.000182,-0.001299,0.002572,0.000069,0.002573,-0.001300,88.976485,0.002573,
800,820,0.683343,-3.071426,0.999998,0.000170,-0.001435,0.002789,0.000293,0.002810,-0.001455,86.054441,0.002810,
840,1320,0.536278,-1.700407,0.999998,0.000185,-0.001614,0.002896,-0.000069,0.002897,-0.001615,-89.122927,0.002904,
1540,640,-0.331503,-3.690882,0.999998,0.000177,-0.001510,0.002728,0.000277,0.002746,-0.001528,86.279200,0.002752,
1840,140,-0.285070,-4.715479,0.999998,0.000169,-0.001219,0.002622,-0.000284,0.002643,-0.001240,-85.792601,0.002644,
1150,1930,0.011929,-0.162299,0.999999,0.000144,-0.000149,0.001622,-0.000048,0.001624,-0.000150,-88.433351,0.001794,
1020,970,0.565522,-2.770675,0.999996,0.000253,-0.001560,0.004063,-0.000315,0.004080,-0.001577,-86.806043,0.004115,
1550,780,-0.457899,-3.271017,0.999998,0.000191,-0.001775,0.003103,-0.000011,0.003103,-0.001775,-89.874154,0.003114,
1360,1240,-0.139003,-1.469097,0.999998,0.000182,-0.001564,0.002169,-0.001130,0.002484,-0.001880,-74.399749,0.002591,
1810,1240,-0.872191,-2.017600,0.999999,0.000139,-0.001202,0.002450,0.000193,0.002460,-0.001212,86.988211,0.002461,
1500,1980,-0.026794,-0.091294,0.999999,0.000154,-0.000201,0.001679,0.000226,0.001706,-0.000228,83.247121,0.001853,
1200,1510,0.019104,-0.885788,0.999998,0.000176,-0.000632,0.001641,0.000102,0.001646,-0.000636,87.427013,0.001660,
1840,420,-0.589887,-4.005608,0.999998,0.000170,-0.001223,0.002528,0.000032,0.002529,-0.001223,89.510723,0.002529,
570,750,0.918292,-3.127181,0.999993,0.000295,-0.001363,0.002525,0.000004,0.002525,-0.001363,89.940793,0.002527,
1470,1580,-0.183074,-0.877380,0.999998,0.000150,-0.001010,0.002199,-0.000252,0.002219,-0.001030,-85.540174,0.002221,
1360,350,-0.069440,-4.475275,0.999998,0.000180,-0.000599,0.001858,0.000084,0.001861,-0.000601,88.040207,0.001899,
1560,230,-0.147679,-4.646453,0.999998,0.000199,-0.000651,0.002110,-0.000168,0.002120,-0.000661,-86.523679,0.002170,
1510,1220,-0.454627,-1.898276,0.999998,0.000170,-0.001848,0.003275,0.000050,0.003275,-0.001849,89.436477,0.003284,
1630,970,-0.775757,-2.670121,0.999998,0.000170,-0.001043,0.002671,-0.000212,0.002683,-0.001055,-86.748413,0.002703,
1480,1770,-0.124176,-0.477937,0.999998,0.000156,-0.000625,0.002019,0.000032,0.002019,-0.000625,89.296869,0.002067,
630,1210,0.923657,-2.099060,0.999998,0.000147,-0.001177,0.002379,-0.000166,0.002386,-0.001185,-87.336866,0.002386,
1610,780,-0.559652,-3.218734,0.999997,0.000189,-0.001615,0.002953,-0.000159,0.002959,-0.001621,-88.014973,0.002963,
720,1100,0.890772,-2.341672,0.999998,0.000170,-0.001125,0.002459,-0.000166,0.002466,-0.001132,-87.351989,0.002469,
1590,130,-0.088937,-4.840425,0.999999,0.000141,-0.000455,0.001950,-0.000328,0.001994,-0.000499,-82.372777,0.002075,
1350,820,-0.132589,-3.597486,0.999998,0.000201,-0.001462,0.001961,0.001114,0.002292,-0.001793,73.469211,0.002410,
1790,1850,-0.327328,-0.448541,0.999997,0.000200,-0.001125,0.002549,0.000290,0.002572,-0.001148,85.518285,0.002577,
1300,1450,-0.044285,-0.997440,0.999999,0.000139,-0.000728,0.001619,-0.000355,0.001672,-0.000781,-81.576965,0.001673,
1050,1830,0.065255,-0.343790,0.999998,0.000179,-0.000466,0.001841,-0.000024,0.001841,-0.000467,-89.414610,0.001914,
1110,1630,0.075732,-0.704052,0.999998,0.000162,-0.000655,0.001870,0.000145,0.001878,-0.000663,86.729177,0.001905,
1200,1980,0.004322,-0.082073,0.999999,0.000127,-0.000102,0.001518,-0.000021,0.001518,-0.000102,-89.268476,0.001697,
1660,1530,-0.432779,-1.156502,0.999997,0.000180,-0.001301,0.002583,-0.000106,0.002586,-0.001304,-88.437475,0.002586,
1260,670,-0.015419,-3.970703,0.999999,0.000124,-0.000548,0.001265,0.000232,0.001295,-0.000578,82.834131,0.001297,
690,1760,0.404897,-0.664322,0.999998,0.000191,-0.001202,0.002524,-0.000090,0.002526,-0.001204,-88.621299,0.002527,
980,230,0.101526,-4.670099,0.999998,0.000156,-0.000537,0.001951,0.000107,0.001955,-0.000541,87.540163,0.002019,
1570,1840,-0.144495,-0.366688,0.999999,0.000140,-0.000635,0.002097,0.000198,0.002111,-0.000650,85.871021,0.002163,
1280,1970,-0.005558,-0.099307,0.999999,0.000142,-0.000095,0.001552,0.000048,0.001553,-0.000096,88.329911,0.001740,
1540,620,-0.319494,-3.745985,0.999998,0.000184,-0.001469,0.002648,0.000283,0.002667,-0.001489,86.090873,0.002673,
800,800,0.661440,-3.127539,0.999998,0.000189,-0.001472,0.002799,0.000256,0.002815,-0.001488,86.583687,0.002816,
930,1790,0.152767,-0.458459,0.999998,0.000171,-0.000693,0.002103,-0.000101,0.002107,-0.000697,-87.936108,0.002147,
1730,1180,-0.821506,-2.138710,0.999998,0.000171,-0.001247,0.002593,0.000262,0.002610,-0.001265,86.108263,0.002611,
1840,120,-0.246213,-4.770028,0.999998,0.000146,-0.001197,0.002657,-0.000364,0.002691,-0.001231,-84.654346,0.002695,
1150,1910,0.015583,-0.194949,0.999999,0.000129,-0.000170,0.001612,-0.000057,0.001614,-0.000172,-88.165621,0.001772,
1010,1450,0.193429,-1.155151,0.999998,0.000141,-0.001302,0.002360,0.000477,0.002421,-0.001363,82.700805,0.002427,
940,1170,0.549461,-2.077742,0.999998,0.000170,-0.001565,0.003230,-0.000283,0.003247,-0.001582,-86.633046,0.003247,
600,810,0.930937,-3.006840,0.999999,0.000120,-0.001169,0.002329,0.000097,0.002331,-0.001172,88.417475,0.002331,
750,520,0.499318,-3.852719,0.999998,0.000151,-0.001314,0.002582,-0.000062,0.002583,-0.001315,-89.090816,0.002583,
1400,790,-0.186761,-3.513899,0.999997,0.000191,-0.001810,0.002705,0.000917,0.002884,-0.001989,78.943836,0.002953,
1060,960,0.481213,-2.947528,0.999997,0.000215,-0.001930,0.004839,-0.001801,0.005288,-0.002379,-75.990104,0.005297,
560,1400,0.863558,-1.687699,0.999974,0.000000,-0.001933,0.002703,-0.000013,0.002703,-0.001933,-89.834425,0.002785,
580,750,0.905659,-3.136547,0.999998,0.000151,-0.001320,0.002496,0.000025,0.002496,-0.001320,89.626406,0.002498,
1790,1240,-0.848131,-2.008584,0.999998,0.000159,-0.001249,0.002487,0.000217,0.002500,-0.001261,86.689763,0.002500,
1500,1960,-0.038267,-0.124161,0.999999,0.000167,-0.000251,0.001732,0.000222,0.001756,-0.000275,83.685277,0.001889,
690,280,0.391887,-4.415387,0.999997,0.000219,-0.001187,0.002528,0.000104,0.002531,-0.001190,88.395413,0.002533,
590,500,0.690273,-3.776689,0.999998,0.000175,-0.001406,0.002462,-0.000041,0.002463,-0.001406,-89.389837,0.002471,
1120,1470,0.074967,-0.995320,0.999999,0.000148,-0.000849,0.001825,0.000442,0.001896,-0.000920,80.848189,0.001896,
760,560,0.513805,-3.757689,0.999998,0.000181,-0.001354,0.002641,-0.000069,0.002642,-0.001355,-89.012730,0.002642,
1050,1810,0.071679,-0.381355,0.999998,0.000183,-0.000517,0.001853,-0.000028,0.001854,-0.000518,-89.316829,0.001913,
1790,1830,-0.352838,-0.498990,0.999997,0.000205,-0.001136,0.002546,0.000223,0.002559,-0.001150,86.552767,0.002563,
1410,1370,-0.155648,-1.282805,0.999998,0.000154,-0.001372,0.002337,-0.000726,0.002474,-0.001508,-79.315128,0.002494,
1750,970,-0.904096,-2.659301,0.999999,0.000143,-0.001088,0.002418,-0.000111,0.002421,-0.001092,-88.180997,0.002425,
1440,570,-0.171176,-3.978660,0.999998,0.000140,-0.001123,0.002204,0.000428,0.002258,-0.001177,82.779632,0.002259,
1160,1770,0.031112,-0.434321,0.999998,0.000146,-0.000423,0.001774,-0.000011,0.001774,-0.000423,-89.721059,0.001853,
1630,1410,-0.470869,-1.451624,0.999997,0.000202,-0.001503,0.002768,-0.000054,0.002768,-0.001503,-89.275714,0.002772,
1180,1410,0.030584,-1.047288,0.999999,0.000140,-0.000666,0.001443,0.000357,0.001501,-0.000725,80.657192,0.001502,
1110,1610,0.077682,-0.741926,0.999998,0.000148,-0.000667,0.001871,0.000159,0.001880,-0.000677,86.437008,0.001905,
1310,1410,-0.050384,-1.068206,0.999999,0.000151,-0.000757,0.001587,-0.000460,0.001674,-0.000844,-79.284659,0.001674,
570,1360,0.873615,-1.777088,0.999982,0.000531,-0.001495,0.002459,0.000010,0.002459,-0.001495,89.849630,0.002479,
1140,290,0.040236,-4.595391,0.999999,0.000132,-0.000504,0.001783,-0.000033,0.001783,-0.000504,-89.165672,0.001838,
1610,760,-0.538743,-3.276058,0.999997,0.000176,-0.001624,0.002922,-0.000109,0.002925,-0.001626,-88.624211,0.002931,
840,1300,0.554649,-1.759057,0.999997,0.000196,-0.001596,0.002907,-0.000128,0.002910,-0.001599,-88.368781,0.002915,
1210,470,0.013482,-4.284299,0.999998,0.000148,-0.000597,0.001718,-0.000084,0.001721,-0.000600,-87.922818,0.001747,
1840,400,-0.573868,-4.055879,0.999998,0.000177,-0.001244,0.002510,0.000034,0.002510,-0.001244,89.487977,0.002510,
1570,440,-0.275949,-4.166844,0.999998,0.000168,-0.001093,0.002364,0.000130,0.002369,-0.001098,87.847035,0.002371,
630,1190,0.938716,-2.146565,0.999998,0.000160,-0.001166,0.002405,-0.000171,0.002413,-0.001175,-87.261909,0.002413,
1660,1510,-0.445996,-1.208188,0.999998,0.000178,-0.001337,0.002640,-0.000105,0.002642,-0.001340,-88.488874,0.002643,
1120,590,0.077187,-4.035155,0.999999,0.000139,-0.000859,0.001839,-0.000425,0.001904,-0.000924,-81.257377,0.001904,
670,1760,0.429472,-0.679115,0.999998,0.000183,-0.001220,0.002533,-0.000076,0.002535,-0.001222,-88.834737,0.002535,
1660,410,-0.360813,-4.173088,0.999998,0.000208,-0.001187,0.002476,0.000053,0.002477,-0.001187,89.171244,0.002477,
930,1770,0.163897,-0.502574,0.999998,0.000161,-0.000727,0.002131,-0.000084,0.002134,-0.000729,-88.309623,0.002169,
1500,1970,-0.032930,-0.107844,0.999998,0.000169,-0.000228,0.001701,0.000227,0.001727,-0.000255,83.380960,0.001865,
720,1080,0.898626,-2.392749,0.999998,0.000152,-0.001103,0.002434,-0.000097,0.002436,-0.001105,-88.426454,0.002440,
800,780,0.642974,-3.183110,0.999997,0.000185,-0.001488,0.002792,0.000227,0.002804,-0.001500,86.974575,0.002806,
1540,600,-0.311352,-3.799189,0.999998,0.000187,-0.001410,0.002599,0.000285,0.002619,-0.001430,85.959125,0.002623,
1370,330,-0.072214,-4.509225,0.999998,0.000186,-0.000551,0.001885,0.000039,0.001886,-0.000552,89.085484,0.001939,
1590,110,-0.072267,-4.879178,0.999999,0.000145,-0.000394,0.001904,-0.000353,0.001957,-0.000447,-81.462364,0.002051,
1360,1620,-0.079762,-0.725849,0.999998,0.000181,-0.000706,0.001889,-0.000151,0.001898,-0.000715,-86.672501,0.001917,
980,970,0.619214,-2.718063,0.999997,0.000180,-0.001199,0.003426,0.000159,0.003431,-0.001205,88.032034,0.003481,
920,1170,0.580651,-2.094357,0.999998,0.000171,-0.001580,0.003140,-0.000327,0.003163,-0.001603,-86.051940,0.003163,
590,810,0.942848,-3.001018,0.999999,0.000136,-0.001153,0.002313,0.000061,0.002314,-0.001155,88.984836,0.002314,
1780,1910,-0.229024,-0.289567,0.999998,0.000169,-0.000951,0.002484,0.000517,0.002560,-0.001027,81.623967,0.002577,
970,1900,0.067253,-0.231401,0.999998,0.000168,-0.000410,0.001842,-0.000188,0.001858,-0.000426,-85.250135,0.001947,
1150,1890,0.019189,-0.229420,0.999999,0.000137,-0.000221,0.001649,-0.000052,0.001651,-0.000222,-88.418380,0.001791,
560,1390,0.878673,-1.707002,0.999977,0.000000,-0.001822,0.002663,0.000124,0.002667,-0.001825,88.419243,0.002726,
1470,1320,-0.271518,-1.520098,0.999998,0.000170,-0.001768,0.002904,-0.000503,0.002957,-0.001822,-83.924369,0.002984,
1710,1790,-0.306953,-0.544376,0.999997,0.000192,-0.000984,0.002456,0.000195,0.002467,-0.000995,86.771341,0.002483,
1500,1200,-0.464006,-1.950699,0.999998,0.000184,-0.001862,0.003346,0.000059,0.003347,-0.001862,89.354874,0.003354,
1120,1450,0.075976,-1.031513,0.999999,0.000130,-0.000873,0.001775,0.000474,0.001857,-0.000955,80.161948,0.001858,
1710,1180,-0.798188,-2.134636,0.999998,0.000173,-0.001255,0.002609,0.000269,0.002627,-0.001274,86.040200,0.002628,
1050,1790,0.077940,-0.417973,0.999998,0.000185,-0.000563,0.001874,-0.000025,0.001874,-0.000563,-89.408812,0.001923,
1550,760,-0.437598,-3.331927,0.999998,0.000169,-0.001777,0.003043,0.000053,0.003044,-0.001778,89.367187,0.003058,
1870,1220,-0.958204,-2.095065,0.999999,0.000141,-0.001135,0.002321,0.000106,0.002324,-0.001139,88.243326,0.002325,
1590,980,-0.740642,-2.648315,0.999998,0.000178,-0.001003,0.002733,-0.000204,0.002744,-0.001014,-86.888808,0.002774,
1110,1380,0.084279,-1.172473,0.999999,0.000143,-0.001007,0.001873,0.000712,0.002039,-0.001173,76.847018,0.002047,
1050,960,0.499957,-2.901862,0.999997,0.000199,-0.001936,0.004580,-0.001415,0.004874,-0.002230,-78.258946,0.004880,
1440,550,-0.168270,-4.022017,0.999998,0.000153,-0.001085,0.002209,0.000396,0.002256,-0.001132,83.239220,0.002256,
1110,550,0.084164,-4.102410,0.999998,0.000149,-0.000826,0.001868,-0.000380,0.001921,-0.000879,-82.117126,0.001923,
1560,1770,-0.182115,-0.511464,0.999998,0.000175,-0.000761,0.002189,0.000101,0.002192,-0.000765,88.035290,0.002226,
1070,300,0.076671,-4.561135,0.999998,0.000169,-0.000542,0.001893,-0.000018,0.001893,-0.000542,-89.585591,0.001949,
630,1170,0.953911,-2.196393,0.999998,0.000151,-0.001123,0.002310,-0.000131,0.002315,-0.001128,-87.821441,0.002315,
1210,490,0.013062,-4.249787,0.999999,0.000131,-0.000623,0.001724,-0.000078,0.001727,-0.000625,-88.097680,0.001749,
1630,1390,-0.484779,-1.507643,0.999997,0.000207,-0.001536,0.002788,-0.000032,0.002788,-0.001537,-89.570449,0.002793,
1570,420,-0.266052,-4.213217,0.999998,0.000161,-0.001078,0.002374,0.000110,0.002377,-0.001082,88.180881,0.002380,
1660,390,-0.348792,-4.222711,0.999998,0.000175,-0.001188,0.002485,0.000048,0.002486,-0.001188,89.249434,0.002486,
1590,760,-0.505899,-3.292122,0.999997,0.000181,-0.001681,0.002977,-0.000075,0.002978,-0.001682,-89.083477,0.002986,
910,1460,0.326846,-1.242780,0.999997,0.000201,-0.001414,0.002612,0.000263,0.002629,-0.001431,86.278795,0.002632,
1120,570,0.076180,-4.074089,0.999999,0.000134,-0.000816,0.001846,-0.000381,0.001900,-0.000869,-82.008474,0.001902,
930,1750,0.175682,-0.543373,0.999998,0.000182,-0.000756,0.002122,-0.000040,0.002122,-0.000756,-89.209237,0.002152,
800,760,0.621816,-3.239197,0.999998,0.000181,-0.001488,0.002834,0.000179,0.002841,-0.001495,87.632369,0.002842,
1500,1650,-0.189528,-0.743231,0.999998,0.000172,-0.000943,0.002189,-0.000137,0.002195,-0.000949,-87.493291,0.002201,
1280,410,-0.028868,-4.385874,0.999998,0.000147,-0.000561,0.001798,0.000061,0.001800,-0.000562,88.522722,0.001842,
720,1060,0.902551,-2.440817,0.999998,0.000161,-0.001080,0.002440,-0.000070,0.002441,-0.001082,-88.864693,0.002446,
1360,1600,-0.082885,-0.762332,0.999998,0.000160,-0.000712,0.001885,-0.000175,0.001897,-0.000724,-86.160644,0.001914,
1290,1440,-0.036305,-1.006443,0.999999,0.000141,-0.000706,0.001553,-0.000334,0.001601,-0.000754,-81.767254,0.001602,
1040,50,0.009531,-4.992443,0.999999,0.000108,-0.000091,0.001564,0.000128,0.001574,-0.000100,85.619100,0.001763,
1480,1970,-0.027977,-0.105631,0.999999,0.000154,-0.000156,0.001683,0.000225,0.001710,-0.000183,83.135679,0.001878,
1410,1350,-0.161518,-1.331031,0.999998,0.000152,-0.001449,0.002437,-0.000765,0.002583,-0.001594,-79.254999,0.002606,
580,810,0.954564,-2.993825,0.999999,0.000129,-0.001152,0.002299,0.000029,0.002300,-0.001152,89.514862,0.002300,
1540,1020,-0.707941,-2.540950,0.999998,0.000186,-0.000908,0.002860,-0.000031,0.002860,-0.000908,-89.530783,0.002923,
1750,950,-0.895572,-2.708562,0.999998,0.000149,-0.001105,0.002490,-0.000177,0.002499,-0.001113,-87.190017,0.002504,
650,1600,0.582139,-1.101498,0.999998,0.000157,-0.001277,0.002530,0.000027,0.002530,-0.001277,89.587896,0.002531,
1470,2010,-0.010804,-0.040327,0.999998,0.000168,-0.000004,0.001572,0.000185,0.001593,-0.000026,83.391185,0.001825,
1590,90,-0.056408,-4.916479,0.999999,0.000141,-0.000316,0.001816,-0.000348,0.001871,-0.000372,-80.952208,0.001982,
1150,1870,0.022354,-0.261113,0.999998,0.000158,-0.000259,0.001687,-0.000037,0.001688,-0.000259,-88.896481,0.001818,
1430,1200,-0.328755,-1.808530,0.999998,0.000184,-0.001916,0.003356,-0.000535,0.003410,-0.001970,-84.269425,0.003424,
790,1540,0.443104,-1.141468,0.999998,0.000134,-0.001338,0.002572,0.000097,0.002574,-0.001340,88.583120,0.002575,
1470,1300,-0.285965,-1.579142,0.999998,0.000181,-0.001852,0.003004,-0.000474,0.003049,-0.001898,-84.474390,0.003080,
1030,990,0.573844,-2.704173,0.999995,0.000251,-0.001851,0.004701,-0.000462,0.004733,-0.001883,-85.990219,0.004766,
1010,1430,0.200772,-1.205441,0.999998,0.000157,-0.001338,0.002399,0.000499,0.002465,-0.001404,82.526319,0.002473,
1850,1220,-0.935287,-2.085552,0.999999,0.000124,-0.001159,0.002352,0.000137,0.002357,-0.001164,87.760472,0.002357,
1720,280,-0.330664,-4.453970,0.999997,0.000173,-0.001031,0.002464,-0.000158,0.002471,-0.001038,-87.418146,0.002481,
620,950,0.999139,-2.692893,0.999999,0.000134,-0.001066,0.002245,0.000086,0.002247,-0.001068,88.512475,0.002248,
1050,1770,0.086064,-0.456328,0.999998,0.000145,-0.000607,0.001915,0.000002,0.001915,-0.000607,89.958557,0.001957,
580,500,0.702826,-3.769523,0.999998,0.000165,-0.001994,0.002340,-0.000237,0.002353,-0.002007,-86.885905,0.002541,
640,530,0.650106,-3.738855,0.999998,0.000192,-0.001290,0.002609,-0.000023,0.002609,-0.001290,-89.664224,0.002609,
760,540,0.500528,-3.809924,0.999998,0.000175,-0.001347,0.002598,-0.000060,0.002598,-0.001348,-89.131488,0.002599,
1270,1840,-0.013104,-0.309947,0.999998,0.000188,-0.000323,0.001685,-0.000011,0.001685,-0.000323,-89.673838,0.001789,
1090,1380,0.107648,-1.202699,0.999999,0.000120,-0.001174,0.002022,0.000750,0.002189,-0.001341,77.432499,0.002207,
1600,1570,-0.332319,-1.005882,0.999998,0.000191,-0.001245,0.002483,-0.000152,0.002490,-0.001251,-87.676233,0.002490,
1500,1940,-0.050293,-0.160504,0.999999,0.000164,-0.000299,0.001796,0.000209,0.001816,-0.000320,84.349552,0.001939,
640,250,0.416691,-4.449314,0.999997,0.000205,-0.001198,0.002556,0.000106,0.002559,-0.001201,88.390755,0.002560,
880,1490,0.352511,-1.193721,0.999998,0.000169,-0.001391,0.002633,0.000209,0.002644,-0.001402,87.035910,0.002646,
1050,300,0.090194,-4.554612,0.999998,0.000195,-0.000651,0.001921,-0.000044,0.001922,-0.000652,-89.012722,0.001955,
1700,490,-0.461204,-3.940540,0.999998,0.000155,-0.001279,0.002564,0.000068,0.002565,-0.001280,88.988623,0.002565,
1110,1590,0.079713,-0.778740,0.999999,0.000129,-0.000707,0.001888,0.000192,0.001902,-0.000721,85.794749,0.001920,
1340,350,-0.057276,-4.482036,0.999998,0.000162,-0.000590,0.001847,0.000090,0.001851,-0.000594,87.880265,0.001890,
1400,1710,-0.092109,-0.567941,0.999998,0.000174,-0.000676,0.001957,-0.000091,0.001961,-0.000679,-88.025459,0.001991,
1800,100,-0.170470,-4.854108,0.999998,0.000167,-0.000645,0.002464,-0.000797,0.002657,-0.000837,-76.420263,0.002716,
1630,1370,-0.500690,-1.563244,0.999997,0.000212,-0.001559,0.002829,0.000018,0.002829,-0.001559,89.761189,0.002834,
970,800,0.375070,-3.281278,0.999998,0.000176,-0.001934,0.003229,-0.000202,0.003236,-0.001942,-87.763993,0.003258,
630,1150,0.965116,-2.240590,0.999999,0.000139,-0.001090,0.002282,-0.000113,0.002286,-0.001094,-88.084459,0.002286,
1210,510,0.013815,-4.214310,0.999999,0.000133,-0.000638,0.001697,-0.000086,0.001700,-0.000641,-87.897051,0.001717,
1890,280,-0.532048,-4.307812,0.999997,0.000200,-0.001237,0.002393,0.000006,0.002393,-0.001237,89.900049,0.002394,
930,990,0.689988,-2.630000,0.999998,0.000195,-0.000965,0.003012,0.000195,0.003022,-0.000975,87.201853,0.003085,
1300,570,-0.044052,-4.100190,0.999999,0.000113,-0.000713,0.001668,0.000299,0.001705,-0.000750,82.941488,0.001709,
720,1040,0.906152,-2.489619,0.999998,0.000167,-0.001086,0.002426,-0.000074,0.002428,-0.001088,-88.788291,0.002432,
1360,1580,-0.085317,-0.801790,0.999999,0.000141,-0.000734,0.001911,-0.000224,0.001930,-0.000753,-85.185733,0.001946,
870,480,0.322626,-4.052241,0.999998,0.000172,-0.001237,0.002474,-0.000168,0.002482,-0.001245,-87.412331,0.002482,
1690,120,-0.127963,-4.841056,0.999998,0.000156,-0.000539,0.002145,-0.000531,0.002246,-0.000640,-79.200902,0.002315,
1540,1040,-0.707992,-2.485843,0.999997,0.000201,-0.000916,0.002879,0.000074,0.002881,-0.000918,88.881921,0.002943,
800,740,0.602529,-3.296757,0.999998,0.000180,-0.001501,0.002846,0.000142,0.002850,-0.001506,88.126363,0.002852,
840,1280,0.576583,-1.816937,0.999998,0.000194,-0.001581,0.002923,-0.000155,0.002928,-0.001586,-88.033517,0.002931,
1840,380,-0.559187,-4.106015,0.999998,0.000189,-0.001239,0.002492,0.000015,0.002492,-0.001239,89.762592,0.002492,
650,1580,0.597459,-1.152776,0.999998,0.000201,-0.001256,0.002536,0.000044,0.002537,-0.001257,89.332896,0.002537,
1050,1750,0.090766,-0.494803,0.999998,0.000172,-0.000651,0.001940,0.000050,0.001941,-0.000652,88.894047,0.001975,
1680,1970,-0.078799,-0.124011,0.999999,0.000145,-0.000397,0.001968,0.000518,0.002077,-0.000506,78.175894,0.002166,
660,810,0.860423,-3.037892,0.999998,0.000149,-0.001214,0.002492,0.000215,0.002505,-0.001226,86.690076,0.002505,
1430,1180,-0.365308,-1.877386,0.999998,0.000183,-0.001810,0.003445,-0.000533,0.003499,-0.001864,-84.263074,0.003501,
600,950,1.020906,-2.687756,0.999998,0.000146,-0.001075,0.002166,0.000068,0.002167,-0.001076,88.806650,0.002167,
1150,1850,0.023942,-0.295024,0.999998,0.000159,-0.000298,0.001709,-0.000013,0.001709,-0.000298,-89.636001,0.001826,
1610,740,-0.520059,-3.334276,0.999997,0.000188,-0.001608,0.002926,-0.000071,0.002927,-0.001609,-89.105984,0.002932,
1500,1900,-0.070935,-0.231585,0.999998,0.000138,-0.000448,0.001847,0.000199,0.001864,-0.000465,85.086642,0.001941,
1600,1550,-0.342036,-1.055451,0.999998,0.000220,-0.001252,0.002491,-0.000143,0.002497,-0.001258,-87.818235,0.002497,
1040,960,0.519570,-2.864867,0.999996,0.000233,-0.001815,0.004421,-0.000951,0.004563,-0.001957,-81.521766,0.004578,
1490,1520,-0.221430,-1.030342,0.999999,0.000140,-0.001196,0.002374,-0.000332,0.002405,-0.001227,-84.727320,0.002405,
980,290,0.130074,-4.549036,0.999998,0.000160,-0.000651,0.002026,0.000032,0.002026,-0.000652,89.318990,0.002069,
1000,990,0.616439,-2.666511,0.999997,0.000192,-0.001266,0.003821,-0.000015,0.003821,-0.001266,-89.834528,0.003893,
1590,510,-0.333035,-3.980770,0.999998,0.000173,-0.001244,0.002540,0.000165,0.002547,-0.001251,87.510010,0.002547,
1680,490,-0.436385,-3.956932,0.999998,0.000181,-0.001261,0.002535,0.000081,0.002537,-0.001263,88.783116,0.002537,
1410,1330,-0.165108,-1.380519,0.999998,0.000146,-0.001533,0.002469,-0.000808,0.002626,-0.001690,-79.008213,0.002662,
560,1380,0.870704,-1.736174,0.999982,0.000000,-0.001848,0.002631,0.000164,0.002637,-0.001854,87.911519,0.002709,
1370,290,-0.063722,-4.584003,0.999998,0.000161,-0.000484,0.001856,-0.000009,0.001856,-0.000484,-89.772157,0.001925,
880,1470,0.363022,-1.246587,0.999998,0.000167,-0.001430,0.002642,0.000197,0.002651,-0.001439,87.235157,0.002655,
1310,1370,-0.046717,-1.127159,0.999998,0.000156,-0.000787,0.001488,-0.000599,0.001636,-0.000935,-76.125946,0.001641,
620,250,0.443840,-4.431687,0.999998,0.000196,-0.001261,0.002529,0.000051,0.002529,-0.001261,89.226222,0.002529,
1240,1290,-0.003872,-1.151432,0.999999,0.000137,-0.000533,0.000666,-0.000119,0.000678,-0.000545,-84.404194,0.000718,
800,720,0.584123,-3.353739,0.999998,0.000180,-0.001475,0.002785,0.000119,0.002788,-0.001478,88.406857,0.002790,
1010,1410,0.204585,-1.253402,0.999998,0.000165,-0.001374,0.002448,0.000533,0.002521,-0.001447,82.208126,0.002530,
1380,1710,-0.081000,-0.561194,0.999998,0.000184,-0.000568,0.001921,-0.000037,0.001922,-0.000569,-89.159054,0.001974,
930,1440,0.306916,-1.274452,0.999998,0.000180,-0.001426,0.002596,0.000290,0.002617,-0.001446,85.893293,0.002622,
1210,530,0.012522,-4.181560,0.999998,0.000139,-0.000634,0.001656,-0.000091,0.001659,-0.000638,-87.716709,0.001674,
720,1020,0.909492,-2.536768,0.999998,0.000159,-0.001085,0.002442,0.000028,0.002442,-0.001085,89.549521,0.002447,
1360,1560,-0.085066,-0.838217,0.999999,0.000132,-0.000763,0.001919,-0.000267,0.001945,-0.000789,-84.374103,0.001957,
630,1130,0.975258,-2.288296,0.999998,0.000163,-0.001095,0.002310,-0.000131,0.002315,-0.001100,-87.806529,0.002316,
1300,550,-0.044136,-4.134118,0.999999,0.000124,-0.000724,0.001728,0.000265,0.001756,-0.000752,83.899244,0.001762,
960,730,0.327202,-3.483149,0.999997,0.000193,-0.001752,0.002937,-0.000335,0.002961,-0.001776,-85.938361,0.002981,
1260,1310,-0.013522,-1.146417,0.999999,0.000121,-0.000548,0.000842,-0.000370,0.000935,-0.000640,-75.989985,0.000956,
1220,410,0.006826,-4.390704,0.999998,0.000180,-0.000584,0.001797,-0.000037,0.001798,-0.000585,-89.105847,0.001834,
1570,520,-0.314621,-3.971903,0.999998,0.000184,-0.001241,0.002504,0.000216,0.002517,-0.001254,86.716389,0.002517,
930,1730,0.183427,-0.586987,0.999997,0.000211,-0.000787,0.002219,-0.000015,0.002219,-0.000787,-89.712666,0.002250,
1110,1550,0.080495,-0.852970,0.999999,0.000115,-0.000780,0.001898,0.000257,0.001922,-0.000804,84.572090,0.001930,
750,1760,0.336693,-0.619845,0.999998,0.000172,-0.001056,0.002503,-0.000150,0.002509,-0.001062,-87.583004,0.002519,
1720,870,-0.807228,-2.915734,0.999999,0.000146,-0.001260,0.002563,-0.000261,0.002580,-0.001278,-86.110390,0.002580,
970,780,0.353062,-3.345708,0.999998,0.000169,-0.001896,0.003135,-0.000262,0.003149,-0.001910,-87.030845,0.003172,
1320,350,-0.046057,-4.487160,0.999998,0.000171,-0.000576,0.001824,0.000058,0.001826,-0.000578,88.613532,0.001866,
790,1520,0.456282,-1.193615,0.999998,0.000181,-0.001367,0.002616,0.000093,0.002618,-0.001369,88.656432,0.002619,
1750,930,-0.884232,-2.757791,0.999998,0.000145,-0.001138,0.002435,-0.000175,0.002444,-0.001147,-87.202055,0.002446,
1720,260,-0.313482,-4.502891,0.999997,0.000202,-0.001000,0.002481,-0.000220,0.002495,-0.001014,-86.398086,0.002510,
1450,1320,-0.236772,-1.484171,0.999998,0.000171,-0.001727,0.002818,-0.000618,0.002901,-0.001809,-82.394220,0.002930,
1140,50,0.001875,-4.993562,0.999999,0.000152,-0.000048,0.001524,0.000049,0.001526,-0.000049,88.210834,0.001734,
1690,100,-0.100230,-4.885539,0.999999,0.000121,-0.000432,0.002062,-0.000555,0.002180,-0.000550,-78.003485,0.002268,
1630,620,-0.452735,-3.656897,0.999997,0.000200,-0.001486,0.002695,0.000089,0.002697,-0.001488,88.780311,0.002702,
750,1560,0.481931,-1.123097,0.999997,0.000198,-0.001288,0.002539,0.000066,0.002540,-0.001289,89.015891,0.002540,
1610,720,-0.500985,-3.392812,0.999997,0.000205,-0.001608,0.002915,-0.000021,0.002915,-0.001608,-89.734458,0.002920,
1470,1520,-0.197900,-1.011031,0.999999,0.000136,-0.001140,0.002305,-0.000339,0.002339,-0.001173,-84.429400,0.002339,
1660,1970,-0.070527,-0.120434,0.999999,0.000126,-0.000353,0.001930,0.000481,0.002027,-0.000450,78.580589,0.002129,
1050,1730,0.097277,-0.533656,0.999998,0.000167,-0.000687,0.001931,0.000061,0.001932,-0.000688,88.663754,0.001958,
620,530,0.675642,-3.723594,0.999998,0.000188,-0.001254,0.002599,-0.000004,0.002599,-0.001254,-89.942028,0.002600,
1460,1050,-0.624711,-2.432552,0.999997,0.000220,-0.001327,0.004037,-0.000029,0.004037,-0.001327,-89.691184,0.004115,
860,1530,0.357418,-1.107684,0.999998,0.000164,-0.001309,0.002537,0.000168,0.002544,-0.001316,87.503755,0.002545,
1590,530,-0.342157,-3.927827,0.999997,0.000178,-0.001274,0.002518,0.000196,0.002528,-0.001284,87.044547,0.002528,
1700,470,-0.448737,-3.991066,0.999998,0.000168,-0.001261,0.002536,0.000068,0.002537,-0.001262,88.973513,0.002537,
1540,1060,-0.699726,-2.424264,0.999998,0.000191,-0.000961,0.002944,0.000171,0.002952,-0.000969,87.499982,0.003009,
1500,1880,-0.081732,-0.269444,0.999998,0.000152,-0.000510,0.001864,0.000172,0.001876,-0.000523,85.882721,0.001936,
1410,1310,-0.173694,-1.430225,0.999998,0.000156,-0.001624,0.002562,-0.000808,0.002713,-0.001774,-79.447884,0.002755,
1840,360,-0.542711,-4.155246,0.999998,0.000192,-0.001222,0.002494,0.000010,0.002495,-0.001222,89.840783,0.002495,
720,1000,0.903197,-2.587250,0.999998,0.000138,-0.001063,0.002456,0.000097,0.002459,-0.001066,88.423930,0.002466,
1630,1350,-0.520527,-1.620936,0.999997,0.000205,-0.001576,0.002847,0.000053,0.002848,-0.001576,89.308180,0.002853,
1440,1650,-0.137578,-0.707671,0.999998,0.000206,-0.000775,0.002043,-0.000129,0.002048,-0.000781,-87.387581,0.002068,
570,500,0.720695,-3.761277,0.999887,0.001354,-0.002321,0.002184,-0.000412,0.002221,-0.002359,-84.813083,0.002648,
560,970,1.063655,-2.635478,0.999996,0.000000,-0.000795,0.002078,-0.000103,0.002081,-0.000799,-87.954153,0.002100,
560,1370,0.877015,-1.763750,0.999981,0.000000,-0.001787,0.002623,0.000127,0.002627,-0.001790,88.347707,0.002684,
1890,1290,-0.925242,-1.945449,0.999998,0.000136,-0.001191,0.002395,0.000059,0.002396,-0.001192,89.052739,0.002396,
1490,980,-0.638735,-2.680263,0.999998,0.000203,-0.001085,0.003369,-0.000173,0.003375,-0.001092,-87.778299,0.003445,
1460,660,-0.218729,-3.740559,0.999998,0.000173,-0.001444,0.002540,0.000550,0.002614,-0.001518,82.284871,0.002626,
1870,1800,-0.481903,-0.650342,0.999998,0.000188,-0.001251,0.002493,0.000026,0.002493,-0.001251,89.598167,0.002493,
940,730,0.362221,-3.455838,0.999997,0.000199,-0.001748,0.002956,-0.000229,0.002968,-0.001759,-87.223341,0.002985,
590,1360,0.845277,-1.760333,0.999998,0.000187,-0.001298,0.002504,-0.000038,0.002504,-0.001298,-89.432372,0.002505,
630,1110,0.986246,-2.334878,0.999998,0.000186,-0.001097,0.002277,-0.000115,0.002281,-0.001101,-88.055204,0.002282,
1200,670,0.016864,-3.970526,0.999999,0.000119,-0.000566,0.001262,-0.000246,0.001295,-0.000599,-82.479888,0.001296,
1310,1350,-0.047060,-1.157600,0.999999,0.000144,-0.000796,0.001453,-0.000686,0.001646,-0.000989,-74.295511,0.001657,
880,1740,0.222102,-0.588124,0.999998,0.000179,-0.000967,0.002282,-0.000021,0.002282,-0.000967,-89.636209,0.002291,
1150,1830,0.025489,-0.329330,0.999999,0.000147,-0.000344,0.001724,-0.000018,0.001724,-0.000344,-89.496160,0.001825,
1360,1540,-0.088179,-0.876720,0.999998,0.000147,-0.000806,0.001905,-0.000316,0.001941,-0.000842,-83.439742,0.001947,
780,1830,0.240656,-0.433000,0.999998,0.000194,-0.000944,0.002345,-0.000244,0.002363,-0.000962,-85.787068,0.002376,
1410,1900,-0.042448,-0.219412,0.999998,0.000139,-0.000298,0.001779,0.000085,0.001782,-0.000302,87.670061,0.001908,
1440,1710,-0.121082,-0.584381,0.999998,0.000162,-0.000696,0.001996,-0.000084,0.001999,-0.000699,-88.207543,0.002029,
1110,1530,0.082825,-0.890536,0.999999,0.000143,-0.000799,0.001886,0.000300,0.001919,-0.000832,83.690399,0.001925,
1780,1170,-0.892224,-2.178570,0.999999,0.000138,-0.001198,0.002448,0.000219,0.002461,-0.001211,86.576971,0.002461,
1550,300,-0.184250,-4.499679,0.999998,0.000175,-0.000767,0.002204,-0.000047,0.002204,-0.000768,-89.093463,0.002238,
800,700,0.563475,-3.408014,0.999997,0.000217,-0.001468,0.002787,0.000078,0.002788,-0.001469,88.955326,0.002789,
1050,1080,0.516153,-2.210609,0.999996,0.000250,-0.002048,0.005219,0.001258,0.005430,-0.002259,80.451661,0.005456,
930,1690,0.204036,-0.676434,0.999998,0.000175,-0.000851,0.002187,0.000026,0.002187,-0.000851,89.502586,0.002205,
1010,1390,0.210730,-1.301945,0.999998,0.000181,-0.001440,0.002526,0.000576,0.002608,-0.001522,81.897303,0.002621,
1850,1020,-1.021910,-2.536634,0.999998,0.000187,-0.001055,0.002226,-0.000028,0.002226,-0.001056,-89.507989,0.002227,
1150,50,0.002134,-4.993652,0.999999,0.000133,-0.000034,0.001514,0.000042,0.001515,-0.000035,88.455346,0.001730,
620,230,0.419633,-4.480268,0.999997,0.000205,-0.001242,0.002547,0.000086,0.002549,-0.001244,88.703533,0.002549,
1590,550,-0.353028,-3.880231,0.999998,0.000179,-0.001318,0.002524,0.000187,0.002533,-0.001327,87.215091,0.002534,
690,60,0.076124,-4.954767,0.999999,0.000148,-0.000361,0.002256,0.000866,0.002517,-0.000622,73.251266,0.002622,
840,1530,0.383465,-1.126726,0.999997,0.000176,-0.001311,0.002561,0.000144,0.002566,-0.001316,87.871902,0.002566,
1700,450,-0.436545,-4.041852,0.999998,0.000178,-0.001235,0.002532,0.000066,0.002533,-0.001236,88.993671,0.002534,
1110,420,0.074498,-4.346957,0.999998,0.000191,-0.000662,0.001881,-0.000150,0.001890,-0.000671,-86.643634,0.001916,
1560,650,-0.365968,-3.642269,0.999998,0.000229,-0.001516,0.002778,0.000217,0.002789,-0.001527,87.111630,0.002793,
1540,1080,-0.684291,-2.365556,0.999998,0.000186,-0.001050,0.002927,0.000226,0.002940,-0.001063,86.759267,0.002978,
1500,1860,-0.093731,-0.307194,0.999998,0.000178,-0.000569,0.001918,0.000152,0.001928,-0.000578,86.526598,0.001978,
820,1170,0.721373,-2.142745,0.999998,0.000180,-0.001299,0.002753,-0.000327,0.002779,-0.001326,-85.412349,0.002780,
1630,1040,-0.790766,-2.487008,0.999997,0.000223,-0.000971,0.002623,0.000071,0.002625,-0.000972,88.864811,0.002654,
1190,1500,0.026127,-0.903988,0.999998,0.000173,-0.000639,0.001634,0.000143,0.001643,-0.000648,86.423692,0.001655,
1630,1330,-0.537317,-1.676472,0.999997,0.000205,-0.001577,0.002848,0.000083,0.002849,-0.001578,88.930620,0.002855,
1270,570,-0.023228,-4.113101,0.999999,0.000160,-0.000644,0.001606,0.000139,0.001614,-0.000652,86.480908,0.001624,
630,1090,0.992099,-2.377837,0.999998,0.000192,-0.001073,0.002239,-0.000055,0.002240,-0.001074,-89.043988,0.002241,
1840,340,-0.527464,-4.207344,0.999998,0.000188,-0.001201,0.002548,0.000035,0.002549,-0.001201,89.462210,0.002550,
830,740,0.556826,-3.317975,0.999997,0.000219,-0.001589,0.002888,0.000115,0.002891,-0.001592,88.532165,0.002896,
1890,120,-0.305009,-4.709679,0.999998,0.000183,-0.001171,0.002705,-0.000444,0.002755,-0.001221,-83.551726,0.002761,
1640,1970,-0.065884,-0.118917,0.999998,0.000145,-0.000247,0.001895,0.000478,0.001997,-0.000349,77.969673,0.002133,
1050,1710,0.102727,-0.572614,0.999998,0.000156,-0.000701,0.001948,0.000117,0.001953,-0.000707,87.482756,0.001978,
560,1360,0.896076,-1.791653,0.999982,0.000000,-0.001642,0.002427,0.000025,0.002428,-0.001642,89.647708,0.002477,
1720,910,-0.839873,-2.812136,0.999998,0.000162,-0.001183,0.002545,-0.000242,0.002561,-0.001198,-86.303238,0.002562,
880,1720,0.234288,-0.636749,0.999998,0.000186,-0.000992,0.002315,0.000019,0.002315,-0.000993,89.670550,0.002323,
1310,1330,-0.047607,-1.187437,0.999999,0.000143,-0.000828,0.001389,-0.000754,0.001621,-0.001060,-72.881483,0.001646,
1460,640,-0.213600,-3.790541,0.999998,0.000154,-0.001357,0.002462,0.000508,0.002528,-0.001424,82.548872,0.002535,
1280,490,-0.030797,-4.244260,0.999998,0.000146,-0.000614,0.001739,0.000087,0.001742,-0.000618,87.892156,0.001766,
1240,810,-0.009163,-3.863652,0.999998,0.000183,-0.000953,0.000537,0.000105,0.000544,-0.000961,85.973220,0.000964,
560,960,1.061317,-2.656433,0.999996,0.000000,-0.000847,0.002026,-0.000053,0.002027,-0.000848,-88.941508,0.002036,
1720,240,-0.291399,-4.550960,0.999998,0.000174,-0.000966,0.002467,-0.000265,0.002487,-0.000986,-85.606769,0.002505,
1840,1910,-0.292976,-0.336685,0.999998,0.000174,-0.001214,0.002609,0.000262,0.002626,-0.001232,86.098139,0.002628,
1030,1900,0.048508,-0.223042,0.999998,0.000190,-0.000314,0.001756,-0.000136,0.001765,-0.000323,-86.255325,0.001879,
1220,1650,0.006783,-0.640290,0.999998,0.000153,-0.000548,0.001767,0.000041,0.001767,-0.000549,88.996562,0.001809,
1360,1520,-0.089348,-0.914097,0.999999,0.000146,-0.000851,0.001879,-0.000376,0.001930,-0.000902,-82.298458,0.001931,
680,1610,0.537350,-1.050842,0.999997,0.000212,-0.001264,0.002523,0.000034,0.002523,-0.001264,89.488370,0.002523,
1610,1840,-0.173412,-0.380155,0.999998,0.000187,-0.000704,0.002186,0.000236,0.002206,-0.000723,85.354052,0.002249,
1650,1520,-0.425355,-1.174455,0.999998,0.000158,-0.001338,0.002604,-0.000116,0.002607,-0.001341,-88.316700,0.002608,
1880,1290,-0.913320,-1.938932,0.999998,0.000150,-0.001197,0.002408,0.000059,0.002409,-0.001198,89.056373,0.002409,
1110,1510,0.083650,-0.927400,0.999999,0.000126,-0.000849,0.001884,0.000351,0.001929,-0.000893,82.799112,0.001930,
1860,810,-0.926825,-3.007582,0.999998,0.000152,-0.001172,0.002334,-0.000106,0.002338,-0.001175,-88.266439,0.002338,
1500,730,-0.321420,-3.487679,0.999998,0.000176,-0.001763,0.002927,0.000347,0.002953,-0.001788,85.790009,0.002974,
930,1670,0.212815,-0.719127,0.999998,0.000170,-0.000908,0.002225,0.000065,0.002226,-0.000909,88.817623,0.002238,
800,1120,0.789571,-2.281081,0.999998,0.000185,-0.001147,0.002629,-0.000255,0.002646,-0.001165,-86.157430,0.002653,
780,330,0.333171,-4.353873,0.999998,0.000200,-0.001090,0.002476,0.000032,0.002477,-0.001090,89.480281,0.002483,
940,1710,0.186592,-0.627575,0.999998,0.000189,-0.000816,0.002200,0.000022,0.002200,-0.000816,89.591540,0.002225,
1590,570,-0.364524,-3.827323,0.999998,0.000179,-0.001359,0.002624,0.000171,0.002631,-0.001366,87.549038,0.002632,
1780,1470,-0.636055,-1.409894,0.999997,0.000215,-0.001306,0.002577,0.000016,0.002577,-0.001306,89.767263,0.002577,
1420,90,-0.022238,-4.929055,0.999999,0.000128,-0.000145,0.001606,-0.000121,0.001615,-0.000153,-86.077215,0.001783,
1500,1840,-0.103696,-0.346264,0.999998,0.000178,-0.000589,0.001954,0.000102,0.001958,-0.000593,87.705686,0.002008,
1540,1520,-0.281360,-1.075854,0.999998,0.000174,-0.001260,0.002487,-0.000254,0.002504,-0.001277,-86.141642,0.002504,
1010,1370,0.217250,-1.354042,0.999998,0.000182,-0.001527,0.002594,0.000601,0.002680,-0.001613,81.862249,0.002698,
1160,50,0.002041,-4.994371,0.999999,0.000115,-0.000032,0.001506,0.000021,0.001506,-0.000032,89.235058,0.001721,
1090,420,0.088275,-4.338378,0.999998,0.000169,-0.000714,0.001933,-0.000147,0.001942,-0.000722,-86.830440,0.001963,
1150,1810,0.030087,-0.362393,0.999998,0.000151,-0.000384,0.001737,-0.000031,0.001737,-0.000385,-89.150124,0.001825,
1630,1310,-0.556661,-1.735719,0.999997,0.000204,-0.001583,0.002896,0.000113,0.002899,-0.001586,88.550146,0.002903,
670,80,0.126016,-4.903307,0.999999,0.000140,-0.000470,0.002443,0.000964,0.002733,-0.000759,73.256410,0.002822,
1050,1690,0.107241,-0.612808,0.999998,0.000155,-0.000729,0.002022,0.000130,0.002028,-0.000735,87.309295,0.002054,
1190,1480,0.025509,-0.936294,0.999999,0.000166,-0.000629,0.001594,0.000164,0.001606,-0.000641,85.811488,0.001617,
1620,1130,-0.731651,-2.247184,0.999998,0.000177,-0.001170,0.002776,0.000338,0.002805,-0.001199,85.141699,0.002815,
870,560,0.362700,-3.850026,0.999997,0.000181,-0.001353,0.002580,-0.000186,0.002589,-0.001361,-87.299871,0.002590,
1270,550,-0.024421,-4.143829,0.999999,0.000137,-0.000617,0.001644,0.000133,0.001651,-0.000625,86.654494,0.001667,
1730,1900,-0.196870,-0.286707,0.999998,0.000144,-0.000759,0.002385,0.000484,0.002458,-0.000831,81.444166,0.002500,
1840,320,-0.508568,-4.257420,0.999998,0.000200,-0.001209,0.002489,0.000023,0.002489,-0.001210,89.638914,0.002489,
1410,990,-0.521786,-2.756793,0.999996,0.000235,-0.002193,0.006054,0.000941,0.006160,-0.002298,83.575218,0.006226,
800,1170,0.747531,-2.147619,0.999998,0.000167,-0.001294,0.002685,-0.000318,0.002710,-0.001319,-85.463721,0.002710,
560,1310,0.928196,-1.910979,0.999992,0.000000,-0.001444,0.002315,0.000070,0.002317,-0.001445,88.934133,0.002340,
1640,1350,-0.535146,-1.628216,0.999997,0.000221,-0.001569,0.002832,0.000069,0.002833,-0.001570,89.107774,0.002839,
560,1350,0.900581,-1.811582,0.999985,0.000000,-0.001656,0.002359,0.000073,0.002360,-0.001657,88.958429,0.002424,
1720,220,-0.271395,-4.600581,0.999998,0.000175,-0.000933,0.002449,-0.000315,0.002478,-0.000962,-84.733290,0.002499,
1440,610,-0.179252,-3.888308,0.999998,0.000178,-0.001240,0.002315,0.000513,0.002388,-0.001313,81.947369,0.002392,
1160,1910,0.014216,-0.194696,0.999999,0.000146,-0.000159,0.001621,-0.000044,0.001622,-0.000160,-88.569681,0.001788,
880,1700,0.244015,-0.682496,0.999998,0.000178,-0.001045,0.002276,0.000043,0.002277,-0.001046,89.253958,0.002279,
1620,1590,-0.347953,-0.970836,0.999998,0.000154,-0.001225,0.002472,-0.000124,0.002476,-0.001229,-88.084790,0.002476,
1870,1300,-0.893368,-1.906111,0.999998,0.000153,-0.001209,0.002444,0.000057,0.002445,-0.001210,89.102341,0.002445,
1310,1310,-0.048562,-1.215875,0.999998,0.000163,-0.000862,0.001344,-0.000862,0.001641,-0.001159,-71.000856,0.001687,
1870,400,-0.611836,-4.030314,0.999998,0.000172,-0.001234,0.002500,0.000049,0.002501,-0.001235,89.255416,0.002501,
1110,1490,0.083682,-0.966162,0.999999,0.000121,-0.000881,0.001860,0.000395,0.001916,-0.000937,81.953621,0.001916,
1300,490,-0.043270,-4.239631,0.999999,0.000122,-0.000694,0.001783,0.000158,0.001793,-0.000704,86.361261,0.001807,
680,1630,0.521392,-1.001945,0.999998,0.000178,-0.001258,0.002521,0.000029,0.002522,-0.001259,89.555598,0.002522,
1500,710,-0.307385,-3.545840,0.999998,0.000197,-0.001702,0.002898,0.000383,0.002929,-0.001733,85.278357,0.002946,
1460,620,-0.207113,-3.838117,0.999998,0.000164,-0.001300,0.002406,0.000490,0.002470,-0.001364,82.596948,0.002474,
1360,1500,-0.089037,-0.952345,0.999998,0.000148,-0.000875,0.001889,-0.000421,0.001951,-0.000938,-81.536123,0.001952,
1860,870,-0.973502,-2.867450,0.999998,0.000152,-0.001127,0.002275,-0.000097,0.002278,-0.001130,-88.364416,0.002278,
1700,350,-0.366272,-4.291396,0.999998,0.000158,-0.001089,0.002468,-0.000032,0.002468,-0.001089,-89.483113,0.002474,
1630,1520,-0.399436,-1.156005,0.999998,0.000172,-0.001329,0.002605,-0.000133,0.002609,-0.001334,-88.072461,0.002609,
930,1650,0.220961,-0.764532,0.999998,0.000155,-0.000953,0.002250,0.000098,0.002253,-0.000956,88.250215,0.002262,
960,290,0.143521,-4.540961,0.999998,0.000173,-0.000763,0.002085,0.000017,0.002085,-0.000763,89.654438,0.002110,
840,1260,0.596061,-1.877373,0.999997,0.000185,-0.001538,0.002927,-0.000221,0.002938,-0.001549,-87.174293,0.002940,
1610,1820,-0.189413,-0.424064,0.999998,0.000199,-0.000764,0.002226,0.000198,0.002239,-0.000777,86.230523,0.002274,
710,1020,0.919110,-2.537972,0.999998,0.000146,-0.001058,0.002440,0.000039,0.002440,-0.001059,89.357707,0.002448,
1360,1300,-0.102498,-1.338736,0.999998,0.000184,-0.001334,0.002031,-0.001012,0.002312,-0.001615,-74.491163,0.002372,
970,1430,0.254446,-1.254159,0.999998,0.000168,-0.001437,0.002547,0.000433,0.002593,-0.001483,83.874154,0.002602,
1720,890,-0.823045,-2.865160,0.999998,0.000145,-0.001218,0.002589,-0.000292,0.002611,-0.001240,-85.638447,0.002612,
1590,1010,-0.751563,-2.567544,0.999998,0.000183,-0.000948,0.002701,-0.000102,0.002704,-0.000951,-88.407378,0.002743,
1790,1680,-0.492723,-0.880526,0.999997,0.000180,-0.001227,0.002534,-0.000004,0.002534,-0.001227,-89.943426,0.002535,
1540,1500,-0.290261,-1.127157,0.999998,0.000179,-0.001325,0.002504,-0.000274,0.002523,-0.001345,-85.930147,0.002525,
760,520,0.486049,-3.860924,0.999998,0.000156,-0.001329,0.002585,-0.000065,0.002586,-0.001330,-89.045714,0.002586,
1600,1530,-0.353415,-1.105594,0.999998,0.000181,-0.001292,0.002554,-0.000150,0.002560,-0.001298,-87.777046,0.002560,
1500,1820,-0.114323,-0.385259,0.999998,0.000162,-0.000627,0.001989,0.000068,0.001991,-0.000629,88.522711,0.002036,
1010,1350,0.225015,-1.407930,0.999998,0.000186,-0.001604,0.002706,0.000595,0.002786,-0.001685,82.278670,0.002807,
1580,210,-0.146842,-4.681415,0.999999,0.000139,-0.000700,0.002066,-0.000218,0.002083,-0.000717,-85.513971,0.002117,
670,60,0.084156,-4.952674,0.999999,0.000147,-0.000256,0.002296,0.000983,0.002631,-0.000591,71.193487,0.002760,
1050,1670,0.112722,-0.652268,0.999998,0.000157,-0.000763,0.002006,0.000145,0.002014,-0.000770,87.018465,0.002032,
1620,1110,-0.747973,-2.301527,0.999998,0.000171,-0.001087,0.002705,0.000285,0.002726,-0.001108,85.730779,0.002742,
1630,1290,-0.575627,-1.792140,0.999998,0.000174,-0.001583,0.002887,0.000160,0.002893,-0.001589,87.946747,0.002898,
1270,530,-0.025459,-4.177299,0.999999,0.000144,-0.000612,0.001677,0.000092,0.001681,-0.000616,87.701192,0.001701,
560,1290,0.940465,-1.955085,0.999994,0.000000,-0.001361,0.002391,-0.000040,0.002392,-0.001361,-89.389208,0.002399,
680,1080,0.940888,-2.394610,0.999998,0.000163,-0.001099,0.002354,-0.000082,0.002356,-0.001101,-88.643590,0.002358,
800,1140,0.773623,-2.229199,0.999998,0.000194,-0.001212,0.002682,-0.000312,0.002707,-0.001237,-85.450042,0.002710,
1840,300,-0.492106,-4.305548,0.999997,0.000200,-0.001210,0.002520,-0.000001,0.002520,-0.001210,-89.986939,0.002520,
1200,50,0.001096,-4.993677,0.999999,0.000117,-0.000034,0.001509,0.000024,0.001509,-0.000034,89.124561,0.001723,
1630,1900,-0.129832,-0.257532,0.999998,0.000153,-0.000494,0.002086,0.000388,0.002143,-0.000551,81.634028,0.002226,
1050,1070,0.526018,-2.262637,0.999997,0.000217,-0.002206,0.005688,0.001079,0.005833,-0.002351,82.355355,0.005870,
1610,1360,-0.478973,-1.575031,0.999997,0.000189,-0.001576,0.002880,-0.000017,0.002880,-0.001576,-89.778300,0.002884,
710,1580,0.519968,-1.103288,0.999997,0.000189,-0.001247,0.002556,0.000046,0.002556,-0.001248,89.311019,0.002556,
1360,1680,-0.074899,-0.614444,0.999998,0.000179,-0.000608,0.001899,-0.000085,0.001902,-0.000611,-88.055768,0.001943,
1190,1460,0.025669,-0.968159,0.999999,0.000135,-0.000629,0.001568,0.000184,0.001584,-0.000645,85.243023,0.001593,
590,1150,1.007430,-2.255191,0.999998,0.000148,-0.001063,0.002207,-0.000081,0.002209,-0.001065,-88.580500,0.002210,
880,1680,0.256029,-0.728940,0.999998,0.000179,-0.001047,0.002342,0.000042,0.002342,-0.001047,89.290670,0.002347,
1310,1290,-0.051019,-1.241732,0.999998,0.000162,-0.000916,0.001293,-0.000938,0.001638,-0.001261,-69.835157,0.001715,
560,1340,0.905650,-1.833244,0.999988,0.000000,-0.001683,0.002458,0.000165,0.002465,-0.001689,87.724626,0.002521,
850,400,0.303428,-4.232429,0.999998,0.000214,-0.001121,0.002397,-0.000059,0.002398,-0.001122,-89.032483,0.002399,
1620,1970,-0.061306,-0.117138,0.999999,0.000142,-0.000251,0.001862,0.000431,0.001947,-0.000335,78.896093,0.002081,
1870,390,-0.604216,-4.054746,0.999998,0.000162,-0.001238,0.002475,0.000059,0.002476,-0.001239,89.089026,0.002476,
900,1090,0.701870,-2.343961,0.999998,0.000215,-0.001058,0.002864,-0.000266,0.002882,-0.001076,-86.137556,0.002913,
1350,420,-0.071512,-4.346776,0.999998,0.000199,-0.000663,0.001867,0.000127,0.001873,-0.000669,87.140873,0.001899,
1150,1790,0.032584,-0.399074,0.999998,0.000148,-0.000413,0.001758,-0.000013,0.001758,-0.000413,-89.654173,0.001838,
1110,1470,0.085156,-1.006108,0.999999,0.000135,-0.000918,0.001867,0.000470,0.001944,-0.000995,80.681150,0.001944,
1770,1180,-0.871710,-2.150118,0.999998,0.000171,-0.001197,0.002501,0.000241,0.002517,-0.001213,86.281761,0.002518,
920,530,0.282597,-3.972477,0.999998,0.000185,-0.001240,0.002477,-0.000236,0.002492,-0.001255,-86.381493,0.002492,
640,1530,0.645341,-1.287904,0.999998,0.000172,-0.001278,0.002579,0.000022,0.002579,-0.001278,89.667123,0.002579,
1360,1480,-0.090514,-0.991269,0.999999,0.000142,-0.000893,0.001906,-0.000431,0.001971,-0.000958,-81.447683,0.001972,
1590,1840,-0.157130,-0.373293,0.999998,0.000162,-0.000734,0.002132,0.000212,0.002148,-0.000749,85.791963,0.002180,
1300,1650,-0.038660,-0.648048,0.999998,0.000180,-0.000587,0.001810,-0.000055,0.001812,-0.000589,-88.682482,0.001848,
1160,490,0.044991,-4.238040,0.999998,0.000148,-0.000683,0.001788,-0.000193,0.001803,-0.000698,-85.552294,0.001818,
730,1020,0.897360,-2.537620,0.999998,0.000174,-0.001091,0.002444,0.000021,0.002444,-0.001091,89.664765,0.002449,
930,1630,0.227222,-0.809897,0.999998,0.000151,-0.001007,0.002294,0.000143,0.002300,-0.001013,87.515677,0.002305,
1840,1530,-0.666927,-1.301932,0.999998,0.000184,-0.001270,0.002564,-0.000001,0.002564,-0.001270,-89.987619,0.002564,
630,1070,0.998985,-2.424386,0.999998,0.000206,-0.001070,0.002251,-0.000054,0.002252,-0.001071,-89.075047,0.002253,
1340,1910,-0.021876,-0.196522,0.999998,0.000131,-0.000245,0.001650,0.000041,0.001651,-0.000246,88.747012,0.001782,
1590,990,-0.745464,-2.621671,0.999998,0.000183,-0.000980,0.002695,-0.000148,0.002701,-0.000986,-87.703015,0.002734,
940,90,0.041335,-4.921070,0.999999,0.000126,-0.000181,0.001742,0.000239,0.001771,-0.000210,83.028504,0.001936,
1750,910,-0.874170,-2.806280,0.999998,0.000154,-0.001171,0.002475,-0.000209,0.002487,-0.001183,-86.730930,0.002488,
1890,1420,-0.815606,-1.622285,0.999998,0.000183,-0.001292,0.002536,0.000018,0.002536,-0.001292,89.730125,0.002536,
1360,1280,-0.113420,-1.380474,0.999998,0.000201,-0.001432,0.002081,-0.001103,0.002399,-0.001750,-73.934142,0.002482,
1210,1350,0.010638,-1.106291,0.999999,0.000133,-0.000538,0.001046,0.000241,0.001081,-0.000574,81.545721,0.001082,
1440,590,-0.174777,-3.934312,0.999999,0.000134,-0.001182,0.002261,0.000461,0.002321,-0.001243,82.498899,0.002323,
1720,200,-0.245323,-4.650686,0.999998,0.000172,-0.000859,0.002411,-0.000370,0.002452,-0.000900,-83.620114,0.002481,
1010,1330,0.235461,-1.461678,0.999998,0.000190,-0.001688,0.002793,0.000585,0.002868,-0.001763,82.683248,0.002893,
1500,1800,-0.123568,-0.425993,0.999998,0.000181,-0.000665,0.001994,0.000082,0.001997,-0.000668,88.242603,0.002033,
1610,1900,-0.121001,-0.253030,0.999998,0.000176,-0.000543,0.002056,0.000330,0.002098,-0.000584,82.869170,0.002165,
970,1410,0.262139,-1.306230,0.999998,0.000185,-0.001502,0.002605,0.000426,0.002649,-0.001546,84.136982,0.002661,
1540,1480,-0.298378,-1.178743,0.999998,0.000182,-0.001345,0.002529,-0.000272,0.002548,-0.001364,-86.000980,0.002550,
560,1280,0.951284,-1.980222,0.999997,0.000000,-0.001332,0.002426,-0.000048,0.002426,-0.001332,-89.262663,0.002430,
1100,50,0.005954,-4.993226,0.999999,0.000128,-0.000060,0.001507,0.000087,0.001512,-0.000065,86.850518,0.001710,
640,810,0.883943,-3.028359,0.999999,0.000129,-0.001188,0.002426,0.000167,0.002433,-0.001195,87.365070,0.002434,
1790,1660,-0.508529,-0.930701,0.999998,0.000182,-0.001232,0.002536,-0.000037,0.002537,-0.001232,-89.442494,0.002537,
1370,310,-0.070342,-4.548508,0.999998,0.000178,-0.000516,0.001853,0.000024,0.001854,-0.000517,89.429398,0.001913,
1270,510,-0.023489,-4.211808,0.999998,0.000148,-0.000606,0.001697,0.000093,0.001701,-0.000610,87.685920,0.001723,
650,940,0.960489,-2.722955,0.999998,0.000156,-0.001120,0.002347,0.000177,0.002356,-0.001129,87.076857,0.002356,
1630,1270,-0.596072,-1.851149,0.999997,0.000202,-0.001556,0.002897,0.000206,0.002907,-0.001566,87.353627,0.002910,
1600,1510,-0.363577,-1.157941,0.999998,0.000176,-0.001343,0.002596,-0.000170,0.002603,-0.001350,-87.535474,0.002604,
720,40,0.034178,-4.998294,0.999999,0.000130,-0.000261,0.001995,0.000738,0.002215,-0.000481,73.397459,0.002331,
760,720,0.642645,-3.325534,0.999998,0.000201,-0.001445,0.002732,0.000167,0.002738,-0.001452,87.711772,0.002740,
880,1660,0.266892,-0.776042,0.999998,0.000166,-0.001057,0.002386,0.000073,0.002388,-0.001058,88.790621,0.002393,
1050,1650,0.116100,-0.694101,0.999998,0.000145,-0.000781,0.002015,0.000179,0.002026,-0.000792,86.357663,0.002042,
1870,380,-0.596208,-4.080188,0.999998,0.000167,-0.001243,0.002442,0.000042,0.002442,-0.001244,89.345630,0.002442,
840,1240,0.619223,-1.932926,0.999998,0.000175,-0.001523,0.002911,-0.000271,0.002928,-0.001539,-86.512195,0.002929,
1360,1660,-0.077725,-0.649808,0.999998,0.000169,-0.000640,0.001856,-0.000112,0.001861,-0.000646,-87.427471,0.001890,
1310,1270,-0.056768,-1.264374,0.999998,0.000170,-0.000960,0.001260,-0.000978,0.001630,-0.001330,-69.307730,0.001735,
690,1580,0.545127,-1.119156,0.999998,0.000187,-0.001290,0.002543,0.000045,0.002543,-0.001291,89.325191,0.002544,
1110,740,0.090958,-3.745536,0.999998,0.000204,-0.001220,0.001919,-0.000971,0.002195,-0.001496,-74.131746,0.002243,
580,1150,1.019071,-2.258460,0.999999,0.000132,-0.001011,0.002183,-0.000056,0.002184,-0.001012,-88.987911,0.002186,
1110,1450,0.085138,-1.042486,0.999999,0.000130,-0.000932,0.001833,0.000491,0.001918,-0.001017,80.224131,0.001919,
680,1060,0.945913,-2.442553,0.999998,0.000148,-0.001087,0.002358,-0.000080,0.002360,-0.001089,-88.675733,0.002363,
560,1330,0.913169,-1.860201,0.999991,0.000000,-0.001578,0.002544,0.000101,0.002547,-0.001581,88.594819,0.002572,
1460,600,-0.202595,-3.886377,0.999998,0.000141,-0.001269,0.002385,0.000476,0.002446,-0.001329,82.703555,0.002449,
640,1510,0.660143,-1.340658,0.999998,0.000171,-0.001272,0.002543,0.000008,0.002543,-0.001272,89.879643,0.002543,
1680,350,-0.344563,-4.307014,0.999998,0.000149,-0.001119,0.002451,0.000000,0.002451,-0.001119,89.995151,0.002454,
770,1480,0.510765,-1.314497,0.999997,0.000230,-0.001364,0.002619,0.000043,0.002620,-0.001364,89.379109,0.002621,
1750,1180,-0.847566,-2.145287,0.999998,0.000177,-0.001225,0.002558,0.000264,0.002576,-0.001244,86.021242,0.002576,
1360,1460,-0.091901,-1.030877,0.999999,0.000137,-0.000902,0.001918,-0.000471,0.001995,-0.000979,-80.764715,0.001995,
1180,490,0.032432,-4.243902,0.999998,0.000150,-0.000624,0.001753,-0.000081,0.001756,-0.000626,-88.047598,0.001780,
770,1660,0.390912,-0.853764,0.999998,0.000151,-0.001176,0.002474,0.000039,0.002474,-0.001176,89.387248,0.002475,
880,1090,0.721849,-2.349283,0.999998,0.000190,-0.001029,0.002785,-0.000262,0.002803,-0.001046,-86.089110,0.002833,
910,220,0.138398,-4.668279,0.999997,0.000213,-0.000582,0.002041,0.000184,0.002054,-0.000594,86.005598,0.002114,
1590,970,-0.734150,-2.675324,0.999998,0.000178,-0.001035,0.002756,-0.000252,0.002773,-0.001052,-86.215857,0.002800,
1150,1770,0.035047,-0.434146,0.999998,0.000150,-0.000451,0.001778,0.000003,0.001778,-0.000451,89.923717,0.001849,
570,1000,1.058777,-2.577679,0.999997,0.000222,-0.000815,0.002017,0.000026,0.002018,-0.000816,89.470985,0.002030,
940,1450,0.288129,-1.237507,0.999998,0.000172,-0.001394,0.002551,0.000316,0.002576,-0.001419,85.454315,0.002581,
630,1050,1.002083,-2.467374,0.999997,0.000221,-0.001075,0.002273,-0.000050,0.002273,-0.001075,-89.136167,0.002275,
930,1610,0.236821,-0.854657,0.999998,0.000153,-0.001055,0.002314,0.000153,0.002321,-0.001061,87.405912,0.002324,
800,1160,0.755751,-2.173657,0.999998,0.000172,-0.001277,0.002689,-0.000325,0.002716,-0.001303,-85.349247,0.002717,
810,1780,0.256760,-0.534530,0.999998,0.000180,-0.000951,0.002374,-0.000131,0.002379,-0.000956,-87.750637,0.002394,
1270,490,-0.024943,-4.245647,0.999998,0.000149,-0.000599,0.001725,0.000088,0.001728,-0.000602,87.832231,0.001754,
560,1270,0.963954,-2.006135,0.999997,0.000000,-0.001287,0.002350,-0.000032,0.002350,-0.001288,-89.502576,0.002354,
1010,1310,0.248672,-1.519513,0.999998,0.000208,-0.001793,0.002871,0.000585,0.002943,-0.001865,82.964237,0.002978,
1500,1780,-0.134418,-0.464175,0.999998,0.000160,-0.000722,0.002035,0.000054,0.002036,-0.000723,88.880590,0.002064,
1580,190,-0.131821,-4.722346,0.999998,0.000167,-0.000639,0.002073,-0.000223,0.002092,-0.000657,-85.324429,0.002139,
1540,1460,-0.308501,-1.228311,0.999998,0.000167,-0.001369,0.002590,-0.000284,0.002610,-0.001389,-85.911876,0.002612,
1630,1250,-0.617536,-1.908460,0.999997,0.000189,-0.001533,0.002911,0.000242,0.002924,-0.001547,86.894860,0.002926,
1060,120,0.028508,-4.879272,0.999999,0.000128,-0.000204,0.001670,0.000111,0.001677,-0.000210,86.617907,0.001827,
1360,1770,-0.058597,-0.444619,0.999998,0.000183,-0.000465,0.001855,0.000003,0.001855,-0.000465,89.921091,0.001931,
880,1640,0.277077,-0.822911,0.999998,0.000167,-0.001062,0.002361,0.000096,0.002364,-0.001065,88.390520,0.002367,
1440,1970,-0.024281,-0.104318,0.999999,0.000128,-0.000164,0.001617,0.000162,0.001631,-0.000178,84.838585,0.001790,
1370,70,-0.011458,-4.962083,0.999999,0.000126,-0.000056,0.001569,-0.000086,0.001574,-0.000060,-86.993729,0.001784,
1310,860,-0.168804,-3.691809,0.999998,0.000173,-0.001138,0.000819,0.000329,0.000873,-0.001192,80.702142,0.001234,
1170,1380,0.035602,-1.098205,0.999998,0.000155,-0.000675,0.001382,0.000470,0.001484,-0.000778,77.714997,0.001485,
1110,1430,0.086113,-1.078444,0.999999,0.000145,-0.000940,0.001838,0.000550,0.001942,-0.001045,79.205266,0.001944,
710,60,0.069034,-4.956930,0.999998,0.000178,-0.000451,0.002146,0.000751,0.002348,-0.000652,74.984003,0.002424,
1460,580,-0.197248,-3.934105,0.999999,0.000139,-0.001235,0.002318,0.000438,0.002371,-0.001288,83.069450,0.002374,
860,1330,0.494302,-1.654157,0.999997,0.000186,-0.001633,0.002913,-0.000027,0.002913,-0.001633,-89.663619,0.002920,
1610,1340,-0.496082,-1.633413,0.999998,0.000166,-0.001614,0.002867,0.000021,0.002867,-0.001614,89.730719,0.002875,
620,1510,0.686112,-1.355507,0.999998,0.000183,-0.001274,0.002561,0.000016,0.002561,-0.001274,89.757595,0.002562,
820,1810,0.223907,-0.459774,0.999998,0.000186,-0.000830,0.002308,-0.000220,0.002324,-0.000845,-86.012920,0.002352,
1310,1250,-0.068598,-1.290544,0.999998,0.000166,-0.001029,0.001224,-0.000968,0.001583,-0.001388,-69.657481,0.001727,
1850,380,-0.572534,-4.098616,0.999998,0.000181,-0.001228,0.002472,0.000026,0.002473,-0.001228,89.601435,0.002473,
1090,50,0.006667,-4.992900,0.999999,0.000127,-0.000058,0.001512,0.000104,0.001519,-0.000065,86.210802,0.001717,
1090,740,0.117006,-3.702985,0.999998,0.000173,-0.001361,0.002157,-0.000964,0.002404,-0.001607,-75.642036,0.002449,
1680,790,-0.676415,-3.146660,0.999998,0.000184,-0.001436,0.002791,-0.000256,0.002806,-0.001452,-86.547928,0.002807,
1700,1170,-0.792747,-2.157379,0.999998,0.000171,-0.001275,0.002615,0.000284,0.002635,-0.001295,85.846503,0.002635,
1660,1170,-0.744203,-2.146932,0.999998,0.000204,-0.001223,0.002706,0.000306,0.002729,-0.001247,85.576004,0.002733,
560,1320,0.921871,-1.889685,0.999991,0.000000,-0.001523,0.002463,0.000054,0.002463,-0.001524,89.219813,0.002486,
950,1160,0.550155,-2.098638,0.999998,0.000183,-0.001571,0.003284,-0.000271,0.003299,-0.001586,-86.811821,0.003300,
1590,950,-0.718072,-2.731304,0.999998,0.000167,-0.001109,0.002782,-0.000286,0.002803,-0.001130,-85.822336,0.002820,
1110,660,0.084894,-3.895815,0.999998,0.000151,-0.000989,0.001853,-0.000661,0.001999,-0.001135,-77.526012,0.002005,
930,1590,0.246503,-0.903639,0.999998,0.000161,-0.001102,0.002361,0.000209,0.002374,-0.001115,86.564976,0.002375,
1360,1440,-0.093230,-1.068126,0.999999,0.000146,-0.000931,0.001899,-0.000516,0.001991,-0.001022,-79.979551,0.001991,
670,440,0.544367,-3.991900,0.999998,0.000166,-0.001246,0.002514,-0.000041,0.002514,-0.001246,-89.378555,0.002514,
1040,1070,0.549819,-2.293594,0.999997,0.000219,-0.002072,0.005090,0.000781,0.005174,-0.002156,83.846253,0.005198,
980,1510,0.214796,-1.046995,0.999998,0.000167,-0.001197,0.002336,0.000358,0.002372,-0.001233,84.265102,0.002373,
980,570,0.223089,-3.932787,0.999999,0.000147,-0.001231,0.002378,-0.000374,0.002416,-0.001269,-84.151288,0.002417,
1720,180,-0.222667,-4.697626,0.999998,0.000159,-0.000796,0.002342,-0.000421,0.002398,-0.000852,-82.485118,0.002431,
630,1030,1.004125,-2.514256,0.999998,0.000199,-0.001077,0.002286,-0.000006,0.002286,-0.001077,-89.904101,0.002288,
770,1640,0.403161,-0.902710,0.999997,0.000180,-0.001198,0.002497,0.000058,0.002497,-0.001199,89.108050,0.002498,
1140,1910,0.018413,-0.195287,0.999999,0.000115,-0.000218,0.001604,-0.000075,0.001607,-0.000221,-87.643187,0.001743,
990,1000,0.635425,-2.621516,0.999998,0.000193,-0.001145,0.003699,0.000053,0.003700,-0.001145,89.378048,0.003788,
1150,1750,0.037351,-0.469290,0.999998,0.000155,-0.000483,0.001789,0.000014,0.001789,-0.000484,89.639562,0.001851,
560,1260,0.968218,-2.027360,0.999997,0.000000,-0.001290,0.002265,0.000043,0.002266,-0.001290,89.315037,0.002273,
1570,1180,-0.609272,-2.080773,0.999998,0.000160,-0.001522,0.003027,0.000337,0.003052,-0.001547,85.792410,0.003052,
1630,1230,-0.639156,-1.968177,0.999998,0.000166,-0.001497,0.002910,0.000307,0.002931,-0.001518,86.037958,0.002932,
820,150,0.132387,-4.791190,0.999998,0.000173,-0.000515,0.002103,0.000417,0.002168,-0.000580,81.158186,0.002245,
830,1760,0.254725,-0.571787,0.999998,0.000165,-0.000891,0.002380,-0.000105,0.002383,-0.000895,-88.159112,0.002408,
1500,1760,-0.142343,-0.507000,0.999998,0.000165,-0.000765,0.002107,0.000029,0.002107,-0.000765,89.415617,0.002133,
1010,1290,0.263548,-1.576698,0.999997,0.000204,-0.001864,0.002958,0.000568,0.003024,-0.001930,83.372567,0.003063,
740,1550,0.502035,-1.156196,0.999997,0.000189,-0.001320,0.002554,0.000056,0.002555,-0.001321,89.176546,0.002555,
1540,1440,-0.317738,-1.281627,0.999998,0.000175,-0.001427,0.002663,-0.000294,0.002684,-0.001448,-85.912080,0.002687,
1870,800,-0.931612,-3.025207,0.999999,0.000178,-0.001167,0.002329,-0.000085,0.002331,-0.001169,-88.600059,0.002331,
1270,470,-0.024190,-4.280087,0.999999,0.000139,-0.000590,0.001759,0.000062,0.001761,-0.000591,88.482289,0.001792,
1790,1160,-0.910167,-2.205797,0.999998,0.000140,-0.001153,0.002408,0.000179,0.002417,-0.001162,87.131594,0.002417,
1360,1960,-0.015801,-0.116454,0.999999,0.000139,-0.000123,0.001605,0.000084,0.001609,-0.000127,87.222868,0.001790,
1110,1410,0.086530,-1.115485,0.999999,0.000153,-0.000956,0.001876,0.000614,0.002003,-0.001083,78.279615,0.002005,
1410,1700,-0.101436,-0.590923,0.999998,0.000203,-0.000738,0.002003,-0.000111,0.002008,-0.000742,-87.689611,0.002030,
620,270,0.464132,-4.378932,0.999998,0.000181,-0.001261,0.002518,0.000043,0.002518,-0.001261,89.355070,0.002518,
560,1250,0.974250,-2.049285,0.999998,0.000000,-0.001274,0.002233,0.000086,0.002235,-0.001276,88.587995,0.002242,
910,160,0.095970,-4.789174,0.999998,0.000164,-0.000417,0.001947,0.000260,0.001975,-0.000446,83.799829,0.002072,
1060,140,0.034219,-4.848412,0.999999,0.000113,-0.000260,0.001691,0.000114,0.001698,-0.000267,86.654100,0.001826,
560,1430,0.837056,-1.608427,0.999939,0.000000,-0.002189,0.002692,0.000121,0.002695,-0.002192,88.581400,0.002866,
1880,1420,-0.802334,-1.614388,0.999997,0.000191,-0.001276,0.002538,0.000021,0.002538,-0.001277,89.691863,0.002538,
860,1310,0.512495,-1.714248,0.999997,0.000204,-0.001645,0.002943,-0.000070,0.002944,-0.001646,-89.130764,0.002951,
880,1620,0.288868,-0.870288,0.999998,0.000182,-0.001095,0.002369,0.000106,0.002372,-0.001098,88.243490,0.002374,
1070,420,0.103202,-4.329097,0.999999,0.000132,-0.000781,0.002003,-0.000184,0.002016,-0.000793,-86.225142,0.002031,
720,980,0.899245,-2.636893,0.999998,0.000146,-0.001086,0.002428,0.000075,0.002430,-0.001088,88.773673,0.002434,
1200,90,0.004190,-4.933064,0.999998,0.000207,-0.000093,0.001532,0.000027,0.001533,-0.000094,89.046683,0.001718,
1360,1420,-0.092523,-1.106284,0.999999,0.000145,-0.000963,0.001900,-0.000578,0.002012,-0.001075,-79.014708,0.002013,
1610,960,-0.746756,-2.700907,0.999998,0.000157,-0.001072,0.002703,-0.000262,0.002721,-0.001090,-86.047987,0.002739,
790,560,0.472190,-3.780653,0.999998,0.000174,-0.001358,0.002641,-0.000069,0.002643,-0.001360,-89.004984,0.002643,
1820,1370,-0.769410,-1.697354,0.999998,0.000176,-0.001279,0.002552,0.000089,0.002555,-0.001281,88.664513,0.002555,
1760,650,-0.660582,-3.476014,0.999998,0.000177,-0.001360,0.002634,-0.000087,0.002636,-0.001362,-88.758388,0.002637,
1460,1010,-0.625916,-2.587893,0.999995,0.000253,-0.001302,0.004021,0.000039,0.004022,-0.001302,89.584112,0.004104,
1460,560,-0.191730,-3.980652,0.999999,0.000135,-0.001164,0.002276,0.000381,0.002317,-0.001206,83.758826,0.002318,
1410,1290,-0.187621,-1.483344,0.999998,0.000169,-0.001725,0.002697,-0.000831,0.002848,-0.001876,-79.698572,0.002895,
1720,160,-0.196225,-4.744227,0.999998,0.000168,-0.000729,0.002350,-0.000499,0.002429,-0.000808,-81.026838,0.002474,
1500,1740,-0.153057,-0.548537,0.999998,0.000164,-0.000806,0.002126,0.000001,0.002126,-0.000806,89.977932,0.002147,
630,1450,0.719013,-1.500347,0.999998,0.000186,-0.001263,0.002572,-0.000020,0.002572,-0.001263,-89.703231,0.002572,
1150,1580,0.052602,-0.779926,0.999998,0.000159,-0.000701,0.001813,0.000184,0.001827,-0.000715,85.841810,0.001841,
1250,680,-0.009418,-3.961737,0.999999,0.000126,-0.000523,0.001207,0.000169,0.001224,-0.000539,84.463337,0.001227,
930,1570,0.253353,-0.952542,0.999998,0.000168,-0.001134,0.002370,0.000223,0.002385,-0.001148,86.377891,0.002385,
1560,1970,-0.043334,-0.111490,0.999999,0.000143,-0.000212,0.001747,0.000311,0.001795,-0.000261,81.182546,0.001940,
580,1360,0.857067,-1.768325,0.999998,0.000180,-0.001416,0.002483,-0.000003,0.002483,-0.001416,-89.959189,0.002491,
1310,850,-0.138334,-3.700175,0.999998,0.000157,-0.001131,0.000955,0.000439,0.001044,-0.001219,78.585750,0.001318,
1630,1800,-0.221051,-0.477627,0.999998,0.000168,-0.000816,0.002281,0.000197,0.002294,-0.000828,86.369053,0.002323,
970,1830,0.104649,-0.362923,0.999998,0.000145,-0.000591,0.001940,-0.000111,0.001944,-0.000596,-87.491167,0.001992,
710,50,0.053008,-4.977571,0.999999,0.000153,-0.000355,0.002069,0.000772,0.002294,-0.000580,73.746871,0.002386,
1170,1360,0.035401,-1.125136,0.999999,0.000137,-0.000676,0.001345,0.000542,0.001481,-0.000812,75.881308,0.001483,
1590,930,-0.699855,-2.787280,0.999998,0.000176,-0.001187,0.002830,-0.000341,0.002859,-0.001215,-85.184584,0.002869,
660,350,0.487998,-4.212425,0.999998,0.000190,-0.001222,0.002518,0.000013,0.002518,-0.001222,89.803669,0.002518,
1630,470,-0.361227,-4.046420,0.999998,0.000184,-0.001218,0.002490,0.000112,0.002493,-0.001222,88.275137,0.002493,
930,1640,0.224597,-0.786052,0.999998,0.000159,-0.000974,0.002274,0.000124,0.002279,-0.000979,87.824700,0.002287,
1340,1650,-0.065851,-0.660794,0.999998,0.000168,-0.000655,0.001867,-0.000164,0.001878,-0.000665,-86.300171,0.001904,
760,500,0.472214,-3.912188,0.999998,0.000170,-0.001318,0.002566,-0.000078,0.002568,-0.001319,-88.846530,0.002568,
1080,50,0.007784,-4.992838,0.999999,0.000138,-0.000052,0.001531,0.000110,0.001539,-0.000060,86.033390,0.001743,
1000,350,0.139257,-4.434187,0.999998,0.000153,-0.000704,0.002018,-0.000056,0.002020,-0.000705,-88.813060,0.002050,
720,1550,0.528739,-1.172777,0.999998,0.000163,-0.001290,0.002560,0.000045,0.002561,-0.001290,89.323609,0.002561,
1110,1390,0.084116,-1.153147,0.999999,0.000153,-0.000980,0.001888,0.000678,0.002040,-0.001133,77.352142,0.002044,
1750,890,-0.860339,-2.857362,0.999998,0.000164,-0.001210,0.002531,-0.000266,0.002550,-0.001229,-85.957670,0.002551,
670,420,0.530051,-4.041820,0.999998,0.000167,-0.001236,0.002566,-0.000046,0.002567,-0.001236,-89.306149,0.002567,
680,950,0.932310,-2.703193,0.999998,0.000161,-0.001116,0.002386,0.000166,0.002394,-0.001124,87.284173,0.002395,
1810,1760,-0.449650,-0.694375,0.999998,0.000193,-0.001200,0.002523,0.000053,0.002524,-0.001200,89.188247,0.002525,
680,1040,0.949679,-2.489816,0.999998,0.000154,-0.001091,0.002363,-0.000061,0.002364,-0.001092,-88.995747,0.002367,
1270,450,-0.024026,-4.316785,0.999998,0.000156,-0.000577,0.001752,0.000063,0.001754,-0.000579,88.448499,0.001787,
1360,1940,-0.019751,-0.150799,0.999998,0.000141,-0.000173,0.001625,0.000110,0.001632,-0.000180,86.501048,0.001790,
840,1220,0.641252,-1.994463,0.999997,0.000180,-0.001490,0.002899,-0.000288,0.002918,-0.001509,-86.260301,0.002919,
600,270,0.490115,-4.358654,0.999998,0.000183,-0.001213,0.002491,0.000016,0.002491,-0.001213,89.746572,0.002491,
910,180,0.110113,-4.750536,0.999998,0.000142,-0.000472,0.001977,0.000227,0.001998,-0.000493,84.757216,0.002082,
1010,1490,0.185230,-1.061497,0.999999,0.000130,-0.001136,0.002267,0.000405,0.002315,-0.001184,83.299682,0.002315,
1060,160,0.041342,-4.812065,0.999999,0.000127,-0.000297,0.001728,0.000102,0.001733,-0.000302,87.128813,0.001852,
1870,1420,-0.789638,-1.606884,0.999998,0.000198,-0.001258,0.002536,0.000027,0.002536,-0.001259,89.588161,0.002536,
1050,420,0.119150,-4.316175,0.999999,0.000147,-0.000812,0.002040,-0.000188,0.002052,-0.000825,-86.248041,0.002065,
880,1600,0.296277,-0.917850,0.999998,0.000175,-0.001133,0.002416,0.000131,0.002421,-0.001137,87.880923,0.002422,
1410,850,-0.282214,-3.309491,0.999998,0.000176,-0.001879,0.003086,0.000712,0.003186,-0.001979,81.998758,0.003217,
1360,1640,-0.079626,-0.686925,0.999998,0.000164,-0.000669,0.001920,-0.000149,0.001929,-0.000678,-86.709914,0.001957,
1720,990,-0.876843,-2.611708,0.999998,0.000151,-0.001062,0.002472,-0.000084,0.002474,-0.001064,-88.646875,0.002482,
800,1180,0.738705,-2.120370,0.999998,0.000174,-0.001311,0.002704,-0.000321,0.002729,-0.001336,-85.456695,0.002729,
880,90,0.054038,-4.916593,0.999999,0.000138,-0.000312,0.001820,0.000328,0.001869,-0.000361,81.458699,0.001983,
720,960,0.892873,-2.684761,0.999998,0.000160,-0.001105,0.002463,0.000163,0.002471,-0.001112,87.394821,0.002475,
750,1040,0.873927,-2.490217,0.999998,0.000158,-0.001040,0.002473,-0.000060,0.002474,-0.001041,-89.026745,0.002484,
1650,1800,-0.236802,-0.485695,0.999998,0.000187,-0.000906,0.002323,0.000188,0.002334,-0.000917,86.679728,0.002352,
720,1170,0.847358,-2.167794,0.999998,0.000191,-0.001219,0.002544,-0.000273,0.002563,-0.001239,-85.867611,0.002564,
660,330,0.471890,-4.263189,0.999998,0.000200,-0.001219,0.002519,0.000022,0.002519,-0.001219,89.667641,0.002519,
1150,1730,0.038582,-0.505562,0.999998,0.000152,-0.000528,0.001812,0.000029,0.001812,-0.000528,89.301201,0.001864,
640,750,0.831345,-3.176629,0.999998,0.000146,-0.001246,0.002499,0.000150,0.002505,-0.001252,87.714306,0.002505,
1360,1400,-0.092261,-1.142405,0.999998,0.000152,-0.001005,0.001911,-0.000650,0.002049,-0.001143,-77.982272,0.002054,
970,1850,0.093828,-0.324437,0.999998,0.000167,-0.000523,0.001901,-0.000108,0.001906,-0.000528,-87.447869,0.001968,
1500,1720,-0.162589,-0.592288,0.999998,0.000162,-0.000835,0.002127,-0.000046,0.002128,-0.000836,-89.119053,0.002144,
1720,140,-0.170554,-4.791201,0.999998,0.000166,-0.000639,0.002270,-0.000538,0.002366,-0.000735,-79.847482,0.002422,
1370,1460,-0.100505,-1.040421,0.999999,0.000128,-0.000928,0.001967,-0.000470,0.002042,-0.001002,-81.004335,0.002042,
1680,1390,-0.561173,-1.547799,0.999997,0.000209,-0.001446,0.002763,0.000017,0.002764,-0.001446,89.773717,0.002765,
720,1350,0.686206,-1.699456,0.999997,0.000197,-0.001386,0.002672,-0.000123,0.002675,-0.001389,-88.265690,0.002676,
1410,1270,-0.200379,-1.537864,0.999998,0.000177,-0.001801,0.002776,-0.000854,0.002930,-0.001955,-79.771109,0.002984,
1130,1580,0.066233,-0.788357,0.999998,0.000164,-0.000699,0.001859,0.000201,0.001875,-0.000714,85.538093,0.001892,
930,1550,0.261483,-0.998132,0.999998,0.000164,-0.001175,0.002398,0.000224,0.002412,-0.001189,86.431847,0.002412,
1030,1010,0.586032,-2.607078,0.999997,0.000204,-0.001962,0.005038,-0.000256,0.005048,-0.001971,-87.908909,0.005088,
710,40,0.038242,-4.997381,0.999999,0.000144,-0.000282,0.002018,0.000773,0.002254,-0.000518,73.057980,0.002361,
1540,1970,-0.040888,-0.110938,0.999999,0.000134,-0.000152,0.001735,0.000282,0.001776,-0.000193,81.667696,0.001949,
1590,910,-0.678906,-2.843341,0.999998,0.000162,-0.001280,0.002882,-0.000358,0.002913,-0.001310,-85.124901,0.002918,
630,1470,0.703991,-1.449422,0.999998,0.000165,-0.001265,0.002551,0.000009,0.002551,-0.001265,89.871854,0.002551,
1460,540,-0.187268,-4.026101,0.999999,0.000130,-0.001093,0.002274,0.000347,0.002309,-0.001128,84.177486,0.002309,
1820,1530,-0.642141,-1.285926,0.999998,0.000186,-0.001301,0.002574,0.000001,0.002574,-0.001301,89.987162,0.002574,
1630,1210,-0.661243,-2.024738,0.999998,0.000161,-0.001462,0.002830,0.000320,0.002854,-0.001486,85.753006,0.002854,
1510,50,-0.016388,-4.988985,0.999999,0.000128,-0.000121,0.001609,-0.000212,0.001635,-0.000146,-83.125878,0.001809,
1360,1700,-0.070539,-0.573862,0.999998,0.000176,-0.000579,0.001894,-0.000060,0.001895,-0.000580,-88.599421,0.001942,
980,350,0.154630,-4.425248,0.999998,0.000143,-0.000786,0.002081,-0.000079,0.002083,-0.000788,-88.427063,0.002103,
1110,1370,0.083680,-1.190199,0.999999,0.000143,-0.001036,0.001861,0.000755,0.002046,-0.001221,76.236931,0.002059,
1540,1420,-0.327393,-1.336361,0.999998,0.000170,-0.001507,0.002691,-0.000282,0.002710,-0.001525,-86.167287,0.002717,
790,1780,0.277041,-0.546233,0.999998,0.000146,-0.001051,0.002430,-0.000126,0.002435,-0.001056,-87.935536,0.002442,
1700,270,-0.300837,-4.488805,0.999997,0.000189,-0.001053,0.002435,-0.000155,0.002442,-0.001060,-87.462786,0.002449,
1270,650,-0.022473,-3.993508,0.999999,0.000144,-0.000617,0.001392,0.000260,0.001425,-0.000650,82.746463,0.001426,
1390,780,-0.160943,-3.566807,0.999998,0.000181,-0.001675,0.002526,0.000971,0.002739,-0.001888,77.589863,0.002804,
960,240,0.119126,-4.643547,0.999998,0.000154,-0.000684,0.002015,0.000102,0.002019,-0.000688,87.840204,0.002053,
1790,1760,-0.425550,-0.677896,0.999998,0.000184,-0.001194,0.002511,0.000068,0.002512,-0.001196,88.950630,0.002513,
1860,930,-1.007300,-2.734533,0.999999,0.000134,-0.001071,0.002239,-0.000125,0.002244,-0.001076,-87.846669,0.002245,
1050,640,0.150986,-3.854708,0.999999,0.000142,-0.001229,0.002243,-0.000605,0.002345,-0.001332,-80.385875,0.002352,
840,1200,0.662901,-2.049805,0.999997,0.000194,-0.001432,0.002850,-0.000324,0.002874,-0.001456,-85.702632,0.002874,
1360,1920,-0.025216,-0.182548,0.999999,0.000109,-0.000200,0.001646,0.000088,0.001650,-0.000204,87.283720,0.001799,
960,150,0.069293,-4.816449,0.999999,0.000126,-0.000394,0.001856,0.000190,0.001872,-0.000410,85.205122,0.001968,
1060,180,0.047471,-4.779090,0.999999,0.000126,-0.000339,0.001745,0.000088,0.001748,-0.000343,87.576031,0.001853,
830,1220,0.656016,-1.998824,0.999997,0.000171,-0.001452,0.002865,-0.000304,0.002887,-0.001473,-85.993585,0.002887,
1410,830,-0.248994,-3.369681,0.999998,0.000175,-0.001935,0.003028,0.000757,0.003141,-0.002048,81.521807,0.003189,
640,330,0.496867,-4.246503,0.999997,0.000204,-0.001237,0.002520,-0.000004,0.002520,-0.001237,-89.936075,0.002520,
880,1580,0.306475,-0.965802,0.999998,0.000160,-0.001178,0.002443,0.000157,0.002450,-0.001185,87.525506,0.002450,
1890,670,-0.845100,-3.328998,0.999998,0.000184,-0.001216,0.002569,-0.000037,0.002569,-0.001216,-89.437832,0.002570,
1420,60,-0.012817,-4.977726,0.999999,0.000116,-0.000109,0.001574,-0.000128,0.001584,-0.000118,-85.685474,0.001765,
1110,600,0.086859,-4.007004,0.999998,0.000154,-0.000899,0.001860,-0.000494,0.001946,-0.000985,-80.154212,0.001946,
1240,1910,-0.001311,-0.192562,0.999998,0.000155,-0.000199,0.001613,0.000004,0.001613,-0.000199,89.876595,0.001759,
970,1870,0.084684,-0.287790,0.999998,0.000146,-0.000477,0.001892,-0.000143,0.001901,-0.000486,-86.556828,0.001975,
1820,350,-0.510963,-4.197798,0.999998,0.000164,-0.001239,0.002539,0.000004,0.002539,-0.001239,89.941392,0.002539,
1360,1380,-0.092125,-1.182100,0.999998,0.000164,-0.001066,0.001921,-0.000737,0.002093,-0.001238,-76.866216,0.002105,
1460,520,-0.183349,-4.071058,0.999998,0.000152,-0.001049,0.002271,0.000330,0.002303,-0.001082,84.380647,0.002305,
680,1020,0.951334,-2.538611,0.999998,0.000173,-0.001088,0.002402,0.000038,0.002402,-0.001088,89.372394,0.002406,
860,90,0.060195,-4.915425,0.999999,0.000142,-0.000278,0.001830,0.000370,0.001893,-0.000341,80.332875,0.002018,
720,940,0.881280,-2.734706,0.999998,0.000145,-0.001142,0.002467,0.000206,0.002479,-0.001154,86.739280,0.002480,
760,1170,0.797754,-2.158469,0.999998,0.000147,-0.001247,0.002622,-0.000308,0.002647,-0.001272,-85.476966,0.002647,
1550,1160,-0.606423,-2.129670,0.999998,0.000174,-0.001450,0.003106,0.000356,0.003134,-0.001477,85.558999,0.003136,
1150,1710,0.041506,-0.541822,0.999998,0.000151,-0.000562,0.001786,0.000024,0.001786,-0.000562,89.406212,0.001826,
1720,120,-0.142884,-4.836280,0.999998,0.000145,-0.000545,0.002236,-0.000595,0.002358,-0.000667,-78.410880,0.002431,
1310,1460,-0.051445,-0.988012,0.999999,0.000155,-0.000734,0.001671,-0.000350,0.001721,-0.000784,-81.889417,0.001723,
630,1490,0.687774,-1.398007,0.999998,0.000183,-0.001272,0.002572,0.000009,0.002572,-0.001272,89.871209,0.002572,
1500,1920,-0.058812,-0.196791,0.999998,0.000146,-0.000371,0.001789,0.000196,0.001807,-0.000389,84.852003,0.001902,
1100,1230,0.159993,-1.498540,0.999998,0.000176,-0.001585,0.002255,0.001150,0.002573,-0.001903,74.541427,0.002669,
1630,1170,-0.706638,-2.139483,0.999998,0.000179,-0.001347,0.002808,0.000323,0.002832,-0.001372,85.585116,0.002833,
1110,1570,0.080492,-0.816428,0.999999,0.000119,-0.000739,0.001903,0.000218,0.001921,-0.000757,85.320043,0.001936,
1740,1810,-0.316533,-0.512356,0.999998,0.000158,-0.001104,0.002478,0.000204,0.002490,-0.001116,86.751843,0.002494,
1820,210,-0.365930,-4.556433,0.999997,0.000204,-0.001162,0.002579,-0.000210,0.002590,-0.001173,-86.803310,0.002594,
1790,1740,-0.444569,-0.727194,0.999998,0.000173,-0.001188,0.002501,0.000022,0.002501,-0.001188,89.665392,0.002502,
1260,420,-0.016416,-4.369736,0.999998,0.000186,-0.000600,0.001803,0.000080,0.001805,-0.000603,88.096943,0.001838,
1780,1550,-0.576517,-1.202768,0.999998,0.000196,-0.001297,0.002573,-0.000035,0.002573,-0.001297,-89.475436,0.002573,
1750,1560,-0.529061,-1.152373,0.999998,0.000168,-0.001279,0.002570,-0.000059,0.002571,-0.001280,-89.116856,0.002571,
1860,910,-0.996257,-2.778396,0.999999,0.000134,-0.001064,0.002240,-0.000099,0.002243,-0.001067,-88.288950,0.002244,
1410,1250,-0.218186,-1.595392,0.999998,0.000177,-0.001888,0.002915,-0.000830,0.003054,-0.002028,-80.467770,0.003108,
1360,1900,-0.028527,-0.214390,0.999999,0.000111,-0.000234,0.001678,0.000086,0.001682,-0.000238,87.430779,0.001820,
1370,600,-0.101564,-3.990067,0.999999,0.000113,-0.000956,0.001930,0.000485,0.002010,-0.001036,80.713047,0.002010,
1280,150,-0.010559,-4.837920,0.999999,0.000135,-0.000219,0.001622,-0.000024,0.001622,-0.000219,-89.266744,0.001760,
930,1530,0.269576,-1.046211,0.999998,0.000167,-0.001205,0.002419,0.000266,0.002439,-0.001224,85.821511,0.002439,
960,1970,0.033711,-0.107587,0.999999,0.000133,-0.000203,0.001741,-0.000229,0.001767,-0.000229,-83.374307,0.001922,
960,220,0.106050,-4.684919,0.999998,0.000171,-0.000616,0.001963,0.000107,0.001967,-0.000620,87.638594,0.002012,
970,1890,0.073616,-0.250125,0.999998,0.000159,-0.000432,0.001859,-0.000184,0.001874,-0.000447,-85.436322,0.001957,
1590,890,-0.656968,-2.903187,0.999998,0.000185,-0.001368,0.002940,-0.000362,0.002970,-0.001399,-85.236622,0.002972,
830,1200,0.676793,-2.054338,0.999997,0.000201,-0.001411,0.002819,-0.000321,0.002843,-0.001435,-85.681891,0.002843,
840,1180,0.684420,-2.107173,0.999997,0.000201,-0.001355,0.002861,-0.000343,0.002888,-0.001383,-85.374166,0.002889,
1060,620,0.136417,-3.910638,0.999998,0.000147,-0.001139,0.002114,-0.000569,0.002211,-0.001236,-80.363253,0.002216,
1410,1470,-0.140957,-1.062627,0.999999,0.000141,-0.001088,0.002112,-0.000493,0.002186,-0.001163,-81.443199,0.002188,
1030,1000,0.580583,-2.656496,0.999997,0.000215,-0.001915,0.004941,-0.000366,0.004961,-0.001934,-86.948802,0.005001,
1260,1910,-0.005834,-0.193279,0.999999,0.000113,-0.000216,0.001618,0.000012,0.001618,-0.000216,89.617842,0.001757,
740,710,0.661246,-3.339770,0.999997,0.000226,-0.001419,0.002705,0.000137,0.002709,-0.001424,88.096098,0.002711,
1360,1360,-0.094745,-1.220397,0.999998,0.000161,-0.001123,0.001920,-0.000804,0.002119,-0.001322,-76.079730,0.002140,
1820,330,-0.493406,-4.249301,0.999997,0.000191,-0.001219,0.002532,-0.000020,0.002532,-0.001219,-89.690755,0.002533,
720,920,0.870080,-2.783332,0.999998,0.000144,-0.001145,0.002463,0.000200,0.002474,-0.001156,86.837176,0.002476,
1180,90,0.005368,-4.933423,0.999999,0.000128,-0.000113,0.001542,0.000042,0.001543,-0.000114,88.532298,0.001720,
700,330,0.422981,-4.294963,0.999998,0.000180,-0.001206,0.002529,0.000001,0.002529,-0.001206,89.977301,0.002529,
1550,1140,-0.633818,-2.191849,0.999998,0.000181,-0.001329,0.003065,0.000341,0.003092,-0.001356,85.588129,0.003099,
740,1170,0.821814,-2.162647,0.999998,0.000158,-0.001223,0.002587,-0.000290,0.002608,-0.001245,-85.670754,0.002609,
1460,740,-0.259260,-3.521925,0.999997,0.000218,-0.001758,0.002884,0.000567,0.002952,-0.001826,83.132959,0.002980,
590,630,0.789368,-3.443984,0.999997,0.000223,-0.001326,0.002519,0.000024,0.002519,-0.001327,89.638292,0.002521,
630,1510,0.672839,-1.348879,0.999998,0.000176,-0.001273,0.002546,0.000011,0.002546,-0.001273,89.833037,0.002546,
1690,80,-0.076458,-4.925117,0.999999,0.000132,-0.000347,0.001979,-0.000566,0.002109,-0.000478,-77.018971,0.002212,
1360,1720,-0.067850,-0.537809,0.999998,0.000182,-0.000548,0.001870,-0.000045,0.001870,-0.000549,-88.937594,0.001923,
980,550,0.217148,-3.980076,0.999998,0.000143,-0.001229,0.002366,-0.000337,0.002397,-0.001260,-84.686465,0.002398,
1110,530,0.082983,-4.140628,0.999998,0.000149,-0.000802,0.001868,-0.000315,0.001905,-0.000839,-83.367647,0.001909,
1500,1180,-0.496224,-2.018640,0.999998,0.000187,-0.001785,0.003357,0.000151,0.003362,-0.001789,88.319712,0.003364,
1380,50,-0.007667,-4.992753,0.999999,0.000111,-0.000033,0.001541,-0.000093,0.001547,-0.000039,-86.615762,0.001764,
740,570,0.547111,-3.713490,0.999997,0.000191,-0.001344,0.002637,-0.000045,0.002637,-0.001345,-89.356132,0.002638,
1250,1420,-0.010291,-1.020504,0.999999,0.000135,-0.000563,0.001371,-0.000120,0.001378,-0.000571,-86.453822,0.001385,
1720,100,-0.112529,-4.880459,0.999999,0.000141,-0.000433,0.002107,-0.000607,0.002245,-0.000571,-77.219127,0.002334,
1110,580,0.085058,-4.045522,0.999998,0.000155,-0.000868,0.001892,-0.000444,0.001962,-0.000938,-81.082285,0.001962,
880,1560,0.317992,-1.016034,0.999998,0.000169,-0.001221,0.002473,0.000177,0.002482,-0.001230,87.262050,0.002482,
700,1530,0.568543,-1.240636,0.999997,0.000216,-0.001298,0.002601,0.000040,0.002601,-0.001298,89.409564,0.002601,
1890,810,-0.961240,-2.989825,0.999999,0.000133,-0.001102,0.002289,-0.000056,0.002290,-0.001103,-89.052282,0.002290,
1410,1770,-0.083330,-0.455312,0.999998,0.000196,-0.000570,0.001906,-0.000018,0.001906,-0.000570,-89.580372,0.001956,
1100,1270,0.122173,-1.410670,0.999999,0.000142,-0.001507,0.002167,0.001110,0.002476,-0.001816,74.430453,0.002564,
910,1520,0.297542,-1.089276,0.999998,0.000187,-0.001296,0.002484,0.000258,0.002501,-0.001314,86.113893,0.002502,
1360,1880,-0.033856,-0.248941,0.999999,0.000139,-0.000266,0.001685,0.000068,0.001687,-0.000268,88.014683,0.001813,
1410,1230,-0.242853,-1.656206,0.999998,0.000184,-0.001906,0.002996,-0.000772,0.003114,-0.002025,-81.260734,0.003161,
1040,150,0.044119,-4.827409,0.999999,0.000139,-0.000316,0.001736,0.000104,0.001741,-0.000322,87.094467,0.001853,
1300,1200,-0.142739,-1.310208,0.999998,0.000171,-0.001250,0.000665,-0.000219,0.000690,-0.001275,-83.558523,0.001276,
1630,1150,-0.723275,-2.192000,0.999998,0.000166,-0.001263,0.002763,0.000331,0.002790,-0.001290,85.326771,0.002792,
1370,440,-0.089793,-4.300936,0.999998,0.000179,-0.000728,0.001919,0.000190,0.001932,-0.000741,85.907561,0.001950,
930,1510,0.274659,-1.094098,0.999998,0.000176,-0.001254,0.002482,0.000287,0.002503,-0.001276,85.628856,0.002504,
980,380,0.164588,-4.361117,0.999998,0.000165,-0.000864,0.002141,-0.000132,0.002147,-0.000870,-87.485204,0.002160,
890,490,0.300665,-4.045362,0.999998,0.000167,-0.001231,0.002430,-0.000199,0.002440,-0.001242,-86.896324,0.002441,
1260,1840,-0.009919,-0.309428,0.999998,0.000181,-0.000322,0.001689,-0.000013,0.001689,-0.000322,-89.628893,0.001794,
1060,600,0.134657,-3.951852,0.999998,0.000152,-0.001095,0.002092,-0.000532,0.002179,-0.001181,-80.770409,0.002181,
860,1970,0.057599,-0.116581,0.999998,0.000180,-0.000259,0.001839,-0.000383,0.001907,-0.000327,-79.957312,0.002039,
1590,870,-0.631883,-2.962053,0.999997,0.000194,-0.001471,0.002958,-0.000331,0.002983,-0.001495,-85.747614,0.002983,
1760,330,-0.420195,-4.298679,0.999998,0.000186,-0.001218,0.002520,-0.000004,0.002520,-0.001218,-89.944144,0.002521,
1360,1340,-0.097122,-1.258645,0.999998,0.000158,-0.001171,0.001953,-0.000896,0.002192,-0.001410,-75.077427,0.002222,
680,1000,0.946183,-2.585288,0.999998,0.000157,-0.001088,0.002360,0.000077,0.002362,-0.001090,88.717707,0.002364,
1530,980,-0.680070,-2.661589,0.999998,0.000154,-0.001022,0.003032,-0.000217,0.003044,-0.001034,-86.940116,0.003096,
810,660,0.516823,-3.526745,0.999997,0.000190,-0.001507,0.002791,-0.000005,0.002791,-0.001507,-89.939256,0.002794,
1410,1490,-0.137308,-1.019557,0.999999,0.000137,-0.001038,0.002107,-0.000472,0.002176,-0.001107,-81.646296,0.002177,
1410,1320,-0.170025,-1.405290,0.999998,0.000141,-0.001576,0.002498,-0.000809,0.002653,-0.001731,-79.162104,0.002693,
1400,1910,-0.035857,-0.200229,0.999999,0.000119,-0.000264,0.001733,0.000105,0.001738,-0.000270,86.987816,0.001871,
1530,780,-0.422129,-3.291900,0.999997,0.000170,-0.001838,0.003122,0.000089,0.003124,-0.001839,88.968192,0.003140,
1460,500,-0.180520,-4.117206,0.999998,0.000143,-0.001034,0.002213,0.000298,0.002240,-0.001061,84.790705,0.002241,
1800,1550,-0.601114,-1.218276,0.999998,0.000199,-0.001274,0.002566,-0.000046,0.002567,-0.001275,-89.321112,0.002567,
1150,1690,0.043457,-0.575846,0.999998,0.000138,-0.000569,0.001821,0.000063,0.001822,-0.000570,88.489094,0.001864,
1690,60,-0.050439,-4.963762,0.999999,0.000096,-0.000258,0.001880,-0.000554,0.002015,-0.000393,-76.295993,0.002137,
840,1160,0.705068,-2.164354,0.999998,0.000177,-0.001303,0.002782,-0.000339,0.002810,-0.001331,-85.282549,0.002812,
1160,90,0.008114,-4.932912,0.999999,0.000158,-0.000097,0.001546,0.000049,0.001548,-0.000098,88.280060,0.001733,
1360,1740,-0.064403,-0.497571,0.999998,0.000158,-0.000523,0.001855,-0.000025,0.001855,-0.000523,-89.395505,0.001913,
630,1950,0.208186,-0.220692,0.999998,0.000150,-0.001121,0.002621,-0.000497,0.002686,-0.001186,-82.561416,0.002693,
580,630,0.802621,-3.435143,0.999998,0.000174,-0.001600,0.002414,0.000032,0.002415,-0.001600,89.544572,0.002457,
1110,510,0.081607,-4.176638,0.999999,0.000128,-0.000767,0.001863,-0.000277,0.001892,-0.000796,-84.055913,0.001900,
980,530,0.210418,-4.027847,0.999998,0.000160,-0.001164,0.002340,-0.000304,0.002366,-0.001190,-85.071914,0.002366,
620,610,0.737315,-3.518432,0.999998,0.000194,-0.001262,0.002581,0.000026,0.002582,-0.001262,89.614537,0.002582,
1710,1290,-0.694767,-1.841646,0.999998,0.000177,-0.001407,0.002719,0.000206,0.002729,-0.001417,87.144228,0.002730,
1500,1160,-0.528430,-2.085086,0.999998,0.000190,-0.001642,0.003347,0.000208,0.003356,-0.001651,87.615743,0.003356,
980,360,0.157662,-4.405553,0.999998,0.000147,-0.000805,0.002099,-0.000086,0.002101,-0.000808,-88.299666,0.002120,
1360,1860,-0.038364,-0.282558,0.999999,0.000131,-0.000308,0.001753,0.000075,0.001756,-0.000310,87.910662,0.001874,
1250,1400,-0.010057,-1.047188,0.999999,0.000135,-0.000534,0.001295,-0.000138,0.001305,-0.000544,-85.700137,0.001311,
1100,1250,0.137800,-1.454304,0.999997,0.000197,-0.001541,0.002210,0.001152,0.002535,-0.001866,74.217655,0.002628,
1880,810,-0.950656,-2.996560,0.999999,0.000141,-0.001131,0.002297,-0.000068,0.002298,-0.001133,-88.860082,0.002299,
700,1510,0.582161,-1.292615,0.999998,0.000175,-0.001309,0.002597,0.000034,0.002597,-0.001310,89.500591,0.002597,
720,900,0.859427,-2.833801,0.999998,0.000151,-0.001187,0.002498,0.000242,0.002514,-0.001203,86.258472,0.002514,
1060,580,0.132171,-3.995464,0.999999,0.000144,-0.001056,0.002095,-0.000480,0.002166,-0.001128,-81.524745,0.002167,
870,1020,0.756176,-2.540474,0.999998,0.000190,-0.000924,0.002730,0.000037,0.002731,-0.000924,89.414332,0.002778,
1840,1370,-0.795019,-1.711324,0.999998,0.000158,-0.001269,0.002543,0.000087,0.002545,-0.001271,88.698272,0.002545,
1150,420,0.049771,-4.361588,0.999998,0.000175,-0.000650,0.001817,-0.000129,0.001824,-0.000657,-87.020448,0.001848,
1260,1800,-0.012082,-0.378136,0.999998,0.000163,-0.000369,0.001713,-0.000008,0.001713,-0.000369,-89.770390,0.001803,
1630,1130,-0.743209,-2.249952,0.999998,0.000173,-0.001171,0.002748,0.000330,0.002775,-0.001198,85.216562,0.002784,
1200,150,0.006612,-4.839437,0.999999,0.000126,-0.000229,0.001602,0.000028,0.001602,-0.000229,89.132398,0.001733,
880,1540,0.327326,-1.066098,0.999998,0.000179,-0.001255,0.002510,0.000186,0.002519,-0.001265,87.175305,0.002519,
890,470,0.292120,-4.094223,0.999998,0.000176,-0.001171,0.002408,-0.000163,0.002415,-0.001179,-87.392980,0.002416,
1650,1540,-0.414234,-1.122599,0.999997,0.000189,-0.001295,0.002568,-0.000106,0.002571,-0.001298,-88.426505,0.002571,
1360,1320,-0.097200,-1.299138,0.999998,0.000171,-0.001238,0.002007,-0.000951,0.002265,-0.001497,-74.811702,0.002304,
1760,310,-0.403049,-4.347993,0.999998,0.000179,-0.001214,0.002533,-0.000042,0.002533,-0.001214,-89.361780,0.002534,
1510,980,-0.659250,-2.669997,0.999998,0.000186,-0.001058,0.003187,-0.000215,0.003198,-0.001068,-87.103822,0.003257,
1410,1510,-0.136321,-0.976503,0.999998,0.000147,-0.000988,0.002099,-0.000386,0.002146,-0.001036,-82.975951,0.002147,
1770,1420,-0.661844,-1.531679,0.999998,0.000188,-0.001326,0.002621,0.000031,0.002622,-0.001326,89.546915,0.002622,
1370,50,-0.006146,-4.992672,0.999999,0.000118,-0.000026,0.001537,-0.000085,0.001542,-0.000031,-86.880537,0.001763,
1540,1410,-0.333302,-1.362903,0.999997,0.000185,-0.001530,0.002720,-0.000279,0.002738,-0.001548,-86.257625,0.002746,
630,1930,0.246507,-0.274999,0.999998,0.000174,-0.001171,0.002667,-0.000387,0.002705,-0.001210,-84.293720,0.002710,
1460,460,-0.169129,-4.202136,0.999998,0.000155,-0.000967,0.002183,0.000265,0.002205,-0.000989,85.228133,0.002209,
1300,1910,-0.013856,-0.194213,0.999999,0.000131,-0.000179,0.001644,0.000035,0.001645,-0.000179,88.888917,0.001805,
1310,640,-0.048894,-3.978618,0.999998,0.000149,-0.000738,0.001566,0.000447,0.001649,-0.000821,79.404528,0.001649,
840,1140,0.724579,-2.219642,0.999998,0.000171,-0.001237,0.002765,-0.000349,0.002795,-0.001267,-85.047036,0.002799,
1540,130,-0.070917,-4.847942,0.999998,0.000151,-0.000306,0.001832,-0.000264,0.001864,-0.000338,-83.066520,0.001986,
1410,1730,-0.094853,-0.532351,0.999998,0.000182,-0.000687,0.001950,-0.000055,0.001951,-0.000688,-88.810494,0.001979,
680,1200,0.870790,-2.104518,0.999998,0.000163,-0.001188,0.002464,-0.000228,0.002479,-0.001203,-86.436106,0.002479,
570,630,0.822819,-3.438272,0.999963,0.000725,-0.001742,0.002293,0.000026,0.002293,-0.001742,89.630035,0.002394,
1250,1380,-0.009412,-1.071767,0.999998,0.000147,-0.000520,0.001204,-0.000167,0.001220,-0.000536,-84.517908,0.001223,
980,340,0.149702,-4.447064,0.999998,0.000150,-0.000765,0.002108,-0.000069,0.002110,-0.000767,-88.616003,0.002136,
1870,810,-0.939407,-3.002834,0.999999,0.000142,-0.001157,0.002311,-0.000084,0.002313,-0.001159,-88.616506,0.002313,
1410,1210,-0.273432,-1.715210,0.999998,0.000162,-0.001884,0.003040,-0.000716,0.003142,-0.001986,-81.895383,0.003178,
760,330,0.354517,-4.340277,0.999997,0.000199,-0.001084,0.002475,0.000045,0.002476,-0.001085,89.268094,0.002482,
690,1660,0.487904,-0.916604,0.999998,0.000187,-0.001240,0.002534,0.000048,0.002535,-0.001241,89.272559,0.002535,
1780,1490,-0.620147,-1.357329,0.999998,0.000160,-0.001297,0.002589,0.000009,0.002589,-0.001297,89.866600,0.002589,
870,1000,0.750731,-2.594513,0.999998,0.000188,-0.000947,0.002680,0.000104,0.002683,-0.000950,88.362346,0.002721,
930,1710,0.193230,-0.631212,0.999998,0.000201,-0.000807,0.002215,0.000001,0.002215,-0.000807,89.979260,0.002242,
1590,850,-0.608004,-3.021209,0.999997,0.000188,-0.001553,0.003012,-0.000297,0.003031,-0.001572,-86.298144,0.003032,
1150,1670,0.046599,-0.614709,0.999998,0.000148,-0.000594,0.001831,0.000085,0.001834,-0.000597,87.990369,0.001871,
720,1320,0.712686,-1.777971,0.999998,0.000176,-0.001376,0.002657,-0.000190,0.002666,-0.001385,-87.307230,0.002667,
1110,490,0.081088,-4.214321,0.999999,0.000135,-0.000742,0.001920,-0.000223,0.001938,-0.000761,-85.240127,0.001953,
1860,1370,-0.819417,-1.725353,0.999999,0.000136,-0.001254,0.002551,0.000048,0.002551,-0.001255,89.281411,0.002552,
1820,430,-0.572506,-3.996118,0.999998,0.000165,-0.001232,0.002532,0.000044,0.002532,-0.001232,89.334715,0.002532,
1150,740,0.050792,-3.826089,0.999998,0.000165,-0.000887,0.001382,-0.000868,0.001676,-0.001180,-71.295476,0.001722,
1360,1760,-0.060591,-0.464228,0.999998,0.000177,-0.000476,0.001840,-0.000013,0.001840,-0.000476,-89.673920,0.001910,
1500,430,-0.198686,-4.241042,0.999999,0.000128,-0.000969,0.002213,0.000154,0.002221,-0.000976,87.230158,0.002226,
1060,560,0.129793,-4.037551,0.999999,0.000138,-0.001001,0.002070,-0.000423,0.002128,-0.001058,-82.293036,0.002128,
1720,80,-0.086005,-4.919511,0.999999,0.000137,-0.000327,0.002015,-0.000625,0.002171,-0.000483,-75.951391,0.002280,
1240,1330,-0.003566,-1.121460,0.999999,0.000125,-0.000458,0.000912,-0.000105,0.000920,-0.000466,-85.660558,0.000920,
1690,50,-0.039460,-4.982534,0.999999,0.000110,-0.000202,0.001839,-0.000538,0.001972,-0.000335,-76.099157,0.002110,
1500,1140,-0.560533,-2.150828,0.999998,0.000174,-0.001503,0.003335,0.000257,0.003349,-0.001516,86.966325,0.003354,
1630,1110,-0.758488,-2.303349,0.999998,0.000178,-0.001105,0.002679,0.000275,0.002699,-0.001124,85.860395,0.002711,
1260,1260,-0.020259,-1.183178,0.999998,0.000153,-0.000765,0.000608,-0.000393,0.000712,-0.000869,-75.124014,0.000927,
1360,1840,-0.043628,-0.319272,0.999998,0.000147,-0.000353,0.001775,0.000044,0.001776,-0.000354,88.803854,0.001880,
1550,1700,-0.211741,-0.662824,0.999998,0.000173,-0.000879,0.002262,0.000000,0.002262,-0.000879,89.994627,0.002281,
1120,1970,0.012280,-0.101033,0.999998,0.000171,-0.000126,0.001556,-0.000066,0.001559,-0.000128,-87.763242,0.001731,
630,1720,0.512571,-0.815343,0.999998,0.000177,-0.001191,0.002517,0.000011,0.002517,-0.001191,89.828303,0.002518,
1790,1420,-0.687002,-1.547715,0.999998,0.000184,-0.001318,0.002592,0.000046,0.002592,-0.001319,89.320500,0.002593,
1310,50,-0.002806,-4.993493,0.999999,0.000116,-0.000051,0.001483,-0.000044,0.001484,-0.000052,-88.370877,0.001685,
1210,1330,0.010450,-1.126750,0.999999,0.000129,-0.000524,0.000951,0.000259,0.000995,-0.000568,80.335506,0.000998,
1400,950,-0.462714,-3.010421,0.999996,0.000256,-0.001813,0.004356,0.002008,0.004952,-0.002409,73.465216,0.004953,
840,1120,0.744480,-2.274742,0.999998,0.000167,-0.001165,0.002720,-0.000306,0.002744,-0.001189,-85.518700,0.002752,
680,730,0.761907,-3.251477,0.999998,0.000139,-0.001303,0.002574,0.000160,0.002580,-0.001309,87.643631,0.002580,
630,1910,0.283755,-0.328443,0.999998,0.000190,-0.001191,0.002614,-0.000307,0.002639,-0.001215,-85.418064,0.002641,
1550,1040,-0.715751,-2.484335,0.999997,0.000212,-0.000912,0.002838,0.000075,0.002839,-0.000913,88.857401,0.002899,
1460,440,-0.163528,-4.246874,0.999998,0.000144,-0.000927,0.002166,0.000218,0.002182,-0.000943,85.987183,0.002188,
1260,800,-0.020602,-3.854704,0.999998,0.000153,-0.000764,0.000600,0.000378,0.000697,-0.000862,75.502371,0.000915,
1280,1910,-0.009423,-0.193162,0.999999,0.000126,-0.000215,0.001620,0.000014,0.001620,-0.000215,89.573885,0.001760,
1560,450,-0.269206,-4.151138,0.999998,0.000187,-0.001099,0.002373,0.000147,0.002379,-0.001105,87.587742,0.002381,
560,1240,0.980972,-2.072182,0.999999,0.000000,-0.001203,0.002284,0.000038,0.002285,-0.001203,89.378234,0.002286,
980,320,0.142263,-4.488529,0.999998,0.000156,-0.000723,0.002100,-0.000013,0.002101,-0.000723,-89.729022,0.002134,
1310,540,-0.051670,-4.146039,0.999999,0.000138,-0.000748,0.001760,0.000281,0.001791,-0.000780,83.677971,0.001796,
1500,530,-0.232305,-4.011703,0.999998,0.000182,-0.001197,0.002364,0.000289,0.002388,-0.001220,85.389834,0.002388,
1310,1230,-0.087797,-1.314378,0.999998,0.000175,-0.001059,0.001159,-0.000871,0.001460,-0.001361,-70.921168,0.001632,
1120,1910,0.022741,-0.196472,0.999999,0.000109,-0.000262,0.001589,-0.000084,0.001593,-0.000266,-87.401517,0.001707,
1260,480,-0.018215,-4.264994,0.999998,0.000159,-0.000614,0.001738,0.000081,0.001741,-0.000617,88.018695,0.001765,
1540,1390,-0.345055,-1.417620,0.999997,0.000190,-0.001588,0.002804,-0.000264,0.002820,-0.001604,-86.577302,0.002829,
1410,1710,-0.099614,-0.571787,0.999998,0.000200,-0.000729,0.001982,-0.000110,0.001986,-0.000733,-87.671696,0.002009,
890,450,0.284837,-4.141200,0.999998,0.000170,-0.001122,0.002397,-0.000125,0.002402,-0.001127,-87.966007,0.002403,
1130,1300,0.072277,-1.276201,0.999998,0.000184,-0.001091,0.001646,0.001015,0.001981,-0.001427,71.712074,0.002044,
760,460,0.445984,-4.015345,0.999998,0.000168,-0.001260,0.002530,-0.000067,0.002531,-0.001261,-88.992807,0.002531,
840,1550,0.373522,-1.073843,0.999999,0.000144,-0.001272,0.002531,0.000134,0.002536,-0.001277,87.989862,0.002536,
1320,1650,-0.052396,-0.652805,0.999998,0.000147,-0.000636,0.001848,-0.000126,0.001854,-0.000642,-87.108392,0.001883,
1430,1320,-0.202661,-1.445860,0.999998,0.000175,-0.001670,0.002673,-0.000720,0.002790,-0.001786,-80.822953,0.002826,
1180,150,0.011100,-4.838435,0.999998,0.000149,-0.000187,0.001608,0.000047,0.001609,-0.000188,88.505785,0.001759,
1590,830,-0.583715,-3.083310,0.999997,0.000180,-0.001604,0.002987,-0.000256,0.003002,-0.001618,-86.818203,0.003005,
830,520,0.394620,-3.918769,0.999997,0.000184,-0.001309,0.002570,-0.000117,0.002573,-0.001313,-88.269181,0.002573,
1410,1190,-0.313342,-1.776089,0.999998,0.000169,-0.001827,0.003195,-0.000741,0.003302,-0.001934,-81.778004,0.003318,
1060,540,0.127158,-4.078764,0.999999,0.000138,-0.000974,0.002057,-0.000376,0.002103,-0.001020,-83.027944,0.002103,
1410,1530,-0.133329,-0.935210,0.999998,0.000144,-0.000949,0.002071,-0.000315,0.002104,-0.000982,-84.103663,0.002105,
840,1100,0.757709,-2.327901,0.999998,0.000154,-0.001096,0.002693,-0.000257,0.002711,-0.001113,-86.136575,0.002725,
1450,1100,-0.554704,-2.223654,0.999997,0.000205,-0.001499,0.003896,-0.000145,0.003900,-0.001503,-88.462581,0.003933,
720,1340,0.695098,-1.725421,0.999998,0.000185,-0.001378,0.002667,-0.000141,0.002672,-0.001383,-88.003576,0.002673,
1460,420,-0.157220,-4.289936,0.999999,0.000140,-0.000878,0.002130,0.000179,0.002141,-0.000889,86.605999,0.002151,
1100,1880,0.035287,-0.249234,0.999998,0.000157,-0.000266,0.001726,-0.000046,0.001728,-0.000267,-88.681304,0.001860,
1420,790,-0.223893,-3.461920,0.999997,0.000225,-0.001870,0.002887,0.000772,0.003010,-0.001992,81.008092,0.003062,
1400,940,-0.447514,-3.051573,0.999997,0.000211,-0.001625,0.003859,0.001922,0.004465,-0.002232,72.484419,0.004465,
1630,1090,-0.771710,-2.356024,0.999998,0.000191,-0.001058,0.002663,0.000241,0.002678,-0.001074,86.305570,0.002696,
900,90,0.048022,-4.920392,0.999998,0.000155,-0.000263,0.001800,0.000320,0.001848,-0.000311,81.367396,0.001979,
670,1390,0.718604,-1.627233,0.999998,0.000178,-0.001296,0.002599,-0.000073,0.002600,-0.001297,-88.926809,0.002600,
1690,40,-0.028555,-5.000894,0.999999,0.000125,-0.000158,0.001827,-0.000528,0.001958,-0.000290,-75.992188,0.002114,
790,1040,0.833107,-2.488651,0.999998,0.000165,-0.001020,0.002534,-0.000073,0.002536,-0.001022,-88.827744,0.002552,
1530,1040,-0.697916,-2.483949,0.999997,0.000203,-0.000900,0.002944,0.000082,0.002945,-0.000902,88.782367,0.003018,
1260,1240,-0.027293,-1.194278,0.999999,0.000142,-0.000991,0.000602,-0.000307,0.000659,-0.001048,-79.472226,0.001060,
1740,2010,-0.039167,-0.050558,0.999999,0.000154,-0.000217,0.002039,0.000758,0.002270,-0.000448,73.049610,0.002405,
600,1150,0.996048,-2.251961,0.999999,0.000141,-0.001085,0.002228,-0.000096,0.002231,-0.001087,-88.337685,0.002231,
1260,1290,-0.014425,-1.163115,0.999999,0.000140,-0.000604,0.000781,-0.000411,0.000894,-0.000717,-74.651592,0.000947,
1750,870,-0.842470,-2.907143,0.999998,0.000159,-0.001221,0.002527,-0.000259,0.002545,-0.001238,-86.070558,0.002545,
1080,1910,0.031580,-0.199757,0.999999,0.000128,-0.000201,0.001685,-0.000099,0.001690,-0.000206,-87.016965,0.001844,
1860,850,-0.958336,-2.914716,0.999999,0.000106,-0.001160,0.002351,-0.000100,0.002354,-0.001163,-88.374791,0.002354,
800,1620,0.381343,-0.931262,0.999998,0.000175,-0.001201,0.002477,0.000057,0.002478,-0.001202,89.114290,0.002479,
930,970,0.674263,-2.689993,0.999998,0.000178,-0.001060,0.003025,0.000276,0.003044,-0.001078,86.158266,0.003086,
1560,430,-0.260635,-4.198055,0.999998,0.000157,-0.001094,0.002364,0.000155,0.002371,-0.001101,87.433761,0.002373,
1500,390,-0.184971,-4.329312,0.999998,0.000167,-0.000921,0.002218,0.000131,0.002223,-0.000926,87.613897,0.002234,
1840,1130,-0.983005,-2.288574,0.999998,0.000153,-0.001097,0.002301,0.000147,0.002307,-0.001104,87.520211,0.002308,
560,1230,0.987955,-2.095539,0.999998,0.000000,-0.001161,0.002280,0.000010,0.002280,-0.001161,89.837055,0.002280,
980,300,0.133015,-4.530878,0.999998,0.000155,-0.000676,0.002020,0.000009,0.002020,-0.000676,89.799566,0.002056,
1310,520,-0.051337,-4.180560,0.999999,0.000140,-0.000738,0.001763,0.000253,0.001788,-0.000763,84.290664,0.001795,
1660,870,-0.730071,-2.932675,0.999998,0.000173,-0.001319,0.002754,-0.000324,0.002779,-0.001345,-85.475088,0.002780,
980,1970,0.029227,-0.106862,0.999999,0.000105,-0.000168,0.001708,-0.000216,0.001733,-0.000193,-83.525718,0.001899,
1500,510,-0.223364,-4.058663,0.999998,0.000154,-0.001145,0.002326,0.000289,0.002350,-0.001168,85.280180,0.002350,
1270,1660,-0.022264,-0.626857,0.999998,0.000182,-0.000586,0.001795,-0.000047,0.001796,-0.000587,-88.860060,0.001832,
1260,460,-0.017797,-4.299492,0.999998,0.000160,-0.000608,0.001756,0.000071,0.001758,-0.000610,88.285665,0.001786,
1130,1280,0.076767,-1.310103,0.999998,0.000169,-0.001150,0.001650,0.001078,0.002017,-0.001517,71.203134,0.002101,
1060,1310,0.164207,-1.416868,0.999998,0.000168,-0.001600,0.002507,0.000885,0.002689,-0.001782,78.347955,0.002736,
1080,1650,0.093004,-0.677435,0.999998,0.000143,-0.000713,0.001932,0.000143,0.001940,-0.000721,86.916646,0.001961,
1240,1830,-0.002470,-0.326521,0.999999,0.000120,-0.000357,0.001723,-0.000010,0.001723,-0.000357,-89.735810,0.001818,
760,440,0.433243,-4.065024,0.999998,0.000164,-0.001243,0.002497,-0.000080,0.002498,-0.001245,-88.769885,0.002498,
1470,1900,-0.060488,-0.227858,0.999998,0.000145,-0.000287,0.001797,0.000176,0.001812,-0.000301,85.205861,0.001941,
1310,1210,-0.123417,-1.335516,0.999998,0.000187,-0.001084,0.000996,-0.000508,0.001114,-0.001201,-76.974597,0.001340,
1410,1690,-0.103284,-0.611520,0.999998,0.000179,-0.000735,0.002006,-0.000112,0.002011,-0.000740,-87.669200,0.002034,
630,1890,0.316834,-0.378787,0.999998,0.000181,-0.001176,0.002619,-0.000242,0.002634,-0.001191,-86.371633,0.002638,
890,430,0.273868,-4.187720,0.999998,0.000168,-0.001090,0.002364,-0.000121,0.002368,-0.001094,-87.994394,0.002371,
1410,1170,-0.349182,-1.845568,0.999998,0.000175,-0.001747,0.003294,-0.000794,0.003416,-0.001869,-81.252402,0.003421,
1210,1310,0.011023,-1.142310,0.999999,0.000129,-0.000532,0.000847,0.000289,0.000905,-0.000590,78.613396,0.000919,
1060,520,0.125573,-4.118487,0.999999,0.000136,-0.000937,0.002075,-0.000320,0.002109,-0.000970,-83.998423,0.002111,
1460,400,-0.152125,-4.334003,0.999998,0.000151,-0.000837,0.002103,0.000146,0.002111,-0.000844,87.163049,0.002125,
1260,780,-0.016728,-3.866562,0.999998,0.000157,-0.000614,0.000673,0.000426,0.000801,-0.000742,73.242094,0.000893,
1130,50,0.003073,-4.994164,0.999999,0.000130,-0.000070,0.001512,0.000058,0.001514,-0.000072,87.889454,0.001709,
1630,1070,-0.782835,-2.409310,0.999998,0.000197,-0.001023,0.002606,0.000159,0.002613,-0.001030,87.494605,0.002632,
1590,70,-0.040373,-4.952965,0.999999,0.000125,-0.000258,0.001820,-0.000367,0.001883,-0.000321,-80.275862,0.002015,
1160,150,0.014562,-4.838794,0.999999,0.000126,-0.000168,0.001634,0.000055,0.001636,-0.000170,88.246545,0.001799,
620,210,0.394589,-4.532390,0.999997,0.000215,-0.001209,0.002548,0.000098,0.002551,-0.001212,88.500049,0.002552,
630,1700,0.531598,-0.864872,0.999998,0.000179,-0.001217,0.002518,-0.000001,0.002518,-0.001217,-89.983504,0.002518,
1710,580,-0.537406,-3.697604,0.999996,0.000217,-0.001365,0.002651,0.000031,0.002651,-0.001365,89.555055,0.002651,
770,1040,0.853605,-2.488575,0.999998,0.000180,-0.001038,0.002495,-0.000059,0.002496,-0.001039,-89.049959,0.002508,
1330,420,-0.059993,-4.354455,0.999998,0.000160,-0.000662,0.001837,0.000151,0.001846,-0.000671,86.558349,0.001869,
1240,1310,-0.004775,-1.137988,0.999999,0.000135,-0.000472,0.000771,-0.000111,0.000781,-0.000482,-84.941279,0.000788,
1630,500,-0.378863,-3.972618,0.999998,0.000195,-0.001286,0.002536,0.000138,0.002541,-0.001291,87.938417,0.002541,
1100,1860,0.039187,-0.283991,0.999998,0.000150,-0.000303,0.001745,-0.000063,0.001747,-0.000305,-88.234278,0.001867,
1460,1030,-0.630273,-2.511082,0.999997,0.000227,-0.001318,0.003922,-0.000021,0.003922,-0.001318,-89.765962,0.003992,
1260,820,-0.031156,-3.843076,0.999998,0.000167,-0.001053,0.000637,0.000280,0.000682,-0.001098,80.841987,0.001108,
840,1520,0.387801,-1.150697,0.999998,0.000175,-0.001331,0.002563,0.000130,0.002567,-0.001336,88.088508,0.002568,
940,750,0.379237,-3.395939,0.999997,0.000185,-0.001793,0.003042,-0.000197,0.003050,-0.001801,-87.668841,0.003067,
980,280,0.124578,-4.569999,0.999998,0.000152,-0.000636,0.002022,0.000059,0.002023,-0.000637,88.738883,0.002069,
720,1360,0.676898,-1.671657,0.999997,0.000187,-0.001389,0.002662,-0.000114,0.002665,-0.001393,-88.387528,0.002666,
1750,850,-0.827262,-2.958863,0.999998,0.000147,-0.001227,0.002529,-0.000248,0.002545,-0.001243,-86.241275,0.002545,
930,950,0.654902,-2.751001,0.999998,0.000167,-0.001155,0.003026,0.000331,0.003052,-0.001181,85.497568,0.003078,
1290,1460,-0.035686,-0.974284,0.999999,0.000150,-0.000723,0.001590,-0.000272,0.001621,-0.000754,-83.385415,0.001622,
1560,530,-0.305817,-3.956098,0.999998,0.000173,-0.001297,0.002493,0.000235,0.002508,-0.001312,86.460144,0.002509,
1690,1040,-0.850252,-2.488758,0.999998,0.000144,-0.001023,0.002507,0.000065,0.002508,-0.001025,88.939225,0.002522,
660,1170,0.919212,-2.186452,0.999998,0.000166,-0.001179,0.002393,-0.000186,0.002403,-0.001188,-87.019143,0.002403,
1500,490,-0.218439,-4.105216,0.999998,0.000147,-0.001082,0.002301,0.000273,0.002322,-0.001103,85.421989,0.002323,
1500,370,-0.177533,-4.373331,0.999998,0.000170,-0.000911,0.002135,0.000105,0.002138,-0.000914,88.019431,0.002146,
1260,1280,-0.016574,-1.170332,0.999999,0.000151,-0.000645,0.000722,-0.000423,0.000842,-0.000765,-74.123784,0.000931,
560,1220,0.995195,-2.118489,0.999998,0.000000,-0.001127,0.002238,-0.000006,0.002238,-0.001127,-89.889395,0.002238,
760,420,0.419560,-4.115355,0.999998,0.000161,-0.001221,0.002537,-0.000039,0.002538,-0.001221,-89.412500,0.002538,
1640,850,-0.681870,-2.998053,0.999998,0.000171,-0.001427,0.002820,-0.000315,0.002843,-0.001450,-85.783761,0.002843,
840,1970,0.061579,-0.117781,0.999999,0.000135,-0.000249,0.001886,-0.000443,0.001974,-0.000338,-78.730027,0.002112,
1040,1310,0.196558,-1.459639,0.999997,0.000214,-0.001657,0.002677,0.000770,0.002810,-0.001789,80.219867,0.002845,
1100,1910,0.027278,-0.197949,0.999999,0.000099,-0.000223,0.001635,-0.000092,0.001639,-0.000227,-87.172299,0.001776,
1110,1300,0.095597,-1.323047,0.999998,0.000186,-0.001254,0.001960,0.001042,0.002268,-0.001562,73.521745,0.002322,
1060,1650,0.108635,-0.688459,0.999998,0.000153,-0.000780,0.001992,0.000179,0.002003,-0.000791,86.320836,0.002018,
1410,1150,-0.391469,-1.916728,0.999997,0.000201,-0.001603,0.003345,-0.000950,0.003522,-0.001780,-79.493240,0.003522,
1190,680,0.022172,-3.952317,0.999998,0.000150,-0.000618,0.001281,-0.000347,0.001342,-0.000680,-79.970112,0.001342,
910,1840,0.134452,-0.361799,0.999998,0.000156,-0.000567,0.002073,-0.000206,0.002089,-0.000583,-85.570764,0.002155,
1410,1970,-0.017545,-0.102986,0.999998,0.000169,-0.000145,0.001598,0.000143,0.001609,-0.000157,85.327728,0.001775,
1460,380,-0.146581,-4.373861,0.999998,0.000161,-0.000786,0.002095,0.000107,0.002099,-0.000790,87.867214,0.002120,
1860,830,-0.942993,-2.962403,0.999999,0.000122,-0.001159,0.002339,-0.000110,0.002342,-0.001163,-88.194614,0.002342,
1310,830,-0.095009,-3.720234,0.999998,0.000148,-0.001101,0.001101,0.000800,0.001361,-0.001361,72.007756,0.001572,
1060,500,0.123174,-4.159584,0.999998,0.000147,-0.000893,0.002043,-0.000288,0.002071,-0.000921,-84.454043,0.002075,
890,410,0.264191,-4.234878,0.999998,0.000164,-0.001065,0.002352,-0.000101,0.002355,-0.001068,-88.316067,0.002359,
1220,1910,0.002491,-0.193003,0.999998,0.000168,-0.000209,0.001624,0.000002,0.001624,-0.000209,89.938028,0.001767,
1590,810,-0.561261,-3.141263,0.999998,0.000185,-0.001618,0.003024,-0.000227,0.003035,-0.001629,-87.206899,0.003038,
1660,1390,-0.531341,-1.531176,0.999997,0.000196,-0.001507,0.002791,0.000000,0.002791,-0.001507,89.996740,0.002794,
700,1640,0.489277,-0.958642,0.999998,0.000174,-0.001251,0.002534,0.000052,0.002535,-0.001252,89.212043,0.002535,
840,1540,0.379078,-1.100842,0.999998,0.000157,-0.001293,0.002546,0.000151,0.002552,-0.001299,87.744395,0.002552,
1630,1050,-0.788625,-2.459481,0.999998,0.000207,-0.000993,0.002593,0.000096,0.002595,-0.000995,88.468509,0.002619,
1830,540,-0.665393,-3.707629,0.999998,0.000160,-0.001279,0.002552,0.000025,0.002552,-0.001279,89.622010,0.002552,
670,1660,0.513036,-0.933060,0.999997,0.000194,-0.001238,0.002545,0.000021,0.002545,-0.001238,89.684217,0.002545,
1100,1840,0.045325,-0.318944,0.999998,0.000158,-0.000341,0.001739,-0.000054,0.001741,-0.000343,-88.508042,0.001844,
1390,1460,-0.120290,-1.060143,0.999998,0.000145,-0.001044,0.002058,-0.000518,0.002143,-0.001129,-80.761546,0.002144,
1770,160,-0.242632,-4.717612,0.999998,0.000189,-0.001033,0.002510,-0.000430,0.002561,-0.001084,-83.180638,0.002571,
980,260,0.113999,-4.610931,0.999998,0.000176,-0.000609,0.001998,0.000089,0.002001,-0.000612,88.038145,0.002051,
1260,1820,-0.009681,-0.342521,0.999998,0.000177,-0.000351,0.001709,0.000002,0.001709,-0.000351,89.945145,0.001805,
1630,480,-0.367727,-4.022165,0.999998,0.000166,-0.001251,0.002500,0.000125,0.002505,-0.001255,88.090096,0.002505,
1580,750,-0.479151,-3.331697,0.999997,0.000236,-0.001677,0.002999,-0.000027,0.002999,-0.001677,-89.672890,0.003006,
630,1870,0.348164,-0.433182,0.999997,0.000198,-0.001187,0.002596,-0.000191,0.002605,-0.001196,-87.119530,0.002608,
1750,830,-0.810992,-3.008862,0.999998,0.000161,-0.001254,0.002589,-0.000261,0.002606,-0.001271,-86.136993,0.002607,
1410,1670,-0.109597,-0.652093,0.999998,0.000157,-0.000771,0.001977,-0.000139,0.001983,-0.000778,-87.120924,0.001999,
1150,1650,0.047902,-0.650527,0.999998,0.000152,-0.000636,0.001842,0.000121,0.001847,-0.000642,87.216610,0.001876,
990,980,0.618393,-2.692719,0.999997,0.000189,-0.001211,0.003523,0.000060,0.003524,-0.001211,89.272296,0.003581,
1830,660,-0.761031,-3.399732,0.999998,0.000168,-0.001273,0.002558,-0.000060,0.002559,-0.001274,-89.103489,0.002559,
660,1010,0.969462,-2.560038,0.999998,0.000171,-0.001041,0.002332,0.000084,0.002334,-0.001043,88.576931,0.002339,
1170,740,0.032484,-3.859661,0.999998,0.000174,-0.000726,0.001173,-0.000701,0.001404,-0.000957,-71.785080,0.001435,
880,1520,0.335542,-1.116133,0.999998,0.000168,-0.001302,0.002514,0.000185,0.002523,-0.001311,87.233507,0.002524,
1140,850,0.150937,-3.651051,0.999998,0.000203,-0.001063,0.001140,-0.000692,0.001339,-0.001262,-73.933899,0.001504,
940,610,0.290739,-3.790443,0.999998,0.000174,-0.001426,0.002612,-0.000327,0.002638,-0.001452,-85.398696,0.002643,
680,460,0.548201,-3.949695,0.999998,0.000187,-0.001238,0.002516,-0.000048,0.002516,-0.001239,-89.270266,0.002516,
930,930,0.631317,-2.810608,0.999998,0.000187,-0.001299,0.003089,0.000341,0.003115,-0.001325,85.584842,0.003126,
1260,1300,-0.013286,-1.153646,0.999999,0.000130,-0.000566,0.000815,-0.000405,0.000925,-0.000676,-74.797680,0.000957,
920,510,0.274942,-4.022019,0.999998,0.000187,-0.001170,0.002420,-0.000221,0.002433,-0.001183,-86.494323,0.002434,
1520,1450,-0.285342,-1.233648,0.999998,0.000177,-0.001405,0.002582,-0.000326,0.002608,-0.001432,-85.355632,0.002612,
980,150,0.060764,-4.821393,0.999999,0.000129,-0.000355,0.001826,0.000186,0.001842,-0.000370,85.170880,0.001948,
1260,760,-0.014348,-3.880874,0.999998,0.000145,-0.000566,0.000784,0.000406,0.000897,-0.000679,74.490682,0.000936,
820,1970,0.066775,-0.118597,0.999998,0.000149,-0.000282,0.001906,-0.000463,0.002000,-0.000376,-78.541912,0.002126,
1310,1950,-0.009888,-0.129517,0.999999,0.000147,-0.000146,0.001580,0.000055,0.001582,-0.000148,88.173565,0.001748,
1410,1950,-0.025967,-0.135146,0.999998,0.000169,-0.000197,0.001652,0.000141,0.001663,-0.000208,85.657586,0.001812,
1870,1370,-0.832402,-1.733165,0.999999,0.000159,-0.001255,0.002552,0.000026,0.002552,-0.001255,89.609990,0.002552,
760,400,0.404963,-4.167358,0.999998,0.000183,-0.001226,0.002531,-0.000038,0.002531,-0.001226,-89.424788,0.002532,
1120,50,0.004784,-4.993765,0.999999,0.000118,-0.000060,0.001502,0.000070,0.001505,-0.000064,87.422296,0.001702,
1410,910,-0.404261,-3.106103,0.999997,0.000192,-0.001600,0.003368,0.000999,0.003562,-0.001794,79.044914,0.003562,
1200,1910,0.005730,-0.193268,0.999999,0.000134,-0.000208,0.001610,-0.000037,0.001611,-0.000209,-88.845059,0.001752,
1230,480,0.001632,-4.269090,0.999999,0.000127,-0.000644,0.001712,0.000001,0.001712,-0.000644,89.983623,0.001730,
1310,1840,-0.024886,-0.311347,0.999998,0.000153,-0.000326,0.001710,0.000039,0.001710,-0.000327,88.913938,0.001816,
1060,480,0.122080,-4.200913,0.999998,0.000161,-0.000871,0.002020,-0.000284,0.002048,-0.000899,-84.443788,0.002053,
900,1890,0.102582,-0.262406,0.999999,0.000137,-0.000479,0.001959,-0.000289,0.001993,-0.000512,-83.335500,0.002070,
1620,1650,-0.313291,-0.823843,0.999998,0.000187,-0.001137,0.002410,-0.000052,0.002411,-0.001137,-89.155788,0.002412,
1460,360,-0.139937,-4.416030,0.999998,0.000164,-0.000741,0.002052,0.000064,0.002053,-0.000743,88.692974,0.002079,
650,1360,0.769838,-1.717386,0.999998,0.000173,-0.001285,0.002522,-0.000096,0.002524,-0.001287,-88.552463,0.002524,
830,1820,0.206054,-0.431993,0.999998,0.000175,-0.000778,0.002268,-0.000244,0.002287,-0.000797,-85.439594,0.002322,
1760,690,-0.695070,-3.370281,0.999997,0.000198,-0.001353,0.002637,-0.000119,0.002640,-0.001356,-88.299127,0.002641,
1310,1390,-0.048821,-1.099688,0.999999,0.000151,-0.000771,0.001542,-0.000516,0.001652,-0.000881,-77.980670,0.001653,
1400,1090,-0.472857,-2.100230,0.999723,0.001924,-0.002335,0.004921,-0.002072,0.005471,-0.002885,-75.134535,0.005473,
840,1560,0.367503,-1.048278,0.999998,0.000169,-0.001245,0.002503,0.000121,0.002507,-0.001249,88.149534,0.002507,
1640,1390,-0.500209,-1.515787,0.999997,0.000215,-0.001546,0.002785,-0.000008,0.002785,-0.001546,-89.894213,0.002790,
1590,770,-0.516552,-3.260929,0.999997,0.000188,-0.001668,0.002973,-0.000104,0.002975,-0.001671,-88.722534,0.002982,
980,240,0.105278,-4.649653,0.999998,0.000167,-0.000555,0.001974,0.000107,0.001978,-0.000559,87.577765,0.002039,
630,1850,0.374892,-0.483498,0.999997,0.000188,-0.001202,0.002571,-0.000131,0.002576,-0.001207,-88.013165,0.002577,
1660,950,-0.795001,-2.719422,0.999998,0.000163,-0.001131,0.002602,-0.000251,0.002619,-0.001148,-86.167290,0.002625,
890,390,0.254278,-4.283264,0.999998,0.000174,-0.001036,0.002336,-0.000071,0.002337,-0.001037,-88.799284,0.002342,
680,420,0.517640,-4.050492,0.999998,0.000174,-0.001220,0.002562,-0.000042,0.002563,-0.001220,-89.368496,0.002564,
1260,1580,-0.017484,-0.765523,0.999998,0.000143,-0.000604,0.001721,-0.000076,0.001723,-0.000607,-88.130518,0.001748,
1750,540,-0.561364,-3.770772,0.999998,0.000192,-0.001327,0.002593,0.000023,0.002593,-0.001327,89.660709,0.002593,
1110,860,0.205410,-3.506983,0.999997,0.000222,-0.001092,0.001782,-0.001046,0.002122,-0.001432,-71.971491,0.002165,
930,390,0.213888,-4.308896,0.999998,0.000169,-0.000908,0.002242,-0.000094,0.002245,-0.000910,-88.289427,0.002258,
1270,1460,-0.023420,-0.966308,0.999999,0.000138,-0.000637,0.001520,-0.000147,0.001530,-0.000647,-86.127393,0.001536,
920,610,0.319215,-3.769451,0.999998,0.000191,-0.001445,0.002635,-0.000269,0.002652,-0.001462,-86.241070,0.002657,
1830,640,-0.744419,-3.451498,0.999998,0.000199,-0.001275,0.002577,-0.000037,0.002578,-0.001276,-89.455479,0.002578,
1260,1320,-0.013518,-1.138915,0.999999,0.000131,-0.000537,0.000891,-0.000333,0.000965,-0.000611,-77.482439,0.000976,
1630,1030,-0.792822,-2.514034,0.999998,0.000210,-0.000966,0.002618,0.000007,0.002618,-0.000966,89.892177,0.002648,
1100,1820,0.048661,-0.353371,0.999999,0.000143,-0.000382,0.001786,-0.000046,0.001787,-0.000383,-88.786182,0.001882,
1260,740,-0.013891,-3.897741,0.999998,0.000142,-0.000545,0.000900,0.000365,0.000986,-0.000632,76.606554,0.000999,
920,490,0.266221,-4.069483,0.999999,0.000162,-0.001124,0.002374,-0.000197,0.002386,-0.001135,-86.784675,0.002386,
1120,850,0.170325,-3.567430,0.999998,0.000188,-0.001119,0.001645,-0.001000,0.001968,-0.001442,-72.057565,0.002038,
1580,730,-0.459803,-3.391736,0.999998,0.000185,-0.001652,0.002964,0.000002,0.002964,-0.001652,89.980632,0.002971,
1060,150,0.037966,-4.829934,0.999999,0.000109,-0.000279,0.001724,0.000112,0.001730,-0.000285,86.803858,0.001855,
1410,1460,-0.142528,-1.084180,0.999999,0.000137,-0.001112,0.002137,-0.000508,0.002214,-0.001189,-81.317516,0.002216,
1410,890,-0.361297,-3.177386,0.999997,0.000192,-0.001713,0.003275,0.000823,0.003407,-0.001845,80.872365,0.003411,
1410,1930,-0.031297,-0.167766,0.999999,0.000126,-0.000236,0.001652,0.000107,0.001658,-0.000242,86.781283,0.001792,
1750,810,-0.791758,-3.061932,0.999998,0.000168,-0.001279,0.002581,-0.000258,0.002598,-0.001297,-86.196901,0.002598,
760,380,0.392399,-4.215784,0.999998,0.000184,-0.001176,0.002453,-0.000008,0.002453,-0.001176,-89.880395,0.002453,
1890,1370,-0.857460,-1.749066,0.999999,0.000141,-0.001242,0.002524,0.000021,0.002524,-0.001243,89.674378,0.002524,
1380,1910,-0.030324,-0.198916,0.999999,0.000108,-0.000209,0.001709,0.000104,0.001714,-0.000215,86.900617,0.001868,
920,50,0.019579,-4.989193,0.999999,0.000124,-0.000053,0.001642,0.000274,0.001685,-0.000096,81.035358,0.001893,
820,1950,0.087055,-0.156439,0.999999,0.000135,-0.000350,0.001973,-0.000442,0.002054,-0.000431,-79.576464,0.002166,
1310,1670,-0.044589,-0.613087,0.999998,0.000149,-0.000586,0.001794,-0.000071,0.001796,-0.000588,-88.298685,0.001831,
1070,1900,0.035750,-0.217596,0.999998,0.000162,-0.000248,0.001722,-0.000106,0.001727,-0.000254,-86.917607,0.001865,
1210,480,0.013286,-4.267033,0.999999,0.000128,-0.000613,0.001717,-0.000083,0.001720,-0.000616,-87.963303,0.001743,
1060,460,0.118008,-4.241884,0.999999,0.000141,-0.000844,0.001998,-0.000234,0.002017,-0.000863,-85.329864,0.002024,
1560,1130,-0.657743,-2.227611,0.999998,0.000182,-0.001255,0.002962,0.000345,0.002991,-0.001283,85.352749,0.003001,
1410,1650,-0.113977,-0.691354,0.999998,0.000163,-0.000784,0.001999,-0.000171,0.002009,-0.000795,-86.487431,0.002024,
1500,560,-0.240808,-3.939207,0.999998,0.000154,-0.001239,0.002425,0.000327,0.002454,-0.001268,84.933637,0.002454,
1270,420,-0.022618,-4.369128,0.999998,0.000172,-0.000579,0.001807,0.000075,0.001809,-0.000582,88.209390,0.001847,
1660,1470,-0.471958,-1.313601,0.999996,0.000205,-0.001386,0.002639,-0.000065,0.002640,-0.001387,-89.079830,0.002641,
1520,1430,-0.292553,-1.286083,0.999998,0.000179,-0.001444,0.002630,-0.000347,0.002659,-0.001473,-85.166186,0.002665,
860,1690,0.272202,-0.717619,0.999998,0.000148,-0.001051,0.002318,0.000011,0.002318,-0.001051,89.808254,0.002322,
1600,1650,-0.290947,-0.811293,0.999998,0.000166,-0.001056,0.002386,-0.000043,0.002387,-0.001056,-89.288243,0.002392,
980,220,0.096659,-4.689760,0.999998,0.000156,-0.000535,0.001947,0.000109,0.001952,-0.000540,87.480301,0.002015,
1440,1540,-0.161386,-0.940220,0.999998,0.000152,-0.001024,0.002169,-0.000344,0.002206,-0.001060,-83.926079,0.002207,
1360,90,-0.013560,-4.931169,0.999999,0.000151,-0.000103,0.001585,-0.000084,0.001589,-0.000107,-87.167336,0.001777,
800,1600,0.392765,-0.981360,0.999998,0.000183,-0.001245,0.002513,0.000086,0.002515,-0.001247,88.692464,0.002515,
1640,1370,-0.516420,-1.571985,0.999997,0.000225,-0.001562,0.002820,0.000037,0.002820,-0.001562,89.514514,0.002825,
840,1580,0.355339,-0.999564,0.999998,0.000167,-0.001200,0.002483,0.000127,0.002487,-0.001205,88.032887,0.002488,
670,1830,0.354333,-0.500624,0.999997,0.000201,-0.001136,0.002539,-0.000257,0.002557,-0.001153,-86.016532,0.002561,
1720,1790,-0.316219,-0.549565,0.999998,0.000191,-0.001011,0.002469,0.000215,0.002482,-0.001024,86.479201,0.002494,
810,800,0.647445,-3.133073,0.999998,0.000191,-0.001496,0.002816,0.000255,0.002831,-0.001511,86.632905,0.002833,
1080,150,0.032438,-4.832229,0.999999,0.000104,-0.000229,0.001698,0.000104,0.001704,-0.000235,86.934534,0.001847,
1260,720,-0.013248,-3.915356,0.999999,0.000126,-0.000543,0.001003,0.000315,0.001065,-0.000604,78.927288,0.001068,
1580,650,-0.397782,-3.621035,0.999997,0.000196,-0.001549,0.002771,0.000179,0.002778,-0.001557,87.630578,0.002785,
1260,290,-0.013753,-4.600907,0.999998,0.000155,-0.000467,0.001779,0.000027,0.001779,-0.000467,89.318050,0.001845,
1590,750,-0.496229,-3.323535,0.999997,0.000202,-0.001681,0.002977,-0.000045,0.002977,-0.001681,-89.444960,0.002985,
880,370,0.253812,-4.323195,0.999998,0.000164,-0.001033,0.002320,-0.000060,0.002321,-0.001034,-88.983296,0.002325,
1630,1010,-0.788085,-2.565146,0.999998,0.000176,-0.000968,0.002595,-0.000097,0.002597,-0.000970,-88.449178,0.002625,
920,550,0.292400,-3.922503,0.999998,0.000170,-0.001320,0.002515,-0.000256,0.002532,-0.001337,-86.202433,0.002534,
1430,1460,-0.164923,-1.106088,0.999999,0.000137,-0.001157,0.002233,-0.000480,0.002299,-0.001224,-82.099275,0.002301,
1260,1540,-0.017920,-0.834986,0.999998,0.000149,-0.000644,0.001668,-0.000099,0.001672,-0.000648,-87.553595,0.001686,
1750,520,-0.548223,-3.824082,0.999998,0.000178,-0.001300,0.002585,0.000039,0.002585,-0.001300,89.419998,0.002585,
630,1830,0.401777,-0.537093,0.999997,0.000216,-0.001205,0.002565,-0.000110,0.002568,-0.001208,-88.322449,0.002570,
1100,1800,0.052926,-0.389588,0.999999,0.000129,-0.000404,0.001799,-0.000008,0.001799,-0.000405,-89.804185,0.001887,
850,760,0.544260,-3.273490,0.999998,0.000193,-0.001631,0.002960,0.000129,0.002963,-0.001634,88.389927,0.002969,
1410,1910,-0.038220,-0.199022,0.999999,0.000127,-0.000282,0.001739,0.000093,0.001743,-0.000286,87.370611,0.001870,
1260,1340,-0.012626,-1.120299,0.999999,0.000143,-0.000537,0.001042,-0.000313,0.001102,-0.000596,-79.200814,0.001103,
1660,930,-0.782449,-2.771504,0.999999,0.000151,-0.001198,0.002641,-0.000265,0.002659,-0.001216,-86.075537,0.002662,
890,370,0.243051,-4.329738,0.999998,0.000170,-0.001025,0.002310,-0.000053,0.002311,-0.001026,-89.093617,0.002316,
1410,870,-0.321886,-3.245457,0.999997,0.000184,-0.001803,0.003227,0.000756,0.003338,-0.001914,81.640187,0.003350,
1370,270,-0.059112,-4.621873,0.999999,0.000136,-0.000447,0.001819,-0.000020,0.001820,-0.000447,-89.496915,0.001896,
930,370,0.206872,-4.353455,0.999998,0.000168,-0.000853,0.002203,-0.000059,0.002204,-0.000854,-88.886425,0.002222,
1060,440,0.115111,-4.280314,0.999999,0.000142,-0.000807,0.002020,-0.000217,0.002037,-0.000823,-85.634809,0.002049,
1880,1370,-0.845222,-1.741258,0.999999,0.000155,-0.001255,0.002539,0.000025,0.002539,-0.001255,89.617905,0.002540,
1500,540,-0.235737,-3.988208,0.999998,0.000172,-0.001210,0.002392,0.000313,0.002419,-0.001237,85.073718,0.002419,
630,1360,0.795490,-1.731127,0.999998,0.000189,-0.001228,0.002511,-0.000081,0.002512,-0.001230,-88.761157,0.002513,
1310,1930,-0.014323,-0.161642,0.999998,0.000144,-0.000165,0.001602,0.000060,0.001604,-0.000167,88.068942,0.001763,
980,200,0.086730,-4.727494,0.999998,0.000160,-0.000472,0.001878,0.000152,0.001888,-0.000482,86.314385,0.001962,
1410,1010,-0.533340,-2.629503,0.999882,0.001420,-0.002644,0.006389,0.000690,0.006441,-0.002697,85.655899,0.006469,
1410,1630,-0.118118,-0.731228,0.999998,0.000155,-0.000802,0.002033,-0.000194,0.002046,-0.000815,-86.097618,0.002060,
840,1690,0.292001,-0.730508,0.999998,0.000146,-0.001002,0.002337,0.000011,0.002337,-0.001002,89.803410,0.002345,
740,810,0.757008,-3.072526,0.999999,0.000154,-0.001327,0.002639,0.000269,0.002657,-0.001345,86.141467,0.002657,
1440,1450,-0.178042,-1.139623,0.999998,0.000168,-0.001236,0.002334,-0.000516,0.002407,-0.001310,-81.933081,0.002410,
1750,790,-0.774309,-3.113498,0.999998,0.000179,-0.001294,0.002576,-0.000240,0.002591,-0.001309,-86.472180,0.002591,
1560,730,-0.427112,-3.410975,0.999997,0.000233,-0.001697,0.002995,0.000088,0.002997,-0.001699,88.924739,0.003006,
1480,1650,-0.170938,-0.730711,0.999998,0.000181,-0.000919,0.002176,-0.000145,0.002183,-0.000925,-87.331851,0.002191,
1460,1970,-0.026998,-0.105833,0.999999,0.000154,-0.000113,0.001651,0.000199,0.001673,-0.000136,83.650991,0.001859,
850,90,0.064037,-4.914801,0.999999,0.000140,-0.000262,0.001839,0.000387,0.001909,-0.000331,79.879219,0.002040,
760,360,0.376148,-4.265349,0.999998,0.000176,-0.001133,0.002478,0.000030,0.002478,-0.001134,89.519067,0.002481,
1590,730,-0.476257,-3.382731,0.999997,0.000193,-0.001669,0.002953,-0.000010,0.002953,-0.001670,-89.869983,0.002961,
1500,550,-0.237922,-3.964169,0.999998,0.000143,-0.001226,0.002414,0.000324,0.002443,-0.001255,84.949381,0.002443,
1310,1650,-0.044646,-0.650077,0.999998,0.000163,-0.000615,0.001827,-0.000087,0.001830,-0.000618,-87.963378,0.001862,
1260,1780,-0.011517,-0.411365,0.999998,0.000152,-0.000418,0.001746,-0.000012,0.001746,-0.000418,-89.670627,0.001823,
1360,1910,-0.026282,-0.198828,0.999999,0.000101,-0.000219,0.001671,0.000086,0.001674,-0.000223,87.390229,0.001819,
1610,1040,-0.770879,-2.485571,0.999998,0.000195,-0.000954,0.002669,0.000088,0.002672,-0.000956,88.610378,0.002707,
1000,230,0.090269,-4.674182,0.999998,0.000158,-0.000469,0.001928,0.000098,0.001932,-0.000473,87.669134,0.002014,
1310,420,-0.046761,-4.362452,0.999999,0.000141,-0.000653,0.001812,0.000121,0.001818,-0.000659,87.196105,0.001841,
1140,670,0.058625,-3.917511,0.999998,0.000158,-0.000817,0.001615,-0.000637,0.001772,-0.000974,-76.169072,0.001775,
1630,990,-0.784093,-2.617458,0.999998,0.000171,-0.000999,0.002598,-0.000119,0.002602,-0.001003,-88.108566,0.002624,
630,1810,0.425100,-0.586398,0.999997,0.000218,-0.001208,0.002552,-0.000079,0.002554,-0.001210,-88.789499,0.002555,
1580,630,-0.385131,-3.676835,0.999998,0.000154,-0.001495,0.002727,0.000209,0.002737,-0.001506,87.172995,0.002742,
890,350,0.231939,-4.376192,0.999998,0.000153,-0.001016,0.002262,-0.000046,0.002263,-0.001017,-89.204215,0.002267,
750,700,0.637276,-3.374327,0.999998,0.000243,-0.001432,0.002728,0.000117,0.002731,-0.001435,88.391039,0.002732,
930,350,0.198243,-4.396116,0.999998,0.000176,-0.000815,0.002224,-0.000010,0.002224,-0.000815,-89.809542,0.002251,
1660,910,-0.765400,-2.825486,0.999999,0.000134,-0.001254,0.002688,-0.000314,0.002713,-0.001279,-85.470153,0.002715,
920,410,0.231969,-4.257221,0.999998,0.000149,-0.001015,0.002278,-0.000122,0.002283,-0.001019,-87.887028,0.002287,
580,1230,0.964362,-2.080337,0.999999,0.000134,-0.001139,0.002307,-0.000039,0.002307,-0.001139,-89.350658,0.002307,
1260,1520,-0.018307,-0.867897,0.999998,0.000149,-0.000632,0.001658,-0.000106,0.001663,-0.000637,-87.357097,0.001678,
1240,1250,-0.007359,-1.173912,0.999998,0.000153,-0.000898,0.000511,-0.000120,0.000521,-0.000908,-85.150975,0.000911,
970,1390,0.271021,-1.358006,0.999998,0.000195,-0.001561,0.002695,0.000428,0.002737,-0.001604,84.307711,0.002751,
1800,1370,-0.743732,-1.684184,0.999998,0.000157,-0.001298,0.002561,0.000119,0.002564,-0.001302,88.238334,0.002565,
1460,1650,-0.152529,-0.717566,0.999998,0.000153,-0.000838,0.002112,-0.000133,0.002118,-0.000844,-87.414425,0.002132,
900,1810,0.159654,-0.426329,0.999998,0.000148,-0.000666,0.002102,-0.000154,0.002111,-0.000674,-86.831168,0.002156,
760,340,0.361530,-4.315052,0.999997,0.000189,-0.001089,0.002506,0.000043,0.002506,-0.001090,89.319929,0.002513,
1540,1340,-0.379759,-1.560986,0.999997,0.000183,-0.001700,0.002913,-0.000190,0.002921,-0.001708,-87.650359,0.002935,
1060,660,0.140915,-3.824629,0.999998,0.000146,-0.001251,0.002227,-0.000675,0.002353,-0.001378,-79.387258,0.002365,
1310,1890,-0.017548,-0.227548,0.999998,0.000155,-0.000205,0.001658,0.000048,0.001660,-0.000206,88.531247,0.001809,
1500,520,-0.227960,-4.035482,0.999998,0.000167,-0.001176,0.002339,0.000284,0.002362,-0.001198,85.411164,0.002362,
1840,1110,-0.992868,-2.334952,0.999998,0.000162,-0.001077,0.002259,0.000127,0.002264,-0.001082,87.820274,0.002265,
1710,1990,-0.062373,-0.088297,0.999998,0.000150,-0.000208,0.001952,0.000597,0.002106,-0.000362,75.532758,0.002253,
1350,1700,-0.065910,-0.570588,0.999999,0.000130,-0.000582,0.001884,-0.000084,0.001886,-0.000585,-88.047423,0.001931,
1560,1110,-0.680160,-2.286210,0.999998,0.000168,-0.001130,0.002929,0.000358,0.002960,-0.001162,85.003054,0.002983,
1750,770,-0.755910,-3.165147,0.999998,0.000181,-0.001310,0.002622,-0.000208,0.002633,-0.001321,-86.984833,0.002633,
1250,1460,-0.011087,-0.961568,0.999999,0.000131,-0.000584,0.001481,-0.000118,0.001488,-0.000590,-86.746624,0.001499,
1210,1290,0.011217,-1.158179,0.999999,0.000141,-0.000573,0.000705,0.000319,0.000780,-0.000648,76.719200,0.000835,
1260,700,-0.014805,-3.935918,0.999999,0.000131,-0.000537,0.001125,0.000267,0.001167,-0.000579,81.099732,0.001167,
1060,50,0.008337,-4.992330,0.999999,0.000153,-0.000064,0.001551,0.000117,0.001560,-0.000072,85.885620,0.001761,
710,380,0.451973,-4.177009,0.999998,0.000180,-0.001214,0.002533,-0.000015,0.002533,-0.001214,-89.766672,0.002534,
1100,1780,0.056682,-0.425797,0.999998,0.000147,-0.000441,0.001839,-0.000011,0.001840,-0.000441,-89.721373,0.001921,
1290,1900,-0.013092,-0.210991,0.999999,0.000134,-0.000207,0.001653,0.000030,0.001654,-0.000207,89.083747,0.001802,
1470,180,-0.073268,-4.767073,0.999999,0.000148,-0.000352,0.001850,-0.000180,0.001864,-0.000366,-85.346711,0.001976,
1290,420,-0.034055,-4.365699,0.999999,0.000134,-0.000568,0.001788,0.000072,0.001790,-0.000571,88.246491,0.001829,
920,290,0.174389,-4.524000,0.999998,0.000170,-0.000724,0.002170,0.000075,0.002172,-0.000726,88.510342,0.002212,
1500,1830,-0.108713,-0.365642,0.999998,0.000174,-0.000609,0.001966,0.000072,0.001968,-0.000611,88.399237,0.002014,
1050,980,0.521365,-2.801319,0.999996,0.000234,-0.002181,0.005344,-0.001186,0.005527,-0.002364,-81.251584,0.005546,
1700,1790,-0.296342,-0.538984,0.999997,0.000196,-0.000991,0.002438,0.000167,0.002446,-0.001000,87.222401,0.002460,
1540,1560,-0.266570,-0.980188,0.999998,0.000171,-0.001129,0.002376,-0.000215,0.002389,-0.001142,-86.496840,0.002390,
1260,1760,-0.013088,-0.447031,0.999998,0.000154,-0.000456,0.001765,-0.000017,0.001766,-0.000456,-89.556254,0.001833,
1630,1190,-0.682237,-2.080937,0.999998,0.000165,-0.001430,0.002820,0.000348,0.002849,-0.001458,85.349829,0.002849,
980,180,0.076138,-4.764015,0.999999,0.000136,-0.000435,0.001845,0.000170,0.001858,-0.000447,85.766724,0.001939,
780,1510,0.475838,-1.228453,0.999999,0.000170,-0.001373,0.002623,0.000082,0.002625,-0.001374,88.826648,0.002626,
1350,1460,-0.081956,-1.020503,0.999999,0.000144,-0.000882,0.001866,-0.000466,0.001942,-0.000959,-80.634817,0.001942,
1710,1920,-0.159023,-0.233129,0.999998,0.000136,-0.000563,0.002228,0.000552,0.002333,-0.000668,79.210840,0.002403,
1830,520,-0.650913,-3.759279,0.999997,0.000190,-0.001288,0.002578,0.000031,0.002578,-0.001289,89.542527,0.002578,
880,1790,0.188656,-0.477387,0.999998,0.000165,-0.000823,0.002196,-0.000090,0.002199,-0.000825,-88.302063,0.002221,
1410,1890,-0.045500,-0.239023,0.999998,0.000142,-0.000323,0.001773,0.000080,0.001777,-0.000326,87.812513,0.001891,
720,810,0.782270,-3.065192,0.999998,0.000197,-0.001315,0.002616,0.000246,0.002631,-0.001331,86.428370,0.002631,
990,1020,0.645053,-2.546355,0.999997,0.000204,-0.001099,0.003630,0.000028,0.003630,-0.001099,89.657181,0.003723,
570,1230,0.975554,-2.087684,0.999998,0.000145,-0.001138,0.002292,-0.000018,0.002292,-0.001138,-89.706961,0.002292,
1590,710,-0.459643,-3.441716,0.999997,0.000198,-0.001654,0.002912,0.000056,0.002913,-0.001654,89.303411,0.002922,
1540,1400,-0.338519,-1.389971,0.999998,0.000183,-0.001557,0.002751,-0.000273,0.002769,-0.001575,-86.392035,0.002777,
1500,600,-0.255354,-3.842322,0.999998,0.000165,-0.001372,0.002531,0.000382,0.002568,-0.001409,84.460693,0.002572,
1500,570,-0.244304,-3.914222,0.999998,0.000158,-0.001256,0.002428,0.000337,0.002459,-0.001287,84.823109,0.002460,
1500,500,-0.220859,-4.081110,0.999998,0.000143,-0.001108,0.002315,0.000287,0.002339,-0.001132,85.234823,0.002339,
1760,1530,-0.563921,-1.238026,0.999998,0.000169,-0.001324,0.002573,-0.000043,0.002574,-0.001325,-89.372968,0.002574,
1300,630,-0.043033,-4.001369,0.999999,0.000118,-0.000695,0.001546,0.000422,0.001623,-0.000772,79.684580,0.001623,
1020,290,0.105134,-4.563281,0.999998,0.000170,-0.000602,0.001949,0.000002,0.001949,-0.000602,89.961808,0.001996,
1260,1500,-0.018072,-0.900583,0.999998,0.000155,-0.000619,0.001650,-0.000137,0.001658,-0.000628,-86.549591,0.001674,
1060,420,0.110809,-4.321707,0.999998,0.000150,-0.000806,0.002025,-0.000191,0.002038,-0.000819,-86.155284,0.002051,
1410,1610,-0.121517,-0.774281,0.999998,0.000146,-0.000814,0.002012,-0.000214,0.002028,-0.000830,-85.684833,0.002039,
1750,440,-0.491225,-4.027282,0.999998,0.000167,-0.001285,0.002536,0.000036,0.002536,-0.001285,89.462109,0.002537,
1850,800,-0.907628,-3.037776,0.999999,0.000129,-0.001191,0.002387,-0.000131,0.002392,-0.001196,-87.908634,0.002392,
800,1580,0.406325,-1.029479,0.999998,0.000183,-0.001287,0.002523,0.000092,0.002525,-0.001289,88.611935,0.002526,
1310,1870,-0.021014,-0.260591,0.999998,0.000153,-0.000244,0.001676,0.000050,0.001677,-0.000245,88.511432,0.001812,
1700,1350,-0.625050,-1.671424,0.999998,0.000205,-0.001445,0.002748,0.000127,0.002752,-0.001449,88.266948,0.002753,
1150,1630,0.049643,-0.686921,0.999999,0.000143,-0.000668,0.001818,0.000129,0.001825,-0.000674,87.042945,0.001846,
950,1560,0.234335,-0.956325,0.999998,0.000140,-0.001138,0.002335,0.000257,0.002354,-0.001157,85.786501,0.002354,
1710,1970,-0.090757,-0.129260,0.999998,0.000150,-0.000306,0.002018,0.000561,0.002146,-0.000434,77.122029,0.002269,
930,330,0.185976,-4.442951,0.999998,0.000160,-0.000788,0.002214,0.000004,0.002214,-0.000788,89.915263,0.002245,
850,70,0.043095,-4.950150,0.999999,0.000134,-0.000189,0.001832,0.000415,0.001914,-0.000271,78.835430,0.002071,
1210,1270,0.013428,-1.170427,0.999998,0.000156,-0.000647,0.000601,0.000326,0.000681,-0.000726,76.217025,0.000814,
1310,1690,-0.042141,-0.577417,0.999998,0.000150,-0.000557,0.001818,-0.000048,0.001819,-0.000558,-88.835603,0.001864,
880,1500,0.348011,-1.166288,0.999998,0.000164,-0.001367,0.002599,0.000200,0.002609,-0.001377,87.115837,0.002610,
1240,1270,-0.004174,-1.163767,0.999998,0.000166,-0.000655,0.000591,-0.000128,0.000604,-0.000668,-84.214396,0.000738,
1250,1440,-0.010131,-0.992155,0.999999,0.000126,-0.000580,0.001464,-0.000123,0.001472,-0.000588,-86.556968,0.001482,
750,1020,0.875748,-2.538897,0.999999,0.000143,-0.001037,0.002483,0.000041,0.002483,-0.001037,89.337901,0.002495,
1370,250,-0.054622,-4.657431,0.999999,0.000132,-0.000403,0.001800,-0.000022,0.001800,-0.000404,-89.427801,0.001889,
1650,1700,-0.312962,-0.723528,0.999998,0.000171,-0.001129,0.002412,-0.000005,0.002412,-0.001129,-89.911094,0.002414,
1260,680,-0.015445,-3.959261,0.999999,0.000130,-0.000541,0.001231,0.000237,0.001262,-0.000573,82.506681,0.001264,
1750,750,-0.736810,-3.216931,0.999998,0.000166,-0.001320,0.002664,-0.000195,0.002673,-0.001330,-87.206973,0.002673,
710,400,0.466753,-4.125887,0.999998,0.000191,-0.001211,0.002536,-0.000036,0.002537,-0.001211,-89.442098,0.002537,
890,330,0.221933,-4.420631,0.999998,0.000157,-0.000978,0.002275,-0.000022,0.002275,-0.000979,-89.604345,0.002282,
1240,50,-0.000535,-4.995489,0.999999,0.000096,-0.000066,0.001488,-0.000022,0.001488,-0.000067,-89.200075,0.001681,
670,1810,0.379504,-0.552114,0.999997,0.000209,-0.001170,0.002594,-0.000184,0.002603,-0.001179,-87.213615,0.002607,
720,1380,0.660272,-1.618917,0.999997,0.000182,-0.001386,0.002654,-0.000103,0.002657,-0.001389,-88.533774,0.002658,
1170,680,0.035626,-3.935255,0.999999,0.000149,-0.000685,0.001385,-0.000496,0.001498,-0.000798,-77.201332,0.001499,
1100,1760,0.062669,-0.463980,0.999998,0.000160,-0.000501,0.001840,0.000010,0.001840,-0.000501,89.749555,0.001902,
700,950,0.910716,-2.707352,0.999998,0.000150,-0.001125,0.002423,0.000172,0.002432,-0.001134,87.229766,0.002434,
1540,1320,-0.395382,-1.619785,0.999997,0.000186,-0.001753,0.003003,-0.000156,0.003008,-0.001758,-88.123707,0.003022,
1040,980,0.543729,-2.771421,0.999996,0.000223,-0.001976,0.004873,-0.000805,0.004966,-0.002069,-83.387614,0.004989,
1370,720,-0.109472,-3.751068,0.999998,0.000146,-0.001252,0.002092,0.000902,0.002320,-0.001480,75.835831,0.002349,
1250,1900,-0.003775,-0.209651,0.999999,0.000139,-0.000219,0.001641,0.000012,0.001641,-0.000220,89.623698,0.001782,
720,1490,0.571262,-1.329066,0.999998,0.000188,-0.001337,0.002620,0.000024,0.002620,-0.001337,89.647363,0.002620,
980,140,0.056269,-4.838378,0.999999,0.000131,-0.000339,0.001786,0.000184,0.001802,-0.000355,85.083449,0.001909,
880,1770,0.202439,-0.522966,0.999998,0.000149,-0.000880,0.002230,-0.000073,0.002232,-0.000882,-88.661043,0.002248,
1500,580,-0.247453,-3.890301,0.999998,0.000159,-0.001288,0.002444,0.000357,0.002478,-0.001322,84.589646,0.002480,
1620,1360,-0.493913,-1.583103,0.999997,0.000193,-0.001565,0.002864,0.000016,0.002864,-0.001565,89.790894,0.002868,
1130,580,0.068243,-4.061807,0.999999,0.000140,-0.000813,0.001813,-0.000353,0.001859,-0.000860,-82.472822,0.001861,
1880,670,-0.833677,-3.336557,0.999998,0.000179,-0.001237,0.002545,-0.000029,0.002545,-0.001237,-89.564132,0.002546,
1260,1480,-0.015538,-0.936087,0.999998,0.000154,-0.000605,0.001580,-0.000129,0.001588,-0.000612,-86.625210,0.001602,
1500,480,-0.214339,-4.129021,0.999998,0.000156,-0.001056,0.002289,0.000239,0.002306,-0.001073,85.934893,0.002308,
1410,1870,-0.051424,-0.272677,0.999999,0.000139,-0.000381,0.001740,0.000087,0.001744,-0.000385,87.657692,0.001833,
570,230,0.494538,-4.428026,0.999597,0.002412,-0.001930,0.001556,0.000768,0.001718,-0.002092,78.106354,0.002231,
760,320,0.347018,-4.364967,0.999997,0.000210,-0.001066,0.002458,0.000055,0.002459,-0.001067,89.112838,0.002466,
1470,160,-0.061031,-4.805385,0.999999,0.000137,-0.000324,0.001799,-0.000175,0.001814,-0.000339,-85.324896,0.001929,
1460,90,-0.027669,-4.926105,0.999998,0.000154,-0.000176,0.001665,-0.000190,0.001684,-0.000195,-84.158490,0.001843,
1090,800,0.149117,-3.565820,0.999998,0.000185,-0.001626,0.002415,-0.001104,0.002698,-0.001908,-75.669253,0.002774,
1060,380,0.102076,-4.401803,0.999998,0.000161,-0.000743,0.001979,-0.000127,0.001985,-0.000749,-87.326982,0.002005,
800,1560,0.418988,-1.082290,0.999998,0.000168,-0.001301,0.002546,0.000098,0.002549,-0.001304,88.536104,0.002549,
1210,1250,0.017348,-1.180884,0.999998,0.000164,-0.000834,0.000541,0.000296,0.000602,-0.000896,78.342910,0.000913,
1810,540,-0.639811,-3.724020,0.999998,0.000175,-0.001289,0.002574,0.000023,0.002574,-0.001289,89.663814,0.002574,
1260,1740,-0.012813,-0.484021,0.999998,0.000158,-0.000510,0.001781,-0.000022,0.001781,-0.000510,-89.443949,0.001835,
780,1490,0.490246,-1.280002,0.999997,0.000200,-0.001394,0.002623,0.000042,0.002624,-0.001395,89.405537,0.002625,
1310,1850,-0.024545,-0.294365,0.999998,0.000149,-0.000297,0.001691,0.000048,0.001692,-0.000298,88.610698,0.001806,
1330,1460,-0.066037,-1.001836,0.999999,0.000142,-0.000772,0.001765,-0.000407,0.001829,-0.000836,-81.103575,0.001831,
930,310,0.177055,-4.485972,0.999998,0.000180,-0.000768,0.002148,0.000027,0.002148,-0.000768,89.469893,0.002177,
1770,1160,-0.887441,-2.200610,0.999999,0.000145,-0.001192,0.002447,0.000215,0.002460,-0.001205,86.636680,0.002460,
1750,730,-0.718261,-3.272116,0.999998,0.000179,-0.001360,0.002637,-0.000168,0.002644,-0.001367,-87.601680,0.002645,
1230,50,0.000027,-4.994954,0.999999,0.000094,-0.000045,0.001493,-0.000022,0.001493,-0.000045,-89.197539,0.001699,
720,1820,0.310076,-0.488474,0.999998,0.000182,-0.001094,0.002502,-0.000203,0.002513,-0.001106,-86.775612,0.002519,
670,1790,0.399132,-0.605265,0.999997,0.000188,-0.001200,0.002522,-0.000121,0.002526,-0.001204,-88.142627,0.002527,
1260,660,-0.016082,-3.983532,0.999999,0.000130,-0.000558,0.001304,0.000221,0.001330,-0.000584,83.334885,0.001333,
1710,1950,-0.114285,-0.168664,0.999998,0.000156,-0.000394,0.002136,0.000602,0.002272,-0.000530,77.279184,0.002378,
990,1060,0.633362,-2.401226,0.999998,0.000178,-0.001153,0.003701,-0.000058,0.003701,-0.001154,-89.315674,0.003788,
1840,1050,-1.007963,-2.468716,0.999999,0.000153,-0.001057,0.002242,0.000070,0.002243,-0.001059,88.783812,0.002245,
1430,1700,-0.115303,-0.601371,0.999998,0.000199,-0.000729,0.002031,-0.000094,0.002034,-0.000732,-88.060026,0.002061,
1500,1810,-0.118419,-0.405884,0.999998,0.000160,-0.000640,0.002005,0.000078,0.002007,-0.000643,88.307844,0.002050,
1230,680,0.000494,-3.966341,0.999999,0.000133,-0.000521,0.001196,0.000001,0.001196,-0.000521,89.982391,0.001199,
890,310,0.210155,-4.466038,0.999998,0.000164,-0.000908,0.002274,0.000030,0.002275,-0.000908,89.457145,0.002290,
1770,1360,-0.712467,-1.690577,0.999997,0.000203,-0.001337,0.002599,0.000127,0.002604,-0.001341,88.160448,0.002604,
1100,1740,0.064569,-0.498942,0.999998,0.000167,-0.000529,0.001874,0.000015,0.001874,-0.000529,89.654185,0.001932,
1230,1900,0.000399,-0.208606,0.999999,0.000134,-0.000235,0.001629,0.000007,0.001629,-0.000235,89.796372,0.001761,
1540,1280,-0.433999,-1.742166,0.999997,0.000178,-0.001796,0.003089,-0.000045,0.003090,-0.001796,-89.472318,0.003103,
1070,940,0.439398,-3.089606,0.999996,0.000232,-0.001308,0.004071,-0.001918,0.004685,-0.001922,-72.249744,0.004710,
1240,1370,-0.004446,-1.079607,0.999998,0.000147,-0.000502,0.001130,-0.000083,0.001134,-0.000507,-87.109277,0.001137,
710,1500,0.576292,-1.310618,0.999997,0.000198,-0.001313,0.002599,0.000029,0.002599,-0.001313,89.577955,0.002599,
1670,1220,-0.708149,-2.013787,0.999998,0.000153,-0.001395,0.002758,0.000316,0.002782,-0.001419,85.667921,0.002782,
730,380,0.428202,-4.193811,0.999998,0.000200,-0.001212,0.002512,-0.000012,0.002512,-0.001212,-89.807768,0.002512,
1630,450,-0.349964,-4.098137,0.999998,0.000172,-0.001202,0.002474,0.000094,0.002476,-0.001204,88.535003,0.002477,
1290,640,-0.035632,-3.995146,0.999999,0.000147,-0.000685,0.001486,0.000393,0.001555,-0.000754,80.058212,0.001555,
980,120,0.046180,-4.873879,0.999999,0.000168,-0.000272,0.001743,0.000219,0.001766,-0.000296,83.856587,0.001892,
1260,1460,-0.017341,-0.964107,0.999998,0.000142,-0.000602,0.001494,-0.000132,0.001502,-0.000610,-86.416733,0.001511,
1040,1830,0.069944,-0.346373,0.999998,0.000163,-0.000474,0.001854,-0.000035,0.001855,-0.000474,-89.127176,0.001927,
1370,500,-0.094869,-4.185270,0.999999,0.000119,-0.000835,0.001944,0.000308,0.001978,-0.000869,83.752106,0.001982,
840,1980,0.050829,-0.097883,0.999999,0.000133,-0.000204,0.001872,-0.000457,0.001968,-0.000300,-78.110865,0.002120,
1160,100,0.008943,-4.917914,0.999999,0.000154,-0.000099,0.001591,0.000047,0.001592,-0.000101,88.423533,0.001783,
1520,290,-0.156740,-4.534564,0.999998,0.000149,-0.000747,0.002095,-0.000057,0.002096,-0.000748,-88.846021,0.002125,
800,1540,0.429216,-1.133843,0.999998,0.000142,-0.001319,0.002566,0.000110,0.002569,-0.001322,88.379793,0.002570,
1410,1850,-0.058497,-0.307985,0.999998,0.000155,-0.000426,0.001790,0.000075,0.001792,-0.000429,88.056962,0.001872,
1260,1720,-0.014775,-0.519095,0.999998,0.000168,-0.000526,0.001756,-0.000023,0.001756,-0.000526,-89.420898,0.001802,
1420,870,-0.338568,-3.212214,0.999998,0.000178,-0.001805,0.003358,0.000661,0.003441,-0.001888,82.816383,0.003446,
1370,230,-0.048700,-4.693915,0.999998,0.000146,-0.000366,0.001779,-0.000045,0.001780,-0.000367,-88.808315,0.001880,
1060,360,0.097353,-4.442510,0.999998,0.000177,-0.000695,0.001946,-0.000096,0.001950,-0.000699,-87.927359,0.001976,
1650,1680,-0.325869,-0.771875,0.999998,0.000182,-0.001157,0.002435,-0.000016,0.002435,-0.001157,-89.743294,0.002436,
710,940,0.893174,-2.733034,0.999998,0.000149,-0.001149,0.002455,0.000193,0.002465,-0.001160,86.943166,0.002467,
1110,320,0.061396,-4.532648,0.999998,0.000154,-0.000544,0.001848,-0.000041,0.001849,-0.000545,-89.026319,0.001900,
1210,1230,0.026598,-1.188808,0.999998,0.000160,-0.001255,0.000659,0.000165,0.000673,-0.001269,85.104423,0.001270,
760,300,0.331502,-4.413013,0.999997,0.000217,-0.001063,0.002450,0.000111,0.002453,-0.001067,88.191431,0.002460,
1220,50,0.000162,-4.994161,0.999999,0.000089,-0.000045,0.001497,-0.000009,0.001497,-0.000045,-89.652210,0.001703,
1310,1830,-0.025293,-0.327900,0.999998,0.000149,-0.000357,0.001724,0.000027,0.001724,-0.000358,89.255540,0.001820,
840,150,0.122543,-4.793878,0.999999,0.000137,-0.000473,0.002074,0.000384,0.002131,-0.000530,81.621292,0.002218,
1550,580,-0.315113,-3.839985,0.999998,0.000186,-0.001380,0.002545,0.000258,0.002562,-0.001397,86.254132,0.002565,
1230,1700,0.000416,-0.550889,0.999998,0.000175,-0.000537,0.001771,-0.000004,0.001771,-0.000537,-89.910116,0.001817,
1710,1930,-0.144799,-0.213261,0.999998,0.000145,-0.000509,0.002215,0.000588,0.002337,-0.000631,78.331125,0.002418,
930,290,0.166689,-4.528758,0.999998,0.000172,-0.000734,0.002149,0.000070,0.002150,-0.000736,88.607985,0.002186,
720,1800,0.328042,-0.539694,0.999998,0.000197,-0.001128,0.002509,-0.000157,0.002516,-0.001135,-87.537197,0.002520,
990,1040,0.643076,-2.476665,0.999998,0.000184,-0.001111,0.003674,-0.000003,0.003674,-0.001111,-89.958381,0.003768,
1790,1360,-0.740389,-1.702098,0.999998,0.000178,-0.001319,0.002571,0.000124,0.002575,-0.001323,88.168552,0.002575,
1500,460,-0.207353,-4.173108,0.999998,0.000154,-0.001010,0.002259,0.000209,0.002273,-0.001024,86.353799,0.002276,
1260,640,-0.016095,-4.010131,0.999999,0.000139,-0.000584,0.001395,0.000180,0.001411,-0.000600,84.834275,0.001417,
630,1790,0.448657,-0.639068,0.999997,0.000199,-0.001195,0.002557,-0.000064,0.002558,-0.001196,-89.016722,0.002560,
670,1770,0.418887,-0.653291,0.999998,0.000182,-0.001220,0.002505,-0.000094,0.002507,-0.001222,-88.561344,0.002507,
740,1630,0.447794,-0.953643,0.999997,0.000197,-0.001224,0.002506,0.000051,0.002507,-0.001224,89.209614,0.002507,
930,1840,0.123336,-0.355420,0.999999,0.000132,-0.000555,0.001990,-0.000172,0.002002,-0.000567,-86.154929,0.002064,
1100,1720,0.069363,-0.538654,0.999998,0.000190,-0.000562,0.001878,0.000039,0.001878,-0.000562,89.087503,0.001928,
810,1560,0.405474,-1.074802,0.999998,0.000168,-0.001308,0.002547,0.000096,0.002550,-0.001310,88.570380,0.002550,
890,530,0.321253,-3.944729,0.999998,0.000174,-0.001301,0.002546,-0.000196,0.002556,-0.001311,-87.091684,0.002556,
1740,1830,-0.294584,-0.462224,0.999997,0.000206,-0.001073,0.002499,0.000242,0.002515,-0.001089,86.139810,0.002523,
1750,710,-0.699906,-3.323268,0.999998,0.000191,-0.001359,0.002619,-0.000147,0.002624,-0.001365,-87.892764,0.002625,
1400,960,-0.473340,-2.965706,0.999972,0.000675,-0.001968,0.004953,0.001953,0.005466,-0.002481,75.282762,0.005474,
1760,1490,-0.593945,-1.343035,0.999996,0.000215,-0.001340,0.002611,-0.000017,0.002611,-0.001340,-89.749261,0.002612,
570,650,0.833643,-3.376965,0.999969,0.000640,-0.001754,0.002847,0.000103,0.002849,-0.001756,88.723256,0.002875,
1640,1170,-0.719692,-2.141631,0.999998,0.000189,-0.001340,0.002762,0.000320,0.002787,-0.001365,85.565449,0.002787,
1210,680,0.011557,-3.962179,0.999999,0.000115,-0.000542,0.001215,-0.000191,0.001235,-0.000562,-83.878134,0.001237,
1290,620,-0.035720,-4.025818,0.999999,0.000121,-0.000694,0.001530,0.000354,0.001585,-0.000749,81.176826,0.001585,
980,100,0.034782,-4.908017,0.999999,0.000162,-0.000197,0.001706,0.000226,0.001732,-0.000224,83.317755,0.001884,
1040,1810,0.077550,-0.385175,0.999998,0.000187,-0.000551,0.001868,-0.000035,0.001869,-0.000552,-89.168050,0.001921,
1470,1460,-0.214684,-1.152612,0.999999,0.000163,-0.001278,0.002424,-0.000438,0.002475,-0.001329,-83.340884,0.002478,
1630,410,-0.326896,-4.195236,0.999998,0.000153,-0.001140,0.002438,0.000077,0.002439,-0.001142,88.760569,0.002441,
690,940,0.915619,-2.728671,0.999999,0.000129,-0.001115,0.002440,0.000183,0.002449,-0.001125,87.061376,0.002452,
1470,1020,-0.641789,-2.547342,0.999996,0.000235,-0.001187,0.003691,-0.000001,0.003691,-0.001187,-89.989385,0.003769,
1410,1830,-0.064949,-0.343564,0.999998,0.000168,-0.000473,0.001812,0.000036,0.001813,-0.000474,89.087529,0.001881,
800,1520,0.442908,-1.184638,0.999998,0.000167,-0.001322,0.002603,0.000108,0.002606,-0.001325,88.422426,0.002606,
1120,330,0.058216,-4.516452,0.999998,0.000170,-0.000564,0.001840,-0.000060,0.001842,-0.000565,-88.567287,0.001887,
1060,340,0.094069,-4.479936,0.999998,0.000194,-0.000669,0.001938,-0.000076,0.001940,-0.000672,-88.331525,0.001971,
1540,1260,-0.457610,-1.805201,0.999998,0.000175,-0.001798,0.003133,0.000042,0.003134,-0.001799,89.516181,0.003145,
890,220,0.149409,-4.663783,0.999998,0.000153,-0.000695,0.002088,0.000189,0.002101,-0.000708,86.136143,0.002138,
1710,1910,-0.169787,-0.257136,0.999998,0.000146,-0.000609,0.002269,0.000520,0.002361,-0.000700,80.059784,0.002425,
1650,1220,-0.680603,-2.004447,0.999998,0.000163,-0.001454,0.002802,0.000309,0.002824,-0.001477,85.862575,0.002825,
1260,1700,-0.015273,-0.552011,0.999998,0.000168,-0.000539,0.001769,-0.000049,0.001770,-0.000540,-88.784419,0.001815,
1210,830,0.028912,-3.844467,0.999998,0.000174,-0.001391,0.000659,-0.000088,0.000663,-0.001395,-87.547360,0.001396,
1540,1370,-0.358309,-1.473456,0.999998,0.000187,-0.001630,0.002841,-0.000237,0.002854,-0.001643,-86.974697,0.002865,
1360,50,-0.006796,-4.993178,0.999999,0.000132,-0.000033,0.001524,-0.000073,0.001527,-0.000037,-87.325567,0.001743,
1500,440,-0.203144,-4.218245,0.999998,0.000142,-0.000983,0.002247,0.000170,0.002256,-0.000992,86.989830,0.002262,
590,1600,0.657400,-1.149682,0.999998,0.000168,-0.001371,0.002523,0.000022,0.002523,-0.001371,89.675824,0.002526,
1260,1440,-0.016155,-0.994505,0.999999,0.000145,-0.000596,0.001477,-0.000150,0.001488,-0.000607,-85.869359,0.001496,
1050,500,0.132637,-4.153217,0.999998,0.000146,-0.000938,0.002078,-0.000272,0.002102,-0.000963,-84.883183,0.002105,
1690,1940,-0.120798,-0.186958,0.999998,0.000146,-0.000504,0.002138,0.000555,0.002249,-0.000615,78.605400,0.002325,
930,270,0.154714,-4.572128,0.999998,0.000178,-0.000689,0.002107,0.000085,0.002110,-0.000691,88.263046,0.002151,
1310,1810,-0.028178,-0.362764,0.999998,0.000143,-0.000400,0.001709,0.000016,0.001709,-0.000400,89.556755,0.001788,
720,1780,0.350123,-0.588736,0.999998,0.000180,-0.001139,0.002499,-0.000124,0.002504,-0.001143,-88.046578,0.002507,
670,1750,0.439125,-0.705186,0.999997,0.000190,-0.001218,0.002548,-0.000057,0.002549,-0.001218,-89.139509,0.002550,
830,1160,0.718634,-2.166956,0.999998,0.000176,-0.001283,0.002758,-0.000336,0.002786,-0.001310,-85.275735,0.002787,
970,1060,0.655486,-2.411590,0.999997,0.000240,-0.001043,0.003396,-0.000135,0.003400,-0.001047,-88.263744,0.003483,
1260,620,-0.015870,-4.039458,0.999999,0.000126,-0.000610,0.001441,0.000168,0.001455,-0.000623,85.348558,0.001460,
1700,150,-0.170074,-4.774716,0.999998,0.000165,-0.000677,0.002270,-0.000473,0.002344,-0.000751,-81.100237,0.002394,
750,1480,0.537343,-1.331851,0.999998,0.000181,-0.001344,0.002636,0.000040,0.002637,-0.001345,89.421382,0.002637,
740,1610,0.461015,-1.003616,0.999998,0.000171,-0.001243,0.002511,0.000056,0.002512,-0.001244,89.140300,0.002512,
1000,290,0.117255,-4.556466,0.999998,0.000177,-0.000595,0.001983,0.000036,0.001983,-0.000596,89.190842,0.002035,
1590,690,-0.443747,-3.497883,0.999997,0.000190,-0.001623,0.002857,0.000088,0.002859,-0.001625,88.876823,0.002868,
850,1700,0.275848,-0.700418,0.999998,0.000150,-0.000991,0.002316,-0.000003,0.002316,-0.000991,-89.955356,0.002324,
1750,690,-0.681732,-3.375894,0.999997,0.000189,-0.001365,0.002651,-0.000118,0.002654,-0.001368,-88.315894,0.002655,
1540,1380,-0.351868,-1.445234,0.999997,0.000196,-0.001610,0.002837,-0.000249,0.002851,-0.001624,-86.799683,0.002861,
1760,1510,-0.579237,-1.290413,0.999997,0.000178,-0.001320,0.002616,-0.000021,0.002617,-0.001320,-89.693689,0.002617,
1620,1800,-0.212553,-0.473235,0.999998,0.000182,-0.000797,0.002257,0.000175,0.002267,-0.000807,86.726433,0.002299,
1850,940,-1.001376,-2.713467,0.999998,0.000158,-0.001057,0.002252,-0.000113,0.002256,-0.001061,-88.047216,0.002258,
1100,1700,0.072804,-0.574989,0.999998,0.000169,-0.000583,0.001868,0.000077,0.001870,-0.000586,88.209356,0.001913,
1560,690,-0.394154,-3.528769,0.999997,0.000218,-0.001624,0.002859,0.000183,0.002867,-0.001631,87.671517,0.002876,
790,1560,0.431777,-1.089819,0.999998,0.000172,-0.001300,0.002548,0.000090,0.002551,-0.001302,88.661940,0.002551,
1410,1080,-0.510692,-2.199613,0.999996,0.000212,-0.002350,0.005286,-0.001454,0.005553,-0.002617,-79.577023,0.005556,
980,80,0.026511,-4.942163,0.999999,0.000143,-0.000132,0.001688,0.000205,0.001711,-0.000155,83.642475,0.001892,
880,1730,0.228233,-0.612640,0.999998,0.000171,-0.000976,0.002311,0.000000,0.002311,-0.000976,-89.993757,0.002320,
890,290,0.197084,-4.512389,0.999998,0.000179,-0.000840,0.002234,0.000085,0.002237,-0.000842,88.408833,0.002259,
1370,210,-0.046166,-4.728654,0.999998,0.000144,-0.000332,0.001755,-0.000058,0.001757,-0.000334,-88.412014,0.001866,
1030,760,0.223370,-3.518618,0.999998,0.000164,-0.001771,0.002828,-0.000710,0.002935,-0.001878,-81.420406,0.002973,
900,290,0.188535,-4.516317,0.999998,0.000184,-0.000799,0.002217,0.000088,0.002219,-0.000801,88.328965,0.002248,
1750,420,-0.477146,-4.078564,0.999997,0.000191,-0.001258,0.002536,0.000037,0.002537,-0.001258,89.439162,0.002537,
1540,1240,-0.482456,-1.869341,0.999998,0.000183,-0.001798,0.003180,0.000080,0.003181,-0.001799,89.082581,0.003190,
1580,1360,-0.429803,-1.545168,0.999998,0.000169,-0.001638,0.002882,-0.000109,0.002885,-0.001641,-88.625824,0.002894,
800,1500,0.453815,-1.238889,0.999998,0.000181,-0.001332,0.002627,0.000101,0.002630,-0.001335,88.541502,0.002630,
1190,660,0.023352,-3.978806,0.999999,0.000140,-0.000620,0.001338,-0.000311,0.001386,-0.000669,-81.195645,0.001386,
570,640,0.827054,-3.404367,0.999970,0.000645,-0.001701,0.002672,0.000135,0.002676,-0.001705,88.231558,0.002709,
1090,100,0.018438,-4.913690,0.999999,0.000142,-0.000134,0.001603,0.000110,0.001610,-0.000141,86.388710,0.001783,
1310,620,-0.050751,-4.009778,0.999998,0.000144,-0.000719,0.001618,0.000423,0.001692,-0.000793,80.058794,0.001693,
1450,1460,-0.189482,-1.128389,0.999998,0.000154,-0.001247,0.002341,-0.000482,0.002404,-0.001310,-82.486340,0.002407,
1710,1890,-0.198929,-0.304838,0.999998,0.000159,-0.000696,0.002305,0.000453,0.002372,-0.000763,81.605763,0.002422,
1260,1680,-0.015510,-0.588816,0.999998,0.000165,-0.000567,0.001781,-0.000057,0.001782,-0.000568,-88.602387,0.001821,
1350,50,-0.006964,-4.993900,0.999999,0.000134,-0.000049,0.001510,-0.000069,0.001513,-0.000052,-87.463756,0.001718,
1320,180,-0.023106,-4.787608,0.999999,0.000154,-0.000315,0.001664,-0.000035,0.001664,-0.000315,-88.983673,0.001768,
1130,1260,0.087270,-1.342158,0.999998,0.000175,-0.001211,0.001658,0.001115,0.002040,-0.001593,71.076836,0.002145,
1410,1810,-0.070838,-0.380477,0.999998,0.000153,-0.000490,0.001842,0.000017,0.001842,-0.000490,89.588877,0.001908,
880,1920,0.088763,-0.207297,0.999998,0.000143,-0.000470,0.001927,-0.000303,0.001964,-0.000507,-82.909116,0.002039,
960,1510,0.239332,-1.067808,0.999998,0.000156,-0.001230,0.002410,0.000323,0.002439,-0.001258,84.962806,0.002439,
1720,690,-0.640221,-3.395852,0.999998,0.000185,-0.001423,0.002698,-0.000092,0.002700,-0.001426,-88.717876,0.002701,
1260,1420,-0.016568,-1.022416,0.999999,0.000152,-0.000590,0.001382,-0.000158,0.001394,-0.000602,-85.448390,0.001399,
1050,480,0.129518,-4.194325,0.999998,0.000166,-0.000873,0.002045,-0.000256,0.002067,-0.000896,-85.033592,0.002073,
580,1600,0.669896,-1.158072,0.999998,0.000165,-0.001666,0.002609,-0.000024,0.002609,-0.001666,-89.680474,0.002642,
1260,600,-0.017454,-4.067502,0.999999,0.000135,-0.000641,0.001497,0.000142,0.001507,-0.000650,86.204804,0.001511,
760,280,0.311221,-4.464686,0.999997,0.000205,-0.001038,0.002466,0.000158,0.002473,-0.001045,87.425995,0.002483,
720,1760,0.369971,-0.639766,0.999997,0.000196,-0.001135,0.002535,-0.000079,0.002536,-0.001137,-88.770011,0.002541,
1520,1210,-0.485160,-1.942777,0.999998,0.000179,-0.001777,0.003259,0.000136,0.003263,-0.001781,88.450093,0.003267,
840,1960,0.070038,-0.135627,0.999999,0.000127,-0.000289,0.001901,-0.000415,0.001976,-0.000365,-79.625242,0.002103,
1810,240,-0.391277,-4.486458,0.999998,0.000183,-0.001159,0.002550,-0.000179,0.002559,-0.001167,-87.236009,0.002562,
1500,420,-0.194962,-4.262479,0.999998,0.000153,-0.000956,0.002200,0.000150,0.002207,-0.000963,87.278482,0.002213,
1210,810,0.019354,-3.856339,0.999998,0.000165,-0.000921,0.000581,-0.000276,0.000630,-0.000970,-79.925111,0.000984,
1520,270,-0.146828,-4.575019,0.999998,0.000158,-0.000718,0.002073,-0.000067,0.002075,-0.000720,-88.618444,0.002107,
1160,120,0.010845,-4.884287,0.999999,0.000147,-0.000131,0.001609,0.000050,0.001610,-0.000132,88.347158,0.001788,
670,180,0.296889,-4.653101,0.999998,0.000192,-0.001041,0.002514,0.000387,0.002556,-0.001082,83.861825,0.002566,
670,1680,0.496690,-0.882633,0.999998,0.000180,-0.001210,0.002504,0.000019,0.002504,-0.001210,89.701045,0.002504,
1620,1210,-0.647952,-2.021538,0.999998,0.000157,-0.001464,0.002858,0.000298,0.002878,-0.001485,86.068679,0.002879,
1100,1290,0.112361,-1.367983,0.999998,0.000159,-0.001378,0.002110,0.001053,0.002404,-0.001672,74.438075,0.002464,
1670,1800,-0.256669,-0.497110,0.999998,0.000172,-0.001019,0.002369,0.000168,0.002377,-0.001027,87.168509,0.002384,
1310,1790,-0.030511,-0.397576,0.999998,0.000162,-0.000426,0.001773,-0.000002,0.001773,-0.000426,-89.958276,0.001851,
1060,320,0.087497,-4.520281,0.999998,0.000164,-0.000654,0.001958,-0.000040,0.001959,-0.000655,-89.125045,0.001994,
710,1160,0.866820,-2.195514,0.999998,0.000157,-0.001209,0.002498,-0.000243,0.002513,-0.001225,-86.259757,0.002514,
730,1480,0.565383,-1.346891,0.999998,0.000182,-0.001363,0.002635,0.000021,0.002635,-0.001363,89.694823,0.002636,
930,250,0.145856,-4.612399,0.999998,0.000160,-0.000631,0.002073,0.000126,0.002079,-0.000637,87.329925,0.002130,
670,1730,0.456342,-0.755411,0.999998,0.000181,-0.001217,0.002536,-0.000003,0.002536,-0.001217,-89.947400,0.002537,
1410,1070,-0.519338,-2.253603,0.999996,0.000250,-0.002503,0.005857,-0.001211,0.006029,-0.002675,-81.920326,0.006042,
1630,1100,-0.765442,-2.329942,0.999998,0.000183,-0.001073,0.002671,0.000263,0.002689,-0.001092,86.005801,0.002705,
870,1820,0.175443,-0.417064,0.999998,0.000171,-0.000784,0.002190,-0.000177,0.002200,-0.000795,-86.603193,0.002228,
1620,1780,-0.227473,-0.518331,0.999998,0.000181,-0.000848,0.002309,0.000168,0.002318,-0.000857,86.967912,0.002344,
1100,1900,0.030124,-0.215891,0.999999,0.000127,-0.000247,0.001667,-0.000089,0.001671,-0.000252,-87.338882,0.001802,
890,250,0.168418,-4.600217,0.999998,0.000164,-0.000756,0.002153,0.000121,0.002158,-0.000761,87.625567,0.002189,
1460,330,-0.130147,-4.476862,0.999998,0.000160,-0.000670,0.002035,0.000017,0.002035,-0.000670,89.635221,0.002074,
980,60,0.017860,-4.976213,0.999999,0.000146,-0.000094,0.001628,0.000207,0.001652,-0.000118,83.236816,0.001843,
1750,1110,-0.892487,-2.318617,0.999998,0.000167,-0.001143,0.002478,0.000194,0.002489,-0.001154,86.946347,0.002491,
880,1710,0.239397,-0.659189,0.999998,0.000203,-0.001018,0.002291,0.000032,0.002291,-0.001018,89.444225,0.002296,
1170,660,0.036066,-3.962845,0.999999,0.000130,-0.000706,0.001418,-0.000436,0.001504,-0.000792,-78.839487,0.001505,
1370,190,-0.039838,-4.764732,0.999999,0.000137,-0.000277,0.001764,-0.000073,0.001767,-0.000280,-87.957257,0.001899,
800,1480,0.468380,-1.291762,0.999997,0.000191,-0.001365,0.002650,0.000079,0.002651,-0.001367,88.880042,0.002652,
1540,1220,-0.506686,-1.934055,0.999998,0.000186,-0.001740,0.003178,0.000168,0.003184,-0.001746,88.045712,0.003189,
1580,1040,-0.744430,-2.485457,0.999998,0.000209,-0.000932,0.002739,0.000091,0.002741,-0.000935,88.576829,0.002787,
610,1360,0.819871,-1.745348,0.999998,0.000161,-0.001246,0.002523,-0.000063,0.002524,-0.001247,-89.049075,0.002524,
1710,1870,-0.220226,-0.350146,0.999998,0.000157,-0.000774,0.002337,0.000397,0.002387,-0.000824,82.841110,0.002425,
1260,580,-0.017020,-4.099149,0.999999,0.000166,-0.000643,0.001574,0.000127,0.001581,-0.000650,86.735102,0.001589,
1570,80,-0.041997,-4.935643,0.999999,0.000123,-0.000226,0.001785,-0.000336,0.001840,-0.000281,-80.758256,0.001982,
1070,1620,0.106843,-0.742549,0.999999,0.000136,-0.000818,0.002000,0.000224,0.002018,-0.000836,85.477005,0.002027,
1210,420,0.013111,-4.372345,0.999999,0.000163,-0.000603,0.001794,-0.000051,0.001795,-0.000605,-88.788237,0.001826,
1210,790,0.013625,-3.866877,0.999998,0.000157,-0.000681,0.000603,-0.000316,0.000677,-0.000755,-76.886929,0.000830,
850,980,0.763129,-2.645869,0.999998,0.000181,-0.000994,0.002671,0.000196,0.002681,-0.001004,86.946494,0.002709,
1410,1790,-0.076550,-0.415918,0.999998,0.000171,-0.000532,0.001885,0.000008,0.001885,-0.000532,89.810631,0.001944,
1310,600,-0.051519,-4.042581,0.999999,0.000140,-0.000716,0.001672,0.000372,0.001729,-0.000773,81.343516,0.001732,
1040,90,0.022447,-4.927746,0.999999,0.000134,-0.000175,0.001606,0.000132,0.001616,-0.000185,85.800181,0.001769,
1870,520,-0.701241,-3.727889,0.999998,0.000156,-0.001261,0.002543,0.000005,0.002543,-0.001261,89.924821,0.002543,
1740,570,-0.571389,-3.700263,0.999998,0.000177,-0.001378,0.002605,0.000019,0.002605,-0.001378,89.731325,0.002607,
1260,1660,-0.017054,-0.625644,0.999998,0.000184,-0.000596,0.001788,-0.000051,0.001789,-0.000597,-88.779662,0.001821,
1660,1850,-0.199384,-0.376720,0.999998,0.000171,-0.000837,0.002270,0.000276,0.002294,-0.000861,84.956394,0.002318,
1890,1360,-0.865553,-1.774897,0.999999,0.000134,-0.001239,0.002503,0.000039,0.002503,-0.001239,89.403862,0.002503,
930,230,0.130203,-4.655019,0.999998,0.000169,-0.000586,0.002038,0.000155,0.002047,-0.000595,86.640033,0.002106,
570,1600,0.693540,-1.170673,0.999850,0.001572,-0.001850,0.002703,-0.000098,0.002705,-0.001852,-88.765928,0.002766,
1650,1900,-0.141292,-0.262867,0.999998,0.000173,-0.000611,0.002106,0.000431,0.002173,-0.000677,81.192022,0.002223,
1440,330,-0.116807,-4.483931,0.999998,0.000176,-0.000708,0.002004,0.000036,0.002005,-0.000709,89.233316,0.002033,
890,230,0.156209,-4.642317,0.999998,0.000160,-0.000715,0.002121,0.000157,0.002130,-0.000723,86.840382,0.002166,
1500,620,-0.262692,-3.787465,0.999998,0.000166,-0.001437,0.002544,0.000403,0.002584,-0.001477,84.281758,0.002593,
1750,1130,-0.881944,-2.269349,0.999999,0.000142,-0.001142,0.002449,0.000202,0.002460,-0.001154,86.782568,0.002462,
970,1990,0.019584,-0.072242,0.999999,0.000115,-0.000146,0.001629,-0.000204,0.001652,-0.000169,-83.515136,0.001818,
870,1800,0.190553,-0.460705,0.999998,0.000151,-0.000820,0.002175,-0.000131,0.002181,-0.000825,-87.503941,0.002202,
1240,1350,-0.003939,-1.101350,0.999999,0.000128,-0.000467,0.001050,-0.000106,0.001057,-0.000474,-86.024389,0.001059,
1620,1760,-0.244830,-0.565906,0.999998,0.000174,-0.000896,0.002302,0.000105,0.002305,-0.000900,88.126258,0.002323,
630,1770,0.468646,-0.689396,0.999997,0.000194,-0.001179,0.002508,-0.000023,0.002508,-0.001179,-89.649542,0.002510,
1580,1740,-0.219519,-0.588795,0.999998,0.000157,-0.000933,0.002261,0.000026,0.002261,-0.000934,89.536563,0.002273,
1510,1080,-0.655229,-2.355153,0.999998,0.000167,-0.001058,0.003157,0.000231,0.003170,-0.001070,86.866587,0.003225,
720,1740,0.388338,-0.690077,0.999998,0.000183,-0.001167,0.002505,-0.000046,0.002505,-0.001168,-89.280241,0.002507,
760,480,0.461057,-3.963983,0.999998,0.000177,-0.001296,0.002549,-0.000072,0.002550,-0.001297,-88.928967,0.002551,
830,980,0.782732,-2.643730,0.999998,0.000173,-0.001032,0.002628,0.000181,0.002637,-0.001041,87.173717,0.002656,
1590,670,-0.427300,-3.555682,0.999997,0.000200,-0.001585,0.002823,0.000101,0.002825,-0.001588,88.688351,0.002832,
1740,1850,-0.271145,-0.411843,0.999998,0.000173,-0.001051,0.002476,0.000295,0.002501,-0.001076,85.251108,0.002509,
1260,560,-0.017030,-4.130808,0.999999,0.000146,-0.000633,0.001602,0.000132,0.001610,-0.000641,86.640354,0.001621,
1640,750,-0.577391,-3.283158,0.999997,0.000194,-0.001583,0.002870,-0.000152,0.002875,-0.001588,-88.047912,0.002880,
1060,920,0.416167,-3.103951,0.999997,0.000192,-0.001440,0.003435,-0.001369,0.003793,-0.001799,-75.339091,0.003794,
1640,490,-0.385474,-3.990032,0.999998,0.000151,-0.001281,0.002525,0.000119,0.002528,-0.001285,88.217179,0.002528,
1540,910,-0.612424,-2.870459,0.999997,0.000212,-0.001392,0.003084,-0.000383,0.003116,-0.001424,-85.139445,0.003120,
1250,1280,-0.009960,-1.162042,0.999999,0.000145,-0.000619,0.000663,-0.000286,0.000724,-0.000680,-77.971979,0.000812,
1060,970,0.489870,-2.899367,0.999940,0.000892,-0.002138,0.005270,-0.001722,0.005650,-0.002519,-77.536349,0.005661,
1840,670,-0.782686,-3.366757,0.999998,0.000155,-0.001263,0.002528,-0.000080,0.002529,-0.001265,-88.798627,0.002529,
1250,1240,-0.019043,-1.184788,0.999999,0.000135,-0.001036,0.000567,-0.000203,0.000593,-0.001061,-82.897038,0.001064,
670,1710,0.471861,-0.807222,0.999998,0.000157,-0.001212,0.002539,-0.000002,0.002539,-0.001212,-89.970211,0.002540,
800,1460,0.482641,-1.343916,0.999997,0.000181,-0.001421,0.002679,0.000044,0.002679,-0.001421,89.387179,0.002681,
1710,1850,-0.243768,-0.397352,0.999998,0.000157,-0.000853,0.002428,0.000362,0.002467,-0.000893,83.783824,0.002498,
1260,90,-0.003609,-4.933161,0.999999,0.000141,-0.000125,0.001530,-0.000024,0.001530,-0.000125,-89.173267,0.001699,
1270,1700,-0.020773,-0.554395,0.999998,0.000168,-0.000535,0.001765,-0.000042,0.001766,-0.000536,-88.964194,0.001811,
1130,740,0.069010,-3.788420,0.999998,0.000186,-0.001011,0.001636,-0.000942,0.001937,-0.001313,-72.278287,0.001977,
1560,1830,-0.144618,-0.384013,0.999998,0.000152,-0.000613,0.002063,0.000175,0.002074,-0.000624,86.283344,0.002128,
1320,160,-0.019979,-4.819361,0.999999,0.000123,-0.000249,0.001610,-0.000053,0.001612,-0.000250,-88.354093,0.001735,
1450,920,-0.491323,-2.949193,0.999997,0.000206,-0.001620,0.003638,0.000127,0.003641,-0.001623,88.620364,0.003648,
1290,560,-0.036972,-4.121703,0.999999,0.000125,-0.000687,0.001670,0.000230,0.001692,-0.000709,84.474796,0.001699,
1730,440,-0.465798,-4.043132,0.999998,0.000181,-0.001261,0.002526,0.000038,0.002526,-0.001261,89.423144,0.002526,
1220,840,0.022831,-3.843804,0.999997,0.000201,-0.002005,0.000485,0.000033,0.000486,-0.002005,89.250082,0.002092,
710,1360,0.690705,-1.678904,0.999998,0.000188,-0.001353,0.002643,-0.000116,0.002646,-0.001356,-88.332587,0.002647,
1260,1640,-0.015978,-0.659834,0.999998,0.000193,-0.000624,0.001782,-0.000033,0.001783,-0.000624,-89.210265,0.001809,
1210,1390,0.011368,-1.060223,0.999999,0.000133,-0.000569,0.001290,0.000163,0.001304,-0.000583,85.039156,0.001307,
810,1480,0.455775,-1.282351,0.999998,0.000177,-0.001370,0.002659,0.000101,0.002661,-0.001372,88.557956,0.002662,
1540,1360,-0.365254,-1.501950,0.999997,0.000197,-0.001665,0.002862,-0.000218,0.002872,-0.001676,-87.248842,0.002886,
970,1970,0.030956,-0.107074,0.999999,0.000117,-0.000184,0.001724,-0.000216,0.001748,-0.000209,-83.610614,0.001910,
930,210,0.120488,-4.694246,0.999998,0.000175,-0.000538,0.002005,0.000177,0.002017,-0.000550,86.046270,0.002086,
1370,170,-0.037784,-4.797981,0.999999,0.000146,-0.000244,0.001722,-0.000085,0.001726,-0.000248,-87.522064,0.001866,
1580,850,-0.592876,-3.028550,0.999997,0.000180,-0.001565,0.003052,-0.000291,0.003071,-0.001583,-86.404385,0.003071,
1290,680,-0.033560,-3.937193,0.999998,0.000162,-0.000688,0.001341,0.000492,0.001455,-0.000801,77.056363,0.001457,
1880,1360,-0.853285,-1.767004,0.999999,0.000152,-0.001244,0.002518,0.000040,0.002519,-0.001245,89.390388,0.002519,
1750,1150,-0.869745,-2.220529,0.999999,0.000141,-0.001162,0.002455,0.000236,0.002470,-0.001177,86.287234,0.002471,
940,1430,0.298294,-1.288895,0.999998,0.000173,-0.001440,0.002608,0.000315,0.002633,-0.001465,85.571548,0.002638,
1500,400,-0.188578,-4.307350,0.999998,0.000168,-0.000933,0.002223,0.000144,0.002230,-0.000939,87.401132,0.002239,
1620,1740,-0.255251,-0.611013,0.999998,0.000183,-0.000941,0.002291,0.000053,0.002291,-0.000942,89.060670,0.002303,
1580,1960,-0.056876,-0.131111,0.999999,0.000150,-0.000340,0.001820,0.000325,0.001868,-0.000388,81.628014,0.001971,
770,1840,0.239703,-0.414557,0.999998,0.000197,-0.000903,0.002350,-0.000280,0.002374,-0.000927,-85.121176,0.002393,
700,1680,0.461163,-0.858391,0.999998,0.000181,-0.001227,0.002544,0.000024,0.002544,-0.001228,89.633572,0.002545,
1720,810,-0.752651,-3.073869,0.999998,0.000173,-0.001392,0.002628,-0.000270,0.002647,-0.001410,-86.168933,0.002648,
670,1690,0.488862,-0.857362,0.999998,0.000167,-0.001199,0.002510,0.000012,0.002510,-0.001199,89.817211,0.002511,
1640,730,-0.557929,-3.340737,0.999998,0.000250,-0.001574,0.002872,-0.000101,0.002874,-0.001576,-88.704307,0.002879,
1260,540,-0.018975,-4.162186,0.999999,0.000144,-0.000631,0.001647,0.000107,0.001652,-0.000636,87.326362,0.001667,
720,1720,0.405051,-0.741161,0.999997,0.000181,-0.001204,0.002503,0.000002,0.002503,-0.001204,89.964186,0.002503,
630,1990,0.115424,-0.115482,0.999998,0.000171,-0.000990,0.002558,-0.000696,0.002689,-0.001122,-79.293803,0.002701,
1710,1830,-0.264916,-0.448295,0.999998,0.000143,-0.000904,0.002414,0.000299,0.002441,-0.000931,84.892593,0.002463,
790,160,0.162274,-4.758880,0.999998,0.000170,-0.000751,0.002196,0.000406,0.002251,-0.000806,82.299312,0.002281,
1560,910,-0.639785,-2.857820,0.999998,0.000178,-0.001364,0.002990,-0.000368,0.003021,-0.001395,-85.196840,0.003024,
790,1500,0.468404,-1.246990,0.999998,0.000184,-0.001366,0.002624,0.000078,0.002625,-0.001367,88.886611,0.002626,
1630,640,-0.467840,-3.603021,0.999996,0.000233,-0.001521,0.002770,0.000058,0.002770,-0.001522,89.224611,0.002775,
830,640,0.471553,-3.599918,0.999997,0.000195,-0.001504,0.002759,-0.000066,0.002760,-0.001505,-89.110604,0.002763,
1120,310,0.053234,-4.553981,0.999999,0.000134,-0.000548,0.001828,-0.000055,0.001829,-0.000549,-88.665557,0.001877,
1620,1190,-0.669040,-2.076891,0.999998,0.000153,-0.001417,0.002851,0.000349,0.002879,-0.001445,85.353882,0.002879,
610,620,0.756830,-3.485295,0.999998,0.000171,-0.001258,0.002563,0.000008,0.002563,-0.001258,89.876677,0.002563,
920,1090,0.680478,-2.338742,0.999997,0.000194,-0.001074,0.002959,-0.000289,0.002979,-0.001094,-85.926260,0.003014,
1320,140,-0.014325,-4.850689,0.999999,0.000127,-0.000202,0.001644,-0.000051,0.001645,-0.000204,-88.410627,0.001794,
1510,340,-0.173941,-4.431263,0.999998,0.000189,-0.000849,0.002200,0.000023,0.002200,-0.000850,89.572159,0.002219,
1260,1620,-0.019063,-0.696836,0.999998,0.000177,-0.000626,0.001798,-0.000067,0.001800,-0.000627,-88.426377,0.001827,
1160,140,0.013646,-4.853046,0.999998,0.000136,-0.000159,0.001586,0.000054,0.001588,-0.000161,88.244913,0.001748,
1860,1830,-0.435558,-0.565079,0.999998,0.000197,-0.001230,0.002521,0.000079,0.002522,-0.001231,88.797350,0.002523,
970,1950,0.042125,-0.142191,0.999998,0.000140,-0.000248,0.001738,-0.000213,0.001761,-0.000271,-83.945163,0.001896,
1750,50,-0.051243,-4.978258,0.999998,0.000147,-0.000349,0.002060,-0.000723,0.002260,-0.000550,-74.502993,0.002358,
690,1360,0.716589,-1.691635,0.999998,0.000179,-0.001327,0.002598,-0.000118,0.002601,-0.001331,-88.282684,0.002601,
1400,1450,-0.131846,-1.094161,0.999999,0.000134,-0.001107,0.002108,-0.000543,0.002197,-0.001196,-80.659090,0.002200,
930,410,0.222737,-4.264183,0.999998,0.000155,-0.000954,0.002255,-0.000122,0.002260,-0.000958,-87.822983,0.002268,
1050,970,0.512194,-2.852911,0.999996,0.000216,-0.002083,0.004935,-0.001354,0.005187,-0.002335,-79.446116,0.005196,
1210,770,0.010703,-3.879412,0.999999,0.000141,-0.000567,0.000657,-0.000320,0.000736,-0.000645,-76.176956,0.000803,
1500,360,-0.172837,-4.395244,0.999998,0.000173,-0.000892,0.002123,0.000087,0.002126,-0.000895,88.348935,0.002135,
1440,150,-0.047898,-4.825977,0.999999,0.000133,-0.000262,0.001753,-0.000158,0.001765,-0.000274,-85.545167,0.001900,
1750,1170,-0.855431,-2.170291,0.999998,0.000155,-0.001206,0.002542,0.000271,0.002561,-0.001225,85.892596,0.002562,
1580,1720,-0.231056,-0.634769,0.999998,0.000156,-0.000983,0.002292,-0.000008,0.002292,-0.000983,-89.862267,0.002300,
800,1440,0.497851,-1.398195,0.999997,0.000176,-0.001438,0.002715,0.000029,0.002716,-0.001438,89.605067,0.002717,
1290,540,-0.036584,-4.156741,0.999999,0.000119,-0.000672,0.001721,0.000193,0.001736,-0.000688,85.420426,0.001749,
1580,1020,-0.742549,-2.541657,0.999997,0.000206,-0.000919,0.002752,-0.000058,0.002753,-0.000920,-89.098994,0.002803,
1560,850,-0.560467,-3.042316,0.999998,0.000179,-0.001610,0.003115,-0.000273,0.003131,-0.001626,-86.707533,0.003132,
1870,1360,-0.840770,-1.758898,0.999998,0.000163,-0.001244,0.002529,0.000036,0.002529,-0.001244,89.454885,0.002529,
1630,1160,-0.715153,-2.165895,0.999998,0.000176,-0.001303,0.002786,0.000317,0.002810,-0.001328,85.592212,0.002812,
1870,670,-0.821239,-3.344978,0.999998,0.000181,-0.001258,0.002517,-0.000037,0.002517,-0.001258,-89.433844,0.002517,
880,1940,0.074563,-0.169411,0.999999,0.000128,-0.000396,0.001900,-0.000319,0.001943,-0.000440,-82.243739,0.002038,
670,1670,0.505297,-0.907386,0.999998,0.000180,-0.001221,0.002525,0.000022,0.002525,-0.001221,89.664922,0.002526,
1260,520,-0.018923,-4.195977,0.999998,0.000158,-0.000631,0.001676,0.000076,0.001678,-0.000633,88.124865,0.001695,
900,550,0.317908,-3.902923,0.999997,0.000199,-0.001327,0.002535,-0.000222,0.002548,-0.001339,-86.716914,0.002549,
1570,140,-0.087458,-4.825242,0.999999,0.000128,-0.000461,0.001908,-0.000297,0.001945,-0.000497,-82.970304,0.002021,
1580,1340,-0.446531,-1.604060,0.999997,0.000183,-0.001664,0.002912,-0.000071,0.002913,-0.001665,-89.108413,0.002923,
630,1750,0.487827,-0.739122,0.999998,0.000175,-0.001175,0.002514,-0.000011,0.002514,-0.001175,-89.824407,0.002516,
610,200,0.393829,-4.547356,0.999997,0.000215,-0.001219,0.002504,0.000109,0.002508,-0.001222,88.330534,0.002508,
1260,510,-0.019041,-4.212923,0.999998,0.000156,-0.000630,0.001686,0.000089,0.001690,-0.000633,87.791997,0.001707,
1620,1720,-0.271938,-0.657767,0.999998,0.000168,-0.000966,0.002367,0.000029,0.002367,-0.000966,89.493607,0.002381,
720,1700,0.420414,-0.789900,0.999997,0.000188,-0.001231,0.002523,0.000005,0.002523,-0.001231,89.922036,0.002523,
1710,1810,-0.285539,-0.497076,0.999998,0.000154,-0.000955,0.002445,0.000245,0.002462,-0.000973,85.903083,0.002480,
1260,1600,-0.015198,-0.733387,0.999999,0.000145,-0.000619,0.001718,-0.000076,0.001721,-0.000622,-88.139542,0.001743,
1820,450,-0.587207,-3.945755,0.999997,0.000182,-0.001250,0.002537,0.000049,0.002538,-0.001251,89.264467,0.002538,
1170,420,0.036783,-4.366792,0.999997,0.000195,-0.000578,0.001794,-0.000063,0.001796,-0.000580,-88.488150,0.001833,
1320,120,-0.013788,-4.886854,0.999998,0.000143,-0.000153,0.001625,-0.000037,0.001625,-0.000153,-88.813813,0.001795,
830,620,0.457015,-3.653623,0.999997,0.000183,-0.001475,0.002725,-0.000083,0.002727,-0.001476,-88.868119,0.002730,
1680,1410,-0.544257,-1.492294,0.999997,0.000205,-0.001430,0.002714,0.000005,0.002714,-0.001430,89.927385,0.002715,
970,1930,0.051503,-0.176857,0.999999,0.000137,-0.000309,0.001772,-0.000196,0.001790,-0.000327,-84.672537,0.001907,
640,1010,0.990849,-2.560717,0.999998,0.000171,-0.001098,0.002278,0.000070,0.002279,-0.001099,88.820281,0.002279,
1300,1210,-0.114267,-1.302478,0.999998,0.000163,-0.001175,0.000835,-0.000385,0.000906,-0.001247,-79.522376,0.001289,
1860,1810,-0.457998,-0.614846,0.999998,0.000189,-0.001234,0.002507,0.000029,0.002507,-0.001234,89.555246,0.002507,
1270,680,-0.019375,-3.955713,0.999999,0.000141,-0.000592,0.001260,0.000321,0.001314,-0.000646,80.451292,0.001314,
790,1480,0.482598,-1.299081,0.999997,0.000203,-0.001384,0.002631,0.000043,0.002631,-0.001385,89.392731,0.002632,
1160,160,0.015257,-4.820682,0.999998,0.000146,-0.000179,0.001666,0.000050,0.001667,-0.000180,88.440802,0.001830,
1540,1200,-0.534547,-1.996253,0.999998,0.000176,-0.001672,0.003182,0.000235,0.003193,-0.001683,87.234160,0.003195,
630,1060,1.000387,-2.445752,0.999998,0.000243,-0.001069,0.002248,-0.000050,0.002248,-0.001070,-89.145087,0.002249,
1500,340,-0.163599,-4.435428,0.999998,0.000189,-0.000855,0.002154,0.000046,0.002154,-0.000856,89.129604,0.002169,
930,190,0.105575,-4.735110,0.999998,0.000166,-0.000468,0.001977,0.000206,0.001994,-0.000485,85.217458,0.002080,
1400,150,-0.036373,-4.830208,0.999998,0.000158,-0.000293,0.001713,-0.000108,0.001719,-0.000298,-86.915555,0.001837,
1650,1880,-0.163158,-0.303009,0.999998,0.000146,-0.000688,0.002178,0.000360,0.002222,-0.000733,82.950618,0.002265,
1750,1610,-0.496197,-1.024823,0.999998,0.000182,-0.001264,0.002537,-0.000050,0.002537,-0.001265,-89.241502,0.002537,
890,210,0.141434,-4.684023,0.999998,0.000152,-0.000666,0.002078,0.000215,0.002094,-0.000683,85.555911,0.002136,
1580,1680,-0.252701,-0.728638,0.999998,0.000175,-0.001035,0.002324,-0.000054,0.002325,-0.001036,-89.079793,0.002329,
800,1660,0.356515,-0.831098,0.999998,0.000171,-0.001156,0.002475,0.000020,0.002475,-0.001156,89.691855,0.002476,
1750,40,-0.036942,-4.998149,0.999999,0.000145,-0.000281,0.001999,-0.000697,0.002195,-0.000477,-74.284358,0.002309,
1240,1230,-0.011812,-1.182895,0.999998,0.000145,-0.001358,0.000630,-0.000056,0.000631,-0.001360,-88.397187,0.001361,
670,1650,0.519600,-0.959047,0.999997,0.000192,-0.001252,0.002546,0.000027,0.002546,-0.001252,89.597387,0.002546,
1860,1710,-0.554609,-0.863980,0.999998,0.000164,-0.001218,0.002472,-0.000059,0.002473,-0.001219,-89.080978,0.002473,
1670,1040,-0.830238,-2.488595,0.999998,0.000151,-0.001014,0.002551,0.000055,0.002552,-0.001015,89.119216,0.002570,
1630,1140,-0.733700,-2.221210,0.999998,0.000170,-0.001213,0.002754,0.000339,0.002782,-0.001242,85.156113,0.002788,
1390,1840,-0.054215,-0.322856,0.999998,0.000168,-0.000379,0.001801,0.000073,0.001804,-0.000381,88.080173,0.001901,
1080,920,0.390793,-3.220942,0.999997,0.000208,-0.000974,0.003042,-0.001852,0.003766,-0.001698,-68.659365,0.003772,
880,1960,0.057048,-0.130852,0.999999,0.000132,-0.000326,0.001821,-0.000308,0.001864,-0.000370,-81.996987,0.001974,
790,380,0.357040,-4.237092,0.999997,0.000187,-0.001151,0.002445,-0.000038,0.002445,-0.001151,-89.398998,0.002447,
1580,1000,-0.738048,-2.595872,0.999998,0.000192,-0.000951,0.002712,-0.000137,0.002717,-0.000956,-87.864904,0.002756,
1260,500,-0.018904,-4.230312,0.999998,0.000154,-0.000628,0.001701,0.000095,0.001705,-0.000631,87.663157,0.001724,
760,740,0.662678,-3.270495,0.999998,0.000189,-0.001423,0.002729,0.000190,0.002738,-0.001432,87.382956,0.002739,
1370,150,-0.028730,-4.834404,0.999999,0.000129,-0.000209,0.001677,-0.000105,0.001682,-0.000215,-86.825925,0.001831,
850,1820,0.191358,-0.425141,0.999997,0.000203,-0.000750,0.002238,-0.000203,0.002252,-0.000764,-86.130317,0.002291,
1220,510,0.007419,-4.216025,0.999998,0.000140,-0.000619,0.001697,-0.000057,0.001698,-0.000621,-88.595601,0.001718,
1610,280,-0.222001,-4.515627,0.999998,0.000181,-0.000895,0.002272,-0.000108,0.002276,-0.000898,-88.056937,0.002293,
1580,1320,-0.463996,-1.663296,0.999997,0.000200,-0.001670,0.002974,-0.000022,0.002974,-0.001670,-89.730386,0.002982,
1050,1060,0.532496,-2.321521,0.999997,0.000226,-0.002336,0.006037,0.000854,0.006123,-0.002422,84.237815,0.006168,
630,1710,0.522912,-0.839620,0.999998,0.000181,-0.001198,0.002523,-0.000007,0.002523,-0.001198,-89.886723,0.002525,
1250,1360,-0.009436,-1.094402,0.999999,0.000144,-0.000501,0.001122,-0.000201,0.001147,-0.000526,-83.048133,0.001148,
590,420,0.631583,-3.977201,0.999998,0.000163,-0.001643,0.002553,-0.000046,0.002554,-0.001643,-89.368786,0.002589,
1720,60,-0.057295,-4.961180,0.999999,0.000136,-0.000200,0.001966,-0.000632,0.002137,-0.000371,-74.858016,0.002284,
880,350,0.241963,-4.368604,0.999998,0.000149,-0.001017,0.002285,-0.000044,0.002285,-0.001018,-89.241547,0.002290,
970,1910,0.060804,-0.212169,0.999999,0.000143,-0.000383,0.001818,-0.000192,0.001835,-0.000400,-85.044785,0.001930,
600,1230,0.942096,-2.068923,0.999999,0.000116,-0.001141,0.002335,-0.000100,0.002338,-0.001143,-88.347819,0.002338,
1560,830,-0.535590,-3.104051,0.999998,0.000183,-0.001688,0.003125,-0.000211,0.003134,-0.001698,-87.492458,0.003138,
590,390,0.608929,-4.054200,0.999998,0.000167,-0.001681,0.002404,-0.000017,0.002404,-0.001681,-89.759455,0.002467,
1050,740,0.178429,-3.614126,0.999998,0.000154,-0.001651,0.002565,-0.000823,0.002720,-0.001806,-79.339975,0.002768,
1320,100,-0.011663,-4.915910,0.999999,0.000139,-0.000133,0.001553,-0.000056,0.001555,-0.000135,-88.104251,0.001723,
1430,1060,-0.571866,-2.355440,0.999997,0.000206,-0.001991,0.004970,-0.000506,0.005007,-0.002028,-85.864746,0.005037,
1130,560,0.069464,-4.097824,0.999999,0.000136,-0.000764,0.001807,-0.000315,0.001845,-0.000802,-83.117355,0.001851,
1210,730,0.009316,-3.907525,0.999999,0.000133,-0.000515,0.000960,-0.000274,0.001009,-0.000564,-79.815045,0.001011,
1840,1550,-0.652263,-1.249798,0.999998,0.000208,-0.001282,0.002566,-0.000029,0.002566,-0.001282,-89.572627,0.002566,
750,1160,0.819047,-2.186581,0.999998,0.000166,-0.001207,0.002595,-0.000300,0.002618,-0.001231,-85.513995,0.002620,
1500,320,-0.156029,-4.481519,0.999998,0.000196,-0.000813,0.002143,0.000016,0.002143,-0.000813,89.681719,0.002164,
1750,1590,-0.508714,-1.074564,0.999998,0.000171,-0.001244,0.002554,-0.000068,0.002556,-0.001245,-88.972091,0.002556,
1840,1830,-0.410500,-0.544181,0.999998,0.000169,-0.001210,0.002551,0.000101,0.002554,-0.001213,88.457346,0.002555,
1620,1700,-0.282739,-0.705751,0.999998,0.000169,-0.000979,0.002376,0.000004,0.002376,-0.000979,89.924147,0.002388,
720,1680,0.436205,-0.842287,0.999998,0.000187,-0.001234,0.002543,0.000024,0.002543,-0.001234,89.640572,0.002544,
930,150,0.080007,-4.812063,0.999999,0.000141,-0.000391,0.001880,0.000249,0.001907,-0.000419,83.807992,0.002005,
1310,580,-0.051374,-4.076225,0.999999,0.000115,-0.000722,0.001669,0.000334,0.001714,-0.000768,82.203522,0.001717,
670,1630,0.534170,-1.009280,0.999998,0.000192,-0.001259,0.002519,0.000028,0.002519,-0.001259,89.575656,0.002519,
650,1660,0.537482,-0.949147,0.999998,0.000192,-0.001229,0.002524,0.000022,0.002524,-0.001229,89.665310,0.002524,
1750,80,-0.100460,-4.913685,0.999999,0.000133,-0.000609,0.002133,-0.000661,0.002284,-0.000760,-77.140273,0.002327,
1680,1290,-0.651369,-1.822966,0.999997,0.000179,-0.001462,0.002783,0.000214,0.002794,-0.001473,87.120244,0.002795,
1130,520,0.067580,-4.168804,0.999999,0.000129,-0.000753,0.001781,-0.000245,0.001805,-0.000777,-84.520381,0.001810,
880,1980,0.042878,-0.097577,0.999998,0.000138,-0.000271,0.001788,-0.000348,0.001845,-0.000328,-80.673650,0.001969,
1160,600,0.045486,-4.048410,0.999999,0.000147,-0.000699,0.001632,-0.000358,0.001686,-0.000753,-81.459098,0.001689,
620,1010,1.012523,-2.558823,0.999998,0.000166,-0.001066,0.002237,0.000068,0.002239,-0.001067,88.814925,0.002239,
1540,1180,-0.562714,-2.061449,0.999998,0.000173,-0.001572,0.003163,0.000300,0.003182,-0.001591,86.384356,0.003182,
1280,650,-0.028467,-3.987959,0.999998,0.000156,-0.000656,0.001429,0.000346,0.001484,-0.000712,80.826194,0.001485,
1070,920,0.402102,-3.161224,0.999997,0.000217,-0.001190,0.003258,-0.001675,0.003818,-0.001751,-71.505514,0.003823,
1580,1660,-0.265344,-0.772775,0.999998,0.000158,-0.001048,0.002343,-0.000078,0.002345,-0.001049,-88.683980,0.002349,
1880,800,-0.943186,-3.018862,0.999999,0.000158,-0.001137,0.002314,-0.000069,0.002315,-0.001139,-88.850063,0.002315,
800,1420,0.512987,-1.452410,0.999997,0.000180,-0.001459,0.002703,0.000014,0.002703,-0.001459,89.808768,0.002706,
1610,260,-0.208343,-4.559521,0.999998,0.000157,-0.000832,0.002217,-0.000136,0.002223,-0.000838,-87.456041,0.002246,
1590,1180,-0.638023,-2.092301,0.999997,0.000194,-0.001433,0.002964,0.000353,0.002992,-0.001461,85.440368,0.002993,
780,470,0.428016,-4.005028,0.999998,0.000191,-0.001267,0.002549,-0.000069,0.002551,-0.001268,-88.959726,0.002551,
590,430,0.639556,-3.951819,0.999998,0.000164,-0.001525,0.002487,-0.000052,0.002488,-0.001526,-89.260504,0.002509,
1810,480,-0.596200,-3.876284,0.999997,0.000202,-0.001251,0.002543,0.000047,0.002544,-0.001252,89.296391,0.002544,
1710,250,-0.293231,-4.532370,0.999997,0.000194,-0.001004,0.002447,-0.000236,0.002463,-0.001020,-86.097288,0.002475,
1450,1040,-0.613897,-2.469735,0.999996,0.000241,-0.001496,0.004316,-0.000067,0.004317,-0.001497,-89.337987,0.004384,
980,160,0.066691,-4.803079,0.999999,0.000138,-0.000371,0.001858,0.000193,0.001874,-0.000388,85.083422,0.001979,
1580,1420,-0.387927,-1.377566,0.999997,0.000192,-0.001506,0.002739,-0.000190,0.002748,-0.001514,-87.438438,0.002753,
630,1690,0.539660,-0.889978,0.999998,0.000182,-0.001239,0.002522,0.000020,0.002522,-0.001240,89.689772,0.002522,
1820,410,-0.558171,-4.047433,0.999998,0.000176,-0.001243,0.002515,0.000029,0.002515,-0.001243,89.555438,0.002515,
1320,80,-0.007057,-4.948581,0.999999,0.000119,-0.000107,0.001564,-0.000075,0.001568,-0.000110,-87.439943,0.001750,
1200,410,0.018199,-4.388015,0.999998,0.000206,-0.000589,0.001795,-0.000051,0.001796,-0.000590,-88.774054,0.001831,
1210,710,0.009492,-3.928590,0.999999,0.000136,-0.000509,0.001070,-0.000250,0.001109,-0.000547,-81.214826,0.001109,
1560,390,-0.240507,-4.292709,0.999998,0.000150,-0.001013,0.002319,0.000077,0.002321,-0.001015,88.673537,0.002327,
690,640,0.670133,-3.492468,0.999998,0.000192,-0.001331,0.002616,0.000047,0.002617,-0.001332,89.317536,0.002617,
1820,1550,-0.626365,-1.234196,0.999998,0.000186,-0.001255,0.002569,-0.000042,0.002569,-0.001255,-89.363962,0.002570,
1540,1830,-0.133136,-0.378265,0.999998,0.000213,-0.000573,0.002022,0.000169,0.002033,-0.000584,86.288704,0.002093,
1580,1300,-0.483637,-1.723509,0.999997,0.000199,-0.001683,0.003008,0.000049,0.003009,-0.001683,89.401590,0.003016,
1620,1680,-0.295971,-0.752672,0.999998,0.000201,-0.001035,0.002388,-0.000021,0.002388,-0.001035,-89.647263,0.002395,
720,1660,0.450932,-0.892739,0.999998,0.000172,-0.001214,0.002532,0.000036,0.002532,-0.001215,89.443555,0.002533,
670,1610,0.548894,-1.058778,0.999997,0.000195,-0.001259,0.002523,0.000038,0.002524,-0.001259,89.425943,0.002524,
930,130,0.069690,-4.848199,0.999999,0.000148,-0.000322,0.001818,0.000255,0.001848,-0.000352,83.287638,0.001962,
1750,1570,-0.522576,-1.127242,0.999998,0.000166,-0.001265,0.002570,-0.000063,0.002571,-0.001266,-89.064200,0.002571,
1130,500,0.067876,-4.204799,0.999999,0.000135,-0.000738,0.001828,-0.000213,0.001845,-0.000755,-85.277612,0.001855,
1160,580,0.046016,-4.081468,0.999999,0.000140,-0.000716,0.001672,-0.000348,0.001721,-0.000765,-81.878986,0.001725,
860,1090,0.742827,-2.351878,0.999998,0.000182,-0.001050,0.002742,-0.000267,0.002761,-0.001068,-85.989945,0.002784,
730,1160,0.843117,-2.192040,0.999998,0.000153,-0.001183,0.002559,-0.000275,0.002579,-0.001203,-85.825664,0.002581,
1750,60,-0.067347,-4.956863,0.999998,0.000154,-0.000436,0.002127,-0.000735,0.002322,-0.000632,-75.083303,0.002401,
1310,560,-0.051757,-4.109647,0.999999,0.000118,-0.000737,0.001735,0.000312,0.001774,-0.000776,82.911225,0.001779,
1580,1640,-0.275268,-0.823065,0.999998,0.000157,-0.001074,0.002380,-0.000105,0.002383,-0.001077,-88.254771,0.002387,
1140,530,0.059816,-4.155939,0.999998,0.000172,-0.000762,0.001775,-0.000246,0.001799,-0.000786,-84.517624,0.001804,
1500,300,-0.146504,-4.521588,0.999998,0.000202,-0.000771,0.002056,-0.000021,0.002056,-0.000772,-89.573414,0.002077,
630,1660,0.561355,-0.966035,0.999998,0.000167,-0.001265,0.002513,0.000026,0.002513,-0.001265,89.607291,0.002513,
1690,1240,-0.716684,-1.967256,0.999998,0.000169,-0.001380,0.002715,0.000281,0.002734,-0.001399,86.093665,0.002735,
890,170,0.110996,-4.765229,0.999999,0.000147,-0.000530,0.001990,0.000257,0.002016,-0.000556,84.240942,0.002083,
1890,800,-0.953949,-3.012060,0.999999,0.000151,-0.001109,0.002297,-0.000056,0.002298,-0.001110,-89.053136,0.002299,
600,230,0.443690,-4.458325,0.999998,0.000222,-0.001214,0.002518,0.000049,0.002518,-0.001215,89.250742,0.002519,
1790,480,-0.570926,-3.893609,0.999998,0.000179,-0.001291,0.002553,0.000058,0.002554,-0.001292,89.138382,0.002554,
780,450,0.414687,-4.056162,0.999998,0.000187,-0.001245,0.002500,-0.000076,0.002501,-0.001246,-88.841053,0.002501,
970,350,0.161503,-4.419278,0.999998,0.000168,-0.000835,0.002106,-0.000091,0.002108,-0.000838,-88.237439,0.002123,
1630,1220,-0.651228,-1.997356,0.999998,0.000166,-0.001482,0.002874,0.000312,0.002896,-0.001504,85.917895,0.002897,
1210,100,0.002039,-4.917254,0.999999,0.000164,-0.000112,0.001549,0.000007,0.001549,-0.000112,89.750558,0.001728,
630,1670,0.553262,-0.942037,0.999998,0.000183,-0.001260,0.002516,0.000030,0.002516,-0.001260,89.544126,0.002516,
1760,370,-0.453831,-4.196986,0.999997,0.000200,-0.001228,0.002521,0.000025,0.002521,-0.001228,89.615105,0.002522,
1800,410,-0.532401,-4.063502,0.999997,0.000198,-0.001258,0.002511,0.000024,0.002512,-0.001258,89.628118,0.002512,
1710,1270,-0.714787,-1.895815,0.999998,0.000184,-0.001403,0.002697,0.000233,0.002711,-0.001416,86.756306,0.002711,
1080,410,0.093423,-4.353532,0.999998,0.000163,-0.000712,0.001942,-0.000145,0.001950,-0.000720,-86.884331,0.001972,
800,1380,0.543995,-1.561065,0.999997,0.000188,-0.001509,0.002790,-0.000033,0.002790,-0.001509,-89.561447,0.002793,
1320,60,-0.005208,-4.978738,0.999999,0.000110,-0.000087,0.001516,-0.000062,0.001518,-0.000089,-87.773735,0.001704,
1370,130,-0.025813,-4.865967,0.999999,0.000142,-0.000159,0.001611,-0.000092,0.001616,-0.000163,-87.031956,0.001780,
770,380,0.379061,-4.224111,0.999998,0.000170,-0.001160,0.002441,-0.000016,0.002441,-0.001160,-89.739704,0.002442,
1560,470,-0.278600,-4.103162,0.999999,0.000153,-0.001097,0.002384,0.000166,0.002391,-0.001105,87.277679,0.002394,
1840,70,-0.136723,-4.903108,0.999998,0.000164,-0.001123,0.002690,-0.000654,0.002799,-0.001232,-80.534364,0.002806,
1580,1280,-0.504145,-1.783631,0.999997,0.000198,-0.001686,0.003007,0.000107,0.003009,-0.001689,88.698766,0.003017,
1570,1640,-0.263778,-0.814172,0.999998,0.000161,-0.001087,0.002382,-0.000122,0.002386,-0.001091,-87.995696,0.002389,
570,1840,0.466622,-0.581414,0.999831,0.001446,-0.002250,0.003152,-0.000213,0.003161,-0.002259,-87.741706,0.003257,
1520,1830,-0.120843,-0.371688,0.999998,0.000145,-0.000593,0.001989,0.000122,0.001995,-0.000599,87.299963,0.002048,
720,1640,0.465206,-0.942629,0.999998,0.000168,-0.001196,0.002537,0.000041,0.002537,-0.001196,89.367101,0.002539,
1210,690,0.011027,-3.949963,0.999999,0.000131,-0.000531,0.001149,-0.000205,0.001174,-0.000556,-83.158006,0.001174,
690,620,0.654098,-3.545044,0.999997,0.000201,-0.001333,0.002602,0.000025,0.002602,-0.001333,89.635217,0.002602,
1120,1230,0.131392,-1.426597,0.999997,0.000222,-0.001373,0.001802,0.001102,0.002147,-0.001717,72.619005,0.002272,
1750,1550,-0.535927,-1.177353,0.999998,0.000167,-0.001296,0.002562,-0.000059,0.002563,-0.001297,-89.126469,0.002563,
1620,1660,-0.306144,-0.799539,0.999998,0.000194,-0.001107,0.002389,-0.000041,0.002389,-0.001108,-89.326927,0.002391,
1280,630,-0.028693,-4.017771,0.999999,0.000138,-0.000663,0.001472,0.000297,0.001513,-0.000704,82.224106,0.001514,
670,1590,0.564618,-1.110651,0.999998,0.000186,-0.001283,0.002531,0.000046,0.002532,-0.001284,89.304353,0.002532,
1290,660,-0.034896,-3.965304,0.999999,0.000170,-0.000688,0.001424,0.000445,0.001514,-0.000778,78.576654,0.001514,
1770,1900,-0.236049,-0.308713,0.999998,0.000145,-0.001013,0.002507,0.000453,0.002564,-0.001070,82.778833,0.002576,
760,780,0.699633,-3.162483,0.999998,0.000180,-0.001384,0.002729,0.000249,0.002744,-0.001399,86.548295,0.002745,
1740,550,-0.556454,-3.752218,0.999998,0.000194,-0.001352,0.002594,0.000038,0.002594,-0.001353,89.452682,0.002595,
930,110,0.053622,-4.883777,0.999999,0.000135,-0.000238,0.001813,0.000277,0.001850,-0.000275,82.439357,0.001997,
590,230,0.455334,-4.447047,0.999997,0.000244,-0.001260,0.002424,0.000091,0.002426,-0.001262,88.586303,0.002427,
1250,1340,-0.008002,-1.115584,0.999999,0.000135,-0.000479,0.001009,-0.000222,0.001042,-0.000511,-81.687234,0.001042,
970,1370,0.280924,-1.413709,0.999998,0.000204,-0.001630,0.002760,0.000422,0.002800,-0.001671,84.561279,0.002818,
1740,1170,-0.843429,-2.168778,0.999998,0.000168,-0.001214,0.002571,0.000276,0.002591,-0.001234,85.856505,0.002592,
1830,60,-0.101649,-4.940977,0.999998,0.000174,-0.000942,0.002491,-0.000725,0.002638,-0.001088,-78.551922,0.002651,
590,990,1.040449,-2.600956,0.999998,0.000149,-0.001005,0.002118,0.000017,0.002118,-0.001005,89.693002,0.002119,
1130,540,0.068871,-4.133246,0.999999,0.000139,-0.000757,0.001792,-0.000261,0.001818,-0.000784,-84.211501,0.001824,
1140,490,0.059086,-4.226894,0.999999,0.000132,-0.000728,0.001838,-0.000219,0.001857,-0.000747,-85.165341,0.001869,
1710,1230,-0.752310,-2.002537,0.999998,0.000161,-0.001328,0.002676,0.000289,0.002697,-0.001349,85.894468,0.002697,
1500,280,-0.135862,-4.562000,0.999998,0.000156,-0.000733,0.002048,-0.000031,0.002048,-0.000733,-89.364952,0.002076,
720,1650,0.457519,-0.917549,0.999998,0.000170,-0.001207,0.002532,0.000035,0.002533,-0.001207,89.468691,0.002534,
1190,100,0.005275,-4.918095,0.999999,0.000140,-0.000132,0.001570,0.000038,0.001571,-0.000132,88.728977,0.001742,
590,550,0.727249,-3.648408,0.999998,0.000163,-0.001369,0.002617,-0.000040,0.002617,-0.001369,-89.430455,0.002618,
960,1090,0.637399,-2.319308,0.999998,0.000206,-0.001156,0.003230,-0.000244,0.003244,-0.001170,-86.831538,0.003286,
630,1650,0.569308,-0.991868,0.999997,0.000190,-0.001262,0.002512,0.000029,0.002513,-0.001262,89.555824,0.002513,
800,1360,0.560067,-1.617974,0.999997,0.000203,-0.001485,0.002802,-0.000073,0.002803,-0.001487,-89.024901,0.002805,
620,630,0.752386,-3.467607,0.999998,0.000172,-0.001261,0.002546,0.000019,0.002546,-0.001262,89.713488,0.002546,
1580,1620,-0.284260,-0.868674,0.999998,0.000165,-0.001083,0.002370,-0.000117,0.002374,-0.001087,-88.062591,0.002377,
1060,410,0.108527,-4.342435,0.999998,0.000164,-0.000801,0.002002,-0.000183,0.002014,-0.000813,-86.273184,0.002027,
1370,110,-0.021020,-4.898288,0.999999,0.000145,-0.000141,0.001631,-0.000106,0.001638,-0.000147,-86.602441,0.001812,
1410,1090,-0.501090,-2.148175,0.999997,0.000200,-0.002203,0.004745,-0.001614,0.005101,-0.002559,-77.540818,0.005101,
1060,1510,0.127448,-0.971252,0.999998,0.000148,-0.000941,0.002062,0.000378,0.002109,-0.000988,82.932205,0.002110,
680,1010,0.948844,-2.562331,0.999998,0.000158,-0.001086,0.002379,0.000073,0.002380,-0.001088,88.799213,0.002383,
1580,1440,-0.376811,-1.322230,0.999997,0.000177,-0.001478,0.002710,-0.000199,0.002719,-0.001487,-87.283800,0.002723,
1120,1210,0.160180,-1.463768,0.999998,0.000214,-0.001197,0.001717,0.001022,0.002040,-0.001520,72.474241,0.002120,
1140,570,0.061350,-4.085066,0.999998,0.000172,-0.000765,0.001773,-0.000322,0.001814,-0.000806,-82.873327,0.001817,
1040,1050,0.561021,-2.398886,0.999996,0.000306,-0.002246,0.005541,0.000464,0.005568,-0.002273,86.600219,0.005599,
590,1130,1.018521,-2.300425,0.999998,0.000168,-0.001052,0.002229,-0.000097,0.002232,-0.001055,-88.316505,0.002233,
1250,500,-0.012228,-4.232193,0.999999,0.000149,-0.000658,0.001711,0.000088,0.001714,-0.000661,87.869882,0.001729,
1210,670,0.011401,-3.974691,0.999999,0.000118,-0.000549,0.001244,-0.000179,0.001262,-0.000567,-84.343305,0.001264,
1730,680,-0.645745,-3.416425,0.999997,0.000179,-0.001406,0.002695,-0.000097,0.002698,-0.001408,-88.651343,0.002699,
890,150,0.097392,-4.805145,0.999999,0.000153,-0.000466,0.001972,0.000288,0.002005,-0.000500,83.345569,0.002088,
1160,560,0.045389,-4.114597,0.999999,0.000133,-0.000730,0.001700,-0.000288,0.001734,-0.000764,-83.322394,0.001738,
1590,650,-0.412615,-3.612038,0.999997,0.000200,-0.001536,0.002770,0.000149,0.002775,-0.001541,88.017172,0.002781,
970,1330,0.305217,-1.526740,0.999997,0.000198,-0.001742,0.002910,0.000411,0.002945,-0.001778,84.994643,0.002966,
840,1940,0.088981,-0.176030,0.999999,0.000138,-0.000367,0.001974,-0.000423,0.002048,-0.000441,-80.065330,0.002156,
1700,590,-0.530037,-3.678395,0.999997,0.000211,-0.001388,0.002657,0.000035,0.002657,-0.001389,89.500732,0.002658,
620,390,0.571253,-4.078136,0.999998,0.000175,-0.001263,0.002509,-0.000033,0.002510,-0.001263,-89.498718,0.002510,
670,1570,0.578928,-1.161148,0.999998,0.000191,-0.001295,0.002542,0.000053,0.002542,-0.001296,89.215549,0.002543,
1620,1640,-0.318856,-0.848482,0.999998,0.000177,-0.001155,0.002432,-0.000076,0.002434,-0.001156,-88.782601,0.002435,
760,1220,0.753651,-2.024987,0.999998,0.000157,-0.001341,0.002684,-0.000299,0.002706,-0.001363,-85.778054,0.002706,
1500,260,-0.127106,-4.604494,0.999998,0.000155,-0.000703,0.002026,-0.000053,0.002027,-0.000704,-88.882017,0.002059,
720,880,0.843230,-2.883411,0.999998,0.000165,-0.001201,0.002524,0.000263,0.002542,-0.001219,85.974691,0.002543,
1250,1220,-0.029026,-1.199030,0.999998,0.000167,-0.001604,0.000720,-0.000045,0.000721,-0.001605,-88.882569,0.001608,
1830,100,-0.193629,-4.835063,0.999998,0.000176,-0.001063,0.002613,-0.000557,0.002696,-0.001145,-81.576380,0.002706,
1310,1990,-0.004286,-0.067778,0.999999,0.000149,-0.000078,0.001532,0.000049,0.001533,-0.000080,88.241392,0.001726,
920,1710,0.201362,-0.636180,0.999998,0.000209,-0.000829,0.002236,-0.000013,0.002236,-0.000829,-89.748572,0.002261,
710,480,0.523038,-3.924477,0.999998,0.000157,-0.001276,0.002562,-0.000054,0.002563,-0.001276,-89.188101,0.002563,
1170,100,0.007347,-4.917221,0.999999,0.000143,-0.000112,0.001584,0.000041,0.001585,-0.000113,88.616552,0.001769,
1120,490,0.073927,-4.218920,0.999999,0.000138,-0.000723,0.001887,-0.000202,0.001902,-0.000738,-85.591520,0.001918,
610,60,0.127180,-4.920011,0.999998,0.000151,-0.001035,0.002659,0.000763,0.002811,-0.001186,78.773286,0.002822,
1060,300,0.082045,-4.557970,0.999998,0.000183,-0.000602,0.001906,-0.000034,0.001906,-0.000603,-89.222598,0.001949,
1500,190,-0.090061,-4.742837,0.999999,0.000129,-0.000523,0.001917,-0.000153,0.001926,-0.000532,-86.419093,0.001990,
1760,1170,-0.867231,-2.173083,0.999999,0.000139,-0.001192,0.002503,0.000251,0.002520,-0.001209,86.132637,0.002521,
1740,2000,-0.055046,-0.070502,0.999999,0.000143,-0.000315,0.002063,0.000727,0.002267,-0.000520,74.289300,0.002376,
1220,810,0.010533,-3.862224,0.999999,0.000144,-0.000968,0.000554,-0.000146,0.000568,-0.000982,-84.551143,0.000986,
1580,1260,-0.528092,-1.844881,0.999998,0.000192,-0.001677,0.003057,0.000151,0.003062,-0.001682,88.171253,0.003067,
1100,1680,0.076436,-0.613230,0.999998,0.000154,-0.000613,0.001902,0.000088,0.001905,-0.000616,87.999562,0.001944,
900,990,0.719190,-2.624377,0.999998,0.000200,-0.000973,0.002824,0.000193,0.002834,-0.000983,87.089955,0.002878,
630,1630,0.585553,-1.041306,0.999998,0.000178,-0.001248,0.002513,0.000034,0.002513,-0.001248,89.487917,0.002513,
600,630,0.776435,-3.451319,0.999997,0.000213,-0.001256,0.002552,0.000014,0.002552,-0.001256,89.782098,0.002552,
1750,1530,-0.549602,-1.229577,0.999998,0.000173,-0.001319,0.002582,-0.000042,0.002582,-0.001319,-89.381979,0.002583,
1580,1460,-0.363620,-1.268981,0.999998,0.000185,-0.001449,0.002639,-0.000188,0.002648,-0.001458,-87.372901,0.002653,
1570,60,-0.028132,-4.972388,0.999999,0.000127,-0.000186,0.001730,-0.000331,0.001786,-0.000242,-80.468330,0.001938,
1640,1890,-0.146214,-0.280983,0.999998,0.000165,-0.000584,0.002111,0.000405,0.002171,-0.000643,81.632224,0.002230,
1040,1040,0.564084,-2.455055,0.999995,0.000285,-0.002327,0.005540,0.000251,0.005548,-0.002335,88.176551,0.005571,
1580,1600,-0.294304,-0.916030,0.999998,0.000171,-0.001119,0.002392,-0.000144,0.002398,-0.001125,-87.647539,0.002400,
1120,650,0.076769,-3.926312,0.999998,0.000141,-0.000918,0.001790,-0.000628,0.001929,-0.001057,-77.559601,0.001932,
1210,650,0.012351,-3.999276,0.999999,0.000127,-0.000561,0.001297,-0.000162,0.001311,-0.000575,-85.049448,0.001314,
570,1350,0.880555,-1.801882,0.999985,0.000507,-0.001496,0.002421,0.000034,0.002422,-0.001496,89.502242,0.002444,
1010,1840,0.081192,-0.335265,0.999998,0.000163,-0.000450,0.001859,-0.000110,0.001864,-0.000455,-87.288585,0.001943,
880,550,0.344171,-3.885553,0.999998,0.000159,-0.001314,0.002552,-0.000190,0.002561,-0.001323,-87.193145,0.002561,
1160,540,0.045532,-4.148020,0.999999,0.000144,-0.000710,0.001729,-0.000251,0.001755,-0.000736,-84.180517,0.001762,
1040,1060,0.556291,-2.343673,0.999996,0.000257,-0.002182,0.005378,0.000641,0.005432,-0.002236,85.185354,0.005460,
840,1920,0.108884,-0.214951,0.999999,0.000144,-0.000427,0.002006,-0.000391,0.002067,-0.000488,-81.083197,0.002161,
1500,960,-0.627246,-2.740187,0.999998,0.000183,-0.001180,0.003269,-0.000272,0.003285,-0.001197,-86.517094,0.003325,
1380,490,-0.102552,-4.197145,0.999998,0.000147,-0.000861,0.001963,0.000320,0.001999,-0.000897,83.614323,0.002003,
1590,630,-0.400241,-3.666364,0.999998,0.000183,-0.001487,0.002736,0.000174,0.002743,-0.001494,87.646045,0.002747,
600,390,0.596178,-4.061012,0.999998,0.000154,-0.001230,0.002471,-0.000033,0.002471,-0.001231,-89.482301,0.002471,
760,1200,0.771771,-2.080964,0.999998,0.000159,-0.001292,0.002656,-0.000299,0.002678,-0.001315,-85.689619,0.002678,
1650,360,-0.316522,-4.303587,0.999997,0.000173,-0.001137,0.002403,-0.000010,0.002403,-0.001137,-89.836643,0.002404,
670,1550,0.592277,-1.212621,0.999998,0.000178,-0.001282,0.002589,0.000039,0.002590,-0.001283,89.416129,0.002590,
1410,1640,-0.116121,-0.711719,0.999998,0.000155,-0.000795,0.002024,-0.000181,0.002035,-0.000807,-86.341566,0.002050,
890,130,0.080780,-4.844324,0.999999,0.000142,-0.000415,0.001905,0.000303,0.001944,-0.000454,82.670410,0.002034,
1500,240,-0.116816,-4.644429,0.999998,0.000146,-0.000653,0.002011,-0.000107,0.002015,-0.000658,-87.703572,0.002055,
970,790,0.363743,-3.313332,0.999998,0.000179,-0.001922,0.003179,-0.000233,0.003190,-0.001932,-87.389315,0.003214,
1370,90,-0.014612,-4.930374,0.999999,0.000142,-0.000100,0.001590,-0.000103,0.001596,-0.000106,-86.537000,0.001785,
970,1960,0.036208,-0.125153,0.999999,0.000130,-0.000217,0.001730,-0.000207,0.001752,-0.000239,-84.013075,0.001900,
1060,280,0.078556,-4.596905,0.999998,0.000180,-0.000553,0.001872,-0.000001,0.001872,-0.000553,-89.973977,0.001923,
1620,1620,-0.329909,-0.898021,0.999998,0.000175,-0.001200,0.002455,-0.000110,0.002458,-0.001203,-88.277981,0.002459,
1230,660,0.000143,-3.992902,0.999999,0.000096,-0.000552,0.001259,-0.000006,0.001259,-0.000552,-89.809734,0.001262,
1310,1970,-0.008156,-0.098955,0.999999,0.000148,-0.000128,0.001548,0.000049,0.001550,-0.000129,88.314926,0.001720,
800,1030,0.823789,-2.514047,0.999998,0.000171,-0.000988,0.002524,-0.000009,0.002524,-0.000988,-89.849557,0.002544,
1270,1680,-0.020802,-0.589850,0.999998,0.000186,-0.000551,0.001785,-0.000057,0.001786,-0.000552,-88.605833,0.001829,
900,1710,0.219089,-0.646367,0.999999,0.000171,-0.000934,0.002271,0.000024,0.002271,-0.000935,89.567089,0.002283,
1480,190,-0.081135,-4.748265,0.999999,0.000167,-0.000388,0.001892,-0.000157,0.001903,-0.000399,-86.067895,0.002007,
800,1340,0.579135,-1.673773,0.999997,0.000225,-0.001496,0.002787,-0.000109,0.002790,-0.001499,-88.539374,0.002793,
580,230,0.469145,-4.435913,0.999997,0.000229,-0.001695,0.002014,0.000429,0.002063,-0.001744,83.492619,0.002221,
1830,80,-0.147250,-4.887578,0.999998,0.000160,-0.001009,0.002661,-0.000685,0.002785,-0.001133,-79.767556,0.002801,
620,290,0.485802,-4.329759,0.999998,0.000194,-0.001230,0.002494,-0.000004,0.002494,-0.001230,-89.945692,0.002494,
890,190,0.127421,-4.725522,0.999998,0.000166,-0.000613,0.002047,0.000239,0.002068,-0.000635,84.912446,0.002119,
1130,600,0.068072,-4.026436,0.999999,0.000138,-0.000846,0.001757,-0.000426,0.001824,-0.000914,-80.941172,0.001824,
1580,1480,-0.353299,-1.217509,0.999998,0.000179,-0.001400,0.002599,-0.000208,0.002610,-0.001411,-87.032521,0.002613,
1840,1150,-0.971148,-2.243268,0.999998,0.000165,-0.001101,0.002277,0.000122,0.002282,-0.001106,87.937261,0.002282,
1580,1240,-0.549838,-1.906307,0.999998,0.000197,-0.001646,0.003034,0.000196,0.003042,-0.001654,87.603946,0.003046,
1030,740,0.211270,-3.573283,0.999998,0.000163,-0.001681,0.002717,-0.000716,0.002831,-0.001794,-80.984268,0.002865,
1150,100,0.009453,-4.917559,0.999999,0.000157,-0.000115,0.001598,0.000048,0.001599,-0.000117,88.382497,0.001783,
580,570,0.755082,-3.589404,0.999998,0.000192,-0.001872,0.002465,-0.000192,0.002473,-0.001881,-87.472283,0.002583,
840,50,0.029371,-4.986608,0.999998,0.000156,-0.000089,0.001785,0.000422,0.001875,-0.000179,77.867368,0.002070,
1150,680,0.050311,-3.915734,0.999998,0.000167,-0.000773,0.001530,-0.000618,0.001686,-0.000928,-75.899535,0.001688,
930,90,0.043768,-4.919434,0.999999,0.000132,-0.000161,0.001753,0.000266,0.001790,-0.000197,82.244619,0.001963,
1230,500,0.001135,-4.234352,0.999999,0.000144,-0.000627,0.001732,0.000005,0.001732,-0.000627,89.888864,0.001754,
1100,1310,0.104257,-1.325389,0.999998,0.000188,-0.001275,0.002058,0.000981,0.002325,-0.001542,74.767787,0.002366,
1840,50,-0.090440,-4.955162,0.999998,0.000174,-0.000981,0.002460,-0.000765,0.002623,-0.001144,-78.011088,0.002630,
720,1620,0.478284,-0.993731,0.999998,0.000164,-0.001234,0.002518,0.000044,0.002519,-0.001235,89.332168,0.002519,
960,1070,0.655168,-2.383104,0.999998,0.000210,-0.001045,0.003235,-0.000177,0.003242,-0.001052,-87.633009,0.003308,
1160,520,0.044923,-4.185116,0.999998,0.000161,-0.000688,0.001749,-0.000238,0.001772,-0.000711,-84.464778,0.001784,
860,550,0.371434,-3.866411,0.999997,0.000196,-0.001350,0.002589,-0.000177,0.002597,-0.001357,-87.431410,0.002598,
1620,1890,-0.136225,-0.276387,0.999999,0.000157,-0.000548,0.002095,0.000347,0.002140,-0.000593,82.647946,0.002210,
1040,1030,0.566727,-2.507187,0.999996,0.000234,-0.002339,0.005538,0.000031,0.005538,-0.002339,89.777405,0.005560,
1450,1060,-0.602731,-2.379528,0.999997,0.000187,-0.001481,0.004237,-0.000131,0.004240,-0.001484,-88.688310,0.004303,
1040,590,0.155819,-3.952062,0.999998,0.000152,-0.001126,0.002194,-0.000471,0.002260,-0.001191,-82.079445,0.002261,
620,1350,0.815464,-1.763658,0.999998,0.000176,-0.001216,0.002522,-0.000081,0.002523,-0.001218,-88.759010,0.002524,
1730,2010,-0.038092,-0.049809,0.999998,0.000150,-0.000153,0.001995,0.000742,0.002226,-0.000384,72.679254,0.002380,
1500,940,-0.599948,-2.804312,0.999998,0.000183,-0.001343,0.003306,-0.000283,0.003323,-0.001360,-86.532133,0.003342,
760,1180,0.788656,-2.131947,0.999998,0.000156,-0.001262,0.002616,-0.000308,0.002640,-0.001286,-85.488583,0.002640,
1850,1840,-0.409512,-0.529023,0.999998,0.000180,-0.001230,0.002554,0.000104,0.002557,-0.001232,88.420015,0.002558,
630,1610,0.599956,-1.090472,0.999998,0.000168,-0.001244,0.002514,0.000032,0.002514,-0.001244,89.509564,0.002514,
1580,1580,-0.302532,-0.963910,0.999998,0.000181,-0.001179,0.002432,-0.000175,0.002441,-0.001188,-87.238605,0.002441,
840,1900,0.126850,-0.255524,0.999999,0.000142,-0.000490,0.002077,-0.000382,0.002132,-0.000545,-81.710868,0.002216,
1210,630,0.012165,-4.025829,0.999999,0.000131,-0.000583,0.001418,-0.000159,0.001430,-0.000595,-85.496158,0.001437,
1870,410,-0.619335,-4.005132,0.999998,0.000175,-0.001242,0.002507,0.000039,0.002507,-0.001242,89.409560,0.002508,
1390,1640,-0.100633,-0.700855,0.999999,0.000128,-0.000768,0.001982,-0.000165,0.001992,-0.000778,-86.577573,0.002007,
680,1690,0.477481,-0.848877,0.999998,0.000178,-0.001198,0.002522,0.000001,0.002522,-0.001198,89.990037,0.002523,
1670,340,-0.325252,-4.338400,0.999998,0.000178,-0.001129,0.002431,-0.000013,0.002431,-0.001129,-89.797137,0.002433,
890,110,0.066460,-4.881584,0.999999,0.000148,-0.000362,0.001884,0.000317,0.001928,-0.000406,82.116549,0.002033,
600,1350,0.841017,-1.778364,0.999999,0.000155,-0.001246,0.002506,-0.000072,0.002507,-0.001248,-88.904938,0.002507,
1590,610,-0.387739,-3.721020,0.999997,0.000189,-0.001436,0.002684,0.000182,0.002692,-0.001444,87.476274,0.002695,
1020,810,0.289249,-3.346191,0.999998,0.000185,-0.001933,0.003112,-0.000538,0.003169,-0.001989,-83.979299,0.003203,
1380,890,-0.315841,-3.315189,0.999998,0.000171,-0.001212,0.002392,0.001299,0.002811,-0.001631,72.112604,0.002823,
1620,1600,-0.341661,-0.948011,0.999998,0.000170,-0.001209,0.002467,-0.000114,0.002471,-0.001213,-88.227081,0.002471,
670,1530,0.607030,-1.264876,0.999997,0.000187,-0.001286,0.002590,0.000027,0.002590,-0.001286,89.606982,0.002590,
1030,720,0.201632,-3.627191,0.999998,0.000169,-0.001617,0.002656,-0.000698,0.002767,-0.001728,-80.952131,0.002795,
1380,1830,-0.053815,-0.339172,0.999998,0.000179,-0.000379,0.001788,0.000061,0.001789,-0.000380,88.388716,0.001885,
870,100,0.064403,-4.898350,0.999999,0.000141,-0.000359,0.001873,0.000356,0.001928,-0.000414,81.151772,0.002030,
1580,1920,-0.087559,-0.206125,0.999999,0.000153,-0.000464,0.001927,0.000298,0.001963,-0.000501,83.007475,0.002040,
1120,150,0.024112,-4.833347,0.999999,0.000119,-0.000265,0.001655,0.000065,0.001658,-0.000267,88.061844,0.001780,
1060,260,0.072274,-4.633428,0.999998,0.000152,-0.000493,0.001851,0.000020,0.001851,-0.000493,89.512305,0.001917,
590,190,0.404486,-4.547268,0.999997,0.000209,-0.001121,0.002528,0.000082,0.002530,-0.001123,88.707338,0.002536,
1810,460,-0.581810,-3.928724,0.999998,0.000162,-0.001257,0.002565,0.000059,0.002566,-0.001258,89.115785,0.002566,
730,940,0.870235,-2.736602,0.999998,0.000143,-0.001127,0.002479,0.000207,0.002490,-0.001139,86.722284,0.002494,
1580,1220,-0.574208,-1.967479,0.999998,0.000194,-0.001607,0.003026,0.000266,0.003041,-0.001623,86.729747,0.003043,
970,770,0.343064,-3.376933,0.999998,0.000175,-0.001869,0.003091,-0.000293,0.003109,-0.001886,-86.626736,0.003132,
1260,650,-0.016218,-3.996570,0.999999,0.000136,-0.000571,0.001349,0.000200,0.001370,-0.000591,84.111406,0.001374,
1830,50,-0.078228,-4.964279,0.999998,0.000176,-0.000893,0.002356,-0.000755,0.002523,-0.001060,-77.534282,0.002534,
1290,520,-0.036606,-4.190917,0.999999,0.000130,-0.000666,0.001716,0.000157,0.001726,-0.000677,86.249213,0.001740,
1160,500,0.045683,-4.220458,0.999998,0.000150,-0.000673,0.001763,-0.000209,0.001781,-0.000691,-85.123988,0.001796,
720,1580,0.506940,-1.097062,0.999998,0.000186,-0.001262,0.002570,0.000053,0.002571,-0.001263,89.203252,0.002571,
760,1160,0.806674,-2.184740,0.999998,0.000163,-0.001222,0.002615,-0.000310,0.002640,-0.001247,-85.415109,0.002641,
710,460,0.510560,-3.974155,0.999997,0.000203,-0.001270,0.002521,-0.000050,0.002522,-0.001270,-89.238869,0.002522,
1040,570,0.153127,-3.995392,0.999998,0.000141,-0.001110,0.002168,-0.000440,0.002226,-0.001168,-82.492483,0.002227,
610,40,0.080969,-4.966501,0.999997,0.000185,-0.000680,0.002528,0.001000,0.002815,-0.000966,74.026941,0.002860,
1700,190,-0.217972,-4.681055,0.999997,0.000176,-0.000805,0.002328,-0.000372,0.002371,-0.000848,-83.316848,0.002403,
1830,1840,-0.385513,-0.507472,0.999997,0.000205,-0.001184,0.002580,0.000144,0.002585,-0.001190,87.810550,0.002588,
840,1760,0.245335,-0.566894,0.999998,0.000182,-0.000888,0.002350,-0.000105,0.002353,-0.000892,-88.144279,0.002376,
1040,1020,0.567318,-2.559509,0.999996,0.000272,-0.002298,0.005589,-0.000213,0.005595,-0.002304,-88.452340,0.005624,
740,1690,0.404153,-0.801236,0.999998,0.000197,-0.001195,0.002511,-0.000018,0.002511,-0.001195,-89.714766,0.002512,
1210,610,0.013578,-4.054345,0.999999,0.000130,-0.000609,0.001487,-0.000145,0.001497,-0.000619,-86.075166,0.001505,
840,1880,0.147936,-0.297603,0.999998,0.000150,-0.000559,0.002115,-0.000338,0.002157,-0.000601,-82.907668,0.002226,
1260,1410,-0.016141,-1.036578,0.999999,0.000131,-0.000578,0.001345,-0.000168,0.001359,-0.000592,-85.043042,0.001363,
1370,890,-0.305504,-3.367282,0.999998,0.000181,-0.000954,0.002068,0.001338,0.002575,-0.001461,69.229290,0.002583,
600,430,0.626475,-3.960446,0.999998,0.000152,-0.001259,0.002497,-0.000046,0.002497,-0.001259,-89.300263,0.002497,
630,1590,0.614927,-1.142632,0.999998,0.000177,-0.001242,0.002546,0.000035,0.002546,-0.001242,89.465177,0.002547,
1410,760,-0.181869,-3.569843,0.999998,0.000180,-0.001724,0.002675,0.000846,0.002833,-0.001881,79.476025,0.002883,
1670,300,-0.295494,-4.436416,0.999998,0.000167,-0.001084,0.002433,-0.000077,0.002435,-0.001085,-88.751231,0.002439,
1590,590,-0.375844,-3.775208,0.999997,0.000184,-0.001391,0.002661,0.000180,0.002669,-0.001399,87.466333,0.002670,
830,50,0.029980,-4.985634,0.999999,0.000146,-0.000112,0.001802,0.000441,0.001898,-0.000208,77.634475,0.002082,
1080,1830,0.053759,-0.338871,0.999999,0.000143,-0.000360,0.001794,-0.000066,0.001796,-0.000362,-88.244972,0.001900,
890,90,0.048982,-4.918109,0.999998,0.000153,-0.000296,0.001803,0.000321,0.001851,-0.000344,81.485549,0.001969,
670,1510,0.622385,-1.316842,0.999998,0.000190,-0.001309,0.002571,0.000015,0.002571,-0.001309,89.785534,0.002571,
1050,900,0.387017,-3.132955,0.999998,0.000185,-0.001673,0.003371,-0.000801,0.003495,-0.001797,-81.190136,0.003496,
1530,1640,-0.221262,-0.784822,0.999998,0.000163,-0.000975,0.002246,-0.000132,0.002252,-0.000980,-87.665386,0.002258,
1580,1900,-0.104593,-0.246693,0.999999,0.000159,-0.000522,0.001991,0.000289,0.002024,-0.000555,83.523484,0.002092,
860,530,0.359316,-3.919474,0.999998,0.000164,-0.001307,0.002571,-0.000168,0.002578,-0.001314,-87.523551,0.002578,
1480,2010,-0.010487,-0.040867,0.999998,0.000161,-0.000038,0.001572,0.000186,0.001593,-0.000059,83.481104,0.001807,
1120,670,0.075630,-3.891698,0.999999,0.000124,-0.000942,0.001781,-0.000678,0.001940,-0.001101,-76.770614,0.001946,
890,100,0.057878,-4.901025,0.999998,0.000160,-0.000332,0.001842,0.000317,0.001888,-0.000377,81.881754,0.001998,
1620,1580,-0.352342,-0.996078,0.999998,0.000161,-0.001241,0.002485,-0.000135,0.002490,-0.001246,-87.932067,0.002490,
1290,500,-0.036708,-4.224058,0.999999,0.000139,-0.000661,0.001741,0.000134,0.001748,-0.000668,86.818636,0.001764,
1580,1200,-0.601221,-2.027887,0.999998,0.000181,-0.001553,0.003014,0.000312,0.003035,-0.001574,86.108127,0.003036,
1500,220,-0.105880,-4.684337,0.999998,0.000149,-0.000606,0.001961,-0.000116,0.001966,-0.000612,-87.426581,0.002012,
1160,480,0.044976,-4.257074,0.999998,0.000163,-0.000683,0.001818,-0.000178,0.001831,-0.000695,-85.955204,0.001848,
690,260,0.370596,-4.464368,0.999997,0.000229,-0.001179,0.002525,0.000135,0.002530,-0.001184,87.917588,0.002532,
1550,1960,-0.048657,-0.128398,0.999999,0.000131,-0.000192,0.001765,0.000310,0.001813,-0.000240,81.225050,0.001970,
590,460,0.660525,-3.877590,0.999998,0.000184,-0.001434,0.002557,-0.000060,0.002558,-0.001435,-89.132285,0.002564,
760,1140,0.824240,-2.237004,0.999998,0.000183,-0.001186,0.002578,-0.000242,0.002594,-0.001201,-86.334865,0.002596,
1740,1230,-0.791742,-2.014249,0.999999,0.000146,-0.001312,0.002615,0.000250,0.002631,-0.001327,86.369843,0.002631,
1210,660,0.011069,-3.986886,0.999999,0.000122,-0.000549,0.001273,-0.000168,0.001289,-0.000564,-84.772307,0.001292,
1380,530,-0.107858,-4.118280,0.999999,0.000116,-0.000897,0.002007,0.000370,0.002054,-0.000943,82.846454,0.002056,
1820,470,-0.601156,-3.894328,0.999998,0.000173,-0.001262,0.002561,0.000051,0.002562,-0.001263,89.232225,0.002562,
1850,920,-0.990758,-2.758527,0.999999,0.000133,-0.001064,0.002266,-0.000125,0.002271,-0.001069,-87.860871,0.002272,
1550,1900,-0.089434,-0.240446,0.999998,0.000173,-0.000377,0.001923,0.000261,0.001953,-0.000406,83.602279,0.002061,
840,1740,0.258323,-0.612663,0.999998,0.000180,-0.000930,0.002327,-0.000042,0.002328,-0.000931,-89.263385,0.002343,
870,1780,0.203610,-0.505335,0.999998,0.000144,-0.000884,0.002244,-0.000098,0.002247,-0.000887,-88.200640,0.002263,
970,750,0.325875,-3.437696,0.999998,0.000171,-0.001817,0.003023,-0.000353,0.003048,-0.001843,-85.847958,0.003070,
720,1690,0.429301,-0.816043,0.999998,0.000181,-0.001239,0.002544,0.000019,0.002545,-0.001239,89.719409,0.002545,
1040,1010,0.562931,-2.615470,0.999995,0.000302,-0.002249,0.005589,-0.000412,0.005611,-0.002271,-86.999154,0.005645,
1210,590,0.012283,-4.083635,0.999999,0.000131,-0.000606,0.001513,-0.000119,0.001520,-0.000612,-86.792889,0.001529,
1700,170,-0.195471,-4.726985,0.999998,0.000153,-0.000740,0.002279,-0.000427,0.002339,-0.000799,-82.096783,0.002377,
580,270,0.512737,-4.339388,0.999998,0.000187,-0.002783,0.003023,0.000212,0.003030,-0.002791,87.907502,0.003369,
1360,890,-0.296885,-3.421176,0.999998,0.000183,-0.000733,0.001804,0.001308,0.002357,-0.001287,67.065667,0.002361,
1500,660,-0.278958,-3.686590,0.999998,0.000181,-0.001555,0.002689,0.000396,0.002726,-0.001592,84.708874,0.002738,
720,1560,0.522581,-1.147275,0.999998,0.000180,-0.001281,0.002554,0.000049,0.002554,-0.001282,89.272928,0.002554,
1060,240,0.065749,-4.670789,0.999998,0.000151,-0.000442,0.001836,0.000038,0.001837,-0.000442,89.045897,0.001917,
1590,790,-0.537511,-3.203443,0.999997,0.000190,-0.001652,0.003022,-0.000175,0.003028,-0.001659,-87.856171,0.003033,
1390,760,-0.150182,-3.617062,0.999998,0.000181,-0.001578,0.002448,0.000940,0.002657,-0.001786,77.488680,0.002709,
840,1860,0.162831,-0.339700,0.999998,0.000158,-0.000626,0.002174,-0.000286,0.002203,-0.000655,-84.221100,0.002262,
1260,1390,-0.015046,-1.062392,0.999998,0.000156,-0.000560,0.001290,-0.000209,0.001314,-0.000583,-83.639885,0.001316,
1580,1880,-0.119120,-0.286634,0.999998,0.000159,-0.000592,0.002007,0.000273,0.002036,-0.000620,84.061194,0.002087,
710,440,0.495776,-4.025115,0.999998,0.000162,-0.001265,0.002535,-0.000040,0.002535,-0.001266,-89.401143,0.002535,
1100,150,0.028304,-4.833370,0.999999,0.000116,-0.000210,0.001670,0.000092,0.001674,-0.000215,87.204304,0.001822,
1060,1830,0.061344,-0.341979,0.999998,0.000181,-0.000446,0.001824,-0.000033,0.001825,-0.000447,-89.177199,0.001902,
670,1490,0.636759,-1.367841,0.999998,0.000181,-0.001310,0.002581,0.000018,0.002581,-0.001310,89.737250,0.002581,
1580,1180,-0.623839,-2.087032,0.999998,0.000176,-0.001486,0.002997,0.000338,0.003022,-0.001511,85.713100,0.003022,
1270,500,-0.024109,-4.228058,0.999998,0.000154,-0.000606,0.001709,0.000092,0.001712,-0.000610,87.717009,0.001736,
970,100,0.037892,-4.907048,0.999999,0.000161,-0.000256,0.001711,0.000235,0.001739,-0.000283,83.285734,0.001866,
820,50,0.031058,-4.985966,0.999999,0.000140,-0.000143,0.001800,0.000455,0.001901,-0.000244,77.446723,0.002069,
860,130,0.095613,-4.837860,0.999999,0.000154,-0.000442,0.001959,0.000340,0.002006,-0.000489,82.083490,0.002092,
890,70,0.037085,-4.955908,0.999999,0.000134,-0.000210,0.001735,0.000329,0.001789,-0.000264,80.664631,0.001931,
1880,490,-0.692226,-3.795395,0.999998,0.000153,-0.001234,0.002525,0.000018,0.002525,-0.001234,89.721369,0.002525,
1160,460,0.045104,-4.293967,0.999998,0.000170,-0.000675,0.001794,-0.000125,0.001800,-0.000681,-87.107982,0.001818,
1510,1640,-0.203117,-0.772530,0.999998,0.000166,-0.000934,0.002207,-0.000145,0.002213,-0.000940,-87.358695,0.002222,
1620,1560,-0.362707,-1.046616,0.999998,0.000173,-0.001281,0.002508,-0.000134,0.002513,-0.001286,-87.976327,0.002513,
880,330,0.231752,-4.413853,0.999998,0.000153,-0.000972,0.002302,-0.000004,0.002302,-0.000972,-89.934638,0.002311,
630,1570,0.628514,-1.194344,0.999997,0.000192,-0.001254,0.002551,0.000055,0.002552,-0.001255,89.176423,0.002552,
760,1930,0.141236,-0.213155,0.999998,0.000182,-0.000543,0.002207,-0.000571,0.002320,-0.000657,-78.724743,0.002392,
760,1120,0.834107,-2.287352,0.999998,0.000184,-0.001139,0.002557,-0.000210,0.002569,-0.001151,-86.751794,0.002574,
1380,510,-0.105011,-4.158871,0.999999,0.000123,-0.000876,0.001980,0.000328,0.002018,-0.000913,83.533087,0.002021,
1210,570,0.012838,-4.116009,0.999998,0.000143,-0.000606,0.001553,-0.000101,0.001557,-0.000611,-87.335481,0.001569,
1820,1150,-0.950117,-2.237158,0.999998,0.000168,-0.001109,0.002331,0.000134,0.002336,-0.001114,87.775377,0.002337,
590,450,0.652211,-3.902671,0.999998,0.000165,-0.001489,0.002534,-0.000072,0.002535,-0.001490,-88.972851,0.002548,
840,1720,0.271811,-0.659319,0.999998,0.000177,-0.000970,0.002370,-0.000028,0.002370,-0.000971,-89.511776,0.002383,
970,730,0.309804,-3.498361,0.999997,0.000193,-0.001756,0.002917,-0.000384,0.002949,-0.001787,-85.327964,0.002971,
1040,1000,0.560549,-2.671407,0.999996,0.000245,-0.002189,0.005401,-0.000571,0.005444,-0.002232,-85.720290,0.005473,
940,370,0.197649,-4.359903,0.999998,0.000176,-0.000891,0.002175,-0.000073,0.002177,-0.000892,-88.631721,0.002189,
720,1670,0.443092,-0.867880,0.999998,0.000177,-0.001214,0.002536,0.000038,0.002536,-0.001215,89.413495,0.002537,
580,280,0.523608,-4.314321,0.999997,0.000207,-0.002808,0.002661,0.000068,0.002661,-0.002808,89.289091,0.003161,
1840,130,-0.265040,-4.742596,0.999998,0.000152,-0.001207,0.002645,-0.000326,0.002672,-0.001235,-85.193548,0.002675,
870,1760,0.217884,-0.550448,0.999998,0.000148,-0.000932,0.002238,-0.000062,0.002239,-0.000933,-88.873632,0.002249,
840,1840,0.182341,-0.385665,0.999998,0.000153,-0.000690,0.002186,-0.000264,0.002210,-0.000714,-84.800821,0.002256,
1580,960,-0.715034,-2.705696,0.999998,0.000168,-0.001071,0.002817,-0.000280,0.002837,-0.001091,-85.903801,0.002862,
590,570,0.743035,-3.596697,0.999998,0.000194,-0.001374,0.002527,-0.000046,0.002528,-0.001375,-89.327445,0.002531,
590,1350,0.853449,-1.785422,0.999999,0.000147,-0.001277,0.002493,-0.000042,0.002493,-0.001277,-89.369007,0.002493,
720,50,0.048448,-4.978513,0.999999,0.000128,-0.000333,0.002031,0.000736,0.002241,-0.000543,74.039633,0.002339,
1500,200,-0.095565,-4.723229,0.999998,0.000146,-0.000545,0.001942,-0.000137,0.001949,-0.000553,-86.848545,0.002009,
1060,220,0.060037,-4.707124,0.999998,0.000164,-0.000428,0.001790,0.000076,0.001793,-0.000430,88.038837,0.001872,
1720,1230,-0.765928,-2.005824,0.999999,0.000163,-0.001325,0.002648,0.000278,0.002667,-0.001344,86.016059,0.002667,
670,160,0.265750,-4.703219,0.999998,0.000147,-0.000987,0.002571,0.000464,0.002630,-0.001047,82.689646,0.002648,
1260,150,-0.006080,-4.838287,0.999999,0.000141,-0.000210,0.001624,-0.000002,0.001624,-0.000210,-89.936299,0.001767,
1580,1160,-0.650826,-2.147488,0.999998,0.000190,-0.001371,0.003001,0.000360,0.003030,-0.001400,85.325608,0.003033,
710,420,0.480916,-4.075803,0.999998,0.000173,-0.001246,0.002535,-0.000032,0.002535,-0.001246,-89.509111,0.002535,
1580,1860,-0.135326,-0.327418,0.999998,0.000162,-0.000639,0.002081,0.000242,0.002102,-0.000660,84.943581,0.002150,
1050,50,0.008556,-4.992528,0.999999,0.000120,-0.000084,0.001555,0.000118,0.001563,-0.000093,85.916417,0.001754,
670,1470,0.652017,-1.418335,0.999998,0.000167,-0.001308,0.002597,-0.000001,0.002597,-0.001308,-89.985057,0.002597,
1500,920,-0.570702,-2.871957,0.999998,0.000186,-0.001485,0.003326,-0.000261,0.003340,-0.001499,-86.898554,0.003346,
1020,1830,0.080284,-0.351104,0.999998,0.000161,-0.000479,0.001882,-0.000095,0.001886,-0.000482,-87.701670,0.001960,
580,190,0.416787,-4.535508,0.999998,0.000184,-0.000771,0.002595,-0.000030,0.002595,-0.000771,-89.497307,0.002665,
860,110,0.077537,-4.877560,0.999999,0.000117,-0.000365,0.001936,0.000375,0.001996,-0.000425,80.985538,0.002102,
1050,880,0.345707,-3.202039,0.999998,0.000180,-0.001774,0.003312,-0.000743,0.003418,-0.001881,-81.861049,0.003424,
1160,440,0.041722,-4.329040,0.999998,0.000167,-0.000651,0.001819,-0.000121,0.001824,-0.000657,-87.203961,0.001848,
720,1540,0.535094,-1.197540,0.999998,0.000177,-0.001297,0.002581,0.000044,0.002581,-0.001297,89.353297,0.002581,
1090,1640,0.087535,-0.692346,0.999998,0.000165,-0.000692,0.001930,0.000137,0.001937,-0.000699,87.017392,0.001962,
800,1890,0.160549,-0.287493,0.999998,0.000150,-0.000732,0.002210,-0.000363,0.002254,-0.000777,-83.065891,0.002290,
850,120,0.091419,-4.855746,0.999999,0.000151,-0.000383,0.001963,0.000387,0.002025,-0.000445,80.859514,0.002128,
1410,100,-0.023171,-4.913220,0.999998,0.000151,-0.000186,0.001633,-0.000122,0.001641,-0.000195,-86.172570,0.001794,
1380,1450,-0.110032,-1.069508,0.999998,0.000159,-0.000990,0.002005,-0.000526,0.002095,-0.001079,-80.322270,0.002095,
880,310,0.219115,-4.460183,0.999999,0.000137,-0.000923,0.002289,0.000040,0.002290,-0.000924,89.289759,0.002304,
760,1100,0.845611,-2.338006,0.999998,0.000165,-0.001096,0.002507,-0.000222,0.002521,-0.001110,-86.490470,0.002527,
1620,1540,-0.374358,-1.096954,0.999998,0.000186,-0.001325,0.002534,-0.000125,0.002538,-0.001329,-88.147602,0.002539,
1000,2010,0.010662,-0.040277,0.999998,0.000149,-0.000043,0.001553,-0.000164,0.001570,-0.000060,-84.195688,0.001779,
630,1550,0.643691,-1.244969,0.999997,0.000191,-0.001271,0.002552,0.000035,0.002552,-0.001271,89.470173,0.002552,
580,290,0.534550,-4.289898,0.999998,0.000209,-0.002733,0.002228,-0.000133,0.002232,-0.002737,-88.468161,0.002912,
940,350,0.188995,-4.402235,0.999998,0.000170,-0.000858,0.002206,-0.000023,0.002206,-0.000859,-89.576753,0.002224,
1840,110,-0.226176,-4.796322,0.999998,0.000153,-0.001183,0.002648,-0.000427,0.002695,-0.001230,-83.723721,0.002699,
1390,1820,-0.058979,-0.357508,0.999998,0.000149,-0.000409,0.001794,0.000058,0.001795,-0.000410,88.501815,0.001881,
590,560,0.735322,-3.622468,0.999998,0.000157,-0.001367,0.002569,-0.000042,0.002569,-0.001368,-89.389806,0.002571,
840,1700,0.286189,-0.706714,0.999998,0.000155,-0.000981,0.002342,-0.000011,0.002342,-0.000981,-89.801942,0.002352,
1800,1150,-0.926724,-2.231664,0.999998,0.000164,-0.001130,0.002373,0.000163,0.002381,-0.001137,87.347421,0.002382,
1210,550,0.013736,-4.148240,0.999998,0.000149,-0.000626,0.001641,-0.000102,0.001645,-0.000631,-87.428655,0.001660,
890,270,0.183644,-4.556267,0.999998,0.000164,-0.000797,0.002169,0.000119,0.002174,-0.000802,87.713190,0.002199,
850,130,0.100799,-4.836399,0.999998,0.000152,-0.000422,0.001980,0.000365,0.002034,-0.000476,81.539813,0.002128,
1580,1980,-0.042033,-0.096246,0.999999,0.000126,-0.000239,0.001766,0.000337,0.001821,-0.000294,80.715216,0.001955,
1380,570,-0.109464,-4.038793,0.999998,0.000141,-0.000912,0.001974,0.000430,0.002037,-0.000975,81.711114,0.002037,
880,1750,0.214756,-0.567110,0.999998,0.000180,-0.000939,0.002233,-0.000040,0.002233,-0.000939,-89.283445,0.002243,
880,1870,0.130694,-0.306118,0.999998,0.000177,-0.000652,0.002051,-0.000239,0.002072,-0.000673,-84.977513,0.002114,
720,1500,0.563506,-1.302539,0.999998,0.000191,-0.001325,0.002606,0.000035,0.002607,-0.001325,89.484172,0.002607,
770,100,0.102451,-4.885803,0.999998,0.000153,-0.000427,0.002086,0.000559,0.002205,-0.000546,78.006910,0.002297,
970,710,0.294829,-3.555823,0.999997,0.000198,-0.001671,0.002848,-0.000392,0.002882,-0.001705,-85.076405,0.002898,
1710,180,-0.214235,-4.700939,0.999998,0.000146,-0.000761,0.002313,-0.000419,0.002369,-0.000817,-82.382811,0.002406,
1060,200,0.052362,-4.741860,0.999999,0.000144,-0.000385,0.001799,0.000099,0.001804,-0.000390,87.411229,0.001898,
1500,880,-0.503347,-3.004891,0.999998,0.000188,-0.001726,0.003343,-0.000162,0.003348,-0.001732,-88.167917,0.003349,
1580,1140,-0.671874,-2.207128,0.999998,0.000178,-0.001276,0.002904,0.000348,0.002933,-0.001305,85.273694,0.002939,
1580,1840,-0.149832,-0.369509,0.999998,0.000151,-0.000700,0.002113,0.000198,0.002127,-0.000714,85.995749,0.002165,
1160,420,0.043842,-4.364845,0.999998,0.000181,-0.000622,0.001801,-0.000098,0.001805,-0.000626,-87.690943,0.001833,
1300,150,-0.014142,-4.836319,0.999998,0.000168,-0.000158,0.001623,-0.000049,0.001624,-0.000159,-88.432873,0.001791,
590,440,0.646230,-3.927470,0.999998,0.000169,-0.001513,0.002494,-0.000077,0.002495,-0.001514,-88.900420,0.002514,
580,260,0.502296,-4.363236,0.999998,0.000172,-0.002814,0.002809,0.000322,0.002827,-0.002832,86.732370,0.003267,
1100,1640,0.082090,-0.688602,0.999998,0.000168,-0.000665,0.001897,0.000127,0.001903,-0.000671,87.169033,0.001931,
1010,100,0.032342,-4.910076,0.999999,0.000147,-0.000163,0.001681,0.000176,0.001697,-0.000180,84.604255,0.001865,
850,100,0.071246,-4.895538,0.999999,0.000156,-0.000297,0.001892,0.000384,0.001957,-0.000363,80.342528,0.002083,
1660,310,-0.291685,-4.417817,0.999998,0.000151,-0.001070,0.002387,-0.000056,0.002388,-0.001071,-89.076546,0.002393,
720,1520,0.549593,-1.250968,0.999998,0.000192,-0.001319,0.002601,0.000054,0.002602,-0.001320,89.214955,0.002602,
940,990,0.681419,-2.631544,0.999997,0.000217,-0.000961,0.003076,0.000190,0.003085,-0.000970,87.316550,0.003155,
1620,1520,-0.385904,-1.147085,0.999998,0.000176,-0.001332,0.002603,-0.000135,0.002608,-0.001337,-88.039043,0.002608,
760,1080,0.856126,-2.390066,0.999998,0.000176,-0.001055,0.002513,-0.000136,0.002518,-0.001060,-87.826599,0.002529,
1360,1450,-0.092807,-1.049645,0.999999,0.000138,-0.000919,0.001905,-0.000493,0.001989,-0.001003,-80.379946,0.001989,
630,1530,0.658261,-1.295753,0.999998,0.000171,-0.001277,0.002567,0.000021,0.002567,-0.001277,89.681521,0.002567,
760,250,0.284862,-4.536550,0.999998,0.000165,-0.001004,0.002428,0.000238,0.002445,-0.001021,86.060580,0.002456,
910,1750,0.189789,-0.551571,0.999998,0.000178,-0.000767,0.002164,-0.000068,0.002165,-0.000769,-88.679479,0.002196,
590,940,1.027117,-2.706738,0.999999,0.000142,-0.001057,0.002203,0.000077,0.002205,-0.001059,88.641868,0.002206,
1830,180,-0.337066,-4.623686,0.999998,0.000185,-0.001159,0.002607,-0.000217,0.002619,-0.001172,-86.707294,0.002624,
1760,110,-0.154897,-4.845217,0.999999,0.000139,-0.000828,0.002327,-0.000592,0.002435,-0.000936,-79.711006,0.002456,
580,1130,1.029448,-2.302918,0.999999,0.000132,-0.001014,0.002218,-0.000084,0.002220,-0.001016,-88.510162,0.002223,
1100,1210,0.190299,-1.543416,0.999998,0.000174,-0.001496,0.002262,0.001164,0.002593,-0.001827,74.106482,0.002665,
1140,510,0.059661,-4.192072,0.999998,0.000151,-0.000758,0.001786,-0.000244,0.001809,-0.000782,-84.580817,0.001815,
1750,1510,-0.566253,-1.282730,0.999997,0.000179,-0.001320,0.002631,-0.000026,0.002632,-0.001320,-89.620125,0.002632,
1070,1640,0.103027,-0.701331,0.999998,0.000156,-0.000778,0.001968,0.000178,0.001980,-0.000790,86.300074,0.001993,
1830,140,-0.271671,-4.729392,0.999998,0.000178,-0.001177,0.002620,-0.000338,0.002650,-0.001207,-84.957884,0.002653,
940,1090,0.659934,-2.331155,0.999997,0.000198,-0.001112,0.003089,-0.000256,0.003105,-0.001128,-86.527946,0.003143,
1710,690,-0.625099,-3.402077,0.999997,0.000194,-0.001421,0.002708,-0.000090,0.002710,-0.001423,-88.746364,0.002711,
1870,430,-0.634727,-3.954563,0.999998,0.000184,-0.001249,0.002494,0.000029,0.002494,-0.001249,89.549992,0.002494,
1160,640,0.044772,-3.983430,0.999999,0.000136,-0.000695,0.001536,-0.000429,0.001615,-0.000774,-79.480499,0.001616,
580,1350,0.866293,-1.792869,0.999999,0.000162,-0.001412,0.002460,0.000005,0.002460,-0.001412,89.920279,0.002469,
930,70,0.028983,-4.956018,0.999999,0.000135,-0.000101,0.001709,0.000277,0.001750,-0.000143,81.488848,0.001944,
1660,290,-0.275994,-4.466171,0.999998,0.000171,-0.001023,0.002409,-0.000102,0.002412,-0.001026,-88.303752,0.002421,
1210,750,0.010658,-3.891774,0.999999,0.000133,-0.000540,0.000773,-0.000295,0.000836,-0.000603,-77.879060,0.000863,
840,1680,0.298465,-0.754514,0.999998,0.000160,-0.001040,0.002355,0.000036,0.002355,-0.001040,89.385759,0.002361,
990,2010,0.011456,-0.040841,0.999998,0.000141,-0.000031,0.001553,-0.000166,0.001570,-0.000048,-84.078483,0.001786,
1530,1900,-0.082603,-0.238126,0.999998,0.000150,-0.000359,0.001893,0.000243,0.001918,-0.000385,83.910865,0.002030,
720,160,0.214513,-4.735596,0.999998,0.000149,-0.000945,0.002402,0.000430,0.002457,-0.000999,82.790539,0.002471,
920,990,0.699948,-2.627858,0.999998,0.000188,-0.000955,0.002944,0.000205,0.002955,-0.000966,86.996849,0.003013,
990,100,0.035299,-4.907984,0.999999,0.000154,-0.000146,0.001705,0.000211,0.001729,-0.000169,83.572669,0.001906,
1580,1940,-0.073438,-0.169898,0.999998,0.000161,-0.000397,0.001909,0.000319,0.001952,-0.000441,82.278175,0.002047,
580,560,0.747406,-3.615569,0.999998,0.000149,-0.001874,0.002550,-0.000157,0.002556,-0.001880,-87.976392,0.002648,
840,1820,0.198251,-0.428522,0.999998,0.000181,-0.000760,0.002258,-0.000226,0.002275,-0.000776,-85.737434,0.002313,
1690,1220,-0.736306,-2.021321,0.999997,0.000188,-0.001358,0.002711,0.000307,0.002734,-0.001381,85.713876,0.002734,
720,1480,0.578467,-1.354522,0.999997,0.000193,-0.001354,0.002634,0.000018,0.002634,-0.001354,89.740974,0.002634,
1530,1700,-0.197338,-0.653962,0.999998,0.000163,-0.000834,0.002218,-0.000025,0.002219,-0.000834,-89.522319,0.002241,
800,1870,0.181478,-0.331843,0.999998,0.000159,-0.000806,0.002207,-0.000324,0.002242,-0.000840,-83.927442,0.002265,
1580,1820,-0.165565,-0.410874,0.999998,0.000166,-0.000765,0.002150,0.000161,0.002159,-0.000773,86.853478,0.002188,
1260,1450,-0.017225,-0.979122,0.999998,0.000136,-0.000604,0.001493,-0.000144,0.001503,-0.000614,-86.094199,0.001511,
1810,440,-0.568332,-3.978858,0.999999,0.000166,-0.001254,0.002527,0.000050,0.002527,-0.001254,89.236579,0.002527,
1770,140,-0.212403,-4.768385,0.999998,0.000164,-0.000943,0.002425,-0.000493,0.002495,-0.001014,-81.846997,0.002510,
1580,1830,-0.158164,-0.390131,0.999998,0.000165,-0.000737,0.002124,0.000181,0.002136,-0.000748,86.391885,0.002168,
970,690,0.282463,-3.612828,0.999998,0.000174,-0.001610,0.002782,-0.000428,0.002823,-0.001652,-84.483108,0.002837,
640,1350,0.791984,-1.749134,0.999998,0.000153,-0.001260,0.002532,-0.000093,0.002534,-0.001262,-88.600459,0.002534,
1620,1500,-0.397433,-1.201478,0.999998,0.000178,-0.001357,0.002618,-0.000143,0.002623,-0.001362,-87.936077,0.002624,
760,1060,0.858792,-2.439921,0.999998,0.000162,-0.001032,0.002509,-0.000071,0.002510,-0.001033,-88.852873,0.002523,
1230,100,0.000703,-4.917933,0.999999,0.000129,-0.000131,0.001542,-0.000012,0.001542,-0.000131,-89.580887,0.001710,
1060,400,0.107304,-4.362588,0.999998,0.000161,-0.000793,0.001978,-0.000173,0.001989,-0.000804,-86.432012,0.002001,
760,230,0.263601,-4.584483,0.999998,0.000156,-0.000955,0.002382,0.000286,0.002406,-0.000979,85.140132,0.002420,
580,940,1.037606,-2.703227,0.999999,0.000148,-0.000988,0.002149,0.000050,0.002150,-0.000989,89.078080,0.002152,
910,1770,0.177342,-0.508748,0.999998,0.000150,-0.000725,0.002174,-0.000103,0.002177,-0.000729,-87.972992,0.002217,
930,470,0.248184,-4.124141,0.999998,0.000164,-0.001129,0.002355,-0.000202,0.002366,-0.001140,-86.694307,0.002367,
1750,1490,-0.579347,-1.333362,0.999997,0.000186,-0.001341,0.002604,-0.000031,0.002604,-0.001341,-89.551510,0.002605,
1160,510,0.045388,-4.203137,0.999998,0.000158,-0.000671,0.001754,-0.000231,0.001776,-0.000692,-84.602355,0.001790,
810,260,0.243338,-4.541415,0.999998,0.000177,-0.000932,0.002323,0.000163,0.002331,-0.000940,87.137147,0.002345,
670,1450,0.666861,-1.471475,0.999998,0.000168,-0.001316,0.002580,-0.000023,0.002580,-0.001316,-89.665272,0.002580,
1290,1840,-0.020012,-0.311089,0.999998,0.000142,-0.000301,0.001699,0.000011,0.001699,-0.000301,89.697179,0.001814,
1120,1290,0.085594,-1.317863,0.999998,0.000165,-0.001204,0.001818,0.001070,0.002159,-0.001544,72.344557,0.002224,
1500,180,-0.083938,-4.761556,0.999999,0.000138,-0.000491,0.001878,-0.000159,0.001889,-0.000502,-86.169008,0.001957,
1230,1640,0.001065,-0.657268,0.999998,0.000154,-0.000563,0.001772,0.000001,0.001772,-0.000563,89.982766,0.001811,
630,640,0.747442,-3.450069,0.999998,0.000187,-0.001266,0.002550,0.000043,0.002551,-0.001266,89.352067,0.002551,
1160,400,0.039948,-4.400527,0.999998,0.000151,-0.000587,0.001797,-0.000059,0.001798,-0.000588,-88.578329,0.001834,
1260,1370,-0.014982,-1.086633,0.999998,0.000145,-0.000548,0.001209,-0.000253,0.001244,-0.000584,-81.952668,0.001245,
1170,500,0.038477,-4.223697,0.999999,0.000139,-0.000643,0.001739,-0.000148,0.001749,-0.000652,-86.466570,0.001767,
580,460,0.673515,-3.869867,0.999998,0.000174,-0.002114,0.002650,-0.000089,0.002652,-0.002115,-88.925175,0.002804,
1830,120,-0.234190,-4.781178,0.999998,0.000138,-0.001114,0.002628,-0.000416,0.002673,-0.001160,-83.736797,0.002681,
1240,230,-0.002951,-4.706353,0.999998,0.000145,-0.000369,0.001691,-0.000009,0.001691,-0.000369,-89.754660,0.001778,
1500,860,-0.471150,-3.072424,0.999998,0.000204,-0.001817,0.003365,-0.000076,0.003366,-0.001818,-89.155369,0.003369,
740,390,0.423435,-4.176134,0.999997,0.000206,-0.001222,0.002515,-0.000031,0.002515,-0.001222,-89.526140,0.002516,
630,680,0.782224,-3.347306,0.999998,0.000172,-0.001255,0.002554,0.000083,0.002556,-0.001257,88.748130,0.002556,
1380,550,-0.108424,-4.077461,0.999998,0.000141,-0.000894,0.001957,0.000416,0.002016,-0.000954,81.859539,0.002017,
1540,2010,-0.015366,-0.043280,0.999999,0.000147,-0.000031,0.001611,0.000270,0.001654,-0.000074,80.886592,0.001869,
1520,1190,-0.514849,-2.008717,0.999998,0.000175,-0.001715,0.003269,0.000215,0.003279,-0.001724,87.534756,0.003280,
1870,420,-0.627283,-3.979573,0.999998,0.000177,-0.001250,0.002506,0.000035,0.002507,-0.001251,89.468508,0.002507,
1580,1120,-0.694289,-2.263580,0.999998,0.000178,-0.001180,0.002839,0.000364,0.002872,-0.001213,84.863006,0.002883,
920,40,0.013315,-5.005635,0.999999,0.000105,-0.000008,0.001621,0.000274,0.001666,-0.000053,80.711728,0.001894,
920,1980,0.034350,-0.092602,0.999999,0.000127,-0.000139,0.001754,-0.000320,0.001806,-0.000192,-80.655371,0.001984,
1710,670,-0.608642,-3.457701,0.999997,0.000202,-0.001425,0.002711,-0.000072,0.002713,-0.001426,-89.009671,0.002714,
630,1730,0.505636,-0.789334,0.999998,0.000176,-0.001183,0.002507,0.000021,0.002507,-0.001183,89.672246,0.002509,
1460,150,-0.053682,-4.823386,0.999998,0.000153,-0.000276,0.001766,-0.000158,0.001778,-0.000288,-85.607513,0.001908,
670,140,0.235271,-4.755278,0.999998,0.000154,-0.000904,0.002542,0.000562,0.002631,-0.000993,80.958120,0.002657,
840,1660,0.309738,-0.799803,0.999998,0.000152,-0.001110,0.002448,0.000086,0.002450,-0.001112,88.616451,0.002453,
720,140,0.185733,-4.783863,0.999998,0.000149,-0.000878,0.002357,0.000496,0.002431,-0.000953,81.468809,0.002450,
760,1010,0.862841,-2.563889,0.999998,0.000144,-0.001040,0.002495,0.000087,0.002497,-0.001042,88.587458,0.002508,
1630,1960,-0.073968,-0.136289,0.999999,0.000135,-0.000268,0.001905,0.000436,0.001989,-0.000352,79.071730,0.002123,
580,550,0.739795,-3.641086,0.999998,0.000171,-0.001867,0.002696,-0.000115,0.002698,-0.001870,-88.558008,0.002765,
670,1000,0.956498,-2.585960,0.999998,0.000167,-0.001050,0.002342,0.000076,0.002344,-0.001052,88.718779,0.002348,
1770,120,-0.180826,-4.815406,0.999999,0.000124,-0.000860,0.002404,-0.000594,0.002509,-0.000965,-79.996148,0.002531,
720,1460,0.592630,-1.407971,0.999997,0.000202,-0.001359,0.002606,0.000004,0.002606,-0.001359,89.941141,0.002606,
1140,760,0.061112,-3.778992,0.999998,0.000174,-0.001016,0.001489,-0.000989,0.001832,-0.001360,-70.852729,0.001902,
1500,380,-0.181823,-4.351060,0.999998,0.000163,-0.000921,0.002169,0.000113,0.002174,-0.000925,87.914379,0.002182,
1290,1210,-0.102651,-1.272868,0.999998,0.000171,-0.001295,0.000679,-0.000263,0.000714,-0.001330,-82.528590,0.001331,
1490,1880,-0.076827,-0.267604,0.999999,0.000133,-0.000449,0.001842,0.000165,0.001854,-0.000461,85.902756,0.001931,
1580,1800,-0.178944,-0.456200,0.999998,0.000163,-0.000831,0.002160,0.000120,0.002165,-0.000836,87.711937,0.002184,
1620,1480,-0.408030,-1.253104,0.999997,0.000188,-0.001394,0.002636,-0.000149,0.002641,-0.001399,-87.891171,0.002643,
1510,1900,-0.075772,-0.234311,0.999999,0.000132,-0.000444,0.001858,0.000205,0.001876,-0.000463,84.943051,0.001955,
790,260,0.264734,-4.529818,0.999997,0.000201,-0.001022,0.002365,0.000164,0.002373,-0.001030,87.241771,0.002380,
1210,1640,0.011864,-0.658916,0.999998,0.000179,-0.000564,0.001752,0.000056,0.001754,-0.000565,88.610569,0.001790,
1090,730,0.114394,-3.725870,0.999998,0.000174,-0.001329,0.002127,-0.000941,0.002367,-0.001568,-75.714397,0.002408,
930,910,0.603070,-2.875344,0.999998,0.000185,-0.001444,0.003147,0.000350,0.003173,-0.001470,85.661035,0.003176,
930,610,0.305940,-3.779885,0.999998,0.000175,-0.001436,0.002630,-0.000300,0.002652,-0.001458,-85.802588,0.002657,
1260,1430,-0.016023,-1.008823,0.999998,0.000170,-0.000591,0.001429,-0.000156,0.001441,-0.000603,-85.610762,0.001447,
1500,840,-0.443182,-3.137613,0.999998,0.000209,-0.001872,0.003305,0.000000,0.003305,-0.001872,-89.996982,0.003314,
840,1780,0.231753,-0.518205,0.999998,0.000171,-0.000854,0.002293,-0.000168,0.002302,-0.000863,-86.955786,0.002326,
1340,1450,-0.073956,-1.027930,0.999999,0.000118,-0.000866,0.001806,-0.000476,0.001888,-0.000948,-80.184253,0.001888,
970,670,0.272736,-3.668364,0.999998,0.000164,-0.001566,0.002733,-0.000451,0.002780,-0.001613,-84.078248,0.002792,
760,1040,0.864809,-2.487993,0.999998,0.000170,-0.001024,0.002489,-0.000047,0.002490,-0.001025,-89.239626,0.002502,
1240,510,-0.004180,-4.216867,0.999998,0.000156,-0.000655,0.001699,0.000047,0.001699,-0.000656,88.858984,0.001714,
720,410,0.461300,-4.109110,0.999998,0.000187,-0.001217,0.002541,-0.000045,0.002541,-0.001217,-89.314754,0.002542,
1580,910,-0.666551,-2.848057,0.999998,0.000149,-0.001305,0.002919,-0.000353,0.002948,-0.001334,-85.261626,0.002952,
590,600,0.766816,-3.520768,0.999998,0.000191,-0.001330,0.002557,-0.000045,0.002557,-0.001330,-89.334875,0.002558,
1080,1310,0.132228,-1.371476,0.999998,0.000195,-0.001489,0.002308,0.000945,0.002531,-0.001711,76.767343,0.002583,
1050,860,0.307522,-3.267831,0.999998,0.000172,-0.001851,0.003201,-0.000727,0.003303,-0.001954,-81.974419,0.003322,
1050,720,0.169056,-3.665713,0.999998,0.000142,-0.001547,0.002513,-0.000780,0.002658,-0.001692,-79.489147,0.002690,
1750,1470,-0.595206,-1.387788,0.999997,0.000191,-0.001354,0.002608,-0.000003,0.002608,-0.001354,-89.958774,0.002609,
1810,420,-0.552715,-4.030648,0.999998,0.000162,-0.001262,0.002542,0.000048,0.002542,-0.001262,89.277885,0.002542,
1160,360,0.038307,-4.471795,0.999999,0.000134,-0.000540,0.001810,-0.000028,0.001810,-0.000541,-89.327048,0.001858,
1400,40,-0.006029,-5.008436,0.999999,0.000130,-0.000056,0.001513,-0.000113,0.001521,-0.000064,-85.904218,0.001721,
1620,130,-0.102999,-4.836108,0.999998,0.000170,-0.000406,0.002003,-0.000401,0.002068,-0.000471,-80.789587,0.002168,
1540,2000,-0.021523,-0.058606,0.999999,0.000149,-0.000062,0.001650,0.000276,0.001694,-0.000105,81.057177,0.001898,
610,380,0.576360,-4.094517,0.999999,0.000151,-0.001254,0.002487,-0.000025,0.002487,-0.001254,-89.623737,0.002487,
1580,1100,-0.711599,-2.319495,0.999998,0.000177,-0.001096,0.002809,0.000306,0.002833,-0.001119,85.542245,0.002854,
870,220,0.164236,-4.655352,0.999998,0.000156,-0.000753,0.002126,0.000190,0.002138,-0.000765,86.241287,0.002167,
950,100,0.044079,-4.905455,0.999999,0.000125,-0.000258,0.001736,0.000231,0.001762,-0.000284,83.469711,0.001892,
720,120,0.155238,-4.830388,0.999998,0.000143,-0.000787,0.002323,0.000559,0.002421,-0.000885,80.116675,0.002450,
1590,640,-0.406283,-3.639676,0.999997,0.000190,-0.001510,0.002758,0.000162,0.002765,-0.001517,87.829735,0.002769,
740,1010,0.884096,-2.563046,0.999998,0.000171,-0.001070,0.002471,0.000075,0.002473,-0.001072,88.785713,0.002480,
670,1890,0.275321,-0.348305,0.999998,0.000190,-0.001015,0.002563,-0.000462,0.002622,-0.001073,-82.763024,0.002636,
1310,1960,-0.008755,-0.114918,0.999999,0.000139,-0.000139,0.001571,0.000046,0.001572,-0.000141,88.465701,0.001740,
1100,1920,0.025721,-0.181654,0.999999,0.000129,-0.000204,0.001628,-0.000083,0.001631,-0.000208,-87.402926,0.001776,
1710,650,-0.592075,-3.510769,0.999997,0.000201,-0.001413,0.002681,-0.000049,0.002682,-0.001413,-89.313613,0.002683,
830,1700,0.295554,-0.713906,0.999998,0.000164,-0.001022,0.002375,-0.000012,0.002375,-0.001022,-89.804823,0.002383,
840,1640,0.321526,-0.850311,0.999998,0.000153,-0.001169,0.002449,0.000104,0.002452,-0.001172,88.362414,0.002453,
1590,60,-0.031963,-4.971501,0.999999,0.000127,-0.000212,0.001764,-0.000364,0.001828,-0.000277,-79.893619,0.001971,
720,1010,0.905687,-2.562860,0.999999,0.000137,-0.001079,0.002464,0.000078,0.002465,-0.001081,88.745766,0.002472,
920,1960,0.048658,-0.128495,0.999999,0.000149,-0.000208,0.001778,-0.000290,0.001819,-0.000250,-81.857189,0.001972,
1620,1460,-0.421113,-1.308515,0.999997,0.000182,-0.001427,0.002679,-0.000135,0.002683,-0.001431,-88.119026,0.002685,
790,240,0.245183,-4.575383,0.999998,0.000166,-0.000979,0.002357,0.000204,0.002370,-0.000991,86.521711,0.002380,
930,890,0.572806,-2.937291,0.999998,0.000177,-0.001567,0.003159,0.000323,0.003181,-0.001589,86.108155,0.003181,
610,1600,0.631771,-1.133520,0.999998,0.000153,-0.001259,0.002513,0.000036,0.002514,-0.001259,89.454538,0.002514,
580,450,0.666032,-3.894677,0.999998,0.000166,-0.002192,0.002558,-0.000218,0.002568,-0.002202,-87.377468,0.002778,
1290,1200,-0.129731,-1.280898,0.999998,0.000158,-0.001477,0.000498,-0.000122,0.000505,-0.001484,-86.468787,0.001509,
720,1440,0.609313,-1.458935,0.999997,0.000181,-0.001359,0.002636,-0.000027,0.002636,-0.001359,-89.610672,0.002637,
930,590,0.296276,-3.830260,0.999998,0.000162,-0.001385,0.002545,-0.000289,0.002566,-0.001407,-85.822660,0.002570,
1680,1710,-0.341405,-0.722135,0.999998,0.000169,-0.001116,0.002459,0.000022,0.002459,-0.001116,89.651151,0.002462,
760,760,0.681352,-3.216908,0.999998,0.000185,-0.001420,0.002720,0.000199,0.002729,-0.001430,87.251899,0.002730,
1520,910,-0.584032,-2.884810,0.999998,0.000169,-0.001446,0.003210,-0.000338,0.003234,-0.001470,-85.864804,0.003239,
720,390,0.447393,-4.160168,0.999999,0.000179,-0.001210,0.002540,-0.000034,0.002541,-0.001210,-89.478107,0.002542,
1110,190,0.033474,-4.767247,0.999998,0.000147,-0.000335,0.001722,0.000052,0.001723,-0.000336,88.565762,0.001827,
1280,510,-0.029646,-4.210094,0.999999,0.000137,-0.000614,0.001715,0.000111,0.001721,-0.000620,87.274819,0.001743,
590,590,0.758623,-3.546524,0.999998,0.000161,-0.001343,0.002538,-0.000034,0.002538,-0.001344,-89.495725,0.002539,
1320,1450,-0.058044,-1.011600,0.999999,0.000129,-0.000746,0.001709,-0.000402,0.001774,-0.000810,-80.929341,0.001776,
1440,1580,-0.152811,-0.852973,0.999999,0.000136,-0.000951,0.002154,-0.000263,0.002177,-0.000973,-85.192933,0.002181,
1620,210,-0.176504,-4.667500,0.999998,0.000143,-0.000697,0.002161,-0.000258,0.002184,-0.000721,-84.881500,0.002226,
780,1350,0.599227,-1.660319,0.999997,0.000223,-0.001488,0.002767,-0.000112,0.002770,-0.001491,-88.487548,0.002772,
1750,1450,-0.610599,-1.438572,0.999998,0.000181,-0.001348,0.002616,0.000032,0.002617,-0.001349,89.542555,0.002617,
1220,750,0.005114,-3.896058,0.999999,0.000117,-0.000488,0.000740,-0.000156,0.000759,-0.000508,-82.859555,0.000774,
1490,1900,-0.066073,-0.229406,0.999998,0.000150,-0.000384,0.001827,0.000190,0.001843,-0.000400,85.117995,0.001939,
590,400,0.616654,-4.029039,0.999997,0.000177,-0.001683,0.002505,-0.000023,0.002505,-0.001683,-89.688675,0.002554,
1820,50,-0.070024,-4.971283,0.999998,0.000179,-0.000661,0.002286,-0.000826,0.002502,-0.000877,-75.366514,0.002539,
1520,870,-0.522760,-3.013942,0.999997,0.000193,-0.001689,0.003252,-0.000189,0.003259,-0.001697,-87.808746,0.003260,
780,250,0.264944,-4.547145,0.999998,0.000166,-0.000989,0.002365,0.000212,0.002378,-0.001003,86.398360,0.002388,
1580,1780,-0.193811,-0.497814,0.999998,0.000186,-0.000873,0.002202,0.000079,0.002204,-0.000875,88.523829,0.002220,
1160,340,0.034932,-4.508400,0.999998,0.000158,-0.000515,0.001818,-0.000003,0.001818,-0.000515,-89.920641,0.001874,
720,100,0.124650,-4.876175,0.999998,0.000153,-0.000701,0.002148,0.000563,0.002256,-0.000809,79.211785,0.002286,
1500,820,-0.413789,-3.203649,0.999997,0.000206,-0.001915,0.003279,0.000064,0.003280,-0.001916,89.291457,0.003296,
720,320,0.391774,-4.337304,0.999997,0.000207,-0.001200,0.002516,0.000018,0.002516,-0.001200,89.717617,0.002517,
1600,70,-0.042468,-4.952159,0.999999,0.000118,-0.000221,0.001836,-0.000389,0.001907,-0.000292,-79.652760,0.002054,
1590,620,-0.393615,-3.693856,0.999998,0.000199,-0.001462,0.002699,0.000176,0.002707,-0.001470,87.582474,0.002710,
1290,1960,-0.006833,-0.113059,0.999999,0.000134,-0.000119,0.001557,0.000049,0.001559,-0.000121,88.313068,0.001734,
840,1620,0.332237,-0.899482,0.999998,0.000170,-0.001191,0.002451,0.000093,0.002453,-0.001194,88.537176,0.002454,
1710,630,-0.575444,-3.565449,0.999997,0.000199,-0.001417,0.002682,-0.000018,0.002683,-0.001417,-89.745413,0.002684,
790,480,0.421758,-3.987764,0.999997,0.000188,-0.001272,0.002542,-0.000092,0.002545,-0.001274,-88.625013,0.002545,
1100,1960,0.015322,-0.117299,0.999999,0.000132,-0.000106,0.001573,-0.000083,0.001577,-0.000110,-87.179930,0.001760,
710,1000,0.914002,-2.586541,0.999999,0.000122,-0.001051,0.002434,0.000086,0.002436,-0.001054,88.583348,0.002443,
620,1710,0.534774,-0.848465,0.999998,0.000173,-0.001179,0.002512,-0.000004,0.002512,-0.001179,-89.934093,0.002514,
580,440,0.658917,-3.919697,0.999998,0.000181,-0.002184,0.002445,-0.000254,0.002459,-0.002198,-86.872621,0.002701,
1280,1450,-0.029114,-0.985344,0.999998,0.000145,-0.000669,0.001541,-0.000227,0.001564,-0.000693,-84.188264,0.001568,
1390,100,-0.020865,-4.914121,0.999999,0.000129,-0.000143,0.001609,-0.000130,0.001618,-0.000153,-85.773104,0.001787,
920,1940,0.059308,-0.165288,0.999998,0.000154,-0.000260,0.001845,-0.000294,0.001885,-0.000300,-82.193531,0.002026,
970,650,0.265687,-3.721224,0.999998,0.000170,-0.001524,0.002636,-0.000424,0.002679,-0.001567,-84.238573,0.002692,
1280,1200,-0.112483,-1.254246,0.999914,0.001101,-0.001686,0.000375,-0.000042,0.000376,-0.001687,-88.824442,0.001771,
720,1420,0.624782,-1.513749,0.999998,0.000175,-0.001356,0.002652,-0.000046,0.002653,-0.001357,-89.336623,0.002653,
1480,2000,-0.014919,-0.057176,0.999998,0.000174,-0.000082,0.001600,0.000191,0.001621,-0.000103,83.611904,0.001816,
670,1910,0.244709,-0.297653,0.999998,0.000201,-0.000919,0.002520,-0.000541,0.002603,-0.001002,-81.268045,0.002626,
1720,1690,-0.400058,-0.799118,0.999998,0.000149,-0.001204,0.002523,0.000003,0.002523,-0.001204,89.950897,0.002523,
1020,90,0.025994,-4.926880,0.999999,0.000135,-0.000163,0.001638,0.000164,0.001653,-0.000178,84.834471,0.001815,
930,870,0.543087,-3.000964,0.999998,0.000181,-0.001639,0.003212,0.000275,0.003228,-0.001654,86.760970,0.003228,
1620,1440,-0.435017,-1.360111,0.999997,0.000176,-0.001462,0.002696,-0.000136,0.002700,-0.001467,-88.134432,0.002704,
1520,890,-0.551556,-2.949418,0.999998,0.000167,-0.001570,0.003221,-0.000280,0.003237,-0.001587,-86.664535,0.003237,
930,570,0.286770,-3.881170,0.999998,0.000161,-0.001349,0.002509,-0.000296,0.002532,-0.001371,-85.632365,0.002535,
1660,1710,-0.317682,-0.708012,0.999998,0.000168,-0.001155,0.002416,0.000000,0.002416,-0.001155,-89.994251,0.002416,
1580,1070,-0.733710,-2.403711,0.999998,0.000198,-0.000974,0.002763,0.000191,0.002773,-0.000983,87.080942,0.002811,
760,1020,0.865417,-2.538540,0.999998,0.000158,-0.001035,0.002499,0.000046,0.002500,-0.001036,89.249259,0.002512,
1620,110,-0.081734,-4.875914,0.999999,0.000130,-0.000330,0.001947,-0.000403,0.002017,-0.000399,-80.258224,0.002136,
680,190,0.298518,-4.634982,0.999998,0.000189,-0.001082,0.002526,0.000332,0.002556,-0.001113,84.778691,0.002563,
760,390,0.398587,-4.191251,0.999998,0.000197,-0.001206,0.002479,-0.000035,0.002480,-0.001207,-89.457480,0.002480,
1110,170,0.032566,-4.799372,0.999999,0.000130,-0.000284,0.001692,0.000062,0.001694,-0.000286,88.195021,0.001814,
1620,190,-0.158402,-4.710426,0.999998,0.000175,-0.000637,0.002134,-0.000304,0.002167,-0.000670,-83.819724,0.002219,
1420,1450,-0.154785,-1.115996,0.999999,0.000125,-0.001155,0.002210,-0.000511,0.002286,-0.001231,-81.554491,0.002288,
1580,1080,-0.727785,-2.375216,0.999998,0.000190,-0.001000,0.002785,0.000235,0.002799,-0.001014,86.460265,0.002834,
1820,40,-0.048656,-4.993015,0.999998,0.000169,-0.000614,0.002200,-0.000842,0.002432,-0.000847,-74.556756,0.002469,
1380,610,-0.111546,-3.961406,0.999998,0.000179,-0.001025,0.002009,0.000536,0.002101,-0.001117,80.271467,0.002103,
700,1350,0.712377,-1.710851,0.999998,0.000156,-0.001326,0.002621,-0.000136,0.002626,-0.001330,-88.034077,0.002626,
1570,40,-0.014002,-5.005224,0.999999,0.000113,-0.000115,0.001629,-0.000327,0.001688,-0.000174,-79.721901,0.001857,
810,60,0.041798,-4.967478,0.999999,0.000132,-0.000228,0.001853,0.000487,0.001961,-0.000336,77.461908,0.002098,
720,80,0.095027,-4.916279,0.999998,0.000163,-0.000563,0.002055,0.000630,0.002199,-0.000706,77.145771,0.002245,
1750,1430,-0.626909,-1.491613,0.999998,0.000173,-0.001336,0.002618,0.000040,0.002618,-0.001337,89.421334,0.002618,
590,620,0.782358,-3.469743,0.999997,0.000211,-0.001342,0.002515,0.000002,0.002515,-0.001342,89.967527,0.002517,
1710,610,-0.560010,-3.618811,0.999997,0.000192,-0.001406,0.002656,-0.000004,0.002656,-0.001406,-89.945040,0.002658,
840,1600,0.344006,-0.950655,0.999998,0.000174,-0.001196,0.002493,0.000110,0.002496,-0.001199,88.299769,0.002497,
1160,320,0.033812,-4.544633,0.999998,0.000153,-0.000480,0.001817,-0.000002,0.001817,-0.000480,-89.950689,0.001883,
1670,1960,-0.085834,-0.141261,0.999999,0.000146,-0.000446,0.001995,0.000502,0.002095,-0.000545,78.811571,0.002173,
810,80,0.063105,-4.930063,0.999999,0.000139,-0.000318,0.001904,0.000489,0.002007,-0.000420,78.122195,0.002116,
1800,1230,-0.868911,-2.037981,0.999999,0.000148,-0.001211,0.002450,0.000190,0.002459,-0.001221,87.044486,0.002459,
1370,100,-0.018238,-4.914602,0.999999,0.000151,-0.000114,0.001613,-0.000105,0.001619,-0.000121,-86.524594,0.001804,
1580,1760,-0.205911,-0.542844,0.999998,0.000170,-0.000898,0.002244,0.000057,0.002245,-0.000899,88.965025,0.002260,
1510,1820,-0.120092,-0.388793,0.999998,0.000164,-0.000647,0.002007,0.000091,0.002010,-0.000650,88.033460,0.002051,
950,1900,0.077130,-0.234684,0.999999,0.000134,-0.000410,0.001871,-0.000229,0.001893,-0.000432,-84.332955,0.001984,
930,850,0.515300,-3.065468,0.999998,0.000180,-0.001739,0.003238,0.000198,0.003246,-0.001747,87.729087,0.003249,
1610,320,-0.249280,-4.424113,0.999997,0.000210,-0.000929,0.002323,-0.000043,0.002323,-0.000930,-89.251241,0.002339,
1530,300,-0.170295,-4.507914,0.999998,0.000178,-0.000747,0.002129,-0.000027,0.002129,-0.000747,-89.467580,0.002161,
720,1400,0.641268,-1.565692,0.999997,0.000186,-0.001375,0.002637,-0.000081,0.002638,-0.001377,-88.846721,0.002639,
830,160,0.137492,-4.771132,0.999998,0.000153,-0.000514,0.002120,0.000393,0.002177,-0.000571,81.687803,0.002258,
1620,1420,-0.448512,-1.414370,0.999997,0.000196,-0.001500,0.002752,-0.000105,0.002754,-0.001503,-88.583312,0.002758,
1110,470,0.078417,-4.252466,0.999998,0.000150,-0.000706,0.001878,-0.000192,0.001893,-0.000720,-85.781222,0.001911,
580,430,0.650963,-3.944827,0.999998,0.000178,-0.002227,0.002517,-0.000135,0.002520,-0.002231,-88.370628,0.002759,
1020,1710,0.123929,-0.585630,0.999998,0.000162,-0.000719,0.002003,0.000060,0.002004,-0.000720,88.744179,0.002031,
680,170,0.271408,-4.683310,0.999998,0.000165,-0.001032,0.002519,0.000407,0.002565,-0.001078,83.549706,0.002576,
1660,1690,-0.331861,-0.754936,0.999998,0.000147,-0.001187,0.002423,-0.000020,0.002423,-0.001187,-89.676376,0.002424,
970,1310,0.321048,-1.586059,0.999997,0.000198,-0.001775,0.002996,0.000360,0.003023,-0.001802,85.704801,0.003041,
870,320,0.234840,-4.431764,0.999998,0.000142,-0.000946,0.002313,0.000037,0.002314,-0.000946,89.347524,0.002327,
1690,160,-0.175725,-4.753911,0.999999,0.000153,-0.000737,0.002262,-0.000429,0.002322,-0.000797,-82.010138,0.002360,
760,980,0.856890,-2.638060,0.999998,0.000163,-0.001069,0.002494,0.000108,0.002497,-0.001072,88.268647,0.002505,
1500,800,-0.387135,-3.270970,0.999997,0.000210,-0.001906,0.003240,0.000161,0.003245,-0.001911,88.208503,0.003262,
720,340,0.407829,-4.287028,0.999998,0.000189,-0.001212,0.002547,0.000004,0.002547,-0.001212,89.942956,0.002548,
930,550,0.279629,-3.932661,0.999998,0.000169,-0.001292,0.002492,-0.000275,0.002512,-0.001311,-85.866262,0.002512,
1100,1620,0.083034,-0.727527,0.999998,0.000159,-0.000695,0.001897,0.000149,0.001906,-0.000704,86.718785,0.001928,
860,1870,0.142946,-0.313159,0.999998,0.000165,-0.000633,0.002097,-0.000268,0.002123,-0.000659,-84.437436,0.002173,
1700,1230,-0.739690,-1.998372,0.999998,0.000155,-0.001352,0.002699,0.000292,0.002720,-0.001373,85.898638,0.002720,
1600,90,-0.059970,-4.915421,0.999999,0.000139,-0.000280,0.001829,-0.000363,0.001889,-0.000341,-80.506790,0.002014,
1110,150,0.026518,-4.834276,0.999999,0.000120,-0.000231,0.001661,0.000084,0.001665,-0.000235,87.458352,0.001802,
720,510,0.530963,-3.854835,0.999998,0.000164,-0.001299,0.002564,-0.000064,0.002565,-0.001300,-89.044412,0.002565,
920,1920,0.074947,-0.203046,0.999998,0.000142,-0.000306,0.001858,-0.000273,0.001892,-0.000340,-82.922769,0.002017,
1470,2000,-0.013625,-0.056513,0.999998,0.000188,-0.000043,0.001595,0.000193,0.001618,-0.000066,83.382017,0.001831,
970,630,0.255515,-3.772331,0.999998,0.000178,-0.001459,0.002535,-0.000416,0.002578,-0.001502,-84.110051,0.002590,
1500,640,-0.270928,-3.738280,0.999998,0.000185,-0.001498,0.002592,0.000397,0.002630,-0.001536,84.499779,0.002642,
720,60,0.064435,-4.958005,0.999998,0.000163,-0.000415,0.002079,0.000712,0.002268,-0.000603,75.143291,0.002349,
1560,40,-0.012963,-5.005297,0.999999,0.000127,-0.000046,0.001631,-0.000316,0.001689,-0.000104,-79.680400,0.001893,
790,100,0.093350,-4.888537,0.999998,0.000152,-0.000470,0.002039,0.000501,0.002136,-0.000566,79.123032,0.002213,
970,610,0.249694,-3.823816,0.999998,0.000168,-0.001370,0.002524,-0.000396,0.002564,-0.001410,-84.251710,0.002568,
1340,1370,-0.073368,-1.170635,0.999999,0.000140,-0.000947,0.001752,-0.000734,0.001938,-0.001133,-75.728075,0.001948,
1380,590,-0.110370,-3.999576,0.999999,0.000113,-0.000959,0.001993,0.000450,0.002060,-0.001026,81.521727,0.002060,
1120,1250,0.107051,-1.390927,0.999998,0.000200,-0.001355,0.001828,0.001128,0.002187,-0.001714,72.340792,0.002301,
1370,880,-0.278371,-3.386888,0.999998,0.000178,-0.001104,0.002071,0.001202,0.002475,-0.001507,71.429013,0.002494,
810,50,0.031519,-4.985949,0.999999,0.000149,-0.000203,0.001786,0.000470,0.001892,-0.000308,77.348543,0.002030,
1350,160,-0.028180,-4.818700,0.999998,0.000145,-0.000261,0.001678,-0.000087,0.001681,-0.000265,-87.445066,0.001808,
720,540,0.552842,-3.777205,0.999997,0.000180,-0.001323,0.002620,-0.000036,0.002620,-0.001323,-89.478272,0.002620,
1160,300,0.031439,-4.581292,0.999998,0.000149,-0.000440,0.001750,0.000002,0.001750,-0.000440,89.959401,0.001820,
1650,1960,-0.078326,-0.138786,0.999999,0.000167,-0.000336,0.001942,0.000461,0.002032,-0.000425,78.992875,0.002143,
1630,100,-0.077123,-4.893325,0.999999,0.000139,-0.000288,0.001921,-0.000413,0.001996,-0.000363,-79.751558,0.002126,
1750,1650,-0.468431,-0.923636,0.999998,0.000200,-0.001246,0.002519,-0.000038,0.002520,-0.001247,-89.426236,0.002520,
600,1730,0.540015,-0.815951,0.999999,0.000151,-0.001233,0.002469,0.000046,0.002470,-0.001234,89.294102,0.002470,
1710,590,-0.543923,-3.670630,0.999997,0.000199,-0.001380,0.002640,0.000015,0.002640,-0.001380,89.782259,0.002641,
970,1290,0.337360,-1.648874,0.999997,0.000224,-0.001825,0.003102,0.000295,0.003119,-0.001843,86.587988,0.003136,
1620,1400,-0.462409,-1.472190,0.999997,0.000189,-0.001530,0.002791,-0.000074,0.002793,-0.001531,-89.013585,0.002797,
930,830,0.487529,-3.129561,0.999998,0.000181,-0.001789,0.003218,0.000127,0.003221,-0.001792,88.551527,0.003228,
1110,450,0.078829,-4.289523,0.999998,0.000181,-0.000681,0.001886,-0.000160,0.001896,-0.000691,-86.454145,0.001919,
1840,90,-0.182853,-4.848987,0.999998,0.000160,-0.001154,0.002683,-0.000572,0.002766,-0.001237,-81.700262,0.002771,
930,530,0.269401,-3.982341,0.999998,0.000174,-0.001209,0.002444,-0.000243,0.002461,-0.001225,-86.211908,0.002461,
1690,480,-0.442748,-3.973628,0.999998,0.000144,-0.001253,0.002544,0.000079,0.002545,-0.001255,88.810514,0.002545,
1000,1710,0.138496,-0.593034,0.999998,0.000146,-0.000676,0.002057,0.000053,0.002058,-0.000677,88.882857,0.002097,
760,960,0.848817,-2.688948,0.999999,0.000144,-0.001118,0.002545,0.000197,0.002555,-0.001129,86.929057,0.002561,
1580,1060,-0.736881,-2.431788,0.999998,0.000202,-0.000951,0.002735,0.000151,0.002741,-0.000957,87.659279,0.002782,
720,470,0.503584,-3.957873,0.999998,0.000175,-0.001270,0.002544,-0.000052,0.002545,-0.001271,-89.225093,0.002545,
1680,1210,-0.732815,-2.044544,0.999998,0.000163,-0.001366,0.002732,0.000311,0.002756,-0.001390,85.682459,0.002756,
870,300,0.220998,-4.479075,0.999998,0.000163,-0.000912,0.002292,0.000059,0.002293,-0.000913,88.939505,0.002309,
720,1600,0.493917,-1.043632,0.999998,0.000167,-0.001242,0.002532,0.000048,0.002532,-0.001243,89.276188,0.002533,
1450,100,-0.029400,-4.910730,0.999999,0.000150,-0.000196,0.001683,-0.000172,0.001699,-0.000211,-84.798139,0.001852,
1890,1710,-0.592917,-0.891776,0.999998,0.000160,-0.001260,0.002420,0.000000,0.002420,-0.001260,89.997332,0.002421,
1110,130,0.022312,-4.866158,0.999998,0.000132,-0.000197,0.001649,0.000084,0.001653,-0.000200,87.406245,0.001804,
920,190,0.111276,-4.732833,0.999998,0.000191,-0.000465,0.001991,0.000220,0.002011,-0.000485,84.923828,0.002099,
1060,850,0.269639,-3.333052,0.999997,0.000197,-0.001866,0.002973,-0.000775,0.003094,-0.001987,-81.122743,0.003135,
1550,40,-0.012806,-5.005477,0.999999,0.000139,-0.000004,0.001631,-0.000297,0.001684,-0.000056,-80.006607,0.001913,
710,1990,0.078109,-0.093834,0.999998,0.000149,-0.000497,0.002166,-0.000733,0.002355,-0.000685,-75.582261,0.002422,
920,1900,0.087950,-0.238937,0.999998,0.000150,-0.000366,0.001914,-0.000257,0.001943,-0.000395,-83.643028,0.002054,
900,40,0.013628,-5.004987,0.999999,0.000102,-0.000084,0.001627,0.000314,0.001683,-0.000140,79.923184,0.001868,
1270,1960,-0.004759,-0.114940,0.999999,0.000157,-0.000112,0.001560,0.000027,0.001561,-0.000112,89.092253,0.001741,
1610,80,-0.054112,-4.932535,0.999999,0.000136,-0.000225,0.001858,-0.000396,0.001931,-0.000298,-79.592675,0.002079,
1880,1210,-0.977076,-2.123873,0.999999,0.000126,-0.001134,0.002305,0.000082,0.002307,-0.001136,88.635197,0.002307,
1170,160,0.014556,-4.820930,0.999999,0.000137,-0.000179,0.001656,0.000043,0.001657,-0.000180,88.643481,0.001818,
1610,1640,-0.307104,-0.840922,0.999998,0.000175,-0.001129,0.002421,-0.000066,0.002422,-0.001130,-88.928753,0.002424,
1120,1270,0.094790,-1.352709,0.999998,0.000174,-0.001303,0.001823,0.001128,0.002188,-0.001667,72.095975,0.002286,
860,2010,0.023197,-0.044591,0.999998,0.000159,-0.000097,0.001651,-0.000392,0.001735,-0.000180,-77.928435,0.001908,
1710,160,-0.189627,-4.746919,0.999998,0.000181,-0.000701,0.002317,-0.000488,0.002393,-0.000778,-81.043409,0.002442,
1360,880,-0.268737,-3.437741,0.999997,0.000193,-0.000878,0.001771,0.001178,0.002219,-0.001326,69.181759,0.002233,
590,380,0.600299,-4.077074,0.999998,0.000162,-0.001743,0.002343,0.000005,0.002343,-0.001743,89.930357,0.002434,
720,450,0.490368,-4.007560,0.999998,0.000189,-0.001275,0.002523,-0.000050,0.002523,-0.001275,-89.243230,0.002523,
1620,170,-0.140518,-4.752264,0.999998,0.000143,-0.000571,0.002101,-0.000343,0.002144,-0.000614,-82.808544,0.002208,
930,510,0.264511,-4.029077,0.999998,0.000177,-0.001141,0.002394,-0.000227,0.002408,-0.001155,-86.345474,0.002409,
1840,1010,-1.009785,-2.559165,0.999998,0.000201,-0.001079,0.002247,-0.000064,0.002248,-0.001080,-88.892045,0.002249,
1250,1210,-0.039948,-1.203860,0.999998,0.000163,-0.002050,0.000665,0.000099,0.000668,-0.002054,87.907410,0.002095,
760,940,0.836323,-2.740179,0.999998,0.000147,-0.001144,0.002522,0.000216,0.002535,-0.001156,86.638345,0.002538,
930,1900,0.083552,-0.237045,0.999998,0.000149,-0.000366,0.001882,-0.000240,0.001907,-0.000391,-83.984360,0.002014,
1580,50,-0.022372,-4.989333,0.999999,0.000137,-0.000184,0.001672,-0.000339,0.001732,-0.000244,-79.957640,0.001875,
1690,460,-0.430854,-4.024266,0.999998,0.000153,-0.001249,0.002540,0.000064,0.002541,-0.001250,89.039983,0.002541,
1110,430,0.073388,-4.327647,0.999998,0.000192,-0.000664,0.001904,-0.000148,0.001912,-0.000673,-86.703183,0.001940,
1190,160,0.010852,-4.822220,0.999998,0.000157,-0.000239,0.001655,0.000031,0.001655,-0.000240,89.075435,0.001789,
1130,160,0.023217,-4.818594,0.999998,0.000149,-0.000293,0.001675,0.000035,0.001676,-0.000294,88.979603,0.001790,
800,1320,0.597053,-1.729268,0.999998,0.000188,-0.001517,0.002805,-0.000138,0.002810,-0.001522,-88.167947,0.002813,
1880,1710,-0.579839,-0.883815,0.999998,0.000153,-0.001254,0.002440,-0.000029,0.002441,-0.001254,-89.553517,0.002441,
970,1270,0.358997,-1.710958,0.999998,0.000194,-0.001871,0.003164,0.000252,0.003177,-0.001884,87.140025,0.003195,
1600,1790,-0.203703,-0.486810,0.999997,0.000209,-0.000839,0.002227,0.000131,0.002232,-0.000845,87.565494,0.002254,
1160,280,0.029704,-4.615079,0.999998,0.000172,-0.000416,0.001783,0.000004,0.001784,-0.000416,89.904959,0.001866,
1110,110,0.016946,-4.900320,0.999999,0.000136,-0.000170,0.001612,0.000076,0.001615,-0.000174,87.553584,0.001774,
1390,300,-0.075935,-4.561348,0.999998,0.000177,-0.000511,0.001884,0.000015,0.001884,-0.000511,89.651435,0.001948,
810,440,0.372271,-4.103364,0.999998,0.000163,-0.001184,0.002452,-0.000086,0.002454,-0.001186,-88.650457,0.002454,
1710,2010,-0.038098,-0.050230,0.999999,0.000145,-0.000056,0.001901,0.000644,0.002094,-0.000249,73.334162,0.002288,
930,810,0.461293,-3.193416,0.999997,0.000189,-0.001805,0.003169,0.000031,0.003170,-0.001805,89.643632,0.003180,
810,40,0.021817,-5.004191,0.999998,0.000177,-0.000164,0.001754,0.000457,0.001858,-0.000268,77.257986,0.002008,
790,180,0.185259,-4.716417,0.999999,0.000137,-0.000810,0.002251,0.000334,0.002287,-0.000846,83.837157,0.002313,
570,1130,1.038509,-2.307410,0.999998,0.000192,-0.000980,0.002210,-0.000075,0.002212,-0.000982,-88.660309,0.002216,
670,1430,0.683654,-1.522323,0.999998,0.000182,-0.001323,0.002568,-0.000050,0.002569,-0.001323,-89.271224,0.002569,
800,750,0.612139,-3.267345,0.999997,0.000193,-0.001500,0.002858,0.000161,0.002864,-0.001506,87.893790,0.002866,
1190,500,0.026657,-4.227269,0.999998,0.000150,-0.000630,0.001722,-0.000077,0.001725,-0.000632,-88.138699,0.001745,
1000,1650,0.156192,-0.719277,0.999998,0.000164,-0.000838,0.002138,0.000151,0.002146,-0.000846,87.103388,0.002162,
680,400,0.504532,-4.103753,0.999997,0.000182,-0.001235,0.002540,-0.000032,0.002541,-0.001236,-89.512189,0.002541,
710,1790,0.351614,-0.572064,0.999998,0.000197,-0.001190,0.002505,-0.000116,0.002508,-0.001194,-88.201332,0.002509,
590,1730,0.553802,-0.826543,0.999998,0.000164,-0.001687,0.002651,0.000089,0.002653,-0.001689,88.825137,0.002686,
720,520,0.538100,-3.829297,0.999998,0.000162,-0.001305,0.002583,-0.000055,0.002584,-0.001306,-89.193414,0.002584,
1580,1400,-0.399560,-1.432831,0.999998,0.000179,-0.001553,0.002778,-0.000153,0.002783,-0.001559,-87.984931,0.002790,
710,1970,0.109012,-0.138619,0.999998,0.000148,-0.000675,0.002149,-0.000624,0.002281,-0.000807,-78.087835,0.002313,
1360,40,-0.004771,-5.008502,0.999999,0.000116,-0.000016,0.001514,-0.000079,0.001518,-0.000020,-87.054855,0.001741,
1460,1450,-0.204258,-1.165151,0.999999,0.000150,-0.001280,0.002418,-0.000491,0.002482,-0.001344,-82.571361,0.002485,
1750,1410,-0.642159,-1.544566,0.999998,0.000185,-0.001351,0.002638,0.000042,0.002639,-0.001351,89.396047,0.002639,
850,460,0.335217,-4.085683,0.999999,0.000151,-0.001210,0.002485,-0.000106,0.002488,-0.001213,-88.360894,0.002489,
780,110,0.110737,-4.865298,0.999998,0.000157,-0.000515,0.002127,0.000532,0.002230,-0.000619,79.032840,0.002303,
1620,1820,-0.195043,-0.428000,0.999998,0.000184,-0.000734,0.002242,0.000210,0.002257,-0.000749,85.975534,0.002299,
720,490,0.517766,-3.904954,0.999998,0.000179,-0.001272,0.002563,-0.000054,0.002564,-0.001273,-89.190801,0.002564,
800,1550,0.424628,-1.108111,0.999998,0.000153,-0.001315,0.002559,0.000106,0.002562,-0.001318,88.433732,0.002563,
1710,570,-0.530855,-3.724119,0.999997,0.000214,-0.001355,0.002652,0.000048,0.002653,-0.001356,89.311155,0.002653,
1520,1170,-0.545865,-2.073663,0.999998,0.000178,-0.001619,0.003237,0.000282,0.003254,-0.001635,86.688521,0.003254,
970,990,0.651756,-2.643865,0.999998,0.000175,-0.001088,0.003334,0.000135,0.003338,-0.001092,88.254356,0.003404,
750,360,0.387468,-4.257342,0.999998,0.000167,-0.001150,0.002498,0.000038,0.002498,-0.001150,89.407447,0.002501,
730,520,0.525361,-3.837706,0.999998,0.000152,-0.001290,0.002584,-0.000052,0.002585,-0.001291,-89.225283,0.002585,
1500,680,-0.290249,-3.630992,0.999998,0.000183,-0.001605,0.002761,0.000394,0.002796,-0.001641,84.885483,0.002810,
1620,150,-0.120049,-4.795275,0.999998,0.000164,-0.000488,0.002073,-0.000376,0.002127,-0.000542,-81.810084,0.002211,
1870,1210,-0.966418,-2.118121,0.999999,0.000134,-0.001127,0.002324,0.000114,0.002328,-0.001131,88.103226,0.002328,
720,360,0.424015,-4.234848,0.999998,0.000177,-0.001221,0.002522,0.000000,0.002522,-0.001221,89.999279,0.002522,
630,620,0.731978,-3.499495,0.999998,0.000181,-0.001275,0.002550,0.000015,0.002550,-0.001275,89.772379,0.002550,
930,170,0.095085,-4.773126,0.999999,0.000140,-0.000432,0.001933,0.000228,0.001955,-0.000454,84.551319,0.002047,
1840,1070,-1.004993,-2.425114,0.999998,0.000190,-0.001041,0.002224,0.000047,0.002225,-0.001042,89.180760,0.002227,
1250,1960,-0.002725,-0.114087,0.999999,0.000141,-0.000078,0.001553,-0.000008,0.001553,-0.000078,-89.718723,0.001750,
570,940,1.046419,-2.699462,0.999996,0.000245,-0.000942,0.002094,0.000027,0.002094,-0.000942,89.487960,0.002097,
760,920,0.825687,-2.790099,0.999999,0.000135,-0.001176,0.002546,0.000234,0.002560,-0.001191,86.421752,0.002562,
930,490,0.255557,-4.078185,0.999998,0.000165,-0.001112,0.002368,-0.000219,0.002382,-0.001126,-86.414753,0.002383,
760,1350,0.628580,-1.673030,0.999998,0.000189,-0.001428,0.002745,-0.000122,0.002749,-0.001432,-88.324973,0.002750,
1030,1960,0.025542,-0.120784,0.999999,0.000153,-0.000185,0.001658,-0.000149,0.001670,-0.000197,-85.417707,0.001825,
1110,160,0.029529,-4.817170,0.999999,0.000125,-0.000255,0.001689,0.000080,0.001692,-0.000258,87.636046,0.001824,
1610,1620,-0.319388,-0.889845,0.999999,0.000186,-0.001183,0.002442,-0.000113,0.002445,-0.001186,-88.216974,0.002446,
1050,1900,0.044083,-0.220052,0.999998,0.000217,-0.000309,0.001740,-0.000105,0.001746,-0.000314,-87.079728,0.001861,
860,510,0.349040,-3.969854,0.999998,0.000194,-0.001278,0.002488,-0.000163,0.002495,-0.001285,-87.532824,0.002495,
1600,1810,-0.189609,-0.442393,0.999998,0.000177,-0.000798,0.002222,0.000159,0.002230,-0.000807,86.997243,0.002258,
1680,70,-0.060845,-4.945974,0.999999,0.000106,-0.000319,0.001921,-0.000542,0.002046,-0.000443,-77.087023,0.002152,
820,2000,0.036516,-0.062091,0.999999,0.000136,-0.000165,0.001800,-0.000456,0.001900,-0.000265,-77.560046,0.002058,
1160,260,0.028621,-4.651865,0.999999,0.000143,-0.000386,0.001746,0.000015,0.001747,-0.000386,89.587916,0.001835,
1000,1630,0.161024,-0.763185,0.999998,0.000156,-0.000904,0.002140,0.000199,0.002153,-0.000917,86.281115,0.002161,
800,1930,0.116758,-0.201901,0.999998,0.000176,-0.000562,0.002082,-0.000435,0.002152,-0.000632,-80.898333,0.002212,
1150,660,0.050375,-3.944990,0.999999,0.000154,-0.000757,0.001561,-0.000527,0.001675,-0.000872,-77.767338,0.001676,
1700,2010,-0.038044,-0.049547,0.999999,0.000157,-0.000100,0.001859,0.000587,0.002021,-0.000262,74.543419,0.002198,
630,1000,1.000424,-2.582653,0.999998,0.000168,-0.001080,0.002253,0.000072,0.002254,-0.001082,88.765061,0.002255,
710,1950,0.140432,-0.179534,0.999998,0.000157,-0.000814,0.002255,-0.000587,0.002364,-0.000923,-79.539600,0.002382,
1110,410,0.074052,-4.364671,0.999998,0.000186,-0.000659,0.001849,-0.000141,0.001857,-0.000667,-86.783936,0.001882,
810,160,0.148415,-4.766783,0.999998,0.000159,-0.000616,0.002143,0.000397,0.002199,-0.000672,81.974420,0.002253,
790,460,0.408657,-4.038459,0.999999,0.000152,-0.001250,0.002508,-0.000085,0.002510,-0.001252,-88.707512,0.002510,
670,1850,0.330264,-0.451315,0.999998,0.000179,-0.001108,0.002556,-0.000301,0.002580,-0.001132,-85.333152,0.002587,
800,1300,0.616699,-1.787312,0.999998,0.000191,-0.001528,0.002834,-0.000183,0.002841,-0.001536,-87.600676,0.002844,
580,1730,0.566497,-0.836369,0.999998,0.000173,-0.002799,0.003128,0.000245,0.003138,-0.002809,87.635633,0.003449,
940,40,0.013333,-5.004874,0.999999,0.000130,-0.000012,0.001614,0.000228,0.001646,-0.000043,82.178188,0.001876,
850,440,0.324255,-4.134753,0.999998,0.000193,-0.001199,0.002436,-0.000117,0.002440,-0.001203,-88.163233,0.002440,
1750,1370,-0.677322,-1.649527,0.999998,0.000189,-0.001364,0.002664,0.000105,0.002667,-0.001367,88.507391,0.002667,
720,860,0.828311,-2.934531,0.999998,0.000156,-0.001218,0.002542,0.000258,0.002559,-0.001236,86.085793,0.002560,
970,1250,0.380117,-1.775346,0.999997,0.000195,-0.001932,0.003230,0.000194,0.003238,-0.001939,87.850255,0.003259,
680,380,0.487532,-4.150976,0.999998,0.000169,-0.001229,0.002516,-0.000005,0.002516,-0.001229,-89.927229,0.002517,
1710,550,-0.515269,-3.777082,0.999998,0.000200,-0.001350,0.002593,0.000048,0.002593,-0.001351,89.301330,0.002594,
740,150,0.185054,-4.767246,0.999998,0.000147,-0.000660,0.002306,0.000538,0.002400,-0.000755,80.024815,0.002455,
970,40,0.010056,-5.006874,0.999999,0.000152,-0.000139,0.001608,0.000195,0.001630,-0.000161,83.708284,0.001797,
1500,1120,-0.593270,-2.219371,0.999998,0.000174,-0.001362,0.003334,0.000288,0.003352,-0.001379,86.508260,0.003369,
970,590,0.240215,-3.873318,0.999998,0.000160,-0.001288,0.002478,-0.000366,0.002514,-0.001323,-84.497936,0.002515,
1090,40,0.004974,-5.008254,0.999999,0.000125,-0.000034,0.001483,0.000113,0.001491,-0.000043,85.774465,0.001698,
1510,1160,-0.544635,-2.097430,0.999997,0.000195,-0.001612,0.003293,0.000255,0.003306,-0.001625,87.037324,0.003306,
610,1000,1.020297,-2.581340,0.999998,0.000161,-0.001046,0.002199,0.000077,0.002201,-0.001048,88.640548,0.002202,
800,1530,0.436257,-1.159281,0.999998,0.000136,-0.001317,0.002586,0.000113,0.002589,-0.001321,88.339478,0.002589,
720,500,0.524238,-3.879255,0.999998,0.000166,-0.001281,0.002567,-0.000055,0.002567,-0.001282,-89.181594,0.002567,
630,1140,0.970220,-2.264782,0.999999,0.000149,-0.001097,0.002295,-0.000116,0.002299,-0.001101,-88.038248,0.002300,
710,520,0.551467,-3.820346,0.999998,0.000159,-0.001310,0.002572,-0.000047,0.002572,-0.001310,-89.300422,0.002572,
1100,1600,0.084855,-0.763401,0.999998,0.000146,-0.000739,0.001895,0.000195,0.001909,-0.000754,85.800251,0.001923,
1590,80,-0.048908,-4.934226,0.999999,0.000126,-0.000290,0.001824,-0.000357,0.001883,-0.000349,-80.679990,0.002003,
1630,1120,-0.750674,-2.276200,0.999998,0.000166,-0.001141,0.002708,0.000303,0.002731,-0.001165,85.525419,0.002741,
1080,870,0.271431,-3.347900,0.999997,0.000191,-0.001571,0.002590,-0.001073,0.002850,-0.001831,-76.362178,0.002888,
680,120,0.192428,-4.808940,0.999998,0.000147,-0.000866,0.002482,0.000634,0.002598,-0.000982,79.621491,0.002623,
930,690,0.349564,-3.559564,0.999997,0.000199,-0.001642,0.002844,-0.000259,0.002859,-0.001657,-86.700573,0.002871,
1620,1840,-0.181371,-0.382931,0.999998,0.000176,-0.000680,0.002217,0.000259,0.002240,-0.000703,84.927531,0.002291,
970,970,0.632715,-2.708489,0.999997,0.000173,-0.001172,0.003320,0.000209,0.003329,-0.001182,87.337004,0.003376,
1160,1710,0.036532,-0.540440,0.999999,0.000137,-0.000508,0.001778,-0.000001,0.001778,-0.000508,-89.981765,0.001832,
1300,610,-0.043426,-4.033578,0.999999,0.000122,-0.000710,0.001600,0.000378,0.001661,-0.000770,80.944306,0.001662,
760,900,0.810253,-2.842411,0.999999,0.000144,-0.001210,0.002595,0.000303,0.002619,-0.001234,85.470975,0.002620,
1570,1960,-0.053008,-0.129323,0.999999,0.000157,-0.000300,0.001794,0.000318,0.001841,-0.000347,81.555853,0.001956,
790,440,0.396333,-4.088998,0.999997,0.000184,-0.001213,0.002477,-0.000075,0.002478,-0.001215,-88.830121,0.002478,
860,150,0.112334,-4.799380,0.999999,0.000154,-0.000529,0.002039,0.000337,0.002082,-0.000573,82.652377,0.002151,
1010,1960,0.030282,-0.121570,0.999999,0.000135,-0.000157,0.001684,-0.000176,0.001700,-0.000174,-84.593045,0.001871,
1520,670,-0.316035,-3.632986,0.999997,0.000186,-0.001602,0.002774,0.000347,0.002801,-0.001630,85.494590,0.002814,
740,1350,0.657341,-1.686417,0.999998,0.000189,-0.001429,0.002719,-0.000126,0.002722,-0.001432,-88.266169,0.002724,
1660,1210,-0.704452,-2.037170,0.999998,0.000171,-0.001377,0.002777,0.000317,0.002802,-0.001401,85.661079,0.002802,
710,1930,0.173709,-0.227054,0.999998,0.000161,-0.000901,0.002329,-0.000538,0.002416,-0.000988,-80.781023,0.002429,
1250,160,-0.005456,-4.821995,0.999998,0.000148,-0.000231,0.001636,0.000002,0.001636,-0.000231,89.940957,0.001771,
1420,40,-0.007338,-5.007477,0.999999,0.000117,-0.000074,0.001526,-0.000105,0.001533,-0.000081,-86.279293,0.001725,
1590,1640,-0.285595,-0.828381,0.999998,0.000168,-0.001075,0.002386,-0.000079,0.002388,-0.001077,-88.689278,0.002392,
1010,1900,0.054031,-0.224273,0.999999,0.000146,-0.000297,0.001777,-0.000171,0.001791,-0.000311,-85.317209,0.001914,
1150,1840,0.025269,-0.311709,0.999999,0.000152,-0.000325,0.001712,-0.000007,0.001712,-0.000325,-89.798648,0.001819,
1510,1140,-0.575649,-2.161982,0.999998,0.000167,-0.001481,0.003282,0.000293,0.003300,-0.001499,86.492779,0.003304,
740,130,0.157459,-4.812766,0.999998,0.000154,-0.000577,0.002280,0.000588,0.002396,-0.000693,78.818745,0.002466,
770,940,0.825341,-2.741243,0.999998,0.000148,-0.001128,0.002543,0.000211,0.002555,-0.001140,86.729111,0.002560,
910,1960,0.050383,-0.128946,0.999998,0.000163,-0.000214,0.001793,-0.000304,0.001838,-0.000259,-81.579101,0.001989,
1110,390,0.072133,-4.401272,0.999998,0.000182,-0.000643,0.001859,-0.000111,0.001864,-0.000648,-87.464232,0.001893,
840,2010,0.024605,-0.045243,0.999999,0.000137,-0.000100,0.001687,-0.000444,0.001792,-0.000204,-76.775962,0.001962,
1570,500,-0.302828,-4.022034,0.999998,0.000169,-0.001199,0.002466,0.000189,0.002476,-0.001208,87.061172,0.002476,
720,800,0.774364,-3.091595,0.999998,0.000190,-0.001332,0.002603,0.000241,0.002618,-0.001346,86.508988,0.002618,
780,1030,0.844169,-2.514314,0.999998,0.000168,-0.001043,0.002517,-0.000021,0.002517,-0.001043,-89.659556,0.002529,
720,820,0.790905,-3.038117,0.999998,0.000177,-0.001291,0.002624,0.000258,0.002640,-0.001308,86.250830,0.002641,
1330,1900,-0.021097,-0.213216,0.999999,0.000126,-0.000263,0.001665,0.000035,0.001666,-0.000264,88.949518,0.001791,
970,1230,0.406996,-1.840695,0.999998,0.000196,-0.001930,0.003307,0.000096,0.003308,-0.001932,88.950698,0.003324,
810,2000,0.037400,-0.062440,0.999999,0.000127,-0.000184,0.001819,-0.000457,0.001918,-0.000283,-77.726527,0.002071,
1160,240,0.024998,-4.685976,0.999999,0.000132,-0.000362,0.001730,0.000024,0.001731,-0.000362,89.346434,0.001826,
730,50,0.045986,-4.978817,0.999999,0.000132,-0.000262,0.001999,0.000702,0.002200,-0.000462,74.074049,0.002319,
710,500,0.536263,-3.872639,0.999998,0.000156,-0.001293,0.002564,-0.000050,0.002565,-0.001293,-89.261595,0.002565,
1700,230,-0.261084,-4.586999,0.999998,0.000163,-0.000958,0.002413,-0.000261,0.002433,-0.000978,-85.590360,0.002449,
930,1160,0.579453,-2.118108,0.999998,0.000169,-0.001511,0.003175,-0.000332,0.003199,-0.001535,-85.964001,0.003199,
610,1140,0.991300,-2.270858,0.999998,0.000145,-0.001067,0.002264,-0.000112,0.002268,-0.001071,-88.068355,0.002269,
1500,1100,-0.621282,-2.284427,0.999998,0.000171,-0.001224,0.003312,0.000276,0.003329,-0.001240,86.525250,0.003365,
760,880,0.793340,-2.893639,0.999998,0.000167,-0.001254,0.002596,0.000284,0.002617,-0.001275,85.806598,0.002617,
670,1870,0.304344,-0.399025,0.999998,0.000188,-0.001059,0.002548,-0.000372,0.002586,-0.001097,-84.179238,0.002596,
870,1390,0.428325,-1.473691,0.999997,0.000197,-0.001564,0.002792,0.000107,0.002795,-0.001566,88.598659,0.002802,
680,100,0.156570,-4.858811,0.999998,0.000157,-0.000721,0.002341,0.000717,0.002501,-0.000881,77.458684,0.002537,
920,210,0.125381,-4.692492,0.999998,0.000190,-0.000532,0.002017,0.000200,0.002032,-0.000548,85.539519,0.002103,
1230,160,0.000836,-4.823255,0.999999,0.000119,-0.000250,0.001632,0.000006,0.001632,-0.000250,89.808993,0.001758,
1410,820,-0.237537,-3.399629,0.999998,0.000198,-0.001939,0.002987,0.000785,0.003109,-0.002061,81.157916,0.003164,
970,950,0.605351,-2.778187,0.999998,0.000174,-0.001275,0.003386,0.000256,0.003400,-0.001289,86.869328,0.003433,
1640,1210,-0.676668,-2.029030,0.999998,0.000163,-0.001463,0.002811,0.000330,0.002836,-0.001488,85.615953,0.002837,
1180,670,0.029385,-3.957687,0.999999,0.000140,-0.000671,0.001345,-0.000403,0.001423,-0.000749,-79.110875,0.001423,
760,190,0.219913,-4.680527,0.999998,0.000172,-0.000806,0.002365,0.000374,0.002409,-0.000850,83.369525,0.002443,
1190,1960,0.005045,-0.113750,0.999999,0.000134,-0.000090,0.001561,-0.000012,0.001561,-0.000090,-89.576559,0.001753,
710,1910,0.203231,-0.273409,0.999998,0.000177,-0.000976,0.002406,-0.000447,0.002465,-0.001034,-82.593178,0.002475,
880,290,0.206335,-4.507070,0.999997,0.000189,-0.000879,0.002255,0.000079,0.002257,-0.000881,88.556863,0.002276,
1130,1840,0.032431,-0.314766,0.999999,0.000139,-0.000384,0.001706,-0.000007,0.001706,-0.000384,-89.821465,0.001790,
1070,1960,0.019674,-0.117780,0.999998,0.000152,-0.000147,0.001606,-0.000128,0.001615,-0.000156,-85.850911,0.001781,
630,1160,0.959275,-2.218397,0.999999,0.000138,-0.001095,0.002278,-0.000115,0.002282,-0.001099,-88.051088,0.002283,
860,1010,0.763396,-2.567095,0.999998,0.000186,-0.000949,0.002676,0.000082,0.002678,-0.000951,88.703273,0.002715,
1740,1290,-0.737751,-1.856219,0.999998,0.000182,-0.001363,0.002684,0.000212,0.002695,-0.001374,87.011788,0.002695,
1410,40,-0.006740,-5.007624,0.999999,0.000116,-0.000085,0.001517,-0.000116,0.001525,-0.000094,-85.882376,0.001710,
1110,370,0.069878,-4.438837,0.999998,0.000187,-0.000611,0.001910,-0.000075,0.001913,-0.000614,-88.304192,0.001953,
850,420,0.313305,-4.184394,0.999998,0.000195,-0.001158,0.002424,-0.000110,0.002427,-0.001162,-88.235044,0.002428,
720,280,0.354785,-4.438419,0.999998,0.000190,-0.001135,0.002502,0.000108,0.002506,-0.001139,88.298389,0.002509,
1830,160,-0.305587,-4.676660,0.999998,0.000197,-0.001179,0.002623,-0.000272,0.002643,-0.001199,-85.923337,0.002647,
1610,1060,-0.765965,-2.433683,0.999997,0.000207,-0.000979,0.002624,0.000133,0.002629,-0.000984,87.888623,0.002656,
1580,1380,-0.415949,-1.488726,0.999998,0.000172,-0.001610,0.002852,-0.000129,0.002856,-0.001614,-88.343961,0.002864,
800,1910,0.138008,-0.243344,0.999999,0.000171,-0.000671,0.002169,-0.000399,0.002224,-0.000726,-82.148479,0.002269,
1040,1260,0.233829,-1.601122,0.999997,0.000213,-0.001889,0.002950,0.000713,0.003053,-0.001992,81.785525,0.003100,
670,120,0.199867,-4.805330,0.999999,0.000137,-0.000811,0.002530,0.000676,0.002662,-0.000942,78.982303,0.002699,
1250,1260,-0.013316,-1.175556,0.999999,0.000140,-0.000768,0.000569,-0.000277,0.000624,-0.000823,-78.724151,0.000859,
1350,1900,-0.026735,-0.214401,0.999999,0.000116,-0.000257,0.001677,0.000060,0.001679,-0.000258,88.210341,0.001808,
830,2010,0.026099,-0.044730,0.999999,0.000109,-0.000119,0.001728,-0.000476,0.001844,-0.000234,-76.376175,0.002007,
760,860,0.777263,-2.946731,0.999998,0.000175,-0.001284,0.002657,0.000293,0.002678,-0.001306,85.778553,0.002679,
650,1160,0.936939,-2.212355,0.999998,0.000156,-0.001163,0.002336,-0.000150,0.002343,-0.001170,-87.550721,0.002343,
910,1160,0.610215,-2.131342,0.999998,0.000194,-0.001471,0.003072,-0.000362,0.003101,-0.001499,-85.471586,0.003101,
970,1210,0.436283,-1.907490,0.999998,0.000205,-0.001891,0.003353,0.000003,0.003353,-0.001892,89.971127,0.003362,
880,1810,0.175683,-0.435215,0.999998,0.000144,-0.000780,0.002146,-0.000140,0.002153,-0.000786,-87.274128,0.002178,
1750,1350,-0.696398,-1.702572,0.999998,0.000174,-0.001362,0.002633,0.000137,0.002638,-0.001367,88.032134,0.002639,
1080,40,0.005087,-5.008071,0.999999,0.000115,-0.000040,0.001511,0.000120,0.001521,-0.000049,85.591933,0.001728,
1710,970,-0.862003,-2.662568,0.999998,0.000154,-0.001088,0.002497,-0.000148,0.002503,-0.001094,-87.646735,0.002510,
1710,530,-0.501535,-3.827941,0.999998,0.000190,-0.001326,0.002589,0.000060,0.002590,-0.001327,89.129301,0.002590,
800,1280,0.636276,-1.841969,0.999998,0.000182,-0.001512,0.002802,-0.000197,0.002811,-0.001521,-87.392904,0.002814,
750,940,0.848509,-2.738053,0.999998,0.000150,-0.001121,0.002502,0.000226,0.002516,-0.001135,86.451846,0.002520,
1500,1080,-0.645643,-2.350871,0.999998,0.000165,-0.001097,0.003239,0.000214,0.003249,-0.001108,87.186297,0.003303,
1100,1580,0.087076,-0.800984,0.999999,0.000128,-0.000773,0.001931,0.000226,0.001950,-0.000792,85.250549,0.001962,
800,70,0.055712,-4.947445,0.999999,0.000115,-0.000321,0.001892,0.000499,0.002000,-0.000428,77.859549,0.002106,
970,570,0.236571,-3.922972,0.999999,0.000156,-0.001234,0.002398,-0.000352,0.002431,-0.001268,-84.519920,0.002432,
1700,210,-0.240266,-4.634750,0.999997,0.000190,-0.000888,0.002378,-0.000325,0.002410,-0.000920,-84.365198,0.002432,
710,1890,0.231736,-0.323165,0.999998,0.000186,-0.001042,0.002477,-0.000408,0.002523,-0.001089,-83.470493,0.002531,
680,80,0.122959,-4.903390,0.999998,0.000141,-0.000538,0.002365,0.000879,0.002610,-0.000784,74.393524,0.002679,
1160,670,0.043985,-3.940395,0.999999,0.000132,-0.000718,0.001468,-0.000513,0.001583,-0.000832,-77.427271,0.001584,
740,190,0.236448,-4.673228,0.999998,0.000149,-0.000837,0.002389,0.000398,0.002437,-0.000886,83.068249,0.002468,
680,360,0.472129,-4.203853,0.999998,0.000173,-0.001210,0.002521,0.000000,0.002521,-0.001210,-89.997445,0.002521,
970,930,0.574602,-2.843317,0.999998,0.000176,-0.001396,0.003369,0.000240,0.003381,-0.001408,87.128922,0.003397,
720,480,0.509683,-3.931955,0.999998,0.000172,-0.001267,0.002547,-0.000058,0.002548,-0.001268,-89.130143,0.002548,
760,1090,0.851986,-2.362963,0.999998,0.000169,-0.001077,0.002511,-0.000184,0.002521,-0.001086,-87.079639,0.002529,
860,990,0.757610,-2.619373,0.999998,0.000192,-0.000959,0.002677,0.000141,0.002682,-0.000964,87.779593,0.002717,
1250,1840,-0.006192,-0.309706,0.999999,0.000150,-0.000324,0.001699,-0.000018,0.001699,-0.000324,-89.486867,0.001804,
730,40,0.031219,-4.998672,0.999999,0.000124,-0.000187,0.001982,0.000714,0.002196,-0.000401,73.321868,0.002339,
1570,480,-0.293678,-4.071804,0.999998,0.000159,-0.001142,0.002426,0.000178,0.002435,-0.001150,87.142867,0.002436,
1320,2010,-0.002483,-0.037562,0.999999,0.000154,-0.000046,0.001539,0.000050,0.001541,-0.000047,88.189397,0.001753,
1230,220,0.001036,-4.723349,0.999999,0.000134,-0.000329,0.001683,-0.000001,0.001683,-0.000329,-89.964368,0.001784,
720,780,0.755865,-3.141832,0.999998,0.000179,-0.001360,0.002626,0.000228,0.002639,-0.001373,86.740148,0.002640,
690,1000,0.935372,-2.586031,0.999998,0.000137,-0.001095,0.002385,0.000074,0.002386,-0.001097,88.787245,0.002389,
1620,1860,-0.160237,-0.339364,0.999998,0.000158,-0.000654,0.002149,0.000282,0.002177,-0.000682,84.307225,0.002227,
1710,710,-0.643728,-3.348678,0.999998,0.000188,-0.001411,0.002702,-0.000131,0.002706,-0.001415,-88.180118,0.002707,
1330,160,-0.022321,-4.818470,0.999999,0.000104,-0.000284,0.001626,-0.000067,0.001629,-0.000286,-87.997283,0.001739,
1050,1960,0.021775,-0.119456,0.999998,0.000150,-0.000155,0.001631,-0.000113,0.001638,-0.000162,-86.382145,0.001805,
970,50,0.014020,-4.991233,0.999999,0.000141,-0.000153,0.001625,0.000203,0.001648,-0.000176,83.569467,0.001810,
1450,160,-0.055585,-4.806310,0.999999,0.000150,-0.000287,0.001777,-0.000174,0.001792,-0.000302,-85.206110,0.001919,
1240,90,-0.000735,-4.933311,0.999999,0.000118,-0.000143,0.001529,-0.000011,0.001529,-0.000143,-89.628064,0.001689,
1160,220,0.024058,-4.721010,0.999998,0.000145,-0.000324,0.001721,0.000041,0.001722,-0.000324,88.861984,0.001830,
1710,1300,-0.685986,-1.813095,0.999998,0.000182,-0.001414,0.002704,0.000193,0.002713,-0.001423,87.329088,0.002714,
1330,1960,-0.011711,-0.115464,0.999998,0.000162,-0.000128,0.001585,0.000049,0.001586,-0.000129,88.349511,0.001761,
1630,150,-0.126186,-4.792166,0.999998,0.000155,-0.000478,0.002096,-0.000396,0.002155,-0.000537,-81.452634,0.002244,
720,260,0.334880,-4.488011,0.999998,0.000193,-0.001109,0.002504,0.000159,0.002511,-0.001116,87.488530,0.002516,
880,1010,0.744413,-2.568540,0.999998,0.000195,-0.000933,0.002733,0.000087,0.002735,-0.000935,88.633780,0.002780,
770,1980,0.071328,-0.106243,0.999999,0.000115,-0.000323,0.001949,-0.000569,0.002084,-0.000457,-76.702932,0.002190,
760,840,0.756165,-3.001405,0.999998,0.000163,-0.001329,0.002686,0.000296,0.002708,-0.001351,85.807815,0.002708,
970,1190,0.465570,-1.974305,0.999997,0.000201,-0.001830,0.003350,-0.000078,0.003351,-0.001832,-89.132742,0.003356,
1370,1900,-0.031697,-0.216055,0.999999,0.000106,-0.000226,0.001686,0.000103,0.001691,-0.000232,86.921986,0.001834,
670,100,0.165046,-4.856105,0.999998,0.000159,-0.000659,0.002417,0.000778,0.002603,-0.000844,76.577176,0.002656,
980,40,0.008928,-5.007036,0.999999,0.000138,-0.000079,0.001616,0.000203,0.001640,-0.000103,83.261347,0.001837,
1750,1360,-0.685652,-1.676845,0.999998,0.000185,-0.001366,0.002653,0.000120,0.002656,-0.001370,88.284886,0.002657,
1110,350,0.065019,-4.478562,0.999998,0.000172,-0.000566,0.001861,-0.000060,0.001862,-0.000567,-88.588762,0.001909,
690,1160,0.891383,-2.200429,0.999999,0.000136,-0.001168,0.002456,-0.000200,0.002467,-0.001179,-86.856708,0.002468,
1710,950,-0.850592,-2.713116,0.999998,0.000154,-0.001119,0.002551,-0.000230,0.002565,-0.001133,-86.424584,0.002571,
1720,1170,-0.818509,-2.162948,0.999999,0.000141,-0.001242,0.002600,0.000280,0.002621,-0.001262,85.856840,0.002621,
1500,1060,-0.662648,-2.416037,0.999998,0.000168,-0.001002,0.003278,0.000141,0.003282,-0.001006,88.121157,0.003363,
680,1350,0.738321,-1.723995,0.999998,0.000179,-0.001331,0.002584,-0.000130,0.002588,-0.001336,-88.097176,0.002589,
590,480,0.674281,-3.827894,0.999997,0.000209,-0.001428,0.002536,-0.000050,0.002537,-0.001428,-89.276608,0.002544,
740,170,0.212164,-4.720645,0.999998,0.000192,-0.000758,0.002363,0.000463,0.002430,-0.000826,81.743024,0.002472,
1240,670,-0.004831,-3.978249,0.999999,0.000130,-0.000540,0.001236,0.000098,0.001241,-0.000545,86.846596,0.001244,
800,390,0.351612,-4.220735,0.999998,0.000174,-0.001131,0.002453,-0.000043,0.002454,-0.001131,-89.304800,0.002456,
930,430,0.230070,-4.219513,0.999998,0.000157,-0.001048,0.002294,-0.000165,0.002302,-0.001056,-87.178438,0.002305,
620,1270,0.886917,-1.963074,0.999998,0.000140,-0.001221,0.002450,-0.000132,0.002455,-0.001226,-87.942626,0.002455,
710,1870,0.259541,-0.372683,0.999998,0.000158,-0.001092,0.002461,-0.000317,0.002489,-0.001120,-84.933808,0.002493,
1210,220,0.007584,-4.722665,0.999999,0.000157,-0.000342,0.001691,-0.000011,0.001691,-0.000342,-89.700565,0.001788,
1140,1710,0.047417,-0.544709,0.999998,0.000178,-0.000603,0.001799,0.000069,0.001801,-0.000605,88.355157,0.001832,
1110,220,0.042270,-4.714291,0.999998,0.000150,-0.000387,0.001741,0.000029,0.001741,-0.000388,89.225706,0.001828,
970,910,0.542912,-2.912385,0.999998,0.000174,-0.001545,0.003402,0.000212,0.003411,-0.001554,87.554022,0.003415,
1330,1840,-0.033177,-0.313178,0.999999,0.000144,-0.000368,0.001712,0.000007,0.001712,-0.000368,89.818345,0.001803,
680,60,0.079600,-4.953474,0.999999,0.000140,-0.000317,0.002286,0.000929,0.002584,-0.000615,72.237537,0.002699,
820,1030,0.804709,-2.514312,0.999997,0.000196,-0.000977,0.002568,-0.000005,0.002568,-0.000977,-89.913309,0.002592,
1570,1120,-0.680818,-2.259151,0.999998,0.000172,-0.001175,0.002885,0.000368,0.002918,-0.001208,84.865421,0.002932,
1460,170,-0.064091,-4.787399,0.999999,0.000147,-0.000332,0.001815,-0.000187,0.001831,-0.000349,-85.069979,0.001944,
1530,1960,-0.044359,-0.127551,0.999999,0.000133,-0.000203,0.001758,0.000269,0.001794,-0.000239,82.321449,0.001949,
1690,1300,-0.657277,-1.802368,0.999998,0.000146,-0.001461,0.002749,0.000184,0.002757,-0.001469,87.500345,0.002759,
1230,1840,0.000319,-0.306559,0.999998,0.000179,-0.000363,0.001700,-0.000010,0.001701,-0.000363,-89.726996,0.001791,
1310,160,-0.017574,-4.820301,0.999998,0.000156,-0.000211,0.001605,-0.000051,0.001607,-0.000212,-88.383514,0.001746,
1300,90,-0.007450,-4.931818,0.999999,0.000152,-0.000099,0.001546,-0.000049,0.001548,-0.000101,-88.303066,0.001732,
1620,90,-0.065530,-4.912792,0.999999,0.000131,-0.000250,0.001868,-0.000403,0.001942,-0.000324,-79.578575,0.002081,
820,2010,0.026503,-0.044553,0.999999,0.000117,-0.000117,0.001760,-0.000461,0.001867,-0.000224,-76.915206,0.002039,
980,50,0.013084,-4.991449,0.999999,0.000141,-0.000088,0.001625,0.000205,0.001649,-0.000112,83.274706,0.001843,
1690,1920,-0.145619,-0.230655,0.999999,0.000133,-0.000612,0.002156,0.000481,0.002238,-0.000693,80.409657,0.002291,
880,1030,0.748068,-2.513100,0.999998,0.000195,-0.000937,0.002737,-0.000011,0.002737,-0.000937,-89.821923,0.002782,
1320,2000,-0.003450,-0.053283,0.999999,0.000134,-0.000070,0.001528,0.000055,0.001530,-0.000072,88.030025,0.001726,
970,1170,0.500016,-2.041401,0.999998,0.000182,-0.001730,0.003376,-0.000157,0.003381,-0.001735,-88.241170,0.003382,
1060,830,0.236007,-3.389629,0.999997,0.000195,-0.001898,0.002917,-0.000805,0.003048,-0.002029,-80.752116,0.003103,
1750,1330,-0.712427,-1.755696,0.999998,0.000165,-0.001373,0.002608,0.000171,0.002615,-0.001380,87.539813,0.002616,
810,100,0.084311,-4.891646,0.999998,0.000171,-0.000404,0.001963,0.000471,0.002054,-0.000494,79.145783,0.002144,
1150,1640,0.049307,-0.668791,0.999999,0.000137,-0.000655,0.001837,0.000127,0.001844,-0.000661,87.082579,0.001868,
760,820,0.739738,-3.054032,0.999998,0.000158,-0.001347,0.002664,0.000260,0.002680,-0.001364,86.306161,0.002680,
1710,510,-0.488436,-3.879681,0.999997,0.000184,-0.001311,0.002582,0.000075,0.002583,-0.001312,88.895192,0.002583,
1390,1900,-0.035847,-0.217377,0.999999,0.000118,-0.000257,0.001759,0.000105,0.001765,-0.000262,87.031562,0.001905,
1730,1360,-0.657858,-1.663997,0.999998,0.000201,-0.001419,0.002685,0.000120,0.002688,-0.001422,88.330007,0.002690,
670,1160,0.914031,-2.206309,0.999999,0.000138,-0.001150,0.002392,-0.000167,0.002400,-0.001158,-87.299139,0.002400,
720,240,0.314780,-4.537869,0.999998,0.000176,-0.001082,0.002518,0.000190,0.002528,-0.001092,86.985649,0.002535,
1710,730,-0.663898,-3.294047,0.999998,0.000177,-0.001406,0.002710,-0.000173,0.002717,-0.001413,-87.603264,0.002718,
800,1260,0.657048,-1.898813,0.999998,0.000180,-0.001499,0.002820,-0.000250,0.002834,-0.001513,-86.700689,0.002836,
720,760,0.736498,-3.196317,0.999998,0.000164,-0.001362,0.002645,0.000200,0.002655,-0.001372,87.145727,0.002655,
970,550,0.230313,-3.970153,0.999999,0.000148,-0.001231,0.002389,-0.000335,0.002419,-0.001261,-84.751181,0.002420,
1670,320,-0.310503,-4.386661,0.999999,0.000126,-0.001112,0.002441,-0.000047,0.002442,-0.001113,-89.235490,0.002445,
800,50,0.032554,-4.985161,0.999999,0.000130,-0.000239,0.001783,0.000483,0.001893,-0.000349,77.236363,0.002015,
780,390,0.374833,-4.206290,0.999998,0.000162,-0.001160,0.002453,-0.000033,0.002453,-0.001161,-89.481381,0.002454,
1100,1560,0.088596,-0.838910,0.999999,0.000112,-0.000814,0.001929,0.000279,0.001957,-0.000842,84.241137,0.001963,
1710,930,-0.838598,-2.764694,0.999998,0.000184,-0.001155,0.002516,-0.000213,0.002529,-0.001167,-86.690992,0.002531,
590,470,0.667791,-3.853330,0.999998,0.000189,-0.001423,0.002581,-0.000046,0.002581,-0.001423,-89.337742,0.002586,
660,1350,0.766397,-1.736079,0.999998,0.000172,-0.001312,0.002546,-0.000111,0.002549,-0.001315,-88.347332,0.002549,
1110,330,0.064257,-4.513536,0.999998,0.000169,-0.000550,0.001848,-0.000045,0.001849,-0.000551,-88.925116,0.001899,
1500,1040,-0.670416,-2.481195,0.999997,0.000193,-0.000950,0.003209,0.000056,0.003210,-0.000950,89.232877,0.003298,
1520,1050,-0.686309,-2.453244,0.999997,0.000209,-0.000927,0.003096,0.000132,0.003100,-0.000931,88.127504,0.003181,
680,340,0.458004,-4.253652,0.999998,0.000189,-0.001201,0.002519,-0.000004,0.002519,-0.001201,-89.940207,0.002520,
1220,670,0.006180,-3.977112,0.999999,0.000115,-0.000547,0.001239,-0.000106,0.001245,-0.000553,-86.602270,0.001248,
1710,490,-0.474157,-3.931923,0.999998,0.000184,-0.001297,0.002570,0.000069,0.002571,-0.001298,88.973402,0.002571,
720,460,0.497698,-3.982836,0.999998,0.000183,-0.001270,0.002529,-0.000049,0.002530,-0.001270,-89.259207,0.002530,
1320,1710,-0.045920,-0.542942,0.999998,0.000204,-0.000576,0.001826,-0.000072,0.001828,-0.000578,-88.294833,0.001869,
670,1990,0.092685,-0.098090,0.999998,0.000168,-0.000320,0.002360,-0.000991,0.002687,-0.000647,-71.756143,0.002805,
760,130,0.148068,-4.816498,0.999999,0.000130,-0.000548,0.002210,0.000536,0.002311,-0.000649,79.388516,0.002384,
710,1850,0.285349,-0.423219,0.999998,0.000186,-0.001131,0.002455,-0.000247,0.002472,-0.001148,-86.078573,0.002474,
970,890,0.506908,-2.982697,0.999998,0.000180,-0.001677,0.003386,0.000171,0.003392,-0.001683,88.072902,0.003392,
960,50,0.015887,-4.990828,0.999999,0.000167,-0.000145,0.001617,0.000204,0.001641,-0.000168,83.482213,0.001805,
810,1160,0.743281,-2.172045,0.999998,0.000158,-0.001261,0.002711,-0.000333,0.002739,-0.001288,-85.244271,0.002740,
600,610,0.762262,-3.503144,0.999998,0.000192,-0.001251,0.002576,-0.000012,0.002576,-0.001251,-89.818409,0.002576,
930,1480,0.289321,-1.171106,0.999998,0.000180,-0.001356,0.002560,0.000272,0.002578,-0.001375,86.046366,0.002580,
1150,160,0.016961,-4.820222,0.999998,0.000149,-0.000211,0.001667,0.000037,0.001667,-0.000212,88.867374,0.001815,
1510,1960,-0.040646,-0.125606,0.999998,0.000162,-0.000237,0.001742,0.000237,0.001770,-0.000265,83.265856,0.001910,
1290,220,-0.018550,-4.720185,0.999998,0.000172,-0.000304,0.001708,-0.000024,0.001708,-0.000304,-89.322740,0.001822,
860,2000,0.030682,-0.060736,0.999998,0.000145,-0.000130,0.001705,-0.000405,0.001790,-0.000216,-78.086800,0.001955,
1750,1310,-0.732024,-1.807967,0.999998,0.000168,-0.001368,0.002643,0.000200,0.002653,-0.001378,87.155264,0.002654,
720,430,0.475836,-4.057925,0.999998,0.000176,-0.001249,0.002524,-0.000045,0.002524,-0.001249,-89.314380,0.002524,
1710,750,-0.681704,-3.240478,0.999998,0.000171,-0.001416,0.002714,-0.000197,0.002724,-0.001425,-87.277196,0.002725,
1350,40,-0.005215,-5.008635,0.999999,0.000115,-0.000027,0.001504,-0.000079,0.001509,-0.000031,-87.054282,0.001724,
1630,130,-0.107878,-4.833931,0.999998,0.000157,-0.000407,0.002012,-0.000419,0.002083,-0.000478,-80.452377,0.002182,
720,220,0.291515,-4.590010,0.999997,0.000188,-0.001076,0.002484,0.000246,0.002501,-0.001093,86.070666,0.002507,
750,40,0.030668,-4.999638,0.999999,0.000136,-0.000017,0.001938,0.000630,0.002123,-0.000203,73.599623,0.002343,
1420,750,-0.193137,-3.574774,0.999997,0.000201,-0.001704,0.002718,0.000783,0.002853,-0.001839,80.247683,0.002892,
1710,910,-0.828109,-2.813885,0.999999,0.000156,-0.001187,0.002571,-0.000264,0.002590,-0.001205,-86.003458,0.002592,
800,1240,0.679076,-1.955702,0.999998,0.000175,-0.001447,0.002783,-0.000289,0.002802,-0.001466,-86.108575,0.002803,
1270,1640,-0.023262,-0.661398,0.999998,0.000208,-0.000599,0.001772,-0.000025,0.001773,-0.000600,-89.400114,0.001803,
630,940,0.983857,-2.718485,0.999998,0.000169,-0.001086,0.002306,0.000132,0.002311,-0.001091,87.772927,0.002312,
1270,1900,-0.009258,-0.209045,0.999999,0.000139,-0.000235,0.001647,0.000017,0.001647,-0.000235,89.485937,0.001782,
1350,220,-0.040171,-4.713730,0.999998,0.000159,-0.000357,0.001743,-0.000015,0.001743,-0.000357,-89.586261,0.001842,
1110,310,0.059236,-4.550498,0.999998,0.000164,-0.000529,0.001845,-0.000042,0.001845,-0.000529,-88.989267,0.001900,
780,1670,0.371362,-0.821995,0.999997,0.000184,-0.001152,0.002485,0.000025,0.002485,-0.001152,89.609944,0.002487,
1620,1880,-0.146035,-0.298378,0.999998,0.000172,-0.000583,0.002097,0.000316,0.002134,-0.000620,83.366705,0.002195,
810,2010,0.027227,-0.044336,0.999999,0.000115,-0.000136,0.001780,-0.000449,0.001880,-0.000236,-77.432483,0.002048,
1590,50,-0.024164,-4.988498,0.999998,0.000147,-0.000177,0.001687,-0.000354,0.001752,-0.000242,-79.589690,0.001899,
1160,200,0.020342,-4.753734,0.999998,0.000153,-0.000274,0.001670,0.000057,0.001672,-0.000275,88.308000,0.001793,
1110,90,0.013725,-4.930022,0.999999,0.000137,-0.000112,0.001570,0.000057,0.001571,-0.000114,88.069793,0.001753,
1080,810,0.175530,-3.508190,0.999997,0.000191,-0.001713,0.002611,-0.001054,0.002854,-0.001956,-77.005928,0.002919,
830,820,0.638985,-3.086611,0.999997,0.000191,-0.001494,0.002892,0.000301,0.002913,-0.001514,86.095176,0.002913,
720,740,0.717279,-3.247844,0.999998,0.000175,-0.001384,0.002635,0.000193,0.002645,-0.001393,87.255121,0.002646,
680,320,0.438871,-4.303185,0.999998,0.000179,-0.001195,0.002516,0.000010,0.002516,-0.001195,89.840265,0.002517,
1600,1310,-0.507779,-1.711048,0.999997,0.000221,-0.001668,0.002949,0.000053,0.002950,-0.001669,89.345382,0.002958,
970,530,0.223201,-4.018079,0.999998,0.000156,-0.001208,0.002365,-0.000307,0.002391,-0.001235,-85.127696,0.002392,
930,790,0.438840,-3.256015,0.999997,0.000181,-0.001805,0.003151,-0.000043,0.003151,-0.001806,-89.498585,0.003162,
1280,90,-0.005887,-4.933626,0.999999,0.000141,-0.000078,0.001537,-0.000027,0.001537,-0.000078,-89.030340,0.001731,
720,440,0.482383,-4.032798,0.999998,0.000171,-0.001267,0.002526,-0.000044,0.002526,-0.001267,-89.330938,0.002526,
760,110,0.119978,-4.861952,0.999998,0.000156,-0.000443,0.002186,0.000592,0.002313,-0.000570,77.873673,0.002410,
970,1150,0.534442,-2.111842,0.999998,0.000196,-0.001615,0.003395,-0.000200,0.003403,-0.001623,-87.719004,0.003404,
970,1090,0.626431,-2.313770,0.999998,0.000202,-0.001185,0.003315,-0.000223,0.003326,-0.001196,-87.176487,0.003369,
1500,1020,-0.673960,-2.544152,0.999998,0.000194,-0.000955,0.003186,-0.000024,0.003186,-0.000955,-89.671560,0.003271,
1790,1300,-0.793676,-1.856329,0.999998,0.000148,-0.001264,0.002580,0.000189,0.002589,-0.001273,87.195065,0.002589,
1580,40,-0.015366,-5.005384,0.999999,0.000129,-0.000154,0.001632,-0.000343,0.001696,-0.000218,-79.497564,0.001845,
710,1830,0.310181,-0.471043,0.999998,0.000182,-0.001153,0.002492,-0.000193,0.002502,-0.001163,-86.982003,0.002504,
1220,1710,0.005849,-0.533826,0.999998,0.000168,-0.000519,0.001759,0.000039,0.001759,-0.000520,89.028722,0.001808,
1730,1840,-0.272771,-0.431064,0.999998,0.000158,-0.000984,0.002488,0.000309,0.002515,-0.001011,84.954988,0.002531,
1480,1450,-0.229094,-1.188698,0.999998,0.000178,-0.001317,0.002458,-0.000429,0.002506,-0.001365,-83.593023,0.002509,
670,1970,0.139295,-0.149732,0.999998,0.000170,-0.000533,0.002435,-0.000905,0.002690,-0.000788,-74.314804,0.002765,
1150,500,0.052434,-4.214306,0.999998,0.000156,-0.000715,0.001798,-0.000239,0.001821,-0.000737,-84.612557,0.001831,
1050,160,0.044924,-4.811427,0.999998,0.000137,-0.000320,0.001740,0.000091,0.001744,-0.000324,87.485513,0.001855,
930,1020,0.703215,-2.541672,0.999998,0.000175,-0.000877,0.002890,0.000062,0.002891,-0.000878,89.050198,0.002964,
1630,220,-0.191685,-4.642407,0.999998,0.000163,-0.000716,0.002212,-0.000254,0.002234,-0.000738,-85.075313,0.002277,
870,40,0.018014,-5.003773,0.999999,0.000127,-0.000117,0.001662,0.000362,0.001733,-0.000188,78.921704,0.001902,
590,610,0.775414,-3.495312,0.999998,0.000202,-0.001346,0.002521,-0.000017,0.002521,-0.001346,-89.745310,0.002523,
760,1970,0.088056,-0.127152,0.999998,0.000154,-0.000342,0.002008,-0.000588,0.002146,-0.000481,-76.716412,0.002253,
970,960,0.619459,-2.743221,0.999998,0.000161,-0.001211,0.003353,0.000237,0.003366,-0.001223,87.032942,0.003407,
1070,40,0.005492,-5.007815,0.999999,0.000118,-0.000045,0.001536,0.000113,0.001544,-0.000053,85.915878,0.001753,
1100,1540,0.089663,-0.879399,0.999998,0.000140,-0.000844,0.001918,0.000306,0.001952,-0.000878,83.758307,0.001955,
1710,470,-0.461220,-3.984010,0.999997,0.000188,-0.001268,0.002528,0.000071,0.002529,-0.001270,88.923752,0.002529,
850,1960,0.067599,-0.135836,0.999999,0.000129,-0.000294,0.001886,-0.000381,0.001951,-0.000358,-80.376570,0.002077,
1710,890,-0.810502,-2.868140,0.999999,0.000140,-0.001238,0.002611,-0.000300,0.002634,-0.001261,-85.575579,0.002635,
640,290,0.460644,-4.348479,0.999998,0.000171,-0.001197,0.002533,0.000051,0.002534,-0.001198,89.222687,0.002535,
1710,770,-0.699543,-3.185685,0.999998,0.000166,-0.001407,0.002725,-0.000213,0.002735,-0.001418,-87.061660,0.002736,
790,1160,0.768981,-2.176842,0.999998,0.000179,-0.001276,0.002668,-0.000315,0.002693,-0.001302,-85.457208,0.002694,
700,70,0.092549,-4.932374,0.999998,0.000179,-0.000527,0.002257,0.000777,0.002459,-0.000729,75.409414,0.002526,
990,160,0.063803,-4.803248,0.999998,0.000150,-0.000329,0.001849,0.000186,0.001864,-0.000344,85.146608,0.001984,
1330,220,-0.032535,-4.717204,0.999998,0.000173,-0.000392,0.001748,-0.000001,0.001748,-0.000392,-89.979197,0.001834,
930,1460,0.297748,-1.222638,0.999998,0.000173,-0.001393,0.002551,0.000286,0.002572,-0.001413,85.870586,0.002576,
1540,590,-0.306228,-3.825226,0.999997,0.000190,-0.001390,0.002560,0.000282,0.002580,-0.001410,85.934827,0.002584,
1750,1290,-0.751535,-1.862140,0.999998,0.000178,-0.001358,0.002681,0.000207,0.002692,-0.001369,87.068917,0.002692,
860,270,0.209011,-4.541427,0.999997,0.000220,-0.000891,0.002236,0.000121,0.002241,-0.000896,87.795503,0.002256,
800,1220,0.697796,-2.010911,0.999998,0.000166,-0.001387,0.002769,-0.000304,0.002791,-0.001409,-85.837405,0.002791,
1570,1900,-0.098114,-0.244999,0.999998,0.000160,-0.000471,0.001974,0.000272,0.002004,-0.000501,83.724132,0.002086,
1850,860,-0.953419,-2.897099,0.999999,0.000140,-0.001167,0.002350,-0.000131,0.002355,-0.001172,-87.867852,0.002355,
720,200,0.266925,-4.638969,0.999998,0.000170,-0.001044,0.002450,0.000282,0.002473,-0.001067,85.408569,0.002480,
1590,40,-0.017480,-5.004863,0.999998,0.000142,-0.000149,0.001643,-0.000363,0.001714,-0.000220,-78.980259,0.001865,
1630,110,-0.084956,-4.873607,0.999999,0.000140,-0.000324,0.001969,-0.000422,0.002044,-0.000400,-79.889809,0.002167,
1160,180,0.019052,-4.788386,0.999998,0.000160,-0.000206,0.001662,0.000041,0.001663,-0.000207,88.751626,0.001812,
1110,290,0.055576,-4.588188,0.999998,0.000182,-0.000491,0.001826,-0.000018,0.001826,-0.000491,-89.552324,0.001889,
1070,1580,0.111969,-0.823507,0.999999,0.000148,-0.000845,0.002016,0.000296,0.002047,-0.000875,84.151360,0.002054,
1740,1990,-0.072128,-0.091329,0.999998,0.000152,-0.000403,0.002074,0.000683,0.002249,-0.000579,75.565418,0.002336,
680,150,0.240987,-4.735307,0.999998,0.000166,-0.000973,0.002536,0.000482,0.002601,-0.001038,82.324632,0.002619,
780,1630,0.398290,-0.921358,0.999998,0.000167,-0.001197,0.002511,0.000057,0.002512,-0.001198,89.113306,0.002513,
1630,390,-0.313968,-4.246147,0.999998,0.000155,-0.001087,0.002433,0.000039,0.002433,-0.001087,89.371805,0.002438,
830,760,0.575374,-3.259926,0.999997,0.000185,-0.001585,0.002914,0.000158,0.002919,-0.001590,87.991123,0.002923,
970,510,0.215655,-4.066195,0.999998,0.000161,-0.001155,0.002312,-0.000294,0.002337,-0.001180,-85.180923,0.002337,
680,300,0.422464,-4.353601,0.999997,0.000194,-0.001183,0.002558,0.000035,0.002558,-0.001184,89.464107,0.002561,
1190,50,0.002498,-4.993942,0.999999,0.000115,-0.000032,0.001509,0.000025,0.001509,-0.000033,89.056833,0.001724,
970,1130,0.567459,-2.178279,0.999998,0.000190,-0.001475,0.003365,-0.000235,0.003376,-0.001486,-87.225585,0.003384,
720,720,0.698580,-3.300903,0.999998,0.000166,-0.001400,0.002641,0.000163,0.002648,-0.001407,87.700161,0.002650,
930,770,0.416973,-3.320307,0.999997,0.000172,-0.001798,0.003126,-0.000117,0.003129,-0.001801,-88.645005,0.003141,
840,40,0.020352,-5.004503,0.999999,0.000141,-0.000027,0.001752,0.000430,0.001851,-0.000126,77.110321,0.002068,
1110,70,0.008906,-4.962347,0.999999,0.000141,-0.000080,0.001564,0.000092,0.001569,-0.000085,86.795226,0.001765,
1500,1000,-0.665303,-2.606915,0.999998,0.000209,-0.000993,0.003313,-0.000132,0.003317,-0.000997,-88.240792,0.003404,
720,420,0.468536,-4.084418,0.999998,0.000185,-0.001237,0.002535,-0.000048,0.002535,-0.001237,-89.273181,0.002536,
1730,1820,-0.296355,-0.480012,0.999998,0.000178,-0.001031,0.002480,0.000269,0.002501,-0.001052,85.644826,0.002511,
1080,90,0.016865,-4.930731,0.999999,0.000141,-0.000118,0.001589,0.000121,0.001598,-0.000127,85.970381,0.001776,
1500,1450,-0.257081,-1.211616,0.999998,0.000175,-0.001392,0.002525,-0.000386,0.002563,-0.001429,-84.419216,0.002569,
720,300,0.374723,-4.387946,0.999998,0.000181,-0.001181,0.002491,0.000072,0.002492,-0.001183,88.877323,0.002493,
960,260,0.129105,-4.603467,0.999998,0.000180,-0.000724,0.002016,0.000062,0.002018,-0.000725,88.694632,0.002044,
670,1950,0.171652,-0.194860,0.999998,0.000164,-0.000718,0.002469,-0.000764,0.002643,-0.000892,-77.195050,0.002689,
1200,1710,0.016237,-0.535683,0.999998,0.000169,-0.000523,0.001768,0.000048,0.001769,-0.000524,88.800062,0.001817,
1770,1300,-0.767951,-1.844704,0.999998,0.000155,-0.001310,0.002646,0.000195,0.002655,-0.001319,87.186193,0.002655,
1680,1350,-0.595735,-1.658218,0.999998,0.000221,-0.001466,0.002770,0.000095,0.002772,-0.001468,88.718805,0.002773,
860,40,0.018738,-5.004209,0.999999,0.000128,-0.000084,0.001703,0.000396,0.001787,-0.000168,78.066413,0.001974,
1640,230,-0.207802,-4.617692,0.999998,0.000172,-0.000762,0.002264,-0.000243,0.002283,-0.000782,-85.429261,0.002321,
1030,160,0.050833,-4.807435,0.999998,0.000154,-0.000323,0.001753,0.000113,0.001759,-0.000329,86.881114,0.001870,
1870,1290,-0.901008,-1.930016,0.999998,0.000160,-0.001195,0.002424,0.000064,0.002425,-0.001197,88.985313,0.002426,
1830,200,-0.364902,-4.571904,0.999998,0.000171,-0.001178,0.002575,-0.000162,0.002582,-0.001185,-87.527209,0.002585,
640,270,0.440489,-4.399094,0.999998,0.000177,-0.001194,0.002531,0.000091,0.002533,-0.001196,88.597255,0.002534,
830,1960,0.074157,-0.136858,0.999999,0.000124,-0.000293,0.001917,-0.000438,0.002001,-0.000377,-79.188158,0.002126,
760,1950,0.112295,-0.166910,0.999998,0.000145,-0.000435,0.002125,-0.000582,0.002251,-0.000561,-77.782955,0.002344,
1580,70,-0.037793,-4.953972,0.999999,0.000128,-0.000259,0.001802,-0.000346,0.001859,-0.000315,-80.714301,0.001990,
680,90,0.140992,-4.880668,0.999998,0.000161,-0.000625,0.002319,0.000793,0.002519,-0.000825,75.843622,0.002568,
1100,1520,0.091759,-0.917417,0.999998,0.000141,-0.000871,0.001924,0.000373,0.001973,-0.000920,82.526491,0.001975,
1290,850,-0.114742,-3.760763,0.999998,0.000139,-0.001436,0.000801,0.000167,0.000813,-0.001449,85.751601,0.001452,
1710,1210,-0.772899,-2.055733,0.999998,0.000167,-0.001279,0.002645,0.000307,0.002669,-0.001303,85.546769,0.002670,
1710,450,-0.448301,-4.035042,0.999998,0.000182,-0.001230,0.002528,0.000070,0.002529,-0.001231,88.928762,0.002529,
1710,870,-0.793537,-2.918956,0.999998,0.000152,-0.001275,0.002583,-0.000264,0.002601,-0.001293,-86.100486,0.002601,
1590,560,-0.359150,-3.853813,0.999998,0.000173,-0.001340,0.002581,0.000172,0.002589,-0.001348,87.490724,0.002590,
1570,460,-0.285499,-4.119781,0.999998,0.000157,-0.001100,0.002403,0.000150,0.002410,-0.001107,87.557365,0.002412,
800,1200,0.719139,-2.066032,0.999998,0.000169,-0.001344,0.002757,-0.000323,0.002783,-0.001369,-85.531014,0.002783,
1620,770,-0.565395,-3.239952,0.999997,0.000220,-0.001609,0.002910,-0.000133,0.002914,-0.001613,-88.315334,0.002920,
760,210,0.242988,-4.632179,0.999998,0.000163,-0.000872,0.002391,0.000348,0.002428,-0.000909,83.975430,0.002453,
1750,1270,-0.767017,-1.914838,0.999998,0.000176,-0.001337,0.002570,0.000225,0.002583,-0.001350,86.719268,0.002584,
1100,1940,0.021886,-0.149476,0.999999,0.000140,-0.000175,0.001644,-0.000090,0.001648,-0.000180,-87.169091,0.001808,
590,1540,0.701991,-1.302131,0.999998,0.000165,-0.001383,0.002578,-0.000001,0.002578,-0.001383,-89.990327,0.002581,
680,1710,0.460584,-0.799087,0.999998,0.000171,-0.001192,0.002529,-0.000006,0.002529,-0.001192,-89.907335,0.002530,
800,950,0.799490,-2.720368,0.999998,0.000178,-0.001082,0.002621,0.000252,0.002638,-0.001099,86.124353,0.002651,
720,180,0.242573,-4.686672,0.999998,0.000154,-0.001013,0.002432,0.000336,0.002464,-0.001045,84.478723,0.002474,
810,760,0.606902,-3.245378,0.999997,0.000192,-0.001532,0.002860,0.000162,0.002866,-0.001538,87.896443,0.002869,
970,490,0.209854,-4.111230,0.999999,0.000144,-0.001082,0.002274,-0.000273,0.002296,-0.001104,-85.372059,0.002297,
1670,560,-0.468868,-3.783574,0.999997,0.000220,-0.001331,0.002633,0.000087,0.002635,-0.001333,88.745337,0.002635,
680,280,0.404678,-4.407358,0.999997,0.000213,-0.001194,0.002538,0.000098,0.002540,-0.001197,88.491804,0.002542,
1450,1220,-0.337203,-1.790040,0.999998,0.000181,-0.001944,0.003303,-0.000412,0.003336,-0.001976,-85.532391,0.003354,
1630,90,-0.069338,-4.911672,0.999999,0.000129,-0.000255,0.001888,-0.000434,0.001973,-0.000340,-78.982233,0.002109,
1130,1640,0.061336,-0.677360,0.999998,0.000183,-0.000649,0.001855,0.000154,0.001864,-0.000658,86.490374,0.001891,
1160,380,0.039440,-4.436598,0.999998,0.000142,-0.000560,0.001800,-0.000057,0.001802,-0.000562,-88.610039,0.001844,
1900,2020,-0.068861,-0.062934,0.999998,0.000000,0.000354,0.003964,0.002212,0.005014,-0.000696,64.603241,0.005433,
1630,370,-0.301620,-4.293108,0.999997,0.000173,-0.001040,0.002379,0.000008,0.002379,-0.001040,89.871637,0.002386,
720,700,0.681692,-3.354503,0.999998,0.000180,-0.001407,0.002691,0.000121,0.002694,-0.001411,88.304581,0.002695,
1190,40,0.002025,-5.009390,0.999999,0.000111,-0.000027,0.001508,0.000009,0.001508,-0.000027,89.658123,0.001726,
800,2010,0.029135,-0.046586,0.999999,0.000121,-0.000173,0.001801,-0.000454,0.001900,-0.000272,-77.658458,0.002056,
1000,620,0.211203,-3.834512,0.999998,0.000152,-0.001336,0.002425,-0.000490,0.002487,-0.001399,-82.703011,0.002494,
930,750,0.396325,-3.383653,0.999997,0.000196,-0.001780,0.003062,-0.000154,0.003067,-0.001785,-88.181053,0.003080,
720,400,0.455190,-4.134106,0.999998,0.000186,-0.001205,0.002547,-0.000042,0.002548,-0.001205,-89.351845,0.002549,
1660,1350,-0.566036,-1.643179,0.999997,0.000229,-0.001519,0.002803,0.000078,0.002804,-0.001521,88.963409,0.002807,
1060,90,0.018975,-4.930420,0.999999,0.000131,-0.000145,0.001596,0.000113,0.001603,-0.000152,86.313358,0.001770,
1150,1960,0.009723,-0.114547,0.999998,0.000171,-0.000127,0.001563,-0.000052,0.001565,-0.000129,-88.254401,0.001737,
1500,980,-0.648641,-2.674295,0.999998,0.000200,-0.001070,0.003268,-0.000203,0.003278,-0.001079,-87.330971,0.003341,
970,1350,0.292747,-1.469314,0.999998,0.000204,-0.001686,0.002856,0.000429,0.002896,-0.001726,84.646527,0.002914,
1300,1710,-0.034496,-0.539493,0.999999,0.000120,-0.000487,0.001819,-0.000021,0.001819,-0.000487,-89.487407,0.001883,
1100,1980,0.012492,-0.086053,0.999999,0.000128,-0.000080,0.001581,-0.000086,0.001585,-0.000084,-87.032912,0.001784,
1640,250,-0.224080,-4.571125,0.999997,0.000200,-0.000832,0.002312,-0.000224,0.002328,-0.000848,-85.951822,0.002356,
1390,160,-0.037546,-4.814212,0.999999,0.000136,-0.000262,0.001718,-0.000094,0.001722,-0.000266,-87.280252,0.001854,
790,1980,0.065371,-0.103106,0.999998,0.000155,-0.000324,0.001919,-0.000509,0.002029,-0.000434,-77.795635,0.002137,
640,1070,0.986488,-2.421966,0.999998,0.000203,-0.001084,0.002276,-0.000057,0.002277,-0.001085,-89.035281,0.002278,
670,1930,0.211968,-0.249183,0.999998,0.000185,-0.000846,0.002531,-0.000680,0.002663,-0.000978,-79.033696,0.002694,
600,410,0.611341,-4.011520,0.999998,0.000188,-0.001246,0.002525,-0.000038,0.002526,-0.001247,-89.425131,0.002526,
890,40,0.014472,-5.004571,0.999999,0.000114,-0.000118,0.001630,0.000315,0.001685,-0.000173,80.096756,0.001854,
1100,1500,0.092639,-0.956687,0.999999,0.000127,-0.000897,0.001912,0.000403,0.001968,-0.000954,81.990742,0.001969,
830,1940,0.092151,-0.176744,0.999999,0.000142,-0.000355,0.001996,-0.000440,0.002075,-0.000435,-79.738299,0.002189,
1710,1190,-0.790284,-2.108911,0.999998,0.000172,-0.001256,0.002610,0.000269,0.002628,-0.001274,86.038215,0.002629,
1710,850,-0.776498,-2.970659,0.999998,0.000152,-0.001330,0.002637,-0.000274,0.002656,-0.001348,-86.060495,0.002656,
680,70,0.100267,-4.929349,0.999999,0.000132,-0.000432,0.002383,0.000936,0.002666,-0.000714,73.187995,0.002760,
1060,810,0.211600,-3.448283,0.999998,0.000175,-0.001882,0.002874,-0.000874,0.003030,-0.002037,-79.911052,0.003089,
1490,200,-0.090534,-4.726474,0.999999,0.000133,-0.000490,0.001927,-0.000139,0.001935,-0.000498,-86.728689,0.002009,
1710,430,-0.435644,-4.083750,0.999997,0.000191,-0.001227,0.002544,0.000061,0.002545,-0.001228,89.069244,0.002545,
1750,1250,-0.789857,-1.964686,0.999999,0.000154,-0.001319,0.002583,0.000248,0.002599,-0.001335,86.375875,0.002599,
580,1540,0.713996,-1.310178,0.999998,0.000169,-0.001729,0.002714,-0.000022,0.002714,-0.001729,-89.715999,0.002748,
1110,270,0.050773,-4.625113,0.999998,0.000154,-0.000452,0.001795,-0.000009,0.001795,-0.000452,-89.781997,0.001867,
910,640,0.350203,-3.677333,0.999997,0.000199,-0.001530,0.002735,-0.000236,0.002748,-0.001543,-86.845141,0.002755,
970,470,0.205241,-4.156957,0.999998,0.000156,-0.001018,0.002256,-0.000212,0.002270,-0.001032,-86.306813,0.002273,
1590,540,-0.347415,-3.903669,0.999997,0.000179,-0.001299,0.002505,0.000201,0.002516,-0.001309,86.989136,0.002516,
1850,1060,-1.017002,-2.446653,0.999998,0.000157,-0.001040,0.002191,0.000052,0.002192,-0.001041,89.080798,0.002193,
1470,1260,-0.324508,-1.701608,0.999998,0.000180,-0.001957,0.003154,-0.000370,0.003181,-0.001984,-85.882670,0.003213,
1630,1200,-0.670896,-2.052932,0.999998,0.000157,-0.001447,0.002805,0.000332,0.002831,-0.001473,85.566002,0.002832,
1140,780,0.067469,-3.749676,0.999998,0.000180,-0.001089,0.001491,-0.001044,0.001861,-0.001458,-70.514040,0.001958,
680,260,0.382180,-4.456577,0.999997,0.000224,-0.001182,0.002528,0.000137,0.002533,-0.001187,87.883167,0.002534,
1110,1640,0.074806,-0.685339,0.999998,0.000185,-0.000651,0.001876,0.000128,0.001882,-0.000658,87.098029,0.001911,
950,40,0.013436,-5.005809,0.999999,0.000158,-0.000067,0.001607,0.000201,0.001631,-0.000091,83.246169,0.001833,
720,680,0.661707,-3.408121,0.999998,0.000186,-0.001379,0.002662,0.000108,0.002665,-0.001382,88.476512,0.002666,
930,730,0.379389,-3.443145,0.999997,0.000205,-0.001742,0.002960,-0.000179,0.002967,-0.001748,-87.826163,0.002982,
1630,350,-0.288449,-4.338798,0.999998,0.000172,-0.001008,0.002396,-0.000027,0.002396,-0.001008,-89.548898,0.002406,
1170,1960,0.007373,-0.114870,0.999999,0.000159,-0.000095,0.001550,-0.000038,0.001551,-0.000096,-88.685332,0.001739,
1630,70,-0.045993,-4.949267,0.999999,0.000126,-0.000159,0.001860,-0.000461,0.001960,-0.000260,-77.723946,0.002129,
1820,1350,-0.786696,-1.747307,0.999998,0.000155,-0.001271,0.002528,0.000110,0.002531,-0.001274,88.338960,0.002531,
920,1490,0.297834,-1.155091,0.999998,0.000184,-0.001335,0.002566,0.000248,0.002582,-0.001350,86.383610,0.002583,
970,1110,0.599673,-2.245218,0.999997,0.000192,-0.001333,0.003395,-0.000256,0.003409,-0.001346,-86.912084,0.003434,
1110,250,0.049399,-4.659874,0.999999,0.000137,-0.000443,0.001797,-0.000006,0.001797,-0.000443,-89.839874,0.001872,
1370,160,-0.032480,-4.815861,0.999999,0.000131,-0.000227,0.001704,-0.000099,0.001709,-0.000232,-87.062271,0.001854,
720,380,0.439611,-4.186142,0.999998,0.000184,-0.001220,0.002527,-0.000022,0.002528,-0.001220,-89.656444,0.002528,
1550,2010,-0.016463,-0.042775,0.999998,0.000160,-0.000051,0.001623,0.000308,0.001678,-0.000106,79.883514,0.001879,
1680,410,-0.385079,-4.158041,0.999998,0.000172,-0.001172,0.002507,0.000034,0.002507,-0.001172,89.470808,0.002509,
590,1070,1.038282,-2.429189,0.999998,0.000164,-0.000999,0.002133,-0.000028,0.002134,-0.000999,-89.487188,0.002135,
1110,1960,0.014054,-0.115920,0.999999,0.000148,-0.000119,0.001572,-0.000068,0.001575,-0.000122,-87.712821,0.001752,
1100,1480,0.095556,-0.995695,0.999999,0.000126,-0.000933,0.001879,0.000436,0.001945,-0.000999,81.379353,0.001945,
680,180,0.284812,-4.660405,0.999998,0.000176,-0.001049,0.002496,0.000366,0.002533,-0.001086,84.168718,0.002542,
880,40,0.016101,-5.003937,0.999999,0.000135,-0.000126,0.001640,0.000332,0.001700,-0.000186,79.706916,0.001865,
1710,410,-0.420279,-4.136341,0.999998,0.000183,-0.001235,0.002541,0.000059,0.002542,-0.001236,89.111437,0.002542,
1710,830,-0.756527,-3.024561,0.999998,0.000169,-0.001373,0.002682,-0.000291,0.002703,-0.001394,-85.913733,0.002704,
1460,190,-0.073374,-4.750621,0.999998,0.000183,-0.000378,0.001859,-0.000147,0.001868,-0.000388,-86.254075,0.001972,
1710,1700,-0.380796,-0.766342,0.999997,0.000177,-0.001142,0.002503,0.000034,0.002503,-0.001143,89.469322,0.002506,
1710,1170,-0.805637,-2.159158,0.999998,0.000166,-0.001249,0.002613,0.000287,0.002634,-0.001270,85.775764,0.002635,
1750,1230,-0.805595,-2.018531,0.999999,0.000152,-0.001293,0.002590,0.000257,0.002607,-0.001309,86.227979,0.002607,
910,620,0.338591,-3.731375,0.999998,0.000159,-0.001489,0.002680,-0.000246,0.002695,-0.001504,-86.630908,0.002701,
970,450,0.198710,-4.200640,0.999998,0.000166,-0.000976,0.002230,-0.000190,0.002241,-0.000988,-86.619805,0.002246,
1110,230,0.043710,-4.696811,0.999999,0.000139,-0.000413,0.001764,0.000026,0.001764,-0.000414,89.304354,0.001845,
1570,560,-0.332515,-3.872104,0.999997,0.000191,-0.001344,0.002563,0.000191,0.002572,-0.001354,87.202922,0.002573,
1630,1340,-0.528787,-1.649245,0.999997,0.000218,-0.001574,0.002842,0.000068,0.002843,-0.001575,89.117564,0.002849,
650,1000,0.977483,-2.583495,0.999998,0.000183,-0.001077,0.002308,0.000075,0.002310,-0.001079,88.723522,0.002312,
680,240,0.361613,-4.507924,0.999997,0.000211,-0.001172,0.002531,0.000170,0.002539,-0.001180,87.375687,0.002541,
930,450,0.237705,-4.172538,0.999999,0.000160,-0.001118,0.002345,-0.000179,0.002354,-0.001127,-87.045367,0.002355,
1850,1040,-1.021418,-2.491470,0.999998,0.000167,-0.001046,0.002243,0.000053,0.002244,-0.001047,89.079521,0.002246,
720,660,0.645067,-3.461483,0.999997,0.000196,-0.001355,0.002644,0.000058,0.002644,-0.001356,89.167405,0.002645,
1450,1640,-0.148067,-0.732918,0.999998,0.000196,-0.000819,0.002118,-0.000146,0.002125,-0.000826,-87.163331,0.002143,
1200,40,0.001672,-5.009282,0.999999,0.000095,-0.000026,0.001507,0.000014,0.001507,-0.000026,89.489018,0.001725,
970,1070,0.646122,-2.378129,0.999998,0.000214,-0.001084,0.003346,-0.000172,0.003352,-0.001091,-87.781302,0.003420,
1630,330,-0.274619,-4.388717,0.999998,0.000180,-0.000980,0.002402,-0.000041,0.002403,-0.000980,-89.305390,0.002416,
1620,1980,-0.050133,-0.098501,0.999998,0.000146,-0.000214,0.001849,0.000452,0.001944,-0.000309,78.168283,0.002090,
1640,1330,-0.552384,-1.684633,0.999998,0.000180,-0.001560,0.002837,0.000098,0.002839,-0.001562,88.723656,0.002844,
1280,1710,-0.025906,-0.538241,0.999999,0.000130,-0.000498,0.001790,-0.000021,0.001791,-0.000498,-89.478464,0.001848,
1090,160,0.032919,-4.815501,0.999999,0.000128,-0.000231,0.001708,0.000104,0.001713,-0.000237,86.926269,0.001857,
1630,140,-0.116720,-4.814089,0.999998,0.000167,-0.000444,0.002054,-0.000401,0.002116,-0.000507,-81.093801,0.002210,
1490,1960,-0.036091,-0.123545,0.999999,0.000180,-0.000225,0.001716,0.000217,0.001740,-0.000249,83.711731,0.001882,
1710,390,-0.407295,-4.186265,0.999998,0.000165,-0.001212,0.002507,0.000042,0.002508,-0.001212,89.346078,0.002508,
1340,2000,-0.005674,-0.054328,0.999999,0.000145,-0.000071,0.001537,0.000059,0.001539,-0.000073,87.898691,0.001737,
1100,1460,0.094203,-1.034536,0.999998,0.000136,-0.000935,0.001915,0.000473,0.001991,-0.001011,80.825272,0.001991,
830,40,0.020332,-5.003840,0.999999,0.000141,-0.000060,0.001779,0.000438,0.001878,-0.000159,77.273241,0.002083,
1710,810,-0.738495,-3.077417,0.999998,0.000179,-0.001389,0.002650,-0.000266,0.002667,-0.001407,-86.245061,0.002668,
570,1540,0.733933,-1.316131,0.999878,0.001405,-0.001930,0.002864,-0.000030,0.002864,-0.001930,-89.644452,0.002921,
580,1070,1.049058,-2.430205,0.999998,0.000153,-0.000953,0.002098,-0.000013,0.002098,-0.000953,-89.758319,0.002101,
1510,300,-0.154144,-4.517547,0.999998,0.000181,-0.000778,0.002063,-0.000023,0.002063,-0.000778,-89.539888,0.002084,
970,430,0.192936,-4.245753,0.999998,0.000168,-0.000959,0.002215,-0.000182,0.002225,-0.000969,-86.722685,0.002231,
1680,430,-0.398318,-4.107752,0.999998,0.000157,-0.001213,0.002503,0.000048,0.002504,-0.001214,89.264318,0.002504,
1710,1150,-0.823249,-2.211871,0.999998,0.000171,-0.001210,0.002564,0.000281,0.002585,-0.001231,85.764024,0.002586,
1750,1210,-0.822800,-2.069768,0.999999,0.000142,-0.001264,0.002518,0.000264,0.002536,-0.001282,86.022983,0.002536,
1110,210,0.040717,-4.730892,0.999998,0.000143,-0.000367,0.001732,0.000047,0.001733,-0.000368,88.706593,0.001826,
1710,680,-0.617352,-3.429559,0.999997,0.000212,-0.001428,0.002725,-0.000081,0.002727,-0.001429,-88.876731,0.002728,
990,50,0.012824,-4.991172,0.999999,0.000140,-0.000048,0.001622,0.000209,0.001648,-0.000073,82.977796,0.001862,
1430,740,-0.206135,-3.580150,0.999997,0.000221,-0.001714,0.002726,0.000747,0.002848,-0.001836,80.706099,0.002888,
1470,1640,-0.165897,-0.746280,0.999998,0.000156,-0.000906,0.002179,-0.000161,0.002187,-0.000914,-87.015761,0.002197,
680,220,0.337578,-4.557810,0.999998,0.000190,-0.001136,0.002517,0.000244,0.002533,-0.001153,86.190829,0.002537,
1630,310,-0.262003,-4.437563,0.999998,0.000168,-0.000944,0.002303,-0.000066,0.002304,-0.000946,-88.844317,0.002316,
970,1050,0.661637,-2.446523,0.999998,0.000211,-0.001021,0.003394,-0.000094,0.003396,-0.001023,-88.778862,0.003485,
1620,1960,-0.070800,-0.135634,0.999999,0.000146,-0.000287,0.001888,0.000409,0.001962,-0.000361,79.690377,0.002089,
850,1160,0.692797,-2.161124,0.999998,0.000187,-0.001323,0.002826,-0.000344,0.002854,-0.001351,-85.291877,0.002856,
930,710,0.363865,-3.501373,0.999997,0.000208,-0.001701,0.002910,-0.000216,0.002920,-0.001711,-87.326787,0.002935,
720,640,0.628133,-3.513332,0.999997,0.000194,-0.001364,0.002639,0.000053,0.002640,-0.001365,89.244474,0.002641,
1210,160,0.005711,-4.822909,0.999999,0.000147,-0.000241,0.001643,0.000015,0.001643,-0.000241,89.553626,0.001775,
1630,180,-0.155764,-4.729408,0.999998,0.000166,-0.000587,0.002129,-0.000345,0.002172,-0.000630,-82.863205,0.002235,
950,1860,0.100257,-0.311521,0.999998,0.000181,-0.000518,0.001941,-0.000175,0.001953,-0.000530,-85.938797,0.002020,
1710,370,-0.392638,-4.235814,0.999998,0.000170,-0.001168,0.002468,-0.000011,0.002468,-0.001168,-89.820732,0.002469,
1330,2000,-0.004963,-0.054093,0.999999,0.000138,-0.000077,0.001532,0.000058,0.001534,-0.000079,87.932934,0.001728,
1100,1660,0.079066,-0.650773,0.999998,0.000157,-0.000632,0.001886,0.000117,0.001892,-0.000638,87.354049,0.001925,
820,40,0.020206,-5.004048,0.999999,0.000150,-0.000108,0.001777,0.000442,0.001875,-0.000206,77.435257,0.002056,
920,170,0.099179,-4.771431,0.999999,0.000130,-0.000439,0.001951,0.000235,0.001974,-0.000462,84.448207,0.002065,
970,1500,0.229912,-1.081568,0.999998,0.000147,-0.001232,0.002389,0.000355,0.002424,-0.001266,84.459800,0.002425,
970,410,0.184445,-4.288781,0.999998,0.000169,-0.000944,0.002192,-0.000149,0.002199,-0.000951,-87.282717,0.002205,
570,1070,1.059068,-2.431219,0.999995,0.000265,-0.000922,0.002071,-0.000005,0.002071,-0.000922,-89.911939,0.002076,
1630,80,-0.058083,-4.930271,0.999999,0.000130,-0.000211,0.001883,-0.000457,0.001978,-0.000307,-78.204800,0.002130,
1170,1640,0.035815,-0.666182,0.999998,0.000148,-0.000614,0.001810,0.000058,0.001812,-0.000615,88.624188,0.001843,
1710,560,-0.522824,-3.751050,0.999997,0.000214,-0.001352,0.002625,0.000052,0.002626,-0.001352,89.256602,0.002626,
1620,1940,-0.088109,-0.174689,0.999999,0.000139,-0.000381,0.001989,0.000407,0.002057,-0.000448,80.531445,0.002163,
990,40,0.008552,-5.007434,0.999999,0.000122,-0.000039,0.001620,0.000211,0.001646,-0.000065,82.853652,0.001864,
970,1030,0.665049,-2.513035,0.999998,0.000196,-0.000996,0.003266,-0.000018,0.003266,-0.000996,-89.759177,0.003347,
680,440,0.534006,-4.002247,0.999998,0.000183,-0.001217,0.002517,-0.000048,0.002518,-0.001218,-89.257548,0.002518,
1710,1130,-0.836382,-2.263412,0.999998,0.000165,-0.001149,0.002489,0.000215,0.002501,-0.001161,86.631256,0.002503,
1630,290,-0.248529,-4.481299,0.999998,0.000170,-0.000914,0.002346,-0.000125,0.002350,-0.000919,-87.809329,0.002369,
1290,160,-0.013499,-4.820433,0.999999,0.000124,-0.000195,0.001620,-0.000034,0.001621,-0.000196,-88.922902,0.001770,
990,1960,0.032712,-0.122635,0.999999,0.000143,-0.000165,0.001718,-0.000198,0.001738,-0.000186,-84.072150,0.001909,
1810,1360,-0.765603,-1.714907,0.999998,0.000149,-0.001272,0.002547,0.000104,0.002550,-0.001274,88.439529,0.002550,
1630,160,-0.136522,-4.771458,0.999999,0.000134,-0.000524,0.002122,-0.000401,0.002181,-0.000583,-81.566914,0.002258,
720,620,0.613627,-3.567820,0.999997,0.000189,-0.001366,0.002623,0.000030,0.002623,-0.001366,89.571960,0.002624,
980,2010,0.011232,-0.040590,0.999999,0.000118,-0.000051,0.001560,-0.000181,0.001580,-0.000071,-83.669148,0.001785,
930,670,0.335988,-3.617932,0.999997,0.000194,-0.001580,0.002814,-0.000282,0.002832,-0.001598,-86.345321,0.002840,
1630,460,-0.355362,-4.072417,0.999998,0.000179,-0.001205,0.002473,0.000095,0.002475,-0.001207,88.527418,0.002475,
1710,350,-0.377010,-4.284281,0.999997,0.000169,-0.001127,0.002470,-0.000044,0.002470,-0.001128,-89.297157,0.002473,
1040,1300,0.200050,-1.486370,0.999998,0.000193,-0.001705,0.002735,0.000768,0.002864,-0.001835,80.457716,0.002901,
930,40,0.012372,-5.004865,0.999999,0.000106,0.000021,0.001611,0.000248,0.001649,-0.000017,81.345554,0.001894,
1710,1110,-0.846961,-2.313079,0.999998,0.000161,-0.001114,0.002553,0.000229,0.002568,-0.001128,86.433863,0.002574,
1830,1360,-0.790210,-1.730070,0.999998,0.000161,-0.001273,0.002536,0.000093,0.002538,-0.001276,88.599227,0.002538,
970,390,0.176754,-4.334058,0.999998,0.000171,-0.000925,0.002184,-0.000135,0.002190,-0.000931,-87.515229,0.002198,
850,1100,0.746854,-2.326775,0.999998,0.000151,-0.001094,0.002714,-0.000269,0.002733,-0.001113,-85.983093,0.002748,
1620,1920,-0.108336,-0.214442,0.999998,0.000156,-0.000425,0.002005,0.000363,0.002059,-0.000478,81.677980,0.002155,
1270,160,-0.009567,-4.822056,0.999999,0.000128,-0.000232,0.001640,-0.000016,0.001640,-0.000232,-89.511138,0.001774,
1750,1960,-0.123139,-0.156344,0.999998,0.000147,-0.000747,0.002144,0.000561,0.002249,-0.000851,79.399714,0.002271,
1660,1670,-0.345201,-0.804120,0.999998,0.000169,-0.001187,0.002469,-0.000037,0.002469,-0.001187,-89.426677,0.002470,
1650,560,-0.442109,-3.800980,0.999998,0.000189,-0.001367,0.002657,0.000119,0.002660,-0.001371,88.306015,0.002661,
680,200,0.312274,-4.609301,0.999998,0.000182,-0.001113,0.002557,0.000306,0.002582,-0.001138,85.269894,0.002588,
720,840,0.810826,-2.985703,0.999998,0.000152,-0.001245,0.002581,0.000278,0.002601,-0.001265,85.859719,0.002602,
820,1930,0.105770,-0.196853,0.999999,0.000146,-0.000426,0.002036,-0.000441,0.002112,-0.000502,-80.143681,0.002207,
970,1010,0.663080,-2.577447,0.999998,0.000186,-0.001038,0.003342,0.000050,0.003342,-0.001039,89.345474,0.003421,
780,90,0.085954,-4.906775,0.999999,0.000122,-0.000392,0.001985,0.000530,0.002098,-0.000505,77.992420,0.002190,
930,650,0.326080,-3.671861,0.999998,0.000169,-0.001523,0.002718,-0.000297,0.002739,-0.001544,-86.013594,0.002746,
1630,270,-0.233076,-4.527998,0.999998,0.000170,-0.000859,0.002293,-0.000169,0.002302,-0.000868,-86.945248,0.002325,
1300,40,-0.002775,-5.008510,0.999998,0.000139,-0.000042,0.001481,-0.000043,0.001482,-0.000043,-88.385518,0.001687,
1710,330,-0.361249,-4.334964,0.999997,0.000187,-0.001090,0.002496,-0.000045,0.002497,-0.001091,-89.277831,0.002503,
1440,1170,-0.403538,-1.940902,0.999998,0.000191,-0.001792,0.003493,-0.000351,0.003516,-0.001816,-86.217948,0.003516,
1470,200,-0.081346,-4.729827,0.999999,0.000169,-0.000393,0.001897,-0.000146,0.001907,-0.000402,-86.355596,0.002010,
970,810,0.386333,-3.249465,0.999998,0.000185,-0.001937,0.003252,-0.000177,0.003258,-0.001944,-88.043218,0.003278,
1630,250,-0.217272,-4.574607,0.999998,0.000177,-0.000814,0.002283,-0.000224,0.002299,-0.000830,-85.888443,0.002328,
1700,250,-0.283360,-4.538590,0.999998,0.000177,-0.001015,0.002428,-0.000211,0.002440,-0.001028,-86.500335,0.002451,
1710,1090,-0.860739,-2.365365,0.999998,0.000173,-0.001105,0.002534,0.000174,0.002543,-0.001113,87.270010,0.002549,
680,160,0.256793,-4.707874,0.999998,0.000159,-0.001012,0.002544,0.000444,0.002598,-0.001066,82.989737,0.002612,
1840,1710,-0.531423,-0.846554,0.999999,0.000151,-0.001208,0.002497,-0.000023,0.002497,-0.001208,-89.638565,0.002498,
1770,1940,-0.172616,-0.212172,0.999998,0.000143,-0.000867,0.002416,0.000618,0.002528,-0.000980,79.676541,0.002550,
720,600,0.596399,-3.619356,0.999998,0.000187,-0.001386,0.002633,0.000016,0.002633,-0.001386,89.776470,0.002634,
760,1750,0.335010,-0.638616,0.999998,0.000178,-0.001068,0.002466,-0.000101,0.002468,-0.001071,-88.360146,0.002476,
800,90,0.076960,-4.908895,0.999999,0.000137,-0.000420,0.001952,0.000485,0.002047,-0.000516,78.886978,0.002130,
1710,310,-0.348208,-4.385144,0.999997,0.000193,-0.001065,0.002501,-0.000083,0.002503,-0.001067,-88.664489,0.002512,
930,630,0.313211,-3.724534,0.999998,0.000168,-0.001484,0.002679,-0.000298,0.002701,-0.001505,-85.928217,0.002706,
1530,40,-0.014567,-5.004991,0.999999,0.000148,-0.000022,0.001631,-0.000254,0.001669,-0.000060,-81.451315,0.001893,
1490,1280,-0.343448,-1.675723,0.999996,0.000219,-0.001887,0.003105,-0.000308,0.003124,-0.001906,-86.485826,0.003149,
1630,230,-0.198630,-4.619819,0.999998,0.000166,-0.000737,0.002245,-0.000241,0.002264,-0.000756,-85.412197,0.002306,
1630,440,-0.343977,-4.120952,0.999998,0.000174,-0.001192,0.002477,0.000096,0.002480,-0.001194,88.497591,0.002480,
1010,160,0.056294,-4.805119,0.999998,0.000153,-0.000304,0.001793,0.000152,0.001804,-0.000315,85.869190,0.001928,
680,140,0.225995,-4.761369,0.999998,0.000159,-0.000934,0.002495,0.000530,0.002575,-0.001014,81.413713,0.002595,
1840,1690,-0.546745,-0.895571,0.999998,0.000181,-0.001211,0.002513,-0.000012,0.002513,-0.001211,-89.812163,0.002513,
780,510,0.453216,-3.903162,0.999998,0.000162,-0.001293,0.002563,-0.000075,0.002565,-0.001295,-88.884838,0.002565,
970,830,0.413521,-3.183076,0.999998,0.000182,-0.001920,0.003337,-0.000078,0.003338,-0.001921,-89.152243,0.003351,
1710,1070,-0.864781,-2.413776,0.999998,0.000164,-0.001077,0.002490,0.000096,0.002493,-0.001080,88.463396,0.002500,
1710,290,-0.329964,-4.433175,0.999997,0.000178,-0.001051,0.002452,-0.000141,0.002457,-0.001057,-87.697609,0.002465,
1770,1960,-0.138338,-0.164813,0.999998,0.000147,-0.000728,0.002219,0.000657,0.002359,-0.000868,77.982572,0.002387,
1630,120,-0.096586,-4.853893,0.999999,0.000139,-0.000372,0.001994,-0.000427,0.002069,-0.000447,-80.083386,0.002177,
760,1730,0.350275,-0.688281,0.999998,0.000171,-0.001101,0.002483,-0.000060,0.002484,-0.001102,-89.041015,0.002489,
720,560,0.567722,-3.725080,0.999997,0.000178,-0.001352,0.002601,-0.000031,0.002602,-0.001352,-89.555459,0.002602,
1520,40,-0.013009,-5.005072,0.999999,0.000127,-0.000070,0.001614,-0.000229,0.001645,-0.000100,-82.394145,0.001844,
1470,1280,-0.304510,-1.640017,0.999997,0.000202,-0.001914,0.003074,-0.000422,0.003109,-0.001949,-85.197375,0.003143,
1630,210,-0.183201,-4.664073,0.999998,0.000162,-0.000689,0.002192,-0.000273,0.002218,-0.000714,-84.635659,0.002264,
1430,160,-0.050744,-4.808103,0.999998,0.000171,-0.000292,0.001769,-0.000155,0.001781,-0.000304,-85.730378,0.001905,
1700,1710,-0.362201,-0.735682,0.999998,0.000179,-0.001076,0.002484,0.000042,0.002484,-0.001077,89.318357,0.002492,
970,850,0.443527,-3.116485,0.999998,0.000196,-0.001890,0.003367,0.000019,0.003367,-0.001890,89.794961,0.003376,
1710,1050,-0.868647,-2.464264,0.999998,0.000147,-0.001066,0.002463,0.000104,0.002466,-0.001069,88.316603,0.002474,
1660,330,-0.306636,-4.370306,0.999998,0.000168,-0.001118,0.002421,-0.000030,0.002421,-0.001118,-89.517841,0.002424,
760,1890,0.191846,-0.301667,0.999998,0.000141,-0.000729,0.002328,-0.000471,0.002399,-0.000800,-81.428666,0.002443,
800,40,0.022951,-5.002208,0.999999,0.000143,-0.000197,0.001750,0.000466,0.001856,-0.000302,77.218405,0.001992,
1630,430,-0.338753,-4.146091,0.999998,0.000169,-0.001172,0.002468,0.000089,0.002471,-0.001174,88.607736,0.002472,
1510,40,-0.011903,-5.005317,0.999999,0.000128,-0.000116,0.001598,-0.000208,0.001623,-0.000141,-83.169309,0.001798,
1410,160,-0.043888,-4.810822,0.999998,0.000228,-0.000352,0.001728,-0.000111,0.001734,-0.000358,-86.953147,0.001831,
970,870,0.475483,-3.048426,0.999998,0.000191,-0.001828,0.003363,0.000092,0.003365,-0.001830,88.986982,0.003369,
610,1540,0.676540,-1.286554,0.999998,0.000164,-0.001281,0.002541,0.000016,0.002541,-0.001281,89.761970,0.002541,
1710,1030,-0.873543,-2.514019,0.999998,0.000164,-0.001044,0.002472,0.000018,0.002472,-0.001044,89.711824,0.002482,
750,120,0.138247,-4.837342,0.999999,0.000135,-0.000476,0.002256,0.000603,0.002384,-0.000603,78.085335,0.002479,
1720,2010,-0.038284,-0.050201,0.999999,0.000133,-0.000056,0.001954,0.000684,0.002165,-0.000267,72.881019,0.002361,
1630,190,-0.164684,-4.707598,0.999998,0.000179,-0.000616,0.002154,-0.000322,0.002191,-0.000653,-83.449152,0.002250,
1570,50,-0.021199,-4.989249,0.999999,0.000132,-0.000149,0.001661,-0.000327,0.001718,-0.000206,-80.078678,0.001876,
1710,1250,-0.734160,-1.949173,0.999998,0.000175,-0.001369,0.002668,0.000249,0.002683,-0.001384,86.483473,0.002684,
1740,1970,-0.101281,-0.131873,0.999999,0.000131,-0.000577,0.002076,0.000590,0.002201,-0.000702,78.019441,0.002249,
1710,1010,-0.869932,-2.563192,0.999998,0.000164,-0.001055,0.002480,-0.000053,0.002481,-0.001056,-89.137354,0.002490,
850,2010,0.023410,-0.045519,0.999999,0.000136,-0.000092,0.001660,-0.000412,0.001752,-0.000184,-77.398541,0.001926,
